    1C
    1UUSER                                                              
    1UDATE              27.october.2022                                 
    1UTIME              00:18:34                                        
    1UHOST                                                              
    1UPGM               CalculiX                                        
    1UVERSION           Version 2.17                             
    1UCOMPILETIME       Thu Jul 23 21:43:50 CEST 2020                    
    1UDIR                                                               
    1UDBN                                                               
    1UMAT    1SOLIDMATERIAL                                             
    2C                          4317                                     1
 -1         1 4.36016E+01 3.23211E+01 0.00000E+00
 -1         2 4.87671E+01 2.55657E+01 0.00000E+00
 -1         3 1.50000E+02 0.00000E+00 0.00000E+00
 -1         4 1.50000E+02 5.00000E+01 0.00000E+00
 -1         5 0.00000E+00 0.00000E+00 0.00000E+00
 -1         6 0.00000E+00 5.00000E+01 0.00000E+00
 -1         7 0.00000E+00 4.70500E+01 0.00000E+00
 -1         8 0.00000E+00 4.41000E+01 0.00000E+00
 -1         9 0.00000E+00 4.11500E+01 0.00000E+00
 -1        10 0.00000E+00 3.82000E+01 0.00000E+00
 -1        11 0.00000E+00 3.52500E+01 0.00000E+00
 -1        12 0.00000E+00 3.23500E+01 0.00000E+00
 -1        13 0.00000E+00 2.94000E+01 0.00000E+00
 -1        14 0.00000E+00 2.64500E+01 0.00000E+00
 -1        15 0.00000E+00 2.35000E+01 0.00000E+00
 -1        16 0.00000E+00 2.05500E+01 0.00000E+00
 -1        17 0.00000E+00 1.76000E+01 0.00000E+00
 -1        18 0.00000E+00 1.47000E+01 0.00000E+00
 -1        19 0.00000E+00 1.17500E+01 0.00000E+00
 -1        20 0.00000E+00 8.80000E+00 0.00000E+00
 -1        21 0.00000E+00 5.85000E+00 0.00000E+00
 -1        22 0.00000E+00 2.90000E+00 0.00000E+00
 -1        23 3.15000E+00 5.00000E+01 0.00000E+00
 -1        24 6.15000E+00 5.00000E+01 0.00000E+00
 -1        25 9.15000E+00 5.00000E+01 0.00000E+00
 -1        26 1.21500E+01 5.00000E+01 0.00000E+00
 -1        27 1.51500E+01 5.00000E+01 0.00000E+00
 -1        28 1.81500E+01 5.00000E+01 0.00000E+00
 -1        29 2.11500E+01 5.00000E+01 0.00000E+00
 -1        30 2.41500E+01 5.00000E+01 0.00000E+00
 -1        31 2.71500E+01 5.00000E+01 0.00000E+00
 -1        32 3.01500E+01 5.00000E+01 0.00000E+00
 -1        33 3.31500E+01 5.00000E+01 0.00000E+00
 -1        34 3.61500E+01 5.00000E+01 0.00000E+00
 -1        35 3.91500E+01 5.00000E+01 0.00000E+00
 -1        36 4.21500E+01 5.00000E+01 0.00000E+00
 -1        37 4.51500E+01 5.00000E+01 0.00000E+00
 -1        38 4.81500E+01 5.00000E+01 0.00000E+00
 -1        39 5.11500E+01 5.00000E+01 0.00000E+00
 -1        40 5.41500E+01 5.00000E+01 0.00000E+00
 -1        41 5.71500E+01 5.00000E+01 0.00000E+00
 -1        42 6.01500E+01 5.00000E+01 0.00000E+00
 -1        43 6.31500E+01 5.00000E+01 0.00000E+00
 -1        44 6.61500E+01 5.00000E+01 0.00000E+00
 -1        45 6.91500E+01 5.00000E+01 0.00000E+00
 -1        46 7.21500E+01 5.00000E+01 0.00000E+00
 -1        47 7.51500E+01 5.00000E+01 0.00000E+00
 -1        48 7.81500E+01 5.00000E+01 0.00000E+00
 -1        49 8.11500E+01 5.00000E+01 0.00000E+00
 -1        50 8.41500E+01 5.00000E+01 0.00000E+00
 -1        51 8.71500E+01 5.00000E+01 0.00000E+00
 -1        52 9.01500E+01 5.00000E+01 0.00000E+00
 -1        53 9.31500E+01 5.00000E+01 0.00000E+00
 -1        54 9.61500E+01 5.00000E+01 0.00000E+00
 -1        55 9.91500E+01 5.00000E+01 0.00000E+00
 -1        56 1.02150E+02 5.00000E+01 0.00000E+00
 -1        57 1.05150E+02 5.00000E+01 0.00000E+00
 -1        58 1.08150E+02 5.00000E+01 0.00000E+00
 -1        59 1.11150E+02 5.00000E+01 0.00000E+00
 -1        60 1.14150E+02 5.00000E+01 0.00000E+00
 -1        61 1.17150E+02 5.00000E+01 0.00000E+00
 -1        62 1.20150E+02 5.00000E+01 0.00000E+00
 -1        63 1.23150E+02 5.00000E+01 0.00000E+00
 -1        64 1.26150E+02 5.00000E+01 0.00000E+00
 -1        65 1.29150E+02 5.00000E+01 0.00000E+00
 -1        66 1.32150E+02 5.00000E+01 0.00000E+00
 -1        67 1.35150E+02 5.00000E+01 0.00000E+00
 -1        68 1.38150E+02 5.00000E+01 0.00000E+00
 -1        69 1.41150E+02 5.00000E+01 0.00000E+00
 -1        70 1.44150E+02 5.00000E+01 0.00000E+00
 -1        71 1.47150E+02 5.00000E+01 0.00000E+00
 -1        72 3.15000E+00 0.00000E+00 0.00000E+00
 -1        73 6.15000E+00 0.00000E+00 0.00000E+00
 -1        74 9.15000E+00 0.00000E+00 0.00000E+00
 -1        75 1.21500E+01 0.00000E+00 0.00000E+00
 -1        76 1.51500E+01 0.00000E+00 0.00000E+00
 -1        77 1.81500E+01 0.00000E+00 0.00000E+00
 -1        78 2.11500E+01 0.00000E+00 0.00000E+00
 -1        79 2.41500E+01 0.00000E+00 0.00000E+00
 -1        80 2.71500E+01 0.00000E+00 0.00000E+00
 -1        81 3.01500E+01 0.00000E+00 0.00000E+00
 -1        82 3.31500E+01 0.00000E+00 0.00000E+00
 -1        83 3.61500E+01 0.00000E+00 0.00000E+00
 -1        84 3.91500E+01 0.00000E+00 0.00000E+00
 -1        85 4.21500E+01 0.00000E+00 0.00000E+00
 -1        86 4.51500E+01 0.00000E+00 0.00000E+00
 -1        87 4.81500E+01 0.00000E+00 0.00000E+00
 -1        88 5.11500E+01 0.00000E+00 0.00000E+00
 -1        89 5.41500E+01 0.00000E+00 0.00000E+00
 -1        90 5.71500E+01 0.00000E+00 0.00000E+00
 -1        91 6.01500E+01 0.00000E+00 0.00000E+00
 -1        92 6.31500E+01 0.00000E+00 0.00000E+00
 -1        93 6.61500E+01 0.00000E+00 0.00000E+00
 -1        94 6.91500E+01 0.00000E+00 0.00000E+00
 -1        95 7.21500E+01 0.00000E+00 0.00000E+00
 -1        96 7.51500E+01 0.00000E+00 0.00000E+00
 -1        97 7.81500E+01 0.00000E+00 0.00000E+00
 -1        98 8.11500E+01 0.00000E+00 0.00000E+00
 -1        99 8.41500E+01 0.00000E+00 0.00000E+00
 -1       100 8.71500E+01 0.00000E+00 0.00000E+00
 -1       101 9.01500E+01 0.00000E+00 0.00000E+00
 -1       102 9.31500E+01 0.00000E+00 0.00000E+00
 -1       103 9.61500E+01 0.00000E+00 0.00000E+00
 -1       104 9.91500E+01 0.00000E+00 0.00000E+00
 -1       105 1.02150E+02 0.00000E+00 0.00000E+00
 -1       106 1.05150E+02 0.00000E+00 0.00000E+00
 -1       107 1.08150E+02 0.00000E+00 0.00000E+00
 -1       108 1.11150E+02 0.00000E+00 0.00000E+00
 -1       109 1.14150E+02 0.00000E+00 0.00000E+00
 -1       110 1.17150E+02 0.00000E+00 0.00000E+00
 -1       111 1.20150E+02 0.00000E+00 0.00000E+00
 -1       112 1.23150E+02 0.00000E+00 0.00000E+00
 -1       113 1.26150E+02 0.00000E+00 0.00000E+00
 -1       114 1.29150E+02 0.00000E+00 0.00000E+00
 -1       115 1.32150E+02 0.00000E+00 0.00000E+00
 -1       116 1.35150E+02 0.00000E+00 0.00000E+00
 -1       117 1.38150E+02 0.00000E+00 0.00000E+00
 -1       118 1.41150E+02 0.00000E+00 0.00000E+00
 -1       119 1.44150E+02 0.00000E+00 0.00000E+00
 -1       120 1.47150E+02 0.00000E+00 0.00000E+00
 -1       121 1.50000E+02 2.95000E+00 0.00000E+00
 -1       122 1.50000E+02 5.90000E+00 0.00000E+00
 -1       123 1.50000E+02 8.85000E+00 0.00000E+00
 -1       124 1.50000E+02 1.18000E+01 0.00000E+00
 -1       125 1.50000E+02 1.47500E+01 0.00000E+00
 -1       126 1.50000E+02 1.76500E+01 0.00000E+00
 -1       127 1.50000E+02 2.06000E+01 0.00000E+00
 -1       128 1.50000E+02 2.35500E+01 0.00000E+00
 -1       129 1.50000E+02 2.65000E+01 0.00000E+00
 -1       130 1.50000E+02 2.94500E+01 0.00000E+00
 -1       131 1.50000E+02 3.24000E+01 0.00000E+00
 -1       132 1.50000E+02 3.53000E+01 0.00000E+00
 -1       133 1.50000E+02 3.82500E+01 0.00000E+00
 -1       134 1.50000E+02 4.12000E+01 0.00000E+00
 -1       135 1.50000E+02 4.41500E+01 0.00000E+00
 -1       136 1.50000E+02 4.71000E+01 0.00000E+00
 -1       137 4.85955E+01 2.40254E+01 0.00000E+00
 -1       138 4.80860E+01 2.25541E+01 0.00000E+00
 -1       139 4.73381E+01 2.13274E+01 0.00000E+00
 -1       140 4.62861E+01 2.02199E+01 0.00000E+00
 -1       141 4.50790E+01 1.93988E+01 0.00000E+00
 -1       142 4.37413E+01 1.88499E+01 0.00000E+00
 -1       143 4.21185E+01 1.85746E+01 0.00000E+00
 -1       144 4.06617E+01 1.86536E+01 0.00000E+00
 -1       145 3.90741E+01 1.91045E+01 0.00000E+00
 -1       146 3.77530E+01 1.98310E+01 0.00000E+00
 -1       147 3.65971E+01 2.08465E+01 0.00000E+00
 -1       148 3.56933E+01 2.20859E+01 0.00000E+00
 -1       149 3.51046E+01 2.34183E+01 0.00000E+00
 -1       150 3.47971E+01 2.49178E+01 0.00000E+00
 -1       151 3.48105E+01 2.63443E+01 0.00000E+00
 -1       152 3.51274E+01 2.77828E+01 0.00000E+00
 -1       153 3.57155E+01 2.90841E+01 0.00000E+00
 -1       154 3.66522E+01 3.03447E+01 0.00000E+00
 -1       155 3.77950E+01 3.13297E+01 0.00000E+00
 -1       156 3.90885E+01 3.20330E+01 0.00000E+00
 -1       157 4.06371E+01 3.24739E+01 0.00000E+00
 -1       158 4.20936E+01 3.25581E+01 0.00000E+00
 -1       159 4.49932E+01 3.17780E+01 0.00000E+00
 -1       160 4.62305E+01 3.09581E+01 0.00000E+00
 -1       161 4.73111E+01 2.98393E+01 0.00000E+00
 -1       162 4.81207E+01 2.85037E+01 0.00000E+00
 -1       163 4.86046E+01 2.70650E+01 0.00000E+00
 -1       164 2.59800E+00 4.55750E+01 0.00000E+00
 -1       165 2.59800E+00 4.26250E+01 0.00000E+00
 -1       166 2.59800E+00 3.96750E+01 0.00000E+00
 -1       167 2.59800E+00 3.67250E+01 0.00000E+00
 -1       168 2.59800E+00 3.38250E+01 0.00000E+00
 -1       169 2.59800E+00 3.08750E+01 0.00000E+00
 -1       170 2.59800E+00 2.79250E+01 0.00000E+00
 -1       171 2.59800E+00 2.49750E+01 0.00000E+00
 -1       172 2.59800E+00 2.20250E+01 0.00000E+00
 -1       173 2.59800E+00 1.90750E+01 0.00000E+00
 -1       174 2.59800E+00 1.61750E+01 0.00000E+00
 -1       175 2.59800E+00 1.32250E+01 0.00000E+00
 -1       176 2.59800E+00 1.02750E+01 0.00000E+00
 -1       177 2.59800E+00 7.32500E+00 0.00000E+00
 -1       178 2.59800E+00 4.37500E+00 0.00000E+00
 -1       179 2.87400E+00 2.18750E+00 0.00000E+00
 -1       180 4.65000E+00 4.74020E+01 0.00000E+00
 -1       181 7.65000E+00 4.74020E+01 0.00000E+00
 -1       182 1.06500E+01 4.74020E+01 0.00000E+00
 -1       183 1.36500E+01 4.74020E+01 0.00000E+00
 -1       184 1.66500E+01 4.74020E+01 0.00000E+00
 -1       185 1.96500E+01 4.74020E+01 0.00000E+00
 -1       186 2.26500E+01 4.74020E+01 0.00000E+00
 -1       187 2.56500E+01 4.74020E+01 0.00000E+00
 -1       188 2.86500E+01 4.74020E+01 0.00000E+00
 -1       189 3.16500E+01 4.74020E+01 0.00000E+00
 -1       190 3.46500E+01 4.74020E+01 0.00000E+00
 -1       191 3.76500E+01 4.74020E+01 0.00000E+00
 -1       192 4.06500E+01 4.74020E+01 0.00000E+00
 -1       193 4.36500E+01 4.74020E+01 0.00000E+00
 -1       194 4.66500E+01 4.74020E+01 0.00000E+00
 -1       195 4.96500E+01 4.74020E+01 0.00000E+00
 -1       196 5.26500E+01 4.74020E+01 0.00000E+00
 -1       197 5.56500E+01 4.74020E+01 0.00000E+00
 -1       198 5.86500E+01 4.74020E+01 0.00000E+00
 -1       199 6.16500E+01 4.74020E+01 0.00000E+00
 -1       200 6.46500E+01 4.74020E+01 0.00000E+00
 -1       201 6.76500E+01 4.74020E+01 0.00000E+00
 -1       202 7.06500E+01 4.74020E+01 0.00000E+00
 -1       203 7.36500E+01 4.74020E+01 0.00000E+00
 -1       204 7.66500E+01 4.74020E+01 0.00000E+00
 -1       205 7.96500E+01 4.74020E+01 0.00000E+00
 -1       206 8.26500E+01 4.74020E+01 0.00000E+00
 -1       207 8.56500E+01 4.74020E+01 0.00000E+00
 -1       208 8.86500E+01 4.74020E+01 0.00000E+00
 -1       209 9.16500E+01 4.74020E+01 0.00000E+00
 -1       210 9.46500E+01 4.74020E+01 0.00000E+00
 -1       211 9.76500E+01 4.74020E+01 0.00000E+00
 -1       212 1.00650E+02 4.74020E+01 0.00000E+00
 -1       213 1.03650E+02 4.74020E+01 0.00000E+00
 -1       214 1.06650E+02 4.74020E+01 0.00000E+00
 -1       215 1.09650E+02 4.74020E+01 0.00000E+00
 -1       216 1.12650E+02 4.74020E+01 0.00000E+00
 -1       217 1.15650E+02 4.74020E+01 0.00000E+00
 -1       218 1.18650E+02 4.74020E+01 0.00000E+00
 -1       219 1.21650E+02 4.74020E+01 0.00000E+00
 -1       220 1.24650E+02 4.74020E+01 0.00000E+00
 -1       221 1.27650E+02 4.74020E+01 0.00000E+00
 -1       222 1.30650E+02 4.74020E+01 0.00000E+00
 -1       223 1.33650E+02 4.74020E+01 0.00000E+00
 -1       224 1.36650E+02 4.74020E+01 0.00000E+00
 -1       225 1.39650E+02 4.74020E+01 0.00000E+00
 -1       226 1.42650E+02 4.74020E+01 0.00000E+00
 -1       227 1.45650E+02 4.74020E+01 0.00000E+00
 -1       228 5.87400E+00 2.18750E+00 0.00000E+00
 -1       229 8.87400E+00 2.18750E+00 0.00000E+00
 -1       230 1.18740E+01 2.18750E+00 0.00000E+00
 -1       231 1.48740E+01 2.18750E+00 0.00000E+00
 -1       232 1.78740E+01 2.18750E+00 0.00000E+00
 -1       233 2.08740E+01 2.18750E+00 0.00000E+00
 -1       234 2.38740E+01 2.18750E+00 0.00000E+00
 -1       235 2.68740E+01 2.18750E+00 0.00000E+00
 -1       236 2.98740E+01 2.18750E+00 0.00000E+00
 -1       237 3.28740E+01 2.18750E+00 0.00000E+00
 -1       238 3.58740E+01 2.18750E+00 0.00000E+00
 -1       239 3.88740E+01 2.18750E+00 0.00000E+00
 -1       240 4.18740E+01 2.18750E+00 0.00000E+00
 -1       241 4.48740E+01 2.18750E+00 0.00000E+00
 -1       242 4.78740E+01 2.18750E+00 0.00000E+00
 -1       243 5.08740E+01 2.18750E+00 0.00000E+00
 -1       244 5.38740E+01 2.18750E+00 0.00000E+00
 -1       245 5.68740E+01 2.18750E+00 0.00000E+00
 -1       246 5.98740E+01 2.18750E+00 0.00000E+00
 -1       247 6.28740E+01 2.18750E+00 0.00000E+00
 -1       248 6.58740E+01 2.18750E+00 0.00000E+00
 -1       249 6.88740E+01 2.18750E+00 0.00000E+00
 -1       250 7.18740E+01 2.18750E+00 0.00000E+00
 -1       251 7.48740E+01 2.18750E+00 0.00000E+00
 -1       252 7.78740E+01 2.18750E+00 0.00000E+00
 -1       253 8.08740E+01 2.18750E+00 0.00000E+00
 -1       254 8.38740E+01 2.18750E+00 0.00000E+00
 -1       255 8.68740E+01 2.18750E+00 0.00000E+00
 -1       256 8.98740E+01 2.18750E+00 0.00000E+00
 -1       257 9.28740E+01 2.18750E+00 0.00000E+00
 -1       258 9.58740E+01 2.18750E+00 0.00000E+00
 -1       259 9.88740E+01 2.18750E+00 0.00000E+00
 -1       260 1.01874E+02 2.18750E+00 0.00000E+00
 -1       261 1.04874E+02 2.18750E+00 0.00000E+00
 -1       262 1.07874E+02 2.18750E+00 0.00000E+00
 -1       263 1.10874E+02 2.18750E+00 0.00000E+00
 -1       264 1.13874E+02 2.18750E+00 0.00000E+00
 -1       265 1.16874E+02 2.18750E+00 0.00000E+00
 -1       266 1.19874E+02 2.18750E+00 0.00000E+00
 -1       267 1.22874E+02 2.18750E+00 0.00000E+00
 -1       268 1.25874E+02 2.18750E+00 0.00000E+00
 -1       269 1.28874E+02 2.18750E+00 0.00000E+00
 -1       270 1.31874E+02 2.18750E+00 0.00000E+00
 -1       271 1.34874E+02 2.18750E+00 0.00000E+00
 -1       272 1.37874E+02 2.18750E+00 0.00000E+00
 -1       273 1.40874E+02 2.18750E+00 0.00000E+00
 -1       274 1.43874E+02 2.18750E+00 0.00000E+00
 -1       275 1.46874E+02 2.18750E+00 0.00000E+00
 -1       276 1.47402E+02 4.42500E+00 0.00000E+00
 -1       277 1.47402E+02 7.37500E+00 0.00000E+00
 -1       278 1.47402E+02 1.03250E+01 0.00000E+00
 -1       279 1.47402E+02 1.32750E+01 0.00000E+00
 -1       280 1.47402E+02 1.61750E+01 0.00000E+00
 -1       281 1.47402E+02 1.91250E+01 0.00000E+00
 -1       282 1.47402E+02 2.20750E+01 0.00000E+00
 -1       283 1.47402E+02 2.50250E+01 0.00000E+00
 -1       284 1.47402E+02 2.79750E+01 0.00000E+00
 -1       285 1.47402E+02 3.09250E+01 0.00000E+00
 -1       286 1.47402E+02 3.38250E+01 0.00000E+00
 -1       287 1.47402E+02 3.67750E+01 0.00000E+00
 -1       288 1.47402E+02 3.97250E+01 0.00000E+00
 -1       289 1.47402E+02 4.26750E+01 0.00000E+00
 -1       290 1.46526E+02 4.50385E+01 0.00000E+00
 -1       291 5.00527E+01 2.46428E+01 0.00000E+00
 -1       292 4.98031E+01 2.27834E+01 0.00000E+00
 -1       293 4.88187E+01 2.12659E+01 0.00000E+00
 -1       294 4.77519E+01 1.98809E+01 0.00000E+00
 -1       295 4.63644E+01 1.88069E+01 0.00000E+00
 -1       296 4.48704E+01 1.80027E+01 0.00000E+00
 -1       297 4.31888E+01 1.71865E+01 0.00000E+00
 -1       298 4.13199E+01 1.73198E+01 0.00000E+00
 -1       299 3.94908E+01 1.75516E+01 0.00000E+00
 -1       300 3.78293E+01 1.84054E+01 0.00000E+00
 -1       301 3.63749E+01 1.94279E+01 0.00000E+00
 -1       302 3.51656E+01 2.07519E+01 0.00000E+00
 -1       303 3.42899E+01 2.22621E+01 0.00000E+00
 -1       304 3.37632E+01 2.39245E+01 0.00000E+00
 -1       305 3.35914E+01 2.56424E+01 0.00000E+00
 -1       306 3.37031E+01 2.73424E+01 0.00000E+00
 -1       307 3.43167E+01 2.89327E+01 0.00000E+00
 -1       308 3.50762E+01 3.05375E+01 0.00000E+00
 -1       309 3.62133E+01 3.20094E+01 0.00000E+00
 -1       310 3.78226E+01 3.28201E+01 0.00000E+00
 -1       311 3.94390E+01 3.37418E+01 0.00000E+00
 -1       312 4.12954E+01 3.37264E+01 0.00000E+00
 -1       313 4.30488E+01 3.37201E+01 0.00000E+00
 -1       314 4.47382E+01 3.31790E+01 0.00000E+00
 -1       315 4.62815E+01 3.23787E+01 0.00000E+00
 -1       316 4.77031E+01 3.12992E+01 0.00000E+00
 -1       317 4.87527E+01 2.98000E+01 0.00000E+00
 -1       318 4.95118E+01 2.81709E+01 0.00000E+00
 -1       319 4.98912E+01 2.64460E+01 0.00000E+00
 -1       320 5.19600E+00 4.11500E+01 0.00000E+00
 -1       321 5.19600E+00 4.41000E+01 0.00000E+00
 -1       322 5.19600E+00 3.52750E+01 0.00000E+00
 -1       323 5.19600E+00 3.23250E+01 0.00000E+00
 -1       324 5.19600E+00 2.93750E+01 0.00000E+00
 -1       325 5.19600E+00 2.64250E+01 0.00000E+00
 -1       326 5.19600E+00 2.34750E+01 0.00000E+00
 -1       327 5.19600E+00 2.05250E+01 0.00000E+00
 -1       328 5.19600E+00 1.76250E+01 0.00000E+00
 -1       329 5.19600E+00 1.46750E+01 0.00000E+00
 -1       330 5.19600E+00 1.17250E+01 0.00000E+00
 -1       331 5.19600E+00 8.77500E+00 0.00000E+00
 -1       332 5.19600E+00 5.82500E+00 0.00000E+00
 -1       333 5.53500E+00 4.00625E+00 0.00000E+00
 -1       334 8.53500E+00 4.00625E+00 0.00000E+00
 -1       335 9.15000E+00 4.48040E+01 0.00000E+00
 -1       336 1.21500E+01 4.48040E+01 0.00000E+00
 -1       337 1.51500E+01 4.48040E+01 0.00000E+00
 -1       338 1.81500E+01 4.48040E+01 0.00000E+00
 -1       339 2.11500E+01 4.48040E+01 0.00000E+00
 -1       340 2.41500E+01 4.48040E+01 0.00000E+00
 -1       341 2.71500E+01 4.48040E+01 0.00000E+00
 -1       342 3.01500E+01 4.48040E+01 0.00000E+00
 -1       343 3.31500E+01 4.48040E+01 0.00000E+00
 -1       344 3.61500E+01 4.48040E+01 0.00000E+00
 -1       345 3.91500E+01 4.48040E+01 0.00000E+00
 -1       346 4.21500E+01 4.48040E+01 0.00000E+00
 -1       347 4.51500E+01 4.48040E+01 0.00000E+00
 -1       348 4.81500E+01 4.48040E+01 0.00000E+00
 -1       349 5.11500E+01 4.48040E+01 0.00000E+00
 -1       350 5.41500E+01 4.48040E+01 0.00000E+00
 -1       351 5.71500E+01 4.48040E+01 0.00000E+00
 -1       352 6.01500E+01 4.48040E+01 0.00000E+00
 -1       353 6.31500E+01 4.48040E+01 0.00000E+00
 -1       354 6.61500E+01 4.48040E+01 0.00000E+00
 -1       355 6.91500E+01 4.48040E+01 0.00000E+00
 -1       356 7.21500E+01 4.48040E+01 0.00000E+00
 -1       357 7.51500E+01 4.48040E+01 0.00000E+00
 -1       358 7.81500E+01 4.48040E+01 0.00000E+00
 -1       359 8.11500E+01 4.48040E+01 0.00000E+00
 -1       360 8.41500E+01 4.48040E+01 0.00000E+00
 -1       361 8.71500E+01 4.48040E+01 0.00000E+00
 -1       362 9.01500E+01 4.48040E+01 0.00000E+00
 -1       363 9.31500E+01 4.48040E+01 0.00000E+00
 -1       364 9.61500E+01 4.48040E+01 0.00000E+00
 -1       365 9.91500E+01 4.48040E+01 0.00000E+00
 -1       366 1.02150E+02 4.48040E+01 0.00000E+00
 -1       367 1.05150E+02 4.48040E+01 0.00000E+00
 -1       368 1.08150E+02 4.48040E+01 0.00000E+00
 -1       369 1.11150E+02 4.48040E+01 0.00000E+00
 -1       370 1.14150E+02 4.48040E+01 0.00000E+00
 -1       371 1.17150E+02 4.48040E+01 0.00000E+00
 -1       372 1.20150E+02 4.48040E+01 0.00000E+00
 -1       373 1.23150E+02 4.48040E+01 0.00000E+00
 -1       374 1.26150E+02 4.48040E+01 0.00000E+00
 -1       375 1.29150E+02 4.48040E+01 0.00000E+00
 -1       376 1.32150E+02 4.48040E+01 0.00000E+00
 -1       377 1.35150E+02 4.48040E+01 0.00000E+00
 -1       378 1.38150E+02 4.48040E+01 0.00000E+00
 -1       379 1.41150E+02 4.48040E+01 0.00000E+00
 -1       380 1.43838E+02 4.49212E+01 0.00000E+00
 -1       381 1.15350E+01 4.00625E+00 0.00000E+00
 -1       382 1.45350E+01 4.00625E+00 0.00000E+00
 -1       383 1.75350E+01 4.00625E+00 0.00000E+00
 -1       384 2.05350E+01 4.00625E+00 0.00000E+00
 -1       385 2.35350E+01 4.00625E+00 0.00000E+00
 -1       386 2.65350E+01 4.00625E+00 0.00000E+00
 -1       387 2.95350E+01 4.00625E+00 0.00000E+00
 -1       388 3.25350E+01 4.00625E+00 0.00000E+00
 -1       389 3.55350E+01 4.00625E+00 0.00000E+00
 -1       390 3.85350E+01 4.00625E+00 0.00000E+00
 -1       391 4.15350E+01 4.00625E+00 0.00000E+00
 -1       392 4.45350E+01 4.00625E+00 0.00000E+00
 -1       393 4.75350E+01 4.00625E+00 0.00000E+00
 -1       394 5.05350E+01 4.00625E+00 0.00000E+00
 -1       395 5.35350E+01 4.00625E+00 0.00000E+00
 -1       396 5.65350E+01 4.00625E+00 0.00000E+00
 -1       397 5.95350E+01 4.00625E+00 0.00000E+00
 -1       398 6.25350E+01 4.00625E+00 0.00000E+00
 -1       399 6.55350E+01 4.00625E+00 0.00000E+00
 -1       400 6.85350E+01 4.00625E+00 0.00000E+00
 -1       401 7.15350E+01 4.00625E+00 0.00000E+00
 -1       402 7.45350E+01 4.00625E+00 0.00000E+00
 -1       403 7.75350E+01 4.00625E+00 0.00000E+00
 -1       404 8.05350E+01 4.00625E+00 0.00000E+00
 -1       405 8.35350E+01 4.00625E+00 0.00000E+00
 -1       406 8.65350E+01 4.00625E+00 0.00000E+00
 -1       407 8.95350E+01 4.00625E+00 0.00000E+00
 -1       408 9.25350E+01 4.00625E+00 0.00000E+00
 -1       409 9.55350E+01 4.00625E+00 0.00000E+00
 -1       410 9.85350E+01 4.00625E+00 0.00000E+00
 -1       411 1.01535E+02 4.00625E+00 0.00000E+00
 -1       412 1.04535E+02 4.00625E+00 0.00000E+00
 -1       413 1.07535E+02 4.00625E+00 0.00000E+00
 -1       414 1.10535E+02 4.00625E+00 0.00000E+00
 -1       415 1.13535E+02 4.00625E+00 0.00000E+00
 -1       416 1.16535E+02 4.00625E+00 0.00000E+00
 -1       417 1.19535E+02 4.00625E+00 0.00000E+00
 -1       418 1.22535E+02 4.00625E+00 0.00000E+00
 -1       419 1.25535E+02 4.00625E+00 0.00000E+00
 -1       420 1.28535E+02 4.00625E+00 0.00000E+00
 -1       421 1.31535E+02 4.00625E+00 0.00000E+00
 -1       422 1.34535E+02 4.00625E+00 0.00000E+00
 -1       423 1.37535E+02 4.00625E+00 0.00000E+00
 -1       424 1.40535E+02 4.00625E+00 0.00000E+00
 -1       425 1.43535E+02 4.00625E+00 0.00000E+00
 -1       426 1.45469E+02 4.21562E+00 0.00000E+00
 -1       427 1.44804E+02 1.18000E+01 0.00000E+00
 -1       428 1.44804E+02 8.85000E+00 0.00000E+00
 -1       429 1.45136E+02 6.53281E+00 0.00000E+00
 -1       430 1.44804E+02 1.47000E+01 0.00000E+00
 -1       431 1.44804E+02 1.76500E+01 0.00000E+00
 -1       432 1.44804E+02 2.06000E+01 0.00000E+00
 -1       433 1.44804E+02 2.35500E+01 0.00000E+00
 -1       434 1.44804E+02 2.65000E+01 0.00000E+00
 -1       435 1.44804E+02 2.94500E+01 0.00000E+00
 -1       436 1.44804E+02 3.23500E+01 0.00000E+00
 -1       437 1.44804E+02 3.53000E+01 0.00000E+00
 -1       438 1.44804E+02 3.82500E+01 0.00000E+00
 -1       439 1.44804E+02 4.12000E+01 0.00000E+00
 -1       440 5.04686E+01 2.12736E+01 0.00000E+00
 -1       441 5.13464E+01 2.56675E+01 0.00000E+00
 -1       442 5.14617E+01 2.35072E+01 0.00000E+00
 -1       443 4.93785E+01 1.97313E+01 0.00000E+00
 -1       444 4.80055E+01 1.81202E+01 0.00000E+00
 -1       445 5.19600E+00 3.82125E+01 0.00000E+00
 -1       446 4.47053E+01 1.62024E+01 0.00000E+00
 -1       447 4.21562E+01 1.58767E+01 0.00000E+00
 -1       448 4.02214E+01 1.59835E+01 0.00000E+00
 -1       449 3.77996E+01 1.63039E+01 0.00000E+00
 -1       450 3.63451E+01 1.73265E+01 0.00000E+00
 -1       451 3.46894E+01 1.91027E+01 0.00000E+00
 -1       452 3.35339E+01 2.08148E+01 0.00000E+00
 -1       453 3.26312E+01 2.26512E+01 0.00000E+00
 -1       454 3.23875E+01 2.46545E+01 0.00000E+00
 -1       455 3.21867E+01 2.65884E+01 0.00000E+00
 -1       456 3.24879E+01 2.87248E+01 0.00000E+00
 -1       457 3.32475E+01 3.03295E+01 0.00000E+00
 -1       458 3.45527E+01 3.21171E+01 0.00000E+00
 -1       459 3.63594E+01 3.37220E+01 0.00000E+00
 -1       460 3.79758E+01 3.46438E+01 0.00000E+00
 -1       461 4.03807E+01 3.53654E+01 0.00000E+00
 -1       462 4.21342E+01 3.53591E+01 0.00000E+00
 -1       463 4.42889E+01 3.46839E+01 0.00000E+00
 -1       464 4.61065E+01 3.39295E+01 0.00000E+00
 -1       465 4.79282E+01 3.30714E+01 0.00000E+00
 -1       466 4.93584E+01 3.13410E+01 0.00000E+00
 -1       467 5.03831E+01 2.95683E+01 0.00000E+00
 -1       468 5.12129E+01 2.76409E+01 0.00000E+00
 -1       469 4.61993E+01 1.70065E+01 0.00000E+00
 -1       470 4.36727E+01 1.48926E+01 0.00000E+00
 -1       471 3.46988E+01 3.38297E+01 0.00000E+00
 -1       472 1.00350E+01 6.60425E+00 0.00000E+00
 -1       473 7.79400E+00 3.08500E+01 0.00000E+00
 -1       474 7.79400E+00 3.38000E+01 0.00000E+00
 -1       475 7.79400E+00 2.49500E+01 0.00000E+00
 -1       476 7.79400E+00 2.20000E+01 0.00000E+00
 -1       477 7.79400E+00 1.91000E+01 0.00000E+00
 -1       478 7.79400E+00 1.61500E+01 0.00000E+00
 -1       479 7.79400E+00 1.32000E+01 0.00000E+00
 -1       480 7.79400E+00 1.02500E+01 0.00000E+00
 -1       481 1.30350E+01 6.60425E+00 0.00000E+00
 -1       482 1.06500E+01 4.22060E+01 0.00000E+00
 -1       483 4.80026E+01 1.61035E+01 0.00000E+00
 -1       484 5.01249E+01 1.77046E+01 0.00000E+00
 -1       485 1.36500E+01 4.22060E+01 0.00000E+00
 -1       486 1.66500E+01 4.22060E+01 0.00000E+00
 -1       487 1.96500E+01 4.22060E+01 0.00000E+00
 -1       488 2.26500E+01 4.22060E+01 0.00000E+00
 -1       489 2.56500E+01 4.22060E+01 0.00000E+00
 -1       490 2.86500E+01 4.22060E+01 0.00000E+00
 -1       491 3.16500E+01 4.22060E+01 0.00000E+00
 -1       492 3.46500E+01 4.22060E+01 0.00000E+00
 -1       493 3.76500E+01 4.22060E+01 0.00000E+00
 -1       494 4.06500E+01 4.22060E+01 0.00000E+00
 -1       495 4.36500E+01 4.22060E+01 0.00000E+00
 -1       496 4.66500E+01 4.22060E+01 0.00000E+00
 -1       497 4.96500E+01 4.22060E+01 0.00000E+00
 -1       498 5.26500E+01 4.22060E+01 0.00000E+00
 -1       499 5.56500E+01 4.22060E+01 0.00000E+00
 -1       500 5.86500E+01 4.22060E+01 0.00000E+00
 -1       501 6.16500E+01 4.22060E+01 0.00000E+00
 -1       502 6.46500E+01 4.22060E+01 0.00000E+00
 -1       503 6.76500E+01 4.22060E+01 0.00000E+00
 -1       504 7.06500E+01 4.22060E+01 0.00000E+00
 -1       505 7.36500E+01 4.22060E+01 0.00000E+00
 -1       506 7.66500E+01 4.22060E+01 0.00000E+00
 -1       507 7.96500E+01 4.22060E+01 0.00000E+00
 -1       508 8.26500E+01 4.22060E+01 0.00000E+00
 -1       509 8.56500E+01 4.22060E+01 0.00000E+00
 -1       510 8.86500E+01 4.22060E+01 0.00000E+00
 -1       511 9.16500E+01 4.22060E+01 0.00000E+00
 -1       512 9.46500E+01 4.22060E+01 0.00000E+00
 -1       513 9.76500E+01 4.22060E+01 0.00000E+00
 -1       514 1.00650E+02 4.22060E+01 0.00000E+00
 -1       515 1.03650E+02 4.22060E+01 0.00000E+00
 -1       516 1.06650E+02 4.22060E+01 0.00000E+00
 -1       517 1.09650E+02 4.22060E+01 0.00000E+00
 -1       518 1.12650E+02 4.22060E+01 0.00000E+00
 -1       519 1.15650E+02 4.22060E+01 0.00000E+00
 -1       520 1.18650E+02 4.22060E+01 0.00000E+00
 -1       521 1.21650E+02 4.22060E+01 0.00000E+00
 -1       522 1.24650E+02 4.22060E+01 0.00000E+00
 -1       523 1.27650E+02 4.22060E+01 0.00000E+00
 -1       524 1.30650E+02 4.22060E+01 0.00000E+00
 -1       525 1.33650E+02 4.22060E+01 0.00000E+00
 -1       526 1.36650E+02 4.22060E+01 0.00000E+00
 -1       527 1.39650E+02 4.22060E+01 0.00000E+00
 -1       528 1.90350E+01 6.60425E+00 0.00000E+00
 -1       529 2.20350E+01 6.60425E+00 0.00000E+00
 -1       530 2.50350E+01 6.60425E+00 0.00000E+00
 -1       531 2.80350E+01 6.60425E+00 0.00000E+00
 -1       532 3.10350E+01 6.60425E+00 0.00000E+00
 -1       533 3.40350E+01 6.60425E+00 0.00000E+00
 -1       534 3.70350E+01 6.60425E+00 0.00000E+00
 -1       535 4.00350E+01 6.60425E+00 0.00000E+00
 -1       536 4.30350E+01 6.60425E+00 0.00000E+00
 -1       537 4.60350E+01 6.60425E+00 0.00000E+00
 -1       538 4.90350E+01 6.60425E+00 0.00000E+00
 -1       539 5.20350E+01 6.60425E+00 0.00000E+00
 -1       540 5.50350E+01 6.60425E+00 0.00000E+00
 -1       541 5.80350E+01 6.60425E+00 0.00000E+00
 -1       542 6.10350E+01 6.60425E+00 0.00000E+00
 -1       543 6.40350E+01 6.60425E+00 0.00000E+00
 -1       544 6.70350E+01 6.60425E+00 0.00000E+00
 -1       545 7.00350E+01 6.60425E+00 0.00000E+00
 -1       546 7.30350E+01 6.60425E+00 0.00000E+00
 -1       547 7.60350E+01 6.60425E+00 0.00000E+00
 -1       548 7.90350E+01 6.60425E+00 0.00000E+00
 -1       549 8.20350E+01 6.60425E+00 0.00000E+00
 -1       550 8.50350E+01 6.60425E+00 0.00000E+00
 -1       551 8.80350E+01 6.60425E+00 0.00000E+00
 -1       552 9.10350E+01 6.60425E+00 0.00000E+00
 -1       553 9.40350E+01 6.60425E+00 0.00000E+00
 -1       554 9.70350E+01 6.60425E+00 0.00000E+00
 -1       555 1.00035E+02 6.60425E+00 0.00000E+00
 -1       556 1.03035E+02 6.60425E+00 0.00000E+00
 -1       557 1.06035E+02 6.60425E+00 0.00000E+00
 -1       558 1.09035E+02 6.60425E+00 0.00000E+00
 -1       559 1.12035E+02 6.60425E+00 0.00000E+00
 -1       560 1.15035E+02 6.60425E+00 0.00000E+00
 -1       561 1.18035E+02 6.60425E+00 0.00000E+00
 -1       562 1.21035E+02 6.60425E+00 0.00000E+00
 -1       563 1.24035E+02 6.60425E+00 0.00000E+00
 -1       564 1.27035E+02 6.60425E+00 0.00000E+00
 -1       565 1.30035E+02 6.60425E+00 0.00000E+00
 -1       566 1.33035E+02 6.60425E+00 0.00000E+00
 -1       567 1.36035E+02 6.60425E+00 0.00000E+00
 -1       568 1.39035E+02 6.60425E+00 0.00000E+00
 -1       569 1.42035E+02 6.60425E+00 0.00000E+00
 -1       570 1.42206E+02 1.61750E+01 0.00000E+00
 -1       571 1.42206E+02 1.91250E+01 0.00000E+00
 -1       572 1.42206E+02 1.03250E+01 0.00000E+00
 -1       573 1.42206E+02 1.32500E+01 0.00000E+00
 -1       574 1.42206E+02 2.20750E+01 0.00000E+00
 -1       575 1.42206E+02 2.50250E+01 0.00000E+00
 -1       576 1.42206E+02 2.79750E+01 0.00000E+00
 -1       577 1.42206E+02 3.08750E+01 0.00000E+00
 -1       578 1.42206E+02 3.38250E+01 0.00000E+00
 -1       579 1.42206E+02 3.67750E+01 0.00000E+00
 -1       580 1.42206E+02 3.97250E+01 0.00000E+00
 -1       581 5.31167E+01 2.46788E+01 0.00000E+00
 -1       582 5.12150E+01 1.92469E+01 0.00000E+00
 -1       583 1.60350E+01 6.60425E+00 0.00000E+00
 -1       584 5.29832E+01 2.66521E+01 0.00000E+00
 -1       585 5.26855E+01 2.16255E+01 0.00000E+00
 -1       586 4.65085E+01 1.52993E+01 0.00000E+00
 -1       587 5.22194E+01 2.92165E+01 0.00000E+00
 -1       588 3.23796E+01 3.23335E+01 0.00000E+00
 -1       589 3.04730E+01 2.79194E+01 0.00000E+00
 -1       590 3.87855E+01 1.44434E+01 0.00000E+00
 -1       591 7.79400E+00 2.79000E+01 0.00000E+00
 -1       592 4.11034E+01 1.43849E+01 0.00000E+00
 -1       593 3.28289E+01 1.90931E+01 0.00000E+00
 -1       594 3.60859E+01 1.54121E+01 0.00000E+00
 -1       595 3.41401E+01 1.69309E+01 0.00000E+00
 -1       596 3.17689E+01 2.10872E+01 0.00000E+00
 -1       597 3.10563E+01 2.34761E+01 0.00000E+00
 -1       598 3.08554E+01 2.54100E+01 0.00000E+00
 -1       599 3.13175E+01 3.02609E+01 0.00000E+00
 -1       600 4.57588E+01 3.56587E+01 0.00000E+00
 -1       601 3.63595E+01 3.56000E+01 0.00000E+00
 -1       602 3.86372E+01 3.68078E+01 0.00000E+00
 -1       603 4.12634E+01 3.69935E+01 0.00000E+00
 -1       604 4.38246E+01 3.69780E+01 0.00000E+00
 -1       605 4.76768E+01 3.49005E+01 0.00000E+00
 -1       606 4.99349E+01 3.32737E+01 0.00000E+00
 -1       607 5.11380E+01 3.11872E+01 0.00000E+00
 -1       608 7.92300E+00 4.16780E+01 0.00000E+00
 -1       609 7.61550E+00 6.21462E+00 0.00000E+00
 -1       610 4.26200E+01 1.34008E+01 0.00000E+00
 -1       611 7.79400E+00 3.67375E+01 0.00000E+00
 -1       612 4.96835E+01 3.51028E+01 0.00000E+00
 -1       613 5.43405E+01 2.27971E+01 0.00000E+00
 -1       614 4.54759E+01 1.39895E+01 0.00000E+00
 -1       615 3.70719E+01 1.35516E+01 0.00000E+00
 -1       616 1.41678E+02 4.22645E+01 0.00000E+00
 -1       617 1.03920E+01 2.05500E+01 0.00000E+00
 -1       618 1.03920E+01 2.35000E+01 0.00000E+00
 -1       619 1.03920E+01 1.46750E+01 0.00000E+00
 -1       620 1.03920E+01 1.17250E+01 0.00000E+00
 -1       621 1.15350E+01 9.20225E+00 0.00000E+00
 -1       622 4.25544E+01 3.87008E+01 0.00000E+00
 -1       623 1.51500E+01 3.96080E+01 0.00000E+00
 -1       624 1.81500E+01 3.96080E+01 0.00000E+00
 -1       625 2.11500E+01 3.96080E+01 0.00000E+00
 -1       626 2.41500E+01 3.96080E+01 0.00000E+00
 -1       627 2.71500E+01 3.96080E+01 0.00000E+00
 -1       628 3.01500E+01 3.96080E+01 0.00000E+00
 -1       629 3.31500E+01 3.96080E+01 0.00000E+00
 -1       630 3.61500E+01 3.96080E+01 0.00000E+00
 -1       631 3.91500E+01 3.96080E+01 0.00000E+00
 -1       632 4.81500E+01 3.96080E+01 0.00000E+00
 -1       633 5.11500E+01 3.96080E+01 0.00000E+00
 -1       634 5.41500E+01 3.96080E+01 0.00000E+00
 -1       635 5.71500E+01 3.96080E+01 0.00000E+00
 -1       636 6.01500E+01 3.96080E+01 0.00000E+00
 -1       637 6.31500E+01 3.96080E+01 0.00000E+00
 -1       638 6.61500E+01 3.96080E+01 0.00000E+00
 -1       639 6.91500E+01 3.96080E+01 0.00000E+00
 -1       640 7.21500E+01 3.96080E+01 0.00000E+00
 -1       641 7.51500E+01 3.96080E+01 0.00000E+00
 -1       642 7.81500E+01 3.96080E+01 0.00000E+00
 -1       643 8.11500E+01 3.96080E+01 0.00000E+00
 -1       644 8.41500E+01 3.96080E+01 0.00000E+00
 -1       645 8.71500E+01 3.96080E+01 0.00000E+00
 -1       646 9.01500E+01 3.96080E+01 0.00000E+00
 -1       647 9.31500E+01 3.96080E+01 0.00000E+00
 -1       648 9.61500E+01 3.96080E+01 0.00000E+00
 -1       649 9.91500E+01 3.96080E+01 0.00000E+00
 -1       650 1.02150E+02 3.96080E+01 0.00000E+00
 -1       651 1.05150E+02 3.96080E+01 0.00000E+00
 -1       652 1.08150E+02 3.96080E+01 0.00000E+00
 -1       653 1.11150E+02 3.96080E+01 0.00000E+00
 -1       654 1.14150E+02 3.96080E+01 0.00000E+00
 -1       655 1.17150E+02 3.96080E+01 0.00000E+00
 -1       656 1.20150E+02 3.96080E+01 0.00000E+00
 -1       657 1.23150E+02 3.96080E+01 0.00000E+00
 -1       658 1.26150E+02 3.96080E+01 0.00000E+00
 -1       659 1.29150E+02 3.96080E+01 0.00000E+00
 -1       660 1.32150E+02 3.96080E+01 0.00000E+00
 -1       661 1.35150E+02 3.96080E+01 0.00000E+00
 -1       662 1.38150E+02 3.96080E+01 0.00000E+00
 -1       663 2.35350E+01 9.20225E+00 0.00000E+00
 -1       664 1.39206E+02 1.03250E+01 0.00000E+00
 -1       665 2.05350E+01 9.20225E+00 0.00000E+00
 -1       666 2.95350E+01 9.20225E+00 0.00000E+00
 -1       667 3.25350E+01 9.20225E+00 0.00000E+00
 -1       668 3.55350E+01 9.20225E+00 0.00000E+00
 -1       669 3.85350E+01 9.20225E+00 0.00000E+00
 -1       670 4.15350E+01 9.20225E+00 0.00000E+00
 -1       671 4.45350E+01 9.20225E+00 0.00000E+00
 -1       672 4.75350E+01 9.20225E+00 0.00000E+00
 -1       673 5.05350E+01 9.20225E+00 0.00000E+00
 -1       674 5.35350E+01 9.20225E+00 0.00000E+00
 -1       675 5.65350E+01 9.20225E+00 0.00000E+00
 -1       676 5.95350E+01 9.20225E+00 0.00000E+00
 -1       677 6.25350E+01 9.20225E+00 0.00000E+00
 -1       678 6.55350E+01 9.20225E+00 0.00000E+00
 -1       679 6.85350E+01 9.20225E+00 0.00000E+00
 -1       680 7.15350E+01 9.20225E+00 0.00000E+00
 -1       681 7.45350E+01 9.20225E+00 0.00000E+00
 -1       682 7.75350E+01 9.20225E+00 0.00000E+00
 -1       683 8.05350E+01 9.20225E+00 0.00000E+00
 -1       684 8.35350E+01 9.20225E+00 0.00000E+00
 -1       685 8.65350E+01 9.20225E+00 0.00000E+00
 -1       686 8.95350E+01 9.20225E+00 0.00000E+00
 -1       687 9.25350E+01 9.20225E+00 0.00000E+00
 -1       688 9.55350E+01 9.20225E+00 0.00000E+00
 -1       689 9.85350E+01 9.20225E+00 0.00000E+00
 -1       690 1.01535E+02 9.20225E+00 0.00000E+00
 -1       691 1.04535E+02 9.20225E+00 0.00000E+00
 -1       692 1.07535E+02 9.20225E+00 0.00000E+00
 -1       693 1.10535E+02 9.20225E+00 0.00000E+00
 -1       694 1.13535E+02 9.20225E+00 0.00000E+00
 -1       695 1.16535E+02 9.20225E+00 0.00000E+00
 -1       696 1.19535E+02 9.20225E+00 0.00000E+00
 -1       697 1.22535E+02 9.20225E+00 0.00000E+00
 -1       698 1.25535E+02 9.20225E+00 0.00000E+00
 -1       699 1.28535E+02 9.20225E+00 0.00000E+00
 -1       700 1.31535E+02 9.20225E+00 0.00000E+00
 -1       701 1.34535E+02 9.20225E+00 0.00000E+00
 -1       702 1.36870E+02 9.76363E+00 0.00000E+00
 -1       703 1.39608E+02 2.35500E+01 0.00000E+00
 -1       704 1.40178E+02 3.96665E+01 0.00000E+00
 -1       705 1.39608E+02 1.76500E+01 0.00000E+00
 -1       706 1.39608E+02 2.65000E+01 0.00000E+00
 -1       707 1.39608E+02 2.06000E+01 0.00000E+00
 -1       708 5.23442E+01 1.72924E+01 0.00000E+00
 -1       709 1.39608E+02 2.94000E+01 0.00000E+00
 -1       710 1.39608E+02 3.23500E+01 0.00000E+00
 -1       711 1.39608E+02 3.53000E+01 0.00000E+00
 -1       712 5.38147E+01 1.96710E+01 0.00000E+00
 -1       713 1.75350E+01 9.20225E+00 0.00000E+00
 -1       714 5.49284E+01 2.57925E+01 0.00000E+00
 -1       715 4.73483E+01 3.68746E+01 0.00000E+00
 -1       716 4.81478E+01 1.40436E+01 0.00000E+00
 -1       717 2.65350E+01 9.20225E+00 0.00000E+00
 -1       718 1.21500E+01 3.96080E+01 0.00000E+00
 -1       719 1.45350E+01 9.20225E+00 0.00000E+00
 -1       720 5.20223E+01 3.30871E+01 0.00000E+00
 -1       721 3.00239E+01 3.22322E+01 0.00000E+00
 -1       722 1.03920E+01 1.76125E+01 0.00000E+00
 -1       723 1.03920E+01 3.23250E+01 0.00000E+00
 -1       724 3.36453E+01 1.42911E+01 0.00000E+00
 -1       725 3.26094E+01 3.45228E+01 0.00000E+00
 -1       726 2.91795E+01 2.98907E+01 0.00000E+00
 -1       727 3.99012E+01 1.26996E+01 0.00000E+00
 -1       728 3.42701E+01 3.62931E+01 0.00000E+00
 -1       729 3.17314E+01 1.69489E+01 0.00000E+00
 -1       730 2.94166E+01 2.42832E+01 0.00000E+00
 -1       731 2.97691E+01 2.17914E+01 0.00000E+00
 -1       732 5.02985E+01 1.52673E+01 0.00000E+00
 -1       733 5.31037E+01 3.11165E+01 0.00000E+00
 -1       734 3.66948E+01 3.77192E+01 0.00000E+00
 -1       735 5.42450E+01 2.84239E+01 0.00000E+00
 -1       736 2.90342E+01 2.67926E+01 0.00000E+00
 -1       737 4.54141E+01 3.81939E+01 0.00000E+00
 -1       738 3.07845E+01 1.92851E+01 0.00000E+00
 -1       739 1.03920E+01 3.52625E+01 0.00000E+00
 -1       740 1.03920E+01 2.64500E+01 0.00000E+00
 -1       741 5.17709E+01 3.49162E+01 0.00000E+00
 -1       742 1.39608E+02 1.47250E+01 0.00000E+00
 -1       743 4.51500E+01 3.96080E+01 0.00000E+00
 -1       744 2.77407E+01 2.87639E+01 0.00000E+00
 -1       745 5.54697E+01 2.08426E+01 0.00000E+00
 -1       746 4.44232E+01 1.24977E+01 0.00000E+00
 -1       747 1.05210E+01 3.87342E+01 0.00000E+00
 -1       748 4.71153E+01 1.27338E+01 0.00000E+00
 -1       749 4.93550E+01 3.70769E+01 0.00000E+00
 -1       750 3.46312E+01 1.24306E+01 0.00000E+00
 -1       751 1.03920E+01 2.93875E+01 0.00000E+00
 -1       752 3.02537E+01 3.44215E+01 0.00000E+00
 -1       753 4.16889E+01 1.13894E+01 0.00000E+00
 -1       754 1.29900E+01 1.32000E+01 0.00000E+00
 -1       755 1.96500E+01 3.70100E+01 0.00000E+00
 -1       756 2.26500E+01 3.70100E+01 0.00000E+00
 -1       757 2.56500E+01 3.70100E+01 0.00000E+00
 -1       758 2.86500E+01 3.70100E+01 0.00000E+00
 -1       759 1.36500E+01 3.70100E+01 0.00000E+00
 -1       760 5.26500E+01 3.70100E+01 0.00000E+00
 -1       761 5.56500E+01 3.70100E+01 0.00000E+00
 -1       762 5.86500E+01 3.70100E+01 0.00000E+00
 -1       763 6.16500E+01 3.70100E+01 0.00000E+00
 -1       764 6.46500E+01 3.70100E+01 0.00000E+00
 -1       765 6.76500E+01 3.70100E+01 0.00000E+00
 -1       766 7.06500E+01 3.70100E+01 0.00000E+00
 -1       767 7.36500E+01 3.70100E+01 0.00000E+00
 -1       768 7.66500E+01 3.70100E+01 0.00000E+00
 -1       769 7.96500E+01 3.70100E+01 0.00000E+00
 -1       770 8.26500E+01 3.70100E+01 0.00000E+00
 -1       771 8.56500E+01 3.70100E+01 0.00000E+00
 -1       772 8.86500E+01 3.70100E+01 0.00000E+00
 -1       773 9.16500E+01 3.70100E+01 0.00000E+00
 -1       774 9.46500E+01 3.70100E+01 0.00000E+00
 -1       775 9.76500E+01 3.70100E+01 0.00000E+00
 -1       776 1.00650E+02 3.70100E+01 0.00000E+00
 -1       777 1.03650E+02 3.70100E+01 0.00000E+00
 -1       778 1.06650E+02 3.70100E+01 0.00000E+00
 -1       779 1.09650E+02 3.70100E+01 0.00000E+00
 -1       780 1.12650E+02 3.70100E+01 0.00000E+00
 -1       781 1.15650E+02 3.70100E+01 0.00000E+00
 -1       782 1.18650E+02 3.70100E+01 0.00000E+00
 -1       783 1.21650E+02 3.70100E+01 0.00000E+00
 -1       784 1.24650E+02 3.70100E+01 0.00000E+00
 -1       785 1.27650E+02 3.70100E+01 0.00000E+00
 -1       786 1.30650E+02 3.70100E+01 0.00000E+00
 -1       787 1.33650E+02 3.70100E+01 0.00000E+00
 -1       788 1.36650E+02 3.70100E+01 0.00000E+00
 -1       789 2.20350E+01 1.18003E+01 0.00000E+00
 -1       790 4.60350E+01 1.15876E+01 0.00000E+00
 -1       791 5.20350E+01 1.18003E+01 0.00000E+00
 -1       792 5.50350E+01 1.18003E+01 0.00000E+00
 -1       793 5.80350E+01 1.18003E+01 0.00000E+00
 -1       794 6.10350E+01 1.18003E+01 0.00000E+00
 -1       795 6.40350E+01 1.18003E+01 0.00000E+00
 -1       796 6.70350E+01 1.18003E+01 0.00000E+00
 -1       797 7.00350E+01 1.18003E+01 0.00000E+00
 -1       798 7.30350E+01 1.18003E+01 0.00000E+00
 -1       799 7.60350E+01 1.18003E+01 0.00000E+00
 -1       800 7.90350E+01 1.18003E+01 0.00000E+00
 -1       801 8.20350E+01 1.18003E+01 0.00000E+00
 -1       802 8.50350E+01 1.18003E+01 0.00000E+00
 -1       803 8.80350E+01 1.18003E+01 0.00000E+00
 -1       804 9.10350E+01 1.18003E+01 0.00000E+00
 -1       805 9.40350E+01 1.18003E+01 0.00000E+00
 -1       806 9.70350E+01 1.18003E+01 0.00000E+00
 -1       807 1.00035E+02 1.18003E+01 0.00000E+00
 -1       808 1.03035E+02 1.18003E+01 0.00000E+00
 -1       809 1.06035E+02 1.18003E+01 0.00000E+00
 -1       810 1.09035E+02 1.18003E+01 0.00000E+00
 -1       811 1.12035E+02 1.18003E+01 0.00000E+00
 -1       812 1.15035E+02 1.18003E+01 0.00000E+00
 -1       813 1.18035E+02 1.18003E+01 0.00000E+00
 -1       814 1.21035E+02 1.18003E+01 0.00000E+00
 -1       815 1.24035E+02 1.18003E+01 0.00000E+00
 -1       816 1.27035E+02 1.18003E+01 0.00000E+00
 -1       817 1.30035E+02 1.18003E+01 0.00000E+00
 -1       818 1.33035E+02 1.18003E+01 0.00000E+00
 -1       819 1.29900E+01 2.20250E+01 0.00000E+00
 -1       820 1.37010E+02 2.50250E+01 0.00000E+00
 -1       821 1.37010E+02 3.38250E+01 0.00000E+00
 -1       822 1.37010E+02 2.79250E+01 0.00000E+00
 -1       823 5.49659E+01 1.73155E+01 0.00000E+00
 -1       824 1.90350E+01 1.18003E+01 0.00000E+00
 -1       825 5.29995E+01 1.45846E+01 0.00000E+00
 -1       826 2.73578E+01 3.18707E+01 0.00000E+00
 -1       827 1.37010E+02 3.08750E+01 0.00000E+00
 -1       828 2.77287E+01 2.27736E+01 0.00000E+00
 -1       829 5.03200E+01 1.27278E+01 0.00000E+00
 -1       830 1.66500E+01 3.70100E+01 0.00000E+00
 -1       831 2.92025E+01 1.72839E+01 0.00000E+00
 -1       832 3.79436E+01 1.13229E+01 0.00000E+00
 -1       833 5.64090E+01 2.75814E+01 0.00000E+00
 -1       834 2.81871E+01 1.97902E+01 0.00000E+00
 -1       835 3.20667E+01 3.66960E+01 0.00000E+00
 -1       836 1.37625E+01 1.12011E+01 0.00000E+00
 -1       837 5.45073E+01 3.31688E+01 0.00000E+00
 -1       838 5.56487E+01 3.04762E+01 0.00000E+00
 -1       839 3.08886E+01 1.43240E+01 0.00000E+00
 -1       840 3.41083E+01 3.81520E+01 0.00000E+00
 -1       841 2.73463E+01 2.52831E+01 0.00000E+00
 -1       842 5.69752E+01 2.38355E+01 0.00000E+00
 -1       843 1.20210E+01 3.61362E+01 0.00000E+00
 -1       844 1.29900E+01 2.49750E+01 0.00000E+00
 -1       845 1.29900E+01 1.61375E+01 0.00000E+00
 -1       846 5.42559E+01 3.49978E+01 0.00000E+00
 -1       847 1.37273E+02 1.41636E+01 0.00000E+00
 -1       848 2.75876E+01 3.40600E+01 0.00000E+00
 -1       849 1.20210E+01 3.31987E+01 0.00000E+00
 -1       850 2.60528E+01 2.72544E+01 0.00000E+00
 -1       851 2.50350E+01 1.18003E+01 0.00000E+00
 -1       852 3.15902E+01 1.17467E+01 0.00000E+00
 -1       853 1.29900E+01 1.90875E+01 0.00000E+00
 -1       854 1.34937E+02 1.36023E+01 0.00000E+00
 -1       855 1.37010E+02 1.91250E+01 0.00000E+00
 -1       856 5.84558E+01 2.56244E+01 0.00000E+00
 -1       857 1.37010E+02 2.20750E+01 0.00000E+00
 -1       858 5.66209E+01 1.84870E+01 0.00000E+00
 -1       859 2.85415E+01 1.21069E+01 0.00000E+00
 -1       860 1.20210E+01 3.02612E+01 0.00000E+00
 -1       861 1.63988E+01 1.15007E+01 0.00000E+00
 -1       862 1.37141E+02 1.66443E+01 0.00000E+00
 -1       863 2.55107E+01 2.37195E+01 0.00000E+00
 -1       864 2.41500E+01 3.44120E+01 0.00000E+00
 -1       865 6.01500E+01 3.44120E+01 0.00000E+00
 -1       866 6.31500E+01 3.44120E+01 0.00000E+00
 -1       867 6.61500E+01 3.44120E+01 0.00000E+00
 -1       868 6.91500E+01 3.44120E+01 0.00000E+00
 -1       869 7.21500E+01 3.44120E+01 0.00000E+00
 -1       870 7.51500E+01 3.44120E+01 0.00000E+00
 -1       871 7.81500E+01 3.44120E+01 0.00000E+00
 -1       872 8.11500E+01 3.44120E+01 0.00000E+00
 -1       873 8.41500E+01 3.44120E+01 0.00000E+00
 -1       874 8.71500E+01 3.44120E+01 0.00000E+00
 -1       875 9.01500E+01 3.44120E+01 0.00000E+00
 -1       876 9.31500E+01 3.44120E+01 0.00000E+00
 -1       877 9.61500E+01 3.44120E+01 0.00000E+00
 -1       878 9.91500E+01 3.44120E+01 0.00000E+00
 -1       879 1.02150E+02 3.44120E+01 0.00000E+00
 -1       880 1.05150E+02 3.44120E+01 0.00000E+00
 -1       881 1.08150E+02 3.44120E+01 0.00000E+00
 -1       882 1.11150E+02 3.44120E+01 0.00000E+00
 -1       883 1.14150E+02 3.44120E+01 0.00000E+00
 -1       884 1.17150E+02 3.44120E+01 0.00000E+00
 -1       885 1.20150E+02 3.44120E+01 0.00000E+00
 -1       886 1.23150E+02 3.44120E+01 0.00000E+00
 -1       887 1.26150E+02 3.44120E+01 0.00000E+00
 -1       888 1.29150E+02 3.44120E+01 0.00000E+00
 -1       889 1.32150E+02 3.44120E+01 0.00000E+00
 -1       890 1.34580E+02 3.41185E+01 0.00000E+00
 -1       891 6.25350E+01 1.43982E+01 0.00000E+00
 -1       892 6.55350E+01 1.43982E+01 0.00000E+00
 -1       893 6.85350E+01 1.43982E+01 0.00000E+00
 -1       894 7.15350E+01 1.43982E+01 0.00000E+00
 -1       895 7.45350E+01 1.43982E+01 0.00000E+00
 -1       896 7.75350E+01 1.43982E+01 0.00000E+00
 -1       897 8.05350E+01 1.43982E+01 0.00000E+00
 -1       898 8.35350E+01 1.43982E+01 0.00000E+00
 -1       899 8.65350E+01 1.43982E+01 0.00000E+00
 -1       900 8.95350E+01 1.43982E+01 0.00000E+00
 -1       901 9.25350E+01 1.43982E+01 0.00000E+00
 -1       902 9.55350E+01 1.43982E+01 0.00000E+00
 -1       903 9.85350E+01 1.43982E+01 0.00000E+00
 -1       904 1.01535E+02 1.43982E+01 0.00000E+00
 -1       905 1.04535E+02 1.43982E+01 0.00000E+00
 -1       906 1.07535E+02 1.43982E+01 0.00000E+00
 -1       907 1.10535E+02 1.43982E+01 0.00000E+00
 -1       908 1.13535E+02 1.43982E+01 0.00000E+00
 -1       909 1.16535E+02 1.43982E+01 0.00000E+00
 -1       910 1.19535E+02 1.43982E+01 0.00000E+00
 -1       911 1.22535E+02 1.43982E+01 0.00000E+00
 -1       912 1.25535E+02 1.43982E+01 0.00000E+00
 -1       913 1.28535E+02 1.43982E+01 0.00000E+00
 -1       914 1.31535E+02 1.43982E+01 0.00000E+00
 -1       915 1.34412E+02 2.64750E+01 0.00000E+00
 -1       916 2.59691E+01 2.07361E+01 0.00000E+00
 -1       917 1.36500E+01 3.40725E+01 0.00000E+00
 -1       918 2.05350E+01 1.43982E+01 0.00000E+00
 -1       919 5.83534E+01 2.12671E+01 0.00000E+00
 -1       920 5.65005E+01 1.45579E+01 0.00000E+00
 -1       921 5.95177E+01 1.44781E+01 0.00000E+00
 -1       922 1.81500E+01 3.44120E+01 0.00000E+00
 -1       923 1.25055E+01 2.76181E+01 0.00000E+00
 -1       924 2.11500E+01 3.44120E+01 0.00000E+00
 -1       925 2.67946E+01 1.77672E+01 0.00000E+00
 -1       926 2.76681E+01 1.49370E+01 0.00000E+00
 -1       927 5.71199E+01 3.26880E+01 0.00000E+00
 -1       928 5.78802E+01 2.97933E+01 0.00000E+00
 -1       929 2.51817E+01 3.00256E+01 0.00000E+00
 -1       930 1.59000E+01 3.42422E+01 0.00000E+00
 -1       931 1.55880E+01 1.46687E+01 0.00000E+00
 -1       932 5.63850E+01 3.48490E+01 0.00000E+00
 -1       933 1.33828E+02 1.65299E+01 0.00000E+00
 -1       934 1.34580E+02 3.11685E+01 0.00000E+00
 -1       935 2.52670E+01 3.31969E+01 0.00000E+00
 -1       936 5.98340E+01 2.30560E+01 0.00000E+00
 -1       937 1.34412E+02 2.35250E+01 0.00000E+00
 -1       938 5.99271E+01 2.78362E+01 0.00000E+00
 -1       939 1.78988E+01 1.40987E+01 0.00000E+00
 -1       940 2.35350E+01 1.43982E+01 0.00000E+00
 -1       941 1.36500E+01 3.11350E+01 0.00000E+00
 -1       942 5.80693E+01 1.64826E+01 0.00000E+00
 -1       943 1.34496E+02 2.88218E+01 0.00000E+00
 -1       944 1.34412E+02 2.05750E+01 0.00000E+00
 -1       945 1.55880E+01 2.05562E+01 0.00000E+00
 -1       946 2.42171E+01 2.56908E+01 0.00000E+00
 -1       947 1.55880E+01 2.35063E+01 0.00000E+00
 -1       948 1.96500E+01 3.18140E+01 0.00000E+00
 -1       949 6.46500E+01 3.18140E+01 0.00000E+00
 -1       950 6.76500E+01 3.18140E+01 0.00000E+00
 -1       951 7.06500E+01 3.18140E+01 0.00000E+00
 -1       952 7.36500E+01 3.18140E+01 0.00000E+00
 -1       953 7.66500E+01 3.18140E+01 0.00000E+00
 -1       954 7.96500E+01 3.18140E+01 0.00000E+00
 -1       955 8.26500E+01 3.18140E+01 0.00000E+00
 -1       956 8.56500E+01 3.18140E+01 0.00000E+00
 -1       957 8.86500E+01 3.18140E+01 0.00000E+00
 -1       958 9.16500E+01 3.18140E+01 0.00000E+00
 -1       959 9.46500E+01 3.18140E+01 0.00000E+00
 -1       960 9.76500E+01 3.18140E+01 0.00000E+00
 -1       961 1.00650E+02 3.18140E+01 0.00000E+00
 -1       962 1.03650E+02 3.18140E+01 0.00000E+00
 -1       963 1.06650E+02 3.18140E+01 0.00000E+00
 -1       964 1.09650E+02 3.18140E+01 0.00000E+00
 -1       965 1.12650E+02 3.18140E+01 0.00000E+00
 -1       966 1.15650E+02 3.18140E+01 0.00000E+00
 -1       967 1.18650E+02 3.18140E+01 0.00000E+00
 -1       968 1.21650E+02 3.18140E+01 0.00000E+00
 -1       969 1.24650E+02 3.18140E+01 0.00000E+00
 -1       970 1.27650E+02 3.18140E+01 0.00000E+00
 -1       971 1.30650E+02 3.18140E+01 0.00000E+00
 -1       972 1.32615E+02 3.14912E+01 0.00000E+00
 -1       973 7.00350E+01 1.69963E+01 0.00000E+00
 -1       974 6.70350E+01 1.69963E+01 0.00000E+00
 -1       975 6.40350E+01 1.69963E+01 0.00000E+00
 -1       976 7.30350E+01 1.69963E+01 0.00000E+00
 -1       977 7.60350E+01 1.69963E+01 0.00000E+00
 -1       978 7.90350E+01 1.69963E+01 0.00000E+00
 -1       979 8.20350E+01 1.69963E+01 0.00000E+00
 -1       980 8.50350E+01 1.69963E+01 0.00000E+00
 -1       981 8.80350E+01 1.69963E+01 0.00000E+00
 -1       982 9.10350E+01 1.69963E+01 0.00000E+00
 -1       983 9.40350E+01 1.69963E+01 0.00000E+00
 -1       984 9.70350E+01 1.69963E+01 0.00000E+00
 -1       985 1.00035E+02 1.69963E+01 0.00000E+00
 -1       986 1.03035E+02 1.69963E+01 0.00000E+00
 -1       987 1.06035E+02 1.69963E+01 0.00000E+00
 -1       988 1.09035E+02 1.69963E+01 0.00000E+00
 -1       989 1.12035E+02 1.69963E+01 0.00000E+00
 -1       990 1.15035E+02 1.69963E+01 0.00000E+00
 -1       991 1.18035E+02 1.69963E+01 0.00000E+00
 -1       992 1.21035E+02 1.69963E+01 0.00000E+00
 -1       993 1.24035E+02 1.69963E+01 0.00000E+00
 -1       994 1.27035E+02 1.69963E+01 0.00000E+00
 -1       995 1.30035E+02 1.69963E+01 0.00000E+00
 -1       996 2.33822E+01 2.18655E+01 0.00000E+00
 -1       997 2.33461E+01 2.84620E+01 0.00000E+00
 -1       998 5.98018E+01 1.92626E+01 0.00000E+00
 -1       999 1.31549E+02 1.89238E+01 0.00000E+00
 -1      1000 6.16500E+01 3.18140E+01 0.00000E+00
 -1      1001 2.42451E+01 1.86575E+01 0.00000E+00
 -1      1002 1.55880E+01 1.76125E+01 0.00000E+00
 -1      1003 1.55676E+01 2.65022E+01 0.00000E+00
 -1      1004 2.26273E+01 3.16811E+01 0.00000E+00
 -1      1005 6.12824E+01 2.10515E+01 0.00000E+00
 -1      1006 1.78988E+01 1.70424E+01 0.00000E+00
 -1      1007 1.59000E+01 3.13048E+01 0.00000E+00
 -1      1008 6.13053E+01 2.52678E+01 0.00000E+00
 -1      1009 1.31814E+02 2.50000E+01 0.00000E+00
 -1      1010 1.42028E+01 2.94614E+01 0.00000E+00
 -1      1011 2.20886E+01 2.38368E+01 0.00000E+00
 -1      1012 1.31898E+02 2.73468E+01 0.00000E+00
 -1      1013 1.31814E+02 2.20500E+01 0.00000E+00
 -1      1014 2.08988E+01 1.70424E+01 0.00000E+00
 -1      1015 6.10522E+01 1.67394E+01 0.00000E+00
 -1      1016 1.78988E+01 1.99862E+01 0.00000E+00
 -1      1017 1.78988E+01 2.29362E+01 0.00000E+00
 -1      1018 1.77750E+01 3.15594E+01 0.00000E+00
 -1      1019 1.78783E+01 2.59322E+01 0.00000E+00
 -1      1020 2.03688E+01 2.85949E+01 0.00000E+00
 -1      1021 7.45350E+01 1.95942E+01 0.00000E+00
 -1      1022 6.91500E+01 2.92160E+01 0.00000E+00
 -1      1023 7.21500E+01 2.92160E+01 0.00000E+00
 -1      1024 7.51500E+01 2.92160E+01 0.00000E+00
 -1      1025 7.81500E+01 2.92160E+01 0.00000E+00
 -1      1026 8.11500E+01 2.92160E+01 0.00000E+00
 -1      1027 8.41500E+01 2.92160E+01 0.00000E+00
 -1      1028 8.71500E+01 2.92160E+01 0.00000E+00
 -1      1029 9.01500E+01 2.92160E+01 0.00000E+00
 -1      1030 9.31500E+01 2.92160E+01 0.00000E+00
 -1      1031 9.61500E+01 2.92160E+01 0.00000E+00
 -1      1032 9.91500E+01 2.92160E+01 0.00000E+00
 -1      1033 1.02150E+02 2.92160E+01 0.00000E+00
 -1      1034 1.05150E+02 2.92160E+01 0.00000E+00
 -1      1035 1.08150E+02 2.92160E+01 0.00000E+00
 -1      1036 1.11150E+02 2.92160E+01 0.00000E+00
 -1      1037 1.14150E+02 2.92160E+01 0.00000E+00
 -1      1038 1.17150E+02 2.92160E+01 0.00000E+00
 -1      1039 1.20150E+02 2.92160E+01 0.00000E+00
 -1      1040 1.23150E+02 2.92160E+01 0.00000E+00
 -1      1041 1.26150E+02 2.92160E+01 0.00000E+00
 -1      1042 1.29150E+02 2.92160E+01 0.00000E+00
 -1      1043 6.85350E+01 1.95942E+01 0.00000E+00
 -1      1044 7.15350E+01 1.95942E+01 0.00000E+00
 -1      1045 6.55350E+01 1.95942E+01 0.00000E+00
 -1      1046 7.75350E+01 1.95942E+01 0.00000E+00
 -1      1047 8.05350E+01 1.95942E+01 0.00000E+00
 -1      1048 8.35350E+01 1.95942E+01 0.00000E+00
 -1      1049 8.65350E+01 1.95942E+01 0.00000E+00
 -1      1050 8.95350E+01 1.95942E+01 0.00000E+00
 -1      1051 9.25350E+01 1.95942E+01 0.00000E+00
 -1      1052 9.55350E+01 1.95942E+01 0.00000E+00
 -1      1053 9.85350E+01 1.95942E+01 0.00000E+00
 -1      1054 1.01535E+02 1.95942E+01 0.00000E+00
 -1      1055 1.04535E+02 1.95942E+01 0.00000E+00
 -1      1056 1.07535E+02 1.95942E+01 0.00000E+00
 -1      1057 1.10535E+02 1.95942E+01 0.00000E+00
 -1      1058 1.13535E+02 1.95942E+01 0.00000E+00
 -1      1059 1.16535E+02 1.95942E+01 0.00000E+00
 -1      1060 1.19535E+02 1.95942E+01 0.00000E+00
 -1      1061 1.22535E+02 1.95942E+01 0.00000E+00
 -1      1062 1.25535E+02 1.95942E+01 0.00000E+00
 -1      1063 1.28535E+02 1.95942E+01 0.00000E+00
 -1      1064 2.12287E+01 2.62159E+01 0.00000E+00
 -1      1065 1.32257E+02 2.94190E+01 0.00000E+00
 -1      1066 1.29216E+02 2.35250E+01 0.00000E+00
 -1      1067 2.14937E+01 2.04396E+01 0.00000E+00
 -1      1068 6.28237E+01 2.89436E+01 0.00000E+00
 -1      1069 6.61500E+01 2.92160E+01 0.00000E+00
 -1      1070 6.27537E+01 2.32633E+01 0.00000E+00
 -1      1071 6.26587E+01 1.90239E+01 0.00000E+00
 -1      1072 1.68892E+01 2.86185E+01 0.00000E+00
 -1      1073 1.29300E+02 2.58717E+01 0.00000E+00
 -1      1074 6.44241E+01 2.61311E+01 0.00000E+00
 -1      1075 7.90350E+01 2.21922E+01 0.00000E+00
 -1      1076 7.60350E+01 2.21922E+01 0.00000E+00
 -1      1077 7.36500E+01 2.66180E+01 0.00000E+00
 -1      1078 7.66500E+01 2.66180E+01 0.00000E+00
 -1      1079 7.96500E+01 2.66180E+01 0.00000E+00
 -1      1080 8.26500E+01 2.66180E+01 0.00000E+00
 -1      1081 8.56500E+01 2.66180E+01 0.00000E+00
 -1      1082 8.86500E+01 2.66180E+01 0.00000E+00
 -1      1083 9.16500E+01 2.66180E+01 0.00000E+00
 -1      1084 9.46500E+01 2.66180E+01 0.00000E+00
 -1      1085 9.76500E+01 2.66180E+01 0.00000E+00
 -1      1086 1.00650E+02 2.66180E+01 0.00000E+00
 -1      1087 1.03650E+02 2.66180E+01 0.00000E+00
 -1      1088 1.06650E+02 2.66180E+01 0.00000E+00
 -1      1089 1.09650E+02 2.66180E+01 0.00000E+00
 -1      1090 1.12650E+02 2.66180E+01 0.00000E+00
 -1      1091 1.15650E+02 2.66180E+01 0.00000E+00
 -1      1092 1.18650E+02 2.66180E+01 0.00000E+00
 -1      1093 1.21650E+02 2.66180E+01 0.00000E+00
 -1      1094 1.24650E+02 2.66180E+01 0.00000E+00
 -1      1095 6.70350E+01 2.21922E+01 0.00000E+00
 -1      1096 8.20350E+01 2.21922E+01 0.00000E+00
 -1      1097 8.50350E+01 2.21922E+01 0.00000E+00
 -1      1098 8.80350E+01 2.21922E+01 0.00000E+00
 -1      1099 9.10350E+01 2.21922E+01 0.00000E+00
 -1      1100 9.40350E+01 2.21922E+01 0.00000E+00
 -1      1101 9.70350E+01 2.21922E+01 0.00000E+00
 -1      1102 1.00035E+02 2.21922E+01 0.00000E+00
 -1      1103 1.03035E+02 2.21922E+01 0.00000E+00
 -1      1104 1.06035E+02 2.21922E+01 0.00000E+00
 -1      1105 1.09035E+02 2.21922E+01 0.00000E+00
 -1      1106 1.12035E+02 2.21922E+01 0.00000E+00
 -1      1107 1.15035E+02 2.21922E+01 0.00000E+00
 -1      1108 1.18035E+02 2.21922E+01 0.00000E+00
 -1      1109 1.21035E+02 2.21922E+01 0.00000E+00
 -1      1110 1.24035E+02 2.21922E+01 0.00000E+00
 -1      1111 1.26626E+02 2.28586E+01 0.00000E+00
 -1      1112 6.41444E+01 2.14288E+01 0.00000E+00
 -1      1113 7.00350E+01 2.21922E+01 0.00000E+00
 -1      1114 7.30350E+01 2.21922E+01 0.00000E+00
 -1      1115 6.74241E+01 2.61311E+01 0.00000E+00
 -1      1116 7.05370E+01 2.63745E+01 0.00000E+00
 -1      1117 1.27650E+02 2.66180E+01 0.00000E+00
 -1      1118 6.57295E+01 2.41617E+01 0.00000E+00
 -1      1119 1.26662E+02 2.47913E+01 0.00000E+00
 -1      1120 6.87295E+01 2.41617E+01 0.00000E+00
 -1      1121 0.00000E+00 4.85250E+01 0.00000E+00
 -1      1122 0.00000E+00 4.55750E+01 0.00000E+00
 -1      1123 0.00000E+00 4.26250E+01 0.00000E+00
 -1      1124 0.00000E+00 3.96750E+01 0.00000E+00
 -1      1125 0.00000E+00 3.67250E+01 0.00000E+00
 -1      1126 0.00000E+00 3.38000E+01 0.00000E+00
 -1      1127 0.00000E+00 3.08750E+01 0.00000E+00
 -1      1128 0.00000E+00 2.79250E+01 0.00000E+00
 -1      1129 0.00000E+00 2.49750E+01 0.00000E+00
 -1      1130 0.00000E+00 2.20250E+01 0.00000E+00
 -1      1131 0.00000E+00 1.90750E+01 0.00000E+00
 -1      1132 0.00000E+00 1.61500E+01 0.00000E+00
 -1      1133 0.00000E+00 1.32250E+01 0.00000E+00
 -1      1134 0.00000E+00 1.02750E+01 0.00000E+00
 -1      1135 0.00000E+00 7.32500E+00 0.00000E+00
 -1      1136 0.00000E+00 4.37500E+00 0.00000E+00
 -1      1137 0.00000E+00 1.45000E+00 0.00000E+00
 -1      1138 1.57500E+00 5.00000E+01 0.00000E+00
 -1      1139 4.65000E+00 5.00000E+01 0.00000E+00
 -1      1140 7.65000E+00 5.00000E+01 0.00000E+00
 -1      1141 1.06500E+01 5.00000E+01 0.00000E+00
 -1      1142 1.36500E+01 5.00000E+01 0.00000E+00
 -1      1143 1.66500E+01 5.00000E+01 0.00000E+00
 -1      1144 1.96500E+01 5.00000E+01 0.00000E+00
 -1      1145 2.26500E+01 5.00000E+01 0.00000E+00
 -1      1146 2.56500E+01 5.00000E+01 0.00000E+00
 -1      1147 2.86500E+01 5.00000E+01 0.00000E+00
 -1      1148 3.16500E+01 5.00000E+01 0.00000E+00
 -1      1149 3.46500E+01 5.00000E+01 0.00000E+00
 -1      1150 3.76500E+01 5.00000E+01 0.00000E+00
 -1      1151 4.06500E+01 5.00000E+01 0.00000E+00
 -1      1152 4.36500E+01 5.00000E+01 0.00000E+00
 -1      1153 4.66500E+01 5.00000E+01 0.00000E+00
 -1      1154 4.96500E+01 5.00000E+01 0.00000E+00
 -1      1155 5.26500E+01 5.00000E+01 0.00000E+00
 -1      1156 5.56500E+01 5.00000E+01 0.00000E+00
 -1      1157 5.86500E+01 5.00000E+01 0.00000E+00
 -1      1158 6.16500E+01 5.00000E+01 0.00000E+00
 -1      1159 6.46500E+01 5.00000E+01 0.00000E+00
 -1      1160 6.76500E+01 5.00000E+01 0.00000E+00
 -1      1161 7.06500E+01 5.00000E+01 0.00000E+00
 -1      1162 7.36500E+01 5.00000E+01 0.00000E+00
 -1      1163 7.66500E+01 5.00000E+01 0.00000E+00
 -1      1164 7.96500E+01 5.00000E+01 0.00000E+00
 -1      1165 8.26500E+01 5.00000E+01 0.00000E+00
 -1      1166 8.56500E+01 5.00000E+01 0.00000E+00
 -1      1167 8.86500E+01 5.00000E+01 0.00000E+00
 -1      1168 9.16500E+01 5.00000E+01 0.00000E+00
 -1      1169 9.46500E+01 5.00000E+01 0.00000E+00
 -1      1170 9.76500E+01 5.00000E+01 0.00000E+00
 -1      1171 1.00650E+02 5.00000E+01 0.00000E+00
 -1      1172 1.03650E+02 5.00000E+01 0.00000E+00
 -1      1173 1.06650E+02 5.00000E+01 0.00000E+00
 -1      1174 1.09650E+02 5.00000E+01 0.00000E+00
 -1      1175 1.12650E+02 5.00000E+01 0.00000E+00
 -1      1176 1.15650E+02 5.00000E+01 0.00000E+00
 -1      1177 1.18650E+02 5.00000E+01 0.00000E+00
 -1      1178 1.21650E+02 5.00000E+01 0.00000E+00
 -1      1179 1.24650E+02 5.00000E+01 0.00000E+00
 -1      1180 1.27650E+02 5.00000E+01 0.00000E+00
 -1      1181 1.30650E+02 5.00000E+01 0.00000E+00
 -1      1182 1.33650E+02 5.00000E+01 0.00000E+00
 -1      1183 1.36650E+02 5.00000E+01 0.00000E+00
 -1      1184 1.39650E+02 5.00000E+01 0.00000E+00
 -1      1185 1.42650E+02 5.00000E+01 0.00000E+00
 -1      1186 1.45650E+02 5.00000E+01 0.00000E+00
 -1      1187 1.48575E+02 5.00000E+01 0.00000E+00
 -1      1188 1.57500E+00 0.00000E+00 0.00000E+00
 -1      1189 4.65000E+00 0.00000E+00 0.00000E+00
 -1      1190 7.65000E+00 0.00000E+00 0.00000E+00
 -1      1191 1.06500E+01 0.00000E+00 0.00000E+00
 -1      1192 1.36500E+01 0.00000E+00 0.00000E+00
 -1      1193 1.66500E+01 0.00000E+00 0.00000E+00
 -1      1194 1.96500E+01 0.00000E+00 0.00000E+00
 -1      1195 2.26500E+01 0.00000E+00 0.00000E+00
 -1      1196 2.56500E+01 0.00000E+00 0.00000E+00
 -1      1197 2.86500E+01 0.00000E+00 0.00000E+00
 -1      1198 3.16500E+01 0.00000E+00 0.00000E+00
 -1      1199 3.46500E+01 0.00000E+00 0.00000E+00
 -1      1200 3.76500E+01 0.00000E+00 0.00000E+00
 -1      1201 4.06500E+01 0.00000E+00 0.00000E+00
 -1      1202 4.36500E+01 0.00000E+00 0.00000E+00
 -1      1203 4.66500E+01 0.00000E+00 0.00000E+00
 -1      1204 4.96500E+01 0.00000E+00 0.00000E+00
 -1      1205 5.26500E+01 0.00000E+00 0.00000E+00
 -1      1206 5.56500E+01 0.00000E+00 0.00000E+00
 -1      1207 5.86500E+01 0.00000E+00 0.00000E+00
 -1      1208 6.16500E+01 0.00000E+00 0.00000E+00
 -1      1209 6.46500E+01 0.00000E+00 0.00000E+00
 -1      1210 6.76500E+01 0.00000E+00 0.00000E+00
 -1      1211 7.06500E+01 0.00000E+00 0.00000E+00
 -1      1212 7.36500E+01 0.00000E+00 0.00000E+00
 -1      1213 7.66500E+01 0.00000E+00 0.00000E+00
 -1      1214 7.96500E+01 0.00000E+00 0.00000E+00
 -1      1215 8.26500E+01 0.00000E+00 0.00000E+00
 -1      1216 8.56500E+01 0.00000E+00 0.00000E+00
 -1      1217 8.86500E+01 0.00000E+00 0.00000E+00
 -1      1218 9.16500E+01 0.00000E+00 0.00000E+00
 -1      1219 9.46500E+01 0.00000E+00 0.00000E+00
 -1      1220 9.76500E+01 0.00000E+00 0.00000E+00
 -1      1221 1.00650E+02 0.00000E+00 0.00000E+00
 -1      1222 1.03650E+02 0.00000E+00 0.00000E+00
 -1      1223 1.06650E+02 0.00000E+00 0.00000E+00
 -1      1224 1.09650E+02 0.00000E+00 0.00000E+00
 -1      1225 1.12650E+02 0.00000E+00 0.00000E+00
 -1      1226 1.15650E+02 0.00000E+00 0.00000E+00
 -1      1227 1.18650E+02 0.00000E+00 0.00000E+00
 -1      1228 1.21650E+02 0.00000E+00 0.00000E+00
 -1      1229 1.24650E+02 0.00000E+00 0.00000E+00
 -1      1230 1.27650E+02 0.00000E+00 0.00000E+00
 -1      1231 1.30650E+02 0.00000E+00 0.00000E+00
 -1      1232 1.33650E+02 0.00000E+00 0.00000E+00
 -1      1233 1.36650E+02 0.00000E+00 0.00000E+00
 -1      1234 1.39650E+02 0.00000E+00 0.00000E+00
 -1      1235 1.42650E+02 0.00000E+00 0.00000E+00
 -1      1236 1.45650E+02 0.00000E+00 0.00000E+00
 -1      1237 1.48575E+02 0.00000E+00 0.00000E+00
 -1      1238 1.50000E+02 1.47500E+00 0.00000E+00
 -1      1239 1.50000E+02 4.42500E+00 0.00000E+00
 -1      1240 1.50000E+02 7.37500E+00 0.00000E+00
 -1      1241 1.50000E+02 1.03250E+01 0.00000E+00
 -1      1242 1.50000E+02 1.32750E+01 0.00000E+00
 -1      1243 1.50000E+02 1.62000E+01 0.00000E+00
 -1      1244 1.50000E+02 1.91250E+01 0.00000E+00
 -1      1245 1.50000E+02 2.20750E+01 0.00000E+00
 -1      1246 1.50000E+02 2.50250E+01 0.00000E+00
 -1      1247 1.50000E+02 2.79750E+01 0.00000E+00
 -1      1248 1.50000E+02 3.09250E+01 0.00000E+00
 -1      1249 1.50000E+02 3.38500E+01 0.00000E+00
 -1      1250 1.50000E+02 3.67750E+01 0.00000E+00
 -1      1251 1.50000E+02 3.97250E+01 0.00000E+00
 -1      1252 1.50000E+02 4.26750E+01 0.00000E+00
 -1      1253 1.50000E+02 4.56250E+01 0.00000E+00
 -1      1254 1.50000E+02 4.85500E+01 0.00000E+00
 -1      1255 4.87240E+01 2.47908E+01 0.00000E+00
 -1      1256 4.83818E+01 2.32755E+01 0.00000E+00
 -1      1257 4.77436E+01 2.19215E+01 0.00000E+00
 -1      1258 4.68424E+01 2.07448E+01 0.00000E+00
 -1      1259 4.57040E+01 1.97778E+01 0.00000E+00
 -1      1260 4.44244E+01 1.90897E+01 0.00000E+00
 -1      1261 4.29380E+01 1.86644E+01 0.00000E+00
 -1      1262 4.13880E+01 1.85760E+01 0.00000E+00
 -1      1263 3.98545E+01 1.88321E+01 0.00000E+00
 -1      1264 3.83939E+01 1.94321E+01 0.00000E+00
 -1      1265 3.71470E+01 2.03069E+01 0.00000E+00
 -1      1266 3.61111E+01 2.14414E+01 0.00000E+00
 -1      1267 3.53642E+01 2.27368E+01 0.00000E+00
 -1      1268 3.49097E+01 2.41596E+01 0.00000E+00
 -1      1269 3.47674E+01 2.56314E+01 0.00000E+00
 -1      1270 3.49310E+01 2.70719E+01 0.00000E+00
 -1      1271 3.53882E+01 2.84485E+01 0.00000E+00
 -1      1272 3.61484E+01 2.97408E+01 0.00000E+00
 -1      1273 3.71970E+01 3.08681E+01 0.00000E+00
 -1      1274 3.84232E+01 3.17154E+01 0.00000E+00
 -1      1275 3.98501E+01 3.22981E+01 0.00000E+00
 -1      1276 4.13631E+01 3.25541E+01 0.00000E+00
 -1      1277 4.28540E+01 3.24808E+01 0.00000E+00
 -1      1278 4.43119E+01 3.20868E+01 0.00000E+00
 -1      1279 4.56336E+01 3.14009E+01 0.00000E+00
 -1      1280 4.68020E+01 3.04288E+01 0.00000E+00
 -1      1281 4.77532E+01 2.91942E+01 0.00000E+00
 -1      1282 4.84018E+01 2.77975E+01 0.00000E+00
 -1      1283 4.87263E+01 2.63197E+01 0.00000E+00
 -1      1284 1.57500E+00 4.85250E+01 0.00000E+00
 -1      1285 1.29900E+00 4.48375E+01 0.00000E+00
 -1      1286 1.29900E+00 4.63125E+01 0.00000E+00
 -1      1287 1.29900E+00 4.18875E+01 0.00000E+00
 -1      1288 1.29900E+00 4.33625E+01 0.00000E+00
 -1      1289 2.59800E+00 4.41000E+01 0.00000E+00
 -1      1290 1.29900E+00 3.89375E+01 0.00000E+00
 -1      1291 1.29900E+00 4.04125E+01 0.00000E+00
 -1      1292 2.59800E+00 4.11500E+01 0.00000E+00
 -1      1293 1.29900E+00 3.59875E+01 0.00000E+00
 -1      1294 1.29900E+00 3.74625E+01 0.00000E+00
 -1      1295 2.59800E+00 3.82000E+01 0.00000E+00
 -1      1296 1.29900E+00 3.30875E+01 0.00000E+00
 -1      1297 1.29900E+00 3.45375E+01 0.00000E+00
 -1      1298 2.59800E+00 3.52750E+01 0.00000E+00
 -1      1299 1.29900E+00 3.01375E+01 0.00000E+00
 -1      1300 1.29900E+00 3.16125E+01 0.00000E+00
 -1      1301 2.59800E+00 3.23500E+01 0.00000E+00
 -1      1302 1.29900E+00 2.71875E+01 0.00000E+00
 -1      1303 1.29900E+00 2.86625E+01 0.00000E+00
 -1      1304 2.59800E+00 2.94000E+01 0.00000E+00
 -1      1305 1.29900E+00 2.42375E+01 0.00000E+00
 -1      1306 1.29900E+00 2.57125E+01 0.00000E+00
 -1      1307 2.59800E+00 2.64500E+01 0.00000E+00
 -1      1308 1.29900E+00 2.12875E+01 0.00000E+00
 -1      1309 1.29900E+00 2.27625E+01 0.00000E+00
 -1      1310 2.59800E+00 2.35000E+01 0.00000E+00
 -1      1311 1.29900E+00 1.83375E+01 0.00000E+00
 -1      1312 1.29900E+00 1.98125E+01 0.00000E+00
 -1      1313 2.59800E+00 2.05500E+01 0.00000E+00
 -1      1314 1.29900E+00 1.54375E+01 0.00000E+00
 -1      1315 1.29900E+00 1.68875E+01 0.00000E+00
 -1      1316 2.59800E+00 1.76250E+01 0.00000E+00
 -1      1317 1.29900E+00 1.24875E+01 0.00000E+00
 -1      1318 1.29900E+00 1.39625E+01 0.00000E+00
 -1      1319 2.59800E+00 1.47000E+01 0.00000E+00
 -1      1320 1.29900E+00 9.53750E+00 0.00000E+00
 -1      1321 1.29900E+00 1.10125E+01 0.00000E+00
 -1      1322 2.59800E+00 1.17500E+01 0.00000E+00
 -1      1323 1.29900E+00 6.58750E+00 0.00000E+00
 -1      1324 1.29900E+00 8.06250E+00 0.00000E+00
 -1      1325 2.59800E+00 8.80000E+00 0.00000E+00
 -1      1326 1.29900E+00 3.63750E+00 0.00000E+00
 -1      1327 1.29900E+00 5.11250E+00 0.00000E+00
 -1      1328 2.59800E+00 5.85000E+00 0.00000E+00
 -1      1329 1.43700E+00 1.09375E+00 0.00000E+00
 -1      1330 1.43700E+00 2.54375E+00 0.00000E+00
 -1      1331 2.73600E+00 3.28125E+00 0.00000E+00
 -1      1332 3.01200E+00 1.09375E+00 0.00000E+00
 -1      1333 3.90000E+00 4.87010E+01 0.00000E+00
 -1      1334 5.40000E+00 4.87010E+01 0.00000E+00
 -1      1335 6.90000E+00 4.87010E+01 0.00000E+00
 -1      1336 8.40000E+00 4.87010E+01 0.00000E+00
 -1      1337 6.15000E+00 4.74020E+01 0.00000E+00
 -1      1338 9.90000E+00 4.87010E+01 0.00000E+00
 -1      1339 1.14000E+01 4.87010E+01 0.00000E+00
 -1      1340 9.15000E+00 4.74020E+01 0.00000E+00
 -1      1341 1.29000E+01 4.87010E+01 0.00000E+00
 -1      1342 1.44000E+01 4.87010E+01 0.00000E+00
 -1      1343 1.21500E+01 4.74020E+01 0.00000E+00
 -1      1344 1.59000E+01 4.87010E+01 0.00000E+00
 -1      1345 1.74000E+01 4.87010E+01 0.00000E+00
 -1      1346 1.51500E+01 4.74020E+01 0.00000E+00
 -1      1347 1.89000E+01 4.87010E+01 0.00000E+00
 -1      1348 2.04000E+01 4.87010E+01 0.00000E+00
 -1      1349 1.81500E+01 4.74020E+01 0.00000E+00
 -1      1350 2.19000E+01 4.87010E+01 0.00000E+00
 -1      1351 2.34000E+01 4.87010E+01 0.00000E+00
 -1      1352 2.11500E+01 4.74020E+01 0.00000E+00
 -1      1353 2.49000E+01 4.87010E+01 0.00000E+00
 -1      1354 2.64000E+01 4.87010E+01 0.00000E+00
 -1      1355 2.41500E+01 4.74020E+01 0.00000E+00
 -1      1356 2.79000E+01 4.87010E+01 0.00000E+00
 -1      1357 2.94000E+01 4.87010E+01 0.00000E+00
 -1      1358 2.71500E+01 4.74020E+01 0.00000E+00
 -1      1359 3.09000E+01 4.87010E+01 0.00000E+00
 -1      1360 3.24000E+01 4.87010E+01 0.00000E+00
 -1      1361 3.01500E+01 4.74020E+01 0.00000E+00
 -1      1362 3.39000E+01 4.87010E+01 0.00000E+00
 -1      1363 3.54000E+01 4.87010E+01 0.00000E+00
 -1      1364 3.31500E+01 4.74020E+01 0.00000E+00
 -1      1365 3.69000E+01 4.87010E+01 0.00000E+00
 -1      1366 3.84000E+01 4.87010E+01 0.00000E+00
 -1      1367 3.61500E+01 4.74020E+01 0.00000E+00
 -1      1368 3.99000E+01 4.87010E+01 0.00000E+00
 -1      1369 4.14000E+01 4.87010E+01 0.00000E+00
 -1      1370 3.91500E+01 4.74020E+01 0.00000E+00
 -1      1371 4.29000E+01 4.87010E+01 0.00000E+00
 -1      1372 4.44000E+01 4.87010E+01 0.00000E+00
 -1      1373 4.21500E+01 4.74020E+01 0.00000E+00
 -1      1374 4.59000E+01 4.87010E+01 0.00000E+00
 -1      1375 4.74000E+01 4.87010E+01 0.00000E+00
 -1      1376 4.51500E+01 4.74020E+01 0.00000E+00
 -1      1377 4.89000E+01 4.87010E+01 0.00000E+00
 -1      1378 5.04000E+01 4.87010E+01 0.00000E+00
 -1      1379 4.81500E+01 4.74020E+01 0.00000E+00
 -1      1380 5.19000E+01 4.87010E+01 0.00000E+00
 -1      1381 5.34000E+01 4.87010E+01 0.00000E+00
 -1      1382 5.11500E+01 4.74020E+01 0.00000E+00
 -1      1383 5.49000E+01 4.87010E+01 0.00000E+00
 -1      1384 5.64000E+01 4.87010E+01 0.00000E+00
 -1      1385 5.41500E+01 4.74020E+01 0.00000E+00
 -1      1386 5.79000E+01 4.87010E+01 0.00000E+00
 -1      1387 5.94000E+01 4.87010E+01 0.00000E+00
 -1      1388 5.71500E+01 4.74020E+01 0.00000E+00
 -1      1389 6.09000E+01 4.87010E+01 0.00000E+00
 -1      1390 6.24000E+01 4.87010E+01 0.00000E+00
 -1      1391 6.01500E+01 4.74020E+01 0.00000E+00
 -1      1392 6.39000E+01 4.87010E+01 0.00000E+00
 -1      1393 6.54000E+01 4.87010E+01 0.00000E+00
 -1      1394 6.31500E+01 4.74020E+01 0.00000E+00
 -1      1395 6.69000E+01 4.87010E+01 0.00000E+00
 -1      1396 6.84000E+01 4.87010E+01 0.00000E+00
 -1      1397 6.61500E+01 4.74020E+01 0.00000E+00
 -1      1398 6.99000E+01 4.87010E+01 0.00000E+00
 -1      1399 7.14000E+01 4.87010E+01 0.00000E+00
 -1      1400 6.91500E+01 4.74020E+01 0.00000E+00
 -1      1401 7.29000E+01 4.87010E+01 0.00000E+00
 -1      1402 7.44000E+01 4.87010E+01 0.00000E+00
 -1      1403 7.21500E+01 4.74020E+01 0.00000E+00
 -1      1404 7.59000E+01 4.87010E+01 0.00000E+00
 -1      1405 7.74000E+01 4.87010E+01 0.00000E+00
 -1      1406 7.51500E+01 4.74020E+01 0.00000E+00
 -1      1407 7.89000E+01 4.87010E+01 0.00000E+00
 -1      1408 8.04000E+01 4.87010E+01 0.00000E+00
 -1      1409 7.81500E+01 4.74020E+01 0.00000E+00
 -1      1410 8.19000E+01 4.87010E+01 0.00000E+00
 -1      1411 8.34000E+01 4.87010E+01 0.00000E+00
 -1      1412 8.11500E+01 4.74020E+01 0.00000E+00
 -1      1413 8.49000E+01 4.87010E+01 0.00000E+00
 -1      1414 8.64000E+01 4.87010E+01 0.00000E+00
 -1      1415 8.41500E+01 4.74020E+01 0.00000E+00
 -1      1416 8.79000E+01 4.87010E+01 0.00000E+00
 -1      1417 8.94000E+01 4.87010E+01 0.00000E+00
 -1      1418 8.71500E+01 4.74020E+01 0.00000E+00
 -1      1419 9.09000E+01 4.87010E+01 0.00000E+00
 -1      1420 9.24000E+01 4.87010E+01 0.00000E+00
 -1      1421 9.01500E+01 4.74020E+01 0.00000E+00
 -1      1422 9.39000E+01 4.87010E+01 0.00000E+00
 -1      1423 9.54000E+01 4.87010E+01 0.00000E+00
 -1      1424 9.31500E+01 4.74020E+01 0.00000E+00
 -1      1425 9.69000E+01 4.87010E+01 0.00000E+00
 -1      1426 9.84000E+01 4.87010E+01 0.00000E+00
 -1      1427 9.61500E+01 4.74020E+01 0.00000E+00
 -1      1428 9.99000E+01 4.87010E+01 0.00000E+00
 -1      1429 1.01400E+02 4.87010E+01 0.00000E+00
 -1      1430 9.91500E+01 4.74020E+01 0.00000E+00
 -1      1431 1.02900E+02 4.87010E+01 0.00000E+00
 -1      1432 1.04400E+02 4.87010E+01 0.00000E+00
 -1      1433 1.02150E+02 4.74020E+01 0.00000E+00
 -1      1434 1.05900E+02 4.87010E+01 0.00000E+00
 -1      1435 1.07400E+02 4.87010E+01 0.00000E+00
 -1      1436 1.05150E+02 4.74020E+01 0.00000E+00
 -1      1437 1.08900E+02 4.87010E+01 0.00000E+00
 -1      1438 1.10400E+02 4.87010E+01 0.00000E+00
 -1      1439 1.08150E+02 4.74020E+01 0.00000E+00
 -1      1440 1.11900E+02 4.87010E+01 0.00000E+00
 -1      1441 1.13400E+02 4.87010E+01 0.00000E+00
 -1      1442 1.11150E+02 4.74020E+01 0.00000E+00
 -1      1443 1.14900E+02 4.87010E+01 0.00000E+00
 -1      1444 1.16400E+02 4.87010E+01 0.00000E+00
 -1      1445 1.14150E+02 4.74020E+01 0.00000E+00
 -1      1446 1.17900E+02 4.87010E+01 0.00000E+00
 -1      1447 1.19400E+02 4.87010E+01 0.00000E+00
 -1      1448 1.17150E+02 4.74020E+01 0.00000E+00
 -1      1449 1.20900E+02 4.87010E+01 0.00000E+00
 -1      1450 1.22400E+02 4.87010E+01 0.00000E+00
 -1      1451 1.20150E+02 4.74020E+01 0.00000E+00
 -1      1452 1.23900E+02 4.87010E+01 0.00000E+00
 -1      1453 1.25400E+02 4.87010E+01 0.00000E+00
 -1      1454 1.23150E+02 4.74020E+01 0.00000E+00
 -1      1455 1.26900E+02 4.87010E+01 0.00000E+00
 -1      1456 1.28400E+02 4.87010E+01 0.00000E+00
 -1      1457 1.26150E+02 4.74020E+01 0.00000E+00
 -1      1458 1.29900E+02 4.87010E+01 0.00000E+00
 -1      1459 1.31400E+02 4.87010E+01 0.00000E+00
 -1      1460 1.29150E+02 4.74020E+01 0.00000E+00
 -1      1461 1.32900E+02 4.87010E+01 0.00000E+00
 -1      1462 1.34400E+02 4.87010E+01 0.00000E+00
 -1      1463 1.32150E+02 4.74020E+01 0.00000E+00
 -1      1464 1.35900E+02 4.87010E+01 0.00000E+00
 -1      1465 1.37400E+02 4.87010E+01 0.00000E+00
 -1      1466 1.35150E+02 4.74020E+01 0.00000E+00
 -1      1467 1.38900E+02 4.87010E+01 0.00000E+00
 -1      1468 1.40400E+02 4.87010E+01 0.00000E+00
 -1      1469 1.38150E+02 4.74020E+01 0.00000E+00
 -1      1470 1.41900E+02 4.87010E+01 0.00000E+00
 -1      1471 1.43400E+02 4.87010E+01 0.00000E+00
 -1      1472 1.41150E+02 4.74020E+01 0.00000E+00
 -1      1473 1.44900E+02 4.87010E+01 0.00000E+00
 -1      1474 1.46400E+02 4.87010E+01 0.00000E+00
 -1      1475 1.44150E+02 4.74020E+01 0.00000E+00
 -1      1476 1.48575E+02 4.85500E+01 0.00000E+00
 -1      1477 1.47825E+02 4.72510E+01 0.00000E+00
 -1      1478 6.01200E+00 1.09375E+00 0.00000E+00
 -1      1479 4.51200E+00 1.09375E+00 0.00000E+00
 -1      1480 4.37400E+00 2.18750E+00 0.00000E+00
 -1      1481 9.01200E+00 1.09375E+00 0.00000E+00
 -1      1482 7.51200E+00 1.09375E+00 0.00000E+00
 -1      1483 7.37400E+00 2.18750E+00 0.00000E+00
 -1      1484 1.20120E+01 1.09375E+00 0.00000E+00
 -1      1485 1.05120E+01 1.09375E+00 0.00000E+00
 -1      1486 1.03740E+01 2.18750E+00 0.00000E+00
 -1      1487 1.50120E+01 1.09375E+00 0.00000E+00
 -1      1488 1.35120E+01 1.09375E+00 0.00000E+00
 -1      1489 1.33740E+01 2.18750E+00 0.00000E+00
 -1      1490 1.80120E+01 1.09375E+00 0.00000E+00
 -1      1491 1.65120E+01 1.09375E+00 0.00000E+00
 -1      1492 1.63740E+01 2.18750E+00 0.00000E+00
 -1      1493 2.10120E+01 1.09375E+00 0.00000E+00
 -1      1494 1.95120E+01 1.09375E+00 0.00000E+00
 -1      1495 1.93740E+01 2.18750E+00 0.00000E+00
 -1      1496 2.40120E+01 1.09375E+00 0.00000E+00
 -1      1497 2.25120E+01 1.09375E+00 0.00000E+00
 -1      1498 2.23740E+01 2.18750E+00 0.00000E+00
 -1      1499 2.70120E+01 1.09375E+00 0.00000E+00
 -1      1500 2.55120E+01 1.09375E+00 0.00000E+00
 -1      1501 2.53740E+01 2.18750E+00 0.00000E+00
 -1      1502 3.00120E+01 1.09375E+00 0.00000E+00
 -1      1503 2.85120E+01 1.09375E+00 0.00000E+00
 -1      1504 2.83740E+01 2.18750E+00 0.00000E+00
 -1      1505 3.30120E+01 1.09375E+00 0.00000E+00
 -1      1506 3.15120E+01 1.09375E+00 0.00000E+00
 -1      1507 3.13740E+01 2.18750E+00 0.00000E+00
 -1      1508 3.60120E+01 1.09375E+00 0.00000E+00
 -1      1509 3.45120E+01 1.09375E+00 0.00000E+00
 -1      1510 3.43740E+01 2.18750E+00 0.00000E+00
 -1      1511 3.90120E+01 1.09375E+00 0.00000E+00
 -1      1512 3.75120E+01 1.09375E+00 0.00000E+00
 -1      1513 3.73740E+01 2.18750E+00 0.00000E+00
 -1      1514 4.20120E+01 1.09375E+00 0.00000E+00
 -1      1515 4.05120E+01 1.09375E+00 0.00000E+00
 -1      1516 4.03740E+01 2.18750E+00 0.00000E+00
 -1      1517 4.50120E+01 1.09375E+00 0.00000E+00
 -1      1518 4.35120E+01 1.09375E+00 0.00000E+00
 -1      1519 4.33740E+01 2.18750E+00 0.00000E+00
 -1      1520 4.80120E+01 1.09375E+00 0.00000E+00
 -1      1521 4.65120E+01 1.09375E+00 0.00000E+00
 -1      1522 4.63740E+01 2.18750E+00 0.00000E+00
 -1      1523 5.10120E+01 1.09375E+00 0.00000E+00
 -1      1524 4.95120E+01 1.09375E+00 0.00000E+00
 -1      1525 4.93740E+01 2.18750E+00 0.00000E+00
 -1      1526 5.40120E+01 1.09375E+00 0.00000E+00
 -1      1527 5.25120E+01 1.09375E+00 0.00000E+00
 -1      1528 5.23740E+01 2.18750E+00 0.00000E+00
 -1      1529 5.70120E+01 1.09375E+00 0.00000E+00
 -1      1530 5.55120E+01 1.09375E+00 0.00000E+00
 -1      1531 5.53740E+01 2.18750E+00 0.00000E+00
 -1      1532 6.00120E+01 1.09375E+00 0.00000E+00
 -1      1533 5.85120E+01 1.09375E+00 0.00000E+00
 -1      1534 5.83740E+01 2.18750E+00 0.00000E+00
 -1      1535 6.30120E+01 1.09375E+00 0.00000E+00
 -1      1536 6.15120E+01 1.09375E+00 0.00000E+00
 -1      1537 6.13740E+01 2.18750E+00 0.00000E+00
 -1      1538 6.60120E+01 1.09375E+00 0.00000E+00
 -1      1539 6.45120E+01 1.09375E+00 0.00000E+00
 -1      1540 6.43740E+01 2.18750E+00 0.00000E+00
 -1      1541 6.90120E+01 1.09375E+00 0.00000E+00
 -1      1542 6.75120E+01 1.09375E+00 0.00000E+00
 -1      1543 6.73740E+01 2.18750E+00 0.00000E+00
 -1      1544 7.20120E+01 1.09375E+00 0.00000E+00
 -1      1545 7.05120E+01 1.09375E+00 0.00000E+00
 -1      1546 7.03740E+01 2.18750E+00 0.00000E+00
 -1      1547 7.50120E+01 1.09375E+00 0.00000E+00
 -1      1548 7.35120E+01 1.09375E+00 0.00000E+00
 -1      1549 7.33740E+01 2.18750E+00 0.00000E+00
 -1      1550 7.80120E+01 1.09375E+00 0.00000E+00
 -1      1551 7.65120E+01 1.09375E+00 0.00000E+00
 -1      1552 7.63740E+01 2.18750E+00 0.00000E+00
 -1      1553 8.10120E+01 1.09375E+00 0.00000E+00
 -1      1554 7.95120E+01 1.09375E+00 0.00000E+00
 -1      1555 7.93740E+01 2.18750E+00 0.00000E+00
 -1      1556 8.40120E+01 1.09375E+00 0.00000E+00
 -1      1557 8.25120E+01 1.09375E+00 0.00000E+00
 -1      1558 8.23740E+01 2.18750E+00 0.00000E+00
 -1      1559 8.70120E+01 1.09375E+00 0.00000E+00
 -1      1560 8.55120E+01 1.09375E+00 0.00000E+00
 -1      1561 8.53740E+01 2.18750E+00 0.00000E+00
 -1      1562 9.00120E+01 1.09375E+00 0.00000E+00
 -1      1563 8.85120E+01 1.09375E+00 0.00000E+00
 -1      1564 8.83740E+01 2.18750E+00 0.00000E+00
 -1      1565 9.30120E+01 1.09375E+00 0.00000E+00
 -1      1566 9.15120E+01 1.09375E+00 0.00000E+00
 -1      1567 9.13740E+01 2.18750E+00 0.00000E+00
 -1      1568 9.60120E+01 1.09375E+00 0.00000E+00
 -1      1569 9.45120E+01 1.09375E+00 0.00000E+00
 -1      1570 9.43740E+01 2.18750E+00 0.00000E+00
 -1      1571 9.90120E+01 1.09375E+00 0.00000E+00
 -1      1572 9.75120E+01 1.09375E+00 0.00000E+00
 -1      1573 9.73740E+01 2.18750E+00 0.00000E+00
 -1      1574 1.02012E+02 1.09375E+00 0.00000E+00
 -1      1575 1.00512E+02 1.09375E+00 0.00000E+00
 -1      1576 1.00374E+02 2.18750E+00 0.00000E+00
 -1      1577 1.05012E+02 1.09375E+00 0.00000E+00
 -1      1578 1.03512E+02 1.09375E+00 0.00000E+00
 -1      1579 1.03374E+02 2.18750E+00 0.00000E+00
 -1      1580 1.08012E+02 1.09375E+00 0.00000E+00
 -1      1581 1.06512E+02 1.09375E+00 0.00000E+00
 -1      1582 1.06374E+02 2.18750E+00 0.00000E+00
 -1      1583 1.11012E+02 1.09375E+00 0.00000E+00
 -1      1584 1.09512E+02 1.09375E+00 0.00000E+00
 -1      1585 1.09374E+02 2.18750E+00 0.00000E+00
 -1      1586 1.14012E+02 1.09375E+00 0.00000E+00
 -1      1587 1.12512E+02 1.09375E+00 0.00000E+00
 -1      1588 1.12374E+02 2.18750E+00 0.00000E+00
 -1      1589 1.17012E+02 1.09375E+00 0.00000E+00
 -1      1590 1.15512E+02 1.09375E+00 0.00000E+00
 -1      1591 1.15374E+02 2.18750E+00 0.00000E+00
 -1      1592 1.20012E+02 1.09375E+00 0.00000E+00
 -1      1593 1.18512E+02 1.09375E+00 0.00000E+00
 -1      1594 1.18374E+02 2.18750E+00 0.00000E+00
 -1      1595 1.23012E+02 1.09375E+00 0.00000E+00
 -1      1596 1.21512E+02 1.09375E+00 0.00000E+00
 -1      1597 1.21374E+02 2.18750E+00 0.00000E+00
 -1      1598 1.26012E+02 1.09375E+00 0.00000E+00
 -1      1599 1.24512E+02 1.09375E+00 0.00000E+00
 -1      1600 1.24374E+02 2.18750E+00 0.00000E+00
 -1      1601 1.29012E+02 1.09375E+00 0.00000E+00
 -1      1602 1.27512E+02 1.09375E+00 0.00000E+00
 -1      1603 1.27374E+02 2.18750E+00 0.00000E+00
 -1      1604 1.32012E+02 1.09375E+00 0.00000E+00
 -1      1605 1.30512E+02 1.09375E+00 0.00000E+00
 -1      1606 1.30374E+02 2.18750E+00 0.00000E+00
 -1      1607 1.35012E+02 1.09375E+00 0.00000E+00
 -1      1608 1.33512E+02 1.09375E+00 0.00000E+00
 -1      1609 1.33374E+02 2.18750E+00 0.00000E+00
 -1      1610 1.38012E+02 1.09375E+00 0.00000E+00
 -1      1611 1.36512E+02 1.09375E+00 0.00000E+00
 -1      1612 1.36374E+02 2.18750E+00 0.00000E+00
 -1      1613 1.41012E+02 1.09375E+00 0.00000E+00
 -1      1614 1.39512E+02 1.09375E+00 0.00000E+00
 -1      1615 1.39374E+02 2.18750E+00 0.00000E+00
 -1      1616 1.44012E+02 1.09375E+00 0.00000E+00
 -1      1617 1.42512E+02 1.09375E+00 0.00000E+00
 -1      1618 1.42374E+02 2.18750E+00 0.00000E+00
 -1      1619 1.47012E+02 1.09375E+00 0.00000E+00
 -1      1620 1.45512E+02 1.09375E+00 0.00000E+00
 -1      1621 1.45374E+02 2.18750E+00 0.00000E+00
 -1      1622 1.48575E+02 1.47500E+00 0.00000E+00
 -1      1623 1.48701E+02 5.16250E+00 0.00000E+00
 -1      1624 1.48701E+02 3.68750E+00 0.00000E+00
 -1      1625 1.48701E+02 8.11250E+00 0.00000E+00
 -1      1626 1.48701E+02 6.63750E+00 0.00000E+00
 -1      1627 1.47402E+02 5.90000E+00 0.00000E+00
 -1      1628 1.48701E+02 1.10625E+01 0.00000E+00
 -1      1629 1.48701E+02 9.58750E+00 0.00000E+00
 -1      1630 1.47402E+02 8.85000E+00 0.00000E+00
 -1      1631 1.48701E+02 1.40125E+01 0.00000E+00
 -1      1632 1.48701E+02 1.25375E+01 0.00000E+00
 -1      1633 1.47402E+02 1.18000E+01 0.00000E+00
 -1      1634 1.48701E+02 1.69125E+01 0.00000E+00
 -1      1635 1.48701E+02 1.54625E+01 0.00000E+00
 -1      1636 1.47402E+02 1.47250E+01 0.00000E+00
 -1      1637 1.48701E+02 1.98625E+01 0.00000E+00
 -1      1638 1.48701E+02 1.83875E+01 0.00000E+00
 -1      1639 1.47402E+02 1.76500E+01 0.00000E+00
 -1      1640 1.48701E+02 2.28125E+01 0.00000E+00
 -1      1641 1.48701E+02 2.13375E+01 0.00000E+00
 -1      1642 1.47402E+02 2.06000E+01 0.00000E+00
 -1      1643 1.48701E+02 2.57625E+01 0.00000E+00
 -1      1644 1.48701E+02 2.42875E+01 0.00000E+00
 -1      1645 1.47402E+02 2.35500E+01 0.00000E+00
 -1      1646 1.48701E+02 2.87125E+01 0.00000E+00
 -1      1647 1.48701E+02 2.72375E+01 0.00000E+00
 -1      1648 1.47402E+02 2.65000E+01 0.00000E+00
 -1      1649 1.48701E+02 3.16625E+01 0.00000E+00
 -1      1650 1.48701E+02 3.01875E+01 0.00000E+00
 -1      1651 1.47402E+02 2.94500E+01 0.00000E+00
 -1      1652 1.48701E+02 3.45625E+01 0.00000E+00
 -1      1653 1.48701E+02 3.31125E+01 0.00000E+00
 -1      1654 1.47402E+02 3.23750E+01 0.00000E+00
 -1      1655 1.48701E+02 3.75125E+01 0.00000E+00
 -1      1656 1.48701E+02 3.60375E+01 0.00000E+00
 -1      1657 1.47402E+02 3.53000E+01 0.00000E+00
 -1      1658 1.48701E+02 4.04625E+01 0.00000E+00
 -1      1659 1.48701E+02 3.89875E+01 0.00000E+00
 -1      1660 1.47402E+02 3.82500E+01 0.00000E+00
 -1      1661 1.48701E+02 4.34125E+01 0.00000E+00
 -1      1662 1.48701E+02 4.19375E+01 0.00000E+00
 -1      1663 1.47402E+02 4.12000E+01 0.00000E+00
 -1      1664 1.48263E+02 4.60692E+01 0.00000E+00
 -1      1665 1.48263E+02 4.45942E+01 0.00000E+00
 -1      1666 1.46964E+02 4.38568E+01 0.00000E+00
 -1      1667 1.46088E+02 4.62202E+01 0.00000E+00
 -1      1668 4.93241E+01 2.43341E+01 0.00000E+00
 -1      1669 4.94099E+01 2.51043E+01 0.00000E+00
 -1      1670 4.89446E+01 2.26687E+01 0.00000E+00
 -1      1671 4.91993E+01 2.34044E+01 0.00000E+00
 -1      1672 4.80784E+01 2.12966E+01 0.00000E+00
 -1      1673 4.84524E+01 2.19100E+01 0.00000E+00
 -1      1674 4.70190E+01 2.00504E+01 0.00000E+00
 -1      1675 4.75450E+01 2.06042E+01 0.00000E+00
 -1      1676 4.57217E+01 1.91028E+01 0.00000E+00
 -1      1677 4.63252E+01 1.95134E+01 0.00000E+00
 -1      1678 4.43058E+01 1.84263E+01 0.00000E+00
 -1      1679 4.49747E+01 1.87008E+01 0.00000E+00
 -1      1680 4.26536E+01 1.78805E+01 0.00000E+00
 -1      1681 4.34650E+01 1.80182E+01 0.00000E+00
 -1      1682 4.09908E+01 1.79867E+01 0.00000E+00
 -1      1683 4.17192E+01 1.79472E+01 0.00000E+00
 -1      1684 3.92825E+01 1.83280E+01 0.00000E+00
 -1      1685 4.00763E+01 1.81026E+01 0.00000E+00
 -1      1686 3.77912E+01 1.91182E+01 0.00000E+00
 -1      1687 3.84517E+01 1.87549E+01 0.00000E+00
 -1      1688 3.64860E+01 2.01372E+01 0.00000E+00
 -1      1689 3.70639E+01 1.96294E+01 0.00000E+00
 -1      1690 3.54294E+01 2.14189E+01 0.00000E+00
 -1      1691 3.58813E+01 2.07992E+01 0.00000E+00
 -1      1692 3.46973E+01 2.28402E+01 0.00000E+00
 -1      1693 3.49916E+01 2.21740E+01 0.00000E+00
 -1      1694 3.42801E+01 2.44212E+01 0.00000E+00
 -1      1695 3.44339E+01 2.36714E+01 0.00000E+00
 -1      1696 3.42010E+01 2.59933E+01 0.00000E+00
 -1      1697 3.41943E+01 2.52801E+01 0.00000E+00
 -1      1698 3.44153E+01 2.75626E+01 0.00000E+00
 -1      1699 3.42568E+01 2.68433E+01 0.00000E+00
 -1      1700 3.50161E+01 2.90084E+01 0.00000E+00
 -1      1701 3.47220E+01 2.83578E+01 0.00000E+00
 -1      1702 3.58642E+01 3.04411E+01 0.00000E+00
 -1      1703 3.53959E+01 2.98108E+01 0.00000E+00
 -1      1704 3.70041E+01 3.16695E+01 0.00000E+00
 -1      1705 3.64328E+01 3.11771E+01 0.00000E+00
 -1      1706 3.84555E+01 3.24265E+01 0.00000E+00
 -1      1707 3.78088E+01 3.20749E+01 0.00000E+00
 -1      1708 4.00380E+01 3.31079E+01 0.00000E+00
 -1      1709 3.92637E+01 3.28874E+01 0.00000E+00
 -1      1710 4.16945E+01 3.31423E+01 0.00000E+00
 -1      1711 4.09662E+01 3.31002E+01 0.00000E+00
 -1      1712 4.33252E+01 3.30206E+01 0.00000E+00
 -1      1713 4.25712E+01 3.31391E+01 0.00000E+00
 -1      1714 4.48657E+01 3.24785E+01 0.00000E+00
 -1      1715 4.41699E+01 3.27500E+01 0.00000E+00
 -1      1716 4.62560E+01 3.16684E+01 0.00000E+00
 -1      1717 4.56374E+01 3.20784E+01 0.00000E+00
 -1      1718 4.75071E+01 3.05693E+01 0.00000E+00
 -1      1719 4.69668E+01 3.11287E+01 0.00000E+00
 -1      1720 4.84367E+01 2.91519E+01 0.00000E+00
 -1      1721 4.80319E+01 2.98197E+01 0.00000E+00
 -1      1722 4.90582E+01 2.76179E+01 0.00000E+00
 -1      1723 4.88162E+01 2.83373E+01 0.00000E+00
 -1      1724 4.93291E+01 2.60058E+01 0.00000E+00
 -1      1725 4.92479E+01 2.67555E+01 0.00000E+00
 -1      1726 4.70581E+01 1.93439E+01 0.00000E+00
 -1      1727 4.82853E+01 2.05734E+01 0.00000E+00
 -1      1728 1.48437E+02 2.56875E+00 0.00000E+00
 -1      1729 1.47138E+02 3.30625E+00 0.00000E+00
 -1      1730 4.99279E+01 2.37131E+01 0.00000E+00
 -1      1731 4.93109E+01 2.20247E+01 0.00000E+00
 -1      1732 4.99720E+01 2.55444E+01 0.00000E+00
 -1      1733 4.56174E+01 1.84048E+01 0.00000E+00
 -1      1734 4.40296E+01 1.75946E+01 0.00000E+00
 -1      1735 4.22543E+01 1.72531E+01 0.00000E+00
 -1      1736 4.04054E+01 1.74357E+01 0.00000E+00
 -1      1737 3.86601E+01 1.79785E+01 0.00000E+00
 -1      1738 3.71021E+01 1.89166E+01 0.00000E+00
 -1      1739 3.57702E+01 2.00899E+01 0.00000E+00
 -1      1740 3.47277E+01 2.15070E+01 0.00000E+00
 -1      1741 3.40265E+01 2.30933E+01 0.00000E+00
 -1      1742 3.36773E+01 2.47835E+01 0.00000E+00
 -1      1743 3.36473E+01 2.64924E+01 0.00000E+00
 -1      1744 3.40099E+01 2.81376E+01 0.00000E+00
 -1      1745 3.46965E+01 2.97351E+01 0.00000E+00
 -1      1746 3.56448E+01 3.12734E+01 0.00000E+00
 -1      1747 3.70179E+01 3.24147E+01 0.00000E+00
 -1      1748 3.86308E+01 3.32810E+01 0.00000E+00
 -1      1749 4.03672E+01 3.37341E+01 0.00000E+00
 -1      1750 4.21721E+01 3.37232E+01 0.00000E+00
 -1      1751 4.38935E+01 3.34495E+01 0.00000E+00
 -1      1752 4.55098E+01 3.27788E+01 0.00000E+00
 -1      1753 4.69923E+01 3.18390E+01 0.00000E+00
 -1      1754 4.82279E+01 3.05496E+01 0.00000E+00
 -1      1755 4.91322E+01 2.89854E+01 0.00000E+00
 -1      1756 4.97015E+01 2.73084E+01 0.00000E+00
 -1      1757 2.87400E+00 4.77875E+01 0.00000E+00
 -1      1758 3.89700E+00 4.04125E+01 0.00000E+00
 -1      1759 3.89700E+00 4.18875E+01 0.00000E+00
 -1      1760 3.89700E+00 4.33625E+01 0.00000E+00
 -1      1761 3.89700E+00 4.48375E+01 0.00000E+00
 -1      1762 5.19600E+00 4.26250E+01 0.00000E+00
 -1      1763 3.89700E+00 3.45500E+01 0.00000E+00
 -1      1764 3.89700E+00 3.60000E+01 0.00000E+00
 -1      1765 3.89700E+00 3.16000E+01 0.00000E+00
 -1      1766 3.89700E+00 3.30750E+01 0.00000E+00
 -1      1767 5.19600E+00 3.38000E+01 0.00000E+00
 -1      1768 3.89700E+00 2.86500E+01 0.00000E+00
 -1      1769 3.89700E+00 3.01250E+01 0.00000E+00
 -1      1770 5.19600E+00 3.08500E+01 0.00000E+00
 -1      1771 3.89700E+00 2.57000E+01 0.00000E+00
 -1      1772 3.89700E+00 2.71750E+01 0.00000E+00
 -1      1773 5.19600E+00 2.79000E+01 0.00000E+00
 -1      1774 3.89700E+00 2.27500E+01 0.00000E+00
 -1      1775 3.89700E+00 2.42250E+01 0.00000E+00
 -1      1776 5.19600E+00 2.49500E+01 0.00000E+00
 -1      1777 3.89700E+00 1.98000E+01 0.00000E+00
 -1      1778 3.89700E+00 2.12750E+01 0.00000E+00
 -1      1779 5.19600E+00 2.20000E+01 0.00000E+00
 -1      1780 3.89700E+00 1.69000E+01 0.00000E+00
 -1      1781 3.89700E+00 1.83500E+01 0.00000E+00
 -1      1782 5.19600E+00 1.90750E+01 0.00000E+00
 -1      1783 3.89700E+00 1.39500E+01 0.00000E+00
 -1      1784 3.89700E+00 1.54250E+01 0.00000E+00
 -1      1785 5.19600E+00 1.61500E+01 0.00000E+00
 -1      1786 3.89700E+00 1.10000E+01 0.00000E+00
 -1      1787 3.89700E+00 1.24750E+01 0.00000E+00
 -1      1788 5.19600E+00 1.32000E+01 0.00000E+00
 -1      1789 3.89700E+00 8.05000E+00 0.00000E+00
 -1      1790 3.89700E+00 9.52500E+00 0.00000E+00
 -1      1791 5.19600E+00 1.02500E+01 0.00000E+00
 -1      1792 3.89700E+00 5.10000E+00 0.00000E+00
 -1      1793 3.89700E+00 6.57500E+00 0.00000E+00
 -1      1794 5.19600E+00 7.30000E+00 0.00000E+00
 -1      1795 4.20450E+00 3.09687E+00 0.00000E+00
 -1      1796 4.06650E+00 4.19063E+00 0.00000E+00
 -1      1797 5.36550E+00 4.91563E+00 0.00000E+00
 -1      1798 5.70450E+00 3.09687E+00 0.00000E+00
 -1      1799 3.62400E+00 4.64885E+01 0.00000E+00
 -1      1800 8.70450E+00 3.09687E+00 0.00000E+00
 -1      1801 7.20450E+00 3.09687E+00 0.00000E+00
 -1      1802 7.03500E+00 4.00625E+00 0.00000E+00
 -1      1803 4.92300E+00 4.57510E+01 0.00000E+00
 -1      1804 8.40000E+00 4.61030E+01 0.00000E+00
 -1      1805 9.90000E+00 4.61030E+01 0.00000E+00
 -1      1806 1.14000E+01 4.61030E+01 0.00000E+00
 -1      1807 1.29000E+01 4.61030E+01 0.00000E+00
 -1      1808 1.06500E+01 4.48040E+01 0.00000E+00
 -1      1809 1.44000E+01 4.61030E+01 0.00000E+00
 -1      1810 1.59000E+01 4.61030E+01 0.00000E+00
 -1      1811 1.36500E+01 4.48040E+01 0.00000E+00
 -1      1812 1.74000E+01 4.61030E+01 0.00000E+00
 -1      1813 1.89000E+01 4.61030E+01 0.00000E+00
 -1      1814 1.66500E+01 4.48040E+01 0.00000E+00
 -1      1815 2.04000E+01 4.61030E+01 0.00000E+00
 -1      1816 2.19000E+01 4.61030E+01 0.00000E+00
 -1      1817 1.96500E+01 4.48040E+01 0.00000E+00
 -1      1818 2.34000E+01 4.61030E+01 0.00000E+00
 -1      1819 2.49000E+01 4.61030E+01 0.00000E+00
 -1      1820 2.26500E+01 4.48040E+01 0.00000E+00
 -1      1821 2.64000E+01 4.61030E+01 0.00000E+00
 -1      1822 2.79000E+01 4.61030E+01 0.00000E+00
 -1      1823 2.56500E+01 4.48040E+01 0.00000E+00
 -1      1824 2.94000E+01 4.61030E+01 0.00000E+00
 -1      1825 3.09000E+01 4.61030E+01 0.00000E+00
 -1      1826 2.86500E+01 4.48040E+01 0.00000E+00
 -1      1827 3.24000E+01 4.61030E+01 0.00000E+00
 -1      1828 3.39000E+01 4.61030E+01 0.00000E+00
 -1      1829 3.16500E+01 4.48040E+01 0.00000E+00
 -1      1830 3.54000E+01 4.61030E+01 0.00000E+00
 -1      1831 3.69000E+01 4.61030E+01 0.00000E+00
 -1      1832 3.46500E+01 4.48040E+01 0.00000E+00
 -1      1833 3.84000E+01 4.61030E+01 0.00000E+00
 -1      1834 3.99000E+01 4.61030E+01 0.00000E+00
 -1      1835 3.76500E+01 4.48040E+01 0.00000E+00
 -1      1836 4.14000E+01 4.61030E+01 0.00000E+00
 -1      1837 4.29000E+01 4.61030E+01 0.00000E+00
 -1      1838 4.06500E+01 4.48040E+01 0.00000E+00
 -1      1839 4.44000E+01 4.61030E+01 0.00000E+00
 -1      1840 4.59000E+01 4.61030E+01 0.00000E+00
 -1      1841 4.36500E+01 4.48040E+01 0.00000E+00
 -1      1842 4.74000E+01 4.61030E+01 0.00000E+00
 -1      1843 4.89000E+01 4.61030E+01 0.00000E+00
 -1      1844 4.66500E+01 4.48040E+01 0.00000E+00
 -1      1845 5.04000E+01 4.61030E+01 0.00000E+00
 -1      1846 5.19000E+01 4.61030E+01 0.00000E+00
 -1      1847 4.96500E+01 4.48040E+01 0.00000E+00
 -1      1848 5.34000E+01 4.61030E+01 0.00000E+00
 -1      1849 5.49000E+01 4.61030E+01 0.00000E+00
 -1      1850 5.26500E+01 4.48040E+01 0.00000E+00
 -1      1851 5.64000E+01 4.61030E+01 0.00000E+00
 -1      1852 5.79000E+01 4.61030E+01 0.00000E+00
 -1      1853 5.56500E+01 4.48040E+01 0.00000E+00
 -1      1854 5.94000E+01 4.61030E+01 0.00000E+00
 -1      1855 6.09000E+01 4.61030E+01 0.00000E+00
 -1      1856 5.86500E+01 4.48040E+01 0.00000E+00
 -1      1857 6.24000E+01 4.61030E+01 0.00000E+00
 -1      1858 6.39000E+01 4.61030E+01 0.00000E+00
 -1      1859 6.16500E+01 4.48040E+01 0.00000E+00
 -1      1860 6.54000E+01 4.61030E+01 0.00000E+00
 -1      1861 6.69000E+01 4.61030E+01 0.00000E+00
 -1      1862 6.46500E+01 4.48040E+01 0.00000E+00
 -1      1863 6.84000E+01 4.61030E+01 0.00000E+00
 -1      1864 6.99000E+01 4.61030E+01 0.00000E+00
 -1      1865 6.76500E+01 4.48040E+01 0.00000E+00
 -1      1866 7.14000E+01 4.61030E+01 0.00000E+00
 -1      1867 7.29000E+01 4.61030E+01 0.00000E+00
 -1      1868 7.06500E+01 4.48040E+01 0.00000E+00
 -1      1869 7.44000E+01 4.61030E+01 0.00000E+00
 -1      1870 7.59000E+01 4.61030E+01 0.00000E+00
 -1      1871 7.36500E+01 4.48040E+01 0.00000E+00
 -1      1872 7.74000E+01 4.61030E+01 0.00000E+00
 -1      1873 7.89000E+01 4.61030E+01 0.00000E+00
 -1      1874 7.66500E+01 4.48040E+01 0.00000E+00
 -1      1875 8.04000E+01 4.61030E+01 0.00000E+00
 -1      1876 8.19000E+01 4.61030E+01 0.00000E+00
 -1      1877 7.96500E+01 4.48040E+01 0.00000E+00
 -1      1878 8.34000E+01 4.61030E+01 0.00000E+00
 -1      1879 8.49000E+01 4.61030E+01 0.00000E+00
 -1      1880 8.26500E+01 4.48040E+01 0.00000E+00
 -1      1881 8.64000E+01 4.61030E+01 0.00000E+00
 -1      1882 8.79000E+01 4.61030E+01 0.00000E+00
 -1      1883 8.56500E+01 4.48040E+01 0.00000E+00
 -1      1884 8.94000E+01 4.61030E+01 0.00000E+00
 -1      1885 9.09000E+01 4.61030E+01 0.00000E+00
 -1      1886 8.86500E+01 4.48040E+01 0.00000E+00
 -1      1887 9.24000E+01 4.61030E+01 0.00000E+00
 -1      1888 9.39000E+01 4.61030E+01 0.00000E+00
 -1      1889 9.16500E+01 4.48040E+01 0.00000E+00
 -1      1890 9.54000E+01 4.61030E+01 0.00000E+00
 -1      1891 9.69000E+01 4.61030E+01 0.00000E+00
 -1      1892 9.46500E+01 4.48040E+01 0.00000E+00
 -1      1893 9.84000E+01 4.61030E+01 0.00000E+00
 -1      1894 9.99000E+01 4.61030E+01 0.00000E+00
 -1      1895 9.76500E+01 4.48040E+01 0.00000E+00
 -1      1896 1.01400E+02 4.61030E+01 0.00000E+00
 -1      1897 1.02900E+02 4.61030E+01 0.00000E+00
 -1      1898 1.00650E+02 4.48040E+01 0.00000E+00
 -1      1899 1.04400E+02 4.61030E+01 0.00000E+00
 -1      1900 1.05900E+02 4.61030E+01 0.00000E+00
 -1      1901 1.03650E+02 4.48040E+01 0.00000E+00
 -1      1902 1.07400E+02 4.61030E+01 0.00000E+00
 -1      1903 1.08900E+02 4.61030E+01 0.00000E+00
 -1      1904 1.06650E+02 4.48040E+01 0.00000E+00
 -1      1905 1.10400E+02 4.61030E+01 0.00000E+00
 -1      1906 1.11900E+02 4.61030E+01 0.00000E+00
 -1      1907 1.09650E+02 4.48040E+01 0.00000E+00
 -1      1908 1.13400E+02 4.61030E+01 0.00000E+00
 -1      1909 1.14900E+02 4.61030E+01 0.00000E+00
 -1      1910 1.12650E+02 4.48040E+01 0.00000E+00
 -1      1911 1.16400E+02 4.61030E+01 0.00000E+00
 -1      1912 1.17900E+02 4.61030E+01 0.00000E+00
 -1      1913 1.15650E+02 4.48040E+01 0.00000E+00
 -1      1914 1.19400E+02 4.61030E+01 0.00000E+00
 -1      1915 1.20900E+02 4.61030E+01 0.00000E+00
 -1      1916 1.18650E+02 4.48040E+01 0.00000E+00
 -1      1917 1.22400E+02 4.61030E+01 0.00000E+00
 -1      1918 1.23900E+02 4.61030E+01 0.00000E+00
 -1      1919 1.21650E+02 4.48040E+01 0.00000E+00
 -1      1920 1.25400E+02 4.61030E+01 0.00000E+00
 -1      1921 1.26900E+02 4.61030E+01 0.00000E+00
 -1      1922 1.24650E+02 4.48040E+01 0.00000E+00
 -1      1923 1.28400E+02 4.61030E+01 0.00000E+00
 -1      1924 1.29900E+02 4.61030E+01 0.00000E+00
 -1      1925 1.27650E+02 4.48040E+01 0.00000E+00
 -1      1926 1.31400E+02 4.61030E+01 0.00000E+00
 -1      1927 1.32900E+02 4.61030E+01 0.00000E+00
 -1      1928 1.30650E+02 4.48040E+01 0.00000E+00
 -1      1929 1.34400E+02 4.61030E+01 0.00000E+00
 -1      1930 1.35900E+02 4.61030E+01 0.00000E+00
 -1      1931 1.33650E+02 4.48040E+01 0.00000E+00
 -1      1932 1.37400E+02 4.61030E+01 0.00000E+00
 -1      1933 1.38900E+02 4.61030E+01 0.00000E+00
 -1      1934 1.36650E+02 4.48040E+01 0.00000E+00
 -1      1935 1.40400E+02 4.61030E+01 0.00000E+00
 -1      1936 1.41900E+02 4.61030E+01 0.00000E+00
 -1      1937 1.39650E+02 4.48040E+01 0.00000E+00
 -1      1938 1.43244E+02 4.61616E+01 0.00000E+00
 -1      1939 1.44744E+02 4.61616E+01 0.00000E+00
 -1      1940 1.45182E+02 4.49799E+01 0.00000E+00
 -1      1941 1.42494E+02 4.48626E+01 0.00000E+00
 -1      1942 1.17045E+01 3.09687E+00 0.00000E+00
 -1      1943 1.02045E+01 3.09687E+00 0.00000E+00
 -1      1944 1.00350E+01 4.00625E+00 0.00000E+00
 -1      1945 1.47045E+01 3.09687E+00 0.00000E+00
 -1      1946 1.32045E+01 3.09687E+00 0.00000E+00
 -1      1947 1.30350E+01 4.00625E+00 0.00000E+00
 -1      1948 1.77045E+01 3.09687E+00 0.00000E+00
 -1      1949 1.62045E+01 3.09687E+00 0.00000E+00
 -1      1950 1.60350E+01 4.00625E+00 0.00000E+00
 -1      1951 2.07045E+01 3.09687E+00 0.00000E+00
 -1      1952 1.92045E+01 3.09687E+00 0.00000E+00
 -1      1953 1.90350E+01 4.00625E+00 0.00000E+00
 -1      1954 2.37045E+01 3.09687E+00 0.00000E+00
 -1      1955 2.22045E+01 3.09687E+00 0.00000E+00
 -1      1956 2.20350E+01 4.00625E+00 0.00000E+00
 -1      1957 2.67045E+01 3.09687E+00 0.00000E+00
 -1      1958 2.52045E+01 3.09687E+00 0.00000E+00
 -1      1959 2.50350E+01 4.00625E+00 0.00000E+00
 -1      1960 2.97045E+01 3.09687E+00 0.00000E+00
 -1      1961 2.82045E+01 3.09687E+00 0.00000E+00
 -1      1962 2.80350E+01 4.00625E+00 0.00000E+00
 -1      1963 3.27045E+01 3.09687E+00 0.00000E+00
 -1      1964 3.12045E+01 3.09687E+00 0.00000E+00
 -1      1965 3.10350E+01 4.00625E+00 0.00000E+00
 -1      1966 3.57045E+01 3.09687E+00 0.00000E+00
 -1      1967 3.42045E+01 3.09687E+00 0.00000E+00
 -1      1968 3.40350E+01 4.00625E+00 0.00000E+00
 -1      1969 3.87045E+01 3.09687E+00 0.00000E+00
 -1      1970 3.72045E+01 3.09687E+00 0.00000E+00
 -1      1971 3.70350E+01 4.00625E+00 0.00000E+00
 -1      1972 4.17045E+01 3.09687E+00 0.00000E+00
 -1      1973 4.02045E+01 3.09687E+00 0.00000E+00
 -1      1974 4.00350E+01 4.00625E+00 0.00000E+00
 -1      1975 4.47045E+01 3.09687E+00 0.00000E+00
 -1      1976 4.32045E+01 3.09687E+00 0.00000E+00
 -1      1977 4.30350E+01 4.00625E+00 0.00000E+00
 -1      1978 4.77045E+01 3.09687E+00 0.00000E+00
 -1      1979 4.62045E+01 3.09687E+00 0.00000E+00
 -1      1980 4.60350E+01 4.00625E+00 0.00000E+00
 -1      1981 5.07045E+01 3.09687E+00 0.00000E+00
 -1      1982 4.92045E+01 3.09687E+00 0.00000E+00
 -1      1983 4.90350E+01 4.00625E+00 0.00000E+00
 -1      1984 5.37045E+01 3.09687E+00 0.00000E+00
 -1      1985 5.22045E+01 3.09687E+00 0.00000E+00
 -1      1986 5.20350E+01 4.00625E+00 0.00000E+00
 -1      1987 5.67045E+01 3.09687E+00 0.00000E+00
 -1      1988 5.52045E+01 3.09687E+00 0.00000E+00
 -1      1989 5.50350E+01 4.00625E+00 0.00000E+00
 -1      1990 5.97045E+01 3.09687E+00 0.00000E+00
 -1      1991 5.82045E+01 3.09687E+00 0.00000E+00
 -1      1992 5.80350E+01 4.00625E+00 0.00000E+00
 -1      1993 6.27045E+01 3.09687E+00 0.00000E+00
 -1      1994 6.12045E+01 3.09687E+00 0.00000E+00
 -1      1995 6.10350E+01 4.00625E+00 0.00000E+00
 -1      1996 6.57045E+01 3.09687E+00 0.00000E+00
 -1      1997 6.42045E+01 3.09687E+00 0.00000E+00
 -1      1998 6.40350E+01 4.00625E+00 0.00000E+00
 -1      1999 6.87045E+01 3.09687E+00 0.00000E+00
 -1      2000 6.72045E+01 3.09687E+00 0.00000E+00
 -1      2001 6.70350E+01 4.00625E+00 0.00000E+00
 -1      2002 7.17045E+01 3.09687E+00 0.00000E+00
 -1      2003 7.02045E+01 3.09687E+00 0.00000E+00
 -1      2004 7.00350E+01 4.00625E+00 0.00000E+00
 -1      2005 7.47045E+01 3.09687E+00 0.00000E+00
 -1      2006 7.32045E+01 3.09687E+00 0.00000E+00
 -1      2007 7.30350E+01 4.00625E+00 0.00000E+00
 -1      2008 7.77045E+01 3.09687E+00 0.00000E+00
 -1      2009 7.62045E+01 3.09687E+00 0.00000E+00
 -1      2010 7.60350E+01 4.00625E+00 0.00000E+00
 -1      2011 8.07045E+01 3.09687E+00 0.00000E+00
 -1      2012 7.92045E+01 3.09687E+00 0.00000E+00
 -1      2013 7.90350E+01 4.00625E+00 0.00000E+00
 -1      2014 8.37045E+01 3.09687E+00 0.00000E+00
 -1      2015 8.22045E+01 3.09687E+00 0.00000E+00
 -1      2016 8.20350E+01 4.00625E+00 0.00000E+00
 -1      2017 8.67045E+01 3.09687E+00 0.00000E+00
 -1      2018 8.52045E+01 3.09687E+00 0.00000E+00
 -1      2019 8.50350E+01 4.00625E+00 0.00000E+00
 -1      2020 8.97045E+01 3.09687E+00 0.00000E+00
 -1      2021 8.82045E+01 3.09687E+00 0.00000E+00
 -1      2022 8.80350E+01 4.00625E+00 0.00000E+00
 -1      2023 9.27045E+01 3.09687E+00 0.00000E+00
 -1      2024 9.12045E+01 3.09687E+00 0.00000E+00
 -1      2025 9.10350E+01 4.00625E+00 0.00000E+00
 -1      2026 9.57045E+01 3.09687E+00 0.00000E+00
 -1      2027 9.42045E+01 3.09687E+00 0.00000E+00
 -1      2028 9.40350E+01 4.00625E+00 0.00000E+00
 -1      2029 9.87045E+01 3.09687E+00 0.00000E+00
 -1      2030 9.72045E+01 3.09687E+00 0.00000E+00
 -1      2031 9.70350E+01 4.00625E+00 0.00000E+00
 -1      2032 1.01704E+02 3.09687E+00 0.00000E+00
 -1      2033 1.00204E+02 3.09687E+00 0.00000E+00
 -1      2034 1.00035E+02 4.00625E+00 0.00000E+00
 -1      2035 1.04704E+02 3.09687E+00 0.00000E+00
 -1      2036 1.03204E+02 3.09687E+00 0.00000E+00
 -1      2037 1.03035E+02 4.00625E+00 0.00000E+00
 -1      2038 1.07704E+02 3.09687E+00 0.00000E+00
 -1      2039 1.06204E+02 3.09687E+00 0.00000E+00
 -1      2040 1.06035E+02 4.00625E+00 0.00000E+00
 -1      2041 1.10704E+02 3.09687E+00 0.00000E+00
 -1      2042 1.09204E+02 3.09687E+00 0.00000E+00
 -1      2043 1.09035E+02 4.00625E+00 0.00000E+00
 -1      2044 1.13704E+02 3.09687E+00 0.00000E+00
 -1      2045 1.12204E+02 3.09687E+00 0.00000E+00
 -1      2046 1.12035E+02 4.00625E+00 0.00000E+00
 -1      2047 1.16704E+02 3.09687E+00 0.00000E+00
 -1      2048 1.15204E+02 3.09687E+00 0.00000E+00
 -1      2049 1.15035E+02 4.00625E+00 0.00000E+00
 -1      2050 1.19704E+02 3.09687E+00 0.00000E+00
 -1      2051 1.18204E+02 3.09687E+00 0.00000E+00
 -1      2052 1.18035E+02 4.00625E+00 0.00000E+00
 -1      2053 1.22704E+02 3.09687E+00 0.00000E+00
 -1      2054 1.21204E+02 3.09687E+00 0.00000E+00
 -1      2055 1.21035E+02 4.00625E+00 0.00000E+00
 -1      2056 1.25704E+02 3.09687E+00 0.00000E+00
 -1      2057 1.24204E+02 3.09687E+00 0.00000E+00
 -1      2058 1.24035E+02 4.00625E+00 0.00000E+00
 -1      2059 1.28704E+02 3.09687E+00 0.00000E+00
 -1      2060 1.27204E+02 3.09687E+00 0.00000E+00
 -1      2061 1.27035E+02 4.00625E+00 0.00000E+00
 -1      2062 1.31704E+02 3.09687E+00 0.00000E+00
 -1      2063 1.30204E+02 3.09687E+00 0.00000E+00
 -1      2064 1.30035E+02 4.00625E+00 0.00000E+00
 -1      2065 1.34704E+02 3.09687E+00 0.00000E+00
 -1      2066 1.33204E+02 3.09687E+00 0.00000E+00
 -1      2067 1.33035E+02 4.00625E+00 0.00000E+00
 -1      2068 1.37704E+02 3.09687E+00 0.00000E+00
 -1      2069 1.36204E+02 3.09687E+00 0.00000E+00
 -1      2070 1.36035E+02 4.00625E+00 0.00000E+00
 -1      2071 1.40704E+02 3.09687E+00 0.00000E+00
 -1      2072 1.39204E+02 3.09687E+00 0.00000E+00
 -1      2073 1.39035E+02 4.00625E+00 0.00000E+00
 -1      2074 1.43704E+02 3.09687E+00 0.00000E+00
 -1      2075 1.42204E+02 3.09687E+00 0.00000E+00
 -1      2076 1.42035E+02 4.00625E+00 0.00000E+00
 -1      2077 1.46171E+02 3.20156E+00 0.00000E+00
 -1      2078 1.44671E+02 3.20156E+00 0.00000E+00
 -1      2079 1.44502E+02 4.11094E+00 0.00000E+00
 -1      2080 1.46435E+02 4.32031E+00 0.00000E+00
 -1      2081 1.46103E+02 1.25375E+01 0.00000E+00
 -1      2082 1.46103E+02 1.10625E+01 0.00000E+00
 -1      2083 1.46103E+02 9.58750E+00 0.00000E+00
 -1      2084 1.46103E+02 8.11250E+00 0.00000E+00
 -1      2085 1.44804E+02 1.03250E+01 0.00000E+00
 -1      2086 1.46269E+02 6.95391E+00 0.00000E+00
 -1      2087 1.46269E+02 5.47891E+00 0.00000E+00
 -1      2088 1.45302E+02 5.37422E+00 0.00000E+00
 -1      2089 1.44970E+02 7.69141E+00 0.00000E+00
 -1      2090 1.46103E+02 1.54375E+01 0.00000E+00
 -1      2091 1.46103E+02 1.39875E+01 0.00000E+00
 -1      2092 1.44804E+02 1.32500E+01 0.00000E+00
 -1      2093 1.46103E+02 1.83875E+01 0.00000E+00
 -1      2094 1.46103E+02 1.69125E+01 0.00000E+00
 -1      2095 1.44804E+02 1.61750E+01 0.00000E+00
 -1      2096 1.46103E+02 2.13375E+01 0.00000E+00
 -1      2097 1.46103E+02 1.98625E+01 0.00000E+00
 -1      2098 1.44804E+02 1.91250E+01 0.00000E+00
 -1      2099 1.46103E+02 2.42875E+01 0.00000E+00
 -1      2100 1.46103E+02 2.28125E+01 0.00000E+00
 -1      2101 1.44804E+02 2.20750E+01 0.00000E+00
 -1      2102 1.46103E+02 2.72375E+01 0.00000E+00
 -1      2103 1.46103E+02 2.57625E+01 0.00000E+00
 -1      2104 1.44804E+02 2.50250E+01 0.00000E+00
 -1      2105 1.46103E+02 3.01875E+01 0.00000E+00
 -1      2106 1.46103E+02 2.87125E+01 0.00000E+00
 -1      2107 1.44804E+02 2.79750E+01 0.00000E+00
 -1      2108 1.46103E+02 3.30875E+01 0.00000E+00
 -1      2109 1.46103E+02 3.16375E+01 0.00000E+00
 -1      2110 1.44804E+02 3.09000E+01 0.00000E+00
 -1      2111 1.46103E+02 3.60375E+01 0.00000E+00
 -1      2112 1.46103E+02 3.45625E+01 0.00000E+00
 -1      2113 1.44804E+02 3.38250E+01 0.00000E+00
 -1      2114 1.46103E+02 3.89875E+01 0.00000E+00
 -1      2115 1.46103E+02 3.75125E+01 0.00000E+00
 -1      2116 1.44804E+02 3.67750E+01 0.00000E+00
 -1      2117 1.46103E+02 4.19375E+01 0.00000E+00
 -1      2118 1.46103E+02 4.04625E+01 0.00000E+00
 -1      2119 1.44804E+02 3.97250E+01 0.00000E+00
 -1      2120 4.96437E+01 2.12698E+01 0.00000E+00
 -1      2121 5.01359E+01 2.20285E+01 0.00000E+00
 -1      2122 5.06996E+01 2.51552E+01 0.00000E+00
 -1      2123 5.06188E+01 2.60567E+01 0.00000E+00
 -1      2124 5.06324E+01 2.31453E+01 0.00000E+00
 -1      2125 5.07572E+01 2.40750E+01 0.00000E+00
 -1      2126 4.85652E+01 1.98061E+01 0.00000E+00
 -1      2127 4.90986E+01 2.04986E+01 0.00000E+00
 -1      2128 4.71849E+01 1.84635E+01 0.00000E+00
 -1      2129 4.78787E+01 1.90006E+01 0.00000E+00
 -1      2130 3.89700E+00 3.74688E+01 0.00000E+00
 -1      2131 3.89700E+00 3.89437E+01 0.00000E+00
 -1      2132 5.19600E+00 3.96813E+01 0.00000E+00
 -1      2133 5.19600E+00 3.67438E+01 0.00000E+00
 -1      2134 4.39470E+01 1.66945E+01 0.00000E+00
 -1      2135 4.47879E+01 1.71026E+01 0.00000E+00
 -1      2136 4.17380E+01 1.65982E+01 0.00000E+00
 -1      2137 4.26725E+01 1.65316E+01 0.00000E+00
 -1      2138 3.98561E+01 1.67675E+01 0.00000E+00
 -1      2139 4.07706E+01 1.66517E+01 0.00000E+00
 -1      2140 3.78144E+01 1.73547E+01 0.00000E+00
 -1      2141 3.86452E+01 1.69278E+01 0.00000E+00
 -1      2142 3.63600E+01 1.83772E+01 0.00000E+00
 -1      2143 3.70872E+01 1.78659E+01 0.00000E+00
 -1      2144 3.70723E+01 1.68152E+01 0.00000E+00
 -1      2145 3.49275E+01 1.99273E+01 0.00000E+00
 -1      2146 3.55321E+01 1.92653E+01 0.00000E+00
 -1      2147 3.39119E+01 2.15385E+01 0.00000E+00
 -1      2148 3.43497E+01 2.07834E+01 0.00000E+00
 -1      2149 3.31972E+01 2.32878E+01 0.00000E+00
 -1      2150 3.34606E+01 2.24566E+01 0.00000E+00
 -1      2151 3.29895E+01 2.51485E+01 0.00000E+00
 -1      2152 3.30754E+01 2.42895E+01 0.00000E+00
 -1      2153 3.29449E+01 2.69654E+01 0.00000E+00
 -1      2154 3.28891E+01 2.61154E+01 0.00000E+00
 -1      2155 3.34023E+01 2.88288E+01 0.00000E+00
 -1      2156 3.30955E+01 2.80336E+01 0.00000E+00
 -1      2157 3.41619E+01 3.04335E+01 0.00000E+00
 -1      2158 3.37821E+01 2.96311E+01 0.00000E+00
 -1      2159 3.28677E+01 2.95271E+01 0.00000E+00
 -1      2160 3.53830E+01 3.20632E+01 0.00000E+00
 -1      2161 3.48145E+01 3.13273E+01 0.00000E+00
 -1      2162 3.70910E+01 3.32710E+01 0.00000E+00
 -1      2163 3.62863E+01 3.28657E+01 0.00000E+00
 -1      2164 3.87074E+01 3.41928E+01 0.00000E+00
 -1      2165 3.78992E+01 3.37319E+01 0.00000E+00
 -1      2166 3.71676E+01 3.41829E+01 0.00000E+00
 -1      2167 4.08381E+01 3.45459E+01 0.00000E+00
 -1      2168 3.99099E+01 3.45536E+01 0.00000E+00
 -1      2169 4.25915E+01 3.45396E+01 0.00000E+00
 -1      2170 4.17148E+01 3.45427E+01 0.00000E+00
 -1      2171 4.12575E+01 3.53622E+01 0.00000E+00
 -1      2172 4.45135E+01 3.39315E+01 0.00000E+00
 -1      2173 4.36689E+01 3.42020E+01 0.00000E+00
 -1      2174 4.61940E+01 3.31541E+01 0.00000E+00
 -1      2175 4.54223E+01 3.35543E+01 0.00000E+00
 -1      2176 4.78157E+01 3.21853E+01 0.00000E+00
 -1      2177 4.71049E+01 3.27251E+01 0.00000E+00
 -1      2178 4.90555E+01 3.05705E+01 0.00000E+00
 -1      2179 4.85307E+01 3.13201E+01 0.00000E+00
 -1      2180 4.99474E+01 2.88696E+01 0.00000E+00
 -1      2181 4.95679E+01 2.96841E+01 0.00000E+00
 -1      2182 5.05520E+01 2.70434E+01 0.00000E+00
 -1      2183 5.03623E+01 2.79059E+01 0.00000E+00
 -1      2184 4.55349E+01 1.75046E+01 0.00000E+00
 -1      2185 4.62819E+01 1.79067E+01 0.00000E+00
 -1      2186 4.54523E+01 1.66045E+01 0.00000E+00
 -1      2187 4.86920E+01 1.89257E+01 0.00000E+00
 -1      2188 6.42300E+00 4.57510E+01 0.00000E+00
 -1      2189 4.71024E+01 1.75634E+01 0.00000E+00
 -1      2190 7.17300E+00 4.44520E+01 0.00000E+00
 -1      2191 5.09652E+01 2.23904E+01 0.00000E+00
 -1      2192 5.14041E+01 2.45874E+01 0.00000E+00
 -1      2193 1.45665E+02 4.31193E+01 0.00000E+00
 -1      2194 4.99236E+01 2.05025E+01 0.00000E+00
 -1      2195 5.12797E+01 2.66542E+01 0.00000E+00
 -1      2196 5.07980E+01 2.86046E+01 0.00000E+00
 -1      2197 4.98707E+01 3.04546E+01 0.00000E+00
 -1      2198 4.86433E+01 3.22062E+01 0.00000E+00
 -1      2199 4.70174E+01 3.35005E+01 0.00000E+00
 -1      2200 4.32116E+01 3.50215E+01 0.00000E+00
 -1      2201 3.91783E+01 3.50046E+01 0.00000E+00
 -1      2202 3.39001E+01 3.12233E+01 0.00000E+00
 -1      2203 3.23373E+01 2.76566E+01 0.00000E+00
 -1      2204 3.22871E+01 2.56215E+01 0.00000E+00
 -1      2205 3.25094E+01 2.36528E+01 0.00000E+00
 -1      2206 3.30825E+01 2.17330E+01 0.00000E+00
 -1      2207 3.55173E+01 1.82146E+01 0.00000E+00
 -1      2208 3.90105E+01 1.61437E+01 0.00000E+00
 -1      2209 4.34307E+01 1.60395E+01 0.00000E+00
 -1      2210 4.41890E+01 1.55475E+01 0.00000E+00
 -1      2211 4.29144E+01 1.53846E+01 0.00000E+00
 -1      2212 4.11888E+01 1.59301E+01 0.00000E+00
 -1      2213 3.41117E+01 1.99588E+01 0.00000E+00
 -1      2214 3.54560E+01 3.29195E+01 0.00000E+00
 -1      2215 3.46257E+01 3.29734E+01 0.00000E+00
 -1      2216 3.55291E+01 3.37758E+01 0.00000E+00
 -1      2217 4.51977E+01 3.43067E+01 0.00000E+00
 -1      2218 1.07850E+01 5.30525E+00 0.00000E+00
 -1      2219 9.28500E+00 5.30525E+00 0.00000E+00
 -1      2220 6.49500E+00 3.01125E+01 0.00000E+00
 -1      2221 6.49500E+00 3.15875E+01 0.00000E+00
 -1      2222 6.49500E+00 3.30625E+01 0.00000E+00
 -1      2223 6.49500E+00 3.45375E+01 0.00000E+00
 -1      2224 7.79400E+00 3.23250E+01 0.00000E+00
 -1      2225 6.49500E+00 2.42125E+01 0.00000E+00
 -1      2226 6.49500E+00 2.56875E+01 0.00000E+00
 -1      2227 6.49500E+00 2.12625E+01 0.00000E+00
 -1      2228 6.49500E+00 2.27375E+01 0.00000E+00
 -1      2229 7.79400E+00 2.34750E+01 0.00000E+00
 -1      2230 6.49500E+00 1.83625E+01 0.00000E+00
 -1      2231 6.49500E+00 1.98125E+01 0.00000E+00
 -1      2232 7.79400E+00 2.05500E+01 0.00000E+00
 -1      2233 6.49500E+00 1.54125E+01 0.00000E+00
 -1      2234 6.49500E+00 1.68875E+01 0.00000E+00
 -1      2235 7.79400E+00 1.76250E+01 0.00000E+00
 -1      2236 6.49500E+00 1.24625E+01 0.00000E+00
 -1      2237 6.49500E+00 1.39375E+01 0.00000E+00
 -1      2238 7.79400E+00 1.46750E+01 0.00000E+00
 -1      2239 6.49500E+00 9.51250E+00 0.00000E+00
 -1      2240 6.49500E+00 1.09875E+01 0.00000E+00
 -1      2241 7.79400E+00 1.17250E+01 0.00000E+00
 -1      2242 1.37850E+01 5.30525E+00 0.00000E+00
 -1      2243 1.22850E+01 5.30525E+00 0.00000E+00
 -1      2244 1.15350E+01 6.60425E+00 0.00000E+00
 -1      2245 9.90000E+00 4.35050E+01 0.00000E+00
 -1      2246 1.14000E+01 4.35050E+01 0.00000E+00
 -1      2247 4.71009E+01 1.65550E+01 0.00000E+00
 -1      2248 4.80040E+01 1.71118E+01 0.00000E+00
 -1      2249 4.90652E+01 1.79124E+01 0.00000E+00
 -1      2250 4.97517E+01 1.87179E+01 0.00000E+00
 -1      2251 1.29000E+01 4.35050E+01 0.00000E+00
 -1      2252 1.44000E+01 4.35050E+01 0.00000E+00
 -1      2253 1.21500E+01 4.22060E+01 0.00000E+00
 -1      2254 1.59000E+01 4.35050E+01 0.00000E+00
 -1      2255 1.74000E+01 4.35050E+01 0.00000E+00
 -1      2256 1.51500E+01 4.22060E+01 0.00000E+00
 -1      2257 1.89000E+01 4.35050E+01 0.00000E+00
 -1      2258 2.04000E+01 4.35050E+01 0.00000E+00
 -1      2259 1.81500E+01 4.22060E+01 0.00000E+00
 -1      2260 2.19000E+01 4.35050E+01 0.00000E+00
 -1      2261 2.34000E+01 4.35050E+01 0.00000E+00
 -1      2262 2.11500E+01 4.22060E+01 0.00000E+00
 -1      2263 2.49000E+01 4.35050E+01 0.00000E+00
 -1      2264 2.64000E+01 4.35050E+01 0.00000E+00
 -1      2265 2.41500E+01 4.22060E+01 0.00000E+00
 -1      2266 2.79000E+01 4.35050E+01 0.00000E+00
 -1      2267 2.94000E+01 4.35050E+01 0.00000E+00
 -1      2268 2.71500E+01 4.22060E+01 0.00000E+00
 -1      2269 3.09000E+01 4.35050E+01 0.00000E+00
 -1      2270 3.24000E+01 4.35050E+01 0.00000E+00
 -1      2271 3.01500E+01 4.22060E+01 0.00000E+00
 -1      2272 3.39000E+01 4.35050E+01 0.00000E+00
 -1      2273 3.54000E+01 4.35050E+01 0.00000E+00
 -1      2274 3.31500E+01 4.22060E+01 0.00000E+00
 -1      2275 3.69000E+01 4.35050E+01 0.00000E+00
 -1      2276 3.84000E+01 4.35050E+01 0.00000E+00
 -1      2277 3.61500E+01 4.22060E+01 0.00000E+00
 -1      2278 3.99000E+01 4.35050E+01 0.00000E+00
 -1      2279 4.14000E+01 4.35050E+01 0.00000E+00
 -1      2280 3.91500E+01 4.22060E+01 0.00000E+00
 -1      2281 4.29000E+01 4.35050E+01 0.00000E+00
 -1      2282 4.44000E+01 4.35050E+01 0.00000E+00
 -1      2283 4.21500E+01 4.22060E+01 0.00000E+00
 -1      2284 4.59000E+01 4.35050E+01 0.00000E+00
 -1      2285 4.74000E+01 4.35050E+01 0.00000E+00
 -1      2286 4.51500E+01 4.22060E+01 0.00000E+00
 -1      2287 4.89000E+01 4.35050E+01 0.00000E+00
 -1      2288 5.04000E+01 4.35050E+01 0.00000E+00
 -1      2289 4.81500E+01 4.22060E+01 0.00000E+00
 -1      2290 5.19000E+01 4.35050E+01 0.00000E+00
 -1      2291 5.34000E+01 4.35050E+01 0.00000E+00
 -1      2292 5.11500E+01 4.22060E+01 0.00000E+00
 -1      2293 5.49000E+01 4.35050E+01 0.00000E+00
 -1      2294 5.64000E+01 4.35050E+01 0.00000E+00
 -1      2295 5.41500E+01 4.22060E+01 0.00000E+00
 -1      2296 5.79000E+01 4.35050E+01 0.00000E+00
 -1      2297 5.94000E+01 4.35050E+01 0.00000E+00
 -1      2298 5.71500E+01 4.22060E+01 0.00000E+00
 -1      2299 6.09000E+01 4.35050E+01 0.00000E+00
 -1      2300 6.24000E+01 4.35050E+01 0.00000E+00
 -1      2301 6.01500E+01 4.22060E+01 0.00000E+00
 -1      2302 6.39000E+01 4.35050E+01 0.00000E+00
 -1      2303 6.54000E+01 4.35050E+01 0.00000E+00
 -1      2304 6.31500E+01 4.22060E+01 0.00000E+00
 -1      2305 6.69000E+01 4.35050E+01 0.00000E+00
 -1      2306 6.84000E+01 4.35050E+01 0.00000E+00
 -1      2307 6.61500E+01 4.22060E+01 0.00000E+00
 -1      2308 6.99000E+01 4.35050E+01 0.00000E+00
 -1      2309 7.14000E+01 4.35050E+01 0.00000E+00
 -1      2310 6.91500E+01 4.22060E+01 0.00000E+00
 -1      2311 7.29000E+01 4.35050E+01 0.00000E+00
 -1      2312 7.44000E+01 4.35050E+01 0.00000E+00
 -1      2313 7.21500E+01 4.22060E+01 0.00000E+00
 -1      2314 7.59000E+01 4.35050E+01 0.00000E+00
 -1      2315 7.74000E+01 4.35050E+01 0.00000E+00
 -1      2316 7.51500E+01 4.22060E+01 0.00000E+00
 -1      2317 7.89000E+01 4.35050E+01 0.00000E+00
 -1      2318 8.04000E+01 4.35050E+01 0.00000E+00
 -1      2319 7.81500E+01 4.22060E+01 0.00000E+00
 -1      2320 8.19000E+01 4.35050E+01 0.00000E+00
 -1      2321 8.34000E+01 4.35050E+01 0.00000E+00
 -1      2322 8.11500E+01 4.22060E+01 0.00000E+00
 -1      2323 8.49000E+01 4.35050E+01 0.00000E+00
 -1      2324 8.64000E+01 4.35050E+01 0.00000E+00
 -1      2325 8.41500E+01 4.22060E+01 0.00000E+00
 -1      2326 8.79000E+01 4.35050E+01 0.00000E+00
 -1      2327 8.94000E+01 4.35050E+01 0.00000E+00
 -1      2328 8.71500E+01 4.22060E+01 0.00000E+00
 -1      2329 9.09000E+01 4.35050E+01 0.00000E+00
 -1      2330 9.24000E+01 4.35050E+01 0.00000E+00
 -1      2331 9.01500E+01 4.22060E+01 0.00000E+00
 -1      2332 9.39000E+01 4.35050E+01 0.00000E+00
 -1      2333 9.54000E+01 4.35050E+01 0.00000E+00
 -1      2334 9.31500E+01 4.22060E+01 0.00000E+00
 -1      2335 9.69000E+01 4.35050E+01 0.00000E+00
 -1      2336 9.84000E+01 4.35050E+01 0.00000E+00
 -1      2337 9.61500E+01 4.22060E+01 0.00000E+00
 -1      2338 9.99000E+01 4.35050E+01 0.00000E+00
 -1      2339 1.01400E+02 4.35050E+01 0.00000E+00
 -1      2340 9.91500E+01 4.22060E+01 0.00000E+00
 -1      2341 1.02900E+02 4.35050E+01 0.00000E+00
 -1      2342 1.04400E+02 4.35050E+01 0.00000E+00
 -1      2343 1.02150E+02 4.22060E+01 0.00000E+00
 -1      2344 1.05900E+02 4.35050E+01 0.00000E+00
 -1      2345 1.07400E+02 4.35050E+01 0.00000E+00
 -1      2346 1.05150E+02 4.22060E+01 0.00000E+00
 -1      2347 1.08900E+02 4.35050E+01 0.00000E+00
 -1      2348 1.10400E+02 4.35050E+01 0.00000E+00
 -1      2349 1.08150E+02 4.22060E+01 0.00000E+00
 -1      2350 1.11900E+02 4.35050E+01 0.00000E+00
 -1      2351 1.13400E+02 4.35050E+01 0.00000E+00
 -1      2352 1.11150E+02 4.22060E+01 0.00000E+00
 -1      2353 1.14900E+02 4.35050E+01 0.00000E+00
 -1      2354 1.16400E+02 4.35050E+01 0.00000E+00
 -1      2355 1.14150E+02 4.22060E+01 0.00000E+00
 -1      2356 1.17900E+02 4.35050E+01 0.00000E+00
 -1      2357 1.19400E+02 4.35050E+01 0.00000E+00
 -1      2358 1.17150E+02 4.22060E+01 0.00000E+00
 -1      2359 1.20900E+02 4.35050E+01 0.00000E+00
 -1      2360 1.22400E+02 4.35050E+01 0.00000E+00
 -1      2361 1.20150E+02 4.22060E+01 0.00000E+00
 -1      2362 1.23900E+02 4.35050E+01 0.00000E+00
 -1      2363 1.25400E+02 4.35050E+01 0.00000E+00
 -1      2364 1.23150E+02 4.22060E+01 0.00000E+00
 -1      2365 1.26900E+02 4.35050E+01 0.00000E+00
 -1      2366 1.28400E+02 4.35050E+01 0.00000E+00
 -1      2367 1.26150E+02 4.22060E+01 0.00000E+00
 -1      2368 1.29900E+02 4.35050E+01 0.00000E+00
 -1      2369 1.31400E+02 4.35050E+01 0.00000E+00
 -1      2370 1.29150E+02 4.22060E+01 0.00000E+00
 -1      2371 1.32900E+02 4.35050E+01 0.00000E+00
 -1      2372 1.34400E+02 4.35050E+01 0.00000E+00
 -1      2373 1.32150E+02 4.22060E+01 0.00000E+00
 -1      2374 1.35900E+02 4.35050E+01 0.00000E+00
 -1      2375 1.37400E+02 4.35050E+01 0.00000E+00
 -1      2376 1.35150E+02 4.22060E+01 0.00000E+00
 -1      2377 1.38900E+02 4.35050E+01 0.00000E+00
 -1      2378 1.40400E+02 4.35050E+01 0.00000E+00
 -1      2379 1.38150E+02 4.22060E+01 0.00000E+00
 -1      2380 1.97850E+01 5.30525E+00 0.00000E+00
 -1      2381 1.82850E+01 5.30525E+00 0.00000E+00
 -1      2382 2.27850E+01 5.30525E+00 0.00000E+00
 -1      2383 2.12850E+01 5.30525E+00 0.00000E+00
 -1      2384 2.05350E+01 6.60425E+00 0.00000E+00
 -1      2385 2.57850E+01 5.30525E+00 0.00000E+00
 -1      2386 2.42850E+01 5.30525E+00 0.00000E+00
 -1      2387 2.35350E+01 6.60425E+00 0.00000E+00
 -1      2388 2.87850E+01 5.30525E+00 0.00000E+00
 -1      2389 2.72850E+01 5.30525E+00 0.00000E+00
 -1      2390 2.65350E+01 6.60425E+00 0.00000E+00
 -1      2391 3.17850E+01 5.30525E+00 0.00000E+00
 -1      2392 3.02850E+01 5.30525E+00 0.00000E+00
 -1      2393 2.95350E+01 6.60425E+00 0.00000E+00
 -1      2394 3.47850E+01 5.30525E+00 0.00000E+00
 -1      2395 3.32850E+01 5.30525E+00 0.00000E+00
 -1      2396 3.25350E+01 6.60425E+00 0.00000E+00
 -1      2397 3.77850E+01 5.30525E+00 0.00000E+00
 -1      2398 3.62850E+01 5.30525E+00 0.00000E+00
 -1      2399 3.55350E+01 6.60425E+00 0.00000E+00
 -1      2400 4.07850E+01 5.30525E+00 0.00000E+00
 -1      2401 3.92850E+01 5.30525E+00 0.00000E+00
 -1      2402 3.85350E+01 6.60425E+00 0.00000E+00
 -1      2403 4.37850E+01 5.30525E+00 0.00000E+00
 -1      2404 4.22850E+01 5.30525E+00 0.00000E+00
 -1      2405 4.15350E+01 6.60425E+00 0.00000E+00
 -1      2406 4.67850E+01 5.30525E+00 0.00000E+00
 -1      2407 4.52850E+01 5.30525E+00 0.00000E+00
 -1      2408 4.45350E+01 6.60425E+00 0.00000E+00
 -1      2409 4.97850E+01 5.30525E+00 0.00000E+00
 -1      2410 4.82850E+01 5.30525E+00 0.00000E+00
 -1      2411 4.75350E+01 6.60425E+00 0.00000E+00
 -1      2412 5.27850E+01 5.30525E+00 0.00000E+00
 -1      2413 5.12850E+01 5.30525E+00 0.00000E+00
 -1      2414 5.05350E+01 6.60425E+00 0.00000E+00
 -1      2415 5.57850E+01 5.30525E+00 0.00000E+00
 -1      2416 5.42850E+01 5.30525E+00 0.00000E+00
 -1      2417 5.35350E+01 6.60425E+00 0.00000E+00
 -1      2418 5.87850E+01 5.30525E+00 0.00000E+00
 -1      2419 5.72850E+01 5.30525E+00 0.00000E+00
 -1      2420 5.65350E+01 6.60425E+00 0.00000E+00
 -1      2421 6.17850E+01 5.30525E+00 0.00000E+00
 -1      2422 6.02850E+01 5.30525E+00 0.00000E+00
 -1      2423 5.95350E+01 6.60425E+00 0.00000E+00
 -1      2424 6.47850E+01 5.30525E+00 0.00000E+00
 -1      2425 6.32850E+01 5.30525E+00 0.00000E+00
 -1      2426 6.25350E+01 6.60425E+00 0.00000E+00
 -1      2427 6.77850E+01 5.30525E+00 0.00000E+00
 -1      2428 6.62850E+01 5.30525E+00 0.00000E+00
 -1      2429 6.55350E+01 6.60425E+00 0.00000E+00
 -1      2430 7.07850E+01 5.30525E+00 0.00000E+00
 -1      2431 6.92850E+01 5.30525E+00 0.00000E+00
 -1      2432 6.85350E+01 6.60425E+00 0.00000E+00
 -1      2433 7.37850E+01 5.30525E+00 0.00000E+00
 -1      2434 7.22850E+01 5.30525E+00 0.00000E+00
 -1      2435 7.15350E+01 6.60425E+00 0.00000E+00
 -1      2436 7.67850E+01 5.30525E+00 0.00000E+00
 -1      2437 7.52850E+01 5.30525E+00 0.00000E+00
 -1      2438 7.45350E+01 6.60425E+00 0.00000E+00
 -1      2439 7.97850E+01 5.30525E+00 0.00000E+00
 -1      2440 7.82850E+01 5.30525E+00 0.00000E+00
 -1      2441 7.75350E+01 6.60425E+00 0.00000E+00
 -1      2442 8.27850E+01 5.30525E+00 0.00000E+00
 -1      2443 8.12850E+01 5.30525E+00 0.00000E+00
 -1      2444 8.05350E+01 6.60425E+00 0.00000E+00
 -1      2445 8.57850E+01 5.30525E+00 0.00000E+00
 -1      2446 8.42850E+01 5.30525E+00 0.00000E+00
 -1      2447 8.35350E+01 6.60425E+00 0.00000E+00
 -1      2448 8.87850E+01 5.30525E+00 0.00000E+00
 -1      2449 8.72850E+01 5.30525E+00 0.00000E+00
 -1      2450 8.65350E+01 6.60425E+00 0.00000E+00
 -1      2451 9.17850E+01 5.30525E+00 0.00000E+00
 -1      2452 9.02850E+01 5.30525E+00 0.00000E+00
 -1      2453 8.95350E+01 6.60425E+00 0.00000E+00
 -1      2454 9.47850E+01 5.30525E+00 0.00000E+00
 -1      2455 9.32850E+01 5.30525E+00 0.00000E+00
 -1      2456 9.25350E+01 6.60425E+00 0.00000E+00
 -1      2457 9.77850E+01 5.30525E+00 0.00000E+00
 -1      2458 9.62850E+01 5.30525E+00 0.00000E+00
 -1      2459 9.55350E+01 6.60425E+00 0.00000E+00
 -1      2460 1.00785E+02 5.30525E+00 0.00000E+00
 -1      2461 9.92850E+01 5.30525E+00 0.00000E+00
 -1      2462 9.85350E+01 6.60425E+00 0.00000E+00
 -1      2463 1.03785E+02 5.30525E+00 0.00000E+00
 -1      2464 1.02285E+02 5.30525E+00 0.00000E+00
 -1      2465 1.01535E+02 6.60425E+00 0.00000E+00
 -1      2466 1.06785E+02 5.30525E+00 0.00000E+00
 -1      2467 1.05285E+02 5.30525E+00 0.00000E+00
 -1      2468 1.04535E+02 6.60425E+00 0.00000E+00
 -1      2469 1.09785E+02 5.30525E+00 0.00000E+00
 -1      2470 1.08285E+02 5.30525E+00 0.00000E+00
 -1      2471 1.07535E+02 6.60425E+00 0.00000E+00
 -1      2472 1.12785E+02 5.30525E+00 0.00000E+00
 -1      2473 1.11285E+02 5.30525E+00 0.00000E+00
 -1      2474 1.10535E+02 6.60425E+00 0.00000E+00
 -1      2475 1.15785E+02 5.30525E+00 0.00000E+00
 -1      2476 1.14285E+02 5.30525E+00 0.00000E+00
 -1      2477 1.13535E+02 6.60425E+00 0.00000E+00
 -1      2478 1.18785E+02 5.30525E+00 0.00000E+00
 -1      2479 1.17285E+02 5.30525E+00 0.00000E+00
 -1      2480 1.16535E+02 6.60425E+00 0.00000E+00
 -1      2481 1.21785E+02 5.30525E+00 0.00000E+00
 -1      2482 1.20285E+02 5.30525E+00 0.00000E+00
 -1      2483 1.19535E+02 6.60425E+00 0.00000E+00
 -1      2484 1.24785E+02 5.30525E+00 0.00000E+00
 -1      2485 1.23285E+02 5.30525E+00 0.00000E+00
 -1      2486 1.22535E+02 6.60425E+00 0.00000E+00
 -1      2487 1.27785E+02 5.30525E+00 0.00000E+00
 -1      2488 1.26285E+02 5.30525E+00 0.00000E+00
 -1      2489 1.25535E+02 6.60425E+00 0.00000E+00
 -1      2490 1.30785E+02 5.30525E+00 0.00000E+00
 -1      2491 1.29285E+02 5.30525E+00 0.00000E+00
 -1      2492 1.28535E+02 6.60425E+00 0.00000E+00
 -1      2493 1.33785E+02 5.30525E+00 0.00000E+00
 -1      2494 1.32285E+02 5.30525E+00 0.00000E+00
 -1      2495 1.31535E+02 6.60425E+00 0.00000E+00
 -1      2496 1.36785E+02 5.30525E+00 0.00000E+00
 -1      2497 1.35285E+02 5.30525E+00 0.00000E+00
 -1      2498 1.34535E+02 6.60425E+00 0.00000E+00
 -1      2499 1.39785E+02 5.30525E+00 0.00000E+00
 -1      2500 1.38285E+02 5.30525E+00 0.00000E+00
 -1      2501 1.37535E+02 6.60425E+00 0.00000E+00
 -1      2502 1.42785E+02 5.30525E+00 0.00000E+00
 -1      2503 1.41285E+02 5.30525E+00 0.00000E+00
 -1      2504 1.40535E+02 6.60425E+00 0.00000E+00
 -1      2505 1.44336E+02 5.26953E+00 0.00000E+00
 -1      2506 1.43505E+02 1.69125E+01 0.00000E+00
 -1      2507 1.43505E+02 1.54375E+01 0.00000E+00
 -1      2508 1.43505E+02 1.98625E+01 0.00000E+00
 -1      2509 1.43505E+02 1.83875E+01 0.00000E+00
 -1      2510 1.42206E+02 1.76500E+01 0.00000E+00
 -1      2511 1.43505E+02 1.10625E+01 0.00000E+00
 -1      2512 1.43505E+02 9.58750E+00 0.00000E+00
 -1      2513 1.43505E+02 1.39750E+01 0.00000E+00
 -1      2514 1.43505E+02 1.25250E+01 0.00000E+00
 -1      2515 1.42206E+02 1.17875E+01 0.00000E+00
 -1      2516 1.42206E+02 1.47125E+01 0.00000E+00
 -1      2517 1.43505E+02 2.28125E+01 0.00000E+00
 -1      2518 1.43505E+02 2.13375E+01 0.00000E+00
 -1      2519 1.42206E+02 2.06000E+01 0.00000E+00
 -1      2520 1.43505E+02 2.57625E+01 0.00000E+00
 -1      2521 1.43505E+02 2.42875E+01 0.00000E+00
 -1      2522 1.42206E+02 2.35500E+01 0.00000E+00
 -1      2523 1.43505E+02 2.87125E+01 0.00000E+00
 -1      2524 1.43505E+02 2.72375E+01 0.00000E+00
 -1      2525 1.42206E+02 2.65000E+01 0.00000E+00
 -1      2526 1.43505E+02 3.16125E+01 0.00000E+00
 -1      2527 1.43505E+02 3.01625E+01 0.00000E+00
 -1      2528 1.42206E+02 2.94250E+01 0.00000E+00
 -1      2529 1.43505E+02 3.45625E+01 0.00000E+00
 -1      2530 1.43505E+02 3.30875E+01 0.00000E+00
 -1      2531 1.42206E+02 3.23500E+01 0.00000E+00
 -1      2532 1.43505E+02 3.75125E+01 0.00000E+00
 -1      2533 1.43505E+02 3.60375E+01 0.00000E+00
 -1      2534 1.42206E+02 3.53000E+01 0.00000E+00
 -1      2535 1.43505E+02 4.04625E+01 0.00000E+00
 -1      2536 1.43505E+02 3.89875E+01 0.00000E+00
 -1      2537 1.42206E+02 3.82500E+01 0.00000E+00
 -1      2538 5.22892E+01 2.40930E+01 0.00000E+00
 -1      2539 5.22316E+01 2.51731E+01 0.00000E+00
 -1      2540 5.02968E+01 1.94891E+01 0.00000E+00
 -1      2541 5.08418E+01 2.02603E+01 0.00000E+00
 -1      2542 5.06699E+01 1.84757E+01 0.00000E+00
 -1      2543 1.67850E+01 5.30525E+00 0.00000E+00
 -1      2544 1.52850E+01 5.30525E+00 0.00000E+00
 -1      2545 1.75350E+01 6.60425E+00 0.00000E+00
 -1      2546 1.44321E+02 4.30606E+01 0.00000E+00
 -1      2547 5.21648E+01 2.61598E+01 0.00000E+00
 -1      2548 5.20980E+01 2.71465E+01 0.00000E+00
 -1      2549 5.30500E+01 2.56654E+01 0.00000E+00
 -1      2550 5.15771E+01 2.14496E+01 0.00000E+00
 -1      2551 5.20736E+01 2.25664E+01 0.00000E+00
 -1      2552 4.56069E+01 1.57509E+01 0.00000E+00
 -1      2553 4.63539E+01 1.61529E+01 0.00000E+00
 -1      2554 4.72556E+01 1.57014E+01 0.00000E+00
 -1      2555 5.17161E+01 2.84287E+01 0.00000E+00
 -1      2556 5.13012E+01 2.93924E+01 0.00000E+00
 -1      2557 3.34661E+01 3.22253E+01 0.00000E+00
 -1      2558 3.28135E+01 3.13315E+01 0.00000E+00
 -1      2559 3.14805E+01 2.83221E+01 0.00000E+00
 -1      2560 3.13299E+01 2.72539E+01 0.00000E+00
 -1      2561 3.82925E+01 1.53737E+01 0.00000E+00
 -1      2562 3.95034E+01 1.52135E+01 0.00000E+00
 -1      2563 6.49500E+00 2.71625E+01 0.00000E+00
 -1      2564 6.49500E+00 2.86375E+01 0.00000E+00
 -1      2565 7.79400E+00 2.93750E+01 0.00000E+00
 -1      2566 7.79400E+00 2.64250E+01 0.00000E+00
 -1      2567 4.06624E+01 1.51842E+01 0.00000E+00
 -1      2568 4.16298E+01 1.51308E+01 0.00000E+00
 -1      2569 3.31814E+01 1.99540E+01 0.00000E+00
 -1      2570 3.37592E+01 1.90979E+01 0.00000E+00
 -1      2571 3.62155E+01 1.63693E+01 0.00000E+00
 -1      2572 3.69428E+01 1.58580E+01 0.00000E+00
 -1      2573 3.44148E+01 1.80168E+01 0.00000E+00
 -1      2574 3.52426E+01 1.71287E+01 0.00000E+00
 -1      2575 3.22001E+01 2.18692E+01 0.00000E+00
 -1      2576 3.26514E+01 2.09510E+01 0.00000E+00
 -1      2577 3.17219E+01 2.40653E+01 0.00000E+00
 -1      2578 3.18437E+01 2.30637E+01 0.00000E+00
 -1      2579 3.15211E+01 2.59992E+01 0.00000E+00
 -1      2580 3.16215E+01 2.50323E+01 0.00000E+00
 -1      2581 3.09559E+01 2.44431E+01 0.00000E+00
 -1      2582 3.22825E+01 3.02952E+01 0.00000E+00
 -1      2583 3.19027E+01 2.94928E+01 0.00000E+00
 -1      2584 4.59327E+01 3.47941E+01 0.00000E+00
 -1      2585 4.50238E+01 3.51713E+01 0.00000E+00
 -1      2586 3.71677E+01 3.51219E+01 0.00000E+00
 -1      2587 3.63594E+01 3.46610E+01 0.00000E+00
 -1      2588 3.95090E+01 3.60866E+01 0.00000E+00
 -1      2589 3.83065E+01 3.57258E+01 0.00000E+00
 -1      2590 4.16988E+01 3.61763E+01 0.00000E+00
 -1      2591 4.08221E+01 3.61795E+01 0.00000E+00
 -1      2592 4.40567E+01 3.58309E+01 0.00000E+00
 -1      2593 4.29794E+01 3.61685E+01 0.00000E+00
 -1      2594 4.78025E+01 3.39860E+01 0.00000E+00
 -1      2595 4.68917E+01 3.44150E+01 0.00000E+00
 -1      2596 4.96467E+01 3.23074E+01 0.00000E+00
 -1      2597 4.89316E+01 3.31726E+01 0.00000E+00
 -1      2598 5.07605E+01 3.03777E+01 0.00000E+00
 -1      2599 5.02482E+01 3.12641E+01 0.00000E+00
 -1      2600 6.55950E+00 4.28890E+01 0.00000E+00
 -1      2601 8.53650E+00 4.32410E+01 0.00000E+00
 -1      2602 9.28650E+00 4.19420E+01 0.00000E+00
 -1      2603 6.55950E+00 4.14140E+01 0.00000E+00
 -1      2604 8.07525E+00 5.11044E+00 0.00000E+00
 -1      2605 6.57525E+00 5.11044E+00 0.00000E+00
 -1      2606 6.40575E+00 6.01981E+00 0.00000E+00
 -1      2607 8.82525E+00 6.40944E+00 0.00000E+00
 -1      2608 4.18617E+01 1.38929E+01 0.00000E+00
 -1      2609 4.23881E+01 1.46387E+01 0.00000E+00
 -1      2610 4.31464E+01 1.41467E+01 0.00000E+00
 -1      2611 7.79400E+00 3.52687E+01 0.00000E+00
 -1      2612 6.49500E+00 3.60062E+01 0.00000E+00
 -1      2613 6.49500E+00 3.74750E+01 0.00000E+00
 -1      2614 1.45350E+01 6.60425E+00 0.00000E+00
 -1      2615 6.40575E+00 7.49481E+00 0.00000E+00
 -1      2616 5.05365E+01 3.22305E+01 0.00000E+00
 -1      2617 4.88059E+01 3.40871E+01 0.00000E+00
 -1      2618 4.86802E+01 3.50016E+01 0.00000E+00
 -1      2619 4.98092E+01 3.41883E+01 0.00000E+00
 -1      2620 4.47917E+01 3.63183E+01 0.00000E+00
 -1      2621 4.90637E+01 1.69040E+01 0.00000E+00
 -1      2622 7.70475E+00 8.23231E+00 0.00000E+00
 -1      2623 4.25440E+01 3.69857E+01 0.00000E+00
 -1      2624 5.26013E+01 2.79343E+01 0.00000E+00
 -1      2625 3.99503E+01 3.69007E+01 0.00000E+00
 -1      2626 1.43586E+02 6.56853E+00 0.00000E+00
 -1      2627 1.43419E+02 7.72713E+00 0.00000E+00
 -1      2628 3.74983E+01 3.62039E+01 0.00000E+00
 -1      2629 5.35130E+01 2.22113E+01 0.00000E+00
 -1      2630 5.29011E+01 2.31522E+01 0.00000E+00
 -1      2631 5.37286E+01 2.37379E+01 0.00000E+00
 -1      2632 5.19502E+01 2.04362E+01 0.00000E+00
 -1      2633 4.67178E+01 3.52796E+01 0.00000E+00
 -1      2634 3.06642E+01 2.66647E+01 0.00000E+00
 -1      2635 4.50906E+01 1.50959E+01 0.00000E+00
 -1      2636 4.59922E+01 1.46444E+01 0.00000E+00
 -1      2637 4.45743E+01 1.44410E+01 0.00000E+00
 -1      2638 3.08953E+01 2.90902E+01 0.00000E+00
 -1      2639 6.55950E+00 3.99453E+01 0.00000E+00
 -1      2640 3.18485E+01 3.12972E+01 0.00000E+00
 -1      2641 3.14126E+01 2.22817E+01 0.00000E+00
 -1      2642 3.34845E+01 1.80120E+01 0.00000E+00
 -1      2643 3.51130E+01 1.61715E+01 0.00000E+00
 -1      2644 3.74357E+01 1.49278E+01 0.00000E+00
 -1      2645 3.79287E+01 1.39975E+01 0.00000E+00
 -1      2646 3.65789E+01 1.44819E+01 0.00000E+00
 -1      2647 3.35392E+01 3.30816E+01 0.00000E+00
 -1      2648 3.99445E+01 1.44142E+01 0.00000E+00
 -1      2649 5.16787E+01 3.02019E+01 0.00000E+00
 -1      2650 3.22989E+01 2.00901E+01 0.00000E+00
 -1      2651 3.55291E+01 3.47148E+01 0.00000E+00
 -1      2652 1.42758E+02 4.35929E+01 0.00000E+00
 -1      2653 1.43241E+02 4.17323E+01 0.00000E+00
 -1      2654 1.41942E+02 4.09948E+01 0.00000E+00
 -1      2655 1.41414E+02 4.35342E+01 0.00000E+00
 -1      2656 1.42120E+02 8.46463E+00 0.00000E+00
 -1      2657 1.40664E+02 4.22352E+01 0.00000E+00
 -1      2658 9.09300E+00 1.98250E+01 0.00000E+00
 -1      2659 9.09300E+00 2.12750E+01 0.00000E+00
 -1      2660 9.09300E+00 2.27500E+01 0.00000E+00
 -1      2661 9.09300E+00 2.42250E+01 0.00000E+00
 -1      2662 1.03920E+01 2.20250E+01 0.00000E+00
 -1      2663 9.09300E+00 1.39375E+01 0.00000E+00
 -1      2664 9.09300E+00 1.54125E+01 0.00000E+00
 -1      2665 9.09300E+00 1.09875E+01 0.00000E+00
 -1      2666 9.09300E+00 1.24625E+01 0.00000E+00
 -1      2667 1.03920E+01 1.32000E+01 0.00000E+00
 -1      2668 1.22850E+01 7.90325E+00 0.00000E+00
 -1      2669 1.07850E+01 7.90325E+00 0.00000E+00
 -1      2670 4.31895E+01 3.78394E+01 0.00000E+00
 -1      2671 4.19089E+01 3.78472E+01 0.00000E+00
 -1      2672 8.91450E+00 8.42712E+00 0.00000E+00
 -1      2673 1.44000E+01 4.09070E+01 0.00000E+00
 -1      2674 1.59000E+01 4.09070E+01 0.00000E+00
 -1      2675 1.74000E+01 4.09070E+01 0.00000E+00
 -1      2676 1.89000E+01 4.09070E+01 0.00000E+00
 -1      2677 1.66500E+01 3.96080E+01 0.00000E+00
 -1      2678 2.04000E+01 4.09070E+01 0.00000E+00
 -1      2679 2.19000E+01 4.09070E+01 0.00000E+00
 -1      2680 1.96500E+01 3.96080E+01 0.00000E+00
 -1      2681 2.34000E+01 4.09070E+01 0.00000E+00
 -1      2682 2.49000E+01 4.09070E+01 0.00000E+00
 -1      2683 2.26500E+01 3.96080E+01 0.00000E+00
 -1      2684 2.64000E+01 4.09070E+01 0.00000E+00
 -1      2685 2.79000E+01 4.09070E+01 0.00000E+00
 -1      2686 2.56500E+01 3.96080E+01 0.00000E+00
 -1      2687 2.94000E+01 4.09070E+01 0.00000E+00
 -1      2688 3.09000E+01 4.09070E+01 0.00000E+00
 -1      2689 2.86500E+01 3.96080E+01 0.00000E+00
 -1      2690 3.24000E+01 4.09070E+01 0.00000E+00
 -1      2691 3.39000E+01 4.09070E+01 0.00000E+00
 -1      2692 3.16500E+01 3.96080E+01 0.00000E+00
 -1      2693 3.54000E+01 4.09070E+01 0.00000E+00
 -1      2694 3.69000E+01 4.09070E+01 0.00000E+00
 -1      2695 3.46500E+01 3.96080E+01 0.00000E+00
 -1      2696 3.84000E+01 4.09070E+01 0.00000E+00
 -1      2697 3.99000E+01 4.09070E+01 0.00000E+00
 -1      2698 3.76500E+01 3.96080E+01 0.00000E+00
 -1      2699 4.16022E+01 4.04534E+01 0.00000E+00
 -1      2700 4.31022E+01 4.04534E+01 0.00000E+00
 -1      2701 4.74000E+01 4.09070E+01 0.00000E+00
 -1      2702 4.89000E+01 4.09070E+01 0.00000E+00
 -1      2703 5.04000E+01 4.09070E+01 0.00000E+00
 -1      2704 5.19000E+01 4.09070E+01 0.00000E+00
 -1      2705 4.96500E+01 3.96080E+01 0.00000E+00
 -1      2706 5.34000E+01 4.09070E+01 0.00000E+00
 -1      2707 5.49000E+01 4.09070E+01 0.00000E+00
 -1      2708 5.26500E+01 3.96080E+01 0.00000E+00
 -1      2709 5.64000E+01 4.09070E+01 0.00000E+00
 -1      2710 5.79000E+01 4.09070E+01 0.00000E+00
 -1      2711 5.56500E+01 3.96080E+01 0.00000E+00
 -1      2712 5.94000E+01 4.09070E+01 0.00000E+00
 -1      2713 6.09000E+01 4.09070E+01 0.00000E+00
 -1      2714 5.86500E+01 3.96080E+01 0.00000E+00
 -1      2715 6.24000E+01 4.09070E+01 0.00000E+00
 -1      2716 6.39000E+01 4.09070E+01 0.00000E+00
 -1      2717 6.16500E+01 3.96080E+01 0.00000E+00
 -1      2718 6.54000E+01 4.09070E+01 0.00000E+00
 -1      2719 6.69000E+01 4.09070E+01 0.00000E+00
 -1      2720 6.46500E+01 3.96080E+01 0.00000E+00
 -1      2721 6.84000E+01 4.09070E+01 0.00000E+00
 -1      2722 6.99000E+01 4.09070E+01 0.00000E+00
 -1      2723 6.76500E+01 3.96080E+01 0.00000E+00
 -1      2724 7.14000E+01 4.09070E+01 0.00000E+00
 -1      2725 7.29000E+01 4.09070E+01 0.00000E+00
 -1      2726 7.06500E+01 3.96080E+01 0.00000E+00
 -1      2727 7.44000E+01 4.09070E+01 0.00000E+00
 -1      2728 7.59000E+01 4.09070E+01 0.00000E+00
 -1      2729 7.36500E+01 3.96080E+01 0.00000E+00
 -1      2730 7.74000E+01 4.09070E+01 0.00000E+00
 -1      2731 7.89000E+01 4.09070E+01 0.00000E+00
 -1      2732 7.66500E+01 3.96080E+01 0.00000E+00
 -1      2733 8.04000E+01 4.09070E+01 0.00000E+00
 -1      2734 8.19000E+01 4.09070E+01 0.00000E+00
 -1      2735 7.96500E+01 3.96080E+01 0.00000E+00
 -1      2736 8.34000E+01 4.09070E+01 0.00000E+00
 -1      2737 8.49000E+01 4.09070E+01 0.00000E+00
 -1      2738 8.26500E+01 3.96080E+01 0.00000E+00
 -1      2739 8.64000E+01 4.09070E+01 0.00000E+00
 -1      2740 8.79000E+01 4.09070E+01 0.00000E+00
 -1      2741 8.56500E+01 3.96080E+01 0.00000E+00
 -1      2742 8.94000E+01 4.09070E+01 0.00000E+00
 -1      2743 9.09000E+01 4.09070E+01 0.00000E+00
 -1      2744 8.86500E+01 3.96080E+01 0.00000E+00
 -1      2745 9.24000E+01 4.09070E+01 0.00000E+00
 -1      2746 9.39000E+01 4.09070E+01 0.00000E+00
 -1      2747 9.16500E+01 3.96080E+01 0.00000E+00
 -1      2748 9.54000E+01 4.09070E+01 0.00000E+00
 -1      2749 9.69000E+01 4.09070E+01 0.00000E+00
 -1      2750 9.46500E+01 3.96080E+01 0.00000E+00
 -1      2751 9.84000E+01 4.09070E+01 0.00000E+00
 -1      2752 9.99000E+01 4.09070E+01 0.00000E+00
 -1      2753 9.76500E+01 3.96080E+01 0.00000E+00
 -1      2754 1.01400E+02 4.09070E+01 0.00000E+00
 -1      2755 1.02900E+02 4.09070E+01 0.00000E+00
 -1      2756 1.00650E+02 3.96080E+01 0.00000E+00
 -1      2757 1.04400E+02 4.09070E+01 0.00000E+00
 -1      2758 1.05900E+02 4.09070E+01 0.00000E+00
 -1      2759 1.03650E+02 3.96080E+01 0.00000E+00
 -1      2760 1.07400E+02 4.09070E+01 0.00000E+00
 -1      2761 1.08900E+02 4.09070E+01 0.00000E+00
 -1      2762 1.06650E+02 3.96080E+01 0.00000E+00
 -1      2763 1.10400E+02 4.09070E+01 0.00000E+00
 -1      2764 1.11900E+02 4.09070E+01 0.00000E+00
 -1      2765 1.09650E+02 3.96080E+01 0.00000E+00
 -1      2766 1.13400E+02 4.09070E+01 0.00000E+00
 -1      2767 1.14900E+02 4.09070E+01 0.00000E+00
 -1      2768 1.12650E+02 3.96080E+01 0.00000E+00
 -1      2769 1.16400E+02 4.09070E+01 0.00000E+00
 -1      2770 1.17900E+02 4.09070E+01 0.00000E+00
 -1      2771 1.15650E+02 3.96080E+01 0.00000E+00
 -1      2772 1.19400E+02 4.09070E+01 0.00000E+00
 -1      2773 1.20900E+02 4.09070E+01 0.00000E+00
 -1      2774 1.18650E+02 3.96080E+01 0.00000E+00
 -1      2775 1.22400E+02 4.09070E+01 0.00000E+00
 -1      2776 1.23900E+02 4.09070E+01 0.00000E+00
 -1      2777 1.21650E+02 3.96080E+01 0.00000E+00
 -1      2778 1.25400E+02 4.09070E+01 0.00000E+00
 -1      2779 1.26900E+02 4.09070E+01 0.00000E+00
 -1      2780 1.24650E+02 3.96080E+01 0.00000E+00
 -1      2781 1.28400E+02 4.09070E+01 0.00000E+00
 -1      2782 1.29900E+02 4.09070E+01 0.00000E+00
 -1      2783 1.27650E+02 3.96080E+01 0.00000E+00
 -1      2784 1.31400E+02 4.09070E+01 0.00000E+00
 -1      2785 1.32900E+02 4.09070E+01 0.00000E+00
 -1      2786 1.30650E+02 3.96080E+01 0.00000E+00
 -1      2787 1.34400E+02 4.09070E+01 0.00000E+00
 -1      2788 1.35900E+02 4.09070E+01 0.00000E+00
 -1      2789 1.33650E+02 3.96080E+01 0.00000E+00
 -1      2790 1.37400E+02 4.09070E+01 0.00000E+00
 -1      2791 1.38900E+02 4.09070E+01 0.00000E+00
 -1      2792 1.36650E+02 3.96080E+01 0.00000E+00
 -1      2793 2.42850E+01 7.90325E+00 0.00000E+00
 -1      2794 2.27850E+01 7.90325E+00 0.00000E+00
 -1      2795 1.40706E+02 1.03250E+01 0.00000E+00
 -1      2796 1.40620E+02 8.46463E+00 0.00000E+00
 -1      2797 1.39120E+02 8.46463E+00 0.00000E+00
 -1      2798 2.12850E+01 7.90325E+00 0.00000E+00
 -1      2799 1.97850E+01 7.90325E+00 0.00000E+00
 -1      2800 2.20350E+01 9.20225E+00 0.00000E+00
 -1      2801 3.02850E+01 7.90325E+00 0.00000E+00
 -1      2802 2.87850E+01 7.90325E+00 0.00000E+00
 -1      2803 3.32850E+01 7.90325E+00 0.00000E+00
 -1      2804 3.17850E+01 7.90325E+00 0.00000E+00
 -1      2805 3.10350E+01 9.20225E+00 0.00000E+00
 -1      2806 3.62850E+01 7.90325E+00 0.00000E+00
 -1      2807 3.47850E+01 7.90325E+00 0.00000E+00
 -1      2808 3.40350E+01 9.20225E+00 0.00000E+00
 -1      2809 3.92850E+01 7.90325E+00 0.00000E+00
 -1      2810 3.77850E+01 7.90325E+00 0.00000E+00
 -1      2811 3.70350E+01 9.20225E+00 0.00000E+00
 -1      2812 4.22850E+01 7.90325E+00 0.00000E+00
 -1      2813 4.07850E+01 7.90325E+00 0.00000E+00
 -1      2814 4.00350E+01 9.20225E+00 0.00000E+00
 -1      2815 4.52850E+01 7.90325E+00 0.00000E+00
 -1      2816 4.37850E+01 7.90325E+00 0.00000E+00
 -1      2817 4.30350E+01 9.20225E+00 0.00000E+00
 -1      2818 4.82850E+01 7.90325E+00 0.00000E+00
 -1      2819 4.67850E+01 7.90325E+00 0.00000E+00
 -1      2820 4.60350E+01 9.20225E+00 0.00000E+00
 -1      2821 5.12850E+01 7.90325E+00 0.00000E+00
 -1      2822 4.97850E+01 7.90325E+00 0.00000E+00
 -1      2823 4.90350E+01 9.20225E+00 0.00000E+00
 -1      2824 5.42850E+01 7.90325E+00 0.00000E+00
 -1      2825 5.27850E+01 7.90325E+00 0.00000E+00
 -1      2826 5.20350E+01 9.20225E+00 0.00000E+00
 -1      2827 5.72850E+01 7.90325E+00 0.00000E+00
 -1      2828 5.57850E+01 7.90325E+00 0.00000E+00
 -1      2829 5.50350E+01 9.20225E+00 0.00000E+00
 -1      2830 6.02850E+01 7.90325E+00 0.00000E+00
 -1      2831 5.87850E+01 7.90325E+00 0.00000E+00
 -1      2832 5.80350E+01 9.20225E+00 0.00000E+00
 -1      2833 6.32850E+01 7.90325E+00 0.00000E+00
 -1      2834 6.17850E+01 7.90325E+00 0.00000E+00
 -1      2835 6.10350E+01 9.20225E+00 0.00000E+00
 -1      2836 6.62850E+01 7.90325E+00 0.00000E+00
 -1      2837 6.47850E+01 7.90325E+00 0.00000E+00
 -1      2838 6.40350E+01 9.20225E+00 0.00000E+00
 -1      2839 6.92850E+01 7.90325E+00 0.00000E+00
 -1      2840 6.77850E+01 7.90325E+00 0.00000E+00
 -1      2841 6.70350E+01 9.20225E+00 0.00000E+00
 -1      2842 7.22850E+01 7.90325E+00 0.00000E+00
 -1      2843 7.07850E+01 7.90325E+00 0.00000E+00
 -1      2844 7.00350E+01 9.20225E+00 0.00000E+00
 -1      2845 7.52850E+01 7.90325E+00 0.00000E+00
 -1      2846 7.37850E+01 7.90325E+00 0.00000E+00
 -1      2847 7.30350E+01 9.20225E+00 0.00000E+00
 -1      2848 7.82850E+01 7.90325E+00 0.00000E+00
 -1      2849 7.67850E+01 7.90325E+00 0.00000E+00
 -1      2850 7.60350E+01 9.20225E+00 0.00000E+00
 -1      2851 8.12850E+01 7.90325E+00 0.00000E+00
 -1      2852 7.97850E+01 7.90325E+00 0.00000E+00
 -1      2853 7.90350E+01 9.20225E+00 0.00000E+00
 -1      2854 8.42850E+01 7.90325E+00 0.00000E+00
 -1      2855 8.27850E+01 7.90325E+00 0.00000E+00
 -1      2856 8.20350E+01 9.20225E+00 0.00000E+00
 -1      2857 8.72850E+01 7.90325E+00 0.00000E+00
 -1      2858 8.57850E+01 7.90325E+00 0.00000E+00
 -1      2859 8.50350E+01 9.20225E+00 0.00000E+00
 -1      2860 9.02850E+01 7.90325E+00 0.00000E+00
 -1      2861 8.87850E+01 7.90325E+00 0.00000E+00
 -1      2862 8.80350E+01 9.20225E+00 0.00000E+00
 -1      2863 9.32850E+01 7.90325E+00 0.00000E+00
 -1      2864 9.17850E+01 7.90325E+00 0.00000E+00
 -1      2865 9.10350E+01 9.20225E+00 0.00000E+00
 -1      2866 9.62850E+01 7.90325E+00 0.00000E+00
 -1      2867 9.47850E+01 7.90325E+00 0.00000E+00
 -1      2868 9.40350E+01 9.20225E+00 0.00000E+00
 -1      2869 9.92850E+01 7.90325E+00 0.00000E+00
 -1      2870 9.77850E+01 7.90325E+00 0.00000E+00
 -1      2871 9.70350E+01 9.20225E+00 0.00000E+00
 -1      2872 1.02285E+02 7.90325E+00 0.00000E+00
 -1      2873 1.00785E+02 7.90325E+00 0.00000E+00
 -1      2874 1.00035E+02 9.20225E+00 0.00000E+00
 -1      2875 1.05285E+02 7.90325E+00 0.00000E+00
 -1      2876 1.03785E+02 7.90325E+00 0.00000E+00
 -1      2877 1.03035E+02 9.20225E+00 0.00000E+00
 -1      2878 1.08285E+02 7.90325E+00 0.00000E+00
 -1      2879 1.06785E+02 7.90325E+00 0.00000E+00
 -1      2880 1.06035E+02 9.20225E+00 0.00000E+00
 -1      2881 1.11285E+02 7.90325E+00 0.00000E+00
 -1      2882 1.09785E+02 7.90325E+00 0.00000E+00
 -1      2883 1.09035E+02 9.20225E+00 0.00000E+00
 -1      2884 1.14285E+02 7.90325E+00 0.00000E+00
 -1      2885 1.12785E+02 7.90325E+00 0.00000E+00
 -1      2886 1.12035E+02 9.20225E+00 0.00000E+00
 -1      2887 1.17285E+02 7.90325E+00 0.00000E+00
 -1      2888 1.15785E+02 7.90325E+00 0.00000E+00
 -1      2889 1.15035E+02 9.20225E+00 0.00000E+00
 -1      2890 1.20285E+02 7.90325E+00 0.00000E+00
 -1      2891 1.18785E+02 7.90325E+00 0.00000E+00
 -1      2892 1.18035E+02 9.20225E+00 0.00000E+00
 -1      2893 1.23285E+02 7.90325E+00 0.00000E+00
 -1      2894 1.21785E+02 7.90325E+00 0.00000E+00
 -1      2895 1.21035E+02 9.20225E+00 0.00000E+00
 -1      2896 1.26285E+02 7.90325E+00 0.00000E+00
 -1      2897 1.24785E+02 7.90325E+00 0.00000E+00
 -1      2898 1.24035E+02 9.20225E+00 0.00000E+00
 -1      2899 1.29285E+02 7.90325E+00 0.00000E+00
 -1      2900 1.27785E+02 7.90325E+00 0.00000E+00
 -1      2901 1.27035E+02 9.20225E+00 0.00000E+00
 -1      2902 1.32285E+02 7.90325E+00 0.00000E+00
 -1      2903 1.30785E+02 7.90325E+00 0.00000E+00
 -1      2904 1.30035E+02 9.20225E+00 0.00000E+00
 -1      2905 1.35285E+02 7.90325E+00 0.00000E+00
 -1      2906 1.33785E+02 7.90325E+00 0.00000E+00
 -1      2907 1.33035E+02 9.20225E+00 0.00000E+00
 -1      2908 1.37953E+02 8.18394E+00 0.00000E+00
 -1      2909 1.36453E+02 8.18394E+00 0.00000E+00
 -1      2910 1.35703E+02 9.48294E+00 0.00000E+00
 -1      2911 1.38038E+02 1.00443E+01 0.00000E+00
 -1      2912 1.40907E+02 2.42875E+01 0.00000E+00
 -1      2913 1.40907E+02 2.28125E+01 0.00000E+00
 -1      2914 1.39914E+02 4.09362E+01 0.00000E+00
 -1      2915 1.40928E+02 4.09655E+01 0.00000E+00
 -1      2916 1.39164E+02 3.96372E+01 0.00000E+00
 -1      2917 1.40907E+02 1.83875E+01 0.00000E+00
 -1      2918 1.40907E+02 1.69125E+01 0.00000E+00
 -1      2919 1.40907E+02 2.72375E+01 0.00000E+00
 -1      2920 1.40907E+02 2.57625E+01 0.00000E+00
 -1      2921 1.39608E+02 2.50250E+01 0.00000E+00
 -1      2922 1.40907E+02 2.13375E+01 0.00000E+00
 -1      2923 1.40907E+02 1.98625E+01 0.00000E+00
 -1      2924 1.39608E+02 1.91250E+01 0.00000E+00
 -1      2925 1.39608E+02 2.20750E+01 0.00000E+00
 -1      2926 5.12345E+01 1.74985E+01 0.00000E+00
 -1      2927 5.17796E+01 1.82696E+01 0.00000E+00
 -1      2928 1.40907E+02 3.01375E+01 0.00000E+00
 -1      2929 1.40907E+02 2.86875E+01 0.00000E+00
 -1      2930 1.39608E+02 2.79500E+01 0.00000E+00
 -1      2931 1.40907E+02 3.30875E+01 0.00000E+00
 -1      2932 1.40907E+02 3.16125E+01 0.00000E+00
 -1      2933 1.39608E+02 3.08750E+01 0.00000E+00
 -1      2934 1.40907E+02 3.60375E+01 0.00000E+00
 -1      2935 1.40907E+02 3.45625E+01 0.00000E+00
 -1      2936 1.39608E+02 3.38250E+01 0.00000E+00
 -1      2937 5.25149E+01 1.94590E+01 0.00000E+00
 -1      2938 5.32501E+01 2.06483E+01 0.00000E+00
 -1      2939 5.30795E+01 1.84817E+01 0.00000E+00
 -1      2940 1.82850E+01 7.90325E+00 0.00000E+00
 -1      2941 1.67850E+01 7.90325E+00 0.00000E+00
 -1      2942 1.90350E+01 9.20225E+00 0.00000E+00
 -1      2943 5.40226E+01 2.52356E+01 0.00000E+00
 -1      2944 5.39558E+01 2.62223E+01 0.00000E+00
 -1      2945 4.75126E+01 3.58875E+01 0.00000E+00
 -1      2946 4.65536E+01 3.62666E+01 0.00000E+00
 -1      2947 4.73282E+01 1.46715E+01 0.00000E+00
 -1      2948 4.80752E+01 1.50735E+01 0.00000E+00
 -1      2949 4.02067E+01 3.83008E+01 0.00000E+00
 -1      2950 3.88936E+01 3.82079E+01 0.00000E+00
 -1      2951 7.85850E+00 3.92077E+01 0.00000E+00
 -1      2952 2.72850E+01 7.90325E+00 0.00000E+00
 -1      2953 2.57850E+01 7.90325E+00 0.00000E+00
 -1      2954 2.50350E+01 9.20225E+00 0.00000E+00
 -1      2955 2.80350E+01 9.20225E+00 0.00000E+00
 -1      2956 1.14000E+01 4.09070E+01 0.00000E+00
 -1      2957 1.29000E+01 4.09070E+01 0.00000E+00
 -1      2958 1.36500E+01 3.96080E+01 0.00000E+00
 -1      2959 1.52850E+01 7.90325E+00 0.00000E+00
 -1      2960 1.37850E+01 7.90325E+00 0.00000E+00
 -1      2961 1.30350E+01 9.20225E+00 0.00000E+00
 -1      2962 1.60350E+01 9.20225E+00 0.00000E+00
 -1      2963 5.15801E+01 3.21372E+01 0.00000E+00
 -1      2964 5.09786E+01 3.31804E+01 0.00000E+00
 -1      2965 3.12017E+01 3.22828E+01 0.00000E+00
 -1      2966 3.06707E+01 3.12466E+01 0.00000E+00
 -1      2967 9.09300E+00 1.68813E+01 0.00000E+00
 -1      2968 9.09300E+00 1.83563E+01 0.00000E+00
 -1      2969 1.03920E+01 1.90812E+01 0.00000E+00
 -1      2970 1.03920E+01 1.61437E+01 0.00000E+00
 -1      2971 9.09300E+00 3.15875E+01 0.00000E+00
 -1      2972 9.09300E+00 3.30625E+01 0.00000E+00
 -1      2973 3.38927E+01 1.56110E+01 0.00000E+00
 -1      2974 3.48656E+01 1.48516E+01 0.00000E+00
 -1      2975 3.36541E+01 3.41762E+01 0.00000E+00
 -1      2976 3.24945E+01 3.34281E+01 0.00000E+00
 -1      2977 3.02485E+01 3.00758E+01 0.00000E+00
 -1      2978 2.98263E+01 2.89051E+01 0.00000E+00
 -1      2979 2.96017E+01 3.10615E+01 0.00000E+00
 -1      2980 3.93433E+01 1.35715E+01 0.00000E+00
 -1      2981 4.05023E+01 1.35423E+01 0.00000E+00
 -1      2982 3.53148E+01 3.59466E+01 0.00000E+00
 -1      2983 3.44845E+01 3.50614E+01 0.00000E+00
 -1      2984 3.34398E+01 3.54080E+01 0.00000E+00
 -1      2985 3.22802E+01 1.80210E+01 0.00000E+00
 -1      2986 3.29357E+01 1.69399E+01 0.00000E+00
 -1      2987 3.01360E+01 2.48466E+01 0.00000E+00
 -1      2988 3.02365E+01 2.38797E+01 0.00000E+00
 -1      2989 3.04127E+01 2.26338E+01 0.00000E+00
 -1      2990 3.07690E+01 2.14393E+01 0.00000E+00
 -1      2991 4.91505E+01 1.56854E+01 0.00000E+00
 -1      2992 5.02117E+01 1.64859E+01 0.00000E+00
 -1      2993 5.26615E+01 3.01665E+01 0.00000E+00
 -1      2994 5.21208E+01 3.11518E+01 0.00000E+00
 -1      2995 5.25630E+01 3.21018E+01 0.00000E+00
 -1      2996 1.41192E+02 3.96958E+01 0.00000E+00
 -1      2997 3.76660E+01 3.72635E+01 0.00000E+00
 -1      2998 3.65272E+01 3.66596E+01 0.00000E+00
 -1      2999 5.36141E+01 2.75380E+01 0.00000E+00
 -1      3000 5.32322E+01 2.88202E+01 0.00000E+00
 -1      3001 2.97536E+01 2.73560E+01 0.00000E+00
 -1      3002 2.99448E+01 2.61013E+01 0.00000E+00
 -1      3003 2.92254E+01 2.55379E+01 0.00000E+00
 -1      3004 4.55864E+01 3.69263E+01 0.00000E+00
 -1      3005 4.46193E+01 3.75859E+01 0.00000E+00
 -1      3006 4.63812E+01 3.75342E+01 0.00000E+00
 -1      3007 3.12767E+01 2.01862E+01 0.00000E+00
 -1      3008 3.18067E+01 1.91891E+01 0.00000E+00
 -1      3009 9.09300E+00 3.45313E+01 0.00000E+00
 -1      3010 9.09300E+00 3.60000E+01 0.00000E+00
 -1      3011 1.03920E+01 3.37938E+01 0.00000E+00
 -1      3012 1.03920E+01 2.49750E+01 0.00000E+00
 -1      3013 9.09300E+00 2.57000E+01 0.00000E+00
 -1      3014 9.09300E+00 2.71750E+01 0.00000E+00
 -1      3015 1.41192E+02 3.82207E+01 0.00000E+00
 -1      3016 4.08522E+01 3.91544E+01 0.00000E+00
 -1      3017 9.66450E+00 9.72612E+00 0.00000E+00
 -1      3018 4.12606E+01 1.30502E+01 0.00000E+00
 -1      3019 5.08529E+01 3.40950E+01 0.00000E+00
 -1      3020 5.07272E+01 3.50095E+01 0.00000E+00
 -1      3021 5.18966E+01 3.40017E+01 0.00000E+00
 -1      3022 1.39608E+02 1.61875E+01 0.00000E+00
 -1      3023 1.40907E+02 1.54500E+01 0.00000E+00
 -1      3024 1.40907E+02 1.39875E+01 0.00000E+00
 -1      3025 4.44000E+01 4.09070E+01 0.00000E+00
 -1      3026 4.59000E+01 4.09070E+01 0.00000E+00
 -1      3027 2.91069E+01 2.83417E+01 0.00000E+00
 -1      3028 2.83874E+01 2.77783E+01 0.00000E+00
 -1      3029 2.84601E+01 2.93273E+01 0.00000E+00
 -1      3030 5.45867E+01 2.71082E+01 0.00000E+00
 -1      3031 5.36744E+01 2.97702E+01 0.00000E+00
 -1      3032 3.54825E+01 3.70061E+01 0.00000E+00
 -1      3033 5.13213E+01 1.62798E+01 0.00000E+00
 -1      3034 1.40706E+02 1.17875E+01 0.00000E+00
 -1      3035 4.92232E+01 1.46554E+01 0.00000E+00
 -1      3036 5.40776E+01 2.12341E+01 0.00000E+00
 -1      3037 5.49051E+01 2.18198E+01 0.00000E+00
 -1      3038 5.46422E+01 2.02568E+01 0.00000E+00
 -1      3039 1.39893E+02 3.74832E+01 0.00000E+00
 -1      3040 2.95929E+01 2.30373E+01 0.00000E+00
 -1      3041 1.09635E+01 1.04636E+01 0.00000E+00
 -1      3042 4.39842E+01 3.84473E+01 0.00000E+00
 -1      3043 4.40480E+01 1.36951E+01 0.00000E+00
 -1      3044 4.49496E+01 1.32436E+01 0.00000E+00
 -1      3045 4.35216E+01 1.29493E+01 0.00000E+00
 -1      3046 5.46344E+01 2.42948E+01 0.00000E+00
 -1      3047 3.26884E+01 1.56200E+01 0.00000E+00
 -1      3048 3.12580E+01 1.81170E+01 0.00000E+00
 -1      3049 3.79224E+01 3.86636E+01 0.00000E+00
 -1      3050 9.15750E+00 3.77359E+01 0.00000E+00
 -1      3051 9.22200E+00 4.02061E+01 0.00000E+00
 -1      3052 1.05855E+01 4.04701E+01 0.00000E+00
 -1      3053 1.04565E+01 3.69984E+01 0.00000E+00
 -1      3054 4.68119E+01 1.40165E+01 0.00000E+00
 -1      3055 4.76316E+01 1.33887E+01 0.00000E+00
 -1      3056 4.62956E+01 1.33616E+01 0.00000E+00
 -1      3057 4.85159E+01 3.59887E+01 0.00000E+00
 -1      3058 4.83517E+01 3.69757E+01 0.00000E+00
 -1      3059 4.95193E+01 3.60898E+01 0.00000E+00
 -1      3060 3.53586E+01 1.39214E+01 0.00000E+00
 -1      3061 3.58516E+01 1.29911E+01 0.00000E+00
 -1      3062 3.41383E+01 1.33608E+01 0.00000E+00
 -1      3063 4.66500E+01 3.96080E+01 0.00000E+00
 -1      3064 9.09300E+00 2.86437E+01 0.00000E+00
 -1      3065 9.09300E+00 3.01187E+01 0.00000E+00
 -1      3066 1.03920E+01 3.08563E+01 0.00000E+00
 -1      3067 1.03920E+01 2.79188E+01 0.00000E+00
 -1      3068 3.13167E+01 3.33775E+01 0.00000E+00
 -1      3069 3.01388E+01 3.33269E+01 0.00000E+00
 -1      3070 3.14316E+01 3.44722E+01 0.00000E+00
 -1      3071 3.84865E+01 1.31256E+01 0.00000E+00
 -1      3072 3.02768E+01 2.05383E+01 0.00000E+00
 -1      3073 1.13355E+01 3.91711E+01 0.00000E+00
 -1      3074 4.07950E+01 1.20445E+01 0.00000E+00
 -1      3075 4.21544E+01 1.23951E+01 0.00000E+00
 -1      3076 1.16910E+01 1.24625E+01 0.00000E+00
 -1      3077 1.16910E+01 1.39375E+01 0.00000E+00
 -1      3078 1.89000E+01 3.83090E+01 0.00000E+00
 -1      3079 2.04000E+01 3.83090E+01 0.00000E+00
 -1      3080 2.19000E+01 3.83090E+01 0.00000E+00
 -1      3081 2.34000E+01 3.83090E+01 0.00000E+00
 -1      3082 2.11500E+01 3.70100E+01 0.00000E+00
 -1      3083 2.49000E+01 3.83090E+01 0.00000E+00
 -1      3084 2.64000E+01 3.83090E+01 0.00000E+00
 -1      3085 2.41500E+01 3.70100E+01 0.00000E+00
 -1      3086 2.79000E+01 3.83090E+01 0.00000E+00
 -1      3087 2.94000E+01 3.83090E+01 0.00000E+00
 -1      3088 2.71500E+01 3.70100E+01 0.00000E+00
 -1      3089 3.64224E+01 3.86636E+01 0.00000E+00
 -1      3090 1.29000E+01 3.83090E+01 0.00000E+00
 -1      3091 1.44000E+01 3.83090E+01 0.00000E+00
 -1      3092 5.19000E+01 3.83090E+01 0.00000E+00
 -1      3093 5.34000E+01 3.83090E+01 0.00000E+00
 -1      3094 5.49000E+01 3.83090E+01 0.00000E+00
 -1      3095 5.64000E+01 3.83090E+01 0.00000E+00
 -1      3096 5.41500E+01 3.70100E+01 0.00000E+00
 -1      3097 5.79000E+01 3.83090E+01 0.00000E+00
 -1      3098 5.94000E+01 3.83090E+01 0.00000E+00
 -1      3099 5.71500E+01 3.70100E+01 0.00000E+00
 -1      3100 6.09000E+01 3.83090E+01 0.00000E+00
 -1      3101 6.24000E+01 3.83090E+01 0.00000E+00
 -1      3102 6.01500E+01 3.70100E+01 0.00000E+00
 -1      3103 6.39000E+01 3.83090E+01 0.00000E+00
 -1      3104 6.54000E+01 3.83090E+01 0.00000E+00
 -1      3105 6.31500E+01 3.70100E+01 0.00000E+00
 -1      3106 6.69000E+01 3.83090E+01 0.00000E+00
 -1      3107 6.84000E+01 3.83090E+01 0.00000E+00
 -1      3108 6.61500E+01 3.70100E+01 0.00000E+00
 -1      3109 6.99000E+01 3.83090E+01 0.00000E+00
 -1      3110 7.14000E+01 3.83090E+01 0.00000E+00
 -1      3111 6.91500E+01 3.70100E+01 0.00000E+00
 -1      3112 7.29000E+01 3.83090E+01 0.00000E+00
 -1      3113 7.44000E+01 3.83090E+01 0.00000E+00
 -1      3114 7.21500E+01 3.70100E+01 0.00000E+00
 -1      3115 7.59000E+01 3.83090E+01 0.00000E+00
 -1      3116 7.74000E+01 3.83090E+01 0.00000E+00
 -1      3117 7.51500E+01 3.70100E+01 0.00000E+00
 -1      3118 7.89000E+01 3.83090E+01 0.00000E+00
 -1      3119 8.04000E+01 3.83090E+01 0.00000E+00
 -1      3120 7.81500E+01 3.70100E+01 0.00000E+00
 -1      3121 8.19000E+01 3.83090E+01 0.00000E+00
 -1      3122 8.34000E+01 3.83090E+01 0.00000E+00
 -1      3123 8.11500E+01 3.70100E+01 0.00000E+00
 -1      3124 8.49000E+01 3.83090E+01 0.00000E+00
 -1      3125 8.64000E+01 3.83090E+01 0.00000E+00
 -1      3126 8.41500E+01 3.70100E+01 0.00000E+00
 -1      3127 8.79000E+01 3.83090E+01 0.00000E+00
 -1      3128 8.94000E+01 3.83090E+01 0.00000E+00
 -1      3129 8.71500E+01 3.70100E+01 0.00000E+00
 -1      3130 9.09000E+01 3.83090E+01 0.00000E+00
 -1      3131 9.24000E+01 3.83090E+01 0.00000E+00
 -1      3132 9.01500E+01 3.70100E+01 0.00000E+00
 -1      3133 9.39000E+01 3.83090E+01 0.00000E+00
 -1      3134 9.54000E+01 3.83090E+01 0.00000E+00
 -1      3135 9.31500E+01 3.70100E+01 0.00000E+00
 -1      3136 9.69000E+01 3.83090E+01 0.00000E+00
 -1      3137 9.84000E+01 3.83090E+01 0.00000E+00
 -1      3138 9.61500E+01 3.70100E+01 0.00000E+00
 -1      3139 9.99000E+01 3.83090E+01 0.00000E+00
 -1      3140 1.01400E+02 3.83090E+01 0.00000E+00
 -1      3141 9.91500E+01 3.70100E+01 0.00000E+00
 -1      3142 1.02900E+02 3.83090E+01 0.00000E+00
 -1      3143 1.04400E+02 3.83090E+01 0.00000E+00
 -1      3144 1.02150E+02 3.70100E+01 0.00000E+00
 -1      3145 1.05900E+02 3.83090E+01 0.00000E+00
 -1      3146 1.07400E+02 3.83090E+01 0.00000E+00
 -1      3147 1.05150E+02 3.70100E+01 0.00000E+00
 -1      3148 1.08900E+02 3.83090E+01 0.00000E+00
 -1      3149 1.10400E+02 3.83090E+01 0.00000E+00
 -1      3150 1.08150E+02 3.70100E+01 0.00000E+00
 -1      3151 1.11900E+02 3.83090E+01 0.00000E+00
 -1      3152 1.13400E+02 3.83090E+01 0.00000E+00
 -1      3153 1.11150E+02 3.70100E+01 0.00000E+00
 -1      3154 1.14900E+02 3.83090E+01 0.00000E+00
 -1      3155 1.16400E+02 3.83090E+01 0.00000E+00
 -1      3156 1.14150E+02 3.70100E+01 0.00000E+00
 -1      3157 1.17900E+02 3.83090E+01 0.00000E+00
 -1      3158 1.19400E+02 3.83090E+01 0.00000E+00
 -1      3159 1.17150E+02 3.70100E+01 0.00000E+00
 -1      3160 1.20900E+02 3.83090E+01 0.00000E+00
 -1      3161 1.22400E+02 3.83090E+01 0.00000E+00
 -1      3162 1.20150E+02 3.70100E+01 0.00000E+00
 -1      3163 1.23900E+02 3.83090E+01 0.00000E+00
 -1      3164 1.25400E+02 3.83090E+01 0.00000E+00
 -1      3165 1.23150E+02 3.70100E+01 0.00000E+00
 -1      3166 1.26900E+02 3.83090E+01 0.00000E+00
 -1      3167 1.28400E+02 3.83090E+01 0.00000E+00
 -1      3168 1.26150E+02 3.70100E+01 0.00000E+00
 -1      3169 1.29900E+02 3.83090E+01 0.00000E+00
 -1      3170 1.31400E+02 3.83090E+01 0.00000E+00
 -1      3171 1.29150E+02 3.70100E+01 0.00000E+00
 -1      3172 1.32900E+02 3.83090E+01 0.00000E+00
 -1      3173 1.34400E+02 3.83090E+01 0.00000E+00
 -1      3174 1.32150E+02 3.70100E+01 0.00000E+00
 -1      3175 1.35900E+02 3.83090E+01 0.00000E+00
 -1      3176 1.37400E+02 3.83090E+01 0.00000E+00
 -1      3177 1.35150E+02 3.70100E+01 0.00000E+00
 -1      3178 2.27850E+01 1.05013E+01 0.00000E+00
 -1      3179 2.12850E+01 1.05013E+01 0.00000E+00
 -1      3180 3.50831E+01 1.08164E+01 0.00000E+00
 -1      3181 3.35831E+01 1.08164E+01 0.00000E+00
 -1      3182 4.16119E+01 1.02958E+01 0.00000E+00
 -1      3183 4.01119E+01 1.02958E+01 0.00000E+00
 -1      3184 4.31119E+01 1.02958E+01 0.00000E+00
 -1      3185 4.67850E+01 1.03949E+01 0.00000E+00
 -1      3186 4.52850E+01 1.03949E+01 0.00000E+00
 -1      3187 5.27850E+01 1.05013E+01 0.00000E+00
 -1      3188 5.12850E+01 1.05013E+01 0.00000E+00
 -1      3189 5.57850E+01 1.05013E+01 0.00000E+00
 -1      3190 5.42850E+01 1.05013E+01 0.00000E+00
 -1      3191 5.35350E+01 1.18003E+01 0.00000E+00
 -1      3192 5.87850E+01 1.05013E+01 0.00000E+00
 -1      3193 5.72850E+01 1.05013E+01 0.00000E+00
 -1      3194 5.65350E+01 1.18003E+01 0.00000E+00
 -1      3195 6.17850E+01 1.05013E+01 0.00000E+00
 -1      3196 6.02850E+01 1.05013E+01 0.00000E+00
 -1      3197 5.95350E+01 1.18003E+01 0.00000E+00
 -1      3198 6.47850E+01 1.05013E+01 0.00000E+00
 -1      3199 6.32850E+01 1.05013E+01 0.00000E+00
 -1      3200 6.25350E+01 1.18003E+01 0.00000E+00
 -1      3201 6.77850E+01 1.05013E+01 0.00000E+00
 -1      3202 6.62850E+01 1.05013E+01 0.00000E+00
 -1      3203 6.55350E+01 1.18003E+01 0.00000E+00
 -1      3204 7.07850E+01 1.05013E+01 0.00000E+00
 -1      3205 6.92850E+01 1.05013E+01 0.00000E+00
 -1      3206 6.85350E+01 1.18003E+01 0.00000E+00
 -1      3207 7.37850E+01 1.05013E+01 0.00000E+00
 -1      3208 7.22850E+01 1.05013E+01 0.00000E+00
 -1      3209 7.15350E+01 1.18003E+01 0.00000E+00
 -1      3210 7.67850E+01 1.05013E+01 0.00000E+00
 -1      3211 7.52850E+01 1.05013E+01 0.00000E+00
 -1      3212 7.45350E+01 1.18003E+01 0.00000E+00
 -1      3213 7.97850E+01 1.05013E+01 0.00000E+00
 -1      3214 7.82850E+01 1.05013E+01 0.00000E+00
 -1      3215 7.75350E+01 1.18003E+01 0.00000E+00
 -1      3216 8.27850E+01 1.05013E+01 0.00000E+00
 -1      3217 8.12850E+01 1.05013E+01 0.00000E+00
 -1      3218 8.05350E+01 1.18003E+01 0.00000E+00
 -1      3219 8.57850E+01 1.05013E+01 0.00000E+00
 -1      3220 8.42850E+01 1.05013E+01 0.00000E+00
 -1      3221 8.35350E+01 1.18003E+01 0.00000E+00
 -1      3222 8.87850E+01 1.05013E+01 0.00000E+00
 -1      3223 8.72850E+01 1.05013E+01 0.00000E+00
 -1      3224 8.65350E+01 1.18003E+01 0.00000E+00
 -1      3225 9.17850E+01 1.05013E+01 0.00000E+00
 -1      3226 9.02850E+01 1.05013E+01 0.00000E+00
 -1      3227 8.95350E+01 1.18003E+01 0.00000E+00
 -1      3228 9.47850E+01 1.05013E+01 0.00000E+00
 -1      3229 9.32850E+01 1.05013E+01 0.00000E+00
 -1      3230 9.25350E+01 1.18003E+01 0.00000E+00
 -1      3231 9.77850E+01 1.05013E+01 0.00000E+00
 -1      3232 9.62850E+01 1.05013E+01 0.00000E+00
 -1      3233 9.55350E+01 1.18003E+01 0.00000E+00
 -1      3234 1.00785E+02 1.05013E+01 0.00000E+00
 -1      3235 9.92850E+01 1.05013E+01 0.00000E+00
 -1      3236 9.85350E+01 1.18003E+01 0.00000E+00
 -1      3237 1.03785E+02 1.05013E+01 0.00000E+00
 -1      3238 1.02285E+02 1.05013E+01 0.00000E+00
 -1      3239 1.01535E+02 1.18003E+01 0.00000E+00
 -1      3240 1.06785E+02 1.05013E+01 0.00000E+00
 -1      3241 1.05285E+02 1.05013E+01 0.00000E+00
 -1      3242 1.04535E+02 1.18003E+01 0.00000E+00
 -1      3243 1.09785E+02 1.05013E+01 0.00000E+00
 -1      3244 1.08285E+02 1.05013E+01 0.00000E+00
 -1      3245 1.07535E+02 1.18003E+01 0.00000E+00
 -1      3246 1.12785E+02 1.05013E+01 0.00000E+00
 -1      3247 1.11285E+02 1.05013E+01 0.00000E+00
 -1      3248 1.10535E+02 1.18003E+01 0.00000E+00
 -1      3249 1.15785E+02 1.05013E+01 0.00000E+00
 -1      3250 1.14285E+02 1.05013E+01 0.00000E+00
 -1      3251 1.13535E+02 1.18003E+01 0.00000E+00
 -1      3252 1.18785E+02 1.05013E+01 0.00000E+00
 -1      3253 1.17285E+02 1.05013E+01 0.00000E+00
 -1      3254 1.16535E+02 1.18003E+01 0.00000E+00
 -1      3255 1.21785E+02 1.05013E+01 0.00000E+00
 -1      3256 1.20285E+02 1.05013E+01 0.00000E+00
 -1      3257 1.19535E+02 1.18003E+01 0.00000E+00
 -1      3258 1.24785E+02 1.05013E+01 0.00000E+00
 -1      3259 1.23285E+02 1.05013E+01 0.00000E+00
 -1      3260 1.22535E+02 1.18003E+01 0.00000E+00
 -1      3261 1.27785E+02 1.05013E+01 0.00000E+00
 -1      3262 1.26285E+02 1.05013E+01 0.00000E+00
 -1      3263 1.25535E+02 1.18003E+01 0.00000E+00
 -1      3264 1.30785E+02 1.05013E+01 0.00000E+00
 -1      3265 1.29285E+02 1.05013E+01 0.00000E+00
 -1      3266 1.28535E+02 1.18003E+01 0.00000E+00
 -1      3267 1.33785E+02 1.05013E+01 0.00000E+00
 -1      3268 1.32285E+02 1.05013E+01 0.00000E+00
 -1      3269 1.31535E+02 1.18003E+01 0.00000E+00
 -1      3270 1.16910E+01 2.12875E+01 0.00000E+00
 -1      3271 1.16910E+01 2.27625E+01 0.00000E+00
 -1      3272 1.38309E+02 2.57625E+01 0.00000E+00
 -1      3273 1.38309E+02 2.42875E+01 0.00000E+00
 -1      3274 1.38309E+02 3.45625E+01 0.00000E+00
 -1      3275 1.38309E+02 3.30875E+01 0.00000E+00
 -1      3276 1.38309E+02 2.86625E+01 0.00000E+00
 -1      3277 1.38309E+02 2.72125E+01 0.00000E+00
 -1      3278 1.37010E+02 2.64750E+01 0.00000E+00
 -1      3279 5.36551E+01 1.73039E+01 0.00000E+00
 -1      3280 5.43903E+01 1.84932E+01 0.00000E+00
 -1      3281 1.97850E+01 1.05013E+01 0.00000E+00
 -1      3282 1.82850E+01 1.05013E+01 0.00000E+00
 -1      3283 2.05350E+01 1.18003E+01 0.00000E+00
 -1      3284 5.16490E+01 1.49259E+01 0.00000E+00
 -1      3285 5.26719E+01 1.59385E+01 0.00000E+00
 -1      3286 2.86908E+01 3.20515E+01 0.00000E+00
 -1      3287 2.82686E+01 3.08807E+01 0.00000E+00
 -1      3288 1.38309E+02 3.16125E+01 0.00000E+00
 -1      3289 1.38309E+02 3.01375E+01 0.00000E+00
 -1      3290 1.37010E+02 2.94000E+01 0.00000E+00
 -1      3291 1.37010E+02 3.23500E+01 0.00000E+00
 -1      3292 2.85727E+01 2.35284E+01 0.00000E+00
 -1      3293 2.87489E+01 2.22825E+01 0.00000E+00
 -1      3294 4.92339E+01 1.33857E+01 0.00000E+00
 -1      3295 5.03092E+01 1.39975E+01 0.00000E+00
 -1      3296 4.87525E+01 3.83424E+01 0.00000E+00
 -1      3297 5.02525E+01 3.83424E+01 0.00000E+00
 -1      3298 1.59000E+01 3.83090E+01 0.00000E+00
 -1      3299 1.74000E+01 3.83090E+01 0.00000E+00
 -1      3300 1.81500E+01 3.70100E+01 0.00000E+00
 -1      3301 2.99935E+01 1.82845E+01 0.00000E+00
 -1      3302 3.04670E+01 1.71164E+01 0.00000E+00
 -1      3303 3.75078E+01 1.24373E+01 0.00000E+00
 -1      3304 3.89224E+01 1.20113E+01 0.00000E+00
 -1      3305 5.56687E+01 2.66870E+01 0.00000E+00
 -1      3306 5.53270E+01 2.80027E+01 0.00000E+00
 -1      3307 2.89781E+01 2.07908E+01 0.00000E+00
 -1      3308 2.94858E+01 1.95377E+01 0.00000E+00
 -1      3309 2.86948E+01 1.85371E+01 0.00000E+00
 -1      3310 3.31684E+01 3.64946E+01 0.00000E+00
 -1      3311 3.23380E+01 3.56094E+01 0.00000E+00
 -1      3312 1.26488E+01 1.02017E+01 0.00000E+00
 -1      3313 1.20772E+01 1.14631E+01 0.00000E+00
 -1      3314 1.33763E+01 1.22006E+01 0.00000E+00
 -1      3315 1.41488E+01 1.02017E+01 0.00000E+00
 -1      3316 1.39407E+02 1.25250E+01 0.00000E+00
 -1      3317 5.38055E+01 3.21426E+01 0.00000E+00
 -1      3318 5.32648E+01 3.31280E+01 0.00000E+00
 -1      3319 5.49469E+01 2.94500E+01 0.00000E+00
 -1      3320 5.43762E+01 3.07963E+01 0.00000E+00
 -1      3321 5.50780E+01 3.18225E+01 0.00000E+00
 -1      3322 3.13100E+01 1.56364E+01 0.00000E+00
 -1      3323 3.22670E+01 1.43075E+01 0.00000E+00
 -1      3324 3.54016E+01 3.79356E+01 0.00000E+00
 -1      3325 3.41892E+01 3.72226E+01 0.00000E+00
 -1      3326 3.30875E+01 3.74240E+01 0.00000E+00
 -1      3327 3.51292E+01 3.88800E+01 0.00000E+00
 -1      3328 2.81903E+01 2.60378E+01 0.00000E+00
 -1      3329 2.83815E+01 2.47831E+01 0.00000E+00
 -1      3330 2.75375E+01 2.40283E+01 0.00000E+00
 -1      3331 5.56579E+01 2.33163E+01 0.00000E+00
 -1      3332 5.59518E+01 2.48140E+01 0.00000E+00
 -1      3333 1.12710E+01 3.74352E+01 0.00000E+00
 -1      3334 1.20855E+01 3.78721E+01 0.00000E+00
 -1      3335 1.12065E+01 3.56994E+01 0.00000E+00
 -1      3336 1.16910E+01 2.42375E+01 0.00000E+00
 -1      3337 1.16910E+01 2.57125E+01 0.00000E+00
 -1      3338 1.29900E+01 2.35000E+01 0.00000E+00
 -1      3339 1.29900E+01 1.46687E+01 0.00000E+00
 -1      3340 1.16910E+01 1.54063E+01 0.00000E+00
 -1      3341 1.16910E+01 1.68750E+01 0.00000E+00
 -1      3342 5.31391E+01 3.40425E+01 0.00000E+00
 -1      3343 5.30134E+01 3.49570E+01 0.00000E+00
 -1      3344 5.43816E+01 3.40833E+01 0.00000E+00
 -1      3345 1.38440E+02 1.44443E+01 0.00000E+00
 -1      3346 1.38239E+02 1.22443E+01 0.00000E+00
 -1      3347 1.37072E+02 1.19636E+01 0.00000E+00
 -1      3348 2.89207E+01 3.42408E+01 0.00000E+00
 -1      3349 2.88058E+01 3.31461E+01 0.00000E+00
 -1      3350 2.74727E+01 3.29654E+01 0.00000E+00
 -1      3351 1.12065E+01 3.27619E+01 0.00000E+00
 -1      3352 1.12065E+01 3.42306E+01 0.00000E+00
 -1      3353 1.20210E+01 3.46675E+01 0.00000E+00
 -1      3354 4.38522E+01 3.91544E+01 0.00000E+00
 -1      3355 3.03583E+01 3.68530E+01 0.00000E+00
 -1      3356 3.11083E+01 3.81520E+01 0.00000E+00
 -1      3357 5.10025E+01 3.70434E+01 0.00000E+00
 -1      3358 3.26083E+01 3.81520E+01 0.00000E+00
 -1      3359 3.36292E+01 3.88800E+01 0.00000E+00
 -1      3360 1.28355E+01 3.65731E+01 0.00000E+00
 -1      3361 2.75492E+01 3.03173E+01 0.00000E+00
 -1      3362 2.68967E+01 2.80092E+01 0.00000E+00
 -1      3363 2.75435E+01 2.70235E+01 0.00000E+00
 -1      3364 2.66996E+01 2.62687E+01 0.00000E+00
 -1      3365 5.39827E+01 1.59500E+01 0.00000E+00
 -1      3366 2.42850E+01 1.05013E+01 0.00000E+00
 -1      3367 2.35350E+01 1.18003E+01 0.00000E+00
 -1      3368 2.57850E+01 1.05013E+01 0.00000E+00
 -1      3369 4.30560E+01 1.19436E+01 0.00000E+00
 -1      3370 3.31107E+01 1.20886E+01 0.00000E+00
 -1      3371 3.20626E+01 1.04745E+01 0.00000E+00
 -1      3372 3.05626E+01 1.04745E+01 0.00000E+00
 -1      3373 3.26177E+01 1.30189E+01 0.00000E+00
 -1      3374 3.92181E+01 1.09509E+01 0.00000E+00
 -1      3375 5.11775E+01 1.22640E+01 0.00000E+00
 -1      3376 5.04275E+01 1.09650E+01 0.00000E+00
 -1      3377 4.89275E+01 1.09650E+01 0.00000E+00
 -1      3378 1.16910E+01 1.98188E+01 0.00000E+00
 -1      3379 1.29900E+01 2.05562E+01 0.00000E+00
 -1      3380 1.16910E+01 1.83500E+01 0.00000E+00
 -1      3381 1.35904E+02 1.16829E+01 0.00000E+00
 -1      3382 1.34736E+02 1.14023E+01 0.00000E+00
 -1      3383 1.36105E+02 1.38829E+01 0.00000E+00
 -1      3384 1.38309E+02 1.98625E+01 0.00000E+00
 -1      3385 1.38309E+02 1.83875E+01 0.00000E+00
 -1      3386 1.38879E+02 3.74540E+01 0.00000E+00
 -1      3387 2.79579E+01 2.12819E+01 0.00000E+00
 -1      3388 5.66921E+01 2.57084E+01 0.00000E+00
 -1      3389 5.74324E+01 2.66029E+01 0.00000E+00
 -1      3390 5.77155E+01 2.47299E+01 0.00000E+00
 -1      3391 1.37010E+02 2.35500E+01 0.00000E+00
 -1      3392 1.38309E+02 2.28125E+01 0.00000E+00
 -1      3393 1.38309E+02 2.13375E+01 0.00000E+00
 -1      3394 3.62874E+01 1.18767E+01 0.00000E+00
 -1      3395 1.51500E+01 3.70100E+01 0.00000E+00
 -1      3396 4.77492E+01 3.82413E+01 0.00000E+00
 -1      3397 5.52178E+01 1.90790E+01 0.00000E+00
 -1      3398 5.60453E+01 1.96648E+01 0.00000E+00
 -1      3399 5.57934E+01 1.79013E+01 0.00000E+00
 -1      3400 5.16597E+01 1.36562E+01 0.00000E+00
 -1      3401 3.00658E+01 1.19268E+01 0.00000E+00
 -1      3402 2.90383E+01 1.06546E+01 0.00000E+00
 -1      3403 1.38129E+02 3.61550E+01 0.00000E+00
 -1      3404 1.36830E+02 3.54175E+01 0.00000E+00
 -1      3405 5.62225E+01 2.23390E+01 0.00000E+00
 -1      3406 4.52820E+01 3.89009E+01 0.00000E+00
 -1      3407 4.52291E+01 1.20427E+01 0.00000E+00
 -1      3408 4.44791E+01 1.08500E+01 0.00000E+00
 -1      3409 5.11668E+01 3.60564E+01 0.00000E+00
 -1      3410 1.12065E+01 3.12931E+01 0.00000E+00
 -1      3411 1.20210E+01 3.17300E+01 0.00000E+00
 -1      3412 1.12065E+01 2.98244E+01 0.00000E+00
 -1      3413 3.12394E+01 1.30353E+01 0.00000E+00
 -1      3414 4.81775E+01 1.21577E+01 0.00000E+00
 -1      3415 3.82393E+01 1.02626E+01 0.00000E+00
 -1      3416 2.75383E+01 1.06546E+01 0.00000E+00
 -1      3417 3.67393E+01 1.02626E+01 0.00000E+00
 -1      3418 1.69669E+01 1.03515E+01 0.00000E+00
 -1      3419 1.54669E+01 1.03515E+01 0.00000E+00
 -1      3420 1.50806E+01 1.13509E+01 0.00000E+00
 -1      3421 1.77169E+01 1.16505E+01 0.00000E+00
 -1      3422 1.38375E+02 1.71472E+01 0.00000E+00
 -1      3423 1.38375E+02 1.56847E+01 0.00000E+00
 -1      3424 1.37207E+02 1.54040E+01 0.00000E+00
 -1      3425 1.37076E+02 1.78847E+01 0.00000E+00
 -1      3426 3.11602E+01 3.55588E+01 0.00000E+00
 -1      3427 4.67820E+01 3.89009E+01 0.00000E+00
 -1      3428 5.60288E+01 2.90288E+01 0.00000E+00
 -1      3429 3.00456E+01 1.58040E+01 0.00000E+00
 -1      3430 4.57555E+01 1.27886E+01 0.00000E+00
 -1      3431 2.64285E+01 2.45013E+01 0.00000E+00
 -1      3432 2.66197E+01 2.32465E+01 0.00000E+00
 -1      3433 2.94519E+01 3.57158E+01 0.00000E+00
 -1      3434 2.34000E+01 3.57110E+01 0.00000E+00
 -1      3435 2.49000E+01 3.57110E+01 0.00000E+00
 -1      3436 2.66188E+01 3.55350E+01 0.00000E+00
 -1      3437 2.81188E+01 3.55350E+01 0.00000E+00
 -1      3438 5.94000E+01 3.57110E+01 0.00000E+00
 -1      3439 6.09000E+01 3.57110E+01 0.00000E+00
 -1      3440 6.24000E+01 3.57110E+01 0.00000E+00
 -1      3441 6.39000E+01 3.57110E+01 0.00000E+00
 -1      3442 6.16500E+01 3.44120E+01 0.00000E+00
 -1      3443 6.54000E+01 3.57110E+01 0.00000E+00
 -1      3444 6.69000E+01 3.57110E+01 0.00000E+00
 -1      3445 6.46500E+01 3.44120E+01 0.00000E+00
 -1      3446 6.84000E+01 3.57110E+01 0.00000E+00
 -1      3447 6.99000E+01 3.57110E+01 0.00000E+00
 -1      3448 6.76500E+01 3.44120E+01 0.00000E+00
 -1      3449 7.14000E+01 3.57110E+01 0.00000E+00
 -1      3450 7.29000E+01 3.57110E+01 0.00000E+00
 -1      3451 7.06500E+01 3.44120E+01 0.00000E+00
 -1      3452 7.44000E+01 3.57110E+01 0.00000E+00
 -1      3453 7.59000E+01 3.57110E+01 0.00000E+00
 -1      3454 7.36500E+01 3.44120E+01 0.00000E+00
 -1      3455 7.74000E+01 3.57110E+01 0.00000E+00
 -1      3456 7.89000E+01 3.57110E+01 0.00000E+00
 -1      3457 7.66500E+01 3.44120E+01 0.00000E+00
 -1      3458 8.04000E+01 3.57110E+01 0.00000E+00
 -1      3459 8.19000E+01 3.57110E+01 0.00000E+00
 -1      3460 7.96500E+01 3.44120E+01 0.00000E+00
 -1      3461 8.34000E+01 3.57110E+01 0.00000E+00
 -1      3462 8.49000E+01 3.57110E+01 0.00000E+00
 -1      3463 8.26500E+01 3.44120E+01 0.00000E+00
 -1      3464 8.64000E+01 3.57110E+01 0.00000E+00
 -1      3465 8.79000E+01 3.57110E+01 0.00000E+00
 -1      3466 8.56500E+01 3.44120E+01 0.00000E+00
 -1      3467 8.94000E+01 3.57110E+01 0.00000E+00
 -1      3468 9.09000E+01 3.57110E+01 0.00000E+00
 -1      3469 8.86500E+01 3.44120E+01 0.00000E+00
 -1      3470 9.24000E+01 3.57110E+01 0.00000E+00
 -1      3471 9.39000E+01 3.57110E+01 0.00000E+00
 -1      3472 9.16500E+01 3.44120E+01 0.00000E+00
 -1      3473 9.54000E+01 3.57110E+01 0.00000E+00
 -1      3474 9.69000E+01 3.57110E+01 0.00000E+00
 -1      3475 9.46500E+01 3.44120E+01 0.00000E+00
 -1      3476 9.84000E+01 3.57110E+01 0.00000E+00
 -1      3477 9.99000E+01 3.57110E+01 0.00000E+00
 -1      3478 9.76500E+01 3.44120E+01 0.00000E+00
 -1      3479 1.01400E+02 3.57110E+01 0.00000E+00
 -1      3480 1.02900E+02 3.57110E+01 0.00000E+00
 -1      3481 1.00650E+02 3.44120E+01 0.00000E+00
 -1      3482 1.04400E+02 3.57110E+01 0.00000E+00
 -1      3483 1.05900E+02 3.57110E+01 0.00000E+00
 -1      3484 1.03650E+02 3.44120E+01 0.00000E+00
 -1      3485 1.07400E+02 3.57110E+01 0.00000E+00
 -1      3486 1.08900E+02 3.57110E+01 0.00000E+00
 -1      3487 1.06650E+02 3.44120E+01 0.00000E+00
 -1      3488 1.10400E+02 3.57110E+01 0.00000E+00
 -1      3489 1.11900E+02 3.57110E+01 0.00000E+00
 -1      3490 1.09650E+02 3.44120E+01 0.00000E+00
 -1      3491 1.13400E+02 3.57110E+01 0.00000E+00
 -1      3492 1.14900E+02 3.57110E+01 0.00000E+00
 -1      3493 1.12650E+02 3.44120E+01 0.00000E+00
 -1      3494 1.16400E+02 3.57110E+01 0.00000E+00
 -1      3495 1.17900E+02 3.57110E+01 0.00000E+00
 -1      3496 1.15650E+02 3.44120E+01 0.00000E+00
 -1      3497 1.19400E+02 3.57110E+01 0.00000E+00
 -1      3498 1.20900E+02 3.57110E+01 0.00000E+00
 -1      3499 1.18650E+02 3.44120E+01 0.00000E+00
 -1      3500 1.22400E+02 3.57110E+01 0.00000E+00
 -1      3501 1.23900E+02 3.57110E+01 0.00000E+00
 -1      3502 1.21650E+02 3.44120E+01 0.00000E+00
 -1      3503 1.25400E+02 3.57110E+01 0.00000E+00
 -1      3504 1.26900E+02 3.57110E+01 0.00000E+00
 -1      3505 1.24650E+02 3.44120E+01 0.00000E+00
 -1      3506 1.28400E+02 3.57110E+01 0.00000E+00
 -1      3507 1.29900E+02 3.57110E+01 0.00000E+00
 -1      3508 1.27650E+02 3.44120E+01 0.00000E+00
 -1      3509 1.31400E+02 3.57110E+01 0.00000E+00
 -1      3510 1.32900E+02 3.57110E+01 0.00000E+00
 -1      3511 1.30650E+02 3.44120E+01 0.00000E+00
 -1      3512 1.34115E+02 3.55643E+01 0.00000E+00
 -1      3513 1.35615E+02 3.55643E+01 0.00000E+00
 -1      3514 1.35795E+02 3.39717E+01 0.00000E+00
 -1      3515 1.33365E+02 3.42653E+01 0.00000E+00
 -1      3516 5.25173E+01 1.31924E+01 0.00000E+00
 -1      3517 5.40173E+01 1.31924E+01 0.00000E+00
 -1      3518 6.32850E+01 1.30992E+01 0.00000E+00
 -1      3519 6.17850E+01 1.30992E+01 0.00000E+00
 -1      3520 6.62850E+01 1.30992E+01 0.00000E+00
 -1      3521 6.47850E+01 1.30992E+01 0.00000E+00
 -1      3522 6.40350E+01 1.43982E+01 0.00000E+00
 -1      3523 6.92850E+01 1.30992E+01 0.00000E+00
 -1      3524 6.77850E+01 1.30992E+01 0.00000E+00
 -1      3525 6.70350E+01 1.43982E+01 0.00000E+00
 -1      3526 7.22850E+01 1.30992E+01 0.00000E+00
 -1      3527 7.07850E+01 1.30992E+01 0.00000E+00
 -1      3528 7.00350E+01 1.43982E+01 0.00000E+00
 -1      3529 7.52850E+01 1.30992E+01 0.00000E+00
 -1      3530 7.37850E+01 1.30992E+01 0.00000E+00
 -1      3531 7.30350E+01 1.43982E+01 0.00000E+00
 -1      3532 7.82850E+01 1.30992E+01 0.00000E+00
 -1      3533 7.67850E+01 1.30992E+01 0.00000E+00
 -1      3534 7.60350E+01 1.43982E+01 0.00000E+00
 -1      3535 8.12850E+01 1.30992E+01 0.00000E+00
 -1      3536 7.97850E+01 1.30992E+01 0.00000E+00
 -1      3537 7.90350E+01 1.43982E+01 0.00000E+00
 -1      3538 8.42850E+01 1.30992E+01 0.00000E+00
 -1      3539 8.27850E+01 1.30992E+01 0.00000E+00
 -1      3540 8.20350E+01 1.43982E+01 0.00000E+00
 -1      3541 8.72850E+01 1.30992E+01 0.00000E+00
 -1      3542 8.57850E+01 1.30992E+01 0.00000E+00
 -1      3543 8.50350E+01 1.43982E+01 0.00000E+00
 -1      3544 9.02850E+01 1.30992E+01 0.00000E+00
 -1      3545 8.87850E+01 1.30992E+01 0.00000E+00
 -1      3546 8.80350E+01 1.43982E+01 0.00000E+00
 -1      3547 9.32850E+01 1.30992E+01 0.00000E+00
 -1      3548 9.17850E+01 1.30992E+01 0.00000E+00
 -1      3549 9.10350E+01 1.43982E+01 0.00000E+00
 -1      3550 9.62850E+01 1.30992E+01 0.00000E+00
 -1      3551 9.47850E+01 1.30992E+01 0.00000E+00
 -1      3552 9.40350E+01 1.43982E+01 0.00000E+00
 -1      3553 9.92850E+01 1.30992E+01 0.00000E+00
 -1      3554 9.77850E+01 1.30992E+01 0.00000E+00
 -1      3555 9.70350E+01 1.43982E+01 0.00000E+00
 -1      3556 1.02285E+02 1.30992E+01 0.00000E+00
 -1      3557 1.00785E+02 1.30992E+01 0.00000E+00
 -1      3558 1.00035E+02 1.43982E+01 0.00000E+00
 -1      3559 1.05285E+02 1.30992E+01 0.00000E+00
 -1      3560 1.03785E+02 1.30992E+01 0.00000E+00
 -1      3561 1.03035E+02 1.43982E+01 0.00000E+00
 -1      3562 1.08285E+02 1.30992E+01 0.00000E+00
 -1      3563 1.06785E+02 1.30992E+01 0.00000E+00
 -1      3564 1.06035E+02 1.43982E+01 0.00000E+00
 -1      3565 1.11285E+02 1.30992E+01 0.00000E+00
 -1      3566 1.09785E+02 1.30992E+01 0.00000E+00
 -1      3567 1.09035E+02 1.43982E+01 0.00000E+00
 -1      3568 1.14285E+02 1.30992E+01 0.00000E+00
 -1      3569 1.12785E+02 1.30992E+01 0.00000E+00
 -1      3570 1.12035E+02 1.43982E+01 0.00000E+00
 -1      3571 1.17285E+02 1.30992E+01 0.00000E+00
 -1      3572 1.15785E+02 1.30992E+01 0.00000E+00
 -1      3573 1.15035E+02 1.43982E+01 0.00000E+00
 -1      3574 1.20285E+02 1.30992E+01 0.00000E+00
 -1      3575 1.18785E+02 1.30992E+01 0.00000E+00
 -1      3576 1.18035E+02 1.43982E+01 0.00000E+00
 -1      3577 1.23285E+02 1.30992E+01 0.00000E+00
 -1      3578 1.21785E+02 1.30992E+01 0.00000E+00
 -1      3579 1.21035E+02 1.43982E+01 0.00000E+00
 -1      3580 1.26285E+02 1.30992E+01 0.00000E+00
 -1      3581 1.24785E+02 1.30992E+01 0.00000E+00
 -1      3582 1.24035E+02 1.43982E+01 0.00000E+00
 -1      3583 1.29285E+02 1.30992E+01 0.00000E+00
 -1      3584 1.27785E+02 1.30992E+01 0.00000E+00
 -1      3585 1.27035E+02 1.43982E+01 0.00000E+00
 -1      3586 1.32285E+02 1.30992E+01 0.00000E+00
 -1      3587 1.30785E+02 1.30992E+01 0.00000E+00
 -1      3588 1.30035E+02 1.43982E+01 0.00000E+00
 -1      3589 1.33986E+02 1.27013E+01 0.00000E+00
 -1      3590 1.37010E+02 2.06000E+01 0.00000E+00
 -1      3591 1.35711E+02 2.72000E+01 0.00000E+00
 -1      3592 1.35711E+02 2.57500E+01 0.00000E+00
 -1      3593 2.68489E+01 2.17548E+01 0.00000E+00
 -1      3594 2.70781E+01 2.02631E+01 0.00000E+00
 -1      3595 2.57399E+01 2.22278E+01 0.00000E+00
 -1      3596 1.28355E+01 3.36356E+01 0.00000E+00
 -1      3597 1.28355E+01 3.51044E+01 0.00000E+00
 -1      3598 1.36500E+01 3.55412E+01 0.00000E+00
 -1      3599 2.12850E+01 1.30992E+01 0.00000E+00
 -1      3600 1.97850E+01 1.30992E+01 0.00000E+00
 -1      3601 2.97151E+01 1.32154E+01 0.00000E+00
 -1      3602 5.69116E+01 2.10548E+01 0.00000E+00
 -1      3603 5.76643E+01 2.25513E+01 0.00000E+00
 -1      3604 5.57677E+01 1.31791E+01 0.00000E+00
 -1      3605 5.47500E+01 1.45712E+01 0.00000E+00
 -1      3606 5.57332E+01 1.59367E+01 0.00000E+00
 -1      3607 5.72677E+01 1.31791E+01 0.00000E+00
 -1      3608 6.02764E+01 1.31392E+01 0.00000E+00
 -1      3609 5.87764E+01 1.31392E+01 0.00000E+00
 -1      3610 5.80091E+01 1.45180E+01 0.00000E+00
 -1      3611 6.10264E+01 1.44382E+01 0.00000E+00
 -1      3612 5.22105E+01 3.59631E+01 0.00000E+00
 -1      3613 4.87176E+01 1.27308E+01 0.00000E+00
 -1      3614 1.74000E+01 3.57110E+01 0.00000E+00
 -1      3615 1.89000E+01 3.57110E+01 0.00000E+00
 -1      3616 1.14487E+01 2.70341E+01 0.00000E+00
 -1      3617 1.14487E+01 2.85028E+01 0.00000E+00
 -1      3618 1.22633E+01 2.89397E+01 0.00000E+00
 -1      3619 1.27478E+01 2.62966E+01 0.00000E+00
 -1      3620 5.34530E+01 3.60039E+01 0.00000E+00
 -1      3621 5.49530E+01 3.60039E+01 0.00000E+00
 -1      3622 2.04000E+01 3.57110E+01 0.00000E+00
 -1      3623 2.19000E+01 3.57110E+01 0.00000E+00
 -1      3624 2.26500E+01 3.44120E+01 0.00000E+00
 -1      3625 2.67883E+01 1.19536E+01 0.00000E+00
 -1      3626 2.74909E+01 1.87787E+01 0.00000E+00
 -1      3627 2.79986E+01 1.75256E+01 0.00000E+00
 -1      3628 2.84353E+01 1.61105E+01 0.00000E+00
 -1      3629 2.92783E+01 1.46305E+01 0.00000E+00
 -1      3630 2.81048E+01 1.35220E+01 0.00000E+00
 -1      3631 2.72313E+01 1.63521E+01 0.00000E+00
 -1      3632 5.63843E+01 3.15821E+01 0.00000E+00
 -1      3633 5.58136E+01 3.29284E+01 0.00000E+00
 -1      3634 5.71446E+01 2.86873E+01 0.00000E+00
 -1      3635 5.67644E+01 3.01347E+01 0.00000E+00
 -1      3636 5.75001E+01 3.12406E+01 0.00000E+00
 -1      3637 2.62697E+01 3.09481E+01 0.00000E+00
 -1      3638 2.64612E+01 2.93948E+01 0.00000E+00
 -1      3639 1.47750E+01 3.56261E+01 0.00000E+00
 -1      3640 1.62750E+01 3.56261E+01 0.00000E+00
 -1      3641 1.70250E+01 3.43271E+01 0.00000E+00
 -1      3642 1.47750E+01 3.41574E+01 0.00000E+00
 -1      3643 1.33236E+02 1.40002E+01 0.00000E+00
 -1      3644 1.42890E+01 1.39344E+01 0.00000E+00
 -1      3645 1.42890E+01 1.54031E+01 0.00000E+00
 -1      3646 5.54461E+01 3.40089E+01 0.00000E+00
 -1      3647 5.53204E+01 3.49234E+01 0.00000E+00
 -1      3648 5.60175E+01 3.59295E+01 0.00000E+00
 -1      3649 5.67525E+01 3.37685E+01 0.00000E+00
 -1      3650 2.63515E+01 1.33686E+01 0.00000E+00
 -1      3651 1.34382E+02 1.50661E+01 0.00000E+00
 -1      3652 1.32681E+02 1.54641E+01 0.00000E+00
 -1      3653 5.75175E+01 3.59295E+01 0.00000E+00
 -1      3654 1.34580E+02 3.26435E+01 0.00000E+00
 -1      3655 1.35795E+02 3.24967E+01 0.00000E+00
 -1      3656 1.35795E+02 3.10217E+01 0.00000E+00
 -1      3657 1.35419E+02 1.78275E+01 0.00000E+00
 -1      3658 1.35485E+02 1.65871E+01 0.00000E+00
 -1      3659 4.65751E+01 1.21607E+01 0.00000E+00
 -1      3660 1.29900E+01 1.76125E+01 0.00000E+00
 -1      3661 1.35550E+02 1.53468E+01 0.00000E+00
 -1      3662 2.64273E+01 3.36285E+01 0.00000E+00
 -1      3663 2.63124E+01 3.25338E+01 0.00000E+00
 -1      3664 5.84046E+01 2.34457E+01 0.00000E+00
 -1      3665 5.91449E+01 2.43402E+01 0.00000E+00
 -1      3666 5.90937E+01 2.21615E+01 0.00000E+00
 -1      3667 1.35711E+02 2.42750E+01 0.00000E+00
 -1      3668 1.35711E+02 2.28000E+01 0.00000E+00
 -1      3669 1.34412E+02 2.50000E+01 0.00000E+00
 -1      3670 5.91914E+01 2.67303E+01 0.00000E+00
 -1      3671 5.81680E+01 2.77088E+01 0.00000E+00
 -1      3672 5.89036E+01 2.88147E+01 0.00000E+00
 -1      3673 1.84669E+01 1.29495E+01 0.00000E+00
 -1      3674 1.71488E+01 1.27997E+01 0.00000E+00
 -1      3675 1.92169E+01 1.42485E+01 0.00000E+00
 -1      3676 2.63819E+01 1.92516E+01 0.00000E+00
 -1      3677 2.42850E+01 1.30992E+01 0.00000E+00
 -1      3678 2.27850E+01 1.30992E+01 0.00000E+00
 -1      3679 2.20350E+01 1.43982E+01 0.00000E+00
 -1      3680 1.28355E+01 3.06981E+01 0.00000E+00
 -1      3681 1.28355E+01 3.21669E+01 0.00000E+00
 -1      3682 1.36500E+01 3.26037E+01 0.00000E+00
 -1      3683 2.56172E+01 2.86400E+01 0.00000E+00
 -1      3684 5.74872E+01 1.98771E+01 0.00000E+00
 -1      3685 5.72849E+01 1.55202E+01 0.00000E+00
 -1      3686 5.65176E+01 1.68990E+01 0.00000E+00
 -1      3687 5.73451E+01 1.74848E+01 0.00000E+00
 -1      3688 5.87935E+01 1.54803E+01 0.00000E+00
 -1      3689 1.35753E+02 2.98484E+01 0.00000E+00
 -1      3690 1.35753E+02 2.83734E+01 0.00000E+00
 -1      3691 1.34454E+02 2.76484E+01 0.00000E+00
 -1      3692 1.34538E+02 2.99951E+01 0.00000E+00
 -1      3693 1.96500E+01 3.44120E+01 0.00000E+00
 -1      3694 1.35711E+02 2.13250E+01 0.00000E+00
 -1      3695 1.35711E+02 1.98500E+01 0.00000E+00
 -1      3696 1.34412E+02 2.20500E+01 0.00000E+00
 -1      3697 1.42890E+01 1.98219E+01 0.00000E+00
 -1      3698 1.42890E+01 2.12906E+01 0.00000E+00
 -1      3699 2.51349E+01 2.64726E+01 0.00000E+00
 -1      3700 2.57817E+01 2.54869E+01 0.00000E+00
 -1      3701 2.48639E+01 2.47051E+01 0.00000E+00
 -1      3702 5.82675E+01 3.46305E+01 0.00000E+00
 -1      3703 2.52244E+01 3.16113E+01 0.00000E+00
 -1      3704 1.42890E+01 2.27656E+01 0.00000E+00
 -1      3705 1.42890E+01 2.42406E+01 0.00000E+00
 -1      3706 1.55880E+01 2.20313E+01 0.00000E+00
 -1      3707 1.34120E+02 1.85525E+01 0.00000E+00
 -1      3708 1.89000E+01 3.31130E+01 0.00000E+00
 -1      3709 2.04000E+01 3.31130E+01 0.00000E+00
 -1      3710 2.56015E+01 1.46676E+01 0.00000E+00
 -1      3711 6.39000E+01 3.31130E+01 0.00000E+00
 -1      3712 6.54000E+01 3.31130E+01 0.00000E+00
 -1      3713 6.69000E+01 3.31130E+01 0.00000E+00
 -1      3714 6.84000E+01 3.31130E+01 0.00000E+00
 -1      3715 6.61500E+01 3.18140E+01 0.00000E+00
 -1      3716 6.99000E+01 3.31130E+01 0.00000E+00
 -1      3717 7.14000E+01 3.31130E+01 0.00000E+00
 -1      3718 6.91500E+01 3.18140E+01 0.00000E+00
 -1      3719 7.29000E+01 3.31130E+01 0.00000E+00
 -1      3720 7.44000E+01 3.31130E+01 0.00000E+00
 -1      3721 7.21500E+01 3.18140E+01 0.00000E+00
 -1      3722 7.59000E+01 3.31130E+01 0.00000E+00
 -1      3723 7.74000E+01 3.31130E+01 0.00000E+00
 -1      3724 7.51500E+01 3.18140E+01 0.00000E+00
 -1      3725 7.89000E+01 3.31130E+01 0.00000E+00
 -1      3726 8.04000E+01 3.31130E+01 0.00000E+00
 -1      3727 7.81500E+01 3.18140E+01 0.00000E+00
 -1      3728 8.19000E+01 3.31130E+01 0.00000E+00
 -1      3729 8.34000E+01 3.31130E+01 0.00000E+00
 -1      3730 8.11500E+01 3.18140E+01 0.00000E+00
 -1      3731 8.49000E+01 3.31130E+01 0.00000E+00
 -1      3732 8.64000E+01 3.31130E+01 0.00000E+00
 -1      3733 8.41500E+01 3.18140E+01 0.00000E+00
 -1      3734 8.79000E+01 3.31130E+01 0.00000E+00
 -1      3735 8.94000E+01 3.31130E+01 0.00000E+00
 -1      3736 8.71500E+01 3.18140E+01 0.00000E+00
 -1      3737 9.09000E+01 3.31130E+01 0.00000E+00
 -1      3738 9.24000E+01 3.31130E+01 0.00000E+00
 -1      3739 9.01500E+01 3.18140E+01 0.00000E+00
 -1      3740 9.39000E+01 3.31130E+01 0.00000E+00
 -1      3741 9.54000E+01 3.31130E+01 0.00000E+00
 -1      3742 9.31500E+01 3.18140E+01 0.00000E+00
 -1      3743 9.69000E+01 3.31130E+01 0.00000E+00
 -1      3744 9.84000E+01 3.31130E+01 0.00000E+00
 -1      3745 9.61500E+01 3.18140E+01 0.00000E+00
 -1      3746 9.99000E+01 3.31130E+01 0.00000E+00
 -1      3747 1.01400E+02 3.31130E+01 0.00000E+00
 -1      3748 9.91500E+01 3.18140E+01 0.00000E+00
 -1      3749 1.02900E+02 3.31130E+01 0.00000E+00
 -1      3750 1.04400E+02 3.31130E+01 0.00000E+00
 -1      3751 1.02150E+02 3.18140E+01 0.00000E+00
 -1      3752 1.05900E+02 3.31130E+01 0.00000E+00
 -1      3753 1.07400E+02 3.31130E+01 0.00000E+00
 -1      3754 1.05150E+02 3.18140E+01 0.00000E+00
 -1      3755 1.08900E+02 3.31130E+01 0.00000E+00
 -1      3756 1.10400E+02 3.31130E+01 0.00000E+00
 -1      3757 1.08150E+02 3.18140E+01 0.00000E+00
 -1      3758 1.11900E+02 3.31130E+01 0.00000E+00
 -1      3759 1.13400E+02 3.31130E+01 0.00000E+00
 -1      3760 1.11150E+02 3.18140E+01 0.00000E+00
 -1      3761 1.14900E+02 3.31130E+01 0.00000E+00
 -1      3762 1.16400E+02 3.31130E+01 0.00000E+00
 -1      3763 1.14150E+02 3.18140E+01 0.00000E+00
 -1      3764 1.17900E+02 3.31130E+01 0.00000E+00
 -1      3765 1.19400E+02 3.31130E+01 0.00000E+00
 -1      3766 1.17150E+02 3.18140E+01 0.00000E+00
 -1      3767 1.20900E+02 3.31130E+01 0.00000E+00
 -1      3768 1.22400E+02 3.31130E+01 0.00000E+00
 -1      3769 1.20150E+02 3.18140E+01 0.00000E+00
 -1      3770 1.23900E+02 3.31130E+01 0.00000E+00
 -1      3771 1.25400E+02 3.31130E+01 0.00000E+00
 -1      3772 1.23150E+02 3.18140E+01 0.00000E+00
 -1      3773 1.26900E+02 3.31130E+01 0.00000E+00
 -1      3774 1.28400E+02 3.31130E+01 0.00000E+00
 -1      3775 1.26150E+02 3.18140E+01 0.00000E+00
 -1      3776 1.29900E+02 3.31130E+01 0.00000E+00
 -1      3777 1.31400E+02 3.31130E+01 0.00000E+00
 -1      3778 1.29150E+02 3.18140E+01 0.00000E+00
 -1      3779 1.32383E+02 3.29516E+01 0.00000E+00
 -1      3780 1.33598E+02 3.28049E+01 0.00000E+00
 -1      3781 1.33598E+02 3.13299E+01 0.00000E+00
 -1      3782 1.31633E+02 3.16526E+01 0.00000E+00
 -1      3783 7.07850E+01 1.56973E+01 0.00000E+00
 -1      3784 6.92850E+01 1.56973E+01 0.00000E+00
 -1      3785 6.77850E+01 1.56973E+01 0.00000E+00
 -1      3786 6.62850E+01 1.56973E+01 0.00000E+00
 -1      3787 6.85350E+01 1.69963E+01 0.00000E+00
 -1      3788 6.47850E+01 1.56973E+01 0.00000E+00
 -1      3789 6.32850E+01 1.56973E+01 0.00000E+00
 -1      3790 6.55350E+01 1.69963E+01 0.00000E+00
 -1      3791 7.37850E+01 1.56973E+01 0.00000E+00
 -1      3792 7.22850E+01 1.56973E+01 0.00000E+00
 -1      3793 7.15350E+01 1.69963E+01 0.00000E+00
 -1      3794 7.67850E+01 1.56973E+01 0.00000E+00
 -1      3795 7.52850E+01 1.56973E+01 0.00000E+00
 -1      3796 7.45350E+01 1.69963E+01 0.00000E+00
 -1      3797 7.97850E+01 1.56973E+01 0.00000E+00
 -1      3798 7.82850E+01 1.56973E+01 0.00000E+00
 -1      3799 7.75350E+01 1.69963E+01 0.00000E+00
 -1      3800 8.27850E+01 1.56973E+01 0.00000E+00
 -1      3801 8.12850E+01 1.56973E+01 0.00000E+00
 -1      3802 8.05350E+01 1.69963E+01 0.00000E+00
 -1      3803 8.57850E+01 1.56973E+01 0.00000E+00
 -1      3804 8.42850E+01 1.56973E+01 0.00000E+00
 -1      3805 8.35350E+01 1.69963E+01 0.00000E+00
 -1      3806 8.87850E+01 1.56973E+01 0.00000E+00
 -1      3807 8.72850E+01 1.56973E+01 0.00000E+00
 -1      3808 8.65350E+01 1.69963E+01 0.00000E+00
 -1      3809 9.17850E+01 1.56973E+01 0.00000E+00
 -1      3810 9.02850E+01 1.56973E+01 0.00000E+00
 -1      3811 8.95350E+01 1.69963E+01 0.00000E+00
 -1      3812 9.47850E+01 1.56973E+01 0.00000E+00
 -1      3813 9.32850E+01 1.56973E+01 0.00000E+00
 -1      3814 9.25350E+01 1.69963E+01 0.00000E+00
 -1      3815 9.77850E+01 1.56973E+01 0.00000E+00
 -1      3816 9.62850E+01 1.56973E+01 0.00000E+00
 -1      3817 9.55350E+01 1.69963E+01 0.00000E+00
 -1      3818 1.00785E+02 1.56973E+01 0.00000E+00
 -1      3819 9.92850E+01 1.56973E+01 0.00000E+00
 -1      3820 9.85350E+01 1.69963E+01 0.00000E+00
 -1      3821 1.03785E+02 1.56973E+01 0.00000E+00
 -1      3822 1.02285E+02 1.56973E+01 0.00000E+00
 -1      3823 1.01535E+02 1.69963E+01 0.00000E+00
 -1      3824 1.06785E+02 1.56973E+01 0.00000E+00
 -1      3825 1.05285E+02 1.56973E+01 0.00000E+00
 -1      3826 1.04535E+02 1.69963E+01 0.00000E+00
 -1      3827 1.09785E+02 1.56973E+01 0.00000E+00
 -1      3828 1.08285E+02 1.56973E+01 0.00000E+00
 -1      3829 1.07535E+02 1.69963E+01 0.00000E+00
 -1      3830 1.12785E+02 1.56973E+01 0.00000E+00
 -1      3831 1.11285E+02 1.56973E+01 0.00000E+00
 -1      3832 1.10535E+02 1.69963E+01 0.00000E+00
 -1      3833 1.15785E+02 1.56973E+01 0.00000E+00
 -1      3834 1.14285E+02 1.56973E+01 0.00000E+00
 -1      3835 1.13535E+02 1.69963E+01 0.00000E+00
 -1      3836 1.18785E+02 1.56973E+01 0.00000E+00
 -1      3837 1.17285E+02 1.56973E+01 0.00000E+00
 -1      3838 1.16535E+02 1.69963E+01 0.00000E+00
 -1      3839 1.21785E+02 1.56973E+01 0.00000E+00
 -1      3840 1.20285E+02 1.56973E+01 0.00000E+00
 -1      3841 1.19535E+02 1.69963E+01 0.00000E+00
 -1      3842 1.24785E+02 1.56973E+01 0.00000E+00
 -1      3843 1.23285E+02 1.56973E+01 0.00000E+00
 -1      3844 1.22535E+02 1.69963E+01 0.00000E+00
 -1      3845 1.27785E+02 1.56973E+01 0.00000E+00
 -1      3846 1.26285E+02 1.56973E+01 0.00000E+00
 -1      3847 1.25535E+02 1.69963E+01 0.00000E+00
 -1      3848 1.30785E+02 1.56973E+01 0.00000E+00
 -1      3849 1.29285E+02 1.56973E+01 0.00000E+00
 -1      3850 1.28535E+02 1.69963E+01 0.00000E+00
 -1      3851 1.46944E+01 1.23503E+01 0.00000E+00
 -1      3852 1.59934E+01 1.30847E+01 0.00000E+00
 -1      3853 2.44464E+01 2.27925E+01 0.00000E+00
 -1      3854 2.46756E+01 2.13008E+01 0.00000E+00
 -1      3855 2.42639E+01 2.92438E+01 0.00000E+00
 -1      3856 2.46994E+01 2.78582E+01 0.00000E+00
 -1      3857 2.37816E+01 2.70764E+01 0.00000E+00
 -1      3858 2.58688E+01 3.42360E+01 0.00000E+00
 -1      3859 5.82114E+01 1.88748E+01 0.00000E+00
 -1      3860 5.90776E+01 2.02649E+01 0.00000E+00
 -1      3861 5.89356E+01 1.78726E+01 0.00000E+00
 -1      3862 5.86350E+01 3.35500E+01 0.00000E+00
 -1      3863 1.32980E+02 1.97494E+01 0.00000E+00
 -1      3864 1.32688E+02 1.77268E+01 0.00000E+00
 -1      3865 2.51648E+01 1.60827E+01 0.00000E+00
 -1      3866 1.31931E+02 1.67631E+01 0.00000E+00
 -1      3867 6.09000E+01 3.31130E+01 0.00000E+00
 -1      3868 6.24000E+01 3.31130E+01 0.00000E+00
 -1      3869 6.31500E+01 3.18140E+01 0.00000E+00
 -1      3870 2.51071E+01 1.96968E+01 0.00000E+00
 -1      3871 2.55199E+01 1.82123E+01 0.00000E+00
 -1      3872 5.97651E+01 3.08036E+01 0.00000E+00
 -1      3873 5.93850E+01 3.22510E+01 0.00000E+00
 -1      3874 1.42890E+01 1.68750E+01 0.00000E+00
 -1      3875 1.42890E+01 1.83500E+01 0.00000E+00
 -1      3876 1.55880E+01 1.90844E+01 0.00000E+00
 -1      3877 1.55880E+01 1.61406E+01 0.00000E+00
 -1      3878 1.67434E+01 1.43837E+01 0.00000E+00
 -1      3879 1.30792E+02 1.79600E+01 0.00000E+00
 -1      3880 1.55778E+01 2.50042E+01 0.00000E+00
 -1      3881 1.42788E+01 2.57386E+01 0.00000E+00
 -1      3882 2.39471E+01 3.24390E+01 0.00000E+00
 -1      3883 2.39045E+01 3.08533E+01 0.00000E+00
 -1      3884 2.38901E+01 1.65279E+01 0.00000E+00
 -1      3885 2.11386E+01 3.17475E+01 0.00000E+00
 -1      3886 2.18886E+01 3.30465E+01 0.00000E+00
 -1      3887 5.98179E+01 2.11593E+01 0.00000E+00
 -1      3888 6.05582E+01 2.20537E+01 0.00000E+00
 -1      3889 6.05421E+01 2.01571E+01 0.00000E+00
 -1      3890 1.67434E+01 1.58556E+01 0.00000E+00
 -1      3891 1.67434E+01 1.73275E+01 0.00000E+00
 -1      3892 1.78988E+01 1.55706E+01 0.00000E+00
 -1      3893 1.47750E+01 3.26886E+01 0.00000E+00
 -1      3894 1.59000E+01 3.27735E+01 0.00000E+00
 -1      3895 1.47750E+01 3.12199E+01 0.00000E+00
 -1      3896 2.29867E+01 3.00715E+01 0.00000E+00
 -1      3897 6.05697E+01 2.41619E+01 0.00000E+00
 -1      3898 5.98805E+01 2.54461E+01 0.00000E+00
 -1      3899 6.06162E+01 2.65520E+01 0.00000E+00
 -1      3900 1.33113E+02 2.57375E+01 0.00000E+00
 -1      3901 1.33113E+02 2.42625E+01 0.00000E+00
 -1      3902 1.92169E+01 1.57203E+01 0.00000E+00
 -1      3903 1.31119E+01 2.98613E+01 0.00000E+00
 -1      3904 1.39264E+01 3.02982E+01 0.00000E+00
 -1      3905 1.50514E+01 3.03831E+01 0.00000E+00
 -1      3906 1.33541E+01 2.85398E+01 0.00000E+00
 -1      3907 2.38136E+01 2.02615E+01 0.00000E+00
 -1      3908 2.37996E+01 2.37782E+01 0.00000E+00
 -1      3909 2.27354E+01 2.28512E+01 0.00000E+00
 -1      3910 2.31528E+01 2.47638E+01 0.00000E+00
 -1      3911 6.07885E+01 2.98251E+01 0.00000E+00
 -1      3912 1.33197E+02 2.80842E+01 0.00000E+00
 -1      3913 1.33155E+02 2.69109E+01 0.00000E+00
 -1      3914 1.31856E+02 2.61734E+01 0.00000E+00
 -1      3915 1.40365E+01 2.70602E+01 0.00000E+00
 -1      3916 1.33113E+02 2.27875E+01 0.00000E+00
 -1      3917 1.33113E+02 2.13125E+01 0.00000E+00
 -1      3918 1.31814E+02 2.35250E+01 0.00000E+00
 -1      3919 1.31681E+02 2.04869E+01 0.00000E+00
 -1      3920 2.33886E+01 3.30465E+01 0.00000E+00
 -1      3921 2.22169E+01 1.57203E+01 0.00000E+00
 -1      3922 2.07169E+01 1.57203E+01 0.00000E+00
 -1      3923 1.93988E+01 1.70424E+01 0.00000E+00
 -1      3924 6.17936E+01 1.55688E+01 0.00000E+00
 -1      3925 6.02849E+01 1.56087E+01 0.00000E+00
 -1      3926 5.95607E+01 1.66110E+01 0.00000E+00
 -1      3927 6.25436E+01 1.68678E+01 0.00000E+00
 -1      3928 1.67434E+01 1.87993E+01 0.00000E+00
 -1      3929 1.67434E+01 2.02712E+01 0.00000E+00
 -1      3930 1.78988E+01 1.85143E+01 0.00000E+00
 -1      3931 1.67434E+01 2.17462E+01 0.00000E+00
 -1      3932 1.67434E+01 2.32212E+01 0.00000E+00
 -1      3933 1.78988E+01 2.14612E+01 0.00000E+00
 -1      3934 1.68375E+01 3.29008E+01 0.00000E+00
 -1      3935 1.79625E+01 3.29857E+01 0.00000E+00
 -1      3936 1.87125E+01 3.16867E+01 0.00000E+00
 -1      3937 1.68375E+01 3.14321E+01 0.00000E+00
 -1      3938 1.67332E+01 2.47192E+01 0.00000E+00
 -1      3939 1.67229E+01 2.62172E+01 0.00000E+00
 -1      3940 1.78885E+01 2.44342E+01 0.00000E+00
 -1      3941 2.25719E+01 1.78500E+01 0.00000E+00
 -1      3942 2.00094E+01 3.02045E+01 0.00000E+00
 -1      3943 2.14980E+01 3.01380E+01 0.00000E+00
 -1      3944 2.18574E+01 2.85284E+01 0.00000E+00
 -1      3945 7.52850E+01 1.82952E+01 0.00000E+00
 -1      3946 7.37850E+01 1.82952E+01 0.00000E+00
 -1      3947 6.84000E+01 3.05150E+01 0.00000E+00
 -1      3948 6.99000E+01 3.05150E+01 0.00000E+00
 -1      3949 7.14000E+01 3.05150E+01 0.00000E+00
 -1      3950 7.29000E+01 3.05150E+01 0.00000E+00
 -1      3951 7.06500E+01 2.92160E+01 0.00000E+00
 -1      3952 7.44000E+01 3.05150E+01 0.00000E+00
 -1      3953 7.59000E+01 3.05150E+01 0.00000E+00
 -1      3954 7.36500E+01 2.92160E+01 0.00000E+00
 -1      3955 7.74000E+01 3.05150E+01 0.00000E+00
 -1      3956 7.89000E+01 3.05150E+01 0.00000E+00
 -1      3957 7.66500E+01 2.92160E+01 0.00000E+00
 -1      3958 8.04000E+01 3.05150E+01 0.00000E+00
 -1      3959 8.19000E+01 3.05150E+01 0.00000E+00
 -1      3960 7.96500E+01 2.92160E+01 0.00000E+00
 -1      3961 8.34000E+01 3.05150E+01 0.00000E+00
 -1      3962 8.49000E+01 3.05150E+01 0.00000E+00
 -1      3963 8.26500E+01 2.92160E+01 0.00000E+00
 -1      3964 8.64000E+01 3.05150E+01 0.00000E+00
 -1      3965 8.79000E+01 3.05150E+01 0.00000E+00
 -1      3966 8.56500E+01 2.92160E+01 0.00000E+00
 -1      3967 8.94000E+01 3.05150E+01 0.00000E+00
 -1      3968 9.09000E+01 3.05150E+01 0.00000E+00
 -1      3969 8.86500E+01 2.92160E+01 0.00000E+00
 -1      3970 9.24000E+01 3.05150E+01 0.00000E+00
 -1      3971 9.39000E+01 3.05150E+01 0.00000E+00
 -1      3972 9.16500E+01 2.92160E+01 0.00000E+00
 -1      3973 9.54000E+01 3.05150E+01 0.00000E+00
 -1      3974 9.69000E+01 3.05150E+01 0.00000E+00
 -1      3975 9.46500E+01 2.92160E+01 0.00000E+00
 -1      3976 9.84000E+01 3.05150E+01 0.00000E+00
 -1      3977 9.99000E+01 3.05150E+01 0.00000E+00
 -1      3978 9.76500E+01 2.92160E+01 0.00000E+00
 -1      3979 1.01400E+02 3.05150E+01 0.00000E+00
 -1      3980 1.02900E+02 3.05150E+01 0.00000E+00
 -1      3981 1.00650E+02 2.92160E+01 0.00000E+00
 -1      3982 1.04400E+02 3.05150E+01 0.00000E+00
 -1      3983 1.05900E+02 3.05150E+01 0.00000E+00
 -1      3984 1.03650E+02 2.92160E+01 0.00000E+00
 -1      3985 1.07400E+02 3.05150E+01 0.00000E+00
 -1      3986 1.08900E+02 3.05150E+01 0.00000E+00
 -1      3987 1.06650E+02 2.92160E+01 0.00000E+00
 -1      3988 1.10400E+02 3.05150E+01 0.00000E+00
 -1      3989 1.11900E+02 3.05150E+01 0.00000E+00
 -1      3990 1.09650E+02 2.92160E+01 0.00000E+00
 -1      3991 1.13400E+02 3.05150E+01 0.00000E+00
 -1      3992 1.14900E+02 3.05150E+01 0.00000E+00
 -1      3993 1.12650E+02 2.92160E+01 0.00000E+00
 -1      3994 1.16400E+02 3.05150E+01 0.00000E+00
 -1      3995 1.17900E+02 3.05150E+01 0.00000E+00
 -1      3996 1.15650E+02 2.92160E+01 0.00000E+00
 -1      3997 1.19400E+02 3.05150E+01 0.00000E+00
 -1      3998 1.20900E+02 3.05150E+01 0.00000E+00
 -1      3999 1.18650E+02 2.92160E+01 0.00000E+00
 -1      4000 1.22400E+02 3.05150E+01 0.00000E+00
 -1      4001 1.23900E+02 3.05150E+01 0.00000E+00
 -1      4002 1.21650E+02 2.92160E+01 0.00000E+00
 -1      4003 1.25400E+02 3.05150E+01 0.00000E+00
 -1      4004 1.26900E+02 3.05150E+01 0.00000E+00
 -1      4005 1.24650E+02 2.92160E+01 0.00000E+00
 -1      4006 1.28400E+02 3.05150E+01 0.00000E+00
 -1      4007 1.29900E+02 3.05150E+01 0.00000E+00
 -1      4008 1.27650E+02 2.92160E+01 0.00000E+00
 -1      4009 6.92850E+01 1.82952E+01 0.00000E+00
 -1      4010 6.77850E+01 1.82952E+01 0.00000E+00
 -1      4011 7.22850E+01 1.82952E+01 0.00000E+00
 -1      4012 7.07850E+01 1.82952E+01 0.00000E+00
 -1      4013 7.30350E+01 1.95942E+01 0.00000E+00
 -1      4014 6.62850E+01 1.82952E+01 0.00000E+00
 -1      4015 6.47850E+01 1.82952E+01 0.00000E+00
 -1      4016 6.70350E+01 1.95942E+01 0.00000E+00
 -1      4017 7.82850E+01 1.82952E+01 0.00000E+00
 -1      4018 7.67850E+01 1.82952E+01 0.00000E+00
 -1      4019 7.60350E+01 1.95942E+01 0.00000E+00
 -1      4020 8.12850E+01 1.82952E+01 0.00000E+00
 -1      4021 7.97850E+01 1.82952E+01 0.00000E+00
 -1      4022 7.90350E+01 1.95942E+01 0.00000E+00
 -1      4023 8.42850E+01 1.82952E+01 0.00000E+00
 -1      4024 8.27850E+01 1.82952E+01 0.00000E+00
 -1      4025 8.20350E+01 1.95942E+01 0.00000E+00
 -1      4026 8.72850E+01 1.82952E+01 0.00000E+00
 -1      4027 8.57850E+01 1.82952E+01 0.00000E+00
 -1      4028 8.50350E+01 1.95942E+01 0.00000E+00
 -1      4029 9.02850E+01 1.82952E+01 0.00000E+00
 -1      4030 8.87850E+01 1.82952E+01 0.00000E+00
 -1      4031 8.80350E+01 1.95942E+01 0.00000E+00
 -1      4032 9.32850E+01 1.82952E+01 0.00000E+00
 -1      4033 9.17850E+01 1.82952E+01 0.00000E+00
 -1      4034 9.10350E+01 1.95942E+01 0.00000E+00
 -1      4035 9.62850E+01 1.82952E+01 0.00000E+00
 -1      4036 9.47850E+01 1.82952E+01 0.00000E+00
 -1      4037 9.40350E+01 1.95942E+01 0.00000E+00
 -1      4038 9.92850E+01 1.82952E+01 0.00000E+00
 -1      4039 9.77850E+01 1.82952E+01 0.00000E+00
 -1      4040 9.70350E+01 1.95942E+01 0.00000E+00
 -1      4041 1.02285E+02 1.82952E+01 0.00000E+00
 -1      4042 1.00785E+02 1.82952E+01 0.00000E+00
 -1      4043 1.00035E+02 1.95942E+01 0.00000E+00
 -1      4044 1.05285E+02 1.82952E+01 0.00000E+00
 -1      4045 1.03785E+02 1.82952E+01 0.00000E+00
 -1      4046 1.03035E+02 1.95942E+01 0.00000E+00
 -1      4047 1.08285E+02 1.82952E+01 0.00000E+00
 -1      4048 1.06785E+02 1.82952E+01 0.00000E+00
 -1      4049 1.06035E+02 1.95942E+01 0.00000E+00
 -1      4050 1.11285E+02 1.82952E+01 0.00000E+00
 -1      4051 1.09785E+02 1.82952E+01 0.00000E+00
 -1      4052 1.09035E+02 1.95942E+01 0.00000E+00
 -1      4053 1.14285E+02 1.82952E+01 0.00000E+00
 -1      4054 1.12785E+02 1.82952E+01 0.00000E+00
 -1      4055 1.12035E+02 1.95942E+01 0.00000E+00
 -1      4056 1.17285E+02 1.82952E+01 0.00000E+00
 -1      4057 1.15785E+02 1.82952E+01 0.00000E+00
 -1      4058 1.15035E+02 1.95942E+01 0.00000E+00
 -1      4059 1.20285E+02 1.82952E+01 0.00000E+00
 -1      4060 1.18785E+02 1.82952E+01 0.00000E+00
 -1      4061 1.18035E+02 1.95942E+01 0.00000E+00
 -1      4062 1.23285E+02 1.82952E+01 0.00000E+00
 -1      4063 1.21785E+02 1.82952E+01 0.00000E+00
 -1      4064 1.21035E+02 1.95942E+01 0.00000E+00
 -1      4065 1.26285E+02 1.82952E+01 0.00000E+00
 -1      4066 1.24785E+02 1.82952E+01 0.00000E+00
 -1      4067 1.24035E+02 1.95942E+01 0.00000E+00
 -1      4068 1.29285E+02 1.82952E+01 0.00000E+00
 -1      4069 1.27785E+02 1.82952E+01 0.00000E+00
 -1      4070 1.27035E+02 1.95942E+01 0.00000E+00
 -1      4071 2.22874E+01 2.73389E+01 0.00000E+00
 -1      4072 2.27229E+01 2.59533E+01 0.00000E+00
 -1      4073 2.16586E+01 2.50264E+01 0.00000E+00
 -1      4074 2.07987E+01 2.74054E+01 0.00000E+00
 -1      4075 2.47085E+01 3.38045E+01 0.00000E+00
 -1      4076 1.48852E+01 2.79818E+01 0.00000E+00
 -1      4077 1.33418E+02 3.02938E+01 0.00000E+00
 -1      4078 1.33376E+02 2.91204E+01 0.00000E+00
 -1      4079 1.32077E+02 2.83829E+01 0.00000E+00
 -1      4080 1.32436E+02 3.04551E+01 0.00000E+00
 -1      4081 6.04270E+01 1.80010E+01 0.00000E+00
 -1      4082 1.93988E+01 1.85143E+01 0.00000E+00
 -1      4083 1.30515E+02 2.42625E+01 0.00000E+00
 -1      4084 1.30515E+02 2.27875E+01 0.00000E+00
 -1      4085 1.30042E+02 1.92590E+01 0.00000E+00
 -1      4086 2.24379E+01 2.11526E+01 0.00000E+00
 -1      4087 2.28694E+01 1.95486E+01 0.00000E+00
 -1      4088 2.11962E+01 1.87410E+01 0.00000E+00
 -1      4089 2.17911E+01 2.21382E+01 0.00000E+00
 -1      4090 6.13754E+01 2.83899E+01 0.00000E+00
 -1      4091 6.22368E+01 3.03788E+01 0.00000E+00
 -1      4092 6.54000E+01 3.05150E+01 0.00000E+00
 -1      4093 6.69000E+01 3.05150E+01 0.00000E+00
 -1      4094 6.76500E+01 2.92160E+01 0.00000E+00
 -1      4095 6.20645E+01 2.71057E+01 0.00000E+00
 -1      4096 6.20181E+01 2.21574E+01 0.00000E+00
 -1      4097 6.12939E+01 2.31597E+01 0.00000E+00
 -1      4098 6.20295E+01 2.42656E+01 0.00000E+00
 -1      4099 6.18554E+01 1.78816E+01 0.00000E+00
 -1      4100 6.12303E+01 1.91432E+01 0.00000E+00
 -1      4101 6.19706E+01 2.00377E+01 0.00000E+00
 -1      4102 6.33469E+01 1.80101E+01 0.00000E+00
 -1      4103 7.00350E+01 1.95942E+01 0.00000E+00
 -1      4104 1.31453E+02 3.06165E+01 0.00000E+00
 -1      4105 6.37368E+01 3.03788E+01 0.00000E+00
 -1      4106 1.62284E+01 2.75603E+01 0.00000E+00
 -1      4107 1.55460E+01 2.90399E+01 0.00000E+00
 -1      4108 1.63946E+01 2.99616E+01 0.00000E+00
 -1      4109 1.73837E+01 2.72753E+01 0.00000E+00
 -1      4110 6.44868E+01 2.90798E+01 0.00000E+00
 -1      4111 1.96962E+01 2.02129E+01 0.00000E+00
 -1      4112 1.30174E+02 2.08221E+01 0.00000E+00
 -1      4113 6.40969E+01 1.93091E+01 0.00000E+00
 -1      4114 1.30557E+02 2.54359E+01 0.00000E+00
 -1      4115 1.29258E+02 2.46984E+01 0.00000E+00
 -1      4116 1.30599E+02 2.66092E+01 0.00000E+00
 -1      4117 1.28876E+02 2.15596E+01 0.00000E+00
 -1      4118 1.96962E+01 2.16879E+01 0.00000E+00
 -1      4119 1.30703E+02 2.93175E+01 0.00000E+00
 -1      4120 6.28647E+01 2.56994E+01 0.00000E+00
 -1      4121 6.36239E+01 2.75373E+01 0.00000E+00
 -1      4122 1.82696E+01 3.02162E+01 0.00000E+00
 -1      4123 1.86290E+01 2.86067E+01 0.00000E+00
 -1      4124 7.97850E+01 2.08932E+01 0.00000E+00
 -1      4125 7.82850E+01 2.08932E+01 0.00000E+00
 -1      4126 7.67850E+01 2.08932E+01 0.00000E+00
 -1      4127 7.52850E+01 2.08932E+01 0.00000E+00
 -1      4128 7.75350E+01 2.21922E+01 0.00000E+00
 -1      4129 7.29000E+01 2.79170E+01 0.00000E+00
 -1      4130 7.44000E+01 2.79170E+01 0.00000E+00
 -1      4131 7.59000E+01 2.79170E+01 0.00000E+00
 -1      4132 7.74000E+01 2.79170E+01 0.00000E+00
 -1      4133 7.51500E+01 2.66180E+01 0.00000E+00
 -1      4134 7.89000E+01 2.79170E+01 0.00000E+00
 -1      4135 8.04000E+01 2.79170E+01 0.00000E+00
 -1      4136 7.81500E+01 2.66180E+01 0.00000E+00
 -1      4137 8.19000E+01 2.79170E+01 0.00000E+00
 -1      4138 8.34000E+01 2.79170E+01 0.00000E+00
 -1      4139 8.11500E+01 2.66180E+01 0.00000E+00
 -1      4140 8.49000E+01 2.79170E+01 0.00000E+00
 -1      4141 8.64000E+01 2.79170E+01 0.00000E+00
 -1      4142 8.41500E+01 2.66180E+01 0.00000E+00
 -1      4143 8.79000E+01 2.79170E+01 0.00000E+00
 -1      4144 8.94000E+01 2.79170E+01 0.00000E+00
 -1      4145 8.71500E+01 2.66180E+01 0.00000E+00
 -1      4146 9.09000E+01 2.79170E+01 0.00000E+00
 -1      4147 9.24000E+01 2.79170E+01 0.00000E+00
 -1      4148 9.01500E+01 2.66180E+01 0.00000E+00
 -1      4149 9.39000E+01 2.79170E+01 0.00000E+00
 -1      4150 9.54000E+01 2.79170E+01 0.00000E+00
 -1      4151 9.31500E+01 2.66180E+01 0.00000E+00
 -1      4152 9.69000E+01 2.79170E+01 0.00000E+00
 -1      4153 9.84000E+01 2.79170E+01 0.00000E+00
 -1      4154 9.61500E+01 2.66180E+01 0.00000E+00
 -1      4155 9.99000E+01 2.79170E+01 0.00000E+00
 -1      4156 1.01400E+02 2.79170E+01 0.00000E+00
 -1      4157 9.91500E+01 2.66180E+01 0.00000E+00
 -1      4158 1.02900E+02 2.79170E+01 0.00000E+00
 -1      4159 1.04400E+02 2.79170E+01 0.00000E+00
 -1      4160 1.02150E+02 2.66180E+01 0.00000E+00
 -1      4161 1.05900E+02 2.79170E+01 0.00000E+00
 -1      4162 1.07400E+02 2.79170E+01 0.00000E+00
 -1      4163 1.05150E+02 2.66180E+01 0.00000E+00
 -1      4164 1.08900E+02 2.79170E+01 0.00000E+00
 -1      4165 1.10400E+02 2.79170E+01 0.00000E+00
 -1      4166 1.08150E+02 2.66180E+01 0.00000E+00
 -1      4167 1.11900E+02 2.79170E+01 0.00000E+00
 -1      4168 1.13400E+02 2.79170E+01 0.00000E+00
 -1      4169 1.11150E+02 2.66180E+01 0.00000E+00
 -1      4170 1.14900E+02 2.79170E+01 0.00000E+00
 -1      4171 1.16400E+02 2.79170E+01 0.00000E+00
 -1      4172 1.14150E+02 2.66180E+01 0.00000E+00
 -1      4173 1.17900E+02 2.79170E+01 0.00000E+00
 -1      4174 1.19400E+02 2.79170E+01 0.00000E+00
 -1      4175 1.17150E+02 2.66180E+01 0.00000E+00
 -1      4176 1.20900E+02 2.79170E+01 0.00000E+00
 -1      4177 1.22400E+02 2.79170E+01 0.00000E+00
 -1      4178 1.20150E+02 2.66180E+01 0.00000E+00
 -1      4179 1.23900E+02 2.79170E+01 0.00000E+00
 -1      4180 1.25400E+02 2.79170E+01 0.00000E+00
 -1      4181 1.23150E+02 2.66180E+01 0.00000E+00
 -1      4182 6.77850E+01 2.08932E+01 0.00000E+00
 -1      4183 6.62850E+01 2.08932E+01 0.00000E+00
 -1      4184 8.27850E+01 2.08932E+01 0.00000E+00
 -1      4185 8.12850E+01 2.08932E+01 0.00000E+00
 -1      4186 8.05350E+01 2.21922E+01 0.00000E+00
 -1      4187 8.57850E+01 2.08932E+01 0.00000E+00
 -1      4188 8.42850E+01 2.08932E+01 0.00000E+00
 -1      4189 8.35350E+01 2.21922E+01 0.00000E+00
 -1      4190 8.87850E+01 2.08932E+01 0.00000E+00
 -1      4191 8.72850E+01 2.08932E+01 0.00000E+00
 -1      4192 8.65350E+01 2.21922E+01 0.00000E+00
 -1      4193 9.17850E+01 2.08932E+01 0.00000E+00
 -1      4194 9.02850E+01 2.08932E+01 0.00000E+00
 -1      4195 8.95350E+01 2.21922E+01 0.00000E+00
 -1      4196 9.47850E+01 2.08932E+01 0.00000E+00
 -1      4197 9.32850E+01 2.08932E+01 0.00000E+00
 -1      4198 9.25350E+01 2.21922E+01 0.00000E+00
 -1      4199 9.77850E+01 2.08932E+01 0.00000E+00
 -1      4200 9.62850E+01 2.08932E+01 0.00000E+00
 -1      4201 9.55350E+01 2.21922E+01 0.00000E+00
 -1      4202 1.00785E+02 2.08932E+01 0.00000E+00
 -1      4203 9.92850E+01 2.08932E+01 0.00000E+00
 -1      4204 9.85350E+01 2.21922E+01 0.00000E+00
 -1      4205 1.03785E+02 2.08932E+01 0.00000E+00
 -1      4206 1.02285E+02 2.08932E+01 0.00000E+00
 -1      4207 1.01535E+02 2.21922E+01 0.00000E+00
 -1      4208 1.06785E+02 2.08932E+01 0.00000E+00
 -1      4209 1.05285E+02 2.08932E+01 0.00000E+00
 -1      4210 1.04535E+02 2.21922E+01 0.00000E+00
 -1      4211 1.09785E+02 2.08932E+01 0.00000E+00
 -1      4212 1.08285E+02 2.08932E+01 0.00000E+00
 -1      4213 1.07535E+02 2.21922E+01 0.00000E+00
 -1      4214 1.12785E+02 2.08932E+01 0.00000E+00
 -1      4215 1.11285E+02 2.08932E+01 0.00000E+00
 -1      4216 1.10535E+02 2.21922E+01 0.00000E+00
 -1      4217 1.15785E+02 2.08932E+01 0.00000E+00
 -1      4218 1.14285E+02 2.08932E+01 0.00000E+00
 -1      4219 1.13535E+02 2.21922E+01 0.00000E+00
 -1      4220 1.18785E+02 2.08932E+01 0.00000E+00
 -1      4221 1.17285E+02 2.08932E+01 0.00000E+00
 -1      4222 1.16535E+02 2.21922E+01 0.00000E+00
 -1      4223 1.21785E+02 2.08932E+01 0.00000E+00
 -1      4224 1.20285E+02 2.08932E+01 0.00000E+00
 -1      4225 1.19535E+02 2.21922E+01 0.00000E+00
 -1      4226 1.24785E+02 2.08932E+01 0.00000E+00
 -1      4227 1.23285E+02 2.08932E+01 0.00000E+00
 -1      4228 1.22535E+02 2.21922E+01 0.00000E+00
 -1      4229 1.27580E+02 2.12264E+01 0.00000E+00
 -1      4230 1.26080E+02 2.12264E+01 0.00000E+00
 -1      4231 1.25330E+02 2.25254E+01 0.00000E+00
 -1      4232 1.27921E+02 2.31918E+01 0.00000E+00
 -1      4233 1.99937E+01 2.33865E+01 0.00000E+00
 -1      4234 1.91235E+01 2.72635E+01 0.00000E+00
 -1      4235 6.52870E+01 2.76735E+01 0.00000E+00
 -1      4236 6.34015E+01 2.02263E+01 0.00000E+00
 -1      4237 6.27134E+01 2.12401E+01 0.00000E+00
 -1      4238 6.34490E+01 2.23461E+01 0.00000E+00
 -1      4239 6.48397E+01 2.05115E+01 0.00000E+00
 -1      4240 1.30524E+02 2.82814E+01 0.00000E+00
 -1      4241 1.29225E+02 2.75439E+01 0.00000E+00
 -1      4242 1.95535E+01 2.60740E+01 0.00000E+00
 -1      4243 7.07850E+01 2.08932E+01 0.00000E+00
 -1      4244 6.92850E+01 2.08932E+01 0.00000E+00
 -1      4245 6.85350E+01 2.21922E+01 0.00000E+00
 -1      4246 1.99835E+01 2.48845E+01 0.00000E+00
 -1      4247 7.37850E+01 2.08932E+01 0.00000E+00
 -1      4248 7.22850E+01 2.08932E+01 0.00000E+00
 -1      4249 7.15350E+01 2.21922E+01 0.00000E+00
 -1      4250 7.45350E+01 2.21922E+01 0.00000E+00
 -1      4251 6.67870E+01 2.76735E+01 0.00000E+00
 -1      4252 6.82870E+01 2.76735E+01 0.00000E+00
 -1      4253 6.59241E+01 2.61311E+01 0.00000E+00
 -1      4254 6.98435E+01 2.77953E+01 0.00000E+00
 -1      4255 7.13435E+01 2.77953E+01 0.00000E+00
 -1      4256 7.20935E+01 2.64963E+01 0.00000E+00
 -1      4257 6.89806E+01 2.62528E+01 0.00000E+00
 -1      4258 6.55897E+01 2.18105E+01 0.00000E+00
 -1      4259 1.26900E+02 2.79170E+01 0.00000E+00
 -1      4260 1.28400E+02 2.79170E+01 0.00000E+00
 -1      4261 1.26150E+02 2.66180E+01 0.00000E+00
 -1      4262 1.73321E+01 3.00889E+01 0.00000E+00
 -1      4263 1.28475E+02 2.62449E+01 0.00000E+00
 -1      4264 6.35889E+01 2.46972E+01 0.00000E+00
 -1      4265 6.49369E+01 2.27952E+01 0.00000E+00
 -1      4266 6.42416E+01 2.37125E+01 0.00000E+00
 -1      4267 6.50768E+01 2.51464E+01 0.00000E+00
 -1      4268 6.63823E+01 2.31770E+01 0.00000E+00
 -1      4269 1.27981E+02 2.53315E+01 0.00000E+00
 -1      4270 1.27939E+02 2.41582E+01 0.00000E+00
 -1      4271 7.78425E+01 2.44051E+01 0.00000E+00
 -1      4272 7.93425E+01 2.44051E+01 0.00000E+00
 -1      4273 8.08425E+01 2.44051E+01 0.00000E+00
 -1      4274 8.23425E+01 2.44051E+01 0.00000E+00
 -1      4275 8.38425E+01 2.44051E+01 0.00000E+00
 -1      4276 8.53425E+01 2.44051E+01 0.00000E+00
 -1      4277 8.68425E+01 2.44051E+01 0.00000E+00
 -1      4278 8.83425E+01 2.44051E+01 0.00000E+00
 -1      4279 8.98425E+01 2.44051E+01 0.00000E+00
 -1      4280 9.13425E+01 2.44051E+01 0.00000E+00
 -1      4281 9.28425E+01 2.44051E+01 0.00000E+00
 -1      4282 9.43425E+01 2.44051E+01 0.00000E+00
 -1      4283 9.58425E+01 2.44051E+01 0.00000E+00
 -1      4284 9.73425E+01 2.44051E+01 0.00000E+00
 -1      4285 9.88425E+01 2.44051E+01 0.00000E+00
 -1      4286 1.00342E+02 2.44051E+01 0.00000E+00
 -1      4287 1.01842E+02 2.44051E+01 0.00000E+00
 -1      4288 1.03342E+02 2.44051E+01 0.00000E+00
 -1      4289 1.04842E+02 2.44051E+01 0.00000E+00
 -1      4290 1.06342E+02 2.44051E+01 0.00000E+00
 -1      4291 1.07842E+02 2.44051E+01 0.00000E+00
 -1      4292 1.09342E+02 2.44051E+01 0.00000E+00
 -1      4293 1.10842E+02 2.44051E+01 0.00000E+00
 -1      4294 1.12342E+02 2.44051E+01 0.00000E+00
 -1      4295 1.13842E+02 2.44051E+01 0.00000E+00
 -1      4296 1.15342E+02 2.44051E+01 0.00000E+00
 -1      4297 1.16842E+02 2.44051E+01 0.00000E+00
 -1      4298 1.18342E+02 2.44051E+01 0.00000E+00
 -1      4299 1.19842E+02 2.44051E+01 0.00000E+00
 -1      4300 1.21342E+02 2.44051E+01 0.00000E+00
 -1      4301 1.22842E+02 2.44051E+01 0.00000E+00
 -1      4302 1.24342E+02 2.44051E+01 0.00000E+00
 -1      4303 1.25638E+02 2.47383E+01 0.00000E+00
 -1      4304 6.93823E+01 2.31770E+01 0.00000E+00
 -1      4305 6.78823E+01 2.31770E+01 0.00000E+00
 -1      4306 6.72295E+01 2.41617E+01 0.00000E+00
 -1      4307 7.48425E+01 2.44051E+01 0.00000E+00
 -1      4308 7.63425E+01 2.44051E+01 0.00000E+00
 -1      4309 6.65768E+01 2.51464E+01 0.00000E+00
 -1      4310 1.27156E+02 2.57047E+01 0.00000E+00
 -1      4311 7.33425E+01 2.44051E+01 0.00000E+00
 -1      4312 7.17860E+01 2.42834E+01 0.00000E+00
 -1      4313 1.26644E+02 2.38250E+01 0.00000E+00
 -1      4314 6.80768E+01 2.51464E+01 0.00000E+00
 -1      4315 6.96333E+01 2.52681E+01 0.00000E+00
 -1      4316 1.25656E+02 2.57047E+01 0.00000E+00
 -1      4317 7.02860E+01 2.42834E+01 0.00000E+00
 -3
    3C                          2077                                     1
 -1       164    8    0    1
 -2         6         7        23      1121      1284      1138
 -1       165    8    0    1
 -2         7         8       164      1122      1285      1286
 -1       166    8    0    1
 -2         8         9       165      1123      1287      1288
 -1       167    8    0    1
 -2         8       165       164      1288      1289      1285
 -1       168    8    0    1
 -2         9        10       166      1124      1290      1291
 -1       169    8    0    1
 -2         9       166       165      1291      1292      1287
 -1       170    8    0    1
 -2        10        11       167      1125      1293      1294
 -1       171    8    0    1
 -2        10       167       166      1294      1295      1290
 -1       172    8    0    1
 -2        11        12       168      1126      1296      1297
 -1       173    8    0    1
 -2        11       168       167      1297      1298      1293
 -1       174    8    0    1
 -2        12        13       169      1127      1299      1300
 -1       175    8    0    1
 -2        12       169       168      1300      1301      1296
 -1       176    8    0    1
 -2        13        14       170      1128      1302      1303
 -1       177    8    0    1
 -2        13       170       169      1303      1304      1299
 -1       178    8    0    1
 -2        14        15       171      1129      1305      1306
 -1       179    8    0    1
 -2        14       171       170      1306      1307      1302
 -1       180    8    0    1
 -2        15        16       172      1130      1308      1309
 -1       181    8    0    1
 -2        15       172       171      1309      1310      1305
 -1       182    8    0    1
 -2        16        17       173      1131      1311      1312
 -1       183    8    0    1
 -2        16       173       172      1312      1313      1308
 -1       184    8    0    1
 -2        17        18       174      1132      1314      1315
 -1       185    8    0    1
 -2        17       174       173      1315      1316      1311
 -1       186    8    0    1
 -2        18        19       175      1133      1317      1318
 -1       187    8    0    1
 -2        18       175       174      1318      1319      1314
 -1       188    8    0    1
 -2        19        20       176      1134      1320      1321
 -1       189    8    0    1
 -2        19       176       175      1321      1322      1317
 -1       190    8    0    1
 -2        20        21       177      1135      1323      1324
 -1       191    8    0    1
 -2        20       177       176      1324      1325      1320
 -1       192    8    0    1
 -2        21        22       178      1136      1326      1327
 -1       193    8    0    1
 -2        21       178       177      1327      1328      1323
 -1       194    8    0    1
 -2        22         5       179      1137      1329      1330
 -1       195    8    0    1
 -2       178        22       179      1326      1330      1331
 -1       196    8    0    1
 -2         5        72       179      1188      1332      1329
 -1       197    8    0    1
 -2        24        23       180      1139      1333      1334
 -1       198    8    0    1
 -2        25        24       181      1140      1335      1336
 -1       199    8    0    1
 -2        24       180       181      1334      1337      1335
 -1       200    8    0    1
 -2        26        25       182      1141      1338      1339
 -1       201    8    0    1
 -2        25       181       182      1336      1340      1338
 -1       202    8    0    1
 -2        27        26       183      1142      1341      1342
 -1       203    8    0    1
 -2        26       182       183      1339      1343      1341
 -1       204    8    0    1
 -2        28        27       184      1143      1344      1345
 -1       205    8    0    1
 -2        27       183       184      1342      1346      1344
 -1       206    8    0    1
 -2        29        28       185      1144      1347      1348
 -1       207    8    0    1
 -2        28       184       185      1345      1349      1347
 -1       208    8    0    1
 -2        30        29       186      1145      1350      1351
 -1       209    8    0    1
 -2        29       185       186      1348      1352      1350
 -1       210    8    0    1
 -2        31        30       187      1146      1353      1354
 -1       211    8    0    1
 -2        30       186       187      1351      1355      1353
 -1       212    8    0    1
 -2        32        31       188      1147      1356      1357
 -1       213    8    0    1
 -2        31       187       188      1354      1358      1356
 -1       214    8    0    1
 -2        33        32       189      1148      1359      1360
 -1       215    8    0    1
 -2        32       188       189      1357      1361      1359
 -1       216    8    0    1
 -2        34        33       190      1149      1362      1363
 -1       217    8    0    1
 -2        33       189       190      1360      1364      1362
 -1       218    8    0    1
 -2        35        34       191      1150      1365      1366
 -1       219    8    0    1
 -2        34       190       191      1363      1367      1365
 -1       220    8    0    1
 -2        36        35       192      1151      1368      1369
 -1       221    8    0    1
 -2        35       191       192      1366      1370      1368
 -1       222    8    0    1
 -2        37        36       193      1152      1371      1372
 -1       223    8    0    1
 -2        36       192       193      1369      1373      1371
 -1       224    8    0    1
 -2        38        37       194      1153      1374      1375
 -1       225    8    0    1
 -2        37       193       194      1372      1376      1374
 -1       226    8    0    1
 -2        39        38       195      1154      1377      1378
 -1       227    8    0    1
 -2        38       194       195      1375      1379      1377
 -1       228    8    0    1
 -2        40        39       196      1155      1380      1381
 -1       229    8    0    1
 -2        39       195       196      1378      1382      1380
 -1       230    8    0    1
 -2        41        40       197      1156      1383      1384
 -1       231    8    0    1
 -2        40       196       197      1381      1385      1383
 -1       232    8    0    1
 -2        42        41       198      1157      1386      1387
 -1       233    8    0    1
 -2        41       197       198      1384      1388      1386
 -1       234    8    0    1
 -2        43        42       199      1158      1389      1390
 -1       235    8    0    1
 -2        42       198       199      1387      1391      1389
 -1       236    8    0    1
 -2        44        43       200      1159      1392      1393
 -1       237    8    0    1
 -2        43       199       200      1390      1394      1392
 -1       238    8    0    1
 -2        45        44       201      1160      1395      1396
 -1       239    8    0    1
 -2        44       200       201      1393      1397      1395
 -1       240    8    0    1
 -2        46        45       202      1161      1398      1399
 -1       241    8    0    1
 -2        45       201       202      1396      1400      1398
 -1       242    8    0    1
 -2        47        46       203      1162      1401      1402
 -1       243    8    0    1
 -2        46       202       203      1399      1403      1401
 -1       244    8    0    1
 -2        48        47       204      1163      1404      1405
 -1       245    8    0    1
 -2        47       203       204      1402      1406      1404
 -1       246    8    0    1
 -2        49        48       205      1164      1407      1408
 -1       247    8    0    1
 -2        48       204       205      1405      1409      1407
 -1       248    8    0    1
 -2        50        49       206      1165      1410      1411
 -1       249    8    0    1
 -2        49       205       206      1408      1412      1410
 -1       250    8    0    1
 -2        51        50       207      1166      1413      1414
 -1       251    8    0    1
 -2        50       206       207      1411      1415      1413
 -1       252    8    0    1
 -2        52        51       208      1167      1416      1417
 -1       253    8    0    1
 -2        51       207       208      1414      1418      1416
 -1       254    8    0    1
 -2        53        52       209      1168      1419      1420
 -1       255    8    0    1
 -2        52       208       209      1417      1421      1419
 -1       256    8    0    1
 -2        54        53       210      1169      1422      1423
 -1       257    8    0    1
 -2        53       209       210      1420      1424      1422
 -1       258    8    0    1
 -2        55        54       211      1170      1425      1426
 -1       259    8    0    1
 -2        54       210       211      1423      1427      1425
 -1       260    8    0    1
 -2        56        55       212      1171      1428      1429
 -1       261    8    0    1
 -2        55       211       212      1426      1430      1428
 -1       262    8    0    1
 -2        57        56       213      1172      1431      1432
 -1       263    8    0    1
 -2        56       212       213      1429      1433      1431
 -1       264    8    0    1
 -2        58        57       214      1173      1434      1435
 -1       265    8    0    1
 -2        57       213       214      1432      1436      1434
 -1       266    8    0    1
 -2        59        58       215      1174      1437      1438
 -1       267    8    0    1
 -2        58       214       215      1435      1439      1437
 -1       268    8    0    1
 -2        60        59       216      1175      1440      1441
 -1       269    8    0    1
 -2        59       215       216      1438      1442      1440
 -1       270    8    0    1
 -2        61        60       217      1176      1443      1444
 -1       271    8    0    1
 -2        60       216       217      1441      1445      1443
 -1       272    8    0    1
 -2        62        61       218      1177      1446      1447
 -1       273    8    0    1
 -2        61       217       218      1444      1448      1446
 -1       274    8    0    1
 -2        63        62       219      1178      1449      1450
 -1       275    8    0    1
 -2        62       218       219      1447      1451      1449
 -1       276    8    0    1
 -2        64        63       220      1179      1452      1453
 -1       277    8    0    1
 -2        63       219       220      1450      1454      1452
 -1       278    8    0    1
 -2        65        64       221      1180      1455      1456
 -1       279    8    0    1
 -2        64       220       221      1453      1457      1455
 -1       280    8    0    1
 -2        66        65       222      1181      1458      1459
 -1       281    8    0    1
 -2        65       221       222      1456      1460      1458
 -1       282    8    0    1
 -2        67        66       223      1182      1461      1462
 -1       283    8    0    1
 -2        66       222       223      1459      1463      1461
 -1       284    8    0    1
 -2        68        67       224      1183      1464      1465
 -1       285    8    0    1
 -2        67       223       224      1462      1466      1464
 -1       286    8    0    1
 -2        69        68       225      1184      1467      1468
 -1       287    8    0    1
 -2        68       224       225      1465      1469      1467
 -1       288    8    0    1
 -2        70        69       226      1185      1470      1471
 -1       289    8    0    1
 -2        69       225       226      1468      1472      1470
 -1       290    8    0    1
 -2        71        70       227      1186      1473      1474
 -1       291    8    0    1
 -2        70       226       227      1471      1475      1473
 -1       292    8    0    1
 -2         4        71       136      1187      1476      1254
 -1       293    8    0    1
 -2       136        71       227      1476      1474      1477
 -1       294    8    0    1
 -2        72        73       228      1189      1478      1479
 -1       295    8    0    1
 -2        72       228       179      1479      1480      1332
 -1       296    8    0    1
 -2        73        74       229      1190      1481      1482
 -1       297    8    0    1
 -2        73       229       228      1482      1483      1478
 -1       298    8    0    1
 -2        74        75       230      1191      1484      1485
 -1       299    8    0    1
 -2        74       230       229      1485      1486      1481
 -1       300    8    0    1
 -2        75        76       231      1192      1487      1488
 -1       301    8    0    1
 -2        75       231       230      1488      1489      1484
 -1       302    8    0    1
 -2        76        77       232      1193      1490      1491
 -1       303    8    0    1
 -2        76       232       231      1491      1492      1487
 -1       304    8    0    1
 -2        77        78       233      1194      1493      1494
 -1       305    8    0    1
 -2        77       233       232      1494      1495      1490
 -1       306    8    0    1
 -2        78        79       234      1195      1496      1497
 -1       307    8    0    1
 -2        78       234       233      1497      1498      1493
 -1       308    8    0    1
 -2        79        80       235      1196      1499      1500
 -1       309    8    0    1
 -2        79       235       234      1500      1501      1496
 -1       310    8    0    1
 -2        80        81       236      1197      1502      1503
 -1       311    8    0    1
 -2        80       236       235      1503      1504      1499
 -1       312    8    0    1
 -2        81        82       237      1198      1505      1506
 -1       313    8    0    1
 -2        81       237       236      1506      1507      1502
 -1       314    8    0    1
 -2        82        83       238      1199      1508      1509
 -1       315    8    0    1
 -2        82       238       237      1509      1510      1505
 -1       316    8    0    1
 -2        83        84       239      1200      1511      1512
 -1       317    8    0    1
 -2        83       239       238      1512      1513      1508
 -1       318    8    0    1
 -2        84        85       240      1201      1514      1515
 -1       319    8    0    1
 -2        84       240       239      1515      1516      1511
 -1       320    8    0    1
 -2        85        86       241      1202      1517      1518
 -1       321    8    0    1
 -2        85       241       240      1518      1519      1514
 -1       322    8    0    1
 -2        86        87       242      1203      1520      1521
 -1       323    8    0    1
 -2        86       242       241      1521      1522      1517
 -1       324    8    0    1
 -2        87        88       243      1204      1523      1524
 -1       325    8    0    1
 -2        87       243       242      1524      1525      1520
 -1       326    8    0    1
 -2        88        89       244      1205      1526      1527
 -1       327    8    0    1
 -2        88       244       243      1527      1528      1523
 -1       328    8    0    1
 -2        89        90       245      1206      1529      1530
 -1       329    8    0    1
 -2        89       245       244      1530      1531      1526
 -1       330    8    0    1
 -2        90        91       246      1207      1532      1533
 -1       331    8    0    1
 -2        90       246       245      1533      1534      1529
 -1       332    8    0    1
 -2        91        92       247      1208      1535      1536
 -1       333    8    0    1
 -2        91       247       246      1536      1537      1532
 -1       334    8    0    1
 -2        92        93       248      1209      1538      1539
 -1       335    8    0    1
 -2        92       248       247      1539      1540      1535
 -1       336    8    0    1
 -2        93        94       249      1210      1541      1542
 -1       337    8    0    1
 -2        93       249       248      1542      1543      1538
 -1       338    8    0    1
 -2        94        95       250      1211      1544      1545
 -1       339    8    0    1
 -2        94       250       249      1545      1546      1541
 -1       340    8    0    1
 -2        95        96       251      1212      1547      1548
 -1       341    8    0    1
 -2        95       251       250      1548      1549      1544
 -1       342    8    0    1
 -2        96        97       252      1213      1550      1551
 -1       343    8    0    1
 -2        96       252       251      1551      1552      1547
 -1       344    8    0    1
 -2        97        98       253      1214      1553      1554
 -1       345    8    0    1
 -2        97       253       252      1554      1555      1550
 -1       346    8    0    1
 -2        98        99       254      1215      1556      1557
 -1       347    8    0    1
 -2        98       254       253      1557      1558      1553
 -1       348    8    0    1
 -2        99       100       255      1216      1559      1560
 -1       349    8    0    1
 -2        99       255       254      1560      1561      1556
 -1       350    8    0    1
 -2       100       101       256      1217      1562      1563
 -1       351    8    0    1
 -2       100       256       255      1563      1564      1559
 -1       352    8    0    1
 -2       101       102       257      1218      1565      1566
 -1       353    8    0    1
 -2       101       257       256      1566      1567      1562
 -1       354    8    0    1
 -2       102       103       258      1219      1568      1569
 -1       355    8    0    1
 -2       102       258       257      1569      1570      1565
 -1       356    8    0    1
 -2       103       104       259      1220      1571      1572
 -1       357    8    0    1
 -2       103       259       258      1572      1573      1568
 -1       358    8    0    1
 -2       104       105       260      1221      1574      1575
 -1       359    8    0    1
 -2       104       260       259      1575      1576      1571
 -1       360    8    0    1
 -2       105       106       261      1222      1577      1578
 -1       361    8    0    1
 -2       105       261       260      1578      1579      1574
 -1       362    8    0    1
 -2       106       107       262      1223      1580      1581
 -1       363    8    0    1
 -2       106       262       261      1581      1582      1577
 -1       364    8    0    1
 -2       107       108       263      1224      1583      1584
 -1       365    8    0    1
 -2       107       263       262      1584      1585      1580
 -1       366    8    0    1
 -2       108       109       264      1225      1586      1587
 -1       367    8    0    1
 -2       108       264       263      1587      1588      1583
 -1       368    8    0    1
 -2       109       110       265      1226      1589      1590
 -1       369    8    0    1
 -2       109       265       264      1590      1591      1586
 -1       370    8    0    1
 -2       110       111       266      1227      1592      1593
 -1       371    8    0    1
 -2       110       266       265      1593      1594      1589
 -1       372    8    0    1
 -2       111       112       267      1228      1595      1596
 -1       373    8    0    1
 -2       111       267       266      1596      1597      1592
 -1       374    8    0    1
 -2       112       113       268      1229      1598      1599
 -1       375    8    0    1
 -2       112       268       267      1599      1600      1595
 -1       376    8    0    1
 -2       113       114       269      1230      1601      1602
 -1       377    8    0    1
 -2       113       269       268      1602      1603      1598
 -1       378    8    0    1
 -2       114       115       270      1231      1604      1605
 -1       379    8    0    1
 -2       114       270       269      1605      1606      1601
 -1       380    8    0    1
 -2       115       116       271      1232      1607      1608
 -1       381    8    0    1
 -2       115       271       270      1608      1609      1604
 -1       382    8    0    1
 -2       116       117       272      1233      1610      1611
 -1       383    8    0    1
 -2       116       272       271      1611      1612      1607
 -1       384    8    0    1
 -2       117       118       273      1234      1613      1614
 -1       385    8    0    1
 -2       117       273       272      1614      1615      1610
 -1       386    8    0    1
 -2       118       119       274      1235      1616      1617
 -1       387    8    0    1
 -2       118       274       273      1617      1618      1613
 -1       388    8    0    1
 -2       119       120       275      1236      1619      1620
 -1       389    8    0    1
 -2       119       275       274      1620      1621      1616
 -1       390    8    0    1
 -2       120         3       121      1237      1238      1622
 -1       391    8    0    1
 -2       121       122       276      1239      1623      1624
 -1       392    8    0    1
 -2       122       123       277      1240      1625      1626
 -1       393    8    0    1
 -2       122       277       276      1626      1627      1623
 -1       394    8    0    1
 -2       123       124       278      1241      1628      1629
 -1       395    8    0    1
 -2       123       278       277      1629      1630      1625
 -1       396    8    0    1
 -2       124       125       279      1242      1631      1632
 -1       397    8    0    1
 -2       124       279       278      1632      1633      1628
 -1       398    8    0    1
 -2       125       126       280      1243      1634      1635
 -1       399    8    0    1
 -2       125       280       279      1635      1636      1631
 -1       400    8    0    1
 -2       126       127       281      1244      1637      1638
 -1       401    8    0    1
 -2       126       281       280      1638      1639      1634
 -1       402    8    0    1
 -2       127       128       282      1245      1640      1641
 -1       403    8    0    1
 -2       127       282       281      1641      1642      1637
 -1       404    8    0    1
 -2       128       129       283      1246      1643      1644
 -1       405    8    0    1
 -2       128       283       282      1644      1645      1640
 -1       406    8    0    1
 -2       129       130       284      1247      1646      1647
 -1       407    8    0    1
 -2       129       284       283      1647      1648      1643
 -1       408    8    0    1
 -2       130       131       285      1248      1649      1650
 -1       409    8    0    1
 -2       130       285       284      1650      1651      1646
 -1       410    8    0    1
 -2       131       132       286      1249      1652      1653
 -1       411    8    0    1
 -2       131       286       285      1653      1654      1649
 -1       412    8    0    1
 -2       132       133       287      1250      1655      1656
 -1       413    8    0    1
 -2       132       287       286      1656      1657      1652
 -1       414    8    0    1
 -2       133       134       288      1251      1658      1659
 -1       415    8    0    1
 -2       133       288       287      1659      1660      1655
 -1       416    8    0    1
 -2       134       135       289      1252      1661      1662
 -1       417    8    0    1
 -2       134       289       288      1662      1663      1658
 -1       418    8    0    1
 -2       135       136       290      1253      1664      1665
 -1       419    8    0    1
 -2       289       135       290      1661      1665      1666
 -1       420    8    0    1
 -2       136       227       290      1477      1667      1664
 -1       421    8    0    1
 -2         2       137       291      1255      1668      1669
 -1       422    8    0    1
 -2       137       138       292      1256      1670      1671
 -1       423    8    0    1
 -2       138       139       293      1257      1672      1673
 -1       424    8    0    1
 -2       139       140       294      1258      1674      1675
 -1       425    8    0    1
 -2       140       141       295      1259      1676      1677
 -1       426    8    0    1
 -2       141       142       296      1260      1678      1679
 -1       427    8    0    1
 -2       142       143       297      1261      1680      1681
 -1       428    8    0    1
 -2       143       144       298      1262      1682      1683
 -1       429    8    0    1
 -2       144       145       299      1263      1684      1685
 -1       430    8    0    1
 -2       145       146       300      1264      1686      1687
 -1       431    8    0    1
 -2       146       147       301      1265      1688      1689
 -1       432    8    0    1
 -2       147       148       302      1266      1690      1691
 -1       433    8    0    1
 -2       148       149       303      1267      1692      1693
 -1       434    8    0    1
 -2       149       150       304      1268      1694      1695
 -1       435    8    0    1
 -2       150       151       305      1269      1696      1697
 -1       436    8    0    1
 -2       151       152       306      1270      1698      1699
 -1       437    8    0    1
 -2       152       153       307      1271      1700      1701
 -1       438    8    0    1
 -2       153       154       308      1272      1702      1703
 -1       439    8    0    1
 -2       154       155       309      1273      1704      1705
 -1       440    8    0    1
 -2       155       156       310      1274      1706      1707
 -1       441    8    0    1
 -2       156       157       311      1275      1708      1709
 -1       442    8    0    1
 -2       157       158       312      1276      1710      1711
 -1       443    8    0    1
 -2       158         1       313      1277      1712      1713
 -1       444    8    0    1
 -2         1       159       314      1278      1714      1715
 -1       445    8    0    1
 -2       159       160       315      1279      1716      1717
 -1       446    8    0    1
 -2       160       161       316      1280      1718      1719
 -1       447    8    0    1
 -2       161       162       317      1281      1720      1721
 -1       448    8    0    1
 -2       162       163       318      1282      1722      1723
 -1       449    8    0    1
 -2       163         2       319      1283      1724      1725
 -1       450    8    0    1
 -2       294       140       295      1674      1677      1726
 -1       451    8    0    1
 -2       293       139       294      1672      1675      1727
 -1       452    8    0    1
 -2       120       121       275      1622      1728      1619
 -1       453    8    0    1
 -2       121       276       275      1624      1729      1728
 -1       454    8    0    1
 -2       291       137       292      1668      1671      1730
 -1       455    8    0    1
 -2       292       138       293      1670      1673      1731
 -1       456    8    0    1
 -2         2       291       319      1669      1732      1724
 -1       457    8    0    1
 -2       141       296       295      1679      1733      1676
 -1       458    8    0    1
 -2       142       297       296      1681      1734      1678
 -1       459    8    0    1
 -2       143       298       297      1683      1735      1680
 -1       460    8    0    1
 -2       144       299       298      1685      1736      1682
 -1       461    8    0    1
 -2       145       300       299      1687      1737      1684
 -1       462    8    0    1
 -2       146       301       300      1689      1738      1686
 -1       463    8    0    1
 -2       147       302       301      1691      1739      1688
 -1       464    8    0    1
 -2       148       303       302      1693      1740      1690
 -1       465    8    0    1
 -2       149       304       303      1695      1741      1692
 -1       466    8    0    1
 -2       150       305       304      1697      1742      1694
 -1       467    8    0    1
 -2       151       306       305      1699      1743      1696
 -1       468    8    0    1
 -2       152       307       306      1701      1744      1698
 -1       469    8    0    1
 -2       153       308       307      1703      1745      1700
 -1       470    8    0    1
 -2       154       309       308      1705      1746      1702
 -1       471    8    0    1
 -2       155       310       309      1707      1747      1704
 -1       472    8    0    1
 -2       156       311       310      1709      1748      1706
 -1       473    8    0    1
 -2       157       312       311      1711      1749      1708
 -1       474    8    0    1
 -2       158       313       312      1713      1750      1710
 -1       475    8    0    1
 -2         1       314       313      1715      1751      1712
 -1       476    8    0    1
 -2       159       315       314      1717      1752      1714
 -1       477    8    0    1
 -2       160       316       315      1719      1753      1716
 -1       478    8    0    1
 -2       161       317       316      1721      1754      1718
 -1       479    8    0    1
 -2       162       318       317      1723      1755      1720
 -1       480    8    0    1
 -2       163       319       318      1725      1756      1722
 -1       481    8    0    1
 -2        23         7       164      1284      1286      1757
 -1       482    8    0    1
 -2       165       166       320      1292      1758      1759
 -1       483    8    0    1
 -2       164       165       321      1289      1760      1761
 -1       484    8    0    1
 -2       165       320       321      1759      1762      1760
 -1       485    8    0    1
 -2       167       168       322      1298      1763      1764
 -1       486    8    0    1
 -2       168       169       323      1301      1765      1766
 -1       487    8    0    1
 -2       168       323       322      1766      1767      1763
 -1       488    8    0    1
 -2       169       170       324      1304      1768      1769
 -1       489    8    0    1
 -2       169       324       323      1769      1770      1765
 -1       490    8    0    1
 -2       170       171       325      1307      1771      1772
 -1       491    8    0    1
 -2       170       325       324      1772      1773      1768
 -1       492    8    0    1
 -2       171       172       326      1310      1774      1775
 -1       493    8    0    1
 -2       171       326       325      1775      1776      1771
 -1       494    8    0    1
 -2       172       173       327      1313      1777      1778
 -1       495    8    0    1
 -2       172       327       326      1778      1779      1774
 -1       496    8    0    1
 -2       173       174       328      1316      1780      1781
 -1       497    8    0    1
 -2       173       328       327      1781      1782      1777
 -1       498    8    0    1
 -2       174       175       329      1319      1783      1784
 -1       499    8    0    1
 -2       174       329       328      1784      1785      1780
 -1       500    8    0    1
 -2       175       176       330      1322      1786      1787
 -1       501    8    0    1
 -2       175       330       329      1787      1788      1783
 -1       502    8    0    1
 -2       176       177       331      1325      1789      1790
 -1       503    8    0    1
 -2       176       331       330      1790      1791      1786
 -1       504    8    0    1
 -2       177       178       332      1328      1792      1793
 -1       505    8    0    1
 -2       177       332       331      1793      1794      1789
 -1       506    8    0    1
 -2       178       179       333      1331      1795      1796
 -1       507    8    0    1
 -2       332       178       333      1792      1796      1797
 -1       508    8    0    1
 -2       179       228       333      1480      1798      1795
 -1       509    8    0    1
 -2       180        23       164      1333      1757      1799
 -1       510    8    0    1
 -2       228       229       334      1483      1800      1801
 -1       511    8    0    1
 -2       228       334       333      1801      1802      1798
 -1       512    8    0    1
 -2       180       164       321      1799      1761      1803
 -1       513    8    0    1
 -2       182       181       335      1340      1804      1805
 -1       514    8    0    1
 -2       183       182       336      1343      1806      1807
 -1       515    8    0    1
 -2       182       335       336      1805      1808      1806
 -1       516    8    0    1
 -2       184       183       337      1346      1809      1810
 -1       517    8    0    1
 -2       183       336       337      1807      1811      1809
 -1       518    8    0    1
 -2       185       184       338      1349      1812      1813
 -1       519    8    0    1
 -2       184       337       338      1810      1814      1812
 -1       520    8    0    1
 -2       186       185       339      1352      1815      1816
 -1       521    8    0    1
 -2       185       338       339      1813      1817      1815
 -1       522    8    0    1
 -2       187       186       340      1355      1818      1819
 -1       523    8    0    1
 -2       186       339       340      1816      1820      1818
 -1       524    8    0    1
 -2       188       187       341      1358      1821      1822
 -1       525    8    0    1
 -2       187       340       341      1819      1823      1821
 -1       526    8    0    1
 -2       189       188       342      1361      1824      1825
 -1       527    8    0    1
 -2       188       341       342      1822      1826      1824
 -1       528    8    0    1
 -2       190       189       343      1364      1827      1828
 -1       529    8    0    1
 -2       189       342       343      1825      1829      1827
 -1       530    8    0    1
 -2       191       190       344      1367      1830      1831
 -1       531    8    0    1
 -2       190       343       344      1828      1832      1830
 -1       532    8    0    1
 -2       192       191       345      1370      1833      1834
 -1       533    8    0    1
 -2       191       344       345      1831      1835      1833
 -1       534    8    0    1
 -2       193       192       346      1373      1836      1837
 -1       535    8    0    1
 -2       192       345       346      1834      1838      1836
 -1       536    8    0    1
 -2       194       193       347      1376      1839      1840
 -1       537    8    0    1
 -2       193       346       347      1837      1841      1839
 -1       538    8    0    1
 -2       195       194       348      1379      1842      1843
 -1       539    8    0    1
 -2       194       347       348      1840      1844      1842
 -1       540    8    0    1
 -2       196       195       349      1382      1845      1846
 -1       541    8    0    1
 -2       195       348       349      1843      1847      1845
 -1       542    8    0    1
 -2       197       196       350      1385      1848      1849
 -1       543    8    0    1
 -2       196       349       350      1846      1850      1848
 -1       544    8    0    1
 -2       198       197       351      1388      1851      1852
 -1       545    8    0    1
 -2       197       350       351      1849      1853      1851
 -1       546    8    0    1
 -2       199       198       352      1391      1854      1855
 -1       547    8    0    1
 -2       198       351       352      1852      1856      1854
 -1       548    8    0    1
 -2       200       199       353      1394      1857      1858
 -1       549    8    0    1
 -2       199       352       353      1855      1859      1857
 -1       550    8    0    1
 -2       201       200       354      1397      1860      1861
 -1       551    8    0    1
 -2       200       353       354      1858      1862      1860
 -1       552    8    0    1
 -2       202       201       355      1400      1863      1864
 -1       553    8    0    1
 -2       201       354       355      1861      1865      1863
 -1       554    8    0    1
 -2       203       202       356      1403      1866      1867
 -1       555    8    0    1
 -2       202       355       356      1864      1868      1866
 -1       556    8    0    1
 -2       204       203       357      1406      1869      1870
 -1       557    8    0    1
 -2       203       356       357      1867      1871      1869
 -1       558    8    0    1
 -2       205       204       358      1409      1872      1873
 -1       559    8    0    1
 -2       204       357       358      1870      1874      1872
 -1       560    8    0    1
 -2       206       205       359      1412      1875      1876
 -1       561    8    0    1
 -2       205       358       359      1873      1877      1875
 -1       562    8    0    1
 -2       207       206       360      1415      1878      1879
 -1       563    8    0    1
 -2       206       359       360      1876      1880      1878
 -1       564    8    0    1
 -2       208       207       361      1418      1881      1882
 -1       565    8    0    1
 -2       207       360       361      1879      1883      1881
 -1       566    8    0    1
 -2       209       208       362      1421      1884      1885
 -1       567    8    0    1
 -2       208       361       362      1882      1886      1884
 -1       568    8    0    1
 -2       210       209       363      1424      1887      1888
 -1       569    8    0    1
 -2       209       362       363      1885      1889      1887
 -1       570    8    0    1
 -2       211       210       364      1427      1890      1891
 -1       571    8    0    1
 -2       210       363       364      1888      1892      1890
 -1       572    8    0    1
 -2       212       211       365      1430      1893      1894
 -1       573    8    0    1
 -2       211       364       365      1891      1895      1893
 -1       574    8    0    1
 -2       213       212       366      1433      1896      1897
 -1       575    8    0    1
 -2       212       365       366      1894      1898      1896
 -1       576    8    0    1
 -2       214       213       367      1436      1899      1900
 -1       577    8    0    1
 -2       213       366       367      1897      1901      1899
 -1       578    8    0    1
 -2       215       214       368      1439      1902      1903
 -1       579    8    0    1
 -2       214       367       368      1900      1904      1902
 -1       580    8    0    1
 -2       216       215       369      1442      1905      1906
 -1       581    8    0    1
 -2       215       368       369      1903      1907      1905
 -1       582    8    0    1
 -2       217       216       370      1445      1908      1909
 -1       583    8    0    1
 -2       216       369       370      1906      1910      1908
 -1       584    8    0    1
 -2       218       217       371      1448      1911      1912
 -1       585    8    0    1
 -2       217       370       371      1909      1913      1911
 -1       586    8    0    1
 -2       219       218       372      1451      1914      1915
 -1       587    8    0    1
 -2       218       371       372      1912      1916      1914
 -1       588    8    0    1
 -2       220       219       373      1454      1917      1918
 -1       589    8    0    1
 -2       219       372       373      1915      1919      1917
 -1       590    8    0    1
 -2       221       220       374      1457      1920      1921
 -1       591    8    0    1
 -2       220       373       374      1918      1922      1920
 -1       592    8    0    1
 -2       222       221       375      1460      1923      1924
 -1       593    8    0    1
 -2       221       374       375      1921      1925      1923
 -1       594    8    0    1
 -2       223       222       376      1463      1926      1927
 -1       595    8    0    1
 -2       222       375       376      1924      1928      1926
 -1       596    8    0    1
 -2       224       223       377      1466      1929      1930
 -1       597    8    0    1
 -2       223       376       377      1927      1931      1929
 -1       598    8    0    1
 -2       225       224       378      1469      1932      1933
 -1       599    8    0    1
 -2       224       377       378      1930      1934      1932
 -1       600    8    0    1
 -2       226       225       379      1472      1935      1936
 -1       601    8    0    1
 -2       225       378       379      1933      1937      1935
 -1       602    8    0    1
 -2       227       226       380      1475      1938      1939
 -1       603    8    0    1
 -2       290       227       380      1667      1939      1940
 -1       604    8    0    1
 -2       226       379       380      1936      1941      1938
 -1       605    8    0    1
 -2       229       230       381      1486      1942      1943
 -1       606    8    0    1
 -2       229       381       334      1943      1944      1800
 -1       607    8    0    1
 -2       230       231       382      1489      1945      1946
 -1       608    8    0    1
 -2       230       382       381      1946      1947      1942
 -1       609    8    0    1
 -2       231       232       383      1492      1948      1949
 -1       610    8    0    1
 -2       231       383       382      1949      1950      1945
 -1       611    8    0    1
 -2       232       233       384      1495      1951      1952
 -1       612    8    0    1
 -2       232       384       383      1952      1953      1948
 -1       613    8    0    1
 -2       233       234       385      1498      1954      1955
 -1       614    8    0    1
 -2       233       385       384      1955      1956      1951
 -1       615    8    0    1
 -2       234       235       386      1501      1957      1958
 -1       616    8    0    1
 -2       234       386       385      1958      1959      1954
 -1       617    8    0    1
 -2       235       236       387      1504      1960      1961
 -1       618    8    0    1
 -2       235       387       386      1961      1962      1957
 -1       619    8    0    1
 -2       236       237       388      1507      1963      1964
 -1       620    8    0    1
 -2       236       388       387      1964      1965      1960
 -1       621    8    0    1
 -2       237       238       389      1510      1966      1967
 -1       622    8    0    1
 -2       237       389       388      1967      1968      1963
 -1       623    8    0    1
 -2       238       239       390      1513      1969      1970
 -1       624    8    0    1
 -2       238       390       389      1970      1971      1966
 -1       625    8    0    1
 -2       239       240       391      1516      1972      1973
 -1       626    8    0    1
 -2       239       391       390      1973      1974      1969
 -1       627    8    0    1
 -2       240       241       392      1519      1975      1976
 -1       628    8    0    1
 -2       240       392       391      1976      1977      1972
 -1       629    8    0    1
 -2       241       242       393      1522      1978      1979
 -1       630    8    0    1
 -2       241       393       392      1979      1980      1975
 -1       631    8    0    1
 -2       242       243       394      1525      1981      1982
 -1       632    8    0    1
 -2       242       394       393      1982      1983      1978
 -1       633    8    0    1
 -2       243       244       395      1528      1984      1985
 -1       634    8    0    1
 -2       243       395       394      1985      1986      1981
 -1       635    8    0    1
 -2       244       245       396      1531      1987      1988
 -1       636    8    0    1
 -2       244       396       395      1988      1989      1984
 -1       637    8    0    1
 -2       245       246       397      1534      1990      1991
 -1       638    8    0    1
 -2       245       397       396      1991      1992      1987
 -1       639    8    0    1
 -2       246       247       398      1537      1993      1994
 -1       640    8    0    1
 -2       246       398       397      1994      1995      1990
 -1       641    8    0    1
 -2       247       248       399      1540      1996      1997
 -1       642    8    0    1
 -2       247       399       398      1997      1998      1993
 -1       643    8    0    1
 -2       248       249       400      1543      1999      2000
 -1       644    8    0    1
 -2       248       400       399      2000      2001      1996
 -1       645    8    0    1
 -2       249       250       401      1546      2002      2003
 -1       646    8    0    1
 -2       249       401       400      2003      2004      1999
 -1       647    8    0    1
 -2       250       251       402      1549      2005      2006
 -1       648    8    0    1
 -2       250       402       401      2006      2007      2002
 -1       649    8    0    1
 -2       251       252       403      1552      2008      2009
 -1       650    8    0    1
 -2       251       403       402      2009      2010      2005
 -1       651    8    0    1
 -2       252       253       404      1555      2011      2012
 -1       652    8    0    1
 -2       252       404       403      2012      2013      2008
 -1       653    8    0    1
 -2       253       254       405      1558      2014      2015
 -1       654    8    0    1
 -2       253       405       404      2015      2016      2011
 -1       655    8    0    1
 -2       254       255       406      1561      2017      2018
 -1       656    8    0    1
 -2       254       406       405      2018      2019      2014
 -1       657    8    0    1
 -2       255       256       407      1564      2020      2021
 -1       658    8    0    1
 -2       255       407       406      2021      2022      2017
 -1       659    8    0    1
 -2       256       257       408      1567      2023      2024
 -1       660    8    0    1
 -2       256       408       407      2024      2025      2020
 -1       661    8    0    1
 -2       257       258       409      1570      2026      2027
 -1       662    8    0    1
 -2       257       409       408      2027      2028      2023
 -1       663    8    0    1
 -2       258       259       410      1573      2029      2030
 -1       664    8    0    1
 -2       258       410       409      2030      2031      2026
 -1       665    8    0    1
 -2       259       260       411      1576      2032      2033
 -1       666    8    0    1
 -2       259       411       410      2033      2034      2029
 -1       667    8    0    1
 -2       260       261       412      1579      2035      2036
 -1       668    8    0    1
 -2       260       412       411      2036      2037      2032
 -1       669    8    0    1
 -2       261       262       413      1582      2038      2039
 -1       670    8    0    1
 -2       261       413       412      2039      2040      2035
 -1       671    8    0    1
 -2       262       263       414      1585      2041      2042
 -1       672    8    0    1
 -2       262       414       413      2042      2043      2038
 -1       673    8    0    1
 -2       263       264       415      1588      2044      2045
 -1       674    8    0    1
 -2       263       415       414      2045      2046      2041
 -1       675    8    0    1
 -2       264       265       416      1591      2047      2048
 -1       676    8    0    1
 -2       264       416       415      2048      2049      2044
 -1       677    8    0    1
 -2       265       266       417      1594      2050      2051
 -1       678    8    0    1
 -2       265       417       416      2051      2052      2047
 -1       679    8    0    1
 -2       266       267       418      1597      2053      2054
 -1       680    8    0    1
 -2       266       418       417      2054      2055      2050
 -1       681    8    0    1
 -2       267       268       419      1600      2056      2057
 -1       682    8    0    1
 -2       267       419       418      2057      2058      2053
 -1       683    8    0    1
 -2       268       269       420      1603      2059      2060
 -1       684    8    0    1
 -2       268       420       419      2060      2061      2056
 -1       685    8    0    1
 -2       269       270       421      1606      2062      2063
 -1       686    8    0    1
 -2       269       421       420      2063      2064      2059
 -1       687    8    0    1
 -2       270       271       422      1609      2065      2066
 -1       688    8    0    1
 -2       270       422       421      2066      2067      2062
 -1       689    8    0    1
 -2       271       272       423      1612      2068      2069
 -1       690    8    0    1
 -2       271       423       422      2069      2070      2065
 -1       691    8    0    1
 -2       272       273       424      1615      2071      2072
 -1       692    8    0    1
 -2       272       424       423      2072      2073      2068
 -1       693    8    0    1
 -2       273       274       425      1618      2074      2075
 -1       694    8    0    1
 -2       273       425       424      2075      2076      2071
 -1       695    8    0    1
 -2       274       275       426      1621      2077      2078
 -1       696    8    0    1
 -2       425       274       426      2074      2078      2079
 -1       697    8    0    1
 -2       275       276       426      1729      2080      2077
 -1       698    8    0    1
 -2       278       279       427      1633      2081      2082
 -1       699    8    0    1
 -2       277       278       428      1630      2083      2084
 -1       700    8    0    1
 -2       278       427       428      2082      2085      2083
 -1       701    8    0    1
 -2       276       277       429      1627      2086      2087
 -1       702    8    0    1
 -2       426       276       429      2080      2087      2088
 -1       703    8    0    1
 -2       277       428       429      2084      2089      2086
 -1       704    8    0    1
 -2       279       280       430      1636      2090      2091
 -1       705    8    0    1
 -2       279       430       427      2091      2092      2081
 -1       706    8    0    1
 -2       280       281       431      1639      2093      2094
 -1       707    8    0    1
 -2       280       431       430      2094      2095      2090
 -1       708    8    0    1
 -2       281       282       432      1642      2096      2097
 -1       709    8    0    1
 -2       281       432       431      2097      2098      2093
 -1       710    8    0    1
 -2       282       283       433      1645      2099      2100
 -1       711    8    0    1
 -2       282       433       432      2100      2101      2096
 -1       712    8    0    1
 -2       283       284       434      1648      2102      2103
 -1       713    8    0    1
 -2       283       434       433      2103      2104      2099
 -1       714    8    0    1
 -2       284       285       435      1651      2105      2106
 -1       715    8    0    1
 -2       284       435       434      2106      2107      2102
 -1       716    8    0    1
 -2       285       286       436      1654      2108      2109
 -1       717    8    0    1
 -2       285       436       435      2109      2110      2105
 -1       718    8    0    1
 -2       286       287       437      1657      2111      2112
 -1       719    8    0    1
 -2       286       437       436      2112      2113      2108
 -1       720    8    0    1
 -2       287       288       438      1660      2114      2115
 -1       721    8    0    1
 -2       287       438       437      2115      2116      2111
 -1       722    8    0    1
 -2       288       289       439      1663      2117      2118
 -1       723    8    0    1
 -2       288       439       438      2118      2119      2114
 -1       724    8    0    1
 -2       292       293       440      1731      2120      2121
 -1       725    8    0    1
 -2       319       291       441      1732      2122      2123
 -1       726    8    0    1
 -2       291       292       442      1730      2124      2125
 -1       727    8    0    1
 -2       293       294       443      1727      2126      2127
 -1       728    8    0    1
 -2       294       295       444      1726      2128      2129
 -1       729    8    0    1
 -2       166       167       445      1295      2130      2131
 -1       730    8    0    1
 -2       320       166       445      1758      2131      2132
 -1       731    8    0    1
 -2       167       322       445      1764      2133      2130
 -1       732    8    0    1
 -2       296       297       446      1734      2134      2135
 -1       733    8    0    1
 -2       297       298       447      1735      2136      2137
 -1       734    8    0    1
 -2       298       299       448      1736      2138      2139
 -1       735    8    0    1
 -2       299       300       449      1737      2140      2141
 -1       736    8    0    1
 -2       300       301       450      1738      2142      2143
 -1       737    8    0    1
 -2       300       450       449      2143      2144      2140
 -1       738    8    0    1
 -2       301       302       451      1739      2145      2146
 -1       739    8    0    1
 -2       302       303       452      1740      2147      2148
 -1       740    8    0    1
 -2       303       304       453      1741      2149      2150
 -1       741    8    0    1
 -2       304       305       454      1742      2151      2152
 -1       742    8    0    1
 -2       305       306       455      1743      2153      2154
 -1       743    8    0    1
 -2       306       307       456      1744      2155      2156
 -1       744    8    0    1
 -2       307       308       457      1745      2157      2158
 -1       745    8    0    1
 -2       307       457       456      2158      2159      2155
 -1       746    8    0    1
 -2       308       309       458      1746      2160      2161
 -1       747    8    0    1
 -2       309       310       459      1747      2162      2163
 -1       748    8    0    1
 -2       310       311       460      1748      2164      2165
 -1       749    8    0    1
 -2       310       460       459      2165      2166      2162
 -1       750    8    0    1
 -2       311       312       461      1749      2167      2168
 -1       751    8    0    1
 -2       312       313       462      1750      2169      2170
 -1       752    8    0    1
 -2       312       462       461      2170      2171      2167
 -1       753    8    0    1
 -2       313       314       463      1751      2172      2173
 -1       754    8    0    1
 -2       314       315       464      1752      2174      2175
 -1       755    8    0    1
 -2       315       316       465      1753      2176      2177
 -1       756    8    0    1
 -2       316       317       466      1754      2178      2179
 -1       757    8    0    1
 -2       317       318       467      1755      2180      2181
 -1       758    8    0    1
 -2       318       319       468      1756      2182      2183
 -1       759    8    0    1
 -2       295       296       469      1733      2184      2185
 -1       760    8    0    1
 -2       296       446       469      2135      2186      2184
 -1       761    8    0    1
 -2       443       294       444      2126      2129      2187
 -1       762    8    0    1
 -2       180       321       181      1803      2188      1337
 -1       763    8    0    1
 -2       444       295       469      2128      2185      2189
 -1       764    8    0    1
 -2       335       181       321      1804      2188      2190
 -1       765    8    0    1
 -2       442       292       440      2124      2121      2191
 -1       766    8    0    1
 -2       441       291       442      2122      2125      2192
 -1       767    8    0    1
 -2       439       289       290      2117      1666      2193
 -1       768    8    0    1
 -2       440       293       443      2120      2127      2194
 -1       769    8    0    1
 -2       319       441       468      2123      2195      2182
 -1       770    8    0    1
 -2       467       318       468      2180      2183      2196
 -1       771    8    0    1
 -2       466       317       467      2178      2181      2197
 -1       772    8    0    1
 -2       465       316       466      2176      2179      2198
 -1       773    8    0    1
 -2       464       315       465      2174      2177      2199
 -1       774    8    0    1
 -2       462       313       463      2169      2173      2200
 -1       775    8    0    1
 -2       460       311       461      2164      2168      2201
 -1       776    8    0    1
 -2       457       308       458      2157      2161      2202
 -1       777    8    0    1
 -2       455       306       456      2153      2156      2203
 -1       778    8    0    1
 -2       454       305       455      2151      2154      2204
 -1       779    8    0    1
 -2       453       304       454      2149      2152      2205
 -1       780    8    0    1
 -2       452       303       453      2147      2150      2206
 -1       781    8    0    1
 -2       450       301       451      2142      2146      2207
 -1       782    8    0    1
 -2       448       299       449      2138      2141      2208
 -1       783    8    0    1
 -2       446       297       470      2134      2209      2210
 -1       784    8    0    1
 -2       297       447       470      2137      2211      2209
 -1       785    8    0    1
 -2       447       298       448      2136      2139      2212
 -1       786    8    0    1
 -2       451       302       452      2145      2148      2213
 -1       787    8    0    1
 -2       458       309       471      2160      2214      2215
 -1       788    8    0    1
 -2       309       459       471      2163      2216      2214
 -1       789    8    0    1
 -2       463       314       464      2172      2175      2217
 -1       790    8    0    1
 -2       334       381       472      1944      2218      2219
 -1       791    8    0    1
 -2       323       324       473      1770      2220      2221
 -1       792    8    0    1
 -2       322       323       474      1767      2222      2223
 -1       793    8    0    1
 -2       323       473       474      2221      2224      2222
 -1       794    8    0    1
 -2       325       326       475      1776      2225      2226
 -1       795    8    0    1
 -2       326       327       476      1779      2227      2228
 -1       796    8    0    1
 -2       326       476       475      2228      2229      2225
 -1       797    8    0    1
 -2       327       328       477      1782      2230      2231
 -1       798    8    0    1
 -2       327       477       476      2231      2232      2227
 -1       799    8    0    1
 -2       328       329       478      1785      2233      2234
 -1       800    8    0    1
 -2       328       478       477      2234      2235      2230
 -1       801    8    0    1
 -2       329       330       479      1788      2236      2237
 -1       802    8    0    1
 -2       329       479       478      2237      2238      2233
 -1       803    8    0    1
 -2       330       331       480      1791      2239      2240
 -1       804    8    0    1
 -2       330       480       479      2240      2241      2236
 -1       805    8    0    1
 -2       381       382       481      1947      2242      2243
 -1       806    8    0    1
 -2       381       481       472      2243      2244      2218
 -1       807    8    0    1
 -2       336       335       482      1808      2245      2246
 -1       808    8    0    1
 -2       444       469       483      2189      2247      2248
 -1       809    8    0    1
 -2       443       444       484      2187      2249      2250
 -1       810    8    0    1
 -2       337       336       485      1811      2251      2252
 -1       811    8    0    1
 -2       336       482       485      2246      2253      2251
 -1       812    8    0    1
 -2       338       337       486      1814      2254      2255
 -1       813    8    0    1
 -2       337       485       486      2252      2256      2254
 -1       814    8    0    1
 -2       339       338       487      1817      2257      2258
 -1       815    8    0    1
 -2       338       486       487      2255      2259      2257
 -1       816    8    0    1
 -2       340       339       488      1820      2260      2261
 -1       817    8    0    1
 -2       339       487       488      2258      2262      2260
 -1       818    8    0    1
 -2       341       340       489      1823      2263      2264
 -1       819    8    0    1
 -2       340       488       489      2261      2265      2263
 -1       820    8    0    1
 -2       342       341       490      1826      2266      2267
 -1       821    8    0    1
 -2       341       489       490      2264      2268      2266
 -1       822    8    0    1
 -2       343       342       491      1829      2269      2270
 -1       823    8    0    1
 -2       342       490       491      2267      2271      2269
 -1       824    8    0    1
 -2       344       343       492      1832      2272      2273
 -1       825    8    0    1
 -2       343       491       492      2270      2274      2272
 -1       826    8    0    1
 -2       345       344       493      1835      2275      2276
 -1       827    8    0    1
 -2       344       492       493      2273      2277      2275
 -1       828    8    0    1
 -2       346       345       494      1838      2278      2279
 -1       829    8    0    1
 -2       345       493       494      2276      2280      2278
 -1       830    8    0    1
 -2       347       346       495      1841      2281      2282
 -1       831    8    0    1
 -2       346       494       495      2279      2283      2281
 -1       832    8    0    1
 -2       348       347       496      1844      2284      2285
 -1       833    8    0    1
 -2       347       495       496      2282      2286      2284
 -1       834    8    0    1
 -2       349       348       497      1847      2287      2288
 -1       835    8    0    1
 -2       348       496       497      2285      2289      2287
 -1       836    8    0    1
 -2       350       349       498      1850      2290      2291
 -1       837    8    0    1
 -2       349       497       498      2288      2292      2290
 -1       838    8    0    1
 -2       351       350       499      1853      2293      2294
 -1       839    8    0    1
 -2       350       498       499      2291      2295      2293
 -1       840    8    0    1
 -2       352       351       500      1856      2296      2297
 -1       841    8    0    1
 -2       351       499       500      2294      2298      2296
 -1       842    8    0    1
 -2       353       352       501      1859      2299      2300
 -1       843    8    0    1
 -2       352       500       501      2297      2301      2299
 -1       844    8    0    1
 -2       354       353       502      1862      2302      2303
 -1       845    8    0    1
 -2       353       501       502      2300      2304      2302
 -1       846    8    0    1
 -2       355       354       503      1865      2305      2306
 -1       847    8    0    1
 -2       354       502       503      2303      2307      2305
 -1       848    8    0    1
 -2       356       355       504      1868      2308      2309
 -1       849    8    0    1
 -2       355       503       504      2306      2310      2308
 -1       850    8    0    1
 -2       357       356       505      1871      2311      2312
 -1       851    8    0    1
 -2       356       504       505      2309      2313      2311
 -1       852    8    0    1
 -2       358       357       506      1874      2314      2315
 -1       853    8    0    1
 -2       357       505       506      2312      2316      2314
 -1       854    8    0    1
 -2       359       358       507      1877      2317      2318
 -1       855    8    0    1
 -2       358       506       507      2315      2319      2317
 -1       856    8    0    1
 -2       360       359       508      1880      2320      2321
 -1       857    8    0    1
 -2       359       507       508      2318      2322      2320
 -1       858    8    0    1
 -2       361       360       509      1883      2323      2324
 -1       859    8    0    1
 -2       360       508       509      2321      2325      2323
 -1       860    8    0    1
 -2       362       361       510      1886      2326      2327
 -1       861    8    0    1
 -2       361       509       510      2324      2328      2326
 -1       862    8    0    1
 -2       363       362       511      1889      2329      2330
 -1       863    8    0    1
 -2       362       510       511      2327      2331      2329
 -1       864    8    0    1
 -2       364       363       512      1892      2332      2333
 -1       865    8    0    1
 -2       363       511       512      2330      2334      2332
 -1       866    8    0    1
 -2       365       364       513      1895      2335      2336
 -1       867    8    0    1
 -2       364       512       513      2333      2337      2335
 -1       868    8    0    1
 -2       366       365       514      1898      2338      2339
 -1       869    8    0    1
 -2       365       513       514      2336      2340      2338
 -1       870    8    0    1
 -2       367       366       515      1901      2341      2342
 -1       871    8    0    1
 -2       366       514       515      2339      2343      2341
 -1       872    8    0    1
 -2       368       367       516      1904      2344      2345
 -1       873    8    0    1
 -2       367       515       516      2342      2346      2344
 -1       874    8    0    1
 -2       369       368       517      1907      2347      2348
 -1       875    8    0    1
 -2       368       516       517      2345      2349      2347
 -1       876    8    0    1
 -2       370       369       518      1910      2350      2351
 -1       877    8    0    1
 -2       369       517       518      2348      2352      2350
 -1       878    8    0    1
 -2       371       370       519      1913      2353      2354
 -1       879    8    0    1
 -2       370       518       519      2351      2355      2353
 -1       880    8    0    1
 -2       372       371       520      1916      2356      2357
 -1       881    8    0    1
 -2       371       519       520      2354      2358      2356
 -1       882    8    0    1
 -2       373       372       521      1919      2359      2360
 -1       883    8    0    1
 -2       372       520       521      2357      2361      2359
 -1       884    8    0    1
 -2       374       373       522      1922      2362      2363
 -1       885    8    0    1
 -2       373       521       522      2360      2364      2362
 -1       886    8    0    1
 -2       375       374       523      1925      2365      2366
 -1       887    8    0    1
 -2       374       522       523      2363      2367      2365
 -1       888    8    0    1
 -2       376       375       524      1928      2368      2369
 -1       889    8    0    1
 -2       375       523       524      2366      2370      2368
 -1       890    8    0    1
 -2       377       376       525      1931      2371      2372
 -1       891    8    0    1
 -2       376       524       525      2369      2373      2371
 -1       892    8    0    1
 -2       378       377       526      1934      2374      2375
 -1       893    8    0    1
 -2       377       525       526      2372      2376      2374
 -1       894    8    0    1
 -2       379       378       527      1937      2377      2378
 -1       895    8    0    1
 -2       378       526       527      2375      2379      2377
 -1       896    8    0    1
 -2       383       384       528      1953      2380      2381
 -1       897    8    0    1
 -2       384       385       529      1956      2382      2383
 -1       898    8    0    1
 -2       384       529       528      2383      2384      2380
 -1       899    8    0    1
 -2       385       386       530      1959      2385      2386
 -1       900    8    0    1
 -2       385       530       529      2386      2387      2382
 -1       901    8    0    1
 -2       386       387       531      1962      2388      2389
 -1       902    8    0    1
 -2       386       531       530      2389      2390      2385
 -1       903    8    0    1
 -2       387       388       532      1965      2391      2392
 -1       904    8    0    1
 -2       387       532       531      2392      2393      2388
 -1       905    8    0    1
 -2       388       389       533      1968      2394      2395
 -1       906    8    0    1
 -2       388       533       532      2395      2396      2391
 -1       907    8    0    1
 -2       389       390       534      1971      2397      2398
 -1       908    8    0    1
 -2       389       534       533      2398      2399      2394
 -1       909    8    0    1
 -2       390       391       535      1974      2400      2401
 -1       910    8    0    1
 -2       390       535       534      2401      2402      2397
 -1       911    8    0    1
 -2       391       392       536      1977      2403      2404
 -1       912    8    0    1
 -2       391       536       535      2404      2405      2400
 -1       913    8    0    1
 -2       392       393       537      1980      2406      2407
 -1       914    8    0    1
 -2       392       537       536      2407      2408      2403
 -1       915    8    0    1
 -2       393       394       538      1983      2409      2410
 -1       916    8    0    1
 -2       393       538       537      2410      2411      2406
 -1       917    8    0    1
 -2       394       395       539      1986      2412      2413
 -1       918    8    0    1
 -2       394       539       538      2413      2414      2409
 -1       919    8    0    1
 -2       395       396       540      1989      2415      2416
 -1       920    8    0    1
 -2       395       540       539      2416      2417      2412
 -1       921    8    0    1
 -2       396       397       541      1992      2418      2419
 -1       922    8    0    1
 -2       396       541       540      2419      2420      2415
 -1       923    8    0    1
 -2       397       398       542      1995      2421      2422
 -1       924    8    0    1
 -2       397       542       541      2422      2423      2418
 -1       925    8    0    1
 -2       398       399       543      1998      2424      2425
 -1       926    8    0    1
 -2       398       543       542      2425      2426      2421
 -1       927    8    0    1
 -2       399       400       544      2001      2427      2428
 -1       928    8    0    1
 -2       399       544       543      2428      2429      2424
 -1       929    8    0    1
 -2       400       401       545      2004      2430      2431
 -1       930    8    0    1
 -2       400       545       544      2431      2432      2427
 -1       931    8    0    1
 -2       401       402       546      2007      2433      2434
 -1       932    8    0    1
 -2       401       546       545      2434      2435      2430
 -1       933    8    0    1
 -2       402       403       547      2010      2436      2437
 -1       934    8    0    1
 -2       402       547       546      2437      2438      2433
 -1       935    8    0    1
 -2       403       404       548      2013      2439      2440
 -1       936    8    0    1
 -2       403       548       547      2440      2441      2436
 -1       937    8    0    1
 -2       404       405       549      2016      2442      2443
 -1       938    8    0    1
 -2       404       549       548      2443      2444      2439
 -1       939    8    0    1
 -2       405       406       550      2019      2445      2446
 -1       940    8    0    1
 -2       405       550       549      2446      2447      2442
 -1       941    8    0    1
 -2       406       407       551      2022      2448      2449
 -1       942    8    0    1
 -2       406       551       550      2449      2450      2445
 -1       943    8    0    1
 -2       407       408       552      2025      2451      2452
 -1       944    8    0    1
 -2       407       552       551      2452      2453      2448
 -1       945    8    0    1
 -2       408       409       553      2028      2454      2455
 -1       946    8    0    1
 -2       408       553       552      2455      2456      2451
 -1       947    8    0    1
 -2       409       410       554      2031      2457      2458
 -1       948    8    0    1
 -2       409       554       553      2458      2459      2454
 -1       949    8    0    1
 -2       410       411       555      2034      2460      2461
 -1       950    8    0    1
 -2       410       555       554      2461      2462      2457
 -1       951    8    0    1
 -2       411       412       556      2037      2463      2464
 -1       952    8    0    1
 -2       411       556       555      2464      2465      2460
 -1       953    8    0    1
 -2       412       413       557      2040      2466      2467
 -1       954    8    0    1
 -2       412       557       556      2467      2468      2463
 -1       955    8    0    1
 -2       413       414       558      2043      2469      2470
 -1       956    8    0    1
 -2       413       558       557      2470      2471      2466
 -1       957    8    0    1
 -2       414       415       559      2046      2472      2473
 -1       958    8    0    1
 -2       414       559       558      2473      2474      2469
 -1       959    8    0    1
 -2       415       416       560      2049      2475      2476
 -1       960    8    0    1
 -2       415       560       559      2476      2477      2472
 -1       961    8    0    1
 -2       416       417       561      2052      2478      2479
 -1       962    8    0    1
 -2       416       561       560      2479      2480      2475
 -1       963    8    0    1
 -2       417       418       562      2055      2481      2482
 -1       964    8    0    1
 -2       417       562       561      2482      2483      2478
 -1       965    8    0    1
 -2       418       419       563      2058      2484      2485
 -1       966    8    0    1
 -2       418       563       562      2485      2486      2481
 -1       967    8    0    1
 -2       419       420       564      2061      2487      2488
 -1       968    8    0    1
 -2       419       564       563      2488      2489      2484
 -1       969    8    0    1
 -2       420       421       565      2064      2490      2491
 -1       970    8    0    1
 -2       420       565       564      2491      2492      2487
 -1       971    8    0    1
 -2       421       422       566      2067      2493      2494
 -1       972    8    0    1
 -2       421       566       565      2494      2495      2490
 -1       973    8    0    1
 -2       422       423       567      2070      2496      2497
 -1       974    8    0    1
 -2       422       567       566      2497      2498      2493
 -1       975    8    0    1
 -2       423       424       568      2073      2499      2500
 -1       976    8    0    1
 -2       423       568       567      2500      2501      2496
 -1       977    8    0    1
 -2       424       425       569      2076      2502      2503
 -1       978    8    0    1
 -2       424       569       568      2503      2504      2499
 -1       979    8    0    1
 -2       425       426       429      2079      2088      2505
 -1       980    8    0    1
 -2       430       431       570      2095      2506      2507
 -1       981    8    0    1
 -2       431       432       571      2098      2508      2509
 -1       982    8    0    1
 -2       431       571       570      2509      2510      2506
 -1       983    8    0    1
 -2       428       427       572      2085      2511      2512
 -1       984    8    0    1
 -2       427       430       573      2092      2513      2514
 -1       985    8    0    1
 -2       572       427       573      2511      2514      2515
 -1       986    8    0    1
 -2       430       570       573      2507      2516      2513
 -1       987    8    0    1
 -2       432       433       574      2101      2517      2518
 -1       988    8    0    1
 -2       432       574       571      2518      2519      2508
 -1       989    8    0    1
 -2       433       434       575      2104      2520      2521
 -1       990    8    0    1
 -2       433       575       574      2521      2522      2517
 -1       991    8    0    1
 -2       434       435       576      2107      2523      2524
 -1       992    8    0    1
 -2       434       576       575      2524      2525      2520
 -1       993    8    0    1
 -2       435       436       577      2110      2526      2527
 -1       994    8    0    1
 -2       435       577       576      2527      2528      2523
 -1       995    8    0    1
 -2       436       437       578      2113      2529      2530
 -1       996    8    0    1
 -2       436       578       577      2530      2531      2526
 -1       997    8    0    1
 -2       437       438       579      2116      2532      2533
 -1       998    8    0    1
 -2       437       579       578      2533      2534      2529
 -1       999    8    0    1
 -2       438       439       580      2119      2535      2536
 -1      1000    8    0    1
 -2       438       580       579      2536      2537      2532
 -1      1001    8    0    1
 -2       441       442       581      2192      2538      2539
 -1      1002    8    0    1
 -2       440       443       582      2194      2540      2541
 -1      1003    8    0    1
 -2       443       484       582      2250      2542      2540
 -1      1004    8    0    1
 -2       382       383       583      1950      2543      2544
 -1      1005    8    0    1
 -2       383       528       583      2381      2545      2543
 -1      1006    8    0    1
 -2       439       290       380      2193      1940      2546
 -1      1007    8    0    1
 -2       468       441       584      2195      2547      2548
 -1      1008    8    0    1
 -2       441       581       584      2539      2549      2547
 -1      1009    8    0    1
 -2       442       440       585      2191      2550      2551
 -1      1010    8    0    1
 -2       469       446       586      2186      2552      2553
 -1      1011    8    0    1
 -2       469       586       483      2553      2554      2247
 -1      1012    8    0    1
 -2       467       468       587      2196      2555      2556
 -1      1013    8    0    1
 -2       457       458       588      2202      2557      2558
 -1      1014    8    0    1
 -2       455       456       589      2203      2559      2560
 -1      1015    8    0    1
 -2       448       449       590      2208      2561      2562
 -1      1016    8    0    1
 -2       324       325       591      1773      2563      2564
 -1      1017    8    0    1
 -2       473       324       591      2220      2564      2565
 -1      1018    8    0    1
 -2       325       475       591      2226      2566      2563
 -1      1019    8    0    1
 -2       447       448       592      2212      2567      2568
 -1      1020    8    0    1
 -2       451       452       593      2213      2569      2570
 -1      1021    8    0    1
 -2       449       450       594      2144      2571      2572
 -1      1022    8    0    1
 -2       450       451       595      2207      2573      2574
 -1      1023    8    0    1
 -2       452       453       596      2206      2575      2576
 -1      1024    8    0    1
 -2       453       454       597      2205      2577      2578
 -1      1025    8    0    1
 -2       454       455       598      2204      2579      2580
 -1      1026    8    0    1
 -2       454       598       597      2580      2581      2577
 -1      1027    8    0    1
 -2       456       457       599      2159      2582      2583
 -1      1028    8    0    1
 -2       463       464       600      2217      2584      2585
 -1      1029    8    0    1
 -2       459       460       601      2166      2586      2587
 -1      1030    8    0    1
 -2       460       461       602      2201      2588      2589
 -1      1031    8    0    1
 -2       461       462       603      2171      2590      2591
 -1      1032    8    0    1
 -2       462       463       604      2200      2592      2593
 -1      1033    8    0    1
 -2       464       465       605      2199      2594      2595
 -1      1034    8    0    1
 -2       465       466       606      2198      2596      2597
 -1      1035    8    0    1
 -2       466       467       607      2197      2598      2599
 -1      1036    8    0    1
 -2       335       321       608      2190      2600      2601
 -1      1037    8    0    1
 -2       482       335       608      2245      2601      2602
 -1      1038    8    0    1
 -2       321       320       608      1762      2603      2600
 -1      1039    8    0    1
 -2       333       334       609      1802      2604      2605
 -1      1040    8    0    1
 -2       332       333       609      1797      2605      2606
 -1      1041    8    0    1
 -2       334       472       609      2219      2607      2604
 -1      1042    8    0    1
 -2       447       592       610      2568      2608      2609
 -1      1043    8    0    1
 -2       447       610       470      2609      2610      2211
 -1      1044    8    0    1
 -2       322       474       611      2223      2611      2612
 -1      1045    8    0    1
 -2       322       611       445      2612      2613      2133
 -1      1046    8    0    1
 -2       481       382       583      2242      2544      2614
 -1      1047    8    0    1
 -2       331       332       609      1794      2606      2615
 -1      1048    8    0    1
 -2       606       466       607      2596      2599      2616
 -1      1049    8    0    1
 -2       605       465       612      2594      2617      2618
 -1      1050    8    0    1
 -2       465       606       612      2597      2619      2617
 -1      1051    8    0    1
 -2       604       463       600      2592      2585      2620
 -1      1052    8    0    1
 -2       444       483       484      2248      2621      2249
 -1      1053    8    0    1
 -2       331       609       480      2615      2622      2239
 -1      1054    8    0    1
 -2       603       462       604      2590      2593      2623
 -1      1055    8    0    1
 -2       468       584       587      2548      2624      2555
 -1      1056    8    0    1
 -2       602       461       603      2588      2591      2625
 -1      1057    8    0    1
 -2       425       429       569      2505      2626      2502
 -1      1058    8    0    1
 -2       429       428       569      2089      2627      2626
 -1      1059    8    0    1
 -2       601       460       602      2586      2589      2628
 -1      1060    8    0    1
 -2       442       585       613      2551      2629      2630
 -1      1061    8    0    1
 -2       442       613       581      2630      2631      2538
 -1      1062    8    0    1
 -2       440       582       585      2541      2632      2550
 -1      1063    8    0    1
 -2       600       464       605      2584      2595      2633
 -1      1064    8    0    1
 -2       598       455       589      2579      2560      2634
 -1      1065    8    0    1
 -2       586       446       614      2552      2635      2636
 -1      1066    8    0    1
 -2       446       470       614      2210      2637      2635
 -1      1067    8    0    1
 -2       456       599       589      2583      2638      2559
 -1      1068    8    0    1
 -2       608       320       445      2603      2132      2639
 -1      1069    8    0    1
 -2       457       588       599      2558      2640      2582
 -1      1070    8    0    1
 -2       596       453       597      2575      2578      2641
 -1      1071    8    0    1
 -2       595       451       593      2573      2570      2642
 -1      1072    8    0    1
 -2       594       450       595      2571      2574      2643
 -1      1073    8    0    1
 -2       590       449       615      2561      2644      2645
 -1      1074    8    0    1
 -2       449       594       615      2572      2646      2644
 -1      1075    8    0    1
 -2       588       458       471      2557      2215      2647
 -1      1076    8    0    1
 -2       448       590       592      2562      2648      2567
 -1      1077    8    0    1
 -2       467       587       607      2556      2649      2598
 -1      1078    8    0    1
 -2       593       452       596      2569      2576      2650
 -1      1079    8    0    1
 -2       471       459       601      2216      2587      2651
 -1      1080    8    0    1
 -2       439       380       616      2546      2652      2653
 -1      1081    8    0    1
 -2       580       439       616      2535      2653      2654
 -1      1082    8    0    1
 -2       380       379       616      1941      2655      2652
 -1      1083    8    0    1
 -2       569       428       572      2627      2512      2656
 -1      1084    8    0    1
 -2       616       379       527      2655      2378      2657
 -1      1085    8    0    1
 -2       476       477       617      2232      2658      2659
 -1      1086    8    0    1
 -2       475       476       618      2229      2660      2661
 -1      1087    8    0    1
 -2       476       617       618      2659      2662      2660
 -1      1088    8    0    1
 -2       478       479       619      2238      2663      2664
 -1      1089    8    0    1
 -2       479       480       620      2241      2665      2666
 -1      1090    8    0    1
 -2       479       620       619      2666      2667      2663
 -1      1091    8    0    1
 -2       472       481       621      2244      2668      2669
 -1      1092    8    0    1
 -2       603       604       622      2623      2670      2671
 -1      1093    8    0    1
 -2       609       472       480      2607      2672      2622
 -1      1094    8    0    1
 -2       486       485       623      2256      2673      2674
 -1      1095    8    0    1
 -2       487       486       624      2259      2675      2676
 -1      1096    8    0    1
 -2       486       623       624      2674      2677      2675
 -1      1097    8    0    1
 -2       488       487       625      2262      2678      2679
 -1      1098    8    0    1
 -2       487       624       625      2676      2680      2678
 -1      1099    8    0    1
 -2       489       488       626      2265      2681      2682
 -1      1100    8    0    1
 -2       488       625       626      2679      2683      2681
 -1      1101    8    0    1
 -2       490       489       627      2268      2684      2685
 -1      1102    8    0    1
 -2       489       626       627      2682      2686      2684
 -1      1103    8    0    1
 -2       491       490       628      2271      2687      2688
 -1      1104    8    0    1
 -2       490       627       628      2685      2689      2687
 -1      1105    8    0    1
 -2       492       491       629      2274      2690      2691
 -1      1106    8    0    1
 -2       491       628       629      2688      2692      2690
 -1      1107    8    0    1
 -2       493       492       630      2277      2693      2694
 -1      1108    8    0    1
 -2       492       629       630      2691      2695      2693
 -1      1109    8    0    1
 -2       494       493       631      2280      2696      2697
 -1      1110    8    0    1
 -2       493       630       631      2694      2698      2696
 -1      1111    8    0    1
 -2       495       494       622      2283      2699      2700
 -1      1112    8    0    1
 -2       497       496       632      2289      2701      2702
 -1      1113    8    0    1
 -2       498       497       633      2292      2703      2704
 -1      1114    8    0    1
 -2       497       632       633      2702      2705      2703
 -1      1115    8    0    1
 -2       499       498       634      2295      2706      2707
 -1      1116    8    0    1
 -2       498       633       634      2704      2708      2706
 -1      1117    8    0    1
 -2       500       499       635      2298      2709      2710
 -1      1118    8    0    1
 -2       499       634       635      2707      2711      2709
 -1      1119    8    0    1
 -2       501       500       636      2301      2712      2713
 -1      1120    8    0    1
 -2       500       635       636      2710      2714      2712
 -1      1121    8    0    1
 -2       502       501       637      2304      2715      2716
 -1      1122    8    0    1
 -2       501       636       637      2713      2717      2715
 -1      1123    8    0    1
 -2       503       502       638      2307      2718      2719
 -1      1124    8    0    1
 -2       502       637       638      2716      2720      2718
 -1      1125    8    0    1
 -2       504       503       639      2310      2721      2722
 -1      1126    8    0    1
 -2       503       638       639      2719      2723      2721
 -1      1127    8    0    1
 -2       505       504       640      2313      2724      2725
 -1      1128    8    0    1
 -2       504       639       640      2722      2726      2724
 -1      1129    8    0    1
 -2       506       505       641      2316      2727      2728
 -1      1130    8    0    1
 -2       505       640       641      2725      2729      2727
 -1      1131    8    0    1
 -2       507       506       642      2319      2730      2731
 -1      1132    8    0    1
 -2       506       641       642      2728      2732      2730
 -1      1133    8    0    1
 -2       508       507       643      2322      2733      2734
 -1      1134    8    0    1
 -2       507       642       643      2731      2735      2733
 -1      1135    8    0    1
 -2       509       508       644      2325      2736      2737
 -1      1136    8    0    1
 -2       508       643       644      2734      2738      2736
 -1      1137    8    0    1
 -2       510       509       645      2328      2739      2740
 -1      1138    8    0    1
 -2       509       644       645      2737      2741      2739
 -1      1139    8    0    1
 -2       511       510       646      2331      2742      2743
 -1      1140    8    0    1
 -2       510       645       646      2740      2744      2742
 -1      1141    8    0    1
 -2       512       511       647      2334      2745      2746
 -1      1142    8    0    1
 -2       511       646       647      2743      2747      2745
 -1      1143    8    0    1
 -2       513       512       648      2337      2748      2749
 -1      1144    8    0    1
 -2       512       647       648      2746      2750      2748
 -1      1145    8    0    1
 -2       514       513       649      2340      2751      2752
 -1      1146    8    0    1
 -2       513       648       649      2749      2753      2751
 -1      1147    8    0    1
 -2       515       514       650      2343      2754      2755
 -1      1148    8    0    1
 -2       514       649       650      2752      2756      2754
 -1      1149    8    0    1
 -2       516       515       651      2346      2757      2758
 -1      1150    8    0    1
 -2       515       650       651      2755      2759      2757
 -1      1151    8    0    1
 -2       517       516       652      2349      2760      2761
 -1      1152    8    0    1
 -2       516       651       652      2758      2762      2760
 -1      1153    8    0    1
 -2       518       517       653      2352      2763      2764
 -1      1154    8    0    1
 -2       517       652       653      2761      2765      2763
 -1      1155    8    0    1
 -2       519       518       654      2355      2766      2767
 -1      1156    8    0    1
 -2       518       653       654      2764      2768      2766
 -1      1157    8    0    1
 -2       520       519       655      2358      2769      2770
 -1      1158    8    0    1
 -2       519       654       655      2767      2771      2769
 -1      1159    8    0    1
 -2       521       520       656      2361      2772      2773
 -1      1160    8    0    1
 -2       520       655       656      2770      2774      2772
 -1      1161    8    0    1
 -2       522       521       657      2364      2775      2776
 -1      1162    8    0    1
 -2       521       656       657      2773      2777      2775
 -1      1163    8    0    1
 -2       523       522       658      2367      2778      2779
 -1      1164    8    0    1
 -2       522       657       658      2776      2780      2778
 -1      1165    8    0    1
 -2       524       523       659      2370      2781      2782
 -1      1166    8    0    1
 -2       523       658       659      2779      2783      2781
 -1      1167    8    0    1
 -2       525       524       660      2373      2784      2785
 -1      1168    8    0    1
 -2       524       659       660      2782      2786      2784
 -1      1169    8    0    1
 -2       526       525       661      2376      2787      2788
 -1      1170    8    0    1
 -2       525       660       661      2785      2789      2787
 -1      1171    8    0    1
 -2       527       526       662      2379      2790      2791
 -1      1172    8    0    1
 -2       526       661       662      2788      2792      2790
 -1      1173    8    0    1
 -2       529       530       663      2387      2793      2794
 -1      1174    8    0    1
 -2       569       572       664      2656      2795      2796
 -1      1175    8    0    1
 -2       569       664       568      2796      2797      2504
 -1      1176    8    0    1
 -2       528       529       665      2384      2798      2799
 -1      1177    8    0    1
 -2       529       663       665      2794      2800      2798
 -1      1178    8    0    1
 -2       531       532       666      2393      2801      2802
 -1      1179    8    0    1
 -2       532       533       667      2396      2803      2804
 -1      1180    8    0    1
 -2       532       667       666      2804      2805      2801
 -1      1181    8    0    1
 -2       533       534       668      2399      2806      2807
 -1      1182    8    0    1
 -2       533       668       667      2807      2808      2803
 -1      1183    8    0    1
 -2       534       535       669      2402      2809      2810
 -1      1184    8    0    1
 -2       534       669       668      2810      2811      2806
 -1      1185    8    0    1
 -2       535       536       670      2405      2812      2813
 -1      1186    8    0    1
 -2       535       670       669      2813      2814      2809
 -1      1187    8    0    1
 -2       536       537       671      2408      2815      2816
 -1      1188    8    0    1
 -2       536       671       670      2816      2817      2812
 -1      1189    8    0    1
 -2       537       538       672      2411      2818      2819
 -1      1190    8    0    1
 -2       537       672       671      2819      2820      2815
 -1      1191    8    0    1
 -2       538       539       673      2414      2821      2822
 -1      1192    8    0    1
 -2       538       673       672      2822      2823      2818
 -1      1193    8    0    1
 -2       539       540       674      2417      2824      2825
 -1      1194    8    0    1
 -2       539       674       673      2825      2826      2821
 -1      1195    8    0    1
 -2       540       541       675      2420      2827      2828
 -1      1196    8    0    1
 -2       540       675       674      2828      2829      2824
 -1      1197    8    0    1
 -2       541       542       676      2423      2830      2831
 -1      1198    8    0    1
 -2       541       676       675      2831      2832      2827
 -1      1199    8    0    1
 -2       542       543       677      2426      2833      2834
 -1      1200    8    0    1
 -2       542       677       676      2834      2835      2830
 -1      1201    8    0    1
 -2       543       544       678      2429      2836      2837
 -1      1202    8    0    1
 -2       543       678       677      2837      2838      2833
 -1      1203    8    0    1
 -2       544       545       679      2432      2839      2840
 -1      1204    8    0    1
 -2       544       679       678      2840      2841      2836
 -1      1205    8    0    1
 -2       545       546       680      2435      2842      2843
 -1      1206    8    0    1
 -2       545       680       679      2843      2844      2839
 -1      1207    8    0    1
 -2       546       547       681      2438      2845      2846
 -1      1208    8    0    1
 -2       546       681       680      2846      2847      2842
 -1      1209    8    0    1
 -2       547       548       682      2441      2848      2849
 -1      1210    8    0    1
 -2       547       682       681      2849      2850      2845
 -1      1211    8    0    1
 -2       548       549       683      2444      2851      2852
 -1      1212    8    0    1
 -2       548       683       682      2852      2853      2848
 -1      1213    8    0    1
 -2       549       550       684      2447      2854      2855
 -1      1214    8    0    1
 -2       549       684       683      2855      2856      2851
 -1      1215    8    0    1
 -2       550       551       685      2450      2857      2858
 -1      1216    8    0    1
 -2       550       685       684      2858      2859      2854
 -1      1217    8    0    1
 -2       551       552       686      2453      2860      2861
 -1      1218    8    0    1
 -2       551       686       685      2861      2862      2857
 -1      1219    8    0    1
 -2       552       553       687      2456      2863      2864
 -1      1220    8    0    1
 -2       552       687       686      2864      2865      2860
 -1      1221    8    0    1
 -2       553       554       688      2459      2866      2867
 -1      1222    8    0    1
 -2       553       688       687      2867      2868      2863
 -1      1223    8    0    1
 -2       554       555       689      2462      2869      2870
 -1      1224    8    0    1
 -2       554       689       688      2870      2871      2866
 -1      1225    8    0    1
 -2       555       556       690      2465      2872      2873
 -1      1226    8    0    1
 -2       555       690       689      2873      2874      2869
 -1      1227    8    0    1
 -2       556       557       691      2468      2875      2876
 -1      1228    8    0    1
 -2       556       691       690      2876      2877      2872
 -1      1229    8    0    1
 -2       557       558       692      2471      2878      2879
 -1      1230    8    0    1
 -2       557       692       691      2879      2880      2875
 -1      1231    8    0    1
 -2       558       559       693      2474      2881      2882
 -1      1232    8    0    1
 -2       558       693       692      2882      2883      2878
 -1      1233    8    0    1
 -2       559       560       694      2477      2884      2885
 -1      1234    8    0    1
 -2       559       694       693      2885      2886      2881
 -1      1235    8    0    1
 -2       560       561       695      2480      2887      2888
 -1      1236    8    0    1
 -2       560       695       694      2888      2889      2884
 -1      1237    8    0    1
 -2       561       562       696      2483      2890      2891
 -1      1238    8    0    1
 -2       561       696       695      2891      2892      2887
 -1      1239    8    0    1
 -2       562       563       697      2486      2893      2894
 -1      1240    8    0    1
 -2       562       697       696      2894      2895      2890
 -1      1241    8    0    1
 -2       563       564       698      2489      2896      2897
 -1      1242    8    0    1
 -2       563       698       697      2897      2898      2893
 -1      1243    8    0    1
 -2       564       565       699      2492      2899      2900
 -1      1244    8    0    1
 -2       564       699       698      2900      2901      2896
 -1      1245    8    0    1
 -2       565       566       700      2495      2902      2903
 -1      1246    8    0    1
 -2       565       700       699      2903      2904      2899
 -1      1247    8    0    1
 -2       566       567       701      2498      2905      2906
 -1      1248    8    0    1
 -2       566       701       700      2906      2907      2902
 -1      1249    8    0    1
 -2       567       568       702      2501      2908      2909
 -1      1250    8    0    1
 -2       701       567       702      2905      2909      2910
 -1      1251    8    0    1
 -2       568       664       702      2797      2911      2908
 -1      1252    8    0    1
 -2       574       575       703      2522      2912      2913
 -1      1253    8    0    1
 -2       616       527       704      2657      2914      2915
 -1      1254    8    0    1
 -2       527       662       704      2791      2916      2914
 -1      1255    8    0    1
 -2       570       571       705      2510      2917      2918
 -1      1256    8    0    1
 -2       575       576       706      2525      2919      2920
 -1      1257    8    0    1
 -2       575       706       703      2920      2921      2912
 -1      1258    8    0    1
 -2       571       574       707      2519      2922      2923
 -1      1259    8    0    1
 -2       705       571       707      2917      2923      2924
 -1      1260    8    0    1
 -2       574       703       707      2913      2925      2922
 -1      1261    8    0    1
 -2       582       484       708      2542      2926      2927
 -1      1262    8    0    1
 -2       576       577       709      2528      2928      2929
 -1      1263    8    0    1
 -2       576       709       706      2929      2930      2919
 -1      1264    8    0    1
 -2       577       578       710      2531      2931      2932
 -1      1265    8    0    1
 -2       577       710       709      2932      2933      2928
 -1      1266    8    0    1
 -2       578       579       711      2534      2934      2935
 -1      1267    8    0    1
 -2       578       711       710      2935      2936      2931
 -1      1268    8    0    1
 -2       585       582       712      2632      2937      2938
 -1      1269    8    0    1
 -2       582       708       712      2927      2939      2937
 -1      1270    8    0    1
 -2       583       528       713      2545      2940      2941
 -1      1271    8    0    1
 -2       528       665       713      2799      2942      2940
 -1      1272    8    0    1
 -2       584       581       714      2549      2943      2944
 -1      1273    8    0    1
 -2       600       605       715      2633      2945      2946
 -1      1274    8    0    1
 -2       483       586       716      2554      2947      2948
 -1      1275    8    0    1
 -2       602       603       631      2625      2949      2950
 -1      1276    8    0    1
 -2       608       445       611      2639      2613      2951
 -1      1277    8    0    1
 -2       530       531       717      2390      2952      2953
 -1      1278    8    0    1
 -2       663       530       717      2793      2953      2954
 -1      1279    8    0    1
 -2       531       666       717      2802      2955      2952
 -1      1280    8    0    1
 -2       485       482       718      2253      2956      2957
 -1      1281    8    0    1
 -2       485       718       623      2957      2958      2673
 -1      1282    8    0    1
 -2       481       583       719      2614      2959      2960
 -1      1283    8    0    1
 -2       621       481       719      2668      2960      2961
 -1      1284    8    0    1
 -2       583       713       719      2941      2962      2959
 -1      1285    8    0    1
 -2       606       607       720      2616      2963      2964
 -1      1286    8    0    1
 -2       599       588       721      2640      2965      2966
 -1      1287    8    0    1
 -2       477       478       722      2235      2967      2968
 -1      1288    8    0    1
 -2       617       477       722      2658      2968      2969
 -1      1289    8    0    1
 -2       478       619       722      2664      2970      2967
 -1      1290    8    0    1
 -2       474       473       723      2224      2971      2972
 -1      1291    8    0    1
 -2       594       595       724      2643      2973      2974
 -1      1292    8    0    1
 -2       588       471       725      2647      2975      2976
 -1      1293    8    0    1
 -2       589       599       726      2638      2977      2978
 -1      1294    8    0    1
 -2       599       721       726      2966      2979      2977
 -1      1295    8    0    1
 -2       592       590       727      2648      2980      2981
 -1      1296    8    0    1
 -2       471       601       728      2651      2982      2983
 -1      1297    8    0    1
 -2       471       728       725      2983      2984      2975
 -1      1298    8    0    1
 -2       595       593       729      2642      2985      2986
 -1      1299    8    0    1
 -2       597       598       730      2581      2987      2988
 -1      1300    8    0    1
 -2       596       597       731      2641      2989      2990
 -1      1301    8    0    1
 -2       484       483       732      2621      2991      2992
 -1      1302    8    0    1
 -2       607       587       733      2649      2993      2994
 -1      1303    8    0    1
 -2       607       733       720      2994      2995      2963
 -1      1304    8    0    1
 -2       580       616       704      2654      2915      2996
 -1      1305    8    0    1
 -2       601       602       734      2628      2997      2998
 -1      1306    8    0    1
 -2       587       584       735      2624      2999      3000
 -1      1307    8    0    1
 -2       598       589       736      2634      3001      3002
 -1      1308    8    0    1
 -2       598       736       730      3002      3003      2987
 -1      1309    8    0    1
 -2       604       600       737      2620      3004      3005
 -1      1310    8    0    1
 -2       600       715       737      2946      3006      3004
 -1      1311    8    0    1
 -2       593       596       738      2650      3007      3008
 -1      1312    8    0    1
 -2       611       474       739      2611      3009      3010
 -1      1313    8    0    1
 -2       474       723       739      2972      3011      3009
 -1      1314    8    0    1
 -2       475       618       740      2661      3012      3013
 -1      1315    8    0    1
 -2       475       740       591      3013      3014      2566
 -1      1316    8    0    1
 -2       580       704       579      2996      3015      2537
 -1      1317    8    0    1
 -2       603       622       631      2671      3016      2949
 -1      1318    8    0    1
 -2       480       472       621      2672      2669      3017
 -1      1319    8    0    1
 -2       610       592       727      2608      2981      3018
 -1      1320    8    0    1
 -2       612       606       741      2619      3019      3020
 -1      1321    8    0    1
 -2       606       720       741      2964      3021      3019
 -1      1322    8    0    1
 -2       622       494       631      2699      2697      3016
 -1      1323    8    0    1
 -2       570       705       742      2918      3022      3023
 -1      1324    8    0    1
 -2       570       742       573      3023      3024      2516
 -1      1325    8    0    1
 -2       496       495       743      2286      3025      3026
 -1      1326    8    0    1
 -2       736       589       744      3001      3027      3028
 -1      1327    8    0    1
 -2       589       726       744      2978      3029      3027
 -1      1328    8    0    1
 -2       584       714       735      2944      3030      2999
 -1      1329    8    0    1
 -2       733       587       735      2993      3000      3031
 -1      1330    8    0    1
 -2       601       734       728      2998      3032      2982
 -1      1331    8    0    1
 -2       708       484       732      2926      2992      3033
 -1      1332    8    0    1
 -2       572       573       664      2515      3034      2795
 -1      1333    8    0    1
 -2       732       483       716      2991      2948      3035
 -1      1334    8    0    1
 -2       613       585       745      2629      3036      3037
 -1      1335    8    0    1
 -2       585       712       745      2938      3038      3036
 -1      1336    8    0    1
 -2       711       579       704      2934      3015      3039
 -1      1337    8    0    1
 -2       731       597       730      2989      2988      3040
 -1      1338    8    0    1
 -2       620       480       621      2665      3017      3041
 -1      1339    8    0    1
 -2       604       737       622      3005      3042      2670
 -1      1340    8    0    1
 -2       614       470       746      2637      3043      3044
 -1      1341    8    0    1
 -2       470       610       746      2610      3045      3043
 -1      1342    8    0    1
 -2       714       581       613      2943      2631      3046
 -1      1343    8    0    1
 -2       595       729       724      2986      3047      2973
 -1      1344    8    0    1
 -2       593       738       729      3008      3048      2985
 -1      1345    8    0    1
 -2       602       631       734      2950      3049      2997
 -1      1346    8    0    1
 -2       608       611       747      2951      3050      3051
 -1      1347    8    0    1
 -2       482       608       747      2602      3051      3052
 -1      1348    8    0    1
 -2       611       739       747      3010      3053      3050
 -1      1349    8    0    1
 -2       716       586       748      2947      3054      3055
 -1      1350    8    0    1
 -2       586       614       748      2636      3056      3054
 -1      1351    8    0    1
 -2       715       605       749      2945      3057      3058
 -1      1352    8    0    1
 -2       605       612       749      2618      3059      3057
 -1      1353    8    0    1
 -2       615       594       750      2646      3060      3061
 -1      1354    8    0    1
 -2       594       724       750      2974      3062      3060
 -1      1355    8    0    1
 -2       496       743       632      3026      3063      2701
 -1      1356    8    0    1
 -2       473       591       751      2565      3064      3065
 -1      1357    8    0    1
 -2       723       473       751      2971      3065      3066
 -1      1358    8    0    1
 -2       591       740       751      3014      3067      3064
 -1      1359    8    0    1
 -2       721       588       752      2965      3068      3069
 -1      1360    8    0    1
 -2       588       725       752      2976      3070      3068
 -1      1361    8    0    1
 -2       727       590       615      2980      2645      3071
 -1      1362    8    0    1
 -2       596       731       738      2990      3072      3007
 -1      1363    8    0    1
 -2       482       747       718      3052      3073      2956
 -1      1364    8    0    1
 -2       610       727       753      3018      3074      3075
 -1      1365    8    0    1
 -2       619       620       754      2667      3076      3077
 -1      1366    8    0    1
 -2       625       624       755      2680      3078      3079
 -1      1367    8    0    1
 -2       626       625       756      2683      3080      3081
 -1      1368    8    0    1
 -2       625       755       756      3079      3082      3080
 -1      1369    8    0    1
 -2       627       626       757      2686      3083      3084
 -1      1370    8    0    1
 -2       626       756       757      3081      3085      3083
 -1      1371    8    0    1
 -2       628       627       758      2689      3086      3087
 -1      1372    8    0    1
 -2       627       757       758      3084      3088      3086
 -1      1373    8    0    1
 -2       631       630       734      2698      3089      3049
 -1      1374    8    0    1
 -2       623       718       759      2958      3090      3091
 -1      1375    8    0    1
 -2       634       633       760      2708      3092      3093
 -1      1376    8    0    1
 -2       635       634       761      2711      3094      3095
 -1      1377    8    0    1
 -2       634       760       761      3093      3096      3094
 -1      1378    8    0    1
 -2       636       635       762      2714      3097      3098
 -1      1379    8    0    1
 -2       635       761       762      3095      3099      3097
 -1      1380    8    0    1
 -2       637       636       763      2717      3100      3101
 -1      1381    8    0    1
 -2       636       762       763      3098      3102      3100
 -1      1382    8    0    1
 -2       638       637       764      2720      3103      3104
 -1      1383    8    0    1
 -2       637       763       764      3101      3105      3103
 -1      1384    8    0    1
 -2       639       638       765      2723      3106      3107
 -1      1385    8    0    1
 -2       638       764       765      3104      3108      3106
 -1      1386    8    0    1
 -2       640       639       766      2726      3109      3110
 -1      1387    8    0    1
 -2       639       765       766      3107      3111      3109
 -1      1388    8    0    1
 -2       641       640       767      2729      3112      3113
 -1      1389    8    0    1
 -2       640       766       767      3110      3114      3112
 -1      1390    8    0    1
 -2       642       641       768      2732      3115      3116
 -1      1391    8    0    1
 -2       641       767       768      3113      3117      3115
 -1      1392    8    0    1
 -2       643       642       769      2735      3118      3119
 -1      1393    8    0    1
 -2       642       768       769      3116      3120      3118
 -1      1394    8    0    1
 -2       644       643       770      2738      3121      3122
 -1      1395    8    0    1
 -2       643       769       770      3119      3123      3121
 -1      1396    8    0    1
 -2       645       644       771      2741      3124      3125
 -1      1397    8    0    1
 -2       644       770       771      3122      3126      3124
 -1      1398    8    0    1
 -2       646       645       772      2744      3127      3128
 -1      1399    8    0    1
 -2       645       771       772      3125      3129      3127
 -1      1400    8    0    1
 -2       647       646       773      2747      3130      3131
 -1      1401    8    0    1
 -2       646       772       773      3128      3132      3130
 -1      1402    8    0    1
 -2       648       647       774      2750      3133      3134
 -1      1403    8    0    1
 -2       647       773       774      3131      3135      3133
 -1      1404    8    0    1
 -2       649       648       775      2753      3136      3137
 -1      1405    8    0    1
 -2       648       774       775      3134      3138      3136
 -1      1406    8    0    1
 -2       650       649       776      2756      3139      3140
 -1      1407    8    0    1
 -2       649       775       776      3137      3141      3139
 -1      1408    8    0    1
 -2       651       650       777      2759      3142      3143
 -1      1409    8    0    1
 -2       650       776       777      3140      3144      3142
 -1      1410    8    0    1
 -2       652       651       778      2762      3145      3146
 -1      1411    8    0    1
 -2       651       777       778      3143      3147      3145
 -1      1412    8    0    1
 -2       653       652       779      2765      3148      3149
 -1      1413    8    0    1
 -2       652       778       779      3146      3150      3148
 -1      1414    8    0    1
 -2       654       653       780      2768      3151      3152
 -1      1415    8    0    1
 -2       653       779       780      3149      3153      3151
 -1      1416    8    0    1
 -2       655       654       781      2771      3154      3155
 -1      1417    8    0    1
 -2       654       780       781      3152      3156      3154
 -1      1418    8    0    1
 -2       656       655       782      2774      3157      3158
 -1      1419    8    0    1
 -2       655       781       782      3155      3159      3157
 -1      1420    8    0    1
 -2       657       656       783      2777      3160      3161
 -1      1421    8    0    1
 -2       656       782       783      3158      3162      3160
 -1      1422    8    0    1
 -2       658       657       784      2780      3163      3164
 -1      1423    8    0    1
 -2       657       783       784      3161      3165      3163
 -1      1424    8    0    1
 -2       659       658       785      2783      3166      3167
 -1      1425    8    0    1
 -2       658       784       785      3164      3168      3166
 -1      1426    8    0    1
 -2       660       659       786      2786      3169      3170
 -1      1427    8    0    1
 -2       659       785       786      3167      3171      3169
 -1      1428    8    0    1
 -2       661       660       787      2789      3172      3173
 -1      1429    8    0    1
 -2       660       786       787      3170      3174      3172
 -1      1430    8    0    1
 -2       662       661       788      2792      3175      3176
 -1      1431    8    0    1
 -2       661       787       788      3173      3177      3175
 -1      1432    8    0    1
 -2       665       663       789      2800      3178      3179
 -1      1433    8    0    1
 -2       667       668       750      2808      3180      3181
 -1      1434    8    0    1
 -2       669       670       753      2814      3182      3183
 -1      1435    8    0    1
 -2       670       671       753      2817      3184      3182
 -1      1436    8    0    1
 -2       671       672       790      2820      3185      3186
 -1      1437    8    0    1
 -2       673       674       791      2826      3187      3188
 -1      1438    8    0    1
 -2       674       675       792      2829      3189      3190
 -1      1439    8    0    1
 -2       674       792       791      3190      3191      3187
 -1      1440    8    0    1
 -2       675       676       793      2832      3192      3193
 -1      1441    8    0    1
 -2       675       793       792      3193      3194      3189
 -1      1442    8    0    1
 -2       676       677       794      2835      3195      3196
 -1      1443    8    0    1
 -2       676       794       793      3196      3197      3192
 -1      1444    8    0    1
 -2       677       678       795      2838      3198      3199
 -1      1445    8    0    1
 -2       677       795       794      3199      3200      3195
 -1      1446    8    0    1
 -2       678       679       796      2841      3201      3202
 -1      1447    8    0    1
 -2       678       796       795      3202      3203      3198
 -1      1448    8    0    1
 -2       679       680       797      2844      3204      3205
 -1      1449    8    0    1
 -2       679       797       796      3205      3206      3201
 -1      1450    8    0    1
 -2       680       681       798      2847      3207      3208
 -1      1451    8    0    1
 -2       680       798       797      3208      3209      3204
 -1      1452    8    0    1
 -2       681       682       799      2850      3210      3211
 -1      1453    8    0    1
 -2       681       799       798      3211      3212      3207
 -1      1454    8    0    1
 -2       682       683       800      2853      3213      3214
 -1      1455    8    0    1
 -2       682       800       799      3214      3215      3210
 -1      1456    8    0    1
 -2       683       684       801      2856      3216      3217
 -1      1457    8    0    1
 -2       683       801       800      3217      3218      3213
 -1      1458    8    0    1
 -2       684       685       802      2859      3219      3220
 -1      1459    8    0    1
 -2       684       802       801      3220      3221      3216
 -1      1460    8    0    1
 -2       685       686       803      2862      3222      3223
 -1      1461    8    0    1
 -2       685       803       802      3223      3224      3219
 -1      1462    8    0    1
 -2       686       687       804      2865      3225      3226
 -1      1463    8    0    1
 -2       686       804       803      3226      3227      3222
 -1      1464    8    0    1
 -2       687       688       805      2868      3228      3229
 -1      1465    8    0    1
 -2       687       805       804      3229      3230      3225
 -1      1466    8    0    1
 -2       688       689       806      2871      3231      3232
 -1      1467    8    0    1
 -2       688       806       805      3232      3233      3228
 -1      1468    8    0    1
 -2       689       690       807      2874      3234      3235
 -1      1469    8    0    1
 -2       689       807       806      3235      3236      3231
 -1      1470    8    0    1
 -2       690       691       808      2877      3237      3238
 -1      1471    8    0    1
 -2       690       808       807      3238      3239      3234
 -1      1472    8    0    1
 -2       691       692       809      2880      3240      3241
 -1      1473    8    0    1
 -2       691       809       808      3241      3242      3237
 -1      1474    8    0    1
 -2       692       693       810      2883      3243      3244
 -1      1475    8    0    1
 -2       692       810       809      3244      3245      3240
 -1      1476    8    0    1
 -2       693       694       811      2886      3246      3247
 -1      1477    8    0    1
 -2       693       811       810      3247      3248      3243
 -1      1478    8    0    1
 -2       694       695       812      2889      3249      3250
 -1      1479    8    0    1
 -2       694       812       811      3250      3251      3246
 -1      1480    8    0    1
 -2       695       696       813      2892      3252      3253
 -1      1481    8    0    1
 -2       695       813       812      3253      3254      3249
 -1      1482    8    0    1
 -2       696       697       814      2895      3255      3256
 -1      1483    8    0    1
 -2       696       814       813      3256      3257      3252
 -1      1484    8    0    1
 -2       697       698       815      2898      3258      3259
 -1      1485    8    0    1
 -2       697       815       814      3259      3260      3255
 -1      1486    8    0    1
 -2       698       699       816      2901      3261      3262
 -1      1487    8    0    1
 -2       698       816       815      3262      3263      3258
 -1      1488    8    0    1
 -2       699       700       817      2904      3264      3265
 -1      1489    8    0    1
 -2       699       817       816      3265      3266      3261
 -1      1490    8    0    1
 -2       700       701       818      2907      3267      3268
 -1      1491    8    0    1
 -2       700       818       817      3268      3269      3264
 -1      1492    8    0    1
 -2       618       617       819      2662      3270      3271
 -1      1493    8    0    1
 -2       703       706       820      2921      3272      3273
 -1      1494    8    0    1
 -2       710       711       821      2936      3274      3275
 -1      1495    8    0    1
 -2       706       709       822      2930      3276      3277
 -1      1496    8    0    1
 -2       706       822       820      3277      3278      3272
 -1      1497    8    0    1
 -2       712       708       823      2939      3279      3280
 -1      1498    8    0    1
 -2       713       665       824      2942      3281      3282
 -1      1499    8    0    1
 -2       665       789       824      3179      3283      3281
 -1      1500    8    0    1
 -2       708       732       825      3033      3284      3285
 -1      1501    8    0    1
 -2       726       721       826      2979      3286      3287
 -1      1502    8    0    1
 -2       709       710       827      2933      3288      3289
 -1      1503    8    0    1
 -2       822       709       827      3276      3289      3290
 -1      1504    8    0    1
 -2       710       821       827      3275      3291      3288
 -1      1505    8    0    1
 -2       731       730       828      3040      3292      3293
 -1      1506    8    0    1
 -2       732       716       829      3035      3294      3295
 -1      1507    8    0    1
 -2       633       632       749      2705      3296      3297
 -1      1508    8    0    1
 -2       624       623       830      2677      3298      3299
 -1      1509    8    0    1
 -2       624       830       755      3299      3300      3078
 -1      1510    8    0    1
 -2       729       738       831      3048      3301      3302
 -1      1511    8    0    1
 -2       727       615       832      3071      3303      3304
 -1      1512    8    0    1
 -2       735       714       833      3030      3305      3306
 -1      1513    8    0    1
 -2       738       731       834      3072      3307      3308
 -1      1514    8    0    1
 -2       738       834       831      3308      3309      3301
 -1      1515    8    0    1
 -2       725       728       835      2984      3310      3311
 -1      1516    8    0    1
 -2       620       621       836      3041      3312      3313
 -1      1517    8    0    1
 -2       754       620       836      3076      3313      3314
 -1      1518    8    0    1
 -2       621       719       836      2961      3315      3312
 -1      1519    8    0    1
 -2       664       573       742      3034      3024      3316
 -1      1520    8    0    1
 -2       720       733       837      2995      3317      3318
 -1      1521    8    0    1
 -2       733       735       838      3031      3319      3320
 -1      1522    8    0    1
 -2       733       838       837      3320      3321      3317
 -1      1523    8    0    1
 -2       724       729       839      3047      3322      3323
 -1      1524    8    0    1
 -2       728       734       840      3032      3324      3325
 -1      1525    8    0    1
 -2       835       728       840      3310      3325      3326
 -1      1526    8    0    1
 -2       734       630       840      3089      3327      3324
 -1      1527    8    0    1
 -2       730       736       841      3003      3328      3329
 -1      1528    8    0    1
 -2       730       841       828      3329      3330      3292
 -1      1529    8    0    1
 -2       714       613       842      3046      3331      3332
 -1      1530    8    0    1
 -2       718       747       843      3073      3333      3334
 -1      1531    8    0    1
 -2       747       739       843      3053      3335      3333
 -1      1532    8    0    1
 -2       740       618       844      3012      3336      3337
 -1      1533    8    0    1
 -2       618       819       844      3271      3338      3336
 -1      1534    8    0    1
 -2       619       754       845      3077      3339      3340
 -1      1535    8    0    1
 -2       619       845       722      3340      3341      2970
 -1      1536    8    0    1
 -2       741       720       846      3021      3342      3343
 -1      1537    8    0    1
 -2       720       837       846      3318      3344      3342
 -1      1538    8    0    1
 -2       664       742       847      3316      3345      3346
 -1      1539    8    0    1
 -2       664       847       702      3346      3347      2911
 -1      1540    8    0    1
 -2       721       752       848      3069      3348      3349
 -1      1541    8    0    1
 -2       721       848       826      3349      3350      3286
 -1      1542    8    0    1
 -2       739       723       849      3011      3351      3352
 -1      1543    8    0    1
 -2       739       849       843      3352      3353      3335
 -1      1544    8    0    1
 -2       495       622       743      2700      3354      3025
 -1      1545    8    0    1
 -2       628       758       835      3087      3355      3356
 -1      1546    8    0    1
 -2       760       633       749      3092      3297      3357
 -1      1547    8    0    1
 -2       629       628       835      2692      3356      3358
 -1      1548    8    0    1
 -2       630       629       840      2695      3359      3327
 -1      1549    8    0    1
 -2       759       718       843      3090      3334      3360
 -1      1550    8    0    1
 -2       744       726       826      3029      3287      3361
 -1      1551    8    0    1
 -2       840       629       835      3359      3358      3326
 -1      1552    8    0    1
 -2       736       744       850      3028      3362      3363
 -1      1553    8    0    1
 -2       736       850       841      3363      3364      3328
 -1      1554    8    0    1
 -2       708       825       823      3285      3365      3279
 -1      1555    8    0    1
 -2       789       663       851      3178      3366      3367
 -1      1556    8    0    1
 -2       663       717       851      2954      3368      3366
 -1      1557    8    0    1
 -2       610       753       746      3075      3369      3045
 -1      1558    8    0    1
 -2       667       750       852      3181      3370      3371
 -1      1559    8    0    1
 -2       666       667       852      2805      3371      3372
 -1      1560    8    0    1
 -2       750       724       852      3062      3373      3370
 -1      1561    8    0    1
 -2       669       753       727      3183      3074      3374
 -1      1562    8    0    1
 -2       673       791       829      3188      3375      3376
 -1      1563    8    0    1
 -2       672       673       829      2823      3376      3377
 -1      1564    8    0    1
 -2       819       617       853      3270      3378      3379
 -1      1565    8    0    1
 -2       617       722       853      2969      3380      3378
 -1      1566    8    0    1
 -2       701       702       854      2910      3381      3382
 -1      1567    8    0    1
 -2       702       847       854      3347      3383      3381
 -1      1568    8    0    1
 -2       705       707       855      2924      3384      3385
 -1      1569    8    0    1
 -2       704       662       711      2916      3386      3039
 -1      1570    8    0    1
 -2       834       731       828      3307      3293      3387
 -1      1571    8    0    1
 -2       833       714       856      3305      3388      3389
 -1      1572    8    0    1
 -2       714       842       856      3332      3390      3388
 -1      1573    8    0    1
 -2       703       820       857      3273      3391      3392
 -1      1574    8    0    1
 -2       703       857       707      3392      3393      2925
 -1      1575    8    0    1
 -2       832       615       750      3303      3061      3394
 -1      1576    8    0    1
 -2       830       623       759      3298      3091      3395
 -1      1577    8    0    1
 -2       749       632       715      3296      3396      3058
 -1      1578    8    0    1
 -2       745       712       858      3038      3397      3398
 -1      1579    8    0    1
 -2       712       823       858      3280      3399      3397
 -1      1580    8    0    1
 -2       825       732       829      3284      3295      3400
 -1      1581    8    0    1
 -2       666       852       859      3372      3401      3402
 -1      1582    8    0    1
 -2       821       711       788      3274      3403      3404
 -1      1583    8    0    1
 -2       613       745       842      3037      3405      3331
 -1      1584    8    0    1
 -2       622       737       743      3042      3406      3354
 -1      1585    8    0    1
 -2       671       790       746      3186      3407      3408
 -1      1586    8    0    1
 -2       749       612       760      3059      3409      3357
 -1      1587    8    0    1
 -2       711       662       788      3386      3176      3403
 -1      1588    8    0    1
 -2       849       723       860      3351      3410      3411
 -1      1589    8    0    1
 -2       723       751       860      3066      3412      3410
 -1      1590    8    0    1
 -2       852       724       839      3373      3323      3413
 -1      1591    8    0    1
 -2       672       829       790      3377      3414      3185
 -1      1592    8    0    1
 -2       669       727       832      3374      3304      3415
 -1      1593    8    0    1
 -2       666       859       717      3402      3416      2955
 -1      1594    8    0    1
 -2       668       669       832      2811      3415      3417
 -1      1595    8    0    1
 -2       668       832       750      3417      3394      3180
 -1      1596    8    0    1
 -2       719       713       861      2962      3418      3419
 -1      1597    8    0    1
 -2       836       719       861      3315      3419      3420
 -1      1598    8    0    1
 -2       713       824       861      3282      3421      3418
 -1      1599    8    0    1
 -2       742       705       862      3022      3422      3423
 -1      1600    8    0    1
 -2       847       742       862      3345      3423      3424
 -1      1601    8    0    1
 -2       705       855       862      3385      3425      3422
 -1      1602    8    0    1
 -2       725       835       752      3311      3426      3070
 -1      1603    8    0    1
 -2       632       743       737      3063      3406      3427
 -1      1604    8    0    1
 -2       735       833       838      3306      3428      3319
 -1      1605    8    0    1
 -2       729       831       839      3302      3429      3322
 -1      1606    8    0    1
 -2       632       737       715      3427      3006      3396
 -1      1607    8    0    1
 -2       671       746       753      3408      3369      3184
 -1      1608    8    0    1
 -2       614       746       790      3044      3407      3430
 -1      1609    8    0    1
 -2       828       841       863      3330      3431      3432
 -1      1610    8    0    1
 -2       835       758       752      3355      3433      3426
 -1      1611    8    0    1
 -2       757       756       864      3085      3434      3435
 -1      1612    8    0    1
 -2       758       757       848      3088      3436      3437
 -1      1613    8    0    1
 -2       763       762       865      3102      3438      3439
 -1      1614    8    0    1
 -2       764       763       866      3105      3440      3441
 -1      1615    8    0    1
 -2       763       865       866      3439      3442      3440
 -1      1616    8    0    1
 -2       765       764       867      3108      3443      3444
 -1      1617    8    0    1
 -2       764       866       867      3441      3445      3443
 -1      1618    8    0    1
 -2       766       765       868      3111      3446      3447
 -1      1619    8    0    1
 -2       765       867       868      3444      3448      3446
 -1      1620    8    0    1
 -2       767       766       869      3114      3449      3450
 -1      1621    8    0    1
 -2       766       868       869      3447      3451      3449
 -1      1622    8    0    1
 -2       768       767       870      3117      3452      3453
 -1      1623    8    0    1
 -2       767       869       870      3450      3454      3452
 -1      1624    8    0    1
 -2       769       768       871      3120      3455      3456
 -1      1625    8    0    1
 -2       768       870       871      3453      3457      3455
 -1      1626    8    0    1
 -2       770       769       872      3123      3458      3459
 -1      1627    8    0    1
 -2       769       871       872      3456      3460      3458
 -1      1628    8    0    1
 -2       771       770       873      3126      3461      3462
 -1      1629    8    0    1
 -2       770       872       873      3459      3463      3461
 -1      1630    8    0    1
 -2       772       771       874      3129      3464      3465
 -1      1631    8    0    1
 -2       771       873       874      3462      3466      3464
 -1      1632    8    0    1
 -2       773       772       875      3132      3467      3468
 -1      1633    8    0    1
 -2       772       874       875      3465      3469      3467
 -1      1634    8    0    1
 -2       774       773       876      3135      3470      3471
 -1      1635    8    0    1
 -2       773       875       876      3468      3472      3470
 -1      1636    8    0    1
 -2       775       774       877      3138      3473      3474
 -1      1637    8    0    1
 -2       774       876       877      3471      3475      3473
 -1      1638    8    0    1
 -2       776       775       878      3141      3476      3477
 -1      1639    8    0    1
 -2       775       877       878      3474      3478      3476
 -1      1640    8    0    1
 -2       777       776       879      3144      3479      3480
 -1      1641    8    0    1
 -2       776       878       879      3477      3481      3479
 -1      1642    8    0    1
 -2       778       777       880      3147      3482      3483
 -1      1643    8    0    1
 -2       777       879       880      3480      3484      3482
 -1      1644    8    0    1
 -2       779       778       881      3150      3485      3486
 -1      1645    8    0    1
 -2       778       880       881      3483      3487      3485
 -1      1646    8    0    1
 -2       780       779       882      3153      3488      3489
 -1      1647    8    0    1
 -2       779       881       882      3486      3490      3488
 -1      1648    8    0    1
 -2       781       780       883      3156      3491      3492
 -1      1649    8    0    1
 -2       780       882       883      3489      3493      3491
 -1      1650    8    0    1
 -2       782       781       884      3159      3494      3495
 -1      1651    8    0    1
 -2       781       883       884      3492      3496      3494
 -1      1652    8    0    1
 -2       783       782       885      3162      3497      3498
 -1      1653    8    0    1
 -2       782       884       885      3495      3499      3497
 -1      1654    8    0    1
 -2       784       783       886      3165      3500      3501
 -1      1655    8    0    1
 -2       783       885       886      3498      3502      3500
 -1      1656    8    0    1
 -2       785       784       887      3168      3503      3504
 -1      1657    8    0    1
 -2       784       886       887      3501      3505      3503
 -1      1658    8    0    1
 -2       786       785       888      3171      3506      3507
 -1      1659    8    0    1
 -2       785       887       888      3504      3508      3506
 -1      1660    8    0    1
 -2       787       786       889      3174      3509      3510
 -1      1661    8    0    1
 -2       786       888       889      3507      3511      3509
 -1      1662    8    0    1
 -2       788       787       890      3177      3512      3513
 -1      1663    8    0    1
 -2       821       788       890      3404      3513      3514
 -1      1664    8    0    1
 -2       787       889       890      3510      3515      3512
 -1      1665    8    0    1
 -2       829       791       825      3375      3516      3400
 -1      1666    8    0    1
 -2       791       792       825      3191      3517      3516
 -1      1667    8    0    1
 -2       794       795       891      3200      3518      3519
 -1      1668    8    0    1
 -2       795       796       892      3203      3520      3521
 -1      1669    8    0    1
 -2       795       892       891      3521      3522      3518
 -1      1670    8    0    1
 -2       796       797       893      3206      3523      3524
 -1      1671    8    0    1
 -2       796       893       892      3524      3525      3520
 -1      1672    8    0    1
 -2       797       798       894      3209      3526      3527
 -1      1673    8    0    1
 -2       797       894       893      3527      3528      3523
 -1      1674    8    0    1
 -2       798       799       895      3212      3529      3530
 -1      1675    8    0    1
 -2       798       895       894      3530      3531      3526
 -1      1676    8    0    1
 -2       799       800       896      3215      3532      3533
 -1      1677    8    0    1
 -2       799       896       895      3533      3534      3529
 -1      1678    8    0    1
 -2       800       801       897      3218      3535      3536
 -1      1679    8    0    1
 -2       800       897       896      3536      3537      3532
 -1      1680    8    0    1
 -2       801       802       898      3221      3538      3539
 -1      1681    8    0    1
 -2       801       898       897      3539      3540      3535
 -1      1682    8    0    1
 -2       802       803       899      3224      3541      3542
 -1      1683    8    0    1
 -2       802       899       898      3542      3543      3538
 -1      1684    8    0    1
 -2       803       804       900      3227      3544      3545
 -1      1685    8    0    1
 -2       803       900       899      3545      3546      3541
 -1      1686    8    0    1
 -2       804       805       901      3230      3547      3548
 -1      1687    8    0    1
 -2       804       901       900      3548      3549      3544
 -1      1688    8    0    1
 -2       805       806       902      3233      3550      3551
 -1      1689    8    0    1
 -2       805       902       901      3551      3552      3547
 -1      1690    8    0    1
 -2       806       807       903      3236      3553      3554
 -1      1691    8    0    1
 -2       806       903       902      3554      3555      3550
 -1      1692    8    0    1
 -2       807       808       904      3239      3556      3557
 -1      1693    8    0    1
 -2       807       904       903      3557      3558      3553
 -1      1694    8    0    1
 -2       808       809       905      3242      3559      3560
 -1      1695    8    0    1
 -2       808       905       904      3560      3561      3556
 -1      1696    8    0    1
 -2       809       810       906      3245      3562      3563
 -1      1697    8    0    1
 -2       809       906       905      3563      3564      3559
 -1      1698    8    0    1
 -2       810       811       907      3248      3565      3566
 -1      1699    8    0    1
 -2       810       907       906      3566      3567      3562
 -1      1700    8    0    1
 -2       811       812       908      3251      3568      3569
 -1      1701    8    0    1
 -2       811       908       907      3569      3570      3565
 -1      1702    8    0    1
 -2       812       813       909      3254      3571      3572
 -1      1703    8    0    1
 -2       812       909       908      3572      3573      3568
 -1      1704    8    0    1
 -2       813       814       910      3257      3574      3575
 -1      1705    8    0    1
 -2       813       910       909      3575      3576      3571
 -1      1706    8    0    1
 -2       814       815       911      3260      3577      3578
 -1      1707    8    0    1
 -2       814       911       910      3578      3579      3574
 -1      1708    8    0    1
 -2       815       816       912      3263      3580      3581
 -1      1709    8    0    1
 -2       815       912       911      3581      3582      3577
 -1      1710    8    0    1
 -2       816       817       913      3266      3583      3584
 -1      1711    8    0    1
 -2       816       913       912      3584      3585      3580
 -1      1712    8    0    1
 -2       817       818       914      3269      3586      3587
 -1      1713    8    0    1
 -2       817       914       913      3587      3588      3583
 -1      1714    8    0    1
 -2       818       701       854      3267      3382      3589
 -1      1715    8    0    1
 -2       855       707       857      3384      3393      3590
 -1      1716    8    0    1
 -2       820       822       915      3278      3591      3592
 -1      1717    8    0    1
 -2       834       828       916      3387      3593      3594
 -1      1718    8    0    1
 -2       828       863       916      3432      3595      3593
 -1      1719    8    0    1
 -2       843       849       917      3353      3596      3597
 -1      1720    8    0    1
 -2       843       917       759      3597      3598      3360
 -1      1721    8    0    1
 -2       824       789       918      3283      3599      3600
 -1      1722    8    0    1
 -2       859       852       839      3401      3413      3601
 -1      1723    8    0    1
 -2       842       745       919      3405      3602      3603
 -1      1724    8    0    1
 -2       825       792       920      3517      3604      3605
 -1      1725    8    0    1
 -2       823       825       920      3365      3605      3606
 -1      1726    8    0    1
 -2       792       793       920      3194      3607      3604
 -1      1727    8    0    1
 -2       793       794       921      3197      3608      3609
 -1      1728    8    0    1
 -2       920       793       921      3607      3609      3610
 -1      1729    8    0    1
 -2       794       891       921      3519      3611      3608
 -1      1730    8    0    1
 -2       760       612       741      3409      3020      3612
 -1      1731    8    0    1
 -2       829       716       748      3294      3055      3613
 -1      1732    8    0    1
 -2       755       830       922      3300      3614      3615
 -1      1733    8    0    1
 -2       751       740       923      3067      3616      3617
 -1      1734    8    0    1
 -2       860       751       923      3412      3617      3618
 -1      1735    8    0    1
 -2       740       844       923      3337      3619      3616
 -1      1736    8    0    1
 -2       761       760       846      3096      3620      3621
 -1      1737    8    0    1
 -2       756       755       924      3082      3622      3623
 -1      1738    8    0    1
 -2       756       924       864      3623      3624      3434
 -1      1739    8    0    1
 -2       717       859       851      3416      3625      3368
 -1      1740    8    0    1
 -2       831       834       925      3309      3626      3627
 -1      1741    8    0    1
 -2       839       831       926      3429      3628      3629
 -1      1742    8    0    1
 -2       859       839       926      3601      3629      3630
 -1      1743    8    0    1
 -2       831       925       926      3627      3631      3628
 -1      1744    8    0    1
 -2       837       838       927      3321      3632      3633
 -1      1745    8    0    1
 -2       838       833       928      3428      3634      3635
 -1      1746    8    0    1
 -2       838       928       927      3635      3636      3632
 -1      1747    8    0    1
 -2       744       826       929      3361      3637      3638
 -1      1748    8    0    1
 -2       830       759       930      3395      3639      3640
 -1      1749    8    0    1
 -2       922       830       930      3614      3640      3641
 -1      1750    8    0    1
 -2       759       917       930      3598      3642      3639
 -1      1751    8    0    1
 -2       752       758       848      3433      3437      3348
 -1      1752    8    0    1
 -2       760       741       846      3612      3343      3620
 -1      1753    8    0    1
 -2       818       854       914      3589      3643      3586
 -1      1754    8    0    1
 -2       845       754       931      3339      3644      3645
 -1      1755    8    0    1
 -2       846       837       932      3344      3646      3647
 -1      1756    8    0    1
 -2       761       846       932      3621      3647      3648
 -1      1757    8    0    1
 -2       837       927       932      3633      3649      3646
 -1      1758    8    0    1
 -2       851       859       926      3625      3630      3650
 -1      1759    8    0    1
 -2       914       854       933      3643      3651      3652
 -1      1760    8    0    1
 -2       762       761       932      3099      3648      3653
 -1      1761    8    0    1
 -2       821       890       934      3514      3654      3655
 -1      1762    8    0    1
 -2       821       934       827      3655      3656      3291
 -1      1763    8    0    1
 -2       862       855       933      3425      3657      3658
 -1      1764    8    0    1
 -2       614       790       748      3430      3659      3056
 -1      1765    8    0    1
 -2       853       722       845      3380      3341      3660
 -1      1766    8    0    1
 -2       854       847       933      3383      3661      3651
 -1      1767    8    0    1
 -2       826       848       935      3350      3662      3663
 -1      1768    8    0    1
 -2       856       842       936      3390      3664      3665
 -1      1769    8    0    1
 -2       842       919       936      3603      3666      3664
 -1      1770    8    0    1
 -2       857       820       937      3391      3667      3668
 -1      1771    8    0    1
 -2       820       915       937      3592      3669      3667
 -1      1772    8    0    1
 -2       833       856       938      3389      3670      3671
 -1      1773    8    0    1
 -2       833       938       928      3671      3672      3634
 -1      1774    8    0    1
 -2       861       824       939      3421      3673      3674
 -1      1775    8    0    1
 -2       824       918       939      3600      3675      3673
 -1      1776    8    0    1
 -2       834       916       925      3594      3676      3626
 -1      1777    8    0    1
 -2       789       851       940      3367      3677      3678
 -1      1778    8    0    1
 -2       789       940       918      3678      3679      3599
 -1      1779    8    0    1
 -2       849       860       941      3411      3680      3681
 -1      1780    8    0    1
 -2       849       941       917      3681      3682      3596
 -1      1781    8    0    1
 -2       744       929       850      3638      3683      3362
 -1      1782    8    0    1
 -2       919       745       858      3602      3398      3684
 -1      1783    8    0    1
 -2       823       920       942      3606      3685      3686
 -1      1784    8    0    1
 -2       858       823       942      3399      3686      3687
 -1      1785    8    0    1
 -2       920       921       942      3610      3688      3685
 -1      1786    8    0    1
 -2       822       827       943      3290      3689      3690
 -1      1787    8    0    1
 -2       915       822       943      3591      3690      3691
 -1      1788    8    0    1
 -2       827       934       943      3656      3692      3689
 -1      1789    8    0    1
 -2       924       755       922      3622      3615      3693
 -1      1790    8    0    1
 -2       855       857       944      3590      3694      3695
 -1      1791    8    0    1
 -2       857       937       944      3668      3696      3694
 -1      1792    8    0    1
 -2       819       853       945      3379      3697      3698
 -1      1793    8    0    1
 -2       841       850       946      3364      3699      3700
 -1      1794    8    0    1
 -2       841       946       863      3700      3701      3431
 -1      1795    8    0    1
 -2       865       762       932      3438      3653      3702
 -1      1796    8    0    1
 -2       929       826       935      3637      3663      3703
 -1      1797    8    0    1
 -2       844       819       947      3338      3704      3705
 -1      1798    8    0    1
 -2       819       945       947      3698      3706      3704
 -1      1799    8    0    1
 -2       855       944       933      3695      3707      3657
 -1      1800    8    0    1
 -2       924       922       948      3693      3708      3709
 -1      1801    8    0    1
 -2       851       926       940      3650      3710      3677
 -1      1802    8    0    1
 -2       867       866       949      3445      3711      3712
 -1      1803    8    0    1
 -2       868       867       950      3448      3713      3714
 -1      1804    8    0    1
 -2       867       949       950      3712      3715      3713
 -1      1805    8    0    1
 -2       869       868       951      3451      3716      3717
 -1      1806    8    0    1
 -2       868       950       951      3714      3718      3716
 -1      1807    8    0    1
 -2       870       869       952      3454      3719      3720
 -1      1808    8    0    1
 -2       869       951       952      3717      3721      3719
 -1      1809    8    0    1
 -2       871       870       953      3457      3722      3723
 -1      1810    8    0    1
 -2       870       952       953      3720      3724      3722
 -1      1811    8    0    1
 -2       872       871       954      3460      3725      3726
 -1      1812    8    0    1
 -2       871       953       954      3723      3727      3725
 -1      1813    8    0    1
 -2       873       872       955      3463      3728      3729
 -1      1814    8    0    1
 -2       872       954       955      3726      3730      3728
 -1      1815    8    0    1
 -2       874       873       956      3466      3731      3732
 -1      1816    8    0    1
 -2       873       955       956      3729      3733      3731
 -1      1817    8    0    1
 -2       875       874       957      3469      3734      3735
 -1      1818    8    0    1
 -2       874       956       957      3732      3736      3734
 -1      1819    8    0    1
 -2       876       875       958      3472      3737      3738
 -1      1820    8    0    1
 -2       875       957       958      3735      3739      3737
 -1      1821    8    0    1
 -2       877       876       959      3475      3740      3741
 -1      1822    8    0    1
 -2       876       958       959      3738      3742      3740
 -1      1823    8    0    1
 -2       878       877       960      3478      3743      3744
 -1      1824    8    0    1
 -2       877       959       960      3741      3745      3743
 -1      1825    8    0    1
 -2       879       878       961      3481      3746      3747
 -1      1826    8    0    1
 -2       878       960       961      3744      3748      3746
 -1      1827    8    0    1
 -2       880       879       962      3484      3749      3750
 -1      1828    8    0    1
 -2       879       961       962      3747      3751      3749
 -1      1829    8    0    1
 -2       881       880       963      3487      3752      3753
 -1      1830    8    0    1
 -2       880       962       963      3750      3754      3752
 -1      1831    8    0    1
 -2       882       881       964      3490      3755      3756
 -1      1832    8    0    1
 -2       881       963       964      3753      3757      3755
 -1      1833    8    0    1
 -2       883       882       965      3493      3758      3759
 -1      1834    8    0    1
 -2       882       964       965      3756      3760      3758
 -1      1835    8    0    1
 -2       884       883       966      3496      3761      3762
 -1      1836    8    0    1
 -2       883       965       966      3759      3763      3761
 -1      1837    8    0    1
 -2       885       884       967      3499      3764      3765
 -1      1838    8    0    1
 -2       884       966       967      3762      3766      3764
 -1      1839    8    0    1
 -2       886       885       968      3502      3767      3768
 -1      1840    8    0    1
 -2       885       967       968      3765      3769      3767
 -1      1841    8    0    1
 -2       887       886       969      3505      3770      3771
 -1      1842    8    0    1
 -2       886       968       969      3768      3772      3770
 -1      1843    8    0    1
 -2       888       887       970      3508      3773      3774
 -1      1844    8    0    1
 -2       887       969       970      3771      3775      3773
 -1      1845    8    0    1
 -2       889       888       971      3511      3776      3777
 -1      1846    8    0    1
 -2       888       970       971      3774      3778      3776
 -1      1847    8    0    1
 -2       890       889       972      3515      3779      3780
 -1      1848    8    0    1
 -2       934       890       972      3654      3780      3781
 -1      1849    8    0    1
 -2       889       971       972      3777      3782      3779
 -1      1850    8    0    1
 -2       893       894       973      3528      3783      3784
 -1      1851    8    0    1
 -2       892       893       974      3525      3785      3786
 -1      1852    8    0    1
 -2       893       973       974      3784      3787      3785
 -1      1853    8    0    1
 -2       891       892       975      3522      3788      3789
 -1      1854    8    0    1
 -2       892       974       975      3786      3790      3788
 -1      1855    8    0    1
 -2       894       895       976      3531      3791      3792
 -1      1856    8    0    1
 -2       894       976       973      3792      3793      3783
 -1      1857    8    0    1
 -2       895       896       977      3534      3794      3795
 -1      1858    8    0    1
 -2       895       977       976      3795      3796      3791
 -1      1859    8    0    1
 -2       896       897       978      3537      3797      3798
 -1      1860    8    0    1
 -2       896       978       977      3798      3799      3794
 -1      1861    8    0    1
 -2       897       898       979      3540      3800      3801
 -1      1862    8    0    1
 -2       897       979       978      3801      3802      3797
 -1      1863    8    0    1
 -2       898       899       980      3543      3803      3804
 -1      1864    8    0    1
 -2       898       980       979      3804      3805      3800
 -1      1865    8    0    1
 -2       899       900       981      3546      3806      3807
 -1      1866    8    0    1
 -2       899       981       980      3807      3808      3803
 -1      1867    8    0    1
 -2       900       901       982      3549      3809      3810
 -1      1868    8    0    1
 -2       900       982       981      3810      3811      3806
 -1      1869    8    0    1
 -2       901       902       983      3552      3812      3813
 -1      1870    8    0    1
 -2       901       983       982      3813      3814      3809
 -1      1871    8    0    1
 -2       902       903       984      3555      3815      3816
 -1      1872    8    0    1
 -2       902       984       983      3816      3817      3812
 -1      1873    8    0    1
 -2       903       904       985      3558      3818      3819
 -1      1874    8    0    1
 -2       903       985       984      3819      3820      3815
 -1      1875    8    0    1
 -2       904       905       986      3561      3821      3822
 -1      1876    8    0    1
 -2       904       986       985      3822      3823      3818
 -1      1877    8    0    1
 -2       905       906       987      3564      3824      3825
 -1      1878    8    0    1
 -2       905       987       986      3825      3826      3821
 -1      1879    8    0    1
 -2       906       907       988      3567      3827      3828
 -1      1880    8    0    1
 -2       906       988       987      3828      3829      3824
 -1      1881    8    0    1
 -2       907       908       989      3570      3830      3831
 -1      1882    8    0    1
 -2       907       989       988      3831      3832      3827
 -1      1883    8    0    1
 -2       908       909       990      3573      3833      3834
 -1      1884    8    0    1
 -2       908       990       989      3834      3835      3830
 -1      1885    8    0    1
 -2       909       910       991      3576      3836      3837
 -1      1886    8    0    1
 -2       909       991       990      3837      3838      3833
 -1      1887    8    0    1
 -2       910       911       992      3579      3839      3840
 -1      1888    8    0    1
 -2       910       992       991      3840      3841      3836
 -1      1889    8    0    1
 -2       911       912       993      3582      3842      3843
 -1      1890    8    0    1
 -2       911       993       992      3843      3844      3839
 -1      1891    8    0    1
 -2       912       913       994      3585      3845      3846
 -1      1892    8    0    1
 -2       912       994       993      3846      3847      3842
 -1      1893    8    0    1
 -2       913       914       995      3588      3848      3849
 -1      1894    8    0    1
 -2       913       995       994      3849      3850      3845
 -1      1895    8    0    1
 -2       931       754       861      3644      3851      3852
 -1      1896    8    0    1
 -2       933       847       862      3661      3424      3658
 -1      1897    8    0    1
 -2       916       863       996      3595      3853      3854
 -1      1898    8    0    1
 -2       850       929       997      3683      3855      3856
 -1      1899    8    0    1
 -2       850       997       946      3856      3857      3699
 -1      1900    8    0    1
 -2       757       864       848      3435      3858      3436
 -1      1901    8    0    1
 -2       919       858       998      3684      3859      3860
 -1      1902    8    0    1
 -2       858       942       998      3687      3861      3859
 -1      1903    8    0    1
 -2       932       927       865      3649      3862      3702
 -1      1904    8    0    1
 -2       933       944       999      3707      3863      3864
 -1      1905    8    0    1
 -2       926       925       940      3631      3865      3710
 -1      1906    8    0    1
 -2       914       933       995      3652      3866      3848
 -1      1907    8    0    1
 -2       754       836       861      3314      3420      3851
 -1      1908    8    0    1
 -2       866       865      1000      3442      3867      3868
 -1      1909    8    0    1
 -2       866      1000       949      3868      3869      3711
 -1      1910    8    0    1
 -2       925       916      1001      3676      3870      3871
 -1      1911    8    0    1
 -2       927       928      1000      3636      3872      3873
 -1      1912    8    0    1
 -2       853       845      1002      3660      3874      3875
 -1      1913    8    0    1
 -2       945       853      1002      3697      3875      3876
 -1      1914    8    0    1
 -2       845       931      1002      3645      3877      3874
 -1      1915    8    0    1
 -2       931       861       939      3852      3674      3878
 -1      1916    8    0    1
 -2       865       927      1000      3862      3873      3867
 -1      1917    8    0    1
 -2       995       933       999      3866      3864      3879
 -1      1918    8    0    1
 -2       844       947      1003      3705      3880      3881
 -1      1919    8    0    1
 -2       929       935      1004      3703      3882      3883
 -1      1920    8    0    1
 -2       925      1001       940      3871      3884      3865
 -1      1921    8    0    1
 -2       924       948      1004      3709      3885      3886
 -1      1922    8    0    1
 -2       936       919      1005      3666      3887      3888
 -1      1923    8    0    1
 -2       919       998      1005      3860      3889      3887
 -1      1924    8    0    1
 -2      1002       931      1006      3877      3890      3891
 -1      1925    8    0    1
 -2       931       939      1006      3878      3892      3890
 -1      1926    8    0    1
 -2       930       917      1007      3642      3893      3894
 -1      1927    8    0    1
 -2       917       941      1007      3682      3895      3893
 -1      1928    8    0    1
 -2       997       929      1004      3855      3883      3896
 -1      1929    8    0    1
 -2       856       936      1008      3665      3897      3898
 -1      1930    8    0    1
 -2       856      1008       938      3898      3899      3670
 -1      1931    8    0    1
 -2       937       915      1009      3669      3900      3901
 -1      1932    8    0    1
 -2       939       918      1006      3675      3902      3892
 -1      1933    8    0    1
 -2       941       860      1010      3680      3903      3904
 -1      1934    8    0    1
 -2      1007       941      1010      3895      3904      3905
 -1      1935    8    0    1
 -2       860       923      1010      3618      3906      3903
 -1      1936    8    0    1
 -2       916       996      1001      3854      3907      3870
 -1      1937    8    0    1
 -2       996       863      1011      3853      3908      3909
 -1      1938    8    0    1
 -2       863       946      1011      3701      3910      3908
 -1      1939    8    0    1
 -2       928       938      1000      3672      3911      3872
 -1      1940    8    0    1
 -2       915       943      1012      3691      3912      3913
 -1      1941    8    0    1
 -2       915      1012      1009      3913      3914      3900
 -1      1942    8    0    1
 -2       923       844      1003      3619      3881      3915
 -1      1943    8    0    1
 -2       944       937      1013      3696      3916      3917
 -1      1944    8    0    1
 -2       937      1009      1013      3901      3918      3916
 -1      1945    8    0    1
 -2       999       944      1013      3863      3917      3919
 -1      1946    8    0    1
 -2       864       924      1004      3624      3886      3920
 -1      1947    8    0    1
 -2       918       940      1014      3679      3921      3922
 -1      1948    8    0    1
 -2       918      1014      1006      3922      3923      3902
 -1      1949    8    0    1
 -2       921       891      1015      3611      3924      3925
 -1      1950    8    0    1
 -2       942       921      1015      3688      3925      3926
 -1      1951    8    0    1
 -2       891       975      1015      3789      3927      3924
 -1      1952    8    0    1
 -2       945      1002      1016      3876      3928      3929
 -1      1953    8    0    1
 -2      1002      1006      1016      3891      3930      3928
 -1      1954    8    0    1
 -2       947       945      1017      3706      3931      3932
 -1      1955    8    0    1
 -2       945      1016      1017      3929      3933      3931
 -1      1956    8    0    1
 -2       922       930      1018      3641      3934      3935
 -1      1957    8    0    1
 -2       948       922      1018      3708      3935      3936
 -1      1958    8    0    1
 -2       930      1007      1018      3894      3937      3934
 -1      1959    8    0    1
 -2      1003       947      1019      3880      3938      3939
 -1      1960    8    0    1
 -2       947      1017      1019      3932      3940      3938
 -1      1961    8    0    1
 -2       940      1001      1014      3884      3941      3921
 -1      1962    8    0    1
 -2      1004       948      1020      3885      3942      3943
 -1      1963    8    0    1
 -2      1004      1020       997      3943      3944      3896
 -1      1964    8    0    1
 -2       976       977      1021      3796      3945      3946
 -1      1965    8    0    1
 -2       951       950      1022      3718      3947      3948
 -1      1966    8    0    1
 -2       952       951      1023      3721      3949      3950
 -1      1967    8    0    1
 -2       951      1022      1023      3948      3951      3949
 -1      1968    8    0    1
 -2       953       952      1024      3724      3952      3953
 -1      1969    8    0    1
 -2       952      1023      1024      3950      3954      3952
 -1      1970    8    0    1
 -2       954       953      1025      3727      3955      3956
 -1      1971    8    0    1
 -2       953      1024      1025      3953      3957      3955
 -1      1972    8    0    1
 -2       955       954      1026      3730      3958      3959
 -1      1973    8    0    1
 -2       954      1025      1026      3956      3960      3958
 -1      1974    8    0    1
 -2       956       955      1027      3733      3961      3962
 -1      1975    8    0    1
 -2       955      1026      1027      3959      3963      3961
 -1      1976    8    0    1
 -2       957       956      1028      3736      3964      3965
 -1      1977    8    0    1
 -2       956      1027      1028      3962      3966      3964
 -1      1978    8    0    1
 -2       958       957      1029      3739      3967      3968
 -1      1979    8    0    1
 -2       957      1028      1029      3965      3969      3967
 -1      1980    8    0    1
 -2       959       958      1030      3742      3970      3971
 -1      1981    8    0    1
 -2       958      1029      1030      3968      3972      3970
 -1      1982    8    0    1
 -2       960       959      1031      3745      3973      3974
 -1      1983    8    0    1
 -2       959      1030      1031      3971      3975      3973
 -1      1984    8    0    1
 -2       961       960      1032      3748      3976      3977
 -1      1985    8    0    1
 -2       960      1031      1032      3974      3978      3976
 -1      1986    8    0    1
 -2       962       961      1033      3751      3979      3980
 -1      1987    8    0    1
 -2       961      1032      1033      3977      3981      3979
 -1      1988    8    0    1
 -2       963       962      1034      3754      3982      3983
 -1      1989    8    0    1
 -2       962      1033      1034      3980      3984      3982
 -1      1990    8    0    1
 -2       964       963      1035      3757      3985      3986
 -1      1991    8    0    1
 -2       963      1034      1035      3983      3987      3985
 -1      1992    8    0    1
 -2       965       964      1036      3760      3988      3989
 -1      1993    8    0    1
 -2       964      1035      1036      3986      3990      3988
 -1      1994    8    0    1
 -2       966       965      1037      3763      3991      3992
 -1      1995    8    0    1
 -2       965      1036      1037      3989      3993      3991
 -1      1996    8    0    1
 -2       967       966      1038      3766      3994      3995
 -1      1997    8    0    1
 -2       966      1037      1038      3992      3996      3994
 -1      1998    8    0    1
 -2       968       967      1039      3769      3997      3998
 -1      1999    8    0    1
 -2       967      1038      1039      3995      3999      3997
 -1      2000    8    0    1
 -2       969       968      1040      3772      4000      4001
 -1      2001    8    0    1
 -2       968      1039      1040      3998      4002      4000
 -1      2002    8    0    1
 -2       970       969      1041      3775      4003      4004
 -1      2003    8    0    1
 -2       969      1040      1041      4001      4005      4003
 -1      2004    8    0    1
 -2       971       970      1042      3778      4006      4007
 -1      2005    8    0    1
 -2       970      1041      1042      4004      4008      4006
 -1      2006    8    0    1
 -2       974       973      1043      3787      4009      4010
 -1      2007    8    0    1
 -2       748       790       829      3659      3414      3613
 -1      2008    8    0    1
 -2       973       976      1044      3793      4011      4012
 -1      2009    8    0    1
 -2       976      1021      1044      3946      4013      4011
 -1      2010    8    0    1
 -2       975       974      1045      3790      4014      4015
 -1      2011    8    0    1
 -2       974      1043      1045      4010      4016      4014
 -1      2012    8    0    1
 -2       977       978      1046      3799      4017      4018
 -1      2013    8    0    1
 -2       977      1046      1021      4018      4019      3945
 -1      2014    8    0    1
 -2       978       979      1047      3802      4020      4021
 -1      2015    8    0    1
 -2       978      1047      1046      4021      4022      4017
 -1      2016    8    0    1
 -2       979       980      1048      3805      4023      4024
 -1      2017    8    0    1
 -2       979      1048      1047      4024      4025      4020
 -1      2018    8    0    1
 -2       980       981      1049      3808      4026      4027
 -1      2019    8    0    1
 -2       980      1049      1048      4027      4028      4023
 -1      2020    8    0    1
 -2       981       982      1050      3811      4029      4030
 -1      2021    8    0    1
 -2       981      1050      1049      4030      4031      4026
 -1      2022    8    0    1
 -2       982       983      1051      3814      4032      4033
 -1      2023    8    0    1
 -2       982      1051      1050      4033      4034      4029
 -1      2024    8    0    1
 -2       983       984      1052      3817      4035      4036
 -1      2025    8    0    1
 -2       983      1052      1051      4036      4037      4032
 -1      2026    8    0    1
 -2       984       985      1053      3820      4038      4039
 -1      2027    8    0    1
 -2       984      1053      1052      4039      4040      4035
 -1      2028    8    0    1
 -2       985       986      1054      3823      4041      4042
 -1      2029    8    0    1
 -2       985      1054      1053      4042      4043      4038
 -1      2030    8    0    1
 -2       986       987      1055      3826      4044      4045
 -1      2031    8    0    1
 -2       986      1055      1054      4045      4046      4041
 -1      2032    8    0    1
 -2       987       988      1056      3829      4047      4048
 -1      2033    8    0    1
 -2       987      1056      1055      4048      4049      4044
 -1      2034    8    0    1
 -2       988       989      1057      3832      4050      4051
 -1      2035    8    0    1
 -2       988      1057      1056      4051      4052      4047
 -1      2036    8    0    1
 -2       989       990      1058      3835      4053      4054
 -1      2037    8    0    1
 -2       989      1058      1057      4054      4055      4050
 -1      2038    8    0    1
 -2       990       991      1059      3838      4056      4057
 -1      2039    8    0    1
 -2       990      1059      1058      4057      4058      4053
 -1      2040    8    0    1
 -2       991       992      1060      3841      4059      4060
 -1      2041    8    0    1
 -2       991      1060      1059      4060      4061      4056
 -1      2042    8    0    1
 -2       992       993      1061      3844      4062      4063
 -1      2043    8    0    1
 -2       992      1061      1060      4063      4064      4059
 -1      2044    8    0    1
 -2       993       994      1062      3847      4065      4066
 -1      2045    8    0    1
 -2       993      1062      1061      4066      4067      4062
 -1      2046    8    0    1
 -2       994       995      1063      3850      4068      4069
 -1      2047    8    0    1
 -2       994      1063      1062      4069      4070      4065
 -1      2048    8    0    1
 -2       946       997      1064      3857      4071      4072
 -1      2049    8    0    1
 -2      1011       946      1064      3910      4072      4073
 -1      2050    8    0    1
 -2       997      1020      1064      3944      4074      4071
 -1      2051    8    0    1
 -2       935       848       864      3662      3858      4075
 -1      2052    8    0    1
 -2       923      1003      1010      3915      4076      3906
 -1      2053    8    0    1
 -2       943       934      1065      3692      4077      4078
 -1      2054    8    0    1
 -2      1012       943      1065      3912      4078      4079
 -1      2055    8    0    1
 -2       934       972      1065      3781      4080      4077
 -1      2056    8    0    1
 -2       998       942      1015      3861      3926      4081
 -1      2057    8    0    1
 -2      1016      1006      1014      3930      3923      4082
 -1      2058    8    0    1
 -2      1013      1009      1066      3918      4083      4084
 -1      2059    8    0    1
 -2       995       999      1063      3879      4085      4068
 -1      2060    8    0    1
 -2      1001       996      1067      3907      4086      4087
 -1      2061    8    0    1
 -2      1014      1001      1067      3941      4087      4088
 -1      2062    8    0    1
 -2       996      1011      1067      3909      4089      4086
 -1      2063    8    0    1
 -2       935       864      1004      4075      3920      3882
 -1      2064    8    0    1
 -2      1000       938      1068      3911      4090      4091
 -1      2065    8    0    1
 -2       950       949      1069      3715      4092      4093
 -1      2066    8    0    1
 -2       950      1069      1022      4093      4094      3947
 -1      2067    8    0    1
 -2       938      1008      1068      3899      4095      4090
 -1      2068    8    0    1
 -2       936      1005      1070      3888      4096      4097
 -1      2069    8    0    1
 -2       936      1070      1008      4097      4098      3897
 -1      2070    8    0    1
 -2       998      1015      1071      4081      4099      4100
 -1      2071    8    0    1
 -2      1005       998      1071      3889      4100      4101
 -1      2072    8    0    1
 -2      1015       975      1071      3927      4102      4099
 -1      2073    8    0    1
 -2      1043       973      1044      4009      4012      4103
 -1      2074    8    0    1
 -2       972       971      1065      3782      4104      4080
 -1      2075    8    0    1
 -2       949      1000      1068      3869      4091      4105
 -1      2076    8    0    1
 -2      1010      1003      1072      4076      4106      4107
 -1      2077    8    0    1
 -2      1007      1010      1072      3905      4107      4108
 -1      2078    8    0    1
 -2      1003      1019      1072      3939      4109      4106
 -1      2079    8    0    1
 -2       949      1068      1069      4105      4110      4092
 -1      2080    8    0    1
 -2      1016      1014      1067      4082      4088      4111
 -1      2081    8    0    1
 -2       999      1013      1063      3919      4112      4085
 -1      2082    8    0    1
 -2       975      1045      1071      4015      4113      4102
 -1      2083    8    0    1
 -2      1066      1009      1073      4083      4114      4115
 -1      2084    8    0    1
 -2      1009      1012      1073      3914      4116      4114
 -1      2085    8    0    1
 -2      1013      1066      1063      4084      4117      4112
 -1      2086    8    0    1
 -2      1016      1067      1017      4111      4118      3933
 -1      2087    8    0    1
 -2      1065       971      1042      4104      4007      4119
 -1      2088    8    0    1
 -2      1068      1008      1074      4095      4120      4121
 -1      2089    8    0    1
 -2      1020       948      1072      3942      4122      4123
 -1      2090    8    0    1
 -2      1046      1047      1075      4022      4124      4125
 -1      2091    8    0    1
 -2      1021      1046      1076      4019      4126      4127
 -1      2092    8    0    1
 -2      1046      1075      1076      4125      4128      4126
 -1      2093    8    0    1
 -2      1024      1023      1077      3954      4129      4130
 -1      2094    8    0    1
 -2      1025      1024      1078      3957      4131      4132
 -1      2095    8    0    1
 -2      1024      1077      1078      4130      4133      4131
 -1      2096    8    0    1
 -2      1026      1025      1079      3960      4134      4135
 -1      2097    8    0    1
 -2      1025      1078      1079      4132      4136      4134
 -1      2098    8    0    1
 -2      1027      1026      1080      3963      4137      4138
 -1      2099    8    0    1
 -2      1026      1079      1080      4135      4139      4137
 -1      2100    8    0    1
 -2      1028      1027      1081      3966      4140      4141
 -1      2101    8    0    1
 -2      1027      1080      1081      4138      4142      4140
 -1      2102    8    0    1
 -2      1029      1028      1082      3969      4143      4144
 -1      2103    8    0    1
 -2      1028      1081      1082      4141      4145      4143
 -1      2104    8    0    1
 -2      1030      1029      1083      3972      4146      4147
 -1      2105    8    0    1
 -2      1029      1082      1083      4144      4148      4146
 -1      2106    8    0    1
 -2      1031      1030      1084      3975      4149      4150
 -1      2107    8    0    1
 -2      1030      1083      1084      4147      4151      4149
 -1      2108    8    0    1
 -2      1032      1031      1085      3978      4152      4153
 -1      2109    8    0    1
 -2      1031      1084      1085      4150      4154      4152
 -1      2110    8    0    1
 -2      1033      1032      1086      3981      4155      4156
 -1      2111    8    0    1
 -2      1032      1085      1086      4153      4157      4155
 -1      2112    8    0    1
 -2      1034      1033      1087      3984      4158      4159
 -1      2113    8    0    1
 -2      1033      1086      1087      4156      4160      4158
 -1      2114    8    0    1
 -2      1035      1034      1088      3987      4161      4162
 -1      2115    8    0    1
 -2      1034      1087      1088      4159      4163      4161
 -1      2116    8    0    1
 -2      1036      1035      1089      3990      4164      4165
 -1      2117    8    0    1
 -2      1035      1088      1089      4162      4166      4164
 -1      2118    8    0    1
 -2      1037      1036      1090      3993      4167      4168
 -1      2119    8    0    1
 -2      1036      1089      1090      4165      4169      4167
 -1      2120    8    0    1
 -2      1038      1037      1091      3996      4170      4171
 -1      2121    8    0    1
 -2      1037      1090      1091      4168      4172      4170
 -1      2122    8    0    1
 -2      1039      1038      1092      3999      4173      4174
 -1      2123    8    0    1
 -2      1038      1091      1092      4171      4175      4173
 -1      2124    8    0    1
 -2      1040      1039      1093      4002      4176      4177
 -1      2125    8    0    1
 -2      1039      1092      1093      4174      4178      4176
 -1      2126    8    0    1
 -2      1041      1040      1094      4005      4179      4180
 -1      2127    8    0    1
 -2      1040      1093      1094      4177      4181      4179
 -1      2128    8    0    1
 -2      1045      1043      1095      4016      4182      4183
 -1      2129    8    0    1
 -2      1047      1048      1096      4025      4184      4185
 -1      2130    8    0    1
 -2      1047      1096      1075      4185      4186      4124
 -1      2131    8    0    1
 -2      1048      1049      1097      4028      4187      4188
 -1      2132    8    0    1
 -2      1048      1097      1096      4188      4189      4184
 -1      2133    8    0    1
 -2      1049      1050      1098      4031      4190      4191
 -1      2134    8    0    1
 -2      1049      1098      1097      4191      4192      4187
 -1      2135    8    0    1
 -2      1050      1051      1099      4034      4193      4194
 -1      2136    8    0    1
 -2      1050      1099      1098      4194      4195      4190
 -1      2137    8    0    1
 -2      1051      1052      1100      4037      4196      4197
 -1      2138    8    0    1
 -2      1051      1100      1099      4197      4198      4193
 -1      2139    8    0    1
 -2      1052      1053      1101      4040      4199      4200
 -1      2140    8    0    1
 -2      1052      1101      1100      4200      4201      4196
 -1      2141    8    0    1
 -2      1053      1054      1102      4043      4202      4203
 -1      2142    8    0    1
 -2      1053      1102      1101      4203      4204      4199
 -1      2143    8    0    1
 -2      1054      1055      1103      4046      4205      4206
 -1      2144    8    0    1
 -2      1054      1103      1102      4206      4207      4202
 -1      2145    8    0    1
 -2      1055      1056      1104      4049      4208      4209
 -1      2146    8    0    1
 -2      1055      1104      1103      4209      4210      4205
 -1      2147    8    0    1
 -2      1056      1057      1105      4052      4211      4212
 -1      2148    8    0    1
 -2      1056      1105      1104      4212      4213      4208
 -1      2149    8    0    1
 -2      1057      1058      1106      4055      4214      4215
 -1      2150    8    0    1
 -2      1057      1106      1105      4215      4216      4211
 -1      2151    8    0    1
 -2      1058      1059      1107      4058      4217      4218
 -1      2152    8    0    1
 -2      1058      1107      1106      4218      4219      4214
 -1      2153    8    0    1
 -2      1059      1060      1108      4061      4220      4221
 -1      2154    8    0    1
 -2      1059      1108      1107      4221      4222      4217
 -1      2155    8    0    1
 -2      1060      1061      1109      4064      4223      4224
 -1      2156    8    0    1
 -2      1060      1109      1108      4224      4225      4220
 -1      2157    8    0    1
 -2      1061      1062      1110      4067      4226      4227
 -1      2158    8    0    1
 -2      1061      1110      1109      4227      4228      4223
 -1      2159    8    0    1
 -2      1062      1063      1111      4070      4229      4230
 -1      2160    8    0    1
 -2      1110      1062      1111      4226      4230      4231
 -1      2161    8    0    1
 -2      1063      1066      1111      4117      4232      4229
 -1      2162    8    0    1
 -2      1017      1067      1011      4118      4089      4233
 -1      2163    8    0    1
 -2      1072      1019      1020      4109      4234      4123
 -1      2164    8    0    1
 -2      1069      1068      1074      4110      4121      4235
 -1      2165    8    0    1
 -2      1005      1071      1112      4101      4236      4237
 -1      2166    8    0    1
 -2      1070      1005      1112      4096      4237      4238
 -1      2167    8    0    1
 -2      1071      1045      1112      4113      4239      4236
 -1      2168    8    0    1
 -2      1012      1065      1042      4079      4119      4240
 -1      2169    8    0    1
 -2      1012      1042      1073      4240      4241      4116
 -1      2170    8    0    1
 -2      1020      1019      1064      4234      4242      4074
 -1      2171    8    0    1
 -2      1043      1044      1113      4103      4243      4244
 -1      2172    8    0    1
 -2      1043      1113      1095      4244      4245      4182
 -1      2173    8    0    1
 -2      1017      1011      1019      4233      4246      3940
 -1      2174    8    0    1
 -2      1044      1021      1114      4013      4247      4248
 -1      2175    8    0    1
 -2      1113      1044      1114      4243      4248      4249
 -1      2176    8    0    1
 -2      1021      1076      1114      4127      4250      4247
 -1      2177    8    0    1
 -2      1022      1069      1115      4094      4251      4252
 -1      2178    8    0    1
 -2      1069      1074      1115      4235      4253      4251
 -1      2179    8    0    1
 -2      1023      1022      1116      3951      4254      4255
 -1      2180    8    0    1
 -2      1077      1023      1116      4129      4255      4256
 -1      2181    8    0    1
 -2      1022      1115      1116      4252      4257      4254
 -1      2182    8    0    1
 -2      1045      1095      1112      4183      4258      4239
 -1      2183    8    0    1
 -2      1019      1011      1064      4246      4073      4242
 -1      2184    8    0    1
 -2      1042      1041      1117      4008      4259      4260
 -1      2185    8    0    1
 -2      1117      1041      1094      4259      4180      4261
 -1      2186    8    0    1
 -2       948      1018      1072      3936      4262      4122
 -1      2187    8    0    1
 -2      1042      1117      1073      4260      4263      4241
 -1      2188    8    0    1
 -2      1074      1008      1070      4120      4098      4264
 -1      2189    8    0    1
 -2      1007      1072      1018      4108      4262      3937
 -1      2190    8    0    1
 -2      1070      1112      1118      4238      4265      4266
 -1      2191    8    0    1
 -2      1074      1070      1118      4264      4266      4267
 -1      2192    8    0    1
 -2      1112      1095      1118      4258      4268      4265
 -1      2193    8    0    1
 -2      1066      1073      1119      4115      4269      4270
 -1      2194    8    0    1
 -2      1079      1078      1075      4136      4271      4272
 -1      2195    8    0    1
 -2      1080      1079      1096      4139      4273      4274
 -1      2196    8    0    1
 -2      1081      1080      1097      4142      4275      4276
 -1      2197    8    0    1
 -2      1082      1081      1098      4145      4277      4278
 -1      2198    8    0    1
 -2      1083      1082      1099      4148      4279      4280
 -1      2199    8    0    1
 -2      1084      1083      1100      4151      4281      4282
 -1      2200    8    0    1
 -2      1085      1084      1101      4154      4283      4284
 -1      2201    8    0    1
 -2      1086      1085      1102      4157      4285      4286
 -1      2202    8    0    1
 -2      1087      1086      1103      4160      4287      4288
 -1      2203    8    0    1
 -2      1088      1087      1104      4163      4289      4290
 -1      2204    8    0    1
 -2      1089      1088      1105      4166      4291      4292
 -1      2205    8    0    1
 -2      1090      1089      1106      4169      4293      4294
 -1      2206    8    0    1
 -2      1091      1090      1107      4172      4295      4296
 -1      2207    8    0    1
 -2      1092      1091      1108      4175      4297      4298
 -1      2208    8    0    1
 -2      1093      1092      1109      4178      4299      4300
 -1      2209    8    0    1
 -2      1094      1093      1110      4181      4301      4302
 -1      2210    8    0    1
 -2      1102      1085      1101      4285      4284      4204
 -1      2211    8    0    1
 -2      1075      1096      1079      4186      4273      4272
 -1      2212    8    0    1
 -2      1098      1099      1082      4195      4279      4278
 -1      2213    8    0    1
 -2      1099      1100      1083      4198      4281      4280
 -1      2214    8    0    1
 -2      1100      1101      1084      4201      4283      4282
 -1      2215    8    0    1
 -2      1102      1103      1086      4207      4287      4286
 -1      2216    8    0    1
 -2      1103      1104      1087      4210      4289      4288
 -1      2217    8    0    1
 -2      1104      1105      1088      4213      4291      4290
 -1      2218    8    0    1
 -2      1105      1106      1089      4216      4293      4292
 -1      2219    8    0    1
 -2      1106      1107      1090      4219      4295      4294
 -1      2220    8    0    1
 -2      1107      1108      1091      4222      4297      4296
 -1      2221    8    0    1
 -2      1108      1109      1092      4225      4299      4298
 -1      2222    8    0    1
 -2      1109      1110      1093      4228      4301      4300
 -1      2223    8    0    1
 -2      1110      1111      1094      4231      4303      4302
 -1      2224    8    0    1
 -2      1095      1113      1120      4245      4304      4305
 -1      2225    8    0    1
 -2      1095      1120      1118      4305      4306      4268
 -1      2226    8    0    1
 -2      1097      1098      1081      4192      4277      4276
 -1      2227    8    0    1
 -2      1078      1077      1076      4133      4307      4308
 -1      2228    8    0    1
 -2      1076      1075      1078      4128      4271      4308
 -1      2229    8    0    1
 -2      1115      1074      1118      4253      4267      4309
 -1      2230    8    0    1
 -2      1096      1097      1080      4189      4275      4274
 -1      2231    8    0    1
 -2      1073      1117      1119      4263      4310      4269
 -1      2232    8    0    1
 -2      1076      1077      1114      4307      4311      4250
 -1      2233    8    0    1
 -2      1077      1116      1114      4256      4312      4311
 -1      2234    8    0    1
 -2      1066      1119      1111      4270      4313      4232
 -1      2235    8    0    1
 -2      1115      1118      1120      4309      4306      4314
 -1      2236    8    0    1
 -2      1115      1120      1116      4314      4315      4257
 -1      2237    8    0    1
 -2      1119      1117      1094      4310      4261      4316
 -1      2238    8    0    1
 -2      1120      1113      1116      4304      4317      4315
 -1      2239    8    0    1
 -2      1114      1116      1113      4312      4317      4249
 -1      2240    8    0    1
 -2      1094      1111      1119      4303      4313      4316
 -3
    1PSTEP                         1           1           1          
  100CL  101 1.000000000        4317                     0    1           1
 -4  DISP        4    1
 -5  D1          1    2    1    0
 -5  D2          1    2    2    0
 -5  D3          1    2    3    0
 -5  ALL         1    2    0    0    1ALL
 -1         1 5.00166E-03-8.71962E-04-5.35562E-15
 -1         2 6.60481E-03-5.03057E-05-6.74184E-15
 -1         3 1.51424E-02 4.31862E-04-6.44824E-14
 -1         4 1.52743E-02-9.98092E-04-6.44118E-14
 -1         5 0.00000E+00 0.00000E+00 0.00000E+00
 -1         6 0.00000E+00 0.00000E+00 0.00000E+00
 -1         7 0.00000E+00 0.00000E+00 0.00000E+00
 -1         8 0.00000E+00 0.00000E+00 0.00000E+00
 -1         9 0.00000E+00 0.00000E+00 0.00000E+00
 -1        10 0.00000E+00 0.00000E+00 0.00000E+00
 -1        11 0.00000E+00 0.00000E+00 0.00000E+00
 -1        12 0.00000E+00 0.00000E+00 0.00000E+00
 -1        13 0.00000E+00 0.00000E+00 0.00000E+00
 -1        14 0.00000E+00 0.00000E+00 0.00000E+00
 -1        15 0.00000E+00 0.00000E+00 0.00000E+00
 -1        16 0.00000E+00 0.00000E+00 0.00000E+00
 -1        17 0.00000E+00 0.00000E+00 0.00000E+00
 -1        18 0.00000E+00 0.00000E+00 0.00000E+00
 -1        19 0.00000E+00 0.00000E+00 0.00000E+00
 -1        20 0.00000E+00 0.00000E+00 0.00000E+00
 -1        21 0.00000E+00 0.00000E+00 0.00000E+00
 -1        22 0.00000E+00 0.00000E+00 0.00000E+00
 -1        23 4.21660E-04-2.46579E-04 1.63274E-17
 -1        24 7.36020E-04-3.69264E-04-2.43912E-17
 -1        25 1.03913E-03-4.53744E-04-1.21942E-16
 -1        26 1.34599E-03-5.17601E-04-2.75248E-16
 -1        27 1.66136E-03-5.72776E-04-4.82670E-16
 -1        28 1.98738E-03-6.28089E-04-7.43766E-16
 -1        29 2.32397E-03-6.91253E-04-1.06224E-15
 -1        30 2.66836E-03-7.68762E-04-1.43662E-15
 -1        31 3.01446E-03-8.64510E-04-1.86912E-15
 -1        32 3.35298E-03-9.77290E-04-2.36252E-15
 -1        33 3.67325E-03-1.09803E-03-2.91620E-15
 -1        34 3.96742E-03-1.20889E-03-3.52492E-15
 -1        35 4.23577E-03-1.28686E-03-4.19176E-15
 -1        36 4.48932E-03-1.31263E-03-4.92274E-15
 -1        37 4.74636E-03-1.28022E-03-5.71741E-15
 -1        38 5.02400E-03-1.20044E-03-6.57834E-15
 -1        39 5.33049E-03-1.09525E-03-7.50145E-15
 -1        40 5.66357E-03-9.87689E-04-8.48770E-15
 -1        41 6.01418E-03-8.94296E-04-9.52325E-15
 -1        42 6.37171E-03-8.22943E-04-1.06097E-14
 -1        43 6.72756E-03-7.74612E-04-1.17529E-14
 -1        44 7.07633E-03-7.46363E-04-1.29522E-14
 -1        45 7.41552E-03-7.33792E-04-1.42050E-14
 -1        46 7.74465E-03-7.32499E-04-1.55184E-14
 -1        47 8.06443E-03-7.38762E-04-1.68875E-14
 -1        48 8.37611E-03-7.49709E-04-1.83094E-14
 -1        49 8.68109E-03-7.63264E-04-1.97903E-14
 -1        50 8.98073E-03-7.78000E-04-2.13322E-14
 -1        51 9.27624E-03-7.92988E-04-2.29340E-14
 -1        52 9.56860E-03-8.07658E-04-2.46022E-14
 -1        53 9.85865E-03-8.21695E-04-2.63302E-14
 -1        54 1.01470E-02-8.34951E-04-2.81115E-14
 -1        55 1.04342E-02-8.47392E-04-2.99462E-14
 -1        56 1.07206E-02-8.59050E-04-3.18215E-14
 -1        57 1.10064E-02-8.69994E-04-3.37236E-14
 -1        58 1.12920E-02-8.80314E-04-3.56322E-14
 -1        59 1.15773E-02-8.90103E-04-3.75568E-14
 -1        60 1.18626E-02-8.99452E-04-3.94963E-14
 -1        61 1.21478E-02-9.08443E-04-4.14519E-14
 -1        62 1.24331E-02-9.17151E-04-4.34275E-14
 -1        63 1.27184E-02-9.25638E-04-4.54445E-14
 -1        64 1.30038E-02-9.33958E-04-4.74913E-14
 -1        65 1.32892E-02-9.42155E-04-4.95747E-14
 -1        66 1.35747E-02-9.50266E-04-5.16928E-14
 -1        67 1.38602E-02-9.58322E-04-5.38298E-14
 -1        68 1.41458E-02-9.66347E-04-5.59608E-14
 -1        69 1.44315E-02-9.74363E-04-5.80901E-14
 -1        70 1.47172E-02-9.82388E-04-6.02173E-14
 -1        71 1.50029E-02-9.90433E-04-6.23547E-14
 -1        72 4.23433E-04 2.47959E-04 2.82164E-17
 -1        73 7.35096E-04 3.73351E-04 1.04761E-17
 -1        74 1.03774E-03 4.57722E-04-5.24618E-17
 -1        75 1.34301E-03 5.22162E-04-1.63589E-16
 -1        76 1.65563E-03 5.77720E-04-3.24793E-16
 -1        77 1.97742E-03 6.32765E-04-5.38276E-16
 -1        78 2.30794E-03 6.94313E-04-8.06413E-16
 -1        79 2.64422E-03 7.67879E-04-1.13174E-15
 -1        80 2.98045E-03 8.56233E-04-1.51501E-15
 -1        81 3.30837E-03 9.57373E-04-1.95795E-15
 -1        82 3.61905E-03 1.06254E-03-2.46446E-15
 -1        83 3.90652E-03 1.15600E-03-3.03213E-15
 -1        84 4.17175E-03 1.21847E-03-3.65904E-15
 -1        85 4.42444E-03 1.23424E-03-4.35259E-15
 -1        86 4.68015E-03 1.19850E-03-5.13051E-15
 -1        87 4.95350E-03 1.12000E-03-5.99424E-15
 -1        88 5.25210E-03 1.01676E-03-6.93077E-15
 -1        89 5.57489E-03 9.08409E-04-7.93699E-15
 -1        90 5.91476E-03 8.09899E-04-9.00994E-15
 -1        91 6.26270E-03 7.29227E-04-1.01346E-14
 -1        92 6.61090E-03 6.68374E-04-1.13109E-14
 -1        93 6.95407E-03 6.25545E-04-1.25308E-14
 -1        94 7.28943E-03 5.97256E-04-1.38052E-14
 -1        95 7.61607E-03 5.79727E-04-1.51346E-14
 -1        96 7.93432E-03 5.69592E-04-1.65026E-14
 -1        97 8.24509E-03 5.64159E-04-1.79169E-14
 -1        98 8.54957E-03 5.61424E-04-1.93753E-14
 -1        99 8.84895E-03 5.59977E-04-2.08758E-14
 -1       100 9.14432E-03 5.58879E-04-2.24431E-14
 -1       101 9.43664E-03 5.57541E-04-2.40734E-14
 -1       102 9.72667E-03 5.55629E-04-2.57456E-14
 -1       103 1.00150E-02 5.52978E-04-2.74651E-14
 -1       104 1.03022E-02 5.49541E-04-2.92111E-14
 -1       105 1.05886E-02 5.45339E-04-3.09804E-14
 -1       106 1.08745E-02 5.40437E-04-3.28048E-14
 -1       107 1.11600E-02 5.34917E-04-3.46957E-14
 -1       108 1.14454E-02 5.28871E-04-3.66488E-14
 -1       109 1.17307E-02 5.22387E-04-3.86607E-14
 -1       110 1.20159E-02 5.15548E-04-4.07206E-14
 -1       111 1.23012E-02 5.08425E-04-4.28054E-14
 -1       112 1.25865E-02 5.01083E-04-4.49265E-14
 -1       113 1.28719E-02 4.93573E-04-4.70490E-14
 -1       114 1.31573E-02 4.85941E-04-4.91801E-14
 -1       115 1.34428E-02 4.78223E-04-5.13298E-14
 -1       116 1.37283E-02 4.70449E-04-5.35026E-14
 -1       117 1.40139E-02 4.62644E-04-5.56973E-14
 -1       118 1.42996E-02 4.54831E-04-5.79105E-14
 -1       119 1.45853E-02 4.47026E-04-6.01360E-14
 -1       120 1.48710E-02 4.39241E-04-6.23686E-14
 -1       121 1.51500E-02 3.47578E-04-6.44890E-14
 -1       122 1.51577E-02 2.63288E-04-6.45156E-14
 -1       123 1.51653E-02 1.78977E-04-6.44997E-14
 -1       124 1.51729E-02 9.46344E-05-6.44550E-14
 -1       125 1.51805E-02 1.02575E-05-6.43887E-14
 -1       126 1.51880E-02-7.27202E-05-6.43512E-14
 -1       127 1.51956E-02-1.57154E-04-6.43333E-14
 -1       128 1.52034E-02-2.41603E-04-6.43177E-14
 -1       129 1.52112E-02-3.26058E-04-6.43193E-14
 -1       130 1.52190E-02-4.10507E-04-6.43269E-14
 -1       131 1.52269E-02-4.94941E-04-6.43378E-14
 -1       132 1.52347E-02-5.77918E-04-6.43598E-14
 -1       133 1.52426E-02-6.62294E-04-6.43930E-14
 -1       134 1.52506E-02-7.46636E-04-6.44172E-14
 -1       135 1.52586E-02-8.30947E-04-6.44168E-14
 -1       136 1.52665E-02-9.15237E-04-6.44165E-14
 -1       137 6.54857E-03 1.29803E-04-6.67933E-15
 -1       138 6.38799E-03 3.02601E-04-6.51679E-15
 -1       139 6.15397E-03 4.51611E-04-6.28528E-15
 -1       140 5.82444E-03 5.89396E-04-5.97141E-15
 -1       141 5.44520E-03 6.95003E-04-5.62480E-15
 -1       142 5.02206E-03 7.67902E-04-5.25521E-15
 -1       143 4.51241E-03 8.07086E-04-4.82916E-15
 -1       144 4.04997E-03 7.99094E-04-4.46625E-15
 -1       145 3.54910E-03 7.42474E-04-4.09318E-15
 -1       146 3.13199E-03 6.51560E-04-3.80041E-15
 -1       147 2.76838E-03 5.26439E-04-3.55798E-15
 -1       148 2.48509E-03 3.76713E-04-3.37802E-15
 -1       149 2.30136E-03 2.18468E-04-3.26951E-15
 -1       150 2.20606E-03 4.19851E-05-3.21948E-15
 -1       151 2.21138E-03-1.26031E-04-3.23404E-15
 -1       152 2.31205E-03-2.96301E-04-3.31351E-15
 -1       153 2.49801E-03-4.54178E-04-3.44887E-15
 -1       154 2.79487E-03-6.10315E-04-3.65983E-15
 -1       155 3.15661E-03-7.37053E-04-3.92035E-15
 -1       156 3.56939E-03-8.29904E-04-4.22525E-15
 -1       157 4.05932E-03-8.90580E-04-4.60097E-15
 -1       158 4.52435E-03-9.02857E-04-4.96590E-15
 -1       159 5.44081E-03-8.01089E-04-5.72468E-15
 -1       160 5.82800E-03-6.96287E-04-6.05866E-15
 -1       161 6.16287E-03-5.57542E-04-6.35116E-15
 -1       162 6.41140E-03-3.96311E-04-6.57355E-15
 -1       163 6.55786E-03-2.26250E-04-6.70472E-15
 -1       164 2.53868E-04-1.06616E-04-9.10730E-18
 -1       165 2.35193E-04-7.16453E-05-1.66594E-17
 -1       166 2.24029E-04-4.82340E-05-2.07421E-17
 -1       167 2.15303E-04-3.16038E-05-2.31376E-17
 -1       168 2.08345E-04-1.99114E-05-2.41743E-17
 -1       169 2.03015E-04-1.14895E-05-2.46317E-17
 -1       170 1.99734E-04-5.40285E-06-2.46216E-17
 -1       171 1.98734E-04-4.30565E-07-2.43912E-17
 -1       172 2.00071E-04 4.69152E-06-2.38016E-17
 -1       173 2.03599E-04 1.11927E-05-2.30224E-17
 -1       174 2.08917E-04 2.00262E-05-2.15553E-17
 -1       175 2.15916E-04 3.25436E-05-1.93259E-17
 -1       176 2.24455E-04 4.98221E-05-1.59005E-17
 -1       177 2.35338E-04 7.38239E-05-1.02152E-17
 -1       178 2.52618E-04 1.09446E-04-9.89334E-19
 -1       179 3.12529E-04 1.69572E-04 9.24960E-18
 -1       180 4.96077E-04-2.34150E-04-2.62038E-17
 -1       181 8.18760E-04-3.35221E-04-1.05510E-16
 -1       182 1.13337E-03-4.06889E-04-2.38054E-16
 -1       183 1.44831E-03-4.63659E-04-4.23506E-16
 -1       184 1.76754E-03-5.15703E-04-6.61807E-16
 -1       185 2.09293E-03-5.71697E-04-9.54366E-16
 -1       186 2.42450E-03-6.39425E-04-1.30184E-15
 -1       187 2.76027E-03-7.25059E-04-1.70527E-15
 -1       188 3.09623E-03-8.31081E-04-2.16700E-15
 -1       189 3.42674E-03-9.53134E-04-2.68844E-15
 -1       190 3.74610E-03-1.07724E-03-3.26688E-15
 -1       191 4.05134E-03-1.18042E-03-3.90465E-15
 -1       192 4.34504E-03-1.23755E-03-4.60553E-15
 -1       193 4.63555E-03-1.23309E-03-5.37039E-15
 -1       194 4.93324E-03-1.16992E-03-6.20123E-15
 -1       195 5.24512E-03-1.06792E-03-7.09429E-15
 -1       196 5.57212E-03-9.53345E-04-8.04883E-15
 -1       197 5.91019E-03-8.47987E-04-9.06091E-15
 -1       198 6.25328E-03-7.64125E-04-1.01237E-14
 -1       199 6.59587E-03-7.05252E-04-1.12409E-14
 -1       200 6.93405E-03-6.69297E-04-1.24153E-14
 -1       201 7.26567E-03-6.51738E-04-1.36433E-14
 -1       202 7.58993E-03-6.47643E-04-1.49294E-14
 -1       203 7.90699E-03-6.52679E-04-1.62721E-14
 -1       204 8.21749E-03-6.63441E-04-1.76709E-14
 -1       205 8.52234E-03-6.77442E-04-1.91244E-14
 -1       206 8.82250E-03-6.92963E-04-2.06359E-14
 -1       207 9.11887E-03-7.08880E-04-2.22081E-14
 -1       208 9.41226E-03-7.24500E-04-2.38421E-14
 -1       209 9.70335E-03-7.39432E-04-2.55353E-14
 -1       210 9.99272E-03-7.53493E-04-2.72854E-14
 -1       211 1.02808E-02-7.66629E-04-2.90850E-14
 -1       212 1.05680E-02-7.78872E-04-3.09282E-14
 -1       213 1.08545E-02-7.90297E-04-3.28046E-14
 -1       214 1.11405E-02-8.01003E-04-3.47022E-14
 -1       215 1.14263E-02-8.11097E-04-3.66170E-14
 -1       216 1.17119E-02-8.20682E-04-3.85458E-14
 -1       217 1.19974E-02-8.29852E-04-4.04946E-14
 -1       218 1.22829E-02-8.38693E-04-4.24565E-14
 -1       219 1.25684E-02-8.47276E-04-4.44506E-14
 -1       220 1.28538E-02-8.55662E-04-4.64820E-14
 -1       221 1.31393E-02-8.63903E-04-4.85445E-14
 -1       222 1.34249E-02-8.72040E-04-5.06366E-14
 -1       223 1.37104E-02-8.80108E-04-5.27594E-14
 -1       224 1.39961E-02-8.88133E-04-5.48878E-14
 -1       225 1.42817E-02-8.96142E-04-5.70168E-14
 -1       226 1.45674E-02-9.04152E-04-5.91511E-14
 -1       227 1.48531E-02-9.12180E-04-6.12908E-14
 -1       228 6.40153E-04 2.96476E-04-1.73777E-17
 -1       229 9.56080E-04 3.83850E-04-8.73426E-17
 -1       230 1.26825E-03 4.48898E-04-2.03708E-16
 -1       231 1.58245E-03 5.03494E-04-3.68436E-16
 -1       232 1.90148E-03 5.56589E-04-5.85239E-16
 -1       233 2.22602E-03 6.15757E-04-8.55554E-16
 -1       234 2.55484E-03 6.87210E-04-1.18139E-15
 -1       235 2.88474E-03 7.74614E-04-1.56333E-15
 -1       236 3.21089E-03 8.76933E-04-2.00348E-15
 -1       237 3.52783E-03 9.86049E-04-2.50545E-15
 -1       238 3.83155E-03 1.08595E-03-3.06927E-15
 -1       239 4.12200E-03 1.15578E-03-3.69455E-15
 -1       240 4.40441E-03 1.17746E-03-4.38952E-15
 -1       241 4.68791E-03 1.14427E-03-5.16271E-15
 -1       242 4.98145E-03 1.06469E-03-6.01651E-15
 -1       243 5.28986E-03 9.57977E-04-6.94575E-15
 -1       244 5.61268E-03 8.45452E-04-7.94601E-15
 -1       245 5.94566E-03 7.43382E-04-9.00962E-15
 -1       246 6.28321E-03 6.60360E-04-1.01269E-14
 -1       247 6.62034E-03 5.98392E-04-1.12987E-14
 -1       248 6.95352E-03 5.55428E-04-1.25165E-14
 -1       249 7.28077E-03 5.27658E-04-1.37850E-14
 -1       250 7.60134E-03 5.11011E-04-1.51035E-14
 -1       251 7.91535E-03 5.01906E-04-1.64680E-14
 -1       252 8.22337E-03 4.97509E-04-1.78817E-14
 -1       253 8.52624E-03 4.95735E-04-1.93404E-14
 -1       254 8.82481E-03 4.95133E-04-2.08442E-14
 -1       255 9.11993E-03 4.94749E-04-2.24054E-14
 -1       256 9.41234E-03 4.93999E-04-2.40269E-14
 -1       257 9.70268E-03 4.92556E-04-2.56946E-14
 -1       258 9.99146E-03 4.90274E-04-2.74053E-14
 -1       259 1.02791E-02 4.87119E-04-2.91498E-14
 -1       260 1.05659E-02 4.83130E-04-3.09243E-14
 -1       261 1.08522E-02 4.78384E-04-3.27518E-14
 -1       262 1.11381E-02 4.72976E-04-3.46379E-14
 -1       263 1.14238E-02 4.67008E-04-3.65789E-14
 -1       264 1.17093E-02 4.60577E-04-3.85719E-14
 -1       265 1.19947E-02 4.53772E-04-4.06113E-14
 -1       266 1.22802E-02 4.46669E-04-4.26833E-14
 -1       267 1.25656E-02 4.39337E-04-4.47886E-14
 -1       268 1.28511E-02 4.31830E-04-4.69062E-14
 -1       269 1.31366E-02 4.24196E-04-4.90349E-14
 -1       270 1.34221E-02 4.16473E-04-5.11752E-14
 -1       271 1.37077E-02 4.08693E-04-5.33377E-14
 -1       272 1.39933E-02 4.00881E-04-5.55188E-14
 -1       273 1.42790E-02 3.93059E-04-5.77230E-14
 -1       274 1.45647E-02 3.85247E-04-5.99384E-14
 -1       275 1.48504E-02 3.77456E-04-6.21636E-14
 -1       276 1.49064E-02 3.12155E-04-6.25621E-14
 -1       277 1.49140E-02 2.27849E-04-6.25634E-14
 -1       278 1.49216E-02 1.43524E-04-6.25515E-14
 -1       279 1.49292E-02 5.91747E-05-6.25325E-14
 -1       280 1.49367E-02-2.37668E-05-6.25125E-14
 -1       281 1.49443E-02-1.08158E-04-6.25012E-14
 -1       282 1.49520E-02-1.92563E-04-6.24891E-14
 -1       283 1.49598E-02-2.76976E-04-6.24847E-14
 -1       284 1.49676E-02-3.61389E-04-6.24839E-14
 -1       285 1.49755E-02-4.45794E-04-6.24883E-14
 -1       286 1.49833E-02-5.28755E-04-6.24996E-14
 -1       287 1.49912E-02-6.13126E-04-6.25144E-14
 -1       288 1.49992E-02-6.97475E-04-6.25313E-14
 -1       289 1.50072E-02-7.81800E-04-6.25404E-14
 -1       290 1.49301E-02-8.46994E-04-6.19173E-14
 -1       291 6.61217E-03-7.69576E-06-7.17970E-15
 -1       292 6.45640E-03 8.88931E-05-7.08678E-15
 -1       293 6.19413E-03 2.36619E-04-6.75828E-15
 -1       294 5.85423E-03 4.01790E-04-6.41616E-15
 -1       295 5.47879E-03 5.84999E-04-5.99255E-15
 -1       296 5.09752E-03 7.41533E-04-5.55867E-15
 -1       297 4.68590E-03 8.63097E-04-5.09490E-15
 -1       298 4.30323E-03 8.84292E-04-4.61820E-15
 -1       299 3.91270E-03 8.18820E-04-4.18314E-15
 -1       300 3.49109E-03 6.72343E-04-3.81889E-15
 -1       301 3.09408E-03 4.97807E-04-3.52175E-15
 -1       302 2.72174E-03 3.21817E-04-3.29057E-15
 -1       303 2.42516E-03 1.74834E-04-3.13373E-15
 -1       304 2.23203E-03 5.90807E-05-3.04778E-15
 -1       305 2.17017E-03-3.71524E-05-3.02991E-15
 -1       306 2.24375E-03-1.28929E-04-3.06647E-15
 -1       307 2.44097E-03-2.48071E-04-3.19466E-15
 -1       308 2.75501E-03-3.88085E-04-3.35944E-15
 -1       309 3.15026E-03-5.65222E-04-3.60394E-15
 -1       310 3.52456E-03-7.56486E-04-3.95390E-15
 -1       311 3.94156E-03-9.09664E-04-4.33235E-15
 -1       312 4.31905E-03-9.75010E-04-4.78013E-15
 -1       313 4.69674E-03-9.59029E-04-5.23069E-15
 -1       314 5.09041E-03-8.53457E-04-5.68070E-15
 -1       315 5.48059E-03-6.96566E-04-6.10845E-15
 -1       316 5.86148E-03-5.11750E-04-6.51421E-15
 -1       317 6.21926E-03-3.45758E-04-6.81508E-15
 -1       318 6.47990E-03-2.07843E-04-7.03587E-15
 -1       319 6.61565E-03-1.01085E-04-7.13963E-15
 -1       320 4.70826E-04-1.21299E-04-7.31836E-17
 -1       321 5.00525E-04-1.73078E-04-6.07052E-17
 -1       322 4.29922E-04-5.50976E-05-8.46017E-17
 -1       323 4.15510E-04-3.42687E-05-8.66006E-17
 -1       324 4.05527E-04-1.87681E-05-8.72715E-17
 -1       325 4.00606E-04-6.43053E-06-8.69530E-17
 -1       326 4.01095E-04 5.04046E-06-8.58417E-17
 -1       327 4.06873E-04 1.79581E-05-8.37173E-17
 -1       328 4.17172E-04 3.41727E-05-8.00277E-17
 -1       329 4.31642E-04 5.61795E-05-7.48337E-17
 -1       330 4.49687E-04 8.56739E-05-6.72680E-17
 -1       331 4.71871E-04 1.25092E-04-5.61515E-17
 -1       332 5.01898E-04 1.78652E-04-3.96242E-17
 -1       333 5.64168E-04 2.33139E-04-3.12420E-17
 -1       334 8.79445E-04 3.20975E-04-1.05015E-16
 -1       335 9.19083E-04-2.96963E-04-1.96393E-16
 -1       336 1.23083E-03-3.57373E-04-3.61049E-16
 -1       337 1.54400E-03-4.08305E-04-5.77866E-16
 -1       338 1.86091E-03-4.58495E-04-8.46321E-16
 -1       339 2.18335E-03-5.16204E-04-1.16839E-15
 -1       340 2.51228E-03-5.89055E-04-1.54414E-15
 -1       341 2.84735E-03-6.82764E-04-1.97571E-15
 -1       342 3.18619E-03-7.98438E-04-2.46469E-15
 -1       343 3.52398E-03-9.28590E-04-3.01144E-15
 -1       344 3.85464E-03-1.05386E-03-3.61696E-15
 -1       345 4.17469E-03-1.14510E-03-4.28520E-15
 -1       346 4.48741E-03-1.17509E-03-5.01943E-15
 -1       347 4.80187E-03-1.13474E-03-5.82059E-15
 -1       348 5.12612E-03-1.03988E-03-6.68679E-15
 -1       349 5.46137E-03-9.20481E-04-7.61307E-15
 -1       350 5.80291E-03-8.04560E-04-8.59764E-15
 -1       351 6.14460E-03-7.09107E-04-9.63615E-15
 -1       352 6.48201E-03-6.40062E-04-1.07275E-14
 -1       353 6.81299E-03-5.96223E-04-1.18768E-14
 -1       354 7.13703E-03-5.73113E-04-1.30814E-14
 -1       355 7.45444E-03-5.65476E-04-1.43396E-14
 -1       356 7.76588E-03-5.68537E-04-1.56582E-14
 -1       357 8.07213E-03-5.78458E-04-1.70318E-14
 -1       358 8.37398E-03-5.92382E-04-1.84581E-14
 -1       359 8.67216E-03-6.08301E-04-1.99426E-14
 -1       360 8.96735E-03-6.24878E-04-2.14850E-14
 -1       361 9.26012E-03-6.41273E-04-2.30881E-14
 -1       362 9.55100E-03-6.56999E-04-2.47493E-14
 -1       363 9.84040E-03-6.71811E-04-2.64650E-14
 -1       364 1.01287E-02-6.85627E-04-2.82331E-14
 -1       365 1.04161E-02-6.98459E-04-3.00472E-14
 -1       366 1.07029E-02-7.10383E-04-3.18979E-14
 -1       367 1.09893E-02-7.21501E-04-3.37761E-14
 -1       368 1.12753E-02-7.31928E-04-3.56783E-14
 -1       369 1.15612E-02-7.41776E-04-3.75990E-14
 -1       370 1.18469E-02-7.51151E-04-3.95400E-14
 -1       371 1.21326E-02-7.60147E-04-4.14909E-14
 -1       372 1.24182E-02-7.68846E-04-4.34658E-14
 -1       373 1.27037E-02-7.77317E-04-4.54779E-14
 -1       374 1.29893E-02-7.85616E-04-4.75242E-14
 -1       375 1.32749E-02-7.93791E-04-4.96023E-14
 -1       376 1.35605E-02-8.01880E-04-5.17022E-14
 -1       377 1.38462E-02-8.09915E-04-5.38212E-14
 -1       378 1.41318E-02-8.17921E-04-5.59449E-14
 -1       379 1.44175E-02-8.25920E-04-5.80766E-14
 -1       380 1.46738E-02-8.36447E-04-5.99932E-14
 -1       381 1.19231E-03 3.86633E-04-2.24132E-16
 -1       382 1.50565E-03 4.40698E-04-3.90848E-16
 -1       383 1.82207E-03 4.92096E-04-6.07983E-16
 -1       384 2.14299E-03 5.48647E-04-8.77635E-16
 -1       385 2.46852E-03 6.17065E-04-1.20169E-15
 -1       386 2.79728E-03 7.01912E-04-1.58050E-15
 -1       387 3.12626E-03 8.03468E-04-2.01645E-15
 -1       388 3.45112E-03 9.15007E-04-2.51298E-15
 -1       389 3.76752E-03 1.02106E-03-3.07130E-15
 -1       390 4.07364E-03 1.09949E-03-3.69187E-15
 -1       391 4.37244E-03 1.12918E-03-4.38169E-15
 -1       392 4.67116E-03 1.10049E-03-5.14845E-15
 -1       393 4.97741E-03 1.02115E-03-5.99452E-15
 -1       394 5.29484E-03 9.11863E-04-6.91634E-15
 -1       395 5.62220E-03 7.95905E-04-7.90845E-15
 -1       396 5.95525E-03 6.90871E-04-8.96407E-15
 -1       397 6.28936E-03 6.05817E-04-1.00745E-14
 -1       398 6.62097E-03 5.42714E-04-1.12396E-14
 -1       399 6.94793E-03 4.99307E-04-1.24523E-14
 -1       400 7.26923E-03 4.71568E-04-1.37134E-14
 -1       401 7.58469E-03 4.55252E-04-1.50259E-14
 -1       402 7.89461E-03 4.46644E-04-1.63860E-14
 -1       403 8.19958E-03 4.42818E-04-1.77947E-14
 -1       404 8.50027E-03 4.41622E-04-1.92502E-14
 -1       405 8.79739E-03 4.41566E-04-2.07530E-14
 -1       406 9.09161E-03 4.41674E-04-2.23078E-14
 -1       407 9.38352E-03 4.41350E-04-2.39236E-14
 -1       408 9.67364E-03 4.40267E-04-2.55863E-14
 -1       409 9.96238E-03 4.38280E-04-2.72895E-14
 -1       410 1.02501E-02 4.35363E-04-2.90321E-14
 -1       411 1.05371E-02 4.31562E-04-3.08057E-14
 -1       412 1.08235E-02 4.26960E-04-3.26302E-14
 -1       413 1.11096E-02 4.21663E-04-3.45113E-14
 -1       414 1.13954E-02 4.15778E-04-3.64437E-14
 -1       415 1.16811E-02 4.09406E-04-3.84224E-14
 -1       416 1.19667E-02 4.02642E-04-4.04449E-14
 -1       417 1.22523E-02 3.95569E-04-4.25060E-14
 -1       418 1.25378E-02 3.88255E-04-4.45990E-14
 -1       419 1.28233E-02 3.80760E-04-4.67109E-14
 -1       420 1.31089E-02 3.73131E-04-4.88342E-14
 -1       421 1.33945E-02 3.65410E-04-5.09657E-14
 -1       422 1.36801E-02 3.57627E-04-5.31197E-14
 -1       423 1.39657E-02 3.49811E-04-5.52908E-14
 -1       424 1.42514E-02 3.41984E-04-5.74847E-14
 -1       425 1.45371E-02 3.34165E-04-5.96903E-14
 -1       426 1.47217E-02 3.23154E-04-6.11220E-14
 -1       427 1.46780E-02 1.08110E-04-6.06418E-14
 -1       428 1.46704E-02 1.92439E-04-6.06370E-14
 -1       429 1.46961E-02 2.57801E-04-6.08787E-14
 -1       430 1.46854E-02 2.51931E-05-6.06478E-14
 -1       431 1.46930E-02-5.91698E-05-6.06494E-14
 -1       432 1.47007E-02-1.43545E-04-6.06477E-14
 -1       433 1.47084E-02-2.27929E-04-6.06422E-14
 -1       434 1.47162E-02-3.12315E-04-6.06395E-14
 -1       435 1.47241E-02-3.96698E-04-6.06396E-14
 -1       436 1.47318E-02-4.79643E-04-6.06444E-14
 -1       437 1.47398E-02-5.64006E-04-6.06516E-14
 -1       438 1.47478E-02-6.48353E-04-6.06598E-14
 -1       439 1.47557E-02-7.32682E-04-6.06720E-14
 -1       440 6.29513E-03 1.11729E-04-7.30245E-15
 -1       441 6.64980E-03-5.78687E-05-7.63349E-15
 -1       442 6.57306E-03-3.00318E-06-7.65600E-15
 -1       443 5.98397E-03 2.53865E-04-6.93270E-15
 -1       444 5.58345E-03 4.52182E-04-6.48439E-15
 -1       445 4.48155E-04-8.32482E-05-8.05054E-17
 -1       446 4.88194E-03 8.08504E-04-5.49571E-15
 -1       447 4.45962E-03 9.18353E-04-4.81479E-15
 -1       448 4.14659E-03 8.92285E-04-4.34169E-15
 -1       449 3.74687E-03 7.42412E-04-3.80173E-15
 -1       450 3.42774E-03 5.80035E-04-3.50941E-15
 -1       451 2.96361E-03 3.46855E-04-3.20113E-15
 -1       452 2.59497E-03 1.78880E-04-3.00079E-15
 -1       453 2.31532E-03 6.15926E-05-2.85552E-15
 -1       454 2.16984E-03-5.99352E-06-2.82691E-15
 -1       455 2.17219E-03-5.71347E-05-2.80883E-15
 -1       456 2.33989E-03-1.28667E-04-2.87770E-15
 -1       457 2.58434E-03-2.28585E-04-3.02519E-15
 -1       458 2.97462E-03-4.10755E-04-3.28253E-15
 -1       459 3.43931E-03-6.54586E-04-3.65623E-15
 -1       460 3.78168E-03-8.33408E-04-4.01183E-15
 -1       461 4.20548E-03-9.93925E-04-4.57614E-15
 -1       462 4.48320E-03-1.01722E-03-5.01363E-15
 -1       463 4.85837E-03-9.29124E-04-5.57899E-15
 -1       464 5.21885E-03-7.69010E-04-6.08390E-15
 -1       465 5.59075E-03-5.66459E-04-6.61720E-15
 -1       466 6.01274E-03-3.58497E-04-7.04164E-15
 -1       467 6.34445E-03-2.11752E-04-7.35201E-15
 -1       468 6.57341E-03-1.13139E-04-7.60778E-15
 -1       469 5.18424E-03 6.66162E-04-5.93004E-15
 -1       470 4.66894E-03 8.91794E-04-5.19857E-15
 -1       471 3.21834E-03-5.19364E-04-3.32749E-15
 -1       472 9.82923E-04 2.82175E-04-1.96149E-16
 -1       473 6.20427E-04-4.13790E-05-1.86835E-16
 -1       474 6.41091E-04-6.86841E-05-1.84599E-16
 -1       475 6.04021E-04-1.17364E-06-1.85683E-16
 -1       476 6.09487E-04 1.79810E-05-1.82356E-16
 -1       477 6.23174E-04 4.02764E-05-1.76837E-16
 -1       478 6.44317E-04 6.91826E-05-1.68715E-16
 -1       479 6.71485E-04 1.06670E-04-1.57037E-16
 -1       480 7.04209E-04 1.54852E-04-1.40777E-16
 -1       481 1.29006E-03 3.37073E-04-3.49313E-16
 -1       482 1.02156E-03-2.58272E-04-2.97478E-16
 -1       483 5.36270E-03 5.57972E-04-6.46052E-15
 -1       484 5.80365E-03 3.18055E-04-7.15315E-15
 -1       485 1.32490E-03-3.07956E-04-4.92722E-16
 -1       486 1.63156E-03-3.53040E-04-7.38599E-16
 -1       487 1.94333E-03-4.00786E-04-1.03639E-15
 -1       488 2.26276E-03-4.58954E-04-1.38585E-15
 -1       489 2.59243E-03-5.35258E-04-1.78838E-15
 -1       490 2.93374E-03-6.35903E-04-2.24586E-15
 -1       491 3.28472E-03-7.62088E-04-2.75942E-15
 -1       492 3.63833E-03-9.03608E-04-3.33086E-15
 -1       493 3.98456E-03-1.03266E-03-3.96474E-15
 -1       494 4.31894E-03-1.10837E-03-4.66577E-15
 -1       495 4.64848E-03-1.10036E-03-5.43579E-15
 -1       496 4.98622E-03-1.01450E-03-6.27228E-15
 -1       497 5.33606E-03-8.87268E-04-7.17236E-15
 -1       498 5.69099E-03-7.58347E-04-8.13173E-15
 -1       499 6.04114E-03-6.51421E-04-9.14688E-15
 -1       500 6.38069E-03-5.73936E-04-1.02144E-14
 -1       501 6.70856E-03-5.24124E-04-1.13393E-14
 -1       502 7.02633E-03-4.96782E-04-1.25209E-14
 -1       503 7.33623E-03-4.86189E-04-1.37546E-14
 -1       504 7.64028E-03-4.87293E-04-1.50462E-14
 -1       505 7.94001E-03-4.96057E-04-1.63927E-14
 -1       506 8.23650E-03-5.09447E-04-1.77944E-14
 -1       507 8.53049E-03-5.25287E-04-1.92516E-14
 -1       508 8.82256E-03-5.42094E-04-2.07655E-14
 -1       509 9.11309E-03-5.58906E-04-2.23375E-14
 -1       510 9.40242E-03-5.75143E-04-2.39664E-14
 -1       511 9.69081E-03-5.90497E-04-2.56531E-14
 -1       512 9.97846E-03-6.04837E-04-2.73906E-14
 -1       513 1.02655E-02-6.18153E-04-2.91748E-14
 -1       514 1.05522E-02-6.30504E-04-3.09990E-14
 -1       515 1.08385E-02-6.41989E-04-3.28558E-14
 -1       516 1.11247E-02-6.52721E-04-3.47410E-14
 -1       517 1.14106E-02-6.62819E-04-3.66503E-14
 -1       518 1.16964E-02-6.72395E-04-3.85784E-14
 -1       519 1.19822E-02-6.81548E-04-4.05230E-14
 -1       520 1.22679E-02-6.90368E-04-4.24876E-14
 -1       521 1.25536E-02-6.98930E-04-4.44787E-14
 -1       522 1.28392E-02-7.07295E-04-4.65099E-14
 -1       523 1.31249E-02-7.15516E-04-4.85700E-14
 -1       524 1.34106E-02-7.23634E-04-5.06559E-14
 -1       525 1.36962E-02-7.31684E-04-5.27608E-14
 -1       526 1.39819E-02-7.39694E-04-5.48787E-14
 -1       527 1.42676E-02-7.47687E-04-5.70002E-14
 -1       528 1.91343E-03 4.34907E-04-8.01415E-16
 -1       529 2.23292E-03 4.92575E-04-1.10473E-15
 -1       530 2.55936E-03 5.65010E-04-1.46023E-15
 -1       531 2.89260E-03 6.56467E-04-1.87075E-15
 -1       532 3.23011E-03 7.66157E-04-2.33950E-15
 -1       533 3.56653E-03 8.84385E-04-2.86869E-15
 -1       534 3.89560E-03 9.90068E-04-3.46043E-15
 -1       535 4.21480E-03 1.05484E-03-4.11778E-15
 -1       536 4.52897E-03 1.05605E-03-4.84925E-15
 -1       537 4.84747E-03 9.92182E-04-5.65807E-15
 -1       538 5.17617E-03 8.84047E-04-6.54499E-15
 -1       539 5.51342E-03 7.60906E-04-7.50432E-15
 -1       540 5.85314E-03 6.46035E-04-8.52948E-15
 -1       541 6.18949E-03 5.51753E-04-9.61272E-15
 -1       542 6.51926E-03 4.81152E-04-1.07510E-14
 -1       543 6.84163E-03 4.32107E-04-1.19398E-14
 -1       544 7.15710E-03 4.00402E-04-1.31747E-14
 -1       545 7.46665E-03 3.81509E-04-1.44614E-14
 -1       546 7.77128E-03 3.71422E-04-1.57983E-14
 -1       547 8.07189E-03 3.66936E-04-1.71850E-14
 -1       548 8.36921E-03 3.65657E-04-1.86178E-14
 -1       549 8.66386E-03 3.65894E-04-2.01015E-14
 -1       550 8.95638E-03 3.66515E-04-2.16312E-14
 -1       551 9.24718E-03 3.66811E-04-2.32167E-14
 -1       552 9.53663E-03 3.66374E-04-2.48586E-14
 -1       553 9.82503E-03 3.65009E-04-2.65408E-14
 -1       554 1.01126E-02 3.62660E-04-2.82645E-14
 -1       555 1.03996E-02 3.59358E-04-3.00245E-14
 -1       556 1.06862E-02 3.55182E-04-3.18263E-14
 -1       557 1.09724E-02 3.50238E-04-3.36831E-14
 -1       558 1.12584E-02 3.44640E-04-3.55886E-14
 -1       559 1.15443E-02 3.38498E-04-3.75389E-14
 -1       560 1.18300E-02 3.31913E-04-3.95276E-14
 -1       561 1.21157E-02 3.24976E-04-4.15580E-14
 -1       562 1.24013E-02 3.17764E-04-4.36244E-14
 -1       563 1.26870E-02 3.10343E-04-4.57201E-14
 -1       564 1.29726E-02 3.02766E-04-4.78295E-14
 -1       565 1.32582E-02 2.95078E-04-4.99486E-14
 -1       566 1.35439E-02 2.87314E-04-5.20806E-14
 -1       567 1.38295E-02 2.79503E-04-5.42329E-14
 -1       568 1.41152E-02 2.71672E-04-5.64076E-14
 -1       569 1.44009E-02 2.63839E-04-5.85963E-14
 -1       570 1.44418E-02-1.01854E-05-5.87811E-14
 -1       571 1.44494E-02-9.45394E-05-5.87907E-14
 -1       572 1.44267E-02 1.57056E-04-5.87445E-14
 -1       573 1.44342E-02 7.34423E-05-5.87636E-14
 -1       574 1.44571E-02-1.78901E-04-5.87960E-14
 -1       575 1.44649E-02-2.63267E-04-5.87972E-14
 -1       576 1.44727E-02-3.47633E-04-5.87922E-14
 -1       577 1.44804E-02-4.30565E-04-5.87937E-14
 -1       578 1.44883E-02-5.14919E-04-5.87944E-14
 -1       579 1.44963E-02-5.99262E-04-5.87998E-14
 -1       580 1.45043E-02-6.83590E-04-5.88080E-14
 -1       581 6.67271E-03-4.39535E-05-8.24017E-15
 -1       582 6.10078E-03 1.75069E-04-7.53216E-15
 -1       583 1.59972E-03 3.85505E-04-5.50507E-16
 -1       584 6.66791E-03-7.48349E-05-8.21129E-15
 -1       585 6.46943E-03 3.02772E-05-8.05944E-15
 -1       586 5.09220E-03 7.08133E-04-5.99978E-15
 -1       587 6.48373E-03-1.41977E-04-7.97023E-15
 -1       588 2.76272E-03-2.87837E-04-2.88991E-15
 -1       589 2.19211E-03-6.82804E-05-2.54166E-15
 -1       590 3.98857E-03 8.57377E-04-3.99712E-15
 -1       591 6.07742E-04-1.98821E-05-1.87215E-16
 -1       592 4.30655E-03 9.34713E-04-4.53623E-15
 -1       593 2.76185E-03 2.28577E-04-2.86915E-15
 -1       594 3.56079E-03 6.49138E-04-3.44099E-15
 -1       595 3.16370E-03 4.29856E-04-3.08471E-15
 -1       596 2.43555E-03 9.38125E-05-2.70446E-15
 -1       597 2.19399E-03 9.12671E-06-2.60492E-15
 -1       598 2.12695E-03-2.68859E-05-2.58569E-15
 -1       599 2.43558E-03-1.51683E-04-2.69445E-15
 -1       600 5.02567E-03-8.60029E-04-6.00529E-15
 -1       601 3.61596E-03-7.42088E-04-3.67467E-15
 -1       602 4.00080E-03-9.39908E-04-4.18047E-15
 -1       603 4.36081E-03-1.03467E-03-4.80915E-15
 -1       604 4.70527E-03-9.98401E-04-5.47724E-15
 -1       605 5.35773E-03-6.82134E-04-6.56309E-15
 -1       606 5.82464E-03-4.28814E-04-7.25128E-15
 -1       607 6.19835E-03-2.52818E-04-7.62453E-15
 -1       608 7.40865E-04-1.92431E-04-1.66266E-16
 -1       609 7.42678E-04 2.37843E-04-1.02349E-16
 -1       610 4.50494E-03 9.40664E-04-4.90290E-15
 -1       611 6.68374E-04-1.04261E-04-1.79452E-16
 -1       612 5.62002E-03-5.51956E-04-7.18605E-15
 -1       613 6.64084E-03-1.53622E-05-8.65097E-15
 -1       614 4.88974E-03 8.19036E-04-5.68228E-15
 -1       615 3.78681E-03 7.86398E-04-3.61814E-15
 -1       616 1.44609E-02-7.54762E-04-5.84428E-14
 -1       617 8.26345E-04 3.84136E-05-3.11681E-16
 -1       618 8.11660E-04 1.06334E-05-3.18823E-16
 -1       619 8.87701E-04 1.14871E-04-2.86111E-16
 -1       620 9.30211E-04 1.68400E-04-2.65274E-16
 -1       621 1.08437E-03 2.42307E-04-3.00937E-16
 -1       622 4.52835E-03-1.05358E-03-5.15024E-15
 -1       623 1.41168E-03-2.58815E-04-6.32588E-16
 -1       624 1.70933E-03-2.97262E-04-9.07044E-16
 -1       625 2.01407E-03-3.40577E-04-1.23150E-15
 -1       626 2.32998E-03-3.96341E-04-1.60641E-15
 -1       627 2.66202E-03-4.73423E-04-2.03354E-15
 -1       628 3.01383E-03-5.80866E-04-2.51438E-15
 -1       629 3.38345E-03-7.22886E-04-3.05054E-15
 -1       630 3.75963E-03-8.85535E-04-3.64708E-15
 -1       631 4.12601E-03-1.02231E-03-4.31156E-15
 -1       632 5.20631E-03-8.59251E-04-6.72581E-15
 -1       633 5.58218E-03-7.08255E-04-7.66103E-15
 -1       634 5.94760E-03-5.86501E-04-8.65323E-15
 -1       635 6.29378E-03-5.01940E-04-9.70037E-15
 -1       636 6.62058E-03-4.49302E-04-1.08020E-14
 -1       637 6.93234E-03-4.20646E-04-1.19597E-14
 -1       638 7.23386E-03-4.09048E-04-1.31709E-14
 -1       639 7.52898E-03-4.09166E-04-1.44362E-14
 -1       640 7.82032E-03-4.17022E-04-1.57579E-14
 -1       641 8.10949E-03-4.29687E-04-1.71317E-14
 -1       642 8.39744E-03-4.45041E-04-1.85606E-14
 -1       643 8.68468E-03-4.61596E-04-2.00474E-14
 -1       644 8.97149E-03-4.78354E-04-2.15895E-14
 -1       645 9.25804E-03-4.94683E-04-2.31895E-14
 -1       646 9.54439E-03-5.10224E-04-2.48436E-14
 -1       647 9.83059E-03-5.24805E-04-2.65522E-14
 -1       648 1.01167E-02-5.38381E-04-2.83076E-14
 -1       649 1.04027E-02-5.50991E-04-3.01049E-14
 -1       650 1.06886E-02-5.62715E-04-3.19381E-14
 -1       651 1.09745E-02-5.73663E-04-3.38034E-14
 -1       652 1.12603E-02-5.83947E-04-3.56995E-14
 -1       653 1.15461E-02-5.93679E-04-3.76170E-14
 -1       654 1.18319E-02-6.02961E-04-3.95525E-14
 -1       655 1.21177E-02-6.11885E-04-4.15049E-14
 -1       656 1.24034E-02-6.20527E-04-4.34857E-14
 -1       657 1.26891E-02-6.28954E-04-4.54967E-14
 -1       658 1.29748E-02-6.37221E-04-4.75439E-14
 -1       659 1.32606E-02-6.45371E-04-4.96156E-14
 -1       660 1.35463E-02-6.53440E-04-5.17106E-14
 -1       661 1.38320E-02-6.61458E-04-5.38189E-14
 -1       662 1.41177E-02-6.69449E-04-5.59357E-14
 -1       663 2.31538E-03 4.32247E-04-1.33787E-15
 -1       664 1.41410E-02 1.64899E-04-5.65676E-14
 -1       665 1.99660E-03 3.75382E-04-1.00378E-15
 -1       666 2.98923E-03 6.04916E-04-2.16603E-15
 -1       667 3.34197E-03 7.25906E-04-2.66536E-15
 -1       668 3.69514E-03 8.56349E-04-3.22605E-15
 -1       669 4.03903E-03 9.64185E-04-3.85137E-15
 -1       670 4.37100E-03 1.00860E-03-4.54838E-15
 -1       671 4.70202E-03 9.68549E-04-5.32206E-15
 -1       672 5.04422E-03 8.59797E-04-6.17390E-15
 -1       673 5.39662E-03 7.24940E-04-7.10111E-15
 -1       674 5.75064E-03 5.96636E-04-8.09618E-15
 -1       675 6.09605E-03 4.93111E-04-9.15502E-15
 -1       676 6.42877E-03 4.16895E-04-1.02650E-14
 -1       677 6.74911E-03 3.64427E-04-1.14293E-14
 -1       678 7.05947E-03 3.30452E-04-1.26411E-14
 -1       679 7.36253E-03 3.09955E-04-1.39003E-14
 -1       680 7.66052E-03 2.98744E-04-1.52110E-14
 -1       681 7.95505E-03 2.93544E-04-1.65750E-14
 -1       682 8.24720E-03 2.91901E-04-1.79863E-14
 -1       683 8.53767E-03 2.92059E-04-1.94458E-14
 -1       684 8.82693E-03 2.92812E-04-2.09529E-14
 -1       685 9.11529E-03 2.93379E-04-2.25116E-14
 -1       686 9.40298E-03 2.93294E-04-2.41271E-14
 -1       687 9.69016E-03 2.92314E-04-2.57923E-14
 -1       688 9.97693E-03 2.90349E-04-2.74957E-14
 -1       689 1.02634E-02 2.87407E-04-2.92405E-14
 -1       690 1.05497E-02 2.83556E-04-3.10250E-14
 -1       691 1.08357E-02 2.78895E-04-3.28568E-14
 -1       692 1.11217E-02 2.73536E-04-3.47398E-14
 -1       693 1.14075E-02 2.67592E-04-3.66646E-14
 -1       694 1.16933E-02 2.61167E-04-3.86243E-14
 -1       695 1.19791E-02 2.54357E-04-4.06231E-14
 -1       696 1.22648E-02 2.47244E-04-4.26631E-14
 -1       697 1.25505E-02 2.39897E-04-4.47346E-14
 -1       698 1.28362E-02 2.32375E-04-4.68296E-14
 -1       699 1.31219E-02 2.24724E-04-4.89400E-14
 -1       700 1.34076E-02 2.16984E-04-5.10559E-14
 -1       701 1.36933E-02 2.09185E-04-5.31896E-14
 -1       702 1.39172E-02 1.87048E-04-5.48734E-14
 -1       703 1.42135E-02-2.14237E-04-5.69516E-14
 -1       704 1.43110E-02-6.76518E-04-5.73667E-14
 -1       705 1.41981E-02-4.55435E-05-5.69297E-14
 -1       706 1.42213E-02-2.98588E-04-5.69532E-14
 -1       707 1.42058E-02-1.29888E-04-5.69452E-14
 -1       708 6.02536E-03 2.37390E-04-7.88459E-15
 -1       709 1.42290E-02-3.81508E-04-5.69488E-14
 -1       710 1.42369E-02-4.65852E-04-5.69500E-14
 -1       711 1.42449E-02-5.50189E-04-5.69523E-14
 -1       712 6.37965E-03 8.45279E-05-8.42732E-15
 -1       713 1.68688E-03 3.29343E-04-7.20984E-16
 -1       714 6.74466E-03-6.30508E-05-8.89270E-15
 -1       715 5.18940E-03-7.96441E-04-6.47969E-15
 -1       716 5.25164E-03 6.46835E-04-6.47158E-15
 -1       717 2.64595E-03 5.06963E-04-1.72417E-15
 -1       718 1.11866E-03-2.18978E-04-4.08416E-16
 -1       719 1.38347E-03 2.87136E-04-4.86803E-16
 -1       720 6.08576E-03-3.20768E-04-7.93586E-15
 -1       721 2.51696E-03-2.06587E-04-2.49310E-15
 -1       722 8.52472E-04 7.22309E-05-3.01015E-16
 -1       723 8.47302E-04-7.28854E-05-3.21954E-16
 -1       724 3.29506E-03 5.46612E-04-2.96133E-15
 -1       725 3.01407E-03-4.25074E-04-2.94354E-15
 -1       726 2.25716E-03-1.06337E-04-2.34923E-15
 -1       727 4.16815E-03 9.31969E-04-4.22730E-15
 -1       728 3.37066E-03-6.25761E-04-3.26092E-15
 -1       729 2.85787E-03 3.01463E-04-2.66096E-15
 -1       730 2.10225E-03-1.04126E-05-2.35370E-15
 -1       731 2.24688E-03 4.07267E-05-2.39025E-15
 -1       732 5.61217E-03 4.49437E-04-7.17036E-15
 -1       733 6.37181E-03-1.97655E-04-8.29018E-15
 -1       734 3.77156E-03-8.50575E-04-3.75809E-15
 -1       735 6.64274E-03-1.04761E-04-8.66990E-15
 -1       736 2.08819E-03-4.24675E-05-2.31045E-15
 -1       737 4.89061E-03-9.54154E-04-5.92490E-15
 -1       738 2.54008E-03 1.48523E-04-2.52936E-15
 -1       739 8.82373E-04-1.13201E-04-3.16773E-16
 -1       740 8.10307E-04-1.45539E-05-3.22570E-16
 -1       741 5.90227E-03-4.32879E-04-7.86031E-15
 -1       742 1.41906E-02 3.80788E-05-5.69066E-14
 -1       743 4.83598E-03-1.00111E-03-5.85376E-15
 -1       744 2.10065E-03-7.18229E-05-2.12657E-15
 -1       745 6.59209E-03 2.78167E-05-9.03206E-15
 -1       746 4.72030E-03 9.03445E-04-5.36496E-15
 -1       747 9.46474E-04-1.76699E-04-3.11769E-16
 -1       748 5.06610E-03 7.61876E-04-6.13501E-15
 -1       749 5.45159E-03-6.79080E-04-7.09286E-15
 -1       750 3.50701E-03 6.90469E-04-3.11576E-15
 -1       751 8.22571E-04-4.10577E-05-3.23546E-16
 -1       752 2.72419E-03-3.20525E-04-2.53791E-15
 -1       753 4.38738E-03 9.73227E-04-4.63414E-15
 -1       754 1.14886E-03 1.69679E-04-4.29788E-16
 -1       755 1.77511E-03-2.39996E-04-1.08006E-15
 -1       756 2.06936E-03-2.76068E-04-1.42962E-15
 -1       757 2.37793E-03-3.25692E-04-1.82861E-15
 -1       758 2.70949E-03-4.00582E-04-2.27780E-15
 -1       759 1.20813E-03-1.79239E-04-5.29074E-16
 -1       760 5.87889E-03-5.12350E-04-8.15578E-15
 -1       761 6.23111E-03-4.20623E-04-9.18281E-15
 -1       762 6.55409E-03-3.69071E-04-1.02650E-14
 -1       763 6.85678E-03-3.43020E-04-1.13991E-14
 -1       764 7.14708E-03-3.33315E-04-1.25882E-14
 -1       765 7.43087E-03-3.34134E-04-1.38301E-14
 -1       766 7.71178E-03-3.41817E-04-1.51249E-14
 -1       767 7.99186E-03-3.53856E-04-1.64751E-14
 -1       768 8.27217E-03-3.68450E-04-1.78761E-14
 -1       769 8.55319E-03-3.84297E-04-1.93343E-14
 -1       770 8.83505E-03-4.00483E-04-2.08474E-14
 -1       771 9.11774E-03-4.16399E-04-2.24148E-14
 -1       772 9.40116E-03-4.31670E-04-2.40396E-14
 -1       773 9.68518E-03-4.46100E-04-2.57173E-14
 -1       774 9.96968E-03-4.59612E-04-2.74463E-14
 -1       775 1.02546E-02-4.72218E-04-2.92164E-14
 -1       776 1.05397E-02-4.83978E-04-3.10256E-14
 -1       777 1.08251E-02-4.94982E-04-3.28717E-14
 -1       778 1.11105E-02-5.05332E-04-3.47497E-14
 -1       779 1.13961E-02-5.15132E-04-3.66536E-14
 -1       780 1.16818E-02-5.24479E-04-3.85779E-14
 -1       781 1.19675E-02-5.33461E-04-4.05205E-14
 -1       782 1.22533E-02-5.42155E-04-4.24928E-14
 -1       783 1.25390E-02-5.50624E-04-4.44896E-14
 -1       784 1.28248E-02-5.58925E-04-4.65206E-14
 -1       785 1.31105E-02-5.67100E-04-4.85786E-14
 -1       786 1.33963E-02-5.75187E-04-5.06642E-14
 -1       787 1.36820E-02-5.83215E-04-5.27649E-14
 -1       788 1.39678E-02-5.91207E-04-5.48719E-14
 -1       789 2.06905E-03 3.11202E-04-1.21378E-15
 -1       790 4.90335E-03 8.56195E-04-5.79599E-15
 -1       791 5.65663E-03 5.41555E-04-7.66374E-15
 -1       792 6.01523E-03 4.26413E-04-8.69504E-15
 -1       793 6.35305E-03 3.46303E-04-9.78157E-15
 -1       794 6.67165E-03 2.93511E-04-1.09196E-14
 -1       795 6.97618E-03 2.60084E-04-1.21087E-14
 -1       796 7.27153E-03 2.39929E-04-1.33434E-14
 -1       797 7.56141E-03 2.28665E-04-1.46282E-14
 -1       798 7.84829E-03 2.23149E-04-1.59652E-14
 -1       799 8.13371E-03 2.21108E-04-1.73542E-14
 -1       800 8.41852E-03 2.20909E-04-1.87919E-14
 -1       801 8.70320E-03 2.21406E-04-2.02772E-14
 -1       802 8.98796E-03 2.21834E-04-2.18112E-14
 -1       803 9.27288E-03 2.21713E-04-2.33983E-14
 -1       804 9.55799E-03 2.20777E-04-2.50405E-14
 -1       805 9.84327E-03 2.18909E-04-2.67276E-14
 -1       806 1.01287E-02 2.16096E-04-2.84537E-14
 -1       807 1.04142E-02 2.12386E-04-3.02235E-14
 -1       808 1.06998E-02 2.07868E-04-3.20337E-14
 -1       809 1.09855E-02 2.02643E-04-3.38925E-14
 -1       810 1.12712E-02 1.96819E-04-3.57964E-14
 -1       811 1.15569E-02 1.90500E-04-3.77324E-14
 -1       812 1.18426E-02 1.83779E-04-3.97047E-14
 -1       813 1.21284E-02 1.76739E-04-4.17154E-14
 -1       814 1.24141E-02 1.69452E-04-4.37593E-14
 -1       815 1.26998E-02 1.61975E-04-4.58333E-14
 -1       816 1.29856E-02 1.54359E-04-4.79307E-14
 -1       817 1.32713E-02 1.46642E-04-5.00382E-14
 -1       818 1.35571E-02 1.38857E-04-5.21622E-14
 -1       819 1.02587E-03 2.88831E-05-4.83517E-16
 -1       820 1.39699E-02-2.49558E-04-5.51128E-14
 -1       821 1.39934E-02-5.01126E-04-5.51195E-14
 -1       822 1.39776E-02-3.32464E-04-5.51174E-14
 -1       823 6.30724E-03 1.66516E-04-8.79593E-15
 -1       824 1.76496E-03 2.70937E-04-9.00447E-16
 -1       825 5.90849E-03 3.59743E-04-8.05508E-15
 -1       826 2.25333E-03-1.53232E-04-2.08024E-15
 -1       827 1.39855E-02-4.16797E-04-5.51173E-14
 -1       828 2.07667E-03 1.42990E-05-2.09054E-15
 -1       829 5.47814E-03 5.80320E-04-7.12606E-15
 -1       830 1.48917E-03-2.09536E-04-7.80480E-16
 -1       831 2.54937E-03 2.08973E-04-2.25761E-15
 -1       832 3.94766E-03 8.93120E-04-3.76721E-15
 -1       833 6.78493E-03-9.01871E-05-9.44152E-15
 -1       834 2.27597E-03 9.23922E-05-2.13243E-15
 -1       835 3.10596E-03-5.20523E-04-2.85389E-15
 -1       836 1.26255E-03 2.24555E-04-4.60288E-16
 -1       837 6.33531E-03-2.64500E-04-8.78518E-15
 -1       838 6.61207E-03-1.53731E-04-9.18034E-15
 -1       839 2.94045E-03 4.12928E-04-2.48523E-15
 -1       840 3.44821E-03-7.09091E-04-3.23482E-15
 -1       841 2.00066E-03-2.12490E-05-2.05147E-15
 -1       842 6.81494E-03-3.88685E-05-9.61621E-15
 -1       843 1.04182E-03-1.44786E-04-4.16415E-16
 -1       844 1.01423E-03-3.03867E-06-4.91452E-16
 -1       845 1.09713E-03 1.12663E-04-4.53447E-16
 -1       846 6.18574E-03-3.56548E-04-8.70046E-15
 -1       847 1.39667E-02 6.02444E-05-5.52253E-14
 -1       848 2.41571E-03-2.39600E-04-2.11673E-15
 -1       849 9.96216E-04-9.60862E-05-4.24059E-16
 -1       850 1.95375E-03-4.43535E-05-1.87861E-15
 -1       851 2.38635E-03 3.64415E-04-1.57810E-15
 -1       852 3.14894E-03 5.72312E-04-2.55682E-15
 -1       853 1.05466E-03 6.61938E-05-4.71021E-16
 -1       854 1.37428E-02 8.23992E-05-5.35470E-14
 -1       855 1.39545E-02-8.08901E-05-5.50881E-14
 -1       856 6.91801E-03-6.59825E-05-1.01843E-14
 -1       857 1.39621E-02-1.65223E-04-5.51031E-14
 -1       858 6.53847E-03 9.67704E-05-9.41358E-15
 -1       859 2.76817E-03 4.40866E-04-2.07619E-15
 -1       860 9.61890E-04-5.73376E-05-4.27060E-16
 -1       861 1.51270E-03 2.48416E-04-6.61638E-16
 -1       862 1.39606E-02-1.03208E-05-5.51608E-14
 -1       863 1.92221E-03 1.90017E-06-1.78589E-15
 -1       864 2.10294E-03-2.07474E-04-1.63158E-15
 -1       865 6.80364E-03-2.64317E-04-1.08410E-14
 -1       866 7.07655E-03-2.59318E-04-1.20068E-14
 -1       867 7.34488E-03-2.62623E-04-1.32253E-14
 -1       868 7.61269E-03-2.70963E-04-1.44961E-14
 -1       869 7.88185E-03-2.82569E-04-1.58213E-14
 -1       870 8.15317E-03-2.96199E-04-1.71967E-14
 -1       871 8.42688E-03-3.10912E-04-1.86250E-14
 -1       872 8.70288E-03-3.26002E-04-2.01097E-14
 -1       873 8.98094E-03-3.40958E-04-2.16475E-14
 -1       874 9.26075E-03-3.55442E-04-2.32395E-14
 -1       875 9.54200E-03-3.69254E-04-2.48871E-14
 -1       876 9.82442E-03-3.82300E-04-2.65891E-14
 -1       877 1.01077E-02-3.94565E-04-2.83352E-14
 -1       878 1.03918E-02-4.06084E-04-3.01184E-14
 -1       879 1.06763E-02-4.16924E-04-3.19434E-14
 -1       880 1.09613E-02-4.27169E-04-3.38023E-14
 -1       881 1.12465E-02-4.36904E-04-3.56921E-14
 -1       882 1.15320E-02-4.46216E-04-3.76066E-14
 -1       883 1.18176E-02-4.55182E-04-3.95369E-14
 -1       884 1.21032E-02-4.63872E-04-4.14978E-14
 -1       885 1.23890E-02-4.72347E-04-4.34863E-14
 -1       886 1.26747E-02-4.80656E-04-4.54996E-14
 -1       887 1.29605E-02-4.88841E-04-4.75438E-14
 -1       888 1.32463E-02-4.96936E-04-4.96201E-14
 -1       889 1.35321E-02-5.04969E-04-5.17130E-14
 -1       890 1.37627E-02-5.03057E-04-5.34130E-14
 -1       891 6.90924E-03 1.88341E-04-1.15792E-14
 -1       892 7.19376E-03 1.71061E-04-1.27918E-14
 -1       893 7.47312E-03 1.61257E-04-1.40505E-14
 -1       894 7.75050E-03 1.56139E-04-1.53603E-14
 -1       895 8.02768E-03 1.53863E-04-1.67234E-14
 -1       896 8.30556E-03 1.53133E-04-1.81369E-14
 -1       897 8.58456E-03 1.53019E-04-1.96015E-14
 -1       898 8.86475E-03 1.52874E-04-2.11104E-14
 -1       899 9.14609E-03 1.52273E-04-2.26730E-14
 -1       900 9.42843E-03 1.50964E-04-2.42869E-14
 -1       901 9.71162E-03 1.48826E-04-2.59548E-14
 -1       902 9.99549E-03 1.45828E-04-2.76660E-14
 -1       903 1.02799E-02 1.42003E-04-2.94184E-14
 -1       904 1.05647E-02 1.37419E-04-3.12123E-14
 -1       905 1.08498E-02 1.32165E-04-3.30508E-14
 -1       906 1.11352E-02 1.26337E-04-3.49306E-14
 -1       907 1.14207E-02 1.20029E-04-3.68475E-14
 -1       908 1.17063E-02 1.13328E-04-3.87972E-14
 -1       909 1.19920E-02 1.06313E-04-4.07835E-14
 -1       910 1.22777E-02 9.90499E-05-4.27998E-14
 -1       911 1.25635E-02 9.15965E-05-4.48491E-14
 -1       912 1.28492E-02 8.39998E-05-4.69263E-14
 -1       913 1.31350E-02 7.62984E-05-4.90225E-14
 -1       914 1.34208E-02 6.85235E-05-5.11403E-14
 -1       915 1.37262E-02-2.84148E-04-5.32804E-14
 -1       916 2.05280E-03 5.75585E-05-1.82499E-15
 -1       917 1.15119E-03-1.22067E-04-5.39075E-16
 -1       918 1.83068E-03 2.09170E-04-1.08994E-15
 -1       919 6.81556E-03 8.27645E-06-1.00981E-14
 -1       920 6.30615E-03 2.60808E-04-9.28961E-15
 -1       921 6.61600E-03 2.14935E-04-1.04086E-14
 -1       922 1.55656E-03-1.60287E-04-9.35080E-16
 -1       923 9.81727E-04-2.97501E-05-4.60518E-16
 -1       924 1.82625E-03-1.81414E-04-1.25944E-15
 -1       925 2.28074E-03 1.53363E-04-1.90846E-15
 -1       926 2.53171E-03 2.86283E-04-1.99518E-15
 -1       927 6.60702E-03-2.19324E-04-9.71643E-15
 -1       928 6.80180E-03-1.35247E-04-9.99280E-15
 -1       929 1.98841E-03-9.17965E-05-1.76840E-15
 -1       930 1.35253E-03-1.41329E-04-7.23722E-16
 -1       931 1.35936E-03 1.61645E-04-6.33350E-16
 -1       932 6.42031E-03-3.10053E-04-9.44930E-15
 -1       933 1.36446E-02 1.62693E-06-5.27973E-14
 -1       934 1.37548E-02-4.18742E-04-5.34089E-14
 -1       935 2.14637E-03-1.78426E-04-1.78322E-15
 -1       936 6.97029E-03-2.77474E-05-1.06824E-14
 -1       937 1.37184E-02-1.99831E-04-5.32689E-14
 -1       938 6.99057E-03-1.02805E-04-1.07570E-14
 -1       939 1.58883E-03 1.94431E-04-8.25407E-16
 -1       940 2.12511E-03 2.40878E-04-1.43222E-15
 -1       941 1.10561E-03-7.59810E-05-5.44100E-16
 -1       942 6.56373E-03 1.56604E-04-9.90906E-15
 -1       943 1.37405E-02-3.51445E-04-5.33484E-14
 -1       944 1.37107E-02-1.15514E-04-5.32516E-14
 -1       945 1.24982E-03 5.27838E-05-6.78233E-16
 -1       946 1.82911E-03-2.20512E-05-1.62609E-15
 -1       947 1.22165E-03 1.32241E-05-6.91592E-16
 -1       948 1.61490E-03-1.12339E-04-1.09632E-15
 -1       949 7.26887E-03-1.96055E-04-1.26211E-14
 -1       950 7.52033E-03-2.05346E-04-1.38689E-14
 -1       951 7.77679E-03-2.16452E-04-1.51676E-14
 -1       952 8.03809E-03-2.28815E-04-1.65212E-14
 -1       953 8.30383E-03-2.41947E-04-1.79214E-14
 -1       954 8.57348E-03-2.55412E-04-1.93749E-14
 -1       955 8.84649E-03-2.68854E-04-2.08830E-14
 -1       956 9.12232E-03-2.82008E-04-2.24442E-14
 -1       957 9.40048E-03-2.94700E-04-2.40642E-14
 -1       958 9.68052E-03-3.06832E-04-2.57364E-14
 -1       959 9.96204E-03-3.18369E-04-2.74569E-14
 -1       960 1.02447E-02-3.29321E-04-2.92163E-14
 -1       961 1.05283E-02-3.39729E-04-3.10186E-14
 -1       962 1.08126E-02-3.49649E-04-3.28607E-14
 -1       963 1.10973E-02-3.59148E-04-3.47330E-14
 -1       964 1.13825E-02-3.68291E-04-3.66337E-14
 -1       965 1.16678E-02-3.77139E-04-3.85574E-14
 -1       966 1.19534E-02-3.85751E-04-4.05021E-14
 -1       967 1.22390E-02-3.94174E-04-4.24802E-14
 -1       968 1.25248E-02-4.02452E-04-4.44839E-14
 -1       969 1.28105E-02-4.10619E-04-4.65101E-14
 -1       970 1.30963E-02-4.18705E-04-4.85721E-14
 -1       971 1.33821E-02-4.26733E-04-5.06583E-14
 -1       972 1.35685E-02-4.22745E-04-5.20313E-14
 -1       973 7.66015E-03 9.30482E-05-1.47611E-14
 -1       974 7.39469E-03 9.71118E-05-1.34777E-14
 -1       975 7.12969E-03 1.04099E-04-1.22391E-14
 -1       976 7.92750E-03 9.07025E-05-1.60974E-14
 -1       977 8.19735E-03 8.92882E-05-1.74845E-14
 -1       978 8.46982E-03 8.82198E-05-1.89249E-14
 -1       979 8.74477E-03 8.70623E-05-2.04119E-14
 -1       980 9.02194E-03 8.55106E-05-2.19486E-14
 -1       981 9.30103E-03 8.33707E-05-2.35390E-14
 -1       982 9.58171E-03 8.05399E-05-2.51821E-14
 -1       983 9.86367E-03 7.69859E-05-2.68745E-14
 -1       984 1.01467E-02 7.27271E-05-2.86107E-14
 -1       985 1.04305E-02 6.78146E-05-3.03886E-14
 -1       986 1.07148E-02 6.23184E-05-3.22066E-14
 -1       987 1.09997E-02 5.63166E-05-3.40674E-14
 -1       988 1.12848E-02 4.98878E-05-3.59670E-14
 -1       989 1.15702E-02 4.31064E-05-3.78964E-14
 -1       990 1.18558E-02 3.60397E-05-3.98606E-14
 -1       991 1.21415E-02 2.87466E-05-4.18552E-14
 -1       992 1.24272E-02 2.12774E-05-4.38785E-14
 -1       993 1.27130E-02 1.36740E-05-4.59297E-14
 -1       994 1.29987E-02 5.97106E-06-4.80116E-14
 -1       995 1.32845E-02-1.80346E-06-5.01170E-14
 -1       996 1.82673E-03 3.46395E-05-1.49641E-15
 -1       997 1.81020E-03-5.99849E-05-1.52509E-15
 -1       998 6.84539E-03 5.55276E-05-1.06146E-14
 -1       999 1.34337E-02-6.08211E-05-5.12071E-14
 -1      1000 7.02172E-03-1.89676E-04-1.14272E-14
 -1      1001 2.00861E-03 1.08792E-04-1.57553E-15
 -1      1002 1.29795E-03 1.01462E-04-6.59192E-16
 -1      1003 1.21711E-03-2.25675E-05-6.98247E-16
 -1      1004 1.85495E-03-1.21039E-04-1.43996E-15
 -1      1005 7.02206E-03 1.01006E-05-1.12147E-14
 -1      1006 1.51161E-03 1.23730E-04-8.57218E-16
 -1      1007 1.29422E-03-8.84446E-05-7.29272E-16
 -1      1008 7.09505E-03-6.50113E-05-1.12730E-14
 -1      1009 1.34748E-02-2.35135E-04-5.14391E-14
 -1      1010 1.13103E-03-5.57733E-05-5.88183E-16
 -1      1011 1.70047E-03 5.18561E-06-1.35292E-15
 -1      1012 1.34890E-02-3.02412E-04-5.15129E-14
 -1      1013 1.34671E-02-1.50844E-04-5.14216E-14
 -1      1014 1.77728E-03 1.38022E-04-1.16125E-15
 -1      1015 6.85393E-03 1.23913E-04-1.10479E-14
 -1      1016 1.44675E-03 6.62883E-05-8.81399E-16
 -1      1017 1.40418E-03 2.09891E-05-8.98712E-16
 -1      1018 1.45403E-03-1.00478E-04-9.03828E-16
 -1      1019 1.39151E-03-1.82830E-05-9.08263E-16
 -1      1020 1.59989E-03-5.79606E-05-1.17375E-15
 -1      1021 8.09173E-03 2.98200E-05-1.68385E-14
 -1      1022 7.67251E-03-1.56073E-04-1.45161E-14
 -1      1023 7.92354E-03-1.66602E-04-1.58434E-14
 -1      1024 8.18132E-03-1.77627E-04-1.72209E-14
 -1      1025 8.44471E-03-1.88937E-04-1.86464E-14
 -1      1026 8.71276E-03-2.00332E-04-2.01244E-14
 -1      1027 8.98465E-03-2.11636E-04-2.16571E-14
 -1      1028 9.25971E-03-2.22714E-04-2.32442E-14
 -1      1029 9.53732E-03-2.33477E-04-2.48872E-14
 -1      1030 9.81698E-03-2.43882E-04-2.65820E-14
 -1      1031 1.00982E-02-2.53916E-04-2.83163E-14
 -1      1032 1.03808E-02-2.63593E-04-3.00952E-14
 -1      1033 1.06643E-02-2.72944E-04-3.19172E-14
 -1      1034 1.09485E-02-2.82005E-04-3.37721E-14
 -1      1035 1.12332E-02-2.90819E-04-3.56559E-14
 -1      1036 1.15183E-02-2.99424E-04-3.75701E-14
 -1      1037 1.18037E-02-3.07860E-04-3.95099E-14
 -1      1038 1.20892E-02-3.16160E-04-4.14737E-14
 -1      1039 1.23749E-02-3.24353E-04-4.34666E-14
 -1      1040 1.26607E-02-3.32464E-04-4.54815E-14
 -1      1041 1.29464E-02-3.40514E-04-4.75237E-14
 -1      1042 1.32322E-02-3.48519E-04-4.96001E-14
 -1      1043 7.57464E-03 3.47537E-05-1.41650E-14
 -1      1044 7.83071E-03 3.22040E-05-1.54754E-14
 -1      1045 7.32389E-03 3.77156E-05-1.29026E-14
 -1      1046 8.35720E-03 2.74087E-05-1.82525E-14
 -1      1047 8.62659E-03 2.47866E-05-1.97152E-14
 -1      1048 8.89936E-03 2.18060E-05-2.12295E-14
 -1      1049 9.17497E-03 1.83614E-05-2.27946E-14
 -1      1050 9.45294E-03 1.43921E-05-2.44137E-14
 -1      1051 9.73282E-03 9.87832E-06-2.60845E-14
 -1      1052 1.00142E-02 4.83241E-06-2.78038E-14
 -1      1053 1.02968E-02-7.10168E-07-2.95626E-14
 -1      1054 1.05804E-02-6.69985E-06-3.13648E-14
 -1      1055 1.08646E-02-1.30802E-05-3.32083E-14
 -1      1056 1.11493E-02-1.97932E-05-3.50855E-14
 -1      1057 1.14344E-02-2.67834E-05-3.70009E-14
 -1      1058 1.17198E-02-3.39998E-05-3.89471E-14
 -1      1059 1.20053E-02-4.13972E-05-4.09210E-14
 -1      1060 1.22910E-02-4.89368E-05-4.29228E-14
 -1      1061 1.25767E-02-5.65859E-05-4.49501E-14
 -1      1062 1.28625E-02-6.43173E-05-4.70091E-14
 -1      1063 1.31483E-02-7.21091E-05-4.90936E-14
 -1      1064 1.63504E-03-2.57660E-05-1.26411E-15
 -1      1065 1.35287E-02-3.62576E-04-5.17723E-14
 -1      1066 1.32234E-02-1.86153E-04-4.96088E-14
 -1      1067 1.72360E-03 6.19146E-05-1.26024E-15
 -1      1068 7.17669E-03-1.30765E-04-1.18896E-14
 -1      1069 7.42975E-03-1.46170E-04-1.32418E-14
 -1      1070 7.17657E-03-3.35109E-05-1.18239E-14
 -1      1071 7.07161E-03 5.50144E-05-1.17252E-14
 -1      1072 1.33502E-03-5.17841E-05-8.19393E-16
 -1      1073 1.32376E-02-2.53400E-04-4.96827E-14
 -1      1074 7.31611E-03-8.52085E-05-1.25216E-14
 -1      1075 8.50826E-03-3.38150E-05-1.90219E-14
 -1      1076 8.24421E-03-2.92666E-05-1.75820E-14
 -1      1077 8.05572E-03-1.17732E-04-1.65181E-14
 -1      1078 8.31379E-03-1.26396E-04-1.79194E-14
 -1      1079 8.57761E-03-1.35296E-04-1.93698E-14
 -1      1080 8.84612E-03-1.44311E-04-2.08713E-14
 -1      1081 9.11846E-03-1.53346E-04-2.24276E-14
 -1      1082 9.39392E-03-1.62332E-04-2.40396E-14
 -1      1083 9.67189E-03-1.71225E-04-2.57063E-14
 -1      1084 9.95185E-03-1.79999E-04-2.74176E-14
 -1      1085 1.02334E-02-1.88648E-04-2.91742E-14
 -1      1086 1.05161E-02-1.97173E-04-3.09707E-14
 -1      1087 1.07998E-02-2.05584E-04-3.28084E-14
 -1      1088 1.10841E-02-2.13893E-04-3.46782E-14
 -1      1089 1.13689E-02-2.22115E-04-3.65749E-14
 -1      1090 1.16541E-02-2.30265E-04-3.85050E-14
 -1      1091 1.19395E-02-2.38356E-04-4.04648E-14
 -1      1092 1.22251E-02-2.46400E-04-4.24471E-14
 -1      1093 1.25108E-02-2.54407E-04-4.44506E-14
 -1      1094 1.27966E-02-2.62385E-04-4.64798E-14
 -1      1095 7.48931E-03-1.77105E-05-1.35677E-14
 -1      1096 8.77681E-03-3.86826E-05-2.05089E-14
 -1      1097 9.04909E-03-4.38831E-05-2.20523E-14
 -1      1098 9.32444E-03-4.94230E-05-2.36467E-14
 -1      1099 9.60228E-03-5.52979E-05-2.52948E-14
 -1      1100 9.88212E-03-6.14920E-05-2.69925E-14
 -1      1101 1.01635E-02-6.79809E-05-2.87368E-14
 -1      1102 1.04462E-02-7.47342E-05-3.05205E-14
 -1      1103 1.07297E-02-8.17185E-05-3.23466E-14
 -1      1104 1.10140E-02-8.89003E-05-3.42066E-14
 -1      1105 1.12988E-02-9.62473E-05-3.60992E-14
 -1      1106 1.15839E-02-1.03730E-04-3.80287E-14
 -1      1107 1.18693E-02-1.11322E-04-3.99885E-14
 -1      1108 1.21549E-02-1.19000E-04-4.19725E-14
 -1      1109 1.24406E-02-1.26745E-04-4.39796E-14
 -1      1110 1.27264E-02-1.34541E-04-4.60140E-14
 -1      1111 1.29749E-02-1.60325E-04-4.78039E-14
 -1      1112 7.24978E-03 2.44737E-08-1.23623E-14
 -1      1113 7.73355E-03-2.11098E-05-1.48551E-14
 -1      1114 7.98561E-03-2.50335E-05-1.61939E-14
 -1      1115 7.54507E-03-9.19468E-05-1.37672E-14
 -1      1116 7.79551E-03-1.04287E-04-1.51151E-14
 -1      1117 1.30824E-02-2.70344E-04-4.85420E-14
 -1      1118 7.40706E-03-5.30319E-05-1.30430E-14
 -1      1119 1.29834E-02-2.15585E-04-4.78455E-14
 -1      1120 7.64233E-03-5.78617E-05-1.43102E-14
 -1      1121 0.00000E+00 0.00000E+00 0.00000E+00
 -1      1122 0.00000E+00 0.00000E+00 0.00000E+00
 -1      1123 0.00000E+00 0.00000E+00 0.00000E+00
 -1      1124 0.00000E+00 0.00000E+00 0.00000E+00
 -1      1125 0.00000E+00 0.00000E+00 0.00000E+00
 -1      1126 0.00000E+00 0.00000E+00 0.00000E+00
 -1      1127 0.00000E+00 0.00000E+00 0.00000E+00
 -1      1128 0.00000E+00 0.00000E+00 0.00000E+00
 -1      1129 0.00000E+00 0.00000E+00 0.00000E+00
 -1      1130 0.00000E+00 0.00000E+00 0.00000E+00
 -1      1131 0.00000E+00 0.00000E+00 0.00000E+00
 -1      1132 0.00000E+00 0.00000E+00 0.00000E+00
 -1      1133 0.00000E+00 0.00000E+00 0.00000E+00
 -1      1134 0.00000E+00 0.00000E+00 0.00000E+00
 -1      1135 0.00000E+00 0.00000E+00 0.00000E+00
 -1      1136 0.00000E+00 0.00000E+00 0.00000E+00
 -1      1137 0.00000E+00 0.00000E+00 0.00000E+00
 -1      1138 2.15593E-04-1.42955E-04 7.15573E-18
 -1      1139 5.73233E-04-3.13710E-04-1.17500E-17
 -1      1140 8.83378E-04-4.18315E-04-7.98108E-17
 -1      1141 1.19075E-03-4.89830E-04-2.05754E-16
 -1      1142 1.50318E-03-5.46358E-04-3.86898E-16
 -1      1143 1.82439E-03-5.98829E-04-6.21424E-16
 -1      1144 2.15577E-03-6.55779E-04-9.11489E-16
 -1      1145 2.49612E-03-7.24678E-04-1.25750E-15
 -1      1146 2.84122E-03-8.11352E-04-1.66117E-15
 -1      1147 3.18356E-03-9.17870E-04-2.12440E-15
 -1      1148 3.51322E-03-1.03945E-03-2.64792E-15
 -1      1149 3.82080E-03-1.16195E-03-3.22978E-15
 -1      1150 4.10217E-03-1.26295E-03-3.86757E-15
 -1      1151 4.36281E-03-1.31864E-03-4.56560E-15
 -1      1152 4.61763E-03-1.31456E-03-5.32851E-15
 -1      1153 4.88476E-03-1.25342E-03-6.15678E-15
 -1      1154 5.17702E-03-1.15378E-03-7.04931E-15
 -1      1155 5.49715E-03-1.04074E-03-8.00340E-15
 -1      1156 5.83917E-03-9.35728E-04-9.01322E-15
 -1      1157 6.19314E-03-8.51264E-04-1.00742E-14
 -1      1158 6.54956E-03-7.91228E-04-1.11891E-14
 -1      1159 6.90156E-03-7.53848E-04-1.23613E-14
 -1      1160 7.24531E-03-7.34791E-04-1.35883E-14
 -1      1161 7.57934E-03-7.29237E-04-1.48704E-14
 -1      1162 7.90377E-03-7.32921E-04-1.62119E-14
 -1      1163 8.21954E-03-7.42478E-04-1.76086E-14
 -1      1164 8.52795E-03-7.55439E-04-1.90577E-14
 -1      1165 8.83036E-03-7.70088E-04-2.05670E-14
 -1      1166 9.12803E-03-7.85289E-04-2.21422E-14
 -1      1167 9.42206E-03-8.00336E-04-2.37762E-14
 -1      1168 9.71335E-03-8.14819E-04-2.54735E-14
 -1      1169 1.00026E-02-8.28533E-04-2.72299E-14
 -1      1170 1.02905E-02-8.41409E-04-2.90340E-14
 -1      1171 1.05773E-02-8.53459E-04-3.08853E-14
 -1      1172 1.08634E-02-8.64745E-04-3.27730E-14
 -1      1173 1.11492E-02-8.75354E-04-3.46790E-14
 -1      1174 1.14346E-02-8.85381E-04-3.65974E-14
 -1      1175 1.17199E-02-8.94923E-04-3.85310E-14
 -1      1176 1.20052E-02-9.04066E-04-4.04791E-14
 -1      1177 1.22905E-02-9.12892E-04-4.24457E-14
 -1      1178 1.25757E-02-9.21469E-04-4.44411E-14
 -1      1179 1.28611E-02-9.29855E-04-4.64716E-14
 -1      1180 1.31465E-02-9.38098E-04-4.85399E-14
 -1      1181 1.34319E-02-9.46240E-04-5.06409E-14
 -1      1182 1.37175E-02-9.54312E-04-5.27675E-14
 -1      1183 1.40030E-02-9.62344E-04-5.48981E-14
 -1      1184 1.42887E-02-9.70357E-04-5.70274E-14
 -1      1185 1.45743E-02-9.78373E-04-5.91524E-14
 -1      1186 1.48600E-02-9.86405E-04-6.12867E-14
 -1      1187 1.51386E-02-9.94258E-04-6.33859E-14
 -1      1188 2.32157E-04 1.55415E-04 1.43386E-17
 -1      1189 5.74745E-04 3.19156E-04 1.41759E-17
 -1      1190 8.82848E-04 4.22288E-04-2.64545E-17
 -1      1191 1.18865E-03 4.94156E-04-1.14099E-16
 -1      1192 1.49871E-03 5.51298E-04-2.51359E-16
 -1      1193 1.81640E-03 6.04043E-04-4.39373E-16
 -1      1194 2.14266E-03 6.60331E-04-6.80906E-16
 -1      1195 2.47597E-03 7.26765E-04-9.76202E-16
 -1      1196 2.81212E-03 8.08016E-04-1.33160E-15
 -1      1197 3.14423E-03 9.05013E-04-1.74464E-15
 -1      1198 3.46373E-03 1.01256E-03-2.21971E-15
 -1      1199 3.76307E-03 1.11773E-03-2.75746E-15
 -1      1200 4.03952E-03 1.20134E-03-3.35771E-15
 -1      1201 4.29830E-03 1.24368E-03-4.01762E-15
 -1      1202 4.55222E-03 1.23299E-03-4.75103E-15
 -1      1203 4.81663E-03 1.17147E-03-5.57330E-15
 -1      1204 5.10274E-03 1.07433E-03-6.47452E-15
 -1      1205 5.41366E-03 9.62580E-04-7.44312E-15
 -1      1206 5.74509E-03 8.54955E-04-8.48255E-15
 -1      1207 6.08892E-03 7.63286E-04-9.58141E-15
 -1      1208 6.43677E-03 6.92145E-04-1.07307E-14
 -1      1209 6.78220E-03 6.40970E-04-1.19272E-14
 -1      1210 7.12125E-03 6.06543E-04-1.31716E-14
 -1      1211 7.45213E-03 5.84847E-04-1.44767E-14
 -1      1212 7.77453E-03 5.72103E-04-1.58281E-14
 -1      1213 8.08906E-03 5.65203E-04-1.72184E-14
 -1      1214 8.39674E-03 5.61789E-04-1.86522E-14
 -1      1215 8.69875E-03 5.60180E-04-2.01319E-14
 -1      1216 8.99621E-03 5.59236E-04-2.16686E-14
 -1      1217 9.29014E-03 5.58230E-04-2.32671E-14
 -1      1218 9.58138E-03 5.56731E-04-2.49141E-14
 -1      1219 9.87065E-03 5.54517E-04-2.66098E-14
 -1      1220 1.01585E-02 5.51499E-04-2.83435E-14
 -1      1221 1.04453E-02 5.47679E-04-3.01013E-14
 -1      1222 1.07315E-02 5.43112E-04-3.18972E-14
 -1      1223 1.10172E-02 5.37877E-04-3.37542E-14
 -1      1224 1.13027E-02 5.32067E-04-3.56761E-14
 -1      1225 1.15880E-02 5.25774E-04-3.76605E-14
 -1      1226 1.18733E-02 5.19086E-04-3.96979E-14
 -1      1227 1.21585E-02 5.12082E-04-4.17685E-14
 -1      1228 1.24438E-02 5.04828E-04-4.38723E-14
 -1      1229 1.27292E-02 4.97384E-04-4.59918E-14
 -1      1230 1.30146E-02 4.89798E-04-4.81114E-14
 -1      1231 1.33000E-02 4.82110E-04-5.02528E-14
 -1      1232 1.35856E-02 4.74354E-04-5.24168E-14
 -1      1233 1.38711E-02 4.66556E-04-5.46024E-14
 -1      1234 1.41568E-02 4.58740E-04-5.68060E-14
 -1      1235 1.44424E-02 4.50925E-04-5.90237E-14
 -1      1236 1.47281E-02 4.43128E-04-6.12514E-14
 -1      1237 1.50067E-02 4.35547E-04-6.34310E-14
 -1      1238 1.51462E-02 3.89717E-04-6.44829E-14
 -1      1239 1.51539E-02 3.05431E-04-6.45079E-14
 -1      1240 1.51615E-02 2.21131E-04-6.45144E-14
 -1      1241 1.51691E-02 1.36804E-04-6.44851E-14
 -1      1242 1.51767E-02 5.24440E-05-6.44198E-14
 -1      1243 1.51842E-02-3.12333E-05-6.43616E-14
 -1      1244 1.51918E-02-1.14938E-04-6.43379E-14
 -1      1245 1.51995E-02-1.99379E-04-6.43249E-14
 -1      1246 1.52072E-02-2.83831E-04-6.43223E-14
 -1      1247 1.52151E-02-3.68282E-04-6.43269E-14
 -1      1248 1.52229E-02-4.52723E-04-6.43293E-14
 -1      1249 1.52308E-02-5.36427E-04-6.43437E-14
 -1      1250 1.52387E-02-6.20104E-04-6.43742E-14
 -1      1251 1.52466E-02-7.04463E-04-6.44097E-14
 -1      1252 1.52546E-02-7.88790E-04-6.44213E-14
 -1      1253 1.52626E-02-8.73090E-04-6.44197E-14
 -1      1254 1.52704E-02-9.56661E-04-6.44252E-14
 -1      1255 6.62799E-03 2.59370E-05-6.72930E-15
 -1      1256 6.50200E-03 1.81981E-04-6.61803E-15
 -1      1257 6.27759E-03 3.36600E-04-6.42273E-15
 -1      1258 5.97137E-03 4.90589E-04-6.15378E-15
 -1      1259 5.60053E-03 6.35665E-04-5.82569E-15
 -1      1260 5.19962E-03 7.51995E-04-5.46956E-15
 -1      1261 4.74928E-03 8.28980E-04-5.07252E-15
 -1      1262 4.28674E-03 8.49063E-04-4.67703E-15
 -1      1263 3.82604E-03 8.03427E-04-4.30301E-15
 -1      1264 3.37608E-03 7.02995E-04-3.96373E-15
 -1      1265 2.97603E-03 5.68373E-04-3.68963E-15
 -1      1266 2.62907E-03 4.13670E-04-3.47200E-15
 -1      1267 2.36899E-03 2.58923E-04-3.32438E-15
 -1      1268 2.20639E-03 1.07120E-04-3.24220E-15
 -1      1269 2.15508E-03-4.06962E-05-3.22362E-15
 -1      1270 2.21647E-03-1.86148E-04-3.27182E-15
 -1      1271 2.38202E-03-3.35797E-04-3.38438E-15
 -1      1272 2.64974E-03-4.94382E-04-3.56076E-15
 -1      1273 3.00338E-03-6.52967E-04-3.80373E-15
 -1      1274 3.39936E-03-7.89624E-04-4.09221E-15
 -1      1275 3.84184E-03-8.92221E-04-4.43672E-15
 -1      1276 4.29897E-03-9.42842E-04-4.81201E-15
 -1      1277 4.74609E-03-9.29421E-04-5.19138E-15
 -1      1278 5.18797E-03-8.58774E-04-5.56998E-15
 -1      1279 5.60001E-03-7.43655E-04-5.91992E-15
 -1      1280 5.97743E-03-5.97678E-04-6.22980E-15
 -1      1281 6.29625E-03-4.36782E-04-6.48380E-15
 -1      1282 6.51992E-03-2.77869E-04-6.65803E-15
 -1      1283 6.63288E-03-1.25902E-04-6.74101E-15
 -1      1284 1.73971E-04-1.03186E-04-7.72494E-19
 -1      1285 1.18801E-04-4.63317E-05-1.03406E-17
 -1      1286 1.24297E-04-5.85698E-05-7.75205E-18
 -1      1287 1.12659E-04-3.03564E-05-1.44605E-17
 -1      1288 1.15595E-04-3.73684E-05-1.31595E-17
 -1      1289 2.38708E-04-8.53472E-05-3.14283E-17
 -1      1290 1.08447E-04-1.96676E-05-1.65883E-17
 -1      1291 1.10635E-04-2.45164E-05-1.59649E-17
 -1      1292 2.26598E-04-5.68274E-05-3.87060E-17
 -1      1293 1.04940E-04-1.22272E-05-1.81739E-17
 -1      1294 1.06730E-04-1.56604E-05-1.77674E-17
 -1      1295 2.17557E-04-3.71799E-05-4.30428E-17
 -1      1296 1.02115E-04-7.19918E-06-1.87160E-17
 -1      1297 1.03516E-04-9.55115E-06-1.85941E-17
 -1      1298 2.10162E-04-2.34517E-05-4.55636E-17
 -1      1299 9.99941E-05-3.81133E-06-1.90006E-17
 -1      1300 1.00990E-04-5.44796E-06-1.89329E-17
 -1      1301 2.04241E-04-1.39133E-05-4.66614E-17
 -1      1302 9.87964E-05-1.54055E-06-1.89735E-17
 -1      1303 9.92936E-05-2.72412E-06-1.89600E-17
 -1      1304 2.00054E-04-7.33321E-06-4.70273E-17
 -1      1305 9.86181E-05 2.85663E-07-1.88380E-17
 -1      1306 9.85802E-05-7.71923E-07-1.89058E-17
 -1      1307 1.97965E-04-2.57020E-06-4.68782E-17
 -1      1308 9.94639E-05 2.36149E-06-1.82959E-17
 -1      1309 9.89016E-05 1.09956E-06-1.84043E-17
 -1      1310 1.98134E-04 1.68707E-06-4.62277E-17
 -1      1311 1.01245E-04 5.34908E-06-1.76860E-17
 -1      1312 1.00213E-04 3.57334E-06-1.78487E-17
 -1      1313 2.00512E-04 6.76071E-06-4.49537E-17
 -1      1314 1.03762E-04 9.75139E-06-1.65883E-17
 -1      1315 1.02362E-04 7.24005E-06-1.69136E-17
 -1      1316 2.04818E-04 1.38185E-05-4.30293E-17
 -1      1317 1.06955E-04 1.62650E-05-1.49078E-17
 -1      1318 1.05195E-04 1.26584E-05-1.54363E-17
 -1      1319 2.10734E-04 2.39960E-05-3.99935E-17
 -1      1320 1.10744E-04 2.54765E-05-1.26987E-17
 -1      1321 1.08612E-04 2.04709E-05-1.35254E-17
 -1      1322 2.18052E-04 3.85271E-05-3.59684E-17
 -1      1323 1.15515E-04 3.85658E-05-8.75493E-18
 -1      1324 1.12664E-04 3.14587E-05-1.03948E-17
 -1      1325 2.26802E-04 5.88345E-05-2.98562E-17
 -1      1326 1.23417E-04 5.90817E-05-2.77827E-18
 -1      1327 1.18326E-04 4.75729E-05-5.61075E-18
 -1      1328 2.38484E-04 8.80134E-05-2.06134E-17
 -1      1329 1.63542E-04 1.04152E-04 6.45100E-18
 -1      1330 1.42961E-04 7.83725E-05 8.53809E-19
 -1      1331 2.71130E-04 1.34452E-04-9.62229E-18
 -1      1332 3.49630E-04 2.05979E-04 5.88180E-18
 -1      1333 4.42775E-04-2.39891E-04-1.83095E-17
 -1      1334 6.07448E-04-3.04864E-04-4.06847E-17
 -1      1335 7.68015E-04-3.56481E-04-7.79541E-17
 -1      1336 9.26405E-04-3.98254E-04-1.29088E-16
 -1      1337 6.52635E-04-2.90819E-04-7.39290E-17
 -1      1338 1.08360E-03-4.33689E-04-1.93476E-16
 -1      1339 1.24057E-03-4.64216E-04-2.71606E-16
 -1      1340 9.73666E-04-3.75841E-04-1.79679E-16
 -1      1341 1.39821E-03-4.92026E-04-3.63194E-16
 -1      1342 1.55701E-03-5.17973E-04-4.68389E-16
 -1      1343 1.29022E-03-4.37496E-04-3.38840E-16
 -1      1344 1.71742E-03-5.43592E-04-5.86648E-16
 -1      1345 1.87963E-03-5.69668E-04-7.18677E-16
 -1      1346 1.60810E-03-4.89212E-04-5.51019E-16
 -1      1347 2.04375E-03-5.97474E-04-8.64543E-16
 -1      1348 2.20968E-03-6.27768E-04-1.02368E-15
 -1      1349 1.93059E-03-5.40789E-04-8.16702E-16
 -1      1350 2.37724E-03-6.61686E-04-1.19696E-15
 -1      1351 2.54600E-03-6.99810E-04-1.38488E-15
 -1      1352 2.25889E-03-6.00735E-04-1.13683E-15
 -1      1353 2.71548E-03-7.42987E-04-1.58724E-15
 -1      1354 2.88493E-03-7.91360E-04-1.80361E-15
 -1      1355 2.59220E-03-6.76546E-04-1.51264E-15
 -1      1356 3.05359E-03-8.45086E-04-2.03483E-15
 -1      1357 3.22048E-03-9.03501E-04-2.28122E-15
 -1      1358 2.92774E-03-7.73306E-04-1.94576E-15
 -1      1359 3.38472E-03-9.65552E-04-2.54186E-15
 -1      1360 3.54540E-03-1.02944E-03-2.81731E-15
 -1      1361 3.26089E-03-8.90797E-04-2.43670E-15
 -1      1362 3.70185E-03-1.09263E-03-3.10692E-15
 -1      1363 3.85367E-03-1.15225E-03-3.41207E-15
 -1      1364 3.58605E-03-1.01993E-03-2.98595E-15
 -1      1365 4.00084E-03-1.20477E-03-3.73130E-15
 -1      1366 4.14390E-03-1.24710E-03-4.06520E-15
 -1      1367 3.89872E-03-1.14093E-03-3.59402E-15
 -1      1368 4.28373E-03-1.27614E-03-4.41567E-15
 -1      1369 4.42181E-03-1.29001E-03-4.78162E-15
 -1      1370 4.19835E-03-1.22706E-03-4.26415E-15
 -1      1371 4.55963E-03-1.28769E-03-5.16315E-15
 -1      1372 4.69900E-03-1.26957E-03-5.56159E-15
 -1      1373 4.49038E-03-1.25519E-03-4.99705E-15
 -1      1374 4.84128E-03-1.23739E-03-5.97559E-15
 -1      1375 4.98777E-03-1.19355E-03-6.40643E-15
 -1      1376 4.78445E-03-1.21803E-03-5.79418E-15
 -1      1377 5.13910E-03-1.14152E-03-6.85271E-15
 -1      1378 5.29554E-03-1.08455E-03-7.31504E-15
 -1      1379 5.08947E-03-1.12854E-03-6.65613E-15
 -1      1380 5.45686E-03-1.02611E-03-7.79222E-15
 -1      1381 5.62247E-03-9.68915E-04-8.28240E-15
 -1      1382 5.40927E-03-1.01273E-03-7.58024E-15
 -1      1383 5.79161E-03-9.15229E-04-8.78746E-15
 -1      1384 5.96329E-03-8.66657E-04-9.30624E-15
 -1      1385 5.74193E-03-8.97009E-04-8.56289E-15
 -1      1386 6.13663E-03-8.24016E-04-9.83736E-15
 -1      1387 6.31068E-03-7.87873E-04-1.03817E-14
 -1      1388 6.08229E-03-7.99241E-04-9.59970E-15
 -1      1389 6.48470E-03-7.58019E-04-1.09404E-14
 -1      1390 6.65801E-03-7.34345E-04-1.15135E-14
 -1      1391 6.42470E-03-7.26976E-04-1.06906E-14
 -1      1392 6.83011E-03-7.16154E-04-1.20990E-14
 -1      1393 7.00060E-03-7.03012E-04-1.26989E-14
 -1      1394 6.76464E-03-6.80110E-04-1.18364E-14
 -1      1395 7.16924E-03-6.94125E-04-1.33142E-14
 -1      1396 7.33588E-03-6.88970E-04-1.39424E-14
 -1      1397 7.09920E-03-6.54584E-04-1.30390E-14
 -1      1398 7.50044E-03-6.86856E-04-1.45840E-14
 -1      1399 7.66292E-03-6.87288E-04-1.52398E-14
 -1      1400 7.42695E-03-6.45156E-04-1.42967E-14
 -1      1401 7.82339E-03-6.89743E-04-1.59097E-14
 -1      1402 7.98192E-03-6.93806E-04-1.65961E-14
 -1      1403 7.74756E-03-6.46912E-04-1.56104E-14
 -1      1404 8.13864E-03-6.99116E-04-1.72952E-14
 -1      1405 8.29367E-03-7.05346E-04-1.80068E-14
 -1      1406 8.06138E-03-6.55870E-04-1.69805E-14
 -1      1407 8.44715E-03-7.12267E-04-1.87335E-14
 -1      1408 8.59922E-03-7.19633E-04-1.94728E-14
 -1      1409 8.36915E-03-6.69064E-04-1.84066E-14
 -1      1410 8.75002E-03-7.27310E-04-2.02285E-14
 -1      1411 8.89968E-03-7.35122E-04-2.10003E-14
 -1      1412 8.67177E-03-6.84417E-04-1.98902E-14
 -1      1413 9.04833E-03-7.42997E-04-2.17865E-14
 -1      1414 9.19609E-03-7.50816E-04-2.25887E-14
 -1      1415 8.97015E-03-7.00548E-04-2.14320E-14
 -1      1416 9.34306E-03-7.58548E-04-2.34057E-14
 -1      1417 9.48935E-03-7.66114E-04-2.42370E-14
 -1      1418 9.26514E-03-7.16588E-04-2.30339E-14
 -1      1419 9.63505E-03-7.73511E-04-2.50838E-14
 -1      1420 9.78022E-03-7.80688E-04-2.59475E-14
 -1      1421 9.55747E-03-7.32035E-04-2.46978E-14
 -1      1422 9.92496E-03-7.87659E-04-2.68240E-14
 -1      1423 1.00693E-02-7.94393E-04-2.77122E-14
 -1      1424 9.84778E-03-7.46629E-04-2.64185E-14
 -1      1425 1.02134E-02-8.00910E-04-2.86126E-14
 -1      1426 1.03571E-02-8.07198E-04-2.95240E-14
 -1      1427 1.01366E-02-7.60275E-04-2.81926E-14
 -1      1428 1.05007E-02-8.13277E-04-3.04477E-14
 -1      1429 1.06440E-02-8.19146E-04-3.13802E-14
 -1      1430 1.04242E-02-7.72979E-04-3.00124E-14
 -1      1431 1.07872E-02-8.24825E-04-3.23198E-14
 -1      1432 1.09303E-02-8.30317E-04-3.32649E-14
 -1      1433 1.07111E-02-7.84807E-04-3.18702E-14
 -1      1434 1.10733E-02-8.35644E-04-3.42164E-14
 -1      1435 1.12162E-02-8.40811E-04-3.51707E-14
 -1      1436 1.09974E-02-7.95854E-04-3.37563E-14
 -1      1437 1.13590E-02-8.45838E-04-3.61288E-14
 -1      1438 1.15018E-02-8.50731E-04-3.70915E-14
 -1      1439 1.12834E-02-8.06230E-04-3.56615E-14
 -1      1440 1.16445E-02-8.55508E-04-3.80574E-14
 -1      1441 1.17873E-02-8.60176E-04-3.90279E-14
 -1      1442 1.15691E-02-8.16044E-04-3.75850E-14
 -1      1443 1.19300E-02-8.64750E-04-4.00016E-14
 -1      1444 1.20726E-02-8.69237E-04-4.09777E-14
 -1      1445 1.18547E-02-8.25395E-04-3.95237E-14
 -1      1446 1.22153E-02-8.73649E-04-4.19625E-14
 -1      1447 1.23580E-02-8.77993E-04-4.29546E-14
 -1      1448 1.21402E-02-8.34377E-04-4.14812E-14
 -1      1449 1.25007E-02-8.82278E-04-4.39522E-14
 -1      1450 1.26434E-02-8.86512E-04-4.49556E-14
 -1      1451 1.24256E-02-8.43067E-04-4.34594E-14
 -1      1452 1.27861E-02-8.90701E-04-4.59711E-14
 -1      1453 1.29288E-02-8.94852E-04-4.69967E-14
 -1      1454 1.27111E-02-8.51533E-04-4.54729E-14
 -1      1455 1.30716E-02-8.98970E-04-4.80293E-14
 -1      1456 1.32143E-02-9.03059E-04-4.90703E-14
 -1      1457 1.29966E-02-8.59831E-04-4.75201E-14
 -1      1458 1.33570E-02-9.07126E-04-5.01194E-14
 -1      1459 1.34998E-02-9.11174E-04-5.11732E-14
 -1      1460 1.32821E-02-8.68006E-04-4.95991E-14
 -1      1461 1.36426E-02-9.15206E-04-5.22330E-14
 -1      1462 1.37854E-02-9.19227E-04-5.32962E-14
 -1      1463 1.35677E-02-8.76097E-04-5.17037E-14
 -1      1464 1.39282E-02-9.23239E-04-5.43600E-14
 -1      1465 1.40710E-02-9.27246E-04-5.54239E-14
 -1      1466 1.38533E-02-8.84134E-04-5.38256E-14
 -1      1467 1.42138E-02-9.31249E-04-5.64893E-14
 -1      1468 1.43566E-02-9.35253E-04-5.75551E-14
 -1      1469 1.41389E-02-8.92143E-04-5.59527E-14
 -1      1470 1.44994E-02-9.39258E-04-5.86230E-14
 -1      1471 1.46423E-02-9.43267E-04-5.96862E-14
 -1      1472 1.44245E-02-9.00146E-04-5.80844E-14
 -1      1473 1.47851E-02-9.47281E-04-6.07538E-14
 -1      1474 1.49280E-02-9.51303E-04-6.18277E-14
 -1      1475 1.47102E-02-9.08161E-04-6.02227E-14
 -1      1476 1.51347E-02-9.52829E-04-6.33917E-14
 -1      1477 1.50598E-02-9.13699E-04-6.28533E-14
 -1      1478 6.79562E-04 3.38280E-04-1.58971E-17
 -1      1479 5.17538E-04 2.79111E-04 6.36969E-19
 -1      1480 4.70602E-04 2.39667E-04-1.09098E-17
 -1      1481 9.94529E-04 4.24090E-04-8.34158E-17
 -1      1482 8.38033E-04 3.84860E-04-4.38695E-17
 -1      1483 7.94595E-04 3.46624E-04-5.86960E-17
 -1      1484 1.30621E-03 4.87213E-04-1.97826E-16
 -1      1485 1.15021E-03 4.57549E-04-1.34522E-16
 -1      1486 1.11075E-03 4.20470E-04-1.52330E-16
 -1      1487 1.62090E-03 5.40539E-04-3.62096E-16
 -1      1488 1.46286E-03 5.14539E-04-2.73517E-16
 -1      1489 1.42513E-03 4.77638E-04-2.93588E-16
 -1      1490 1.94146E-03 5.93124E-04-5.77893E-16
 -1      1491 1.78031E-03 5.66494E-04-4.63171E-16
 -1      1492 1.74220E-03 5.29049E-04-4.84665E-16
 -1      1493 2.26826E-03 6.52494E-04-8.46897E-16
 -1      1494 2.10411E-03 6.21631E-04-7.05558E-16
 -1      1495 2.06398E-03 5.83184E-04-7.27906E-16
 -1      1496 2.59933E-03 7.24813E-04-1.17242E-15
 -1      1497 2.43345E-03 6.86870E-04-1.00291E-15
 -1      1498 2.39041E-03 6.47260E-04-1.02580E-15
 -1      1499 2.93045E-03 8.13647E-04-1.55628E-15
 -1      1500 2.76523E-03 7.67283E-04-1.35687E-15
 -1      1501 2.71943E-03 7.26727E-04-1.38042E-15
 -1      1502 3.25562E-03 9.17691E-04-1.99877E-15
 -1      1503 3.09422E-03 8.64295E-04-1.77004E-15
 -1      1504 3.04719E-03 8.23487E-04-1.79182E-15
 -1      1505 3.56845E-03 1.02831E-03-2.50268E-15
 -1      1506 3.41398E-03 9.73159E-04-2.24286E-15
 -1      1507 3.36869E-03 9.33277E-04-2.26334E-15
 -1      1508 3.86464E-03 1.12884E-03-3.06875E-15
 -1      1509 3.71878E-03 1.08111E-03-2.77762E-15
 -1      1510 3.67920E-03 1.04357E-03-2.79613E-15
 -1      1511 4.14482E-03 1.19798E-03-3.69949E-15
 -1      1512 4.00647E-03 1.16848E-03-3.37615E-15
 -1      1513 3.97656E-03 1.13436E-03-3.39241E-15
 -1      1514 4.41576E-03 1.21764E-03-4.39392E-15
 -1      1515 4.28078E-03 1.21448E-03-4.03811E-15
 -1      1516 4.26322E-03 1.18389E-03-4.05385E-15
 -1      1517 4.68847E-03 1.18164E-03-5.16949E-15
 -1      1518 4.55110E-03 1.20614E-03-4.77091E-15
 -1      1519 4.54636E-03 1.17798E-03-4.78701E-15
 -1      1520 4.97357E-03 1.09914E-03-6.02699E-15
 -1      1521 4.82891E-03 1.14498E-03-5.58775E-15
 -1      1522 4.83512E-03 1.11749E-03-5.60032E-15
 -1      1523 5.27685E-03 9.90053E-04-6.95944E-15
 -1      1524 5.12278E-03 1.04650E-03-6.48449E-15
 -1      1525 5.13637E-03 1.01806E-03-6.49199E-15
 -1      1526 5.59801E-03 8.76029E-04-7.96020E-15
 -1      1527 5.43542E-03 9.32527E-04-7.45118E-15
 -1      1528 5.45214E-03 9.02318E-04-7.45556E-15
 -1      1529 5.93219E-03 7.73393E-04-9.02548E-15
 -1      1530 5.76389E-03 8.22673E-04-8.48566E-15
 -1      1531 5.77994E-03 7.90608E-04-8.48715E-15
 -1      1532 6.27283E-03 6.90481E-04-1.01478E-14
 -1      1533 6.10213E-03 7.29310E-04-9.58027E-15
 -1      1534 6.11487E-03 6.95791E-04-9.57765E-15
 -1      1535 6.61394E-03 6.28991E-04-1.13180E-14
 -1      1536 6.44367E-03 6.57184E-04-1.07262E-14
 -1      1537 6.45178E-03 6.22771E-04-1.07208E-14
 -1      1538 6.95120E-03 5.86597E-04-1.25369E-14
 -1      1539 6.78327E-03 6.05657E-04-1.19217E-14
 -1      1540 6.78655E-03 5.70875E-04-1.19141E-14
 -1      1541 7.28214E-03 5.59318E-04-1.38078E-14
 -1      1542 7.11757E-03 5.71338E-04-1.31659E-14
 -1      1543 7.11649E-03 5.36584E-04-1.31564E-14
 -1      1544 7.60577E-03 5.43010E-04-1.51335E-14
 -1      1545 7.44490E-03 5.50031E-04-1.44642E-14
 -1      1546 7.44027E-03 5.15564E-04-1.44512E-14
 -1      1547 7.92215E-03 5.34084E-04-1.65024E-14
 -1      1548 7.76485E-03 5.37814E-04-1.58122E-14
 -1      1549 7.75753E-03 5.03773E-04-1.57948E-14
 -1      1550 8.23192E-03 5.29733E-04-1.79136E-14
 -1      1551 8.07781E-03 5.31477E-04-1.72020E-14
 -1      1552 8.06860E-03 4.97916E-04-1.71838E-14
 -1      1553 8.53598E-03 5.27908E-04-1.93695E-14
 -1      1554 8.38460E-03 5.28604E-04-1.86359E-14
 -1      1555 8.37413E-03 4.95518E-04-1.86175E-14
 -1      1556 8.83534E-03 5.27195E-04-2.08780E-14
 -1      1557 8.68619E-03 5.27478E-04-2.01168E-14
 -1      1558 8.67495E-03 4.94829E-04-2.00996E-14
 -1      1559 9.13092E-03 5.26668E-04-2.24441E-14
 -1      1560 8.98354E-03 5.26949E-04-2.16522E-14
 -1      1561 8.97190E-03 4.94683E-04-2.16340E-14
 -1      1562 9.42357E-03 5.25764E-04-2.40622E-14
 -1      1563 9.27756E-03 5.26287E-04-2.32471E-14
 -1      1564 9.26577E-03 4.94343E-04-2.32244E-14
 -1      1565 9.71399E-03 5.24172E-04-2.57322E-14
 -1      1566 9.56902E-03 5.25066E-04-2.48917E-14
 -1      1567 9.55722E-03 4.93386E-04-2.48673E-14
 -1      1568 1.00028E-02 5.21752E-04-2.74448E-14
 -1      1569 9.85855E-03 5.23069E-04-2.65829E-14
 -1      1570 9.84685E-03 4.91601E-04-2.65553E-14
 -1      1571 1.02903E-02 5.18475E-04-2.91883E-14
 -1      1572 1.01467E-02 5.20220E-04-2.83131E-14
 -1      1573 1.01351E-02 4.88917E-04-2.82827E-14
 -1      1574 1.05771E-02 5.14382E-04-3.09681E-14
 -1      1575 1.04338E-02 5.16527E-04-3.00736E-14
 -1      1576 1.04224E-02 4.85351E-04-3.00431E-14
 -1      1577 1.08632E-02 5.09550E-04-3.27950E-14
 -1      1578 1.07202E-02 5.12053E-04-3.18739E-14
 -1      1579 1.07090E-02 4.80973E-04-3.18457E-14
 -1      1580 1.11490E-02 5.04072E-04-3.46783E-14
 -1      1581 1.10061E-02 5.06886E-04-3.37296E-14
 -1      1582 1.09951E-02 4.75875E-04-3.37011E-14
 -1      1583 1.14345E-02 4.98049E-04-3.66294E-14
 -1      1584 1.12918E-02 5.01123E-04-3.56462E-14
 -1      1585 1.12809E-02 4.70162E-04-3.56149E-14
 -1      1586 1.17200E-02 4.91574E-04-3.86297E-14
 -1      1587 1.15773E-02 4.94863E-04-3.76228E-14
 -1      1588 1.15665E-02 4.63937E-04-3.75829E-14
 -1      1589 1.20053E-02 4.84735E-04-4.06769E-14
 -1      1590 1.18626E-02 4.88196E-04-3.96483E-14
 -1      1591 1.18520E-02 4.57293E-04-3.95992E-14
 -1      1592 1.22907E-02 4.77608E-04-4.27558E-14
 -1      1593 1.21480E-02 4.81203E-04-4.17126E-14
 -1      1594 1.21375E-02 4.50316E-04-4.16543E-14
 -1      1595 1.25761E-02 4.70257E-04-4.48634E-14
 -1      1596 1.24334E-02 4.73957E-04-4.38057E-14
 -1      1597 1.24229E-02 4.43078E-04-4.37423E-14
 -1      1598 1.28615E-02 4.62738E-04-4.69799E-14
 -1      1599 1.27188E-02 4.66515E-04-4.59221E-14
 -1      1600 1.27084E-02 4.35641E-04-4.58503E-14
 -1      1601 1.31470E-02 4.55095E-04-4.91061E-14
 -1      1602 1.30042E-02 4.58929E-04-4.80418E-14
 -1      1603 1.29938E-02 4.28056E-04-4.79706E-14
 -1      1604 1.34325E-02 4.47366E-04-5.12573E-14
 -1      1605 1.32897E-02 4.51239E-04-5.01789E-14
 -1      1606 1.32794E-02 4.20365E-04-5.01047E-14
 -1      1607 1.37180E-02 4.39581E-04-5.34260E-14
 -1      1608 1.35752E-02 4.43479E-04-5.23388E-14
 -1      1609 1.35649E-02 4.12602E-04-5.22591E-14
 -1      1610 1.40036E-02 4.31767E-04-5.56143E-14
 -1      1611 1.38608E-02 4.35677E-04-5.45179E-14
 -1      1612 1.38505E-02 4.04797E-04-5.44325E-14
 -1      1613 1.42893E-02 4.23946E-04-5.78205E-14
 -1      1614 1.41465E-02 4.27856E-04-5.67147E-14
 -1      1615 1.41362E-02 3.96973E-04-5.66253E-14
 -1      1616 1.45750E-02 4.16134E-04-6.00378E-14
 -1      1617 1.44321E-02 4.20038E-04-5.89281E-14
 -1      1618 1.44218E-02 3.89150E-04-5.88320E-14
 -1      1619 1.48607E-02 4.08345E-04-6.22683E-14
 -1      1620 1.47178E-02 4.12237E-04-6.11528E-14
 -1      1621 1.47075E-02 3.81346E-04-6.10519E-14
 -1      1622 1.50105E-02 3.93404E-04-6.34290E-14
 -1      1623 1.50320E-02 2.87713E-04-6.35374E-14
 -1      1624 1.50282E-02 3.29861E-04-6.35304E-14
 -1      1625 1.50396E-02 2.03403E-04-6.35328E-14
 -1      1626 1.50358E-02 2.45561E-04-6.35400E-14
 -1      1627 1.49102E-02 2.70000E-04-6.25661E-14
 -1      1628 1.50472E-02 1.19069E-04-6.35095E-14
 -1      1629 1.50434E-02 1.61239E-04-6.35233E-14
 -1      1630 1.49178E-02 1.85684E-04-6.25620E-14
 -1      1631 1.50548E-02 3.47077E-05-6.34645E-14
 -1      1632 1.50510E-02 7.68917E-05-6.34887E-14
 -1      1633 1.49254E-02 1.01347E-04-6.25446E-14
 -1      1634 1.50623E-02-4.82490E-05-6.34319E-14
 -1      1635 1.50586E-02-6.76773E-06-6.34450E-14
 -1      1636 1.49329E-02 1.77014E-05-6.25209E-14
 -1      1637 1.50700E-02-1.32658E-04-6.34134E-14
 -1      1638 1.50661E-02-9.04509E-05-6.34209E-14
 -1      1639 1.49405E-02-6.59644E-05-6.25025E-14
 -1      1640 1.50777E-02-2.17081E-04-6.34039E-14
 -1      1641 1.50738E-02-1.74868E-04-6.34069E-14
 -1      1642 1.49482E-02-1.50362E-04-6.24886E-14
 -1      1643 1.50855E-02-3.01511E-04-6.34038E-14
 -1      1644 1.50816E-02-2.59296E-04-6.34034E-14
 -1      1645 1.49559E-02-2.34770E-04-6.24828E-14
 -1      1646 1.50933E-02-3.85939E-04-6.34041E-14
 -1      1647 1.50894E-02-3.43726E-04-6.34058E-14
 -1      1648 1.49637E-02-3.19182E-04-6.24829E-14
 -1      1649 1.51012E-02-4.70355E-04-6.34115E-14
 -1      1650 1.50972E-02-4.28149E-04-6.34064E-14
 -1      1651 1.49715E-02-4.03590E-04-6.24843E-14
 -1      1652 1.51090E-02-5.53323E-04-6.34250E-14
 -1      1653 1.51051E-02-5.11842E-04-6.34179E-14
 -1      1654 1.49793E-02-4.87272E-04-6.24903E-14
 -1      1655 1.51169E-02-6.37697E-04-6.34508E-14
 -1      1656 1.51129E-02-5.95513E-04-6.34355E-14
 -1      1657 1.49872E-02-5.70938E-04-6.25044E-14
 -1      1658 1.51249E-02-7.22044E-04-6.34747E-14
 -1      1659 1.51209E-02-6.79874E-04-6.34655E-14
 -1      1660 1.49952E-02-6.55298E-04-6.25241E-14
 -1      1661 1.51329E-02-8.06366E-04-6.34829E-14
 -1      1662 1.51289E-02-7.64208E-04-6.34803E-14
 -1      1663 1.50032E-02-7.39635E-04-6.25407E-14
 -1      1664 1.50983E-02-8.81109E-04-6.31684E-14
 -1      1665 1.50944E-02-8.38960E-04-6.31666E-14
 -1      1666 1.49686E-02-8.14394E-04-6.22315E-14
 -1      1667 1.48916E-02-8.79585E-04-6.16065E-14
 -1      1668 6.61994E-03 2.01815E-05-6.93633E-15
 -1      1669 6.65718E-03-2.58217E-05-6.96906E-15
 -1      1670 6.43238E-03 1.30749E-04-6.81061E-15
 -1      1671 6.53487E-03 7.52831E-05-6.89344E-15
 -1      1672 6.15426E-03 2.84969E-04-6.53473E-15
 -1      1673 6.29226E-03 2.16962E-04-6.65131E-15
 -1      1674 5.79482E-03 4.58844E-04-6.21087E-15
 -1      1675 5.96982E-03 3.74932E-04-6.36976E-15
 -1      1676 5.41207E-03 6.38285E-04-5.83144E-15
 -1      1677 5.59113E-03 5.58582E-04-6.00553E-15
 -1      1678 5.02546E-03 7.86485E-04-5.43394E-15
 -1      1679 5.20312E-03 7.22703E-04-5.61912E-15
 -1      1680 4.60149E-03 8.89908E-04-4.99107E-15
 -1      1681 4.79185E-03 8.52525E-04-5.20403E-15
 -1      1682 4.21473E-03 8.89525E-04-4.57346E-15
 -1      1683 4.38724E-03 8.99004E-04-4.75390E-15
 -1      1684 3.79999E-03 8.00213E-04-4.16672E-15
 -1      1685 3.99757E-03 8.54565E-04-4.35313E-15
 -1      1686 3.37809E-03 6.47699E-04-3.83295E-15
 -1      1687 3.56424E-03 7.22362E-04-3.97872E-15
 -1      1688 2.97722E-03 4.68462E-04-3.55792E-15
 -1      1689 3.16114E-03 5.53295E-04-3.67791E-15
 -1      1690 2.61442E-03 2.95459E-04-3.34635E-15
 -1      1691 2.77499E-03 3.73108E-04-3.43603E-15
 -1      1692 2.34059E-03 1.54210E-04-3.21075E-15
 -1      1693 2.45431E-03 2.14746E-04-3.26395E-15
 -1      1694 2.17328E-03 3.82662E-05-3.14043E-15
 -1      1695 2.23579E-03 8.95601E-05-3.16539E-15
 -1      1696 2.14353E-03-5.96881E-05-3.13714E-15
 -1      1697 2.14016E-03-1.61453E-05-3.13027E-15
 -1      1698 2.24895E-03-1.60908E-04-3.19691E-15
 -1      1699 2.18336E-03-1.11802E-04-3.15733E-15
 -1      1700 2.46932E-03-2.89859E-04-3.33176E-15
 -1      1701 2.35474E-03-2.28892E-04-3.26544E-15
 -1      1702 2.80855E-03-4.46468E-04-3.52360E-15
 -1      1703 2.64087E-03-3.64630E-04-3.41921E-15
 -1      1704 3.20901E-03-6.27303E-04-3.78178E-15
 -1      1705 3.02840E-03-5.39901E-04-3.65270E-15
 -1      1706 3.59208E-03-8.08941E-04-4.11303E-15
 -1      1707 3.41015E-03-7.32676E-04-3.96211E-15
 -1      1708 4.01894E-03-9.46528E-04-4.49326E-15
 -1      1709 3.82875E-03-8.89593E-04-4.30618E-15
 -1      1710 4.40309E-03-9.91514E-04-4.90200E-15
 -1      1711 4.22716E-03-9.80173E-04-4.71940E-15
 -1      1712 4.79546E-03-9.52458E-04-5.32175E-15
 -1      1713 4.61277E-03-9.82732E-04-5.12567E-15
 -1      1714 5.19742E-03-8.33590E-04-5.72890E-15
 -1      1715 5.01373E-03-8.96140E-04-5.54437E-15
 -1      1716 5.59282E-03-6.69187E-04-6.10501E-15
 -1      1717 5.41107E-03-7.49217E-04-5.93682E-15
 -1      1718 5.97713E-03-4.83096E-04-6.45036E-15
 -1      1719 5.79959E-03-5.68405E-04-6.30271E-15
 -1      1720 6.31947E-03-3.20107E-04-6.70662E-15
 -1      1721 6.17276E-03-3.94083E-04-6.59368E-15
 -1      1722 6.55346E-03-1.86844E-04-6.87770E-15
 -1      1723 6.45997E-03-2.43962E-04-6.81239E-15
 -1      1724 6.65853E-03-7.94956E-05-6.94843E-15
 -1      1725 6.62692E-03-1.26614E-04-6.92953E-15
 -1      1726 5.63422E-03 4.69380E-04-6.22340E-15
 -1      1727 6.01423E-03 2.76724E-04-6.60224E-15
 -1      1728 1.50002E-02 3.62511E-04-6.33308E-14
 -1      1729 1.48784E-02 3.44803E-04-6.23650E-14
 -1      1730 6.57858E-03 1.45513E-05-7.14296E-15
 -1      1731 6.34376E-03 1.16686E-04-6.93379E-15
 -1      1732 6.66799E-03-5.22252E-05-7.16776E-15
 -1      1733 5.24658E-03 6.67259E-04-5.79872E-15
 -1      1734 4.85275E-03 8.33457E-04-5.35135E-15
 -1      1735 4.49284E-03 9.21296E-04-4.88205E-15
 -1      1736 4.12695E-03 8.93114E-04-4.42623E-15
 -1      1737 3.74341E-03 7.63200E-04-4.02399E-15
 -1      1738 3.33084E-03 5.73220E-04-3.68824E-15
 -1      1739 2.92758E-03 3.73350E-04-3.41913E-15
 -1      1740 2.56527E-03 2.02845E-04-3.22126E-15
 -1      1741 2.29297E-03 8.07028E-05-3.09800E-15
 -1      1742 2.14898E-03-1.97392E-06-3.04481E-15
 -1      1743 2.15633E-03-6.88446E-05-3.05438E-15
 -1      1744 2.30876E-03-1.50188E-04-3.13888E-15
 -1      1745 2.59083E-03-2.73093E-04-3.28930E-15
 -1      1746 2.97495E-03-4.40644E-04-3.49781E-15
 -1      1747 3.37428E-03-6.50364E-04-3.79762E-15
 -1      1748 3.77615E-03-8.50691E-04-4.16578E-15
 -1      1749 4.14373E-03-9.84665E-04-4.58002E-15
 -1      1750 4.50350E-03-1.01340E-03-5.02972E-15
 -1      1751 4.86187E-03-9.38407E-04-5.47899E-15
 -1      1752 5.24464E-03-7.81066E-04-5.91473E-15
 -1      1753 5.63847E-03-5.81318E-04-6.32743E-15
 -1      1754 6.03133E-03-3.86753E-04-6.67718E-15
 -1      1755 6.37061E-03-2.33367E-04-6.93320E-15
 -1      1756 6.59219E-03-1.27343E-04-7.09468E-15
 -1      1757 3.01259E-04-1.59290E-04-1.72930E-17
 -1      1758 3.41526E-04-8.03720E-05-6.17860E-17
 -1      1759 3.50063E-04-9.76774E-05-5.78286E-17
 -1      1760 3.59991E-04-1.18537E-04-5.28278E-17
 -1      1761 3.72710E-04-1.43267E-04-4.59160E-17
 -1      1762 4.80222E-04-1.44255E-04-8.42154E-17
 -1      1763 3.15447E-04-3.39829E-05-7.01208E-17
 -1      1764 3.20931E-04-4.27090E-05-6.89959E-17
 -1      1765 3.06288E-04-2.01516E-05-7.16522E-17
 -1      1766 3.10504E-04-2.64432E-05-7.11101E-17
 -1      1767 4.20057E-04-4.23735E-05-1.04558E-16
 -1      1768 3.00251E-04-1.02453E-05-7.19775E-17
 -1      1769 3.02845E-04-1.48021E-05-7.19639E-17
 -1      1770 4.07974E-04-2.48664E-05-1.06252E-16
 -1      1771 2.97763E-04-2.46457E-06-7.16658E-17
 -1      1772 2.98543E-04-6.19440E-06-7.18826E-17
 -1      1773 4.00559E-04-1.17691E-05-1.06523E-16
 -1      1774 2.98999E-04 5.07620E-06-7.02427E-17
 -1      1775 2.97919E-04 1.22844E-06-7.11101E-17
 -1      1776 3.98360E-04-7.68202E-07-1.05615E-16
 -1      1777 3.03794E-04 1.42408E-05-6.83454E-17
 -1      1778 3.00979E-04 9.35711E-06-6.94703E-17
 -1      1779 4.01503E-04 1.05444E-05-1.03541E-16
 -1      1780 3.11548E-04 2.65072E-05-6.48353E-17
 -1      1781 3.07332E-04 1.98928E-05-6.67733E-17
 -1      1782 4.09536E-04 2.43697E-05-1.00031E-16
 -1      1783 3.22009E-04 4.38675E-05-6.01190E-17
 -1      1784 3.16484E-04 3.45108E-05-6.28024E-17
 -1      1785 4.21777E-04 4.28831E-05-9.48541E-17
 -1      1786 3.34779E-04 6.78404E-05-5.34105E-17
 -1      1787 3.28104E-04 5.49698E-05-5.70968E-17
 -1      1788 4.37688E-04 6.82641E-05-8.77255E-17
 -1      1789 3.50446E-04 1.00902E-04-4.34087E-17
 -1      1790 3.42135E-04 8.31462E-05-4.90737E-17
 -1      1791 4.56976E-04 1.02572E-04-7.73714E-17
 -1      1792 3.72840E-04 1.48087E-04-2.86636E-17
 -1      1793 3.60436E-04 1.22501E-04-3.67951E-17
 -1      1794 4.81226E-04 1.49148E-04-6.24907E-17
 -1      1795 4.32439E-04 2.06490E-04-1.76725E-17
 -1      1796 4.01058E-04 1.73855E-04-2.46656E-17
 -1      1797 5.26056E-04 2.04885E-04-4.85587E-17
 -1      1798 5.94203E-04 2.65492E-04-3.68629E-17
 -1      1799 3.61502E-04-1.65753E-04-3.24041E-17
 -1      1800 9.14255E-04 3.54262E-04-1.09599E-16
 -1      1801 7.54699E-04 3.13732E-04-6.76542E-17
 -1      1802 7.17654E-04 2.81763E-04-7.51488E-17
 -1      1803 4.88439E-04-2.00707E-04-5.95091E-17
 -1      1804 8.64420E-04-3.18015E-04-1.64704E-16
 -1      1805 1.02330E-03-3.52800E-04-2.32602E-16
 -1      1806 1.18107E-03-3.83230E-04-3.13565E-16
 -1      1807 1.33906E-03-4.10232E-04-4.07592E-16
 -1      1808 1.07310E-03-3.29547E-04-2.87666E-16
 -1      1809 1.49729E-03-4.35672E-04-5.14711E-16
 -1      1810 1.65630E-03-4.60221E-04-6.35180E-16
 -1      1811 1.38653E-03-3.83099E-04-4.78296E-16
 -1      1812 1.81641E-03-4.85410E-04-7.69147E-16
 -1      1813 1.97765E-03-5.11969E-04-9.16164E-16
 -1      1814 1.70199E-03-4.31448E-04-7.21062E-16
 -1      1815 2.14044E-03-5.41217E-04-1.07634E-15
 -1      1816 2.30436E-03-5.73914E-04-1.25040E-15
 -1      1817 2.02174E-03-4.83376E-04-1.01639E-15
 -1      1818 2.46995E-03-6.11118E-04-1.43861E-15
 -1      1819 2.63626E-03-6.53450E-04-1.64094E-15
 -1      1820 2.34739E-03-5.47216E-04-1.36524E-15
 -1      1821 2.80395E-03-7.01430E-04-1.85697E-15
 -1      1822 2.97151E-03-7.55185E-04-2.08752E-15
 -1      1823 2.67952E-03-6.30264E-04-1.76913E-15
 -1      1824 3.13960E-03-8.14247E-04-2.33274E-15
 -1      1825 3.30639E-03-8.77705E-04-2.59199E-15
 -1      1826 3.01707E-03-7.36776E-04-2.22924E-15
 -1      1827 3.47227E-03-9.43682E-04-2.86617E-15
 -1      1828 3.63571E-03-1.00973E-03-3.15419E-15
 -1      1829 3.35651E-03-8.64305E-04-2.74702E-15
 -1      1830 3.79660E-03-1.07260E-03-3.45802E-15
 -1      1831 3.95473E-03-1.12853E-03-3.77727E-15
 -1      1832 3.69188E-03-9.99262E-04-3.32280E-15
 -1      1833 4.10941E-03-1.17387E-03-4.11230E-15
 -1      1834 4.26262E-03-1.20511E-03-4.46348E-15
 -1      1835 4.01728E-03-1.11537E-03-3.96041E-15
 -1      1836 4.41334E-03-1.21989E-03-4.82988E-15
 -1      1837 4.56511E-03-1.21710E-03-5.21280E-15
 -1      1838 4.33202E-03-1.18080E-03-4.66164E-15
 -1      1839 4.71675E-03-1.19723E-03-5.61235E-15
 -1      1840 4.87166E-03-1.16217E-03-6.02792E-15
 -1      1841 4.64323E-03-1.17470E-03-5.42917E-15
 -1      1842 5.02886E-03-1.11487E-03-6.45884E-15
 -1      1843 5.18964E-03-1.05925E-03-6.90619E-15
 -1      1844 4.96134E-03-1.10087E-03-6.26162E-15
 -1      1845 5.35347E-03-9.99096E-04-7.36934E-15
 -1      1846 5.51971E-03-9.37969E-04-7.84660E-15
 -1      1847 5.29154E-03-9.85460E-04-7.15701E-15
 -1      1848 5.68837E-03-8.78922E-04-8.33775E-15
 -1      1849 5.85774E-03-8.24064E-04-8.84266E-15
 -1      1850 5.63112E-03-8.60855E-04-8.11258E-15
 -1      1851 6.02828E-03-7.75019E-04-9.36268E-15
 -1      1852 6.19819E-03-7.32479E-04-9.89486E-15
 -1      1853 5.97369E-03-7.50975E-04-9.12431E-15
 -1      1854 6.36808E-03-6.96804E-04-1.04418E-14
 -1      1855 6.53659E-03-6.67808E-04-1.10018E-14
 -1      1856 6.31359E-03-6.67102E-04-1.01920E-14
 -1      1857 6.70422E-03-6.45069E-04-1.15738E-14
 -1      1858 6.87016E-03-6.28050E-04-1.21612E-14
 -1      1859 6.64771E-03-6.10761E-04-1.13120E-14
 -1      1860 7.03473E-03-6.16004E-04-1.27635E-14
 -1      1861 7.19755E-03-6.08334E-04-1.33799E-14
 -1      1862 6.97495E-03-5.78276E-04-1.24895E-14
 -1      1863 7.35881E-03-6.04265E-04-1.40101E-14
 -1      1864 7.51841E-03-6.03272E-04-1.46529E-14
 -1      1865 7.29542E-03-5.64206E-04-1.37219E-14
 -1      1866 7.67643E-03-6.04698E-04-1.53097E-14
 -1      1867 7.83296E-03-6.08124E-04-1.59807E-14
 -1      1868 7.60966E-03-5.63204E-04-1.50098E-14
 -1      1869 7.98802E-03-6.13054E-04-1.66663E-14
 -1      1870 8.14180E-03-6.19172E-04-1.73665E-14
 -1      1871 7.91843E-03-5.70808E-04-1.63533E-14
 -1      1872 8.29427E-03-6.26132E-04-1.80796E-14
 -1      1873 8.44565E-03-6.33707E-04-1.88070E-14
 -1      1874 8.22247E-03-5.83620E-04-1.77528E-14
 -1      1875 8.59592E-03-6.41672E-04-1.95510E-14
 -1      1876 8.74530E-03-6.49866E-04-2.03074E-14
 -1      1877 8.52252E-03-5.99215E-04-1.92102E-14
 -1      1878 8.89377E-03-6.58157E-04-2.10780E-14
 -1      1879 9.04151E-03-6.66435E-04-2.18639E-14
 -1      1880 8.81927E-03-6.15950E-04-2.07249E-14
 -1      1881 9.18853E-03-6.74629E-04-2.26638E-14
 -1      1882 9.33496E-03-6.82667E-04-2.34806E-14
 -1      1883 9.11333E-03-6.32774E-04-2.22962E-14
 -1      1884 9.48083E-03-6.90522E-04-2.43124E-14
 -1      1885 9.62625E-03-6.98148E-04-2.51562E-14
 -1      1886 9.40522E-03-6.49058E-04-2.39277E-14
 -1      1887 9.77124E-03-7.05542E-04-2.60155E-14
 -1      1888 9.91588E-03-7.12680E-04-2.68894E-14
 -1      1889 9.69543E-03-6.64467E-04-2.56153E-14
 -1      1890 1.00602E-02-7.19574E-04-2.77753E-14
 -1      1891 1.02042E-02-7.26212E-04-2.86705E-14
 -1      1892 9.98432E-03-6.78861E-04-2.73577E-14
 -1      1893 1.03481E-02-7.32614E-04-2.95778E-14
 -1      1894 1.04917E-02-7.38778E-04-3.04957E-14
 -1      1895 1.02722E-02-6.92224E-04-2.91466E-14
 -1      1896 1.06351E-02-7.44727E-04-3.14222E-14
 -1      1897 1.07785E-02-7.50462E-04-3.23552E-14
 -1      1898 1.05594E-02-7.04614E-04-3.09764E-14
 -1      1899 1.09217E-02-7.56009E-04-3.32969E-14
 -1      1900 1.10648E-02-7.61372E-04-3.42438E-14
 -1      1901 1.08460E-02-7.16130E-04-3.28398E-14
 -1      1902 1.12078E-02-7.66575E-04-3.51946E-14
 -1      1903 1.13507E-02-7.71623E-04-3.61525E-14
 -1      1904 1.11322E-02-7.26886E-04-3.47297E-14
 -1      1905 1.14937E-02-7.76539E-04-3.71119E-14
 -1      1906 1.16365E-02-7.81327E-04-3.80768E-14
 -1      1907 1.14182E-02-7.37003E-04-3.66407E-14
 -1      1908 1.17794E-02-7.86007E-04-3.90466E-14
 -1      1909 1.19222E-02-7.90586E-04-4.00197E-14
 -1      1910 1.17040E-02-7.46593E-04-3.85686E-14
 -1      1911 1.20650E-02-7.95078E-04-4.09986E-14
 -1      1912 1.22077E-02-7.99490E-04-4.19819E-14
 -1      1913 1.19897E-02-7.55757E-04-4.05176E-14
 -1      1914 1.23505E-02-8.03835E-04-4.29731E-14
 -1      1915 1.24933E-02-8.08118E-04-4.39693E-14
 -1      1916 1.22754E-02-7.64584E-04-4.24838E-14
 -1      1917 1.26360E-02-8.12349E-04-4.49745E-14
 -1      1918 1.27788E-02-8.16534E-04-4.59891E-14
 -1      1919 1.25609E-02-7.73151E-04-4.44788E-14
 -1      1920 1.29216E-02-8.20681E-04-4.70134E-14
 -1      1921 1.30644E-02-8.24794E-04-4.80451E-14
 -1      1922 1.28465E-02-7.81520E-04-4.65077E-14
 -1      1923 1.32071E-02-8.28879E-04-4.90821E-14
 -1      1924 1.33499E-02-8.32940E-04-5.01270E-14
 -1      1925 1.31321E-02-7.89743E-04-4.85688E-14
 -1      1926 1.34927E-02-8.36983E-04-5.11805E-14
 -1      1927 1.36355E-02-8.41010E-04-5.22359E-14
 -1      1928 1.34177E-02-7.97864E-04-5.06557E-14
 -1      1929 1.37783E-02-8.45027E-04-5.32939E-14
 -1      1930 1.39211E-02-8.49034E-04-5.43545E-14
 -1      1931 1.37034E-02-8.05916E-04-5.27654E-14
 -1      1932 1.40640E-02-8.53036E-04-5.54189E-14
 -1      1933 1.42068E-02-8.57035E-04-5.64830E-14
 -1      1934 1.39890E-02-8.13927E-04-5.48856E-14
 -1      1935 1.43496E-02-8.61034E-04-5.75494E-14
 -1      1936 1.44925E-02-8.65036E-04-5.86176E-14
 -1      1937 1.42747E-02-8.21923E-04-5.70142E-14
 -1      1938 1.46206E-02-8.70299E-04-5.95745E-14
 -1      1939 1.47634E-02-8.74310E-04-6.06442E-14
 -1      1940 1.48020E-02-8.41715E-04-6.09549E-14
 -1      1941 1.45457E-02-8.31181E-04-5.90365E-14
 -1      1942 1.22961E-03 4.18778E-04-2.27981E-16
 -1      1943 1.07198E-03 3.88700E-04-1.62766E-16
 -1      1944 1.03386E-03 3.57112E-04-1.71683E-16
 -1      1945 1.54475E-03 4.71830E-04-3.94622E-16
 -1      1946 1.38685E-03 4.46189E-04-3.05067E-16
 -1      1947 1.34820E-03 4.14855E-04-3.15042E-16
 -1      1948 1.86289E-03 5.22885E-04-6.12113E-16
 -1      1949 1.70328E-03 4.97172E-04-4.96944E-16
 -1      1950 1.66361E-03 4.65419E-04-5.07393E-16
 -1      1951 2.18537E-03 5.79941E-04-8.81822E-16
 -1      1952 2.02359E-03 5.50300E-04-7.40307E-16
 -1      1953 1.98238E-03 5.17489E-04-7.50878E-16
 -1      1954 2.51183E-03 6.49762E-04-1.20729E-15
 -1      1955 2.34826E-03 6.13010E-04-1.03749E-15
 -1      1956 2.30551E-03 5.78690E-04-1.04766E-15
 -1      1957 2.84019E-03 7.36778E-04-1.58810E-15
 -1      1958 2.67609E-03 6.91105E-04-1.39068E-15
 -1      1959 2.63256E-03 6.55180E-04-1.39908E-15
 -1      1960 3.16687E-03 8.40808E-04-2.02732E-15
 -1      1961 3.00419E-03 7.87035E-04-1.79983E-15
 -1      1962 2.96156E-03 7.50007E-04-1.80663E-15
 -1      1963 3.48735E-03 9.54260E-04-2.52662E-15
 -1      1964 3.32834E-03 8.97222E-04-2.26947E-15
 -1      1965 3.28893E-03 8.60384E-04-2.27322E-15
 -1      1966 3.79772E-03 1.06072E-03-3.08732E-15
 -1      1967 3.64403E-03 1.00964E-03-2.79925E-15
 -1      1968 3.61016E-03 9.74928E-04-2.80082E-15
 -1      1969 4.09704E-03 1.13759E-03-3.71433E-15
 -1      1970 3.94854E-03 1.10412E-03-3.39254E-15
 -1      1971 3.92167E-03 1.07335E-03-3.39151E-15
 -1      1972 4.38909E-03 1.16422E-03-4.40805E-15
 -1      1973 4.24329E-03 1.15783E-03-4.05212E-15
 -1      1974 4.22367E-03 1.13160E-03-4.04804E-15
 -1      1975 4.68163E-03 1.13208E-03-5.17830E-15
 -1      1976 4.53446E-03 1.15513E-03-4.78323E-15
 -1      1977 4.52151E-03 1.13229E-03-4.77670E-15
 -1      1978 4.98244E-03 1.04967E-03-6.02699E-15
 -1      1979 4.83041E-03 1.09595E-03-5.59324E-15
 -1      1980 4.82340E-03 1.07431E-03-5.58333E-15
 -1      1981 5.29542E-03 9.38052E-04-6.95188E-15
 -1      1982 5.13727E-03 9.96085E-04-6.47990E-15
 -1      1983 5.13536E-03 9.73746E-04-6.46675E-15
 -1      1984 5.61979E-03 8.20497E-04-7.94636E-15
 -1      1985 5.45643E-03 8.78895E-04-7.44062E-15
 -1      1986 5.45829E-03 8.54976E-04-7.42342E-15
 -1      1987 5.95158E-03 7.14645E-04-9.00224E-15
 -1      1988 5.78517E-03 7.65537E-04-8.46670E-15
 -1      1989 5.78896E-03 7.40018E-04-8.44589E-15
 -1      1990 6.28613E-03 6.29408E-04-1.01178E-14
 -1      1991 6.11892E-03 6.69328E-04-9.55339E-15
 -1      1992 6.12265E-03 6.42621E-04-9.52810E-15
 -1      1993 6.61945E-03 5.66586E-04-1.12827E-14
 -1      1994 6.45326E-03 5.95346E-04-1.06942E-14
 -1      1995 6.45535E-03 5.67898E-04-1.06655E-14
 -1      1996 6.94884E-03 5.23699E-04-1.24974E-14
 -1      1997 6.78484E-03 5.42909E-04-1.18839E-14
 -1      1998 6.78434E-03 5.15084E-04-1.18532E-14
 -1      1999 7.27279E-03 4.96535E-04-1.37635E-14
 -1      2000 7.11159E-03 5.08417E-04-1.31250E-14
 -1      2001 7.10820E-03 4.80479E-04-1.30905E-14
 -1      2002 7.59077E-03 4.80726E-04-1.50790E-14
 -1      2003 7.43256E-03 4.87437E-04-1.44145E-14
 -1      2004 7.42641E-03 4.59564E-04-1.43783E-14
 -1      2005 7.90289E-03 4.72503E-04-1.64431E-14
 -1      2006 7.74754E-03 4.75840E-04-1.57543E-14
 -1      2007 7.73902E-03 4.48145E-04-1.57145E-14
 -1      2008 8.20963E-03 4.68929E-04-1.78523E-14
 -1      2009 8.05688E-03 4.70260E-04-1.71418E-14
 -1      2010 8.04646E-03 4.42806E-04-1.70985E-14
 -1      2011 8.51169E-03 4.67870E-04-1.93082E-14
 -1      2012 8.36119E-03 4.68170E-04-1.85752E-14
 -1      2013 8.34933E-03 4.40984E-04-1.85306E-14
 -1      2014 8.80982E-03 4.67862E-04-2.08153E-14
 -1      2015 8.66119E-03 4.67789E-04-2.00549E-14
 -1      2016 8.64831E-03 4.40870E-04-2.00104E-14
 -1      2017 9.10475E-03 4.67954E-04-2.23759E-14
 -1      2018 8.95764E-03 4.67927E-04-2.15882E-14
 -1      2019 8.94406E-03 4.41260E-04-2.15404E-14
 -1      2020 9.39714E-03 4.67574E-04-2.39878E-14
 -1      2021 9.25122E-03 4.67840E-04-2.31755E-14
 -1      2022 9.23720E-03 4.41397E-04-2.31247E-14
 -1      2023 9.68756E-03 4.66414E-04-2.56527E-14
 -1      2024 9.54256E-03 4.67098E-04-2.48150E-14
 -1      2025 9.52829E-03 4.40850E-04-2.47618E-14
 -1      2026 9.97648E-03 4.64341E-04-2.73580E-14
 -1      2027 9.83218E-03 4.65492E-04-2.65008E-14
 -1      2028 9.81779E-03 4.39408E-04-2.64445E-14
 -1      2029 1.02643E-02 4.61339E-04-2.90991E-14
 -1      2030 1.01205E-02 4.62953E-04-2.82248E-14
 -1      2031 1.01061E-02 4.37003E-04-2.81669E-14
 -1      2032 1.05513E-02 4.57457E-04-3.08811E-14
 -1      2033 1.04079E-02 4.59503E-04-2.99857E-14
 -1      2034 1.03935E-02 4.33660E-04-2.99257E-14
 -1      2035 1.08377E-02 4.52785E-04-3.27093E-14
 -1      2036 1.06946E-02 4.55214E-04-3.17881E-14
 -1      2037 1.06802E-02 4.29456E-04-3.17290E-14
 -1      2038 1.11238E-02 4.47426E-04-3.45881E-14
 -1      2039 1.09808E-02 4.50185E-04-3.36417E-14
 -1      2040 1.09665E-02 4.24493E-04-3.35806E-14
 -1      2041 1.14095E-02 4.41488E-04-3.65252E-14
 -1      2042 1.12667E-02 4.44523E-04-3.55488E-14
 -1      2043 1.12525E-02 4.18881E-04-3.54843E-14
 -1      2044 1.16952E-02 4.35074E-04-3.85101E-14
 -1      2045 1.15524E-02 4.38335E-04-3.75117E-14
 -1      2046 1.15383E-02 4.12729E-04-3.74397E-14
 -1      2047 1.19807E-02 4.28276E-04-4.05396E-14
 -1      2048 1.18380E-02 4.31718E-04-3.95203E-14
 -1      2049 1.18239E-02 4.06139E-04-3.94410E-14
 -1      2050 1.22662E-02 4.21175E-04-4.26068E-14
 -1      2051 1.21235E-02 4.24760E-04-4.15685E-14
 -1      2052 1.21095E-02 3.99199E-04-4.14831E-14
 -1      2053 1.25517E-02 4.13841E-04-4.46986E-14
 -1      2054 1.24090E-02 4.17534E-04-4.36501E-14
 -1      2055 1.23950E-02 3.91986E-04-4.35588E-14
 -1      2056 1.28372E-02 4.06330E-04-4.68117E-14
 -1      2057 1.26945E-02 4.10104E-04-4.57535E-14
 -1      2058 1.26806E-02 3.84565E-04-4.56580E-14
 -1      2059 1.31228E-02 3.98690E-04-4.89344E-14
 -1      2060 1.29800E-02 4.02523E-04-4.78719E-14
 -1      2061 1.29661E-02 3.76988E-04-4.77728E-14
 -1      2062 1.34083E-02 3.90959E-04-5.10748E-14
 -1      2063 1.32655E-02 3.94834E-04-5.00027E-14
 -1      2064 1.32517E-02 3.69301E-04-4.99014E-14
 -1      2065 1.36939E-02 3.83171E-04-5.32344E-14
 -1      2066 1.35511E-02 3.87071E-04-5.21519E-14
 -1      2067 1.35373E-02 3.61539E-04-5.20450E-14
 -1      2068 1.39795E-02 3.75352E-04-5.54107E-14
 -1      2069 1.38367E-02 3.79264E-04-5.43192E-14
 -1      2070 1.38229E-02 3.53731E-04-5.42077E-14
 -1      2071 1.42652E-02 3.67523E-04-5.76082E-14
 -1      2072 1.41224E-02 3.71438E-04-5.65085E-14
 -1      2073 1.41086E-02 3.45902E-04-5.63898E-14
 -1      2074 1.45509E-02 3.59704E-04-5.98177E-14
 -1      2075 1.44080E-02 3.63612E-04-5.87129E-14
 -1      2076 1.43942E-02 3.38073E-04-5.85914E-14
 -1      2077 1.47861E-02 3.50302E-04-6.16477E-14
 -1      2078 1.46432E-02 3.54198E-04-6.05329E-14
 -1      2079 1.46294E-02 3.28656E-04-6.04117E-14
 -1      2080 1.48141E-02 3.17649E-04-6.18452E-14
 -1      2081 1.48036E-02 8.36366E-05-6.15951E-14
 -1      2082 1.47998E-02 1.25808E-04-6.15993E-14
 -1      2083 1.47960E-02 1.67975E-04-6.16023E-14
 -1      2084 1.47922E-02 2.10137E-04-6.16037E-14
 -1      2085 1.46742E-02 1.50274E-04-6.06495E-14
 -1      2086 1.48051E-02 2.42819E-04-6.17247E-14
 -1      2087 1.48013E-02 2.84973E-04-6.17230E-14
 -1      2088 1.47089E-02 2.90476E-04-6.10067E-14
 -1      2089 1.46832E-02 2.25119E-04-6.07658E-14
 -1      2090 1.48110E-02 7.08536E-07-6.15816E-14
 -1      2091 1.48073E-02 4.21747E-05-6.15862E-14
 -1      2092 1.46817E-02 6.66510E-05-6.06501E-14
 -1      2093 1.48187E-02-8.36663E-05-6.15751E-14
 -1      2094 1.48149E-02-4.14771E-05-6.15791E-14
 -1      2095 1.46892E-02-1.69891E-05-6.06476E-14
 -1      2096 1.48264E-02-1.68054E-04-6.15661E-14
 -1      2097 1.48225E-02-1.25859E-04-6.15692E-14
 -1      2098 1.46969E-02-1.01358E-04-6.06454E-14
 -1      2099 1.48341E-02-2.52449E-04-6.15630E-14
 -1      2100 1.48302E-02-2.10251E-04-6.15630E-14
 -1      2101 1.47046E-02-1.85737E-04-6.06412E-14
 -1      2102 1.48419E-02-3.36846E-04-6.15626E-14
 -1      2103 1.48380E-02-2.94648E-04-6.15632E-14
 -1      2104 1.47123E-02-2.70122E-04-6.06400E-14
 -1      2105 1.48498E-02-4.21238E-04-6.15641E-14
 -1      2106 1.48458E-02-3.79043E-04-6.15636E-14
 -1      2107 1.47201E-02-3.54506E-04-6.06407E-14
 -1      2108 1.48575E-02-5.04190E-04-6.15724E-14
 -1      2109 1.48536E-02-4.62716E-04-6.15676E-14
 -1      2110 1.47279E-02-4.38170E-04-6.06444E-14
 -1      2111 1.48655E-02-5.88557E-04-6.15834E-14
 -1      2112 1.48615E-02-5.46376E-04-6.15780E-14
 -1      2113 1.47358E-02-5.21824E-04-6.06508E-14
 -1      2114 1.48735E-02-6.72905E-04-6.15992E-14
 -1      2115 1.48695E-02-6.30733E-04-6.15897E-14
 -1      2116 1.47438E-02-6.06179E-04-6.06604E-14
 -1      2117 1.48815E-02-7.57233E-04-6.16106E-14
 -1      2118 1.48775E-02-7.15072E-04-6.16050E-14
 -1      2119 1.47517E-02-6.90517E-04-6.06713E-14
 -1      2120 6.24039E-03 1.20144E-04-7.04105E-15
 -1      2121 6.38594E-03 6.04255E-05-7.20680E-15
 -1      2122 6.67035E-03-4.68456E-05-7.41600E-15
 -1      2123 6.67043E-03-6.40538E-05-7.39627E-15
 -1      2124 6.53992E-03 2.07085E-06-7.38083E-15
 -1      2125 6.62427E-03-2.26202E-05-7.42821E-15
 -1      2126 5.89166E-03 2.81536E-04-6.68896E-15
 -1      2127 6.06937E-03 1.97685E-04-6.86139E-15
 -1      2128 5.48544E-03 4.94976E-04-6.25765E-15
 -1      2129 5.67007E-03 3.91013E-04-6.47102E-15
 -1      2130 3.27058E-04-5.32669E-05-6.73561E-17
 -1      2131 3.33883E-04-6.56275E-05-6.48353E-17
 -1      2132 4.55676E-04-9.93215E-05-9.49626E-17
 -1      2133 4.36043E-04-6.64290E-05-1.01143E-16
 -1      2134 4.76404E-03 8.67068E-04-5.32026E-15
 -1      2135 4.93173E-03 7.91898E-04-5.55513E-15
 -1      2136 4.39436E-03 9.43157E-04-4.74420E-15
 -1      2137 4.54640E-03 9.29531E-04-4.98104E-15
 -1      2138 4.07311E-03 8.85868E-04-4.29089E-15
 -1      2139 4.22878E-03 9.28725E-04-4.50744E-15
 -1      2140 3.68690E-03 7.10051E-04-3.83550E-15
 -1      2141 3.86196E-03 8.00794E-04-4.01561E-15
 -1      2142 3.32340E-03 5.13369E-04-3.53638E-15
 -1      2143 3.50861E-03 6.17536E-04-3.68404E-15
 -1      2144 3.62722E-03 6.64080E-04-3.67535E-15
 -1      2145 2.87527E-03 2.88326E-04-3.26095E-15
 -1      2146 3.06516E-03 3.83610E-04-3.37545E-15
 -1      2147 2.51055E-03 1.30155E-04-3.07919E-15
 -1      2148 2.67084E-03 1.96383E-04-3.15634E-15
 -1      2149 2.24764E-03 3.08901E-05-2.96147E-15
 -1      2150 2.35548E-03 6.76196E-05-3.00338E-15
 -1      2151 2.12995E-03-2.14705E-05-2.93579E-15
 -1      2152 2.16544E-03-1.47548E-06-2.94503E-15
 -1      2153 2.17379E-03-6.29528E-05-2.94512E-15
 -1      2154 2.13277E-03-4.47219E-05-2.92725E-15
 -1      2155 2.37829E-03-1.35856E-04-3.04641E-15
 -1      2156 2.26825E-03-9.76182E-05-2.98313E-15
 -1      2157 2.67992E-03-2.54089E-04-3.20441E-15
 -1      2158 2.51555E-03-1.90010E-04-3.12390E-15
 -1      2159 2.44536E-03-1.38675E-04-2.96397E-15
 -1      2160 3.09505E-03-4.52241E-04-3.45977E-15
 -1      2161 2.89738E-03-3.55046E-04-3.33867E-15
 -1      2162 3.52796E-03-6.97560E-04-3.82624E-15
 -1      2163 3.34735E-03-5.88457E-04-3.65200E-15
 -1      2164 3.89303E-03-8.91198E-04-4.19532E-15
 -1      2165 3.71546E-03-7.99131E-04-4.00767E-15
 -1      2166 3.64928E-03-7.47290E-04-3.85388E-15
 -1      2167 4.26630E-03-1.02577E-03-4.70378E-15
 -1      2168 4.11601E-03-9.82950E-04-4.47895E-15
 -1      2169 4.56044E-03-1.02779E-03-5.14741E-15
 -1      2170 4.41526E-03-1.03935E-03-4.92271E-15
 -1      2171 4.34921E-03-1.04525E-03-4.81538E-15
 -1      2172 4.92201E-03-9.11471E-04-5.65447E-15
 -1      2173 4.75926E-03-9.77474E-04-5.42806E-15
 -1      2174 5.28998E-03-7.24562E-04-6.11745E-15
 -1      2175 5.11409E-03-8.20872E-04-5.90340E-15
 -1      2176 5.67682E-03-5.03991E-04-6.58422E-15
 -1      2177 5.48980E-03-6.09567E-04-6.37840E-15
 -1      2178 6.09648E-03-3.03486E-04-6.94298E-15
 -1      2179 5.91050E-03-3.88933E-04-6.79127E-15
 -1      2180 6.42433E-03-1.68966E-04-7.20490E-15
 -1      2181 6.28112E-03-2.24079E-04-7.09394E-15
 -1      2182 6.62775E-03-9.03256E-05-7.38451E-15
 -1      2183 6.55101E-03-1.17305E-04-7.33033E-15
 -1      2184 5.09719E-03 7.11757E-04-5.76844E-15
 -1      2185 5.26806E-03 6.16177E-04-5.98664E-15
 -1      2186 4.99445E-03 7.51557E-04-5.73592E-15
 -1      2187 5.76026E-03 3.20253E-04-6.72386E-15
 -1      2188 6.48097E-04-2.52073E-04-9.83642E-17
 -1      2189 5.34671E-03 5.50230E-04-6.22577E-15
 -1      2190 7.04414E-04-2.39034E-04-1.34089E-16
 -1      2191 6.46900E-03 1.61285E-05-7.48888E-15
 -1      2192 6.65899E-03-4.10598E-05-7.65560E-15
 -1      2193 1.48429E-02-7.89836E-04-6.12979E-14
 -1      2194 6.14061E-03 1.39813E-04-7.12950E-15
 -1      2195 6.65699E-03-7.20159E-05-7.63149E-15
 -1      2196 6.49065E-03-1.25523E-04-7.49049E-15
 -1      2197 6.18283E-03-2.41460E-04-7.20826E-15
 -1      2198 5.77880E-03-4.29732E-04-6.84184E-15
 -1      2199 5.36917E-03-6.58903E-04-6.36535E-15
 -1      2200 4.64761E-03-1.01448E-03-5.31508E-15
 -1      2201 4.02354E-03-9.47579E-04-4.31144E-15
 -1      2202 2.78480E-03-2.77936E-04-3.16792E-15
 -1      2203 2.21379E-03-6.76192E-05-2.85376E-15
 -1      2204 2.12212E-03-3.23307E-05-2.82663E-15
 -1      2205 2.20047E-03 3.96623E-06-2.85087E-15
 -1      2206 2.43422E-03 7.84004E-05-2.93908E-15
 -1      2207 3.22869E-03 4.41241E-04-3.37045E-15
 -1      2208 3.97203E-03 8.48631E-04-4.09042E-15
 -1      2209 4.65031E-03 9.09568E-04-5.17441E-15
 -1      2210 4.74343E-03 8.75597E-04-5.37219E-15
 -1      2211 4.55905E-03 9.38060E-04-5.03035E-15
 -1      2212 4.31013E-03 9.46940E-04-4.60070E-15
 -1      2213 2.78693E-03 2.21540E-04-3.11355E-15
 -1      2214 3.23920E-03-5.08274E-04-3.48585E-15
 -1      2215 3.13160E-03-4.37910E-04-3.32461E-15
 -1      2216 3.36006E-03-5.68365E-04-3.51027E-15
 -1      2217 5.00162E-03-8.67724E-04-5.84957E-15
 -1      2218 1.08442E-03 3.33996E-04-2.24552E-16
 -1      2219 9.28194E-04 3.02613E-04-1.62048E-16
 -1      2220 5.09480E-04-2.79514E-05-1.51395E-16
 -1      2221 5.16052E-04-3.75735E-05-1.50799E-16
 -1      2222 5.24193E-04-4.87140E-05-1.49783E-16
 -1      2223 5.33637E-04-6.15963E-05-1.48156E-16
 -1      2224 6.27338E-04-5.29057E-05-2.04209E-16
 -1      2225 5.00115E-04 2.60851E-06-1.49566E-16
 -1      2226 4.99774E-04-4.52878E-06-1.50650E-16
 -1      2227 5.06091E-04 1.80952E-05-1.46408E-16
 -1      2228 5.02256E-04 1.00513E-05-1.48183E-16
 -1      2229 6.03203E-04 7.81682E-06-2.02271E-16
 -1      2230 5.18267E-04 3.70478E-05-1.41109E-16
 -1      2231 5.11481E-04 2.69736E-05-1.44063E-16
 -1      2232 6.12932E-04 2.76748E-05-1.97487E-16
 -1      2233 5.36057E-04 6.25228E-05-1.33723E-16
 -1      2234 5.26584E-04 4.88908E-05-1.37761E-16
 -1      2235 6.30439E-04 5.25776E-05-1.90128E-16
 -1      2236 5.58443E-04 9.64561E-05-1.23057E-16
 -1      2237 5.46764E-04 7.83282E-05-1.28898E-16
 -1      2238 6.54601E-04 8.53727E-05-1.79693E-16
 -1      2239 5.85439E-04 1.41274E-04-1.08149E-16
 -1      2240 5.71402E-04 1.17368E-04-1.16254E-16
 -1      2241 6.84276E-04 1.28126E-04-1.64866E-16
 -1      2242 1.39657E-03 3.87845E-04-3.85082E-16
 -1      2243 1.24035E-03 3.62215E-04-2.98738E-16
 -1      2244 1.13444E-03 3.10854E-04-2.80632E-16
 -1      2245 9.68397E-04-2.77957E-04-2.61211E-16
 -1      2246 1.12288E-03-3.06430E-04-3.44939E-16
 -1      2247 5.23887E-03 6.04838E-04-6.21458E-15
 -1      2248 5.42708E-03 4.89858E-04-6.49387E-15
 -1      2249 5.66689E-03 3.54074E-04-6.83389E-15
 -1      2250 5.86120E-03 2.52098E-04-7.06079E-15
 -1      2251 1.27746E-03-3.32212E-04-4.41555E-16
 -1      2252 1.43267E-03-3.56035E-04-5.50937E-16
 -1      2253 1.17118E-03-2.83432E-04-4.04597E-16
 -1      2254 1.58851E-03-3.79247E-04-6.72869E-16
 -1      2255 1.74534E-03-4.02604E-04-8.08462E-16
 -1      2256 1.47676E-03-3.29183E-04-6.25368E-16
 -1      2257 1.90350E-03-4.27351E-04-9.56714E-16
 -1      2258 2.06307E-03-4.54393E-04-1.11780E-15
 -1      2259 1.78618E-03-3.73724E-04-8.97042E-16
 -1      2260 2.22466E-03-4.84797E-04-1.29237E-15
 -1      2261 2.38800E-03-5.19592E-04-1.48059E-15
 -1      2262 2.10185E-03-4.24886E-04-1.22050E-15
 -1      2263 2.55393E-03-5.59525E-04-1.68214E-15
 -1      2264 2.72163E-03-6.05539E-04-1.89758E-15
 -1      2265 2.42669E-03-4.90825E-04-1.59604E-15
 -1      2266 2.89204E-03-6.57795E-04-2.12718E-15
 -1      2267 3.06360E-03-7.16538E-04-2.37101E-15
 -1      2268 2.76318E-03-5.79260E-04-2.02636E-15
 -1      2269 3.23704E-03-7.80949E-04-2.62853E-15
 -1      2270 3.41012E-03-8.49586E-04-2.90088E-15
 -1      2271 3.11142E-03-6.95092E-04-2.51188E-15
 -1      2272 3.58300E-03-9.20177E-04-3.18796E-15
 -1      2273 3.75357E-03-9.88737E-04-3.49029E-15
 -1      2274 3.46664E-03-8.35065E-04-3.05417E-15
 -1      2275 3.92115E-03-1.05185E-03-3.80873E-15
 -1      2276 4.08582E-03-1.10323E-03-4.14320E-15
 -1      2277 3.81842E-03-9.80222E-04-3.65711E-15
 -1      2278 4.24649E-03-1.13948E-03-4.49381E-15
 -1      2279 4.40648E-03-1.15636E-03-4.86125E-15
 -1      2280 4.15683E-03-1.09223E-03-4.32529E-15
 -1      2281 4.56411E-03-1.15287E-03-5.24422E-15
 -1      2282 4.72508E-03-1.12934E-03-5.64517E-15
 -1      2283 4.48290E-03-1.12969E-03-5.05986E-15
 -1      2284 4.88774E-03-1.08782E-03-6.06394E-15
 -1      2285 5.05463E-03-1.03406E-03-6.49627E-15
 -1      2286 4.81146E-03-1.07685E-03-5.86261E-15
 -1      2287 5.22459E-03-9.71698E-04-6.94402E-15
 -1      2288 5.39698E-03-9.06408E-04-7.40880E-15
 -1      2289 5.15449E-03-9.59618E-04-6.73120E-15
 -1      2290 5.57127E-03-8.41570E-04-7.88772E-15
 -1      2291 5.74526E-03-7.80628E-04-8.37915E-15
 -1      2292 5.50918E-03-8.22311E-04-7.66008E-15
 -1      2293 5.91923E-03-7.25521E-04-8.88565E-15
 -1      2294 6.09103E-03-6.77247E-04-9.40682E-15
 -1      2295 5.86445E-03-6.98983E-04-8.64724E-15
 -1      2296 6.26145E-03-6.36516E-04-9.94129E-15
 -1      2297 6.42913E-03-6.02888E-04-1.04893E-14
 -1      2298 6.21101E-03-6.04795E-04-9.68999E-15
 -1      2299 6.59493E-03-5.76269E-04-1.10496E-14
 -1      2300 6.75817E-03-5.55782E-04-1.16239E-14
 -1      2301 6.54532E-03-5.41218E-04-1.07865E-14
 -1      2302 6.91955E-03-5.40919E-04-1.22133E-14
 -1      2303 7.07883E-03-5.30816E-04-1.28170E-14
 -1      2304 6.86810E-03-5.03640E-04-1.19388E-14
 -1      2305 7.23646E-03-5.24829E-04-1.34353E-14
 -1      2306 7.39244E-03-5.22259E-04-1.40657E-14
 -1      2307 7.18165E-03-4.85974E-04-1.31474E-14
 -1      2308 7.54701E-03-5.22491E-04-1.47111E-14
 -1      2309 7.70031E-03-5.25010E-04-1.53685E-14
 -1      2310 7.48832E-03-4.82517E-04-1.44109E-14
 -1      2311 7.85244E-03-5.29305E-04-1.60410E-14
 -1      2312 8.00356E-03-5.35011E-04-1.67276E-14
 -1      2313 7.78999E-03-4.88583E-04-1.57296E-14
 -1      2314 8.15370E-03-5.41745E-04-1.74280E-14
 -1      2315 8.30304E-03-5.49253E-04-1.81427E-14
 -1      2316 8.08796E-03-5.00588E-04-1.71033E-14
 -1      2317 8.45158E-03-5.57267E-04-1.88707E-14
 -1      2318 8.59947E-03-5.65616E-04-1.96152E-14
 -1      2319 8.38313E-03-5.15927E-04-1.85337E-14
 -1      2320 8.74671E-03-5.74128E-04-2.03715E-14
 -1      2321 8.89343E-03-5.82689E-04-2.11427E-14
 -1      2322 8.67615E-03-5.32791E-04-2.00180E-14
 -1      2323 9.03961E-03-5.91196E-04-2.19281E-14
 -1      2324 9.18539E-03-5.99579E-04-2.27279E-14
 -1      2325 8.96747E-03-5.49990E-04-2.15604E-14
 -1      2326 9.33073E-03-6.07785E-04-2.35441E-14
 -1      2327 9.47575E-03-6.15770E-04-2.43740E-14
 -1      2328 9.25744E-03-5.66785E-04-2.31612E-14
 -1      2329 9.62043E-03-6.23516E-04-2.52173E-14
 -1      2330 9.76487E-03-6.31000E-04-2.60738E-14
 -1      2331 9.54634E-03-5.82760E-04-2.48193E-14
 -1      2332 9.90903E-03-6.38223E-04-2.69422E-14
 -1      2333 1.00530E-02-6.45177E-04-2.78245E-14
 -1      2334 9.83441E-03-5.97719E-04-2.65292E-14
 -1      2335 1.01968E-02-6.51874E-04-2.87171E-14
 -1      2336 1.03404E-02-6.58314E-04-2.96198E-14
 -1      2337 1.01218E-02-6.11611E-04-2.82883E-14
 -1      2338 1.04839E-02-6.64518E-04-3.05333E-14
 -1      2339 1.06273E-02-6.70490E-04-3.14543E-14
 -1      2340 1.04087E-02-6.24476E-04-3.00910E-14
 -1      2341 1.07705E-02-6.76252E-04-3.23844E-14
 -1      2342 1.09137E-02-6.81811E-04-3.33209E-14
 -1      2343 1.06953E-02-6.36403E-04-3.19304E-14
 -1      2344 1.10568E-02-6.87190E-04-3.42651E-14
 -1      2345 1.11999E-02-6.92398E-04-3.52147E-14
 -1      2346 1.09815E-02-6.47507E-04-3.38007E-14
 -1      2347 1.13429E-02-6.97455E-04-3.61691E-14
 -1      2348 1.14858E-02-7.02371E-04-3.71277E-14
 -1      2349 1.12676E-02-6.57910E-04-3.56976E-14
 -1      2350 1.16287E-02-7.07163E-04-3.80924E-14
 -1      2351 1.17716E-02-7.11841E-04-3.90619E-14
 -1      2352 1.15535E-02-6.67730E-04-3.76148E-14
 -1      2353 1.19145E-02-7.16420E-04-4.00335E-14
 -1      2354 1.20573E-02-7.20908E-04-4.10111E-14
 -1      2355 1.18393E-02-6.77077E-04-3.95514E-14
 -1      2356 1.22002E-02-7.25319E-04-4.19963E-14
 -1      2357 1.23430E-02-7.29659E-04-4.29881E-14
 -1      2358 1.21250E-02-6.86046E-04-4.15074E-14
 -1      2359 1.24858E-02-7.33940E-04-4.39853E-14
 -1      2360 1.26287E-02-7.38166E-04-4.49894E-14
 -1      2361 1.24107E-02-6.94720E-04-4.34900E-14
 -1      2362 1.27715E-02-7.42348E-04-4.60033E-14
 -1      2363 1.29143E-02-7.46490E-04-4.70272E-14
 -1      2364 1.26964E-02-7.03168E-04-4.55015E-14
 -1      2365 1.30571E-02-7.50599E-04-4.80578E-14
 -1      2366 1.31999E-02-7.54680E-04-4.90946E-14
 -1      2367 1.29821E-02-7.11448E-04-4.75466E-14
 -1      2368 1.33427E-02-7.58738E-04-5.01351E-14
 -1      2369 1.34856E-02-7.62776E-04-5.11859E-14
 -1      2370 1.32677E-02-7.19606E-04-4.96191E-14
 -1      2371 1.36284E-02-7.66800E-04-5.22395E-14
 -1      2372 1.37712E-02-7.70812E-04-5.32920E-14
 -1      2373 1.35534E-02-7.27681E-04-5.17127E-14
 -1      2374 1.39141E-02-7.74816E-04-5.43514E-14
 -1      2375 1.40569E-02-7.78815E-04-5.54141E-14
 -1      2376 1.38391E-02-7.35702E-04-5.38214E-14
 -1      2377 1.41997E-02-7.82810E-04-5.64773E-14
 -1      2378 1.43426E-02-7.86806E-04-5.75432E-14
 -1      2379 1.41248E-02-7.43696E-04-5.59427E-14
 -1      2380 2.02829E-03 4.88884E-04-8.55002E-16
 -1      2381 1.86892E-03 4.61978E-04-7.18379E-16
 -1      2382 2.35107E-03 5.51716E-04-1.16850E-15
 -1      2383 2.18915E-03 5.18567E-04-1.00507E-15
 -1      2384 2.07239E-03 4.59990E-04-9.61321E-16
 -1      2385 2.67907E-03 6.31229E-04-1.53592E-15
 -1      2386 2.51466E-03 5.89114E-04-1.34531E-15
 -1      2387 2.39555E-03 5.24119E-04-1.29081E-15
 -1      2388 3.01087E-03 7.30068E-04-1.95989E-15
 -1      2389 2.84491E-03 6.78265E-04-1.74077E-15
 -1      2390 2.72597E-03 6.06395E-04-1.67409E-15
 -1      2391 3.34299E-03 8.44413E-04-2.44295E-15
 -1      2392 3.17743E-03 7.85876E-04-2.19353E-15
 -1      2393 3.06252E-03 7.09301E-04-2.11394E-15
 -1      2394 3.67018E-03 9.60891E-04-2.98681E-15
 -1      2395 3.50763E-03 9.03679E-04-2.70770E-15
 -1      2396 3.40108E-03 8.28182E-04-2.61305E-15
 -1      2397 3.98796E-03 1.05633E-03-3.59516E-15
 -1      2398 3.83023E-03 1.01302E-03-3.28248E-15
 -1      2399 3.73489E-03 9.47191E-04-3.17399E-15
 -1      2400 4.29640E-03 1.10457E-03-4.27070E-15
 -1      2401 4.14264E-03 1.08787E-03-3.92405E-15
 -1      2402 4.05829E-03 1.03931E-03-3.79919E-15
 -1      2403 4.60207E-03 1.08919E-03-5.01986E-15
 -1      2404 4.44844E-03 1.10506E-03-4.63580E-15
 -1      2405 4.37217E-03 1.07551E-03-4.49426E-15
 -1      2406 4.91408E-03 1.01427E-03-5.84793E-15
 -1      2407 4.75651E-03 1.05799E-03-5.42467E-15
 -1      2408 4.68556E-03 1.04156E-03-5.26510E-15
 -1      2409 5.23685E-03 9.01926E-04-6.75039E-15
 -1      2410 5.07400E-03 9.60989E-04-6.28957E-15
 -1      2411 5.00803E-03 9.48759E-04-6.11308E-15
 -1      2412 5.56870E-03 7.79035E-04-7.72447E-15
 -1      2413 5.40211E-03 8.40226E-04-7.22859E-15
 -1      2414 5.34185E-03 8.25666E-04-7.03517E-15
 -1      2415 5.90418E-03 6.66727E-04-8.76205E-15
 -1      2416 5.73654E-03 7.20710E-04-8.23641E-15
 -1      2417 5.68189E-03 7.00992E-04-8.02562E-15
 -1      2418 6.23838E-03 5.75612E-04-9.85967E-15
 -1      2419 6.07190E-03 6.18235E-04-9.30354E-15
 -1      2420 6.02110E-03 5.93396E-04-9.08097E-15
 -1      2421 6.56817E-03 5.08164E-04-1.10093E-14
 -1      2422 6.40410E-03 5.39016E-04-1.04278E-14
 -1      2423 6.35470E-03 5.09958E-04-1.01909E-14
 -1      2424 6.89221E-03 4.61962E-04-1.22086E-14
 -1      2425 6.73103E-03 4.82650E-04-1.16032E-14
 -1      2426 6.68082E-03 4.50407E-04-1.13534E-14
 -1      2427 7.21031E-03 4.32638E-04-1.34588E-14
 -1      2428 7.05203E-03 4.45465E-04-1.28269E-14
 -1      2429 6.99955E-03 4.10919E-04-1.25654E-14
 -1      2430 7.52281E-03 4.15606E-04-1.47576E-14
 -1      2431 7.36724E-03 4.22835E-04-1.41017E-14
 -1      2432 7.31183E-03 3.86706E-04-1.38265E-14
 -1      2433 7.83028E-03 4.06866E-04-1.61068E-14
 -1      2434 7.67712E-03 4.10402E-04-1.54261E-14
 -1      2435 7.61873E-03 3.73270E-04-1.51380E-14
 -1      2436 8.13336E-03 4.03268E-04-1.75027E-14
 -1      2437 7.98231E-03 4.04577E-04-1.67984E-14
 -1      2438 7.92123E-03 3.66898E-04-1.64990E-14
 -1      2439 8.43272E-03 4.02504E-04-1.89491E-14
 -1      2440 8.28345E-03 4.02643E-04-1.82209E-14
 -1      2441 8.22014E-03 3.64755E-04-1.79101E-14
 -1      2442 8.72896E-03 4.02971E-04-2.04414E-14
 -1      2443 8.58118E-03 4.02660E-04-1.96882E-14
 -1      2444 8.51613E-03 3.64800E-04-1.93679E-14
 -1      2445 9.02266E-03 4.03621E-04-2.19868E-14
 -1      2446 8.87608E-03 4.03323E-04-2.12073E-14
 -1      2447 8.80974E-03 3.65645E-04-2.08740E-14
 -1      2448 9.31431E-03 4.03815E-04-2.35844E-14
 -1      2449 9.16870E-03 4.03806E-04-2.27800E-14
 -1      2450 9.10144E-03 3.66395E-04-2.24328E-14
 -1      2451 9.60433E-03 4.03200E-04-2.52330E-14
 -1      2452 9.45949E-03 4.03626E-04-2.44018E-14
 -1      2453 9.39162E-03 3.66520E-04-2.40451E-14
 -1      2454 9.89311E-03 4.01621E-04-2.69257E-14
 -1      2455 9.74885E-03 4.02539E-04-2.60739E-14
 -1      2456 9.68060E-03 3.65743E-04-2.57051E-14
 -1      2457 1.01809E-02 3.99048E-04-2.86579E-14
 -1      2458 1.00371E-02 4.00461E-04-2.77886E-14
 -1      2459 9.96864E-03 3.63957E-04-2.74085E-14
 -1      2460 1.04680E-02 3.95531E-04-3.04301E-14
 -1      2461 1.03246E-02 3.97406E-04-2.95374E-14
 -1      2462 1.02560E-02 3.61167E-04-2.91521E-14
 -1      2463 1.07546E-02 3.91158E-04-3.22456E-14
 -1      2464 1.06114E-02 3.93447E-04-3.13317E-14
 -1      2465 1.05428E-02 3.57439E-04-3.09342E-14
 -1      2466 1.10409E-02 3.86042E-04-3.41115E-14
 -1      2467 1.08978E-02 3.88688E-04-3.31726E-14
 -1      2468 1.08292E-02 3.52876E-04-3.27642E-14
 -1      2469 1.13268E-02 3.80297E-04-3.60282E-14
 -1      2470 1.11839E-02 3.83243E-04-3.50634E-14
 -1      2471 1.11153E-02 3.47591E-04-3.46441E-14
 -1      2472 1.16126E-02 3.74032E-04-3.79905E-14
 -1      2473 1.14698E-02 3.77224E-04-3.70033E-14
 -1      2474 1.14013E-02 3.41703E-04-3.65705E-14
 -1      2475 1.18983E-02 3.67348E-04-3.99960E-14
 -1      2476 1.17555E-02 3.70738E-04-3.89889E-14
 -1      2477 1.16871E-02 3.35320E-04-3.85403E-14
 -1      2478 1.21840E-02 3.60331E-04-4.20423E-14
 -1      2479 1.20412E-02 3.63877E-04-4.10145E-14
 -1      2480 1.19728E-02 3.28540E-04-4.05500E-14
 -1      2481 1.24696E-02 3.53058E-04-4.41178E-14
 -1      2482 1.23268E-02 3.56723E-04-4.30769E-14
 -1      2483 1.22585E-02 3.21447E-04-4.25985E-14
 -1      2484 1.27552E-02 3.45590E-04-4.62190E-14
 -1      2485 1.26124E-02 3.49345E-04-4.51664E-14
 -1      2486 1.25441E-02 3.14115E-04-4.46771E-14
 -1      2487 1.30408E-02 3.37978E-04-4.83299E-14
 -1      2488 1.28980E-02 3.41799E-04-4.72719E-14
 -1      2489 1.28298E-02 3.06601E-04-4.67765E-14
 -1      2490 1.33264E-02 3.30265E-04-5.04599E-14
 -1      2491 1.31836E-02 3.34132E-04-4.93941E-14
 -1      2492 1.31154E-02 2.98956E-04-4.88881E-14
 -1      2493 1.36120E-02 3.22485E-04-5.26048E-14
 -1      2494 1.34692E-02 3.26382E-04-5.15304E-14
 -1      2495 1.34011E-02 2.91220E-04-5.10179E-14
 -1      2496 1.38976E-02 3.14666E-04-5.47666E-14
 -1      2497 1.37548E-02 3.18579E-04-5.36835E-14
 -1      2498 1.36867E-02 2.83424E-04-5.31614E-14
 -1      2499 1.41833E-02 3.06831E-04-5.69500E-14
 -1      2500 1.40405E-02 3.10749E-04-5.58550E-14
 -1      2501 1.39724E-02 2.75595E-04-5.53243E-14
 -1      2502 1.44690E-02 2.99001E-04-5.91484E-14
 -1      2503 1.43262E-02 3.02915E-04-5.80479E-14
 -1      2504 1.42581E-02 2.67757E-04-5.75083E-14
 -1      2505 1.46166E-02 2.95982E-04-6.02901E-14
 -1      2506 1.45674E-02-3.46785E-05-5.97169E-14
 -1      2507 1.45636E-02 7.49900E-06-5.97139E-14
 -1      2508 1.45751E-02-1.19042E-04-5.97193E-14
 -1      2509 1.45712E-02-7.68592E-05-5.97186E-14
 -1      2510 1.44456E-02-5.23616E-05-5.87890E-14
 -1      2511 1.45523E-02 1.32581E-04-5.97016E-14
 -1      2512 1.45486E-02 1.74744E-04-5.96949E-14
 -1      2513 1.45598E-02 4.93160E-05-5.97078E-14
 -1      2514 1.45561E-02 9.07718E-05-5.97056E-14
 -1      2515 1.44305E-02 1.15251E-04-5.87586E-14
 -1      2516 1.44380E-02 3.16298E-05-5.87753E-14
 -1      2517 1.45828E-02-2.03413E-04-5.97181E-14
 -1      2518 1.45789E-02-1.61227E-04-5.97185E-14
 -1      2519 1.44532E-02-1.36720E-04-5.87958E-14
 -1      2520 1.45905E-02-2.87788E-04-5.97171E-14
 -1      2521 1.45866E-02-2.45601E-04-5.97161E-14
 -1      2522 1.44610E-02-2.21084E-04-5.87956E-14
 -1      2523 1.45984E-02-3.72161E-04-5.97191E-14
 -1      2524 1.45944E-02-3.29975E-04-5.97184E-14
 -1      2525 1.44687E-02-3.05450E-04-5.87950E-14
 -1      2526 1.46061E-02-4.55099E-04-5.97221E-14
 -1      2527 1.46022E-02-4.13632E-04-5.97204E-14
 -1      2528 1.44765E-02-3.89099E-04-5.87967E-14
 -1      2529 1.46141E-02-5.39458E-04-5.97278E-14
 -1      2530 1.46101E-02-4.97280E-04-5.97248E-14
 -1      2531 1.44844E-02-4.72743E-04-5.88008E-14
 -1      2532 1.46220E-02-6.23803E-04-5.97356E-14
 -1      2533 1.46180E-02-5.81632E-04-5.97315E-14
 -1      2534 1.44923E-02-5.57092E-04-5.88053E-14
 -1      2535 1.46300E-02-7.08132E-04-5.97433E-14
 -1      2536 1.46260E-02-6.65969E-04-5.97370E-14
 -1      2537 1.45003E-02-6.41427E-04-5.88093E-14
 -1      2538 6.65327E-03-4.27253E-05-7.95844E-15
 -1      2539 6.68890E-03-5.17865E-05-7.94793E-15
 -1      2540 6.02737E-03 1.73429E-04-7.24532E-15
 -1      2541 6.18850E-03 1.06254E-04-7.43156E-15
 -1      2542 5.94077E-03 2.16777E-04-7.35786E-15
 -1      2543 1.71055E-03 4.36739E-04-5.94739E-16
 -1      2544 1.55321E-03 4.12472E-04-4.83514E-16
 -1      2545 1.75566E-03 4.08019E-04-6.84267E-16
 -1      2546 1.47148E-02-7.84566E-04-6.03351E-14
 -1      2547 6.68722E-03-6.28165E-05-7.93490E-15
 -1      2548 6.65002E-03-7.23819E-05-7.92135E-15
 -1      2549 6.70751E-03-5.81178E-05-8.23994E-15
 -1      2550 6.39233E-03 3.03050E-05-7.69061E-15
 -1      2551 6.53816E-03-1.10452E-05-7.87070E-15
 -1      2552 4.96018E-03 7.70007E-04-5.77015E-15
 -1      2553 5.09483E-03 6.89816E-04-5.99041E-15
 -1      2554 5.19695E-03 6.33682E-04-6.24972E-15
 -1      2555 6.54737E-03-1.01848E-04-7.80286E-15
 -1      2556 6.42567E-03-1.36581E-04-7.67266E-15
 -1      2557 2.88504E-03-3.09410E-04-3.10016E-15
 -1      2558 2.68943E-03-2.21219E-04-2.97397E-15
 -1      2559 2.24226E-03-6.66668E-05-2.72037E-15
 -1      2560 2.15755E-03-4.81295E-05-2.68624E-15
 -1      2561 3.90723E-03 8.18862E-04-3.92329E-15
 -1      2562 4.08316E-03 8.99265E-04-4.19361E-15
 -1      2563 5.01243E-04-1.17776E-05-1.51341E-16
 -1      2564 5.04484E-04-1.94469E-05-1.51599E-16
 -1      2565 6.10556E-04-2.92773E-05-2.05632E-16
 -1      2566 6.02292E-04-1.01235E-05-2.05009E-16
 -1      2567 4.24653E-03 9.44458E-04-4.46510E-15
 -1      2568 4.37731E-03 9.59275E-04-4.70010E-15
 -1      2569 2.69375E-03 1.65262E-04-2.94995E-15
 -1      2570 2.87954E-03 2.48454E-04-3.04776E-15
 -1      2571 3.53890E-03 6.09044E-04-3.49594E-15
 -1      2572 3.68385E-03 6.98040E-04-3.64013E-15
 -1      2573 3.10458E-03 3.60293E-04-3.16046E-15
 -1      2574 3.32446E-03 4.84415E-04-3.31144E-15
 -1      2575 2.36496E-03 4.50876E-05-2.79251E-15
 -1      2576 2.51165E-03 9.32487E-05-2.86366E-15
 -1      2577 2.15434E-03-1.25338E-05-2.72598E-15
 -1      2578 2.22959E-03 4.69499E-06-2.74050E-15
 -1      2579 2.11549E-03-3.30726E-05-2.70704E-15
 -1      2580 2.11750E-03-2.61021E-05-2.71615E-15
 -1      2581 2.12205E-03-1.99975E-05-2.60719E-15
 -1      2582 2.50682E-03-1.49047E-04-2.87240E-15
 -1      2583 2.38068E-03-1.08111E-04-2.80057E-15
 -1      2584 5.07500E-03-8.21843E-04-6.06500E-15
 -1      2585 4.91546E-03-9.11797E-04-5.81116E-15
 -1      2586 3.73055E-03-7.91488E-04-3.86410E-15
 -1      2587 3.57311E-03-6.93655E-04-3.68851E-15
 -1      2588 4.11621E-03-9.92842E-04-4.39869E-15
 -1      2589 3.93401E-03-9.04968E-04-4.11951E-15
 -1      2590 4.41633E-03-1.05786E-03-4.93445E-15
 -1      2591 4.30052E-03-1.04531E-03-4.71520E-15
 -1      2592 4.74590E-03-9.89527E-04-5.55044E-15
 -1      2593 4.59180E-03-1.04025E-03-5.26475E-15
 -1      2594 5.42998E-03-6.11404E-04-6.60744E-15
 -1      2595 5.25137E-03-7.19636E-04-6.34083E-15
 -1      2596 5.88797E-03-3.59218E-04-7.16338E-15
 -1      2597 5.68227E-03-4.67691E-04-6.94723E-15
 -1      2598 6.26719E-03-1.94139E-04-7.50205E-15
 -1      2599 6.09711E-03-2.62703E-04-7.34456E-15
 -1      2600 6.18206E-04-1.85632E-04-1.23721E-16
 -1      2601 8.24045E-04-2.41938E-04-1.98328E-16
 -1      2602 8.77502E-04-2.25559E-04-2.43268E-16
 -1      2603 6.00824E-04-1.56178E-04-1.31744E-16
 -1      2604 8.06018E-04 2.79163E-04-1.17704E-16
 -1      2605 6.49100E-04 2.37926E-04-7.59213E-17
 -1      2606 6.17945E-04 2.10287E-04-8.03936E-17
 -1      2607 8.59850E-04 2.61737E-04-1.58795E-16
 -1      2608 4.40973E-03 9.67270E-04-4.74160E-15
 -1      2609 4.47852E-03 9.57990E-04-4.88463E-15
 -1      2610 4.57065E-03 9.43448E-04-5.07404E-15
 -1      2611 6.51366E-04-8.38507E-05-2.00293E-16
 -1      2612 5.44410E-04-7.65627E-05-1.45947E-16
 -1      2613 5.56222E-04-9.38580E-05-1.42952E-16
 -1      2614 1.44365E-03 3.60894E-04-4.58116E-16
 -1      2615 5.99102E-04 1.77637E-04-9.24282E-17
 -1      2616 6.00259E-03-3.06776E-04-7.45129E-15
 -1      2617 5.56331E-03-5.35186E-04-6.91847E-15
 -1      2618 5.46516E-03-6.03048E-04-6.88804E-15
 -1      2619 5.69456E-03-4.72104E-04-7.23607E-15
 -1      2620 4.83489E-03-9.56068E-04-5.75635E-15
 -1      2621 5.55865E-03 4.19493E-04-6.82141E-15
 -1      2622 7.18230E-04 1.92900E-04-1.37165E-16
 -1      2623 4.52793E-03-1.05641E-03-5.15695E-15
 -1      2624 6.61727E-03-8.45219E-05-8.10503E-15
 -1      2625 4.19446E-03-1.02393E-03-4.50939E-15
 -1      2626 1.45485E-02 2.60816E-04-5.97413E-14
 -1      2627 1.45356E-02 2.28138E-04-5.96255E-14
 -1      2628 3.83998E-03-8.59646E-04-3.94402E-15
 -1      2629 6.57606E-03-1.53501E-05-8.36815E-15
 -1      2630 6.61771E-03-3.17089E-05-8.16329E-15
 -1      2631 6.68005E-03-4.10248E-05-8.45985E-15
 -1      2632 6.30259E-03 6.53790E-05-7.80876E-15
 -1      2633 5.16003E-03-7.76426E-04-6.29805E-15
 -1      2634 2.11612E-03-3.88043E-05-2.57655E-15
 -1      2635 4.85356E-03 8.28120E-04-5.61549E-15
 -1      2636 4.96152E-03 7.76807E-04-5.86433E-15
 -1      2637 4.76358E-03 8.76386E-04-5.46232E-15
 -1      2638 2.28370E-03-8.08493E-05-2.63201E-15
 -1      2639 5.85185E-04-1.30675E-04-1.37911E-16
 -1      2640 2.59275E-03-1.85363E-04-2.80724E-15
 -1      2641 2.28234E-03 2.08351E-05-2.66691E-15
 -1      2642 2.98203E-03 3.01770E-04-2.99176E-15
 -1      2643 3.39176E-03 5.31291E-04-3.27734E-15
 -1      2644 3.80691E-03 7.72195E-04-3.73424E-15
 -1      2645 3.90633E-03 8.35409E-04-3.82802E-15
 -1      2646 3.70618E-03 7.26896E-04-3.54972E-15
 -1      2647 3.00111E-03-3.70523E-04-3.12188E-15
 -1      2648 4.16085E-03 9.29022E-04-4.28536E-15
 -1      2649 6.35750E-03-1.61094E-04-7.81040E-15
 -1      2650 2.59269E-03 1.24592E-04-2.80024E-15
 -1      2651 3.45294E-03-6.24363E-04-3.51929E-15
 -1      2652 1.45674E-02-7.95603E-04-5.92205E-14
 -1      2653 1.46083E-02-7.43719E-04-5.95609E-14
 -1      2654 1.44826E-02-7.19178E-04-5.86289E-14
 -1      2655 1.44392E-02-7.90344E-04-5.82648E-14
 -1      2656 1.44138E-02 2.10451E-04-5.86771E-14
 -1      2657 1.43643E-02-7.51226E-04-5.77257E-14
 -1      2658 7.22505E-04 3.93307E-05-2.56590E-16
 -1      2659 7.14037E-04 2.65018E-05-2.60358E-16
 -1      2660 7.07886E-04 1.46956E-05-2.63515E-16
 -1      2661 7.04493E-04 3.71619E-06-2.65860E-16
 -1      2662 8.14503E-04 2.33122E-05-3.32701E-16
 -1      2663 7.77729E-04 1.10872E-04-2.32385E-16
 -1      2664 7.61282E-04 8.94329E-05-2.40191E-16
 -1      2665 8.15296E-04 1.62297E-04-2.12870E-16
 -1      2666 7.95853E-04 1.35094E-04-2.23522E-16
 -1      2667 9.05557E-04 1.38936E-04-2.91718E-16
 -1      2668 1.18388E-03 2.87739E-04-3.40006E-16
 -1      2669 1.03197E-03 2.62128E-04-2.60927E-16
 -1      2670 4.60227E-03-1.05223E-03-5.33081E-15
 -1      2671 4.44886E-03-1.07078E-03-4.99817E-15
 -1      2672 8.35562E-04 2.13781E-04-1.83596E-16
 -1      2673 1.36792E-03-2.81942E-04-5.77866E-16
 -1      2674 1.51883E-03-3.02404E-04-7.01601E-16
 -1      2675 1.67084E-03-3.22958E-04-8.37926E-16
 -1      2676 1.82435E-03-3.44475E-04-9.87180E-16
 -1      2677 1.55838E-03-2.75552E-04-7.79596E-16
 -1      2678 1.97982E-03-3.67847E-04-1.14923E-15
 -1      2679 2.13755E-03-3.94262E-04-1.32387E-15
 -1      2680 1.85960E-03-3.14631E-04-1.07859E-15
 -1      2681 2.29836E-03-4.24458E-04-1.51172E-15
 -1      2682 2.46230E-03-4.59989E-04-1.71255E-15
 -1      2683 2.17004E-03-3.62183E-04-1.42845E-15
 -1      2684 2.63049E-03-5.01313E-04-1.92678E-15
 -1      2685 2.80228E-03-5.50130E-04-2.15491E-15
 -1      2686 2.49478E-03-4.26792E-04-1.82923E-15
 -1      2687 2.97895E-03-6.06459E-04-2.39682E-15
 -1      2688 3.15836E-03-6.71047E-04-2.65215E-15
 -1      2689 2.83899E-03-5.18471E-04-2.28310E-15
 -1      2690 3.34166E-03-7.42694E-04-2.92213E-15
 -1      2691 3.52479E-03-8.19665E-04-3.20657E-15
 -1      2692 3.20435E-03-6.45811E-04-2.79220E-15
 -1      2693 3.70740E-03-8.99429E-04-3.50719E-15
 -1      2694 3.88673E-03-9.73910E-04-3.82414E-15
 -1      2695 3.58232E-03-8.07387E-04-3.35872E-15
 -1      2696 4.06106E-03-1.03928E-03-4.15725E-15
 -1      2697 4.23192E-03-1.08438E-03-4.50773E-15
 -1      2698 3.95445E-03-9.73268E-04-3.99001E-15
 -1      2699 4.41741E-03-1.10042E-03-4.92621E-15
 -1      2700 4.58659E-03-1.09135E-03-5.31262E-15
 -1      2701 5.08135E-03-9.49112E-04-6.51610E-15
 -1      2702 5.26252E-03-8.76153E-04-6.96611E-15
 -1      2703 5.44654E-03-8.01942E-04-7.43183E-15
 -1      2704 5.62947E-03-7.32402E-04-7.91217E-15
 -1      2705 5.38455E-03-7.83276E-04-7.20253E-15
 -1      2706 5.81155E-03-6.69873E-04-8.40681E-15
 -1      2707 5.98935E-03-6.15728E-04-8.91537E-15
 -1      2708 5.76057E-03-6.39487E-04-8.16542E-15
 -1      2709 6.16396E-03-5.70764E-04-9.43746E-15
 -1      2710 6.33368E-03-5.33760E-04-9.97442E-15
 -1      2711 6.12018E-03-5.34336E-04-9.18536E-15
 -1      2712 6.49980E-03-5.04797E-04-1.05243E-14
 -1      2713 6.66186E-03-4.82290E-04-1.10875E-14
 -1      2714 6.45829E-03-4.66587E-04-1.02606E-14
 -1      2715 6.82090E-03-4.65962E-04-1.16659E-14
 -1      2716 6.97703E-03-4.54489E-04-1.22564E-14
 -1      2717 6.77787E-03-4.27487E-04-1.13915E-14
 -1      2718 7.13094E-03-4.47436E-04-1.28603E-14
 -1      2719 7.28293E-03-4.43852E-04-1.34802E-14
 -1      2720 7.08424E-03-4.08946E-04-1.25758E-14
 -1      2721 7.43340E-03-4.43264E-04-1.41122E-14
 -1      2722 7.58264E-03-4.45040E-04-1.47581E-14
 -1      2723 7.38214E-03-4.04598E-04-1.38134E-14
 -1      2724 7.73087E-03-4.48742E-04-1.54186E-14
 -1      2725 7.87832E-03-4.53954E-04-1.60917E-14
 -1      2726 7.67499E-03-4.09745E-04-1.51069E-14
 -1      2727 8.02506E-03-4.60313E-04-1.67783E-14
 -1      2728 8.17131E-03-4.67548E-04-1.74789E-14
 -1      2729 7.96497E-03-4.20945E-04-1.64550E-14
 -1      2730 8.31706E-03-4.75382E-04-1.81944E-14
 -1      2731 8.46248E-03-4.83641E-04-1.89237E-14
 -1      2732 8.25334E-03-4.35693E-04-1.78564E-14
 -1      2733 8.60752E-03-4.92128E-04-1.96665E-14
 -1      2734 8.75233E-03-5.00733E-04-2.04233E-14
 -1      2735 8.54083E-03-4.52212E-04-1.93148E-14
 -1      2736 8.89686E-03-5.09328E-04-2.11937E-14
 -1      2737 9.04122E-03-5.17845E-04-2.19784E-14
 -1      2738 8.82782E-03-4.69287E-04-2.08281E-14
 -1      2739 9.18535E-03-5.26209E-04-2.27796E-14
 -1      2740 9.32934E-03-5.34381E-04-2.35944E-14
 -1      2741 9.11449E-03-4.86131E-04-2.23984E-14
 -1      2742 9.47317E-03-5.42323E-04-2.44220E-14
 -1      2743 9.61689E-03-5.50017E-04-2.52636E-14
 -1      2744 9.40095E-03-5.02274E-04-2.40262E-14
 -1      2745 9.76047E-03-5.57449E-04-2.61186E-14
 -1      2746 9.90397E-03-5.64614E-04-2.69845E-14
 -1      2747 9.68726E-03-5.17473E-04-2.57067E-14
 -1      2748 1.00474E-02-5.71516E-04-2.78612E-14
 -1      2749 1.01907E-02-5.78157E-04-2.87496E-14
 -1      2750 9.97344E-03-5.31638E-04-2.74365E-14
 -1      2751 1.03339E-02-5.84550E-04-2.96501E-14
 -1      2752 1.04771E-02-5.90703E-04-3.05589E-14
 -1      2753 1.02595E-02-5.44781E-04-2.92095E-14
 -1      2754 1.06203E-02-5.96633E-04-3.14774E-14
 -1      2755 1.07633E-02-6.02350E-04-3.24031E-14
 -1      2756 1.05455E-02-5.56972E-04-3.10250E-14
 -1      2757 1.09064E-02-6.07874E-04-3.33381E-14
 -1      2758 1.10494E-02-6.13215E-04-3.42797E-14
 -1      2759 1.08315E-02-5.68315E-04-3.28761E-14
 -1      2760 1.11924E-02-6.18394E-04-3.52271E-14
 -1      2761 1.13353E-02-6.23420E-04-3.61800E-14
 -1      2762 1.11173E-02-5.78927E-04-3.47570E-14
 -1      2763 1.14783E-02-6.28313E-04-3.71375E-14
 -1      2764 1.16212E-02-6.33080E-04-3.81017E-14
 -1      2765 1.14032E-02-5.88924E-04-3.66611E-14
 -1      2766 1.17641E-02-6.37739E-04-3.90696E-14
 -1      2767 1.19070E-02-6.42298E-04-4.00395E-14
 -1      2768 1.16890E-02-5.98418E-04-3.85859E-14
 -1      2769 1.20499E-02-6.46772E-04-4.10189E-14
 -1      2770 1.21927E-02-6.51167E-04-4.20064E-14
 -1      2771 1.19747E-02-6.07506E-04-4.05313E-14
 -1      2772 1.23356E-02-6.55496E-04-4.29951E-14
 -1      2773 1.24785E-02-6.59765E-04-4.39924E-14
 -1      2774 1.22605E-02-6.16275E-04-4.25013E-14
 -1      2775 1.26213E-02-6.63983E-04-4.49988E-14
 -1      2776 1.27642E-02-6.68156E-04-4.60128E-14
 -1      2777 1.25462E-02-6.24796E-04-4.44954E-14
 -1      2778 1.29070E-02-6.72291E-04-4.70355E-14
 -1      2779 1.30499E-02-6.76394E-04-4.80645E-14
 -1      2780 1.28320E-02-6.33131E-04-4.65259E-14
 -1      2781 1.31927E-02-6.80469E-04-4.91011E-14
 -1      2782 1.33356E-02-6.84522E-04-5.01422E-14
 -1      2783 1.31177E-02-6.41329E-04-4.85835E-14
 -1      2784 1.34784E-02-6.88557E-04-5.11890E-14
 -1      2785 1.36213E-02-6.92576E-04-5.22407E-14
 -1      2786 1.34034E-02-6.49429E-04-5.06685E-14
 -1      2787 1.37641E-02-6.96585E-04-5.32931E-14
 -1      2788 1.39070E-02-7.00585E-04-5.43494E-14
 -1      2789 1.36891E-02-6.57465E-04-5.27673E-14
 -1      2790 1.40498E-02-7.04580E-04-5.54086E-14
 -1      2791 1.41927E-02-7.08573E-04-5.64691E-14
 -1      2792 1.39748E-02-6.65462E-04-5.48779E-14
 -1      2793 2.43844E-03 4.94878E-04-1.41459E-15
 -1      2794 2.27542E-03 4.60310E-04-1.23549E-15
 -1      2795 1.42839E-02 1.60978E-04-5.76606E-14
 -1      2796 1.42710E-02 2.14371E-04-5.75822E-14
 -1      2797 1.41281E-02 2.18293E-04-5.64905E-14
 -1      2798 2.11448E-03 4.30110E-04-1.06961E-15
 -1      2799 1.95586E-03 4.03223E-04-9.16693E-16
 -1      2800 2.15458E-03 3.99040E-04-1.17986E-15
 -1      2801 3.11539E-03 6.86584E-04-2.26890E-15
 -1      2802 2.94326E-03 6.30189E-04-2.03398E-15
 -1      2803 3.46222E-03 8.11230E-04-2.78396E-15
 -1      2804 3.28914E-03 7.47625E-04-2.51898E-15
 -1      2805 3.16930E-03 6.63035E-04-2.42490E-15
 -1      2806 3.80388E-03 9.34467E-04-3.36072E-15
 -1      2807 3.63442E-03 8.75070E-04-3.06431E-15
 -1      2808 3.52538E-03 7.95445E-04-2.95491E-15
 -1      2809 4.13287E-03 1.02401E-03-4.00474E-15
 -1      2810 3.96976E-03 9.86261E-04-3.67454E-15
 -1      2811 3.87463E-03 9.24634E-04-3.54891E-15
 -1      2812 4.45164E-03 1.04621E-03-4.71983E-15
 -1      2813 4.29202E-03 1.04526E-03-4.35284E-15
 -1      2814 4.20852E-03 1.01025E-03-4.21036E-15
 -1      2815 4.77281E-03 9.89896E-04-5.51165E-15
 -1      2816 4.61036E-03 1.02671E-03-5.10536E-15
 -1      2817 4.53392E-03 1.01288E-03-4.94629E-15
 -1      2818 5.10658E-03 8.77270E-04-6.38056E-15
 -1      2819 4.93759E-03 9.38082E-04-5.93734E-15
 -1      2820 4.86575E-03 9.30383E-04-5.75917E-15
 -1      2821 5.45183E-03 7.44066E-04-7.32099E-15
 -1      2822 5.27859E-03 8.10685E-04-6.84190E-15
 -1      2823 5.21345E-03 7.97747E-04-6.64895E-15
 -1      2824 5.79915E-03 6.20272E-04-8.32995E-15
 -1      2825 5.62613E-03 6.79799E-04-7.81738E-15
 -1      2826 5.56955E-03 6.58058E-04-7.60854E-15
 -1      2827 6.14045E-03 5.19789E-04-9.39849E-15
 -1      2828 5.97119E-03 5.66788E-04-8.85647E-15
 -1      2829 5.92197E-03 5.38702E-04-8.63418E-15
 -1      2830 6.47185E-03 4.45619E-04-1.05231E-14
 -1      2831 6.30766E-03 4.79628E-04-9.95504E-15
 -1      2832 6.26268E-03 4.47810E-04-9.71773E-15
 -1      2833 6.79320E-03 3.94683E-04-1.16970E-14
 -1      2834 6.63382E-03 4.17611E-04-1.11038E-14
 -1      2835 6.58978E-03 3.83928E-04-1.08548E-14
 -1      2836 7.10609E-03 3.62041E-04-1.29222E-14
 -1      2837 6.95064E-03 3.76430E-04-1.23039E-14
 -1      2838 6.90510E-03 3.41729E-04-1.20429E-14
 -1      2839 7.41242E-03 3.42761E-04-1.41949E-14
 -1      2840 7.25998E-03 3.51026E-04-1.35521E-14
 -1      2841 7.21155E-03 3.15636E-04-1.32788E-14
 -1      2842 7.71383E-03 3.32621E-04-1.55208E-14
 -1      2843 7.56365E-03 3.36776E-04-1.48519E-14
 -1      2844 7.51178E-03 3.00856E-04-1.45652E-14
 -1      2845 8.01157E-03 3.28292E-04-1.68929E-14
 -1      2846 7.86308E-03 3.29897E-04-1.61997E-14
 -1      2847 7.80781E-03 2.93579E-04-1.59022E-14
 -1      2848 8.30651E-03 3.27301E-04-1.83162E-14
 -1      2849 8.15933E-03 3.27498E-04-1.75977E-14
 -1      2850 8.10098E-03 2.90918E-04-1.72880E-14
 -1      2851 8.59931E-03 3.27899E-04-1.97873E-14
 -1      2852 8.45313E-03 3.27482E-04-1.90464E-14
 -1      2853 8.39220E-03 2.90772E-04-1.87231E-14
 -1      2854 8.89044E-03 3.28909E-04-2.13069E-14
 -1      2855 8.74504E-03 3.28404E-04-2.05404E-14
 -1      2856 8.68202E-03 2.91676E-04-2.02083E-14
 -1      2857 9.18024E-03 3.29591E-04-2.28813E-14
 -1      2858 9.03547E-03 3.29323E-04-2.20877E-14
 -1      2859 8.97083E-03 2.92663E-04-2.17418E-14
 -1      2860 9.46901E-03 3.29518E-04-2.45054E-14
 -1      2861 9.32473E-03 3.29666E-04-2.36871E-14
 -1      2862 9.25887E-03 2.93133E-04-2.33282E-14
 -1      2863 9.75697E-03 3.28481E-04-2.61770E-14
 -1      2864 9.61307E-03 3.29128E-04-2.53358E-14
 -1      2865 9.54633E-03 2.92754E-04-2.49671E-14
 -1      2866 1.00443E-02 3.26419E-04-2.78916E-14
 -1      2867 9.90070E-03 3.27580E-04-2.70287E-14
 -1      2868 9.83334E-03 2.91378E-04-2.66501E-14
 -1      2869 1.03312E-02 3.23360E-04-2.96451E-14
 -1      2870 1.01878E-02 3.25012E-04-2.87633E-14
 -1      2871 1.01200E-02 2.88980E-04-2.83744E-14
 -1      2872 1.06177E-02 3.19387E-04-3.14406E-14
 -1      2873 1.04744E-02 3.21483E-04-3.05375E-14
 -1      2874 1.04064E-02 2.85611E-04-3.01404E-14
 -1      2875 1.09039E-02 3.14607E-04-3.32858E-14
 -1      2876 1.07608E-02 3.17092E-04-3.23575E-14
 -1      2877 1.06926E-02 2.81363E-04-3.19497E-14
 -1      2878 1.11899E-02 3.09140E-04-3.51752E-14
 -1      2879 1.10469E-02 3.11954E-04-3.42237E-14
 -1      2880 1.09786E-02 2.76349E-04-3.38060E-14
 -1      2881 1.14758E-02 3.03100E-04-3.71097E-14
 -1      2882 1.13329E-02 3.06186E-04-3.61386E-14
 -1      2883 1.12645E-02 2.70687E-04-3.57070E-14
 -1      2884 1.17616E-02 2.96593E-04-3.90858E-14
 -1      2885 1.16187E-02 2.99900E-04-3.80933E-14
 -1      2886 1.15504E-02 2.64488E-04-3.76490E-14
 -1      2887 1.20474E-02 2.89715E-04-4.11012E-14
 -1      2888 1.19045E-02 2.93196E-04-4.00892E-14
 -1      2889 1.18362E-02 2.57854E-04-3.96307E-14
 -1      2890 1.23331E-02 2.82547E-04-4.31508E-14
 -1      2891 1.21902E-02 2.86164E-04-4.21215E-14
 -1      2892 1.21219E-02 2.50877E-04-4.16488E-14
 -1      2893 1.26187E-02 2.75156E-04-4.52324E-14
 -1      2894 1.24759E-02 2.78876E-04-4.41884E-14
 -1      2895 1.24077E-02 2.43633E-04-4.37030E-14
 -1      2896 1.29044E-02 2.67599E-04-4.73292E-14
 -1      2897 1.27616E-02 2.71396E-04-4.62792E-14
 -1      2898 1.26934E-02 2.36185E-04-4.57828E-14
 -1      2899 1.31901E-02 2.59923E-04-4.94453E-14
 -1      2900 1.30472E-02 2.63774E-04-4.83853E-14
 -1      2901 1.29791E-02 2.28587E-04-4.78833E-14
 -1      2902 1.34758E-02 2.52165E-04-5.15722E-14
 -1      2903 1.33329E-02 2.56053E-04-5.05075E-14
 -1      2904 1.32648E-02 2.20881E-04-4.99988E-14
 -1      2905 1.37614E-02 2.44355E-04-5.37183E-14
 -1      2906 1.36186E-02 2.48265E-04-5.26440E-14
 -1      2907 1.35505E-02 2.13103E-04-5.21273E-14
 -1      2908 1.40162E-02 2.29367E-04-5.56450E-14
 -1      2909 1.38734E-02 2.33287E-04-5.45620E-14
 -1      2910 1.38052E-02 1.98127E-04-5.40407E-14
 -1      2911 1.40291E-02 1.75980E-04-5.57258E-14
 -1      2912 1.43392E-02-2.38750E-04-5.78726E-14
 -1      2913 1.43353E-02-1.96571E-04-5.78737E-14
 -1      2914 1.42893E-02-7.12107E-04-5.71898E-14
 -1      2915 1.43860E-02-7.15642E-04-5.79094E-14
 -1      2916 1.42143E-02-6.72987E-04-5.66547E-14
 -1      2917 1.43238E-02-7.00395E-05-5.78605E-14
 -1      2918 1.43199E-02-2.78658E-05-5.78529E-14
 -1      2919 1.43470E-02-3.23108E-04-5.78738E-14
 -1      2920 1.43431E-02-2.80930E-04-5.78736E-14
 -1      2921 1.42174E-02-2.56413E-04-5.69533E-14
 -1      2922 1.43314E-02-1.54393E-04-5.78698E-14
 -1      2923 1.43276E-02-1.12216E-04-5.78661E-14
 -1      2924 1.42019E-02-8.77139E-05-5.69346E-14
 -1      2925 1.42096E-02-1.72062E-04-5.69478E-14
 -1      2926 5.90248E-03 2.50761E-04-7.53298E-15
 -1      2927 6.04661E-03 1.81107E-04-7.72518E-15
 -1      2928 1.43547E-02-4.06035E-04-5.78743E-14
 -1      2929 1.43508E-02-3.64572E-04-5.78739E-14
 -1      2930 1.42251E-02-3.40049E-04-5.69538E-14
 -1      2931 1.43626E-02-4.90384E-04-5.78778E-14
 -1      2932 1.43586E-02-4.48211E-04-5.78750E-14
 -1      2933 1.42329E-02-4.23682E-04-5.69538E-14
 -1      2934 1.43706E-02-5.74725E-04-5.78843E-14
 -1      2935 1.43666E-02-5.32556E-04-5.78815E-14
 -1      2936 1.42409E-02-5.08024E-04-5.69579E-14
 -1      2937 6.24478E-03 9.63901E-05-7.99006E-15
 -1      2938 6.42649E-03 3.39042E-05-8.25873E-15
 -1      2939 6.20626E-03 1.33834E-04-8.17221E-15
 -1      2940 1.79893E-03 3.78844E-04-7.76221E-16
 -1      2941 1.64358E-03 3.56039E-04-6.48854E-16
 -1      2942 1.84012E-03 3.49100E-04-8.70872E-16
 -1      2943 6.73212E-03-5.75243E-05-8.57742E-15
 -1      2944 6.72885E-03-6.30193E-05-8.56380E-15
 -1      2945 5.23758E-03-7.40621E-04-6.53931E-15
 -1      2946 5.08224E-03-8.32884E-04-6.25894E-15
 -1      2947 5.14759E-03 6.77383E-04-6.25547E-15
 -1      2948 5.27384E-03 6.00134E-04-6.48671E-15
 -1      2949 4.24470E-03-1.05258E-03-4.57884E-15
 -1      2950 4.08522E-03-1.00041E-03-4.26850E-15
 -1      2951 6.99057E-04-1.42491E-04-1.91904E-16
 -1      2952 2.77234E-03 5.79461E-04-1.81418E-15
 -1      2953 2.60435E-03 5.34323E-04-1.60764E-15
 -1      2954 2.47990E-03 4.63894E-04-1.54035E-15
 -1      2955 2.81845E-03 5.50637E-04-1.95469E-15
 -1      2956 1.06888E-03-2.37843E-04-3.67829E-16
 -1      2957 1.21807E-03-2.60630E-04-4.66546E-16
 -1      2958 1.26281E-03-2.37853E-04-5.30758E-16
 -1      2959 1.48945E-03 3.33827E-04-5.34186E-16
 -1      2960 1.33622E-03 3.11412E-04-4.31052E-16
 -1      2961 1.23175E-03 2.64468E-04-4.02713E-16
 -1      2962 1.53339E-03 3.06593E-04-6.12588E-16
 -1      2963 6.12788E-03-2.57923E-04-7.79594E-15
 -1      2964 5.94572E-03-3.44395E-04-7.60623E-15
 -1      2965 2.64009E-03-2.16587E-04-2.70409E-15
 -1      2966 2.48024E-03-1.53668E-04-2.60969E-15
 -1      2967 7.46416E-04 7.05870E-05-2.46642E-16
 -1      2968 7.33445E-04 5.39477E-05-2.52023E-16
 -1      2969 8.35312E-04 5.32612E-05-3.23363E-16
 -1      2970 8.66408E-04 9.09836E-05-3.10095E-16
 -1      2971 7.29557E-04-5.48992E-05-2.67906E-16
 -1      2972 7.42210E-04-7.05493E-05-2.66388E-16
 -1      2973 3.26282E-03 4.78245E-04-3.04182E-15
 -1      2974 3.44863E-03 5.89026E-04-3.21509E-15
 -1      2975 3.13725E-03-4.48164E-04-3.15146E-15
 -1      2976 2.90736E-03-3.33643E-04-2.93439E-15
 -1      2977 2.33491E-03-1.02217E-04-2.53447E-15
 -1      2978 2.21037E-03-6.89070E-05-2.45982E-15
 -1      2979 2.37385E-03-1.31879E-04-2.43645E-15
 -1      2980 4.09910E-03 9.17591E-04-4.13565E-15
 -1      2981 4.24196E-03 9.57371E-04-4.40509E-15
 -1      2982 3.51656E-03-6.77545E-04-3.48567E-15
 -1      2983 3.33294E-03-5.61131E-04-3.31606E-15
 -1      2984 3.21381E-03-5.13006E-04-3.11892E-15
 -1      2985 2.83242E-03 2.39684E-04-2.78139E-15
 -1      2986 3.02385E-03 3.40569E-04-2.88468E-15
 -1      2987 2.08947E-03-2.27636E-05-2.48136E-15
 -1      2988 2.12374E-03-1.54433E-05-2.49072E-15
 -1      2989 2.20410E-03 5.47259E-06-2.50980E-15
 -1      2990 2.32612E-03 3.73240E-05-2.55822E-15
 -1      2991 5.46560E-03 4.88466E-04-6.83057E-15
 -1      2992 5.67736E-03 3.67793E-04-7.18140E-15
 -1      2993 6.43323E-03-1.43237E-04-8.14571E-15
 -1      2994 6.28704E-03-1.92364E-04-7.96878E-15
 -1      2995 6.23177E-03-2.30951E-04-8.12683E-15
 -1      2996 1.44077E-02-6.80054E-04-5.80914E-14
 -1      2997 3.90387E-03-9.07823E-04-3.98732E-15
 -1      2998 3.72701E-03-8.03439E-04-3.73887E-15
 -1      2999 6.67755E-03-7.73493E-05-8.45577E-15
 -1      3000 6.58222E-03-9.86980E-05-8.33261E-15
 -1      3001 2.11492E-03-4.18661E-05-2.43894E-15
 -1      3002 2.08269E-03-3.26619E-05-2.46023E-15
 -1      3003 2.05788E-03-2.72695E-05-2.34643E-15
 -1      3004 4.92391E-03-9.22396E-04-5.98490E-15
 -1      3005 4.78460E-03-9.94955E-04-5.71769E-15
 -1      3006 5.01474E-03-8.90860E-04-6.21644E-15
 -1      3007 2.49038E-03 9.28031E-05-2.63115E-15
 -1      3008 2.65306E-03 1.55617E-04-2.71141E-15
 -1      3009 7.57024E-04-8.83556E-05-2.64139E-16
 -1      3010 7.73587E-04-1.08645E-04-2.60642E-16
 -1      3011 8.60963E-04-9.04600E-05-3.37051E-16
 -1      3012 8.06279E-04-2.07910E-06-3.38461E-16
 -1      3013 7.03918E-04-6.88498E-06-2.67378E-16
 -1      3014 7.06214E-04-1.75984E-05-2.68584E-16
 -1      3015 1.44037E-02-6.37894E-04-5.80899E-14
 -1      3016 4.32700E-03-1.07496E-03-4.73741E-15
 -1      3017 8.89123E-04 1.98105E-04-2.27886E-16
 -1      3018 4.33557E-03 9.71900E-04-4.57994E-15
 -1      3019 5.84077E-03-4.07248E-04-7.57228E-15
 -1      3020 5.74817E-03-4.73327E-04-7.53701E-15
 -1      3021 5.98088E-03-3.57064E-04-7.91504E-15
 -1      3022 1.41943E-02-3.72943E-06-5.69177E-14
 -1      3023 1.43162E-02 1.39485E-05-5.78456E-14
 -1      3024 1.43124E-02 5.57599E-05-5.78340E-14
 -1      3025 4.73123E-03-1.06903E-03-5.66173E-15
 -1      3026 4.90433E-03-1.01700E-03-6.08105E-15
 -1      3027 2.13697E-03-5.50103E-05-2.34464E-15
 -1      3028 2.07562E-03-4.71837E-05-2.23305E-15
 -1      3029 2.16230E-03-7.31231E-05-2.25191E-15
 -1      3030 6.72921E-03-7.33197E-05-8.79564E-15
 -1      3031 6.53408E-03-1.23948E-04-8.49390E-15
 -1      3032 3.59672E-03-7.43048E-04-3.52423E-15
 -1      3033 5.80650E-03 3.23236E-04-7.54197E-15
 -1      3034 1.42876E-02 1.19176E-04-5.76720E-14
 -1      3035 5.41092E-03 5.42743E-04-6.83512E-15
 -1      3036 6.53434E-03 6.93706E-06-8.55494E-15
 -1      3037 6.62824E-03-9.33684E-06-8.85681E-15
 -1      3038 6.49796E-03 3.56571E-05-8.74363E-15
 -1      3039 1.42779E-02-6.13359E-04-5.71673E-14
 -1      3040 2.14249E-03-2.11907E-06-2.38558E-15
 -1      3041 1.00321E-03 2.02613E-04-2.98508E-16
 -1      3042 4.69609E-03-1.03560E-03-5.54676E-15
 -1      3043 4.67908E-03 9.16562E-04-5.30782E-15
 -1      3044 4.78498E-03 8.80652E-04-5.54683E-15
 -1      3045 4.60621E-03 9.46034E-04-5.15422E-15
 -1      3046 6.73309E-03-4.87966E-05-8.78713E-15
 -1      3047 3.09713E-03 4.10060E-04-2.82581E-15
 -1      3048 2.70438E-03 1.99784E-04-2.61055E-15
 -1      3049 3.97222E-03-9.60633E-04-4.04956E-15
 -1      3050 8.01455E-04-1.37170E-04-2.58636E-16
 -1      3051 8.42848E-04-1.85365E-04-2.50722E-16
 -1      3052 9.80350E-04-2.14331E-04-3.22306E-16
 -1      3053 9.10360E-04-1.41390E-04-3.32037E-16
 -1      3054 5.04858E-03 7.40744E-04-6.09219E-15
 -1      3055 5.13658E-03 7.10470E-04-6.32284E-15
 -1      3056 4.96075E-03 7.99056E-04-5.92958E-15
 -1      3057 5.37378E-03-6.71384E-04-6.84446E-15
 -1      3058 5.30158E-03-7.35615E-04-6.79979E-15
 -1      3059 5.50951E-03-6.09087E-04-7.15678E-15
 -1      3060 3.56376E-03 6.68362E-04-3.29833E-15
 -1      3061 3.66220E-03 7.41835E-04-3.38259E-15
 -1      3062 3.42190E-03 6.19473E-04-3.05661E-15
 -1      3063 5.00912E-03-9.44011E-04-6.29915E-15
 -1      3064 7.11341E-04-2.88349E-05-2.69058E-16
 -1      3065 7.19157E-04-4.11578E-05-2.68787E-16
 -1      3066 8.30637E-04-5.50331E-05-3.40643E-16
 -1      3067 8.11811E-04-2.68113E-05-3.40927E-16
 -1      3068 2.76184E-03-2.80424E-04-2.72889E-15
 -1      3069 2.62538E-03-2.43951E-04-2.53194E-15
 -1      3070 2.87567E-03-3.51126E-04-2.75347E-15
 -1      3071 3.99713E-03 8.86780E-04-3.93693E-15
 -1      3072 2.37542E-03 6.58175E-05-2.47353E-15
 -1      3073 1.02942E-03-1.96280E-04-3.75134E-16
 -1      3074 4.28557E-03 9.77479E-04-4.45003E-15
 -1      3075 4.44090E-03 9.78512E-04-4.79018E-15
 -1      3076 1.03804E-03 1.68973E-04-3.57597E-16
 -1      3077 1.01351E-03 1.39721E-04-3.69998E-16
 -1      3078 1.74230E-03-2.65673E-04-1.00851E-15
 -1      3079 1.89135E-03-2.84120E-04-1.17082E-15
 -1      3080 2.04297E-03-3.04526E-04-1.34578E-15
 -1      3081 2.19794E-03-3.28471E-04-1.53336E-15
 -1      3082 1.91923E-03-2.52596E-04-1.26438E-15
 -1      3083 2.35725E-03-3.56397E-04-1.73350E-15
 -1      3084 2.52154E-03-3.90778E-04-1.94606E-15
 -1      3085 2.22077E-03-2.92628E-04-1.63873E-15
 -1      3086 2.69253E-03-4.31810E-04-2.17177E-15
 -1      3087 2.86957E-03-4.83030E-04-2.41117E-15
 -1      3088 2.54224E-03-3.51399E-04-2.06283E-15
 -1      3089 3.78273E-03-8.75230E-04-3.72360E-15
 -1      3090 1.16216E-03-1.97608E-04-4.84408E-16
 -1      3091 1.30553E-03-2.15208E-04-5.97260E-16
 -1      3092 5.71578E-03-6.05947E-04-7.92411E-15
 -1      3093 5.90239E-03-5.43716E-04-8.42153E-15
 -1      3094 6.08322E-03-4.94655E-04-8.93201E-15
 -1      3095 6.25613E-03-4.55446E-04-9.45773E-15
 -1      3096 6.05346E-03-4.51877E-04-8.67940E-15
 -1      3097 6.42300E-03-4.26252E-04-9.99813E-15
 -1      3098 6.58383E-03-4.03813E-04-1.05511E-14
 -1      3099 6.39424E-03-3.83216E-04-9.73394E-15
 -1      3100 6.74009E-03-3.88099E-04-1.11169E-14
 -1      3101 6.89248E-03-3.77073E-04-1.16969E-14
 -1      3102 6.70781E-03-3.47314E-04-1.08433E-14
 -1      3103 7.04187E-03-3.70505E-04-1.22888E-14
 -1      3104 7.18905E-03-3.67098E-04-1.28949E-14
 -1      3105 7.00395E-03-3.31787E-04-1.20028E-14
 -1      3106 7.33449E-03-3.66577E-04-1.35165E-14
 -1      3107 7.47877E-03-3.68212E-04-1.41497E-14
 -1      3108 7.29042E-03-3.29040E-04-1.32182E-14
 -1      3109 7.62214E-03-3.71695E-04-1.47969E-14
 -1      3110 7.76499E-03-3.76595E-04-1.54580E-14
 -1      3111 7.57223E-03-3.34529E-04-1.44879E-14
 -1      3112 7.90741E-03-3.82619E-04-1.61320E-14
 -1      3113 8.04967E-03-3.89508E-04-1.68188E-14
 -1      3114 7.85230E-03-3.45332E-04-1.58096E-14
 -1      3115 8.19175E-03-3.97012E-04-1.75202E-14
 -1      3116 8.33384E-03-4.04976E-04-1.82354E-14
 -1      3117 8.13219E-03-3.59372E-04-1.71854E-14
 -1      3118 8.47590E-03-4.13202E-04-1.89646E-14
 -1      3119 8.61804E-03-4.21596E-04-1.97076E-14
 -1      3120 8.41265E-03-3.75148E-04-1.86154E-14
 -1      3121 8.76020E-03-4.30018E-04-2.04644E-14
 -1      3122 8.90247E-03-4.38414E-04-2.12338E-14
 -1      3123 8.69397E-03-3.91583E-04-2.01008E-14
 -1      3124 9.04478E-03-4.46688E-04-2.20177E-14
 -1      3125 9.18719E-03-4.54813E-04-2.28183E-14
 -1      3126 8.97619E-03-4.07943E-04-2.16399E-14
 -1      3127 9.32964E-03-4.62733E-04-2.36303E-14
 -1      3128 9.47218E-03-4.70436E-04-2.44563E-14
 -1      3129 9.25922E-03-4.23759E-04-2.32355E-14
 -1      3130 9.61475E-03-4.77893E-04-2.52960E-14
 -1      3131 9.75739E-03-4.85105E-04-2.61487E-14
 -1      3132 9.54294E-03-4.38762E-04-2.48852E-14
 -1      3133 9.90006E-03-4.92062E-04-2.70129E-14
 -1      3134 1.00428E-02-4.98771E-04-2.78862E-14
 -1      3135 9.82722E-03-4.52835E-04-2.65880E-14
 -1      3136 1.01855E-02-5.05236E-04-2.87733E-14
 -1      3137 1.03283E-02-5.11467E-04-2.96697E-14
 -1      3138 1.01119E-02-4.65957E-04-2.83380E-14
 -1      3139 1.04711E-02-5.17474E-04-3.05749E-14
 -1      3140 1.06139E-02-5.23271E-04-3.14894E-14
 -1      3141 1.03970E-02-4.78175E-04-3.01273E-14
 -1      3142 1.07567E-02-5.28872E-04-3.24122E-14
 -1      3143 1.08996E-02-5.34289E-04-3.33459E-14
 -1      3144 1.06822E-02-4.89574E-04-3.19511E-14
 -1      3145 1.10424E-02-5.39540E-04-3.42860E-14
 -1      3146 1.11853E-02-5.44634E-04-3.52309E-14
 -1      3147 1.09677E-02-5.00255E-04-3.38144E-14
 -1      3148 1.13282E-02-5.49590E-04-3.61846E-14
 -1      3149 1.14710E-02-5.54417E-04-3.71423E-14
 -1      3150 1.12533E-02-5.10327E-04-3.57064E-14
 -1      3151 1.16139E-02-5.59131E-04-3.81028E-14
 -1      3152 1.17568E-02-5.63741E-04-3.90697E-14
 -1      3153 1.15389E-02-5.19892E-04-3.76209E-14
 -1      3154 1.18997E-02-5.68261E-04-4.00423E-14
 -1      3155 1.20425E-02-5.72698E-04-4.10222E-14
 -1      3156 1.18246E-02-5.29046E-04-3.95531E-14
 -1      3157 1.21854E-02-5.77064E-04-4.20057E-14
 -1      3158 1.23283E-02-5.81366E-04-4.29970E-14
 -1      3159 1.21104E-02-5.37872E-04-4.15105E-14
 -1      3160 1.24712E-02-5.85614E-04-4.39970E-14
 -1      3161 1.26140E-02-5.89813E-04-4.50027E-14
 -1      3162 1.23961E-02-5.46442E-04-4.34967E-14
 -1      3163 1.27569E-02-5.93972E-04-4.60169E-14
 -1      3164 1.28998E-02-5.98094E-04-4.70390E-14
 -1      3165 1.26819E-02-5.54817E-04-4.55100E-14
 -1      3166 1.30427E-02-6.02186E-04-4.80691E-14
 -1      3167 1.31855E-02-6.06253E-04-4.91048E-14
 -1      3168 1.29676E-02-5.63045E-04-4.75537E-14
 -1      3169 1.33284E-02-6.10299E-04-5.01457E-14
 -1      3170 1.34713E-02-6.14327E-04-5.11927E-14
 -1      3171 1.32534E-02-5.71168E-04-4.96242E-14
 -1      3172 1.36141E-02-6.18342E-04-5.22415E-14
 -1      3173 1.37570E-02-6.22346E-04-5.32924E-14
 -1      3174 1.35391E-02-5.79218E-04-5.17158E-14
 -1      3175 1.38999E-02-6.26342E-04-5.43485E-14
 -1      3176 1.40427E-02-6.30334E-04-5.54034E-14
 -1      3177 1.38249E-02-5.87221E-04-5.38195E-14
 -1      3178 2.19175E-03 3.66270E-04-1.29138E-15
 -1      3179 2.03390E-03 3.40769E-04-1.12314E-15
 -1      3180 3.62003E-03 7.83176E-04-3.19105E-15
 -1      3181 3.43527E-03 7.08354E-04-2.90793E-15
 -1      3182 4.37943E-03 1.00607E-03-4.61338E-15
 -1      3183 4.21262E-03 9.91744E-04-4.25334E-15
 -1      3184 4.54585E-03 9.92802E-04-4.99272E-15
 -1      3185 4.96440E-03 8.65097E-04-6.00675E-15
 -1      3186 4.78957E-03 9.28821E-04-5.57905E-15
 -1      3187 5.69556E-03 5.67300E-04-7.89924E-15
 -1      3188 5.51359E-03 6.34717E-04-7.40104E-15
 -1      3189 6.05046E-03 4.56525E-04-8.93929E-15
 -1      3190 5.87563E-03 5.07936E-04-8.41188E-15
 -1      3191 5.83211E-03 4.75255E-04-8.18959E-15
 -1      3192 6.38750E-03 3.77800E-04-1.00386E-14
 -1      3193 6.22149E-03 4.13664E-04-9.48159E-15
 -1      3194 6.18413E-03 3.77038E-04-9.24723E-15
 -1      3195 6.70801E-03 3.25168E-04-1.11879E-14
 -1      3196 6.54970E-03 3.48846E-04-1.06074E-14
 -1      3197 6.51367E-03 3.11947E-04-1.03595E-14
 -1      3198 7.01599E-03 2.91720E-04-1.23888E-14
 -1      3199 6.86334E-03 3.06529E-04-1.17818E-14
 -1      3200 6.82541E-03 2.70483E-04-1.15225E-14
 -1      3201 7.31546E-03 2.71792E-04-1.36361E-14
 -1      3202 7.16658E-03 2.80413E-04-1.30065E-14
 -1      3203 7.12507E-03 2.45136E-04-1.27345E-14
 -1      3204 7.60954E-03 2.61027E-04-1.49362E-14
 -1      3205 7.46301E-03 2.65508E-04-1.42797E-14
 -1      3206 7.41728E-03 2.30615E-04-1.39955E-14
 -1      3207 7.90035E-03 2.56152E-04-1.62841E-14
 -1      3208 7.75523E-03 2.58022E-04-1.56044E-14
 -1      3209 7.70530E-03 2.23186E-04-1.53060E-14
 -1      3210 8.18923E-03 2.54766E-04-1.76840E-14
 -1      3211 8.04495E-03 2.55139E-04-1.69781E-14
 -1      3212 7.99117E-03 2.20172E-04-1.66686E-14
 -1      3213 8.47699E-03 2.55148E-04-1.91320E-14
 -1      3214 8.33320E-03 2.54814E-04-1.84012E-14
 -1      3215 8.27609E-03 2.19651E-04-1.80804E-14
 -1      3216 8.76409E-03 2.56113E-04-2.06295E-14
 -1      3217 8.62059E-03 2.55609E-04-1.98754E-14
 -1      3218 8.56072E-03 2.20258E-04-1.95418E-14
 -1      3219 9.05079E-03 2.56887E-04-2.21774E-14
 -1      3220 8.90747E-03 2.56555E-04-2.13960E-14
 -1      3221 8.84537E-03 2.21061E-04-2.10524E-14
 -1      3222 9.33723E-03 2.57002E-04-2.37779E-14
 -1      3223 9.19402E-03 2.57044E-04-2.29722E-14
 -1      3224 9.13019E-03 2.21461E-04-2.26144E-14
 -1      3225 9.62350E-03 2.56210E-04-2.54278E-14
 -1      3226 9.48037E-03 2.56727E-04-2.45962E-14
 -1      3227 9.41521E-03 2.21103E-04-2.42274E-14
 -1      3228 9.90964E-03 2.54417E-04-2.71228E-14
 -1      3229 9.76657E-03 2.55439E-04-2.62704E-14
 -1      3230 9.70042E-03 2.19815E-04-2.58902E-14
 -1      3231 1.01957E-02 2.51628E-04-2.88586E-14
 -1      3232 1.00527E-02 2.53144E-04-2.79845E-14
 -1      3233 9.98579E-03 2.17546E-04-2.75958E-14
 -1      3234 1.04816E-02 2.47910E-04-3.06372E-14
 -1      3235 1.03387E-02 2.49880E-04-2.97427E-14
 -1      3236 1.02713E-02 2.14326E-04-2.93445E-14
 -1      3237 1.07676E-02 2.43361E-04-3.24608E-14
 -1      3238 1.06246E-02 2.45733E-04-3.15425E-14
 -1      3239 1.05569E-02 2.10231E-04-3.11360E-14
 -1      3240 1.10534E-02 2.38096E-04-3.43271E-14
 -1      3241 1.09105E-02 2.40812E-04-3.33890E-14
 -1      3242 1.08425E-02 2.05364E-04-3.29709E-14
 -1      3243 1.13392E-02 2.32227E-04-3.62385E-14
 -1      3244 1.11963E-02 2.35231E-04-3.52777E-14
 -1      3245 1.11282E-02 1.99836E-04-3.48501E-14
 -1      3246 1.16250E-02 2.25863E-04-3.81887E-14
 -1      3247 1.14821E-02 2.29102E-04-3.72098E-14
 -1      3248 1.14139E-02 1.93756E-04-3.67701E-14
 -1      3249 1.19108E-02 2.19101E-04-4.01749E-14
 -1      3250 1.17679E-02 2.22527E-04-3.91758E-14
 -1      3251 1.16997E-02 1.87224E-04-3.87254E-14
 -1      3252 1.21965E-02 2.12024E-04-4.21959E-14
 -1      3253 1.20537E-02 2.15597E-04-4.11814E-14
 -1      3254 1.19854E-02 1.80331E-04-4.07157E-14
 -1      3255 1.24823E-02 2.04704E-04-4.42527E-14
 -1      3256 1.23394E-02 2.08391E-04-4.32205E-14
 -1      3257 1.22712E-02 1.73155E-04-4.27419E-14
 -1      3258 1.27680E-02 1.97200E-04-4.63320E-14
 -1      3259 1.26252E-02 2.00972E-04-4.52904E-14
 -1      3260 1.25569E-02 1.65761E-04-4.47990E-14
 -1      3261 1.30537E-02 1.89562E-04-4.84360E-14
 -1      3262 1.29109E-02 1.93396E-04-4.73820E-14
 -1      3263 1.28427E-02 1.58204E-04-4.68833E-14
 -1      3264 1.33395E-02 1.81829E-04-5.05506E-14
 -1      3265 1.31966E-02 1.85706E-04-4.94914E-14
 -1      3266 1.31284E-02 1.50528E-04-4.89858E-14
 -1      3267 1.36252E-02 1.74032E-04-5.26837E-14
 -1      3268 1.34823E-02 1.77937E-04-5.16137E-14
 -1      3269 1.34142E-02 1.42769E-04-5.11035E-14
 -1      3270 9.23401E-04 3.36289E-05-4.09435E-16
 -1      3271 9.14554E-04 1.84263E-05-4.14057E-16
 -1      3272 1.40956E-02-2.74071E-04-5.60346E-14
 -1      3273 1.40917E-02-2.31900E-04-5.60313E-14
 -1      3274 1.41191E-02-5.25660E-04-5.60416E-14
 -1      3275 1.41151E-02-4.83494E-04-5.60386E-14
 -1      3276 1.41033E-02-3.56985E-04-5.60338E-14
 -1      3277 1.40994E-02-3.15529E-04-5.60335E-14
 -1      3278 1.39737E-02-2.91012E-04-5.51150E-14
 -1      3279 6.16580E-03 1.80388E-04-8.35162E-15
 -1      3280 6.33722E-03 1.08203E-04-8.62826E-15
 -1      3281 1.87882E-03 3.18480E-04-9.67488E-16
 -1      3282 1.72614E-03 2.98113E-04-8.24373E-16
 -1      3283 1.91466E-03 2.86675E-04-1.06625E-15
 -1      3284 5.75041E-03 3.88376E-04-7.62548E-15
 -1      3285 5.94922E-03 2.85194E-04-7.98972E-15
 -1      3286 2.37786E-03-1.59023E-04-2.29751E-15
 -1      3287 2.25336E-03-1.14130E-04-2.22898E-15
 -1      3288 1.41112E-02-4.41326E-04-5.60369E-14
 -1      3289 1.41072E-02-3.99156E-04-5.60360E-14
 -1      3290 1.39815E-02-3.74633E-04-5.51184E-14
 -1      3291 1.39894E-02-4.58966E-04-5.51231E-14
 -1      3292 2.07298E-03-7.44266E-06-2.23485E-15
 -1      3293 2.14351E-03 1.07687E-05-2.25212E-15
 -1      3294 5.34914E-03 6.09507E-04-6.81390E-15
 -1      3295 5.52172E-03 5.10946E-04-7.16808E-15
 -1      3296 5.30489E-03-7.74469E-04-6.92655E-15
 -1      3297 5.50068E-03-6.89543E-04-7.39277E-15
 -1      3298 1.44977E-03-2.32019E-04-7.21631E-16
 -1      3299 1.59532E-03-2.48642E-04-8.58919E-16
 -1      3300 1.62930E-03-2.21416E-04-9.39692E-16
 -1      3301 2.55382E-03 1.59329E-04-2.40750E-15
 -1      3302 2.70479E-03 2.32753E-04-2.47019E-15
 -1      3303 3.88841E-03 8.54383E-04-3.71416E-15
 -1      3304 4.06587E-03 9.29731E-04-4.01563E-15
 -1      3305 6.78445E-03-7.24709E-05-9.17947E-15
 -1      3306 6.73067E-03-8.59759E-05-9.06705E-15
 -1      3307 2.25717E-03 4.85690E-05-2.27413E-15
 -1      3308 2.39953E-03 9.57224E-05-2.34098E-15
 -1      3309 2.40588E-03 1.30147E-04-2.20953E-15
 -1      3310 3.25221E-03-5.61819E-04-3.07266E-15
 -1      3311 3.08103E-03-4.61280E-04-2.91714E-15
 -1      3312 1.17262E-03 2.33289E-04-3.91573E-16
 -1      3313 1.09267E-03 1.95512E-04-3.71055E-16
 -1      3314 1.20256E-03 1.94603E-04-4.60691E-16
 -1      3315 1.32057E-03 2.53639E-04-4.89192E-16
 -1      3316 1.41658E-02 1.01496E-04-5.67400E-14
 -1      3317 6.34822E-03-2.10670E-04-8.55295E-15
 -1      3318 6.20999E-03-2.67895E-04-8.37203E-15
 -1      3319 6.63690E-03-1.13465E-04-8.94078E-15
 -1      3320 6.50334E-03-1.52251E-04-8.74513E-15
 -1      3321 6.48587E-03-1.87080E-04-8.99760E-15
 -1      3322 2.91855E-03 3.44878E-04-2.59006E-15
 -1      3323 3.12687E-03 4.66223E-04-2.73411E-15
 -1      3324 3.62516E-03-7.81044E-04-3.51042E-15
 -1      3325 3.43126E-03-6.65384E-04-3.26890E-15
 -1      3326 3.29249E-03-6.09151E-04-3.05891E-15
 -1      3327 3.62146E-03-8.04085E-04-3.45623E-15
 -1      3328 2.02221E-03-2.83613E-05-2.19416E-15
 -1      3329 2.03206E-03-2.04146E-05-2.21450E-15
 -1      3330 2.01103E-03-1.05775E-05-2.08640E-15
 -1      3331 6.74500E-03-3.80101E-05-9.14533E-15
 -1      3332 6.79888E-03-5.36177E-05-9.26649E-15
 -1      3333 9.92503E-04-1.59452E-04-3.79633E-16
 -1      3334 1.07652E-03-1.78261E-04-4.30428E-16
 -1      3335 9.58623E-04-1.27086E-04-3.81951E-16
 -1      3336 9.09562E-04 4.31207E-06-4.17567E-16
 -1      3337 9.08688E-04-9.36181E-06-4.19898E-16
 -1      3338 1.01419E-03 1.20562E-05-5.04371E-16
 -1      3339 1.11945E-03 1.38193E-04-4.57981E-16
 -1      3340 9.90658E-04 1.13465E-04-3.80718E-16
 -1      3341 9.69953E-04 8.99415E-05-3.89933E-16
 -1      3342 6.12269E-03-3.19471E-04-8.33257E-15
 -1      3343 6.03992E-03-3.75174E-04-8.29301E-15
 -1      3344 6.25732E-03-2.94901E-04-8.75984E-15
 -1      3345 1.40786E-02 4.91657E-05-5.60667E-14
 -1      3346 1.40539E-02 1.12577E-04-5.58961E-14
 -1      3347 1.39419E-02 1.23656E-04-5.50556E-14
 -1      3348 2.56730E-03-2.61582E-04-2.33815E-15
 -1      3349 2.47292E-03-2.06810E-04-2.31846E-15
 -1      3350 2.33103E-03-1.81942E-04-2.11444E-15
 -1      3351 9.18186E-04-8.27387E-05-3.88415E-16
 -1      3352 9.37180E-04-1.03591E-04-3.85610E-16
 -1      3353 1.01508E-03-1.17505E-04-4.37692E-16
 -1      3354 4.67684E-03-1.05218E-03-5.51379E-15
 -1      3355 2.91034E-03-4.44232E-04-2.57402E-15
 -1      3356 3.07362E-03-5.45423E-04-2.70088E-15
 -1      3357 5.65649E-03-5.80968E-04-7.63278E-15
 -1      3358 3.26497E-03-6.20583E-04-2.96955E-15
 -1      3359 3.42859E-03-7.15079E-04-3.16115E-15
 -1      3360 1.12164E-03-1.59942E-04-4.88121E-16
 -1      3361 2.16303E-03-9.61409E-05-2.11937E-15
 -1      3362 2.00856E-03-4.94052E-05-2.01584E-15
 -1      3363 2.01087E-03-3.75720E-05-2.10434E-15
 -1      3364 1.95765E-03-3.04594E-05-1.97948E-15
 -1      3365 6.10465E-03 2.44254E-04-8.44051E-15
 -1      3366 2.35321E-03 3.95555E-04-1.47270E-15
 -1      3367 2.22566E-03 3.31460E-04-1.40544E-15
 -1      3368 2.51831E-03 4.30304E-04-1.66762E-15
 -1      3369 4.54393E-03 9.69277E-04-5.01347E-15
 -1      3370 3.33652E-03 6.26873E-04-2.84680E-15
 -1      3371 3.25709E-03 6.50846E-04-2.62870E-15
 -1      3372 3.07539E-03 5.86447E-04-2.37591E-15
 -1      3373 3.23763E-03 5.53741E-04-2.77483E-15
 -1      3374 4.10975E-03 9.60380E-04-4.06275E-15
 -1      3375 5.55749E-03 5.56561E-04-7.41199E-15
 -1      3376 5.42080E-03 6.55580E-04-7.13509E-15
 -1      3377 5.23555E-03 7.34469E-04-6.66376E-15
 -1      3378 9.35862E-04 5.02732E-05-4.04191E-16
 -1      3379 1.03502E-03 4.55100E-05-4.94071E-16
 -1      3380 9.51420E-04 6.89146E-05-3.97550E-16
 -1      3381 1.38300E-02 1.34732E-04-5.42146E-14
 -1      3382 1.37180E-02 1.45805E-04-5.33746E-14
 -1      3383 1.38547E-02 7.13297E-05-5.43890E-14
 -1      3384 1.40801E-02-1.05385E-04-5.60139E-14
 -1      3385 1.40763E-02-6.32158E-05-5.60042E-14
 -1      3386 1.41813E-02-6.09828E-04-5.64477E-14
 -1      3387 2.15471E-03 3.49619E-05-2.12672E-15
 -1      3388 6.83930E-03-6.38586E-05-9.54446E-15
 -1      3389 6.86964E-03-7.45849E-05-9.82423E-15
 -1      3390 6.88327E-03-5.48032E-05-9.91411E-15
 -1      3391 1.39660E-02-2.07390E-04-5.51077E-14
 -1      3392 1.40878E-02-1.89727E-04-5.60267E-14
 -1      3393 1.40839E-02-1.47556E-04-5.60219E-14
 -1      3394 3.74532E-03 8.07412E-04-3.45093E-15
 -1      3395 1.34589E-03-1.92488E-04-6.65090E-16
 -1      3396 5.17493E-03-8.31679E-04-6.62214E-15
 -1      3397 6.45736E-03 7.35055E-05-8.93084E-15
 -1      3398 6.56816E-03 4.78607E-05-9.23767E-15
 -1      3399 6.42804E-03 1.15909E-04-9.11742E-15
 -1      3400 5.68122E-03 4.59937E-04-7.60233E-15
 -1      3401 2.96206E-03 4.98073E-04-2.32544E-15
 -1      3402 2.88653E-03 5.20465E-04-2.13803E-15
 -1      3403 1.41063E-02-5.70705E-04-5.59145E-14
 -1      3404 1.39806E-02-5.46173E-04-5.49975E-14
 -1      3405 6.73238E-03-2.09016E-05-9.33890E-15
 -1      3406 4.84922E-03-9.91934E-04-5.90767E-15
 -1      3407 4.80106E-03 8.94472E-04-5.60123E-15
 -1      3408 4.70068E-03 9.49165E-04-5.36923E-15
 -1      3409 5.73292E-03-5.14339E-04-7.68394E-15
 -1      3410 9.01842E-04-6.43270E-05-3.90137E-16
 -1      3411 9.74370E-04-7.43035E-05-4.43032E-16
 -1      3412 8.88631E-04-4.78960E-05-3.91018E-16
 -1      3413 3.05914E-03 4.88056E-04-2.53823E-15
 -1      3414 5.17233E-03 7.28385E-04-6.46224E-15
 -1      3415 4.00330E-03 9.41868E-04-3.83046E-15
 -1      3416 2.71185E-03 4.71503E-04-1.91477E-15
 -1      3417 3.82850E-03 8.82016E-04-3.51151E-15
 -1      3418 1.59753E-03 2.85625E-04-7.06304E-16
 -1      3419 1.44772E-03 2.66613E-04-5.86459E-16
 -1      3420 1.38568E-03 2.35152E-04-5.71144E-16
 -1      3421 1.63698E-03 2.57224E-04-7.91210E-16
 -1      3422 1.40793E-02-2.79282E-05-5.60427E-14
 -1      3423 1.40756E-02 1.38810E-05-5.60303E-14
 -1      3424 1.39636E-02 2.49665E-05-5.51932E-14
 -1      3425 1.39575E-02-4.56019E-05-5.51212E-14
 -1      3426 2.92482E-03-4.04374E-04-2.70980E-15
 -1      3427 5.03643E-03-9.14744E-04-6.33711E-15
 -1      3428 6.72324E-03-1.06841E-04-9.32558E-15
 -1      3429 2.75196E-03 2.93140E-04-2.38590E-15
 -1      3430 4.87742E-03 8.48383E-04-5.76420E-15
 -1      3431 1.94675E-03-1.23937E-05-1.93151E-15
 -1      3432 1.98466E-03 7.69423E-07-1.95005E-15
 -1      3433 2.72893E-03-3.49990E-04-2.42386E-15
 -1      3434 2.08722E-03-2.36229E-04-1.54580E-15
 -1      3435 2.23632E-03-2.55418E-04-1.74490E-15
 -1      3436 2.40383E-03-2.74750E-04-1.98810E-15
 -1      3437 2.56528E-03-3.06119E-04-2.21311E-15
 -1      3438 6.68285E-03-3.05780E-04-1.05685E-14
 -1      3439 6.82866E-03-2.97574E-04-1.11369E-14
 -1      3440 6.97100E-03-2.93319E-04-1.17185E-14
 -1      3441 7.11131E-03-2.91620E-04-1.23125E-14
 -1      3442 6.94333E-03-2.54718E-04-1.14335E-14
 -1      3443 7.24991E-03-2.92304E-04-1.29211E-14
 -1      3444 7.38776E-03-2.94638E-04-1.35438E-14
 -1      3445 7.21298E-03-2.56242E-04-1.26256E-14
 -1      3446 7.52499E-03-2.98455E-04-1.41790E-14
 -1      3447 7.66216E-03-3.03390E-04-1.48274E-14
 -1      3448 7.48030E-03-2.63427E-04-1.38703E-14
 -1      3449 7.79928E-03-3.09238E-04-1.54882E-14
 -1      3450 7.93668E-03-3.15812E-04-1.61627E-14
 -1      3451 7.74819E-03-2.74338E-04-1.51676E-14
 -1      3452 8.07433E-03-3.22907E-04-1.68505E-14
 -1      3453 8.21239E-03-3.30422E-04-1.75516E-14
 -1      3454 8.01800E-03-2.87639E-04-1.65173E-14
 -1      3455 8.35081E-03-3.38177E-04-1.82682E-14
 -1      3456 8.48967E-03-3.46118E-04-1.89971E-14
 -1      3457 8.29022E-03-3.02325E-04-1.79199E-14
 -1      3458 8.62890E-03-3.54102E-04-1.97375E-14
 -1      3459 8.76856E-03-3.62101E-04-2.04936E-14
 -1      3460 8.56488E-03-3.17617E-04-1.93766E-14
 -1      3461 8.90856E-03-3.70009E-04-2.12639E-14
 -1      3462 9.04892E-03-3.77818E-04-2.20465E-14
 -1      3463 8.84179E-03-3.32932E-04-2.08868E-14
 -1      3464 9.18958E-03-3.85454E-04-2.28429E-14
 -1      3465 9.33055E-03-3.92921E-04-2.36540E-14
 -1      3466 9.12066E-03-3.47867E-04-2.24518E-14
 -1      3467 9.47176E-03-4.00172E-04-2.44783E-14
 -1      3468 9.61322E-03-4.07218E-04-2.53160E-14
 -1      3469 9.40116E-03-3.62168E-04-2.40722E-14
 -1      3470 9.75487E-03-4.14034E-04-2.61659E-14
 -1      3471 9.89672E-03-4.20634E-04-2.70279E-14
 -1      3472 9.68300E-03-3.75703E-04-2.57452E-14
 -1      3473 1.00387E-02-4.27008E-04-2.79021E-14
 -1      3474 1.01809E-02-4.33172E-04-2.87866E-14
 -1      3475 9.96588E-03-3.88428E-04-2.74685E-14
 -1      3476 1.03231E-02-4.39127E-04-2.96795E-14
 -1      3477 1.04655E-02-4.44888E-04-3.05816E-14
 -1      3478 1.02496E-02-4.00362E-04-2.92324E-14
 -1      3479 1.06080E-02-4.50462E-04-3.14945E-14
 -1      3480 1.07505E-02-4.55865E-04-3.24159E-14
 -1      3481 1.05339E-02-4.11566E-04-3.10368E-14
 -1      3482 1.08931E-02-4.61107E-04-3.33441E-14
 -1      3483 1.10358E-02-4.66201E-04-3.42823E-14
 -1      3484 1.08187E-02-4.22118E-04-3.28776E-14
 -1      3485 1.11785E-02-4.71160E-04-3.52280E-14
 -1      3486 1.13212E-02-4.75996E-04-3.61809E-14
 -1      3487 1.11038E-02-4.32110E-04-3.47509E-14
 -1      3488 1.14640E-02-4.80720E-04-3.71376E-14
 -1      3489 1.16068E-02-4.85342E-04-3.80970E-14
 -1      3490 1.13892E-02-4.41630E-04-3.66533E-14
 -1      3491 1.17496E-02-4.89875E-04-3.90650E-14
 -1      3492 1.18925E-02-4.94327E-04-4.00381E-14
 -1      3493 1.16747E-02-4.50762E-04-3.85763E-14
 -1      3494 1.20353E-02-4.98708E-04-4.10161E-14
 -1      3495 1.21782E-02-5.03025E-04-4.20022E-14
 -1      3496 1.19604E-02-4.59582E-04-4.05219E-14
 -1      3497 1.23211E-02-5.07287E-04-4.29942E-14
 -1      3498 1.24640E-02-5.11500E-04-4.39967E-14
 -1      3499 1.22461E-02-4.68156E-04-4.24958E-14
 -1      3500 1.26068E-02-5.15671E-04-4.50050E-14
 -1      3501 1.27497E-02-5.19805E-04-4.60175E-14
 -1      3502 1.25318E-02-4.76539E-04-4.44971E-14
 -1      3503 1.28926E-02-5.23908E-04-4.70410E-14
 -1      3504 1.30355E-02-5.27984E-04-4.80714E-14
 -1      3505 1.28176E-02-4.84779E-04-4.65279E-14
 -1      3506 1.31784E-02-5.32038E-04-4.91030E-14
 -1      3507 1.33213E-02-5.36073E-04-5.01451E-14
 -1      3508 1.31034E-02-4.92912E-04-4.85836E-14
 -1      3509 1.34642E-02-5.40093E-04-5.11913E-14
 -1      3510 1.36070E-02-5.44101E-04-5.22393E-14
 -1      3511 1.33892E-02-5.00970E-04-5.06663E-14
 -1      3512 1.37224E-02-5.43146E-04-5.30915E-14
 -1      3513 1.38652E-02-5.47138E-04-5.41428E-14
 -1      3514 1.38781E-02-5.02098E-04-5.42700E-14
 -1      3515 1.36474E-02-5.04024E-04-5.25632E-14
 -1      3516 5.76712E-03 4.45559E-04-7.87940E-15
 -1      3517 5.95067E-03 3.86522E-04-8.39155E-15
 -1      3518 6.94111E-03 2.20115E-04-1.18567E-14
 -1      3519 6.79226E-03 2.33686E-04-1.12631E-14
 -1      3520 7.23168E-03 2.02028E-04-1.30816E-14
 -1      3521 7.08732E-03 2.09905E-04-1.24632E-14
 -1      3522 7.05349E-03 1.74487E-04-1.21932E-14
 -1      3523 7.51655E-03 1.92071E-04-1.43546E-14
 -1      3524 7.37457E-03 1.96281E-04-1.37116E-14
 -1      3525 7.33487E-03 1.62386E-04-1.34298E-14
 -1      3526 7.79875E-03 1.87271E-04-1.56781E-14
 -1      3527 7.65782E-03 1.89179E-04-1.50105E-14
 -1      3528 7.61273E-03 1.55956E-04-1.47151E-14
 -1      3529 8.08006E-03 1.85574E-04-1.70526E-14
 -1      3530 7.93942E-03 1.86134E-04-1.63588E-14
 -1      3531 7.88961E-03 1.53023E-04-1.60511E-14
 -1      3532 8.36141E-03 1.85512E-04-1.84780E-14
 -1      3533 8.22067E-03 1.85404E-04-1.77590E-14
 -1      3534 8.16684E-03 1.52100E-04-1.74381E-14
 -1      3535 8.64327E-03 1.86047E-04-1.99519E-14
 -1      3536 8.50224E-03 1.85747E-04-1.92086E-14
 -1      3537 8.44508E-03 1.52119E-04-1.88768E-14
 -1      3538 8.92578E-03 1.86474E-04-2.14766E-14
 -1      3539 8.78442E-03 1.86300E-04-2.07087E-14
 -1      3540 8.72455E-03 1.52320E-04-2.03639E-14
 -1      3541 9.20897E-03 1.86344E-04-2.30526E-14
 -1      3542 9.06728E-03 1.86493E-04-2.22571E-14
 -1      3543 9.00525E-03 1.52191E-04-2.19015E-14
 -1      3544 9.49275E-03 1.85405E-04-2.46775E-14
 -1      3545 9.35078E-03 1.85981E-04-2.38596E-14
 -1      3546 9.28706E-03 1.51411E-04-2.34896E-14
 -1      3547 9.77705E-03 1.83544E-04-2.63541E-14
 -1      3548 9.63484E-03 1.84590E-04-2.55101E-14
 -1      3549 9.56982E-03 1.49809E-04-2.51299E-14
 -1      3550 1.00618E-02 1.80745E-04-2.80711E-14
 -1      3551 9.91935E-03 1.82258E-04-2.72065E-14
 -1      3552 9.85336E-03 1.47321E-04-2.68178E-14
 -1      3553 1.03468E-02 1.77057E-04-2.98326E-14
 -1      3554 1.02042E-02 1.79007E-04-2.89470E-14
 -1      3555 1.01375E-02 1.43958E-04-2.85484E-14
 -1      3556 1.06320E-02 1.72562E-04-3.16366E-14
 -1      3557 1.04894E-02 1.74904E-04-3.07286E-14
 -1      3558 1.04222E-02 1.39781E-04-3.03215E-14
 -1      3559 1.09175E-02 1.67362E-04-3.34818E-14
 -1      3560 1.07747E-02 1.70044E-04-3.25535E-14
 -1      3561 1.07072E-02 1.34874E-04-3.21363E-14
 -1      3562 1.12030E-02 1.61563E-04-3.53714E-14
 -1      3563 1.10602E-02 1.64531E-04-3.44232E-14
 -1      3564 1.09924E-02 1.29336E-04-3.39946E-14
 -1      3565 1.14887E-02 1.55266E-04-3.73004E-14
 -1      3566 1.13459E-02 1.58471E-04-3.63309E-14
 -1      3567 1.12779E-02 1.23264E-04-3.58940E-14
 -1      3568 1.17744E-02 1.48566E-04-3.92600E-14
 -1      3569 1.16315E-02 1.51961E-04-3.82761E-14
 -1      3570 1.15634E-02 1.16752E-04-3.78280E-14
 -1      3571 1.20601E-02 1.41543E-04-4.12562E-14
 -1      3572 1.19172E-02 1.45090E-04-4.02536E-14
 -1      3573 1.18491E-02 1.09884E-04-3.97944E-14
 -1      3574 1.23459E-02 1.34270E-04-4.32870E-14
 -1      3575 1.22030E-02 1.37934E-04-4.22683E-14
 -1      3576 1.21348E-02 1.02735E-04-4.17968E-14
 -1      3577 1.26316E-02 1.26804E-04-4.53467E-14
 -1      3578 1.24888E-02 1.30558E-04-4.43141E-14
 -1      3579 1.24206E-02 9.53672E-05-4.38311E-14
 -1      3580 1.29174E-02 1.19196E-04-4.74318E-14
 -1      3581 1.27745E-02 1.23016E-04-4.63852E-14
 -1      3582 1.27063E-02 8.78332E-05-4.58930E-14
 -1      3583 1.32032E-02 1.11484E-04-4.95347E-14
 -1      3584 1.30603E-02 1.15351E-04-4.84814E-14
 -1      3585 1.29921E-02 8.01761E-05-4.79783E-14
 -1      3586 1.34889E-02 1.03701E-04-5.16558E-14
 -1      3587 1.33460E-02 1.07600E-04-5.05907E-14
 -1      3588 1.32779E-02 7.24308E-05-5.00822E-14
 -1      3589 1.36499E-02 1.10640E-04-5.28596E-14
 -1      3590 1.39583E-02-1.23054E-04-5.50939E-14
 -1      3591 1.38519E-02-3.08305E-04-5.41986E-14
 -1      3592 1.38480E-02-2.66856E-04-5.41965E-14
 -1      3593 2.05624E-03 2.54208E-05-1.97095E-15
 -1      3594 2.15254E-03 6.04593E-05-1.99009E-15
 -1      3595 1.96672E-03 1.95187E-05-1.82083E-15
 -1      3596 1.07001E-03-1.07070E-04-4.96985E-16
 -1      3597 1.09458E-03-1.32065E-04-4.93312E-16
 -1      3598 1.17589E-03-1.47397E-04-5.52089E-16
 -1      3599 1.94681E-03 2.53756E-04-1.16710E-15
 -1      3600 1.79799E-03 2.37220E-04-1.00918E-15
 -1      3601 2.86265E-03 4.19485E-04-2.29359E-15
 -1      3602 6.71341E-03 6.01267E-06-9.57418E-15
 -1      3603 6.82805E-03-2.33176E-05-9.87167E-15
 -1      3604 6.15574E-03 3.34083E-04-9.00693E-15
 -1      3605 6.10794E-03 2.93615E-04-8.68015E-15
 -1      3606 6.29725E-03 2.03445E-04-9.05835E-15
 -1      3607 6.32338E-03 2.97903E-04-9.55026E-15
 -1      3608 6.64069E-03 2.49393E-04-1.06795E-14
 -1      3609 6.48436E-03 2.71756E-04-1.01100E-14
 -1      3610 6.46295E-03 2.27496E-04-9.85746E-15
 -1      3611 6.76488E-03 1.94390E-04-1.10013E-14
 -1      3612 5.87476E-03-4.61005E-04-8.02674E-15
 -1      3613 5.25771E-03 6.72618E-04-6.64063E-15
 -1      3614 1.52149E-03-1.82105E-04-8.72851E-16
 -1      3615 1.66019E-03-1.94224E-04-1.02278E-15
 -1      3616 8.92286E-04-2.12038E-05-4.05776E-16
 -1      3617 8.98990E-04-3.52810E-05-4.06603E-16
 -1      3618 9.67076E-04-4.23659E-05-4.61057E-16
 -1      3619 9.92648E-04-1.61764E-05-4.93041E-16
 -1      3620 6.02606E-03-4.20088E-04-8.44324E-15
 -1      3621 6.20098E-03-3.78627E-04-8.95794E-15
 -1      3622 1.80011E-03-2.06694E-04-1.18497E-15
 -1      3623 1.94238E-03-2.20589E-04-1.35943E-15
 -1      3624 1.96030E-03-1.87743E-04-1.45504E-15
 -1      3625 2.57604E-03 3.93587E-04-1.83401E-15
 -1      3626 2.27828E-03 1.09983E-04-2.03443E-15
 -1      3627 2.41046E-03 1.64851E-04-2.09427E-15
 -1      3628 2.54859E-03 2.36653E-04-2.14092E-15
 -1      3629 2.73531E-03 3.32675E-04-2.24847E-15
 -1      3630 2.65590E-03 3.55360E-04-2.05220E-15
 -1      3631 2.40520E-03 2.06124E-04-1.96766E-15
 -1      3632 6.61089E-03-1.73392E-04-9.46366E-15
 -1      3633 6.47735E-03-2.24462E-04-9.26157E-15
 -1      3634 6.80458E-03-1.04046E-04-9.73012E-15
 -1      3635 6.71761E-03-1.32229E-04-9.59739E-15
 -1      3636 6.71721E-03-1.63394E-04-9.86978E-15
 -1      3637 2.10527E-03-1.08049E-04-1.93645E-15
 -1      3638 2.03876E-03-7.25127E-05-1.95946E-15
 -1      3639 1.27948E-03-1.58751E-04-6.39991E-16
 -1      3640 1.41621E-03-1.71139E-04-7.68361E-16
 -1      3641 1.45113E-03-1.48124E-04-8.42222E-16
 -1      3642 1.24861E-03-1.29743E-04-6.44653E-16
 -1      3643 1.35818E-02 7.54750E-05-5.23439E-14
 -1      3644 1.25277E-03 1.64848E-04-5.41911E-16
 -1      3645 1.22327E-03 1.34120E-04-5.55572E-16
 -1      3646 6.37335E-03-2.74143E-04-9.13251E-15
 -1      3647 6.30368E-03-3.19027E-04-9.08835E-15
 -1      3648 6.32347E-03-3.54110E-04-9.33190E-15
 -1      3649 6.51696E-03-2.51438E-04-9.59905E-15
 -1      3650 2.46588E-03 3.20596E-04-1.79865E-15
 -1      3651 1.36937E-02 4.20198E-05-5.31731E-14
 -1      3652 1.35327E-02 3.50895E-05-5.19684E-14
 -1      3653 6.48297E-03-3.31512E-04-9.87254E-15
 -1      3654 1.37587E-02-4.60905E-04-5.34113E-14
 -1      3655 1.38741E-02-4.59937E-04-5.42664E-14
 -1      3656 1.38701E-02-4.17775E-04-5.42640E-14
 -1      3657 1.37995E-02-3.96201E-05-5.39409E-14
 -1      3658 1.38026E-02-4.33899E-06-5.39746E-14
 -1      3659 4.96867E-03 8.19653E-04-5.98654E-15
 -1      3660 1.07149E-03 8.66605E-05-4.79055E-16
 -1      3661 1.38057E-02 3.09415E-05-5.40092E-14
 -1      3662 2.27432E-03-1.95725E-04-1.96199E-15
 -1      3663 2.19866E-03-1.55544E-04-1.94490E-15
 -1      3664 6.89916E-03-3.77146E-05-1.01582E-14
 -1      3665 6.95926E-03-4.97673E-05-1.04468E-14
 -1      3666 6.90613E-03-1.62601E-05-1.04027E-14
 -1      3667 1.38442E-02-2.24691E-04-5.41908E-14
 -1      3668 1.38403E-02-1.82528E-04-5.41833E-14
 -1      3669 1.37223E-02-2.41989E-04-5.32734E-14
 -1      3670 6.96735E-03-8.14949E-05-1.04843E-14
 -1      3671 6.89296E-03-9.14098E-05-1.01045E-14
 -1      3672 6.91055E-03-1.11798E-04-1.03856E-14
 -1      3673 1.67374E-03 2.28313E-04-8.78393E-16
 -1      3674 1.55015E-03 2.19311E-04-7.57004E-16
 -1      3675 1.70737E-03 1.98685E-04-9.67976E-16
 -1      3676 2.15459E-03 8.99485E-05-1.88235E-15
 -1      3677 2.25463E-03 2.94522E-04-1.52143E-15
 -1      3678 2.09872E-03 2.72290E-04-1.33786E-15
 -1      3679 1.97474E-03 2.19381E-04-1.27059E-15
 -1      3680 1.02983E-03-6.51036E-05-5.00820E-16
 -1      3681 1.04819E-03-8.48862E-05-4.99140E-16
 -1      3682 1.12353E-03-9.61324E-05-5.59218E-16
 -1      3683 1.95489E-03-5.97376E-05-1.83936E-15
 -1      3684 6.69369E-03 3.71132E-05-9.76868E-15
 -1      3685 6.43702E-03 1.96867E-04-9.61231E-15
 -1      3686 6.43554E-03 1.48587E-04-9.36047E-15
 -1      3687 6.55002E-03 1.16815E-04-9.67438E-15
 -1      3688 6.58798E-03 1.78863E-04-1.01726E-14
 -1      3689 1.38630E-02-3.84122E-04-5.42336E-14
 -1      3690 1.38590E-02-3.41958E-04-5.42301E-14
 -1      3691 1.37333E-02-3.17798E-04-5.33130E-14
 -1      3692 1.37476E-02-3.85097E-04-5.33769E-14
 -1      3693 1.68773E-03-1.66846E-04-1.10749E-15
 -1      3694 1.38364E-02-1.40363E-04-5.41758E-14
 -1      3695 1.38326E-02-9.82001E-05-5.41655E-14
 -1      3696 1.37146E-02-1.57670E-04-5.32589E-14
 -1      3697 1.14969E-03 5.88773E-05-5.85998E-16
 -1      3698 1.13271E-03 3.89709E-05-5.93113E-16
 -1      3699 1.87663E-03-3.08890E-05-1.76526E-15
 -1      3700 1.90613E-03-2.16740E-05-1.84785E-15
 -1      3701 1.85923E-03-1.21143E-05-1.72009E-15
 -1      3702 6.61865E-03-2.73358E-04-1.01511E-14
 -1      3703 2.05658E-03-1.22729E-04-1.79240E-15
 -1      3704 1.12034E-03 2.09810E-05-5.99252E-16
 -1      3705 1.11339E-03 4.21706E-06-6.04063E-16
 -1      3706 1.22878E-03 3.10994E-05-7.01547E-16
 -1      3707 1.36777E-02-5.69369E-05-5.30243E-14
 -1      3708 1.58281E-03-1.32902E-04-1.03114E-15
 -1      3709 1.71221E-03-1.40129E-04-1.19283E-15
 -1      3710 2.32498E-03 2.52449E-04-1.71751E-15
 -1      3711 7.17923E-03-2.21561E-04-1.23295E-14
 -1      3712 7.30835E-03-2.25266E-04-1.29393E-14
 -1      3713 7.43764E-03-2.29824E-04-1.35614E-14
 -1      3714 7.56776E-03-2.35067E-04-1.41976E-14
 -1      3715 7.39675E-03-1.97652E-04-1.32537E-14
 -1      3716 7.69851E-03-2.40836E-04-1.48478E-14
 -1      3717 7.83023E-03-2.47104E-04-1.55097E-14
 -1      3718 7.64994E-03-2.08753E-04-1.45267E-14
 -1      3719 7.96274E-03-2.53694E-04-1.61843E-14
 -1      3720 8.09621E-03-2.60610E-04-1.68722E-14
 -1      3721 7.90826E-03-2.21091E-04-1.58519E-14
 -1      3722 8.23049E-03-2.67684E-04-1.75740E-14
 -1      3723 8.36566E-03-2.74933E-04-1.82895E-14
 -1      3724 8.17139E-03-2.34278E-04-1.72300E-14
 -1      3725 8.50158E-03-2.82210E-04-1.90172E-14
 -1      3726 8.63828E-03-2.89533E-04-1.97564E-14
 -1      3727 8.43882E-03-2.47906E-04-1.86574E-14
 -1      3728 8.77565E-03-2.96789E-04-2.05110E-14
 -1      3729 8.91368E-03-3.03996E-04-2.12802E-14
 -1      3730 8.70997E-03-2.61609E-04-2.01381E-14
 -1      3731 9.05227E-03-3.11070E-04-2.20620E-14
 -1      3732 9.19141E-03-3.18030E-04-2.28567E-14
 -1      3733 8.98429E-03-2.75094E-04-2.16726E-14
 -1      3734 9.33101E-03-3.24818E-04-2.36665E-14
 -1      3735 9.47107E-03-3.31454E-04-2.44904E-14
 -1      3736 9.26123E-03-2.88154E-04-2.32632E-14
 -1      3737 9.61149E-03-3.37901E-04-2.53262E-14
 -1      3738 9.75227E-03-3.44180E-04-2.61742E-14
 -1      3739 9.54030E-03-3.00663E-04-2.49072E-14
 -1      3740 9.89335E-03-3.50269E-04-2.70346E-14
 -1      3741 1.00347E-02-3.56188E-04-2.79057E-14
 -1      3742 9.82108E-03-3.12563E-04-2.66027E-14
 -1      3743 1.01763E-02-3.61928E-04-2.87872E-14
 -1      3744 1.03181E-02-3.67506E-04-2.96776E-14
 -1      3745 1.01032E-02-3.23851E-04-2.83422E-14
 -1      3746 1.04600E-02-3.72922E-04-3.05798E-14
 -1      3747 1.06022E-02-3.78193E-04-3.14925E-14
 -1      3748 1.03864E-02-3.34557E-04-3.01237E-14
 -1      3749 1.07444E-02-3.83321E-04-3.24108E-14
 -1      3750 1.08868E-02-3.88321E-04-3.33373E-14
 -1      3751 1.06703E-02-3.44735E-04-3.19445E-14
 -1      3752 1.10293E-02-3.93201E-04-3.42750E-14
 -1      3753 1.11718E-02-3.97972E-04-3.52201E-14
 -1      3754 1.09548E-02-3.54450E-04-3.37997E-14
 -1      3755 1.13144E-02-4.02642E-04-3.61689E-14
 -1      3756 1.14571E-02-4.07222E-04-3.71251E-14
 -1      3757 1.12398E-02-3.63771E-04-3.56844E-14
 -1      3758 1.15999E-02-4.11721E-04-3.80871E-14
 -1      3759 1.17426E-02-4.16146E-04-3.90538E-14
 -1      3760 1.15251E-02-3.72763E-04-3.75977E-14
 -1      3761 1.18854E-02-4.20506E-04-4.00290E-14
 -1      3762 1.20283E-02-4.24807E-04-4.10093E-14
 -1      3763 1.18105E-02-3.81488E-04-3.95333E-14
 -1      3764 1.21711E-02-4.29058E-04-4.19948E-14
 -1      3765 1.23140E-02-4.33263E-04-4.29909E-14
 -1      3766 1.20962E-02-3.89999E-04-4.14970E-14
 -1      3767 1.24568E-02-4.37429E-04-4.39907E-14
 -1      3768 1.25997E-02-4.41560E-04-4.49980E-14
 -1      3769 1.23819E-02-3.98344E-04-4.34853E-14
 -1      3770 1.27426E-02-4.45662E-04-4.60161E-14
 -1      3771 1.28855E-02-4.49738E-04-4.70388E-14
 -1      3772 1.26676E-02-4.06561E-04-4.55027E-14
 -1      3773 1.30284E-02-4.53792E-04-4.80668E-14
 -1      3774 1.31713E-02-4.57828E-04-4.91002E-14
 -1      3775 1.29534E-02-4.14682E-04-4.75479E-14
 -1      3776 1.33142E-02-4.61849E-04-5.01394E-14
 -1      3777 1.34571E-02-4.65857E-04-5.11863E-14
 -1      3778 1.32392E-02-4.22734E-04-4.96168E-14
 -1      3779 1.35502E-02-4.63866E-04-5.18730E-14
 -1      3780 1.36656E-02-4.62906E-04-5.27241E-14
 -1      3781 1.36616E-02-4.20750E-04-5.27202E-14
 -1      3782 1.34753E-02-4.24748E-04-5.13436E-14
 -1      3783 7.70555E-03 1.22092E-04-1.50761E-14
 -1      3784 7.56978E-03 1.23727E-04-1.44198E-14
 -1      3785 7.43414E-03 1.26036E-04-1.37775E-14
 -1      3786 7.29813E-03 1.29269E-04-1.31476E-14
 -1      3787 7.52885E-03 9.24751E-05-1.41266E-14
 -1      3788 7.16168E-03 1.33556E-04-1.25286E-14
 -1      3789 7.02396E-03 1.39425E-04-1.19210E-14
 -1      3790 7.26432E-03 9.68582E-05-1.28650E-14
 -1      3791 7.97770E-03 1.20286E-04-1.64245E-14
 -1      3792 7.84142E-03 1.20983E-04-1.57448E-14
 -1      3793 7.79471E-03 9.00247E-05-1.54378E-14
 -1      3794 8.25143E-03 1.19624E-04-1.78258E-14
 -1      3795 8.11431E-03 1.19851E-04-1.71192E-14
 -1      3796 8.06291E-03 8.86810E-05-1.68009E-14
 -1      3797 8.52705E-03 1.19372E-04-1.92760E-14
 -1      3798 8.38898E-03 1.19472E-04-1.85445E-14
 -1      3799 8.33379E-03 8.78381E-05-1.82135E-14
 -1      3800 8.80455E-03 1.19000E-04-2.07762E-14
 -1      3801 8.66556E-03 1.19216E-04-2.00190E-14
 -1      3802 8.60731E-03 8.70230E-05-1.96765E-14
 -1      3803 9.08376E-03 1.18154E-04-2.23271E-14
 -1      3804 8.94394E-03 1.18644E-04-2.15451E-14
 -1      3805 8.88326E-03 8.58896E-05-2.11889E-14
 -1      3806 9.36446E-03 1.16615E-04-2.39291E-14
 -1      3807 9.22393E-03 1.17473E-04-2.31211E-14
 -1      3808 9.16133E-03 8.42051E-05-2.27537E-14
 -1      3809 9.64640E-03 1.14278E-04-2.55827E-14
 -1      3810 9.50529E-03 1.15544E-04-2.47499E-14
 -1      3811 9.44118E-03 8.18342E-05-2.43700E-14
 -1      3812 9.92934E-03 1.11117E-04-2.72819E-14
 -1      3813 9.78775E-03 1.12796E-04-2.64268E-14
 -1      3814 9.72250E-03 7.87201E-05-2.60366E-14
 -1      3815 1.02131E-02 1.07163E-04-2.90265E-14
 -1      3816 1.00711E-02 1.09233E-04-2.81486E-14
 -1      3817 1.00050E-02 7.48647E-05-2.77493E-14
 -1      3818 1.04974E-02 1.02481E-04-3.08127E-14
 -1      3819 1.03552E-02 1.04907E-04-2.99142E-14
 -1      3820 1.02884E-02 7.03098E-05-2.95062E-14
 -1      3821 1.07822E-02 9.71553E-05-3.26393E-14
 -1      3822 1.06397E-02 9.98925E-05-3.17211E-14
 -1      3823 1.05725E-02 6.51219E-05-3.13048E-14
 -1      3824 1.10673E-02 9.12755E-05-3.45109E-14
 -1      3825 1.09247E-02 9.42785E-05-3.35704E-14
 -1      3826 1.08571E-02 5.93795E-05-3.31459E-14
 -1      3827 1.13527E-02 8.49315E-05-3.64148E-14
 -1      3828 1.12100E-02 8.81560E-05-3.54566E-14
 -1      3829 1.11422E-02 5.31643E-05-3.50232E-14
 -1      3830 1.16382E-02 7.82068E-05-3.83545E-14
 -1      3831 1.14954E-02 8.16120E-05-3.73802E-14
 -1      3832 1.14275E-02 4.65552E-05-3.69345E-14
 -1      3833 1.19238E-02 7.11762E-05-4.03290E-14
 -1      3834 1.17810E-02 7.47257E-05-3.93387E-14
 -1      3835 1.17130E-02 3.96250E-05-3.88825E-14
 -1      3836 1.22095E-02 6.39044E-05-4.23355E-14
 -1      3837 1.20667E-02 6.75670E-05-4.13283E-14
 -1      3838 1.19986E-02 3.24380E-05-4.08628E-14
 -1      3839 1.24953E-02 5.64462E-05-4.43713E-14
 -1      3840 1.23524E-02 6.01958E-05-4.33489E-14
 -1      3841 1.22843E-02 2.50495E-05-4.28710E-14
 -1      3842 1.27811E-02 4.88471E-05-4.64359E-14
 -1      3843 1.26382E-02 5.26620E-05-4.54018E-14
 -1      3844 1.25700E-02 1.75062E-05-4.49103E-14
 -1      3845 1.30669E-02 4.11445E-05-4.85234E-14
 -1      3846 1.29240E-02 4.50070E-05-4.74764E-14
 -1      3847 1.28558E-02 9.84654E-06-4.69780E-14
 -1      3848 1.33526E-02 3.33684E-05-5.06310E-14
 -1      3849 1.32098E-02 3.72642E-05-4.95743E-14
 -1      3850 1.31416E-02 2.10196E-06-4.90665E-14
 -1      3851 1.32532E-03 2.05573E-04-5.54542E-16
 -1      3852 1.43218E-03 2.00699E-04-6.63681E-16
 -1      3853 1.86631E-03 1.35192E-05-1.65339E-15
 -1      3854 1.92833E-03 3.80613E-05-1.67181E-15
 -1      3855 1.88637E-03-6.89193E-05-1.66016E-15
 -1      3856 1.87481E-03-4.79021E-05-1.71299E-15
 -1      3857 1.80352E-03-3.78058E-05-1.59105E-15
 -1      3858 2.25546E-03-2.11971E-04-1.88199E-15
 -1      3859 6.70054E-03 6.40149E-05-1.00227E-14
 -1      3860 6.83479E-03 2.43656E-05-1.03708E-14
 -1      3861 6.71426E-03 9.31673E-05-1.02757E-14
 -1      3862 6.70355E-03-2.33081E-04-1.02899E-14
 -1      3863 1.35722E-02-8.81571E-05-5.22290E-14
 -1      3864 1.35392E-02-2.95923E-05-5.20016E-14
 -1      3865 2.21088E-03 1.91215E-04-1.67956E-15
 -1      3866 1.34646E-02-7.41645E-08-5.14542E-14
 -1      3867 6.92116E-03-2.17314E-04-1.11473E-14
 -1      3868 7.05054E-03-2.18904E-04-1.17310E-14
 -1      3869 7.14851E-03-1.88242E-04-1.20318E-14
 -1      3870 2.02754E-03 7.45840E-05-1.71383E-15
 -1      3871 2.13669E-03 1.19214E-04-1.75318E-15
 -1      3872 6.91012E-03-1.55511E-04-1.07153E-14
 -1      3873 6.82436E-03-1.91930E-04-1.05716E-14
 -1      3874 1.19570E-03 1.06232E-04-5.67214E-16
 -1      3875 1.17102E-03 8.11658E-05-5.77297E-16
 -1      3876 1.26830E-03 7.40481E-05-6.84972E-16
 -1      3877 1.32460E-03 1.28015E-04-6.62407E-16
 -1      3878 1.47070E-03 1.75230E-04-7.41296E-16
 -1      3879 1.33591E-02-3.13009E-05-5.06658E-14
 -1      3880 1.21159E-03-4.85892E-06-7.11725E-16
 -1      3881 1.11126E-03-1.20199E-05-6.06869E-16
 -1      3882 1.99006E-03-1.39379E-04-1.62263E-15
 -1      3883 1.91860E-03-1.00194E-04-1.61657E-15
 -1      3884 2.06710E-03 1.65255E-04-1.52157E-15
 -1      3885 1.73053E-03-1.12610E-04-1.27829E-15
 -1      3886 1.83809E-03-1.45689E-04-1.36517E-15
 -1      3887 6.92364E-03 3.52544E-06-1.06654E-14
 -1      3888 7.00338E-03-1.35661E-05-1.09621E-14
 -1      3889 6.94274E-03 2.58460E-05-1.09291E-14
 -1      3890 1.43444E-03 1.41023E-04-7.56854E-16
 -1      3891 1.40063E-03 1.09951E-04-7.70285E-16
 -1      3892 1.54650E-03 1.54875E-04-8.57455E-16
 -1      3893 1.22055E-03-1.03852E-04-6.48258E-16
 -1      3894 1.31809E-03-1.11332E-04-7.43424E-16
 -1      3895 1.19628E-03-8.07152E-05-6.49884E-16
 -1      3896 1.82170E-03-8.32545E-05-1.49892E-15
 -1      3897 7.04570E-03-4.84892E-05-1.09897E-14
 -1      3898 7.01293E-03-6.56234E-05-1.07365E-14
 -1      3899 7.05675E-03-8.22542E-05-1.10277E-14
 -1      3900 1.36005E-02-2.59639E-04-5.23626E-14
 -1      3901 1.35966E-02-2.17485E-04-5.23552E-14
 -1      3902 1.66309E-03 1.59354E-04-9.86028E-16
 -1      3903 1.04340E-03-5.58552E-05-5.21488E-16
 -1      3904 1.11429E-03-6.44541E-05-5.82799E-16
 -1      3905 1.20682E-03-6.96808E-05-6.73601E-16
 -1      3906 1.05125E-03-4.11139E-05-5.39418E-16
 -1      3907 1.90329E-03 6.12999E-05-1.55245E-15
 -1      3908 1.80530E-03 1.14791E-06-1.57711E-15
 -1      3909 1.75167E-03 1.60398E-05-1.43943E-15
 -1      3910 1.75441E-03-9.41226E-06-1.50190E-15
 -1      3911 7.01531E-03-1.38182E-04-1.11070E-14
 -1      3912 1.36147E-02-3.26929E-04-5.24304E-14
 -1      3913 1.36076E-02-2.93284E-04-5.23970E-14
 -1      3914 1.34819E-02-2.68774E-04-5.14819E-14
 -1      3915 1.09610E-03-2.61239E-05-5.90226E-16
 -1      3916 1.35927E-02-1.75331E-04-5.23481E-14
 -1      3917 1.35889E-02-1.33178E-04-5.23376E-14
 -1      3918 1.34709E-02-1.92988E-04-5.14383E-14
 -1      3919 1.34504E-02-1.05827E-04-5.13210E-14
 -1      3920 1.96855E-03-1.53536E-04-1.55022E-15
 -1      3921 1.94217E-03 1.79186E-04-1.30957E-15
 -1      3922 1.80134E-03 1.68669E-04-1.14152E-15
 -1      3923 1.64054E-03 1.27523E-04-1.01881E-15
 -1      3924 6.88086E-03 1.50998E-04-1.13269E-14
 -1      3925 6.73897E-03 1.60396E-04-1.07428E-14
 -1      3926 6.71307E-03 1.31112E-04-1.04867E-14
 -1      3927 6.99526E-03 1.08179E-04-1.16507E-14
 -1      3928 1.36989E-03 8.22420E-05-7.81994E-16
 -1      3929 1.34368E-03 5.75177E-05-7.92240E-16
 -1      3930 1.47299E-03 9.07816E-05-8.85536E-16
 -1      3931 1.32270E-03 3.57729E-05-8.00670E-16
 -1      3932 1.30829E-03 1.60587E-05-8.07825E-16
 -1      3933 1.41700E-03 4.04079E-05-9.06312E-16
 -1      3934 1.40075E-03-1.18483E-04-8.28046E-16
 -1      3935 1.49912E-03-1.25765E-04-9.36222E-16
 -1      3936 1.52999E-03-1.03615E-04-1.01373E-15
 -1      3937 1.37003E-03-9.22779E-05-8.30607E-16
 -1      3938 1.30021E-03-2.14740E-06-8.12569E-16
 -1      3939 1.30003E-03-2.00799E-05-8.15903E-16
 -1      3940 1.38807E-03 3.34571E-07-9.19932E-16
 -1      3941 1.89261E-03 1.18599E-04-1.37630E-15
 -1      3942 1.59863E-03-8.07189E-05-1.15118E-15
 -1      3943 1.71185E-03-8.20448E-05-1.31941E-15
 -1      3944 1.69961E-03-5.60692E-05-1.35913E-15
 -1      3945 8.14527E-03 5.80065E-05-1.71775E-14
 -1      3946 8.01222E-03 5.86963E-05-1.64824E-14
 -1      3947 7.60162E-03-1.78306E-04-1.42076E-14
 -1      3948 7.72698E-03-1.84076E-04-1.48579E-14
 -1      3949 7.85390E-03-1.89924E-04-1.55204E-14
 -1      3950 7.98245E-03-1.96011E-04-1.61958E-14
 -1      3951 7.79920E-03-1.60202E-04-1.51877E-14
 -1      3952 8.11238E-03-2.02146E-04-1.68838E-14
 -1      3953 8.24368E-03-2.08439E-04-1.75857E-14
 -1      3954 8.05312E-03-1.71290E-04-1.65394E-14
 -1      3955 8.37617E-03-2.14732E-04-1.82985E-14
 -1      3956 8.50980E-03-2.21100E-04-1.90243E-14
 -1      3957 8.31336E-03-1.82690E-04-1.79392E-14
 -1      3958 8.64444E-03-2.27417E-04-1.97649E-14
 -1      3959 8.78004E-03-2.33739E-04-2.05174E-14
 -1      3960 8.57884E-03-1.94220E-04-1.93916E-14
 -1      3961 8.91648E-03-2.39968E-04-2.12850E-14
 -1      3962 9.05370E-03-2.46149E-04-2.20659E-14
 -1      3963 8.84867E-03-2.05705E-04-2.08983E-14
 -1      3964 9.19161E-03-2.52209E-04-2.28598E-14
 -1      3965 9.33017E-03-2.58183E-04-2.36681E-14
 -1      3966 9.12205E-03-2.16998E-04-2.24578E-14
 -1      3967 9.46928E-03-2.64020E-04-2.44903E-14
 -1      3968 9.60890E-03-2.69752E-04-2.53245E-14
 -1      3969 9.39834E-03-2.27994E-04-2.40729E-14
 -1      3970 9.74897E-03-2.75344E-04-2.61708E-14
 -1      3971 9.88944E-03-2.80821E-04-2.70279E-14
 -1      3972 9.67695E-03-2.38630E-04-2.57395E-14
 -1      3973 1.00303E-02-2.86163E-04-2.78977E-14
 -1      3974 1.01714E-02-2.91393E-04-2.87768E-14
 -1      3975 9.95742E-03-2.48885E-04-2.74537E-14
 -1      3976 1.03128E-02-2.96498E-04-2.96677E-14
 -1      3977 1.04544E-02-3.01497E-04-3.05688E-14
 -1      3978 1.02393E-02-2.58764E-04-2.92121E-14
 -1      3979 1.05963E-02-3.06386E-04-3.14771E-14
 -1      3980 1.07383E-02-3.11180E-04-3.23953E-14
 -1      3981 1.05224E-02-2.68291E-04-3.10097E-14
 -1      3982 1.08805E-02-3.15880E-04-3.33226E-14
 -1      3983 1.10228E-02-3.20496E-04-3.42587E-14
 -1      3984 1.08062E-02-2.77504E-04-3.28462E-14
 -1      3985 1.11652E-02-3.25034E-04-3.52002E-14
 -1      3986 1.13077E-02-3.29501E-04-3.61485E-14
 -1      3987 1.10907E-02-2.86443E-04-3.47145E-14
 -1      3988 1.14503E-02-3.33903E-04-3.71061E-14
 -1      3989 1.15930E-02-3.38248E-04-3.80691E-14
 -1      3990 1.13756E-02-2.95152E-04-3.66125E-14
 -1      3991 1.17357E-02-3.42540E-04-3.90391E-14
 -1      3992 1.18785E-02-3.46785E-04-4.00157E-14
 -1      3993 1.16609E-02-3.03670E-04-3.85429E-14
 -1      3994 1.20213E-02-3.50989E-04-4.09959E-14
 -1      3995 1.21641E-02-3.55157E-04-4.19828E-14
 -1      3996 1.19464E-02-3.12035E-04-4.04942E-14
 -1      3997 1.23069E-02-3.59292E-04-4.29783E-14
 -1      3998 1.24498E-02-3.63398E-04-4.39796E-14
 -1      3999 1.22320E-02-3.20278E-04-4.24708E-14
 -1      4000 1.25927E-02-3.67481E-04-4.49883E-14
 -1      4001 1.27356E-02-3.71542E-04-4.60053E-14
 -1      4002 1.25177E-02-3.28426E-04-4.44758E-14
 -1      4003 1.28785E-02-3.75584E-04-4.70285E-14
 -1      4004 1.30214E-02-3.79611E-04-4.80565E-14
 -1      4005 1.28035E-02-3.36503E-04-4.65065E-14
 -1      4006 1.31643E-02-3.83626E-04-4.90938E-14
 -1      4007 1.33072E-02-3.87628E-04-5.01317E-14
 -1      4008 1.30893E-02-3.44527E-04-4.85671E-14
 -1      4009 7.61882E-03 6.13701E-05-1.44767E-14
 -1      4010 7.48942E-03 6.25501E-05-1.38337E-14
 -1      4011 7.88017E-03 5.94859E-05-1.58004E-14
 -1      4012 7.74898E-03 6.03304E-05-1.51323E-14
 -1      4013 7.96198E-03 2.99220E-05-1.61648E-14
 -1      4014 7.36101E-03 6.40161E-05-1.32019E-14
 -1      4015 7.23302E-03 6.57919E-05-1.25817E-14
 -1      4016 7.45124E-03 3.39774E-05-1.35392E-14
 -1      4017 8.41396E-03 5.65912E-05-1.86019E-14
 -1      4018 8.27916E-03 5.72910E-05-1.78837E-14
 -1      4019 8.22486E-03 2.78521E-05-1.75537E-14
 -1      4020 8.68592E-03 5.49602E-05-2.00770E-14
 -1      4021 8.54954E-03 5.58015E-05-1.93334E-14
 -1      4022 8.49205E-03 2.55742E-05-1.89917E-14
 -1      4023 8.96073E-03 5.29044E-05-2.16052E-14
 -1      4024 8.82298E-03 5.39830E-05-2.08350E-14
 -1      4025 8.76296E-03 2.29492E-05-2.04807E-14
 -1      4026 9.23798E-03 5.02836E-05-2.31829E-14
 -1      4027 9.09907E-03 5.16608E-05-2.23874E-14
 -1      4028 9.03705E-03 1.98665E-05-2.20218E-14
 -1      4029 9.51724E-03 4.70226E-05-2.48124E-14
 -1      4030 9.37738E-03 4.87280E-05-2.39903E-14
 -1      4031 9.31379E-03 1.62534E-05-2.36131E-14
 -1      4032 9.79813E-03 4.31003E-05-2.64923E-14
 -1      4033 9.65749E-03 4.51382E-05-2.56468E-14
 -1      4034 9.59269E-03 1.20775E-05-2.52565E-14
 -1      4035 1.00803E-02 3.85363E-05-2.82176E-14
 -1      4036 9.93907E-03 4.08921E-05-2.73492E-14
 -1      4037 9.87333E-03 7.34192E-06-2.69508E-14
 -1      4038 1.03635E-02 3.33776E-05-2.99872E-14
 -1      4039 1.02218E-02 3.60248E-05-2.90966E-14
 -1      4040 1.01553E-02 2.07584E-06-2.86891E-14
 -1      4041 1.06475E-02 2.76874E-05-3.17978E-14
 -1      4042 1.05054E-02 3.05928E-05-3.08875E-14
 -1      4043 1.04384E-02-3.67386E-06-3.04694E-14
 -1      4044 1.09320E-02 2.15359E-05-3.36487E-14
 -1      4045 1.07897E-02 2.46637E-05-3.27177E-14
 -1      4046 1.07223E-02-9.85073E-06-3.22919E-14
 -1      4047 1.12170E-02 1.49941E-05-3.55352E-14
 -1      4048 1.10744E-02 1.83089E-05-3.45891E-14
 -1      4049 1.10068E-02-1.63949E-05-3.41523E-14
 -1      4050 1.15022E-02 8.12931E-06-3.74556E-14
 -1      4051 1.13596E-02 1.15978E-05-3.64907E-14
 -1      4052 1.12918E-02-2.32476E-05-3.60479E-14
 -1      4053 1.17877E-02 1.00242E-06-3.94107E-14
 -1      4054 1.16450E-02 4.59502E-06-3.84285E-14
 -1      4055 1.15770E-02-3.03542E-05-3.79753E-14
 -1      4056 1.20733E-02-6.33297E-06-4.13937E-14
 -1      4057 1.19305E-02-2.64218E-06-4.03986E-14
 -1      4058 1.18625E-02-3.76655E-05-3.99362E-14
 -1      4059 1.23591E-02-1.38311E-05-4.34059E-14
 -1      4060 1.22162E-02-1.00641E-05-4.23968E-14
 -1      4061 1.21481E-02-4.51389E-05-4.19245E-14
 -1      4062 1.26448E-02-2.14536E-05-4.54484E-14
 -1      4063 1.25019E-02-1.76287E-05-4.44235E-14
 -1      4064 1.24338E-02-5.27381E-05-4.39394E-14
 -1      4065 1.29306E-02-2.91691E-05-4.75174E-14
 -1      4066 1.27877E-02-2.53012E-05-4.64802E-14
 -1      4067 1.27196E-02-6.04330E-05-4.59837E-14
 -1      4068 1.32164E-02-3.69518E-05-4.96098E-14
 -1      4069 1.30735E-02-3.30532E-05-4.85614E-14
 -1      4070 1.30054E-02-6.81989E-05-4.80568E-14
 -1      4071 1.70953E-03-3.98086E-05-1.40731E-15
 -1      4072 1.72575E-03-2.32186E-05-1.45471E-15
 -1      4073 1.65547E-03-1.08342E-05-1.32405E-15
 -1      4074 1.60747E-03-3.98809E-05-1.23436E-15
 -1      4075 2.12245E-03-1.85434E-04-1.72228E-15
 -1      4076 1.16800E-03-3.83564E-05-6.59276E-16
 -1      4077 1.36417E-02-3.90662E-04-5.25952E-14
 -1      4078 1.36346E-02-3.57016E-04-5.25613E-14
 -1      4079 1.35089E-02-3.32496E-04-5.16483E-14
 -1      4080 1.35486E-02-3.92665E-04-5.19057E-14
 -1      4081 6.85082E-03 8.28837E-05-1.08468E-14
 -1      4082 1.59969E-03 9.46169E-05-1.03297E-15
 -1      4083 1.33491E-02-2.10638E-04-5.05287E-14
 -1      4084 1.33452E-02-1.68499E-04-5.05196E-14
 -1      4085 1.32910E-02-6.64564E-05-5.01527E-14
 -1      4086 1.76996E-03 4.42250E-05-1.39138E-15
 -1      4087 1.85493E-03 7.68236E-05-1.42945E-15
 -1      4088 1.74406E-03 9.35766E-05-1.22729E-15
 -1      4089 1.69930E-03 2.88008E-05-1.32277E-15
 -1      4090 7.08744E-03-1.13285E-04-1.13329E-14
 -1      4091 7.11050E-03-1.54038E-04-1.16721E-14
 -1      4092 7.35659E-03-1.67437E-04-1.29464E-14
 -1      4093 7.47825E-03-1.72838E-04-1.35701E-14
 -1      4094 7.55302E-03-1.49534E-04-1.38885E-14
 -1      4095 7.14982E-03-9.48035E-05-1.15964E-14
 -1      4096 7.10960E-03-1.56501E-05-1.15334E-14
 -1      4097 7.07871E-03-3.30974E-05-1.12608E-14
 -1      4098 7.14418E-03-5.08912E-05-1.15607E-14
 -1      4099 6.96975E-03 8.20140E-05-1.14000E-14
 -1      4100 6.96193E-03 4.96627E-05-1.11787E-14
 -1      4101 7.05079E-03 2.77079E-05-1.14840E-14
 -1      4102 7.10246E-03 7.51603E-05-1.19952E-14
 -1      4103 7.70395E-03 3.19388E-05-1.48274E-14
 -1      4104 1.34554E-02-3.94664E-04-5.12170E-14
 -1      4105 7.22710E-03-1.59091E-04-1.22698E-14
 -1      4106 1.26930E-03-3.56430E-05-7.73890E-16
 -1      4107 1.22967E-03-5.30299E-05-7.15573E-16
 -1      4108 1.30889E-03-6.80438E-05-7.90560E-16
 -1      4109 1.35548E-03-3.39169E-05-8.79803E-16
 -1      4110 7.30564E-03-1.36105E-04-1.25726E-14
 -1      4111 1.58192E-03 6.16916E-05-1.07781E-15
 -1      4112 1.33077E-02-1.11458E-04-5.02646E-14
 -1      4113 7.20179E-03 4.25267E-05-1.23215E-14
 -1      4114 1.33562E-02-2.44271E-04-5.05667E-14
 -1      4115 1.32305E-02-2.19776E-04-4.96534E-14
 -1      4116 1.33633E-02-2.77904E-04-5.06028E-14
 -1      4117 1.31858E-02-1.29124E-04-4.93604E-14
 -1      4118 1.55221E-03 3.67258E-05-1.08825E-15
 -1      4119 1.33805E-02-3.55555E-04-5.06904E-14
 -1      4120 7.20962E-03-7.44509E-05-1.19038E-14
 -1      4121 7.25716E-03-1.05839E-04-1.22195E-14
 -1      4122 1.46244E-03-7.68347E-05-9.69304E-16
 -1      4123 1.46350E-03-5.33441E-05-1.00434E-15
 -1      4124 8.56819E-03-5.35984E-06-1.93818E-14
 -1      4125 8.43446E-03-3.64627E-06-1.86511E-14
 -1      4126 8.30186E-03-1.98587E-06-1.79306E-14
 -1      4127 8.17042E-03-4.51567E-07-1.72238E-14
 -1      4128 8.37652E-03-3.18517E-05-1.83099E-14
 -1      4129 7.99290E-03-1.41647E-04-1.61941E-14
 -1      4130 8.12057E-03-1.46701E-04-1.68815E-14
 -1      4131 8.24985E-03-1.51721E-04-1.75830E-14
 -1      4132 8.38065E-03-1.56863E-04-1.82957E-14
 -1      4133 8.18530E-03-1.21803E-04-1.72255E-14
 -1      4134 8.51277E-03-1.61972E-04-1.90211E-14
 -1      4135 8.64612E-03-1.67148E-04-1.97602E-14
 -1      4136 8.44596E-03-1.30659E-04-1.86514E-14
 -1      4137 8.78055E-03-1.72276E-04-2.05118E-14
 -1      4138 8.91599E-03-1.77425E-04-2.12780E-14
 -1      4139 8.71193E-03-1.39672E-04-2.01265E-14
 -1      4140 9.05231E-03-1.82509E-04-2.20576E-14
 -1      4141 9.18945E-03-1.87582E-04-2.28499E-14
 -1      4142 8.98223E-03-1.48741E-04-2.16574E-14
 -1      4143 9.32730E-03-1.92580E-04-2.36566E-14
 -1      4144 9.46581E-03-1.97544E-04-2.44767E-14
 -1      4145 9.25605E-03-1.57784E-04-2.32414E-14
 -1      4146 9.60490E-03-2.02429E-04-2.53101E-14
 -1      4147 9.74451E-03-2.07267E-04-2.61548E-14
 -1      4148 9.53273E-03-1.66747E-04-2.48798E-14
 -1      4149 9.88458E-03-2.12026E-04-2.70109E-14
 -1      4150 1.00251E-02-2.16734E-04-2.78790E-14
 -1      4151 9.81168E-03-1.75597E-04-2.65692E-14
 -1      4152 1.01659E-02-2.21367E-04-2.87558E-14
 -1      4153 1.03070E-02-2.25949E-04-2.96453E-14
 -1      4154 1.00924E-02-1.84320E-04-2.83015E-14
 -1      4155 1.04485E-02-2.30463E-04-3.05453E-14
 -1      4156 1.05901E-02-2.34929E-04-3.14523E-14
 -1      4157 1.03746E-02-1.92914E-04-3.00775E-14
 -1      4158 1.07320E-02-2.39336E-04-3.23696E-14
 -1      4159 1.08740E-02-2.43698E-04-3.32964E-14
 -1      4160 1.06578E-02-2.01386E-04-3.18937E-14
 -1      4161 1.10162E-02-2.48012E-04-3.42305E-14
 -1      4162 1.11586E-02-2.52286E-04-3.51710E-14
 -1      4163 1.09418E-02-2.09748E-04-3.37451E-14
 -1      4164 1.13010E-02-2.56520E-04-3.61222E-14
 -1      4165 1.14435E-02-2.60720E-04-3.70798E-14
 -1      4166 1.12264E-02-2.18014E-04-3.56296E-14
 -1      4167 1.15861E-02-2.64888E-04-3.80419E-14
 -1      4168 1.17288E-02-2.69029E-04-3.90154E-14
 -1      4169 1.15114E-02-2.26200E-04-3.75437E-14
 -1      4170 1.18716E-02-2.73143E-04-3.99909E-14
 -1      4171 1.20143E-02-2.77235E-04-4.09732E-14
 -1      4172 1.17968E-02-2.34320E-04-3.94839E-14
 -1      4173 1.21571E-02-2.81307E-04-4.19642E-14
 -1      4174 1.23000E-02-2.85362E-04-4.29599E-14
 -1      4175 1.20823E-02-2.42386E-04-4.14548E-14
 -1      4176 1.24428E-02-2.89401E-04-4.39640E-14
 -1      4177 1.25857E-02-2.93427E-04-4.49721E-14
 -1      4178 1.23679E-02-2.50410E-04-4.34503E-14
 -1      4179 1.27286E-02-2.97441E-04-4.59883E-14
 -1      4180 1.28715E-02-3.01445E-04-4.70124E-14
 -1      4181 1.26537E-02-2.58401E-04-4.54693E-14
 -1      4182 7.53510E-03 6.21583E-06-1.38784E-14
 -1      4183 7.41315E-03 7.15629E-06-1.32459E-14
 -1      4184 8.83857E-03-9.11607E-06-2.08860E-14
 -1      4185 8.70291E-03-7.20017E-06-2.01267E-14
 -1      4186 8.64261E-03-3.64565E-05-1.97738E-14
 -1      4187 9.11231E-03-1.33012E-05-2.24394E-14
 -1      4188 8.97505E-03-1.11627E-05-2.16566E-14
 -1      4189 8.91289E-03-4.14161E-05-2.12907E-14
 -1      4190 9.38882E-03-1.79421E-05-2.40447E-14
 -1      4191 9.25025E-03-1.55712E-05-2.32361E-14
 -1      4192 9.18663E-03-4.67327E-05-2.28581E-14
 -1      4193 9.66759E-03-2.30424E-05-2.57043E-14
 -1      4194 9.52795E-03-2.04407E-05-2.48674E-14
 -1      4195 9.46318E-03-5.24021E-05-2.44788E-14
 -1      4196 9.94815E-03-2.85854E-05-2.74102E-14
 -1      4197 9.80766E-03-2.57640E-05-2.65520E-14
 -1      4198 9.74201E-03-5.84106E-05-2.61519E-14
 -1      4199 1.02301E-02-3.45387E-05-2.91602E-14
 -1      4200 1.00890E-02-3.15157E-05-2.82792E-14
 -1      4201 1.00226E-02-6.47350E-05-2.78701E-14
 -1      4202 1.05132E-02-4.08603E-05-3.09532E-14
 -1      4203 1.03715E-02-3.76579E-05-3.00518E-14
 -1      4204 1.03047E-02-7.13456E-05-2.96330E-14
 -1      4205 1.07971E-02-4.75036E-05-3.27855E-14
 -1      4206 1.06550E-02-4.41457E-05-3.18641E-14
 -1      4207 1.05878E-02-7.82087E-05-3.14363E-14
 -1      4208 1.10816E-02-5.44207E-05-3.46540E-14
 -1      4209 1.09393E-02-5.09313E-05-3.37149E-14
 -1      4210 1.08717E-02-8.52894E-05-3.32793E-14
 -1      4211 1.13665E-02-6.15664E-05-3.65581E-14
 -1      4212 1.12240E-02-5.79678E-05-3.56037E-14
 -1      4213 1.11563E-02-9.25535E-05-3.51560E-14
 -1      4214 1.16518E-02-6.88987E-05-3.84940E-14
 -1      4215 1.15091E-02-6.52115E-05-3.75227E-14
 -1      4216 1.14413E-02-9.99694E-05-3.70685E-14
 -1      4217 1.19373E-02-7.63808E-05-4.04606E-14
 -1      4218 1.17945E-02-7.26230E-05-3.94731E-14
 -1      4219 1.17266E-02-1.07508E-04-3.90117E-14
 -1      4220 1.22229E-02-8.39809E-05-4.24509E-14
 -1      4221 1.20801E-02-8.01677E-05-4.14517E-14
 -1      4222 1.20121E-02-1.15146E-04-4.09810E-14
 -1      4223 1.25086E-02-9.16721E-05-4.44702E-14
 -1      4224 1.23658E-02-8.78163E-05-4.34575E-14
 -1      4225 1.22977E-02-1.22860E-04-4.29759E-14
 -1      4226 1.27944E-02-9.94321E-05-4.65178E-14
 -1      4227 1.26515E-02-9.55445E-05-4.54901E-14
 -1      4228 1.25835E-02-1.30633E-04-4.49981E-14
 -1      4229 1.30616E-02-1.16222E-04-4.84541E-14
 -1      4230 1.29187E-02-1.12309E-04-4.74159E-14
 -1      4231 1.28506E-02-1.47422E-04-4.69127E-14
 -1      4232 1.30991E-02-1.73232E-04-4.87102E-14
 -1      4233 1.54988E-03 1.21097E-05-1.12989E-15
 -1      4234 1.48526E-03-3.57648E-05-1.05276E-15
 -1      4235 7.37987E-03-1.13356E-04-1.28967E-14
 -1      4236 7.16894E-03 2.26789E-05-1.20564E-14
 -1      4237 7.14052E-03 1.71035E-06-1.17959E-14
 -1      4238 7.21851E-03-1.94063E-05-1.21049E-14
 -1      4239 7.29016E-03 1.58673E-05-1.26432E-14
 -1      4240 1.33606E-02-3.25477E-04-5.05585E-14
 -1      4241 1.32349E-02-3.00963E-04-4.96498E-14
 -1      4242 1.50891E-03-2.12659E-05-1.09454E-15
 -1      4243 7.78444E-03 3.81394E-06-1.51796E-14
 -1      4244 7.65885E-03 5.02041E-06-1.45228E-14
 -1      4245 7.61310E-03-2.04482E-05-1.42175E-14
 -1      4246 1.53926E-03-7.29955E-06-1.13603E-15
 -1      4247 8.04033E-03 1.05375E-06-1.65297E-14
 -1      4248 7.91158E-03 2.42792E-06-1.58475E-14
 -1      4249 7.86062E-03-2.37525E-05-1.55313E-14
 -1      4250 8.11550E-03-2.76058E-05-1.68940E-14
 -1      4251 7.49520E-03-1.17665E-04-1.35203E-14
 -1      4252 7.61371E-03-1.22324E-04-1.41570E-14
 -1      4253 7.43312E-03-8.80170E-05-1.31519E-14
 -1      4254 7.73903E-03-1.29352E-04-1.48308E-14
 -1      4255 7.86269E-03-1.34190E-04-1.54926E-14
 -1      4256 7.92649E-03-1.10627E-04-1.58224E-14
 -1      4257 7.67176E-03-9.76537E-05-1.44480E-14
 -1      4258 7.37316E-03-1.06023E-05-1.29715E-14
 -1      4259 1.30144E-02-3.05441E-04-4.80424E-14
 -1      4260 1.31573E-02-3.09429E-04-4.90794E-14
 -1      4261 1.29395E-02-2.66369E-04-4.75174E-14
 -1      4262 1.38566E-03-7.23609E-05-8.77716E-16
 -1      4263 1.31600E-02-2.61876E-04-4.91207E-14
 -1      4264 7.25672E-03-5.97708E-05-1.21861E-14
 -1      4265 7.33699E-03-2.85229E-05-1.27145E-14
 -1      4266 7.29602E-03-4.41069E-05-1.24407E-14
 -1      4267 7.36773E-03-6.94186E-05-1.27946E-14
 -1      4268 7.45257E-03-3.67476E-05-1.33172E-14
 -1      4269 1.31105E-02-2.34488E-04-4.87720E-14
 -1      4270 1.31034E-02-2.00873E-04-4.87330E-14
 -1      4271 8.41389E-03-8.11588E-05-1.84854E-14
 -1      4272 8.54595E-03-8.45579E-05-1.92140E-14
 -1      4273 8.67925E-03-8.79419E-05-1.99549E-14
 -1      4274 8.81363E-03-9.14488E-05-2.07092E-14
 -1      4275 8.94902E-03-9.49471E-05-2.14771E-14
 -1      4276 9.08531E-03-9.85402E-05-2.22591E-14
 -1      4277 9.22241E-03-1.02129E-04-2.30538E-14
 -1      4278 9.36024E-03-1.05792E-04-2.38614E-14
 -1      4279 9.49873E-03-1.09455E-04-2.46829E-14
 -1      4280 9.63779E-03-1.13175E-04-2.55177E-14
 -1      4281 9.77739E-03-1.16898E-04-2.63644E-14
 -1      4282 9.91744E-03-1.20665E-04-2.72215E-14
 -1      4283 1.00579E-02-1.24437E-04-2.80892E-14
 -1      4284 1.01987E-02-1.28243E-04-2.89685E-14
 -1      4285 1.03399E-02-1.32054E-04-2.98595E-14
 -1      4286 1.04813E-02-1.35892E-04-3.07609E-14
 -1      4287 1.06229E-02-1.39735E-04-3.16693E-14
 -1      4288 1.07648E-02-1.43599E-04-3.25874E-14
 -1      4289 1.09069E-02-1.47469E-04-3.35158E-14
 -1      4290 1.10491E-02-1.51354E-04-3.44514E-14
 -1      4291 1.11914E-02-1.55245E-04-3.53968E-14
 -1      4292 1.13338E-02-1.59148E-04-3.63507E-14
 -1      4293 1.14764E-02-1.63055E-04-3.73103E-14
 -1      4294 1.16190E-02-1.66971E-04-3.82763E-14
 -1      4295 1.17617E-02-1.70892E-04-3.92524E-14
 -1      4296 1.19044E-02-1.74818E-04-4.02345E-14
 -1      4297 1.20472E-02-1.78749E-04-4.12219E-14
 -1      4298 1.21900E-02-1.82684E-04-4.22159E-14
 -1      4299 1.23328E-02-1.86623E-04-4.32172E-14
 -1      4300 1.24757E-02-1.90564E-04-4.42240E-14
 -1      4301 1.26186E-02-1.94509E-04-4.52359E-14
 -1      4302 1.27614E-02-1.98455E-04-4.62578E-14
 -1      4303 1.28857E-02-2.11373E-04-4.71488E-14
 -1      4304 7.69105E-03-4.05235E-05-1.45959E-14
 -1      4305 7.57041E-03-3.86283E-05-1.39501E-14
 -1      4306 7.52674E-03-5.58344E-05-1.36838E-14
 -1      4307 8.15392E-03-7.46596E-05-1.70634E-14
 -1      4308 8.28315E-03-7.79222E-05-1.77680E-14
 -1      4309 7.48112E-03-7.23185E-05-1.34174E-14
 -1      4310 1.30329E-02-2.42962E-04-4.82043E-14
 -1      4311 8.02630E-03-7.16212E-05-1.63723E-14
 -1      4312 7.89533E-03-6.60187E-05-1.56677E-14
 -1      4313 1.29791E-02-1.87953E-04-4.78336E-14
 -1      4314 7.59793E-03-7.51732E-05-1.40520E-14
 -1      4315 7.72262E-03-8.07669E-05-1.47244E-14
 -1      4316 1.28900E-02-2.38995E-04-4.71714E-14
 -1      4317 7.77161E-03-6.33486E-05-1.50021E-14
 -3
    1PSTEP                         2           1           1          
  100CL  101 1.000000000        4317                     0    1           1
 -4  STRESS      6    1
 -5  SXX         1    4    1    1
 -5  SYY         1    4    2    2
 -5  SZZ         1    4    3    3
 -5  SXY         1    4    1    2
 -5  SYZ         1    4    2    3
 -5  SZX         1    4    3    1
 -1         1 5.62712E+01 4.51691E+00 3.08985E+00-1.45444E+01-3.07428E-13 1.09579E-12
 -1         2-7.28476E-01-2.45711E+01-3.36500E+00-1.17917E-01 2.26473E-13-3.87017E-14
 -1         3 1.99999E+01 9.33359E-05-1.48294E-04 9.18504E-05-6.36179E-13-6.48789E-13
 -1         4 1.99999E+01 8.20670E-05-1.57699E-04-8.24189E-05 4.97705E-14 2.79637E-13
 -1         5 3.31248E+01 6.23648E+00 2.60375E+00 6.12149E+00-1.69656E-14 1.19856E-12
 -1         6 3.58778E+01 1.22295E+01 4.88700E+00-8.45442E+00-6.76126E-14 1.10195E-12
 -1         7 2.19833E+01 6.41196E+00-3.12897E-02-4.27958E+00-1.22263E-14 2.41206E-13
 -1         8 2.06404E+01 6.21280E+00 9.56240E-02-2.56831E+00-1.30798E-14-2.27318E-14
 -1         9 1.97501E+01 5.94992E+00 6.75129E-02-1.68447E+00-1.03424E-14-1.69064E-13
 -1        10 1.90603E+01 5.73926E+00 4.86478E-02-1.08503E+00-4.62824E-15-2.37436E-13
 -1        11 1.84844E+01 5.56417E+00 3.10647E-02-6.66601E-01-5.98133E-15-2.79869E-13
 -1        12 1.80292E+01 5.42591E+00 1.59834E-02-3.86561E-01-3.64639E-15-2.88310E-13
 -1        13 1.77035E+01 5.32746E+00 4.81147E-03-1.99254E-01-2.42514E-15-2.89696E-13
 -1        14 1.75403E+01 5.27816E+00-6.71601E-04-7.07405E-02 3.08347E-16-2.89554E-13
 -1        15 1.75519E+01 5.28166E+00 2.37654E-04 4.14271E-02 2.25774E-15-2.82466E-13
 -1        16 1.77351E+01 5.33698E+00 7.30766E-03 1.80215E-01 3.31679E-15-2.70753E-13
 -1        17 1.80720E+01 5.43855E+00 1.94296E-02 3.85961E-01 8.07687E-15-2.56839E-13
 -1        18 1.85262E+01 5.57654E+00 3.46684E-02 6.87302E-01 5.78704E-15-2.23509E-13
 -1        19 1.90911E+01 5.74864E+00 5.15642E-02 1.12856E+00 1.34788E-14-1.70365E-13
 -1        20 1.97605E+01 5.95439E+00 6.81444E-02 1.74720E+00 1.11335E-14-7.97335E-14
 -1        21 2.06221E+01 6.22215E+00 8.97693E-02 2.63148E+00 1.64105E-14 1.09324E-13
 -1        22 2.22399E+01 6.65469E+00 1.94466E-01 4.10181E+00 1.83187E-15 4.57079E-13
 -1        23 2.42154E+01-1.45477E+00-9.79569E-01-5.76037E-01-4.49189E-14 8.53956E-13
 -1        24 2.13447E+01-9.99543E-02-2.99446E-01 8.74843E-02-6.77670E-15 6.68285E-13
 -1        25 2.13197E+01-5.65230E-02-6.49304E-02 7.48271E-02-7.92487E-15 4.70155E-13
 -1        26 2.17680E+01-2.23420E-02-8.06190E-03 4.92041E-02-9.84022E-16 3.14800E-13
 -1        27 2.24476E+01-9.13476E-03 2.18595E-03 4.23375E-02-5.81262E-15 2.40825E-13
 -1        28 2.32050E+01 2.58935E-03 1.21646E-02 3.75154E-02-5.15947E-15 2.18285E-13
 -1        29 2.38725E+01 1.47910E-02 2.95265E-02 2.85723E-02 6.04074E-15 1.32367E-13
 -1        30 2.42380E+01 2.65981E-02 5.22778E-02 9.25240E-03-3.24176E-14 8.39425E-14
 -1        31 2.40615E+01 3.39864E-02 7.13751E-02-2.49165E-02 2.11797E-14 3.32651E-14
 -1        32 2.31593E+01 3.06577E-02 7.05414E-02-7.11209E-02-2.87929E-14-1.90022E-14
 -1        33 2.15570E+01 1.20010E-02 3.37222E-02-1.12518E-01 2.51837E-14-5.32283E-14
 -1        34 1.96374E+01-1.87036E-02-3.72640E-02-1.20117E-01 7.10510E-15 8.55184E-14
 -1        35 1.81092E+01-4.74524E-02-1.08977E-01-7.32960E-02 1.60288E-15 8.44429E-14
 -1        36 1.76764E+01-5.70255E-02-1.33755E-01 1.38638E-02-1.13442E-14 6.75683E-14
 -1        37 1.85804E+01-4.10875E-02-9.31822E-02 9.41908E-02-5.49287E-14-4.41799E-14
 -1        38 2.04234E+01-9.96456E-03-1.69113E-02 1.26622E-01-2.36657E-14-1.46105E-13
 -1        39 2.24550E+01 1.86084E-02 4.66018E-02 1.07757E-01 3.06547E-15-1.93082E-13
 -1        40 2.40335E+01 3.34379E-02 7.29181E-02 6.35407E-02 2.98457E-14-2.02793E-13
 -1        41 2.48774E+01 3.38927E-02 6.66231E-02 2.09183E-02 2.07252E-14-1.66919E-13
 -1        42 2.50293E+01 2.58207E-02 4.52203E-02-7.27409E-03-8.49104E-15-1.04430E-13
 -1        43 2.46917E+01 1.54257E-02 2.31564E-02-2.05688E-02-5.77449E-14-1.78627E-13
 -1        44 2.40865E+01 6.44036E-03 6.89094E-03-2.36727E-02 1.36031E-14-1.23469E-14
 -1        45 2.33865E+01 1.66173E-04-2.75587E-03-2.14668E-02-5.24231E-15-8.15606E-14
 -1        46 2.27012E+01-3.51822E-03-7.33962E-03-1.72820E-02 2.96576E-14-1.53579E-13
 -1        47 2.20884E+01-5.25981E-03-8.76589E-03-1.29119E-02-3.02182E-14 4.23446E-14
 -1        48 2.15711E+01-5.74091E-03-8.50341E-03-9.12419E-03 1.72763E-14 2.70944E-13
 -1        49 2.11514E+01-5.49759E-03-7.48258E-03-6.13369E-03 1.44384E-14 1.40546E-13
 -1        50 2.08214E+01-4.89435E-03-6.22326E-03-3.90399E-03 8.03424E-15-1.88851E-14
 -1        51 2.05684E+01-4.15662E-03-4.98646E-03-2.30907E-03 2.34464E-14 7.33351E-14
 -1        52 2.03789E+01-3.41274E-03-3.88648E-03-1.20830E-03-8.66844E-14-1.13212E-13
 -1        53 2.02403E+01-2.72890E-03-2.96054E-03-4.76282E-04 4.72753E-14-4.13322E-13
 -1        54 2.01413E+01-2.13387E-03-2.20825E-03-1.12002E-05-1.00040E-14-9.91163E-14
 -1        55 2.00726E+01-1.63505E-03-1.61267E-03 2.65570E-04-2.47324E-14-4.57673E-13
 -1        56 2.00266E+01-1.22841E-03-1.15103E-03 4.12947E-04 3.84380E-14-6.12174E-13
 -1        57 1.99973E+01-9.04430E-04-8.00053E-04 4.74154E-04 1.32546E-13-5.74482E-13
 -1        58 1.99798E+01-6.51478E-04-5.38262E-04 4.80335E-04-6.83667E-14-7.15495E-13
 -1        59 1.99707E+01-4.57727E-04-3.46938E-04 4.53524E-04 3.42989E-14-3.61823E-13
 -1        60 1.99672E+01-3.12126E-04-2.10302E-04 4.08993E-04-5.96388E-14-1.07301E-13
 -1        61 1.99673E+01-2.04861E-04-1.15368E-04 3.57051E-04 1.76074E-14-9.84335E-14
 -1        62 1.99697E+01-1.27488E-04-5.16318E-05 3.04420E-04 5.73175E-14-6.02045E-14
 -1        63 1.99734E+01-7.29030E-05-1.06990E-05 2.55264E-04-5.15293E-14 4.29272E-14
 -1        64 1.99777E+01-3.52047E-05 1.41201E-05 2.11942E-04 1.72052E-14-1.76367E-13
 -1        65 1.99821E+01-9.50653E-06 2.82479E-05 1.75516E-04-6.73251E-14-2.51393E-13
 -1        66 1.99864E+01 8.26518E-06 3.63757E-05 1.46036E-04-3.20213E-14-4.49698E-14
 -1        67 1.99903E+01 2.15574E-05 4.32032E-05 1.22520E-04 8.90397E-14 2.53700E-13
 -1        68 1.99939E+01 3.32478E-05 5.41971E-05 1.02399E-04 6.72289E-14 9.93644E-13
 -1        69 1.99968E+01 4.47396E-05 7.43474E-05 7.94119E-05-6.50500E-14 1.09495E-12
 -1        70 1.99989E+01 4.71569E-05 9.28003E-05 3.37872E-05 7.54517E-14 9.74342E-13
 -1        71 1.99999E+01-9.14734E-06 3.47115E-05-3.61119E-05 5.88217E-16 7.92353E-13
 -1        72 2.22254E+01-4.13525E-01-1.00629E+00-3.66999E-01 1.75207E-14 1.11673E-12
 -1        73 2.12630E+01-6.50331E-02-2.80507E-01-6.94459E-02-4.60049E-15 8.95158E-13
 -1        74 2.12340E+01-1.99560E-02-5.94337E-02-3.10169E-02 1.39167E-14 7.12637E-13
 -1        75 2.16245E+01-8.01153E-03-8.29624E-03-2.78258E-02 2.32355E-15 5.95851E-13
 -1        76 2.22218E+01-4.13506E-06 4.65810E-03-2.92861E-02 3.03531E-15 5.41825E-13
 -1        77 2.28671E+01 7.61802E-03 1.55257E-02-3.18784E-02 9.05011E-16 5.21075E-13
 -1        78 2.33966E+01 1.49592E-02 3.15366E-02-3.18030E-02-1.68250E-14 4.98922E-13
 -1        79 2.36178E+01 2.01109E-02 5.02564E-02-2.37399E-02 4.54120E-14 4.08335E-13
 -1        80 2.33316E+01 1.96091E-02 6.29720E-02-2.18374E-03-3.56193E-14 2.45621E-13
 -1        81 2.24108E+01 1.03542E-02 5.63714E-02 3.40380E-02 4.10171E-14 1.88606E-13
 -1        82 2.09237E+01-6.82597E-03 2.00644E-02 7.52770E-02 1.33440E-14 7.43329E-14
 -1        83 1.92325E+01-2.49488E-02-4.00196E-02 9.95315E-02-5.43272E-15-1.99667E-14
 -1        84 1.79378E+01-3.40001E-02-9.59441E-02 8.46901E-02-3.43235E-14 3.64736E-13
 -1        85 1.76055E+01-2.87767E-02-1.12548E-01 2.95466E-02 2.69945E-14 2.89185E-13
 -1        86 1.84162E+01-1.32070E-02-7.83055E-02-3.80781E-02-2.19111E-14-1.32762E-13
 -1        87 2.00394E+01 3.92532E-03-1.69761E-02-8.28299E-02-8.63909E-15-1.16466E-13
 -1        88 2.18597E+01 1.57180E-02 3.64326E-02-9.03238E-02-1.60614E-14 8.89427E-14
 -1        89 2.33333E+01 1.96866E-02 6.10955E-02-6.98623E-02 3.91452E-14-9.66380E-14
 -1        90 2.41937E+01 1.76350E-02 5.92894E-02-3.97898E-02-4.40685E-14-1.79612E-13
 -1        91 2.44437E+01 1.25532E-02 4.30520E-02-1.36781E-02-8.58656E-15-3.62102E-15
 -1        92 2.42360E+01 7.07281E-03 2.42651E-02 3.43675E-03-2.06879E-14 9.66545E-14
 -1        93 2.37564E+01 2.60235E-03 9.27171E-03 1.21343E-02 7.55529E-15 9.06948E-14
 -1        94 2.31603E+01-4.43408E-04-3.61321E-04 1.50081E-02 4.44550E-14-4.39752E-13
 -1        95 2.25529E+01-2.20330E-03-5.45767E-03 1.45794E-02-3.49983E-14-2.96262E-13
 -1        96 2.19948E+01-3.01082E-03-7.47896E-03 1.26295E-02 4.78215E-14 2.37820E-13
 -1        97 2.15139E+01-3.19934E-03-7.70805E-03 1.02147E-02-9.32549E-15 4.77168E-13
 -1        98 2.11176E+01-3.02985E-03-7.03402E-03 7.87743E-03 2.52056E-14 5.00655E-13
 -1        99 2.08020E+01-2.68198E-03-5.99572E-03 5.85074E-03 1.57863E-14 2.40273E-13
 -1       100 2.05577E+01-2.26874E-03-4.88855E-03 4.20090E-03-3.88121E-14 3.75225E-13
 -1       101 2.03733E+01-1.85575E-03-3.85827E-03 2.91358E-03-5.58958E-15 6.08161E-13
 -1       102 2.02375E+01-1.47746E-03-2.96561E-03 1.94122E-03 4.82129E-14 3.95119E-13
 -1       103 2.01401E+01-1.14907E-03-2.22600E-03 1.22722E-03-1.56356E-14 3.63168E-13
 -1       104 2.00722E+01-8.74519E-04-1.63241E-03 7.17272E-04-6.73742E-14 7.51963E-13
 -1       105 2.00266E+01-6.51504E-04-1.16793E-03 3.63928E-04 5.77957E-14 5.96932E-13
 -1       106 1.99975E+01-4.74675E-04-8.12513E-04 1.27870E-04-8.66710E-14 2.54972E-13
 -1       107 1.99801E+01-3.37473E-04-5.46303E-04-2.23980E-05-3.81218E-14-2.30383E-13
 -1       108 1.99709E+01-2.33199E-04-3.51287E-04-1.11476E-04 1.73601E-13-5.03562E-13
 -1       109 1.99674E+01-1.55582E-04-2.11887E-04-1.58185E-04 5.26756E-14-5.39674E-13
 -1       110 1.99676E+01-9.90479E-05-1.15066E-04-1.76658E-04-5.33625E-14-5.27394E-13
 -1       111 1.99699E+01-5.87985E-05-5.01666E-05-1.77326E-04 6.45586E-14-5.29343E-13
 -1       112 1.99736E+01-3.07895E-05-8.60921E-06-1.67758E-04-1.50881E-13 1.77086E-13
 -1       113 1.99778E+01-1.16478E-05 1.64638E-05-1.53357E-04 2.74150E-14 6.68858E-13
 -1       114 1.99822E+01 1.45234E-06 3.06159E-05-1.37904E-04 2.05086E-14 1.79920E-13
 -1       115 1.99865E+01 1.09018E-05 3.86970E-05-1.23934E-04 5.55344E-14-6.64886E-13
 -1       116 1.99904E+01 1.87143E-05 4.56594E-05-1.12856E-04 5.25774E-14-9.76345E-13
 -1       117 1.99939E+01 2.65965E-05 5.73915E-05-1.04708E-04-8.34505E-14-7.96484E-13
 -1       118 1.99969E+01 3.48118E-05 7.87060E-05-9.64490E-05 3.09731E-14-6.96732E-13
 -1       119 1.99989E+01 3.77692E-05 9.87114E-05-7.19368E-05-3.60451E-15-9.56625E-13
 -1       120 1.99999E+01-3.33340E-05 2.20183E-05 1.01957E-05 3.17290E-13-1.38162E-12
 -1       121 1.99998E+01 5.90278E-06 2.35518E-05 3.46049E-05-1.46017E-12 1.58379E-13
 -1       122 1.99998E+01-9.30483E-04 8.49185E-05-4.83425E-05-4.72931E-13 9.25730E-14
 -1       123 1.99998E+01-2.88394E-03 4.47579E-05-8.64541E-05 1.12394E-12 6.51433E-13
 -1       124 1.99998E+01-5.27454E-03 1.18378E-06-9.28210E-05 2.43486E-12-1.36924E-14
 -1       125 1.99998E+01-7.65844E-03-3.04758E-05-8.19679E-05 1.93579E-12-1.13487E-13
 -1       126 1.99998E+01-9.67901E-03-5.14503E-05-6.35806E-05 9.56099E-13 4.84407E-14
 -1       127 1.99998E+01-1.11696E-02-6.36197E-05-3.95667E-05 4.71111E-13-2.71525E-14
 -1       128 1.99998E+01-1.19472E-02-6.93699E-05-1.32777E-05 2.42126E-13-4.15382E-14
 -1       129 1.99998E+01-1.19414E-02-6.93563E-05 1.36671E-05 1.83002E-14 6.67166E-14
 -1       130 1.99998E+01-1.11526E-02-6.35608E-05 3.98932E-05-5.57903E-14 9.94915E-14
 -1       131 1.99998E+01-9.65239E-03-5.08593E-05 6.45688E-05-5.32036E-13-9.06396E-14
 -1       132 1.99998E+01-7.62543E-03-3.04365E-05 8.23356E-05-8.63201E-13 1.00077E-14
 -1       133 1.99998E+01-5.23722E-03 1.35031E-06 9.27465E-05-1.37901E-12-1.23405E-14
 -1       134 1.99998E+01-2.84164E-03 4.90226E-05 9.27729E-05-5.69227E-13 1.31643E-13
 -1       135 1.99998E+01-9.37594E-04 7.38481E-05 6.72932E-05-2.59197E-13-8.01032E-14
 -1       136 1.99998E+01-2.38761E-05 1.94697E-05-7.81648E-05-7.96311E-13 5.75816E-15
 -1       137-1.54625E+00-1.93039E+01-3.03540E+00-3.80518E+00 1.00892E-12 3.21417E-13
 -1       138-1.23225E+00-7.56324E+00-2.18089E+00-2.40273E+00 1.37657E-12 5.26190E-13
 -1       139 3.57801E+00 4.07883E+00-9.81942E-01 4.12511E+00 1.15863E-12 1.00375E-12
 -1       140 1.67592E+01 1.06824E+01 4.76275E-01 1.32656E+01 9.35696E-13 1.05554E-12
 -1       141 3.57066E+01 9.85495E+00 1.84401E+00 1.82840E+01 5.04652E-13 8.69915E-13
 -1       142 5.46719E+01 4.90940E+00 2.94829E+00 1.48797E+01 1.58609E-13 6.31717E-13
 -1       143 6.58501E+01 1.18085E+00 3.54471E+00 3.45625E+00 2.41716E-14-1.53141E-13
 -1       144 6.25681E+01 2.43359E+00 3.41196E+00-9.72677E+00 1.58322E-13-9.40442E-13
 -1       145 4.55935E+01 7.73997E+00 2.49732E+00-1.79305E+01 6.14148E-13-1.41143E-12
 -1       146 2.47934E+01 1.12942E+01 1.13984E+00-1.64790E+01 9.65394E-13-1.40454E-12
 -1       147 7.96818E+00 7.96962E+00-3.80812E-01-8.05685E+00 1.20171E-12-1.09479E-12
 -1       148-4.00243E-01-2.67707E+00-1.79473E+00 6.99791E-01 1.08147E-12-6.41792E-13
 -1       149-1.76775E+00-1.51971E+01-2.80127E+00 4.28659E+00 7.26696E-13-2.13329E-13
 -1       150-8.38097E-01-2.38294E+01-3.34914E+00 2.04668E+00 2.24612E-13-3.63338E-14
 -1       151-9.40990E-01-2.34087E+01-3.32799E+00-2.43760E+00-5.29105E-13-1.17935E-13
 -1       152-1.79078E+00-1.47972E+01-2.78873E+00-4.21025E+00-1.24128E-12-3.80973E-13
 -1       153-2.43874E-01-2.49214E+00-1.78231E+00-5.20571E-01-1.22358E-12-7.58227E-13
 -1       154 9.00185E+00 7.83169E+00-3.35200E-01 8.42761E+00-1.10834E-12-9.79772E-13
 -1       155 2.56461E+01 1.09631E+01 1.17002E+00 1.64576E+01-7.82041E-13-1.21592E-12
 -1       156 4.60126E+01 7.64858E+00 2.53665E+00 1.76982E+01-4.16250E-13-9.71778E-13
 -1       157 6.25854E+01 2.56477E+00 3.44788E+00 1.01030E+01-1.03681E-13-4.50251E-13
 -1       158 6.64696E+01 9.51701E-01 3.63200E+00-3.09057E+00-1.61329E-14 4.04218E-13
 -1       159 3.70728E+01 9.60647E+00 1.94554E+00-1.83685E+01-7.28889E-13 1.48359E-12
 -1       160 1.74410E+01 1.07030E+01 5.07283E-01-1.35470E+01-1.42136E-12 1.62204E-12
 -1       161 3.59957E+00 4.24636E+00-9.98999E-01-4.14182E+00-1.68848E-12 1.35159E-12
 -1       162-1.64039E+00-8.25787E+00-2.29464E+00 3.08912E+00-1.18061E-12 5.29049E-13
 -1       163-1.40516E+00-1.99502E+01-3.09848E+00 3.95994E+00-5.16476E-13 2.51646E-13
 -1       164 2.22761E+01 3.66660E+00-4.97910E-02-2.94035E+00-1.56300E-13 1.02834E-13
 -1       165 2.08976E+01 4.26014E+00-4.15653E-02-2.02643E+00-1.40673E-13-6.24986E-14
 -1       166 1.99153E+01 4.57568E+00-2.98720E-02-1.36459E+00-1.07107E-13-1.54210E-13
 -1       167 1.91339E+01 4.74380E+00-2.17740E-02-8.81232E-01-7.31711E-14-2.13157E-13
 -1       168 1.85057E+01 4.84822E+00-1.65119E-02-5.41320E-01-4.85996E-14-2.26814E-13
 -1       169 1.80227E+01 4.91628E+00-1.35635E-02-3.04232E-01-2.31802E-14-2.40825E-13
 -1       170 1.77251E+01 4.95374E+00-1.19605E-02-1.42346E-01 5.37667E-15-2.33906E-13
 -1       171 1.76346E+01 4.96191E+00-1.14934E-02-1.66499E-02 3.52920E-14-2.30192E-13
 -1       172 1.77566E+01 4.94163E+00-1.20997E-02 1.14510E-01 6.10991E-14-2.24909E-13
 -1       173 1.80772E+01 4.89433E+00-1.38437E-02 2.91443E-01 8.07340E-14-2.22753E-13
 -1       174 1.85592E+01 4.82137E+00-1.69881E-02 5.44239E-01 1.00718E-13-1.92380E-13
 -1       175 1.91908E+01 4.71273E+00-2.22135E-02 9.11086E-01 1.35242E-13-1.52006E-13
 -1       176 1.99563E+01 4.54150E+00-3.11626E-02 1.41768E+00 1.63462E-13-8.16239E-14
 -1       177 2.09166E+01 4.22705E+00-4.34628E-02 2.09416E+00 1.73340E-13 3.86149E-14
 -1       178 2.23578E+01 3.44485E+00-5.30632E-02 2.91401E+00 1.58679E-13 2.47947E-13
 -1       179 2.37318E+01 1.07330E+00-3.31034E-01 2.55928E+00 1.11843E-13 5.18724E-13
 -1       180 2.34865E+01 8.14743E-01 1.92091E-03-1.45044E+00-1.28137E-13 2.97290E-13
 -1       181 2.23721E+01 1.80650E-01-8.03690E-03-2.62703E-01-9.74620E-14 2.39230E-13
 -1       182 2.20601E+01 1.07790E-01 1.38503E-02 2.19276E-01-9.46595E-14 1.94004E-13
 -1       183 2.22044E+01 5.00304E-02 8.82632E-03 4.49286E-01-7.89898E-14 1.24248E-13
 -1       184 2.25586E+01 3.38132E-03 2.71698E-03 5.35681E-01-2.28685E-14 1.05240E-13
 -1       185 2.29798E+01-5.25353E-02-1.23469E-03 4.87306E-01-5.08786E-14 1.12666E-13
 -1       186 2.33335E+01-1.21565E-01-3.30373E-03 2.81616E-01-3.27507E-14 1.11681E-13
 -1       187 2.34822E+01-1.91051E-01-3.52239E-03-9.49911E-02-6.67851E-14 1.25260E-13
 -1       188 2.33024E+01-2.25783E-01-1.97172E-03-6.00334E-01-2.90722E-14 1.31345E-13
 -1       189 2.27374E+01-1.74017E-01 4.52414E-04-1.08899E+00-2.64693E-14 1.95796E-13
 -1       190 2.18742E+01-5.33565E-03 1.99697E-03-1.31474E+00-9.81439E-15 1.19638E-13
 -1       191 2.09913E+01 2.29977E-01 1.11551E-03-1.04995E+00-2.60000E-14-2.93775E-15
 -1       192 2.04811E+01 3.93970E-01-6.92127E-04-2.94324E-01-5.85755E-14-2.93814E-14
 -1       193 2.06199E+01 3.66423E-01-5.09389E-04 6.30749E-01-1.20495E-13-8.23599E-14
 -1       194 2.13609E+01 1.68695E-01 1.66424E-03 1.27643E+00-9.65530E-14-1.12563E-13
 -1       195 2.23691E+01-5.96560E-02 1.60712E-03 1.39927E+00 9.38811E-15-1.27020E-13
 -1       196 2.32641E+01-1.98038E-01-3.16131E-04 1.07818E+00 1.40252E-14-4.34618E-14
 -1       197 2.38141E+01-2.22986E-01-2.87724E-03 5.62784E-01 8.91951E-14-7.77095E-14
 -1       198 2.39711E+01-1.76453E-01-4.38606E-03 7.56424E-02-2.47480E-14-7.28500E-14
 -1       199 2.38058E+01-1.08472E-01-4.29797E-03-2.72521E-01-3.43267E-14-1.53192E-13
 -1       200 2.34304E+01-4.90569E-02-3.18047E-03-4.66245E-01 5.41047E-14-2.65261E-14
 -1       201 2.29507E+01-8.10869E-03-1.74838E-03-5.37401E-01-1.45783E-13-1.00341E-13
 -1       202 2.24460E+01 1.54637E-02-4.87913E-04-5.28771E-01-2.20960E-14-1.18115E-13
 -1       203 2.19671E+01 2.64249E-02 4.00010E-04-4.76629E-01 1.47301E-13-1.16341E-13
 -1       204 2.15412E+01 2.95244E-02 9.13090E-04-4.06147E-01 4.34827E-14-1.44582E-13
 -1       205 2.11793E+01 2.82991E-02 1.13446E-03-3.32606E-01-4.92421E-14-9.96921E-14
 -1       206 2.08821E+01 2.50333E-02 1.16278E-03-2.64199E-01-8.93301E-14-2.07616E-13
 -1       207 2.06446E+01 2.10678E-02 1.08027E-03-2.04607E-01 2.55376E-14-2.21759E-13
 -1       208 2.04593E+01 1.71247E-02 9.44780E-04-1.54881E-01 1.15838E-14-3.90657E-14
 -1       209 2.03178E+01 1.35524E-02 7.92723E-04-1.14666E-01-1.41028E-13 4.89925E-14
 -1       210 2.02119E+01 1.04868E-02 6.44830E-04-8.29446E-02 1.07554E-13 8.65025E-14
 -1       211 2.01345E+01 7.94954E-03 5.11561E-04-5.84572E-02-1.41997E-13 5.76764E-14
 -1       212 2.00792E+01 5.90558E-03 3.97116E-04-3.99310E-02-1.22568E-13 9.12413E-15
 -1       213 2.00409E+01 4.29511E-03 3.02122E-04-2.61936E-02 1.14823E-13-7.97999E-14
 -1       214 2.00152E+01 3.05114E-03 2.25325E-04-1.62218E-02-8.06418E-14-3.04423E-13
 -1       215 1.99988E+01 2.10848E-03 1.64594E-04-9.15350E-03 2.20902E-13-2.27190E-13
 -1       216 1.99891E+01 1.40803E-03 1.17513E-04-4.28152E-03 5.29593E-14-3.68561E-13
 -1       217 1.99840E+01 8.98469E-04 8.16911E-05-1.03862E-03 5.59719E-14-7.59740E-14
 -1       218 1.99822E+01 5.36479E-04 5.49316E-05 1.02137E-03 1.72887E-14-1.16611E-14
 -1       219 1.99824E+01 2.86244E-04 3.52927E-05 2.24239E-03-5.98153E-14-3.58332E-14
 -1       220 1.99838E+01 1.18507E-04 2.11020E-05 2.88369E-03-1.07272E-13-2.31696E-13
 -1       221 1.99860E+01 9.44044E-06 1.09431E-05 3.13503E-03 1.71065E-13-6.18872E-15
 -1       222 1.99886E+01-6.06175E-05 3.64570E-06 3.12906E-03 8.88740E-14 3.85309E-13
 -1       223 1.99912E+01-1.08506E-04-1.66471E-06 2.95072E-03 3.61802E-13 5.36849E-13
 -1       224 1.99936E+01-1.49652E-04-5.39016E-06 2.64359E-03 2.59122E-13 6.79290E-13
 -1       225 1.99958E+01-1.99900E-04-7.16695E-06 2.21358E-03 9.14412E-14 4.21189E-13
 -1       226 1.99976E+01-2.75301E-04-7.51973E-06 1.63498E-03-4.26871E-14 4.79604E-13
 -1       227 1.99989E+01-3.72909E-04-4.74702E-06 8.86812E-04-2.00323E-13 4.57259E-13
 -1       228 2.26310E+01 2.58871E-01-4.64576E-02 7.46911E-01 1.14204E-13 4.62224E-13
 -1       229 2.19770E+01 1.23583E-01 9.65856E-03 4.74499E-02 1.14419E-13 3.67676E-13
 -1       230 2.19265E+01 5.85404E-02 1.20531E-02-2.43293E-01 6.00973E-14 2.66744E-13
 -1       231 2.21699E+01 2.05504E-02 6.20556E-03-3.70963E-01 1.56046E-14 2.21676E-13
 -1       232 2.25333E+01-1.43616E-02 2.39111E-03-3.85332E-01 1.15888E-14 2.17448E-13
 -1       233 2.28756E+01-5.50022E-02 1.22420E-03-2.84349E-01 1.66525E-14 1.92888E-13
 -1       234 2.30607E+01-9.94952E-02 1.99294E-03-5.67976E-02 6.25641E-14 1.64370E-13
 -1       235 2.29620E+01-1.34069E-01 3.68444E-03 2.85992E-01 5.26354E-14 1.79485E-13
 -1       236 2.24994E+01-1.32809E-01 4.56674E-03 6.75623E-01 8.75788E-14 6.83247E-14
 -1       237 2.17011E+01-6.93078E-02 2.60325E-03 9.68063E-01 4.89114E-14 1.72154E-14
 -1       238 2.07583E+01 5.52647E-02-2.53853E-03 9.82105E-01-2.31586E-16-2.17942E-14
 -1       239 2.00044E+01 1.89284E-01-8.12531E-03 6.14485E-01-1.38227E-13-3.50948E-14
 -1       240 1.97735E+01 2.50910E-01-9.35854E-03-3.92840E-02 1.60362E-13-2.49620E-14
 -1       241 2.01958E+01 1.96568E-01-4.69417E-03-6.94554E-01 7.88467E-14-3.78447E-14
 -1       242 2.11029E+01 6.60520E-02 1.84934E-03-1.06589E+00-3.26654E-14-3.06283E-14
 -1       243 2.21459E+01-5.89714E-02 5.67094E-03-1.05706E+00-1.24321E-13-8.24913E-14
 -1       244 2.30028E+01-1.26804E-01 5.03082E-03-7.69012E-01 1.14758E-13 6.69369E-14
 -1       245 2.35029E+01-1.33334E-01 2.35080E-03-3.79498E-01-2.29547E-15-9.23079E-15
 -1       246 2.36309E+01-1.03764E-01-3.59838E-04-2.96800E-02-5.81484E-14-2.50943E-14
 -1       247 2.34646E+01-6.41138E-02-1.84432E-03 2.15683E-01-8.47087E-14-1.94933E-14
 -1       248 2.31107E+01-2.96797E-02-2.09106E-03 3.51406E-01 8.49890E-14 1.69597E-14
 -1       249 2.26656E+01-5.57916E-03-1.62881E-03 4.00996E-01 2.08488E-13-4.74829E-14
 -1       250 2.22010E+01 8.71222E-03-9.49154E-04 3.94110E-01-9.63832E-14-9.40645E-14
 -1       251 2.17621E+01 1.56960E-02-3.36802E-04 3.55859E-01-1.65385E-13-8.50726E-14
 -1       252 2.13731E+01 1.79587E-02 1.02352E-04 3.03947E-01-6.52319E-14 1.06212E-13
 -1       253 2.10435E+01 1.75057E-02 3.65391E-04 2.49388E-01 1.58477E-14 1.15943E-13
 -1       254 2.07739E+01 1.56882E-02 4.90484E-04 1.98282E-01 2.28886E-14 2.77554E-13
 -1       255 2.05594E+01 1.33368E-02 5.22380E-04 1.53500E-01-1.55665E-13 4.18833E-13
 -1       256 2.03929E+01 1.09233E-02 4.98411E-04 1.15971E-01-3.98410E-14 4.61056E-13
 -1       257 2.02667E+01 8.69147E-03 4.45338E-04 8.55397E-02 5.72481E-14 4.28706E-13
 -1       258 2.01731E+01 6.74851E-03 3.80591E-04 6.15131E-02 5.54073E-15 5.18253E-13
 -1       259 2.01054E+01 5.12410E-03 3.14660E-04 4.29790E-02-8.97522E-14 9.19130E-14
 -1       260 2.00577E+01 3.80644E-03 2.53318E-04 2.89907E-02 1.71980E-13 5.10977E-14
 -1       261 2.00252E+01 2.76374E-03 1.99318E-04 1.86615E-02-2.03068E-15 2.02373E-13
 -1       262 2.00041E+01 1.95659E-03 1.53573E-04 1.12096E-02 2.54413E-13 6.69227E-14
 -1       263 1.99911E+01 1.34477E-03 1.15939E-04 5.97207E-03 1.18418E-13-1.43227E-13
 -1       264 1.99840E+01 8.90779E-04 8.57087E-05 2.40366E-03-1.50854E-13 9.65267E-14
 -1       265 1.99808E+01 5.61514E-04 6.19197E-05 6.66191E-05 2.07672E-14 2.14808E-13
 -1       266 1.99803E+01 3.28699E-04 4.35331E-05-1.38276E-03-6.10626E-14 5.58673E-13
 -1       267 1.99815E+01 1.68759E-04 2.95367E-05-2.20836E-03-2.66808E-13 7.00933E-13
 -1       268 1.99837E+01 6.22916E-05 1.89944E-05-2.60766E-03 5.86176E-14 5.37351E-13
 -1       269 1.99863E+01-6.64631E-06 1.10749E-05-2.72332E-03 1.27788E-13 3.92219E-13
 -1       270 1.99891E+01-5.14353E-05 5.14734E-06-2.65267E-03 4.46638E-13 2.00603E-13
 -1       271 1.99919E+01-8.38984E-05 1.04333E-06-2.45428E-03 8.75523E-14 1.57967E-13
 -1       272 1.99944E+01-1.15092E-04-6.82432E-07-2.15240E-03-1.83020E-14 9.98112E-14
 -1       273 1.99966E+01-1.56612E-04 1.03286E-06-1.73962E-03 1.05206E-13-1.16691E-13
 -1       274 1.99982E+01-2.25462E-04 1.47165E-06-1.18021E-03 3.05582E-13-3.82385E-13
 -1       275 1.99993E+01-2.69353E-04-4.57267E-06-4.77685E-04 1.21511E-13-5.67123E-13
 -1       276 1.99995E+01-9.32910E-04-5.43922E-06-9.02219E-04-7.90261E-14 6.61424E-13
 -1       277 1.99996E+01-2.15863E-03-2.40992E-06-1.52110E-03 2.82705E-13 1.00584E-12
 -1       278 1.99997E+01-3.68626E-03-1.16022E-06-1.82612E-03 3.98343E-13 7.30257E-13
 -1       279 1.99999E+01-5.30394E-03 1.19469E-06-1.81889E-03 2.40160E-13-2.50227E-13
 -1       280 1.99999E+01-6.77564E-03 4.43119E-06-1.57072E-03 1.14394E-13-4.71465E-13
 -1       281 2.00000E+01-7.97613E-03 7.16014E-06-1.14073E-03 3.87545E-13-1.65207E-13
 -1       282 2.00000E+01-8.74579E-03 8.94039E-06-5.95849E-04 3.06197E-13-1.23927E-13
 -1       283 2.00000E+01-9.00832E-03 9.53538E-06 4.39069E-06 2.22309E-13-2.11742E-13
 -1       284 2.00000E+01-8.73822E-03 8.93508E-06 6.04334E-04 1.86295E-14-1.88912E-13
 -1       285 2.00000E+01-7.96140E-03 7.14109E-06 1.14847E-03-2.18334E-13-2.20156E-13
 -1       286 1.99999E+01-6.77954E-03 4.25979E-06 1.57110E-03-3.66047E-13-8.76881E-14
 -1       287 1.99999E+01-5.27996E-03 1.15549E-06 1.82158E-03-1.43853E-13-2.00157E-13
 -1       288 1.99997E+01-3.66198E-03-1.55895E-06 1.82509E-03-2.75878E-13 3.40807E-13
 -1       289 1.99996E+01-2.14217E-03-5.87082E-06 1.49914E-03-4.98949E-13 1.19162E-13
 -1       290 1.99993E+01-1.17682E-03-7.85172E-06 1.36831E-03-5.20090E-13-3.71162E-13
 -1       291-6.55253E-01-9.75525E+00-7.93480E-01 1.41744E+00 2.16716E-13 4.14030E-13
 -1       292 3.90059E+00-7.48351E+00-5.24919E-01 4.49225E+00 3.12889E-13 2.85438E-13
 -1       293 1.01810E+01-4.82693E+00-4.40229E-01 5.75840E+00 3.93185E-13 3.19342E-13
 -1       294 1.94523E+01-1.05749E+00-7.91063E-02 7.11130E+00 3.49054E-13 1.47965E-13
 -1       295 2.96106E+01 2.68002E+00 3.54223E-01 7.54820E+00 2.96027E-13 2.56406E-13
 -1       296 3.89303E+01 4.95522E+00 7.11690E-01 6.15926E+00 2.51358E-13 1.97731E-13
 -1       297 4.24705E+01 6.83417E+00 6.41353E-01 1.82280E+00 3.38701E-13-1.21181E-13
 -1       298 4.60536E+01 6.83582E+00 9.36568E-01-1.00311E+00 3.25850E-13-2.58862E-13
 -1       299 4.18743E+01 5.95834E+00 7.66482E-01-4.09628E+00 3.88967E-13-4.18804E-13
 -1       300 3.43851E+01 3.87642E+00 5.46791E-01-7.22448E+00 4.13128E-13-5.66602E-13
 -1       301 2.37288E+01 9.61495E-01 1.22014E-01-7.72048E+00 4.45727E-13-6.37157E-13
 -1       302 1.31997E+01-3.02579E+00-3.49878E-01-6.40985E+00 4.09117E-13-4.99295E-13
 -1       303 5.20773E+00-7.10945E+00-7.18924E-01-4.31553E+00 2.69507E-13-3.72774E-13
 -1       304 2.30053E-01-1.02189E+01-9.68024E-01-2.04767E+00 1.08275E-13-2.81816E-13
 -1       305-1.28666E+00-1.12354E+01-1.02507E+00 5.62140E-02-1.17077E-13-3.51358E-13
 -1       306 6.04851E-01-9.56632E+00-8.60384E-01 2.42079E+00-2.25930E-13-4.02303E-13
 -1       307 5.50103E+00-6.99262E+00-6.91702E-01 4.43880E+00-4.79811E-13-2.92785E-13
 -1       308 1.45648E+01-3.47823E+00-2.74673E-01 6.66212E+00-3.91770E-13-3.22645E-13
 -1       309 2.55548E+01-7.53416E-01 7.79092E-02 6.55104E+00-2.51993E-13-2.29261E-13
 -1       310 3.44710E+01 3.61605E+00 4.85820E-01 6.59813E+00-3.17725E-13-2.58127E-13
 -1       311 4.08424E+01 5.91438E+00 6.08041E-01 3.19896E+00-3.11612E-13-3.10307E-14
 -1       312 4.70047E+01 6.68566E+00 1.04765E+00 1.12943E+00-3.50386E-13 4.26048E-14
 -1       313 4.52562E+01 6.51877E+00 9.59503E-01-2.46535E+00-4.10366E-13 2.89296E-13
 -1       314 3.97820E+01 5.08810E+00 7.80216E-01-6.04041E+00-4.35372E-13 6.67133E-13
 -1       315 3.01972E+01 2.74462E+00 3.68458E-01-7.50504E+00-7.36508E-13 7.60503E-13
 -1       316 1.97913E+01-1.00604E+00-7.66265E-02-7.09691E+00-6.85146E-13 6.78152E-13
 -1       317 9.44607E+00-4.82135E+00-5.23632E-01-5.44109E+00-5.92748E-13 8.03871E-13
 -1       318 2.52314E+00-8.73547E+00-8.52321E-01-3.18064E+00-3.86691E-13 4.91177E-13
 -1       319-9.18943E-01-1.09678E+01-1.00336E+00-1.00424E+00-1.18058E-13 3.74908E-13
 -1       320 2.08489E+01 3.09473E+00-1.88798E-02-1.22139E+00-1.36495E-13-5.72485E-14
 -1       321 2.19844E+01 2.19336E+00-1.65303E-02-1.56600E+00-1.57970E-13 5.46906E-14
 -1       322 1.90841E+01 4.00413E+00-1.24928E-02-5.11062E-01-7.83961E-14-1.56253E-13
 -1       323 1.84289E+01 4.26881E+00-9.43399E-03-2.84743E-01-4.31578E-14-1.66528E-13
 -1       324 1.79707E+01 4.44021E+00-7.42149E-03-1.44038E-01-3.02010E-15-1.68005E-13
 -1       325 1.77444E+01 4.51931E+00-6.46494E-03-5.91577E-02 3.88268E-14-1.66842E-13
 -1       326 1.77685E+01 4.50467E+00-6.55337E-03 1.12438E-02 6.19474E-14-1.65948E-13
 -1       327 1.80369E+01 4.39931E+00-7.70420E-03 1.10964E-01 8.59828E-14-1.74662E-13
 -1       328 1.85107E+01 4.21337E+00-9.93175E-03 2.73560E-01 1.07628E-13-1.54876E-13
 -1       329 1.91671E+01 3.94085E+00-1.33387E-02 5.26930E-01 1.44729E-13-1.23538E-13
 -1       330 1.99676E+01 3.56149E+00-1.80240E-02 8.72199E-01 1.72338E-13-7.13769E-14
 -1       331 2.09124E+01 3.00554E+00-2.22055E-02 1.27825E+00 1.92141E-13 9.19490E-15
 -1       332 2.19615E+01 2.10577E+00-2.94274E-02 1.57493E+00 1.84714E-13 1.50928E-13
 -1       333 2.25554E+01 1.14934E+00-2.20401E-02 1.29768E+00 1.60200E-13 2.62892E-13
 -1       334 2.21430E+01 4.82453E-01 8.84192E-03 2.95239E-01 1.39232E-13 2.03758E-13
 -1       335 2.20918E+01 7.00854E-01 1.27506E-02-2.03978E-01-1.03610E-13 7.53257E-14
 -1       336 2.19864E+01 3.65859E-01 6.92461E-03 4.10190E-01-9.97345E-14 8.78997E-14
 -1       337 2.20923E+01 1.54261E-01 2.86770E-03 7.37066E-01-5.74969E-14 8.18270E-14
 -1       338 2.23508E+01-5.03219E-02-7.62239E-04 8.42180E-01-3.13037E-14 5.65895E-14
 -1       339 2.27035E+01-2.89454E-01-3.64505E-03 7.16701E-01-3.64140E-15 1.27679E-13
 -1       340 2.30831E+01-5.54209E-01-5.71456E-03 3.30677E-01-2.98594E-14 1.41817E-13
 -1       341 2.33991E+01-7.66935E-01-6.16681E-03-3.14234E-01-1.31880E-14 2.27700E-13
 -1       342 2.35302E+01-7.70854E-01-4.80724E-03-1.10913E+00-2.07839E-14 1.89383E-13
 -1       343 2.33604E+01-3.92798E-01-2.64710E-03-1.76610E+00-6.48925E-14 1.49028E-13
 -1       344 2.28963E+01 3.71030E-01-1.21874E-03-1.85900E+00-1.15442E-13 5.10273E-14
 -1       345 2.23890E+01 1.16836E+00-2.77533E-03-1.10027E+00-1.25001E-13-6.36505E-14
 -1       346 2.22258E+01 1.45230E+00-5.17523E-03 2.79042E-01-9.82070E-14-4.84127E-14
 -1       347 2.25733E+01 9.87042E-01-1.54369E-03 1.55126E+00-1.37401E-13-3.02703E-14
 -1       348 2.31628E+01 1.44765E-01-1.68453E-03 2.07926E+00-4.09161E-14-8.09177E-14
 -1       349 2.36147E+01-5.35961E-01-2.87596E-03 1.79356E+00 6.93813E-14-9.10279E-14
 -1       350 2.37421E+01-8.05573E-01-5.23874E-03 1.05416E+00 2.31666E-14-1.26571E-13
 -1       351 2.35794E+01-7.37003E-01-6.55899E-03 2.62037E-01 4.02692E-14-1.33893E-13
 -1       352 2.32430E+01-5.14298E-01-5.75355E-03-3.52782E-01-2.29955E-14 6.41175E-15
 -1       353 2.28324E+01-2.79417E-01-3.93649E-03-7.29698E-01 5.67957E-14 1.99008E-14
 -1       354 2.24087E+01-9.72259E-02-2.05087E-03-9.00280E-01 1.56534E-14-3.77057E-14
 -1       355 2.20043E+01 1.99578E-02-5.69125E-04-9.25556E-01-7.29780E-14 1.14865E-13
 -1       356 2.16356E+01 8.34013E-02 3.88191E-04-8.63513E-01-1.57073E-14 2.07907E-13
 -1       357 2.13103E+01 1.09886E-01 9.02411E-04-7.57820E-01-1.74352E-14-1.77507E-13
 -1       358 2.10309E+01 1.13940E-01 1.10383E-03-6.37254E-01 3.45706E-14-3.61358E-13
 -1       359 2.07965E+01 1.05915E-01 1.11241E-03-5.18847E-01-1.12541E-13-3.41216E-13
 -1       360 2.06040E+01 9.24146E-02 1.01733E-03-4.11513E-01 2.78495E-14-9.68196E-14
 -1       361 2.04492E+01 7.73182E-02 8.76993E-04-3.19024E-01 1.53733E-13-1.40106E-13
 -1       362 2.03270E+01 6.27254E-02 7.26084E-04-2.42128E-01 2.72955E-14-1.70258E-13
 -1       363 2.02323E+01 4.96474E-02 5.83224E-04-1.79932E-01 9.60442E-14 1.13124E-15
 -1       364 2.01603E+01 3.84649E-02 4.57078E-04-1.30766E-01 1.08610E-14 1.23957E-13
 -1       365 2.01066E+01 2.92133E-02 3.50536E-04-9.26862E-02-5.52872E-14 3.71937E-13
 -1       366 2.00674E+01 2.17519E-02 2.63368E-04-6.37601E-02-5.21529E-14 4.21170E-13
 -1       367 2.00395E+01 1.58623E-02 1.93813E-04-4.22121E-02-1.51864E-13 1.75938E-13
 -1       368 2.00202E+01 1.13036E-02 1.39489E-04-2.64881E-02 6.62679E-15-5.33248E-15
 -1       369 2.00073E+01 7.84126E-03 9.78911E-05-1.52739E-02 5.91710E-14-1.07160E-13
 -1       370 1.99991E+01 5.26233E-03 6.66513E-05-7.48648E-03 1.10697E-13-4.87346E-14
 -1       371 1.99943E+01 3.38082E-03 4.36543E-05-2.25343E-03 4.13778E-14-1.66358E-13
 -1       372 1.99919E+01 2.03901E-03 2.70767E-05 1.11392E-03 1.42083E-13-7.14278E-14
 -1       373 1.99911E+01 1.10561E-03 1.53811E-05 3.14780E-03-1.51287E-13 1.83700E-13
 -1       374 1.99914E+01 4.72581E-04 7.28437E-06 4.24967E-03 6.71788E-14 1.86378E-13
 -1       375 1.99923E+01 5.10990E-05 1.72294E-06 4.71288E-03 4.44716E-13 1.26900E-13
 -1       376 1.99935E+01-2.32812E-04-2.17237E-06 4.74143E-03 4.72877E-13 3.10089E-13
 -1       377 1.99949E+01-4.42358E-04-5.07510E-06 4.46516E-03 8.98046E-14 2.18617E-13
 -1       378 1.99962E+01-6.32438E-04-7.20102E-06 3.95297E-03-9.08669E-14 3.66956E-14
 -1       379 1.99974E+01-8.52607E-04-1.06680E-05 3.22954E-03-2.88405E-14-1.61338E-14
 -1       380 1.99984E+01-1.02514E-03-1.09910E-05 2.36619E-03-2.99788E-13-2.01559E-13
 -1       381 2.19841E+01 2.28846E-01 1.00675E-02-2.44459E-01 1.23135E-13 1.97448E-13
 -1       382 2.20639E+01 9.01658E-02 4.66651E-03-5.11963E-01 5.31324E-14 1.29416E-13
 -1       383 2.22959E+01-3.15541E-02 2.34869E-04-5.85358E-01 5.75465E-15 5.35433E-14
 -1       384 2.25825E+01-1.65225E-01-2.60740E-03-4.72963E-01 7.01284E-15 4.00094E-14
 -1       385 2.28281E+01-3.07443E-01-4.13394E-03-1.64320E-01 2.57585E-14 5.04180E-14
 -1       386 2.29345E+01-4.18583E-01-4.25595E-03 3.25966E-01 1.10783E-13 7.16919E-14
 -1       387 2.28118E+01-4.21924E-01-3.05684E-03 9.07360E-01 1.21026E-13 3.50379E-14
 -1       388 2.24176E+01-2.35171E-01-1.23672E-03 1.37805E+00 2.88179E-14 9.31993E-14
 -1       389 2.18255E+01 1.46870E-01 6.86451E-04 1.46343E+00 9.09266E-15 9.07612E-14
 -1       390 2.12625E+01 5.74465E-01 2.16335E-03 9.77689E-01-3.79666E-14-4.96565E-15
 -1       391 2.10278E+01 7.91596E-01 3.67340E-03 2.38299E-02 9.77942E-14-8.19660E-14
 -1       392 2.12817E+01 6.41323E-01 4.87184E-03-9.75401E-01 4.48834E-14 8.10619E-14
 -1       393 2.18980E+01 2.32533E-01 4.07739E-03-1.56315E+00 1.80515E-14 7.46946E-14
 -1       394 2.25772E+01-1.73241E-01 1.35158E-03-1.56978E+00-5.13640E-14-1.74869E-14
 -1       395 2.30708E+01-4.03193E-01-3.01347E-03-1.14329E+00 2.01740E-14-1.32013E-13
 -1       396 2.32805E+01-4.34462E-01-5.17962E-03-5.54397E-01 8.75545E-14-6.80200E-16
 -1       397 2.32307E+01-3.44573E-01-5.72087E-03-1.95611E-02-5.48945E-14-8.03007E-14
 -1       398 2.29969E+01-2.17290E-01-4.72408E-03 3.60664E-01-6.46145E-14-7.68420E-14
 -1       399 2.26569E+01-1.03771E-01-3.06332E-03 5.75518E-01 1.57533E-14-9.38647E-14
 -1       400 2.22725E+01-2.24927E-02-1.46693E-03 6.57931E-01 1.98553E-13-9.90023E-14
 -1       401 2.18868E+01 2.69184E-02-2.59432E-04 6.51314E-01-5.08455E-14 8.00662E-14
 -1       402 2.15268E+01 5.19343E-02 5.06773E-04 5.93508E-01-2.12917E-13 6.05890E-14
 -1       403 2.12070E+01 6.07954E-02 9.06508E-04 5.11986E-01-1.31408E-13 2.28508E-14
 -1       404 2.09336E+01 6.01115E-02 1.04996E-03 4.24421E-01 9.50027E-15 1.61370E-14
 -1       405 2.07067E+01 5.44578E-02 1.03621E-03 3.41012E-01-6.58315E-14 1.15691E-13
 -1       406 2.05233E+01 4.67172E-02 9.38443E-04 2.66874E-01-1.20577E-13 2.65682E-13
 -1       407 2.03783E+01 3.85712E-02 8.04730E-04 2.03944E-01 2.66786E-14 2.10322E-13
 -1       408 2.02662E+01 3.09190E-02 6.63861E-04 1.52307E-01 2.93003E-14 2.60359E-13
 -1       409 2.01812E+01 2.41797E-02 5.31475E-04 1.11070E-01 6.92384E-14 2.36467E-13
 -1       410 2.01182E+01 1.84919E-02 4.14929E-04 7.89004E-02 2.67634E-13-8.05829E-14
 -1       411 2.00726E+01 1.38404E-02 3.16677E-04 5.43387E-02-7.58271E-14-2.02212E-13
 -1       412 2.00404E+01 1.01321E-02 2.36454E-04 3.59783E-02-5.19985E-14 1.47226E-13
 -1       413 2.00184E+01 7.24083E-03 1.72623E-04 2.25511E-02 2.18544E-13 1.76385E-13
 -1       414 2.00040E+01 5.03337E-03 1.22969E-04 1.29643E-02 1.61893E-13 4.04666E-13
 -1       415 1.99951E+01 3.38284E-03 8.51481E-05 6.30622E-03-1.93009E-13 4.34087E-13
 -1       416 1.99902E+01 2.17548E-03 5.69324E-05 1.83592E-03 1.08408E-14 3.99940E-13
 -1       417 1.99880E+01 1.31315E-03 3.63210E-05-1.03498E-03-3.46437E-13 3.92726E-13
 -1       418 1.99876E+01 7.13252E-04 2.15795E-05-2.76327E-03-5.25535E-14 5.16609E-13
 -1       419 1.99883E+01 3.07406E-04 1.12314E-05-3.69489E-03-1.00877E-13 4.00706E-13
 -1       420 1.99897E+01 3.92060E-05 4.01564E-06-4.08353E-03 2.12723E-13 4.94131E-13
 -1       421 1.99915E+01-1.38274E-04-1.14732E-06-4.10644E-03 3.43664E-13 4.67939E-13
 -1       422 1.99934E+01-2.65759E-04-4.74735E-06-3.87700E-03 1.33963E-13 5.54562E-13
 -1       423 1.99952E+01-3.77784E-04-6.76400E-06-3.45306E-03 1.32311E-13 2.14873E-13
 -1       424 1.99968E+01-5.07219E-04-7.74978E-06-2.84907E-03 1.57672E-13 2.01978E-13
 -1       425 1.99982E+01-6.74244E-04-7.82846E-06-2.05451E-03 3.78022E-13 3.74519E-13
 -1       426 1.99989E+01-8.33512E-04-7.01508E-06-1.51190E-03 3.01243E-13 5.23095E-13
 -1       427 1.99998E+01-3.73406E-03-5.45610E-07-3.07630E-03-2.46113E-13 6.38439E-14
 -1       428 1.99994E+01-2.54766E-03-6.54235E-06-2.90079E-03-5.36645E-14 1.01768E-12
 -1       429 1.99990E+01-1.66586E-03-1.00480E-05-2.32322E-03 1.51024E-13 1.00819E-12
 -1       430 2.00002E+01-4.82800E-03 3.23111E-06-2.83464E-03-2.26947E-13-7.50023E-13
 -1       431 2.00005E+01-5.76514E-03 6.44529E-06-2.25665E-03-1.01826E-13 1.98901E-13
 -1       432 2.00007E+01-6.43833E-03 8.46927E-06-1.44293E-03 2.97857E-13-2.27032E-14
 -1       433 2.00007E+01-6.78871E-03 9.47720E-06-4.91352E-04 1.25539E-13-3.40671E-13
 -1       434 2.00007E+01-6.78641E-03 9.50495E-06 5.05301E-04-8.14766E-14-4.10576E-13
 -1       435 2.00007E+01-6.43149E-03 8.45878E-06 1.45607E-03-1.00157E-13-2.84948E-13
 -1       436 2.00005E+01-5.76831E-03 6.31927E-06 2.25608E-03-9.62759E-14-2.56854E-13
 -1       437 2.00002E+01-4.83096E-03 3.16984E-06 2.83535E-03-8.68397E-14 2.60606E-13
 -1       438 1.99998E+01-3.71759E-03-3.62968E-07 3.07954E-03-4.39960E-14-6.24847E-14
 -1       439 1.99993E+01-2.53238E-03-6.91265E-06 2.91895E-03-3.20330E-13-2.66718E-13
 -1       440 1.17325E+01-5.57096E+00-1.67034E-02 7.04786E+00 1.14214E-14 5.56777E-14
 -1       441 1.12112E+00-4.44400E+00-6.12043E-02-1.52931E-01 3.58199E-14 6.24001E-13
 -1       442 4.32993E+00-4.11249E+00 4.08808E-02 4.50087E+00 4.35763E-14 2.57933E-13
 -1       443 1.94383E+01-5.32301E+00-2.13433E-02 6.53941E+00 9.02611E-14-4.88776E-14
 -1       444 2.74008E+01-3.11080E+00 2.92662E-03 3.93623E+00 1.43933E-13 1.11855E-14
 -1       445 1.98936E+01 3.63406E+00-1.85332E-02-8.36287E-01-1.07017E-13-1.19054E-13
 -1       446 3.39977E+01 4.72532E+00-2.69629E-02-4.67702E-01 3.06200E-13-8.08659E-14
 -1       447 3.54026E+01 8.00090E+00 1.26842E-02-1.33949E-01 3.37647E-13-9.19820E-14
 -1       448 3.53599E+01 7.16022E+00 3.97048E-02 2.77116E-01 3.70370E-13 6.00214E-15
 -1       449 3.26873E+01 2.48714E+00-7.04153E-02 3.07777E-01 1.86844E-13-2.17881E-15
 -1       450 3.06751E+01-1.21519E+00 1.87158E-02-2.18557E+00 1.23006E-13-7.25947E-14
 -1       451 2.29506E+01-4.61711E+00-1.96193E-02-5.90247E+00 7.21367E-14-2.83704E-13
 -1       452 1.40221E+01-5.66172E+00-5.75373E-02-7.14889E+00 2.12885E-14-3.61565E-13
 -1       453 6.28981E+00-5.15841E+00-6.27574E-02-5.85310E+00-3.79557E-14-2.81039E-13
 -1       454 1.39915E+00-4.96335E+00-1.21494E-01-2.09123E+00-6.09582E-14-3.18717E-13
 -1       455 1.90176E+00-4.31534E+00-4.56057E-02 2.29180E+00 1.32463E-14-4.06675E-13
 -1       456 7.43845E+00-4.83968E+00 2.16317E-02 6.20298E+00 4.57828E-14-2.51799E-13
 -1       457 1.41552E+01-5.72022E+00-2.28002E-02 7.16309E+00-3.37785E-14-3.40249E-14
 -1       458 2.28804E+01-4.78741E+00-2.11385E-02 5.76350E+00-4.85861E-14 2.16563E-14
 -1       459 3.03912E+01-1.06089E+00-8.98499E-03 2.26089E+00-1.31809E-13 1.01683E-13
 -1       460 3.35688E+01 2.85622E+00-2.03869E-02 1.29369E-01-2.17007E-13 1.40332E-13
 -1       461 3.47321E+01 7.30751E+00-1.07335E-03-4.68445E-01-3.24712E-13 5.43107E-14
 -1       462 3.52128E+01 8.01047E+00 8.03997E-03 2.75968E-01-4.94688E-13-9.27210E-15
 -1       463 3.59304E+01 5.52666E+00 1.00794E-01-7.46858E-02-5.41456E-13 1.28300E-13
 -1       464 3.30365E+01 1.40643E+00 6.84714E-02-1.72448E+00-4.67964E-13 2.76501E-13
 -1       465 2.78265E+01-3.16928E+00 8.42466E-04-3.68582E+00-3.68552E-13 3.40603E-13
 -1       466 1.90887E+01-5.37722E+00-4.28771E-02-6.54866E+00-2.75530E-13 4.28511E-13
 -1       467 1.02939E+01-5.72402E+00-6.94318E-02-6.72534E+00-1.31117E-13 6.33271E-13
 -1       468 3.79887E+00-4.69154E+00-4.11511E-02-4.37457E+00-9.84074E-14 5.07497E-13
 -1       469 3.26141E+01 1.18798E+00 2.73865E-02 1.26112E+00 1.28220E-13-6.12149E-14
 -1       470 3.11520E+01 6.23486E+00-1.56607E-01-1.41103E+00 3.73201E-13-1.71065E-13
 -1       471 2.77481E+01-4.38811E+00-1.60074E-02 2.64946E+00-4.83988E-15 1.14388E-13
 -1       472 2.17456E+01 8.56506E-01 3.83009E-03 8.60977E-02 1.30018E-13 8.10313E-14
 -1       473 1.82565E+01 3.78414E+00-3.22130E-03-1.24597E-02-8.25419E-15-1.40445E-13
 -1       474 1.88931E+01 3.45684E+00-4.14854E-03-9.42069E-02-4.08591E-14-1.40142E-13
 -1       475 1.77433E+01 4.02991E+00-2.41704E-03-4.16239E-02 5.28347E-14-1.47286E-13
 -1       476 1.79213E+01 3.93493E+00-2.66360E-03-6.46277E-02 6.65493E-14-1.56405E-13
 -1       477 1.83553E+01 3.71086E+00-3.40631E-03-3.00730E-02 9.18973E-14-1.45115E-13
 -1       478 1.90066E+01 3.36668E+00-4.59208E-03 8.93405E-02 1.28851E-13-1.21707E-13
 -1       479 1.98068E+01 2.91168E+00-5.86803E-03 2.88597E-01 1.42228E-13-9.28910E-14
 -1       480 2.07088E+01 2.31933E+00-5.61681E-03 5.26470E-01 1.52005E-13-2.56403E-14
 -1       481 2.17317E+01 4.46238E-01 4.50792E-03-4.58816E-01 1.20004E-13 5.38725E-14
 -1       482 2.14855E+01 1.07562E+00 3.42761E-03 1.17020E-01-8.49199E-14-1.42809E-14
 -1       483 2.92183E+01-2.30418E+00-5.64697E-02 2.82541E-01 2.61189E-14-1.58124E-13
 -1       484 2.46910E+01-5.38671E+00-1.67502E-03 3.95815E+00-7.23935E-14-1.47351E-13
 -1       485 2.15332E+01 5.93796E-01 1.75893E-03 6.83949E-01-7.25285E-14 2.33635E-14
 -1       486 2.16896E+01 1.97488E-01 2.17067E-04 1.02494E+00-3.95978E-14 5.36900E-14
 -1       487 2.19994E+01-2.32625E-01-1.20667E-03 1.13320E+00 5.66265E-15 7.59030E-14
 -1       488 2.24832E+01-7.36048E-01-2.56020E-03 9.69863E-01 4.02364E-15 9.36191E-14
 -1       489 2.31291E+01-1.25612E+00-3.45178E-03 4.79295E-01-9.14790E-15 9.00224E-14
 -1       490 2.38475E+01-1.58833E+00-3.31889E-03-3.55963E-01-2.25472E-14 5.34631E-14
 -1       491 2.44175E+01-1.36664E+00-5.90162E-03-1.39393E+00-4.16145E-14 1.04061E-13
 -1       492 2.45497E+01-2.64855E-01-1.59906E-02-2.17927E+00-1.44762E-13 1.42777E-13
 -1       493 2.41960E+01 1.49153E+00-2.45204E-02-2.01400E+00-1.47116E-13 1.77319E-13
 -1       494 2.37605E+01 2.82353E+00-3.93464E-02-6.04219E-01-1.41415E-13 1.40836E-13
 -1       495 2.38777E+01 2.55597E+00-3.17467E-02 1.28015E+00-1.33536E-13 4.90580E-14
 -1       496 2.43621E+01 1.00545E+00-2.60259E-02 2.38714E+00-1.96998E-13 7.23179E-14
 -1       497 2.46329E+01-6.49471E-01-1.08278E-02 2.23172E+00-3.21247E-14-4.18936E-14
 -1       498 2.43753E+01-1.51409E+00-3.95272E-03 1.30286E+00-6.29886E-14-8.19495E-14
 -1       499 2.37403E+01-1.56733E+00-3.98895E-03 2.65490E-01 5.64091E-14-7.77503E-14
 -1       500 2.30109E+01-1.18528E+00-3.48404E-03-5.26934E-01 1.69670E-14-5.58181E-14
 -1       501 2.23631E+01-7.08149E-01-2.51505E-03-1.00272E+00 3.46736E-14-2.30855E-14
 -1       502 2.18483E+01-3.06936E-01-1.41629E-03-1.21685E+00-5.20098E-14-2.28771E-13
 -1       503 2.14554E+01-3.09519E-02-5.20906E-04-1.25095E+00 1.06360E-14-2.12148E-13
 -1       504 2.11547E+01 1.31194E-01 4.33669E-05-1.17648E+00 7.53425E-14-1.32221E-13
 -1       505 2.09192E+01 2.09829E-01 3.51163E-04-1.04548E+00-1.10299E-13 8.07518E-14
 -1       506 2.07303E+01 2.34518E-01 4.83350E-04-8.92494E-01-1.84899E-13 1.35281E-13
 -1       507 2.05763E+01 2.27868E-01 5.08464E-04-7.38758E-01-6.43251E-14-8.27769E-14
 -1       508 2.04500E+01 2.05176E-01 4.75159E-04-5.96235E-01 6.23770E-14 2.26232E-14
 -1       509 2.03468E+01 1.75979E-01 4.14963E-04-4.70731E-01 1.19847E-14-2.20146E-14
 -1       510 2.02632E+01 1.45810E-01 3.46562E-04-3.64190E-01 1.58317E-14-1.27912E-13
 -1       511 2.01962E+01 1.17617E-01 2.80173E-04-2.76271E-01 1.30242E-13-7.97555E-14
 -1       512 2.01434E+01 9.27679E-02 2.20722E-04-2.05398E-01 1.21985E-13 6.21651E-14
 -1       513 2.01025E+01 7.17062E-02 1.70053E-04-1.49434E-01 7.90738E-14 5.73707E-14
 -1       514 2.00712E+01 5.43662E-02 1.28328E-04-1.06078E-01-7.01598E-14 9.78140E-14
 -1       515 2.00478E+01 4.04219E-02 9.48598E-05-7.31119E-02-1.76111E-13 1.46469E-13
 -1       516 2.00307E+01 2.94362E-02 6.86024E-05-4.85181E-02-9.97190E-14 4.01442E-14
 -1       517 2.00184E+01 2.09452E-02 4.84113E-05-3.05386E-02 8.80821E-14 3.15263E-13
 -1       518 2.00098E+01 1.45046E-02 3.31851E-05-1.76874E-02 7.13295E-14 2.08862E-13
 -1       519 2.00040E+01 9.71290E-03 2.19304E-05-8.73938E-03-1.52741E-13 4.12013E-14
 -1       520 2.00004E+01 6.22042E-03 1.37866E-05-2.70670E-03 5.29867E-14 9.08620E-15
 -1       521 1.99982E+01 3.73050E-03 8.02606E-06 1.19079E-03 8.11793E-14-1.30753E-14
 -1       522 1.99971E+01 1.99580E-03 4.04250E-06 3.55583E-03 1.02273E-13 2.11888E-13
 -1       523 1.99967E+01 8.12031E-04 1.32632E-06 4.84242E-03-5.43579E-14 1.39105E-13
 -1       524 1.99967E+01 1.06284E-05-5.33902E-07 5.38133E-03 2.97355E-13-9.09794E-14
 -1       525 1.99971E+01-5.48884E-04-1.86725E-06 5.40225E-03 3.54842E-13-3.26732E-13
 -1       526 1.99976E+01-9.84060E-04-2.57639E-06 5.05118E-03-3.88009E-14-1.40089E-13
 -1       527 1.99981E+01-1.39096E-03-4.13672E-06 4.41013E-03-1.88401E-13-2.53346E-13
 -1       528 2.20963E+01-1.80521E-01-1.13153E-03-8.04191E-01 4.06975E-14 4.25482E-14
 -1       529 2.24483E+01-5.20069E-01-2.82021E-03-6.11115E-01 2.50471E-14 3.03475E-14
 -1       530 2.28575E+01-8.46616E-01-3.40461E-03-1.50590E-01 6.17505E-14 2.28932E-14
 -1       531 2.32325E+01-1.02998E+00-2.72892E-03 5.48580E-01 4.56475E-14 6.70335E-14
 -1       532 2.34288E+01-8.65338E-01-2.81048E-03 1.33437E+00 2.05805E-14 1.95899E-13
 -1       533 2.33142E+01-1.96645E-01-4.08367E-03 1.86740E+00 7.86146E-14 1.54956E-13
 -1       534 2.29145E+01 8.46512E-01-6.63468E-03 1.72294E+00 4.74247E-14 1.24653E-13
 -1       535 2.25250E+01 1.72665E+00-5.35832E-03 7.28400E-01 2.86372E-14 1.04738E-13
 -1       536 2.25125E+01 1.79530E+00-5.72685E-03-7.12691E-01 3.70246E-14 8.70911E-14
 -1       537 2.29005E+01 1.01293E+00-4.73290E-03-1.81767E+00 5.67298E-14 2.67583E-14
 -1       538 2.33643E+01-5.72884E-02-2.47652E-03-2.07648E+00 1.40843E-14-5.32267E-14
 -1       539 2.35541E+01-8.03623E-01-5.16229E-03-1.61975E+00 4.22934E-14-5.69293E-14
 -1       540 2.34205E+01-1.04822E+00-3.73633E-03-8.31185E-01 4.26772E-14 3.33817E-14
 -1       541 2.30660E+01-9.21794E-01-4.19779E-03-7.54563E-02-4.95651E-14 1.21084E-13
 -1       542 2.26323E+01-6.38090E-01-3.66914E-03 4.79915E-01-1.06545E-13 1.41509E-13
 -1       543 2.22059E+01-3.49688E-01-2.46273E-03 8.08656E-01 2.76198E-14 1.57187E-13
 -1       544 2.18225E+01-1.24959E-01-1.26332E-03 9.50795E-01 1.21112E-13 1.12062E-13
 -1       545 2.14897E+01 2.31355E-02-3.47268E-04 9.63044E-01 5.80548E-14 9.38704E-14
 -1       546 2.12050E+01 1.06663E-01 2.45244E-04 8.96389E-01-6.79703E-14-5.87203E-14
 -1       547 2.09634E+01 1.44196E-01 5.65288E-04 7.89212E-01-1.57689E-13-1.56055E-13
 -1       548 2.07601E+01 1.52525E-01 6.92812E-04 6.67415E-01 5.96834E-14-2.40669E-13
 -1       549 2.05909E+01 1.44194E-01 7.00755E-04 5.46944E-01-1.16593E-13-1.79751E-13
 -1       550 2.04521E+01 1.27628E-01 6.43193E-04 4.36625E-01-9.20613E-14-1.78914E-13
 -1       551 2.03398E+01 1.08068E-01 5.56045E-04 3.40559E-01-1.23648E-13-1.69106E-13
 -1       552 2.02505E+01 8.85426E-02 4.61128E-04 2.59897E-01 2.70533E-14-1.18330E-13
 -1       553 2.01806E+01 7.06447E-02 3.70497E-04 1.94080E-01 9.73796E-14-2.08686E-13
 -1       554 2.01268E+01 5.50816E-02 2.89992E-04 1.41653E-01 2.07152E-13-1.05805E-13
 -1       555 2.00863E+01 4.20401E-02 2.21748E-04 1.00784E-01 1.39244E-14 2.87818E-13
 -1       556 2.00563E+01 3.14195E-02 1.65823E-04 6.95686E-02-1.32244E-13 2.66479E-13
 -1       557 2.00346E+01 2.29746E-02 1.21210E-04 4.62072E-02-7.37183E-15 2.65282E-13
 -1       558 2.00193E+01 1.64023E-02 8.64374E-05 2.90918E-02-6.22965E-14 4.35174E-13
 -1       559 2.00089E+01 1.13910E-02 5.99119E-05 1.68419E-02-4.69819E-14 6.73845E-13
 -1       560 2.00021E+01 7.64789E-03 4.01009E-05 8.30724E-03 1.77582E-14 5.52989E-13
 -1       561 1.99979E+01 4.91157E-03 2.56232E-05 2.55311E-03 5.06489E-14 3.43060E-13
 -1       562 1.99956E+01 2.95687E-03 1.52821E-05-1.16251E-03-1.06820E-13 6.77835E-14
 -1       563 1.99946E+01 1.59416E-03 8.06488E-06-3.41534E-03-2.65967E-14 1.31375E-13
 -1       564 1.99945E+01 6.65785E-04 3.10697E-06-4.64053E-03-1.68486E-13 1.89450E-13
 -1       565 1.99949E+01 4.08985E-05-3.45701E-07-5.15576E-03 6.55541E-14 5.06364E-13
 -1       566 1.99956E+01-3.87490E-04-2.98711E-06-5.18142E-03 2.89843E-13 6.62068E-13
 -1       567 1.99965E+01-7.17784E-04-5.47684E-06-4.86788E-03 2.00055E-13 6.17985E-13
 -1       568 1.99973E+01-1.03290E-03-8.48992E-06-4.28935E-03 1.18905E-13 6.65360E-13
 -1       569 1.99982E+01-1.35648E-03-6.99120E-06-3.45801E-03 1.00644E-13 8.32147E-13
 -1       570 2.00009E+01-4.15066E-03 2.51534E-06-3.27595E-03 3.60928E-14-3.13214E-13
 -1       571 2.00014E+01-4.70050E-03 3.56073E-06-2.36392E-03-1.00041E-13 2.68352E-13
 -1       572 1.99995E+01-2.56139E-03-2.95656E-06-3.99718E-03-3.36067E-13 1.26157E-13
 -1       573 2.00003E+01-3.41475E-03-1.03431E-06-3.83844E-03-2.97413E-13-2.83984E-13
 -1       574 2.00017E+01-5.04178E-03 4.01265E-06-1.23223E-03-8.36981E-14-2.41090E-13
 -1       575 2.00018E+01-5.15654E-03 4.33318E-06 8.43284E-06 7.68334E-14-3.60277E-13
 -1       576 2.00017E+01-5.03955E-03 4.17353E-06 1.24869E-03 1.68498E-13-1.51262E-13
 -1       577 2.00014E+01-4.70388E-03 3.53173E-06 2.36151E-03 2.55267E-13-3.90182E-13
 -1       578 2.00010E+01-4.15618E-03 2.09110E-06 3.27499E-03 1.81682E-13-2.74058E-13
 -1       579 2.00003E+01-3.41094E-03 4.86269E-07 3.84024E-03 3.30554E-14-2.11498E-13
 -1       580 1.99995E+01-2.54095E-03-2.97020E-06 3.97372E-03-3.41642E-13-2.97657E-13
 -1       581 5.23004E+00-1.26428E+00 1.75023E-01 1.82350E+00-4.64663E-14 4.92495E-13
 -1       582 1.94343E+01-5.46355E+00 8.23214E-02 6.25739E+00-1.87676E-13-1.15133E-13
 -1       583 2.18497E+01 1.31410E-01 1.28504E-03-7.48830E-01 5.82623E-14 4.97590E-14
 -1       584 5.16305E+00-1.50255E+00 1.80729E-01-2.19039E+00 3.67692E-14 6.72046E-13
 -1       585 1.14402E+01-3.31540E+00 1.47251E-01 6.22734E+00-1.35544E-13-1.29445E-13
 -1       586 3.01739E+01 9.29122E-01-1.21341E-01-1.42579E+00 5.24511E-14-9.45563E-14
 -1       587 1.00526E+01-3.62193E+00 1.30715E-01-6.21690E+00-4.52971E-14 5.59115E-13
 -1       588 2.11074E+01-5.61366E+00 6.19199E-02 5.78295E+00 5.85157E-14 8.33895E-14
 -1       589 7.66942E+00-1.78492E+00 1.86396E-01 4.43846E+00 1.11362E-13-2.84175E-13
 -1       590 2.98382E+01 4.58179E+00-1.76286E-01 1.74657E+00 3.07837E-13 2.39746E-13
 -1       591 1.78585E+01 3.97898E+00-2.67606E-03-7.17957E-03 3.36226E-14-1.32222E-13
 -1       592 3.02686E+01 7.09685E+00-1.85837E-01 4.31023E-01 2.74517E-13 9.10712E-14
 -1       593 2.06743E+01-5.63788E+00 4.65212E-02-6.16197E+00-7.84095E-14-2.19959E-13
 -1       594 2.95810E+01-9.42691E-01-1.02951E-01 7.72802E-01 1.10675E-13 5.90916E-14
 -1       595 2.70930E+01-4.51788E+00-2.09313E-02-2.50010E+00-6.38829E-14 1.66950E-14
 -1       596 1.29906E+01-4.44463E+00 1.06911E-01-6.99035E+00-8.77076E-14-3.43559E-13
 -1       597 6.15076E+00-2.42231E+00 1.36852E-01-4.31676E+00-4.89400E-14-2.79651E-13
 -1       598 4.06367E+00-1.61057E+00 1.54250E-01-3.43821E-01 5.24461E-15-2.85674E-13
 -1       599 1.38572E+01-4.12309E+00 1.27705E-01 6.75482E+00 1.37376E-13-4.07591E-14
 -1       600 3.13387E+01 2.39724E+00-1.13620E-01 1.52237E+00-3.08940E-13-2.12080E-13
 -1       601 3.01850E+01-5.08143E-01-1.04510E-01-8.59447E-01-1.50522E-13 1.72244E-13
 -1       602 2.98558E+01 4.11302E+00-1.69228E-01-2.05814E+00-2.16903E-13 1.39881E-13
 -1       603 2.97660E+01 6.96359E+00-1.83575E-01-3.27370E-01-3.28265E-13 1.56944E-13
 -1       604 2.96604E+01 5.68873E+00-1.89170E-01 1.78081E+00-3.84220E-13-5.10356E-14
 -1       605 2.96508E+01-1.88123E+00-8.54821E-02-1.38189E-01-1.61794E-13-2.46553E-13
 -1       606 2.46789E+01-5.36484E+00 2.22739E-02-4.10716E+00-1.08635E-13 3.74180E-14
 -1       607 1.71928E+01-5.44416E+00 7.47129E-02-6.71402E+00-8.02414E-14 5.13325E-13
 -1       608 2.12779E+01 1.86916E+00-5.90260E-03-5.59778E-01-1.23489E-13-2.28716E-14
 -1       609 2.18735E+01 1.30701E+00-1.57238E-03 7.32338E-01 1.65021E-13 1.10228E-13
 -1       610 2.81457E+01 6.32246E+00-1.63544E-01-8.10270E-01 2.18103E-13 2.12504E-14
 -1       611 1.97009E+01 3.01291E+00-5.98622E-03-2.60778E-01-7.53335E-14-1.17985E-13
 -1       612 2.71022E+01-4.30345E+00-4.09370E-02-1.23228E+00 2.93515E-15-3.72865E-13
 -1       613 9.86028E+00-1.11197E+00 1.46129E-01 4.21260E+00-1.56965E-13 1.13069E-13
 -1       614 2.88836E+01 3.04249E+00-1.46703E-01-2.30205E+00 2.81733E-13-1.77545E-13
 -1       615 2.82088E+01 1.56320E+00-1.14253E-01 2.28353E+00 2.28751E-13 2.62831E-13
 -1       616 1.99985E+01-1.67230E-03-5.28948E-06 3.82217E-03-2.35933E-13-1.51778E-13
 -1       617 1.80870E+01 3.27846E+00-8.60930E-04-2.88086E-01 7.26039E-14-1.41097E-13
 -1       618 1.77121E+01 3.49245E+00-6.30409E-04-1.54353E-01 4.78355E-14-1.50081E-13
 -1       619 1.95295E+01 2.44591E+00-1.25470E-03-2.51819E-01 1.08604E-13-1.01437E-13
 -1       620 2.04036E+01 1.88673E+00-1.77198E-03-1.23526E-01 1.29403E-13-6.61428E-14
 -1       621 2.11644E+01 1.11726E+00 2.55214E-03-2.51614E-01 1.33151E-13-7.56220E-15
 -1       622 2.68236E+01 5.45689E+00-1.37420E-01 8.15227E-01-3.24615E-13 2.56190E-14
 -1       623 2.08880E+01 7.37809E-01 2.42071E-04 1.01359E+00-3.53969E-14-8.63404E-15
 -1       624 2.11015E+01 1.55560E-01-1.53096E-04 1.37846E+00-1.08847E-14 3.39406E-14
 -1       625 2.15243E+01-5.30517E-01-6.51105E-04 1.54799E+00 8.29551E-15 1.67621E-14
 -1       626 2.22506E+01-1.34611E+00-9.63637E-04 1.44668E+00 1.92003E-14 4.27892E-14
 -1       627 2.33293E+01-2.16439E+00-6.79310E-04 9.51735E-01-1.30237E-14 4.58932E-14
 -1       628 2.46587E+01-2.59487E+00-3.43004E-03-5.89992E-02 2.25143E-14 1.15382E-13
 -1       629 2.58075E+01-1.86110E+00-3.17279E-02-1.44326E+00-2.05443E-14 1.81535E-13
 -1       630 2.63182E+01 4.91581E-01-5.48548E-02-2.42993E+00-1.17004E-13 2.21292E-13
 -1       631 2.59523E+01 3.63785E+00-1.14272E-01-1.88132E+00-2.36190E-13 1.32465E-13
 -1       632 2.62179E+01-3.04696E-01-5.70781E-02 2.50763E+00-1.24298E-13 5.45267E-14
 -1       633 2.55508E+01-2.25464E+00-1.26008E-02 1.25383E+00-1.27821E-13 1.02742E-13
 -1       634 2.42670E+01-2.59528E+00-2.77043E-03-9.48813E-02-7.61230E-14-6.01364E-15
 -1       635 2.29525E+01-2.04973E+00-1.19561E-03-1.01058E+00-1.85798E-14-1.28458E-13
 -1       636 2.19286E+01-1.27900E+00-1.22636E-03-1.46129E+00 2.98267E-14-2.45542E-13
 -1       637 2.12357E+01-6.06934E-01-7.86515E-04-1.60527E+00-6.11571E-14-1.27544E-13
 -1       638 2.08040E+01-1.30001E-01-2.59549E-04-1.56959E+00 6.47426E-15-1.03876E-14
 -1       639 2.05468E+01 1.62065E-01 3.69781E-06-1.44066E+00 1.26251E-13-6.15154E-14
 -1       640 2.03944E+01 3.14853E-01 1.30455E-04-1.26910E+00 4.32518E-14 1.97344E-14
 -1       641 2.03007E+01 3.74448E-01 1.77189E-04-1.08437E+00-7.65764E-14 4.81811E-14
 -1       642 2.02387E+01 3.77233E-01 1.82622E-04-9.03796E-01-1.44102E-13 2.27550E-13
 -1       643 2.01936E+01 3.48748E-01 1.68092E-04-7.37223E-01 8.83650E-15 4.22256E-13
 -1       644 2.01580E+01 3.05612E-01 1.45590E-04-5.89678E-01-9.48834E-15 2.85653E-13
 -1       645 2.01285E+01 2.57980E-01 1.21096E-04-4.63003E-01-1.70279E-14 2.61356E-13
 -1       646 2.01034E+01 2.11646E-01 9.77605E-05-3.56999E-01 5.52972E-14 2.73906E-13
 -1       647 2.00820E+01 1.69609E-01 7.70420E-05-2.70232E-01 1.67731E-13 1.87134E-13
 -1       648 2.00641E+01 1.33152E-01 5.94451E-05-2.00610E-01 3.73168E-14 1.09491E-13
 -1       649 2.00492E+01 1.02545E-01 4.49632E-05-1.45774E-01 6.78324E-14 1.95199E-13
 -1       650 2.00371E+01 7.74990E-02 3.33355E-05-1.03356E-01-1.84602E-13 1.48499E-13
 -1       651 2.00274E+01 5.74442E-02 2.41944E-05-7.11291E-02-1.15758E-13 1.89494E-13
 -1       652 2.00198E+01 4.16975E-02 1.71464E-05-4.70999E-02-7.76456E-14 1.56877E-13
 -1       653 2.00139E+01 2.95624E-02 1.18150E-05-2.95402E-02-6.35103E-14-1.18902E-13
 -1       654 2.00095E+01 2.03834E-02 7.86106E-06-1.69938E-02 1.68701E-14-2.72322E-13
 -1       655 2.00062E+01 1.35730E-02 4.99067E-06-8.26242E-03-1.50186E-13-1.15349E-13
 -1       656 2.00038E+01 8.62190E-03 2.95543E-06-2.38066E-03 4.56721E-14-2.08588E-13
 -1       657 2.00022E+01 5.09877E-03 1.54596E-06 1.41260E-03 1.39705E-15-3.00965E-13
 -1       658 2.00010E+01 2.64402E-03 5.84470E-07 3.70429E-03 7.80732E-14-4.19807E-13
 -1       659 2.00003E+01 9.60469E-04-1.11641E-07 4.93534E-03 1.33392E-13-2.06854E-13
 -1       660 1.99998E+01-1.97249E-04-5.56927E-07 5.42605E-03 2.41844E-13-1.43306E-13
 -1       661 1.99995E+01-1.02989E-03-1.34448E-06 5.39925E-03 1.92043E-13-1.17972E-13
 -1       662 1.99994E+01-1.71085E-03-5.08047E-06 5.00689E-03-1.54348E-13-5.01853E-13
 -1       663 2.24059E+01-1.06164E+00-1.89036E-03-8.82083E-01 5.87811E-14 4.57311E-14
 -1       664 1.99994E+01-1.92903E-03-3.63252E-07-4.81951E-03-3.35233E-13 2.57430E-13
 -1       665 2.18362E+01-4.65465E-01-1.03032E-03-1.09643E+00 5.02812E-14 2.71759E-14
 -1       666 2.39480E+01-1.79417E+00-3.63460E-03 5.49519E-01-2.82373E-14 1.75996E-13
 -1       667 2.45242E+01-1.24101E+00-4.06621E-03 1.57394E+00 4.80449E-14 1.71671E-13
 -1       668 2.45538E+01 3.09122E-01-2.84561E-02 2.19191E+00 1.03644E-13 2.30885E-13
 -1       669 2.41408E+01 2.27169E+00-3.57057E-02 1.71991E+00 1.29765E-13 1.63556E-13
 -1       670 2.39423E+01 3.24593E+00-4.95591E-02 3.71329E-02 6.51241E-14 3.45835E-14
 -1       671 2.40928E+01 2.55394E+00-4.21615E-02-1.73439E+00 7.58144E-14-5.93184E-14
 -1       672 2.45761E+01 5.84236E-01-3.61159E-02-2.42475E+00 5.51492E-14-6.15366E-14
 -1       673 2.46253E+01-1.02738E+00-6.25832E-03-1.94885E+00 1.38153E-14-3.23179E-15
 -1       674 2.40830E+01-1.79288E+00-2.44496E-03-8.75654E-01-9.82844E-14-1.41601E-14
 -1       675 2.32776E+01-1.71072E+00-1.48529E-03 7.97736E-02-6.73880E-14 5.36876E-14
 -1       676 2.24783E+01-1.25416E+00-1.73569E-03 7.40849E-01-2.80615E-14 8.13429E-14
 -1       677 2.18264E+01-7.39552E-01-1.22339E-03 1.10326E+00 3.47332E-14-7.77047E-14
 -1       678 2.13452E+01-3.16949E-01-6.62083E-04 1.24298E+00-1.74484E-14-3.24807E-14
 -1       679 2.10051E+01-2.47411E-02-2.53357E-04 1.23780E+00 8.39539E-14 1.35254E-13
 -1       680 2.07658E+01 1.50695E-01 1.35538E-05 1.14772E+00 1.58146E-13 2.50587E-13
 -1       681 2.05935E+01 2.39006E-01 1.60897E-04 1.01449E+00-2.28650E-14 1.20777E-13
 -1       682 2.04650E+01 2.69312E-01 2.25517E-04 8.65453E-01 5.14132E-14-1.52312E-13
 -1       683 2.03657E+01 2.64523E-01 2.40449E-04 7.17626E-01-5.76429E-14-7.78030E-14
 -1       684 2.02868E+01 2.40751E-01 2.27464E-04 5.80838E-01-1.46389E-13-1.40649E-13
 -1       685 2.02233E+01 2.08505E-01 2.00766E-04 4.60053E-01-1.08470E-13-6.07381E-14
 -1       686 2.01720E+01 1.74205E-01 1.69205E-04 3.57048E-01 6.18051E-14-8.21308E-14
 -1       687 2.01306E+01 1.41492E-01 1.37829E-04 2.71619E-01 9.22010E-14-2.26403E-14
 -1       688 2.00976E+01 1.12213E-01 1.09238E-04 2.02423E-01 2.47837E-14 3.32216E-14
 -1       689 2.00716E+01 8.71021E-02 8.45439E-05 1.47547E-01 1.04032E-13 6.06532E-14
 -1       690 2.00514E+01 6.62406E-02 6.39993E-05 1.04881E-01-1.27829E-13-1.06441E-13
 -1       691 2.00359E+01 4.93502E-02 4.73939E-05 7.23408E-02-7.50969E-14 3.94455E-14
 -1       692 2.00243E+01 3.59772E-02 3.42936E-05 4.80070E-02-5.39952E-14 5.85475E-14
 -1       693 2.00157E+01 2.56050E-02 2.41823E-05 3.01845E-02-2.58376E-13-8.29814E-14
 -1       694 2.00096E+01 1.77197E-02 1.65404E-05 1.74278E-02 8.92921E-14-6.20828E-14
 -1       695 2.00053E+01 1.18454E-02 1.08866E-05 8.53706E-03 2.96008E-14-9.08371E-15
 -1       696 2.00024E+01 7.56109E-03 6.79653E-06 2.54018E-03-2.37357E-14 2.70073E-13
 -1       697 2.00005E+01 4.50518E-03 3.90893E-06-1.33314E-03 1.64424E-14 3.78164E-13
 -1       698 1.99994E+01 2.37371E-03 1.92587E-06-3.67905E-03 9.57997E-14 7.86273E-14
 -1       699 1.99988E+01 9.13885E-04 5.75156E-07-4.94678E-03-3.92870E-14-2.88084E-13
 -1       700 1.99985E+01-8.48580E-05-1.71603E-06-5.46652E-03-2.91930E-14-3.46731E-13
 -1       701 1.99985E+01-8.00987E-04-3.79998E-06-5.47863E-03 3.76159E-14-9.31768E-14
 -1       702 1.99990E+01-1.34652E-03 6.54658E-07-5.24118E-03-6.72632E-14 4.26181E-14
 -1       703 2.00029E+01-3.69182E-03 1.36162E-06-6.97775E-04 2.29955E-13-1.13776E-13
 -1       704 1.99994E+01-2.13200E-03-1.54766E-06 4.56309E-03-9.26344E-14-3.36757E-13
 -1       705 2.00021E+01-3.29036E-03 1.35468E-06-3.24522E-03 4.72570E-15-1.03281E-13
 -1       706 2.00029E+01-3.69195E-03 1.50267E-06 7.15305E-04 2.68172E-13-3.38108E-13
 -1       707 2.00026E+01-3.56040E-03 9.29547E-07-2.05567E-03-1.06756E-13 5.47575E-14
 -1       708 2.25351E+01-4.97961E+00 2.71011E-02 4.15313E+00-1.62880E-13-2.39840E-13
 -1       709 2.00026E+01-3.56371E-03 1.62529E-06 2.05143E-03 1.37793E-13-2.09792E-13
 -1       710 2.00021E+01-3.29708E-03 1.35499E-06 3.24564E-03 2.94813E-13-3.87770E-13
 -1       711 2.00013E+01-2.88592E-03 1.75812E-06 4.17683E-03 3.07470E-13-2.05867E-13
 -1       712 1.66970E+01-3.53587E+00 8.22221E-02 5.66974E+00-1.23821E-13-3.95378E-14
 -1       713 2.14648E+01 8.10121E-02 4.95237E-06-1.03288E+00 3.01969E-14 3.77628E-14
 -1       714 8.03652E+00 1.06065E-01 1.62879E-01-2.90827E-01-7.21112E-14 5.51205E-13
 -1       715 2.86699E+01-2.57353E-01-1.10610E-01 1.94270E+00-1.72432E-13-3.09423E-13
 -1       716 2.79790E+01-1.30190E+00-9.91344E-02-1.45703E+00-2.08410E-14-1.20584E-13
 -1       717 2.31527E+01-1.59772E+00-2.19112E-03-3.32687E-01 3.00285E-14 1.24504E-13
 -1       718 2.07850E+01 1.31986E+00 7.75479E-04 4.89360E-01-4.36130E-14-1.75469E-14
 -1       719 2.12574E+01 5.83681E-01 1.14163E-03-7.43149E-01 8.74644E-14 1.57929E-14
 -1       720 2.15748E+01-5.10646E+00 6.14265E-02-4.82479E+00 3.75984E-14 1.27631E-13
 -1       721 1.87530E+01-3.90934E+00 7.37043E-02 5.49391E+00 9.33281E-14-5.08447E-15
 -1       722 1.87240E+01 2.91657E+00-1.16321E-03-3.21895E-01 9.23239E-14-1.20020E-13
 -1       723 1.85674E+01 3.03340E+00-1.38128E-03 2.83863E-01-1.04593E-14-1.42447E-13
 -1       724 2.71243E+01-3.12944E+00-3.13718E-02 1.35530E-01-3.57830E-14 1.20418E-13
 -1       725 2.52650E+01-4.93051E+00 4.14388E-04 2.92290E+00-4.06619E-15 7.96546E-14
 -1       726 1.32874E+01-2.00040E+00 9.73979E-02 5.30694E+00 1.23446E-13-8.89844E-14
 -1       727 2.71810E+01 5.05653E+00-1.63607E-01 1.42739E+00 2.44672E-13 1.58483E-13
 -1       728 2.78552E+01-3.04079E+00-6.27069E-02-2.43483E-01-3.47031E-15 1.16421E-13
 -1       729 2.38818E+01-5.02561E+00 2.02499E-02-3.72975E+00-9.56821E-14 3.03412E-14
 -1       730 7.51841E+00-4.21612E-01 1.60343E-01-2.28674E+00 1.46168E-14-2.45651E-13
 -1       731 1.16774E+01-2.10771E+00 1.32455E-01-5.53011E+00-7.59184E-14-2.53901E-13
 -1       732 2.66378E+01-4.05044E+00-2.19625E-02 8.65943E-01-8.03628E-14-1.81272E-13
 -1       733 1.60038E+01-3.87197E+00 1.07939E-01-6.09139E+00 9.25163E-14 4.10800E-13
 -1       734 2.81440E+01 8.61566E-01-1.07769E-01-2.30752E+00-1.79943E-13 1.41692E-13
 -1       735 9.82633E+00-1.27929E+00 1.42066E-01-4.28594E+00 1.08646E-13 6.83696E-13
 -1       736 8.10336E+00-1.30227E-01 1.55626E-01 1.97631E+00 7.64796E-14-2.60680E-13
 -1       737 2.76840E+01 2.91944E+00-1.35957E-01 2.58197E+00-1.51712E-13-8.57266E-14
 -1       738 1.83152E+01-4.40362E+00 8.78454E-02-6.07497E+00-1.08896E-13-2.46515E-13
 -1       739 1.93754E+01 2.57277E+00-1.74761E-03 2.67093E-01-3.49732E-14-1.01738E-13
 -1       740 1.76694E+01 3.52229E+00-9.20938E-04 3.18437E-02 4.52491E-14-1.37326E-13
 -1       741 2.44445E+01-4.75910E+00 1.11467E-02-2.63624E+00-1.33781E-13-3.24223E-13
 -1       742 2.00012E+01-2.88636E-03 4.20070E-09-4.15919E-03-2.20937E-13-9.80359E-14
 -1       743 2.61310E+01 2.81293E+00-8.48606E-02 2.38458E+00-1.60844E-13-1.30087E-13
 -1       744 1.21902E+01-4.21619E-01 8.40478E-02 3.77087E+00 8.36622E-14-1.83936E-13
 -1       745 1.42433E+01-1.67887E+00 8.01441E-02 4.76750E+00-4.72226E-14-1.65706E-13
 -1       746 2.69297E+01 4.12179E+00-1.27443E-01-2.02826E+00 2.08382E-13-7.03153E-14
 -1       747 2.04638E+01 1.86763E+00-1.01600E-03 1.82876E-01-7.36026E-14-5.22724E-14
 -1       748 2.71755E+01 8.50414E-01-2.68875E-02-2.46578E+00 3.95135E-14-1.76390E-13
 -1       749 2.73584E+01-2.62868E+00-3.82386E-02 9.45896E-01-4.14703E-14-3.25318E-13
 -1       750 2.66198E+01-1.23609E+00-5.66236E-02 1.79955E+00 9.35280E-14 2.53060E-13
 -1       751 1.79691E+01 3.36157E+00-1.57006E-03 1.98982E-01 2.09633E-14-8.32928E-14
 -1       752 2.26531E+01-4.39747E+00 1.42141E-02 3.69707E+00 6.05488E-14 8.98804E-14
 -1       753 2.55330E+01 4.91675E+00-1.11521E-01-5.92699E-02 1.37328E-13 4.76865E-14
 -1       754 2.00657E+01 1.54078E+00 6.84673E-04-6.70987E-01 8.93270E-14-8.47419E-14
 -1       755 2.02858E+01 8.03530E-02 5.67434E-05 1.82606E+00-4.09219E-15-9.22960E-15
 -1       756 2.07784E+01-8.56993E-01 6.22373E-04 2.17174E+00-1.97577E-15 1.12089E-14
 -1       757 2.17532E+01-2.02446E+00 8.65968E-04 2.29522E+00-1.12161E-15 1.93130E-14
 -1       758 2.33817E+01-3.22233E+00 1.25242E-02 1.97069E+00 6.20279E-14 6.37383E-14
 -1       759 1.99945E+01 1.49090E+00-2.51599E-04 8.43031E-01-4.84611E-14-2.22655E-14
 -1       760 2.48482E+01-3.85482E+00 2.81344E-03-1.07000E+00-1.62823E-13-2.91865E-13
 -1       761 2.27283E+01-3.01780E+00 7.15667E-03-1.99522E+00-5.74053E-14-2.96025E-13
 -1       762 2.12661E+01-1.88144E+00 2.10467E-03-2.23976E+00 1.07374E-14-1.83978E-13
 -1       763 2.04061E+01-9.06978E-01-7.86179E-04-2.14785E+00 7.23188E-14-5.03096E-14
 -1       764 1.99717E+01-2.21150E-01 6.91476E-05-1.92436E+00 8.45554E-14 8.02064E-14
 -1       765 1.97874E+01 2.01944E-01 6.23530E-05-1.67283E+00 3.66633E-14 2.47478E-14
 -1       766 1.97398E+01 4.30634E-01 9.19107E-05-1.42865E+00 1.43183E-13-2.37209E-14
 -1       767 1.97579E+01 5.28403E-01 9.06004E-05-1.20272E+00 8.93245E-14 1.07034E-13
 -1       768 1.98019E+01 5.44153E-01 7.63436E-05-9.98412E-01-1.23516E-14 2.75459E-13
 -1       769 1.98509E+01 5.12553E-01 5.93265E-05-8.16874E-01-5.41641E-14 2.24670E-13
 -1       770 1.98953E+01 4.56809E-01 4.57300E-05-6.58359E-01-1.39500E-14 1.33506E-13
 -1       771 1.99316E+01 3.91700E-01 3.51208E-05-5.22423E-01 2.79096E-14 1.61864E-13
 -1       772 1.99591E+01 3.26135E-01 2.68635E-05-4.07959E-01-2.78471E-14 1.76178E-13
 -1       773 1.99790E+01 2.65093E-01 2.03978E-05-3.13297E-01-7.18129E-14 1.22409E-13
 -1       774 1.99925E+01 2.11020E-01 1.53261E-05-2.36385E-01-7.68059E-14-4.42252E-14
 -1       775 2.00013E+01 1.64788E-01 1.13616E-05-1.74966E-01 1.16129E-13-3.36223E-14
 -1       776 2.00065E+01 1.26331E-01 8.28537E-06-1.26755E-01-1.14493E-13-1.23740E-13
 -1       777 2.00092E+01 9.50662E-02 5.92317E-06-8.95560E-02-1.27764E-13 1.42547E-14
 -1       778 2.00102E+01 7.01581E-02 4.13270E-06-6.13578E-02-3.10613E-13-2.49956E-13
 -1       779 2.00101E+01 5.06854E-02 2.79658E-06-4.03771E-02-1.67285E-13-6.34381E-15
 -1       780 2.00094E+01 3.57394E-02 1.81779E-06-2.50796E-02-1.81826E-13 4.16534E-14
 -1       781 2.00083E+01 2.44789E-02 1.11661E-06-1.41778E-02-6.05749E-14-2.72711E-14
 -1       782 2.00071E+01 1.61571E-02 6.27940E-07-6.61520E-03 5.37962E-14 6.33807E-14
 -1       783 2.00058E+01 1.01302E-02 2.97560E-07-1.54320E-03 2.34296E-13 1.70558E-13
 -1       784 2.00046E+01 5.85442E-03 7.13689E-08 1.70549E-03-7.32855E-14 1.65997E-13
 -1       785 2.00036E+01 2.87736E-03-1.16258E-07 3.64373E-03 1.61845E-14-2.44443E-13
 -1       786 2.00026E+01 8.25248E-04-1.74997E-07 4.65486E-03 1.95581E-13-4.16760E-13
 -1       787 2.00018E+01-6.09203E-04-8.70769E-09 5.01897E-03 1.47703E-13-6.07618E-13
 -1       788 2.00011E+01-1.69015E-03 2.91213E-06 4.92300E-03-2.22944E-13-7.43072E-13
 -1       789 2.14567E+01-8.44245E-01-4.24376E-04-1.57791E+00 7.19590E-15-1.15183E-15
 -1       790 2.62638E+01 1.97275E+00-5.87933E-02-2.55390E+00 7.74936E-14-1.50130E-13
 -1       791 2.50593E+01-2.60859E+00-2.55870E-02-5.73003E-01-2.17630E-14-1.50852E-13
 -1       792 2.36906E+01-2.68429E+00 7.98073E-04 5.94934E-01-1.17561E-13-7.72242E-14
 -1       793 2.23681E+01-2.00646E+00-4.27962E-04 1.30264E+00-4.37743E-14-1.62380E-13
 -1       794 2.14034E+01-1.21371E+00-3.91805E-04 1.58479E+00-3.63438E-14-2.11395E-13
 -1       795 2.07828E+01-5.56884E-01-1.03369E-04 1.61850E+00-3.19283E-15-6.13919E-14
 -1       796 2.04170E+01-9.60704E-02-4.59249E-05 1.52314E+00-1.36583E-13 4.24133E-14
 -1       797 2.02169E+01 1.88801E-01 3.61691E-05 1.36779E+00 2.63487E-14 1.46639E-13
 -1       798 2.01154E+01 3.40620E-01 7.83048E-05 1.18988E+00 7.76434E-14 2.29315E-13
 -1       799 2.00680E+01 4.01783E-01 8.56301E-05 1.00976E+00 2.08103E-13 1.63534E-13
 -1       800 2.00481E+01 4.06060E-01 8.15005E-05 8.38775E-01 1.23051E-14 7.95834E-14
 -1       801 2.00406E+01 3.77765E-01 7.26686E-05 6.83281E-01-3.53633E-14-6.25110E-14
 -1       802 2.00378E+01 3.33308E-01 6.19549E-05 5.46426E-01-1.15020E-13-2.04927E-13
 -1       803 2.00361E+01 2.83152E-01 5.11994E-05 4.29186E-01-1.01829E-13-1.68970E-13
 -1       804 2.00340E+01 2.33568E-01 4.12687E-05 3.31083E-01 1.04554E-13-7.47456E-15
 -1       805 2.00313E+01 1.88004E-01 3.25437E-05 2.50708E-01-5.59532E-14 3.93323E-14
 -1       806 2.00280E+01 1.48087E-01 2.51447E-05 1.86133E-01-3.53289E-14 3.58224E-14
 -1       807 2.00243E+01 1.14313E-01 1.90433E-05 1.35210E-01 9.47305E-14 6.47551E-14
 -1       808 2.00207E+01 8.65113E-02 1.41297E-05 9.57790E-02-1.30923E-13 1.09612E-15
 -1       809 2.00172E+01 6.41547E-02 1.02555E-05 6.58020E-02-9.24322E-14 3.43010E-14
 -1       810 2.00139E+01 4.65499E-02 7.26160E-06 4.34438E-02-1.45495E-13-1.32585E-13
 -1       811 2.00111E+01 3.29596E-02 4.99374E-06 2.71072E-02-1.61691E-13 5.92470E-14
 -1       812 2.00087E+01 2.26721E-02 3.31099E-06 1.54416E-02-7.21515E-14 4.73477E-13
 -1       813 2.00066E+01 1.50393E-02 2.08959E-06 7.33271E-03-1.36131E-13 3.90929E-13
 -1       814 2.00049E+01 9.49315E-03 1.22851E-06 1.88147E-03 8.18417E-15 1.29831E-14
 -1       815 2.00036E+01 5.54867E-03 6.56423E-07-1.62143E-03 1.04551E-13-1.08175E-13
 -1       816 2.00025E+01 2.79911E-03 3.79752E-07-3.72276E-03 8.95142E-14-9.15647E-14
 -1       817 2.00016E+01 9.05124E-04 9.09019E-08-4.83260E-03 1.03087E-13-1.65201E-13
 -1       818 2.00010E+01-4.16304E-04 3.49348E-06-5.22146E-03-2.33302E-13-3.75858E-13
 -1       819 1.76715E+01 2.89997E+00-8.55220E-05-4.44190E-01 4.05057E-14-1.16804E-13
 -1       820 2.00042E+01-2.25172E-03 2.54089E-07 7.46470E-06 4.96809E-15-1.96574E-13
 -1       821 2.00025E+01-2.06117E-03-1.36879E-06 4.00380E-03 2.34543E-13-3.58836E-13
 -1       822 2.00040E+01-2.23866E-03-2.98281E-07 1.45499E-03 1.94538E-13-2.05210E-13
 -1       823 2.02579E+01-3.52271E+00 1.72044E-02 4.09817E+00-1.23095E-13-1.51190E-13
 -1       824 2.09343E+01-4.87103E-02 5.59169E-04-1.42863E+00 4.35332E-14-5.82158E-14
 -1       825 2.43762E+01-4.01650E+00 6.51566E-03 1.67643E+00-1.73572E-13-1.75244E-13
 -1       826 1.72054E+01-1.85650E+00 6.15357E-02 4.53773E+00 1.07954E-13 1.01152E-14
 -1       827 2.00035E+01-2.18636E-03-7.89473E-07 2.83108E-03 2.15179E-13-2.05664E-13
 -1       828 1.14970E+01-1.91279E-01 9.19755E-02-3.47931E+00-2.91859E-14-1.85060E-13
 -1       829 2.62671E+01-2.51572E+00-5.36580E-02-1.19607E+00-5.84164E-14-3.34094E-13
 -1       830 2.00753E+01 8.30661E-01 7.68727E-04 1.37023E+00-1.77287E-14 2.22356E-15
 -1       831 2.09780E+01-3.81425E+00 2.70854E-02-4.28637E+00-1.19614E-13 1.26856E-14
 -1       832 2.59090E+01 2.50999E+00-7.11878E-02 2.22116E+00 1.89845E-13 2.28258E-13
 -1       833 1.10183E+01 1.45042E-01 7.97205E-02-2.31911E+00 4.29387E-14 4.83117E-13
 -1       834 1.63584E+01-2.19206E+00 7.16389E-02-5.06509E+00-1.15576E-13-2.77715E-13
 -1       835 2.59045E+01-3.86846E+00-5.71365E-03 8.61207E-01 1.27220E-14 5.64999E-14
 -1       836 2.06941E+01 1.01834E+00-1.39103E-03-7.22851E-01 7.80644E-14-2.04696E-14
 -1       837 1.96310E+01-3.58245E+00 5.15225E-02-4.54906E+00 9.99279E-14 1.65263E-13
 -1       838 1.45782E+01-1.68283E+00 7.24922E-02-4.68550E+00 2.61291E-13 5.11733E-13
 -1       839 2.48771E+01-3.85070E+00 7.74269E-03-1.46399E+00-8.37704E-14 5.60368E-14
 -1       840 2.69417E+01-1.96957E+00-3.30523E-02-1.35211E+00-2.76576E-14 1.08410E-13
 -1       841 1.00478E+01 7.35534E-01 1.02064E-01-4.10610E-01 2.66566E-14-2.09055E-13
 -1       842 1.13176E+01 4.03649E-01 7.38700E-02 1.94984E+00-8.38416E-14 3.42580E-13
 -1       843 1.96804E+01 2.02369E+00-2.23943E-04 5.51223E-01-1.75384E-14-9.36614E-14
 -1       844 1.74005E+01 3.06066E+00 1.23784E-04-9.44677E-02 3.87741E-14-1.63490E-13
 -1       845 1.91483E+01 2.06573E+00-6.80934E-05-7.34700E-01 7.35832E-14-8.14839E-14
 -1       846 2.22117E+01-3.91018E+00 1.09990E-02-3.18869E+00 2.11975E-14-1.24836E-13
 -1       847 2.00016E+01-2.01458E-03 2.20596E-06-4.62359E-03-2.46133E-13-7.04637E-14
 -1       848 2.02833E+01-2.79154E+00 1.50929E-02 3.82728E+00 9.61271E-14 3.55887E-14
 -1       849 1.87708E+01 2.54008E+00-5.66880E-04 5.46405E-01-6.71122E-15-1.07932E-13
 -1       850 1.20862E+01 8.30840E-01 5.47677E-02 1.70391E+00 3.73169E-14-2.21179E-13
 -1       851 2.23213E+01-1.74227E+00-3.84394E-03-1.43486E+00-2.97808E-14 6.86620E-14
 -1       852 2.51854E+01-2.56653E+00-1.22769E-02 5.09694E-01-2.34619E-14 2.22413E-13
 -1       853 1.82976E+01 2.54424E+00-2.26847E-04-6.69295E-01 6.27614E-14-1.07130E-13
 -1       854 2.00019E+01-1.11927E-03 1.95430E-06-4.91386E-03-2.29379E-13-1.41178E-13
 -1       855 2.00035E+01-2.17899E-03-1.26775E-06-2.83328E-03 3.62008E-15 7.79073E-15
 -1       856 1.22568E+01 8.71153E-01 3.80599E-02-3.22982E-03-9.40914E-14 4.10699E-13
 -1       857 2.00040E+01-2.23502E-03 3.34933E-07-1.46467E-03 6.44526E-14 1.87332E-13
 -1       858 1.79470E+01-2.18479E+00 3.33633E-02 4.16985E+00-8.69730E-14-1.72322E-13
 -1       859 2.37553E+01-2.71520E+00-2.73579E-03-8.76953E-01-8.17008E-14 1.42317E-13
 -1       860 1.80366E+01 2.94705E+00-1.10254E-03 4.12201E-01 2.45872E-14-7.50627E-14
 -1       861 2.07623E+01 5.17550E-01 6.85663E-04-1.12391E+00 6.28237E-14-2.13503E-14
 -1       862 2.00026E+01-2.12298E-03 1.97564E-06-3.83588E-03 2.68885E-14 1.01033E-13
 -1       863 1.26157E+01 9.10207E-01 4.41570E-02-1.75065E+00 1.86266E-15-1.76479E-13
 -1       864 1.94413E+01-1.04686E+00 1.31016E-02 2.99858E+00 7.65880E-15-1.61089E-14
 -1       865 1.90673E+01-1.04873E+00 7.11785E-03-2.81527E+00 1.76108E-13 3.10640E-13
 -1       866 1.88005E+01-2.09843E-01 1.24816E-04-2.29304E+00 8.24783E-14 2.51932E-13
 -1       867 1.88132E+01 3.01001E-01 2.89102E-04-1.84806E+00 7.72372E-14 3.39138E-14
 -1       868 1.89407E+01 5.77645E-01 6.36112E-05-1.50345E+00 5.20252E-14 5.89787E-14
 -1       869 1.91110E+01 6.99261E-01 5.69830E-05-1.22941E+00 1.63575E-13 5.86971E-14
 -1       870 1.92843E+01 7.22372E-01 5.00184E-05-1.00585E+00 1.21671E-13 1.30452E-14
 -1       871 1.94421E+01 6.86617E-01 2.99974E-05-8.19297E-01-9.51078E-14 1.15898E-13
 -1       872 1.95768E+01 6.18969E-01 1.75994E-05-6.61807E-01-8.63046E-14 1.56974E-13
 -1       873 1.96872E+01 5.37318E-01 1.05220E-05-5.28677E-01-4.82480E-14 4.87435E-14
 -1       874 1.97747E+01 4.53022E-01 6.45992E-06-4.16823E-01 9.42157E-15 2.92066E-14
 -1       875 1.98423E+01 3.72867E-01 4.00096E-06-3.23860E-01 1.59985E-14 1.95032E-15
 -1       876 1.98933E+01 3.00528E-01 2.44670E-06-2.47643E-01 2.51350E-14 1.02657E-13
 -1       877 1.99310E+01 2.37632E-01 1.44415E-06-1.86090E-01-1.68630E-14 1.69885E-13
 -1       878 1.99581E+01 1.84507E-01 7.95092E-07-1.37161E-01-2.23015E-13-1.36768E-13
 -1       879 1.99770E+01 1.40696E-01 3.78113E-07-9.88978E-02 4.82543E-14-2.70610E-13
 -1       880 1.99899E+01 1.05316E-01 1.15422E-07-6.94759E-02-2.42765E-13-1.14806E-13
 -1       881 1.99982E+01 7.72889E-02-4.40414E-08-4.72478E-02-1.48236E-13-8.10989E-14
 -1       882 2.00033E+01 5.54905E-02-1.34293E-07-3.07678E-02-8.41107E-14 3.07559E-14
 -1       883 2.00061E+01 3.88428E-02-1.78103E-07-1.87994E-02-1.40782E-13 2.86006E-13
 -1       884 2.00073E+01 2.63631E-02-1.90471E-07-1.03097E-02 3.28030E-14 1.32524E-13
 -1       885 2.00075E+01 1.71868E-02-1.81801E-07-4.45484E-03 2.12819E-13-2.23317E-13
 -1       886 2.00070E+01 1.05733E-02-1.62444E-07-5.59345E-04-8.60653E-15-2.54010E-13
 -1       887 2.00062E+01 5.89969E-03-1.65977E-07 1.90580E-03-2.15063E-13-2.56205E-13
 -1       888 2.00051E+01 2.64871E-03 6.74661E-08 3.34432E-03-8.08182E-14-2.93137E-13
 -1       889 2.00040E+01 4.00349E-04 1.29312E-06 4.05485E-03-2.53604E-14-7.88049E-13
 -1       890 2.00033E+01-9.43488E-04 3.43811E-07 4.15239E-03-5.47710E-14-6.74911E-13
 -1       891 1.99804E+01-7.59789E-01 1.34268E-03 2.12214E+00 4.92006E-15-1.45857E-13
 -1       892 1.96447E+01-1.36296E-01 1.07259E-04 1.83821E+00-1.52098E-13-7.59501E-14
 -1       893 1.95270E+01 2.49157E-01 7.30031E-05 1.56124E+00-7.08554E-14-1.36370E-13
 -1       894 1.95253E+01 4.58797E-01 6.91600E-05 1.31142E+00-1.23446E-15-1.95599E-13
 -1       895 1.95786E+01 5.48840E-01 4.11708E-05 1.09104E+00 1.37467E-13-1.24131E-13
 -1       896 1.96521E+01 5.62433E-01 2.43978E-05 8.98120E-01 1.39973E-13-2.18719E-14
 -1       897 1.97272E+01 5.30533E-01 1.54568E-05 7.30435E-01 3.61357E-14-2.55988E-14
 -1       898 1.97949E+01 4.74517E-01 9.73679E-06 5.86176E-01-2.53627E-17-4.56311E-14
 -1       899 1.98518E+01 4.08518E-01 6.32341E-06 4.63672E-01-3.11529E-14-4.26748E-14
 -1       900 1.98972E+01 3.41400E-01 4.26861E-06 3.61177E-01-5.11758E-14-1.33808E-13
 -1       901 1.99320E+01 2.78349E-01 2.96200E-06 2.76773E-01 6.48878E-14 1.04624E-13
 -1       902 1.99578E+01 2.22076E-01 2.08412E-06 2.08395E-01-1.36536E-13-2.23253E-14
 -1       903 1.99764E+01 1.73671E-01 1.47188E-06 1.53910E-01 8.85767E-15-1.74318E-14
 -1       904 1.99892E+01 1.33225E-01 1.03565E-06 1.11216E-01-9.48060E-14 2.31765E-13
 -1       905 1.99977E+01 1.00236E-01 7.21445E-07 7.83276E-02-9.02267E-14 2.04222E-13
 -1       906 2.00029E+01 7.39014E-02 4.94510E-07 5.34379E-02-6.38225E-14 1.73337E-13
 -1       907 2.00059E+01 5.32926E-02 3.31460E-07 3.49522E-02-3.21986E-13 2.64345E-13
 -1       908 2.00073E+01 3.74725E-02 2.16005E-07 2.15021E-02-3.31081E-13 2.71941E-13
 -1       909 2.00076E+01 2.55610E-02 1.35954E-07 1.19413E-02-1.63186E-13 1.34420E-13
 -1       910 2.00072E+01 1.67688E-02 7.76740E-08 5.33085E-03 9.30453E-14 4.80360E-14
 -1       911 2.00065E+01 1.04112E-02 3.34313E-08 9.17805E-04-2.13450E-14 1.98060E-13
 -1       912 2.00055E+01 5.90706E-03 4.58676E-08-1.88894E-03 9.60083E-14 2.90818E-13
 -1       913 2.00045E+01 2.77126E-03 6.22427E-08-3.54353E-03 1.93097E-13 2.54167E-13
 -1       914 2.00034E+01 5.86066E-04-1.91124E-06-4.38529E-03-1.12273E-14 3.78913E-13
 -1       915 2.00055E+01-5.69904E-04-3.74579E-07 7.20220E-04-2.11810E-13-2.15786E-13
 -1       916 1.51935E+01-4.64845E-01 3.33853E-02-3.75480E+00-8.34575E-14-1.74182E-13
 -1       917 1.90057E+01 2.03126E+00-1.25134E-04 8.45543E-01 6.18971E-15-9.12696E-14
 -1       918 2.01269E+01-1.87687E-01-2.13548E-03-1.97162E+00-1.40488E-14-6.64267E-14
 -1       919 1.46563E+01-2.61735E-01 3.02506E-02 3.17320E+00 5.86319E-14-4.80805E-14
 -1       920 2.18813E+01-2.82936E+00 6.01487E-03 2.39601E+00-1.03834E-13-1.94385E-13
 -1       921 2.06447E+01-1.66424E+00 4.27509E-03 2.36686E+00 8.92697E-15-7.40414E-14
 -1       922 1.90299E+01 9.35209E-01 8.41584E-04 1.70097E+00-3.93365E-15-6.97082E-14
 -1       923 1.75762E+01 3.08420E+00-7.49727E-04 2.15492E-01 4.61417E-14-1.09079E-13
 -1       924 1.90776E+01 7.96220E-02-3.61730E-04 2.32652E+00 2.48041E-14-4.87617E-14
 -1       925 1.90859E+01-2.18722E+00 2.13612E-02-3.99066E+00-1.71801E-13-7.50541E-14
 -1       926 2.22184E+01-2.96573E+00 1.86974E-02-2.67163E+00-1.00201E-13 5.24756E-14
 -1       927 1.78987E+01-1.86588E+00 2.66136E-02-3.93773E+00 1.84343E-13 3.90224E-13
 -1       928 1.44170E+01-3.65527E-01 2.52244E-02-3.24647E+00 1.43750E-13 3.83936E-13
 -1       929 1.51027E+01 4.35347E-02 2.99808E-02 3.21912E+00 7.41998E-14-6.61389E-14
 -1       930 1.90102E+01 1.49779E+00-5.49930E-05 1.26089E+00 3.37528E-15-7.25443E-14
 -1       931 1.96747E+01 1.18725E+00-6.18332E-04-1.17411E+00 5.62230E-14-8.79686E-14
 -1       932 2.06445E+01-2.77977E+00 8.31670E-03-3.26953E+00 1.66095E-14-4.37649E-14
 -1       933 2.00039E+01-5.26848E-04-1.83788E-06-3.90110E-03-2.01677E-14 2.96865E-13
 -1       934 2.00045E+01-8.37695E-04-5.83583E-07 2.94865E-03 7.96332E-14-1.12707E-13
 -1       935 1.85297E+01-1.22976E+00 2.43265E-02 3.50475E+00 4.25380E-14 1.64118E-14
 -1       936 1.40479E+01 6.50681E-01 2.05179E-02 1.73726E+00-1.50876E-13 4.43408E-13
 -1       937 2.00055E+01-5.67910E-04-3.25738E-07-7.37640E-04-1.27272E-13-1.33733E-13
 -1       938 1.39905E+01 7.44555E-01 1.69681E-02-1.55063E+00-3.82189E-15 2.93301E-13
 -1       939 1.99966E+01 5.19669E-01 2.36754E-05-1.52743E+00 4.32830E-14-7.65091E-14
 -1       940 2.07973E+01-1.23466E+00 3.34989E-03-2.33424E+00-4.01388E-14-4.95809E-14
 -1       941 1.81207E+01 2.50805E+00-6.89885E-04 6.89065E-01 3.95894E-14-1.08850E-13
 -1       942 1.96941E+01-2.00947E+00 1.38556E-02 3.19735E+00-4.89804E-14-1.21761E-13
 -1       943 2.00051E+01-6.93253E-04 2.34143E-07 1.86016E-03-7.20758E-14 1.32425E-13
 -1       944 2.00050E+01-6.45618E-04-2.01206E-06-2.16471E-03 7.87312E-14 1.38891E-13
 -1       945 1.76809E+01 2.22273E+00-1.60150E-03-9.33791E-01 2.12594E-14-1.19245E-13
 -1       946 1.31990E+01 1.38870E+00 2.52669E-02 8.06291E-02 1.74424E-14-1.95869E-13
 -1       947 1.70707E+01 2.56195E+00 4.96101E-05-4.49230E-01 2.78157E-14-1.37765E-13
 -1       948 1.76464E+01 1.12535E+00 3.25077E-04 1.86888E+00 8.41287E-15-4.52494E-14
 -1       949 1.75574E+01 5.09108E-01 9.31085E-04-1.87512E+00-2.88534E-14 2.79095E-13
 -1       950 1.79873E+01 7.74618E-01 1.24970E-05-1.43293E+00 5.16392E-14 2.81658E-13
 -1       951 1.83756E+01 8.88587E-01 4.44565E-06-1.12747E+00 2.07044E-14 1.49545E-13
 -1       952 1.87111E+01 9.04551E-01 2.78969E-05-9.02385E-01 6.53369E-14 3.03312E-14
 -1       953 1.89936E+01 8.59773E-01-4.97808E-06-7.27658E-01 4.98391E-14 4.37625E-14
 -1       954 1.92268E+01 7.79980E-01-1.39846E-05-5.86748E-01-1.00575E-14-6.34347E-14
 -1       955 1.94158E+01 6.83356E-01-1.33941E-05-4.70535E-01-8.69668E-14-1.17566E-14
 -1       956 1.95665E+01 5.82249E-01-1.12315E-05-3.73772E-01 4.66628E-14 1.00679E-14
 -1       957 1.96847E+01 4.84558E-01-9.13548E-06-2.93283E-01 1.14101E-14 1.03785E-14
 -1       958 1.97759E+01 3.94964E-01-7.39589E-06-2.26861E-01 1.11400E-13 1.37304E-14
 -1       959 1.98451E+01 3.15864E-01-5.95465E-06-1.72699E-01-4.91601E-14-1.68873E-13
 -1       960 1.98965E+01 2.48083E-01-4.74248E-06-1.29156E-01-2.53586E-13-6.54009E-14
 -1       961 1.99341E+01 1.91426E-01-3.72208E-06-9.46843E-02-1.94066E-13-1.10587E-14
 -1       962 1.99609E+01 1.45083E-01-2.87287E-06-6.78342E-02-3.28823E-15-1.31292E-13
 -1       963 1.99795E+01 1.07914E-01-2.17841E-06-4.72725E-02-2.30267E-13-1.92839E-14
 -1       964 1.99920E+01 7.86525E-02-1.62158E-06-3.18062E-02-1.99713E-13-8.24059E-14
 -1       965 1.99999E+01 5.60292E-02-1.18382E-06-2.03953E-02-3.03824E-14-3.69715E-13
 -1       966 2.00046E+01 3.88539E-02-8.45386E-07-1.21547E-02 6.28498E-14-1.38225E-13
 -1       967 2.00070E+01 2.60563E-02-5.84597E-07-6.34880E-03 5.43969E-14 5.88940E-14
 -1       968 2.00079E+01 1.67038E-02-3.68874E-07-2.37940E-03 1.43324E-13-6.62130E-14
 -1       969 2.00078E+01 1.00033E-02-2.29884E-07 2.30119E-04-5.90607E-14 1.46050E-13
 -1       970 2.00070E+01 5.28807E-03-8.63990E-08 1.85121E-03-1.65118E-13 3.00312E-13
 -1       971 2.00059E+01 2.01072E-03-6.91819E-07 2.75890E-03-3.40023E-13 7.34905E-14
 -1       972 2.00052E+01 4.78793E-04-4.89832E-07 2.94590E-03 1.10226E-13 8.28772E-14
 -1       973 1.88093E+01 6.12310E-01 4.62744E-05 1.35390E+00-6.44139E-14-2.39260E-13
 -1       974 1.86422E+01 3.73850E-01 9.10425E-05 1.69295E+00-1.39502E-13-3.46209E-13
 -1       975 1.85569E+01-6.56146E-02 8.67551E-04 2.13325E+00-8.15290E-14-2.87744E-13
 -1       976 1.90030E+01 7.14623E-01-3.92973E-05 1.09040E+00 9.31801E-15-2.83861E-13
 -1       977 1.91925E+01 7.29918E-01-5.69807E-05 8.80367E-01 8.01339E-14-2.01539E-13
 -1       978 1.93637E+01 6.91704E-01-4.92550E-05 7.09008E-01 3.91022E-14-1.44174E-13
 -1       979 1.95108E+01 6.23705E-01-4.11345E-05 5.67340E-01 2.85104E-14-5.95356E-14
 -1       980 1.96326E+01 5.42214E-01-3.34549E-05 4.49676E-01-5.85763E-14-6.34719E-14
 -1       981 1.97307E+01 4.57916E-01-2.65157E-05 3.52208E-01-8.80471E-14 1.24732E-13
 -1       982 1.98078E+01 3.77428E-01-2.06017E-05 2.72108E-01-8.51922E-14 1.42089E-13
 -1       983 1.98670E+01 3.04485E-01-1.57330E-05 2.07020E-01-3.14090E-14 1.96948E-13
 -1       984 1.99114E+01 2.40842E-01-1.18025E-05 1.54831E-01-1.20223E-14 1.30274E-13
 -1       985 1.99440E+01 1.86943E-01-8.67825E-06 1.13588E-01-1.63917E-13 2.00293E-13
 -1       986 1.99673E+01 1.42417E-01-6.23401E-06 8.14953E-02-2.44560E-13 2.46227E-13
 -1       987 1.99835E+01 1.06430E-01-4.35499E-06 5.69265E-02-8.81868E-14 4.17787E-13
 -1       988 1.99942E+01 7.79203E-02-2.93795E-06 3.84406E-02-2.30946E-13 4.51356E-13
 -1       989 2.00011E+01 5.57621E-02-1.89127E-06 2.47899E-02-2.64938E-13 1.21639E-13
 -1       990 2.00050E+01 3.88625E-02-1.13486E-06 1.49175E-02-1.23296E-13 1.42884E-14
 -1       991 2.00070E+01 2.62182E-02-5.99828E-07 7.94703E-03 7.54917E-15 1.27209E-14
 -1       992 2.00077E+01 1.69427E-02-2.18439E-07 3.16711E-03-2.39227E-15-5.42749E-14
 -1       993 2.00074E+01 1.02757E-02-1.91160E-07 1.10165E-05-2.93087E-14-2.33833E-14
 -1       994 2.00066E+01 5.56901E-03-5.28276E-07-1.96481E-03-6.03148E-14 4.72652E-13
 -1       995 2.00056E+01 2.28233E-03-1.23678E-06-3.10604E-03-3.18433E-14 6.80160E-13
 -1       996 1.51322E+01 8.59674E-01 1.37669E-02-2.24864E+00-2.47598E-14-1.08771E-13
 -1       997 1.46802E+01 1.11907E+00 1.37194E-02 1.82239E+00 6.60873E-14-1.42190E-13
 -1       998 1.69077E+01-5.79144E-01 8.79734E-03 3.07431E+00 5.59210E-14-2.23245E-13
 -1       999 2.00058E+01 1.38911E-03 7.68496E-06-2.62775E-03 1.77453E-13 1.09651E-13
 -1      1000 1.71292E+01 2.17437E-02 6.68528E-03-2.53252E+00 1.01991E-13 3.11961E-13
 -1      1001 1.76887E+01-5.90137E-01 6.97871E-03-3.28091E+00-1.09012E-13-1.07490E-13
 -1      1002 1.86214E+01 1.72334E+00-1.78279E-03-1.17260E+00 2.94955E-14-6.72954E-14
 -1      1003 1.70000E+01 2.61737E+00 7.60298E-04 1.84254E-01 2.02456E-14-1.37481E-13
 -1      1004 1.71446E+01 3.31186E-01 3.38637E-03 2.66246E+00 4.38908E-14-4.27321E-14
 -1      1005 1.58784E+01 3.34253E-01 7.21085E-03 2.22630E+00-1.93968E-13 9.75927E-14
 -1      1006 1.87820E+01 1.04535E+00 8.00206E-04-1.63708E+00 2.80496E-14-4.58667E-14
 -1      1007 1.79422E+01 2.03306E+00-1.02038E-03 1.06161E+00 3.15801E-14-6.64206E-14
 -1      1008 1.42761E+01 1.07585E+00 7.62760E-03 1.70550E-01-1.65308E-14 3.10281E-13
 -1      1009 2.00068E+01 1.62096E-03 5.52409E-07-1.41008E-05-2.01669E-13-1.11456E-13
 -1      1010 1.76636E+01 2.61732E+00-7.05391E-04 5.76974E-01 5.08492E-14-7.09246E-14
 -1      1011 1.48587E+01 1.56122E+00 2.08432E-03-9.80868E-01-1.65446E-14-1.29099E-13
 -1      1012 2.00066E+01 1.45262E-03 1.21821E-06 1.03952E-03 1.93738E-14-5.80148E-14
 -1      1013 2.00065E+01 1.49898E-03-4.18892E-07-1.32979E-03-7.06726E-14-2.09601E-13
 -1      1014 1.87952E+01 1.96207E-01 2.97577E-03-2.29794E+00-1.61908E-14-6.40499E-14
 -1      1015 1.88468E+01-8.48584E-01 2.16049E-03 2.67121E+00 1.07575E-13-2.56994E-13
 -1      1016 1.75481E+01 1.65425E+00 1.74629E-03-1.40365E+00 2.47797E-14-1.00636E-13
 -1      1017 1.66444E+01 2.13799E+00 2.93785E-03-7.75903E-01 2.22029E-14-1.20249E-13
 -1      1018 1.78255E+01 1.60063E+00 7.05505E-03 1.42203E+00 3.87352E-14-6.51223E-14
 -1      1019 1.63678E+01 2.29883E+00 2.42665E-04 9.51817E-02-1.24813E-15-1.28284E-13
 -1      1020 1.60055E+01 1.66686E+00 2.19516E-03 1.22737E+00 2.92484E-14-1.33616E-13
 -1      1021 1.86917E+01 9.02469E-01-2.86741E-04 7.63420E-01-4.84579E-14-3.52668E-13
 -1      1022 1.75977E+01 1.07991E+00 7.98175E-05-8.41816E-01 3.98059E-14 2.39180E-13
 -1      1023 1.81266E+01 1.07315E+00 7.63730E-05-6.58087E-01 1.57131E-15 5.25696E-13
 -1      1024 1.85439E+01 1.01560E+00-2.00296E-04-5.24195E-01-1.06766E-13 3.63512E-13
 -1      1025 1.88781E+01 9.24640E-01-1.30753E-04-4.21873E-01-4.43191E-14 2.17942E-13
 -1      1026 1.91447E+01 8.16212E-01-1.01496E-04-3.39933E-01-7.34249E-14 1.34660E-13
 -1      1027 1.93565E+01 7.02031E-01-8.02601E-05-2.72291E-01 4.83001E-14 4.72774E-14
 -1      1028 1.95234E+01 5.90224E-01-6.46969E-05-2.15888E-01-2.24579E-14 2.96708E-14
 -1      1029 1.96535E+01 4.86137E-01-5.28146E-05-1.68954E-01 4.89137E-15-2.07956E-13
 -1      1030 1.97535E+01 3.92876E-01-4.31758E-05-1.30247E-01-3.72140E-14-3.16904E-13
 -1      1031 1.98293E+01 3.11837E-01-3.50584E-05-9.87344E-02 2.34056E-14-2.44124E-13
 -1      1032 1.98858E+01 2.43208E-01-2.81424E-05-7.34586E-02-9.57265E-14-1.20674E-14
 -1      1033 1.99270E+01 1.86379E-01-2.22770E-05-5.35095E-02-2.13898E-13 1.18439E-13
 -1      1034 1.99565E+01 1.40266E-01-1.73650E-05-3.80281E-02-1.73316E-13-5.67286E-14
 -1      1035 1.99769E+01 1.03549E-01-1.33171E-05-2.62242E-02-2.92677E-13-1.06786E-13
 -1      1036 1.99907E+01 7.48414E-02-1.00384E-05-1.73907E-02-3.67124E-13-2.79397E-13
 -1      1037 1.99994E+01 5.27979E-02-7.42923E-06-1.09125E-02 1.39863E-13-2.66237E-13
 -1      1038 2.00046E+01 3.61791E-02-5.38859E-06-6.26794E-03 3.75177E-13-7.50762E-14
 -1      1039 2.00073E+01 2.38845E-02-3.85328E-06-3.02451E-03 1.61307E-13 3.89426E-14
 -1      1040 2.00083E+01 1.49632E-02-2.46889E-06-8.32841E-04 2.32088E-14-1.51738E-13
 -1      1041 2.00082E+01 8.62697E-03-3.73992E-08 5.84498E-04-2.94920E-14-3.03682E-13
 -1      1042 2.00074E+01 4.17647E-03-4.94609E-07 1.43914E-03-2.27674E-13-1.25277E-13
 -1      1043 1.79675E+01 8.11947E-01 2.92788E-04 1.25759E+00-8.30827E-15-2.32406E-13
 -1      1044 1.83576E+01 8.98908E-01-2.28028E-04 9.72107E-01 2.94868E-14-3.75990E-13
 -1      1045 1.75159E+01 5.96223E-01-4.26483E-04 1.65981E+00-7.37873E-14-5.69627E-15
 -1      1046 1.89734E+01 8.52450E-01-2.03219E-04 6.04096E-01-3.87073E-14-6.99862E-14
 -1      1047 1.92067E+01 7.71130E-01-1.50454E-04 4.78888E-01-1.23377E-13-2.47024E-14
 -1      1048 1.93970E+01 6.74797E-01-1.19747E-04 3.78294E-01-2.10111E-13 2.05871E-13
 -1      1049 1.95498E+01 5.74607E-01-9.67325E-05 2.96578E-01-1.55534E-13 4.06063E-13
 -1      1050 1.96706E+01 4.77939E-01-7.82178E-05 2.30082E-01-1.25671E-13 3.03174E-13
 -1      1051 1.97645E+01 3.89280E-01-6.28778E-05 1.76221E-01-1.64704E-13 3.39369E-13
 -1      1052 1.98363E+01 3.10982E-01-5.00350E-05 1.32976E-01-1.21308E-13 3.46293E-13
 -1      1053 1.98901E+01 2.43882E-01-3.92990E-05 9.86509E-02-1.04091E-13 3.76041E-13
 -1      1054 1.99295E+01 1.87814E-01-3.04051E-05 7.17641E-02-1.27545E-13 1.85401E-13
 -1      1055 1.99579E+01 1.41989E-01-2.31350E-05 5.10087E-02-2.75076E-13 1.23285E-13
 -1      1056 1.99776E+01 1.05285E-01-1.72843E-05 3.52376E-02-1.42643E-13 4.42966E-13
 -1      1057 1.99909E+01 7.64405E-02-1.26536E-05 2.34577E-02-3.71011E-14 3.59829E-13
 -1      1058 1.99994E+01 5.41915E-02-9.04982E-06 1.48238E-02-8.31143E-14 9.36219E-14
 -1      1059 2.00045E+01 3.73473E-02-6.28770E-06 8.62982E-03-1.94193E-13 8.21978E-15
 -1      1060 2.00071E+01 2.48366E-02-4.24380E-06 4.29625E-03-6.56490E-14 7.65169E-14
 -1      1061 2.00081E+01 1.57227E-02-2.36385E-06 1.35759E-03-6.76404E-14 2.17613E-13
 -1      1062 2.00080E+01 9.24224E-03-4.19794E-07-5.43183E-04-1.74931E-13-6.86520E-16
 -1      1063 2.00072E+01 4.65091E-03 4.49225E-08-1.72345E-03-2.86479E-14-1.92363E-13
 -1      1064 1.51080E+01 1.80200E+00 1.13847E-02 3.12546E-01 2.52834E-14-1.48095E-13
 -1      1065 2.00060E+01 9.81133E-04 3.48798E-06 1.99774E-03-1.50062E-14 9.05119E-14
 -1      1066 2.00077E+01 4.50604E-03-5.61746E-06-5.12556E-04-8.17123E-14-3.38245E-13
 -1      1067 1.66490E+01 9.54170E-01 1.52870E-02-2.15258E+00 5.28272E-15-1.02892E-13
 -1      1068 1.58353E+01 8.37561E-01 8.07867E-03-1.50591E+00 6.49201E-14 1.31218E-13
 -1      1069 1.69248E+01 1.00277E+00-1.25838E-03-1.11149E+00 5.88499E-14 2.08435E-13
 -1      1070 1.53974E+01 9.68328E-01 1.77454E-03 1.07377E+00 5.87964E-15 3.47131E-13
 -1      1071 1.73896E+01 7.43184E-02 2.62640E-03 2.29835E+00-2.26961E-14 8.24882E-14
 -1      1072 1.69866E+01 2.24728E+00-5.47684E-03 7.41829E-01 8.50155E-15-1.07728E-13
 -1      1073 2.00077E+01 4.43344E-03-4.24005E-06 2.69960E-04-7.44157E-14 1.94381E-13
 -1      1074 1.58131E+01 1.18326E+00 2.11832E-03-2.35282E-01 8.26433E-16 2.43709E-13
 -1      1075 1.89044E+01 9.06973E-01 1.97838E-04 3.15753E-01-1.72974E-13 2.36729E-13
 -1      1076 1.85818E+01 1.00178E+00 1.89898E-04 4.04950E-01-1.00697E-13 1.45618E-13
 -1      1077 1.81422E+01 1.13001E+00-5.79842E-04-1.87541E-01-1.76611E-13 2.41428E-13
 -1      1078 1.85679E+01 1.03411E+00-2.60374E-04-1.57596E-01-2.39493E-13 2.35573E-13
 -1      1079 1.89021E+01 9.21280E-01-1.87228E-04-1.31603E-01-1.09050E-13 2.16426E-13
 -1      1080 1.91666E+01 8.00676E-01-1.29167E-04-1.08688E-01-1.04739E-13 4.02806E-14
 -1      1081 1.93755E+01 6.80357E-01-8.86665E-05-8.85333E-02 4.86930E-14-4.91971E-14
 -1      1082 1.95395E+01 5.66309E-01-5.98291E-05-7.09773E-02-1.05406E-13-1.59702E-13
 -1      1083 1.96667E+01 4.62418E-01-3.88395E-05-5.59201E-02-8.15202E-14-1.49260E-13
 -1      1084 1.97643E+01 3.70780E-01-2.36017E-05-4.32458E-02-1.26961E-13-1.46012E-13
 -1      1085 1.98379E+01 2.92116E-01-1.27576E-05-3.27883E-02-7.88905E-15-2.71704E-13
 -1      1086 1.98925E+01 2.26162E-01-5.28287E-06-2.43323E-02-5.14330E-14-3.16901E-13
 -1      1087 1.99322E+01 1.72024E-01-3.54319E-07-1.76304E-02-2.16908E-13-7.02110E-14
 -1      1088 1.99604E+01 1.28442E-01 2.69469E-06-1.24235E-02-1.75121E-13 6.40101E-14
 -1      1089 1.99799E+01 9.40031E-02 4.39509E-06-8.45880E-03-3.85603E-13 8.44216E-14
 -1      1090 1.99928E+01 6.72777E-02 5.15833E-06-5.50232E-03-1.30377E-13 1.41116E-13
 -1      1091 2.00009E+01 4.69112E-02 5.29020E-06-3.34647E-03 1.76049E-13-3.16610E-14
 -1      1092 2.00056E+01 3.16763E-02 5.00278E-06-1.81348E-03 2.14313E-13-3.22329E-13
 -1      1093 2.00079E+01 2.04959E-02 4.46006E-06-7.55726E-04 7.01794E-14-2.88464E-13
 -1      1094 2.00086E+01 1.24456E-02 4.85814E-06-5.81883E-05 6.85130E-14-3.33400E-14
 -1      1095 1.70544E+01 1.03099E+00 1.04194E-05 9.22602E-01 1.80212E-14 6.29467E-14
 -1      1096 1.91630E+01 7.97559E-01 1.65108E-04 2.46607E-01-1.66875E-13 2.63951E-13
 -1      1097 1.93693E+01 6.83860E-01 1.26887E-04 1.92121E-01-2.52169E-13 1.91291E-13
 -1      1098 1.95324E+01 5.73366E-01 9.61503E-05 1.48742E-01-7.77569E-14 1.46572E-13
 -1      1099 1.96599E+01 4.71012E-01 7.28598E-05 1.14091E-01-8.20930E-14 8.86802E-15
 -1      1100 1.97582E+01 3.79639E-01 5.51617E-05 8.64772E-02-1.74587E-13 9.02467E-14
 -1      1101 1.98328E+01 3.00483E-01 4.15434E-05 6.46171E-02-1.34006E-13 1.17859E-13
 -1      1102 1.98884E+01 2.33639E-01 3.09826E-05 4.74771E-02-1.08805E-13 3.06393E-14
 -1      1103 1.99290E+01 1.78442E-01 2.27868E-05 3.41953E-02-1.00219E-13 6.05917E-14
 -1      1104 1.99580E+01 1.33782E-01 1.64581E-05 2.40411E-02-1.92666E-13-2.74217E-13
 -1      1105 1.99781E+01 9.83310E-02 1.16156E-05 1.63942E-02-1.20008E-13-2.34974E-13
 -1      1106 1.99916E+01 7.07052E-02 7.95570E-06 1.07315E-02 1.01980E-15 1.46733E-14
 -1      1107 2.00001E+01 4.95685E-02 5.23599E-06 6.61725E-03-1.11402E-13 2.46985E-13
 -1      1108 2.00051E+01 3.36957E-02 3.29674E-06 3.69331E-03-7.08920E-14 1.16273E-13
 -1      1109 2.00076E+01 2.20049E-02 2.36713E-06 1.67069E-03 1.01093E-13-1.30814E-13
 -1      1110 2.00085E+01 1.35598E-02-7.98372E-10 3.07113E-04 9.42260E-14-5.63454E-13
 -1      1111 2.00084E+01 8.39458E-03 4.43065E-06-3.45282E-04-9.80175E-14-5.29666E-13
 -1      1112 1.65070E+01 7.79420E-01-7.55952E-05 1.49524E+00 5.53370E-14 7.01677E-14
 -1      1113 1.76928E+01 1.08164E+00 1.55023E-03 6.85128E-01 6.45826E-14 1.15546E-13
 -1      1114 1.81808E+01 1.06734E+00-2.52892E-06 5.23879E-01-3.63141E-14 1.23448E-13
 -1      1115 1.68198E+01 1.21290E+00-6.01213E-04-1.76148E-01 1.04859E-13 2.85994E-13
 -1      1116 1.75640E+01 1.20268E+00 2.39016E-04-1.84897E-01 1.58492E-13 3.37447E-13
 -1      1117 2.00082E+01 6.73138E-03-9.33649E-07 3.87560E-04-1.35508E-14 1.53215E-14
 -1      1118 1.63557E+01 1.16076E+00 8.33909E-05 4.62329E-01 7.71667E-14 3.89199E-13
 -1      1119 2.00084E+01 8.50955E-03 1.79141E-06-3.13682E-05 3.63647E-14 1.40984E-14
 -1      1120 1.71844E+01 1.18318E+00-5.15840E-03 3.27381E-01 8.73570E-14 2.56094E-13
 -1      1121 2.86688E+01 9.28952E+00 2.29602E+00-6.41499E+00-2.00950E-14 6.59334E-13
 -1      1122 2.15932E+01 6.56100E+00 2.76723E-01-3.31316E+00-9.29812E-15 1.37938E-13
 -1      1123 2.02332E+01 6.10418E+00 1.14064E-01-2.10575E+00-8.29892E-15-8.98639E-14
 -1      1124 1.94181E+01 5.84674E+00 7.09564E-02-1.37433E+00-4.69069E-15-1.96169E-13
 -1      1125 1.87771E+01 5.64683E+00 4.56298E-02-8.67985E-01-2.92821E-15-2.54108E-13
 -1      1126 1.82580E+01 5.48505E+00 2.55252E-02-5.20553E-01-2.15106E-15-2.79940E-13
 -1      1127 1.78659E+01 5.36287E+00 1.03212E-02-2.88751E-01-1.13798E-15-2.83841E-13
 -1      1128 1.76205E+01 5.28636E+00 6.72262E-04-1.32992E-01-3.85109E-16-2.82030E-13
 -1      1129 1.75444E+01 5.26272E+00-2.00058E-03-1.49581E-02 8.02310E-16-2.79614E-13
 -1      1130 1.76421E+01 5.29338E+00 2.51143E-03 1.08284E-01 1.17267E-15-2.70931E-13
 -1      1131 1.79029E+01 5.37492E+00 1.35159E-02 2.78488E-01 2.62984E-15-2.56610E-13
 -1      1132 1.83012E+01 5.49931E+00 2.98419E-02 5.30716E-01 3.51802E-15-2.37029E-13
 -1      1133 1.88139E+01 5.65902E+00 4.94822E-02 9.00275E-01 5.49560E-15-1.87464E-13
 -1      1134 1.94387E+01 5.85345E+00 7.28013E-02 1.42810E+00 5.41234E-15-1.19903E-13
 -1      1135 2.02256E+01 6.10020E+00 1.08364E-01 2.17365E+00 8.90954E-15 2.16858E-14
 -1      1136 2.14744E+01 6.50825E+00 2.19722E-01 3.31989E+00 9.40914E-15 2.85164E-13
 -1      1137 2.60237E+01 8.23854E+00 1.43802E+00 5.55565E+00 1.52101E-14 8.02663E-13
 -1      1138 2.94205E+01 3.49692E+00 1.10906E+00-4.03726E+00-7.67997E-14 9.83547E-13
 -1      1139 2.17883E+01-1.90373E-01-6.32643E-01-4.54222E-02-2.67217E-14 8.10782E-13
 -1      1140 2.11482E+01-9.85506E-02-2.29232E-01 8.14070E-02-4.28303E-15 5.66158E-13
 -1      1141 2.14634E+01-5.06700E-02-6.00313E-02 5.61288E-02-6.79101E-15 3.90195E-13
 -1      1142 2.20708E+01-2.48906E-02-1.59553E-02 4.49197E-02-8.68858E-15 2.71755E-13
 -1      1143 2.28228E+01-5.60254E-03 4.64314E-03 3.93257E-02-7.48555E-15 2.55199E-13
 -1      1144 2.35720E+01 1.47394E-02 2.97662E-02 3.23355E-02-4.49922E-15 1.69902E-13
 -1      1145 2.41309E+01 3.75576E-02 6.29452E-02 1.79935E-02-1.28725E-14 1.25800E-13
 -1      1146 2.42652E+01 5.90293E-02 9.64383E-02-8.83461E-03 1.61598E-14 5.16445E-14
 -1      1147 2.37419E+01 6.87946E-02 1.11422E-01-4.88872E-02-2.48759E-15 6.79318E-15
 -1      1148 2.24541E+01 5.22431E-02 8.29191E-02-9.24866E-02 7.48707E-15-5.84949E-14
 -1      1149 2.05936E+01 1.44943E-03-1.05004E-03-1.16914E-01 1.07388E-14-3.02536E-15
 -1      1150 1.87383E+01-6.85555E-02-1.13900E-01-9.72395E-02-1.56646E-15 1.14866E-13
 -1      1151 1.76687E+01-1.17135E-01-1.90901E-01-2.98867E-02 2.47025E-15 7.42358E-14
 -1      1152 1.79192E+01-1.09054E-01-1.78235E-01 5.44393E-02-1.85980E-14 1.45509E-14
 -1      1153 1.94007E+01-5.00591E-02-8.49173E-02 1.11081E-01-4.70683E-14-9.67559E-14
 -1      1154 2.14670E+01 1.79213E-02 2.52773E-02 1.17899E-01-6.14526E-16-1.53280E-13
 -1      1155 2.33558E+01 6.02838E-02 9.51570E-02 8.64545E-02 2.99214E-14-2.31370E-13
 -1      1156 2.45873E+01 6.91820E-02 1.10240E-01 4.32368E-02 9.51756E-15-1.78600E-13
 -1      1157 2.50618E+01 5.61845E-02 8.85510E-02 7.88078E-03 1.85615E-14-1.45830E-13
 -1      1158 2.49299E+01 3.57687E-02 5.47639E-02-1.30580E-02-2.94027E-14-1.18315E-13
 -1      1159 2.44224E+01 1.70653E-02 2.47166E-02-2.15982E-02 3.54643E-15-1.33837E-13
 -1      1160 2.37438E+01 3.55545E-03 4.00697E-03-2.23881E-02 2.03749E-15-8.62505E-15
 -1      1161 2.30355E+01-4.65936E-03-7.75290E-03-1.94463E-02-2.12859E-14-6.42091E-14
 -1      1162 2.23789E+01-8.79543E-03-1.30501E-02-1.53171E-02 9.29465E-15-9.82443E-14
 -1      1163 2.18113E+01-1.02362E-02-1.43947E-02-1.13004E-02-9.59291E-15 2.10928E-13
 -1      1164 2.13432E+01-1.00949E-02-1.36331E-02-7.91665E-03 1.45685E-14 2.75485E-13
 -1      1165 2.09703E+01-9.13825E-03-1.19279E-02-5.28065E-03 1.17311E-16 3.07471E-14
 -1      1166 2.06812E+01-7.84497E-03-9.93850E-03-3.32890E-03 5.04655E-14 6.13476E-14
 -1      1167 2.04624E+01-6.49117E-03-8.00486E-03-1.93882E-03-1.73589E-14-2.26217E-14
 -1      1168 2.03007E+01-5.22246E-03-6.28135E-03-9.83078E-04-4.32860E-14-3.31822E-13
 -1      1169 2.01838E+01-4.10542E-03-4.82108E-03-3.50548E-04 4.05888E-14-2.31379E-13
 -1      1170 2.01016E+01-3.16130E-03-3.62522E-03 4.83238E-05-4.66583E-14-2.50101E-13
 -1      1171 2.00457E+01-2.38679E-03-2.67065E-03 2.82591E-04 2.79977E-14-5.62630E-13
 -1      1172 2.00090E+01-1.76639E-03-1.92473E-03 4.04030E-04 6.80483E-14-6.36100E-13
 -1      1173 1.99864E+01-1.27963E-03-1.35308E-03 4.50656E-04 4.51829E-14-5.79545E-13
 -1      1174 1.99738E+01-9.05009E-04-9.23258E-04 4.49877E-04 1.47813E-14-6.00035E-13
 -1      1175 1.99679E+01-6.22124E-04-6.06488E-04 4.21075E-04-3.90477E-15-1.90335E-13
 -1      1176 1.99666E+01-4.12677E-04-3.78133E-04 3.77660E-04-3.05723E-14-1.12617E-13
 -1      1177 1.99682E+01-2.60842E-04-2.17648E-04 3.28653E-04-7.85750E-15-7.11883E-14
 -1      1178 1.99714E+01-1.53264E-04-1.08199E-04 2.79899E-04 5.74811E-14-2.63572E-14
 -1      1179 1.99754E+01-7.88540E-05-3.61449E-05 2.34967E-04-3.22917E-14 2.73753E-15
 -1      1180 1.99799E+01-2.84734E-05 9.58168E-06 1.95795E-04-1.26849E-14-3.14557E-13
 -1      1181 1.99843E+01 5.43693E-06 3.81748E-05 1.63099E-04-3.41196E-14-1.21390E-13
 -1      1182 1.99884E+01 2.92249E-05 5.78109E-05 1.36514E-04 1.59542E-14 1.31604E-13
 -1      1183 1.99922E+01 4.83145E-05 7.65937E-05 1.14337E-04 4.90160E-14 6.50913E-13
 -1      1184 1.99954E+01 6.71848E-05 1.02445E-04 9.23932E-05-1.13035E-14 1.02379E-12
 -1      1185 1.99980E+01 8.68859E-05 1.35510E-04 6.01475E-05 3.10256E-14 1.08708E-12
 -1      1186 1.99996E+01 1.11718E-04 1.36926E-04-3.77184E-06 3.35499E-14 8.09340E-13
 -1      1187 1.99999E+01-3.73021E-05-6.91345E-05-4.18168E-05 3.70842E-14 5.64676E-13
 -1      1188 2.83962E+01 5.19378E-01 2.38898E-01 1.92234E+00-1.18031E-14 1.21675E-12
 -1      1189 2.16445E+01-7.23771E-02-5.80547E-01 1.04839E-01-3.22659E-16 1.01158E-12
 -1      1190 2.11382E+01-4.47277E-02-1.89009E-01 7.70446E-03-5.74193E-16 8.13617E-13
 -1      1191 2.13607E+01-2.36819E-02-5.08713E-02-8.07033E-03 1.28331E-14 6.55635E-13
 -1      1192 2.18832E+01-9.62428E-03-1.20512E-02-1.65049E-02 2.16342E-15 5.76400E-13
 -1      1193 2.25305E+01 4.76527E-03 7.75796E-03-2.37182E-02-4.53245E-15 5.37029E-13
 -1      1194 2.31493E+01 2.13591E-02 3.10473E-02-3.01147E-02 5.90023E-16 5.22235E-13
 -1      1195 2.35630E+01 3.83143E-02 5.99335E-02-3.25572E-02-2.12243E-15 4.84416E-13
 -1      1196 2.35693E+01 4.95488E-02 8.62711E-02-2.56187E-02 1.62752E-14 3.00270E-13
 -1      1197 2.29887E+01 4.58352E-02 9.38228E-02-4.07473E-03-5.36290E-15 2.55670E-13
 -1      1198 2.17702E+01 2.04756E-02 6.47405E-02 3.16425E-02 1.79986E-14 1.18086E-13
 -1      1199 2.01173E+01-2.14945E-02-4.86239E-03 6.98458E-02 2.26753E-14-1.31839E-15
 -1      1200 1.85288E+01-6.02761E-02-9.06624E-02 8.91614E-02-2.35159E-14 1.44607E-13
 -1      1201 1.76345E+01-7.27925E-02-1.46626E-01 7.25530E-02-4.26768E-14 4.09933E-13
 -1      1202 1.78522E+01-5.32174E-02-1.38544E-01 2.38746E-02 2.21212E-14 6.83342E-14
 -1      1203 1.91123E+01-1.77353E-02-7.49827E-02-3.18001E-02 8.57647E-15-1.49880E-13
 -1      1204 2.09066E+01 1.29778E-02 2.97805E-03-6.77945E-02-2.68709E-14-4.99323E-14
 -1      1205 2.26155E+01 2.86097E-02 5.71792E-02-7.46862E-02 2.14663E-14 3.55688E-14
 -1      1206 2.38148E+01 3.03819E-02 7.51713E-02-5.96635E-02 1.46983E-14-1.59289E-13
 -1      1207 2.43751E+01 2.43165E-02 6.60985E-02-3.64380E-02-2.17569E-14-7.71466E-14
 -1      1208 2.43862E+01 1.59575E-02 4.52851E-02-1.51969E-02 1.56307E-14 6.26274E-14
 -1      1209 2.40277E+01 8.41043E-03 2.43848E-02-2.91767E-04-3.32176E-14 1.69703E-13
 -1      1210 2.34762E+01 2.80856E-03 8.60445E-03 8.14075E-03 1.55241E-14-1.26867E-13
 -1      1211 2.28643E+01-8.11933E-04-1.29840E-03 1.17224E-02 2.56534E-14-5.01918E-13
 -1      1212 2.22749E+01-2.84885E-03-6.50890E-03 1.22829E-02-1.84396E-15-8.44810E-16
 -1      1213 2.17514E+01-3.77542E-03-8.59170E-03 1.12462E-02 2.91313E-14 3.44450E-13
 -1      1214 2.13109E+01-3.99407E-03-8.83970E-03 9.53881E-03-8.14539E-15 5.04255E-13
 -1      1215 2.09542E+01-3.80114E-03-8.13817E-03 7.69179E-03 7.92042E-15 3.59436E-13
 -1      1216 2.06744E+01-3.39703E-03-7.03025E-03 5.97388E-03 2.35597E-16 2.77439E-13
 -1      1217 2.04604E+01-2.90886E-03-5.82288E-03 4.49777E-03-1.91380E-14 4.77227E-13
 -1      1218 2.03010E+01-2.41254E-03-4.67541E-03 3.29104E-03-1.39802E-15 4.90758E-13
 -1      1219 2.01851E+01-1.94994E-03-3.66064E-03 2.33902E-03 4.21145E-14 2.74633E-13
 -1      1220 2.01031E+01-1.54137E-03-2.80297E-03 1.60899E-03-5.12847E-14 5.30585E-13
 -1      1221 2.00470E+01-1.19390E-03-2.10114E-03 1.06315E-03-3.80259E-14 7.44101E-13
 -1      1222 2.00101E+01-9.06872E-04-1.54136E-03 6.64983E-04-1.36942E-14 4.30659E-13
 -1      1223 1.99873E+01-6.75478E-04-1.10468E-03 3.82062E-04-5.04807E-14 8.50715E-14
 -1      1224 1.99744E+01-4.92935E-04-7.71050E-04 1.87013E-04 7.30853E-14-4.26857E-13
 -1      1225 1.99684E+01-3.51845E-04-5.21432E-04 5.74731E-05 1.14354E-13-5.85033E-13
 -1      1226 1.99669E+01-2.44969E-04-3.38773E-04-2.43821E-05-1.47123E-14-5.63515E-13
 -1      1227 1.99683E+01-1.65637E-04-2.08374E-04-7.24780E-05 1.41531E-14-5.06706E-13
 -1      1228 1.99715E+01-1.07909E-04-1.17867E-04-9.75206E-05-8.07752E-15-3.43971E-13
 -1      1229 1.99755E+01-6.65857E-05-5.69796E-05-1.07636E-04-1.03688E-13 5.55123E-13
 -1      1230 1.99799E+01-3.71064E-05-1.71497E-05-1.08940E-04 3.83654E-15 4.69060E-13
 -1      1231 1.99843E+01-1.53530E-05 9.04223E-06-1.06005E-04 3.40519E-14-3.92820E-13
 -1      1232 1.99884E+01 2.55776E-06 2.86796E-05-1.02168E-04 1.02846E-13-7.01124E-13
 -1      1233 1.99922E+01 2.04272E-05 4.94793E-05-9.95821E-05-3.53423E-14-8.93388E-13
 -1      1234 1.99954E+01 4.21175E-05 7.95542E-05-9.86075E-05 1.78278E-14-7.45844E-13
 -1      1235 1.99980E+01 6.72547E-05 1.18876E-04-9.30734E-05-2.84108E-14-7.42772E-13
 -1      1236 1.99996E+01 7.11628E-05 1.21285E-04-5.77003E-05 1.18949E-13-1.23558E-12
 -1      1237 1.99999E+01-3.43586E-05-7.17672E-05 3.61852E-05 2.32188E-16-1.06736E-12
 -1      1238 1.99998E+01 1.01189E-04-6.80250E-05 3.17364E-05-1.11293E-12-7.58406E-14
 -1      1239 1.99999E+01-2.49745E-04 1.20271E-04 2.62745E-06-1.32377E-12 1.38055E-14
 -1      1240 1.99999E+01-1.78523E-03 1.00695E-04-6.81024E-05 5.07267E-13 2.78400E-13
 -1      1241 1.99998E+01-4.04132E-03 3.36040E-05-8.97357E-05 1.83258E-12 2.25983E-13
 -1      1242 1.99998E+01-6.50172E-03-2.61656E-05-8.74867E-05 2.38436E-12-2.88270E-14
 -1      1243 1.99998E+01-8.75746E-03-6.94674E-05-7.22139E-05 1.37835E-12-3.60527E-14
 -1      1244 1.99997E+01-1.05499E-02-9.70779E-05-5.17757E-05 6.73943E-13-6.50698E-14
 -1      1245 1.99997E+01-1.17058E-02-1.12976E-04-2.65214E-05 4.49465E-13-7.34610E-14
 -1      1246 1.99997E+01-1.20987E-02-1.18042E-04 1.94993E-07 1.24729E-13-9.18372E-14
 -1      1247 1.99997E+01-1.16943E-02-1.12869E-04 2.69293E-05 1.85666E-14 9.64934E-14
 -1      1248 1.99997E+01-1.05277E-02-9.66631E-05 5.21386E-05-3.41781E-13-5.64681E-14
 -1      1249 1.99998E+01-8.72556E-03-6.85948E-05 7.36706E-05-6.88002E-13-2.30629E-14
 -1      1250 1.99998E+01-6.46546E-03-2.57736E-05 8.77184E-05-1.20172E-12-1.63336E-13
 -1      1251 1.99998E+01-4.00130E-03 3.53445E-05 9.10895E-05-1.02328E-12 8.81632E-14
 -1      1252 1.99999E+01-1.71779E-03 1.12926E-04 8.11677E-05-3.20723E-13 1.29052E-13
 -1      1253 1.99999E+01-2.76210E-04 1.15555E-04-2.34909E-05-4.96915E-13-9.60518E-14
 -1      1254 1.99998E+01 1.10524E-04-7.21390E-05-3.36765E-05-4.79406E-13 1.21418E-13
 -1      1255-1.18675E+00-2.38374E+01-3.72024E+00-2.32539E+00 6.68188E-13 1.54408E-13
 -1      1256-1.85976E+00-1.45589E+01-3.03825E+00-3.78861E+00 1.28275E-12 4.73011E-13
 -1      1257 5.09139E-01-2.05988E+00-1.85649E+00 2.26420E-01 1.27187E-12 8.05800E-13
 -1      1258 9.69476E+00 7.93428E+00-2.23912E-01 8.66693E+00 1.12932E-12 1.03073E-12
 -1      1259 2.64734E+01 1.10227E+01 1.43642E+00 1.63741E+01 7.28195E-13 1.06692E-12
 -1      1260 4.66640E+01 7.97998E+00 2.99059E+00 1.75489E+01 3.11029E-13 7.62057E-13
 -1      1261 6.25261E+01 3.41643E+00 3.95631E+00 9.69092E+00 7.35037E-14 2.68452E-13
 -1      1262 6.71304E+01 1.91930E+00 4.33555E+00-3.31182E+00 8.21010E-14-5.78648E-13
 -1      1263 5.60444E+01 5.48076E+00 3.59238E+00-1.46593E+01 3.72952E-13-1.21314E-12
 -1      1264 3.59266E+01 1.02665E+01 2.23972E+00-1.80592E+01 8.27338E-13-1.48992E-12
 -1      1265 1.61874E+01 1.03779E+01 5.37328E-01-1.25550E+01 1.11289E-12-1.27853E-12
 -1      1266 3.21510E+00 2.82753E+00-1.18092E+00-3.29378E+00 1.21281E-12-9.41691E-13
 -1      1267-1.49837E+00-9.61374E+00-2.59121E+00 3.14645E+00 8.72191E-13-4.31877E-13
 -1      1268-1.37652E+00-2.09903E+01-3.48110E+00 3.67277E+00 5.19362E-13-1.33810E-13
 -1      1269-8.74775E-01-2.54057E+01-3.82138E+00-2.37343E-01-1.26260E-13-6.33937E-14
 -1      1270-1.56388E+00-2.05200E+01-3.49121E+00-3.82392E+00-9.70779E-13-2.84633E-13
 -1      1271-1.45647E+00-9.37877E+00-2.60011E+00-3.09058E+00-1.26810E-12-5.65770E-13
 -1      1272 3.79364E+00 3.01990E+00-1.09812E+00 3.62727E+00-1.21414E-12-9.17710E-13
 -1      1273 1.71581E+01 1.02155E+01 5.99760E-01 1.27233E+01-9.57234E-13-1.13309E-12
 -1      1274 3.67664E+01 1.01608E+01 2.36338E+00 1.80807E+01-6.39266E-13-1.14553E-12
 -1      1275 5.61182E+01 5.69150E+00 3.64520E+00 1.46536E+01-2.33091E-13-7.27862E-13
 -1      1276 6.73253E+01 1.74037E+00 4.31677E+00 3.74271E+00-6.90697E-14-2.36200E-14
 -1      1277 6.35720E+01 2.97030E+00 4.02953E+00-9.29401E+00-1.14027E-13 7.51177E-13
 -1      1278 4.80363E+01 7.56725E+00 3.03742E+00-1.73393E+01-5.52891E-13 1.38334E-12
 -1      1279 2.75222E+01 1.09043E+01 1.50698E+00-1.65896E+01-1.06271E-12 1.58051E-12
 -1      1280 1.00998E+01 8.07317E+00-1.89906E-01-8.86475E+00-1.67311E-12 1.63181E-12
 -1      1281 4.29070E-01-2.13975E+00-1.81738E+00 5.60719E-02-1.47149E-12 9.35474E-13
 -1      1282-1.78591E+00-1.51734E+01-3.04922E+00 4.18190E+00-8.85070E-13 3.99958E-13
 -1      1283-1.03080E+00-2.40573E+01-3.70497E+00 2.22076E+00-1.53655E-13 1.08601E-13
 -1      1284 2.34042E+01 1.90616E+00-7.12455E-01-2.50056E+00-3.11418E-14 5.39013E-13
 -1      1285 2.14494E+01 4.79156E+00-3.62778E-02-2.64274E+00-8.18651E-14 2.88033E-14
 -1      1286 2.20705E+01 4.91410E+00-7.81109E-02-3.58214E+00-1.03140E-13 1.46369E-13
 -1      1287 2.02762E+01 5.09363E+00-1.70728E-02-1.84861E+00-7.53841E-14-1.39343E-13
 -1      1288 2.07759E+01 5.24425E+00 2.39262E-02-2.29619E+00-8.80546E-14-6.50729E-14
 -1      1289 2.16146E+01 3.98836E+00-1.52264E-02-2.35747E+00-1.42133E-13 3.45279E-14
 -1      1290 1.94577E+01 5.15010E+00-9.49413E-03-1.22471E+00-5.62467E-14-2.18648E-13
 -1      1291 1.98533E+01 5.27630E+00 2.37514E-02-1.52596E+00-7.01036E-14-1.81338E-13
 -1      1292 2.04138E+01 4.45141E+00-1.88212E-02-1.68012E+00-1.20567E-13-1.04014E-13
 -1      1293 1.87881E+01 5.15019E+00-8.20008E-03-7.73042E-01-4.03635E-14-2.68712E-13
 -1      1294 1.91144E+01 5.25310E+00 1.80398E-02-9.85526E-01-4.17583E-14-2.47559E-13
 -1      1295 1.95285E+01 4.67062E+00-1.77677E-02-1.11582E+00-8.04565E-14-1.82090E-13
 -1      1296 1.82532E+01 5.13750E+00-8.57625E-03-4.62303E-01-2.61978E-14-2.82566E-13
 -1      1297 1.85100E+01 5.21770E+00 1.18585E-02-6.07417E-01-3.25920E-14-2.74711E-13
 -1      1298 1.88212E+01 4.79739E+00-1.51249E-02-7.05655E-01-6.31318E-14-2.14408E-13
 -1      1299 1.78551E+01 5.12595E+00-8.87083E-03-2.49017E-01-1.19488E-14-2.89709E-13
 -1      1300 1.80376E+01 5.18242E+00 5.35213E-03-3.49251E-01-1.42560E-14-2.88004E-13
 -1      1301 1.82634E+01 4.87892E+00-1.31294E-02-4.18670E-01-3.22234E-14-2.35119E-13
 -1      1302 1.76308E+01 5.12337E+00-7.43590E-03-1.02991E-01 4.79998E-15-2.86897E-13
 -1      1303 1.77218E+01 5.15140E+00-6.01853E-04-1.74874E-01 7.65013E-16-2.86238E-13
 -1      1304 1.78720E+01 4.92886E+00-1.20190E-02-2.20862E-01-1.05289E-14-2.32632E-13
 -1      1305 1.75971E+01 5.13154E+00-4.09519E-03 1.64526E-02 2.02581E-14-2.80425E-13
 -1      1306 1.75899E+01 5.12922E+00-5.15244E-03-4.75718E-02 1.63029E-14-2.82412E-13
 -1      1307 1.76774E+01 4.95034E+00-1.15264E-02-7.88850E-02 1.89664E-14-2.31148E-13
 -1      1308 1.77544E+01 5.15017E+00 8.81619E-04 1.51535E-01 3.67623E-14-2.69534E-13
 -1      1309 1.76510E+01 5.11812E+00-7.80830E-03 7.46401E-02 2.91121E-14-2.74680E-13
 -1      1310 1.76930E+01 4.94427E+00-1.16334E-02 4.76930E-02 4.18656E-14-2.23984E-13
 -1      1311 1.80865E+01 5.17716E+00 6.73878E-03 3.42419E-01 5.01266E-14-2.61312E-13
 -1      1312 1.78970E+01 5.11869E+00-8.48611E-03 2.33259E-01 4.44644E-14-2.70397E-13
 -1      1313 1.79147E+01 4.91186E+00-1.23334E-02 2.00032E-01 7.04983E-14-2.23833E-13
 -1      1314 1.85573E+01 5.20928E+00 1.29483E-02 6.18852E-01 6.11733E-14-2.27228E-13
 -1      1315 1.83010E+01 5.12890E+00-7.77514E-03 4.63658E-01 5.85781E-14-2.45743E-13
 -1      1316 1.83179E+01 4.85476E+00-1.34389E-02 4.13735E-01 8.49772E-14-2.05501E-13
 -1      1317 1.91580E+01 5.24161E+00 1.88479E-02 1.02204E+00 8.45227E-14-1.82260E-13
 -1      1318 1.88371E+01 5.14007E+00-7.12605E-03 7.98522E-01 7.28029E-14-2.08805E-13
 -1      1319 1.88761E+01 4.76915E+00-1.54399E-02 7.22022E-01 1.11435E-13-1.68993E-13
 -1      1320 1.98782E+01 5.26233E+00 2.32458E-02 1.58362E+00 9.97397E-14-9.87890E-14
 -1      1321 1.94930E+01 5.13777E+00-8.96019E-03 1.27261E+00 9.22734E-14-1.48763E-13
 -1      1322 1.95781E+01 4.63880E+00-1.81155E-02 1.15698E+00 1.40500E-13-1.16095E-13
 -1      1323 2.07904E+01 5.24526E+00 2.81741E-02 2.36382E+00 1.08469E-13 5.71002E-14
 -1      1324 2.02899E+01 5.08174E+00-1.71978E-02 1.91774E+00 9.44869E-14-3.74457E-14
 -1      1325 2.04448E+01 4.41831E+00-1.96551E-02 1.74447E+00 1.58706E-13-1.54113E-14
 -1      1326 2.22430E+01 5.00215E+00 3.15408E-02 3.52388E+00 8.90121E-14 3.30763E-13
 -1      1327 2.14100E+01 4.83127E+00-3.46133E-02 2.77709E+00 8.98726E-14 1.64049E-13
 -1      1328 2.16367E+01 3.94887E+00-1.15429E-02 2.48832E+00 1.62009E-13 1.47216E-13
 -1      1329 2.80813E+01 3.20123E+00 8.73360E-01 4.30412E+00 3.85247E-14 8.31002E-13
 -1      1330 2.31642E+01 3.57560E+00-1.70260E-01 3.46494E+00 4.41869E-14 4.83863E-13
 -1      1331 2.33860E+01 2.54935E+00-1.69407E-02 2.90415E+00 1.43417E-13 3.89383E-13
 -1      1332 2.26971E+01 3.30774E-01-7.61642E-01 9.08392E-01 7.32053E-14 8.09797E-13
 -1      1333 2.34196E+01 1.08243E-01-3.97969E-01-9.77292E-01-7.74797E-14 5.62883E-13
 -1      1334 2.24354E+01 2.85912E-01-1.52389E-01-5.39773E-01-7.05200E-14 4.78895E-13
 -1      1335 2.20363E+01 1.50612E-01-6.90564E-02-1.40854E-01-4.97137E-14 4.40745E-13
 -1      1336 2.18902E+01 8.93452E-02-1.04038E-02-7.39265E-02-5.51642E-14 3.54921E-13
 -1      1337 2.26847E+01 3.43897E-01-1.03014E-01-7.66517E-01-1.23936E-13 2.76633E-13
 -1      1338 2.17707E+01 6.78797E-02 3.80676E-03 1.22716E-01-5.08369E-14 3.27974E-13
 -1      1339 2.19357E+01 4.34118E-02 1.36809E-02 1.42893E-01-4.48426E-14 2.55809E-13
 -1      1340 2.20722E+01 1.29827E-01-3.67514E-02-2.25954E-03-9.49414E-14 2.19467E-13
 -1      1341 2.20245E+01 3.48589E-02 1.15224E-02 2.37115E-01-3.94593E-14 2.10606E-13
 -1      1342 2.23277E+01 1.74647E-02 9.69748E-03 2.48298E-01-4.64112E-14 1.74943E-13
 -1      1343 2.20720E+01 5.78418E-02-1.02337E-02 3.41725E-01-8.88248E-14 1.61600E-13
 -1      1344 2.25208E+01 1.11154E-02 6.67183E-03 2.82690E-01-3.03604E-15 1.61472E-13
 -1      1345 2.28674E+01-5.51916E-03 4.89273E-03 2.83706E-01-1.23979E-14 1.47958E-13
 -1      1346 2.23541E+01 1.65470E-02-4.06141E-03 4.98425E-01-4.67725E-14 1.21845E-13
 -1      1347 2.30915E+01-1.49337E-02 4.17308E-03 2.61825E-01-3.15208E-14 1.51781E-13
 -1      1348 2.33942E+01-3.29131E-02 3.57413E-03 2.49137E-01-2.37284E-14 1.15546E-13
 -1      1349 2.27697E+01-2.48084E-02 9.33497E-04 5.18456E-01-4.80398E-14 1.07054E-13
 -1      1350 2.35800E+01-4.70960E-02 5.88700E-03 1.61321E-01-1.83534E-15 1.18881E-13
 -1      1351 2.37370E+01-6.45572E-02 5.54604E-03 1.30584E-01-4.36335E-14 8.69010E-14
 -1      1352 2.31849E+01-7.59940E-02 8.32456E-03 3.92771E-01-2.66748E-14 1.25995E-13
 -1      1353 2.38123E+01-8.18054E-02 1.08536E-02-2.87411E-02-5.08829E-14 1.08863E-13
 -1      1354 2.37148E+01-9.20934E-02 9.49046E-03-7.88374E-02-2.77434E-14 7.92786E-14
 -1      1355 2.34629E+01-1.32742E-01 1.77917E-02 1.01447E-01-5.72840E-14 1.29082E-13
 -1      1356 2.36138E+01-1.05345E-01 1.62052E-02-2.91334E-01-1.62760E-14 8.10914E-14
 -1      1357 2.31859E+01-9.74168E-02 1.23317E-02-3.52731E-01-3.93297E-14 4.80449E-14
 -1      1358 2.34658E+01-1.74046E-01 2.65103E-02-3.43929E-01-5.11466E-14 1.16672E-13
 -1      1359 2.28773E+01-9.44685E-02 1.67798E-02-5.56537E-01-3.34689E-14 9.66310E-14
 -1      1360 2.21425E+01-5.87920E-02 9.32192E-03-6.06160E-01-1.61156E-15 6.85008E-14
 -1      1361 2.30902E+01-1.63239E-01 2.84323E-02-8.51721E-01-2.94782E-14 1.50826E-13
 -1      1362 2.16723E+01-3.02069E-02 7.59951E-03-6.98125E-01 6.46369E-15 3.34593E-14
 -1      1363 2.08105E+01 2.89345E-02-2.69035E-03-7.02526E-01-7.29430E-15 6.76126E-14
 -1      1364 2.23385E+01-6.81097E-02 1.62095E-02-1.22376E+00-8.26509E-15 1.65081E-13
 -1      1365 2.03295E+01 7.49383E-02-1.04003E-02-5.89271E-01 7.25375E-15 3.93990E-14
 -1      1366 1.96538E+01 1.31388E-01-1.96443E-02-5.27779E-01-2.72629E-14 2.50355E-14
 -1      1367 2.13969E+01 9.88290E-02-1.18252E-02-1.21301E+00-8.53918E-15 4.60673E-14
 -1      1368 1.93749E+01 1.65349E-01-2.66086E-02-2.11182E-01 1.99667E-15 5.91888E-15
 -1      1369 1.91872E+01 1.84305E-01-2.95806E-02-1.02736E-01-3.20126E-14 1.92663E-14
 -1      1370 2.06320E+01 2.59210E-01-4.28274E-02-6.93649E-01-4.60135E-14-1.58571E-14
 -1      1371 1.92614E+01 1.78747E-01-2.86252E-02 2.83612E-01-5.79068E-14-1.76196E-14
 -1      1372 1.96638E+01 1.46777E-01-2.33735E-02 3.84072E-01-8.25139E-14-8.15806E-14
 -1      1373 2.04226E+01 3.12458E-01-5.43943E-02 1.71907E-01-9.61072E-14-2.69390E-14
 -1      1374 2.00652E+01 1.06832E-01-1.56270E-02 6.55312E-01-6.78312E-14-8.87485E-14
 -1      1375 2.08891E+01 4.56891E-02-5.19603E-03 6.99486E-01-6.13580E-14-1.40152E-13
 -1      1376 2.09018E+01 2.24277E-01-3.55160E-02 9.79617E-01-1.15330E-13-9.06133E-14
 -1      1377 2.14357E+01 2.56735E-03 8.22057E-04 7.53702E-01 7.54605E-17-1.31062E-13
 -1      1378 2.23573E+01-5.25780E-02 1.08333E-02 7.34428E-01 3.22832E-15-1.76442E-13
 -1      1379 2.18494E+01 5.17610E-02-3.26543E-03 1.36763E+00-3.49807E-14-1.00406E-13
 -1      1380 2.28426E+01-7.36071E-02 1.02371E-02 6.02288E-01-2.05218E-14-1.06123E-13
 -1      1381 2.35747E+01-1.02331E-01 1.70100E-02 5.46724E-01 9.59996E-15-1.26309E-13
 -1      1382 2.28637E+01-1.00918E-01 2.12412E-02 1.25686E+00-1.14960E-14-1.04578E-13
 -1      1383 2.38740E+01-9.92920E-02 1.09577E-02 3.31384E-01 6.36245E-14-1.43240E-13
 -1      1384 2.42798E+01-1.02425E-01 1.42110E-02 2.71445E-01 4.29743E-14-1.10495E-13
 -1      1385 2.36149E+01-1.72525E-01 2.93756E-02 8.24307E-01 6.68528E-14-7.85223E-14
 -1      1386 2.43686E+01-8.67765E-02 6.91550E-03 6.65699E-02 1.02123E-14-1.25757E-13
 -1      1387 2.44554E+01-7.54151E-02 7.87590E-03 2.08977E-02-1.58979E-14-1.17072E-13
 -1      1388 2.39662E+01-1.66548E-01 2.51901E-02 3.14139E-01 1.67227E-14-6.83479E-14
 -1      1389 2.43728E+01-5.84326E-02 2.46422E-03-1.26146E-01-1.38362E-14-1.62156E-13
 -1      1390 2.42259E+01-4.30170E-02 2.35414E-03-1.53037E-01-7.10473E-14-1.68197E-13
 -1      1391 2.39432E+01-1.19979E-01 1.63432E-02-1.06282E-01-1.81374E-14-1.47766E-13
 -1      1392 2.40325E+01-3.03577E-02-3.33438E-04-2.35164E-01 7.53000E-15-9.70647E-14
 -1      1393 2.37523E+01-1.67184E-02-8.77982E-04-2.46473E-01 5.01773E-14-3.28123E-14
 -1      1394 2.36503E+01-6.69463E-02 7.92728E-03-3.76410E-01-2.51361E-15-6.38569E-14
 -1      1395 2.35046E+01-9.39293E-03-1.37429E-03-2.76905E-01-5.92707E-14-6.55032E-14
 -1      1396 2.31728E+01 5.32365E-04-2.10172E-03-2.77916E-01-6.16566E-14-1.36639E-13
 -1      1397 2.32036E+01-2.49048E-02 1.86931E-03-5.06830E-01-5.22694E-14-6.90533E-14
 -1      1398 2.29127E+01 3.63014E-03-1.30849E-03-2.74659E-01-1.23714E-14-1.56802E-13
 -1      1399 2.25831E+01 9.96647E-03-2.12846E-03-2.69991E-01-1.50029E-14-1.58928E-13
 -1      1400 2.26979E+01 2.12411E-03-1.74650E-03-5.36138E-01-7.40821E-14-9.82808E-14
 -1      1401 2.23369E+01 1.03789E-02-7.93910E-04-2.48363E-01 8.86038E-14-1.62155E-13
 -1      1402 2.20390E+01 1.39704E-02-1.65144E-03-2.41214E-01 4.28135E-14-8.15233E-14
 -1      1403 2.21981E+01 1.65348E-02-3.52910E-03-5.04296E-01 5.49885E-14-8.97229E-14
 -1      1404 2.18208E+01 1.29599E-02-2.37990E-04-2.11847E-01 2.12935E-14-6.41345E-14
 -1      1405 2.15672E+01 1.46975E-02-1.07812E-03-2.04138E-01 2.31635E-14 3.65073E-15
 -1      1406 2.17419E+01 2.23590E-02-4.14376E-03-4.42041E-01 9.45799E-14-1.26012E-13
 -1      1407 2.13824E+01 1.30969E-02 1.86293E-04-1.73476E-01-2.64545E-16 4.91334E-14
 -1      1408 2.11753E+01 1.36849E-02-5.88598E-04-1.66222E-01-2.53270E-14-1.01447E-14
 -1      1409 2.13468E+01 2.31119E-02-4.09715E-03-3.69479E-01 3.76869E-16-1.08963E-13
 -1      1410 2.10240E+01 1.19723E-02 4.45538E-04-1.37712E-01-3.28541E-14-4.04468E-14
 -1      1411 2.08601E+01 1.19008E-02-2.32187E-04-1.31369E-01-5.88626E-14-9.74130E-14
 -1      1412 2.10178E+01 2.12495E-02-3.71949E-03-2.98216E-01-7.00186E-14-1.49141E-13
 -1      1413 2.07396E+01 1.03163E-02 5.66932E-04-1.06552E-01 3.56915E-14-7.98255E-14
 -1      1414 2.06133E+01 9.90150E-03 3.50188E-07-1.01255E-01 2.44566E-14-8.03648E-14
 -1      1415 2.07518E+01 1.82863E-02-3.20727E-03-2.34087E-01-2.87320E-14-1.79615E-13
 -1      1416 2.05195E+01 8.54398E-03 5.92789E-04-8.05671E-02-5.21176E-15-1.13271E-14
 -1      1417 2.04245E+01 7.97969E-03 1.36848E-04-7.62865E-02-5.06687E-14-6.10378E-14
 -1      1418 2.05420E+01 1.50727E-02-2.66987E-03-1.79389E-01 1.53449E-14-1.67599E-13
 -1      1419 2.03531E+01 6.87118E-03 5.60948E-04-5.95733E-02-1.28253E-13-3.29645E-14
 -1      1420 2.02832E+01 6.27069E-03 2.05921E-04-5.62007E-02-5.29746E-14-1.73326E-13
 -1      1421 2.03803E+01 1.20416E-02-2.16395E-03-1.34429E-01-9.28643E-14 3.12449E-14
 -1      1422 2.02299E+01 5.39576E-03 4.99248E-04-4.30319E-02 1.20747E-13-8.87230E-14
 -1      1423 2.01797E+01 4.82149E-03 2.30889E-04-4.04319E-02 9.03755E-14 5.06053E-14
 -1      1424 2.02582E+01 9.38312E-03-1.71556E-03-9.84951E-02 8.78995E-15 7.48852E-14
 -1      1425 2.01409E+01 4.14920E-03 4.26000E-04-3.02778E-02-7.65305E-14-3.71714E-14
 -1      1426 2.01059E+01 3.63242E-03 2.28851E-04-2.83135E-02-8.71333E-14-1.51792E-13
 -1      1427 2.01680E+01 7.15390E-03-1.33353E-03-7.04340E-02-1.48591E-14 5.55603E-14
 -1      1428 2.00783E+01 3.12783E-03 3.52218E-04-2.06405E-02-6.87005E-14-2.27338E-13
 -1      1429 2.00546E+01 2.68116E-03 2.11593E-04-1.91860E-02-3.37566E-14-3.08889E-13
 -1      1430 2.01029E+01 5.34257E-03-1.01730E-03-4.89717E-02-1.51075E-13 7.88622E-14
 -1      1431 2.00355E+01 2.31098E-03 2.83917E-04-1.35038E-02 1.27633E-14-3.49172E-13
 -1      1432 2.00202E+01 1.93623E-03 1.86887E-04-1.24495E-02 9.02429E-14-3.67625E-13
 -1      1433 2.00570E+01 3.90642E-03-7.61554E-04-3.28815E-02-4.12879E-14-7.04276E-14
 -1      1434 2.00075E+01 1.67113E-03 2.23906E-04-8.33076E-03 1.55134E-14-4.78405E-13
 -1      1435 1.99983E+01 1.36416E-03 1.59647E-04-7.58466E-03-9.29499E-14-5.66319E-13
 -1      1436 2.00258E+01 2.79136E-03-5.58872E-04-2.10638E-02 3.32489E-14-2.30607E-13
 -1      1437 1.99903E+01 1.17952E-03 1.73056E-04-4.67008E-03 1.07829E-13-4.73011E-13
 -1      1438 1.99852E+01 9.33180E-04 1.32828E-04-4.15683E-03 1.58000E-13-3.04183E-13
 -1      1439 2.00053E+01 1.94236E-03-4.01230E-04-1.25753E-02 8.53540E-14-2.86865E-13
 -1      1440 1.99806E+01 8.08945E-04 1.31127E-04-2.15200E-03 4.43984E-14-3.19586E-13
 -1      1441 1.99784E+01 6.14903E-04 1.08075E-04-1.81126E-03-1.22401E-14-2.32642E-13
 -1      1442 1.99927E+01 1.30846E-03-2.80854E-04-6.63135E-03 1.42184E-13-2.91283E-13
 -1      1443 1.99761E+01 5.35139E-04 9.73014E-05-4.80314E-04 8.59169E-15-8.60659E-14
 -1      1444 1.99759E+01 3.84914E-04 8.61767E-05-2.64657E-04 5.84191E-14-6.49288E-14
 -1      1445 1.99857E+01 8.44900E-04-1.90650E-04-2.59521E-03 2.82365E-14-2.62515E-13
 -1      1446 1.99751E+01 3.37181E-04 7.05018E-05 5.77693E-04 2.49229E-14-9.65353E-14
 -1      1447 1.99760E+01 2.22748E-04 6.73729E-05 7.04844E-04-9.56084E-15-5.55985E-14
 -1      1448 1.99825E+01 5.13673E-04-1.24398E-04 3.92850E-05 5.12595E-14-5.23004E-14
 -1      1449 1.99763E+01 1.97492E-04 4.95852E-05 1.20126E-03 3.40134E-14-3.13300E-14
 -1      1450 1.99779E+01 1.11569E-04 5.15668E-05 1.26754E-03-4.11584E-14-4.81875E-14
 -1      1451 1.99819E+01 2.83250E-04-7.67879E-05 1.66659E-03-1.99186E-14-2.43250E-15
 -1      1452 1.99788E+01 1.01529E-04 3.34525E-05 1.52544E-03-1.34077E-13-9.77786E-14
 -1      1453 1.99807E+01 3.76716E-05 3.84692E-05 1.55120E-03-1.00960E-13-1.91936E-13
 -1      1454 1.99829E+01 1.27871E-04-4.33807E-05 2.58772E-03-8.65323E-14-1.34557E-13
 -1      1455 1.99819E+01 3.73428E-05 2.11192E-05 1.64908E-03 4.35236E-14-8.09023E-14
 -1      1456 1.99840E+01-1.00872E-05 2.77157E-05 1.64877E-03 3.09074E-14-1.64610E-13
 -1      1457 1.99848E+01 2.66279E-05-2.05105E-05 3.02667E-03-4.48170E-16-1.17119E-13
 -1      1458 1.99854E+01-4.95784E-06 1.17893E-05 1.64140E-03-3.03720E-15 1.67933E-13
 -1      1459 1.99874E+01-4.08966E-05 1.90119E-05 1.62461E-03 3.35332E-14 1.66570E-13
 -1      1460 1.99873E+01-3.75633E-05-5.15337E-06 3.14424E-03 1.61480E-13 1.99645E-13
 -1      1461 1.99888E+01-3.37971E-05 5.00307E-06 1.54690E-03 1.42496E-13 2.04381E-13
 -1      1462 1.99907E+01-6.26074E-05 1.23995E-05 1.51904E-03 2.16423E-13 3.93545E-13
 -1      1463 1.99899E+01-7.90872E-05 5.24687E-06 3.04893E-03 2.20101E-13 3.31129E-13
 -1      1464 1.99920E+01-5.67455E-05 9.65557E-07 1.38862E-03 1.85901E-13 4.40258E-13
 -1      1465 1.99937E+01-8.23591E-05 8.60038E-06 1.35124E-03 1.70662E-13 8.08339E-13
 -1      1466 1.99924E+01-1.10816E-04 1.30051E-05 2.80480E-03 3.16480E-13 6.03892E-13
 -1      1467 1.99948E+01-8.11857E-05 9.67886E-07 1.16986E-03 9.08007E-14 7.31226E-13
 -1      1468 1.99962E+01-1.06720E-04 9.02787E-06 1.12021E-03-4.03343E-14 7.71782E-13
 -1      1469 1.99948E+01-1.45665E-04 2.02953E-05 2.43669E-03 1.66166E-13 5.84228E-13
 -1      1470 1.99971E+01-1.13745E-04 6.65533E-06 8.76798E-04-6.01544E-14 8.43426E-13
 -1      1471 1.99981E+01-1.39463E-04 1.14533E-05 8.07070E-04 2.41634E-14 8.21084E-13
 -1      1472 1.99968E+01-1.96830E-04 2.79328E-05 1.93347E-03-9.43721E-15 3.91773E-13
 -1      1473 1.99988E+01-1.66164E-04 1.14635E-05 4.84632E-04-3.01061E-14 7.47374E-13
 -1      1474 1.99993E+01-1.61154E-04 2.06761E-06 3.94350E-04-1.14109E-13 6.14337E-13
 -1      1475 1.99983E+01-2.75767E-04 3.32467E-05 1.27130E-03-8.41062E-14 5.54888E-13
 -1      1476 1.99998E+01-6.30285E-05-3.25967E-06-5.40397E-06-4.04182E-13 4.51110E-13
 -1      1477 1.99995E+01-2.81468E-04 1.66172E-05 3.85012E-04-4.66588E-13 2.14849E-13
 -1      1478 2.20641E+01 6.93917E-02-1.41057E-01 2.63534E-01 6.20060E-14 6.69813E-13
 -1      1479 2.29953E+01 2.18246E-01-2.27166E-01 4.86878E-01 5.87169E-14 7.69440E-13
 -1      1480 2.31671E+01 8.31036E-01-9.65522E-02 1.63280E+00 1.10668E-13 5.21652E-13
 -1      1481 2.16601E+01 3.16459E-02-1.63390E-02-1.99078E-02 6.71754E-14 5.37827E-13
 -1      1482 2.17820E+01 1.14776E-01-5.61276E-02 3.18128E-02 4.82323E-14 6.14503E-13
 -1      1483 2.21756E+01 1.70574E-01-5.77595E-02 3.83382E-01 1.08413E-13 4.17538E-13
 -1      1484 2.18017E+01 1.48132E-02 6.99432E-03-1.51002E-01 2.38299E-14 4.29067E-13
 -1      1485 2.16515E+01 5.44756E-02 3.98814E-03-1.21456E-01 3.44794E-14 4.77778E-13
 -1      1486 2.18842E+01 6.73550E-02-1.46871E-02-9.35309E-02 9.66085E-14 3.24067E-13
 -1      1487 2.22069E+01 3.04213E-03 8.15646E-03-2.07133E-01 2.07195E-14 3.77386E-13
 -1      1488 2.19393E+01 2.53448E-02 1.17256E-02-1.91157E-01 1.39702E-14 4.00173E-13
 -1      1489 2.20079E+01 2.68056E-02-4.55475E-03-3.03788E-01 3.18408E-14 2.51785E-13
 -1      1490 2.26982E+01-9.13880E-03 8.74741E-03-2.07233E-01 7.68785E-15 3.67630E-13
 -1      1491 2.24022E+01 2.93926E-03 8.69870E-03-2.04539E-01 2.53920E-16 3.65753E-13
 -1      1492 2.23327E+01-1.34439E-03-1.05259E-03-3.77890E-01 6.20980E-15 2.17194E-13
 -1      1493 2.31202E+01-2.35934E-02 1.25911E-02-1.47252E-01 1.34853E-14 3.40825E-13
 -1      1494 2.28786E+01-2.16380E-02 6.61192E-03-1.61257E-01 1.67869E-14 3.41185E-13
 -1      1495 2.27077E+01-3.10411E-02 4.20436E-03-3.38367E-01 2.18718E-14 2.13316E-13
 -1      1496 2.33093E+01-3.85902E-02 1.86440E-02-1.98191E-02 5.38389E-14 2.80242E-13
 -1      1497 2.32141E+01-4.93516E-02 7.04994E-03-5.43988E-02 1.39160E-14 3.01034E-13
 -1      1498 2.29959E+01-6.50831E-02 1.21770E-02-1.78051E-01 2.71953E-14 1.79105E-13
 -1      1499 2.31074E+01-4.81690E-02 2.33858E-02 1.68899E-01 1.49568E-14 1.90684E-13
 -1      1500 2.32494E+01-7.43358E-02 8.90286E-03 1.13922E-01 5.74905E-14 2.67965E-13
 -1      1501 2.30632E+01-9.73990E-02 2.09619E-02 1.04421E-01 7.38229E-14 1.86337E-13
 -1      1502 2.24177E+01-4.27589E-02 2.10774E-02 3.80445E-01 7.15183E-14 1.44600E-13
 -1      1503 2.28511E+01-8.34437E-02 9.68733E-03 3.15182E-01 1.00302E-14 1.66339E-13
 -1      1504 2.27979E+01-1.11778E-01 2.62709E-02 4.71435E-01 4.15171E-14 1.18860E-13
 -1      1505 2.12937E+01-1.47251E-02 6.34956E-03 5.34744E-01 3.38384E-14 5.86753E-14
 -1      1506 2.19812E+01-6.09549E-02 6.02699E-03 4.82462E-01 4.57585E-14 9.65894E-14
 -1      1507 2.21632E+01-8.56005E-02 2.26174E-02 8.18410E-01 6.89839E-14 3.97442E-14
 -1      1508 2.00089E+01 3.14947E-02-1.94930E-02 5.33026E-01 7.33441E-15-1.00892E-14
 -1      1509 2.07818E+01-1.78576E-03-3.98733E-03 5.23405E-01 2.22756E-14 2.34257E-14
 -1      1510 2.12626E+01-5.41480E-03 7.63112E-03 9.81130E-01 4.29843E-14-4.79825E-15
 -1      1511 1.90167E+01 7.40891E-02-4.45572E-02 3.22331E-01-7.58621E-14 1.65888E-13
 -1      1512 1.96027E+01 7.44354E-02-1.73446E-02 3.72068E-01-8.75116E-14-1.37459E-14
 -1      1513 2.03663E+01 1.09293E-01-1.35737E-02 8.11582E-01-8.67327E-14-1.81730E-14
 -1      1514 1.87492E+01 8.58346E-02-5.15130E-02-3.98247E-02 7.83471E-14 1.34435E-13
 -1      1515 1.88955E+01 1.27114E-01-2.58012E-02 5.44627E-02 3.40162E-14 1.66530E-13
 -1      1516 1.98302E+01 2.00484E-01-2.94261E-02 3.00151E-01 9.71445E-16-2.29018E-14
 -1      1517 1.93547E+01 5.83342E-02-3.34664E-02-3.94793E-01 1.34953E-14-1.06089E-13
 -1      1518 1.89814E+01 1.23838E-01-2.18943E-02-2.98510E-01 7.39738E-14 7.22269E-14
 -1      1519 1.99078E+01 2.06707E-01-3.09850E-02-3.62102E-01 1.42785E-13-2.03552E-14
 -1      1520 2.05926E+01 1.09538E-02-2.31872E-03-5.88337E-01-1.00744E-14-6.74946E-14
 -1      1521 1.98477E+01 7.00243E-02-7.21000E-03-5.30732E-01-2.03778E-14-7.77850E-14
 -1      1522 2.05839E+01 1.20002E-01-2.03851E-02-8.82921E-01 4.72886E-15-1.44086E-14
 -1      1523 2.19965E+01-2.84693E-02 2.35610E-02-5.73264E-01-6.35143E-14-7.93116E-15
 -1      1524 2.11568E+01 1.95458E-03 8.78677E-03-5.66729E-01-6.92285E-14-6.83620E-14
 -1      1525 2.15869E+01-2.84425E-03-6.42769E-03-1.06635E+00-7.72243E-14-7.32123E-14
 -1      1526 2.31446E+01-4.62675E-02 3.34883E-02-4.09826E-01 7.06145E-14-9.01362E-15
 -1      1527 2.24587E+01-4.68132E-02 1.77848E-02-4.40565E-01 5.80811E-14 7.24976E-14
 -1      1528 2.25661E+01-9.51552E-02 3.69841E-03-9.16447E-01-1.24640E-15-4.15154E-14
 -1      1529 2.38201E+01-4.42622E-02 2.98423E-02-1.96796E-01-5.07389E-14-9.05057E-14
 -1      1530 2.34140E+01-6.46562E-02 1.78103E-02-2.41457E-01 1.55518E-14-4.48565E-14
 -1      1531 2.32651E+01-1.28696E-01 8.08610E-03-5.75263E-01 8.66772E-14 5.97812E-14
 -1      1532 2.40129E+01-3.22549E-02 1.96484E-02-9.83709E-03-4.38304E-14-2.51132E-14
 -1      1533 2.38904E+01-5.87151E-02 1.25153E-02-5.07760E-02-5.97231E-14-8.96488E-14
 -1      1534 2.35889E+01-1.14587E-01 8.28601E-03-2.04355E-01-3.66374E-14-2.94669E-14
 -1      1535 2.38333E+01-1.85600E-02 9.34871E-03 1.18401E-01-4.59897E-14 5.50705E-14
 -1      1536 2.39274E+01-4.19283E-02 6.01590E-03 8.90919E-02-4.47108E-14-1.17100E-14
 -1      1537 2.35708E+01-7.89052E-02 6.44098E-03 9.34452E-02-8.07895E-14-3.13720E-14
 -1      1538 2.34239E+01-7.49643E-03 1.93162E-03 1.87271E-01 7.28590E-14 4.57932E-14
 -1      1539 2.36496E+01-2.40806E-02 1.03237E-03 1.70270E-01 7.97886E-15 3.59227E-14
 -1      1540 2.33068E+01-4.21899E-02 4.22819E-03 2.83749E-01-2.13835E-14 1.53376E-14
 -1      1541 2.29092E+01-1.52984E-04-2.27514E-03 2.10684E-01 1.05233E-13-2.39328E-13
 -1      1542 2.31935E+01-9.87196E-03-1.75580E-03 2.03369E-01 1.02369E-13-3.22971E-14
 -1      1543 2.29016E+01-1.40471E-02 2.39174E-03 3.76164E-01 1.71597E-13 2.83740E-14
 -1      1544 2.23772E+01 3.96732E-03-4.07354E-03 2.04997E-01-8.20208E-14-2.20714E-13
 -1      1545 2.26694E+01-3.66924E-04-2.78455E-03 2.04100E-01-7.82013E-15-2.86479E-13
 -1      1546 2.24412E+01 3.81828E-03 1.09931E-03 3.97417E-01 9.04843E-14-6.75987E-14
 -1      1547 2.18809E+01 5.80897E-03-4.41812E-03 1.83612E-01-6.91576E-14 6.35100E-14
 -1      1548 2.21514E+01 5.09666E-03-2.76482E-03 1.86388E-01-1.14566E-13-1.57385E-13
 -1      1549 2.19850E+01 1.32787E-02 2.76687E-04 3.74870E-01-1.50121E-13-1.13332E-13
 -1      1550 2.14471E+01 6.23829E-03-4.03468E-03 1.55743E-01-4.46868E-14 2.78251E-13
 -1      1551 2.16815E+01 7.66341E-03-2.27549E-03 1.60263E-01-1.25655E-14 1.44777E-13
 -1      1552 2.15679E+01 1.70191E-02-2.07694E-04 3.29870E-01-1.07929E-13 4.35329E-15
 -1      1553 2.10845E+01 5.88982E-03-3.37070E-03 1.26993E-01 2.21045E-14 2.77535E-13
 -1      1554 2.12787E+01 8.38632E-03-1.66943E-03 1.32045E-01-4.61415E-15 2.93827E-13
 -1      1555 2.12067E+01 1.73424E-02-4.68225E-04 2.76727E-01-2.64834E-14 1.82707E-13
 -1      1556 2.07917E+01 5.17516E-03-2.66417E-03 1.00379E-01 2.43570E-14 2.51876E-13
 -1      1557 2.09471E+01 8.05280E-03-1.11733E-03 1.05275E-01 2.80885E-14 3.28926E-13
 -1      1558 2.09061E+01 1.58746E-02-5.86382E-04 2.23970E-01 1.66434E-14 1.52332E-13
 -1      1559 2.05619E+01 4.33934E-03-2.02393E-03 7.72644E-02-1.04680E-13 3.58604E-13
 -1      1560 2.06828E+01 7.18915E-03-6.79182E-04 8.16579E-02-7.34740E-14 3.12176E-13
 -1      1561 2.06636E+01 1.36398E-02-6.16325E-04 1.76074E-01-7.95759E-14 3.84112E-13
 -1      1562 2.03860E+01 3.51688E-03-1.48855E-03 5.80327E-02-1.31574E-14 5.85708E-13
 -1      1563 2.04776E+01 6.12074E-03-3.59700E-04 6.17869E-02-3.50729E-14 4.69997E-13
 -1      1564 2.04730E+01 1.12289E-02-5.93536E-04 1.34941E-01-1.15054E-13 4.56378E-13
 -1      1565 2.02545E+01 2.77409E-03-1.06214E-03 4.25363E-02 5.49808E-14 4.57627E-13
 -1      1566 2.03223E+01 5.03492E-03-1.41418E-04 4.56340E-02 2.70230E-14 5.57123E-13
 -1      1567 2.03269E+01 8.95213E-03-5.41340E-04 1.00964E-01 1.91232E-14 4.25295E-13
 -1      1568 2.01585E+01 2.13739E-03-7.33920E-04 3.03717E-02 1.18585E-15 4.44812E-13
 -1      1569 2.02074E+01 4.03053E-03-1.37671E-06 3.28587E-02 4.45499E-14 4.44673E-13
 -1      1570 2.02173E+01 6.95108E-03-4.75082E-04 7.37248E-02 4.38238E-14 4.58071E-13
 -1      1571 2.00903E+01 1.61105E-03-4.88106E-04 2.10404E-02-8.69758E-14 4.53426E-13
 -1      1572 2.01246E+01 3.15234E-03 8.17593E-05 2.29914E-02-8.82448E-14 3.58152E-13
 -1      1573 2.01370E+01 5.27125E-03-4.04703E-04 5.24256E-02-6.02461E-14 3.64920E-13
 -1      1574 2.00433E+01 1.18792E-03-3.08558E-04 1.40378E-02 1.69954E-13 3.44713E-13
 -1      1575 2.00665E+01 2.41358E-03 1.25380E-04 1.55362E-02 7.25813E-14 4.30603E-13
 -1      1576 2.00797E+01 3.90695E-03-3.36405E-04 3.61416E-02 3.67954E-14 2.76172E-14
 -1      1577 2.00122E+01 8.55660E-04-1.80740E-04 8.89814E-03-2.42822E-14 2.10761E-13
 -1      1578 2.00272E+01 1.81009E-03 1.42718E-04 1.00259E-02 5.25463E-14 3.30304E-13
 -1      1579 2.00400E+01 2.82770E-03-2.73790E-04 2.39590E-02 8.54069E-14 1.04813E-13
 -1      1580 1.99927E+01 6.00289E-04-9.23618E-05 5.21523E-03 1.17202E-13-5.99877E-14
 -1      1581 2.00018E+01 1.32894E-03 1.43417E-04 6.04658E-03 7.72446E-14 1.57411E-13
 -1      1582 2.00135E+01 1.99327E-03-2.18673E-04 1.50456E-02 1.22530E-13 2.01726E-13
 -1      1583 1.99815E+01 4.08072E-04-3.34203E-05 2.64730E-03 1.60852E-13-2.85497E-13
 -1      1584 1.99864E+01 9.53579E-04 1.34276E-04 3.24676E-03 3.11414E-14-2.40467E-13
 -1      1585 1.99967E+01 1.36186E-03-1.71676E-04 8.68015E-03 2.00250E-13-9.30530E-14
 -1      1586 1.99760E+01 2.66486E-04 4.01204E-06 9.15055E-04-6.09992E-14-1.99856E-13
 -1      1587 1.99781E+01 6.66729E-04 1.19944E-04 1.33680E-03 7.48360E-15-1.84159E-13
 -1      1588 1.99868E+01 8.94353E-04-1.32663E-04 4.25908E-03-7.74524E-15 2.62958E-14
 -1      1589 1.99744E+01 1.64618E-04 2.60881E-05-2.04430E-04-2.11120E-14-1.10927E-13
 -1      1590 1.99746E+01 4.52032E-04 1.03491E-04 8.39388E-05 7.62389E-15-7.58987E-14
 -1      1591 1.99819E+01 5.56140E-04-1.01041E-04 1.29104E-03-6.78651E-14 1.27816E-13
 -1      1592 1.99753E+01 9.32346E-05 3.74979E-05-8.85243E-04 3.84252E-14 4.02832E-14
 -1      1593 1.99743E+01 2.94806E-04 8.68578E-05-6.94797E-04-9.44587E-15-3.49249E-14
 -1      1594 1.99802E+01 3.17780E-04-7.59751E-05-6.14794E-04-4.34134E-14 2.41762E-13
 -1      1595 1.99776E+01 4.46846E-05 4.17589E-05-1.26033E-03-2.33282E-13 4.04435E-13
 -1      1596 1.99760E+01 1.82320E-04 7.11833E-05-1.14010E-03-1.28347E-13 1.12767E-13
 -1      1597 1.99806E+01 1.54853E-04-5.65221E-05-1.76248E-03-1.35421E-13 7.22163E-13
 -1      1598 1.99808E+01 1.26840E-05 4.14767E-05-1.42861E-03 6.18956E-14 6.72563E-13
 -1      1599 1.99788E+01 1.03747E-04 5.70575E-05-1.35747E-03-8.06002E-14 4.64640E-13
 -1      1600 1.99824E+01 4.74602E-05-4.17111E-05-2.38305E-03-1.56260E-13 5.23063E-13
 -1      1601 1.99843E+01-7.93833E-06 3.85955E-05-1.46100E-03 8.02117E-14 2.90764E-13
 -1      1602 1.99822E+01 4.99364E-05 4.47045E-05-1.42349E-03 9.41321E-14 4.59352E-13
 -1      1603 1.99848E+01-2.04810E-05-3.05716E-05-2.64702E-03 1.30578E-13 5.05584E-13
 -1      1604 1.99878E+01-2.15685E-05 3.47269E-05-1.40529E-03 2.36183E-13-2.96954E-13
 -1      1605 1.99858E+01 1.30288E-05 3.41707E-05-1.39083E-03 2.68092E-13 1.70766E-13
 -1      1606 1.99876E+01-6.20608E-05-2.20894E-05-2.67488E-03 3.12721E-13 3.50679E-13
 -1      1607 1.99912E+01-3.20920E-05 3.16556E-05-1.28938E-03 6.53099E-14-4.30704E-13
 -1      1608 1.99893E+01-1.40432E-05 2.56178E-05-1.29192E-03 9.77472E-14-3.02044E-13
 -1      1609 1.99905E+01-8.82383E-05-1.49730E-05-2.54515E-03 2.70955E-13 6.19964E-14
 -1      1610 1.99942E+01-4.31560E-05 3.17445E-05-1.12328E-03-1.09844E-13-3.04833E-13
 -1      1611 1.99925E+01-3.80697E-05 1.96842E-05-1.14130E-03-4.81647E-14-4.34755E-13
 -1      1612 1.99931E+01-1.08925E-04-7.45736E-06-2.29990E-03-7.74108E-16 1.92274E-13
 -1      1613 1.99967E+01-5.87062E-05 3.67528E-05-8.99836E-04 4.10320E-14-4.32329E-13
 -1      1614 1.99953E+01-6.61210E-05 1.75810E-05-9.37083E-04-3.67123E-14-4.96014E-13
 -1      1615 1.99955E+01-1.34030E-04 2.60797E-06-1.94846E-03 3.54449E-14-7.25687E-14
 -1      1616 1.99985E+01-8.19887E-05 4.07045E-05-5.94598E-04 1.25074E-13-6.79485E-13
 -1      1617 1.99975E+01-1.05232E-04 1.87967E-05-6.63176E-04 1.27505E-13-5.33806E-13
 -1      1618 1.99974E+01-1.75288E-04 1.52295E-05-1.47098E-03 1.85785E-13-1.88855E-13
 -1      1619 1.99995E+01-1.07901E-04 3.99814E-06-2.16133E-04 1.03752E-13-9.75904E-13
 -1      1620 1.99991E+01-1.42087E-04 1.47038E-05-3.09144E-04 1.38354E-13-8.26386E-13
 -1      1621 1.99988E+01-2.29487E-04 2.37041E-05-8.38736E-04 3.53743E-13-5.17265E-13
 -1      1622 1.99998E+01-7.21887E-05-8.33464E-06-1.25940E-05-5.06999E-13-4.92331E-13
 -1      1623 1.99997E+01-9.95705E-04 2.01164E-05-4.97145E-04-3.00136E-13 4.38924E-13
 -1      1624 1.99996E+01-5.01726E-04-2.83305E-06-3.97127E-04-7.66052E-13 2.99482E-13
 -1      1625 1.99997E+01-2.54897E-03 9.10818E-06-8.12886E-04 7.23898E-13 7.51114E-13
 -1      1626 1.99997E+01-1.62812E-03 1.29005E-05-7.62580E-04-5.20955E-15 5.07147E-13
 -1      1627 1.99995E+01-1.47032E-03 2.34332E-05-1.22227E-03 4.59376E-14 8.84783E-13
 -1      1628 1.99998E+01-4.46512E-03 3.73127E-08-9.54417E-04 1.34355E-12 2.91958E-13
 -1      1629 1.99998E+01-3.33982E-03 6.64689E-06-9.41156E-04 7.24061E-13 8.20816E-13
 -1      1630 1.99997E+01-2.88049E-03 1.48474E-05-1.69091E-03 4.09232E-13 9.42129E-13
 -1      1631 1.99998E+01-6.43538E-03-4.09746E-06-9.36401E-04 1.07497E-12-1.37633E-13
 -1      1632 1.99998E+01-5.30672E-03 1.17405E-06-9.52706E-04 1.24840E-12-9.75866E-16
 -1      1633 1.99998E+01-4.49754E-03-1.43597E-06-1.83737E-03 3.58277E-13 1.51741E-13
 -1      1634 1.99999E+01-8.16089E-03-4.81375E-06-7.96635E-04 5.57046E-13-1.65930E-13
 -1      1635 1.99999E+01-7.19977E-03-8.07457E-07-8.32892E-04 1.04384E-12-3.09759E-13
 -1      1636 1.99999E+01-6.08504E-03-1.50435E-05-1.70535E-03 2.81583E-13-4.40838E-13
 -1      1637 1.99999E+01-9.49660E-03-4.14379E-06-5.65955E-04 4.35692E-13-1.39516E-13
 -1      1638 1.99999E+01-8.78545E-03-1.66797E-06-6.17075E-04 6.61281E-13-7.13343E-14
 -1      1639 1.99999E+01-7.45436E-03-2.43007E-05-1.36364E-03 1.96983E-13-2.37599E-13
 -1      1640 1.99999E+01-1.02680E-02-3.07246E-06-2.79287E-04 2.91943E-13-1.33596E-13
 -1      1641 1.99999E+01-9.89634E-03-1.81231E-06-3.38307E-04 3.85693E-13-5.15031E-14
 -1      1642 2.00000E+01-8.46132E-03-3.03451E-05-8.72797E-04 3.68272E-13-8.65737E-14
 -1      1643 1.99999E+01-1.04015E-02-2.24538E-06 3.30642E-05 2.21781E-13-5.88503E-14
 -1      1644 1.99999E+01-1.04043E-02-2.25291E-06-2.85087E-05 2.02313E-13-1.43506E-14
 -1      1645 2.00000E+01-8.98840E-03-3.32307E-05-2.97193E-04 2.07702E-13-1.88557E-13
 -1      1646 1.99999E+01-9.88420E-03-1.75798E-06 3.42672E-04-8.78000E-15 3.80164E-14
 -1      1647 1.99999E+01-1.02613E-02-3.10543E-06 2.83730E-04 1.03212E-14 6.43074E-15
 -1      1648 2.00000E+01-8.98456E-03-3.32114E-05 3.05883E-04 1.57342E-13-2.88029E-13
 -1      1649 1.99999E+01-8.76501E-03-1.46776E-06 6.20834E-04-3.73768E-13-2.19523E-13
 -1      1650 1.99999E+01-9.48093E-03-4.32887E-06 5.70009E-04-1.82688E-13-7.17714E-14
 -1      1651 2.00000E+01-8.45016E-03-3.02313E-05 8.80978E-04-9.21731E-14-1.48922E-13
 -1      1652 1.99999E+01-7.18719E-03-1.04784E-06 8.33480E-04-5.97753E-13-1.18636E-15
 -1      1653 1.99999E+01-8.15076E-03-4.98933E-06 7.97678E-04-3.90454E-13-1.31517E-13
 -1      1654 1.99999E+01-7.44734E-03-2.43910E-05 1.36739E-03-3.07781E-13-2.04233E-13
 -1      1655 1.99998E+01-5.27625E-03 1.11227E-06 9.53811E-04-7.98656E-13-2.25064E-13
 -1      1656 1.99998E+01-6.40717E-03-4.24604E-06 9.37873E-04-5.09961E-13-1.59546E-13
 -1      1657 1.99999E+01-6.07459E-03-1.47302E-05 1.70757E-03-2.67772E-13-5.05925E-14
 -1      1658 1.99998E+01-3.31091E-03 6.51330E-06 9.42858E-04-4.71047E-13 2.62245E-13
 -1      1659 1.99998E+01-4.43506E-03-1.22236E-07 9.54204E-04-8.09875E-13 2.43232E-13
 -1      1660 1.99998E+01-4.47272E-03-1.32687E-06 1.83806E-03-2.72296E-13 2.20462E-14
 -1      1661 1.99997E+01-1.63141E-03 2.91770E-06 7.59372E-04-4.02719E-13 3.69256E-14
 -1      1662 1.99997E+01-2.52782E-03 8.51540E-06 8.10413E-04-5.35907E-13 1.23949E-13
 -1      1663 1.99997E+01-2.85642E-03 1.42724E-05 1.68686E-03-4.15776E-13 2.32395E-13
 -1      1664 1.99996E+01-6.56749E-04-1.46774E-05 5.80930E-04-6.01896E-13-2.49231E-13
 -1      1665 1.99996E+01-1.15436E-03 7.12084E-06 7.26761E-04-3.97728E-13-2.48667E-13
 -1      1666 1.99995E+01-1.59433E-03 2.57635E-05 1.43450E-03-5.05022E-13-5.76625E-14
 -1      1667 1.99991E+01-7.46708E-04 7.18438E-07 1.13207E-03-3.39044E-13-1.96999E-14
 -1      1668-5.58679E-01-1.39285E+01-1.54901E+00-8.35485E-01 5.92526E-13 3.17857E-13
 -1      1669-5.74898E-01-1.62863E+01-1.78271E+00 3.78665E-01 2.20407E-13 1.98813E-13
 -1      1670 2.11817E+00-7.34080E+00-1.01612E+00 1.24836E+00 8.43103E-13 3.72646E-13
 -1      1671 1.14901E+00-1.23216E+01-1.50474E+00 4.94596E-01 6.13065E-13 3.45057E-13
 -1      1672 7.35766E+00-2.66442E-01-4.88372E-01 4.74561E+00 7.70939E-13 6.66134E-13
 -1      1673 4.33234E+00-5.52967E+00-1.19641E+00 1.99845E+00 8.43325E-13 3.98681E-13
 -1      1674 1.80876E+01 4.88817E+00 2.72788E-01 9.75995E+00 6.57918E-13 5.80869E-13
 -1      1675 1.14299E+01 1.49450E+00-6.13158E-01 6.05094E+00 7.08544E-13 5.69100E-13
 -1      1676 3.20201E+01 6.47138E+00 1.01401E+00 1.26053E+01 4.17444E-13 5.23803E-13
 -1      1677 2.30412E+01 6.15018E+00 1.64417E-01 1.06500E+01 5.72875E-13 6.29052E-13
 -1      1678 4.55184E+01 4.98952E+00 1.49658E+00 1.05121E+01 2.12774E-13 3.95239E-13
 -1      1679 3.69848E+01 6.65797E+00 9.16495E-01 1.21287E+01 3.74478E-13 5.37792E-13
 -1      1680 5.28065E+01 3.85589E+00 1.63691E+00 2.97930E+00 1.92873E-13-1.08913E-13
 -1      1681 4.80289E+01 5.09482E+00 1.34405E+00 7.81602E+00 2.48662E-13 2.26930E-13
 -1      1682 5.33263E+01 4.06321E+00 1.69533E+00-4.83543E+00 2.39975E-13-5.59885E-13
 -1      1683 5.47174E+01 3.56688E+00 1.73961E+00 7.97032E-01 1.89959E-13-2.13274E-13
 -1      1684 4.34245E+01 5.88077E+00 1.19905E+00-1.06169E+01 4.66877E-13-8.87068E-13
 -1      1685 5.09587E+01 4.14075E+00 1.71272E+00-7.07212E+00 2.85091E-13-6.91225E-13
 -1      1686 2.93252E+01 6.90794E+00 5.17579E-01-1.19854E+01 6.64580E-13-9.73666E-13
 -1      1687 3.89442E+01 6.06561E+00 1.32955E+00-1.24611E+01 5.26412E-13-9.63563E-13
 -1      1688 1.56681E+01 4.20349E+00-3.08385E-01-8.27143E+00 7.97917E-13-8.47544E-13
 -1      1689 2.38787E+01 6.32579E+00 6.33147E-01-1.17075E+01 7.04548E-13-9.83658E-13
 -1      1690 6.17515E+00-2.53364E+00-1.08801E+00-3.21045E+00 7.54063E-13-5.73319E-13
 -1      1691 1.08403E+01 2.53540E+00-2.16051E-01-6.89753E+00 8.16014E-13-7.59504E-13
 -1      1692 1.52185E+00-1.04278E+01-1.63642E+00-1.24053E-01 5.02376E-13-2.94931E-13
 -1      1693 3.02762E+00-4.79397E+00-9.99912E-01-1.77736E+00 6.58584E-13-4.77174E-13
 -1      1694-2.93089E-01-1.62251E+01-1.92582E+00 1.86157E-01 1.73417E-13-1.64396E-13
 -1      1695-1.86152E-01-1.23871E+01-1.58456E+00 8.57080E-01 4.08229E-13-2.33445E-13
 -1      1696-7.60054E-01-1.66404E+01-1.86037E+00-8.50794E-01-3.03535E-13-2.12719E-13
 -1      1697-7.57721E-01-1.68690E+01-1.89228E+00 7.22915E-01 3.24185E-14-1.80439E-13
 -1      1698 4.98716E-02-1.18339E+01-1.49605E+00-6.12175E-01-7.13096E-13-3.64625E-13
 -1      1699-1.51385E-01-1.56207E+01-1.84252E+00-1.44081E-01-3.89966E-13-2.82996E-13
 -1      1700 3.16846E+00-4.58766E+00-9.87029E-01 1.87413E+00-8.50875E-13-4.95937E-13
 -1      1701 1.61093E+00-1.01621E+01-1.62211E+00 1.86655E-01-8.32445E-13-3.34344E-13
 -1      1702 1.19336E+01 2.08983E+00-2.25363E-01 7.16694E+00-7.60503E-13-6.30607E-13
 -1      1703 6.97520E+00-2.72540E+00-1.05726E+00 3.49968E+00-7.84706E-13-5.56666E-13
 -1      1704 2.52032E+01 5.04913E+00 5.55019E-01 1.09139E+01-5.18474E-13-6.85230E-13
 -1      1705 1.73988E+01 3.19937E+00-2.67581E-01 7.95219E+00-6.51812E-13-5.96190E-13
 -1      1706 3.90875E+01 5.80493E+00 1.25754E+00 1.19430E+01-3.92908E-13-5.95746E-13
 -1      1707 2.97452E+01 6.65446E+00 4.99330E-01 1.16255E+01-5.29354E-13-7.07212E-13
 -1      1708 5.02899E+01 4.26397E+00 1.63797E+00 6.69409E+00-2.32592E-13-2.32037E-13
 -1      1709 4.30741E+01 5.79254E+00 1.12038E+00 9.98374E+00-3.35482E-13-4.78728E-13
 -1      1710 5.57719E+01 3.48862E+00 1.94465E+00-5.11058E-01-2.08500E-13 1.86066E-13
 -1      1711 5.39058E+01 3.98293E+00 1.77254E+00 5.18376E+00-2.28872E-13-1.89626E-13
 -1      1712 5.01927E+01 4.76621E+00 1.60174E+00-8.06099E+00-3.42726E-13 6.53921E-13
 -1      1713 5.46733E+01 3.55779E+00 1.89684E+00-3.17312E+00-2.21961E-13 3.37508E-13
 -1      1714 3.81927E+01 6.53035E+00 1.00858E+00-1.20669E+01-5.57332E-13 1.06959E-12
 -1      1715 4.68757E+01 4.90432E+00 1.65197E+00-1.02990E+01-3.87176E-13 8.91731E-13
 -1      1716 2.37098E+01 6.17098E+00 1.87040E-01-1.07369E+01-1.05960E-12 1.14664E-12
 -1      1717 3.29762E+01 6.38958E+00 1.06577E+00-1.26107E+01-7.64944E-13 1.09912E-12
 -1      1718 1.16139E+01 1.53843E+00-6.42752E-01-6.07316E+00-1.14986E-12 1.02474E-12
 -1      1719 1.85670E+01 4.89047E+00 2.72027E-01-9.87657E+00-1.07625E-12 1.11922E-12
 -1      1720 3.62440E+00-6.02205E+00-1.37639E+00-1.43203E+00-8.64975E-13 6.80789E-13
 -1      1721 6.92215E+00-2.41381E-01-5.78219E-01-4.54734E+00-1.12466E-12 1.00864E-12
 -1      1722 4.19729E-01-1.35399E+01-1.80140E+00 4.47111E-01-4.56524E-13 3.53089E-13
 -1      1723 1.10370E+00-8.32708E+00-1.28855E+00-1.38399E-01-7.69385E-13 4.82919E-13
 -1      1724-6.28940E-01-1.69883E+01-1.89395E+00-2.72453E-01 2.17604E-14 1.45106E-13
 -1      1725-6.77730E-01-1.49802E+01-1.74358E+00 1.14284E+00-3.06200E-13 3.06588E-13
 -1      1726 2.47433E+01 1.01490E+00 2.67139E-01 7.36789E+00 3.51719E-13 2.37477E-13
 -1      1727 1.46749E+01-3.08870E+00-3.35213E-01 6.43194E+00 3.66596E-13 2.86993E-13
 -1      1728 1.99996E+01-1.91118E-04 1.67187E-05-2.11420E-04-6.07312E-13-1.86293E-13
 -1      1729 1.99994E+01-5.77555E-04 9.82182E-06-6.81426E-04-1.02012E-13 6.87566E-14
 -1      1730 1.13779E+00-9.31633E+00-9.83819E-01 2.93860E+00 2.82718E-13 3.96072E-13
 -1      1731 6.66374E+00-6.88097E+00-7.64046E-01 4.93874E+00 3.94573E-13 2.56163E-13
 -1      1732-1.31296E+00-1.13244E+01-1.29158E+00 1.93710E-01 6.83342E-14 4.15890E-13
 -1      1733 3.50545E+01 4.33975E+00 8.99698E-01 7.06252E+00 2.84939E-13 2.90767E-13
 -1      1734 4.22219E+01 6.47005E+00 1.22352E+00 4.18438E+00 2.75141E-13-2.43139E-14
 -1      1735 4.56146E+01 7.50646E+00 1.33322E+00 5.23110E-01 3.26295E-13-1.96926E-13
 -1      1736 4.53510E+01 7.14105E+00 1.43978E+00-2.69540E+00 3.64320E-13-3.64431E-13
 -1      1737 3.93610E+01 5.53969E+00 1.15848E+00-5.87379E+00 4.08569E-13-5.07816E-13
 -1      1738 2.96251E+01 2.83917E+00 6.15713E-01-7.60960E+00 4.40592E-13-6.40266E-13
 -1      1739 1.85329E+01-9.80687E-01-6.48805E-02-7.11229E+00 4.59410E-13-5.95968E-13
 -1      1740 8.94079E+00-5.41137E+00-6.90808E-01-5.29183E+00 3.37730E-13-4.73732E-13
 -1      1741 2.30708E+00-9.32541E+00-1.12617E+00-3.10159E+00 2.01394E-13-3.23297E-13
 -1      1742-1.00202E+00-1.16405E+01-1.36359E+00-9.45961E-01 8.38218E-15-3.33622E-13
 -1      1743-8.31716E-01-1.12596E+01-1.30736E+00 1.18541E+00-1.96065E-13-4.10560E-13
 -1      1744 2.61189E+00-9.05277E+00-1.09604E+00 3.29620E+00-3.62932E-13-3.36009E-13
 -1      1745 9.79459E+00-5.42387E+00-5.99609E-01 5.59853E+00-4.59077E-13-3.46750E-13
 -1      1746 2.03215E+01-1.84888E+00 3.97722E-02 6.86587E+00-3.56715E-13-2.95319E-13
 -1      1747 3.01374E+01 1.69695E+00 4.16864E-01 6.54146E+00-2.93932E-13-2.72560E-13
 -1      1748 3.89690E+01 5.31040E+00 1.04080E+00 5.11925E+00-3.06213E-13-1.76303E-13
 -1      1749 4.50558E+01 7.08440E+00 1.36841E+00 2.29123E+00-3.29237E-13 6.71685E-15
 -1      1750 4.75691E+01 7.36450E+00 1.61282E+00-6.95059E-01-3.88856E-13 1.50838E-13
 -1      1751 4.37844E+01 6.37815E+00 1.37252E+00-4.40040E+00-4.25660E-13 4.94937E-13
 -1      1752 3.57273E+01 4.38754E+00 9.07128E-01-6.97245E+00-5.86670E-13 7.78821E-13
 -1      1753 2.52385E+01 1.06057E+00 2.77986E-01-7.30889E+00-7.49401E-13 7.56506E-13
 -1      1754 1.45957E+01-2.95042E+00-3.13075E-01-6.34777E+00-6.71574E-13 7.62390E-13
 -1      1755 5.63120E+00-7.28583E+00-9.09503E-01-4.21166E+00-4.85390E-13 6.64781E-13
 -1      1756 3.19258E-01-1.06598E+01-1.27094E+00-2.01757E+00-2.47635E-13 4.65183E-13
 -1      1757 2.41170E+01 1.95651E+00-2.72327E-02-2.29844E+00-1.00187E-13 4.47586E-13
 -1      1758 2.03685E+01 3.79642E+00-3.98666E-02-1.29882E+00-1.19387E-13-8.98760E-14
 -1      1759 2.08746E+01 3.63118E+00-3.38560E-02-1.60937E+00-1.44244E-13-4.28615E-14
 -1      1760 2.14179E+01 3.19030E+00-4.85210E-02-1.80614E+00-1.47805E-13 2.53478E-14
 -1      1761 2.18551E+01 2.79582E+00-1.29375E-01-2.12605E+00-1.60691E-13 1.02050E-13
 -1      1762 2.14026E+01 2.72895E+00-1.69441E-03-1.38277E+00-1.46310E-13 3.21271E-15
 -1      1763 1.87799E+01 4.41767E+00-2.21349E-02-5.30129E-01-6.28924E-14-1.63949E-13
 -1      1764 1.91230E+01 4.37587E+00-9.84410E-03-6.98633E-01-7.99560E-14-1.63059E-13
 -1      1765 1.82152E+01 4.58793E+00-1.67660E-02-2.96633E-01-3.42009E-14-1.79398E-13
 -1      1766 1.84794E+01 4.56287E+00-6.65215E-03-4.16205E-01-4.52962E-14-1.74354E-13
 -1      1767 1.87595E+01 4.14544E+00-6.23491E-03-3.93652E-01-5.82251E-14-1.59588E-13
 -1      1768 1.78425E+01 4.69569E+00-1.24329E-02-1.43675E-01 1.47083E-15-1.77148E-13
 -1      1769 1.80052E+01 4.68285E+00-6.10482E-03-2.27066E-01-1.59850E-14-1.85084E-13
 -1      1770 1.82017E+01 4.35912E+00-4.84004E-03-2.11163E-01-2.28270E-14-1.68530E-13
 -1      1771 1.76898E+01 4.74232E+00-8.94488E-03-3.68103E-02 3.86509E-14-1.77062E-13
 -1      1772 1.77383E+01 4.73972E+00-7.36855E-03-1.02662E-01 2.00838E-14-1.78953E-13
 -1      1773 1.78591E+01 4.48261E+00-3.70115E-03-1.00022E-01 1.67875E-14-1.67037E-13
 -1      1774 1.77682E+01 4.72732E+00-6.50704E-03 6.53520E-02 6.29566E-14-1.75174E-13
 -1      1775 1.76996E+01 4.73428E+00-9.87455E-03-3.27882E-03 4.82456E-14-1.76409E-13
 -1      1776 1.77578E+01 4.51419E+00-3.43120E-03-2.43737E-02 5.05070E-14-1.67534E-13
 -1      1777 1.80669E+01 4.65221E+00-5.65351E-03 2.04579E-01 8.40708E-14-1.79560E-13
 -1      1778 1.78895E+01 4.66902E+00-1.31862E-02 1.13586E-01 7.90871E-14-1.84282E-13
 -1      1779 1.79037E+01 4.45436E+00-4.22997E-03 5.88091E-02 7.70790E-14-1.70828E-13
 -1      1780 1.85475E+01 4.52245E+00-6.72294E-03 4.12330E-01 1.04486E-13-1.50199E-13
 -1      1781 1.82828E+01 4.54937E+00-1.72473E-02 2.84934E-01 9.12031E-14-1.61655E-13
 -1      1782 1.82758E+01 4.31008E+00-5.62835E-03 1.88800E-01 9.13204E-14-1.63615E-13
 -1      1783 1.91924E+01 4.32829E+00-1.05494E-02 7.21524E-01 1.41730E-13-1.17011E-13
 -1      1784 1.88478E+01 4.37322E+00-2.25795E-02 5.39604E-01 1.18800E-13-1.40894E-13
 -1      1785 1.88412E+01 4.08537E+00-7.42012E-03 3.95872E-01 1.23038E-13-1.38166E-13
 -1      1786 1.99725E+01 4.04156E+00-1.95382E-02 1.14421E+00 1.70535E-13-5.91471E-14
 -1      1787 1.95608E+01 4.12264E+00-3.03229E-02 8.98118E-01 1.51127E-13-9.37549E-14
 -1      1788 1.95727E+01 3.76968E+00-8.24528E-03 6.95359E-01 1.53891E-13-9.75869E-14
 -1      1789 2.09021E+01 3.57042E+00-3.96573E-02 1.67248E+00 1.85286E-13 3.71161E-14
 -1      1790 2.04087E+01 3.74283E+00-4.29939E-02 1.35809E+00 1.76407E-13-1.62613E-14
 -1      1791 2.04489E+01 3.32419E+00-5.43486E-03 1.07329E+00 1.79799E-13-2.91156E-14
 -1      1792 2.21431E+01 2.66322E+00-5.21167E-02 2.17435E+00 1.75025E-13 2.13614E-13
 -1      1793 2.14616E+01 3.09866E+00-5.15871E-02 1.86996E+00 1.77359E-13 1.08746E-13
 -1      1794 2.14873E+01 2.62683E+00 3.44984E-03 1.44413E+00 1.83975E-13 7.63695E-14
 -1      1795 2.31144E+01 1.17402E+00-1.18732E-01 1.79801E+00 1.39340E-13 4.05051E-13
 -1      1796 2.25910E+01 2.22716E+00-1.33982E-03 2.12282E+00 1.53804E-13 2.77306E-13
 -1      1797 2.22824E+01 1.65990E+00-1.68351E-02 1.45026E+00 1.71876E-13 2.12236E-13
 -1      1798 2.25274E+01 7.52951E-01-5.39692E-02 9.93331E-01 1.40797E-13 3.64179E-13
 -1      1799 2.31524E+01 2.40906E+00 8.34865E-02-2.44964E+00-1.34033E-13 2.25139E-13
 -1      1800 2.20406E+01 2.94242E-01-4.13578E-03 1.38757E-01 1.29809E-13 2.88609E-13
 -1      1801 2.23707E+01 4.29075E-01-9.89277E-03 5.15889E-01 1.20112E-13 3.27465E-13
 -1      1802 2.23333E+01 8.18686E-01-1.69436E-03 7.89586E-01 1.52097E-13 2.29840E-13
 -1      1803 2.28741E+01 1.71492E+00 7.68773E-02-1.67248E+00-1.45106E-13 1.75492E-13
 -1      1804 2.23071E+01 5.08163E-01 3.32474E-02-2.64212E-01-9.01640E-14 1.55339E-13
 -1      1805 2.21083E+01 3.70040E-01 1.21586E-02 3.30401E-02-9.42666E-14 1.22656E-13
 -1      1806 2.20676E+01 2.77010E-01 2.69311E-02 2.93775E-01-1.06039E-13 1.37782E-13
 -1      1807 2.21159E+01 1.91168E-01 1.11514E-02 4.39643E-01-9.03271E-14 1.05530E-13
 -1      1808 2.19828E+01 5.07093E-01-9.79473E-03 1.21172E-01-1.04490E-13 8.74084E-14
 -1      1809 2.21749E+01 1.29944E-01 1.59369E-02 5.80684E-01-6.00622E-14 1.07116E-13
 -1      1810 2.23323E+01 6.18580E-02 3.11249E-03 6.40044E-01-3.36398E-14 1.01149E-13
 -1      1811 2.19990E+01 2.45099E-01-8.69631E-03 5.83628E-01-8.05593E-14 8.16439E-14
 -1      1812 2.24687E+01 1.03749E-03 8.16587E-03 6.82412E-01-3.71730E-14 9.05803E-14
 -1      1813 2.26596E+01-7.45484E-02-5.83832E-03 6.62355E-01-3.82420E-14 9.05634E-14
 -1      1814 2.21974E+01 4.29888E-02-7.37613E-03 7.99265E-01-4.87472E-14 5.69601E-14
 -1      1815 2.28458E+01-1.46495E-01 3.83796E-03 6.00356E-01-2.55958E-14 1.22140E-13
 -1      1816 2.30009E+01-2.35768E-01-1.45706E-02 4.90527E-01-1.47530E-14 1.19010E-13
 -1      1817 2.25174E+01-1.73378E-01-5.60850E-03 7.90677E-01-1.63177E-14 9.49345E-14
 -1      1818 2.32032E+01-3.15648E-01 1.17561E-03 3.09612E-01-3.88405E-14 1.26470E-13
 -1      1819 2.32556E+01-4.04337E-01-2.10818E-02 1.03527E-01-3.82836E-14 1.42286E-13
 -1      1820 2.28974E+01-4.19767E-01-2.69347E-03 5.36588E-01-2.22986E-14 1.42850E-13
 -1      1821 2.34259E+01-4.68111E-01-1.54722E-03-1.95075E-01-3.54682E-14 1.66422E-13
 -1      1822 2.33217E+01-5.14544E-01-2.13053E-02-4.74627E-01-5.44009E-15 1.99906E-13
 -1      1823 2.32598E+01-6.52304E-01 2.34301E-03 1.98932E-02-2.06762E-14 1.72218E-13
 -1      1824 2.33925E+01-5.13755E-01-6.12354E-03-8.38562E-01-1.24215E-14 1.81309E-13
 -1      1825 2.31161E+01-4.55552E-01-1.13118E-02-1.11313E+00-1.85425E-14 2.00851E-13
 -1      1826 2.34977E+01-7.53288E-01 9.61478E-03-7.08616E-01-1.25819E-14 2.19484E-13
 -1      1827 2.30211E+01-3.36234E-01-1.23579E-02-1.40783E+00-3.93912E-14 1.73164E-13
 -1      1828 2.26259E+01-1.35097E-01 7.37572E-03-1.54129E+00-3.00751E-14 1.63855E-13
 -1      1829 2.34844E+01-5.60893E-01 1.48281E-02-1.45383E+00-5.65121E-14 1.53445E-13
 -1      1830 2.23670E+01 1.04064E-01-1.52045E-02-1.57406E+00-5.86146E-14 1.02694E-13
 -1      1831 2.19812E+01 3.88976E-01 2.29384E-02-1.43452E+00-6.43383E-14 4.17097E-14
 -1      1832 2.31518E+01 3.79294E-03 9.15681E-03-1.85242E+00-8.62873E-14 9.69298E-14
 -1      1833 2.16978E+01 6.38179E-01-8.13584E-03-1.08315E+00-6.99371E-14-2.28446E-14
 -1      1834 2.14836E+01 8.38338E-01 2.13073E-02-6.63876E-01-1.06163E-13-4.53363E-14
 -1      1835 2.26261E+01 7.62083E-01-1.06800E-02-1.52574E+00-1.05895E-13-1.52729E-14
 -1      1836 2.13918E+01 9.26737E-01 8.65127E-03-3.75399E-02-1.11258E-13-5.44668E-14
 -1      1837 2.14533E+01 8.92766E-01 3.75891E-03 4.80117E-01-1.09072E-13-6.84010E-14
 -1      1838 2.22565E+01 1.27730E+00-3.16492E-02-4.28087E-01-1.26248E-13-5.89351E-14
 -1      1839 2.16445E+01 7.47780E-01 2.33024E-02 1.05972E+00-1.37302E-13-5.45536E-14
 -1      1840 2.19666E+01 5.06642E-01-1.04985E-02 1.41560E+00-1.18756E-13-4.40446E-14
 -1      1841 2.23557E+01 1.19578E+00-2.57700E-02 9.44017E-01-1.17227E-13-5.28152E-14
 -1      1842 2.22924E+01 2.43094E-01 1.94292E-02 1.66387E+00-7.07915E-14-8.75897E-14
 -1      1843 2.27429E+01-3.26257E-02-1.50627E-02 1.72315E+00 8.99725E-15-7.01383E-14
 -1      1844 2.28644E+01 5.64798E-01-4.42096E-03 1.86293E+00-1.05344E-13-6.92805E-14
 -1      1845 2.29917E+01-2.46124E-01 1.33995E-03 1.60207E+00 3.71322E-14-1.18345E-13
 -1      1846 2.34109E+01-4.10403E-01-1.04928E-02 1.41603E+00 7.17751E-14-6.55387E-14
 -1      1847 2.34205E+01-1.76641E-01 1.28841E-02 1.97074E+00 2.53154E-14-9.81524E-14
 -1      1848 2.34797E+01-4.96110E-01-1.58861E-02 1.08244E+00 3.67744E-14-9.05335E-14
 -1      1849 2.37546E+01-5.22506E-01-4.97580E-03 7.93198E-01 6.46254E-14-7.15651E-14
 -1      1850 2.37199E+01-6.49848E-01 1.50827E-02 1.43430E+00 3.36692E-14-8.42529E-14
 -1      1851 2.36653E+01-5.03375E-01-2.34652E-02 4.30263E-01 7.41022E-14-1.17108E-13
 -1      1852 2.37597E+01-4.43950E-01-1.91445E-03 1.59583E-01 6.26235E-15-8.23339E-14
 -1      1853 2.36944E+01-7.56326E-01 8.76869E-03 6.52311E-01 5.22941E-14-1.35167E-13
 -1      1854 2.35790E+01-3.76996E-01-2.16960E-02-1.24202E-01-2.84217E-14-1.50483E-14
 -1      1855 2.35160E+01-2.92125E-01-6.77782E-04-3.17181E-01-1.79336E-14-4.13176E-14
 -1      1856 2.34327E+01-6.16785E-01 2.55157E-03-5.69793E-02-1.13520E-14-5.32822E-14
 -1      1857 2.32996E+01-2.21090E-01-1.52435E-02-4.91767E-01 5.21198E-15-7.41594E-15
 -1      1858 2.31284E+01-1.46772E-01-2.11366E-04-5.99265E-01 5.41780E-14-1.90742E-14
 -1      1859 2.30489E+01-3.92562E-01-8.54610E-04-5.52328E-01 5.60663E-15 2.87871E-14
 -1      1860 2.29090E+01-9.14888E-02-8.15772E-03-6.78643E-01 2.36697E-14-5.23453E-16
 -1      1861 2.26804E+01-3.98257E-02 1.41646E-04-7.18058E-01-8.42768E-14-3.23339E-14
 -1      1862 2.26240E+01-1.87367E-01-2.24809E-03-8.23247E-01 4.43679E-14-2.59610E-14
 -1      1863 2.24741E+01-4.04932E-03-2.44496E-03-7.30462E-01-1.40808E-13 6.98506E-14
 -1      1864 2.22282E+01 2.60134E-02 5.36134E-04-7.25149E-01-5.04646E-14 9.00554E-14
 -1      1865 2.22044E+01-3.99909E-02-2.64761E-03-9.18151E-01-3.89422E-14-5.51729E-15
 -1      1866 2.20424E+01 4.56698E-02 1.35993E-03-6.97481E-01-2.10435E-14 8.59735E-14
 -1      1867 2.18057E+01 5.97717E-02 9.04930E-04-6.67431E-01 8.06981E-14 5.57907E-14
 -1      1868 2.18142E+01 4.88396E-02-2.68315E-03-8.97378E-01-3.90998E-14 2.15529E-13
 -1      1869 2.16432E+01 6.83352E-02 3.47762E-03-6.19871E-01 1.07821E-13-1.41890E-13
 -1      1870 2.14307E+01 7.22751E-02 1.17350E-03-5.79142E-01 1.99816E-14-1.27383E-13
 -1      1871 2.14651E+01 9.30004E-02-2.60078E-03-8.11885E-01 6.42303E-15 3.85954E-15
 -1      1872 2.12919E+01 7.40787E-02 4.36984E-03-5.24896E-01 2.34383E-14-2.13733E-13
 -1      1873 2.11100E+01 7.22949E-02 1.31233E-03-4.82164E-01-3.74713E-14-1.72957E-13
 -1      1874 2.11617E+01 1.07985E-01-2.46318E-03-6.97762E-01 6.02675E-15-2.83756E-13
 -1      1875 2.09940E+01 7.04182E-02 4.48235E-03-4.28981E-01-6.49212E-14-2.33752E-13
 -1      1876 2.08439E+01 6.58575E-02 1.33318E-03-3.88994E-01-7.47644E-14-2.61719E-13
 -1      1877 2.09047E+01 1.06075E-01-2.28148E-03-5.77728E-01-5.65012E-14-3.50038E-13
 -1      1878 2.07489E+01 6.22646E-02 4.15800E-03-3.40888E-01-4.66079E-14-2.26000E-13
 -1      1879 2.06284E+01 5.67067E-02 1.26673E-03-3.05848E-01 1.75840E-14-1.52556E-13
 -1      1880 2.06918E+01 9.56109E-02-2.06252E-03-4.64598E-01-4.85598E-14-2.15848E-13
 -1      1881 2.05522E+01 5.25555E-02 3.62882E-03-2.64486E-01 1.05251E-13-2.23983E-13
 -1      1882 2.04577E+01 4.69888E-02 1.14606E-03-2.35081E-01 1.46252E-13-1.32567E-13
 -1      1883 2.05191E+01 8.17285E-02-1.81873E-03-3.64600E-01 7.72420E-14-6.01686E-14
 -1      1884 2.03976E+01 4.29117E-02 3.03768E-03-2.00766E-01 3.61086E-14-7.58348E-14
 -1      1885 2.03253E+01 3.78308E-02 9.98759E-04-1.76856E-01-6.23636E-14-6.02703E-14
 -1      1886 2.03816E+01 6.73425E-02-1.56556E-03-2.79918E-01 9.81054E-14-1.41237E-13
 -1      1887 2.02788E+01 3.41394E-02 2.46482E-03-1.49159E-01-8.73487E-15 5.00721E-15
 -1      1888 2.02245E+01 2.97489E-02 8.44742E-04-1.30198E-01 8.02871E-14-6.67977E-16
 -1      1889 2.02742E+01 5.39596E-02-1.31749E-03-2.10431E-01 6.26225E-14-7.94042E-14
 -1      1890 2.01891E+01 2.65677E-02 1.95022E-03-1.08348E-01-2.56419E-14 4.39893E-14
 -1      1891 2.01493E+01 2.29113E-02 6.96916E-04-9.36333E-02-4.97608E-14 9.96437E-14
 -1      1892 2.01918E+01 4.22475E-02-1.08563E-03-1.54831E-01 2.36427E-14 4.47802E-14
 -1      1893 2.01230E+01 2.02620E-02 1.50955E-03-7.67450E-02-1.24381E-13 2.05447E-13
 -1      1894 2.00944E+01 1.72997E-02 5.62695E-04-6.55517E-02-7.81779E-14 2.49030E-13
 -1      1895 2.01298E+01 3.23997E-02-8.77170E-04-1.11292E-01 5.73315E-15 2.11025E-13
 -1      1896 2.00752E+01 1.51502E-02 1.14471E-03-5.27497E-02-1.11037E-13 2.38266E-13
 -1      1897 2.00552E+01 1.28041E-02 4.45592E-04-4.44021E-02 6.21502E-14 2.26489E-13
 -1      1898 2.00842E+01 2.43587E-02-6.95642E-04-7.78695E-02-6.10732E-14 4.49326E-13
 -1      1899 2.00416E+01 1.10976E-02 8.50475E-04-3.48864E-02 1.64213E-15 2.76896E-14
 -1      1900 2.00282E+01 9.27662E-03 3.46530E-04-2.87887E-02-1.18312E-13-3.03227E-14
 -1      1901 2.00513E+01 1.79455E-02-5.41797E-04-5.27040E-02-9.25341E-14 2.40059E-13
 -1      1902 2.00187E+01 7.94804E-03 6.18335E-04-2.18618E-02 6.85153E-15-8.47905E-14
 -1      1903 2.00101E+01 6.56156E-03 2.64833E-04-1.75081E-02 1.06017E-13-8.37156E-14
 -1      1904 2.00282E+01 1.29346E-02-4.14447E-04-3.41294E-02-4.00543E-14 6.33492E-14
 -1      1905 2.00038E+01 5.54649E-03 4.38782E-04-1.25816E-02 9.26367E-14-1.88817E-13
 -1      1906 1.99986E+01 4.51120E-03 1.98926E-04-9.55450E-03 7.10663E-14-2.58778E-13
 -1      1907 2.00125E+01 9.09397E-03-3.11225E-04-2.07116E-02 2.64933E-15-7.15550E-14
 -1      1908 1.99946E+01 3.75025E-03 3.02519E-04-6.14478E-03 1.30085E-13-2.59173E-13
 -1      1909 1.99919E+01 2.99308E-03 1.46796E-04-4.10737E-03 9.96533E-14-8.89261E-14
 -1      1910 2.00023E+01 6.20619E-03-2.29160E-04-1.12526E-02 1.25576E-13-1.45022E-13
 -1      1911 1.99896E+01 2.43391E-03 2.01073E-04-1.82574E-03 4.56735E-14-1.30105E-13
 -1      1912 1.99884E+01 1.89273E-03 1.06297E-04-5.11588E-04 4.13969E-14-4.51472E-14
 -1      1913 1.99961E+01 4.07796E-03-1.65096E-04-4.77569E-03 2.23124E-14-2.78631E-14
 -1      1914 1.99873E+01 1.49057E-03 1.27058E-04 9.48139E-04 1.30467E-13 4.59439E-14
 -1      1915 1.99873E+01 1.11369E-03 7.53122E-05 1.74543E-03 6.59695E-14 6.50881E-15
 -1      1916 1.99927E+01 2.54320E-03-1.15953E-04-5.01549E-04 1.25646E-13-1.48678E-13
 -1      1917 1.99869E+01 8.31007E-04 7.42237E-05 2.61944E-03-1.50179E-13 9.74837E-14
 -1      1918 1.99876E+01 5.76016E-04 5.18488E-05 3.05625E-03-9.19934E-14 3.49735E-14
 -1      1919 1.99912E+01 1.46256E-03-7.88926E-05 2.17913E-03-7.82395E-15 5.37710E-14
 -1      1920 1.99877E+01 3.81711E-04 3.74096E-05 3.52233E-03-1.74725E-14-1.85424E-14
 -1      1921 1.99888E+01 2.14019E-04 3.40619E-05 3.71381E-03 1.34980E-13 8.61195E-14
 -1      1922 1.99911E+01 7.20841E-04-5.13976E-05 3.73218E-03-6.86597E-14 2.07659E-13
 -1      1923 1.99892E+01 8.23475E-05 1.24441E-05 3.90153E-03 3.69553E-13 1.35227E-14
 -1      1924 1.99904E+01-2.64490E-05 2.02634E-05 3.92885E-03 3.26671E-13 2.43394E-13
 -1      1925 1.99917E+01 2.23383E-04-3.13119E-05 4.50412E-03 2.46991E-13 8.11391E-14
 -1      1926 1.99911E+01-1.17082E-04-3.94429E-06 3.92796E-03 2.65890E-13 3.69614E-13
 -1      1927 1.99923E+01-1.90846E-04 8.96178E-06 3.84396E-03 4.22203E-13 6.40869E-13
 -1      1928 1.99928E+01-1.08074E-04-1.68429E-05 4.74291E-03 4.80410E-13 2.01566E-13
 -1      1929 1.99930E+01-2.59108E-04-1.41562E-05 3.71107E-03 2.53619E-13 5.13603E-13
 -1      1930 1.99942E+01-3.18527E-04-9.42792E-07 3.54435E-03 2.31454E-13 4.95312E-13
 -1      1931 1.99942E+01-3.39591E-04-6.55063E-06 4.61493E-03 2.16948E-13 3.62347E-13
 -1      1932 1.99949E+01-3.80930E-04-1.96044E-05 3.30869E-03 5.71846E-14 3.89929E-13
 -1      1933 1.99960E+01-4.43917E-04-9.36840E-06 3.06678E-03-1.78482E-15 2.20603E-13
 -1      1934 1.99955E+01-5.28127E-04 7.28667E-07 4.21915E-03 5.20850E-14 3.43089E-14
 -1      1935 1.99966E+01-5.16906E-04-2.11710E-05 2.73829E-03 6.99912E-14 8.64989E-14
 -1      1936 1.99975E+01-5.94081E-04-1.58777E-05 2.41064E-03 1.34911E-14 7.20368E-14
 -1      1937 1.99969E+01-7.21432E-04 4.96521E-06 3.60100E-03-7.09768E-14 3.02451E-14
 -1      1938 1.99980E+01-6.53235E-04-1.86878E-05 2.01024E-03-1.57064E-13-4.84841E-15
 -1      1939 1.99986E+01-7.36373E-04-2.23586E-05 1.60326E-03-2.49903E-13 2.20796E-14
 -1      1940 1.99988E+01-1.05658E-03 7.78248E-06 1.87375E-03-4.21732E-13-2.62935E-13
 -1      1941 1.99980E+01-9.21232E-04 1.15127E-05 2.79932E-03-1.29439E-13-1.01748E-13
 -1      1942 2.19532E+01 1.41930E-01 9.06395E-03-2.61175E-01 1.00992E-13 2.29733E-13
 -1      1943 2.19981E+01 2.05241E-01 1.70574E-02-8.21974E-02 1.24551E-13 2.80585E-13
 -1      1944 2.20166E+01 3.43284E-01-5.02669E-03 1.81014E-02 1.35142E-13 2.00753E-13
 -1      1945 2.21164E+01 5.23127E-02 5.14100E-03-4.50996E-01 3.39377E-14 1.73936E-13
 -1      1946 2.20092E+01 9.33873E-02 1.32467E-02-3.64870E-01 5.46837E-14 2.05468E-13
 -1      1947 2.19847E+01 1.50129E-01-4.97895E-03-3.82445E-01 7.96299E-14 1.79913E-13
 -1      1948 2.24092E+01-2.87686E-02-5.13947E-04-4.88183E-01 1.04402E-14 1.36773E-13
 -1      1949 2.22408E+01 8.79933E-03 5.88729E-03-4.70884E-01-2.57297E-15 1.40940E-13
 -1      1950 2.21577E+01 2.28849E-02-4.92977E-03-5.53819E-01 3.21611E-14 8.28894E-14
 -1      1951 2.27160E+01-1.18533E-01-5.14675E-03-3.74392E-01 2.08453E-14 1.18402E-13
 -1      1952 2.25584E+01-7.94546E-02 1.30147E-04-4.28383E-01 2.07208E-14 1.37826E-13
 -1      1953 2.24331E+01-9.99089E-02-3.38550E-03-5.36570E-01 1.09582E-14 5.04531E-14
 -1      1954 2.29239E+01-2.12153E-01-7.76405E-03-9.86212E-02 4.57603E-14 1.18053E-13
 -1      1955 2.28431E+01-1.76406E-01-3.86978E-03-2.31521E-01 4.31686E-15 1.16403E-13
 -1      1956 2.27150E+01-2.31704E-01-8.49172E-05-3.28530E-01 1.09227E-14 4.96682E-14
 -1      1957 2.29252E+01-2.80392E-01-7.03804E-03 3.24609E-01 7.52350E-14 1.37021E-13
 -1      1958 2.29786E+01-2.63675E-01-6.32579E-03 1.18640E-01 8.69166E-14 1.34387E-13
 -1      1959 2.29060E+01-3.51325E-01 4.79877E-03 7.04715E-02 7.93081E-14 6.49913E-14
 -1      1960 2.26394E+01-2.70899E-01-2.47819E-03 8.12413E-01 1.11081E-13 2.91087E-14
 -1      1961 2.28598E+01-2.96658E-01-7.15348E-03 5.73870E-01 7.00152E-14 9.19542E-14
 -1      1962 2.29086E+01-4.02090E-01 1.00901E-02 6.10921E-01 9.57654E-14 4.71294E-14
 -1      1963 2.20589E+01-1.33323E-01 3.47611E-03 1.18796E+00 2.52845E-14 3.09128E-14
 -1      1964 2.24301E+01-2.17278E-01-6.06664E-03 1.00391E+00 7.75864E-14 6.20823E-14
 -1      1965 2.26507E+01-3.08491E-01 1.25612E-02 1.14854E+00 9.49275E-14 7.86602E-14
 -1      1966 2.13069E+01 1.24972E-01 5.81148E-03 1.22308E+00 2.71311E-15 3.20993E-14
 -1      1967 2.17444E+01 6.10334E-04-2.41932E-03 1.20352E+00 3.85723E-14 3.98188E-14
 -1      1968 2.21421E+01-3.22401E-02 8.31968E-03 1.44114E+00 1.87943E-14 8.73364E-14
 -1      1969 2.06513E+01 3.95475E-01 9.01489E-04 7.79929E-01-7.43502E-14-1.01984E-14
 -1      1970 2.10109E+01 2.92084E-01 3.84321E-03 9.86325E-01-4.98854E-14 9.64853E-15
 -1      1971 2.15358E+01 3.53537E-01-2.85455E-03 1.24721E+00-3.64864E-14 6.28924E-14
 -1      1972 2.04071E+01 5.13590E-01-7.20583E-03-3.18119E-02 1.79252E-13-6.51016E-14
 -1      1973 2.05374E+01 5.01004E-01 1.07156E-02 3.41413E-01-1.71044E-15-1.05448E-13
 -1      1974 2.11104E+01 6.57462E-01-1.34730E-02 5.15904E-01 3.59192E-14-7.39313E-14
 -1      1975 2.07324E+01 3.95610E-01-9.74268E-03-8.55589E-01 5.99520E-14 2.30718E-14
 -1      1976 2.05605E+01 4.87188E-01 1.40285E-02-4.83683E-01 1.14254E-13 9.39006E-15
 -1      1977 2.11149E+01 6.90260E-01-1.33146E-02-4.83926E-01 7.43051E-14 1.67848E-14
 -1      1978 2.14934E+01 1.26096E-01-3.96489E-03-1.32549E+00-3.70537E-14 3.07671E-14
 -1      1979 2.10776E+01 2.61828E-01 1.05781E-02-1.11494E+00 2.90930E-14 3.06786E-14
 -1      1980 2.15659E+01 4.26836E-01-3.91622E-03-1.29252E+00 3.21063E-14 5.98592E-14
 -1      1981 2.23641E+01-1.28156E-01 4.78519E-03-1.31545E+00-1.13453E-13-6.00752E-14
 -1      1982 2.18588E+01-2.41322E-02 2.19761E-03-1.31343E+00-6.94785E-14-5.11414E-14
 -1      1983 2.22343E+01 3.70094E-02 4.89788E-03-1.58658E+00-2.05488E-14 2.84113E-14
 -1      1984 2.30493E+01-2.64974E-01 9.40545E-03-9.51950E-01 2.55742E-14-4.63648E-14
 -1      1985 2.26144E+01-2.25430E-01-6.21094E-03-1.10094E+00-7.90739E-14-1.06999E-13
 -1      1986 2.28333E+01-2.75666E-01 5.71558E-03-1.36513E+00-1.35222E-15-7.45619E-14
 -1      1987 2.34081E+01-2.77021E-01 9.37035E-03-4.59814E-01 5.32335E-14 4.03356E-14
 -1      1988 2.31385E+01-2.91998E-01-1.09712E-02-6.63638E-01 1.24156E-13 6.74478E-14
 -1      1989 2.31890E+01-4.08263E-01 2.47657E-03-8.46736E-01 5.46195E-14-8.39077E-14
 -1      1990 2.34447E+01-2.15925E-01 6.08389E-03-1.70716E-02-6.14240E-14-4.66151E-14
 -1      1991 2.33595E+01-2.56465E-01-1.15001E-02-2.01840E-01-4.23567E-14-6.06323E-14
 -1      1992 2.32687E+01-3.83595E-01-7.19133E-04-2.80135E-01 7.34569E-15-5.11362E-14
 -1      1993 2.32394E+01-1.34049E-01 2.44413E-03 2.94531E-01-7.76458E-14-8.93790E-14
 -1      1994 2.33059E+01-1.76805E-01-9.39732E-03 1.62952E-01-5.67038E-14-4.57217E-14
 -1      1995 2.31248E+01-2.78401E-01-2.16337E-03 1.77637E-01-5.12515E-14-6.88646E-14
 -1      1996 2.28871E+01-6.23968E-02-1.11660E-04 4.67928E-01 5.30509E-14-5.18635E-14
 -1      1997 2.30538E+01-9.58463E-02-6.20384E-03 3.93029E-01-3.21947E-14-7.12755E-14
 -1      1998 2.28351E+01-1.59934E-01-2.07925E-03 4.73407E-01-4.74842E-14-1.04048E-13
 -1      1999 2.24687E+01-1.16617E-02-1.40230E-03 5.32014E-01 2.07773E-13-3.86869E-14
 -1      2000 2.26863E+01-3.32728E-02-3.09598E-03 5.02410E-01 1.56376E-13-4.07105E-14
 -1      2001 2.24697E+01-6.35664E-02-1.43980E-03 6.19982E-01 1.36881E-13-1.13526E-13
 -1      2002 2.20414E+01 1.88857E-02-1.77279E-03 5.23688E-01-7.35814E-14-1.43626E-14
 -1      2003 2.22727E+01 7.31130E-03-6.52524E-04 5.24471E-01 7.35020E-14 8.17922E-15
 -1      2004 2.20816E+01 1.20751E-03-8.53107E-04 6.56241E-01 6.09002E-14-5.61552E-15
 -1      2005 2.16411E+01 3.41439E-02-1.63628E-03 4.74541E-01-1.94445E-13-4.53765E-14
 -1      2006 2.18618E+01 2.96218E-02 9.87031E-04 4.92786E-01-1.72268E-13-7.01034E-14
 -1      2007 2.17062E+01 3.80862E-02-5.04502E-04 6.22946E-01-1.15013E-13 5.48157E-14
 -1      2008 2.12867E+01 3.93453E-02-1.29564E-03 4.07129E-01-8.65258E-14 7.52051E-14
 -1      2009 2.14836E+01 3.91697E-02 1.91564E-03 4.33503E-01-1.50342E-13 6.90268E-15
 -1      2010 2.13644E+01 5.48393E-02-3.66588E-04 5.52658E-01-1.89346E-13 6.35335E-14
 -1      2011 2.09856E+01 3.86393E-02-9.23203E-04 3.35706E-01 2.68780E-14 1.40008E-13
 -1      2012 2.11531E+01 4.08164E-02 2.31159E-03 3.64237E-01-1.83065E-14 9.59515E-14
 -1      2013 2.10667E+01 5.88588E-02-3.52516E-04 4.67808E-01-4.78216E-14-1.80560E-14
 -1      2014 2.07379E+01 3.48805E-02-5.97551E-04 2.68319E-01-2.24994E-15 2.35260E-13
 -1      2015 2.08755E+01 3.81045E-02 2.35494E-03 2.95576E-01-3.16127E-14 1.33534E-13
 -1      2016 2.08161E+01 5.57149E-02-3.86315E-04 3.82210E-01-2.76699E-14 9.02524E-14
 -1      2017 2.05394E+01 2.98614E-02-3.43574E-04 2.08880E-01-1.02382E-13 3.51095E-13
 -1      2018 2.06492E+01 3.33491E-02 2.19148E-03 2.33144E-01-5.61335E-14 3.45013E-13
 -1      2019 2.06109E+01 4.91131E-02-4.21867E-04 3.03432E-01-9.59380E-14 2.20282E-13
 -1      2020 2.03842E+01 2.46242E-02-1.60213E-04 1.58756E-01-4.10081E-14 2.96815E-13
 -1      2021 2.04696E+01 2.79460E-02 1.92518E-03 1.79374E-01-9.46922E-14 3.92744E-13
 -1      2022 2.04469E+01 4.13114E-02-4.38770E-04 2.34947E-01-6.32117E-14 2.21509E-13
 -1      2023 2.02654E+01 1.97238E-02-3.62655E-05 1.17870E-01 1.13325E-14 2.85732E-13
 -1      2024 2.03303E+01 2.26728E-02 1.62358E-03 1.34804E-01-1.17275E-14 2.70234E-13
 -1      2025 2.03187E+01 3.35782E-02-4.32656E-04 1.77734E-01 5.76495E-14 1.65814E-13
 -1      2026 2.01764E+01 1.54172E-02 4.17754E-05 8.53994E-02 2.68414E-14 3.80192E-13
 -1      2027 2.02247E+01 1.79181E-02 1.32694E-03 9.89352E-02 5.15746E-14 3.41995E-13
 -1      2028 2.02206E+01 2.65553E-02-4.07058E-04 1.31370E-01 3.85526E-14 2.73829E-13
 -1      2029 2.01113E+01 1.17870E-02 8.63399E-05 6.02042E-02 5.90815E-14-9.21013E-14
 -1      2030 2.01463E+01 1.38388E-02 1.05678E-03 7.07751E-02 8.77625E-14 1.75563E-13
 -1      2031 2.01471E+01 2.05089E-02-3.68220E-04 9.47344E-02 1.90231E-13 1.15438E-13
 -1      2032 2.00649E+01 8.82033E-03 1.07641E-04 4.10724E-02 1.99173E-14-7.26151E-14
 -1      2033 2.00895E+01 1.04598E-02 8.22655E-04 4.91532E-02-1.48446E-14-2.14222E-13
 -1      2034 2.00933E+01 1.54930E-02-3.22358E-04 6.64272E-02 1.08494E-13-2.03342E-13
 -1      2035 2.00327E+01 6.45634E-03 1.13550E-04 2.68526E-02-4.35266E-14 1.94835E-13
 -1      2036 2.00495E+01 7.73667E-03 6.26877E-04 3.29021E-02 1.93537E-14 1.08000E-13
 -1      2037 2.00548E+01 1.14488E-02-2.74511E-04 4.50148E-02-8.93028E-14 7.94753E-14
 -1      2038 2.00112E+01 4.61383E-03 1.09868E-04 1.65187E-02 2.34215E-13 1.29524E-13
 -1      2039 2.00222E+01 5.59278E-03 4.67696E-04 2.09508E-02 7.44311E-14 2.19687E-13
 -1      2040 2.00280E+01 8.26532E-03-2.28256E-04 2.91600E-02 6.60157E-14 1.62707E-13
 -1      2041 1.99975E+01 3.20745E-03 1.00719E-04 9.19337E-03 1.37424E-13 8.56808E-14
 -1      2042 2.00043E+01 3.94046E-03 3.41300E-04 1.23653E-02 2.19506E-13 1.66076E-13
 -1      2043 2.00102E+01 5.81298E-03-1.85838E-04 1.76836E-02 2.36408E-13 2.70687E-13
 -1      2044 1.99896E+01 2.15612E-03 8.89264E-05 4.14995E-03-1.71369E-13 2.14050E-13
 -1      2045 1.99934E+01 2.69314E-03 2.43055E-04 6.35998E-03-5.38992E-14 1.31879E-13
 -1      2046 1.99988E+01 3.96309E-03-1.48442E-04 9.58450E-03-3.71781E-14 4.33220E-13
 -1      2047 1.99856E+01 1.38723E-03 7.63361E-05 8.01229E-04 6.54375E-14 3.19826E-13
 -1      2048 1.99873E+01 1.77138E-03 1.68221E-04 2.29209E-03-6.25531E-14 2.54584E-13
 -1      2049 1.99921E+01 2.59733E-03-1.16488E-04 4.03782E-03-1.03553E-13 3.60799E-13
 -1      2050 1.99842E+01 8.38132E-04 6.40727E-05-1.31649E-03-3.01160E-13 4.81666E-13
 -1      2051 1.99846E+01 1.10557E-03 1.12346E-04-3.51793E-04-1.71206E-13 2.79505E-13
 -1      2052 1.99887E+01 1.61198E-03-8.98796E-05 3.80034E-04-1.43895E-13 3.88642E-13
 -1      2053 1.99846E+01 4.56101E-04 5.27315E-05-2.56129E-03-1.36046E-13 6.01084E-13
 -1      2054 1.99841E+01 6.36503E-04 7.14555E-05-1.97275E-03-1.00146E-13 6.73871E-13
 -1      2055 1.99875E+01 9.18945E-04-6.82070E-05-1.91045E-03-2.28735E-13 5.05994E-13
 -1      2056 1.99861E+01 1.97397E-04 4.25120E-05-3.20276E-03-3.08538E-14 4.26060E-13
 -1      2057 1.99850E+01 3.14803E-04 4.21121E-05-2.87674E-03-1.67866E-13 4.89320E-13
 -1      2058 1.99877E+01 4.44910E-04-5.08909E-05-3.23421E-03-7.41472E-14 3.17146E-13
 -1      2059 1.99881E+01 2.58521E-05 3.33123E-05-3.43715E-03 1.21902E-13 4.43729E-13
 -1      2060 1.99868E+01 9.96191E-05 2.13989E-05-3.29052E-03 1.12598E-13 4.80287E-13
 -1      2061 1.99889E+01 1.29459E-04-3.72914E-05-3.89047E-03 5.69413E-14 4.66078E-13
 -1      2062 1.99904E+01-8.88772E-05 2.48281E-05-3.39998E-03 4.53474E-13 3.25226E-13
 -1      2063 1.99890E+01-4.29604E-05 6.87870E-06-3.37527E-03 2.59523E-13 4.30658E-13
 -1      2064 1.99905E+01-7.71996E-05-2.67524E-05-4.09426E-03 2.69731E-13 4.66162E-13
 -1      2065 1.99927E+01-1.73158E-04 1.69882E-05-3.17548E-03 1.25221E-13 3.67432E-13
 -1      2066 1.99913E+01-1.41953E-04-3.29409E-06-3.23746E-03 2.86930E-13 3.81535E-13
 -1      2067 1.99924E+01-2.17167E-04-1.85340E-05-3.99077E-03 2.47850E-13 4.76291E-13
 -1      2068 1.99948E+01-2.50342E-04 1.00636E-05-2.80352E-03 8.70048E-14 1.44799E-13
 -1      2069 1.99936E+01-2.22861E-04-1.02159E-05-2.93667E-03 5.13106E-14 3.31217E-13
 -1      2070 1.99943E+01-3.26247E-04-1.12129E-05-3.66495E-03 1.02890E-13 4.28596E-13
 -1      2071 1.99967E+01-3.42123E-04 4.25618E-06-2.28666E-03 1.50203E-13 9.28043E-14
 -1      2072 1.99956E+01-3.08316E-04-1.40862E-05-2.49367E-03 1.28328E-13 8.50565E-14
 -1      2073 1.99960E+01-4.37982E-04-4.43398E-06-3.15375E-03 1.57803E-13 8.47163E-14
 -1      2074 1.99982E+01-4.65011E-04-4.44986E-06-1.60137E-03 3.18462E-13 2.11078E-14
 -1      2075 1.99974E+01-4.14081E-04-1.34743E-05-1.90117E-03 3.06524E-13 2.04928E-13
 -1      2076 1.99975E+01-5.81279E-04 3.91117E-07-2.46102E-03 2.72517E-13 3.60229E-13
 -1      2077 1.99991E+01-5.73595E-04-1.38439E-05-9.71324E-04 1.93422E-13 3.29652E-14
 -1      2078 1.99985E+01-5.32916E-04-1.10641E-05-1.34805E-03 3.19975E-13 3.83337E-14
 -1      2079 1.99985E+01-7.33571E-04 5.55107E-06-1.78314E-03 3.33159E-13 3.49787E-13
 -1      2080 1.99992E+01-8.72079E-04 2.75098E-06-1.20334E-03 9.27517E-14 6.08194E-13
 -1      2081 1.99999E+01-4.50142E-03 7.40990E-06-2.43854E-03 3.76131E-14-1.60863E-13
 -1      2082 1.99997E+01-3.72327E-03-7.20400E-06-2.44553E-03 4.71971E-14 3.53235E-13
 -1      2083 1.99996E+01-3.10862E-03 2.20275E-06-2.36713E-03 1.85383E-13 7.59046E-13
 -1      2084 1.99994E+01-2.37436E-03-1.36458E-05-2.19306E-03 1.23815E-13 1.09644E-12
 -1      2085 1.99996E+01-3.13667E-03-1.66120E-06-3.01609E-03-1.28904E-13 4.50380E-13
 -1      2086 1.99993E+01-1.92250E-03-1.93649E-06-1.92108E-03 1.63755E-13 1.02750E-12
 -1      2087 1.99992E+01-1.30913E-03-1.46096E-05-1.58411E-03 9.26010E-14 8.33582E-13
 -1      2088 1.99989E+01-1.25064E-03-1.11943E-05-1.91031E-03 2.78651E-13 7.81084E-13
 -1      2089 1.99992E+01-2.10464E-03 1.01428E-06-2.61747E-03-4.12509E-14 1.17552E-12
 -1      2090 2.00001E+01-5.77166E-03 1.33530E-05-2.18650E-03-1.56072E-13-6.16783E-13
 -1      2091 2.00000E+01-5.05905E-03 4.23728E-06-2.33013E-03-2.00877E-14-4.43504E-13
 -1      2092 2.00000E+01-4.30124E-03-6.63348E-06-2.97266E-03-1.78720E-13-3.90912E-13
 -1      2093 2.00003E+01-6.83119E-03 1.88644E-05-1.67741E-03 1.18486E-13-2.32822E-14
 -1      2094 2.00002E+01-6.24907E-03 1.34800E-05-1.92683E-03-1.30239E-13-7.41657E-14
 -1      2095 2.00003E+01-5.33917E-03-1.20573E-05-2.55906E-03-1.62114E-13-3.00476E-13
 -1      2096 2.00004E+01-7.54701E-03 2.26694E-05-9.95108E-04 2.91316E-13-1.13962E-13
 -1      2097 2.00003E+01-7.17244E-03 2.02140E-05-1.31126E-03 3.41965E-13-4.47741E-14
 -1      2098 2.00005E+01-6.16156E-03-1.57764E-05-1.85840E-03 1.23745E-13 8.97739E-14
 -1      2099 2.00004E+01-7.85228E-03 2.44389E-05-2.18451E-04 1.12603E-13-3.47269E-13
 -1      2100 2.00004E+01-7.72436E-03 2.37466E-05-5.67052E-04 2.54774E-13-1.83812E-13
 -1      2101 2.00007E+01-6.68382E-03-1.81067E-05-9.71345E-04 2.84472E-13-2.04590E-13
 -1      2102 2.00004E+01-7.71946E-03 2.37883E-05 5.78262E-04-2.00367E-14-3.65049E-13
 -1      2103 2.00004E+01-7.85116E-03 2.44157E-05 2.29827E-04 8.49322E-14-3.60714E-13
 -1      2104 2.00007E+01-6.86139E-03-1.88552E-05 7.01495E-06-2.38201E-14-4.39663E-13
 -1      2105 2.00003E+01-7.16176E-03 2.03770E-05 1.32147E-03-1.59143E-13-2.72732E-13
 -1      2106 2.00004E+01-7.54004E-03 2.24744E-05 1.00600E-03-5.01514E-14-2.25081E-13
 -1      2107 2.00007E+01-6.67934E-03-1.80145E-05 9.85001E-04-8.20261E-14-2.40762E-13
 -1      2108 2.00002E+01-6.25187E-03 1.34948E-05 1.92619E-03-2.36457E-13-1.75894E-13
 -1      2109 2.00003E+01-6.82582E-03 1.86804E-05 1.68147E-03-2.35877E-13-1.89766E-13
 -1      2110 2.00005E+01-6.15886E-03-1.58886E-05 1.86442E-03-1.44232E-13-2.94917E-13
 -1      2111 2.00000E+01-5.04990E-03 3.87937E-06 2.33201E-03-6.56742E-14 1.97847E-13
 -1      2112 2.00001E+01-5.77495E-03 1.33420E-05 2.18677E-03-2.38897E-13 1.78026E-13
 -1      2113 2.00003E+01-5.34240E-03-1.22200E-05 2.55908E-03-6.42295E-14-4.33099E-14
 -1      2114 1.99997E+01-3.70158E-03-7.43746E-06 2.44573E-03-7.85303E-14 1.06843E-14
 -1      2115 1.99999E+01-4.48083E-03 7.53501E-06 2.44098E-03-3.23272E-14-1.45418E-13
 -1      2116 2.00000E+01-4.29377E-03-6.32074E-06 2.97480E-03-7.29005E-14 7.41245E-14
 -1      2117 1.99994E+01-2.33439E-03-9.44424E-06 2.20449E-03-3.79099E-13-4.69047E-14
 -1      2118 1.99996E+01-3.08790E-03 4.55343E-06 2.36524E-03-2.71547E-13 2.68777E-14
 -1      2119 1.99996E+01-3.12068E-03-5.97431E-07 3.01288E-03-1.93064E-13-1.56254E-13
 -1      2120 1.12346E+01-5.20457E+00-1.28665E-01 6.51984E+00 2.19824E-13 1.81362E-13
 -1      2121 7.75434E+00-6.31387E+00-2.71419E-01 5.65355E+00 1.58928E-13 1.53766E-13
 -1      2122 3.02309E-01-6.83722E+00-3.34242E-01 7.96918E-01 1.23901E-13 4.65128E-13
 -1      2123 2.17905E-01-7.44613E+00-4.37313E-01-8.36728E-01-4.65183E-14 4.85056E-13
 -1      2124 4.17758E+00-5.67488E+00-1.57523E-01 4.63399E+00 1.74527E-13 2.60736E-13
 -1      2125 1.89021E+00-6.69929E+00-3.30186E-01 2.77376E+00 1.56347E-13 3.95239E-13
 -1      2126 1.94711E+01-3.14536E+00 2.25800E-02 6.84591E+00 2.33591E-13 2.50910E-14
 -1      2127 1.47267E+01-5.04614E+00-3.01362E-01 6.14182E+00 2.18714E-13 1.57346E-13
 -1      2128 2.83730E+01-2.71662E-01 1.86144E-01 5.66062E+00 2.10165E-13 1.56652E-13
 -1      2129 2.34400E+01-2.31537E+00-1.66833E-01 5.48024E+00 2.24043E-13 7.06657E-14
 -1      2130 1.94959E+01 4.17151E+00-3.01252E-02-8.63664E-01-9.00261E-14-1.45502E-13
 -1      2131 1.99144E+01 4.09541E+00-1.82583E-02-1.09926E+00-1.09527E-13-1.10946E-13
 -1      2132 2.03712E+01 3.38425E+00-1.42006E-02-1.02882E+00-1.17333E-13-8.34506E-14
 -1      2133 1.94990E+01 3.83569E+00-6.04867E-03-6.68299E-01-8.97286E-14-1.45703E-13
 -1      2134 3.75868E+01 5.70362E+00 1.30128E-01 8.21336E-01 3.34344E-13-1.13687E-13
 -1      2135 3.64939E+01 4.57053E+00 2.39839E-01 2.43921E+00 2.65760E-13 2.10387E-14
 -1      2136 4.06209E+01 7.38426E+00 4.39266E-01-2.02544E-01 2.95486E-13-1.61100E-13
 -1      2137 3.86822E+01 7.26483E+00 1.99823E-01 6.27119E-01 3.10862E-13-1.03861E-13
 -1      2138 3.81381E+01 6.32497E+00 1.86689E-01-1.57735E+00 3.76255E-13-1.80744E-13
 -1      2139 4.02317E+01 6.90709E+00 3.56285E-01-6.67548E-01 3.67206E-13-1.22513E-13
 -1      2140 3.34460E+01 2.68299E+00 2.52769E-02-3.04907E+00 2.92356E-13-2.50133E-13
 -1      2141 3.65089E+01 4.17069E+00 1.72243E-01-1.95909E+00 3.13138E-13-1.84353E-13
 -1      2142 2.73838E+01-5.16562E-01-8.58833E-02-4.80672E+00 2.55379E-13-3.23408E-13
 -1      2143 3.21423E+01 1.16802E+00 1.83558E-01-4.52725E+00 2.72185E-13-3.13749E-13
 -1      2144 3.22444E+01 9.52450E-01 2.17257E-01-9.81129E-01 1.62759E-13-6.51701E-14
 -1      2145 1.80561E+01-3.91437E+00-2.72951E-01-6.15928E+00 2.11497E-13-3.90243E-13
 -1      2146 2.32324E+01-1.90805E+00 5.41131E-02-6.74794E+00 2.62679E-13-4.43090E-13
 -1      2147 9.57391E+00-6.21188E+00-4.03495E-01-5.74505E+00 1.19349E-13-3.56080E-13
 -1      2148 1.37781E+01-4.33845E+00-1.13534E-01-6.84661E+00 2.01950E-13-4.22135E-13
 -1      2149 3.27027E+00-7.33552E+00-4.61086E-01-3.89220E+00 2.23155E-14-2.69507E-13
 -1      2150 5.99467E+00-6.02526E+00-2.66125E-01-5.29676E+00 1.11799E-13-3.14970E-13
 -1      2151 1.01654E-01-7.78689E+00-4.88275E-01-8.27855E-01-7.83817E-14-3.39229E-13
 -1      2152 9.64943E-01-7.33581E+00-4.27994E-01-2.29802E+00 2.85327E-14-3.10307E-13
 -1      2153 1.39455E+00-6.65488E+00-3.29372E-01 2.57004E+00-1.11744E-13-3.84914E-13
 -1      2154 3.81435E-01-7.43172E+00-4.44369E-01 9.79999E-01-4.75384E-14-3.79252E-13
 -1      2155 6.79601E+00-5.84181E+00-1.98851E-01 5.54703E+00-2.10165E-13-2.36089E-13
 -1      2156 4.03437E+00-6.83024E+00-3.56959E-01 4.27558E+00-7.18869E-14-3.25351E-13
 -1      2157 1.43602E+01-4.62710E+00-8.98825E-02 6.95203E+00-2.09943E-13-1.51074E-13
 -1      2158 9.86982E+00-6.25420E+00-3.73017E-01 5.84090E+00-2.46358E-13-1.69460E-13
 -1      2159 1.07469E+01-5.50851E+00-6.95020E-02 6.67068E+00-1.75415E-14-1.52822E-13
 -1      2160 2.38919E+01-2.78485E+00-2.12559E-02 6.04442E+00-1.55487E-13-6.69464E-14
 -1      2161 1.87877E+01-4.30517E+00-2.41051E-01 6.06099E+00-1.90847E-13-1.48770E-13
 -1      2162 3.23593E+01 1.26495E+00 2.81355E-01 4.48776E+00-2.30982E-13-8.69305E-14
 -1      2163 2.80478E+01-9.24995E-01-3.22646E-03 4.46434E+00-1.71696E-13-6.75571E-14
 -1      2164 3.66703E+01 4.33044E+00 1.69931E-01 1.85902E+00-2.50078E-13 5.07372E-14
 -1      2165 3.41268E+01 2.85544E+00 1.22656E-01 3.09073E+00-2.59813E-13-6.10623E-14
 -1      2166 3.24662E+01 1.03106E+00 1.63684E-01 1.19910E+00-2.00312E-13 9.27036E-14
 -1      2167 4.03025E+01 6.94527E+00 3.95008E-01 5.65172E-01-3.34011E-13 5.15143E-14
 -1      2168 3.73763E+01 6.38096E+00 9.36235E-02 1.08346E+00-3.14249E-13 2.49245E-14
 -1      2169 3.97451E+01 7.09501E+00 2.89354E-01-6.54362E-01-4.35318E-13 1.11383E-13
 -1      2170 4.04604E+01 7.10569E+00 2.98895E-01 3.44380E-01-4.17111E-13 2.23987E-14
 -1      2171 3.55282E+01 8.07305E+00 2.90686E-01-1.01120E-01-4.09617E-13 4.26048E-15
 -1      2172 3.76875E+01 4.98537E+00 2.82193E-01-2.75378E+00-4.70290E-13 3.67484E-13
 -1      2173 3.99505E+01 5.94936E+00 3.53521E-01-1.49414E+00-4.59077E-13 2.33757E-13
 -1      2174 3.14848E+01 1.75596E+00 4.76299E-02-4.45489E+00-5.41178E-13 5.40901E-13
 -1      2175 3.59907E+01 3.29493E+00 3.65644E-01-3.95053E+00-4.64389E-13 4.82059E-13
 -1      2176 2.38691E+01-2.26036E+00-1.42771E-01-5.35252E+00-5.06706E-13 5.15865E-13
 -1      2177 2.88547E+01-2.30497E-01 1.98936E-01-5.53934E+00-5.57832E-13 5.08815E-13
 -1      2178 1.42722E+01-5.10489E+00-3.40986E-01-6.01241E+00-4.22440E-13 5.98827E-13
 -1      2179 1.93739E+01-3.17461E+00-2.30256E-02-6.82673E+00-4.84168E-13 4.78007E-13
 -1      2180 6.35728E+00-6.94921E+00-4.44895E-01-4.94115E+00-2.45914E-13 5.29632E-13
 -1      2181 1.00931E+01-5.23823E+00-1.87504E-01-6.20828E+00-3.45945E-13 6.78860E-13
 -1      2182 1.47673E+00-7.39707E+00-4.32117E-01-2.56853E+00-1.11272E-13 4.52360E-13
 -1      2183 3.41307E+00-6.50212E+00-3.01073E-01-4.04893E+00-2.56573E-13 5.20917E-13
 -1      2184 3.53176E+01 3.02743E+00 2.77406E-01 3.68881E+00 1.75655E-13 6.57252E-14
 -1      2185 3.10870E+01 1.57015E+00 1.04643E-02 4.19257E+00 1.81147E-13 1.12355E-13
 -1      2186 3.39041E+01 3.36136E+00 2.61101E-01 4.57300E-01 2.19519E-13-3.82472E-14
 -1      2187 2.36522E+01-4.25230E+00 4.56167E-02 5.37161E+00 1.30895E-13-2.03171E-14
 -1      2188 2.23040E+01 1.09240E+00-1.75040E-02-9.49232E-01-1.23550E-13 1.40136E-13
 -1      2189 3.04112E+01-8.14270E-01 1.55649E-01 2.58782E+00 1.27703E-13-8.49321E-15
 -1      2190 2.20290E+01 1.33271E+00-2.29669E-02-8.64939E-01-1.30942E-13 6.76698E-14
 -1      2191 7.75317E+00-5.23630E+00-9.63918E-02 5.84385E+00-4.55191E-15 1.31728E-13
 -1      2192 2.40338E+00-4.52650E+00-1.22726E-01 2.21912E+00 1.00975E-13 4.80560E-13
 -1      2193 1.99993E+01-1.86198E-03-1.11465E-05 2.15188E-03-4.27977E-13-2.04001E-13
 -1      2194 1.55565E+01-5.61120E+00-6.18240E-02 6.76129E+00 6.77236E-14 6.94028E-14
 -1      2195 2.21180E+00-4.90892E+00-1.93325E-01-2.30590E+00-2.31759E-14 5.78815E-13
 -1      2196 6.86540E+00-5.54373E+00-1.59575E-01-5.55585E+00-1.41664E-13 5.53196E-13
 -1      2197 1.46897E+01-5.68948E+00-7.44360E-02-6.70293E+00-1.85407E-13 5.85875E-13
 -1      2198 2.37934E+01-4.23296E+00 7.10509E-02-5.27818E+00-3.45723E-13 4.19720E-13
 -1      2199 3.05833E+01-8.17047E-01 1.04806E-01-2.64794E+00-4.29212E-13 3.49609E-13
 -1      2200 3.63373E+01 7.18438E+00 3.29839E-01 1.21663E-01-5.15643E-13 7.21090E-14
 -1      2201 3.48570E+01 5.35170E+00 1.96729E-01-1.86205E-01-2.49023E-13 9.39804E-14
 -1      2202 1.87081E+01-5.40466E+00 1.20481E-02 6.52150E+00-3.28071E-14-4.37428E-14
 -1      2203 4.46300E+00-4.89966E+00-1.25377E-01 4.32122E+00 2.50078E-14-3.54716E-13
 -1      2204 1.36684E+00-4.97255E+00-2.24619E-01 1.28405E-01-3.14748E-14-3.71481E-13
 -1      2205 3.60079E+00-5.33796E+00-2.10654E-01-4.03195E+00-5.35683E-14-2.95652E-13
 -1      2206 1.00572E+01-5.67727E+00-1.29626E-01-6.52486E+00 3.77476E-15-3.31887E-13
 -1      2207 2.73027E+01-2.86659E+00 1.16868E-01-4.16450E+00 1.12577E-13-1.78912E-13
 -1      2208 3.45645E+01 5.11860E+00 1.82062E-01 3.03317E-01 2.84245E-13-1.84297E-14
 -1      2209 3.63076E+01 6.57842E+00 1.92261E-01 2.31376E-02 3.41227E-13-9.03999E-14
 -1      2210 3.28176E+01 5.63998E+00 3.68246E-03-9.03512E-01 3.36009E-13-1.68449E-13
 -1      2211 3.32096E+01 7.12684E+00-8.24124E-02-8.15692E-01 3.59213E-13-1.05471E-13
 -1      2212 3.60702E+01 8.00020E+00 2.97552E-01 3.55892E-02 3.40838E-13-2.42029E-14
 -1      2213 1.85720E+01-5.20922E+00-1.69358E-02-6.61585E+00 5.68989E-14-3.49110E-13
 -1      2214 2.68414E+01-2.79666E+00 2.87361E-02 4.40351E+00-1.09440E-13-2.78666E-14
 -1      2215 2.56753E+01-4.32781E+00 1.38924E-01 4.21814E+00-5.15699E-14 1.00003E-13
 -1      2216 2.86687E+01-3.06561E+00-2.07159E-01 2.42364E+00-5.63230E-14 1.33171E-13
 -1      2217 3.51068E+01 3.75656E+00 3.19369E-01-9.57051E-01-5.16726E-13 1.97287E-13
 -1      2218 2.18809E+01 5.18400E-01 5.17009E-03-8.96926E-02 1.25192E-13 1.36322E-13
 -1      2219 2.19797E+01 7.12054E-01 2.07294E-02 2.12387E-01 1.32496E-13 1.42323E-13
 -1      2220 1.81038E+01 4.10442E+00-1.13524E-02-8.15082E-02-4.27192E-15-1.46503E-13
 -1      2221 1.83514E+01 4.02597E+00-3.83240E-03-1.48573E-01-2.70407E-14-1.54220E-13
 -1      2222 1.86481E+01 3.85204E+00-1.45119E-02-1.93803E-01-3.83772E-14-1.56908E-13
 -1      2223 1.89977E+01 3.72710E+00-5.71292E-03-3.01791E-01-6.03940E-14-1.47560E-13
 -1      2224 1.85796E+01 3.63325E+00 2.44688E-03-4.95639E-02-2.52667E-14-1.44519E-13
 -1      2225 1.77577E+01 4.26501E+00-5.35041E-03-1.62511E-02 5.99827E-14-1.54959E-13
 -1      2226 1.77432E+01 4.27127E+00-6.35639E-03-4.88443E-02 4.50109E-14-1.54002E-13
 -1      2227 1.79860E+01 4.16697E+00-3.58182E-03 2.32029E-02 7.88282E-14-1.63051E-13
 -1      2228 1.78384E+01 4.21405E+00-9.02255E-03-2.41920E-02 6.34692E-14-1.61659E-13
 -1      2229 1.78371E+01 3.99279E+00 3.64673E-03-5.48586E-02 6.15587E-14-1.58111E-13
 -1      2230 1.84427E+01 3.96241E+00-3.54476E-03 1.22072E-01 1.03735E-13-1.54652E-13
 -1      2231 1.81858E+01 4.04681E+00-1.18273E-02 4.35323E-02 8.67437E-14-1.58833E-13
 -1      2232 1.81431E+01 3.83255E+00 2.53639E-03-5.07759E-02 7.73880E-14-1.51998E-13
 -1      2233 1.90958E+01 3.65109E+00-6.08916E-03 3.07425E-01 1.36613E-13-1.23412E-13
 -1      2234 1.87458E+01 3.77957E+00-1.47305E-02 1.85344E-01 1.18746E-13-1.45461E-13
 -1      2235 1.86845E+01 3.54995E+00 1.16368E-03 2.54120E-02 1.11217E-13-1.35085E-13
 -1      2236 1.98895E+01 3.22488E+00-1.23700E-02 5.76057E-01 1.59327E-13-7.79238E-14
 -1      2237 1.94755E+01 3.41172E+00-1.77286E-02 4.13184E-01 1.42867E-13-1.08368E-13
 -1      2238 1.94120E+01 3.15536E+00 1.03995E-03 1.85839E-01 1.29424E-13-1.03174E-13
 -1      2239 2.07855E+01 2.63968E+00-2.39687E-02 8.85898E-01 1.75386E-13-8.25381E-15
 -1      2240 2.03254E+01 2.92192E+00-2.02592E-02 7.04040E-01 1.63536E-13-4.64229E-14
 -1      2241 2.02603E+01 2.64677E+00 3.69380E-03 4.04133E-01 1.44864E-13-5.84021E-14
 -1      2242 2.19096E+01 2.45416E-01 3.45633E-03-4.92876E-01 8.83434E-14 9.49687E-14
 -1      2243 2.18904E+01 3.69908E-01 2.05727E-02-3.39469E-01 1.18167E-13 1.31984E-13
 -1      2244 2.16983E+01 6.39819E-01-6.32362E-03-2.01327E-01 1.26327E-13 7.36473E-14
 -1      2245 2.17987E+01 9.21919E-01 1.54074E-02-6.39842E-02-8.81248E-14 4.07912E-14
 -1      2246 2.17399E+01 6.91017E-01-1.39905E-03 2.72838E-01-8.28417E-14 4.74247E-14
 -1      2247 3.06018E+01-6.78787E-01-8.75322E-02 8.45896E-01 6.89657E-14-1.03528E-13
 -1      2248 2.83943E+01-2.63860E+00-3.09001E-02 1.94211E+00 7.85760E-14-1.11133E-13
 -1      2249 2.57500E+01-4.43433E+00-7.80445E-02 4.02849E+00 6.81122E-14-8.99836E-14
 -1      2250 2.22329E+01-5.29423E+00-3.27445E-03 5.17597E+00-1.20182E-14-1.09662E-13
 -1      2251 2.17858E+01 5.15535E-01 1.78132E-02 5.31856E-01-8.27435E-14 5.70713E-14
 -1      2252 2.18207E+01 3.51757E-01-8.69837E-05 7.15595E-01-6.76204E-14 5.79411E-14
 -1      2253 2.14839E+01 8.17478E-01-6.23216E-03 4.12994E-01-8.62617E-14 2.80364E-15
 -1      2254 2.19148E+01 2.08618E-01 1.42167E-02 8.68900E-01-6.07352E-14 7.31485E-14
 -1      2255 2.20246E+01 4.93756E-02-3.72184E-03 9.36157E-01-3.62018E-14 5.53482E-14
 -1      2256 2.15824E+01 3.84196E-01-9.05911E-03 8.64438E-01-5.63214E-14 4.45247E-14
 -1      2257 2.21972E+01-1.06761E-01 1.26166E-02 9.76831E-01-6.51410E-15 7.82944E-14
 -1      2258 2.23507E+01-2.91468E-01-9.56599E-03 9.25547E-01 6.53427E-15 1.03912E-13
 -1      2259 2.18146E+01-2.88839E-02-1.12786E-02 1.08987E+00-1.43666E-14 6.52411E-14
 -1      2260 2.26145E+01-4.73979E-01 1.27065E-02 8.32778E-01-2.77968E-15 1.11174E-13
 -1      2261 2.27764E+01-6.81556E-01-1.63937E-02 6.49056E-01-1.03693E-14 1.19538E-13
 -1      2262 2.22097E+01-4.96752E-01-1.33054E-02 1.06499E+00-1.26158E-15 7.60839E-14
 -1      2263 2.31236E+01-8.67014E-01 1.20282E-02 3.95964E-01-1.97451E-14 1.19544E-13
 -1      2264 2.32512E+01-1.04533E+00-2.12610E-02 7.91884E-02-5.30131E-15 1.46283E-13
 -1      2265 2.27749E+01-1.00983E+00-1.36645E-02 7.41045E-01-9.98669E-15 1.02949E-13
 -1      2266 2.36287E+01-1.15601E+00 6.54291E-03-3.37682E-01-1.62570E-14 1.41929E-13
 -1      2267 2.36735E+01-1.18799E+00-1.86896E-02-7.38706E-01-1.33695E-14 1.07634E-13
 -1      2268 2.34674E+01-1.43405E+00-8.84014E-03 7.81750E-02-4.43569E-15 6.29797E-14
 -1      2269 2.39555E+01-1.09168E+00-9.42092E-03-1.23920E+00-4.18112E-14 1.31219E-13
 -1      2270 2.38834E+01-8.30606E-01-4.60538E-03-1.58631E+00-6.99454E-14 1.35480E-13
 -1      2271 2.41391E+01-1.47658E+00 2.98912E-03-8.70570E-01-2.53664E-14 6.05375E-14
 -1      2272 2.39140E+01-4.18459E-01-3.40157E-02-1.94287E+00-9.97475E-14 1.18526E-13
 -1      2273 2.37411E+01 1.65779E-01 1.47757E-02-2.01654E+00-1.33223E-13 7.99022E-14
 -1      2274 2.45272E+01-7.98463E-01 9.93914E-03-1.81488E+00-1.08042E-13 1.27474E-13
 -1      2275 2.35017E+01 8.04606E-01-4.72747E-02-1.90867E+00-1.41495E-13 9.64021E-14
 -1      2276 2.33246E+01 1.44294E+00 1.87395E-02-1.53843E+00-1.38500E-13 5.41312E-14
 -1      2277 2.44262E+01 6.40692E-01 3.25227E-04-2.16248E+00-1.32831E-13 1.56992E-13
 -1      2278 2.30772E+01 1.91353E+00-3.60853E-02-8.55525E-01-1.40023E-13 5.97586E-14
 -1      2279 2.30099E+01 2.14602E+00-1.63995E-02-1.54443E-01-9.78835E-14 7.78483E-14
 -1      2280 2.40245E+01 2.16342E+00-2.81488E-02-1.36827E+00-1.51441E-13 1.85813E-13
 -1      2281 2.30797E+01 2.06564E+00-3.83491E-04 7.69224E-01-1.14592E-13 5.68074E-14
 -1      2282 2.32052E+01 1.68029E+00-4.11859E-02 1.40792E+00-1.44971E-13 3.91631E-14
 -1      2283 2.38322E+01 2.70634E+00-3.74801E-02 3.64979E-01-1.24074E-13 9.13887E-14
 -1      2284 2.34985E+01 1.12124E+00 1.94803E-02 1.95479E+00-1.55778E-13 3.19948E-14
 -1      2285 2.37155E+01 4.51761E-01-4.72470E-02 2.20020E+00-1.09127E-13 2.14316E-14
 -1      2286 2.41590E+01 1.80644E+00-2.28726E-02 1.89904E+00-1.83263E-13 3.31263E-14
 -1      2287 2.39076E+01-1.53020E-01 9.86546E-03 2.15596E+00-3.76834E-14-4.16845E-14
 -1      2288 2.40855E+01-6.64945E-01-2.66461E-02 1.98581E+00 2.15095E-14-6.64158E-14
 -1      2289 2.45522E+01 2.02688E-01 3.66514E-03 2.36661E+00-1.11338E-13 3.29285E-14
 -1      2290 2.39840E+01-9.93653E-01-9.55755E-03 1.55565E+00-1.16942E-14-8.89133E-14
 -1      2291 2.40456E+01-1.16988E+00-4.14704E-03 1.16999E+00-1.90941E-14-1.21977E-13
 -1      2292 2.45405E+01-1.06553E+00 1.22680E-02 1.78524E+00-5.05360E-14-9.49449E-14
 -1      2293 2.37243E+01-1.20354E+00-2.12146E-02 6.66017E-01 5.90049E-14-1.53045E-13
 -1      2294 2.36662E+01-1.12683E+00 7.29935E-03 2.67080E-01 6.99098E-14-1.01462E-13
 -1      2295 2.40592E+01-1.54384E+00 2.39414E-04 7.75460E-01-8.22476E-16-1.03098E-13
 -1      2296 2.32814E+01-9.95524E-01-2.13542E-02-1.28752E-01 7.10369E-15-9.09767E-14
 -1      2297 2.31406E+01-8.15514E-01 1.01014E-02-4.32741E-01-1.22862E-15-1.93625E-14
 -1      2298 2.33560E+01-1.38728E+00-9.45405E-03-1.46927E-01 3.84394E-14-7.37511E-14
 -1      2299 2.27945E+01-6.43464E-01-1.55077E-02-6.75361E-01 1.21877E-14-1.75088E-15
 -1      2300 2.26109E+01-4.64048E-01 8.48421E-03-8.59632E-01 5.39998E-14-3.04769E-15
 -1      2301 2.26633E+01-9.57183E-01-1.15422E-02-7.78839E-01 2.41116E-14 1.70778E-15
 -1      2302 2.23363E+01-3.16662E-01-8.87549E-03-9.71876E-01 1.85997E-14-1.02050E-13
 -1      2303 2.21385E+01-1.80901E-01 5.76448E-03-1.05360E+00-1.33311E-14-1.44836E-13
 -1      2304 2.20863E+01-5.15253E-01-9.60084E-03-1.11977E+00-1.36962E-14-1.48045E-13
 -1      2305 2.19311E+01-7.83928E-02-3.48791E-03-1.07514E+00-3.16132E-15-1.45232E-13
 -1      2306 2.17368E+01 7.71654E-03 3.43350E-03-1.08470E+00-1.20009E-14-1.08573E-13
 -1      2307 2.16381E+01-1.74088E-01-6.68575E-03-1.24015E+00-4.07186E-14-2.47393E-13
 -1      2308 2.15808E+01 6.85337E-02 1.81210E-04-1.05140E+00 2.39985E-14-5.62439E-14
 -1      2309 2.13999E+01 1.14571E-01 1.84279E-03-1.01736E+00 3.98066E-14 3.28995E-14
 -1      2310 2.12956E+01 4.65721E-02-4.32901E-03-1.21719E+00 6.57460E-14-1.68107E-13
 -1      2311 2.12802E+01 1.44557E-01 2.35763E-03-9.55600E-01-7.13343E-14 8.78379E-14
 -1      2312 2.11182E+01 1.63203E-01 9.07446E-04-8.99564E-01-1.04747E-13-3.08596E-14
 -1      2313 2.10299E+01 1.67786E-01-2.82990E-03-1.11259E+00-7.38930E-15-4.74514E-14
 -1      2314 2.10241E+01 1.73216E-01 3.43948E-03-8.26748E-01-1.08074E-13-6.39096E-14
 -1      2315 2.08833E+01 1.75197E-01 4.16843E-04-7.63126E-01-2.30183E-14-1.30617E-13
 -1      2316 2.08190E+01 2.19835E-01-1.99150E-03-9.69416E-01-1.56703E-13 1.26247E-13
 -1      2317 2.08078E+01 1.73591E-01 3.79056E-03-6.89853E-01 4.63567E-14-2.79728E-13
 -1      2318 2.06886E+01 1.66543E-01 1.88003E-04-6.27297E-01-8.13288E-14-1.93609E-13
 -1      2319 2.06482E+01 2.29054E-01-1.55242E-03-8.15360E-01-1.19604E-13 1.60200E-14
 -1      2320 2.06275E+01 1.58966E-01 3.69547E-03-5.59451E-01-5.13376E-14-2.13667E-13
 -1      2321 2.05290E+01 1.47803E-01 9.67416E-05-5.02570E-01 6.53410E-14-2.26991E-14
 -1      2322 2.05084E+01 2.14535E-01-1.31598E-03-6.66867E-01-2.01463E-14-3.91126E-14
 -1      2323 2.04794E+01 1.37765E-01 3.35700E-03-4.42955E-01 5.42260E-14-6.96928E-14
 -1      2324 2.03997E+01 1.25413E-01 6.96584E-05-3.93759E-01 7.36426E-14-9.09583E-14
 -1      2325 2.03941E+01 1.88753E-01-1.16506E-03-5.32700E-01 4.75731E-14 7.47366E-14
 -1      2326 2.03598E+01 1.14943E-01 2.90969E-03-3.43277E-01 4.51295E-14-1.61690E-13
 -1      2327 2.02965E+01 1.03013E-01 6.75775E-05-3.02213E-01-4.75499E-15-2.12138E-13
 -1      2328 2.03010E+01 1.59256E-01-1.04150E-03-4.16652E-01 1.07414E-14-5.46072E-14
 -1      2329 2.02648E+01 9.31895E-02 2.43692E-03-2.60662E-01 9.67062E-14-1.84591E-13
 -1      2330 2.02155E+01 8.24738E-02 7.17704E-05-2.27316E-01 1.49118E-13-5.92046E-14
 -1      2331 2.02262E+01 1.30278E-01-9.22263E-04-3.19468E-01 5.47161E-14-1.08642E-13
 -1      2332 2.01905E+01 7.37981E-02 1.98652E-03-1.93908E-01 9.91191E-14-4.02179E-14
 -1      2333 2.01529E+01 6.46045E-02 7.45958E-05-1.67443E-01 8.84300E-14 1.11147E-13
 -1      2334 2.01668E+01 1.03965E-01-8.02175E-04-2.40155E-01 1.39851E-13-3.33709E-14
 -1      2335 2.01336E+01 5.72432E-02 1.58287E-03-1.41129E-01 7.81775E-14 1.25285E-13
 -1      2336 2.01054E+01 4.96084E-02 7.38890E-05-1.20548E-01 4.10801E-14 2.27723E-13
 -1      2337 2.01204E+01 8.12111E-02-6.83483E-04-1.76833E-01 1.03737E-13 9.20500E-14
 -1      2338 2.00907E+01 4.35435E-02 1.23574E-03-1.00215E-01-6.37455E-14 2.67698E-13
 -1      2339 2.00700E+01 3.73625E-02 6.98649E-05-8.45172E-02-4.96405E-14 2.82332E-13
 -1      2340 2.00847E+01 6.21963E-02-5.70386E-04-1.27270E-01-3.61717E-16 5.71841E-14
 -1      2341 2.00590E+01 3.24826E-02 9.46227E-04-6.90975E-02-8.73718E-14 2.30786E-13
 -1      2342 2.00442E+01 2.75852E-02 6.35400E-05-5.73519E-02-1.27893E-13 2.26261E-13
 -1      2343 2.00578E+01 4.67197E-02-4.66582E-04-8.91994E-02-1.19585E-13 1.07015E-13
 -1      2344 2.00362E+01 2.37387E-02 7.10634E-04-4.58804E-02-1.22447E-13 1.16610E-13
 -1      2345 2.00258E+01 1.99336E-02 5.60064E-05-3.72681E-02-4.86447E-14 5.23852E-14
 -1      2346 2.00379E+01 3.43976E-02-3.74455E-04-6.04995E-02-1.56281E-13 6.73868E-14
 -1      2347 2.00201E+01 1.69591E-02 5.22931E-04-2.89075E-02-3.87892E-15 1.01012E-13
 -1      2348 2.00131E+01 1.40580E-02 4.81486E-05-2.27315E-02 3.21937E-14 1.59316E-13
 -1      2349 2.00234E+01 2.47794E-02-2.95035E-04-3.92815E-02 2.26251E-14 1.18977E-13
 -1      2350 2.00092E+01 1.18005E-02 3.76236E-04-1.67765E-02 6.58452E-14 9.75171E-14
 -1      2351 2.00047E+01 9.63080E-03 4.05725E-05-1.24597E-02 8.67086E-14 6.07722E-14
 -1      2352 2.00133E+01 1.74123E-02-2.28275E-04-2.39234E-02 4.96374E-14 2.74240E-13
 -1      2353 2.00020E+01 7.95011E-03 2.63690E-04-8.33071E-03-7.21679E-14 6.20280E-14
 -1      2354 1.99994E+01 6.36011E-03 3.36226E-05-5.40593E-03-1.12839E-13-4.17004E-14
 -1      2355 2.00063E+01 1.18757E-02-1.73385E-04-1.30705E-02-2.62842E-15 1.33636E-13
 -1      2356 1.99977E+01 5.13416E-03 1.78939E-04-2.63684E-03 1.05851E-13-1.59474E-13
 -1      2357 1.99963E+01 3.99444E-03 2.74279E-05-7.33919E-04 1.33964E-13-1.24131E-13
 -1      2358 2.00018E+01 7.79648E-03-1.29134E-04-5.61737E-03-9.01571E-14-6.11167E-14
 -1      2359 1.99953E+01 3.11954E-03 1.16363E-04 1.04236E-03 8.78303E-14-1.79950E-13
 -1      2360 1.99947E+01 2.32193E-03 2.19471E-05 2.21070E-03 2.20283E-14-9.14025E-15
 -1      2361 1.99990E+01 4.85416E-03-9.40908E-05-6.81367E-04 6.97775E-14 2.96109E-14
 -1      2362 1.99943E+01 1.71153E-03 7.11622E-05 3.27706E-03-3.49858E-15 1.36340E-13
 -1      2363 1.99943E+01 1.16678E-03 1.70049E-05 3.92846E-03 1.38137E-13 2.47301E-13
 -1      2364 1.99974E+01 2.77925E-03-6.67915E-05 2.42771E-03 8.36675E-14 1.14267E-13
 -1      2365 1.99941E+01 7.49279E-04 3.93525E-05 4.49739E-03 7.88690E-14 1.85839E-13
 -1      2366 1.99945E+01 3.84031E-04 1.23273E-05 4.79168E-03 1.91173E-13 1.62079E-13
 -1      2367 1.99967E+01 1.34825E-03-4.58643E-05 4.23707E-03 5.11573E-14 2.05659E-13
 -1      2368 1.99946E+01 1.00142E-04 1.77267E-05 5.01738E-03 3.83558E-13 1.36983E-14
 -1      2369 1.99951E+01-1.46276E-04 7.60004E-06 5.06664E-03 4.49597E-13-1.13691E-13
 -1      2370 1.99966E+01 3.76721E-04-3.01074E-05 5.13812E-03 8.82279E-14 6.92859E-14
 -1      2371 1.99953E+01-3.46313E-04 3.79298E-06 5.05546E-03 3.95474E-13-2.15780E-13
 -1      2372 1.99960E+01-5.24948E-04 2.48043E-06 4.93234E-03 1.78904E-13-9.92591E-14
 -1      2373 1.99968E+01-2.88169E-04-1.85250E-05 5.41019E-03 2.82956E-13-2.91510E-13
 -1      2374 1.99962E+01-6.83376E-04-4.33647E-06 4.75091E-03-2.17395E-14-7.11691E-14
 -1      2375 1.99969E+01-8.35616E-04-2.30448E-06 4.49566E-03-5.24945E-14-1.26144E-13
 -1      2376 1.99973E+01-7.74571E-04-1.03129E-05 5.24082E-03 1.63764E-13-2.64175E-13
 -1      2377 1.99972E+01-9.91347E-04-9.28076E-06 4.18222E-03-9.31379E-14-9.31350E-14
 -1      2378 1.99978E+01-1.14398E-03-8.12644E-06 3.80926E-03-1.59347E-13-1.23652E-13
 -1      2379 1.99978E+01-1.18276E-03-4.22108E-06 4.74302E-03-6.40335E-14-1.88580E-13
 -1      2380 2.23329E+01-1.98755E-01-8.63807E-03-6.35728E-01 1.97019E-14 2.52884E-14
 -1      2381 2.22084E+01-7.89449E-02 8.96926E-03-6.88114E-01 2.92041E-14 4.54814E-14
 -1      2382 2.26243E+01-4.41501E-01-1.45854E-02-3.78924E-01 2.61631E-14 3.36503E-14
 -1      2383 2.25202E+01-3.15082E-01 6.22532E-03-5.36060E-01 3.34064E-15 2.82580E-14
 -1      2384 2.22563E+01-3.56675E-01-7.61394E-03-7.19354E-01 3.09486E-14 2.19811E-14
 -1      2385 2.28779E+01-6.53890E-01-1.75817E-02 1.01763E-01 9.46439E-14 4.39677E-14
 -1      2386 2.28400E+01-5.53211E-01 3.75407E-03-1.52494E-01 4.10019E-14 2.75242E-14
 -1      2387 2.26453E+01-6.86817E-01-5.23836E-03-3.93257E-01 4.41630E-14 2.57014E-14
 -1      2388 2.30065E+01-7.24650E-01-1.41125E-02 7.44238E-01 8.49988E-14 6.54073E-14
 -1      2389 2.30716E+01-7.14979E-01-5.69377E-04 4.38922E-01 8.87788E-14 8.70165E-14
 -1      2390 2.30500E+01-9.36326E-01 7.77420E-04 1.89527E-01 5.70728E-14 4.24865E-14
 -1      2391 2.29212E+01-5.09092E-01-2.47175E-03 1.36739E+00 3.38353E-14 1.57153E-13
 -1      2392 2.30999E+01-6.64012E-01-8.65167E-03 1.11486E+00 7.68227E-14 1.42028E-13
 -1      2393 2.33528E+01-9.36893E-01 9.07138E-03 9.42928E-01 3.32317E-14 1.31366E-13
 -1      2394 2.25910E+01 5.50289E-02 1.35140E-02 1.66213E+00 4.20120E-14 1.43940E-13
 -1      2395 2.28425E+01-2.72959E-01-1.81093E-02 1.60847E+00 4.88726E-14 1.48293E-13
 -1      2396 2.34038E+01-5.12356E-01 1.29689E-02 1.62283E+00 5.76797E-14 1.70805E-13
 -1      2397 2.21297E+01 7.88403E-01 2.12583E-02 1.32974E+00 4.76702E-15 6.21152E-14
 -1      2398 2.23600E+01 4.18735E-01-2.07409E-02 1.57916E+00 6.75371E-15 1.18247E-13
 -1      2399 2.31369E+01 3.36799E-01 3.51685E-03 1.83892E+00 5.44677E-14 1.23614E-13
 -1      2400 2.18130E+01 1.27762E+00 1.25030E-02 3.49965E-01 5.04770E-14 5.23803E-14
 -1      2401 2.19103E+01 1.09518E+00-8.43368E-03 8.52352E-01 2.12504E-14 2.56843E-14
 -1      2402 2.27145E+01 1.27799E+00-1.37778E-02 1.26684E+00 5.46499E-14 1.15407E-13
 -1      2403 2.19074E+01 1.16237E+00-6.82995E-03-8.55009E-01 4.34305E-14 9.32344E-14
 -1      2404 2.18087E+01 1.30422E+00 1.14560E-02-3.34466E-01 4.62200E-14 6.10692E-14
 -1      2405 2.24958E+01 1.75185E+00-2.03594E-02 1.00409E-02 2.26815E-14 1.13061E-13
 -1      2406 2.23796E+01 5.31938E-01-1.95222E-02-1.67841E+00 4.82184E-14 3.56616E-14
 -1      2407 2.21297E+01 8.90900E-01 2.20563E-02-1.38388E+00 5.49751E-14 7.32660E-14
 -1      2408 2.26984E+01 1.39197E+00-1.55441E-02-1.30056E+00 3.74110E-14 5.10854E-14
 -1      2409 2.29350E+01-1.80038E-01-1.65512E-02-1.80582E+00-1.60835E-14-1.33114E-14
 -1      2410 2.26423E+01 1.59376E-01 1.50979E-02-1.81790E+00 3.97000E-14 3.47101E-14
 -1      2411 2.31573E+01 4.94810E-01 7.46674E-03-1.99415E+00 5.34794E-14-3.05588E-14
 -1      2412 2.32808E+01-6.27710E-01-9.19869E-03-1.36849E+00 5.13235E-14-7.31032E-14
 -1      2413 2.30506E+01-4.47085E-01-2.07990E-03-1.59802E+00 8.99183E-15-2.95250E-15
 -1      2414 2.34902E+01-4.15395E-01 1.03668E-02-1.87237E+00 1.17784E-14-5.77450E-14
 -1      2415 2.33289E+01-7.32042E-01-8.45032E-04-6.89431E-01 4.12916E-14-4.15936E-14
 -1      2416 2.32156E+01-7.19311E-01-1.46351E-02-9.93054E-01 7.30492E-14-2.88550E-14
 -1      2417 2.35136E+01-9.13955E-01 8.77059E-03-1.22911E+00 5.39192E-14-6.40135E-15
 -1      2418 2.31374E+01-6.09064E-01 2.50496E-03-4.92042E-02-2.19542E-14 8.79657E-15
 -1      2419 2.31434E+01-6.92020E-01-1.84869E-02-3.20621E-01 2.42289E-14 3.29995E-14
 -1      2420 2.32539E+01-9.81238E-01 1.75210E-03-4.45465E-01-1.78000E-14 5.78116E-14
 -1      2421 2.28112E+01-4.02562E-01 3.02763E-03 4.17252E-01-7.96711E-14 5.57924E-14
 -1      2422 2.29090E+01-5.11496E-01-1.61756E-02 2.25727E-01-6.96396E-14 4.46227E-14
 -1      2423 2.28496E+01-7.80515E-01-3.36253E-03 2.13113E-01-8.29055E-14 1.21343E-13
 -1      2424 2.24326E+01-2.06906E-01 2.48730E-03 6.89416E-01-7.43871E-15 2.99322E-14
 -1      2425 2.25877E+01-3.01843E-01-1.11005E-02 5.81665E-01-1.67947E-14 6.99863E-14
 -1      2426 2.24152E+01-4.95909E-01-4.82118E-03 6.53821E-01-1.98958E-14 1.77320E-13
 -1      2427 2.20513E+01-6.04538E-02 1.79343E-03 8.02381E-01 1.59066E-13-6.42307E-14
 -1      2428 2.22336E+01-1.27896E-01-5.95130E-03 7.61602E-01 1.02847E-13-4.64208E-14
 -1      2429 2.20089E+01-2.39719E-01-4.36336E-03 8.86654E-01 8.55068E-14 1.33898E-13
 -1      2430 2.16934E+01 3.27610E-02 1.28372E-03 8.05691E-01 1.71854E-15 9.75321E-14
 -1      2431 2.18806E+01-8.17210E-03-1.89802E-03 8.10170E-01 8.37266E-14 1.51244E-14
 -1      2432 2.16505E+01-5.34154E-02-3.42753E-03 9.61347E-01 6.45511E-14 1.09133E-13
 -1      2433 2.13716E+01 8.30880E-02 9.87692E-04 7.43708E-01-1.26625E-13 6.40951E-14
 -1      2434 2.15490E+01 6.23992E-02 8.30980E-04 7.74458E-01-3.33085E-14 3.68596E-14
 -1      2435 2.13416E+01 6.23189E-02-2.62411E-03 9.32193E-01 2.11874E-14-2.10457E-14
 -1      2436 2.10909E+01 1.03777E-01 8.32353E-04 6.49455E-01-1.48971E-13-3.23399E-14
 -1      2437 2.12502E+01 9.65864E-02 2.41278E-03 6.92558E-01-2.02477E-13 3.36668E-14
 -1      2438 2.10783E+01 1.22799E-01-2.08377E-03 8.43919E-01-1.62970E-13-1.01540E-13
 -1      2439 2.08521E+01 1.06156E-01 7.45843E-04 5.44814E-01 2.26319E-14-1.51553E-13
 -1      2440 2.09895E+01 1.07038E-01 3.14516E-03 5.91204E-01-5.72567E-15-1.43069E-13
 -1      2441 2.08558E+01 1.45747E-01-1.75079E-03 7.28567E-01 1.23890E-14-1.81521E-13
 -1      2442 2.06536E+01 9.84296E-02 6.82996E-04 4.42914E-01-1.04400E-13-5.35308E-14
 -1      2443 2.07683E+01 1.03582E-01 3.31474E-03 4.87276E-01-8.21656E-14-1.17836E-13
 -1      2444 2.06697E+01 1.45851E-01-1.53505E-03 6.06928E-01-6.01814E-14-2.19289E-13
 -1      2445 2.04918E+01 8.59793E-02 6.22295E-04 3.50749E-01-1.29093E-13-5.04689E-15
 -1      2446 2.05851E+01 9.29657E-02 3.14821E-03 3.90358E-01-9.62029E-14-7.18233E-14
 -1      2447 2.05160E+01 1.33587E-01-1.37001E-03 4.91273E-01-9.29365E-14-1.33363E-13
 -1      2448 2.03625E+01 7.20802E-02 5.57025E-04 2.71338E-01-4.76134E-14 4.99171E-14
 -1      2449 2.04366E+01 7.94503E-02 2.80638E-03 3.05118E-01-1.28510E-13 3.63488E-14
 -1      2450 2.03909E+01 1.15764E-01-1.22020E-03 3.87978E-01-9.33100E-14-1.84457E-13
 -1      2451 2.02611E+01 5.85770E-02 4.87725E-04 2.05293E-01-4.32868E-15 1.42888E-13
 -1      2452 2.03188E+01 6.55360E-02 2.39463E-03 2.33142E-01 3.39609E-14 6.22098E-14
 -1      2453 2.02907E+01 9.64911E-02-1.07231E-03 2.99605E-01-6.20945E-14-1.53707E-13
 -1      2454 2.01831E+01 4.64036E-02 4.17544E-04 1.51877E-01 8.91788E-14-5.71743E-14
 -1      2455 2.02270E+01 5.25684E-02 1.97700E-03 1.74223E-01 8.40710E-14 8.87152E-14
 -1      2456 2.02117E+01 7.80546E-02-9.25086E-04 2.26408E-01 5.41413E-14-1.06454E-13
 -1      2457 2.01243E+01 3.59414E-02 3.49876E-04 1.09690E-01 2.87939E-13 3.69612E-15
 -1      2458 2.01570E+01 4.11751E-02 1.58907E-03 1.27207E-01 1.26370E-13 3.54348E-14
 -1      2459 2.01505E+01 6.15875E-02-7.82237E-04 1.67354E-01 1.36012E-13-2.24995E-13
 -1      2460 2.00808E+01 2.72536E-02 2.87370E-04 7.70783E-02-6.30151E-14 4.85295E-14
 -1      2461 2.01046E+01 3.15588E-02 1.24791E-03 9.05199E-02 1.90343E-13 9.89870E-14
 -1      2462 2.01039E+01 4.75256E-02-6.48361E-04 1.20783E-01 1.60037E-13 8.86331E-14
 -1      2463 2.00494E+01 2.02322E-02 2.31688E-04 5.23839E-02-9.48905E-14 1.30895E-13
 -1      2464 2.00662E+01 2.36841E-02 9.59186E-04 6.24858E-02-1.19892E-13 8.45395E-14
 -1      2465 2.00692E+01 3.59060E-02-5.27108E-04 8.48167E-02-9.91245E-14 3.59496E-13
 -1      2466 2.00272E+01 1.46871E-02 1.83581E-04 3.40708E-02 9.26468E-14 1.90126E-13
 -1      2467 2.00389E+01 1.73937E-02 7.21958E-04 4.15023E-02-2.92374E-14 1.94226E-13
 -1      2468 2.00438E+01 2.65537E-02-4.20619E-04 5.75982E-02-7.33853E-14 2.54684E-13
 -1      2469 2.00122E+01 1.03993E-02 1.43098E-04 2.07883E-02 6.12806E-14 5.02287E-13
 -1      2470 2.00199E+01 1.24778E-02 5.31758E-04 2.61305E-02 9.76872E-14 3.52597E-13
 -1      2471 2.00257E+01 1.91953E-02-3.29600E-04 3.74211E-02-8.37450E-15 2.70595E-13
 -1      2472 2.00024E+01 7.15104E-03 1.09808E-04 1.13908E-02-1.45965E-13 6.21906E-13
 -1      2473 2.00072E+01 8.71465E-03 3.82529E-04 1.51315E-02 7.96851E-15 6.09468E-13
 -1      2474 2.00131E+01 1.35257E-02-2.53644E-04 2.27903E-02-5.86861E-14 5.76875E-13
 -1      2475 1.99964E+01 4.74101E-03 8.29780E-05 4.93395E-03-2.44955E-14 4.61509E-13
 -1      2476 1.99991E+01 5.89250E-03 2.67795E-04 7.47173E-03-8.86933E-14 5.78783E-13
 -1      2477 2.00048E+01 9.24591E-03-1.91602E-04 1.24408E-02 1.81866E-15 6.14150E-13
 -1      2478 1.99931E+01 2.99197E-03 6.17134E-05 6.57567E-04-1.76536E-13 3.87396E-13
 -1      2479 1.99944E+01 3.82082E-03 1.81325E-04 2.31064E-03-1.51644E-14 4.20018E-13
 -1      2480 1.99995E+01 6.08244E-03-1.41901E-04 5.33082E-03 3.32737E-14 4.06553E-13
 -1      2481 1.99917E+01 1.75241E-03 4.50500E-05-2.03622E-03-7.29478E-14 3.66221E-13
 -1      2482 1.99921E+01 2.33444E-03 1.17479E-04-1.01962E-03-2.41439E-13 3.01095E-13
 -1      2483 1.99964E+01 3.79557E-03-1.02792E-04 6.23018E-04-1.13645E-13 2.51213E-13
 -1      2484 1.99915E+01 8.95422E-04 3.20023E-05-3.60671E-03-1.11449E-13 2.76711E-13
 -1      2485 1.99913E+01 1.29381E-03 7.13613E-05-3.03765E-03-8.68465E-15 2.59421E-13
 -1      2486 1.99949E+01 2.18121E-03-7.25244E-05-2.34042E-03 2.22975E-14 4.88818E-14
 -1      2487 1.99921E+01 3.15695E-04 2.15592E-05-4.39687E-03 9.41566E-14 4.41022E-13
 -1      2488 1.99915E+01 5.82725E-04 3.88474E-05-4.13606E-03-1.29572E-13 3.43318E-13
 -1      2489 1.99944E+01 1.06872E-03-4.94706E-05-4.06393E-03-1.66641E-13 2.07950E-13
 -1      2490 1.99932E+01-7.41690E-05 1.27216E-05-4.65276E-03 1.80041E-13 6.79703E-13
 -1      2491 1.99924E+01 1.04866E-04 1.65151E-05-4.60221E-03 2.26217E-13 6.03445E-13
 -1      2492 1.99946E+01 3.16438E-04-3.22263E-05-4.92312E-03-1.31288E-14 2.64322E-13
 -1      2493 1.99945E+01-3.46785E-04 5.25710E-06-4.53966E-03 2.35812E-13 6.05786E-13
 -1      2494 1.99936E+01-2.20106E-04 1.51774E-06-4.63629E-03 2.47491E-13 6.56052E-13
 -1      2495 1.99952E+01-1.92761E-04-1.94482E-05-5.18594E-03 1.59262E-13 6.82993E-13
 -1      2496 1.99958E+01-5.66981E-04-1.13549E-07-4.15634E-03 2.21116E-13 3.81455E-13
 -1      2497 1.99949E+01-4.64078E-04-8.97730E-06-4.36888E-03 1.73513E-13 5.75378E-13
 -1      2498 1.99960E+01-5.51096E-04-8.03335E-06-5.03662E-03 2.57600E-13 6.51961E-13
 -1      2499 1.99971E+01-7.89179E-04-6.46927E-06-3.54789E-03 7.57773E-14 4.43313E-13
 -1      2500 1.99962E+01-6.82174E-04-1.53840E-05-3.86511E-03 1.19032E-13 4.41973E-13
 -1      2501 1.99969E+01-8.63198E-04 1.71552E-06-4.58722E-03 1.48121E-13 6.19968E-13
 -1      2502 1.99982E+01-1.04022E-03-1.45460E-05-2.73660E-03 2.33687E-13 6.11685E-13
 -1      2503 1.99975E+01-9.07535E-04-1.54147E-05-3.14780E-03 1.64694E-13 4.99133E-13
 -1      2504 1.99978E+01-1.18059E-03 7.60204E-06-3.87709E-03 8.95510E-14 6.74065E-13
 -1      2505 1.99986E+01-1.15022E-03-1.16462E-05-2.19491E-03 2.74003E-13 5.94482E-13
 -1      2506 2.00008E+01-4.92958E-03 1.74713E-05-2.75122E-03-1.01583E-15-2.80548E-14
 -1      2507 2.00005E+01-4.48851E-03 2.82418E-07-3.05699E-03-7.49203E-14-5.53393E-13
 -1      2508 2.00011E+01-5.54039E-03 1.79730E-05-1.88767E-03 7.70116E-14 1.77567E-13
 -1      2509 2.00009E+01-5.22051E-03 8.17282E-06-2.31661E-03-5.79702E-14 3.11475E-13
 -1      2510 2.00012E+01-4.45559E-03-9.45247E-06-2.83216E-03 3.62954E-15 6.24540E-14
 -1      2511 1.99997E+01-3.13241E-03 1.20965E-05-3.52017E-03-3.04598E-13 8.53279E-14
 -1      2512 1.99994E+01-2.56282E-03-1.69527E-05-3.44223E-03-1.92108E-13 5.02572E-13
 -1      2513 2.00003E+01-4.09697E-03 1.52851E-05-3.32398E-03-3.12864E-13-5.70527E-13
 -1      2514 2.00000E+01-3.58728E-03-8.76554E-06-3.44843E-03-3.12671E-13-1.29586E-13
 -1      2515 1.99999E+01-3.00407E-03 1.51284E-06-3.92478E-03-2.38424E-13-1.32991E-13
 -1      2516 2.00006E+01-3.80251E-03-8.30872E-06-3.58122E-03-1.83391E-13-2.95958E-13
 -1      2517 2.00012E+01-5.88691E-03 1.76307E-05-8.46511E-04 8.01413E-14-3.32734E-13
 -1      2518 2.00012E+01-5.72000E-03 1.30377E-05-1.34817E-03 1.30741E-13-1.01436E-13
 -1      2519 2.00015E+01-4.90688E-03-1.10584E-05-1.80556E-03-1.16173E-13 3.86814E-14
 -1      2520 2.00013E+01-5.94609E-03 1.62257E-05 2.70447E-04-2.01847E-14-4.04467E-13
 -1      2521 2.00013E+01-5.94726E-03 1.61689E-05-2.55037E-04 3.07552E-15-3.51463E-13
 -1      2522 2.00017E+01-5.13794E-03-1.17086E-05-6.14301E-04-2.08765E-14-3.33883E-13
 -1      2523 2.00012E+01-5.71549E-03 1.32987E-05 1.36290E-03 3.24711E-14-2.39829E-13
 -1      2524 2.00012E+01-5.88482E-03 1.75779E-05 8.61774E-04 6.32109E-14-2.82459E-13
 -1      2525 2.00017E+01-5.13697E-03-1.15976E-05 6.31100E-04 2.31735E-13-2.82750E-13
 -1      2526 2.00009E+01-5.22368E-03 8.20498E-06 2.31493E-03 8.46339E-14-2.86771E-13
 -1      2527 2.00011E+01-5.53899E-03 1.78141E-05 1.89338E-03 8.57979E-14-3.43418E-13
 -1      2528 2.00015E+01-4.90692E-03-1.10398E-05 1.81227E-03 1.46556E-13-2.39492E-13
 -1      2529 2.00005E+01-4.49279E-03-1.98391E-07 3.05722E-03 4.70741E-14 3.19695E-15
 -1      2530 2.00008E+01-4.93343E-03 1.73273E-05 2.75054E-03 7.07876E-14-2.32981E-13
 -1      2531 2.00012E+01-4.45970E-03-9.77635E-06 2.83037E-03 2.18326E-13-3.77239E-13
 -1      2532 2.00000E+01-3.57938E-03-9.39902E-06 3.45130E-03-5.71806E-14-7.44321E-15
 -1      2533 2.00003E+01-4.09661E-03 1.52038E-05 3.32705E-03-7.62047E-14 2.64883E-14
 -1      2534 2.00006E+01-3.80679E-03-1.02076E-05 3.58428E-03 7.10143E-14-2.23605E-13
 -1      2535 1.99993E+01-2.54880E-03-1.48007E-05 3.42315E-03-3.58876E-13-3.44668E-13
 -1      2536 1.99997E+01-3.11511E-03 1.13126E-05 3.52153E-03-2.48614E-13-1.02302E-13
 -1      2537 1.99999E+01-2.98992E-03 3.98769E-06 3.92182E-03-7.09621E-14-2.61713E-13
 -1      2538 4.66009E+00-2.60821E+00 9.42607E-02 3.09834E+00-1.23374E-14 3.23741E-13
 -1      2539 3.28314E+00-2.78841E+00 7.65963E-02 8.01957E-01 1.27329E-15 5.71598E-13
 -1      2540 1.94020E+01-5.44970E+00 1.03356E-02 6.44426E+00-4.13558E-14-9.21832E-14
 -1      2541 1.57290E+01-5.37073E+00 4.97088E-02 6.63457E+00-1.17378E-13-4.13003E-14
 -1      2542 2.22348E+01-5.43262E+00 7.66564E-02 5.10142E+00-1.11577E-13-1.20730E-13
 -1      2543 2.20750E+01 2.73963E-02-2.18354E-03-6.69759E-01 3.24758E-14 4.88489E-14
 -1      2544 2.19780E+01 1.38455E-01 1.36005E-02-6.22053E-01 5.03002E-14 8.11573E-14
 -1      2545 2.19502E+01-3.34735E-02-8.00105E-03-7.86866E-01 5.24739E-14 4.69893E-14
 -1      2546 1.99989E+01-1.75318E-03-8.52913E-06 2.67048E-03-3.21817E-13-8.40844E-14
 -1      2547 3.24138E+00-2.86117E+00 7.69313E-02-1.08817E+00 2.73670E-14 6.46649E-13
 -1      2548 4.41152E+00-3.02991E+00 6.87586E-02-3.33564E+00-2.33702E-14 5.56666E-13
 -1      2549 5.28666E+00-1.49894E+00 1.83921E-01-1.33938E-01 1.75814E-14 6.46705E-13
 -1      2550 1.14720E+01-4.48252E+00 5.95712E-02 6.76464E+00-6.95555E-14-5.90361E-14
 -1      2551 7.96863E+00-3.53294E+00 1.26092E-01 5.41197E+00-6.60028E-14 3.32234E-14
 -1      2552 3.17512E+01 2.74257E+00-1.62097E-01-8.81484E-01 1.49436E-13-8.06299E-14
 -1      2553 3.13108E+01 1.00161E+00-8.56775E-02-2.16704E-01 8.86652E-14-9.52571E-14
 -1      2554 2.99277E+01-5.46216E-01 8.64109E-03-5.57387E-01 4.38469E-14-1.03195E-13
 -1      2555 6.98968E+00-4.04615E+00 6.14118E-02-5.24558E+00-4.87110E-14 5.06484E-13
 -1      2556 1.01234E+01-4.71041E+00 1.11698E-02-6.55884E+00-1.24067E-13 5.89584E-13
 -1      2557 2.18552E+01-5.35718E+00-1.07895E-02 5.92097E+00 5.05151E-15 3.15650E-14
 -1      2558 1.78309E+01-5.48670E+00 6.49209E-02 6.43964E+00 3.06699E-14 1.81608E-14
 -1      2559 7.35014E+00-3.29815E+00 7.30444E-02 5.35904E+00 8.37663E-14-2.55684E-13
 -1      2560 4.94201E+00-2.89109E+00 1.27256E-01 3.31366E+00 7.53425E-14-3.50109E-13
 -1      2561 3.13584E+01 3.59569E+00-1.10188E-01 1.03953E+00 2.24959E-13 1.11133E-13
 -1      2562 3.25137E+01 5.73527E+00-8.62680E-02 8.96217E-01 3.29958E-13 1.14214E-13
 -1      2563 1.77970E+01 4.24410E+00-8.22496E-03-3.53840E-02 3.46380E-14-1.52712E-13
 -1      2564 1.79196E+01 4.20848E+00-4.35553E-03-7.50278E-02 1.29301E-14-1.47528E-13
 -1      2565 1.80620E+01 3.89293E+00 3.21897E-03-6.94168E-03 1.45490E-14-1.31408E-13
 -1      2566 1.78057E+01 4.01529E+00 3.83099E-03-2.35848E-02 3.98957E-14-1.41569E-13
 -1      2567 3.26960E+01 7.13543E+00-9.62865E-02 4.94101E-01 3.05700E-13 3.28765E-14
 -1      2568 3.26513E+01 7.49201E+00-1.40259E-01-9.72729E-03 3.17524E-13 3.18322E-15
 -1      2569 1.75145E+01-5.53121E+00 3.05724E-02-6.55394E+00-3.23075E-14-3.09749E-13
 -1      2570 2.14864E+01-5.28292E+00-8.03054E-02-6.09648E+00 5.88418E-15-2.65885E-13
 -1      2571 3.01315E+01-1.00338E+00-3.32694E-02-5.05125E-01 1.00520E-13-1.75970E-14
 -1      2572 3.07211E+01 6.56714E-01-1.95777E-01 4.49476E-01 1.48076E-13-1.11022E-16
 -1      2573 2.53281E+01-4.50716E+00 2.62565E-02-4.04797E+00 2.38698E-15-1.16213E-13
 -1      2574 2.84079E+01-3.05713E+00-1.22345E-01-2.41816E+00 4.42424E-14-2.99760E-14
 -1      2575 9.77205E+00-4.67681E+00 5.78721E-02-6.34418E+00-6.53921E-14-3.01675E-13
 -1      2576 1.33596E+01-5.13718E+00-2.41183E-02-7.14063E+00-1.12688E-14-3.43503E-13
 -1      2577 3.87728E+00-3.57349E+00 3.39296E-02-3.13001E+00-6.60860E-14-2.87326E-13
 -1      2578 6.08321E+00-3.78573E+00 8.73838E-03-5.14291E+00-4.28269E-14-2.68729E-13
 -1      2579 2.86196E+00-2.91007E+00 2.83072E-02 9.95897E-01 1.00614E-14-3.43836E-13
 -1      2580 2.82980E+00-3.22583E+00 3.90416E-02-1.31357E+00-2.21351E-14-2.86104E-13
 -1      2581 5.11889E+00-2.08809E+00 1.46136E-01-2.34311E+00-1.84713E-14-2.81386E-13
 -1      2582 1.38840E+01-4.93024E+00 2.11055E-02 7.03548E+00 4.45199E-14-2.51466E-14
 -1      2583 1.07550E+01-4.37542E+00 9.35411E-02 6.37273E+00 9.73110E-14-1.46161E-13
 -1      2584 3.21825E+01 1.89141E+00-5.13903E-02 3.18580E-02-3.87121E-13 2.14273E-14
 -1      2585 3.32337E+01 3.81519E+00-1.22857E-01 6.51022E-01-4.39787E-13-3.76088E-14
 -1      2586 3.14895E+01 9.78409E-01-1.72121E-01-2.57825E-01-1.93914E-13 1.68976E-13
 -1      2587 3.04694E+01-7.85960E-01-2.47202E-02 5.12386E-01-1.41817E-13 1.30562E-13
 -1      2588 3.20261E+01 5.57070E+00-1.65598E-01-1.12917E+00-2.46969E-13 1.20223E-13
 -1      2589 3.17136E+01 3.56001E+00-9.88106E-02-1.13130E+00-1.99396E-13 1.38112E-13
 -1      2590 3.22961E+01 7.37719E+00-1.43453E-01 1.02291E-01-4.10227E-13 8.28088E-14
 -1      2591 3.20008E+01 7.07520E+00-1.59205E-01-5.45158E-01-3.28793E-13 1.03292E-13
 -1      2592 3.26889E+01 5.56899E+00-6.91348E-02 1.11917E+00-4.50695E-13 7.82707E-15
 -1      2593 3.20859E+01 6.72973E+00-1.98107E-01 9.26732E-01-4.59410E-13-1.87489E-14
 -1      2594 2.88316E+01-2.37946E+00-2.42966E-02-1.89953E+00-2.56697E-13 5.78981E-14
 -1      2595 3.12276E+01-3.35768E-01-2.46339E-02-1.05060E+00-3.26085E-13 6.99441E-15
 -1      2596 2.21380E+01-5.33427E+00 1.33271E-02-5.19655E+00-1.80106E-13 3.07004E-13
 -1      2597 2.58815E+01-4.42154E+00-8.39423E-02-3.88840E+00-2.42195E-13 2.25542E-13
 -1      2598 1.38648E+01-5.46655E+00 2.68724E-02-6.63263E+00-7.95475E-14 6.19747E-13
 -1      2599 1.79003E+01-5.51895E+00-5.08456E-02-6.70199E+00-1.86073E-13 5.00679E-13
 -1      2600 2.16202E+01 2.00527E+00-9.01256E-03-1.01952E+00-1.32179E-13 9.38312E-15
 -1      2601 2.16761E+01 1.27362E+00-4.88305E-03-3.77731E-01-1.13347E-13 1.68944E-14
 -1      2602 2.13752E+01 1.47020E+00-9.03640E-04-2.14854E-01-1.02461E-13-1.94480E-14
 -1      2603 2.10765E+01 2.47582E+00-6.46951E-03-9.07611E-01-1.27291E-13-3.25087E-14
 -1      2604 2.20179E+01 8.74973E-01-3.39270E-03 5.01888E-01 1.54968E-13 1.57783E-13
 -1      2605 2.22204E+01 1.24336E+00-4.73723E-03 1.01334E+00 1.62474E-13 1.82914E-13
 -1      2606 2.18917E+01 1.70729E+00-1.65488E-02 1.14208E+00 1.75127E-13 1.28196E-13
 -1      2607 2.17770E+01 1.06954E+00-1.10805E-02 3.92147E-01 1.48982E-13 9.56825E-14
 -1      2608 2.92897E+01 6.85132E+00-1.05741E-01-2.05888E-01 2.38837E-13 7.37136E-14
 -1      2609 3.15515E+01 7.04545E+00-9.48037E-02-5.34538E-01 3.04423E-13-5.79883E-14
 -1      2610 2.95777E+01 6.25359E+00-1.87273E-01-1.06119E+00 3.07587E-13-7.72091E-14
 -1      2611 1.93052E+01 3.24957E+00 2.80698E-03-1.72697E-01-5.40952E-14-1.27350E-13
 -1      2612 1.93790E+01 3.48844E+00-1.85346E-02-3.89189E-01-7.43117E-14-1.41115E-13
 -1      2613 1.98036E+01 3.31829E+00-1.04298E-02-5.42125E-01-9.38112E-14-1.24461E-13
 -1      2614 2.17613E+01 2.76697E-01-7.24579E-03-6.14159E-01 8.70254E-14 4.72304E-14
 -1      2615 2.14248E+01 2.14094E+00-1.32506E-02 1.03822E+00 1.76176E-13 5.93778E-14
 -1      2616 2.11800E+01-5.45880E+00 9.48337E-02-5.50702E+00-1.08552E-13 3.17149E-13
 -1      2617 2.75348E+01-3.83377E+00-1.52936E-02-2.30665E+00-1.41998E-13-4.46310E-14
 -1      2618 2.82091E+01-3.21826E+00-1.18888E-01-6.03096E-01-8.88898E-14-3.31457E-13
 -1      2619 2.60965E+01-4.68284E+00 6.04722E-02-2.69990E+00-5.30548E-14-1.94775E-13
 -1      2620 3.08710E+01 4.21278E+00-3.58075E-02 1.68090E+00-3.43475E-13-1.31256E-13
 -1      2621 2.72609E+01-3.94083E+00 3.12177E-02 2.12601E+00 3.46945E-15-2.06335E-13
 -1      2622 2.13223E+01 1.86989E+00 1.15010E-02 6.58611E-01 1.58955E-13 4.33256E-14
 -1      2623 3.00029E+01 6.49693E+00-1.00084E-01 7.23024E-01-3.82416E-13 6.43444E-14
 -1      2624 7.40947E+00-2.60518E+00 1.52567E-01-4.28211E+00 2.18020E-14 5.64049E-13
 -1      2625 3.00419E+01 5.68041E+00-9.38950E-02-1.20277E+00-2.68091E-13 1.77997E-13
 -1      2626 1.99986E+01-1.49955E-03-7.73898E-06-2.88932E-03 1.27692E-13 8.93664E-13
 -1      2627 1.99989E+01-1.92385E-03 2.70760E-06-3.17500E-03 3.08982E-14 1.01972E-12
 -1      2628 3.03069E+01 1.91084E+00-6.62876E-02-1.52567E+00-1.91402E-13 1.29952E-13
 -1      2629 1.05564E+01-2.20805E+00 1.12105E-01 5.07187E+00-1.34934E-13 2.07889E-14
 -1      2630 7.50214E+00-2.46545E+00 1.44224E-01 4.39243E+00-8.36553E-14 1.54599E-13
 -1      2631 7.53345E+00-1.18483E+00 1.45505E-01 3.14290E+00-1.36023E-13 2.57738E-13
 -1      2632 1.53220E+01-4.58530E+00 9.19017E-02 6.42371E+00-2.12413E-13-1.27620E-13
 -1      2633 3.07656E+01 2.66307E-01-3.10016E-02 7.13183E-01-2.15356E-13-2.12108E-13
 -1      2634 5.69198E+00-1.69660E+00 1.68674E-01 2.12809E+00 4.57273E-14-3.04590E-13
 -1      2635 3.14451E+01 3.79018E+00-6.79329E-02-1.40378E+00 2.96596E-13-1.48909E-13
 -1      2636 2.97352E+01 2.12014E+00-5.97926E-02-1.82726E+00 1.58040E-13-1.45356E-13
 -1      2637 2.98702E+01 4.53065E+00-2.24383E-01-1.91405E+00 3.39506E-13-2.05988E-13
 -1      2638 1.06206E+01-3.06274E+00 1.40065E-01 5.69205E+00 1.25622E-13-1.83076E-13
 -1      2639 2.05909E+01 2.76482E+00-1.42212E-02-7.32004E-01-1.12203E-13-6.83256E-14
 -1      2640 1.75774E+01-4.89189E+00 1.21437E-01 6.36670E+00 8.80684E-14 1.78191E-14
 -1      2641 9.47739E+00-3.49148E+00 1.26833E-01-5.77712E+00-7.92422E-14-3.13194E-13
 -1      2642 2.41903E+01-5.12168E+00 6.47565E-02-4.44885E+00-5.99520E-14-1.01030E-13
 -1      2643 2.86642E+01-2.71158E+00 1.95876E-02-8.40740E-01 2.63192E-14 5.77316E-15
 -1      2644 3.03985E+01 1.93755E+00-7.58006E-02 1.36090E+00 1.85296E-13 1.19488E-13
 -1      2645 2.88786E+01 2.88412E+00-2.22873E-01 2.05374E+00 2.68202E-13 2.24681E-13
 -1      2646 2.90526E+01 4.54812E-01-3.65159E-02 1.45670E+00 1.65049E-13 1.72126E-13
 -1      2647 2.43410E+01-5.24787E+00-2.64021E-03 4.26394E+00 2.13718E-14 1.02487E-13
 -1      2648 3.03262E+01 5.93980E+00-1.04344E-01 1.16907E+00 2.96485E-13 1.78996E-13
 -1      2649 1.36760E+01-4.60689E+00 1.23960E-01-6.49342E+00-7.36633E-14 5.71501E-13
 -1      2650 1.69360E+01-5.10287E+00 1.06210E-01-6.64298E+00-6.86673E-14-2.92155E-13
 -1      2651 2.92583E+01-2.33308E+00 6.92357E-03 9.70288E-01-7.08600E-14 1.27065E-13
 -1      2652 1.99984E+01-1.37232E-03-1.73830E-05 3.08517E-03-2.37490E-13-1.18041E-13
 -1      2653 1.99990E+01-2.08303E-03 5.43446E-06 3.37822E-03-2.85814E-13-2.97564E-13
 -1      2654 1.99990E+01-2.09555E-03-2.56991E-06 3.90520E-03-3.22579E-13-1.41254E-13
 -1      2655 1.99980E+01-1.25610E-03-1.63486E-05 3.52232E-03-1.54299E-13-9.33594E-14
 -1      2656 1.99988E+01-1.95775E-03-7.60198E-06-3.75738E-03-1.72294E-13 5.75498E-13
 -1      2657 1.99983E+01-1.52583E-03 1.19057E-06 4.11219E-03-2.42301E-13-2.80368E-13
 -1      2658 1.82306E+01 3.49318E+00-4.99423E-04-1.59562E-01 8.10872E-14-1.45211E-13
 -1      2659 1.79923E+01 3.59599E+00-9.00087E-03-1.71586E-01 6.92449E-14-1.49547E-13
 -1      2660 1.78210E+01 3.70976E+00-2.44256E-03-1.11782E-01 5.67729E-14-1.58212E-13
 -1      2661 1.77220E+01 3.75252E+00-6.58248E-03-9.40092E-02 5.32622E-14-1.55215E-13
 -1      2662 1.79062E+01 3.40041E+00 7.24262E-03-2.25051E-01 5.83550E-14-1.44694E-13
 -1      2663 1.96713E+01 2.67261E+00-3.89109E-03 1.58066E-02 1.25585E-13-1.01345E-13
 -1      2664 1.92565E+01 2.89423E+00-9.90438E-03-7.63004E-02 1.19683E-13-1.09191E-13
 -1      2665 2.05501E+01 2.09232E+00-5.08285E-03 1.90300E-01 1.37940E-13-4.87026E-14
 -1      2666 2.01030E+01 2.38893E+00-7.59248E-03 9.13747E-02 1.34721E-13-7.45259E-14
 -1      2667 1.99719E+01 2.18041E+00 2.87168E-03-1.87509E-01 1.12365E-13-7.85065E-14
 -1      2668 2.14512E+01 7.58838E-01-2.12056E-03-3.60251E-01 1.25721E-13 2.81870E-14
 -1      2669 2.14717E+01 1.00849E+00 1.16632E-02-7.52160E-02 1.24253E-13 4.15426E-14
 -1      2670 2.82449E+01 5.62646E+00-1.58816E-01 1.34382E+00-3.64819E-13-9.76996E-15
 -1      2671 2.82209E+01 6.22218E+00-1.71568E-01 1.71806E-01-3.27349E-13 8.14657E-14
 -1      2672 2.12571E+01 1.57340E+00-1.83762E-03 3.25956E-01 1.45189E-13 2.76415E-14
 -1      2673 2.12301E+01 6.93394E-01 1.17133E-02 8.38371E-01-5.10356E-14 1.00727E-14
 -1      2674 2.12952E+01 4.48421E-01-1.84127E-03 1.02298E+00-3.31840E-14 2.36711E-14
 -1      2675 2.14210E+01 2.08343E-01 1.36076E-02 1.18912E+00-1.24861E-14 3.99321E-14
 -1      2676 2.15600E+01-6.13164E-02-2.71845E-03 1.26102E+00-3.98715E-16 5.78223E-14
 -1      2677 2.09658E+01 4.35993E-01-1.03333E-02 1.20347E+00-2.45975E-14 9.90289E-15
 -1      2678 2.17948E+01-3.41156E-01 1.73764E-02 1.32427E+00 1.12655E-14 3.09952E-14
 -1      2679 2.20148E+01-6.63772E-01-6.27283E-03 1.26627E+00 1.84278E-14 5.35851E-14
 -1      2680 2.12688E+01-2.03585E-01-1.64388E-02 1.47281E+00-8.66657E-15 2.56367E-14
 -1      2681 2.24073E+01-9.88377E-01 2.26283E-02 1.18687E+00 2.40969E-14 7.06349E-14
 -1      2682 2.26983E+01-1.34107E+00-1.26225E-02 9.72268E-01 6.76455E-15 7.58911E-14
 -1      2683 2.18240E+01-9.62994E-01-2.34929E-02 1.51181E+00 1.75089E-14 2.80882E-14
 -1      2684 2.32702E+01-1.64941E+00 2.59554E-02 6.91344E-01-1.62299E-14 6.62855E-14
 -1      2685 2.35884E+01-1.91741E+00-1.93776E-02 3.05923E-01-2.66037E-14 5.97098E-14
 -1      2686 2.27101E+01-1.79027E+00-2.83047E-02 1.22135E+00-9.72345E-15 5.95134E-14
 -1      2687 2.42733E+01-2.04409E+00 1.72005E-02-2.19981E-01-4.40533E-15 9.28025E-14
 -1      2688 2.45312E+01-1.98128E+00-1.95985E-02-7.24826E-01-1.05948E-15 1.10593E-13
 -1      2689 2.39169E+01-2.41560E+00-2.57002E-02 4.76057E-01 1.40495E-14 6.58976E-14
 -1      2690 2.50993E+01-1.65477E+00-2.13261E-02-1.40123E+00-1.67817E-14 1.31398E-13
 -1      2691 2.51783E+01-9.91674E-01-2.00078E-02-1.81946E+00-9.67976E-14 1.82669E-13
 -1      2692 2.52319E+01-2.23712E+00-5.83578E-03-7.48916E-01 6.19123E-15 1.37621E-13
 -1      2693 2.53552E+01-2.55908E-02-7.42393E-02-2.26179E+00-1.27636E-13 1.84627E-13
 -1      2694 2.52337E+01 1.16647E+00-1.40614E-02-2.23048E+00-1.21660E-13 1.90225E-13
 -1      2695 2.61195E+01-7.28578E-01-2.30456E-02-1.96543E+00-8.73954E-14 2.25077E-13
 -1      2696 2.50235E+01 2.37115E+00-1.04052E-01-1.87351E+00-1.89196E-13 1.72809E-13
 -1      2697 2.48169E+01 3.33540E+00-5.56127E-02-1.20937E+00-1.89078E-13 1.41416E-13
 -1      2698 2.62359E+01 2.10754E+00-6.30507E-02-2.23915E+00-1.87184E-13 1.74909E-13
 -1      2699 2.51753E+01 4.09622E+00-9.19853E-02 6.49376E-02-2.23835E-13 7.06895E-14
 -1      2700 2.52307E+01 3.84496E+00-9.67969E-02 1.02344E+00-1.95538E-13 1.71295E-14
 -1      2701 2.52954E+01 5.14630E-01-1.72429E-02 2.43435E+00-1.92055E-13 6.50426E-14
 -1      2702 2.53780E+01-5.78311E-01-6.08386E-02 2.31897E+00-1.03650E-13 2.81684E-14
 -1      2703 2.50888E+01-1.38964E+00-1.46810E-02 1.75214E+00-8.40330E-14 2.46470E-14
 -1      2704 2.49509E+01-1.88516E+00-6.69639E-03 1.27233E+00-7.84529E-14 1.96744E-14
 -1      2705 2.59424E+01-1.28981E+00-1.25736E-02 1.91553E+00-1.51025E-13 7.48776E-14
 -1      2706 2.43133E+01-2.07250E+00-2.13719E-02 6.02347E-01-6.16295E-14-2.84310E-14
 -1      2707 2.40296E+01-2.03216E+00 1.95084E-02 1.03083E-01-2.24677E-14-3.65393E-14
 -1      2708 2.48717E+01-2.43901E+00-1.26198E-02 5.62175E-01-8.27344E-14 3.72341E-14
 -1      2709 2.33481E+01-1.85034E+00-1.86667E-02-3.80515E-01 1.25824E-14-7.30960E-14
 -1      2710 2.30197E+01-1.56285E+00 2.33453E-02-7.45980E-01 1.28248E-14-1.09251E-13
 -1      2711 2.35362E+01-2.35796E+00-2.50999E-02-5.80293E-01-3.24356E-14-8.06072E-14
 -1      2712 2.24780E+01-1.26618E+00-1.05404E-02-1.00180E+00 3.26640E-14-1.42964E-13
 -1      2713 2.21786E+01-9.52041E-01 1.78257E-02-1.21506E+00 3.38234E-14-1.35058E-13
 -1      2714 2.23701E+01-1.69351E+00-2.58135E-02-1.25375E+00 2.77241E-15-1.98470E-13
 -1      2715 2.18081E+01-6.79918E-01-4.36662E-03-1.30933E+00-2.16426E-14-1.03477E-13
 -1      2716 2.15641E+01-4.29957E-01 1.11808E-02-1.40028E+00-5.60018E-14-1.60831E-13
 -1      2717 2.15317E+01-9.62878E-01-1.98828E-02-1.54364E+00-2.28003E-14-1.81083E-13
 -1      2718 2.13330E+01-2.31268E-01-5.33414E-04-1.39626E+00-4.23872E-14-9.67322E-14
 -1      2719 2.11428E+01-6.49707E-02 6.02880E-03-1.40416E+00-7.26307E-15-1.23788E-13
 -1      2720 2.09887E+01-3.79418E-01-1.25953E-02-1.59287E+00-2.33347E-14-4.55784E-14
 -1      2721 2.10060E+01 5.92764E-02 1.48861E-03-1.34742E+00 7.30051E-14-7.29728E-14
 -1      2722 2.08577E+01 1.54498E-01 2.60017E-03-1.30534E+00 8.70400E-14-6.47557E-14
 -1      2723 2.06584E+01 1.03626E-02-7.10645E-03-1.50777E+00 4.69271E-14-3.56193E-14
 -1      2724 2.07781E+01 2.20933E-01 2.47069E-03-1.22378E+00 7.31269E-14-3.60731E-14
 -1      2725 2.06601E+01 2.65460E-01 5.84630E-04-1.15564E+00 1.16048E-14 6.79297E-14
 -1      2726 2.04621E+01 2.35726E-01-3.68708E-03-1.35596E+00 1.06379E-13-5.61509E-14
 -1      2727 2.06129E+01 2.92681E-01 2.90103E-03-1.06576E+00-8.42565E-14 7.82824E-14
 -1      2728 2.05169E+01 3.04809E-01-4.74745E-04-9.87576E-01-1.46621E-13 7.58217E-14
 -1      2729 2.03435E+01 3.43365E-01-1.78985E-03-1.17689E+00-4.04215E-14 6.31498E-14
 -1      2730 2.04873E+01 3.07983E-01 3.00570E-03-8.99018E-01-2.13815E-13 1.91617E-13
 -1      2731 2.04080E+01 3.01353E-01-9.43783E-04-8.20786E-01-1.73902E-13 8.59884E-14
 -1      2732 2.02677E+01 3.75172E-01-8.47368E-04-9.93685E-01-1.06558E-13 1.13513E-13
 -1      2733 2.03876E+01 2.91237E-01 2.90559E-03-7.38947E-01-6.33847E-14 2.02505E-13
 -1      2734 2.03219E+01 2.75038E-01-1.07579E-03-6.66395E-01 4.84877E-14 1.89136E-13
 -1      2735 2.02150E+01 3.62526E-01-4.37953E-04-8.19803E-01-7.62080E-14 3.19964E-13
 -1      2736 2.03066E+01 2.58638E-01 2.67810E-03-5.93964E-01 2.99918E-14 1.69462E-13
 -1      2737 2.02524E+01 2.38629E-01-1.03145E-03-5.29933E-01-4.20588E-14 1.02008E-13
 -1      2738 2.01748E+01 3.26747E-01-2.94206E-04-6.62602E-01 3.32419E-14 3.74401E-13
 -1      2739 2.02401E+01 2.20206E-01 2.37970E-03-4.67875E-01-2.46945E-14 7.80646E-14
 -1      2740 2.01958E+01 1.99763E-01-9.06946E-04-4.13354E-01 2.70612E-14 5.02930E-14
 -1      2741 2.01422E+01 2.81341E-01-2.64816E-04-5.25460E-01-3.33844E-14 2.12428E-13
 -1      2742 2.01855E+01 1.81735E-01 2.05232E-03-3.61553E-01 6.89459E-14 1.11542E-13
 -1      2743 2.01498E+01 1.62682E-01-7.56357E-04-3.16410E-01 5.66057E-14 1.16515E-13
 -1      2744 2.01148E+01 2.34338E-01-2.72170E-04-4.09157E-01 4.49184E-14 2.97184E-13
 -1      2745 2.01411E+01 1.46293E-01 1.72566E-03-2.74126E-01 1.41105E-13 1.19926E-13
 -1      2746 2.01128E+01 1.29487E-01-6.07956E-04-2.37610E-01 1.49360E-13 2.25639E-13
 -1      2747 2.00916E+01 1.90153E-01-2.81283E-04-3.12847E-01 1.14681E-13 1.43125E-13
 -1      2748 2.01055E+01 1.15269E-01 1.41905E-03-2.03776E-01 4.45311E-14 1.89755E-13
 -1      2749 2.00834E+01 1.00992E-01-4.74937E-04-1.74839E-01 3.99698E-14 1.17248E-13
 -1      2750 2.00719E+01 1.50928E-01-2.79847E-04-2.34748E-01 5.75391E-14 1.79427E-13
 -1      2751 2.00773E+01 8.90616E-02 1.14359E-03-1.48265E-01 4.09736E-14 8.71296E-14
 -1      2752 2.00603E+01 7.72742E-02-3.62098E-04-1.25767E-01-1.99981E-16 1.35858E-13
 -1      2753 2.00556E+01 1.17434E-01-2.66332E-04-1.72620E-01 4.25740E-14 8.19060E-14
 -1      2754 2.00553E+01 6.75191E-02 9.04320E-04-1.05269E-01-9.66403E-14 1.31087E-13
 -1      2755 2.00426E+01 5.80105E-02-2.69837E-04-8.80990E-02-1.32235E-13 1.21731E-13
 -1      2756 2.00422E+01 8.96557E-02-2.43476E-04-1.24091E-01-5.21502E-14 2.17218E-13
 -1      2757 2.00386E+01 5.02067E-02 7.02119E-04-7.25720E-02-2.00966E-13 1.46867E-13
 -1      2758 2.00291E+01 4.26912E-02-1.96442E-04-5.97119E-02-1.41982E-13 1.05540E-13
 -1      2759 2.00314E+01 6.71571E-02-2.15052E-04-8.68572E-02-1.36592E-13 1.39247E-13
 -1      2760 2.00260E+01 3.65701E-02 5.35182E-04-4.81708E-02-5.08396E-14 1.56902E-13
 -1      2761 2.00192E+01 3.07419E-02-1.39360E-04-3.87286E-02 5.36270E-14 2.52464E-13
 -1      2762 2.00229E+01 4.93076E-02-1.84456E-04-5.88078E-02-8.28763E-14 1.98084E-13
 -1      2763 2.00167E+01 2.60296E-02 4.00181E-04-3.03239E-02 4.41983E-14 1.31674E-13
 -1      2764 2.00119E+01 2.15934E-02-9.58640E-05-2.35417E-02-6.72189E-15 3.13888E-14
 -1      2765 2.00163E+01 3.54144E-02-1.54237E-04-3.80803E-02-6.32591E-14-4.07927E-14
 -1      2766 2.00101E+01 1.80330E-02 2.93071E-04-1.75602E-02 3.80237E-14-4.11074E-14
 -1      2767 2.00068E+01 1.47203E-02-6.33951E-05-1.28104E-02-4.04201E-14-4.64094E-14
 -1      2768 2.00112E+01 2.48001E-02-1.26068E-04-2.30830E-02-5.56484E-14-1.70416E-13
 -1      2769 2.00055E+01 1.20817E-02 2.09639E-04-8.66722E-03-1.66440E-13-3.92519E-14
 -1      2770 2.00034E+01 9.65721E-03-3.97069E-05-5.44170E-03-1.10392E-13 5.46991E-14
 -1      2771 2.00075E+01 1.68423E-02-1.00887E-04-1.24895E-02-4.54577E-14-2.14044E-13
 -1      2772 2.00024E+01 7.74139E-03 1.45845E-04-2.66720E-03 4.58242E-14 7.03241E-14
 -1      2773 2.00011E+01 6.00483E-03-2.29167E-05-5.63063E-04 5.68617E-14-1.00769E-14
 -1      2774 2.00047E+01 1.09928E-02-7.90874E-05-5.21900E-03-4.48775E-14-1.03158E-13
 -1      2775 2.00004E+01 4.64340E-03 9.80246E-05 1.21194E-03 2.88277E-14-3.63028E-14
 -1      2776 1.99997E+01 3.42707E-03-1.15027E-05 2.50709E-03 5.14461E-14-7.90788E-14
 -1      2777 2.00028E+01 6.78138E-03-6.07014E-05-4.09650E-04 1.29305E-14-1.97278E-13
 -1      2778 1.99992E+01 2.47973E-03 6.29898E-05 3.56645E-03 6.57602E-14-8.58728E-14
 -1      2779 1.99989E+01 1.64497E-03-4.27587E-06 4.28889E-03 1.71585E-14-1.43523E-13
 -1      2780 2.00014E+01 3.81330E-03-4.55474E-05 2.61140E-03 2.47068E-14-4.24915E-13
 -1      2781 1.99986E+01 9.95626E-04 3.80435E-05 4.84510E-03-3.28318E-14-4.53263E-14
 -1      2782 1.99985E+01 4.28157E-04-3.21128E-07 5.16786E-03 1.88837E-13-1.00306E-14
 -1      2783 2.00005E+01 1.76079E-03-3.33563E-05 4.35693E-03 1.25760E-13-3.16616E-13
 -1      2784 1.99983E+01-1.92786E-05 2.10115E-05 5.37457E-03 2.64140E-13-5.20321E-14
 -1      2785 1.99984E+01-4.13797E-04 1.22478E-06 5.41873E-03 2.80124E-13-1.33090E-13
 -1      2786 1.99999E+01 3.53288E-04-2.38166E-05 5.20664E-03 2.25849E-13-1.86311E-13
 -1      2787 1.99983E+01-7.39693E-04 1.00274E-05 5.38202E-03 2.88453E-13-1.22032E-13
 -1      2788 1.99986E+01-1.03876E-03 1.16486E-06 5.22600E-03 8.95093E-14-1.16752E-13
 -1      2789 1.99996E+01-6.31982E-04-1.64861E-05 5.43057E-03 1.71482E-13-1.03470E-13
 -1      2790 1.99985E+01-1.31674E-03 2.74031E-06 5.01402E-03 1.10867E-14-1.45816E-13
 -1      2791 1.99988E+01-1.57530E-03 8.79418E-07 4.70007E-03-1.04362E-13-2.31347E-13
 -1      2792 1.99995E+01-1.37503E-03-9.28852E-06 5.21886E-03 4.36520E-14-4.05210E-13
 -1      2793 2.26284E+01-9.87545E-01-1.46220E-02-5.18259E-01 6.08565E-14 3.77699E-14
 -1      2794 2.24529E+01-7.49333E-01 1.59527E-02-7.33282E-01 3.84115E-14 5.27885E-14
 -1      2795 1.99994E+01-2.23101E-03-1.49031E-06-4.40569E-03-3.43579E-13 2.93077E-13
 -1      2796 1.99987E+01-1.69060E-03-9.79777E-06-4.16215E-03-1.66418E-13 5.39750E-13
 -1      2797 1.99983E+01-1.48223E-03-1.62248E-05-4.57887E-03-4.93754E-14 4.55927E-13
 -1      2798 2.21441E+01-5.23132E-01-9.59392E-03-8.56463E-01 3.31399E-14 3.94785E-14
 -1      2799 2.19917E+01-2.86021E-01 1.47746E-02-9.37719E-01 4.29352E-14 5.57734E-14
 -1      2800 2.20807E+01-7.80313E-01-1.58647E-02-1.00339E+00 5.20964E-14 3.03687E-14
 -1      2801 2.36853E+01-1.32553E+00-1.28128E-02 9.47340E-01-1.01492E-14 1.86583E-13
 -1      2802 2.35962E+01-1.39828E+00 5.00321E-03 5.49284E-01-5.18899E-16 1.32027E-13
 -1      2803 2.39261E+01-6.44157E-01 2.69072E-03 1.72260E+00 7.98450E-14 1.80122E-13
 -1      2804 2.39487E+01-1.08452E+00-1.70331E-02 1.43786E+00 3.27360E-14 1.95947E-13
 -1      2805 2.42555E+01-1.51114E+00 7.44154E-03 1.07067E+00-6.44450E-16 1.52051E-13
 -1      2806 2.37660E+01 7.02869E-01 1.42436E-02 1.93883E+00 7.54639E-14 1.78222E-13
 -1      2807 2.38901E+01-4.35700E-02-4.57080E-02 1.99417E+00 8.61854E-14 1.94933E-13
 -1      2808 2.45971E+01-4.50864E-01 7.30173E-03 1.93785E+00 8.83061E-14 2.16591E-13
 -1      2809 2.33454E+01 2.10007E+00-2.67495E-03 1.20454E+00 7.09433E-14 1.36563E-13
 -1      2810 2.35049E+01 1.43908E+00-5.55006E-02 1.69178E+00 8.46146E-14 1.51557E-13
 -1      2811 2.44232E+01 1.24094E+00-3.23278E-02 1.98883E+00 9.58331E-14 1.75934E-13
 -1      2812 2.32101E+01 2.53005E+00-2.19815E-02-3.32176E-01 4.54012E-14 4.20540E-14
 -1      2813 2.32150E+01 2.48183E+00-2.50342E-02 3.71691E-01 3.75221E-14 3.67475E-14
 -1      2814 2.40574E+01 2.87561E+00-3.24173E-02 8.81617E-01 1.06377E-13 1.15389E-13
 -1      2815 2.34677E+01 1.65986E+00-5.34944E-02-1.74370E+00 4.75019E-14-2.02650E-14
 -1      2816 2.33116E+01 2.24350E+00-6.78279E-03-1.20328E+00 4.20566E-14 2.79000E-14
 -1      2817 2.40211E+01 2.98588E+00-4.14397E-02-8.41392E-01 5.87030E-14 2.12469E-14
 -1      2818 2.39196E+01 1.41796E-01-4.54001E-02-2.19509E+00 3.37352E-14-6.17102E-14
 -1      2819 2.37526E+01 9.13822E-01 1.34947E-02-2.10579E+00 8.73555E-14-2.68338E-14
 -1      2820 2.44038E+01 1.57499E+00-1.72137E-02-2.14291E+00 9.55954E-14-1.20456E-13
 -1      2821 2.40458E+01-9.69064E-01-1.82931E-02-1.75085E+00 3.41671E-14-6.74721E-14
 -1      2822 2.39624E+01-4.72923E-01-1.03014E-03-1.99122E+00 1.14058E-14-4.07068E-14
 -1      2823 2.46185E+01-1.83977E-01-9.12492E-03-2.20818E+00 1.10849E-14 1.17285E-14
 -1      2824 2.37485E+01-1.41015E+00 3.26775E-03-8.53631E-01-4.00630E-14 9.86104E-15
 -1      2825 2.38029E+01-1.28866E+00-1.61205E-02-1.25120E+00-1.57658E-14-4.79848E-14
 -1      2826 2.43597E+01-1.44602E+00-1.69394E-03-1.41254E+00-4.33056E-14-3.02831E-14
 -1      2827 2.31870E+01-1.28290E+00 1.27108E-02-6.81009E-03-9.47958E-14 1.21809E-13
 -1      2828 2.33378E+01-1.40133E+00-1.78624E-02-3.77815E-01-2.95554E-14 6.54066E-14
 -1      2829 2.36619E+01-1.76117E+00-4.42021E-03-3.85950E-01-7.29059E-14-3.24800E-15
 -1      2830 2.25747E+01-9.10595E-01 1.31366E-02 5.99855E-01-5.97659E-14 1.10230E-13
 -1      2831 2.27660E+01-1.11840E+00-1.56344E-02 3.33099E-01-3.86921E-14 1.18677E-13
 -1      2832 2.28444E+01-1.49950E+00-1.28564E-02 4.26210E-01-4.80336E-14 4.82111E-14
 -1      2833 2.20327E+01-5.16491E-01 1.01694E-02 9.47478E-01 1.58793E-14 1.17088E-14
 -1      2834 2.22275E+01-7.14766E-01-1.03191E-02 7.92382E-01-3.31039E-14 8.10365E-15
 -1      2835 2.21196E+01-1.01073E+00-1.34082E-02 9.34142E-01 1.79246E-14 1.92333E-14
 -1      2836 2.15957E+01-2.01814E-01 6.65562E-03 1.09103E+00 3.42805E-14 1.24681E-13
 -1      2837 2.17760E+01-3.51537E-01-5.38188E-03 1.02644E+00 1.11592E-14 3.63055E-14
 -1      2838 2.15612E+01-5.37837E-01-1.04625E-02 1.18112E+00-5.52883E-15-1.10835E-13
 -1      2839 2.12551E+01 1.08058E-02 3.79223E-03 1.09662E+00 1.07474E-13 1.40609E-13
 -1      2840 2.14153E+01-8.59556E-02-1.78857E-03 1.09483E+00 8.46926E-14 1.94478E-13
 -1      2841 2.11588E+01-1.76912E-01-7.09730E-03 1.24523E+00 1.74530E-14 7.25629E-14
 -1      2842 2.09901E+01 1.34852E-01 1.84109E-03 1.01960E+00 5.40506E-14 5.56596E-14
 -1      2843 2.11299E+01 8.12551E-02 5.48742E-04 1.05605E+00 1.52205E-13 1.34319E-13
 -1      2844 2.08752E+01 5.92429E-02-4.47009E-03 1.19541E+00 1.43494E-13 1.85096E-13
 -1      2845 2.07814E+01 1.94202E-01 6.57171E-04 9.00188E-01-1.10566E-13-1.03656E-13
 -1      2846 2.09019E+01 1.70962E-01 1.92668E-03 9.56335E-01-8.74134E-14 2.00764E-14
 -1      2847 2.06732E+01 1.92446E-01-2.75258E-03 1.08230E+00 3.36991E-14 2.54934E-13
 -1      2848 2.06145E+01 2.11345E-01 1.19599E-05 7.65227E-01 5.90468E-14-2.47828E-13
 -1      2849 2.07172E+01 2.07313E-01 2.62337E-03 8.28460E-01 1.94181E-16-2.22989E-13
 -1      2850 2.05248E+01 2.52439E-01-1.75310E-03 9.40243E-01 3.66464E-14-2.64267E-14
 -1      2851 2.04797E+01 2.03573E-01-2.93150E-04 6.31346E-01-7.63750E-14-1.82557E-13
 -1      2852 2.05660E+01 2.10501E-01 2.86203E-03 6.93805E-01-1.60676E-14-1.58817E-13
 -1      2853 2.04119E+01 2.65535E-01-1.21344E-03 7.91253E-01-2.09234E-14-9.49986E-14
 -1      2854 2.03705E+01 1.82814E-01-4.01351E-04 5.07964E-01-8.45420E-14-1.80884E-13
 -1      2855 2.04420E+01 1.95154E-01 2.80893E-03 5.65238E-01-6.81463E-14-1.68321E-13
 -1      2856 2.03233E+01 2.51429E-01-9.31057E-04 6.48641E-01-7.25320E-14-1.44692E-13
 -1      2857 2.02824E+01 1.56706E-01-4.05181E-04 3.99663E-01-1.12782E-13-1.44435E-13
 -1      2858 2.03407E+01 1.70976E-01 2.58458E-03 4.49663E-01-1.03338E-13-1.10531E-13
 -1      2859 2.02525E+01 2.23534E-01-7.77156E-04 5.19718E-01-1.59419E-13-1.56277E-13
 -1      2860 2.02119E+01 1.29809E-01-3.60213E-04 3.07931E-01 5.46970E-14-1.82707E-13
 -1      2861 2.02586E+01 1.43977E-01 2.27381E-03 3.50040E-01-3.25393E-14-1.47393E-13
 -1      2862 2.01953E+01 1.90362E-01-6.79475E-04 4.07795E-01 3.31510E-15-4.77809E-14
 -1      2863 2.01562E+01 1.04638E-01-2.97737E-04 2.32396E-01 6.32150E-14-1.39986E-13
 -1      2864 2.01930E+01 1.17619E-01 1.93348E-03 2.66868E-01 8.93562E-14-1.09267E-13
 -1      2865 2.01491E+01 1.56960E-01-6.02257E-04 3.13615E-01 6.82428E-14-3.73917E-14
 -1      2866 2.01127E+01 8.24035E-02-2.34092E-04 1.71663E-01 1.19056E-13-6.87707E-14
 -1      2867 2.01412E+01 9.37098E-02 1.59937E-03 1.99214E-01 7.76297E-14-7.84282E-14
 -1      2868 2.01122E+01 1.26073E-01-5.30685E-04 2.36374E-01 7.56685E-14 1.97303E-14
 -1      2869 2.00794E+01 6.35275E-02-1.76898E-04 1.23861E-01 6.74900E-14 1.63424E-13
 -1      2870 2.01010E+01 7.30262E-02 1.29211E-03 1.45414E-01 1.69388E-13 4.88436E-14
 -1      2871 2.00829E+01 9.89886E-02-4.60570E-04 1.74425E-01 5.92964E-14 1.33231E-14
 -1      2872 2.00542E+01 4.79787E-02-1.28960E-04 8.69803E-02-1.30782E-13 9.31313E-14
 -1      2873 2.00703E+01 5.57374E-02 1.02190E-03 1.03503E-01-5.45180E-14 1.00190E-13
 -1      2874 2.00601E+01 7.61096E-02-3.92309E-04 1.25743E-01 1.61931E-14-1.39354E-14
 -1      2875 2.00355E+01 3.54843E-02-9.05887E-05 5.90816E-02-4.13260E-14 1.38710E-13
 -1      2876 2.00472E+01 4.16734E-02 7.92135E-04 7.14963E-02-7.64226E-14 1.34000E-13
 -1      2877 2.00425E+01 5.73331E-02-3.27716E-04 8.82253E-02-1.37609E-13 1.83467E-15
 -1      2878 2.00220E+01 2.56611E-02-6.09243E-05 3.84005E-02-7.82977E-14 1.69853E-13
 -1      2879 2.00304E+01 3.04941E-02 6.01974E-04 4.75357E-02-1.66621E-14 1.67090E-13
 -1      2880 2.00291E+01 4.22905E-02-2.68555E-04 5.98651E-02-3.81489E-14 9.13900E-14
 -1      2881 2.00125E+01 1.80942E-02-3.86647E-05 2.34000E-02-1.20936E-13 2.76530E-13
 -1      2882 2.00182E+01 2.17926E-02 4.48192E-04 2.99709E-02-1.80164E-13 2.06779E-13
 -1      2883 2.00193E+01 3.04954E-02-2.16010E-04 3.88532E-02-1.58761E-13 4.86697E-15
 -1      2884 2.00060E+01 1.23817E-02-2.24435E-05 1.27830E-02 9.11628E-14 2.30406E-13
 -1      2885 2.00098E+01 1.51549E-02 3.26386E-04 1.73884E-02 7.70606E-14 2.93734E-13
 -1      2886 2.00121E+01 2.14324E-02-1.70599E-04 2.36193E-02-9.55913E-14-6.63115E-14
 -1      2887 2.00017E+01 8.15716E-03-1.10141E-05 5.48344E-03 1.12698E-13 1.62397E-13
 -1      2888 2.00041E+01 1.01933E-02 2.31782E-04 8.61162E-03 7.88811E-14 2.70132E-13
 -1      2889 2.00070E+01 1.46069E-02-1.32282E-04 1.28413E-02 8.48871E-14-7.00093E-14
 -1      2890 1.99991E+01 5.10029E-03-3.32923E-06 6.45051E-04-5.34222E-14 9.19928E-14
 -1      2891 2.00004E+01 6.56212E-03 1.59722E-04 2.68526E-03 8.16762E-14 2.81420E-13
 -1      2892 2.00035E+01 9.57175E-03-1.00624E-04 5.43409E-03-3.85663E-14 1.71125E-13
 -1      2893 1.99976E+01 2.93829E-03 1.43808E-06-2.40417E-03 3.59389E-14 2.26830E-13
 -1      2894 1.99983E+01 3.96336E-03 1.05941E-04-1.14883E-03-4.34813E-15 9.91036E-14
 -1      2895 2.00012E+01 5.93684E-03-7.49525E-05 5.27619E-04-2.58278E-14 3.27115E-13
 -1      2896 1.99970E+01 1.44282E-03 3.89801E-06-4.17901E-03-3.37823E-14 8.87782E-14
 -1      2897 1.99971E+01 2.14571E-03 6.67159E-05-3.47849E-03 4.09426E-14 1.37971E-13
 -1      2898 1.99998E+01 3.37081E-03-5.44872E-05-2.56014E-03 5.15471E-14 2.83424E-13
 -1      2899 1.99969E+01 4.24434E-04 4.56677E-06-5.06222E-03-8.42185E-14-2.76567E-14
 -1      2900 1.99967E+01 8.99854E-04 3.88760E-05-4.74772E-03-1.56839E-13-1.50979E-13
 -1      2901 1.99989E+01 1.59656E-03-3.84473E-05-4.35081E-03 4.93091E-14-1.55355E-13
 -1      2902 1.99971E+01-2.75726E-04 2.17172E-06-5.32715E-03 1.48227E-13 1.79790E-13
 -1      2903 1.99968E+01 5.06955E-05 1.93597E-05-5.28111E-03 1.30354E-14 5.91700E-14
 -1      2904 1.99986E+01 3.84782E-04-2.60953E-05-5.23236E-03-5.19440E-14-3.35562E-13
 -1      2905 1.99975E+01-7.78687E-04 1.74811E-06-5.14471E-03 1.24973E-13 3.45045E-13
 -1      2906 1.99971E+01-5.50851E-04 5.15921E-06-5.29651E-03 1.61411E-13 2.64373E-13
 -1      2907 1.99985E+01-4.48973E-04-9.23969E-06-5.49196E-03 1.83524E-14-1.82411E-13
 -1      2908 1.99981E+01-1.20697E-03-3.06855E-06-4.75874E-03 1.13381E-13 3.50124E-13
 -1      2909 1.99977E+01-1.01225E-03-1.06392E-05-5.05000E-03 6.15767E-14 2.60200E-13
 -1      2910 1.99988E+01-1.06244E-03 8.78581E-06-5.36494E-03-2.73593E-14-8.81431E-14
 -1      2911 1.99993E+01-1.62672E-03 1.48356E-05-5.02947E-03-1.73806E-13 2.47476E-13
 -1      2912 2.00023E+01-4.41157E-03 8.65270E-06-3.38303E-04 1.58011E-13-2.61655E-13
 -1      2913 2.00023E+01-4.35871E-03 5.74287E-06-9.69037E-04 8.34711E-14-2.18668E-13
 -1      2914 1.99988E+01-1.74846E-03-3.00086E-06 4.46684E-03-1.67382E-13-2.30779E-13
 -1      2915 1.99990E+01-1.91566E-03-3.14908E-06 4.18217E-03-1.58570E-13-9.33145E-14
 -1      2916 1.99994E+01-1.93667E-03-1.03153E-05 4.78832E-03-1.54708E-13-4.47926E-13
 -1      2917 2.00018E+01-3.97642E-03 1.31460E-05-2.79440E-03-3.83262E-14-3.05419E-15
 -1      2918 2.00015E+01-3.72124E-03-9.79629E-07-3.25840E-03 5.27607E-14-1.58518E-13
 -1      2919 2.00023E+01-4.35741E-03 6.19016E-06 9.85962E-04 2.55564E-13-1.88513E-13
 -1      2920 2.00023E+01-4.41177E-03 8.57346E-06 3.55514E-04 2.49950E-13-2.75801E-13
 -1      2921 2.00029E+01-3.70160E-03-4.54167E-06 8.87005E-06 2.05639E-13-1.83179E-13
 -1      2922 2.00022E+01-4.28451E-03 1.08383E-05-1.63546E-03-1.45876E-13-4.79938E-14
 -1      2923 2.00020E+01-4.12712E-03 2.30664E-06-2.21097E-03-1.07780E-13 1.26347E-13
 -1      2924 2.00024E+01-3.43642E-03-5.08095E-06-2.66063E-03-6.49120E-14 2.40415E-15
 -1      2925 2.00028E+01-3.63560E-03-4.84948E-06-1.38162E-03 9.12320E-14-8.14982E-15
 -1      2926 2.33005E+01-5.30323E+00-9.04967E-02 4.14088E+00-1.32061E-13-1.82337E-13
 -1      2927 2.11524E+01-5.07937E+00 1.11214E-01 5.05688E+00-1.23512E-13-1.62563E-13
 -1      2928 2.00020E+01-4.13015E-03 2.78165E-06 2.20760E-03 1.69322E-13-3.28675E-13
 -1      2929 2.00022E+01-4.28554E-03 1.09674E-05 1.64168E-03 1.46997E-13-1.35823E-13
 -1      2930 2.00028E+01-3.63719E-03-4.37849E-06 1.38776E-03 2.33325E-13-2.34788E-13
 -1      2931 2.00015E+01-3.72874E-03-2.61653E-06 3.25791E-03 2.27850E-13-4.61376E-13
 -1      2932 2.00018E+01-3.98000E-03 1.34818E-05 2.79222E-03 2.72004E-13-4.01999E-13
 -1      2933 2.00024E+01-3.44015E-03-4.34771E-06 2.65732E-03 1.32396E-13-2.35783E-13
 -1      2934 2.00007E+01-3.17161E-03-1.63195E-05 4.01666E-03 1.65787E-13-2.78152E-13
 -1      2935 2.00012E+01-3.49589E-03 2.10379E-05 3.69782E-03 2.64986E-13-2.30926E-13
 -1      2936 2.00016E+01-3.09714E-03-3.73858E-06 3.70931E-03 3.51342E-13-3.47136E-13
 -1      2937 1.77573E+01-4.59768E+00 2.05123E-02 6.05346E+00-1.63466E-13-4.56996E-14
 -1      2938 1.41811E+01-3.36242E+00 1.39196E-01 5.92175E+00-1.40027E-13-1.12813E-13
 -1      2939 1.96649E+01-4.34148E+00 7.29027E-02 5.07265E+00-1.23374E-13-9.75504E-14
 -1      2940 2.17858E+01-7.66805E-02-5.27190E-03-9.22297E-01 2.50456E-14 5.93357E-14
 -1      2941 2.16805E+01 1.37441E-01 1.37349E-02-8.80535E-01 4.26387E-14 5.44769E-14
 -1      2942 2.16182E+01-2.05998E-01-1.22658E-02-1.07520E+00 3.78303E-14 3.02287E-14
 -1      2943 6.61736E+00-5.61494E-01 1.69198E-01 7.77205E-01-6.06425E-14 5.40318E-13
 -1      2944 6.64048E+00-6.84436E-01 1.62800E-01-1.26061E+00-1.47105E-15 6.59778E-13
 -1      2945 2.92095E+01-9.66970E-01-8.34326E-02 9.54297E-01-1.48041E-13-2.46192E-13
 -1      2946 2.98420E+01 9.37887E-01-1.60168E-01 1.64156E+00-2.24321E-13-2.45304E-13
 -1      2947 2.88832E+01-2.31476E-01-1.54702E-01-1.39200E+00 4.43534E-14-8.98448E-14
 -1      2948 2.85956E+01-1.64815E+00-5.06333E-02-7.13924E-01 1.88322E-14-1.25580E-13
 -1      2949 2.76572E+01 5.22656E+00-1.73892E-01-1.06098E+00-2.66426E-13 1.28612E-13
 -1      2950 2.77729E+01 3.89848E+00-1.46921E-01-2.04404E+00-2.47247E-13 1.29785E-13
 -1      2951 2.04857E+01 2.49008E+00-5.34600E-04-4.19559E-01-1.03494E-13-7.04324E-14
 -1      2952 2.31853E+01-1.33940E+00-1.66967E-02 1.08544E-01 2.90315E-14 7.70566E-14
 -1      2953 2.30264E+01-1.18397E+00 1.47848E-02-2.31171E-01 5.39846E-14 7.23978E-14
 -1      2954 2.27383E+01-1.34896E+00-1.60078E-02-6.24873E-01 4.87175E-14 8.09892E-14
 -1      2955 2.35350E+01-1.69100E+00-1.98119E-03 9.82313E-02 4.34608E-15 1.74723E-13
 -1      2956 2.11451E+01 1.21330E+00 7.57811E-03 2.96584E-01-6.61083E-14-3.09935E-14
 -1      2957 2.11600E+01 9.37687E-01-2.62870E-03 5.88952E-01-5.26400E-14-9.02415E-15
 -1      2958 2.08183E+01 1.01936E+00-5.56437E-03 7.59169E-01-3.90915E-14-1.72509E-14
 -1      2959 2.15606E+01 3.32612E-01-2.56387E-03-7.49556E-01 7.77223E-14 3.97776E-14
 -1      2960 2.15155E+01 5.42916E-01 1.39661E-02-5.90601E-01 1.01232E-13 3.31124E-14
 -1      2961 2.11937E+01 8.45150E-01-2.89861E-03-5.06310E-01 1.17336E-13 3.36786E-15
 -1      2962 2.13370E+01 3.23894E-01-7.29773E-03-8.96411E-01 5.94701E-14 2.24579E-14
 -1      2963 1.96095E+01-5.19619E+00 1.13531E-01-5.69772E+00-4.41730E-14 3.06598E-13
 -1      2964 2.28539E+01-5.37880E+00-4.02296E-02-4.49826E+00-2.19408E-14 3.04964E-14
 -1      2965 1.96305E+01-4.80511E+00-7.49049E-03 5.65462E+00 7.29139E-14 3.21410E-14
 -1      2966 1.64978E+01-3.95333E+00 1.34611E-01 6.04691E+00 1.22624E-13-3.38896E-14
 -1      2967 1.88746E+01 3.13978E+00-8.93239E-04-1.16860E-01 1.13617E-13-1.25349E-13
 -1      2968 1.85253E+01 3.30230E+00-1.01755E-02-1.71138E-01 9.24830E-14-1.34535E-13
 -1      2969 1.84102E+01 3.10964E+00 5.02144E-03-3.10244E-01 7.88855E-14-1.30942E-13
 -1      2970 1.91305E+01 2.69264E+00 3.50177E-03-2.91185E-01 1.02895E-13-1.08799E-13
 -1      2971 1.84000E+01 3.39868E+00-9.35630E-03 1.29123E-01-8.00480E-15-1.42891E-13
 -1      2972 1.87392E+01 3.23976E+00-2.18823E-03 9.55889E-02-2.89555E-14-1.38149E-13
 -1      2973 2.73024E+01-3.64107E+00 4.74949E-02-9.95996E-01-8.07583E-14 6.39350E-14
 -1      2974 2.80647E+01-2.17582E+00-1.43213E-01 4.14143E-01 3.31610E-14 1.01114E-13
 -1      2975 2.62177E+01-4.76182E+00-7.25509E-02 2.88952E+00 4.62130E-15 7.44682E-14
 -1      2976 2.33009E+01-5.18468E+00 5.84411E-02 4.35000E+00 2.96568E-14 1.02106E-13
 -1      2977 1.33829E+01-3.10548E+00 5.90713E-02 6.05744E+00 1.27690E-13-5.93137E-14
 -1      2978 1.05725E+01-1.85014E+00 1.49219E-01 4.90486E+00 1.17392E-13-2.00423E-13
 -1      2979 1.61364E+01-3.01613E+00 1.21323E-01 5.49152E+00 1.05832E-13-4.65947E-14
 -1      2980 2.85978E+01 4.95923E+00-1.21970E-01 1.68085E+00 2.90656E-13 2.23474E-13
 -1      2981 2.86850E+01 5.93968E+00-2.15811E-01 8.45614E-01 2.45887E-13 1.29733E-13
 -1      2982 2.87471E+01-1.98161E+00-1.84084E-01-4.76397E-01-7.41004E-14 1.60011E-13
 -1      2983 2.79185E+01-3.43691E+00 2.59469E-02 1.07084E+00 2.33147E-15 1.03292E-13
 -1      2984 2.68017E+01-4.03594E+00 9.76609E-03 1.32284E+00-1.33296E-14 8.27949E-14
 -1      2985 2.25841E+01-5.16824E+00 1.30571E-01-4.80947E+00-9.67143E-14-6.87020E-14
 -1      2986 2.50996E+01-4.97708E+00-1.30342E-01-3.19775E+00-9.00113E-14 2.67147E-14
 -1      2987 5.78289E+00-1.02693E+00 1.29878E-01-1.28943E+00 1.19904E-14-2.53991E-13
 -1      2988 6.76188E+00-1.45064E+00 1.06098E-01-3.32588E+00-7.74381E-15-2.57239E-13
 -1      2989 9.05288E+00-2.17125E+00 1.72715E-01-4.90742E+00-5.46646E-14-2.58932E-13
 -1      2990 1.20570E+01-3.36919E+00 2.81457E-02-6.29978E+00-9.40636E-14-3.08864E-13
 -1      2991 2.76609E+01-3.40369E+00-1.39107E-01 6.61336E-01-1.46064E-14-1.65090E-13
 -1      2992 2.58577E+01-4.54341E+00 5.23823E-02 2.30614E+00-1.04011E-13-1.72889E-13
 -1      2993 1.31652E+01-3.67925E+00 1.41036E-01-6.11595E+00 5.16254E-15 5.43371E-13
 -1      2994 1.63937E+01-4.75402E+00 1.30048E-02-6.43896E+00 1.58207E-15 4.29351E-13
 -1      2995 1.89850E+01-4.55068E+00 1.25131E-01-5.49130E+00 3.89688E-14 2.66547E-13
 -1      2996 1.99994E+01-2.34046E-03-1.38059E-05 4.27009E-03-1.83505E-13-3.09766E-13
 -1      2997 2.88198E+01 2.40361E+00-1.88997E-01-2.11010E+00-2.22100E-13 1.13687E-13
 -1      2998 2.92430E+01 3.36023E-01-4.90865E-02-1.71539E+00-1.62259E-13 1.32949E-13
 -1      2999 7.46774E+00-1.37027E+00 1.44369E-01-3.23968E+00 7.28306E-14 6.31106E-13
 -1      3000 9.79615E+00-2.49682E+00 8.67891E-02-5.27981E+00 2.00950E-14 5.86475E-13
 -1      3001 7.70647E+00-1.01154E+00 1.06828E-01 3.14347E+00 9.57359E-14-2.53603E-13
 -1      3002 6.14057E+00-8.07371E-01 1.81507E-01 8.49629E-01 4.24071E-14-2.78055E-13
 -1      3003 7.72324E+00-2.35714E-01 1.91315E-01-1.05794E-01 3.99767E-14-2.59376E-13
 -1      3004 2.95609E+01 2.75458E+00-8.86597E-02 2.16968E+00-2.44971E-13-1.70003E-13
 -1      3005 2.85149E+01 4.15782E+00-2.30174E-01 2.12116E+00-2.67036E-13-7.60156E-14
 -1      3006 2.83576E+01 1.36350E+00-8.34231E-02 2.28582E+00-1.63120E-13-1.74402E-13
 -1      3007 1.58937E+01-4.31030E+00 1.61631E-01-6.43541E+00-9.92539E-14-3.04548E-13
 -1      3008 1.91580E+01-5.15180E+00-4.24378E-02-6.16769E+00-8.84015E-14-2.03733E-13
 -1      3009 1.91226E+01 3.00153E+00-1.01685E-02 8.01481E-02-3.51959E-14-1.23232E-13
 -1      3010 1.95424E+01 2.78123E+00-4.77750E-03 5.99840E-03-5.09509E-14-1.12513E-13
 -1      3011 1.89794E+01 2.81434E+00 4.60459E-03 2.79045E-01-2.47228E-14-1.18292E-13
 -1      3012 1.76984E+01 3.52348E+00 8.02572E-03-6.20698E-02 5.34780E-14-1.42734E-13
 -1      3013 1.77035E+01 3.76874E+00-5.58313E-03-9.54293E-03 4.60027E-14-1.41012E-13
 -1      3014 1.77658E+01 3.74464E+00-3.95561E-03 1.40032E-02 3.53241E-14-1.30170E-13
 -1      3015 1.99999E+01-2.74055E-03 1.63672E-05 4.19820E-03 4.09814E-14-3.76198E-13
 -1      3016 2.64463E+01 4.66978E+00-1.03700E-01-6.05267E-01-2.55115E-13 8.32806E-14
 -1      3017 2.09331E+01 1.69311E+00-5.08439E-03 1.33411E-01 1.38627E-13-1.46532E-14
 -1      3018 2.77197E+01 5.83308E+00-1.60992E-01 3.40537E-01 2.14273E-13 8.80927E-14
 -1      3019 2.46946E+01-5.07340E+00 4.95017E-02-3.32284E+00-1.06096E-13-2.15362E-13
 -1      3020 2.56584E+01-4.65132E+00-6.62406E-02-1.89887E+00-5.19584E-14-3.60753E-13
 -1      3021 2.30999E+01-4.92361E+00 4.96445E-02-3.79785E+00-2.62290E-14-1.10169E-13
 -1      3022 2.00016E+01-3.10153E-03-5.00574E-06-3.70333E-03-1.19555E-13-7.67994E-14
 -1      3023 2.00011E+01-3.49914E-03 1.78152E-05-3.69844E-03-7.31119E-14-2.51329E-13
 -1      3024 2.00007E+01-3.15670E-03-1.28108E-05-4.00533E-03-1.96705E-13-1.83455E-13
 -1      3025 2.49440E+01 2.83728E+00-3.37281E-02 1.80122E+00-1.38792E-13-8.45253E-14
 -1      3026 2.51635E+01 1.74842E+00-9.87028E-02 2.35322E+00-1.70960E-13-4.75071E-14
 -1      3027 1.02655E+01-1.06506E+00 1.75361E-01 4.05173E+00 9.40845E-14-2.35839E-13
 -1      3028 1.01784E+01-2.56394E-01 1.17676E-01 2.96432E+00 7.50650E-14-2.18048E-13
 -1      3029 1.25588E+01-1.27276E+00 2.32824E-02 4.50922E+00 1.06332E-13-1.41318E-13
 -1      3030 8.84139E+00-5.44764E-01 1.78805E-01-2.28982E+00 6.70713E-14 6.24834E-13
 -1      3031 1.28983E+01-2.56941E+00 1.65020E-01-5.31880E+00 8.28226E-14 5.66366E-13
 -1      3032 2.81639E+01-1.11286E+00-6.02204E-02-1.32420E+00-7.02910E-14 1.14089E-13
 -1      3033 2.48121E+01-4.57415E+00 4.71399E-02 2.52452E+00-1.64604E-13-2.17298E-13
 -1      3034 2.00000E+01-2.62352E-03 1.25924E-05-4.31205E-03-2.43927E-13-3.94111E-14
 -1      3035 2.74658E+01-2.72992E+00-3.57763E-02-3.63767E-01-3.44145E-14-1.77566E-13
 -1      3036 1.30503E+01-2.50253E+00 1.20705E-01 5.45542E+00-5.57610E-14-1.52212E-13
 -1      3037 1.20048E+01-1.42632E+00 7.87902E-02 4.52163E+00-6.66689E-14-1.75554E-14
 -1      3038 1.54521E+01-2.57940E+00 8.41114E-02 5.11404E+00-8.82384E-14-1.45856E-13
 -1      3039 2.00004E+01-2.53621E-03-4.28776E-08 4.41468E-03 8.73120E-14-3.98164E-13
 -1      3040 9.59031E+00-1.21344E+00 1.88130E-01-3.98868E+00-2.36478E-14-2.42306E-13
 -1      3041 2.07817E+01 1.50307E+00-1.16934E-04-1.85159E-01 1.39709E-13-4.26336E-14
 -1      3042 2.74007E+01 4.30328E+00-1.17819E-01 1.75628E+00-2.69090E-13-4.08146E-14
 -1      3043 2.90242E+01 5.03982E+00-1.42186E-01-1.69153E+00 3.03008E-13-1.14853E-13
 -1      3044 2.79919E+01 3.64252E+00-1.09730E-01-2.11466E+00 2.39239E-13-1.00434E-13
 -1      3045 2.75738E+01 5.28234E+00-1.19600E-01-1.48338E+00 2.12635E-13-5.73500E-14
 -1      3046 8.72162E+00-5.03222E-01 1.63572E-01 1.99211E+00-1.57194E-13 2.94847E-13
 -1      3047 2.57818E+01-4.16612E+00 1.42642E-02-1.77880E+00-7.66193E-14 5.84047E-14
 -1      3048 2.12451E+01-4.75601E+00 7.59919E-02-4.98473E+00-9.30506E-14-9.67637E-14
 -1      3049 2.71620E+01 2.41270E+00-8.15219E-02-2.10606E+00-2.34604E-13 1.49554E-13
 -1      3050 2.00822E+01 2.43202E+00-5.71698E-03-5.13432E-02-7.03782E-14-8.57556E-14
 -1      3051 2.08641E+01 1.87213E+00-3.64909E-03-1.72053E-01-1.10324E-13-4.11358E-14
 -1      3052 2.09755E+01 1.47956E+00 1.03738E-03 1.47573E-01-9.39849E-14-4.01596E-14
 -1      3053 1.99287E+01 2.23375E+00 4.49606E-03 2.25286E-01-4.56944E-14-7.76158E-14
 -1      3054 2.86348E+01 8.61287E-01-8.55041E-02-1.98983E+00 7.74936E-14-1.18225E-13
 -1      3055 2.76370E+01-1.21899E-01-2.34438E-02-1.92557E+00 4.37150E-15-1.08184E-13
 -1      3056 2.78695E+01 1.88517E+00-1.34230E-01-2.38658E+00 1.79343E-13-1.77164E-13
 -1      3057 2.84926E+01-2.38982E+00-7.18517E-02 4.42515E-01-9.28840E-14-2.64871E-13
 -1      3058 2.79820E+01-1.45452E+00-7.64411E-02 1.49296E+00-1.04930E-13-3.39936E-13
 -1      3059 2.72736E+01-3.32849E+00-3.22827E-03-1.96180E-01-3.71803E-14-3.31520E-13
 -1      3060 2.81064E+01-1.08633E+00-4.44596E-02 1.33985E+00 8.69235E-14 1.90403E-13
 -1      3061 2.71932E+01-3.05262E-02-1.75972E-01 2.01291E+00 1.39014E-13 2.69409E-13
 -1      3062 2.69035E+01-2.07534E+00-8.38803E-03 9.08362E-01 5.20573E-14 1.98213E-13
 -1      3063 2.62573E+01 1.22273E+00-5.55269E-02 2.49836E+00-1.22354E-13-8.52096E-15
 -1      3064 1.79046E+01 3.66157E+00-8.23739E-03 8.95152E-02 3.14527E-14-1.05204E-13
 -1      3065 1.81204E+01 3.56816E+00-2.46850E-03 9.36623E-02 3.30252E-15-1.11628E-13
 -1      3066 1.82723E+01 3.21092E+00 4.88766E-03 2.45000E-01 2.03835E-15-1.08435E-13
 -1      3067 1.78222E+01 3.45801E+00 6.20113E-03 1.17337E-01 3.54367E-14-1.13158E-13
 -1      3068 2.20421E+01-4.90016E+00 7.29093E-02 4.62526E+00 5.31380E-14 8.91787E-14
 -1      3069 2.07880E+01-4.14492E+00 5.73644E-02 4.66395E+00 7.32886E-14 6.76577E-14
 -1      3070 2.37294E+01-4.77571E+00-7.21815E-02 3.32686E+00 1.54807E-14 9.11415E-14
 -1      3071 2.78965E+01 3.43027E+00-1.06539E-01 1.92126E+00 2.68313E-13 2.22905E-13
 -1      3072 1.50564E+01-3.29386E+00 1.45002E-01-5.91578E+00-1.10773E-13-2.89102E-13
 -1      3073 2.06137E+01 1.59487E+00-2.81871E-03 3.31870E-01-6.48401E-14-3.00625E-14
 -1      3074 2.63553E+01 5.12510E+00-1.00208E-01 6.60829E-01 1.86545E-13 1.04747E-13
 -1      3075 2.68540E+01 5.46676E+00-1.83175E-01-4.77953E-01 1.78663E-13 2.76758E-14
 -1      3076 2.02378E+01 1.71738E+00 7.50861E-04-3.97665E-01 1.05144E-13-7.45380E-14
 -1      3077 1.97906E+01 1.98712E+00-3.92727E-03-4.56972E-01 9.31486E-14-8.89387E-14
 -1      3078 2.07218E+01 1.44107E-01 1.24034E-02 1.58897E+00-3.08833E-14 2.01897E-14
 -1      3079 2.09263E+01-2.38879E-01 4.04864E-03 1.69687E+00-2.26551E-14-1.33204E-14
 -1      3080 2.11977E+01-6.53092E-01 2.08778E-02 1.83752E+00-8.53853E-15 2.23766E-14
 -1      3081 2.15463E+01-1.12778E+00 2.93140E-03 1.82687E+00-5.54461E-16 9.31552E-15
 -1      3082 2.04721E+01-4.09678E-01-2.16647E-02 2.00388E+00-3.15633E-15-1.43704E-14
 -1      3083 2.20666E+01-1.61422E+00 3.49314E-02 1.83803E+00 8.91648E-16 3.87880E-14
 -1      3084 2.25769E+01-2.13848E+00-2.17849E-03 1.65334E+00-8.68316E-15 3.57648E-14
 -1      3085 2.11554E+01-1.48095E+00-3.68140E-02 2.24902E+00 5.93492E-15 9.59736E-15
 -1      3086 2.34378E+01-2.59820E+00 4.94833E-02 1.40887E+00 2.99886E-14 5.57406E-14
 -1      3087 2.40425E+01-2.97890E+00-1.47448E-02 9.82163E-01 3.81743E-14 7.63059E-14
 -1      3088 2.24135E+01-2.68589E+00-4.87879E-02 2.15758E+00 2.12595E-14 5.44981E-14
 -1      3089 2.72012E+01 6.40220E-01-9.00540E-02-2.35421E+00-1.48506E-13 2.01367E-13
 -1      3090 2.03991E+01 1.41660E+00 5.26143E-03 6.63175E-01-4.80866E-14-1.61570E-14
 -1      3091 2.04445E+01 1.10516E+00 2.02907E-04 9.28928E-01-3.89596E-14-1.95908E-14
 -1      3092 2.52606E+01-3.06293E+00-1.49735E-02 9.07637E-02-1.39392E-13-9.66102E-14
 -1      3093 2.46280E+01-3.12147E+00 3.37816E-02-5.31508E-01-1.11563E-13-1.34139E-13
 -1      3094 2.35392E+01-2.88005E+00-1.35757E-02-1.06851E+00-7.84954E-14-1.21373E-13
 -1      3095 2.29208E+01-2.46251E+00 3.95932E-02-1.46447E+00-5.78751E-14-1.92373E-13
 -1      3096 2.36423E+01-3.46732E+00-3.55330E-02-1.57113E+00-8.49971E-14-3.05521E-13
 -1      3097 2.21430E+01-2.00141E+00-1.21842E-03-1.64448E+00-2.32128E-14-1.52549E-13
 -1      3098 2.16595E+01-1.52798E+00 2.85596E-02-1.81986E+00 3.49349E-14-1.95500E-13
 -1      3099 2.18777E+01-2.46894E+00-3.01905E-02-2.13140E+00-3.58854E-14-2.73146E-13
 -1      3100 2.11953E+01-1.11097E+00 3.67102E-03-1.81968E+00 4.76060E-14-1.37681E-13
 -1      3101 2.08573E+01-7.29386E-01 1.44839E-02-1.85991E+00-9.55594E-15-9.55345E-14
 -1      3102 2.07544E+01-1.43632E+00-3.24064E-02-2.20762E+00 6.03801E-14-9.43716E-14
 -1      3103 2.06227E+01-4.19026E-01 6.14596E-03-1.77294E+00-1.31646E-14-9.22727E-15
 -1      3104 2.04062E+01-1.62893E-01 6.53375E-03-1.73878E+00 4.81327E-14 1.67131E-14
 -1      3105 2.01418E+01-5.80500E-01-1.83782E-02-2.03765E+00 7.67181E-14 2.74559E-14
 -1      3106 2.03068E+01 3.55377E-02 5.46585E-03-1.62503E+00 4.08744E-14-3.25582E-14
 -1      3107 2.01754E+01 1.86634E-01 1.97318E-03-1.55330E+00 1.00921E-13-4.47408E-14
 -1      3108 1.98567E+01-1.64153E-02-9.12752E-03-1.79847E+00 3.35476E-14 1.88258E-14
 -1      3109 2.01492E+01 2.97608E-01 4.33310E-03-1.43620E+00 1.45353E-13-6.79515E-14
 -1      3110 2.00697E+01 3.73292E-01-3.96155E-04-1.34786E+00 8.68276E-14-4.84367E-14
 -1      3111 1.97548E+01 3.14036E-01-3.94401E-03-1.55005E+00 9.63963E-14 4.25921E-14
 -1      3112 2.00792E+01 4.23639E-01 3.42553E-03-1.23638E+00 9.04570E-15 3.91068E-14
 -1      3113 2.00291E+01 4.49883E-01-1.53201E-03-1.14367E+00-1.22908E-16 1.18165E-13
 -1      3114 1.97472E+01 4.79494E-01-1.15782E-03-1.31484E+00 1.10217E-13-2.06139E-14
 -1      3115 2.00530E+01 4.61755E-01 2.80596E-03-1.04149E+00-3.53718E-14 1.88761E-13
 -1      3116 2.00189E+01 4.58131E-01-1.97504E-03-9.51674E-01-5.05210E-14 2.61746E-13
 -1      3117 1.97814E+01 5.37169E-01 1.79624E-04-1.09967E+00 4.92440E-14 2.38200E-13
 -1      3118 2.00460E+01 4.47625E-01 2.38983E-03-8.60384E-01-6.25973E-14 2.66490E-13
 -1      3119 2.00205E+01 4.27678E-01-2.03810E-03-7.77722E-01-2.32043E-14 3.51603E-13
 -1      3120 1.98289E+01 5.29474E-01 7.06592E-04-9.06712E-01-2.97675E-14 2.52642E-13
 -1      3121 2.00455E+01 4.05637E-01 2.08506E-03-6.97924E-01-1.43091E-14 2.61438E-13
 -1      3122 2.00250E+01 3.78188E-01-1.90204E-03-6.24640E-01-1.63147E-15 2.72884E-13
 -1      3123 1.98757E+01 4.85716E-01 8.18791E-04-7.36678E-01-3.04190E-14 1.14224E-13
 -1      3124 2.00459E+01 3.51496E-01 1.83075E-03-5.56292E-01 4.00777E-15 2.75987E-13
 -1      3125 2.00285E+01 3.21980E-01-1.67429E-03-4.93227E-01-3.97481E-14 2.80715E-13
 -1      3126 1.99156E+01 4.25082E-01 7.40298E-04-5.89477E-01 3.88509E-14 1.74404E-13
 -1      3127 2.00449E+01 2.94757E-01 1.59719E-03-4.35808E-01-2.19422E-14 3.21544E-13
 -1      3128 2.00300E+01 2.66308E-01-1.41691E-03-3.82875E-01 9.56758E-15 2.51403E-13
 -1      3129 1.99469E+01 3.59518E-01 5.92529E-04-4.64330E-01-2.11602E-14 1.76828E-13
 -1      3130 2.00422E+01 2.40842E-01 1.37468E-03-3.35525E-01-5.70934E-14 1.68118E-13
 -1      3131 2.00296E+01 2.15100E-01-1.16432E-03-2.92056E-01 7.62411E-14 9.70628E-14
 -1      3132 1.99701E+01 2.96013E-01 4.36737E-04-3.59843E-01-8.58303E-14 1.44321E-13
 -1      3133 2.00383E+01 1.92508E-01 1.16339E-03-2.53700E-01-4.23675E-15 4.96705E-14
 -1      3134 2.00276E+01 1.70178E-01-9.34135E-04-2.18703E-01 7.05593E-15 4.68983E-14
 -1      3135 1.99864E+01 2.38297E-01 2.99896E-04-2.74145E-01-4.02145E-14-1.91493E-14
 -1      3136 2.00336E+01 1.50862E-01 9.66977E-04-1.88168E-01 1.14007E-13-3.20444E-15
 -1      3137 2.00247E+01 1.32085E-01-7.33952E-04-1.60509E-01 9.22011E-14 7.01433E-14
 -1      3138 1.99972E+01 1.88027E-01 1.90783E-04-2.05075E-01 2.41918E-14-4.45195E-14
 -1      3139 2.00287E+01 1.16032E-01 7.89250E-04-1.36615E-01-9.76017E-15 5.61571E-14
 -1      3140 2.00214E+01 1.00632E-01-5.65549E-04-1.15144E-01-1.99983E-13 1.72292E-14
 -1      3141 2.00040E+01 1.45600E-01 1.09328E-04-1.50354E-01 9.24179E-15-8.06082E-14
 -1      3142 2.00238E+01 8.75960E-02 6.32702E-04-9.67669E-02-2.09664E-13 4.32602E-14
 -1      3143 2.00180E+01 7.52342E-02-4.27499E-04-8.03956E-02-6.52041E-14 4.98909E-14
 -1      3144 2.00078E+01 1.10687E-01 5.17517E-05-1.07737E-01-1.43533E-13-3.90933E-14
 -1      3145 2.00194E+01 6.48621E-02 4.98228E-04-6.65110E-02-1.65121E-13-1.44713E-15
 -1      3146 2.00148E+01 5.51298E-02-3.16767E-04-5.42569E-02-1.99664E-13-6.46024E-14
 -1      3147 2.00096E+01 8.25688E-02 1.32111E-05-7.51186E-02-2.11288E-13-1.19355E-13
 -1      3148 2.00154E+01 4.70325E-02 3.85331E-04-4.39627E-02-1.68619E-13-5.32662E-14
 -1      3149 2.00119E+01 3.95113E-02-2.29666E-04-3.49700E-02-1.23529E-13-1.30848E-13
 -1      3150 2.00100E+01 6.03624E-02-1.09525E-05-5.05987E-02-2.51598E-13-2.08931E-13
 -1      3151 2.00120E+01 3.33056E-02 2.92522E-04-2.74935E-02-1.45262E-13-1.05515E-14
 -1      3152 2.00094E+01 2.75997E-02-1.62423E-04-2.10374E-02-1.21364E-13-1.84711E-13
 -1      3153 2.00096E+01 4.31473E-02-2.47148E-05-3.25187E-02-1.64179E-13 8.96482E-14
 -1      3154 2.00092E+01 2.29315E-02 2.17712E-04-1.57331E-02-5.26797E-14-2.08040E-13
 -1      3155 2.00072E+01 1.86846E-02-1.11493E-04-1.12145E-02-9.61201E-14-2.47840E-13
 -1      3156 2.00087E+01 3.00450E-02-3.12475E-05-1.94681E-02-1.10154E-13 5.70873E-14
 -1      3157 2.00069E+01 1.52405E-02 1.58546E-04-7.55457E-03-3.62593E-14-6.27489E-14
 -1      3158 2.00054E+01 1.21421E-02-7.37087E-05-4.48917E-03-1.56779E-15-1.47161E-13
 -1      3159 2.00075E+01 2.02588E-02-3.29697E-05-1.02757E-02 2.88348E-14-2.50902E-14
 -1      3160 2.00050E+01 9.65232E-03 1.12646E-04-2.05118E-03 1.26023E-13-1.16431E-13
 -1      3161 2.00040E+01 7.43891E-03-4.63529E-05-5.54957E-05 1.08125E-13-8.58260E-14
 -1      3162 2.00063E+01 1.30915E-02-3.16685E-05-3.99000E-03 1.00507E-13 8.75465E-14
 -1      3163 2.00035E+01 5.67599E-03 7.77724E-05 1.49160E-03-4.17121E-14-1.22206E-13
 -1      3164 2.00028E+01 4.12716E-03-2.71576E-05 2.71430E-03 2.38260E-14-1.96139E-13
 -1      3165 2.00051E+01 7.94812E-03-2.86470E-05 1.45789E-04 6.06876E-14 1.86533E-13
 -1      3166 2.00024E+01 2.90192E-03 5.19125E-05 3.62406E-03 2.82045E-14-2.90460E-13
 -1      3167 2.00019E+01 1.83541E-03-1.43169E-05 4.29762E-03 6.85710E-14-2.68529E-13
 -1      3168 2.00040E+01 4.32965E-03-2.48365E-05 2.72062E-03-3.41853E-15-1.56539E-14
 -1      3169 2.00015E+01 9.91510E-04 3.32741E-05 4.75891E-03 1.24641E-13-3.59263E-13
 -1      3170 2.00012E+01 2.57766E-04-5.90794E-06 5.04668E-03 1.89464E-13-2.89099E-13
 -1      3171 2.00030E+01 1.82261E-03-2.08659E-05 4.18183E-03 9.43598E-14-4.41677E-13
 -1      3172 2.00008E+01-3.35941E-04 1.98400E-05 5.19651E-03 2.19448E-13-3.58532E-13
 -1      3173 2.00007E+01-8.61033E-04-2.40569E-06 5.21313E-03 2.09076E-13-2.85919E-13
 -1      3174 2.00021E+01 8.79537E-05-1.70469E-05 4.85813E-03 1.85131E-13-4.98056E-13
 -1      3175 2.00004E+01-1.30906E-03 9.54015E-06 5.13172E-03-3.98682E-14-3.96498E-13
 -1      3176 2.00003E+01-1.71337E-03-3.58942E-06 4.95357E-03-2.82432E-13-6.42471E-13
 -1      3177 2.00014E+01-1.16994E-03-1.16286E-05 4.98964E-03-6.83325E-14-6.84902E-13
 -1      3178 2.19464E+01-9.85044E-01-5.92159E-03-1.24178E+00 3.77313E-14 1.09669E-14
 -1      3179 2.16843E+01-6.13128E-01 1.95020E-02-1.31866E+00 3.54599E-14 3.90128E-15
 -1      3180 2.56358E+01-2.54977E-01-1.70954E-03 2.02329E+00 1.24539E-13 2.20221E-13
 -1      3181 2.54951E+01-1.31029E+00-4.70047E-02 1.61584E+00 6.24015E-14 1.95064E-13
 -1      3182 2.47110E+01 4.01636E+00-8.58935E-02-9.25931E-04 9.62494E-14 6.29882E-14
 -1      3183 2.48026E+01 3.61303E+00-6.45506E-02 9.43751E-01 1.39645E-13 1.51164E-13
 -1      3184 2.47752E+01 3.79182E+00-6.44424E-02-9.81636E-01 1.15255E-13-3.76886E-14
 -1      3185 2.53182E+01 1.17443E+00-9.60412E-02-2.47619E+00 4.70179E-14-1.52761E-13
 -1      3186 2.51192E+01 2.44153E+00-2.40023E-02-2.05286E+00 1.20667E-13-1.03945E-13
 -1      3187 2.46120E+01-2.18861E+00 7.77832E-03-7.31234E-01-7.84576E-14-5.01181E-14
 -1      3188 2.49103E+01-1.84189E+00-2.02183E-02-1.27947E+00 9.99201E-16-6.52269E-14
 -1      3189 2.35198E+01-2.13641E+00 2.66737E-02 3.15307E-01-8.76667E-14-1.88998E-14
 -1      3190 2.38925E+01-2.25938E+00-1.34363E-02-1.38657E-01-1.00035E-13-2.41517E-14
 -1      3191 2.43378E+01-2.64391E+00-8.94892E-03 6.39121E-03-9.44991E-14-1.18590E-13
 -1      3192 2.24633E+01-1.57630E+00 2.44569E-02 9.99158E-01-7.94473E-14-7.11117E-14
 -1      3193 2.28296E+01-1.89739E+00-1.29421E-02 7.04094E-01-4.25016E-14-5.37816E-14
 -1      3194 2.29394E+01-2.38828E+00-3.10981E-02 9.78002E-01-5.71700E-14-1.11597E-13
 -1      3195 2.16470E+01-9.40131E-01 1.70882E-02 1.32771E+00 2.80418E-14-1.07345E-13
 -1      3196 2.19542E+01-1.26107E+00-5.19166E-03 1.17304E+00-2.74143E-14-4.12323E-14
 -1      3197 2.18106E+01-1.64000E+00-2.68845E-02 1.45878E+00-7.06712E-14-2.00249E-13
 -1      3198 2.10853E+01-4.14892E-01 1.02970E-02 1.42051E+00-1.69819E-14-6.83031E-14
 -1      3199 2.13166E+01-6.64034E-01-5.53987E-04 1.36741E+00 2.85470E-14-4.50220E-14
 -1      3200 2.10429E+01-9.03866E-01-1.87860E-02 1.60923E+00-4.16897E-15-1.50507E-13
 -1      3201 2.07233E+01-4.82812E-02 5.30322E-03 1.37480E+00-3.12092E-14 7.72323E-14
 -1      3202 2.08898E+01-2.14677E-01 1.56870E-03 1.38685E+00-4.99881E-14 2.39066E-14
 -1      3203 2.05701E+01-3.37106E-01-1.17070E-02 1.57437E+00-6.53500E-14 8.38522E-16
 -1      3204 2.04976E+01 1.75546E-01 2.12927E-03 1.25490E+00 8.21613E-14 2.25879E-13
 -1      3205 2.06168E+01 7.84925E-02 2.36467E-03 1.30482E+00 4.44872E-14 1.16375E-13
 -1      3206 2.03009E+01 4.09868E-02-6.62598E-03 1.44698E+00-5.17303E-14 5.00092E-14
 -1      3207 2.03572E+01 2.91780E-01 2.74753E-04 1.10090E+00 2.76552E-14 1.98769E-13
 -1      3208 2.04444E+01 2.44915E-01 2.58138E-03 1.16989E+00 9.51441E-14 2.48769E-13
 -1      3209 2.01584E+01 2.62257E-01-3.39089E-03 1.27927E+00 5.96562E-14 1.98709E-13
 -1      3210 2.02673E+01 3.35281E-01-7.11923E-04 9.37125E-01 1.12041E-13 7.58241E-14
 -1      3211 2.03335E+01 3.21365E-01 2.56795E-03 1.01280E+00 1.19104E-13 1.08987E-13
 -1      3212 2.00885E+01 3.70264E-01-1.54321E-03 1.09965E+00 1.43842E-13 1.77878E-13
 -1      3213 2.02067E+01 3.33805E-01-1.15765E-03 7.78095E-01-5.99141E-14 4.40711E-14
 -1      3214 2.02587E+01 3.39688E-01 2.45880E-03 8.52683E-01 1.33755E-14 9.65406E-15
 -1      3215 2.00571E+01 4.03679E-01-5.84653E-04 9.23746E-01 1.02966E-13 1.54933E-13
 -1      3216 2.01632E+01 3.07193E-01-1.28534E-03 6.32102E-01-1.25620E-13-2.81938E-14
 -1      3217 2.02051E+01 3.23707E-01 2.29407E-03 7.01031E-01-2.89500E-14-8.67243E-14
 -1      3218 2.00442E+01 3.91926E-01-1.41224E-04 7.60311E-01 5.49703E-16-4.31578E-14
 -1      3219 2.01300E+01 2.68661E-01-1.23825E-03 5.03319E-01-1.49579E-13-1.42598E-13
 -1      3220 2.01641E+01 2.89814E-01 2.08816E-03 5.64245E-01-1.80286E-13-1.32629E-13
 -1      3221 2.00393E+01 3.55594E-01 2.47847E-05 6.14049E-01-8.15722E-14-1.12288E-13
 -1      3222 2.01035E+01 2.26490E-01-1.10511E-03 3.93187E-01-3.25318E-14-5.08623E-14
 -1      3223 2.01314E+01 2.48597E-01 1.85488E-03 4.45253E-01-9.18881E-14-1.01276E-13
 -1      3224 2.00370E+01 3.08245E-01 5.57663E-05 4.86990E-01-1.09087E-13-3.08509E-13
 -1      3225 2.00819E+01 1.85531E-01-9.38940E-04 3.01396E-01 1.06096E-13 2.09642E-14
 -1      3226 2.01046E+01 2.06483E-01 1.60924E-03 3.44692E-01 8.11659E-14 2.27990E-14
 -1      3227 2.00350E+01 2.58313E-01 3.13535E-05 3.79359E-01-3.21594E-14-1.57756E-14
 -1      3228 2.00641E+01 1.48360E-01-7.69782E-04 2.26585E-01-5.02744E-14 8.77894E-14
 -1      3229 2.00824E+01 1.67083E-01 1.36523E-03 2.61756E-01 4.75253E-14 9.31740E-15
 -1      3230 2.00324E+01 2.10684E-01-7.73163E-06 2.90190E-01 4.55697E-14-7.25748E-15
 -1      3231 2.00495E+01 1.16115E-01-6.13388E-04 1.66839E-01 5.95457E-14-8.74087E-16
 -1      3232 2.00641E+01 1.32180E-01 1.13407E-03 1.94818E-01-7.57315E-16 3.79532E-14
 -1      3233 2.00293E+01 1.67906E-01-4.30951E-05 2.17802E-01-7.10066E-14 5.76065E-14
 -1      3234 2.00377E+01 8.90569E-02-4.76870E-04 1.20030E-01-1.60074E-14 1.67196E-14
 -1      3235 2.00491E+01 1.02424E-01 9.23491E-04 1.41855E-01 9.45764E-14 3.58881E-14
 -1      3236 2.00258E+01 1.31041E-01-6.82421E-05 1.60144E-01 3.11593E-14 1.93186E-15
 -1      3237 2.00282E+01 6.69482E-02-3.62316E-04 8.40354E-02-1.39010E-13-8.63560E-14
 -1      3238 2.00369E+01 7.77938E-02 7.37831E-04 1.00738E-01-1.40433E-13-8.36444E-14
 -1      3239 2.00221E+01 1.00249E-01-8.24688E-05 1.15056E-01 1.19952E-14 1.07927E-13
 -1      3240 2.00207E+01 4.92908E-02-2.69040E-04 5.68759E-02-5.52961E-14-2.09341E-15
 -1      3241 2.00273E+01 5.78987E-02 5.78648E-04 6.94133E-02-8.08899E-14-1.76769E-14
 -1      3242 2.00185E+01 7.51762E-02-8.74998E-05 8.04336E-02-1.46181E-13-7.67145E-16
 -1      3243 2.00148E+01 3.54779E-02-1.94963E-04 3.67847E-02-1.98200E-13-9.52380E-14
 -1      3244 2.00197E+01 4.21722E-02 4.45447E-04 4.60053E-02-1.15144E-13-1.71786E-14
 -1      3245 2.00152E+01 5.52089E-02-8.57609E-05 5.43382E-02-1.14233E-13-5.69894E-14
 -1      3246 2.00104E+01 2.48848E-02-1.37440E-04 2.22394E-02-2.60173E-14-1.01048E-14
 -1      3247 2.00139E+01 2.99890E-02 3.36388E-04 2.88704E-02-1.86737E-13-3.75288E-14
 -1      3248 2.00122E+01 3.96283E-02-7.95744E-05 3.50527E-02-1.48421E-13-5.81070E-14
 -1      3249 2.00070E+01 1.69205E-02-9.37399E-05 1.19639E-02-1.70842E-14 1.36343E-13
 -1      3250 2.00095E+01 2.07353E-02 2.48871E-04 1.66114E-02 2.05593E-14 1.60681E-13
 -1      3251 2.00096E+01 2.77077E-02-7.08469E-05 2.11033E-02-1.14598E-13 3.01853E-13
 -1      3252 2.00045E+01 1.10538E-02-6.12993E-05 4.91442E-03-1.21679E-13 2.73314E-13
 -1      3253 2.00062E+01 1.38462E-02 1.79980E-04 8.07133E-03-1.13264E-13 1.79131E-13
 -1      3254 2.00074E+01 1.87657E-02-6.10033E-05 1.12582E-02-1.19970E-13 4.68046E-13
 -1      3255 2.00027E+01 6.82338E-03-3.78548E-05 2.55866E-04 1.49448E-14 2.29954E-13
 -1      3256 2.00039E+01 8.82346E-03 1.26792E-04 2.31415E-03 1.58046E-14 1.72317E-13
 -1      3257 2.00056E+01 1.21931E-02-5.10309E-05 4.51167E-03-4.79524E-14 1.62002E-13
 -1      3258 2.00015E+01 3.83834E-03-2.14777E-05-2.66475E-03 9.54229E-14 4.45780E-14
 -1      3259 2.00022E+01 5.23995E-03 8.65815E-05-1.40065E-03 7.40594E-14 1.69161E-13
 -1      3260 2.00041E+01 7.46289E-03-4.15777E-05 6.07850E-05 5.42471E-14-8.91055E-14
 -1      3261 2.00006E+01 1.77194E-03-1.06290E-05-4.34565E-03 8.22266E-14-1.32382E-13
 -1      3262 2.00010E+01 2.73645E-03 5.69410E-05-3.64531E-03 7.87649E-14-3.42751E-14
 -1      3263 2.00029E+01 4.12905E-03-3.29874E-05-2.72142E-03 9.40580E-14-1.37780E-13
 -1      3264 2.00001E+01 3.50801E-04-6.60379E-06-5.15676E-03-7.77921E-15-3.73214E-13
 -1      3265 2.00003E+01 1.01352E-03 3.54821E-05-4.84966E-03 1.26776E-13-2.01484E-13
 -1      3266 2.00020E+01 1.81893E-03-2.54145E-05-4.31205E-03 1.43317E-13-9.44061E-14
 -1      3267 1.99997E+01-6.28916E-04-1.09729E-05-5.35338E-03-1.03028E-13-2.23224E-13
 -1      3268 1.99998E+01-1.79562E-04 1.43709E-05-5.31599E-03-1.58567E-13-3.35313E-13
 -1      3269 2.00012E+01 2.24356E-04-1.52362E-05-5.06058E-03-1.10556E-13-3.11287E-13
 -1      3270 1.78901E+01 3.08691E+00 6.99110E-04-3.67596E-01 5.80243E-14-1.30129E-13
 -1      3271 1.76782E+01 3.18375E+00-8.58254E-03-2.92755E-01 3.85026E-14-1.34396E-13
 -1      3272 2.00036E+01-2.97501E-03 1.16100E-06 3.59153E-04 1.41976E-13-3.29504E-13
 -1      3273 2.00036E+01-2.97506E-03 8.02216E-07-3.42655E-04 1.07749E-13-1.58425E-13
 -1      3274 2.00018E+01-2.47927E-03-1.11872E-05 4.06349E-03 3.39499E-13-2.94248E-13
 -1      3275 2.00023E+01-2.67187E-03 7.27673E-06 3.61938E-03 3.25171E-13-3.32801E-13
 -1      3276 2.00033E+01-2.90538E-03-7.48109E-08 1.74879E-03 2.15207E-13-1.96152E-13
 -1      3277 2.00035E+01-2.96509E-03 2.96310E-06 1.08607E-03 2.62563E-13-3.55446E-13
 -1      3278 2.00041E+01-2.22678E-03 3.97675E-06 7.33596E-04 1.29833E-13-2.03803E-13
 -1      3279 2.11568E+01-4.38161E+00-6.27190E-02 4.20837E+00-1.30701E-13-2.35447E-13
 -1      3280 1.86268E+01-3.45342E+00 8.54241E-02 4.84766E+00-1.16143E-13-8.11122E-14
 -1      3281 2.13961E+01-2.80080E-01-2.18399E-03-1.27172E+00 4.66209E-14-4.14715E-14
 -1      3282 2.12235E+01 4.50379E-02 1.29840E-02-1.21810E+00 4.25969E-14-2.16427E-14
 -1      3283 2.11460E+01-4.64749E-01-1.71706E-02-1.51285E+00 2.48020E-14-3.71161E-14
 -1      3284 2.52359E+01-4.19877E+00-1.06246E-01 1.37750E+00-1.21021E-13-1.44003E-13
 -1      3285 2.36486E+01-4.32142E+00 9.31395E-02 2.80690E+00-1.63385E-13-1.83221E-13
 -1      3286 1.77537E+01-2.93133E+00 4.01784E-03 4.99060E+00 9.98021E-14 6.61970E-15
 -1      3287 1.55130E+01-1.85366E+00 1.54501E-01 4.89595E+00 1.14825E-13-3.95378E-14
 -1      3288 2.00028E+01-2.74549E-03-2.07371E-06 3.02988E-03 2.20208E-13-1.58218E-13
 -1      3289 2.00031E+01-2.87039E-03 4.84553E-06 2.43970E-03 1.84078E-13-2.08496E-13
 -1      3290 2.00038E+01-2.19601E-03 3.30994E-06 2.14655E-03 2.37420E-13-2.23507E-13
 -1      3291 2.00030E+01-2.10890E-03 3.58768E-06 3.41953E-03 1.75397E-13-9.45335E-14
 -1      3292 9.57460E+00-2.94371E-01 1.26070E-01-2.87905E+00-8.19830E-15-2.22877E-13
 -1      3293 1.13599E+01-1.21599E+00 2.80225E-02-4.49531E+00-4.64975E-14-1.98730E-13
 -1      3294 2.70086E+01-2.13854E+00-1.36987E-01-1.23043E+00-3.78447E-14-2.67581E-13
 -1      3295 2.65156E+01-3.02029E+00 4.89125E-02-2.10042E-01-6.51909E-15-2.79436E-13
 -1      3296 2.68600E+01-1.35032E+00-3.97309E-02 1.72743E+00-9.54722E-14-1.63470E-13
 -1      3297 2.64488E+01-2.47486E+00-2.40447E-02 1.09658E+00-9.88042E-14-1.26656E-13
 -1      3298 2.04969E+01 8.01487E-01 7.58333E-03 1.18353E+00-2.47613E-14 5.00739E-16
 -1      3299 2.05984E+01 4.82303E-01 2.34437E-03 1.37898E+00-1.58509E-14-1.01533E-15
 -1      3300 2.01474E+01 4.45502E-01-1.12678E-02 1.60154E+00-1.24851E-14 9.64766E-15
 -1      3301 1.98951E+01-3.96283E+00 1.41248E-01-5.05551E+00-1.16032E-13-1.13212E-13
 -1      3302 2.20743E+01-4.55404E+00-9.04786E-02-4.08370E+00-9.23359E-14 1.98001E-14
 -1      3303 2.71396E+01 2.22116E+00-4.09151E-02 2.29411E+00 2.18270E-13 2.80526E-13
 -1      3304 2.64536E+01 3.60600E+00-1.73165E-01 1.81517E+00 2.15633E-13 1.93949E-13
 -1      3305 9.46242E+00 7.42984E-02 8.06864E-02-1.36144E+00-6.86950E-16 5.17975E-13
 -1      3306 1.03586E+01-5.58347E-01 9.14048E-02-3.28144E+00 1.05901E-13 6.30385E-13
 -1      3307 1.42460E+01-2.06949E+00 1.56504E-01-5.25634E+00-9.62078E-14-2.64067E-13
 -1      3308 1.70125E+01-3.37737E+00-1.71140E-02-5.58885E+00-1.22125E-13-2.68237E-13
 -1      3309 1.87344E+01-3.02342E+00 7.15405E-02-4.73138E+00-1.39964E-13-1.40915E-13
 -1      3310 2.66201E+01-3.56573E+00-1.12348E-01 4.10533E-01-1.54794E-14 8.19449E-14
 -1      3311 2.57875E+01-4.27428E+00 7.32645E-02 1.79887E+00-1.34892E-14 6.93577E-14
 -1      3312 2.09324E+01 1.08135E+00 3.76220E-03-4.83609E-01 1.09031E-13-2.28166E-14
 -1      3313 2.05448E+01 1.45532E+00-1.37671E-04-4.25564E-01 1.07245E-13-4.84373E-14
 -1      3314 2.03765E+01 1.27743E+00-9.48287E-04-6.96957E-01 8.84025E-14-4.84803E-14
 -1      3315 2.09748E+01 7.92176E-01-3.58887E-03-7.33117E-01 8.12081E-14-3.66861E-15
 -1      3316 2.00003E+01-2.41072E-03-6.20630E-06-4.52044E-03-2.39968E-13-6.78825E-14
 -1      3317 1.80169E+01-3.66886E+00 1.19446E-01-5.23575E+00 1.09066E-13 2.55462E-13
 -1      3318 2.03915E+01-4.41404E+00-7.32694E-03-4.69242E+00 6.21447E-14 1.72078E-13
 -1      3319 1.23012E+01-1.46200E+00 1.13783E-01-4.48333E+00 2.00638E-13 6.25444E-13
 -1      3320 1.50486E+01-2.84486E+00 1.49898E-02-5.40753E+00 1.51545E-13 4.38524E-13
 -1      3321 1.71900E+01-2.67832E+00 8.92091E-02-4.70865E+00 1.51830E-13 2.95926E-13
 -1      3322 2.46350E+01-4.27796E+00 1.04161E-01-2.48392E+00-7.55819E-14 4.47073E-14
 -1      3323 2.58267E+01-3.61471E+00-7.58991E-02-6.96523E-01-4.82828E-14 9.01015E-14
 -1      3324 2.74624E+01-6.58521E-01-9.07920E-02-1.80707E+00-1.05242E-13 1.48589E-13
 -1      3325 2.74699E+01-2.39038E+00 5.92582E-03-8.41992E-01-2.11740E-14 8.81240E-14
 -1      3326 2.65221E+01-2.93455E+00-4.41339E-03-2.84809E-01-1.25720E-14 4.89192E-14
 -1      3327 2.66263E+01-7.39627E-01-5.60629E-02-1.85003E+00-6.68562E-14 1.92443E-13
 -1      3328 8.94560E+00 2.67808E-01 8.67351E-02 7.22769E-01 5.01882E-14-2.41196E-13
 -1      3329 8.77374E+00 1.80867E-01 1.27646E-01-1.32054E+00 2.24196E-14-2.32342E-13
 -1      3330 1.07736E+01 3.29166E-01 1.42173E-01-1.94186E+00-9.36751E-17-2.05919E-13
 -1      3331 1.05173E+01-2.98105E-01 1.18620E-01 3.03842E+00-1.37793E-13 2.19477E-13
 -1      3332 9.63919E+00 2.49159E-01 8.94502E-02 9.13787E-01-1.29814E-13 4.11365E-13
 -1      3333 2.00747E+01 1.94754E+00-1.37896E-04 3.69831E-01-3.86682E-14-6.79837E-14
 -1      3334 2.02367E+01 1.67694E+00 1.63918E-03 5.20787E-01-3.85055E-14-3.53990E-14
 -1      3335 1.95191E+01 2.29308E+00-4.87816E-03 4.05216E-01-2.92984E-14-1.00383E-13
 -1      3336 1.75580E+01 3.26954E+00-2.93780E-03-1.30019E-01 4.49129E-14-1.45774E-13
 -1      3337 1.75348E+01 3.28558E+00-3.32482E-03-2.53363E-02 5.00067E-14-1.45612E-13
 -1      3338 1.75451E+01 2.99951E+00 1.06575E-02-2.73984E-01 3.76040E-14-1.41133E-13
 -1      3339 1.96085E+01 1.80634E+00 7.75903E-04-7.07259E-01 8.23697E-14-9.36514E-14
 -1      3340 1.93485E+01 2.25621E+00 1.59777E-03-4.92704E-01 9.29664E-14-9.84779E-14
 -1      3341 1.89195E+01 2.47994E+00-8.35524E-03-5.23644E-01 8.26320E-14-9.72047E-14
 -1      3342 2.19885E+01-4.42855E+00 6.95081E-02-3.92637E+00 4.47871E-14-9.69147E-15
 -1      3343 2.31625E+01-4.40338E+00-4.24902E-02-2.94906E+00-6.51180E-14-2.14123E-13
 -1      3344 2.09765E+01-3.73878E+00 4.01034E-02-3.88112E+00 5.90153E-14 1.09357E-14
 -1      3345 2.00014E+01-2.44048E-03 7.65349E-06-4.39791E-03-2.60714E-13-1.17232E-13
 -1      3346 2.00005E+01-2.00341E-03-3.89598E-06-4.72888E-03-3.56312E-13-4.98286E-14
 -1      3347 2.00003E+01-1.67961E-03-1.18101E-05-4.96056E-03-2.49000E-13-1.88886E-14
 -1      3348 2.12313E+01-3.63714E+00-4.95125E-02 3.77742E+00 7.72403E-14 9.23185E-14
 -1      3349 1.96704E+01-3.26374E+00 9.05658E-02 4.56666E+00 9.52259E-14 2.58960E-14
 -1      3350 1.87737E+01-2.38051E+00 2.83962E-02 4.21549E+00 1.17673E-13 7.03257E-15
 -1      3351 1.86609E+01 2.77798E+00-5.99727E-03 4.11903E-01-1.31371E-14-1.32154E-13
 -1      3352 1.90772E+01 2.55600E+00-5.76981E-04 4.10065E-01-2.49288E-14-1.03026E-13
 -1      3353 1.92313E+01 2.28990E+00 4.17080E-03 5.50938E-01-1.01832E-14-1.08354E-13
 -1      3354 2.64891E+01 4.15283E+00-1.17706E-01 1.68183E+00-2.65482E-13-6.08333E-14
 -1      3355 2.44363E+01-3.63901E+00-4.33166E-02 1.47713E+00 3.64292E-14 7.43416E-14
 -1      3356 2.53071E+01-3.16726E+00 2.33488E-02 3.42550E-01 2.32832E-14 8.49286E-14
 -1      3357 2.60559E+01-3.37455E+00-2.97174E-02-5.10013E-02-1.00855E-13-3.07716E-13
 -1      3358 2.59373E+01-2.82012E+00-2.27250E-02-3.35573E-01 5.63091E-15 8.16326E-14
 -1      3359 2.63365E+01-1.96512E+00-6.02429E-02-1.38472E+00-1.52916E-14 1.46095E-13
 -1      3360 1.98237E+01 1.75243E+00-5.04207E-03 6.94243E-01-3.25340E-14-5.60640E-14
 -1      3361 1.46919E+01-1.19948E+00 6.25373E-02 4.27563E+00 9.50073E-14-7.54119E-14
 -1      3362 1.19269E+01 1.61438E-01 8.91344E-03 2.64306E+00 5.33480E-14-1.99070E-13
 -1      3363 1.03662E+01 4.02836E-01 1.52042E-01 1.82771E+00 4.80553E-14-2.42195E-13
 -1      3364 1.10631E+01 7.98361E-01 8.06056E-02 7.38562E-01 3.07358E-14-2.24286E-13
 -1      3365 2.24393E+01-3.85259E+00 2.98344E-02 2.98790E+00-1.25826E-13-1.81230E-13
 -1      3366 2.24128E+01-1.34164E+00 2.64889E-02-1.13911E+00 1.15598E-14 6.08159E-14
 -1      3367 2.18115E+01-1.32975E+00-3.08508E-02-1.52540E+00-1.45954E-14 2.84618E-14
 -1      3368 2.27492E+01-1.70787E+00-1.14022E-02-9.04454E-01-5.72979E-15 9.42948E-14
 -1      3369 2.62934E+01 4.65167E+00-1.09194E-01-1.04074E+00 1.84644E-13-6.52429E-14
 -1      3370 2.58391E+01-1.94358E+00-3.75916E-02 1.13503E+00 4.63882E-14 2.44367E-13
 -1      3371 2.48472E+01-1.86707E+00-1.11488E-02 1.02464E+00 1.17250E-14 1.72430E-13
 -1      3372 2.45635E+01-2.17852E+00-4.87831E-03 5.09589E-01-2.46917E-14 1.78850E-13
 -1      3373 2.61605E+01-2.84882E+00 1.75792E-04 3.48018E-01-1.06885E-14 1.67005E-13
 -1      3374 2.55434E+01 3.43259E+00-1.21567E-01 1.57191E+00 1.99715E-13 1.56642E-13
 -1      3375 2.55670E+01-2.58532E+00-5.83111E-02-7.92234E-01-1.63576E-14-2.52212E-13
 -1      3376 2.54226E+01-1.66506E+00-2.74625E-02-1.62215E+00-2.97817E-14-1.11827E-13
 -1      3377 2.55541E+01-7.11398E-01-5.39110E-03-1.95701E+00-3.79419E-14-1.41985E-13
 -1      3378 1.81737E+01 2.89812E+00-9.93962E-03-4.72830E-01 6.67170E-14-1.22156E-13
 -1      3379 1.79914E+01 2.73632E+00 7.64111E-03-5.63908E-01 5.03320E-14-1.10795E-13
 -1      3380 1.85246E+01 2.73119E+00 2.47047E-03-4.95029E-01 8.09556E-14-1.11184E-13
 -1      3381 2.00004E+01-1.27232E-03-3.26537E-06-5.08731E-03-2.31103E-13-9.92728E-14
 -1      3382 2.00002E+01-9.52663E-04-6.19075E-06-5.22619E-03-1.32003E-13-2.14556E-13
 -1      3383 2.00018E+01-1.56412E-03 1.13708E-05-4.75961E-03-2.32184E-13-8.31609E-14
 -1      3384 2.00031E+01-2.85990E-03 5.74322E-06-2.44218E-03-8.71983E-14 1.06498E-14
 -1      3385 2.00028E+01-2.74687E-03-3.99380E-06-3.03005E-03 2.04896E-14-6.60582E-15
 -1      3386 2.00004E+01-2.26204E-03 7.83541E-06 4.61612E-03-4.65316E-14-4.80744E-13
 -1      3387 1.39665E+01-1.15747E+00 1.20473E-01-4.38043E+00-6.28733E-14-2.34777E-13
 -1      3388 1.04564E+01 4.95040E-01 1.25141E-01-1.11200E-01-1.00434E-13 4.41494E-13
 -1      3389 1.15908E+01 5.36876E-01 4.80309E-02-1.04527E+00-3.89975E-14 3.88467E-13
 -1      3390 1.17269E+01 5.95557E-01 2.05296E-02 8.80988E-01-1.06869E-13 3.60920E-13
 -1      3391 2.00041E+01-2.22430E-03 3.98210E-06-7.30610E-04-1.21760E-14-4.54029E-14
 -1      3392 2.00035E+01-2.96205E-03 3.54381E-06-1.08122E-03 1.31384E-13 5.35734E-14
 -1      3393 2.00033E+01-2.90518E-03-2.01295E-06-1.75610E-03 2.21463E-14 3.89585E-14
 -1      3394 2.64345E+01 6.65418E-01-4.70927E-02 2.11694E+00 1.52801E-13 2.51882E-13
 -1      3395 2.00176E+01 1.15407E+00-6.22808E-03 1.10889E+00-3.36477E-14-2.69343E-15
 -1      3396 2.74854E+01-3.18321E-01-7.18534E-02 2.27822E+00-1.46841E-13-1.69691E-13
 -1      3397 1.74225E+01-2.86993E+00 5.18867E-02 4.87775E+00-1.00083E-13-1.17927E-13
 -1      3398 1.60995E+01-1.96285E+00 3.09169E-02 4.49401E+00-7.15608E-14-1.60358E-13
 -1      3399 1.91221E+01-2.80629E+00 4.87313E-02 4.06934E+00-1.47195E-13-9.34062E-14
 -1      3400 2.54518E+01-3.30347E+00 1.39938E-02 3.11519E-01-9.19030E-14-2.41987E-13
 -1      3401 2.44710E+01-2.65073E+00-3.81341E-03-1.86408E-01-6.73129E-14 2.09135E-13
 -1      3402 2.38590E+01-2.27115E+00-1.76804E-02-1.49088E-01-4.84857E-14 1.55302E-13
 -1      3403 2.00012E+01-2.27623E-03 5.90325E-06 4.55473E-03 4.19189E-14-4.73991E-13
 -1      3404 2.00019E+01-1.84638E-03 5.18332E-06 4.47743E-03 6.60677E-14-6.98823E-13
 -1      3405 1.26374E+01-6.06584E-01 9.72915E-02 3.40609E+00-7.25323E-14 1.14062E-13
 -1      3406 2.69546E+01 2.87519E+00-9.34346E-02 2.46748E+00-1.78940E-13-1.03688E-13
 -1      3407 2.64743E+01 3.03175E+00-1.23435E-01-2.25721E+00 1.74971E-13-6.62526E-14
 -1      3408 2.54259E+01 3.24342E+00-1.11987E-01-1.90414E+00 1.53870E-13-9.00911E-14
 -1      3409 2.58763E+01-4.14722E+00-2.67508E-02-1.20217E+00-1.13253E-13-3.15893E-13
 -1      3410 1.83030E+01 2.99010E+00-9.98349E-04 3.52889E-01 1.08072E-14-1.12344E-13
 -1      3411 1.84040E+01 2.75521E+00 4.04742E-03 4.81772E-01 7.69897E-15-9.59370E-14
 -1      3412 1.79955E+01 3.14154E+00-7.40160E-03 3.05569E-01 2.34235E-14-8.07701E-14
 -1      3413 2.50026E+01-3.18413E+00-2.10555E-02-4.80685E-01-6.86144E-14 1.32902E-13
 -1      3414 2.64679E+01-2.78427E-01-3.11288E-02-2.06667E+00-5.53273E-14-2.85202E-13
 -1      3415 2.50195E+01 2.47461E+00-1.08351E-02 1.91138E+00 1.59608E-13 1.48433E-13
 -1      3416 2.34812E+01-2.10071E+00 1.88913E-02-5.73742E-01-2.76295E-14 1.34907E-13
 -1      3417 2.51456E+01 1.24073E+00-9.71153E-02 2.17267E+00 1.53835E-13 2.02841E-13
 -1      3418 2.11193E+01 2.84600E-01-2.07372E-03-1.07819E+00 5.63244E-14-3.51051E-15
 -1      3419 2.10226E+01 5.74356E-01 8.64586E-03-9.22411E-01 7.28736E-14-3.19785E-15
 -1      3420 2.07198E+01 7.73508E-01-6.05514E-04-9.25399E-01 7.02452E-14-1.22014E-14
 -1      3421 2.08199E+01 2.26424E-01-1.02009E-02-1.27751E+00 5.47995E-14-3.12105E-14
 -1      3422 2.00024E+01-2.70422E-03 7.86368E-06-3.53571E-03-3.32457E-14-3.53346E-14
 -1      3423 2.00019E+01-2.51716E-03 9.64258E-07-3.97445E-03-1.60137E-13 1.22592E-13
 -1      3424 2.00021E+01-2.06118E-03-1.91384E-06-4.21614E-03-2.79760E-14 1.35220E-13
 -1      3425 2.00031E+01-2.15321E-03-4.59212E-07-3.34826E-03 6.66634E-14 1.60351E-15
 -1      3426 2.44096E+01-4.23026E+00 1.91339E-02 2.34746E+00 2.71241E-14 6.54025E-14
 -1      3427 2.68143E+01 1.17386E+00-1.25897E-01 2.51959E+00-9.72000E-14-1.26357E-14
 -1      3428 1.27771E+01-7.13786E-01 1.20355E-01-3.57056E+00 1.96881E-13 5.34517E-13
 -1      3429 2.30925E+01-3.95390E+00 2.02504E-02-2.92695E+00-8.29510E-14 4.14269E-14
 -1      3430 2.75358E+01 2.37853E+00-1.30272E-01-2.40261E+00 1.85033E-13-1.17378E-13
 -1      3431 1.12995E+01 7.83584E-01 4.74665E-02-1.10752E+00 1.76352E-14-1.91874E-13
 -1      3432 1.19580E+01 3.31492E-01 3.08323E-02-2.58740E+00-1.51424E-14-1.80307E-13
 -1      3433 2.31721E+01-3.67192E+00 8.64198E-02 2.76973E+00 7.41325E-14 6.58557E-14
 -1      3434 2.01779E+01-9.21453E-01 2.58056E-02 2.55284E+00 1.23711E-14 2.82760E-15
 -1      3435 2.06592E+01-1.55283E+00 2.05562E-02 2.67032E+00 1.15099E-14-5.94837E-15
 -1      3436 2.11544E+01-2.32853E+00 5.00969E-02 3.00505E+00 4.03555E-14 3.83294E-14
 -1      3437 2.19488E+01-3.07215E+00 2.01249E-02 2.94641E+00 7.28896E-14 5.41745E-14
 -1      3438 2.01725E+01-1.49264E+00 4.18133E-03-2.57383E+00 8.23590E-14 4.32523E-14
 -1      3439 1.97906E+01-9.50152E-01 2.05208E-02-2.46217E+00 1.49096E-13 1.00113E-13
 -1      3440 1.96335E+01-5.54575E-01 1.34113E-02-2.23370E+00 1.03269E-13 1.56387E-13
 -1      3441 1.94076E+01-2.14379E-01 3.28035E-03-2.10042E+00 1.23721E-13 1.48223E-13
 -1      3442 1.88950E+01-6.73025E-01-2.07494E-02-2.55728E+00 1.50952E-13 3.16130E-13
 -1      3443 1.94094E+01 5.05810E-02 1.14950E-02-1.89138E+00 8.67690E-14 4.70397E-14
 -1      3444 1.93057E+01 2.47175E-01-1.52555E-03-1.75883E+00 4.51663E-14 4.38894E-14
 -1      3445 1.87903E+01 4.19894E-02-6.99709E-03-2.06303E+00 6.47694E-14 9.10534E-14
 -1      3446 1.93715E+01 3.97407E-01 7.11573E-03-1.58976E+00 4.62462E-14 7.17205E-14
 -1      3447 1.93396E+01 4.98707E-01-3.05771E-03-1.46680E+00 1.03316E-13 3.70716E-14
 -1      3448 1.88748E+01 4.39955E-01-1.65318E-03-1.67217E+00 5.81829E-14 4.65872E-14
 -1      3449 1.94280E+01 5.70158E-01 4.48724E-03-1.32893E+00 1.72286E-13 3.61333E-14
 -1      3450 1.94313E+01 6.08530E-01-3.39916E-03-1.21776E+00 1.65057E-13 1.07292E-13
 -1      3451 1.90305E+01 6.41028E-01 9.19096E-04-1.36395E+00 1.28600E-13 5.15446E-14
 -1      3452 1.95215E+01 6.29080E-01 2.91288E-03-1.10350E+00 1.03315E-13 8.61515E-14
 -1      3453 1.95391E+01 6.28408E-01-3.29136E-03-1.00404E+00 4.50508E-14 1.46469E-13
 -1      3454 1.92047E+01 7.13927E-01 2.01484E-03-1.11590E+00 1.12290E-13 5.37126E-14
 -1      3455 1.96214E+01 6.18272E-01 2.02215E-03-9.07935E-01-4.24381E-14 1.95681E-13
 -1      3456 1.96426E+01 5.95199E-01-3.01000E-03-8.19896E-01-7.78182E-14 1.67212E-13
 -1      3457 1.93705E+01 7.07507E-01 2.29386E-03-9.11274E-01 3.61991E-14 5.39481E-14
 -1      3458 1.97132E+01 5.68262E-01 1.53128E-03-7.38534E-01-8.19258E-14 1.12967E-13
 -1      3459 1.97325E+01 5.33952E-01-2.65627E-03-6.61658E-01-3.54348E-14 1.22349E-13
 -1      3460 1.95161E+01 6.55451E-01 2.18627E-03-7.39489E-01-1.21761E-13 1.48750E-13
 -1      3461 1.97907E+01 4.99363E-01 1.25062E-03-5.92915E-01 1.19075E-15 1.07489E-13
 -1      3462 1.98064E+01 4.61012E-01-2.28377E-03-5.26855E-01 4.86316E-14 7.72685E-14
 -1      3463 1.96375E+01 5.80345E-01 1.90916E-03-5.94320E-01-4.98898E-14 1.05285E-13
 -1      3464 1.98528E+01 4.24514E-01 1.07031E-03-4.69230E-01 8.67394E-15 3.75280E-14
 -1      3465 1.98644E+01 3.86516E-01-1.92163E-03-4.13436E-01-4.90482E-15 8.81100E-14
 -1      3466 1.97354E+01 4.96917E-01 1.57960E-03-4.71927E-01-1.95760E-14 3.24565E-14
 -1      3467 1.99006E+01 3.51500E-01 9.32993E-04-3.65694E-01-1.57286E-14 6.39105E-14
 -1      3468 1.99087E+01 3.16341E-01-1.58613E-03-3.19394E-01-2.74070E-14 9.33353E-14
 -1      3469 1.98119E+01 4.14286E-01 1.25821E-03-3.69605E-01-2.84846E-15 4.42687E-14
 -1      3470 1.99363E+01 2.84630E-01 8.12439E-04-2.80389E-01-4.13780E-14 9.77396E-14
 -1      3471 1.99414E+01 2.53541E-01-1.28590E-03-2.42636E-01-2.20786E-15-2.27481E-15
 -1      3472 1.98704E+01 3.37698E-01 9.72645E-04-2.85098E-01 1.97221E-14 4.59568E-14
 -1      3473 1.99620E+01 2.25943E-01 6.99300E-04-2.11250E-01-2.69196E-14 3.34652E-14
 -1      3474 1.99649E+01 1.99354E-01-1.02462E-03-1.80993E-01 5.63950E-14 1.17629E-13
 -1      3475 1.99140E+01 2.69807E-01 7.32583E-04-2.16298E-01 2.47715E-14 9.64863E-14
 -1      3476 1.99800E+01 1.76050E-01 5.92123E-04-1.56136E-01-7.56763E-14-2.00001E-14
 -1      3477 1.99814E+01 1.53903E-01-8.02647E-04-1.32298E-01-1.65631E-13-1.49473E-13
 -1      3478 1.99458E+01 2.11582E-01 5.38332E-04-1.61140E-01-1.41813E-13 9.58171E-14
 -1      3479 1.99921E+01 1.34702E-01 4.92340E-04-1.12931E-01-1.79439E-16-2.06094E-13
 -1      3480 1.99925E+01 1.16665E-01-6.18046E-04-9.44706E-02-2.15886E-14-1.00056E-13
 -1      3481 1.99684E+01 1.62952E-01 3.85685E-04-1.17623E-01-6.73461E-14-2.93698E-13
 -1      3482 1.99998E+01 1.01177E-01 4.01832E-04-7.96336E-02-2.37672E-13-2.10651E-14
 -1      3483 1.99996E+01 8.67784E-02-4.67502E-04-6.55867E-02-3.17847E-13-1.90005E-13
 -1      3484 1.99840E+01 1.23236E-01 2.68653E-04-8.38527E-02-1.03595E-13-1.42801E-13
 -1      3485 2.00045E+01 7.45253E-02 3.21938E-04-5.44211E-02-2.30443E-13-1.43850E-13
 -1      3486 2.00039E+01 6.32442E-02-3.46975E-04-4.39272E-02-1.12844E-13 1.51505E-14
 -1      3487 1.99944E+01 9.14449E-02 1.80934E-04-5.80925E-02-2.13641E-13-1.23337E-13
 -1      3488 2.00070E+01 5.37277E-02 2.53198E-04-3.56835E-02-1.36247E-13 8.63983E-14
 -1      3489 2.00061E+01 4.50493E-02-2.52185E-04-2.79980E-02-1.47236E-13 5.23341E-14
 -1      3490 2.00010E+01 6.64706E-02 1.16655E-04-3.87946E-02-1.05783E-13-7.30370E-14
 -1      3491 2.00080E+01 3.77923E-02 1.95431E-04-2.20389E-02-1.29043E-13 1.70292E-13
 -1      3492 2.00071E+01 3.12381E-02-1.78961E-04-1.65341E-02-8.15629E-14 1.53547E-13
 -1      3493 2.00048E+01 4.72056E-02 7.06835E-05-2.46178E-02-8.43590E-14 2.28229E-13
 -1      3494 2.00080E+01 2.58065E-02 1.47937E-04-1.23296E-02-2.39444E-15 1.43658E-13
 -1      3495 2.00071E+01 2.09502E-02-1.23442E-04-8.48787E-03 7.61545E-14 1.34350E-13
 -1      3496 2.00068E+01 3.26145E-02 3.87136E-05-1.44280E-02-6.08238E-14 2.12393E-13
 -1      3497 2.00074E+01 1.69631E-02 1.09695E-04-5.60697E-03 1.34045E-13 2.12785E-14
 -1      3498 2.00066E+01 1.34360E-02-8.21866E-05-3.01104E-03 2.20923E-13 2.59487E-14
 -1      3499 2.00074E+01 2.17695E-02 1.72383E-05-7.28733E-03 1.33013E-13-4.67795E-14
 -1      3500 2.00065E+01 1.05677E-02 7.95420E-05-1.11007E-03 1.17457E-13 3.02000E-14
 -1      3501 2.00058E+01 8.05757E-03-5.22437E-05 5.69542E-04-7.21469E-14-2.07917E-14
 -1      3502 2.00072E+01 1.38652E-02 3.46701E-06-2.43720E-03 1.01800E-13-2.44566E-13
 -1      3503 2.00055E+01 6.03433E-03 5.62992E-05 1.75865E-03-1.61142E-13-3.44047E-14
 -1      3504 2.00049E+01 4.28104E-03-3.11764E-05 2.77612E-03-1.06445E-13-1.83702E-13
 -1      3505 2.00065E+01 8.21724E-03-4.86950E-06 7.23738E-04-1.09556E-13-2.93198E-13
 -1      3506 2.00044E+01 2.87582E-03 3.88402E-05 3.45738E-03-2.03340E-14-2.97246E-13
 -1      3507 2.00039E+01 1.66533E-03-1.62979E-05 4.00339E-03 1.37355E-13-3.87963E-13
 -1      3508 2.00056E+01 4.25383E-03-9.35713E-06 2.66128E-03-1.87719E-13-2.54114E-13
 -1      3509 2.00034E+01 6.85755E-04 2.48190E-05 4.32996E-03 1.51059E-13-5.39092E-13
 -1      3510 2.00029E+01-1.46277E-04-3.25783E-06 4.53653E-03 2.38074E-14-7.00398E-13
 -1      3511 2.00045E+01 1.50502E-03-1.12285E-05 3.72670E-03-1.52721E-14-5.35990E-13
 -1      3512 2.00026E+01-7.23831E-04 1.41430E-05 4.56889E-03-5.99346E-14-7.66578E-13
 -1      3513 2.00022E+01-1.35608E-03-1.00537E-06 4.55125E-03-1.39058E-13-7.76145E-13
 -1      3514 2.00029E+01-1.52310E-03-8.43082E-06 4.09422E-03 6.12468E-14-5.34777E-13
 -1      3515 2.00036E+01-2.97596E-04-1.65080E-05 4.12181E-03-2.90555E-14-8.16775E-13
 -1      3516 2.48202E+01-3.26716E+00 8.19169E-03 4.88266E-01-8.78626E-14-1.93017E-13
 -1      3517 2.40675E+01-3.26871E+00 3.25684E-02 1.07270E+00-1.59472E-13-1.39903E-13
 -1      3518 2.04132E+01-6.38734E-01 1.21450E-02 1.85564E+00-5.54306E-14-6.43611E-14
 -1      3519 2.07220E+01-9.94975E-01 8.47106E-03 1.86577E+00-4.26391E-14-1.53412E-13
 -1      3520 2.00463E+01-1.08329E-01 4.68143E-03 1.67395E+00-1.78236E-13-6.36115E-16
 -1      3521 2.02325E+01-3.46905E-01 7.65509E-03 1.73596E+00-8.97781E-14-9.67067E-14
 -1      3522 1.97734E+01-4.62513E-01-1.48255E-02 1.98067E+00-8.36819E-14-1.40177E-13
 -1      3523 1.98784E+01 2.20820E-01 9.51802E-04 1.46187E+00-2.94293E-14 1.85117E-15
 -1      3524 1.99828E+01 7.89928E-02 6.06407E-03 1.54593E+00-1.25038E-13-2.59588E-14
 -1      3525 1.95671E+01 5.08570E-02-7.62179E-03 1.69850E+00-1.23107E-13-2.11956E-14
 -1      3526 1.98220E+01 3.98696E-01-8.98392E-04 1.25010E+00 5.27348E-14 3.54674E-14
 -1      3527 1.98768E+01 3.26667E-01 4.46013E-03 1.34115E+00 1.03443E-14 3.15041E-14
 -1      3528 1.95194E+01 3.52299E-01-3.19077E-03 1.43503E+00-2.40196E-14-1.82665E-13
 -1      3529 1.98226E+01 4.72967E-01-1.75473E-03 1.05082E+00 1.62542E-13 2.14711E-14
 -1      3530 1.98498E+01 4.47511E-01 3.27763E-03 1.14090E+00 1.00733E-13 5.88314E-14
 -1      3531 1.95514E+01 5.04095E-01-7.94031E-04 1.20004E+00 6.16110E-14-1.80005E-13
 -1      3532 1.98483E+01 4.81319E-01-2.06148E-03 8.69257E-01 9.43984E-14 3.69252E-14
 -1      3533 1.98614E+01 4.84777E-01 2.49806E-03 9.53925E-01 1.81346E-13 9.37965E-14
 -1      3534 1.96175E+01 5.56745E-01 3.78682E-04 9.93516E-01 1.29575E-13-1.44752E-14
 -1      3535 1.98818E+01 4.51048E-01-2.06910E-03 7.07754E-01-1.98522E-14-4.51589E-14
 -1      3536 1.98884E+01 4.70908E-01 2.00532E-03 7.84472E-01 2.94356E-14 1.64481E-14
 -1      3537 1.96928E+01 5.47834E-01 8.73148E-04 8.13291E-01 9.11477E-14-5.28417E-14
 -1      3538 1.99143E+01 4.00883E-01-1.91902E-03 5.67136E-01-1.60181E-14-9.24057E-14
 -1      3539 1.99183E+01 4.28696E-01 1.67767E-03 6.34631E-01-8.77911E-15-4.23367E-14
 -1      3540 1.97642E+01 5.03816E-01 9.97595E-04 6.57381E-01-1.87253E-15-3.56933E-14
 -1      3541 1.99421E+01 3.43022E-01-1.69375E-03 4.47144E-01-9.12095E-14-1.51699E-13
 -1      3542 1.99453E+01 3.73369E-01 1.43664E-03 5.05039E-01-6.94177E-14-1.39093E-13
 -1      3543 1.98261E+01 4.42619E-01 9.36523E-04 5.24062E-01 1.05737E-14-8.92705E-14
 -1      3544 1.99641E+01 2.84967E-01-1.44273E-03 3.46709E-01 4.93950E-14-1.37617E-13
 -1      3545 1.99672E+01 3.14577E-01 1.23861E-03 3.95261E-01-5.88325E-14-1.03840E-13
 -1      3546 1.98767E+01 3.75834E-01 7.97113E-04 4.11633E-01-7.50024E-14-3.14269E-14
 -1      3547 1.99804E+01 2.30992E-01-1.19494E-03 2.64192E-01 1.28689E-14 3.26668E-14
 -1      3548 1.99836E+01 2.58057E-01 1.06265E-03 3.04076E-01 1.01405E-13 3.28767E-14
 -1      3549 1.99162E+01 3.10533E-01 6.37284E-04 3.18264E-01 1.38178E-14-2.84247E-14
 -1      3550 1.99920E+01 1.83233E-01-9.66446E-04 1.97604E-01-1.23190E-13-2.36526E-14
 -1      3551 1.99952E+01 2.06901E-01 9.01069E-04 2.29742E-01-9.61057E-14-1.09276E-14
 -1      3552 1.99461E+01 2.50685E-01 4.85961E-04 2.41959E-01-1.99135E-14 5.53791E-14
 -1      3553 1.99996E+01 1.42463E-01-7.65117E-04 1.44810E-01 4.78680E-14 5.12744E-14
 -1      3554 2.00028E+01 1.62490E-01 7.52584E-04 1.70231E-01-2.27960E-14 7.52018E-14
 -1      3555 1.99679E+01 1.98197E-01 3.55643E-04 1.80616E-01-7.13823E-14-6.60849E-14
 -1      3556 2.00044E+01 1.08629E-01-5.93626E-04 1.03675E-01-8.06782E-14 2.10292E-13
 -1      3557 2.00073E+01 1.25130E-01 6.18206E-04 1.23424E-01 3.58630E-14 1.78736E-13
 -1      3558 1.99833E+01 1.53657E-01 2.49901E-04 1.32112E-01-3.50827E-14 1.01095E-13
 -1      3559 2.00070E+01 8.12103E-02-4.51480E-04 7.21867E-02-1.40277E-13 1.85253E-13
 -1      3560 2.00096E+01 9.44997E-02 4.99169E-04 8.72527E-02-1.32992E-13 1.61623E-13
 -1      3561 1.99937E+01 1.16854E-01 1.67775E-04 9.44003E-02-9.14644E-14 2.64180E-13
 -1      3562 2.00082E+01 5.94571E-02-3.36378E-04 4.85211E-02-8.43103E-14-2.45648E-14
 -1      3563 2.00105E+01 6.99412E-02 3.96084E-04 5.98004E-02-6.16663E-14 8.01399E-14
 -1      3564 2.00004E+01 8.71327E-02 1.06290E-04 6.55827E-02-9.39617E-14 1.35199E-13
 -1      3565 2.00083E+01 4.25374E-02-2.45124E-04 3.10796E-02-2.78952E-13 1.47455E-13
 -1      3566 2.00103E+01 5.06479E-02 3.08758E-04 3.93556E-02-2.40174E-13 2.38200E-14
 -1      3567 2.00044E+01 6.36202E-02 6.18294E-05 4.39571E-02-2.04134E-13 2.36528E-13
 -1      3568 2.00079E+01 2.96299E-02-1.74223E-04 1.85003E-02-2.13584E-13 3.40998E-13
 -1      3569 2.00095E+01 3.57838E-02 2.36311E-04 2.44385E-02-2.62663E-13 2.35329E-13
 -1      3570 2.00066E+01 4.53795E-02 3.08425E-05 2.80418E-02-3.03528E-13 3.37839E-13
 -1      3571 2.00070E+01 1.99741E-02-1.20244E-04 9.65086E-03-1.40530E-13 3.59666E-13
 -1      3572 2.00084E+01 2.45521E-02 1.77390E-04 1.38023E-02-1.30664E-13 3.45988E-13
 -1      3573 2.00074E+01 3.14982E-02 1.01700E-05 1.65799E-02-2.35482E-13 1.33022E-13
 -1      3574 2.00060E+01 1.28957E-02-8.00156E-05 3.61060E-03 1.36780E-14 5.68743E-14
 -1      3575 2.00071E+01 1.62320E-02 1.30386E-04 6.42149E-03 2.83171E-14 2.31916E-13
 -1      3576 2.00073E+01 2.11384E-02-2.84147E-06 8.52954E-03-2.50053E-15 3.42457E-14
 -1      3577 2.00050E+01 7.81376E-03-5.07629E-05-3.53049E-04 7.49281E-15 1.28119E-13
 -1      3578 2.00058E+01 1.01946E-02 9.36291E-05 1.47075E-03-1.03280E-14 9.06396E-14
 -1      3579 2.00068E+01 1.35608E-02-1.03210E-05 3.04580E-03 2.28691E-14 9.46062E-14
 -1      3580 2.00040E+01 4.23824E-03-2.99888E-05-2.80994E-03 6.62638E-14 1.73907E-13
 -1      3581 2.00047E+01 5.90364E-03 6.55505E-05-1.69993E-03 6.22413E-14 1.12380E-13
 -1      3582 2.00059E+01 8.13019E-03-1.40555E-05-5.42440E-04-1.23502E-14 2.55047E-13
 -1      3583 2.00030E+01 1.75957E-03-1.61580E-05-4.19330E-03 1.66715E-13 1.01611E-13
 -1      3584 2.00036E+01 2.91036E-03 4.47865E-05-3.59091E-03 2.04798E-13 9.77455E-14
 -1      3585 2.00049E+01 4.31312E-03-1.50060E-05-2.75636E-03 1.79586E-13 2.69003E-13
 -1      3586 2.00022E+01 2.88787E-05-9.28267E-06-4.82733E-03-8.86774E-14-7.32319E-14
 -1      3587 2.00026E+01 8.42121E-04 2.99464E-05-4.57635E-03 4.67302E-14 1.09947E-13
 -1      3588 2.00039E+01 1.66272E-03-1.38522E-05-3.99331E-03 6.80754E-14 3.16127E-13
 -1      3589 2.00015E+01-7.26497E-04 2.50185E-05-5.05761E-03-2.25470E-13-2.71527E-13
 -1      3590 2.00038E+01-2.18551E-03 3.27893E-06-2.16053E-03-7.41874E-15 1.03915E-13
 -1      3591 2.00047E+01-1.42104E-03-3.20617E-06 1.07938E-03-4.62781E-14-2.01824E-13
 -1      3592 2.00048E+01-1.42645E-03-4.25787E-06 3.74498E-04-7.90236E-14-2.10409E-13
 -1      3593 1.34822E+01-2.91541E-01 9.25657E-02-3.62072E+00-4.99305E-14-1.83187E-13
 -1      3594 1.55462E+01-1.42949E+00-3.71679E-02-4.40701E+00-8.77319E-14-2.28859E-13
 -1      3595 1.39085E+01 2.83449E-01 7.90484E-02-2.80711E+00-3.79731E-14-1.69417E-13
 -1      3596 1.88752E+01 2.27914E+00-5.45426E-03 6.91168E-01 4.48366E-15-8.95273E-14
 -1      3597 1.93507E+01 2.02771E+00 1.93964E-03 6.97222E-01-7.58508E-15-1.01247E-13
 -1      3598 1.95094E+01 1.76699E+00 4.20485E-03 8.46082E-01-2.74214E-14-5.99808E-14
 -1      3599 2.08306E+01-5.33040E-01 5.59447E-03-1.77886E+00-1.11237E-14-2.50987E-14
 -1      3600 2.05652E+01-9.99854E-02 9.41469E-03-1.68466E+00 8.94071E-15-4.39822E-14
 -1      3601 2.43475E+01-3.22625E+00 3.54326E-02-1.15479E+00-1.04665E-13 1.03627E-13
 -1      3602 1.44036E+01-9.28783E-01 6.04513E-02 3.95430E+00-9.86711E-15-1.03730E-13
 -1      3603 1.29522E+01 1.42075E-02 2.38919E-02 2.63869E+00 2.04524E-14 1.91125E-13
 -1      3604 2.28334E+01-2.82353E+00-4.92032E-03 1.54220E+00-7.74060E-14-1.27913E-13
 -1      3605 2.29148E+01-3.49197E+00-4.65818E-02 2.09891E+00-1.40552E-13-2.08682E-13
 -1      3606 2.12193E+01-3.10855E+00 5.52675E-02 3.20344E+00-1.06585E-13-1.78388E-13
 -1      3607 2.22116E+01-2.34054E+00 4.06678E-02 1.81014E+00-4.84153E-14-1.58226E-13
 -1      3608 2.10832E+01-1.40110E+00 2.40870E-02 1.94904E+00-3.87737E-14-1.26302E-13
 -1      3609 2.15555E+01-1.86468E+00 6.97774E-03 1.85487E+00 3.61213E-15-1.11062E-13
 -1      3610 2.11420E+01-2.27861E+00-3.32756E-02 2.39717E+00-5.00600E-14-1.22709E-13
 -1      3611 2.02439E+01-1.23759E+00-2.34656E-02 2.24771E+00 9.26798E-15-1.15134E-13
 -1      3612 2.47006E+01-4.14986E+00 5.90278E-02-1.83625E+00-1.72756E-13-2.97042E-13
 -1      3613 2.66522E+01-1.14155E+00-1.29261E-01-1.77731E+00-6.77861E-14-2.73809E-13
 -1      3614 1.95650E+01 8.87282E-01 3.26824E-03 1.52822E+00-1.39110E-14-2.81398E-14
 -1      3615 1.96731E+01 5.11591E-01 9.23357E-03 1.76767E+00 8.75970E-15-2.86444E-14
 -1      3616 1.76151E+01 3.28853E+00-7.80320E-03 1.20510E-01 4.42408E-14-1.35935E-13
 -1      3617 1.77736E+01 3.22265E+00-1.25357E-03 2.10704E-01 3.98075E-14-1.04147E-13
 -1      3618 1.78022E+01 3.02602E+00 2.63279E-03 3.17780E-01 4.06554E-14-9.54900E-14
 -1      3619 1.75036E+01 3.08565E+00 9.19457E-03 6.82482E-02 3.75179E-14-1.38325E-13
 -1      3620 2.35765E+01-3.94081E+00-3.13694E-03-2.18681E+00-6.33452E-14-2.25904E-13
 -1      3621 2.25615E+01-3.35750E+00 6.08292E-02-2.55648E+00-1.82059E-15-2.04785E-13
 -1      3622 1.97113E+01 9.03985E-02 7.18649E-03 2.06376E+00 2.25888E-14-2.58917E-14
 -1      3623 1.99653E+01-3.89482E-01 1.45554E-02 2.26316E+00 1.01827E-14-2.08558E-14
 -1      3624 1.92079E+01-5.20526E-01-1.99654E-02 2.66178E+00 1.75879E-14-3.80607E-14
 -1      3625 2.29436E+01-2.24204E+00-2.62060E-02-1.18133E+00-4.20623E-14 9.75305E-14
 -1      3626 1.79006E+01-2.09498E+00 1.11915E-01-4.47049E+00-1.50808E-13-1.74451E-13
 -1      3627 1.97439E+01-3.08397E+00-6.89036E-02-4.16238E+00-1.45599E-13-3.44551E-14
 -1      3628 2.18089E+01-3.26301E+00 1.05079E-01-3.42860E+00-1.10920E-13 3.68846E-14
 -1      3629 2.33838E+01-3.53225E+00-4.05289E-02-2.12356E+00-9.05226E-14 4.64967E-14
 -1      3630 2.29850E+01-2.90933E+00-1.81977E-02-1.80460E+00-8.19709E-14 7.50029E-14
 -1      3631 2.07633E+01-2.64533E+00 2.71321E-02-3.37884E+00-1.38143E-13-5.17555E-15
 -1      3632 1.64122E+01-1.72205E+00 9.35802E-02-4.28419E+00 2.21299E-13 4.26124E-13
 -1      3633 1.86014E+01-2.82125E+00-2.12508E-02-4.26124E+00 9.12360E-14 2.81435E-13
 -1      3634 1.27104E+01-1.24831E-01 4.25451E-02-2.84148E+00 8.21426E-14 4.46421E-13
 -1      3635 1.43653E+01-1.08254E+00-2.44867E-03-3.96296E+00 2.24418E-13 4.99795E-13
 -1      3636 1.62237E+01-1.13548E+00 4.92036E-02-3.68237E+00 2.13270E-13 4.02057E-13
 -1      3637 1.59173E+01-9.69241E-01-2.07342E-02 3.86679E+00 8.37195E-14-1.04881E-14
 -1      3638 1.38607E+01-8.74748E-02 1.35430E-01 3.47458E+00 8.40022E-14-1.16678E-13
 -1      3639 1.95125E+01 1.49904E+00 1.36097E-03 1.05029E+00-2.57739E-14-3.92168E-14
 -1      3640 1.95529E+01 1.16673E+00 5.45206E-03 1.31718E+00-1.01826E-14-3.47400E-14
 -1      3641 1.90031E+01 1.20616E+00-7.52771E-03 1.47850E+00-4.12452E-15-7.66724E-14
 -1      3642 1.89981E+01 1.75878E+00-4.91344E-03 1.05006E+00 4.96155E-15-7.04287E-14
 -1      3643 2.00026E+01-2.76634E-04-1.14299E-05-4.65041E-03-1.20045E-13 1.53774E-13
 -1      3644 1.98808E+01 1.37278E+00 5.04055E-03-9.22029E-01 7.32992E-14-9.54628E-14
 -1      3645 1.93916E+01 1.62251E+00-5.60619E-03-9.50049E-01 6.02346E-14-8.50249E-14
 -1      3646 2.02533E+01-3.09282E+00 7.56722E-02-3.82762E+00 4.27106E-14 6.10016E-14
 -1      3647 2.12948E+01-3.36974E+00-3.27511E-02-3.22165E+00 1.41588E-14-4.99891E-14
 -1      3648 2.17267E+01-2.94464E+00 1.42009E-03-2.65470E+00-1.03580E-14-1.89156E-13
 -1      3649 1.92889E+01-2.39954E+00 3.97824E-03-3.66059E+00 6.31786E-14 1.49086E-13
 -1      3650 2.23133E+01-2.26918E+00 3.19091E-02-1.97278E+00-5.75390E-14 6.17512E-14
 -1      3651 2.00028E+01-8.45749E-04-1.21940E-05-4.41026E-03-5.91158E-14 1.90607E-13
 -1      3652 2.00037E+01 8.80647E-05 2.29584E-05-4.11636E-03-1.29547E-14 4.30840E-13
 -1      3653 2.10273E+01-2.25536E+00 4.09721E-02-2.71502E+00 1.40025E-14-1.46057E-13
 -1      3654 2.00039E+01-8.48223E-04 1.15815E-05 3.54091E-03 1.05093E-14-1.93606E-13
 -1      3655 2.00035E+01-1.47882E-03 2.21367E-07 3.48040E-03 6.17431E-14-1.00104E-13
 -1      3656 2.00040E+01-1.53338E-03-7.76027E-06 2.90337E-03 1.40296E-13-2.77046E-13
 -1      3657 2.00037E+01-1.31659E-03 4.93300E-06-3.36546E-03 1.04994E-14 7.21198E-14
 -1      3658 2.00032E+01-1.33530E-03-4.49839E-06-3.86936E-03-1.19331E-14 1.44075E-13
 -1      3659 2.69372E+01 1.49505E+00 3.43607E-02-2.55204E+00 4.03427E-14-1.84075E-13
 -1      3660 1.87261E+01 2.31296E+00 3.91255E-03-7.09244E-01 7.14761E-14-8.48343E-14
 -1      3661 2.00027E+01-1.31654E-03-2.72604E-06-4.25825E-03-7.05004E-14 2.11795E-13
 -1      3662 1.92943E+01-2.02049E+00-3.69230E-03 3.64867E+00 7.94404E-14 9.85323E-15
 -1      3663 1.80281E+01-1.47190E+00 1.01567E-01 3.97752E+00 7.43971E-14 8.97199E-15
 -1      3664 1.28953E+01 5.44569E-01 8.70836E-02 1.84371E+00-6.19513E-14 3.95708E-13
 -1      3665 1.30787E+01 7.22940E-01 9.99441E-03 9.42716E-01-8.10966E-14 4.71172E-13
 -1      3666 1.43001E+01 2.08852E-01 1.74460E-02 2.41161E+00-7.18360E-14 2.26904E-13
 -1      3667 2.00048E+01-1.42510E-03-3.69057E-06-3.73551E-04-5.97601E-14-1.54961E-13
 -1      3668 2.00047E+01-1.41966E-03-5.42105E-06-1.09014E-03-4.95622E-14 8.33245E-15
 -1      3669 2.00055E+01-5.17476E-04 1.43827E-05-6.91013E-06-9.63342E-14-1.99767E-13
 -1      3670 1.30102E+01 7.60277E-01-1.12587E-02-8.21339E-01-5.18630E-14 3.38989E-13
 -1      3671 1.27332E+01 4.89324E-01 9.04106E-02-1.88772E+00 1.74903E-15 3.73306E-13
 -1      3672 1.41148E+01 2.29323E-01 8.54517E-03-2.35422E+00 6.24605E-14 3.21011E-13
 -1      3673 2.04873E+01 2.34696E-01 6.92900E-03-1.47380E+00 5.19390E-14-5.67838E-14
 -1      3674 2.04033E+01 5.31019E-01 7.70795E-03-1.31480E+00 5.78267E-14-5.40268E-14
 -1      3675 2.00422E+01 1.77902E-01-3.41078E-03-1.74725E+00 1.51409E-14-6.60266E-14
 -1      3676 1.71701E+01-1.32102E+00 5.14168E-02-3.95569E+00-1.34077E-13-1.38991E-13
 -1      3677 2.15791E+01-1.52476E+00 1.84458E-04-1.90584E+00-2.87600E-14 8.53918E-16
 -1      3678 2.11641E+01-9.85088E-01 2.70324E-02-1.92646E+00-1.62242E-14-2.22406E-14
 -1      3679 2.04000E+01-7.10361E-01-8.47417E-03-2.15959E+00-2.55377E-14-6.76668E-14
 -1      3680 1.80672E+01 2.72176E+00-6.39749E-03 5.45772E-01 3.25673E-14-8.72597E-14
 -1      3681 1.84508E+01 2.52300E+00 1.48842E-04 6.20892E-01 1.39322E-14-1.04789E-13
 -1      3682 1.85666E+01 2.27950E+00 4.66010E-03 7.70000E-01 2.07489E-14-1.04847E-13
 -1      3683 1.35750E+01 4.26646E-01 4.12483E-02 2.54021E+00 5.83526E-14-1.40558E-13
 -1      3684 1.62572E+01-1.20235E+00 5.25218E-02 3.74051E+00 6.26929E-15-1.51809E-13
 -1      3685 2.08480E+01-2.42927E+00 2.47468E-02 2.79720E+00-8.07232E-14-1.50099E-13
 -1      3686 1.98801E+01-2.76908E+00-1.58775E-02 3.64607E+00-1.07508E-13-1.08573E-13
 -1      3687 1.88327E+01-2.07370E+00 2.69598E-02 3.63353E+00-9.82610E-14-1.46069E-13
 -1      3688 2.02153E+01-1.79419E+00 3.00813E-02 2.74012E+00-2.06905E-14-1.49928E-13
 -1      3689 2.00043E+01-1.46038E-03-1.18131E-06 2.34361E-03 1.32059E-13-1.05749E-13
 -1      3690 2.00046E+01-1.48367E-03-5.75236E-06 1.66879E-03 5.15636E-14-2.21362E-14
 -1      3691 2.00053E+01-5.84449E-04 1.40469E-05 1.28836E-03-1.99927E-13-7.17064E-14
 -1      3692 2.00048E+01-7.21004E-04 1.21785E-05 2.39606E-03 4.38623E-14-1.13462E-13
 -1      3693 1.90273E+01 5.07102E-01-7.59903E-03 2.00847E+00 1.27358E-14-6.22052E-14
 -1      3694 2.00046E+01-1.45375E-03-1.74014E-07-1.81706E-03 7.91242E-14 2.61217E-13
 -1      3695 2.00042E+01-1.43575E-03-1.08644E-05-2.48955E-03 3.98790E-14 8.43417E-14
 -1      3696 2.00053E+01-5.58385E-04 1.37099E-05-1.45096E-03-8.36978E-14 1.26333E-14
 -1      3697 1.80101E+01 2.38317E+00 3.12993E-03-7.98209E-01 3.74168E-14-1.13225E-13
 -1      3698 1.76530E+01 2.55186E+00-1.01619E-02-6.77161E-01 2.93569E-14-1.13097E-13
 -1      3699 1.24980E+01 1.04788E+00-1.50500E-02 8.42503E-01 3.29224E-14-2.15539E-13
 -1      3700 1.18086E+01 1.08444E+00 9.25445E-02-1.60615E-01 2.24256E-14-1.97467E-13
 -1      3701 1.29178E+01 1.17041E+00 4.68001E-02-7.65490E-01 1.14631E-14-1.83055E-13
 -1      3702 1.97041E+01-1.90417E+00-2.27655E-02-3.05669E+00 9.30820E-14 1.51830E-13
 -1      3703 1.67847E+01-6.62803E-01 4.49594E-03 3.44539E+00 5.45154E-14-7.20778E-15
 -1      3704 1.73858E+01 2.72012E+00-1.31881E-03-4.46370E-01 3.31534E-14-1.22286E-13
 -1      3705 1.72292E+01 2.80358E+00-5.08145E-03-2.62386E-01 2.86160E-14-1.59721E-13
 -1      3706 1.73855E+01 2.40844E+00 9.08195E-03-6.95648E-01 2.40630E-14-1.24473E-13
 -1      3707 2.00045E+01-5.09445E-04 1.23518E-05-3.04070E-03 3.43768E-14 7.46784E-14
 -1      3708 1.83472E+01 1.00911E+00-7.62621E-03 1.78871E+00 6.73680E-15-4.33306E-14
 -1      3709 1.83888E+01 6.13999E-01 1.35508E-02 2.08895E+00 1.94376E-14-4.40852E-14
 -1      3710 2.13161E+01-2.11738E+00-4.06465E-02-2.49610E+00-6.61983E-14 1.21587E-14
 -1      3711 1.81942E+01 1.68037E-01 1.51656E-02-2.08137E+00-1.66446E-14 2.23213E-13
 -1      3712 1.81818E+01 3.83325E-01-8.74634E-03-1.86183E+00 2.02099E-14 1.83365E-13
 -1      3713 1.84051E+01 5.52621E-01 9.30407E-03-1.63978E+00 7.63535E-14 1.55036E-13
 -1      3714 1.84555E+01 6.61087E-01-8.01779E-03-1.47273E+00 5.73831E-14 1.36182E-13
 -1      3715 1.77937E+01 6.51503E-01 7.11818E-03-1.64451E+00 8.97318E-15 2.94634E-13
 -1      3716 1.86576E+01 7.41739E-01 4.89135E-03-1.31354E+00 4.21996E-14 1.14222E-13
 -1      3717 1.87345E+01 7.83118E-01-6.41596E-03-1.18278E+00 7.57008E-14 6.86411E-14
 -1      3718 1.82005E+01 8.39485E-01 5.82231E-03-1.27592E+00 5.29335E-14 2.48060E-13
 -1      3719 1.89084E+01 8.06828E-01 2.58708E-03-1.06361E+00 8.83455E-14 2.29494E-14
 -1      3720 1.89899E+01 8.05537E-01-5.09516E-03-9.57883E-01 1.19001E-13 2.68458E-14
 -1      3721 1.85601E+01 9.03153E-01 5.26703E-03-1.01237E+00 4.52488E-14 4.02974E-14
 -1      3722 1.91359E+01 7.94026E-01 1.38515E-03-8.64569E-01 1.18015E-13 7.77563E-16
 -1      3723 1.92111E+01 7.67120E-01-4.13374E-03-7.76657E-01-3.71418E-15 5.96552E-14
 -1      3724 1.88664E+01 8.87575E-01 4.53188E-03-8.13396E-01 6.41773E-14 4.71801E-14
 -1      3725 1.93315E+01 7.35296E-01 7.93444E-04-7.01123E-01-7.15435E-14 6.97323E-14
 -1      3726 1.93962E+01 6.94605E-01-3.39014E-03-6.26899E-01-5.95536E-14 1.29896E-13
 -1      3727 1.91217E+01 8.24409E-01 3.84956E-03-6.56066E-01 1.95249E-14 9.02135E-15
 -1      3728 1.94939E+01 6.52725E-01 5.22259E-04-5.64632E-01-9.23310E-14 1.31233E-13
 -1      3729 1.95469E+01 6.06322E-01-2.79418E-03-5.01729E-01-1.01386E-13 3.62604E-14
 -1      3730 1.93307E+01 7.35338E-01 3.20079E-03-5.27774E-01-5.32279E-14-2.34060E-14
 -1      3731 1.96249E+01 5.61160E-01 4.11096E-04-4.50041E-01-6.52498E-14 1.20688E-14
 -1      3732 1.96669E+01 5.14269E-01-2.30192E-03-3.96992E-01 3.43230E-14 2.94707E-15
 -1      3733 1.94987E+01 6.35728E-01 2.61349E-03-4.21439E-01-5.87619E-14-1.94751E-14
 -1      3734 1.97283E+01 4.70076E-01 3.68241E-04-3.54183E-01 3.51311E-14-8.13547E-15
 -1      3735 1.97605E+01 4.25876E-01-1.88592E-03-3.09906E-01 1.95872E-14-6.55356E-15
 -1      3736 1.96315E+01 5.35701E-01 2.09925E-03-3.32910E-01 7.41016E-14-1.67018E-14
 -1      3737 1.98081E+01 3.85127E-01 3.46887E-04-2.74747E-01 5.47638E-14-6.14034E-15
 -1      3738 1.98323E+01 3.45369E-01-1.53055E-03-2.38288E-01 9.28260E-14 4.85078E-14
 -1      3739 1.97348E+01 4.41537E-01 1.65926E-03-2.59530E-01 3.03770E-14 6.45473E-14
 -1      3740 1.98686E+01 3.09319E-01 3.26879E-04-2.09758E-01 1.31380E-14 8.27388E-15
 -1      3741 1.98862E+01 2.74776E-01-1.22718E-03-1.80187E-01-1.85794E-14 2.06366E-14
 -1      3742 1.98139E+01 3.56764E-01 1.29039E-03-1.99306E-01 4.24409E-14-7.35822E-14
 -1      3743 1.99134E+01 2.43875E-01 3.01679E-04-1.57361E-01-1.52096E-13 2.18652E-14
 -1      3744 1.99259E+01 2.14681E-01-9.70413E-04-1.33755E-01-2.33033E-13-9.16458E-14
 -1      3745 1.98733E+01 2.82981E-01 9.87012E-04-1.50518E-01-1.17806E-13-1.58603E-13
 -1      3746 1.99459E+01 1.88863E-01 2.70985E-04-1.15770E-01-1.81124E-13-1.14649E-13
 -1      3747 1.99545E+01 1.64760E-01-7.55887E-04-9.72319E-02-6.78989E-14-1.51573E-13
 -1      3748 1.99172E+01 2.20492E-01 7.41970E-04-1.11573E-01-2.60344E-13-1.21198E-14
 -1      3749 1.99689E+01 1.43661E-01 2.36845E-04-8.32895E-02 1.96941E-14-1.37881E-13
 -1      3750 1.99746E+01 1.24167E-01-5.79353E-04-6.89745E-02-7.87314E-14-6.52445E-14
 -1      3751 1.99489E+01 1.68783E-01 5.47468E-04-8.09701E-02-5.54057E-14-1.25283E-13
 -1      3752 1.99847E+01 1.07263E-01 2.01748E-04-5.83487E-02-1.89001E-13-1.45105E-13
 -1      3753 1.99883E+01 9.17961E-02-4.36409E-04-4.74863E-02-2.19868E-13-4.52755E-14
 -1      3754 1.99711E+01 1.26868E-01 3.95698E-04-5.73168E-02-1.35836E-13-1.05438E-13
 -1      3755 1.99952E+01 7.85038E-02 1.67807E-04-3.95338E-02-1.99977E-13-1.07531E-13
 -1      3756 1.99973E+01 6.64537E-02-3.22571E-04-3.14428E-02-1.14286E-13-4.50745E-14
 -1      3757 1.99864E+01 9.35337E-02 2.79297E-04-3.93495E-02-2.24823E-13 3.54442E-14
 -1      3758 2.00017E+01 5.61896E-02 1.36507E-04-2.56072E-02-1.79642E-14-1.35817E-13
 -1      3759 2.00027E+01 4.69705E-02-2.33440E-04-1.97010E-02-5.80639E-14 1.75502E-14
 -1      3760 1.99963E+01 6.75037E-02 1.91610E-04-2.59511E-02-1.24003E-13-2.22319E-13
 -1      3761 2.00054E+01 3.91882E-02 1.08722E-04-1.55122E-02-6.43345E-14 6.88111E-14
 -1      3762 2.00058E+01 3.22642E-02-1.64873E-04-1.12981E-02 3.68019E-14 3.09425E-14
 -1      3763 2.00025E+01 4.75416E-02 1.26816E-04-1.61591E-02 1.95420E-14-2.72915E-13
 -1      3764 2.00073E+01 2.64736E-02 8.48311E-05-8.36768E-03 4.37019E-14 5.51898E-14
 -1      3765 2.00072E+01 2.13721E-02-1.13111E-04-5.44099E-03 8.59555E-14-1.30409E-13
 -1      3766 2.00060E+01 3.25113E-02 7.99512E-05-9.16360E-03 1.18141E-13 2.20213E-14
 -1      3767 2.00078E+01 1.71465E-02 6.48516E-05-3.45478E-03 1.54813E-13-2.09052E-13
 -1      3768 2.00074E+01 1.34619E-02-7.47704E-05-1.49037E-03 1.14079E-13-1.48293E-13
 -1      3769 2.00075E+01 2.14065E-02 4.68830E-05-4.29823E-03-3.14244E-15-2.82998E-14
 -1      3770 2.00075E+01 1.04390E-02 4.85698E-05-1.99083E-04-4.87300E-14-1.05167E-13
 -1      3771 2.00069E+01 7.82914E-03-4.71096E-05 1.05909E-03-1.47797E-13-2.94238E-14
 -1      3772 2.00079E+01 1.33612E-02 2.43594E-05-1.02646E-03 9.94595E-14-2.65278E-15
 -1      3773 2.00067E+01 5.70529E-03 3.57029E-05 1.84856E-03-1.10062E-13-3.22983E-15
 -1      3774 2.00061E+01 3.88690E-03-2.70971E-05 2.59629E-03-7.96115E-14 1.36830E-14
 -1      3775 2.00074E+01 7.64095E-03 8.99294E-06 1.07600E-03-1.48033E-13 2.86819E-13
 -1      3776 2.00056E+01 2.40468E-03 2.45423E-05 3.03140E-03-2.06814E-13-1.01804E-13
 -1      3777 2.00050E+01 1.16859E-03-6.47726E-06 3.40245E-03-1.97003E-13-3.58442E-13
 -1      3778 2.00064E+01 3.63940E-03-3.22141E-07 2.33521E-03-2.23992E-13 1.92652E-13
 -1      3779 2.00046E+01 4.88250E-04 1.36002E-05 3.47935E-03-2.05002E-14-3.11430E-13
 -1      3780 2.00043E+01-2.60820E-04 1.37254E-06 3.54015E-03 6.72430E-14-1.86471E-13
 -1      3781 2.00048E+01-2.15185E-04-1.33983E-05 2.95505E-03 1.42797E-13 2.18044E-14
 -1      3782 2.00055E+01 1.24893E-03-7.97764E-06 2.85601E-03-1.39039E-13 6.70179E-14
 -1      3783 1.91654E+01 5.28758E-01-3.59024E-03 1.33394E+00-2.29134E-14-2.38338E-13
 -1      3784 1.91744E+01 4.39170E-01 6.70847E-03 1.45887E+00-2.70540E-14-2.41753E-13
 -1      3785 1.90871E+01 3.04967E-01-2.79276E-03 1.62664E+00-1.12012E-13-2.49995E-13
 -1      3786 1.91571E+01 1.30570E-01 1.04879E-02 1.77008E+00-1.47358E-13-1.90767E-13
 -1      3787 1.87266E+01 4.94716E-01-5.83016E-04 1.51959E+00-9.49125E-14-3.18558E-13
 -1      3788 1.91153E+01-1.03636E-01 6.76760E-04 1.98185E+00-8.90718E-14-2.36583E-13
 -1      3789 1.92897E+01-4.01812E-01 1.43040E-02 2.14134E+00 2.00881E-14-2.53718E-13
 -1      3790 1.85901E+01 1.49119E-01-5.60225E-03 1.90766E+00-1.21396E-13-3.31795E-13
 -1      3791 1.92870E+01 6.25769E-01-3.61377E-03 1.09266E+00 5.98594E-14-2.18186E-13
 -1      3792 1.92663E+01 5.92467E-01 4.16039E-03 1.20072E+00-2.67302E-14-2.73005E-13
 -1      3793 1.89121E+01 6.66234E-01 1.32426E-03 1.21947E+00-1.72816E-14-2.25803E-13
 -1      3794 1.94181E+01 6.41017E-01-3.33967E-03 8.91283E-01 1.16270E-13-1.46868E-13
 -1      3795 1.93857E+01 6.43321E-01 2.60513E-03 9.84912E-01 1.23051E-13-1.67108E-13
 -1      3796 1.91052E+01 7.25405E-01 2.06206E-03 9.83560E-01 2.49777E-14-2.15314E-13
 -1      3797 1.95414E+01 6.06638E-01-2.97214E-03 7.21626E-01 4.70115E-14-9.28908E-14
 -1      3798 1.95072E+01 6.29994E-01 1.72740E-03 8.02611E-01 1.12189E-13-7.84352E-14
 -1      3799 1.92856E+01 7.13851E-01 2.26327E-03 7.93327E-01 1.01595E-13-1.46630E-13
 -1      3800 1.96492E+01 5.45211E-01-2.58617E-03 5.78422E-01-1.18726E-14-9.90720E-14
 -1      3801 1.96181E+01 5.79489E-01 1.23410E-03 6.48003E-01 5.25138E-14-4.83480E-14
 -1      3802 1.94440E+01 6.60406E-01 2.16540E-03 6.37097E-01-1.58025E-15-9.39974E-14
 -1      3803 1.97391E+01 4.71977E-01-2.20930E-03 4.58069E-01 4.39495E-15-8.86305E-14
 -1      3804 1.97129E+01 5.10420E-01 9.53417E-04 5.17206E-01-1.40098E-14-7.32544E-14
 -1      3805 1.95774E+01 5.85238E-01 1.92213E-03 5.07613E-01-1.56754E-14-8.70631E-14
 -1      3806 1.98113E+01 3.96735E-01-1.85516E-03 3.57827E-01-7.27909E-14 1.77632E-14
 -1      3807 1.97906E+01 4.35062E-01 7.83769E-04 4.07405E-01-3.07010E-14 8.29671E-14
 -1      3808 1.96863E+01 5.01921E-01 1.62780E-03 4.00172E-01-9.85241E-14 3.24079E-15
 -1      3809 1.98678E+01 3.25398E-01-1.53153E-03 2.75341E-01-3.39708E-14 8.95712E-14
 -1      3810 1.98521E+01 3.61083E-01 6.67403E-04 3.16276E-01-8.47659E-14 1.35170E-14
 -1      3811 1.97730E+01 4.19140E-01 1.33187E-03 3.11489E-01-7.51153E-14 1.67208E-13
 -1      3812 1.99108E+01 2.61191E-01-1.24302E-03 2.08407E-01-6.21855E-14 9.94799E-14
 -1      3813 1.98993E+01 2.92914E-01 5.75236E-04 2.41669E-01 4.29298E-14 1.21146E-13
 -1      3814 1.98402E+01 3.42088E-01 1.05952E-03 2.38984E-01-3.43161E-14 1.27948E-13
 -1      3815 1.99426E+01 2.05531E-01-9.91778E-04 1.54902E-01-1.58357E-14-5.20458E-14
 -1      3816 1.99346E+01 2.32779E-01 4.94394E-04 1.81491E-01-7.34150E-14 3.73904E-14
 -1      3817 1.98913E+01 2.73514E-01 8.22182E-04 1.80429E-01-2.60762E-14 1.47074E-13
 -1      3818 1.99656E+01 1.58683E-01-7.77799E-04 1.12798E-01-1.67687E-13 9.94998E-14
 -1      3819 1.99602E+01 1.81448E-01 4.20255E-04 1.33703E-01-7.39977E-14 4.44130E-14
 -1      3820 1.99293E+01 2.14517E-01 6.23243E-04 1.33790E-01-7.83554E-14 1.50682E-13
 -1      3821 1.99818E+01 1.20209E-01-5.99342E-04 8.01995E-02-1.09999E-13 1.88963E-13
 -1      3822 1.99783E+01 1.38787E-01 3.51916E-04 9.63609E-02-1.73351E-13 2.39685E-13
 -1      3823 1.99568E+01 1.65126E-01 4.61500E-04 9.71938E-02-2.29793E-13 2.69481E-13
 -1      3824 1.99927E+01 8.92883E-02-4.53439E-04 5.53865E-02-9.75994E-14 3.16973E-13
 -1      3825 1.99907E+01 1.04135E-01 2.89802E-04 6.76639E-02-7.40415E-14 2.80253E-13
 -1      3826 1.99761E+01 1.24732E-01 3.33360E-04 6.89272E-02-1.46182E-13 2.89336E-13
 -1      3827 1.99997E+01 6.49297E-02-3.36404E-04 3.68372E-02-3.19741E-13 3.71271E-13
 -1      3828 1.99987E+01 7.65644E-02 2.34532E-04 4.59933E-02-2.03318E-13 4.34810E-13
 -1      3829 1.99894E+01 9.23810E-02 2.34197E-04 4.74562E-02-1.58671E-13 4.43774E-13
 -1      3830 2.00039E+01 4.61047E-02-2.44254E-04 2.32394E-02-2.79932E-13 2.36386E-13
 -1      3831 2.00036E+01 5.50499E-02 1.86461E-04 2.99321E-02-2.18751E-13 2.69296E-13
 -1      3832 1.99980E+01 6.69716E-02 1.59179E-04 3.14361E-02-2.34656E-13 3.03784E-13
 -1      3833 2.00061E+01 3.18306E-02-1.73042E-04 1.34884E-02-1.17133E-13 5.41304E-14
 -1      3834 2.00063E+01 3.85780E-02 1.45580E-04 1.82712E-02-2.03911E-13 2.01670E-13
 -1      3835 2.00032E+01 4.73889E-02 1.03728E-04 1.97150E-02-2.34205E-13 7.07477E-14
 -1      3836 2.00070E+01 2.12157E-02-1.19095E-04 6.67372E-03 5.87915E-14-1.74621E-14
 -1      3837 2.00074E+01 2.62063E-02 1.11559E-04 1.00017E-02-4.98541E-14 2.20475E-14
 -1      3838 2.00061E+01 3.25799E-02 6.37488E-05 1.13267E-02 4.32138E-15-4.42124E-14
 -1      3839 2.00070E+01 1.34789E-02-7.89960E-05 2.06076E-03-2.37947E-14-2.13033E-14
 -1      3840 2.00075E+01 1.70958E-02 8.38264E-05 4.30036E-03-5.63545E-15 1.86819E-14
 -1      3841 2.00074E+01 2.15952E-02 3.57165E-05 5.47808E-03-4.63842E-14 2.59928E-14
 -1      3842 2.00064E+01 7.95307E-03-5.01560E-05-9.32014E-04 7.66429E-14 5.36973E-14
 -1      3843 2.00070E+01 1.05222E-02 6.16940E-05 5.08309E-04 5.70248E-14 4.39904E-14
 -1      3844 2.00075E+01 1.36087E-02 1.67952E-05 1.53126E-03 7.07670E-15-1.05777E-13
 -1      3845 2.00055E+01 4.07750E-03-2.98835E-05-2.75282E-03 6.80056E-14 3.70520E-13
 -1      3846 2.00061E+01 5.87034E-03 4.45307E-05-1.89022E-03 8.04704E-14 3.45404E-13
 -1      3847 2.00070E+01 7.91086E-03 2.96342E-06-1.02011E-03-9.39792E-14 2.49368E-13
 -1      3848 2.00045E+01 1.36863E-03-2.12584E-05-3.75538E-03-5.25440E-14 5.13464E-13
 -1      3849 2.00051E+01 2.63349E-03 3.16707E-05-3.28904E-03 2.62389E-14 4.40181E-13
 -1      3850 2.00061E+01 3.92167E-03-3.74639E-06-2.55946E-03-2.66069E-14 6.08502E-13
 -1      3851 2.03995E+01 1.02008E+00-1.65132E-03-9.07076E-01 7.55984E-14-5.21816E-14
 -1      3852 2.02251E+01 8.40805E-01-2.89709E-04-1.15549E+00 6.18993E-14-6.16874E-14
 -1      3853 1.39184E+01 8.83610E-01 2.97657E-02-2.01781E+00-1.60119E-14-1.46418E-13
 -1      3854 1.50312E+01 1.59146E-01-2.34090E-02-2.98502E+00-5.45492E-14-1.31704E-13
 -1      3855 1.47441E+01 5.26286E-01-3.38576E-02 2.50475E+00 6.52655E-14-1.23856E-13
 -1      3856 1.35516E+01 1.03423E+00 8.90671E-02 1.76478E+00 6.12921E-14-1.77681E-13
 -1      3857 1.38956E+01 1.25527E+00 1.92325E-02 1.00280E+00 4.91551E-14-1.66599E-13
 -1      3858 1.97340E+01-1.89828E+00-1.18781E-02 3.41117E+00 4.70630E-14 5.76622E-15
 -1      3859 1.72867E+01-1.37647E+00-3.03692E-03 3.63341E+00 2.13978E-15-2.44294E-13
 -1      3860 1.58045E+01-4.49195E-01 1.07479E-02 3.11427E+00 5.04709E-14-1.74043E-13
 -1      3861 1.82949E+01-1.29022E+00 2.51867E-02 3.20077E+00 2.32488E-14-1.58474E-13
 -1      3862 1.85557E+01-1.37587E+00 4.72176E-02-3.29462E+00 1.72350E-13 3.62416E-13
 -1      3863 2.00055E+01 3.43123E-04-2.50785E-06-2.43093E-03 1.01897E-13 9.81822E-14
 -1      3864 2.00048E+01 3.58089E-04-1.59680E-05-3.25934E-03 8.10164E-14 2.18673E-13
 -1      3865 2.01275E+01-1.64540E+00 5.39378E-02-3.06097E+00-1.04550E-13-4.62599E-14
 -1      3866 2.00047E+01 8.37939E-04-6.81352E-06-3.51965E-03-1.48845E-16 5.35918E-13
 -1      3867 1.80755E+01-5.36455E-01 5.17743E-03-2.69729E+00 1.28614E-13 3.51218E-13
 -1      3868 1.79748E+01-9.60323E-02 5.00675E-03-2.39366E+00 7.59619E-14 2.65207E-13
 -1      3869 1.73766E+01 2.63805E-01 1.34468E-02-2.18704E+00 1.10159E-14 2.43717E-13
 -1      3870 1.65830E+01-4.79862E-01 6.52616E-02-3.49646E+00-1.16176E-13-1.42449E-13
 -1      3871 1.82508E+01-1.42891E+00-3.18303E-02-3.64645E+00-1.39461E-13-9.51409E-14
 -1      3872 1.59844E+01-8.98583E-02 7.30750E-02-2.86050E+00 1.35674E-13 3.25350E-13
 -1      3873 1.73336E+01-8.66570E-01-1.54304E-02-3.17725E+00 1.72069E-13 4.09662E-13
 -1      3874 1.89040E+01 1.90019E+00 5.03716E-03-9.50687E-01 5.28636E-14-6.86641E-14
 -1      3875 1.84334E+01 2.12517E+00-9.88613E-03-9.12364E-01 4.51708E-14-8.85292E-14
 -1      3876 1.81631E+01 1.98176E+00 5.82342E-03-1.06060E+00 2.28760E-14-9.30151E-14
 -1      3877 1.91583E+01 1.45574E+00 2.16806E-03-1.18011E+00 4.04206E-14-7.04124E-14
 -1      3878 1.98158E+01 8.47060E-01-7.68340E-03-1.35499E+00 4.86407E-14-8.15367E-14
 -1      3879 2.00057E+01 1.86954E-03 1.60653E-05-2.83920E-03 1.35989E-13 4.31140E-13
 -1      3880 1.70284E+01 2.60860E+00 7.75458E-03-1.30403E-01 2.19953E-14-1.40363E-13
 -1      3881 1.71905E+01 2.82183E+00-8.93666E-03 3.53189E-02 2.89894E-14-1.57056E-13
 -1      3882 1.77120E+01-4.90163E-01-2.54454E-02 3.10451E+00 5.17351E-14-2.92301E-15
 -1      3883 1.63133E+01 2.50680E-01 7.57455E-02 2.89516E+00 6.24392E-14-5.72264E-14
 -1      3884 1.93589E+01-9.85289E-01-2.15011E-03-2.85151E+00-7.04541E-14-7.29681E-14
 -1      3885 1.74545E+01 7.59751E-01 2.27911E-02 2.23749E+00 1.57645E-14-5.68304E-14
 -1      3886 1.81311E+01 1.92904E-01-4.09384E-03 2.49463E+00 3.78074E-14-4.59780E-14
 -1      3887 1.53361E+01 4.16147E-02 2.69949E-02 2.68117E+00-7.92370E-14 3.79427E-14
 -1      3888 1.49158E+01 4.43674E-01-1.57900E-02 1.99827E+00-2.11973E-13 2.59405E-13
 -1      3889 1.64232E+01-9.13559E-02 2.79459E-02 2.61757E+00-1.03973E-13-5.37062E-14
 -1      3890 1.92575E+01 1.12245E+00 4.99136E-03-1.39380E+00 3.95004E-14-6.28657E-14
 -1      3891 1.86817E+01 1.37053E+00-1.15852E-02-1.40613E+00 3.13404E-14-5.63076E-14
 -1      3892 1.93899E+01 7.72372E-01-1.95923E-03-1.58898E+00 2.12742E-14-6.07277E-14
 -1      3893 1.84866E+01 2.02753E+00-1.08381E-03 9.61443E-01 1.75895E-14-7.98826E-14
 -1      3894 1.84880E+01 1.77037E+00 5.40382E-03 1.16611E+00 1.58902E-14-7.03652E-14
 -1      3895 1.80423E+01 2.27161E+00 1.54580E-03 8.68064E-01 3.83592E-14-8.94062E-14
 -1      3896 1.58736E+01 6.85429E-01-1.28284E-02 2.30291E+00 4.68237E-14-9.46430E-14
 -1      3897 1.40988E+01 8.48805E-01-9.82893E-04 9.37398E-01-7.81059E-14 3.73755E-13
 -1      3898 1.34175E+01 1.02840E+00 7.79484E-02 8.85426E-02-4.95630E-14 4.00298E-13
 -1      3899 1.39856E+01 8.75157E-01-2.78431E-02-6.28998E-01-1.64166E-14 3.40778E-13
 -1      3900 2.00061E+01 4.94116E-04-7.58607E-06 3.39167E-04-1.83566E-13-1.82867E-13
 -1      3901 2.00061E+01 4.93433E-04-9.60225E-06-3.53967E-04-1.38158E-13-1.72935E-13
 -1      3902 1.94390E+01 4.48380E-01 7.07921E-03-1.81137E+00 5.49300E-15-6.23509E-14
 -1      3903 1.78709E+01 2.78480E+00 4.74041E-03 4.91043E-01 2.89531E-14-7.26051E-14
 -1      3904 1.78867E+01 2.55888E+00-2.94649E-03 6.30892E-01 5.24420E-14-8.98486E-14
 -1      3905 1.77783E+01 2.32331E+00-7.13143E-03 8.05745E-01 5.50034E-14-6.69586E-14
 -1      3906 1.75928E+01 2.83957E+00-1.12358E-02 3.92485E-01 4.62236E-14-8.97523E-14
 -1      3907 1.64037E+01 1.43072E-01 2.76428E-02-2.82310E+00-6.96014E-14-1.07898E-13
 -1      3908 1.38554E+01 1.24156E+00 3.87072E-02-1.36163E+00-9.00582E-15-1.61328E-13
 -1      3909 1.49345E+01 1.18808E+00-1.25709E-02-1.60024E+00-2.89556E-14-1.25604E-13
 -1      3910 1.39704E+01 1.44364E+00-1.26623E-02-4.95607E-01-5.36897E-16-1.58897E-13
 -1      3911 1.55866E+01 3.21455E-01 4.09336E-04-2.15488E+00 7.53911E-14 2.86276E-13
 -1      3912 2.00058E+01 3.54903E-04-6.51092E-06 1.43731E-03-3.15258E-14 2.93058E-14
 -1      3913 2.00060E+01 4.07644E-04-1.42322E-05 8.96025E-04-1.31868E-13-7.71716E-14
 -1      3914 2.00067E+01 1.62378E-03 3.03216E-05 5.07290E-04-1.31135E-13-4.87364E-14
 -1      3915 1.73186E+01 2.85243E+00 5.66714E-03 2.03536E-01 3.26104E-14-1.15117E-13
 -1      3916 2.00060E+01 4.37081E-04-1.04461E-05-1.04381E-03-1.54257E-13-1.14604E-13
 -1      3917 2.00057E+01 3.79352E-04-1.74805E-05-1.71606E-03-4.81155E-14-2.53518E-14
 -1      3918 2.00067E+01 1.65807E-03 3.03467E-05-6.69400E-04-1.00000E-13-1.76470E-13
 -1      3919 2.00062E+01 1.51557E-03 2.11332E-05-1.99902E-03-4.21767E-15-6.75158E-14
 -1      3920 1.82592E+01-3.77098E-01 4.66396E-03 2.86478E+00 3.33501E-14-2.54150E-14
 -1      3921 1.97567E+01-5.43543E-01-4.63939E-03-2.34059E+00-3.63504E-14-7.53648E-14
 -1      3922 1.94340E+01-1.98264E-02-1.41231E-02-2.12695E+00-1.28543E-14-7.46395E-14
 -1      3923 1.87958E+01 6.53330E-01 1.49067E-02-1.95528E+00 1.37013E-14-4.13831E-14
 -1      3924 1.94450E+01-7.90635E-01 1.01989E-02 2.38070E+00 9.30999E-14-2.85944E-13
 -1      3925 1.97742E+01-1.25755E+00 1.55160E-02 2.53687E+00 6.46761E-14-1.86646E-13
 -1      3926 1.91914E+01-1.45897E+00-1.90692E-02 2.94022E+00 2.99014E-14-1.83664E-13
 -1      3927 1.86600E+01-4.63473E-01-1.26886E-02 2.39822E+00 1.89966E-14-2.75319E-13
 -1      3928 1.81133E+01 1.69249E+00 4.89845E-03-1.28353E+00 2.45472E-14-8.58582E-14
 -1      3929 1.76143E+01 1.90984E+00-1.00754E-02-1.17247E+00 2.61967E-14-1.10738E-13
 -1      3930 1.81242E+01 1.33969E+00-1.06779E-02-1.53472E+00 2.76296E-14-7.26370E-14
 -1      3931 1.71660E+01 2.18387E+00 1.94156E-03-8.66739E-01 2.61967E-14-1.15867E-13
 -1      3932 1.68741E+01 2.32317E+00-1.58952E-03-6.18278E-01 2.79824E-14-1.23191E-13
 -1      3933 1.70537E+01 1.89712E+00-5.19789E-03-1.11706E+00 2.48037E-14-1.11439E-13
 -1      3934 1.84219E+01 1.54659E+00 4.81156E-04 1.34506E+00 2.40497E-14-7.78479E-14
 -1      3935 1.84362E+01 1.28217E+00 1.14618E-02 1.56412E+00 1.85086E-14-6.73164E-14
 -1      3936 1.77448E+01 1.37690E+00 1.02602E-02 1.63721E+00 2.41257E-14-4.51332E-14
 -1      3937 1.78816E+01 1.81070E+00 4.78381E-04 1.24249E+00 3.21939E-14-6.74817E-14
 -1      3938 1.66948E+01 2.42288E+00-6.66950E-03-2.02153E-01 1.97565E-14-1.32968E-13
 -1      3939 1.67319E+01 2.46638E+00 1.75958E-02 1.33770E-01 3.77389E-15-1.26172E-13
 -1      3940 1.65143E+01 2.21351E+00 5.23517E-03-3.52744E-01 1.94460E-14-1.29727E-13
 -1      3941 1.83556E+01-1.57696E-01 3.41235E-02-2.75419E+00-5.86575E-14-9.23569E-14
 -1      3942 1.67516E+01 1.36221E+00-2.64232E-02 1.58721E+00 1.84965E-14-1.07334E-13
 -1      3943 1.64905E+01 1.00580E+00-6.27139E-03 1.94598E+00 3.23990E-14-9.23857E-14
 -1      3944 1.54576E+01 1.45732E+00 5.39312E-02 1.50357E+00 4.86622E-14-1.24349E-13
 -1      3945 1.89343E+01 8.08133E-01-5.15924E-03 8.25605E-01-8.57752E-15-2.98792E-13
 -1      3946 1.88448E+01 8.13355E-01 2.10575E-03 9.24773E-01-1.54806E-14-3.92196E-13
 -1      3947 1.77839E+01 9.34884E-01 2.33340E-03-1.12903E+00 3.58612E-14 2.60960E-13
 -1      3948 1.79706E+01 9.66381E-01-1.03785E-02-9.91323E-01 6.18960E-15 2.15513E-13
 -1      3949 1.82426E+01 9.84692E-01 6.18042E-04-8.86786E-01-1.21962E-15 2.70974E-13
 -1      3950 1.84062E+01 9.77628E-01-7.11884E-03-7.85655E-01 3.58979E-14 2.45304E-13
 -1      3951 1.78966E+01 1.08989E+00 1.17566E-02-7.47361E-01 7.71415E-15 3.89208E-13
 -1      3952 1.86205E+01 9.61758E-01-1.77797E-04-7.09305E-01-4.82490E-14 1.89511E-13
 -1      3953 1.87588E+01 9.30009E-01-5.32029E-03-6.30645E-01-4.49404E-14 1.53558E-13
 -1      3954 1.83592E+01 1.05279E+00 7.73807E-03-5.89765E-01-4.75524E-14 5.02072E-13
 -1      3955 1.89300E+01 8.92959E-01-4.57637E-04-5.71511E-01-4.15654E-14 1.41396E-13
 -1      3956 1.90446E+01 8.46660E-01-4.07290E-03-5.08007E-01-2.36203E-14 1.43872E-14
 -1      3957 1.87288E+01 9.76936E-01 5.85055E-03-4.72012E-01-6.81228E-14 2.74342E-13
 -1      3958 1.91810E+01 7.98409E-01-5.39003E-04-4.60746E-01-5.12043E-14-6.68076E-14
 -1      3959 1.92741E+01 7.45441E-01-3.19943E-03-4.08131E-01-6.39240E-14 1.41396E-15
 -1      3960 1.90252E+01 8.75690E-01 4.60885E-03-3.80241E-01-4.85490E-14 1.75277E-13
 -1      3961 1.93825E+01 6.92921E-01-4.75025E-04-3.69384E-01 1.87488E-15-6.32617E-14
 -1      3962 1.94567E+01 6.38672E-01-2.55961E-03-3.25314E-01 6.28064E-14 7.35621E-14
 -1      3963 1.92613E+01 7.63262E-01 3.65640E-03-3.05611E-01-1.82321E-14 7.57821E-14
 -1      3964 1.95421E+01 5.86515E-01-3.66816E-04-2.93271E-01 4.63935E-14 4.54265E-14
 -1      3965 1.96002E+01 5.34561E-01-2.06507E-03-2.56381E-01-5.82313E-15 3.40256E-15
 -1      3966 1.94483E+01 6.49377E-01 2.90412E-03-2.43676E-01 1.64660E-14 7.20975E-14
 -1      3967 1.96670E+01 4.85705E-01-2.57410E-04-2.29943E-01 2.51399E-15-1.03555E-13
 -1      3968 1.97117E+01 4.38225E-01-1.66584E-03-1.99309E-01 4.91021E-14-9.93246E-14
 -1      3969 1.95949E+01 5.40712E-01 2.29520E-03-1.92064E-01 7.18886E-15-6.42889E-14
 -1      3970 1.97631E+01 3.94339E-01-1.63785E-04-1.77686E-01 4.45052E-14-1.92651E-13
 -1      3971 1.97969E+01 3.52462E-01-1.33546E-03-1.52556E-01-5.45395E-14-2.72104E-13
 -1      3972 1.97084E+01 4.41457E-01 1.79761E-03-1.49289E-01-5.44883E-14-2.83236E-13
 -1      3973 1.98360E+01 3.14299E-01-9.09786E-05-1.35090E-01-6.94612E-14-2.35083E-13
 -1      3974 1.98611E+01 2.78408E-01-1.05975E-03-1.14771E-01-1.14950E-13-1.81102E-13
 -1      3975 1.97952E+01 3.53840E-01 1.39139E-03-1.14219E-01 5.32858E-15-2.30789E-13
 -1      3976 1.98903E+01 2.46094E-01-3.83677E-05-1.00867E-01-1.91719E-13-2.26924E-14
 -1      3977 1.99086E+01 2.16070E-01-8.30258E-04-8.46925E-02-1.82186E-13 5.46570E-14
 -1      3978 1.98603E+01 2.78634E-01 1.06216E-03-8.58634E-02-2.53505E-14-2.14545E-13
 -1      3979 1.99300E+01 1.89327E-01-2.92382E-06-7.37970E-02-1.92909E-13 1.11621E-13
 -1      3980 1.99429E+01 1.64743E-01-6.41007E-04-6.11306E-02-7.64243E-14-3.20078E-14
 -1      3981 1.99084E+01 2.15612E-01 7.98235E-04-6.32874E-02-1.67073E-13 7.38831E-14
 -1      3982 1.99583E+01 1.43059E-01 1.90605E-05-5.27349E-02-1.23425E-13-1.03121E-13
 -1      3983 1.99672E+01 1.23319E-01-4.86950E-04-4.29825E-02-2.06815E-13-4.89045E-14
 -1      3984 1.99432E+01 1.63913E-01 5.89425E-04-4.56061E-02-1.94824E-13 5.48865E-15
 -1      3985 1.99780E+01 1.06069E-01 3.11140E-05-3.66270E-02-2.66796E-13-2.11798E-14
 -1      3986 1.99839E+01 9.05092E-02-3.63399E-04-2.92503E-02-2.71427E-13-1.26626E-13
 -1      3987 1.99677E+01 1.22323E-01 4.26628E-04-3.19941E-02-1.98370E-13-4.89463E-14
 -1      3988 1.99912E+01 7.70340E-02 3.62273E-05-2.45298E-02-3.27170E-13-2.28727E-13
 -1      3989 1.99949E+01 6.49895E-02-2.65894E-04-1.90548E-02-2.43181E-13-3.44303E-13
 -1      3990 1.99845E+01 8.94793E-02 3.01710E-04-2.17022E-02-3.50646E-13-2.25118E-13
 -1      3991 1.99996E+01 5.46518E-02 3.67633E-05-1.56212E-02 9.46353E-14-4.60783E-13
 -1      3992 2.00018E+01 4.54962E-02-1.90233E-04-1.16412E-02 1.98581E-13-2.87700E-13
 -1      3993 1.99955E+01 6.40070E-02 2.07500E-04-1.40694E-02-1.48535E-13-3.12050E-13
 -1      3994 2.00046E+01 3.77098E-02 3.45000E-05-9.20206E-03 1.93033E-13-1.27966E-13
 -1      3995 2.00057E+01 3.08788E-02-1.32553E-04-6.37665E-03 2.05139E-13-6.64853E-15
 -1      3996 2.00023E+01 4.46058E-02 1.37784E-04-8.52712E-03 2.89880E-13-1.38118E-13
 -1      3997 2.00072E+01 2.51242E-02 3.07289E-05-4.69188E-03 8.19752E-14 1.69550E-14
 -1      3998 2.00075E+01 2.01248E-02-8.95007E-05-2.74245E-03 1.01935E-13 3.13869E-14
 -1      3999 2.00062E+01 3.00999E-02 8.72635E-05-4.59872E-03 2.39819E-13-8.07095E-14
 -1      4000 2.00081E+01 1.59536E-02 2.62938E-05-1.61979E-03 9.95407E-14-7.62836E-14
 -1      4001 2.00080E+01 1.23668E-02-5.76454E-05-3.23759E-04 5.24408E-14-1.05906E-13
 -1      4002 2.00079E+01 1.94584E-02 5.15236E-05-1.89332E-03 4.71430E-14 6.10796E-14
 -1      4003 2.00080E+01 9.40427E-03 2.21187E-05 3.89024E-04-2.56703E-14-5.14293E-15
 -1      4004 2.00076E+01 6.87534E-03-3.51970E-05 1.20989E-03-1.90872E-13 6.51191E-15
 -1      4005 2.00083E+01 1.18082E-02 2.90517E-05-1.01691E-04 5.00655E-14-2.53049E-13
 -1      4006 2.00072E+01 4.80014E-03 1.82220E-05 1.62715E-03-2.47127E-13 1.06188E-13
 -1      4007 2.00066E+01 3.04915E-03-1.23666E-05 2.10468E-03-2.90044E-13-7.21840E-15
 -1      4008 2.00078E+01 6.39654E-03 1.12711E-05 1.02820E-03-1.73335E-13-2.26312E-13
 -1      4009 1.83784E+01 6.97512E-01-7.91436E-03 1.31085E+00-7.49668E-14-2.64458E-13
 -1      4010 1.83073E+01 6.07061E-01 8.04485E-03 1.47429E+00-5.71526E-14-2.63760E-13
 -1      4011 1.86711E+01 7.96040E-01-6.46997E-03 1.03574E+00 3.64617E-14-3.77049E-13
 -1      4012 1.85820E+01 7.64067E-01 4.13895E-03 1.16114E+00-2.03159E-14-3.33892E-13
 -1      4013 1.85408E+01 9.07097E-01 4.90442E-03 8.65300E-01-1.61941E-14-3.61496E-13
 -1      4014 1.80735E+01 4.68024E-01-8.74992E-03 1.68500E+00-6.14050E-14-1.40700E-13
 -1      4015 1.80445E+01 2.85210E-01 1.28769E-02 1.90363E+00-8.86510E-14-9.37985E-14
 -1      4016 1.77607E+01 7.10515E-01 4.38371E-03 1.45178E+00-8.67776E-15-1.31443E-13
 -1      4017 1.91619E+01 7.65864E-01-4.11734E-03 6.59654E-01 5.24736E-15-1.18114E-13
 -1      4018 1.90800E+01 7.94100E-01 1.07412E-03 7.40148E-01 2.48896E-14-1.49887E-13
 -1      4019 1.88463E+01 8.82966E-01 4.31216E-03 6.82019E-01-3.74762E-14-2.18281E-13
 -1      4020 1.93532E+01 6.92524E-01-3.32941E-03 5.25670E-01-4.03871E-14-4.62399E-14
 -1      4021 1.92824E+01 7.33342E-01 5.44277E-04 5.92111E-01-5.15331E-14-9.26817E-14
 -1      4022 1.91015E+01 8.16291E-01 3.68063E-03 5.40237E-01-5.57790E-14 6.11876E-14
 -1      4023 1.95103E+01 6.04551E-01-2.71694E-03 4.16067E-01-1.49816E-13 1.64499E-13
 -1      4024 1.94515E+01 6.50671E-01 2.91885E-04 4.71295E-01-7.95994E-14 9.15634E-14
 -1      4025 1.93111E+01 7.26623E-01 3.07068E-03 4.27651E-01-1.70250E-13-3.59969E-14
 -1      4026 1.96366E+01 5.13016E-01-2.22166E-03 3.26069E-01-1.35259E-13 2.68492E-13
 -1      4027 1.95893E+01 5.59584E-01 1.86860E-04 3.71916E-01-1.27711E-13 2.15543E-13
 -1      4028 1.94808E+01 6.27646E-01 2.52380E-03 3.36688E-01-2.04001E-13 3.33504E-13
 -1      4029 1.97362E+01 4.25006E-01-1.80910E-03 2.52426E-01-1.03820E-13 2.82539E-13
 -1      4030 1.96991E+01 4.68967E-01 1.50397E-04 2.90214E-01-1.21428E-13 2.24799E-13
 -1      4031 1.96161E+01 5.28610E-01 2.04396E-03 2.62712E-01-1.45182E-13 3.75467E-13
 -1      4032 1.98134E+01 3.44682E-01-1.46048E-03 1.92663E-01-9.76460E-14 3.98182E-13
 -1      4033 1.97850E+01 3.84301E-01 1.41602E-04 2.23473E-01-9.44990E-14 3.08700E-13
 -1      4034 1.97221E+01 4.35436E-01 1.62957E-03 2.02633E-01-1.42940E-13 3.11178E-13
 -1      4035 1.98720E+01 2.74118E-01-1.16542E-03 1.44707E-01-1.06563E-13 3.38393E-13
 -1      4036 1.98508E+01 3.08595E-01 1.40468E-04 1.69501E-01-1.02938E-13 3.15558E-13
 -1      4037 1.98039E+01 3.51535E-01 1.27788E-03 1.54162E-01-8.99998E-14 2.94176E-13
 -1      4038 1.99156E+01 2.13967E-01-9.17404E-04 1.06728E-01-8.45340E-14 2.70093E-13
 -1      4039 1.99002E+01 2.43135E-01 1.38326E-04 1.26397E-01-4.78662E-14 3.54498E-13
 -1      4040 1.98658E+01 2.78493E-01 9.84874E-04 1.15448E-01-1.53496E-13 4.11341E-13
 -1      4041 1.99474E+01 1.63967E-01-7.11385E-04 7.70825E-02-2.49612E-13 1.96836E-13
 -1      4042 1.99364E+01 1.88058E-01 1.32369E-04 9.24482E-02-1.43710E-13 2.34613E-13
 -1      4043 1.99117E+01 2.16634E-01 7.45302E-04 8.49051E-02-9.77921E-14 2.52901E-13
 -1      4044 1.99699E+01 1.23310E-01-5.42705E-04 5.42975E-02-1.66998E-13 2.70367E-13
 -1      4045 1.99624E+01 1.42788E-01 1.22559E-04 6.61102E-02-2.66924E-13 1.36967E-13
 -1      4046 1.99451E+01 1.65471E-01 5.53050E-04 6.11396E-02-2.02665E-13 6.53025E-14
 -1      4047 1.99853E+01 9.09088E-02-4.06760E-04 3.70739E-02-1.60914E-13 4.14480E-13
 -1      4048 1.99804E+01 1.06350E-01 1.09953E-04 4.60019E-02-1.40383E-13 4.23864E-13
 -1      4049 1.99687E+01 1.24040E-01 4.01623E-04 4.29247E-02-1.92435E-13 3.23047E-13
 -1      4050 1.99956E+01 6.55756E-02-2.98990E-04 2.42864E-02-2.20015E-13 1.97077E-13
 -1      4051 1.99925E+01 7.75880E-02 9.58490E-05 3.09115E-02-1.37737E-13 3.18419E-13
 -1      4052 1.99849E+01 9.11393E-02 2.84578E-04 2.91905E-02-1.02436E-13 4.02979E-13
 -1      4053 2.00019E+01 4.61357E-02-2.14999E-04 1.49794E-02-2.13562E-13 1.76199E-14
 -1      4054 2.00002E+01 5.53073E-02 8.14056E-05 1.97973E-02-2.44056E-13 3.71773E-15
 -1      4055 1.99956E+01 6.54989E-02 1.95853E-04 1.90183E-02-3.44364E-14 2.34588E-13
 -1      4056 2.00056E+01 3.14972E-02-1.50673E-04 8.35807E-03-1.06700E-13 4.83410E-14
 -1      4057 2.00048E+01 3.83680E-02 6.75099E-05 1.17816E-02-1.75206E-13-3.48027E-14
 -1      4058 2.00022E+01 4.58843E-02 1.29977E-04 1.16331E-02-1.31651E-13 2.19699E-14
 -1      4059 2.00073E+01 2.06853E-02-1.02468E-04 3.77341E-03-9.48966E-15 5.43077E-14
 -1      4060 2.00071E+01 2.57332E-02 5.47882E-05 6.13948E-03-1.08485E-13 3.28048E-15
 -1      4061 2.00059E+01 3.11588E-02 8.21536E-05 6.39260E-03-1.56976E-13-6.70539E-15
 -1      4062 2.00077E+01 1.28561E-02-6.71952E-05 7.07545E-04-7.88364E-14 4.98417E-14
 -1      4063 2.00079E+01 1.64916E-02 4.36834E-05 2.28541E-03 5.93630E-14 2.75750E-14
 -1      4064 2.00077E+01 2.03137E-02 4.81861E-05 2.77472E-03 4.54485E-15 1.60330E-13
 -1      4065 2.00073E+01 7.29866E-03-4.39386E-05-1.25375E-03-1.51580E-13 2.13885E-13
 -1      4066 2.00078E+01 9.87624E-03 3.65807E-05-2.43275E-04-1.72499E-13 1.16269E-13
 -1      4067 2.00081E+01 1.24839E-02 2.56886E-05 3.72337E-04-2.06185E-13 1.53479E-13
 -1      4068 2.00064E+01 3.40984E-03-1.92119E-05-2.41600E-03-5.57513E-14 2.95843E-13
 -1      4069 2.00070E+01 5.20925E-03 3.04893E-05-1.81387E-03-6.95006E-14 2.28319E-13
 -1      4070 2.00076E+01 6.93117E-03 2.35791E-06-1.16061E-03-6.74107E-14-9.13506E-14
 -1      4071 1.47913E+01 1.44832E+00-1.40096E-02 1.01220E+00 4.68198E-14-1.48610E-13
 -1      4072 1.42423E+01 1.63441E+00 4.87625E-02 1.91788E-01 2.44241E-14-1.72074E-13
 -1      4073 1.49761E+01 1.69630E+00 1.45335E-02-3.03011E-01 1.06963E-14-1.22767E-13
 -1      4074 1.54750E+01 1.71142E+00-2.12397E-02 7.88199E-01 2.42987E-14-1.41583E-13
 -1      4075 1.89938E+01-1.10294E+00 3.26686E-02 3.21219E+00 2.23721E-14-5.66908E-15
 -1      4076 1.73167E+01 2.62314E+00-1.49875E-03 4.01028E-01 3.63191E-14-1.08565E-13
 -1      4077 2.00052E+01 4.25458E-05-2.69646E-06 2.46231E-03 3.69359E-14-6.73888E-14
 -1      4078 2.00056E+01 1.02837E-04-1.29162E-05 1.93770E-03-7.66828E-14 1.18879E-13
 -1      4079 2.00063E+01 1.26434E-03 1.76025E-05 1.52233E-03 2.32383E-14-5.56021E-15
 -1      4080 2.00056E+01 7.55171E-04 7.27187E-06 2.46772E-03 8.77556E-14 4.23572E-14
 -1      4081 1.79141E+01-7.21083E-01 7.34296E-03 2.87934E+00 8.88920E-14-2.24430E-13
 -1      4082 1.81068E+01 9.44957E-01-5.22304E-04-1.85209E+00 6.37110E-15-7.19973E-14
 -1      4083 2.00072E+01 3.00174E-03-1.72528E-05-2.87094E-04-1.80834E-13-1.18384E-13
 -1      4084 2.00071E+01 2.94243E-03-1.83923E-05-8.95504E-04-6.59639E-14-3.09425E-13
 -1      4085 2.00065E+01 2.96346E-03-8.82728E-06-2.17818E-03 7.03839E-14-7.92701E-14
 -1      4086 1.60056E+01 9.74063E-01 6.63902E-02-2.21771E+00-1.00258E-14-1.03925E-13
 -1      4087 1.70327E+01 1.68672E-01-2.05768E-02-2.69642E+00-4.63778E-14-1.04642E-13
 -1      4088 1.76930E+01 5.14101E-01-2.06081E-02-2.27579E+00-3.71925E-15-7.47505E-14
 -1      4089 1.57254E+01 1.24387E+00 7.47494E-03-1.62710E+00-1.48475E-14-1.12473E-13
 -1      4090 1.50445E+01 8.59902E-01 6.50880E-02-1.54525E+00 1.27749E-14 2.20086E-13
 -1      4091 1.64033E+01 3.91508E-01-1.65778E-02-2.01943E+00 8.33734E-14 1.76175E-13
 -1      4092 1.72261E+01 7.71205E-01 3.45419E-03-1.48060E+00 1.99383E-14 2.30306E-13
 -1      4093 1.74306E+01 8.62208E-01-1.63597E-02-1.28015E+00 2.85858E-14 2.48207E-13
 -1      4094 1.73093E+01 1.06211E+00 1.67389E-02-9.72218E-01 5.07305E-14 2.17783E-13
 -1      4095 1.49862E+01 9.55741E-01-2.53239E-03-7.32827E-01 9.82547E-15 2.88934E-13
 -1      4096 1.56306E+01 6.70540E-01 1.47137E-02 1.64179E+00-8.97440E-14 2.28589E-13
 -1      4097 1.48095E+01 8.28389E-01 3.55690E-02 1.39130E+00-1.12182E-13 4.00117E-13
 -1      4098 1.47595E+01 9.73131E-01-3.31370E-02 6.60237E-01-3.17593E-14 3.14143E-13
 -1      4099 1.81423E+01-3.61547E-01 2.14996E-02 2.48774E+00 3.11982E-14-7.46663E-14
 -1      4100 1.71634E+01-2.58471E-01 4.09005E-04 2.66864E+00 1.22905E-15-3.73373E-14
 -1      4101 1.66118E+01 1.70806E-01-1.35645E-02 2.26982E+00-1.02841E-13 9.43954E-14
 -1      4102 1.79741E+01-8.31307E-03-3.61546E-03 2.20843E+00-7.20039E-14-8.70062E-14
 -1      4103 1.81811E+01 8.62255E-01 5.55437E-03 1.11079E+00-3.67165E-15-3.27356E-13
 -1      4104 2.00060E+01 1.52363E-03 3.62556E-06 2.36181E-03-1.61967E-13 1.14277E-13
 -1      4105 1.66608E+01 6.34121E-01-2.04176E-02-1.69519E+00 4.33236E-14 1.61576E-13
 -1      4106 1.69617E+01 2.41060E+00-1.72761E-02 4.63470E-01 1.12672E-14-1.17209E-13
 -1      4107 1.73925E+01 2.44710E+00 1.70024E-02 6.61867E-01 3.11008E-14-8.58302E-14
 -1      4108 1.74564E+01 2.14272E+00-3.88564E-03 9.15777E-01 2.83667E-14-8.96745E-14
 -1      4109 1.66485E+01 2.25570E+00-1.36743E-02 4.37060E-01-5.09163E-15-1.15237E-13
 -1      4110 1.64772E+01 9.40338E-01 2.94899E-02-1.29278E+00 8.23458E-14 1.57545E-13
 -1      4111 1.71728E+01 1.33203E+00 2.98201E-02-1.74403E+00 1.75301E-14-1.06125E-13
 -1      4112 2.00069E+01 3.05096E-03-7.40759E-06-1.58421E-03-1.05301E-14-3.03310E-13
 -1      4113 1.74422E+01 3.37412E-01-1.73579E-03 1.97308E+00-5.51621E-14 6.08435E-14
 -1      4114 2.00072E+01 2.95457E-03-2.23825E-05 1.57049E-04-1.68263E-13 1.81300E-14
 -1      4115 2.00078E+01 4.56904E-03 3.69538E-05-1.25560E-04-3.70288E-14-1.09290E-13
 -1      4116 2.00072E+01 2.89841E-03-1.07168E-05 6.42175E-04-6.16928E-14 4.98239E-14
 -1      4117 2.00075E+01 4.72930E-03 2.85741E-05-1.10521E-03-4.82067E-14-3.86244E-13
 -1      4118 1.65644E+01 1.55055E+00-1.11652E-02-1.41276E+00 4.25658E-15-1.22607E-13
 -1      4119 2.00067E+01 2.52969E-03-4.28503E-06 1.72897E-03-1.37124E-13-3.06092E-15
 -1      4120 1.51542E+01 1.18434E+00 4.49831E-02-4.88292E-02 2.60664E-15 2.43404E-13
 -1      4121 1.57182E+01 9.95218E-01-2.24864E-02-8.48706E-01 4.34297E-14 2.60021E-13
 -1      4122 1.72520E+01 1.71125E+00-5.95955E-03 1.28746E+00 1.19533E-14-8.40820E-14
 -1      4123 1.66001E+01 1.98844E+00 2.96132E-02 9.60288E-01 1.43373E-14-1.23984E-13
 -1      4124 1.90511E+01 8.30534E-01-4.61964E-03 3.99153E-01-1.43294E-13 1.44893E-13
 -1      4125 1.89384E+01 8.78500E-01-5.00273E-04 4.53987E-01-1.26970E-13 7.63855E-14
 -1      4126 1.87718E+01 9.16043E-01-6.06024E-03 5.07079E-01-8.15878E-14-1.19536E-14
 -1      4127 1.86363E+01 9.51634E-01-2.36539E-04 5.76941E-01-5.31490E-14-6.79023E-14
 -1      4128 1.87738E+01 9.66573E-01 1.11255E-02 3.60500E-01-1.27375E-13 1.39218E-13
 -1      4129 1.81229E+01 1.09641E+00-4.87832E-03-4.19550E-01-8.85651E-14 4.48747E-13
 -1      4130 1.83349E+01 1.06279E+00-6.48763E-03-3.65796E-01-1.41111E-13 3.99508E-13
 -1      4131 1.85498E+01 1.02065E+00-3.22637E-03-3.36755E-01-1.63057E-13 3.21144E-13
 -1      4132 1.87178E+01 9.71699E-01-4.68955E-03-2.96607E-01-1.23277E-13 2.55075E-13
 -1      4133 1.83937E+01 1.09603E+00 1.27100E-02-1.71192E-01-2.33388E-13 2.26511E-13
 -1      4134 1.88858E+01 9.19366E-01-2.49892E-03-2.73493E-01-4.10810E-14 2.16681E-13
 -1      4135 1.90196E+01 8.62881E-01-3.52841E-03-2.40932E-01-7.10442E-14 1.80865E-13
 -1      4136 1.87645E+01 9.88915E-01 1.00281E-02-1.43741E-01-1.49898E-13 2.43662E-13
 -1      4137 1.91523E+01 8.05550E-01-1.95311E-03-2.21840E-01-1.15492E-13 1.31912E-13
 -1      4138 1.92587E+01 7.46759E-01-2.72639E-03-1.94463E-01-4.87555E-14 5.20557E-14
 -1      4139 1.90570E+01 8.69712E-01 7.82445E-03-1.19549E-01-1.27391E-13 8.76091E-14
 -1      4140 1.93634E+01 6.88926E-01-1.52768E-03-1.78556E-01 5.05034E-14 1.57852E-15
 -1      4141 1.94472E+01 6.31629E-01-2.13760E-03-1.55285E-01 1.30803E-14-5.41088E-14
 -1      4142 1.92886E+01 7.47258E-01 6.12553E-03-9.82134E-02-1.22379E-14 3.33555E-15
 -1      4143 1.95294E+01 5.76529E-01-1.18690E-03-1.42059E-01-1.11081E-13-6.39109E-14
 -1      4144 1.95947E+01 5.23285E-01-1.68355E-03-1.22336E-01-6.90949E-14-1.50075E-13
 -1      4145 1.94710E+01 6.28502E-01 4.79353E-03-7.95026E-02-4.56862E-14-1.08771E-13
 -1      4146 1.96585E+01 4.72977E-01-9.12062E-04-1.11438E-01-2.88549E-14-1.54347E-13
 -1      4147 1.97087E+01 4.25291E-01-1.32214E-03-9.48967E-02-6.90269E-14-1.50203E-13
 -1      4148 1.96135E+01 5.18286E-01 3.73189E-03-6.32976E-02-7.76208E-14-1.84334E-13
 -1      4149 1.97576E+01 3.80877E-01-6.91482E-04-8.60368E-02-8.99064E-14-1.56234E-13
 -1      4150 1.97957E+01 3.39432E-01-1.02995E-03-7.23605E-02-3.57726E-14-1.45363E-13
 -1      4151 1.97234E+01 4.19536E-01 2.87912E-03-4.95021E-02-1.16837E-13-8.48361E-14
 -1      4152 1.98326E+01 3.01299E-01-5.16274E-04-6.52711E-02 2.52745E-14-2.67267E-13
 -1      4153 1.98610E+01 2.66184E-01-7.92979E-04-5.41442E-02-1.91950E-14-1.98304E-13
 -1      4154 1.98070E+01 3.33611E-01 2.19430E-03-3.79838E-02-6.82192E-14-2.27198E-13
 -1      4155 1.98884E+01 2.34216E-01-3.78894E-04-4.85690E-02-4.80452E-14-1.29184E-13
 -1      4156 1.99091E+01 2.05122E-01-6.01737E-04-3.96680E-02-1.44381E-13-8.51673E-14
 -1      4157 1.98696E+01 2.60700E-01 1.64783E-03-2.85582E-02-1.68906E-14-2.82414E-13
 -1      4158 1.99290E+01 1.78887E-01-2.72706E-04-3.53633E-02-2.72133E-13 8.35273E-14
 -1      4159 1.99439E+01 1.55266E-01-4.48968E-04-2.83649E-02-2.24976E-13 9.07064E-15
 -1      4160 1.99156E+01 2.00192E-01 1.21626E-03-2.09985E-02-1.46036E-13-2.28864E-13
 -1      4161 1.99580E+01 1.34153E-01-1.91881E-04-2.51046E-02-1.61237E-13 4.84979E-14
 -1      4162 1.99683E+01 1.15334E-01-3.28559E-04-1.96985E-02-1.89533E-13 5.76276E-14
 -1      4163 1.99486E+01 1.50984E-01 8.79914E-04-1.50550E-02-2.17043E-13-5.66770E-15
 -1      4164 1.99781E+01 9.86559E-02-1.31375E-04-1.72796E-02-2.99176E-13-1.42991E-14
 -1      4165 1.99850E+01 8.39346E-02-2.35120E-04-1.31788E-02-3.34582E-13-6.24423E-14
 -1      4166 1.99717E+01 1.11716E-01 6.21772E-04-1.04743E-02-2.29777E-13 8.02821E-14
 -1      4167 1.99915E+01 7.09952E-02-8.68990E-05-1.14242E-02-2.41217E-13-6.17269E-14
 -1      4168 1.99959E+01 5.96857E-02-1.63858E-04-8.37302E-03-7.98247E-14 4.63007E-14
 -1      4169 1.99874E+01 8.09471E-02 4.27026E-04-7.01473E-03-3.15705E-13 1.22872E-13
 -1      4170 2.00000E+01 4.98274E-02-5.48732E-05-7.13217E-03 1.05368E-13-5.90165E-14
 -1      4171 2.00027E+01 4.12971E-02-1.10547E-04-4.90925E-03 3.76369E-13-1.63264E-14
 -1      4172 1.99975E+01 5.72697E-02 2.82901E-04-4.45699E-03 1.50360E-14 3.67289E-14
 -1      4173 2.00050E+01 3.39243E-02-3.23572E-05-4.05786E-03 3.50186E-13-1.24454E-13
 -1      4174 2.00064E+01 2.76109E-02-7.15183E-05-2.47657E-03 2.47933E-13-1.34974E-13
 -1      4175 2.00037E+01 3.93792E-02 1.78490E-04-2.60941E-03 2.22406E-13-1.71658E-13
 -1      4176 2.00076E+01 2.22018E-02-1.69968E-05-1.91383E-03 1.41434E-13-1.95332E-13
 -1      4177 2.00081E+01 1.76196E-02-4.29985E-05-8.20953E-04 1.11254E-15-2.49818E-13
 -1      4178 2.00070E+01 2.61127E-02 1.04395E-04-1.31003E-03 1.37876E-13-3.35905E-13
 -1      4179 2.00084E+01 1.37137E-02-1.07011E-05-4.66541E-04 2.62085E-14-1.53746E-13
 -1      4180 2.00084E+01 1.04683E-02-2.30103E-05 2.47138E-04 3.31892E-14-1.96024E-13
 -1      4181 2.00084E+01 1.64591E-02 5.11556E-05-4.22940E-04 6.27936E-14-1.85700E-13
 -1      4182 1.74910E+01 9.00511E-01-1.19307E-02 1.10438E+00 1.98919E-14-9.54053E-14
 -1      4183 1.72840E+01 8.33686E-01 9.14656E-03 1.28456E+00-3.95038E-14-4.04294E-14
 -1      4184 1.92764E+01 7.29547E-01-3.60724E-03 3.13870E-01-1.73767E-13 1.39495E-13
 -1      4185 1.91843E+01 7.83113E-01-5.17100E-04 3.58088E-01-1.32262E-13 7.25764E-14
 -1      4186 1.90577E+01 8.61854E-01 8.81009E-03 2.81279E-01-1.63009E-13 2.43706E-13
 -1      4187 1.94566E+01 6.23990E-01-2.86172E-03 2.45435E-01-2.46866E-13 2.11954E-13
 -1      4188 1.93826E+01 6.78275E-01-4.61391E-04 2.81572E-01-2.57829E-13 1.64997E-13
 -1      4189 1.92848E+01 7.48149E-01 6.92401E-03 2.19376E-01-2.06439E-13 1.89786E-13
 -1      4190 1.95991E+01 5.21467E-01-2.28408E-03 1.90218E-01-8.70728E-14 2.59147E-13
 -1      4191 1.95407E+01 5.73172E-01-3.71673E-04 2.19839E-01-8.76516E-14 3.39575E-13
 -1      4192 1.94653E+01 6.34363E-01 5.43152E-03 1.70350E-01-1.98860E-13 1.71156E-13
 -1      4193 1.97103E+01 4.26800E-01-1.82060E-03 1.45734E-01-1.40883E-13 1.22775E-13
 -1      4194 1.96650E+01 4.73896E-01-2.75405E-04 1.69916E-01-8.85518E-14 1.67481E-13
 -1      4195 1.96074E+01 5.26604E-01 4.24059E-03 1.31258E-01-7.19346E-14 6.87164E-14
 -1      4196 1.97956E+01 3.42646E-01-1.44175E-03 1.10125E-01-8.43192E-14 2.31488E-13
 -1      4197 1.97612E+01 3.84083E-01-1.87913E-04 1.29700E-01-1.19626E-13 1.53048E-13
 -1      4198 1.97176E+01 4.28680E-01 3.28271E-03 1.00072E-01-1.26260E-13 1.84581E-14
 -1      4199 1.98601E+01 2.70080E-01-1.13027E-03 8.18947E-02-1.38960E-13 2.18099E-13
 -1      4200 1.98344E+01 3.05518E-01-1.15825E-04 9.75627E-02-9.96731E-14 2.22987E-13
 -1      4201 1.98020E+01 3.42576E-01 2.51145E-03 7.53067E-02-1.53407E-13 1.55481E-13
 -1      4202 1.99079E+01 2.09085E-01-8.74995E-04 5.97795E-02-8.51304E-14 1.85530E-13
 -1      4203 1.98892E+01 2.38666E-01-6.05486E-05 7.21568E-02-1.14125E-13 1.98758E-13
 -1      4204 1.98654E+01 2.68916E-01 1.89372E-03 5.57988E-02-1.22365E-13 2.09953E-14
 -1      4205 1.99426E+01 1.58951E-01-6.67586E-04 4.26882E-02-2.34863E-13 1.04307E-13
 -1      4206 1.99292E+01 1.83118E-01-2.07710E-05 5.23266E-02-1.02121E-13 1.34830E-13
 -1      4207 1.99122E+01 2.07381E-01 1.40381E-03 4.05956E-02-1.02746E-13 6.21938E-14
 -1      4208 1.99672E+01 1.18574E-01-5.01086E-04 2.96756E-02-1.51667E-13 8.78495E-14
 -1      4209 1.99579E+01 1.37930E-01 5.99031E-06 3.70664E-02-2.47815E-13 6.12298E-15
 -1      4210 1.99460E+01 1.57058E-01 1.02027E-03 2.88955E-02-1.37063E-13-8.36035E-14
 -1      4211 1.99840E+01 8.66709E-02-3.69293E-04 1.99294E-02 5.13887E-15 1.79318E-13
 -1      4212 1.99779E+01 1.01884E-01 2.25011E-05 2.55039E-02-9.30529E-14 1.52768E-13
 -1      4213 1.99698E+01 1.16705E-01 7.24526E-04 2.00189E-02-2.07393E-13-2.53544E-13
 -1      4214 1.99951E+01 6.19254E-02-2.66570E-04 1.27612E-02-1.94904E-14 1.39545E-13
 -1      4215 1.99912E+01 7.36637E-02 3.13536E-05 1.68907E-02 3.44884E-14 2.24331E-13
 -1      4216 1.99860E+01 8.49457E-02 5.00341E-04 1.33907E-02-2.23545E-14-1.86787E-13
 -1      4217 2.00020E+01 4.30836E-02-1.87817E-04 7.59637E-03-1.37463E-13 1.39021E-13
 -1      4218 1.99998E+01 5.19745E-02 3.47665E-05 1.05946E-02-8.38124E-14 2.54215E-13
 -1      4219 1.99966E+01 6.04046E-02 3.33607E-04 8.52895E-03-8.78328E-14 1.55045E-13
 -1      4220 2.00059E+01 2.90050E-02-1.28478E-04 3.96325E-03-4.01204E-14 1.20668E-13
 -1      4221 2.00048E+01 3.56122E-02 3.45364E-05 6.09036E-03-1.19532E-13 1.35212E-13
 -1      4222 2.00031E+01 4.17871E-02 2.12252E-04 5.03517E-03-8.82148E-14 1.69612E-13
 -1      4223 2.00077E+01 1.86887E-02-8.34291E-05 1.48162E-03 1.66318E-15 6.14809E-14
 -1      4224 2.00074E+01 2.35031E-02 3.21681E-05 2.94857E-03 1.90166E-14 1.23721E-13
 -1      4225 2.00066E+01 2.79273E-02 1.26070E-04 2.58457E-03-2.80213E-15-2.81252E-14
 -1      4226 2.00082E+01 1.12775E-02-5.18606E-05-1.34068E-04-2.91203E-14-3.82778E-13
 -1      4227 2.00083E+01 1.47031E-02 2.67240E-05 8.19068E-04-4.60775E-14-1.27947E-13
 -1      4228 2.00082E+01 1.78072E-02 6.45828E-05 9.11864E-04 1.07863E-13-2.88771E-13
 -1      4229 2.00078E+01 6.45156E-03-2.50399E-05-1.00244E-03-1.63872E-14-3.90782E-13
 -1      4230 2.00082E+01 8.93800E-03 3.51528E-05-4.25433E-04-6.67853E-14-3.35644E-13
 -1      4231 2.00084E+01 1.10103E-02 2.07109E-05-9.88507E-05-7.00609E-15-6.87151E-13
 -1      4232 2.00080E+01 6.39447E-03-1.48615E-05-4.74849E-04-7.14828E-14-4.70280E-13
 -1      4233 1.58453E+01 1.86803E+00 2.19253E-02-8.57825E-01 9.50628E-16-1.23174E-13
 -1      4234 1.61546E+01 1.96872E+00-1.00689E-02 6.19037E-01 6.84739E-15-1.28574E-13
 -1      4235 1.63037E+01 1.06961E+00-2.27944E-02-6.93258E-01 3.44360E-14 2.63693E-13
 -1      4236 1.69519E+01 4.50220E-01 1.46991E-02 1.90021E+00 1.12079E-16 5.02223E-14
 -1      4237 1.62163E+01 5.64677E-01 1.05432E-02 1.85104E+00-6.01991E-14 5.61844E-14
 -1      4238 1.59102E+01 8.32009E-01-2.45970E-02 1.29975E+00 6.20319E-14 1.99017E-13
 -1      4239 1.69917E+01 6.62733E-01-1.47343E-02 1.58001E+00-6.03847E-14 4.42764E-14
 -1      4240 2.00070E+01 2.77341E-03-1.19496E-05 1.26886E-03-7.25254E-14-1.49706E-13
 -1      4241 2.00076E+01 4.42396E-03 1.96236E-05 8.41085E-04-1.68332E-13 5.33999E-14
 -1      4242 1.58040E+01 2.05035E+00 1.77632E-02 2.09304E-01 1.01197E-14-1.27116E-13
 -1      4243 1.80043E+01 9.76435E-01-1.03159E-02 8.38290E-01 4.08556E-14-1.02276E-13
 -1      4244 1.78233E+01 9.56565E-01 3.61640E-03 9.69088E-01 2.64756E-14-6.44274E-14
 -1      4245 1.74115E+01 1.06129E+00 9.17658E-03 7.99624E-01 2.54466E-14 9.73701E-14
 -1      4246 1.56142E+01 1.95283E+00-1.85358E-03-3.60416E-01 4.83446E-16-1.26134E-13
 -1      4247 1.84269E+01 9.70843E-01-8.23858E-03 6.48167E-01-5.47930E-14-5.15693E-14
 -1      4248 1.82685E+01 9.84599E-01 6.17204E-04 7.40931E-01-1.05230E-14-7.85179E-14
 -1      4249 1.79682E+01 1.08674E+00 1.12590E-02 6.03110E-01 3.10087E-14 1.09516E-13
 -1      4250 1.84176E+01 1.04979E+00 1.31374E-02 4.63848E-01-9.00115E-14 2.03601E-13
 -1      4251 1.68223E+01 1.11028E+00-8.45558E-03-6.34778E-01 7.17323E-14 2.53670E-13
 -1      4252 1.71675E+01 1.13230E+00-1.39511E-02-5.24926E-01 6.48332E-14 2.76205E-13
 -1      4253 1.63883E+01 1.21879E+00 2.28590E-02-2.00608E-01 4.80875E-14 2.33923E-13
 -1      4254 1.75630E+01 1.13251E+00-5.96046E-03-5.09562E-01 1.40314E-13 3.29116E-13
 -1      4255 1.78304E+01 1.12101E+00-9.44493E-03-4.37087E-01 1.10973E-13 4.79099E-13
 -1      4256 1.78992E+01 1.18109E+00 1.41883E-02-1.83211E-01 2.25782E-14 2.65999E-13
 -1      4257 1.72532E+01 1.21680E+00 1.54864E-02-1.83792E-01 1.17201E-13 3.16520E-13
 -1      4258 1.67981E+01 9.23593E-01 8.52967E-03 1.19951E+00 4.75715E-14 8.45442E-14
 -1      4259 2.00082E+01 7.70791E-03 8.99936E-08 4.78263E-04-1.71383E-14-1.95005E-13
 -1      4260 2.00078E+01 5.43007E-03-1.73439E-05 8.91315E-04-1.32468E-13-5.87495E-14
 -1      4261 2.00084E+01 9.53285E-03 2.28575E-05 1.66267E-04 4.48144E-14-4.71865E-14
 -1      4262 1.73389E+01 1.91635E+00-1.37591E-02 1.08780E+00 2.33153E-14-8.83918E-14
 -1      4263 2.00079E+01 5.54144E-03-2.37819E-05 3.39080E-04-5.79935E-14 1.73213E-13
 -1      4264 1.55934E+01 1.09140E+00 7.74380E-03 3.89263E-01 2.00152E-14 2.74040E-13
 -1      4265 1.64245E+01 9.94743E-01 1.04634E-02 9.66572E-01 1.06403E-13 2.64338E-13
 -1      4266 1.59192E+01 1.09569E+00 1.94313E-02 7.52623E-01 7.44086E-14 3.51313E-13
 -1      4267 1.60453E+01 1.13770E+00-1.96181E-02 1.33366E-01 3.50789E-14 3.12758E-13
 -1      4268 1.66790E+01 1.07187E+00-1.39868E-02 7.04100E-01 5.18726E-14 2.60144E-13
 -1      4269 2.00081E+01 6.41168E-03-7.68157E-06 8.58894E-05 4.22645E-14 1.39343E-13
 -1      4270 2.00080E+01 6.41145E-03-2.72652E-05-2.50085E-04-6.76621E-15-1.40346E-13
 -1      4271 1.87047E+01 9.64354E-01-8.50659E-03 8.76148E-02-1.71706E-13 2.84916E-13
 -1      4272 1.88753E+01 9.13632E-01-5.30860E-03 8.99603E-02-1.50521E-13 3.15500E-13
 -1      4273 1.90081E+01 8.54658E-01-6.65147E-03 6.41345E-02-1.67243E-13 3.27656E-13
 -1      4274 1.91433E+01 7.99008E-01-4.11884E-03 6.73446E-02-1.24193E-13 2.14121E-13
 -1      4275 1.92492E+01 7.38549E-01-5.20157E-03 4.70341E-02-1.19829E-13 1.85994E-13
 -1      4276 1.93559E+01 6.82321E-01-3.18203E-03 5.05889E-02-6.95712E-14 1.72989E-13
 -1      4277 1.94396E+01 6.23929E-01-4.07981E-03 3.44183E-02-4.52194E-14 4.38820E-14
 -1      4278 1.95233E+01 5.70283E-01-2.44682E-03 3.80106E-02-5.27320E-14-2.16501E-14
 -1      4279 1.95887E+01 5.16342E-01-3.19527E-03 2.50621E-02-6.33577E-14-6.27917E-14
 -1      4280 1.96537E+01 4.67303E-01-1.86569E-03 2.84779E-02-8.46267E-14-1.33458E-13
 -1      4281 1.97042E+01 4.19199E-01-2.48730E-03 1.81129E-02-1.79913E-13-8.31702E-14
 -1      4282 1.97540E+01 3.75865E-01-1.40539E-03 2.12126E-02-1.74622E-13-1.05123E-13
 -1      4283 1.97923E+01 3.34199E-01-1.91735E-03 1.29566E-02-1.32954E-13-5.41072E-14
 -1      4284 1.98300E+01 2.96966E-01-1.04229E-03 1.56645E-02-8.80526E-14-1.03171E-13
 -1      4285 1.98586E+01 2.61766E-01-1.45940E-03 9.14265E-03-8.92651E-14-1.32145E-13
 -1      4286 1.98865E+01 2.30537E-01-7.58496E-04 1.14337E-02-1.02723E-13-1.53227E-13
 -1      4287 1.99075E+01 2.01450E-01-1.09419E-03 6.33629E-03-8.63482E-14-1.38247E-13
 -1      4288 1.99278E+01 1.75815E-01-5.39504E-04 8.22146E-03-9.33971E-14-9.63755E-14
 -1      4289 1.99428E+01 1.52258E-01-8.06160E-04 4.28661E-03-1.49580E-13-2.25839E-13
 -1      4290 1.99573E+01 1.31626E-01-3.73155E-04 5.79962E-03-2.17857E-13-1.98859E-13
 -1      4291 1.99677E+01 1.12907E-01-5.82080E-04 2.80429E-03-1.97598E-13-1.45866E-13
 -1      4292 1.99777E+01 9.66088E-02-2.49091E-04 3.99090E-03-2.62635E-13-1.63557E-13
 -1      4293 1.99847E+01 8.20036E-02-4.10440E-04 1.74587E-03-2.18642E-13 6.19305E-14
 -1      4294 1.99913E+01 6.93616E-02-1.58508E-04 2.65605E-03-8.76753E-14 1.37381E-13
 -1      4295 1.99958E+01 5.81720E-02-2.81214E-04 1.00234E-03-9.40441E-14 1.64752E-13
 -1      4296 2.00000E+01 4.85432E-02-9.39943E-05 1.68510E-03 2.86067E-15 7.99070E-14
 -1      4297 2.00026E+01 4.01279E-02-1.85723E-04 4.90988E-04 2.33602E-14 1.86324E-14
 -1      4298 2.00051E+01 3.29294E-02-4.93182E-05 9.91161E-04 4.74606E-14-1.51742E-13
 -1      4299 2.00064E+01 2.67210E-02-1.16345E-04 1.49398E-04 1.21960E-13-2.89221E-13
 -1      4300 2.00077E+01 2.14412E-02-1.90137E-05 5.07179E-04 1.08154E-13-1.77425E-13
 -1      4301 2.00082E+01 1.69565E-02-6.51512E-05-6.99697E-05 1.21828E-13-2.19017E-13
 -1      4302 2.00085E+01 1.31733E-02 4.54471E-06 1.55847E-04 1.02546E-13-2.49583E-13
 -1      4303 2.00085E+01 1.04252E-02-2.96475E-05-1.31393E-04-2.78307E-14-1.15814E-13
 -1      4304 1.74215E+01 1.11856E+00-9.36476E-03 5.06657E-01 7.07696E-14 1.66275E-13
 -1      4305 1.71198E+01 1.11223E+00-5.43056E-04 6.07722E-01 2.92238E-14 2.10631E-13
 -1      4306 1.68167E+01 1.18226E+00 9.51083E-03 3.93242E-01 7.61204E-14 3.40452E-13
 -1      4307 1.83238E+01 1.05771E+00-1.04744E-02 1.20900E-01-1.70159E-13 1.59081E-13
 -1      4308 1.85393E+01 1.01711E+00-6.64143E-03 1.20949E-01-1.62712E-13 1.71856E-13
 -1      4309 1.65752E+01 1.18065E+00-6.34986E-03 1.32096E-01 1.00682E-13 3.15736E-13
 -1      4310 2.00083E+01 7.67217E-03 2.09764E-05 1.57409E-04 4.73518E-14 2.11348E-14
 -1      4311 1.81217E+01 1.09972E+00-6.46323E-03 1.64401E-01-8.74036E-14 1.24220E-13
 -1      4312 1.78324E+01 1.12946E+00-1.01622E-02 1.93422E-01 6.09948E-14 1.50533E-13
 -1      4313 2.00084E+01 8.51500E-03 1.48718E-05-1.54067E-04-6.92481E-14-2.09742E-13
 -1      4314 1.69957E+01 1.18603E+00-8.61394E-03 9.23085E-02 1.17266E-13 2.88125E-13
 -1      4315 1.73703E+01 1.19780E+00-1.15283E-03 6.32085E-02 1.01080E-13 2.54397E-13
 -1      4316 2.00085E+01 1.04523E-02-4.89944E-06-2.31658E-05 5.44636E-14-3.98587E-16
 -1      4317 1.75789E+01 1.14955E+00-4.18450E-03 2.48023E-01 9.55207E-14 2.08375E-13
 -3
    1PSTEP                         3           1           1          
  100CL  101 1.000000000        4317                     0    1           1
 -4  TOSTRAIN    6    1
 -5  EXX         1    4    1    1
 -5  EYY         1    4    2    2
 -5  EZZ         1    4    3    3
 -5  EXY         1    4    1    2
 -5  EYZ         1    4    2    3
 -5  EZX         1    4    3    1
 -1         1 2.57091E-04-6.32924E-05-7.21266E-05-9.00370E-05-1.90323E-18 6.78304E-18
 -1         2 3.64397E-05-1.11157E-04 2.01184E-05-7.29963E-07 1.40191E-18-2.39525E-19
 -1         3 9.52376E-05-2.85706E-05-2.85721E-05 5.68598E-10-3.93825E-18-4.01631E-18
 -1         4 9.52376E-05-2.85706E-05-2.85721E-05-5.10212E-10 3.08103E-19 1.73109E-18
 -1         5 1.45108E-04-2.13433E-05-4.38316E-05 3.78949E-05-1.05085E-19 7.41884E-18
 -1         6 1.46395E-04 2.69618E-10-4.54533E-05-5.23369E-05-4.19281E-19 6.82158E-18
 -1         7 9.55672E-05-8.26904E-07-4.07137E-05-2.64926E-05-7.59153E-20 1.49311E-18
 -1         8 8.92754E-05-3.80786E-08-3.79063E-05-1.58990E-05-8.09975E-20-1.40713E-19
 -1         9 8.54518E-05 2.20655E-08-3.63928E-05-1.04277E-05-6.38451E-20-1.04657E-18
 -1        10 8.24950E-05 3.12982E-08-3.51963E-05-6.71682E-06-2.87727E-20-1.46984E-18
 -1        11 8.00277E-05 4.53955E-08-3.42071E-05-4.12658E-06-3.70048E-20-1.73253E-18
 -1        12 7.80790E-05 5.88907E-08-3.34311E-05-2.39300E-06-2.25787E-20-1.78478E-18
 -1        13 7.66850E-05 7.12256E-08-3.28785E-05-1.23348E-06-1.50017E-20-1.79335E-18
 -1        14 7.59859E-05 7.74822E-08-3.26010E-05-4.37917E-07 1.91906E-21-1.79248E-18
 -1        15 7.60350E-05 7.62599E-08-3.26183E-05 2.56453E-07 1.39760E-20-1.74860E-18
 -1        16 7.68182E-05 6.78744E-08-3.29253E-05 1.11562E-06 2.05670E-20-1.67609E-18
 -1        17 7.82599E-05 5.30071E-08-3.34940E-05 2.38929E-06 4.99882E-20-1.58995E-18
 -1        18 8.02040E-05 3.94226E-08-3.42674E-05 4.25473E-06 3.58666E-20-1.38363E-18
 -1        19 8.26239E-05 2.78608E-08-3.52398E-05 6.98630E-06 8.34857E-20-1.05462E-18
 -1        20 8.54940E-05 2.76198E-08-3.64111E-05 1.08160E-05 6.90067E-20-4.93592E-19
 -1        21 8.91833E-05 4.09721E-08-3.79214E-05 1.62901E-05 1.01538E-19 6.76783E-19
 -1        22 9.61197E-05-3.60057E-07-4.03519E-05 2.53922E-05 1.14349E-20 2.82954E-18
 -1        23 1.18789E-04-4.01215E-05-3.71798E-05-3.56594E-06-2.77986E-19 5.28665E-18
 -1        24 1.02212E-04-3.05406E-05-3.17755E-05 5.41569E-07-4.19248E-20 4.13700E-18
 -1        25 1.01696E-04-3.06331E-05-3.06852E-05 4.63215E-07-4.90717E-20 2.91048E-18
 -1        26 1.03701E-04-3.11921E-05-3.11037E-05 3.04597E-07-6.09053E-21 1.94876E-18
 -1        27 1.06903E-04-3.21146E-05-3.20445E-05 2.62089E-07-3.59836E-20 1.49071E-18
 -1        28 1.10479E-04-3.31551E-05-3.30958E-05 2.32238E-07-3.19396E-20 1.35131E-18
 -1        29 1.13615E-04-3.40754E-05-3.39841E-05 1.76876E-07 3.73944E-20 8.19471E-19
 -1        30 1.15306E-04-3.45737E-05-3.44147E-05 5.72768E-08-2.00684E-19 5.19644E-19
 -1        31 1.14428E-04-3.43137E-05-3.40823E-05-1.54245E-07 1.31113E-19 2.05915E-19
 -1        32 1.10138E-04-3.30395E-05-3.27926E-05-4.40272E-07-1.78251E-19-1.17632E-19
 -1        33 1.02587E-04-3.07868E-05-3.06523E-05-6.96538E-07 1.55900E-19-3.29416E-19
 -1        34 9.35914E-05-2.80893E-05-2.82042E-05-7.43583E-07 4.39919E-20 5.29316E-19
 -1        35 8.64577E-05-2.59406E-05-2.63214E-05-4.53737E-07 9.92286E-21 5.22831E-19
 -1        36 8.44459E-05-2.53325E-05-2.58075E-05 8.58233E-08-7.02276E-20 4.18289E-19
 -1        37 8.86700E-05-2.66060E-05-2.69285E-05 5.83086E-07-3.40034E-19-2.73565E-19
 -1        38 9.72928E-05-2.91996E-05-2.92426E-05 7.83848E-07-1.46502E-19-9.04578E-19
 -1        39 1.06835E-04-3.20565E-05-3.18832E-05 6.67068E-07 1.89805E-20-1.19527E-18
 -1        40 1.14293E-04-3.42785E-05-3.40341E-05 3.93347E-07 1.84766E-19-1.25538E-18
 -1        41 1.18320E-04-3.54729E-05-3.52703E-05 1.29494E-07 1.28286E-19-1.03331E-18
 -1        42 1.19086E-04-3.56978E-05-3.55777E-05-4.50301E-08-5.25657E-20-6.46466E-19
 -1        43 1.17524E-04-3.52335E-05-3.51857E-05-1.27331E-07-3.57467E-19-1.10576E-18
 -1        44 1.14679E-04-3.43885E-05-3.43857E-05-1.46545E-07 8.42103E-20-7.64315E-20
 -1        45 1.11368E-04-3.34045E-05-3.34226E-05-1.32889E-07-3.24518E-20-5.04885E-19
 -1        46 1.08116E-04-3.24365E-05-3.24602E-05-1.06984E-07 1.83595E-19-9.50735E-19
 -1        47 1.05203E-04-3.15674E-05-3.15891E-05-7.99306E-08-1.87062E-19 2.62137E-19
 -1        48 1.02740E-04-3.08310E-05-3.08481E-05-5.64831E-08 1.06949E-19 1.67727E-18
 -1        49 1.00740E-04-3.02318E-05-3.02441E-05-3.79705E-08 8.93812E-20 8.70038E-19
 -1        50 9.91655E-05-2.97593E-05-2.97675E-05-2.41676E-08 4.97355E-20-1.16907E-19
 -1        51 9.79579E-05-2.93961E-05-2.94013E-05-1.42942E-08 1.45144E-19 4.53981E-19
 -1        52 9.70530E-05-2.91235E-05-2.91264E-05-7.47997E-09-5.36617E-19-7.00837E-19
 -1        53 9.63905E-05-2.89235E-05-2.89249E-05-2.94841E-09 2.92658E-19-2.55866E-18
 -1        54 9.59172E-05-2.87803E-05-2.87808E-05-6.93344E-11-6.19295E-20-6.13578E-19
 -1        55 9.55886E-05-2.86807E-05-2.86805E-05 1.64400E-09-1.53106E-19-2.83321E-18
 -1        56 9.53683E-05-2.86137E-05-2.86132E-05 2.55634E-09 2.37950E-19-3.78965E-18
 -1        57 9.52275E-05-2.85707E-05-2.85700E-05 2.93524E-09 8.20525E-19-3.55632E-18
 -1        58 9.51436E-05-2.85449E-05-2.85442E-05 2.97350E-09-4.23222E-19-4.42925E-18
 -1        59 9.50996E-05-2.85312E-05-2.85305E-05 2.80753E-09 2.12327E-19-2.23986E-18
 -1        60 9.50825E-05-2.85257E-05-2.85251E-05 2.53186E-09-3.69193E-19-6.64241E-19
 -1        61 9.50830E-05-2.85256E-05-2.85250E-05 2.21031E-09 1.08998E-19-6.09350E-19
 -1        62 9.50943E-05-2.85287E-05-2.85283E-05 1.88450E-09 3.54822E-19-3.72695E-19
 -1        63 9.51116E-05-2.85338E-05-2.85334E-05 1.58021E-09-3.18991E-19 2.65740E-19
 -1        64 9.51318E-05-2.85397E-05-2.85394E-05 1.31202E-09 1.06508E-19-1.09180E-18
 -1        65 9.51527E-05-2.85459E-05-2.85457E-05 1.08653E-09-4.16775E-19-1.55624E-18
 -1        66 9.51731E-05-2.85520E-05-2.85518E-05 9.04032E-10-1.98227E-19-2.78385E-19
 -1        67 9.51920E-05-2.85576E-05-2.85574E-05 7.58460E-10 5.51198E-19 1.57052E-18
 -1        68 9.52087E-05-2.85626E-05-2.85624E-05 6.33901E-10 4.16179E-19 6.15113E-18
 -1        69 9.52226E-05-2.85667E-05-2.85665E-05 4.91598E-10-4.02691E-19 6.77824E-18
 -1        70 9.52326E-05-2.85698E-05-2.85695E-05 2.09159E-10 4.67082E-19 6.03164E-18
 -1        71 9.52375E-05-2.85714E-05-2.85711E-05-2.23550E-10 3.64135E-21 4.90504E-18
 -1        72 1.07864E-04-3.22822E-05-3.59517E-05-2.27190E-06 1.08526E-19 6.91306E-18
 -1        73 1.01746E-04-3.02847E-05-3.16186E-05-4.29903E-07-2.84517E-20 5.54147E-18
 -1        74 1.01228E-04-3.03444E-05-3.05888E-05-1.92010E-07 8.61550E-20 4.41159E-18
 -1        75 1.02997E-04-3.09184E-05-3.09202E-05-1.72255E-07 1.43843E-20 3.68850E-18
 -1        76 1.05811E-04-3.17521E-05-3.17232E-05-1.81295E-07 1.87900E-20 3.35410E-18
 -1        77 1.08858E-04-3.26532E-05-3.26043E-05-1.97343E-07 5.60291E-21 3.22571E-18
 -1        78 1.11346E-04-3.33976E-05-3.32950E-05-1.96876E-07-1.04158E-19 3.08854E-18
 -1        79 1.12365E-04-3.37157E-05-3.35291E-05-1.46961E-07 2.81130E-19 2.52779E-18
 -1        80 1.10985E-04-3.33274E-05-3.30590E-05-1.35184E-08-2.20495E-19 1.52049E-18
 -1        81 1.06623E-04-3.20467E-05-3.17618E-05 2.10712E-07 2.53917E-19 1.16748E-18
 -1        82 9.96177E-05-2.99522E-05-2.97857E-05 4.66000E-07 8.26064E-20 4.60177E-19
 -1        83 9.16759E-05-2.75366E-05-2.76299E-05 6.16148E-07-3.36323E-20-1.23640E-19
 -1        84 8.56037E-05-2.56503E-05-2.60337E-05 5.24272E-07-2.12481E-19 2.25787E-18
 -1        85 8.40375E-05-2.51269E-05-2.56455E-05 1.82908E-07 1.67112E-19 1.79019E-18
 -1        86 8.78268E-05-2.62598E-05-2.66628E-05-2.35721E-07-1.35632E-19-8.21834E-19
 -1        87 9.54441E-05-2.85847E-05-2.87141E-05-5.12756E-07-5.34805E-20-7.21010E-19
 -1        88 1.04019E-04-3.12053E-05-3.10771E-05-5.59147E-07-9.94321E-20 5.50571E-19
 -1        89 1.10996E-04-3.33269E-05-3.30705E-05-4.32481E-07 2.42329E-19-5.98138E-19
 -1        90 1.15098E-04-3.45631E-05-3.43053E-05-2.46318E-07-2.72803E-19-1.11187E-18
 -1        91 1.16319E-04-3.49213E-05-3.47325E-05-8.46740E-08-5.31530E-20-2.24249E-20
 -1        92 1.15365E-04-3.46238E-05-3.45174E-05 2.12751E-08-1.28068E-19 5.98346E-19
 -1        93 1.13109E-04-3.39386E-05-3.38973E-05 7.51171E-08 4.67717E-20 5.61437E-19
 -1        94 1.10288E-04-3.30877E-05-3.30872E-05 9.29070E-08 2.75197E-19-2.72226E-18
 -1        95 1.07406E-04-3.22211E-05-3.22413E-05 9.02531E-08-2.16657E-19-1.83402E-18
 -1        96 1.04752E-04-3.14248E-05-3.14525E-05 7.81829E-08 2.96038E-19 1.47222E-18
 -1        97 1.02463E-04-3.07384E-05-3.07663E-05 6.32339E-08-5.77293E-20 2.95389E-18
 -1        98 1.00574E-04-3.01724E-05-3.01972E-05 4.87651E-08 1.56035E-19 3.09929E-18
 -1        99 9.90697E-05-2.97214E-05-2.97419E-05 3.62189E-08 9.77251E-20 1.48740E-18
 -1       100 9.79041E-05-2.93720E-05-2.93882E-05 2.60056E-08-2.40265E-19 2.32283E-18
 -1       101 9.70239E-05-2.91081E-05-2.91205E-05 1.80365E-08-3.46017E-20 3.76481E-18
 -1       102 9.63755E-05-2.89135E-05-2.89228E-05 1.20171E-08 2.98461E-19 2.44598E-18
 -1       103 9.59101E-05-2.87739E-05-2.87805E-05 7.59709E-09-9.67919E-20 2.24818E-18
 -1       104 9.55857E-05-2.86765E-05-2.86812E-05 4.44026E-09-4.17078E-19 4.65501E-18
 -1       105 9.53676E-05-2.86109E-05-2.86141E-05 2.25289E-09 3.57783E-19 3.69529E-18
 -1       106 9.52278E-05-2.85689E-05-2.85710E-05 7.91574E-10-5.36535E-19 1.57840E-18
 -1       107 9.51444E-05-2.85438E-05-2.85451E-05-1.38654E-10-2.35992E-19-1.42618E-18
 -1       108 9.51006E-05-2.85305E-05-2.85313E-05-6.90089E-10 1.07467E-18-3.11729E-18
 -1       109 9.50835E-05-2.85253E-05-2.85257E-05-9.79238E-10 3.26087E-19-3.34084E-18
 -1       110 9.50840E-05-2.85254E-05-2.85255E-05-1.09360E-09-3.30339E-19-3.26482E-18
 -1       111 9.50952E-05-2.85287E-05-2.85287E-05-1.09773E-09 3.99648E-19-3.27689E-18
 -1       112 9.51124E-05-2.85338E-05-2.85337E-05-1.03850E-09-9.34023E-19 1.09625E-18
 -1       113 9.51325E-05-2.85398E-05-2.85397E-05-9.49352E-10 1.69712E-19 4.14055E-18
 -1       114 9.51534E-05-2.85461E-05-2.85459E-05-8.53689E-10 1.26958E-19 1.11379E-18
 -1       115 9.51736E-05-2.85521E-05-2.85519E-05-7.67210E-10 3.43785E-19-4.11596E-18
 -1       116 9.51925E-05-2.85577E-05-2.85576E-05-6.98635E-10 3.25479E-19-6.04404E-18
 -1       117 9.52091E-05-2.85627E-05-2.85625E-05-6.48195E-10-5.16598E-19-4.93061E-18
 -1       118 9.52230E-05-2.85669E-05-2.85666E-05-5.97065E-10 1.91738E-19-4.31311E-18
 -1       119 9.52329E-05-2.85699E-05-2.85695E-05-4.45323E-10-2.23137E-20-5.92197E-18
 -1       120 9.52375E-05-2.85714E-05-2.85711E-05 6.31164E-11 1.96418E-18-8.55290E-18
 -1       121 9.52371E-05-2.85712E-05-2.85710E-05 2.14221E-10-9.03916E-18 9.80440E-19
 -1       122 9.52386E-05-2.85758E-05-2.85695E-05-2.99263E-10-2.92767E-18 5.73071E-19
 -1       123 9.52413E-05-2.85850E-05-2.85668E-05-5.35192E-10 6.95774E-18 4.03268E-18
 -1       124 9.52447E-05-2.85963E-05-2.85636E-05-5.74606E-10 1.50730E-17-8.47622E-20
 -1       125 9.52480E-05-2.86075E-05-2.85603E-05-5.07420E-10 1.19835E-17-7.02541E-19
 -1       126 9.52509E-05-2.86171E-05-2.85575E-05-3.93594E-10 5.91871E-18 2.99871E-19
 -1       127 9.52530E-05-2.86242E-05-2.85554E-05-2.44936E-10 2.91640E-18-1.68087E-19
 -1       128 9.52541E-05-2.86279E-05-2.85543E-05-8.21954E-11 1.49888E-18-2.57142E-19
 -1       129 9.52541E-05-2.86278E-05-2.85543E-05 8.46062E-11 1.13287E-19 4.13007E-19
 -1       130 9.52530E-05-2.86241E-05-2.85555E-05 2.46958E-10-3.45369E-19 6.15900E-19
 -1       131 9.52508E-05-2.86170E-05-2.85575E-05 3.99712E-10-3.29356E-18-5.61102E-19
 -1       132 9.52480E-05-2.86074E-05-2.85604E-05 5.09697E-10-5.34363E-18 6.19524E-20
 -1       133 9.52446E-05-2.85961E-05-2.85637E-05 5.74145E-10-8.53671E-18-7.63935E-20
 -1       134 9.52413E-05-2.85848E-05-2.85669E-05 5.74308E-10-3.52379E-18 8.14935E-19
 -1       135 9.52385E-05-2.85758E-05-2.85695E-05 4.16577E-10-1.60455E-18-4.95877E-19
 -1       136 9.52373E-05-2.85713E-05-2.85711E-05-4.83877E-10-4.92954E-18 3.56458E-20
 -1       137 2.45503E-05-8.53784E-05 1.53317E-05-2.35559E-05 6.24454E-18 1.98971E-18
 -1       138 8.05234E-06-3.11395E-05 2.17977E-06-1.48740E-05 8.52030E-18 3.25769E-18
 -1       139 1.26140E-05 1.57143E-05-1.56143E-05 2.55364E-05 7.17098E-18 6.21214E-18
 -1       140 6.38648E-05 2.62465E-05-3.69344E-05 8.21202E-05 5.79371E-18 6.53401E-18
 -1       141 1.53318E-04-6.71536E-06-5.63069E-05 1.13187E-04 3.12386E-18 5.38544E-18
 -1       142 2.49117E-04-5.89365E-05-7.10767E-05 9.21124E-05 9.81658E-19 3.91075E-18
 -1       143 3.06821E-04-9.35124E-05-7.88789E-05 2.13958E-05 1.49607E-19-9.47989E-19
 -1       144 2.89592E-04-8.26687E-05-7.66121E-05-6.02133E-05 9.79901E-19-5.82187E-18
 -1       145 2.02487E-04-3.18443E-05-6.42987E-05-1.10998E-04 3.80127E-18-8.73884E-18
 -1       146 1.00301E-04 1.67342E-05-4.61259E-05-1.02013E-04 5.97666E-18-8.69352E-18
 -1       147 2.71026E-05 2.71115E-05-2.45817E-05-4.98757E-05 7.43695E-18-6.77838E-18
 -1       148 4.48238E-06-9.61229E-06-4.15018E-06 4.33204E-06 6.69325E-18-3.97343E-18
 -1       149 1.72941E-05-6.58401E-05 1.08962E-05 2.65360E-05 4.50029E-18-1.32063E-18
 -1       150 3.48356E-05-1.07492E-04 1.92910E-05 1.26699E-05 1.39072E-18-2.24953E-19
 -1       151 3.37144E-05-1.05372E-04 1.89378E-05-1.50899E-05-3.27495E-18-7.30235E-19
 -1       152 1.65952E-05-6.39206E-05 1.04174E-05-2.60635E-05-7.68428E-18-2.35803E-18
 -1       153 4.94505E-06-8.97279E-06-4.57858E-06-3.22258E-06-7.57205E-18-4.69426E-18
 -1       154 3.21567E-05 2.49128E-05-2.56441E-05 5.21709E-05-6.86097E-18-6.06391E-18
 -1       155 1.04791E-04 1.38964E-05-4.67273E-05 1.01880E-04-4.84164E-18-7.52716E-18
 -1       156 2.04557E-04-3.29343E-05-6.45796E-05 1.09560E-04-2.57699E-18-6.01605E-18
 -1       157 2.89436E-04-8.21200E-05-7.66532E-05 6.25421E-05-6.41819E-19-2.78589E-18
 -1       158 3.09974E-04-9.56132E-05-7.90209E-05-1.91321E-05-9.99499E-20 2.50229E-18
 -1       159 1.60034E-04-9.99544E-06-5.74203E-05-1.13710E-04-4.51193E-18 9.18099E-18
 -1       160 6.70377E-05 2.53263E-05-3.77901E-05-8.38625E-05-8.79898E-18 1.00433E-17
 -1       161 1.25017E-05 1.65056E-05-1.59656E-05-2.56398E-05-1.04532E-17 8.36741E-18
 -1       162 7.26365E-06-3.37017E-05 3.21350E-06 1.91231E-05-7.30947E-18 3.27505E-18
 -1       163 2.62355E-05-8.85674E-05 1.57530E-05 2.45139E-05-3.19670E-18 1.55783E-18
 -1       164 1.00910E-04-1.42918E-05-3.72980E-05-1.82022E-05-9.67590E-19 6.36545E-19
 -1       165 9.34860E-05-9.50798E-06-3.61376E-05-1.25445E-05-8.70843E-19-3.86882E-19
 -1       166 8.83407E-05-6.61878E-06-3.51293E-05-8.44749E-06-6.63055E-19-9.54566E-19
 -1       167 8.43679E-05-4.71345E-06-3.42147E-05-5.45525E-06-4.52964E-19-1.31952E-18
 -1       168 8.12200E-05-3.32638E-06-3.34414E-05-3.35103E-06-3.00852E-19-1.40409E-18
 -1       169 7.88186E-05-2.31653E-06-3.28346E-05-1.88334E-06-1.43501E-19-1.49082E-18
 -1       170 7.73456E-05-1.71528E-06-3.24553E-05-8.81189E-07 3.32841E-20-1.44799E-18
 -1       171 7.69024E-05-1.54777E-06-3.23355E-05-1.03071E-07 2.18475E-19-1.42500E-18
 -1       172 7.75129E-05-1.81768E-06-3.24836E-05 7.08874E-07 3.78235E-19-1.39230E-18
 -1       173 7.91100E-05-2.49854E-06-3.28825E-05 1.80417E-06 4.99783E-19-1.37894E-18
 -1       174 8.15138E-05-3.53000E-06-3.34817E-05 3.36910E-06 6.23502E-19-1.19093E-18
 -1       175 8.46838E-05-4.94208E-06-3.42536E-05 5.64006E-06 8.37242E-19-9.40981E-19
 -1       176 8.85866E-05-6.83827E-06-3.51453E-05 8.77613E-06 1.01190E-18-5.05308E-19
 -1       177 9.36265E-05-9.69001E-06-3.61265E-05 1.29639E-05 1.07305E-18 2.39062E-19
 -1       178 1.01620E-04-1.54598E-05-3.71136E-05 1.80391E-05 9.82267E-19 1.53485E-18
 -1       179 1.11948E-04-2.83186E-05-3.70121E-05 1.58431E-05 6.92291E-19 3.21110E-18
 -1       180 1.10674E-04-2.96751E-05-3.47069E-05-8.97889E-06-7.93167E-19 1.84031E-18
 -1       181 1.06287E-04-3.10884E-05-3.22565E-05-1.62626E-06-6.03352E-19 1.48092E-18
 -1       182 1.04874E-04-3.10210E-05-3.16025E-05 1.35742E-06-5.85985E-19 1.20099E-18
 -1       183 1.05651E-04-3.14950E-05-3.17501E-05 2.78130E-06-4.88981E-19 7.69149E-19
 -1       184 1.07413E-04-3.22144E-05-3.22185E-05 3.31612E-06-1.41565E-19 6.51491E-19
 -1       185 1.09505E-04-3.30768E-05-3.27592E-05 3.01666E-06-3.14966E-19 6.97457E-19
 -1       186 1.11290E-04-3.39078E-05-3.31757E-05 1.74333E-06-2.02744E-19 6.91363E-19
 -1       187 1.12098E-04-3.44507E-05-3.32898E-05-5.88040E-07-4.13425E-19 7.75417E-19
 -1       188 1.11289E-04-3.43615E-05-3.29760E-05-3.71636E-06-1.79978E-19 8.13077E-19
 -1       189 1.08521E-04-3.33113E-05-3.22313E-05-6.74136E-06-1.63861E-19 1.21207E-18
 -1       190 1.04168E-04-3.12772E-05-3.12318E-05-8.13889E-06-6.07553E-20 7.40638E-19
 -1       191 9.96286E-05-2.88941E-05-3.03108E-05-6.49970E-06-1.60966E-19-1.82112E-20
 -1       192 9.69673E-05-2.73817E-05-2.98249E-05-1.82200E-06-3.62590E-19-1.81879E-19
 -1       193 9.76670E-05-2.77113E-05-2.99828E-05 3.90464E-06-7.45925E-19-5.09854E-19
 -1       194 1.01475E-04-2.97146E-05-3.07486E-05 7.90168E-06-5.97714E-19-6.96797E-19
 -1       195 1.06602E-04-3.22422E-05-3.18630E-05 8.66212E-06 5.81194E-20-7.86318E-19
 -1       196 1.11065E-04-3.41771E-05-3.29531E-05 6.67446E-06 8.68209E-20-2.69039E-19
 -1       197 1.13723E-04-3.50778E-05-3.37152E-05 3.48390E-06 5.52170E-19-4.81059E-19
 -1       198 1.14406E-04-3.50783E-05-3.40132E-05 4.68263E-07-1.53200E-19-4.50978E-19
 -1       199 1.13522E-04-3.45186E-05-3.38737E-05-1.68704E-06-2.12498E-19-9.48329E-19
 -1       200 1.11648E-04-3.37011E-05-3.34171E-05-2.88628E-06 3.34935E-19-1.64209E-19
 -1       201 1.09303E-04-3.28229E-05-3.27835E-05-3.32677E-06-9.02469E-19-6.21153E-19
 -1       202 1.06864E-04-3.19914E-05-3.20902E-05-3.27334E-06-1.36785E-19-7.31190E-19
 -1       203 1.04567E-04-3.12563E-05-3.14174E-05-2.95056E-06 9.11861E-19-7.20207E-19
 -1       204 1.02534E-04-3.06339E-05-3.08110E-05-2.51424E-06 2.69180E-19-8.95034E-19
 -1       205 1.00812E-04-3.01230E-05-3.02912E-05-2.05899E-06-3.04831E-19-6.17141E-19
 -1       206 9.94011E-05-2.97140E-05-2.98618E-05-1.63552E-06-5.52993E-19-1.28524E-18
 -1       207 9.82760E-05-2.93935E-05-2.95173E-05-1.26662E-06 1.58092E-19-1.37279E-18
 -1       208 9.73994E-05-2.91474E-05-2.92475E-05-9.58784E-07 7.17099E-20-2.41835E-19
 -1       209 9.67308E-05-2.89620E-05-2.90410E-05-7.09836E-07-8.73029E-19 3.03287E-19
 -1       210 9.62314E-05-2.88252E-05-2.88861E-05-5.13467E-07 6.65811E-19 5.35491E-19
 -1       211 9.58666E-05-2.87265E-05-2.87725E-05-3.61878E-07-8.79030E-19 3.57044E-19
 -1       212 9.56064E-05-2.86571E-05-2.86912E-05-2.47192E-07-7.58754E-19 5.64824E-20
 -1       213 9.54261E-05-2.86098E-05-2.86345E-05-1.62151E-07 7.10807E-19-4.93999E-19
 -1       214 9.53057E-05-2.85789E-05-2.85964E-05-1.00421E-07-4.99212E-19-1.88453E-18
 -1       215 9.52290E-05-2.85599E-05-2.85719E-05-5.66645E-08 1.36749E-18-1.40641E-18
 -1       216 9.51838E-05-2.85493E-05-2.85572E-05-2.65047E-08 3.27843E-19-2.28157E-18
 -1       217 9.51606E-05-2.85444E-05-2.85495E-05-6.42956E-09 3.46493E-19-4.70316E-19
 -1       218 9.51523E-05-2.85435E-05-2.85464E-05 6.32277E-09 1.07025E-19-7.21879E-20
 -1       219 9.51536E-05-2.85449E-05-2.85465E-05 1.38815E-08-3.70285E-19-2.21825E-19
 -1       220 9.51610E-05-2.85478E-05-2.85484E-05 1.78514E-08-6.64062E-19-1.43431E-18
 -1       221 9.51716E-05-2.85515E-05-2.85515E-05 1.94073E-08 1.05897E-18-3.83111E-20
 -1       222 9.51838E-05-2.85554E-05-2.85550E-05 1.93704E-08 5.50172E-19 2.38525E-18
 -1       223 9.51962E-05-2.85593E-05-2.85587E-05 1.82664E-08 2.23972E-18 3.32335E-18
 -1       224 9.52079E-05-2.85630E-05-2.85621E-05 1.63651E-08 1.60409E-18 4.20513E-18
 -1       225 9.52184E-05-2.85664E-05-2.85652E-05 1.37031E-08 5.66065E-19 2.60736E-18
 -1       226 9.52270E-05-2.85693E-05-2.85676E-05 1.01213E-08-2.64254E-19 2.96898E-18
 -1       227 9.52334E-05-2.85716E-05-2.85694E-05 5.48979E-09-1.24009E-18 2.83065E-18
 -1       228 1.07463E-04-3.10310E-05-3.29211E-05 4.62374E-06 7.06955E-19 2.86139E-18
 -1       229 1.04462E-04-3.08210E-05-3.15263E-05 2.93738E-07 7.08311E-19 2.27610E-18
 -1       230 1.04311E-04-3.10621E-05-3.13499E-05-1.50610E-06 3.72033E-19 1.65128E-18
 -1       231 1.05533E-04-3.15823E-05-3.16711E-05-2.29644E-06 9.65982E-20 1.37228E-18
 -1       232 1.07318E-04-3.22622E-05-3.21585E-05-2.38539E-06 7.17410E-20 1.34610E-18
 -1       233 1.09008E-04-3.29432E-05-3.25951E-05-1.76026E-06 1.03090E-19 1.19406E-18
 -1       234 1.09952E-04-3.34205E-05-3.27923E-05-3.51604E-07 3.87312E-19 1.01752E-18
 -1       235 1.09529E-04-3.34466E-05-3.25938E-05 1.77042E-06 3.25840E-19 1.11110E-18
 -1       236 1.07323E-04-3.27809E-05-3.19305E-05 4.18243E-06 5.42157E-19 4.22954E-19
 -1       237 1.03434E-04-3.13353E-05-3.08901E-05 5.99277E-06 3.02784E-19 1.06554E-19
 -1       238 9.87736E-05-2.93879E-05-2.97457E-05 6.07970E-06-1.43764E-21-1.34903E-19
 -1       239 9.50002E-05-2.76647E-05-2.88868E-05 3.80396E-06-8.55705E-19-2.17261E-19
 -1       240 9.38144E-05-2.70397E-05-2.86509E-05-2.43187E-07 9.92716E-19-1.54527E-19
 -1       241 9.58962E-05-2.79083E-05-2.91542E-05-4.29962E-06 4.88080E-19-2.34277E-19
 -1       242 1.00393E-04-2.98352E-05-3.02326E-05-6.59837E-06-2.02211E-19-1.89610E-19
 -1       243 1.05533E-04-3.19259E-05-3.15257E-05-6.54370E-06-7.69607E-19-5.10668E-19
 -1       244 1.09711E-04-3.34721E-05-3.26560E-05-4.76055E-06 7.10412E-19 4.14358E-19
 -1       245 1.12106E-04-3.42138E-05-3.33738E-05-2.34927E-06-1.42143E-20-5.71425E-20
 -1       246 1.12677E-04-3.42521E-05-3.36119E-05-1.83733E-07-3.59969E-19-1.55343E-19
 -1       247 1.11831E-04-3.38236E-05-3.34381E-05 1.33518E-06-5.24386E-19-1.20671E-19
 -1       248 1.10096E-04-3.31536E-05-3.29828E-05 2.17537E-06 5.26122E-19 1.04984E-19
 -1       249 1.07942E-04-3.24037E-05-3.23793E-05 2.48236E-06 1.29064E-18-2.93942E-19
 -1       250 1.05708E-04-3.16729E-05-3.17327E-05 2.43973E-06-5.96657E-19-5.82305E-19
 -1       251 1.03607E-04-3.10134E-05-3.11127E-05 2.20294E-06-1.02381E-18-5.26639E-19
 -1       252 1.01751E-04-3.04476E-05-3.05581E-05 1.88157E-06-4.03820E-19 6.57504E-19
 -1       253 1.00182E-04-2.99794E-05-3.00855E-05 1.54383E-06 9.81040E-20 7.17740E-19
 -1       254 9.89003E-05-2.96030E-05-2.96971E-05 1.22746E-06 1.41694E-19 1.71819E-18
 -1       255 9.78821E-05-2.93078E-05-2.93871E-05 9.50237E-07-9.63643E-19 2.59278E-18
 -1       256 9.70929E-05-2.90814E-05-2.91460E-05 7.17913E-07-2.46636E-19 2.85416E-18
 -1       257 9.64949E-05-2.89116E-05-2.89627E-05 5.29532E-07 3.54394E-19 2.65389E-18
 -1       258 9.60521E-05-2.87871E-05-2.88265E-05 3.80795E-07 3.42999E-20 3.20823E-18
 -1       259 9.57320E-05-2.86980E-05-2.87278E-05 2.66061E-07-5.55608E-19 5.68985E-19
 -1       260 9.55071E-05-2.86361E-05-2.86581E-05 1.79466E-07 1.06464E-18 3.16319E-19
 -1       261 9.53541E-05-2.85946E-05-2.86105E-05 1.15524E-07-1.25707E-20 1.25278E-18
 -1       262 9.52545E-05-2.85682E-05-2.85793E-05 6.93927E-08 1.57494E-18 4.14283E-19
 -1       263 9.51938E-05-2.85525E-05-2.85601E-05 3.69700E-08 7.33061E-19-8.86642E-19
 -1       264 9.51604E-05-2.85444E-05-2.85494E-05 1.48798E-08-9.33860E-19 5.97546E-19
 -1       265 9.51459E-05-2.85415E-05-2.85445E-05 4.12404E-10 1.28559E-19 1.32976E-18
 -1       266 9.51439E-05-2.85418E-05-2.85436E-05-8.55995E-09-3.78007E-19 3.45845E-18
 -1       267 9.51497E-05-2.85442E-05-2.85451E-05-1.36708E-08-1.65167E-18 4.33911E-18
 -1       268 9.51602E-05-2.85478E-05-2.85481E-05-1.61426E-08 3.62871E-19 3.32646E-18
 -1       269 9.51729E-05-2.85519E-05-2.85518E-05-1.68587E-08 7.91071E-19 2.42802E-18
 -1       270 9.51864E-05-2.85562E-05-2.85558E-05-1.64213E-08 2.76490E-18 1.24183E-18
 -1       271 9.51996E-05-2.85603E-05-2.85597E-05-1.51932E-08 5.41991E-19 9.77891E-19
 -1       272 9.52117E-05-2.85640E-05-2.85633E-05-1.33244E-08-1.13298E-19 6.17879E-19
 -1       273 9.52220E-05-2.85673E-05-2.85663E-05-1.07691E-08 6.51273E-19-7.22373E-19
 -1       274 9.52300E-05-2.85700E-05-2.85686E-05-7.30607E-09 1.89170E-18-2.36714E-18
 -1       275 9.52352E-05-2.85717E-05-2.85701E-05-2.95710E-09 7.52213E-19-3.51076E-18
 -1       276 9.52368E-05-2.85751E-05-2.85693E-05-5.58516E-09-4.89209E-19 4.09453E-18
 -1       277 9.52392E-05-2.85811E-05-2.85678E-05-9.41636E-09 1.75008E-18 6.22665E-18
 -1       278 9.52421E-05-2.85886E-05-2.85658E-05-1.13046E-08 2.46593E-18 4.52064E-18
 -1       279 9.52450E-05-2.85965E-05-2.85636E-05-1.12598E-08 1.48670E-18-1.54902E-18
 -1       280 9.52475E-05-2.86036E-05-2.85616E-05-9.72350E-09 7.08156E-19-2.91859E-18
 -1       281 9.52495E-05-2.86094E-05-2.85600E-05-7.06168E-09 2.39909E-18-1.02271E-18
 -1       282 9.52507E-05-2.86131E-05-2.85589E-05-3.68859E-09 1.89550E-18-7.67170E-19
 -1       283 9.52512E-05-2.86144E-05-2.85586E-05 2.71805E-11 1.37620E-18-1.31078E-18
 -1       284 9.52507E-05-2.86131E-05-2.85590E-05 3.74112E-09 1.15326E-19-1.16945E-18
 -1       285 9.52495E-05-2.86094E-05-2.85600E-05 7.10957E-09-1.35159E-18-1.36287E-18
 -1       286 9.52475E-05-2.86036E-05-2.85616E-05 9.72585E-09-2.26601E-18-5.42831E-19
 -1       287 9.52450E-05-2.85964E-05-2.85637E-05 1.12765E-08-8.90520E-19-1.23907E-18
 -1       288 9.52421E-05-2.85885E-05-2.85658E-05 1.12982E-08-1.70782E-18 2.10976E-18
 -1       289 9.52392E-05-2.85810E-05-2.85678E-05 9.28041E-09-3.08873E-18 7.37669E-19
 -1       290 9.52363E-05-2.85760E-05-2.85687E-05 8.47048E-09-3.21961E-18-2.29767E-18
 -1       291 1.19494E-05-4.43839E-05 1.10937E-05 8.77464E-06 1.34149E-18 2.56333E-18
 -1       292 3.00149E-05-4.04582E-05 2.61884E-06 2.78092E-05 1.93738E-18 1.76670E-18
 -1       293 5.60055E-05-3.69008E-05-9.74501E-06 3.56472E-05 2.43374E-18 1.97671E-18
 -1       294 9.42537E-05-3.27117E-05-2.66550E-05 4.40223E-05 2.16099E-18 9.15431E-19
 -1       295 1.36668E-04-3.00448E-05-4.44426E-05 4.67270E-05 1.83213E-18 1.58819E-18
 -1       296 1.77287E-04-3.30352E-05-5.93046E-05 3.81288E-05 1.55605E-18 1.22396E-18
 -1       297 1.91561E-04-2.90447E-05-6.73812E-05 1.12840E-05 2.09694E-18-7.50048E-19
 -1       298 2.08199E-04-3.45773E-05-7.10965E-05-6.20971E-06 2.01700E-18-1.60245E-18
 -1       299 1.89795E-04-3.25424E-05-6.46824E-05-2.53580E-05 2.40790E-18-2.59171E-18
 -1       300 1.57420E-04-3.14436E-05-5.20556E-05-4.47229E-05 2.55767E-18-3.50799E-18
 -1       301 1.11447E-04-2.94941E-05-3.46909E-05-4.77935E-05 2.75921E-18-3.94379E-18
 -1       302 6.76781E-05-3.27654E-05-1.62002E-05-3.96800E-05 2.53263E-18-3.09061E-18
 -1       303 3.59821E-05-4.02671E-05-7.06707E-07-2.67152E-05 1.66844E-18-2.30765E-18
 -1       304 1.70769E-05-4.76074E-05 9.66021E-06-1.26761E-05 6.70109E-19-1.74489E-18
 -1       305 1.13881E-05-5.01996E-05 1.30074E-05 3.47992E-07-7.24736E-19-2.17444E-18
 -1       306 1.77755E-05-4.51889E-05 8.70503E-06 1.49858E-05-1.39866E-18-2.49070E-18
 -1       307 3.71730E-05-4.01687E-05-1.16297E-06 2.74783E-05-2.97033E-18-1.81258E-18
 -1       308 7.47176E-05-3.69775E-05-1.71460E-05 4.12417E-05-2.42548E-18-1.99815E-18
 -1       309 1.22655E-04-4.02059E-05-3.50596E-05 4.05541E-05-1.56002E-18-1.42047E-18
 -1       310 1.58288E-04-3.27190E-05-5.20966E-05 4.08456E-05-1.96713E-18-1.59772E-18
 -1       311 1.85170E-04-3.10512E-05-6.39000E-05 1.98031E-05-1.92933E-18-1.92700E-19
 -1       312 2.12784E-04-3.68097E-05-7.17116E-05 6.99169E-06-2.16883E-18 2.63745E-19
 -1       313 2.04823E-04-3.49807E-05-6.93952E-05-1.52617E-05-2.54004E-18 1.79095E-18
 -1       314 1.81055E-04-3.37170E-05-6.03848E-05-3.73930E-05-2.69525E-18 4.12907E-18
 -1       315 1.39349E-04-3.05955E-05-4.53051E-05-4.64598E-05-4.55926E-18 4.70823E-18
 -1       316 9.57908E-05-3.29544E-05-2.72009E-05-4.39333E-05-4.24067E-18 4.19768E-18
 -1       317 5.26170E-05-3.57051E-05-9.10024E-06-3.36830E-05-3.66913E-18 4.97621E-18
 -1       318 2.57118E-05-4.39844E-05 4.81610E-06-1.96897E-05-2.39372E-18 3.04069E-18
 -1       319 1.27258E-05-4.94816E-05 1.22032E-05-6.21670E-06-7.30778E-19 2.32108E-18
 -1       320 9.48862E-05-1.50203E-05-3.42950E-05-7.56101E-06-8.44972E-19-3.54417E-19
 -1       321 1.01578E-04-2.09381E-05-3.46184E-05-9.69429E-06-9.77906E-19 3.38562E-19
 -1       322 8.51743E-05-8.17783E-06-3.30427E-05-3.16372E-06-4.85304E-19-9.67285E-19
 -1       323 8.16720E-05-5.98591E-06-3.24703E-05-1.76269E-06-2.67167E-19-1.03088E-18
 -1       324 7.92424E-05-4.51802E-06-3.20510E-05-8.91666E-07-1.86963E-20-1.04003E-18
 -1       325 7.80504E-05-3.81945E-06-3.18361E-05-3.66215E-07 2.40356E-19-1.03283E-18
 -1       326 7.81861E-05-3.92345E-06-3.18500E-05 6.96048E-08 3.83484E-19-1.02730E-18
 -1       327 7.96164E-05-4.80694E-06-3.20885E-05 6.86918E-07 5.32275E-19-1.08124E-18
 -1       328 8.21412E-05-6.36598E-06-3.25102E-05 1.69347E-06 6.66265E-19-9.58764E-19
 -1       329 8.56612E-05-8.59657E-06-3.30749E-05 3.26195E-06 8.95942E-19-7.64768E-19
 -1       330 9.00218E-05-1.15399E-05-3.36988E-05 5.39933E-06 1.06686E-18-4.41867E-19
 -1       331 9.53211E-05-1.55311E-05-3.42743E-05 7.91297E-06 1.18944E-18 5.69365E-20
 -1       332 1.01613E-04-2.13041E-05-3.45220E-05 9.74960E-06 1.14346E-18 9.34377E-19
 -1       333 1.05796E-04-2.67174E-05-3.39688E-05 8.03324E-06 9.91717E-19 1.62740E-18
 -1       334 1.04741E-04-2.93480E-05-3.22799E-05 1.82767E-06 8.61935E-19 1.26137E-18
 -1       335 1.04179E-04-2.82405E-05-3.25001E-05-1.26272E-06-6.41386E-19 4.66299E-19
 -1       336 1.04165E-04-2.96769E-05-3.18988E-05 2.53927E-06-6.17404E-19 5.44141E-19
 -1       337 1.04977E-04-3.08299E-05-3.17671E-05 4.56279E-06-3.55933E-19 5.06546E-19
 -1       338 1.06505E-04-3.21683E-05-3.18615E-05 5.21350E-06-1.93783E-19 3.50317E-19
 -1       339 1.08531E-04-3.38068E-05-3.20375E-05 4.43672E-06-2.25398E-20 7.90391E-19
 -1       340 1.10719E-04-3.56067E-05-3.22113E-05 2.04705E-06-1.84842E-19 8.77914E-19
 -1       341 1.12529E-04-3.70706E-05-3.23611E-05-1.94526E-06-8.16394E-20 1.40957E-18
 -1       342 1.13156E-04-3.72784E-05-3.25362E-05-6.86605E-06-1.28656E-19 1.17237E-18
 -1       343 1.11805E-04-3.52386E-05-3.28234E-05-1.09330E-05-4.01718E-19 9.22554E-19
 -1       344 1.08502E-04-3.09404E-05-3.32448E-05-1.15081E-05-7.14643E-19 3.15890E-19
 -1       345 1.04949E-04-2.64167E-05-3.36666E-05-6.81119E-06-7.73824E-19-3.94032E-19
 -1       346 1.03770E-04-2.48280E-05-3.38504E-05 1.72740E-06-6.07958E-19-2.99700E-19
 -1       347 1.06084E-04-2.75452E-05-3.36650E-05 9.60307E-06-8.50573E-19-1.87383E-19
 -1       348 1.10095E-04-3.23979E-05-3.33045E-05 1.28716E-05-2.53293E-19-5.00924E-19
 -1       349 1.13221E-04-3.62834E-05-3.29833E-05 1.11030E-05 4.29502E-19-5.63508E-19
 -1       350 1.14216E-04-3.77459E-05-3.27914E-05 6.52576E-06 1.43403E-19-7.83539E-19
 -1       351 1.13345E-04-3.71851E-05-3.26633E-05 1.62214E-06 2.49281E-19-8.28860E-19
 -1       352 1.11424E-04-3.56451E-05-3.24969E-05-2.18389E-06-1.42351E-19 3.96935E-20
 -1       353 1.09131E-04-3.39427E-05-3.22374E-05-4.51718E-06 3.51595E-19 1.23195E-19
 -1       354 1.06850E-04-3.24725E-05-3.18833E-05-5.57316E-06 9.69021E-20-2.33418E-19
 -1       355 1.04755E-04-3.13389E-05-3.14659E-05-5.72963E-06-4.51769E-19 7.11069E-19
 -1       356 1.02907E-04-3.05114E-05-3.10253E-05-5.34555E-06-9.72357E-20 1.28704E-18
 -1       357 1.01319E-04-2.99213E-05-3.05960E-05-4.69126E-06-1.07932E-19-1.09885E-18
 -1       358 9.99827E-05-2.95031E-05-3.02016E-05-3.94491E-06 2.14009E-19-2.23698E-18
 -1       359 9.88779E-05-2.92065E-05-2.98553E-05-3.21191E-06-6.96681E-19-2.11229E-18
 -1       360 9.79810E-05-2.89957E-05-2.95615E-05-2.54746E-06 1.72402E-19-5.99359E-19
 -1       361 9.72655E-05-2.88462E-05-2.93194E-05-1.97491E-06 9.51680E-19-8.67320E-19
 -1       362 9.67046E-05-2.87409E-05-2.91247E-05-1.49888E-06 1.68973E-19-1.05398E-18
 -1       363 9.62725E-05-2.86677E-05-2.89714E-05-1.11386E-06 5.94559E-19 7.00294E-21
 -1       364 9.59458E-05-2.86179E-05-2.88532E-05-8.09503E-07 6.72344E-20 7.67355E-19
 -1       365 9.57035E-05-2.85851E-05-2.87638E-05-5.73772E-07-3.42254E-19 2.30247E-18
 -1       366 9.55277E-05-2.85645E-05-2.86976E-05-3.94706E-07-3.22851E-19 2.60724E-18
 -1       367 9.54032E-05-2.85526E-05-2.86496E-05-2.61313E-07-9.40110E-19 1.08914E-18
 -1       368 9.53178E-05-2.85466E-05-2.86157E-05-1.63974E-07 4.10230E-20-3.30106E-20
 -1       369 9.52614E-05-2.85446E-05-2.85925E-05-9.45526E-08 3.66297E-19-6.63372E-19
 -1       370 9.52262E-05-2.85452E-05-2.85773E-05-4.63449E-08 6.85268E-19-3.01690E-19
 -1       371 9.52062E-05-2.85473E-05-2.85679E-05-1.39498E-08 2.56148E-19-1.02984E-18
 -1       372 9.51967E-05-2.85502E-05-2.85627E-05 6.89572E-09 8.79558E-19-4.42172E-19
 -1       373 9.51942E-05-2.85535E-05-2.85603E-05 1.94864E-08-9.36540E-19 1.13719E-18
 -1       374 9.51964E-05-2.85569E-05-2.85598E-05 2.63075E-08 4.15869E-19 1.15377E-18
 -1       375 9.52012E-05-2.85601E-05-2.85604E-05 2.91750E-08 2.75300E-18 7.85570E-19
 -1       376 9.52074E-05-2.85632E-05-2.85618E-05 2.93517E-08 2.92733E-18 1.91960E-18
 -1       377 9.52142E-05-2.85662E-05-2.85635E-05 2.76415E-08 5.55933E-19 1.35335E-18
 -1       378 9.52209E-05-2.85690E-05-2.85651E-05 2.44708E-08-5.62509E-19 2.27163E-19
 -1       379 9.52271E-05-2.85718E-05-2.85666E-05 1.99924E-08-1.78536E-19-9.98758E-20
 -1       380 9.52319E-05-2.85740E-05-2.85677E-05 1.46478E-08-1.85583E-18-1.24775E-18
 -1       381 1.04345E-04-3.03305E-05-3.16849E-05-1.51332E-06 7.62267E-19 1.22230E-18
 -1       382 1.04931E-04-3.10972E-05-3.16265E-05-3.16930E-06 3.28919E-19 8.01154E-19
 -1       383 1.06216E-04-3.20019E-05-3.18051E-05-3.62364E-06 3.56235E-20 3.31461E-19
 -1       384 1.07775E-04-3.30438E-05-3.20371E-05-2.92787E-06 4.34129E-20 2.47677E-19
 -1       385 1.09150E-04-3.40697E-05-3.21921E-05-1.01722E-06 1.59457E-19 3.12112E-19
 -1       386 1.09816E-04-3.47508E-05-3.21859E-05 2.01789E-06 6.85794E-19 4.43808E-19
 -1       387 1.09235E-04-3.45931E-05-3.20001E-05 5.61699E-06 7.49214E-19 2.16900E-19
 -1       388 1.07088E-04-3.31433E-05-3.16951E-05 8.53078E-06 1.78391E-19 5.76958E-19
 -1       389 1.03720E-04-3.04809E-05-3.13858E-05 9.05936E-06 5.62917E-20 5.61861E-19
 -1       390 1.00426E-04-2.76426E-05-3.11854E-05 6.05236E-06-2.35038E-19-3.07413E-20
 -1       391 9.89965E-05-2.62755E-05-3.11531E-05 1.47519E-07 6.05407E-19-5.07413E-19
 -1       392 1.00418E-04-2.73554E-05-3.12953E-05-6.03820E-06 2.77853E-19 5.01807E-19
 -1       393 1.03938E-04-3.01814E-05-3.15957E-05-9.67664E-06 1.11747E-19 4.62391E-19
 -1       394 1.07756E-04-3.30800E-05-3.19992E-05-9.71768E-06-3.17966E-19-1.08255E-19
 -1       395 1.10441E-04-3.48739E-05-3.23966E-05-7.07751E-06 1.24884E-19-8.17220E-19
 -1       396 1.11488E-04-3.53194E-05-3.26619E-05-3.43198E-06 5.42003E-19-4.21140E-21
 -1       397 1.11123E-04-3.48194E-05-3.27218E-05-1.21092E-07-3.39822E-19-4.97098E-19
 -1       398 1.09826E-04-3.38807E-05-3.25648E-05 2.23268E-06-3.99998E-19-4.75686E-19
 -1       399 1.08043E-04-3.28568E-05-3.22334E-05 3.56273E-06 9.75221E-20-5.81067E-19
 -1       400 1.06094E-04-3.19229E-05-3.17927E-05 4.07290E-06 1.22914E-18-6.12872E-19
 -1       401 1.04185E-04-3.11383E-05-3.13066E-05 4.03194E-06-3.14758E-19 4.95648E-19
 -1       402 1.02433E-04-3.05059E-05-3.08243E-05 3.67410E-06-1.31806E-18 3.75075E-19
 -1       403 1.00898E-04-3.00075E-05-3.03783E-05 3.16944E-06-8.13479E-19 1.41458E-19
 -1       404 9.95963E-05-2.96204E-05-2.99860E-05 2.62737E-06 5.88101E-20 9.98957E-20
 -1       405 9.85242E-05-2.93232E-05-2.96539E-05 2.11103E-06-4.07529E-19 7.16183E-19
 -1       406 9.76620E-05-2.90979E-05-2.93813E-05 1.65208E-06-7.46430E-19 1.64470E-18
 -1       407 9.69835E-05-2.89294E-05-2.91632E-05 1.26251E-06 1.65154E-19 1.30200E-18
 -1       408 9.64606E-05-2.88054E-05-2.89927E-05 9.42853E-07 1.81383E-19 1.61174E-18
 -1       409 9.60658E-05-2.87159E-05-2.88623E-05 6.87579E-07 4.28619E-19 1.46384E-18
 -1       410 9.57741E-05-2.86529E-05-2.87648E-05 4.88431E-07 1.65678E-18-4.98847E-19
 -1       411 9.55635E-05-2.86097E-05-2.86934E-05 3.36382E-07-4.69406E-19-1.25179E-18
 -1       412 9.54156E-05-2.85812E-05-2.86425E-05 2.22723E-07-3.21895E-19 9.11401E-19
 -1       413 9.53151E-05-2.85635E-05-2.86072E-05 1.39602E-07 1.35289E-18 1.09191E-18
 -1       414 9.52497E-05-2.85533E-05-2.85837E-05 8.02552E-08 1.00220E-18 2.50507E-18
 -1       415 9.52099E-05-2.85485E-05-2.85689E-05 3.90385E-08-1.19482E-18 2.68721E-18
 -1       416 9.51882E-05-2.85471E-05-2.85603E-05 1.13652E-08 6.71097E-20 2.47582E-18
 -1       417 9.51789E-05-2.85481E-05-2.85560E-05-6.40701E-09-2.14461E-18 2.43116E-18
 -1       418 9.51779E-05-2.85503E-05-2.85546E-05-1.71060E-08-3.25331E-19 3.19805E-18
 -1       419 9.51820E-05-2.85533E-05-2.85551E-05-2.28732E-08-6.24480E-19 2.48056E-18
 -1       420 9.51892E-05-2.85566E-05-2.85568E-05-2.52790E-08 1.31686E-18 3.05891E-18
 -1       421 9.51979E-05-2.85600E-05-2.85591E-05-2.54208E-08 2.12744E-18 2.89676E-18
 -1       422 9.52070E-05-2.85632E-05-2.85616E-05-2.40004E-08 8.29294E-19 3.43300E-18
 -1       423 9.52157E-05-2.85663E-05-2.85640E-05-2.13761E-08 8.19066E-19 1.33016E-18
 -1       424 9.52236E-05-2.85693E-05-2.85662E-05-1.76371E-08 9.76065E-19 1.25034E-18
 -1       425 9.52303E-05-2.85720E-05-2.85679E-05-1.27184E-08 2.34014E-18 2.31845E-18
 -1       426 9.52339E-05-2.85738E-05-2.85687E-05-9.35939E-09 1.86484E-18 3.23821E-18
 -1       427 9.52426E-05-2.85890E-05-2.85659E-05-1.90438E-08-1.52356E-18 3.95224E-19
 -1       428 9.52387E-05-2.85826E-05-2.85669E-05-1.79573E-08-3.32209E-19 6.29990E-18
 -1       429 9.52360E-05-2.85780E-05-2.85677E-05-1.43818E-08 9.34908E-19 6.24119E-18
 -1       430 9.52460E-05-2.85947E-05-2.85648E-05-1.75477E-08-1.40491E-18-4.64300E-18
 -1       431 9.52486E-05-2.85996E-05-2.85638E-05-1.39697E-08-6.30350E-19 1.23129E-18
 -1       432 9.52504E-05-2.86030E-05-2.85631E-05-8.93242E-09 1.84387E-18-1.40544E-19
 -1       433 9.52513E-05-2.86048E-05-2.85627E-05-3.04170E-09 7.77149E-19-2.10892E-18
 -1       434 9.52513E-05-2.86048E-05-2.85628E-05 3.12805E-09-5.04379E-19-2.54166E-18
 -1       435 9.52504E-05-2.86030E-05-2.85631E-05 9.01379E-09-6.20021E-19-1.76396E-18
 -1       436 9.52486E-05-2.85996E-05-2.85638E-05 1.39662E-08-5.95994E-19-1.59005E-18
 -1       437 9.52460E-05-2.85947E-05-2.85648E-05 1.75522E-08-5.37579E-19 1.61328E-18
 -1       438 9.52426E-05-2.85889E-05-2.85659E-05 1.90638E-08-2.72356E-19-3.86810E-19
 -1       439 9.52386E-05-2.85825E-05-2.85669E-05 1.80697E-08-1.98300E-18-1.65111E-18
 -1       440 6.38516E-05-4.32653E-05-8.88178E-06 4.36296E-05 7.03037E-20 3.44584E-19
 -1       441 1.17747E-05-2.26761E-05 4.45552E-06-9.46715E-07 2.21747E-19 3.86268E-18
 -1       442 2.64353E-05-2.58273E-05-1.15961E-07 2.78625E-05 2.69780E-19 1.59729E-18
 -1       443 1.00198E-04-5.30862E-05-2.02664E-05 4.04820E-05 5.58618E-19-3.02761E-19
 -1       444 1.34920E-04-5.39615E-05-3.46860E-05 2.43671E-05 8.90814E-19 6.88214E-20
 -1       445 8.95666E-05-1.10880E-05-3.36992E-05-5.17702E-06-6.62486E-19-7.36998E-19
 -1       446 1.55182E-04-2.60281E-05-5.54470E-05-2.89530E-06 1.89545E-18-5.00808E-19
 -1       447 1.57136E-04-1.24937E-05-6.19445E-05-8.29208E-07 2.09058E-18-5.69497E-19
 -1       448 1.58095E-04-1.64746E-05-6.05540E-05 1.71548E-06 2.29260E-18 3.71636E-20
 -1       449 1.52202E-04-3.47521E-05-5.05846E-05 1.90529E-06 1.15694E-18-1.35525E-20
 -1       450 1.47781E-04-4.96350E-05-4.19965E-05-1.35297E-05 7.61509E-19-4.49457E-19
 -1       451 1.15913E-04-5.47448E-05-2.62841E-05-3.65391E-05 4.46704E-19-1.75653E-18
 -1       452 7.49423E-05-4.69099E-05-1.22174E-05-4.42550E-05 1.32031E-19-2.23827E-18
 -1       453 3.74103E-05-3.34597E-05-1.91513E-06-3.62335E-05-2.34946E-19-1.74002E-18
 -1       454 1.39267E-05-2.54602E-05 4.51317E-06-1.29457E-05-3.77353E-19-1.97306E-18
 -1       455 1.52859E-05-2.32009E-05 3.23081E-06 1.41873E-05 8.20563E-20-2.51738E-18
 -1       456 4.23041E-05-3.37033E-05-3.60952E-06 3.83994E-05 2.83438E-19-1.55886E-18
 -1       457 7.56100E-05-4.74283E-05-1.21585E-05 4.43429E-05-2.09535E-19-2.10726E-19
 -1       458 1.15824E-04-5.54532E-05-2.59477E-05 3.56788E-05-3.00908E-19 1.34202E-19
 -1       459 1.46248E-04-4.84550E-05-4.19432E-05 1.39960E-05-8.15984E-19 6.28710E-19
 -1       460 1.55800E-04-3.43252E-05-5.21328E-05 8.00859E-07-1.34339E-18 8.68632E-19
 -1       461 1.54953E-04-1.48181E-05-6.00618E-05-2.89990E-06-2.01001E-18 3.36007E-19
 -1       462 1.56225E-04-1.21704E-05-6.17093E-05 1.70838E-06-3.06245E-18-5.74394E-20
 -1       463 1.63058E-04-2.51557E-05-5.87444E-05-4.62341E-07-3.35182E-18 7.94411E-19
 -1       464 1.55209E-04-4.05955E-05-4.88781E-05-1.06754E-05-2.89685E-18 1.71207E-18
 -1       465 1.37034E-04-5.48452E-05-3.52206E-05-2.28170E-05-2.28164E-18 2.10869E-18
 -1       466 9.86416E-05-5.28141E-05-1.97920E-05-4.05393E-05-1.70518E-18 2.65259E-18
 -1       467 5.72951E-05-4.18636E-05-6.85907E-06-4.16331E-05-8.11140E-19 3.92023E-18
 -1       468 2.48508E-05-2.77088E-05 1.07928E-06-2.70806E-05-6.09017E-19 3.14175E-18
 -1       469 1.53569E-04-4.09736E-05-4.81582E-05 7.80694E-06 7.93763E-19-3.79259E-19
 -1       470 1.39660E-04-1.45893E-05-5.41556E-05-8.73495E-06 2.31039E-18-1.05892E-18
 -1       471 1.38425E-04-6.05130E-05-3.34477E-05 1.64014E-05-2.99903E-20 7.07802E-19
 -1       472 1.02321E-04-2.69920E-05-3.22705E-05 5.32986E-07 8.04860E-19 5.01621E-19
 -1       473 8.15346E-05-8.05644E-06-3.15020E-05-7.71318E-08-5.10968E-20-8.69418E-19
 -1       474 8.50349E-05-1.05231E-05-3.19483E-05-5.83186E-07-2.52937E-19-8.67544E-19
 -1       475 7.87383E-05-6.15408E-06-3.11161E-05-2.57672E-07 3.27072E-19-9.11770E-19
 -1       476 7.97222E-05-6.86035E-06-3.12359E-05-4.00076E-07 4.11972E-19-9.68222E-19
 -1       477 8.21100E-05-8.54628E-06-3.15394E-05-1.86166E-07 5.68888E-19-8.98327E-19
 -1       478 8.57044E-05-1.11138E-05-3.19836E-05 5.53061E-07 7.97648E-19-7.53421E-19
 -1       479 9.01669E-05-1.44219E-05-3.24829E-05 1.78656E-06 8.80460E-19-5.75044E-19
 -1       480 9.53082E-05-1.85316E-05-3.29241E-05 3.25910E-06 9.40983E-19-1.58719E-19
 -1       481 1.02840E-04-2.89267E-05-3.16613E-05-2.84029E-06 7.42884E-19 3.33496E-19
 -1       482 1.00770E-04-2.55765E-05-3.22139E-05 7.24407E-07-5.25696E-19-8.84037E-20
 -1       483 1.42507E-04-5.26321E-05-3.87177E-05 1.74906E-06 1.61658E-19-9.78800E-19
 -1       484 1.25274E-04-6.09214E-05-2.75855E-05 2.45028E-05-4.48107E-19-9.12069E-19
 -1       485 1.01688E-04-2.79366E-05-3.16016E-05 4.23397E-06-4.48986E-19 1.44630E-19
 -1       486 1.03001E-04-3.00450E-05-3.12662E-05 6.34489E-06-2.45130E-19 3.32367E-19
 -1       487 1.05093E-04-3.25337E-05-3.11011E-05 7.01507E-06 3.50550E-20 4.69874E-19
 -1       488 1.08118E-04-3.56202E-05-3.10795E-05 6.00391E-06 2.49066E-20 5.79549E-19
 -1       489 1.11938E-04-3.90181E-05-3.12635E-05 2.96706E-06-5.66300E-20 5.57281E-19
 -1       490 1.15833E-04-4.16266E-05-3.18146E-05-2.20358E-06-1.39578E-19 3.30962E-19
 -1       491 1.18235E-04-4.13816E-05-3.29580E-05-8.62906E-06-2.57615E-19 6.44188E-19
 -1       492 1.17304E-04-3.63093E-05-3.47687E-05-1.34907E-05-8.96154E-19 8.83862E-19
 -1       493 1.13123E-04-2.74282E-05-3.68133E-05-1.24676E-05-9.10736E-19 1.09771E-18
 -1       494 1.09168E-04-2.04420E-05-3.81645E-05-3.74040E-06-8.75395E-19 8.71835E-19
 -1       495 1.10097E-04-2.18943E-05-3.79135E-05 7.92473E-06-8.26658E-19 3.03694E-19
 -1       496 1.14611E-04-2.99780E-05-3.63633E-05 1.47775E-05-1.21949E-18 4.47679E-19
 -1       497 1.18243E-04-3.82670E-05-3.43135E-05 1.38154E-05-1.98866E-19-2.59338E-19
 -1       498 1.18241E-04-4.20262E-05-3.26777E-05 8.06531E-06-3.89928E-19-5.07309E-19
 -1       499 1.15294E-04-4.13725E-05-3.16947E-05 1.64351E-06 3.49201E-19-4.81312E-19
 -1       500 1.11274E-04-3.85119E-05-3.11961E-05-3.26197E-06 1.05034E-19-3.45541E-19
 -1       501 1.07506E-04-3.53158E-05-3.09476E-05-6.20730E-06 2.14648E-19-1.42911E-19
 -1       502 1.04480E-04-3.26715E-05-3.07802E-05-7.53290E-06-3.21965E-19-1.41620E-18
 -1       503 1.02214E-04-3.07972E-05-3.06089E-05-7.74398E-06 6.58415E-20-1.31330E-18
 -1       504 1.00549E-04-2.95963E-05-3.04082E-05-7.28296E-06 4.66405E-19-8.18512E-19
 -1       505 9.93149E-05-2.88859E-05-3.01826E-05-6.47205E-06-6.82803E-19 4.99892E-19
 -1       506 9.83799E-05-2.84986E-05-2.99474E-05-5.52497E-06-1.14461E-18 8.37454E-19
 -1       507 9.76561E-05-2.83103E-05-2.97178E-05-4.57327E-06-3.98203E-19-5.12428E-19
 -1       508 9.70873E-05-2.82380E-05-2.95052E-05-3.69098E-06 3.86143E-19 1.40048E-19
 -1       509 9.66376E-05-2.82295E-05-2.93163E-05-2.91405E-06 7.41913E-20-1.36281E-19
 -1       510 9.62825E-05-2.82535E-05-2.91540E-05-2.25451E-06 9.80059E-20-7.91839E-19
 -1       511 9.60041E-05-2.82921E-05-2.90185E-05-1.71025E-06 8.06262E-19-4.93725E-19
 -1       512 9.57883E-05-2.83349E-05-2.89078E-05-1.27151E-06 7.55144E-19 3.84832E-19
 -1       513 9.56234E-05-2.83766E-05-2.88194E-05-9.25066E-07 4.89504E-19 3.55152E-19
 -1       514 9.54994E-05-2.84145E-05-2.87502E-05-6.56675E-07-4.34322E-19 6.05515E-19
 -1       515 9.54079E-05-2.84474E-05-2.86970E-05-4.52598E-07-1.09021E-18 9.06714E-19
 -1       516 9.53419E-05-2.84751E-05-2.86569E-05-3.00350E-07-6.17308E-19 2.48512E-19
 -1       517 9.52955E-05-2.84980E-05-2.86273E-05-1.89049E-07 5.45270E-19 1.95163E-18
 -1       518 9.52640E-05-2.85164E-05-2.86060E-05-1.09493E-07 4.41564E-19 1.29295E-18
 -1       519 9.52435E-05-2.85310E-05-2.85910E-05-5.41009E-08-9.45538E-19 2.55055E-19
 -1       520 9.52310E-05-2.85424E-05-2.85808E-05-1.67558E-08 3.28013E-19 5.62479E-20
 -1       521 9.52242E-05-2.85511E-05-2.85741E-05 7.37155E-09 5.02538E-19-8.09422E-20
 -1       522 9.52213E-05-2.85577E-05-2.85701E-05 2.20123E-08 6.33122E-19 1.31169E-18
 -1       523 9.52210E-05-2.85628E-05-2.85678E-05 2.99769E-08-3.36502E-19 8.61124E-19
 -1       524 9.52225E-05-2.85667E-05-2.85668E-05 3.33130E-08 1.84077E-18-5.63206E-19
 -1       525 9.52249E-05-2.85698E-05-2.85665E-05 3.34425E-08 2.19664E-18-2.02263E-18
 -1       526 9.52279E-05-2.85726E-05-2.85666E-05 3.12692E-08-2.40196E-19-8.67217E-19
 -1       527 9.52312E-05-2.85754E-05-2.85668E-05 2.73008E-08-1.16629E-18-1.56833E-18
 -1       528 1.05480E-04-3.24241E-05-3.13136E-05-4.97832E-06 2.51937E-19 2.63395E-19
 -1       529 1.07644E-04-3.45415E-05-3.13395E-05-3.78309E-06 1.55054E-19 1.87865E-19
 -1       530 1.10060E-04-3.66802E-05-3.14604E-05-9.32223E-07 3.82267E-19 1.41720E-19
 -1       531 1.12106E-04-3.80900E-05-3.17309E-05 3.39597E-06 2.82579E-19 4.14970E-19
 -1       532 1.12806E-04-3.75863E-05-3.22468E-05 8.26040E-06 1.27403E-19 1.21270E-18
 -1       533 1.11307E-04-3.42366E-05-3.30445E-05 1.15601E-05 4.86659E-19 9.59249E-19
 -1       534 1.07917E-04-2.86946E-05-3.39759E-05 1.06658E-05 2.93575E-19 7.71667E-19
 -1       535 1.04803E-04-2.39487E-05-3.46707E-05 4.50914E-06 1.77288E-19 6.48376E-19
 -1       536 1.04646E-04-2.36034E-05-3.47527E-05-4.41190E-06 2.29189E-19 5.39137E-19
 -1       537 1.07610E-04-2.78847E-05-3.41845E-05-1.12523E-05 3.51193E-19 1.65647E-19
 -1       538 1.11344E-04-3.36468E-05-3.33075E-05-1.28544E-05 8.71869E-20-3.29499E-19
 -1       539 1.13318E-04-3.74682E-05-3.25253E-05-1.00271E-05 2.61815E-19-3.52418E-19
 -1       540 1.13029E-04-3.84440E-05-3.19782E-05-5.14543E-06 2.64192E-19 2.06649E-19
 -1       541 1.11161E-04-3.73350E-05-3.16546E-05-4.67111E-07-3.06832E-19 7.49569E-19
 -1       542 1.08690E-04-3.53652E-05-3.14378E-05 2.97090E-06-6.59561E-19 8.76009E-19
 -1       543 1.06246E-04-3.33844E-05-3.12349E-05 5.00597E-06 1.70980E-19 9.73063E-19
 -1       544 1.04097E-04-3.17682E-05-3.10024E-05 5.88587E-06 7.49738E-19 6.93716E-19
 -1       545 1.02299E-04-3.05889E-05-3.07343E-05 5.96170E-06 3.59386E-19 5.81102E-19
 -1       546 1.00824E-04-2.97853E-05-3.04441E-05 5.54908E-06-4.20768E-19-3.63507E-19
 -1       547 9.96189E-05-2.92619E-05-3.01510E-05 4.88560E-06-9.76172E-19-9.66052E-19
 -1       548 9.86387E-05-2.89320E-05-2.98719E-05 4.13162E-06 3.69469E-19-1.48985E-18
 -1       549 9.78451E-05-2.87300E-05-2.96183E-05 3.38584E-06-7.21767E-19-1.11275E-18
 -1       550 9.72076E-05-2.86104E-05-2.93965E-05 2.70292E-06-5.69903E-19-1.10756E-18
 -1       551 9.67010E-05-2.85430E-05-2.92086E-05 2.10823E-06-7.65437E-19-1.04684E-18
 -1       552 9.63036E-05-2.85083E-05-2.90535E-05 1.60889E-06 1.67473E-19-7.32517E-19
 -1       553 9.59965E-05-2.84935E-05-2.89285E-05 1.20144E-06 6.02826E-19-1.29186E-18
 -1       554 9.57630E-05-2.84907E-05-2.88299E-05 8.76899E-07 1.28237E-18-6.54986E-19
 -1       555 9.55886E-05-2.84948E-05-2.87537E-05 6.23900E-07 8.61991E-20 1.78173E-18
 -1       556 9.54610E-05-2.85025E-05-2.86959E-05 4.30663E-07-8.18652E-19 1.64963E-18
 -1       557 9.53699E-05-2.85116E-05-2.86531E-05 2.86044E-07-4.56351E-20 1.64222E-18
 -1       558 9.53065E-05-2.85210E-05-2.86220E-05 1.80092E-07-3.85645E-19 2.69394E-18
 -1       559 9.52641E-05-2.85300E-05-2.86001E-05 1.04260E-07-2.90841E-19 4.17142E-18
 -1       560 9.52371E-05-2.85381E-05-2.85852E-05 5.14258E-08 1.09932E-19 3.42326E-18
 -1       561 9.52212E-05-2.85451E-05-2.85754E-05 1.58050E-08 3.13541E-19 2.12371E-18
 -1       562 9.52131E-05-2.85511E-05-2.85693E-05-7.19650E-09-6.61268E-19 4.19612E-19
 -1       563 9.52102E-05-2.85562E-05-2.85660E-05-2.11426E-08-1.64646E-19 8.13273E-19
 -1       564 9.52109E-05-2.85604E-05-2.85645E-05-2.87271E-08-1.04301E-18 1.17278E-18
 -1       565 9.52137E-05-2.85639E-05-2.85642E-05-3.19166E-08 4.05811E-19 3.13463E-18
 -1       566 9.52177E-05-2.85670E-05-2.85646E-05-3.20754E-08 1.79426E-18 4.09852E-18
 -1       567 9.52222E-05-2.85698E-05-2.85654E-05-3.01345E-08 1.23844E-18 3.82562E-18
 -1       568 9.52269E-05-2.85725E-05-2.85662E-05-2.65531E-08 7.36080E-19 4.11890E-18
 -1       569 9.52316E-05-2.85753E-05-2.85670E-05-2.14067E-08 6.23032E-19 5.15139E-18
 -1       570 9.52485E-05-2.85926E-05-2.85668E-05-2.02797E-08 2.23432E-19-1.93894E-18
 -1       571 9.52515E-05-2.85958E-05-2.85667E-05-1.46338E-08-6.19299E-19 1.66123E-18
 -1       572 9.52392E-05-2.85829E-05-2.85670E-05-2.47444E-08-2.08042E-18 7.80972E-19
 -1       573 9.52444E-05-2.85881E-05-2.85670E-05-2.37618E-08-1.84113E-18-1.75800E-18
 -1       574 9.52532E-05-2.85978E-05-2.85666E-05-7.62809E-09-5.18131E-19-1.49246E-18
 -1       575 9.52538E-05-2.85985E-05-2.85666E-05 5.22033E-11 4.75636E-19-2.23028E-18
 -1       576 9.52532E-05-2.85978E-05-2.85666E-05 7.73000E-09 1.04308E-18-9.36382E-19
 -1       577 9.52515E-05-2.85958E-05-2.85667E-05 1.46189E-08 1.58022E-18-2.41541E-18
 -1       578 9.52486E-05-2.85926E-05-2.85668E-05 2.02737E-08 1.12470E-18-1.69655E-18
 -1       579 9.52444E-05-2.85881E-05-2.85670E-05 2.37729E-08 2.04629E-19-1.30927E-18
 -1       580 9.52391E-05-2.85827E-05-2.85670E-05 2.45992E-08-2.11493E-18-1.84264E-18
 -1       581 2.64610E-05-1.37419E-05-4.83192E-06 1.12883E-05-2.87674E-19 3.04879E-18
 -1       582 1.00232E-04-5.38978E-05-1.95662E-05 3.87362E-05-1.16171E-18-7.12696E-19
 -1       583 1.03857E-04-3.05900E-05-3.13955E-05-4.63562E-06 3.60672E-19 3.08034E-19
 -1       584 2.64742E-05-1.47890E-05-4.36867E-06-1.35596E-05 2.27561E-19 4.16063E-18
 -1       585 5.90028E-05-3.23410E-05-1.09056E-05 3.85502E-05-8.39198E-19-8.01346E-19
 -1       586 1.42531E-04-3.85078E-05-4.50107E-05-8.82634E-06 3.24890E-19-5.85247E-19
 -1       587 5.28570E-05-3.17949E-05-8.56423E-06-3.84856E-05-2.80421E-19 3.46124E-18
 -1       588 1.08442E-04-5.69736E-05-2.18391E-05 3.57992E-05 3.62371E-19 5.16247E-19
 -1       589 3.88046E-05-1.97222E-05-7.51883E-06 2.74762E-05 6.89458E-19-1.75918E-18
 -1       590 1.35793E-04-2.05561E-05-5.00108E-05 1.08121E-05 1.90572E-18 1.48427E-18
 -1       591 7.93599E-05-6.56076E-06-3.12091E-05-4.44450E-08 2.08139E-19-8.18519E-19
 -1       592 1.34263E-04-9.18088E-06-5.42642E-05 2.66824E-06 1.69936E-18 5.63753E-19
 -1       593 1.06437E-04-5.64483E-05-2.12591E-05-3.81455E-05-4.85297E-19-1.36165E-18
 -1       594 1.42356E-04-4.66005E-05-4.14021E-05 4.78401E-06 6.85117E-19 3.65706E-19
 -1       595 1.35498E-04-6.01881E-05-3.23498E-05-1.54768E-05-3.95406E-19 1.03232E-19
 -1       596 6.80570E-05-3.98757E-05-1.16995E-05-4.32736E-05-5.42948E-19-2.12690E-18
 -1       597 3.25543E-05-2.05171E-05-4.67467E-06-2.67228E-05-3.02841E-19-1.73112E-18
 -1       598 2.14313E-05-1.36950E-05-2.76990E-06-2.12841E-06 3.24834E-20-1.76860E-18
 -1       599 7.16942E-05-3.96121E-05-1.32977E-05 4.18155E-05 8.50527E-19-2.52310E-19
 -1       600 1.45970E-04-3.31919E-05-4.87353E-05 9.42420E-06-1.91234E-18-1.31295E-18
 -1       601 1.44613E-04-4.53919E-05-4.28932E-05-5.32039E-06-9.31816E-19 1.06620E-18
 -1       602 1.36537E-04-2.28236E-05-4.93328E-05-1.27409E-05-1.34292E-18 8.66038E-19
 -1       603 1.32057E-04-9.10062E-06-5.33450E-05-2.02658E-06-2.03256E-18 9.71557E-19
 -1       604 1.33384E-04-1.50126E-05-5.13996E-05 1.10241E-05-2.37863E-18-3.15996E-19
 -1       605 1.44004E-04-5.11944E-05-4.00779E-05-8.55456E-07-1.00159E-18-1.52641E-18
 -1       606 1.25151E-04-6.08343E-05-2.74855E-05-2.54253E-05-6.72491E-19 2.31637E-19
 -1       607 8.95412E-05-5.05925E-05-1.64280E-05-4.15630E-05-4.96520E-19 3.17775E-18
 -1       608 9.86616E-05-2.14878E-05-3.30953E-05-3.46530E-06-7.64456E-19-1.41590E-19
 -1       609 1.02294E-04-2.50217E-05-3.31224E-05 4.53352E-06 1.02156E-18 6.82364E-19
 -1       610 1.25229E-04-9.86754E-06-5.00190E-05-5.01596E-06 1.35054E-18 1.31548E-19
 -1       611 8.95181E-05-1.37884E-05-3.24768E-05-1.61434E-06-4.66350E-19-7.30386E-19
 -1       612 1.35264E-04-5.91516E-05-3.27646E-05-7.62843E-06 1.81715E-20-2.30826E-18
 -1       613 4.83335E-05-1.95900E-05-1.18017E-05 2.60780E-05-9.71653E-19 7.00020E-19
 -1       614 1.33404E-04-2.65647E-05-4.63073E-05-1.42508E-05 1.74399E-18-1.09910E-18
 -1       615 1.32258E-04-3.26913E-05-4.30756E-05 1.41362E-05 1.41603E-18 1.62699E-18
 -1       616 9.52335E-05-2.85773E-05-2.85670E-05 2.36611E-08-1.46054E-18-9.39576E-19
 -1       617 8.14461E-05-1.02256E-05-3.05261E-05-1.78339E-06 4.49452E-19-8.73456E-19
 -1       618 7.93552E-05-8.67144E-06-3.02953E-05-9.55518E-07 2.96124E-19-9.29074E-19
 -1       619 8.95053E-05-1.62503E-05-3.13994E-05-1.55888E-06 6.72308E-19-6.27944E-19
 -1       620 9.44673E-05-2.01611E-05-3.18518E-05-7.64686E-07 8.01065E-19-4.09455E-19
 -1       621 9.91829E-05-2.49181E-05-3.18187E-05-1.55761E-06 8.24269E-19-4.68139E-20
 -1       622 1.20132E-04-1.21380E-05-4.67694E-05 5.04664E-06-2.00943E-18 1.58597E-19
 -1       623 9.84124E-05-2.63270E-05-3.08929E-05 6.27461E-06-2.19124E-19-5.34477E-20
 -1       624 1.00261E-04-2.94040E-05-3.03679E-05 8.53334E-06-6.73814E-20 2.10110E-19
 -1       625 1.03256E-04-3.32744E-05-2.99943E-05 9.58278E-06 5.13504E-20 1.03764E-19
 -1       626 1.07879E-04-3.81952E-05-2.98681E-05 8.95567E-06 1.18855E-19 2.64884E-19
 -1       627 1.14185E-04-4.36332E-05-3.02388E-05 5.89169E-06-8.06278E-20 2.84099E-19
 -1       628 1.21134E-04-4.75783E-05-3.15361E-05-3.65233E-07 1.39372E-19 7.14262E-19
 -1       629 1.25597E-04-4.56849E-05-3.43602E-05-8.93446E-06-1.27174E-19 1.12379E-18
 -1       630 1.24701E-04-3.51782E-05-3.85609E-05-1.50424E-05-7.24359E-19 1.36990E-18
 -1       631 1.18549E-04-1.95884E-05-4.28158E-05-1.16463E-05-1.46216E-18 8.20007E-19
 -1       632 1.25364E-04-3.88235E-05-3.72906E-05 1.55234E-05-7.69503E-19 3.37549E-19
 -1       633 1.24909E-04-4.72195E-05-3.33402E-05 7.76178E-06-7.91274E-19 6.36029E-19
 -1       634 1.19269E-04-4.70217E-05-3.09728E-05-5.87361E-07-4.71245E-19-3.72231E-20
 -1       635 1.12227E-04-4.25482E-05-2.98668E-05-6.25596E-06-1.15017E-19-7.95214E-19
 -1       636 1.06251E-04-3.74153E-05-2.95053E-05-9.04609E-06 1.84642E-19-1.52002E-18
 -1       637 1.01990E-04-3.32257E-05-2.94734E-05-9.93738E-06-3.78590E-19-7.89560E-19
 -1       638 9.92527E-05-3.03387E-05-2.95355E-05-9.71649E-06 4.00787E-20-6.43034E-20
 -1       639 9.76106E-05-2.85809E-05-2.95841E-05-8.91837E-06 7.81556E-19-3.80810E-19
 -1       640 9.66662E-05-2.76357E-05-2.95840E-05-7.85632E-06 2.67749E-19 1.22165E-19
 -1       641 9.61349E-05-2.72182E-05-2.95351E-05-6.71278E-06-4.74044E-19 2.98264E-19
 -1       642 9.58357E-05-2.71164E-05-2.94505E-05-5.59493E-06-8.92061E-19 1.40864E-18
 -1       643 9.56617E-05-2.71876E-05-2.93455E-05-4.56376E-06 5.47022E-20 2.61396E-18
 -1       644 9.55539E-05-2.73421E-05-2.92331E-05-3.65039E-06-5.87375E-20 1.76833E-18
 -1       645 9.54812E-05-2.75267E-05-2.91229E-05-2.86621E-06-1.05411E-19 1.61792E-18
 -1       646 9.54278E-05-2.77114E-05-2.90210E-05-2.20999E-06 3.42316E-19 1.69561E-18
 -1       647 9.53862E-05-2.78810E-05-2.89305E-05-1.67286E-06 1.03834E-18 1.15845E-18
 -1       648 9.53528E-05-2.80290E-05-2.88529E-05-1.24187E-06 2.31009E-19 6.77800E-19
 -1       649 9.53257E-05-2.81534E-05-2.87879E-05-9.02413E-07 4.19915E-19 1.20837E-18
 -1       650 9.53038E-05-2.82554E-05-2.87349E-05-6.39821E-07-1.14277E-18 9.19276E-19
 -1       651 9.52863E-05-2.83370E-05-2.86925E-05-4.40323E-07-7.16596E-19 1.17306E-18
 -1       652 9.52726E-05-2.84011E-05-2.86591E-05-2.91571E-07-4.80663E-19 9.71142E-19
 -1       653 9.52621E-05-2.84505E-05-2.86335E-05-1.82868E-07-3.93159E-19-7.36060E-19
 -1       654 9.52541E-05-2.84879E-05-2.86141E-05-1.05200E-07 1.04434E-19-1.68580E-18
 -1       655 9.52482E-05-2.85157E-05-2.85997E-05-5.11483E-08-9.29721E-19-7.14067E-19
 -1       656 9.52440E-05-2.85359E-05-2.85892E-05-1.47374E-08 2.82732E-19-1.29126E-18
 -1       657 9.52411E-05-2.85502E-05-2.85818E-05 8.74467E-09 8.64839E-21-1.86312E-18
 -1       658 9.52391E-05-2.85603E-05-2.85767E-05 2.29313E-08 4.83310E-19-2.59880E-18
 -1       659 9.52380E-05-2.85672E-05-2.85732E-05 3.05521E-08 8.25759E-19-1.28053E-18
 -1       660 9.52374E-05-2.85721E-05-2.85709E-05 3.35898E-08 1.49713E-18-8.87132E-19
 -1       661 9.52374E-05-2.85757E-05-2.85693E-05 3.34239E-08 1.18884E-18-7.30303E-19
 -1       662 9.52379E-05-2.85788E-05-2.85682E-05 3.09950E-08-9.55488E-19-3.10671E-18
 -1       663 1.08214E-04-3.70612E-05-3.05008E-05-5.46052E-06 3.63882E-19 2.83096E-19
 -1       664 9.52380E-05-2.85798E-05-2.85678E-05-2.98351E-08-2.07525E-18 1.59361E-18
 -1       665 1.04649E-04-3.34097E-05-3.05346E-05-6.78741E-06 3.11263E-19 1.68233E-19
 -1       666 1.16607E-04-4.27500E-05-3.16657E-05 3.40179E-06-1.74801E-19 1.08950E-18
 -1       667 1.18560E-04-4.09383E-05-3.32810E-05 9.74344E-06 2.97424E-19 1.06272E-18
 -1       668 1.16522E-04-3.35642E-05-3.56539E-05 1.35690E-05 6.41594E-19 1.42929E-18
 -1       669 1.11762E-04-2.36182E-05-3.79021E-05 1.06470E-05 8.03311E-19 1.01248E-18
 -1       670 1.09445E-04-1.86757E-05-3.90764E-05 2.29870E-07 4.03155E-19 2.14090E-19
 -1       671 1.11139E-04-2.21964E-05-3.82675E-05-1.07367E-05 4.69316E-19-3.67199E-19
 -1       672 1.16246E-04-3.22750E-05-3.61153E-05-1.50103E-05 3.41402E-19-3.80950E-19
 -1       673 1.18740E-04-4.00623E-05-3.37411E-05-1.20643E-05 8.55437E-20-2.00012E-20
 -1       674 1.17246E-04-4.29383E-05-3.18546E-05-5.42071E-06-6.08431E-19-8.76580E-20
 -1       675 1.13292E-04-4.13978E-05-3.08169E-05 4.93836E-07-4.17165E-19 3.32352E-19
 -1       676 1.08834E-04-3.80816E-05-3.03285E-05 4.58621E-06-1.73714E-19 5.03551E-19
 -1       677 1.04993E-04-3.47004E-05-3.01298E-05 6.82972E-06 2.15018E-19-4.81029E-19
 -1       678 1.02097E-04-3.20014E-05-3.00435E-05 7.69465E-06-1.08014E-19-2.01071E-19
 -1       679 1.00060E-04-3.01247E-05-2.99732E-05 7.66255E-06 5.19715E-19 8.37286E-19
 -1       680 9.86694E-05-2.89478E-05-2.98806E-05 7.10496E-06 9.78999E-19 1.55125E-18
 -1       681 9.77228E-05-2.82814E-05-2.97600E-05 6.28018E-06-1.41545E-19 7.47669E-19
 -1       682 9.70675E-05-2.79536E-05-2.96194E-05 5.35757E-06 3.18272E-19-9.42882E-19
 -1       683 9.66012E-05-2.78345E-05-2.94706E-05 4.44245E-06-3.56837E-19-4.81638E-19
 -1       684 9.62597E-05-2.78351E-05-2.93240E-05 3.59567E-06-9.06216E-19-8.70685E-19
 -1       685 9.60034E-05-2.78979E-05-2.91874E-05 2.84795E-06-6.71482E-19-3.75998E-19
 -1       686 9.58079E-05-2.79878E-05-2.90652E-05 2.21030E-06 3.82603E-19-5.08429E-19
 -1       687 9.56577E-05-2.80844E-05-2.89595E-05 1.68145E-06 5.70768E-19-1.40154E-19
 -1       688 9.55424E-05-2.81767E-05-2.88706E-05 1.25309E-06 1.53423E-19 2.05658E-19
 -1       689 9.54544E-05-2.82590E-05-2.87977E-05 9.13388E-07 6.44007E-19 3.75472E-19
 -1       690 9.53879E-05-2.83295E-05-2.87391E-05 6.49261E-07-7.91324E-19-6.58919E-19
 -1       691 9.53385E-05-2.83878E-05-2.86930E-05 4.47824E-07-4.64886E-19 2.44186E-19
 -1       692 9.53023E-05-2.84349E-05-2.86574E-05 2.97186E-07-3.34256E-19 3.62437E-19
 -1       693 9.52764E-05-2.84720E-05-2.86304E-05 1.86856E-07-1.59947E-18-5.13694E-19
 -1       694 9.52584E-05-2.85008E-05-2.86104E-05 1.07886E-07 5.52761E-19-3.84322E-19
 -1       695 9.52464E-05-2.85226E-05-2.85959E-05 5.28485E-08 1.83243E-19-5.62325E-20
 -1       696 9.52386E-05-2.85388E-05-2.85856E-05 1.57250E-08-1.46935E-19 1.67188E-18
 -1       697 9.52341E-05-2.85507E-05-2.85786E-05-8.25274E-09 1.01786E-19 2.34102E-18
 -1       698 9.52317E-05-2.85592E-05-2.85739E-05-2.27751E-08 5.93046E-19 4.86741E-19
 -1       699 9.52309E-05-2.85653E-05-2.85710E-05-3.06229E-08-2.43205E-19-1.78338E-18
 -1       700 9.52312E-05-2.85697E-05-2.85692E-05-3.38403E-08-1.80719E-19-2.14643E-18
 -1       701 9.52323E-05-2.85731E-05-2.85682E-05-3.39153E-08 2.32860E-19-5.76809E-19
 -1       702 9.52354E-05-2.85765E-05-2.85681E-05-3.24454E-08-4.16391E-19 2.63826E-19
 -1       703 9.52572E-05-2.85932E-05-2.85703E-05-4.31956E-09 1.42353E-18-7.04329E-19
 -1       704 9.52384E-05-2.85808E-05-2.85676E-05 2.82477E-08-5.73451E-19-2.08468E-18
 -1       705 9.52527E-05-2.85901E-05-2.85697E-05-2.00895E-08 2.92544E-20-6.39361E-19
 -1       706 9.52572E-05-2.85932E-05-2.85703E-05 4.42808E-09 1.66011E-18-2.09305E-18
 -1       707 9.52557E-05-2.85921E-05-2.85701E-05-1.27256E-08-6.60873E-19 3.38975E-19
 -1       708 1.14385E-04-5.59441E-05-2.49501E-05 2.57099E-05-1.00833E-18-1.48472E-18
 -1       709 9.52557E-05-2.85922E-05-2.85701E-05 1.26993E-08 8.53007E-19-1.29871E-18
 -1       710 9.52527E-05-2.85901E-05-2.85697E-05 2.00921E-08 1.82503E-18-2.40048E-18
 -1       711 9.52482E-05-2.85870E-05-2.85691E-05 2.58566E-08 1.90339E-18-1.27442E-18
 -1       712 8.44432E-05-4.08077E-05-1.84101E-05 3.50984E-05-7.66499E-19-2.44713E-19
 -1       713 1.02097E-04-3.02782E-05-3.07797E-05-6.39403E-06 1.86933E-19 2.33770E-19
 -1       714 3.78850E-05-1.12084E-05-1.08567E-05-1.80036E-06-4.46403E-19 3.41230E-18
 -1       715 1.37049E-04-4.20245E-05-4.11161E-05 1.20263E-05-1.06742E-18-1.91559E-18
 -1       716 1.35235E-04-4.60279E-05-3.85821E-05-9.01971E-06-1.28987E-19-7.46408E-19
 -1       717 1.12536E-04-4.06803E-05-3.08032E-05-2.05949E-06 1.85891E-19 7.70741E-19
 -1       718 9.70894E-05-2.34089E-05-3.15746E-05 3.02937E-06-2.69985E-19-1.08623E-19
 -1       719 1.00390E-04-2.75900E-05-3.11962E-05-4.60045E-06 5.41447E-19 9.77653E-20
 -1       720 1.09945E-04-5.52254E-05-2.32337E-05-2.98677E-05 2.32855E-19 7.90090E-19
 -1       721 9.47794E-05-4.55112E-05-2.08542E-05 3.40099E-05 5.77756E-19-3.14461E-20
 -1       722 8.49971E-05-1.28585E-05-3.09206E-05-1.99269E-06 5.71530E-19-7.42978E-19
 -1       723 8.40846E-05-1.20781E-05-3.08648E-05 1.75725E-06-6.47490E-20-8.81813E-19
 -1       724 1.33679E-04-5.36063E-05-3.44277E-05 8.38996E-07-2.21511E-19 7.45429E-19
 -1       725 1.27353E-04-5.95721E-05-2.90474E-05 1.80941E-05-2.52125E-20 4.93092E-19
 -1       726 6.59919E-05-2.86469E-05-1.56605E-05 3.28525E-05 7.64156E-19-5.50810E-19
 -1       727 1.22444E-04-1.45176E-05-4.68327E-05 8.83623E-06 1.51465E-18 9.81089E-19
 -1       728 1.37077E-04-5.41835E-05-3.57478E-05-1.50728E-06-2.14935E-20 7.20666E-19
 -1       729 1.20874E-04-5.80773E-05-2.68410E-05-2.30889E-05-5.92314E-19 1.87836E-19
 -1       730 3.61752E-05-1.29773E-05-9.37474E-06-1.41560E-05 9.04869E-20-1.52085E-18
 -1       731 5.84285E-05-2.69079E-05-1.30403E-05-3.42340E-05-4.69971E-19-1.57162E-18
 -1       732 1.32664E-04-5.73104E-05-3.23723E-05 5.36060E-06-4.97466E-19-1.12216E-18
 -1       733 8.15859E-05-4.14548E-05-1.68172E-05-3.77086E-05 5.72780E-19 2.54311E-18
 -1       734 1.32942E-04-3.59490E-05-4.19497E-05-1.42847E-05-1.11395E-18 8.77076E-19
 -1       735 4.84167E-05-2.03324E-05-1.15336E-05-2.65320E-05 6.72584E-19 4.23236E-18
 -1       736 3.85511E-05-1.24187E-05-1.06491E-05 1.22343E-05 4.73445E-19-1.61376E-18
 -1       737 1.27852E-04-2.54522E-05-4.43666E-05 1.59837E-05-9.39280E-19-5.30679E-19
 -1       738 9.33806E-05-4.72597E-05-1.94554E-05-3.76070E-05-6.74159E-19-1.52608E-18
 -1       739 8.85911E-05-1.54254E-05-3.13629E-05 1.65343E-06-2.16501E-19-6.29808E-19
 -1       740 7.91093E-05-8.46784E-06-3.02782E-05 1.97128E-07 2.80114E-19-8.50110E-19
 -1       741 1.23185E-04-5.75991E-05-2.80689E-05-1.63196E-05-8.28186E-19-2.00707E-18
 -1       742 9.52480E-05-2.85869E-05-2.85691E-05-2.57473E-08-1.36770E-18-6.06889E-19
 -1       743 1.20536E-04-2.38139E-05-4.17526E-05 1.47617E-05-9.95687E-19-8.05330E-19
 -1       744 5.85308E-05-1.95423E-05-1.64120E-05 2.33435E-05 5.17894E-19-1.13876E-18
 -1       745 7.01089E-05-2.84566E-05-1.75675E-05 2.95131E-05-2.92332E-19-1.02580E-18
 -1       746 1.22530E-04-1.86613E-05-4.49661E-05-1.25559E-05 1.28993E-18-4.35256E-19
 -1       747 9.47800E-05-2.03390E-05-3.19069E-05 1.13209E-06-4.55635E-19-3.23591E-19
 -1       748 1.28230E-04-3.47341E-05-4.01650E-05-1.52644E-05 2.44660E-19-1.09185E-18
 -1       749 1.34088E-04-5.15463E-05-3.55102E-05 5.85555E-06-2.56730E-19-2.01387E-18
 -1       750 1.28607E-04-4.38335E-05-3.65320E-05 1.11401E-05 5.78993E-19 1.56657E-18
 -1       751 8.07672E-05-9.66043E-06-3.04799E-05 1.23179E-06 1.29773E-19-5.15623E-19
 -1       752 1.14134E-04-5.33223E-05-2.60118E-05 2.28866E-05 3.74878E-19 5.56393E-19
 -1       753 1.14721E-04-1.29034E-05-4.40307E-05-3.66909E-07 8.50103E-19 2.95204E-19
 -1       754 9.33489E-05-2.13292E-05-3.08631E-05-4.15373E-06 5.52976E-19-5.24592E-19
 -1       755 9.64844E-05-2.85972E-05-2.90943E-05 1.13042E-05-2.53312E-20-5.71367E-20
 -1       756 1.00168E-04-3.37652E-05-2.84562E-05 1.34441E-05-1.22299E-20 6.93889E-20
 -1       757 1.06477E-04-4.07175E-05-2.81798E-05 1.42085E-05-6.94708E-21 1.19552E-19
 -1       758 1.15927E-04-4.87648E-05-2.87395E-05 1.21995E-05 3.83986E-19 3.94567E-19
 -1       759 9.30826E-05-2.14638E-05-3.06947E-05 5.21876E-06-2.99998E-19-1.37834E-19
 -1       760 1.23828E-04-5.38577E-05-2.99771E-05-6.62382E-06-1.00797E-18-1.80678E-18
 -1       761 1.12531E-04-4.68497E-05-2.81238E-05-1.23513E-05-3.55359E-19-1.83255E-18
 -1       762 1.03952E-04-3.93423E-05-2.76823E-05-1.38652E-05 6.64691E-20-1.13891E-18
 -1       763 9.84686E-05-3.34694E-05-2.78596E-05-1.32962E-05 4.47686E-19-3.11441E-19
 -1       764 9.54190E-05-2.95842E-05-2.82147E-05-1.19127E-05 5.23439E-19 4.96516E-19
 -1       765 9.39370E-05-2.73061E-05-2.85559E-05-1.03556E-05 2.26964E-19 1.53201E-19
 -1       766 9.33835E-05-2.61491E-05-2.88144E-05-8.84402E-06 8.86374E-19-1.46843E-19
 -1       767 9.33301E-05-2.57095E-05-2.89800E-05-7.44540E-06 5.52961E-19 6.62591E-19
 -1       768 9.35171E-05-2.56973E-05-2.90654E-05-6.18065E-06-7.64623E-20 1.70522E-18
 -1       769 9.37959E-05-2.59178E-05-2.90904E-05-5.05684E-06-3.35302E-19 1.39081E-18
 -1       770 9.40871E-05-2.62467E-05-2.90743E-05-4.07555E-06-8.63570E-20 8.26467E-19
 -1       771 9.43526E-05-2.66085E-05-2.90331E-05-3.23405E-06 1.72774E-19 1.00202E-18
 -1       772 9.45776E-05-2.69601E-05-2.89788E-05-2.52546E-06-1.72387E-19 1.09063E-18
 -1       773 9.47593E-05-2.72791E-05-2.89200E-05-1.93946E-06-4.44556E-19 7.57771E-19
 -1       774 9.49011E-05-2.75559E-05-2.88622E-05-1.46333E-06-4.75465E-19-2.73775E-19
 -1       775 9.50088E-05-2.77886E-05-2.88086E-05-1.08313E-06 7.18891E-19-2.08138E-19
 -1       776 9.50884E-05-2.79791E-05-2.87611E-05-7.84672E-07-7.08764E-19-7.66008E-19
 -1       777 9.51460E-05-2.81318E-05-2.87203E-05-5.54394E-07-7.90921E-19 8.82433E-20
 -1       778 9.51863E-05-2.82519E-05-2.86862E-05-3.79834E-07-1.92284E-18-1.54734E-18
 -1       779 9.52138E-05-2.83445E-05-2.86583E-05-2.49953E-07-1.03557E-18-3.92712E-20
 -1       780 9.52317E-05-2.84146E-05-2.86359E-05-1.55255E-07-1.12559E-18 2.57855E-19
 -1       781 9.52426E-05-2.84667E-05-2.86182E-05-8.77674E-08-3.74988E-19-1.68821E-19
 -1       782 9.52487E-05-2.85046E-05-2.86046E-05-4.09513E-08 3.33024E-19 3.92357E-19
 -1       783 9.52514E-05-2.85315E-05-2.85942E-05-9.55316E-09 1.45040E-18 1.05584E-18
 -1       784 9.52518E-05-2.85502E-05-2.85864E-05 1.05578E-08-4.53672E-19 1.02760E-18
 -1       785 9.52510E-05-2.85628E-05-2.85806E-05 2.25564E-08 1.00190E-19-1.51322E-18
 -1       786 9.52493E-05-2.85712E-05-2.85763E-05 2.88158E-08 1.21074E-18-2.57994E-18
 -1       787 9.52475E-05-2.85769E-05-2.85731E-05 3.10698E-08 9.14351E-19-3.76144E-18
 -1       788 9.52459E-05-2.85811E-05-2.85706E-05 3.04757E-08-1.38013E-18-4.59997E-18
 -1       789 1.03381E-04-3.46721E-05-2.94484E-05-9.76799E-06 4.45495E-20-7.12800E-21
 -1       790 1.22332E-04-2.80417E-05-4.06180E-05-1.58098E-05 4.79725E-19-9.29420E-19
 -1       791 1.23093E-04-4.81843E-05-3.21943E-05-3.54716E-06-1.34725E-19-9.33841E-19
 -1       792 1.16646E-04-4.66272E-05-3.00052E-05 3.68293E-06-7.27755E-19-4.78056E-19
 -1       793 1.09382E-04-4.15084E-05-2.90901E-05 8.06397E-06-2.70987E-19-1.00521E-18
 -1       794 1.03655E-04-3.63553E-05-2.88442E-05 9.81060E-06-2.24986E-19-1.30863E-18
 -1       795 9.97615E-05-3.23414E-05-2.88947E-05 1.00193E-05-1.97650E-20-3.80046E-19
 -1       796 9.73609E-05-2.96245E-05-2.90301E-05 9.42896E-06-8.45517E-19 2.62559E-19
 -1       797 9.60011E-05-2.79823E-05-2.91508E-05 8.46725E-06 1.63111E-19 9.07764E-19
 -1       798 9.53008E-05-2.71144E-05-2.92225E-05 7.36595E-06 4.80650E-19 1.41957E-18
 -1       799 9.49879E-05-2.67555E-05-2.92422E-05 6.25088E-06 1.28826E-18 1.01236E-18
 -1       800 9.48868E-05-2.67066E-05-2.92198E-05 5.19242E-06 7.61745E-20 4.92659E-19
 -1       801 9.48916E-05-2.68306E-05-2.91687E-05 4.22984E-06-2.18916E-19-3.86973E-19
 -1       802 9.49418E-05-2.70383E-05-2.91013E-05 3.38263E-06-7.12026E-19-1.26859E-18
 -1       803 9.50054E-05-2.72747E-05-2.90272E-05 2.65687E-06-6.30368E-19-1.04600E-18
 -1       804 9.50664E-05-2.75079E-05-2.89535E-05 2.04956E-06 6.47238E-19-4.62711E-20
 -1       805 9.51184E-05-2.77209E-05-2.88845E-05 1.55200E-06-3.46377E-19 2.43486E-19
 -1       806 9.51597E-05-2.79062E-05-2.88228E-05 1.15225E-06-2.18703E-19 2.21758E-19
 -1       807 9.51906E-05-2.80619E-05-2.87694E-05 8.37015E-07 5.86427E-19 4.00865E-19
 -1       808 9.52129E-05-2.81890E-05-2.87245E-05 5.92918E-07-8.10478E-19 6.78548E-21
 -1       809 9.52281E-05-2.82905E-05-2.86875E-05 4.07346E-07-5.72200E-19 2.12340E-19
 -1       810 9.52380E-05-2.83697E-05-2.86578E-05 2.68938E-07-9.00685E-19-8.20765E-19
 -1       811 9.52439E-05-2.84304E-05-2.86344E-05 1.67807E-07-1.00094E-18 3.66767E-19
 -1       812 9.52470E-05-2.84759E-05-2.86162E-05 9.55911E-08-4.46652E-19 2.93105E-18
 -1       813 9.52481E-05-2.85093E-05-2.86024E-05 4.53930E-08-8.42713E-19 2.42003E-18
 -1       814 9.52481E-05-2.85333E-05-2.85920E-05 1.16472E-08 5.06639E-20 8.03713E-20
 -1       815 9.52472E-05-2.85501E-05-2.85845E-05-1.00374E-08 6.47223E-19-6.69656E-19
 -1       816 9.52459E-05-2.85617E-05-2.85790E-05-2.30457E-08 5.54136E-19-5.66829E-19
 -1       817 9.52446E-05-2.85695E-05-2.85751E-05-2.99161E-08 6.38159E-19-1.02267E-18
 -1       818 9.52434E-05-2.85748E-05-2.85722E-05-3.23233E-08-1.44425E-18-2.32674E-18
 -1       819 8.00072E-05-1.14355E-05-2.93882E-05-2.74975E-06 2.50750E-19-7.23076E-19
 -1       820 9.52614E-05-2.85882E-05-2.85742E-05 4.62100E-11 3.07548E-20-1.21689E-18
 -1       821 9.52531E-05-2.85849E-05-2.85721E-05 2.47854E-08 1.45193E-18-2.22137E-18
 -1       822 9.52605E-05-2.85879E-05-2.85740E-05 9.00711E-09 1.20428E-18-1.27034E-18
 -1       823 1.01474E-04-4.57392E-05-2.38254E-05 2.53696E-05-7.61999E-19-9.35958E-19
 -1       824 9.97559E-05-3.01389E-05-2.98339E-05-8.84390E-06 2.69491E-19-3.60384E-19
 -1       825 1.21806E-04-5.39586E-05-2.90542E-05 1.03779E-05-1.07450E-18-1.08483E-18
 -1       826 8.44947E-05-3.35075E-05-2.16340E-05 2.80907E-05 6.68256E-19 6.26275E-20
 -1       827 9.52578E-05-2.85868E-05-2.85733E-05 1.75257E-08 1.33206E-18-1.27316E-18
 -1       828 5.48894E-05-1.74665E-05-1.57130E-05-2.15386E-05-1.80683E-19-1.14564E-18
 -1       829 1.28752E-04-4.94274E-05-3.41860E-05-7.40422E-06-3.61614E-19-2.06820E-18
 -1       830 9.44090E-05-2.47246E-05-2.98620E-05 8.48236E-06-1.09749E-19 1.37647E-20
 -1       831 1.05306E-04-4.81704E-05-2.43907E-05-2.65346E-05-7.40466E-19 7.85325E-20
 -1       832 1.19892E-04-2.49588E-05-4.09375E-05 1.37501E-05 1.17518E-18 1.41302E-18
 -1       833 5.21471E-05-1.51637E-05-1.55681E-05-1.43564E-05 2.65810E-19 2.99082E-18
 -1       834 8.09264E-05-3.39099E-05-1.98965E-05-3.13553E-05-7.15518E-19-1.71916E-18
 -1       835 1.28889E-04-5.54194E-05-3.15072E-05 5.33128E-06 7.87674E-20 3.49772E-19
 -1       836 9.70903E-05-2.47117E-05-3.10243E-05-4.47479E-06 4.83255E-19-1.26717E-19
 -1       837 9.85250E-05-4.51771E-05-2.26811E-05-2.81608E-05 6.18592E-19 1.02305E-18
 -1       838 7.17206E-05-2.89431E-05-1.80768E-05-2.90055E-05 1.61750E-18 3.16782E-18
 -1       839 1.23952E-04-5.38864E-05-3.00009E-05-9.06279E-06-5.18576E-19 3.46873E-19
 -1       840 1.31155E-04-4.78198E-05-3.58319E-05-8.37018E-06-1.71213E-19 6.71088E-19
 -1       841 4.66503E-05-1.09973E-05-1.49188E-05-2.54187E-06 1.65016E-19-1.29413E-18
 -1       842 5.32113E-05-1.43514E-05-1.63929E-05 1.20704E-05-5.19024E-19 2.12077E-18
 -1       843 9.08256E-05-1.84780E-05-3.10069E-05 3.41233E-06-1.08570E-19-5.79807E-19
 -1       844 7.84869E-05-1.02834E-05-2.92296E-05-5.84800E-07 2.40030E-19-1.01208E-18
 -1       845 8.82315E-05-1.75178E-05-3.03061E-05-4.54814E-06 4.55515E-19-5.04425E-19
 -1       846 1.11340E-04-5.03667E-05-2.60927E-05-1.97395E-05 1.31217E-19-7.72792E-19
 -1       847 9.52485E-05-2.85833E-05-2.85708E-05-2.86222E-08-1.52368E-18-4.36204E-19
 -1       848 1.00553E-04-4.22907E-05-2.49163E-05 2.36927E-05 5.95074E-19 2.20311E-19
 -1       849 8.57569E-05-1.47190E-05-3.04468E-05 3.38251E-06-4.15459E-20-6.68149E-19
 -1       850 5.62881E-05-1.33878E-05-1.81921E-05 1.05480E-05 2.31015E-19-1.36916E-18
 -1       851 1.08786E-04-4.01786E-05-2.94169E-05-8.88248E-06-1.84360E-19 4.25051E-19
 -1       852 1.23614E-04-4.81831E-05-3.23711E-05 3.15525E-06-1.45240E-19 1.37684E-18
 -1       853 8.34973E-05-1.40237E-05-2.97752E-05-4.14326E-06 3.88523E-19-6.63188E-19
 -1       854 9.52487E-05-2.85795E-05-2.85725E-05-3.04192E-08-1.41996E-18-8.73961E-19
 -1       855 9.52579E-05-2.85868E-05-2.85733E-05-1.75394E-08 2.24100E-20 4.82283E-20
 -1       856 5.70667E-05-1.34157E-05-1.85729E-05-1.99941E-08-5.82479E-19 2.54244E-18
 -1       857 9.52605E-05-2.85879E-05-2.85740E-05-9.06699E-09 3.98992E-19 1.15967E-18
 -1       858 8.85355E-05-3.60900E-05-2.23586E-05 2.58133E-05-5.38407E-19-1.06674E-18
 -1       859 1.17003E-04-4.68618E-05-3.00703E-05-5.42876E-06-5.05767E-19 8.81010E-19
 -1       860 8.16799E-05-1.17314E-05-2.99818E-05 2.55172E-06 1.52207E-19-4.64674E-19
 -1       861 9.81276E-05-2.71968E-05-3.03965E-05-6.95756E-06 3.88909E-19-1.32169E-19
 -1       862 9.52537E-05-2.85853E-05-2.85722E-05-2.37459E-08 1.66452E-19 6.25445E-19
 -1       863 5.87112E-05-1.37511E-05-1.91124E-05-1.08374E-05 1.15392E-20-1.09250E-18
 -1       864 9.40545E-05-3.27771E-05-2.62154E-05 1.85626E-05 4.74140E-20-9.97212E-20
 -1       865 9.22847E-05-3.22431E-05-2.57069E-05-1.74279E-05 1.09019E-18 1.92301E-18
 -1       866 8.98257E-05-2.78573E-05-2.65575E-05-1.41950E-05 5.10582E-19 1.55958E-18
 -1       867 8.91560E-05-2.54430E-05-2.73046E-05-1.14404E-05 4.78136E-19 2.09943E-19
 -1       868 8.93684E-05-2.43075E-05-2.78830E-05-9.30705E-06 3.22061E-19 3.65106E-19
 -1       869 9.00056E-05-2.39716E-05-2.83001E-05-7.61066E-06 1.01260E-18 3.63363E-19
 -1       870 9.07981E-05-2.41092E-05-2.85808E-05-6.22667E-06 7.53200E-19 8.07566E-20
 -1       871 9.16003E-05-2.45048E-05-2.87551E-05-5.07184E-06-5.88763E-19 7.17465E-19
 -1       872 9.23387E-05-2.50194E-05-2.88510E-05-4.09690E-06-5.34266E-19 9.71742E-19
 -1       873 9.29808E-05-2.55659E-05-2.88921E-05-3.27276E-06-2.98678E-19 3.01745E-19
 -1       874 9.35180E-05-2.60923E-05-2.88967E-05-2.58033E-06 5.83240E-20 1.80802E-19
 -1       875 9.39545E-05-2.65706E-05-2.88788E-05-2.00485E-06 9.90385E-20 1.20733E-20
 -1       876 9.43009E-05-2.69880E-05-2.88484E-05-1.53303E-06 1.55598E-19 6.35499E-19
 -1       877 9.45699E-05-2.73412E-05-2.88123E-05-1.15198E-06-1.04390E-19 1.05167E-18
 -1       878 9.47748E-05-2.76329E-05-2.87751E-05-8.49092E-07-1.38057E-18-8.46662E-19
 -1       879 9.49277E-05-2.78686E-05-2.87396E-05-6.12224E-07 2.98717E-19-1.67521E-18
 -1       880 9.50395E-05-2.80555E-05-2.87074E-05-4.30089E-07-1.50283E-18-7.10703E-19
 -1       881 9.51193E-05-2.82009E-05-2.86793E-05-2.92487E-07-9.17650E-19-5.02041E-19
 -1       882 9.51747E-05-2.83120E-05-2.86555E-05-1.90467E-07-5.20685E-19 1.90394E-19
 -1       883 9.52118E-05-2.83952E-05-2.86357E-05-1.16377E-07-8.71509E-19 1.77052E-18
 -1       884 9.52354E-05-2.84564E-05-2.86196E-05-6.38221E-08 2.03066E-19 8.20386E-19
 -1       885 9.52493E-05-2.85003E-05-2.86067E-05-2.75776E-08 1.31745E-18-1.38244E-18
 -1       886 9.52565E-05-2.85311E-05-2.85966E-05-3.46261E-09-5.32785E-20-1.57244E-18
 -1       887 9.52590E-05-2.85521E-05-2.85887E-05 1.17978E-08-1.33134E-18-1.58603E-18
 -1       888 9.52587E-05-2.85661E-05-2.85825E-05 2.07029E-08-5.00303E-19-1.81466E-18
 -1       889 9.52566E-05-2.85753E-05-2.85777E-05 2.51015E-08-1.56993E-19-4.87840E-18
 -1       890 9.52550E-05-2.85806E-05-2.85748E-05 2.57053E-08-3.39058E-19-4.17802E-18
 -1       891 9.62283E-05-3.21634E-05-2.74516E-05 1.31370E-05 3.04572E-20-9.02925E-19
 -1       892 9.37407E-05-2.87130E-05-2.78686E-05 1.13794E-05-9.41558E-19-4.70167E-19
 -1       893 9.26296E-05-2.67093E-05-2.82513E-05 9.66484E-06-4.38629E-19-8.44192E-19
 -1       894 9.23221E-05-2.57086E-05-2.85484E-05 8.11835E-06-7.64186E-21-1.21085E-18
 -1       895 9.24473E-05-2.53559E-05-2.87533E-05 6.75406E-06 8.50985E-19-7.68429E-19
 -1       896 9.27778E-05-2.53962E-05-2.88777E-05 5.55979E-06 8.66497E-19-1.35397E-19
 -1       897 9.31811E-05-2.56554E-05-2.89395E-05 4.52174E-06 2.23698E-19-1.58469E-19
 -1       898 9.35837E-05-2.60189E-05-2.89563E-05 3.62871E-06-1.56996E-22-2.82478E-19
 -1       899 9.39487E-05-2.64144E-05-2.89433E-05 2.87035E-06-1.92851E-19-2.64177E-19
 -1       900 9.42606E-05-2.67988E-05-2.89122E-05 2.23586E-06-3.16803E-19-8.28333E-19
 -1       901 9.45166E-05-2.71488E-05-2.88719E-05 1.71335E-06 4.01687E-19 6.47673E-19
 -1       902 9.47200E-05-2.74537E-05-2.88284E-05 1.29006E-06-8.45222E-19-1.38204E-19
 -1       903 9.48774E-05-2.77107E-05-2.87858E-05 9.52774E-07 5.48332E-20-1.07911E-19
 -1       904 9.49962E-05-2.79216E-05-2.87463E-05 6.88478E-07-5.86894E-19 1.43474E-18
 -1       905 9.50837E-05-2.80908E-05-2.87113E-05 4.84885E-07-5.58546E-19 1.26423E-18
 -1       906 9.51464E-05-2.82237E-05-2.86812E-05 3.30806E-07-3.95091E-19 1.07304E-18
 -1       907 9.51900E-05-2.83261E-05-2.86560E-05 2.16371E-07-1.99325E-18 1.63642E-18
 -1       908 9.52192E-05-2.84034E-05-2.86353E-05 1.33108E-07-2.04955E-18 1.68344E-18
 -1       909 9.52377E-05-2.84605E-05-2.86188E-05 7.39222E-08-1.01020E-18 8.32125E-19
 -1       910 9.52485E-05-2.85019E-05-2.86057E-05 3.30005E-08 5.75995E-19 2.97366E-19
 -1       911 9.52540E-05-2.85311E-05-2.85955E-05 5.68165E-09-1.32136E-19 1.22609E-18
 -1       912 9.52558E-05-2.85512E-05-2.85877E-05-1.16934E-08 5.94337E-19 1.80030E-18
 -1       913 9.52554E-05-2.85646E-05-2.85818E-05-2.19361E-08 1.19536E-18 1.57341E-18
 -1       914 9.52535E-05-2.85735E-05-2.85772E-05-2.71470E-08-6.95025E-20 2.34565E-18
 -1       915 9.52650E-05-2.85820E-05-2.85784E-05 4.45851E-09-1.31120E-18-1.33582E-18
 -1       916 7.29662E-05-2.39662E-05-2.08819E-05-2.32440E-05-5.16647E-19-1.07826E-18
 -1       917 8.76016E-05-1.74781E-05-3.00534E-05 5.23432E-06 3.83173E-20-5.65002E-19
 -1       918 9.61133E-05-2.96433E-05-2.84947E-05-1.22053E-05-8.69706E-20-4.11210E-19
 -1       919 7.01226E-05-2.22272E-05-2.04196E-05 1.96436E-05 3.62964E-19-2.97639E-19
 -1       920 1.08230E-04-4.47408E-05-2.71885E-05 1.48324E-05-6.42801E-19-1.20334E-18
 -1       921 1.00679E-04-3.74235E-05-2.70945E-05 1.46520E-05 5.52621E-20-4.58350E-19
 -1       922 8.92815E-05-2.27334E-05-2.85176E-05 1.05298E-05-2.43514E-20-4.31527E-19
 -1       923 7.92913E-05-1.04211E-05-2.95184E-05 1.33400E-06 2.85640E-19-6.75250E-19
 -1       924 9.07323E-05-2.68740E-05-2.73691E-05 1.44023E-05 1.53548E-19-3.01857E-19
 -1       925 9.39795E-05-3.77115E-05-2.40393E-05-2.47041E-05-1.06353E-18-4.64614E-19
 -1       926 1.10012E-04-4.58898E-05-2.74148E-05-1.65387E-05-6.20284E-19 3.24852E-19
 -1       927 8.78593E-05-3.44927E-05-2.27773E-05-2.43764E-05 1.14118E-18 2.41570E-18
 -1       928 6.91385E-05-2.23723E-05-1.99534E-05-2.00972E-05 8.89894E-19 2.37672E-18
 -1       929 7.18127E-05-2.14109E-05-2.14948E-05 1.99279E-05 4.59332E-19-4.09421E-19
 -1       930 8.83852E-05-2.00250E-05-2.92974E-05 7.80549E-06 2.08946E-20-4.49084E-19
 -1       931 9.19938E-05-2.24523E-05-2.98057E-05-7.26831E-06 3.48048E-19-5.44567E-19
 -1       932 1.02266E-04-4.27410E-05-2.54814E-05-2.02399E-05 1.02825E-19-2.70924E-19
 -1       933 9.52573E-05-2.85795E-05-2.85762E-05-2.41497E-08-1.24848E-19 1.83774E-18
 -1       934 9.52606E-05-2.85818E-05-2.85766E-05 1.82535E-08 4.92967E-19-6.97709E-19
 -1       935 8.99589E-05-3.23618E-05-2.45984E-05 2.16961E-05 2.63337E-19 1.01584E-19
 -1       936 6.59358E-05-1.69992E-05-2.09002E-05 1.07545E-05-9.33999E-19 2.74490E-18
 -1       937 9.52650E-05-2.85820E-05-2.85784E-05-4.56634E-09-7.87873E-19-8.27873E-19
 -1       938 6.55337E-05-1.64652E-05-2.09693E-05-9.59913E-06-2.36534E-20 1.81568E-18
 -1       939 9.44793E-05-2.60919E-05-2.93088E-05-9.45550E-06 2.67941E-19-4.73627E-19
 -1       940 1.00794E-04-3.55945E-05-2.79306E-05-1.44501E-05-2.48479E-19-3.06937E-19
 -1       941 8.27070E-05-1.39426E-05-2.94729E-05 4.26564E-06 2.45076E-19-6.73834E-19
 -1       942 9.66323E-05-3.77232E-05-2.51978E-05 1.97931E-05-3.03210E-19-7.53760E-19
 -1       943 9.52635E-05-2.85820E-05-2.85777E-05 1.15152E-08-4.46184E-19 8.19776E-19
 -1       944 9.52630E-05-2.85817E-05-2.85777E-05-1.34006E-08 4.87383E-19 8.59804E-19
 -1       945 8.10215E-05-1.46716E-05-2.84413E-05-5.78061E-06 1.31605E-19-7.38182E-19
 -1       946 6.08323E-05-1.22789E-05-2.07192E-05 4.99133E-07 1.07982E-19-1.21254E-18
 -1       947 7.76290E-05-1.21870E-05-2.80464E-05-2.78095E-06 1.72192E-19-8.52832E-19
 -1       948 8.24223E-05-1.98508E-05-2.68152E-05 1.15692E-05 5.20814E-20-2.80119E-19
 -1       949 8.28781E-05-2.26590E-05-2.58049E-05-1.16079E-05-1.78616E-19 1.72773E-18
 -1       950 8.45473E-05-2.20075E-05-2.68027E-05-8.87053E-06 3.19672E-19 1.74360E-18
 -1       951 8.62334E-05-2.20195E-05-2.75202E-05-6.97957E-06 1.28171E-19 9.25751E-19
 -1       952 8.78083E-05-2.24228E-05-2.80222E-05-5.58619E-06 4.04467E-19 1.87765E-19
 -1       953 8.92173E-05-2.30395E-05-2.83619E-05-4.50455E-06 3.08528E-19 2.70911E-19
 -1       954 9.04418E-05-2.37526E-05-2.85811E-05-3.63225E-06-6.22607E-20-3.92691E-19
 -1       955 9.14802E-05-2.44828E-05-2.87132E-05-2.91284E-06-5.38366E-19-7.27792E-20
 -1       956 9.23423E-05-2.51796E-05-2.87841E-05-2.31382E-06 2.88865E-19 6.23246E-20
 -1       957 9.30446E-05-2.58136E-05-2.88133E-05-1.81556E-06 7.06339E-20 6.42479E-20
 -1       958 9.36068E-05-2.63705E-05-2.88156E-05-1.40438E-06 6.89617E-19 8.49973E-20
 -1       959 9.40490E-05-2.68460E-05-2.88013E-05-1.06909E-06-3.04325E-19-1.04540E-18
 -1       960 9.43911E-05-2.72423E-05-2.87781E-05-7.99535E-07-1.56982E-18-4.04862E-19
 -1       961 9.46510E-05-2.75658E-05-2.87508E-05-5.86141E-07-1.20136E-18-6.84588E-20
 -1       962 9.48448E-05-2.78247E-05-2.87229E-05-4.19926E-07-2.03557E-20-8.12758E-19
 -1       963 9.49864E-05-2.80283E-05-2.86963E-05-2.92639E-07-1.42546E-18-1.19377E-19
 -1       964 9.50875E-05-2.81854E-05-2.86723E-05-1.96896E-07-1.23632E-18-5.10132E-19
 -1       965 9.51576E-05-2.83045E-05-2.86513E-05-1.26257E-07-1.88082E-19-2.28871E-18
 -1       966 9.52045E-05-2.83930E-05-2.86335E-05-7.52434E-08 3.89070E-19-8.55680E-19
 -1       967 9.52343E-05-2.84574E-05-2.86187E-05-3.93021E-08 3.36743E-19 3.64582E-19
 -1       968 9.52519E-05-2.85032E-05-2.86066E-05-1.47296E-08 8.87241E-19-4.09890E-19
 -1       969 9.52608E-05-2.85349E-05-2.85968E-05 1.42455E-09-3.65614E-19 9.04120E-19
 -1       970 9.52640E-05-2.85563E-05-2.85890E-05 1.14598E-08-1.02216E-18 1.85907E-18
 -1       971 9.52634E-05-2.85703E-05-2.85828E-05 1.70789E-08-2.10491E-18 4.54941E-19
 -1       972 9.52622E-05-2.85766E-05-2.85796E-05 1.82365E-08 6.82354E-19 5.13049E-19
 -1       973 8.86933E-05-2.39547E-05-2.77449E-05 8.38130E-06-3.98753E-19-1.48114E-18
 -1       974 8.82382E-05-2.48516E-05-2.71654E-05 1.04802E-05-8.63587E-19-2.14320E-18
 -1       975 8.84585E-05-2.68235E-05-2.64119E-05 1.32059E-05-5.04702E-19-1.78127E-18
 -1       976 8.94699E-05-2.37442E-05-2.81683E-05 6.75010E-06 5.76831E-20-1.75723E-18
 -1       977 9.03504E-05-2.39420E-05-2.84609E-05 5.44989E-06 4.96067E-19-1.24762E-18
 -1       978 9.12201E-05-2.43686E-05-2.86508E-05 4.38910E-06 2.42061E-19-8.92508E-19
 -1       979 9.20175E-05-2.49025E-05-2.87637E-05 3.51211E-06 1.76493E-19-3.68554E-19
 -1       980 9.27141E-05-2.54646E-05-2.88213E-05 2.78371E-06-3.62615E-19-3.92921E-19
 -1       981 9.33017E-05-2.60061E-05-2.88410E-05 2.18033E-06-5.45053E-19 7.72149E-19
 -1       982 9.37837E-05-2.64995E-05-2.88361E-05 1.68448E-06-5.27380E-19 8.79598E-19
 -1       983 9.41697E-05-2.69314E-05-2.88165E-05 1.28155E-06-1.94437E-19 1.21920E-18
 -1       984 9.44722E-05-2.72980E-05-2.87890E-05 9.58476E-07-7.44240E-20 8.06455E-19
 -1       985 9.47045E-05-2.76012E-05-2.87586E-05 7.03163E-07-1.01473E-18 1.23991E-18
 -1       986 9.48790E-05-2.78465E-05-2.87282E-05 5.04495E-07-1.51394E-18 1.52426E-18
 -1       987 9.50073E-05-2.80410E-05-2.86999E-05 3.52402E-07-5.45918E-19 2.58630E-18
 -1       988 9.50993E-05-2.81921E-05-2.86745E-05 2.37966E-07-1.42967E-18 2.79411E-18
 -1       989 9.51635E-05-2.83074E-05-2.86526E-05 1.53461E-07-1.64010E-18 7.53002E-19
 -1       990 9.52065E-05-2.83936E-05-2.86341E-05 9.23464E-08-7.63264E-19 8.84517E-20
 -1       991 9.52340E-05-2.84566E-05-2.86189E-05 4.91959E-08 4.67329E-20 7.87484E-20
 -1       992 9.52503E-05-2.85017E-05-2.86066E-05 1.96059E-08-1.48093E-20-3.35988E-19
 -1       993 9.52587E-05-2.85331E-05-2.85967E-05 6.81975E-11-1.81435E-19-1.44754E-19
 -1       994 9.52618E-05-2.85544E-05-2.85889E-05-1.21631E-08-3.73377E-19 2.92594E-18
 -1       995 9.52614E-05-2.85685E-05-2.85827E-05-1.92278E-08-1.97125E-19 4.21051E-18
 -1       996 7.08105E-05-1.75435E-05-2.27800E-05-1.39202E-05-1.53283E-19-6.73335E-19
 -1       997 6.82874E-05-1.56624E-05-2.25051E-05 1.12815E-05 4.09111E-19-8.80239E-19
 -1       998 8.13275E-05-2.69242E-05-2.32846E-05 1.90315E-05 3.46182E-19-1.38200E-18
 -1       999 9.52638E-05-2.85731E-05-2.85817E-05-1.62670E-08 1.09852E-18 6.78789E-19
 -1      1000 8.15270E-05-2.43763E-05-2.44695E-05-1.56775E-05 6.31370E-19 1.93118E-18
 -1      1001 8.50650E-05-2.80897E-05-2.43933E-05-2.03104E-05-6.74838E-19-6.65407E-19
 -1      1002 8.62141E-05-1.83931E-05-2.90724E-05-7.25892E-06 1.82592E-19-4.16591E-19
 -1      1003 7.72121E-05-1.18231E-05-2.80211E-05 1.14062E-06 1.25328E-19-8.51071E-19
 -1      1004 8.11629E-05-2.29200E-05-2.49493E-05 1.64819E-05 2.71699E-19-2.64530E-19
 -1      1005 7.51237E-05-2.11021E-05-2.31266E-05 1.37818E-05-1.20075E-18 6.04145E-19
 -1      1006 8.79438E-05-2.18548E-05-2.83210E-05-1.01343E-05 1.73640E-19-2.83937E-19
 -1      1007 8.25362E-05-1.59490E-05-2.85410E-05 6.57185E-06 1.95496E-19-4.11175E-19
 -1      1008 6.64336E-05-1.52823E-05-2.18950E-05 1.05578E-06-1.02323E-19 1.92078E-18
 -1      1009 9.52680E-05-2.85734E-05-2.85834E-05-8.72906E-11-1.24842E-18-6.89968E-19
 -1      1010 8.03743E-05-1.27693E-05-2.89761E-05 3.57174E-06 3.14782E-19-4.39057E-19
 -1      1011 6.85225E-05-1.37953E-05-2.34471E-05-6.07204E-06-1.02419E-19-7.99190E-19
 -1      1012 9.52674E-05-2.85739E-05-2.85829E-05 6.43515E-09 1.19933E-19-3.59139E-19
 -1      1013 9.52671E-05-2.85736E-05-2.85829E-05-8.23205E-09-4.37497E-19-1.29753E-18
 -1      1014 8.92164E-05-2.59202E-05-2.71164E-05-1.42253E-05-1.00225E-19-3.96505E-19
 -1      1015 9.09559E-05-3.09680E-05-2.57015E-05 1.65361E-05 6.65941E-19-1.59092E-18
 -1      1016 8.11965E-05-1.71938E-05-2.74236E-05-8.68929E-06 1.53399E-19-6.22979E-19
 -1      1017 7.62004E-05-1.36010E-05-2.68179E-05-4.80321E-06 1.37448E-19-7.44396E-19
 -1      1018 8.25865E-05-1.78530E-05-2.77180E-05 8.80303E-06 2.39788E-19-4.03139E-19
 -1      1019 7.46574E-05-1.24361E-05-2.66654E-05 5.89220E-07-7.72587E-21-7.94140E-19
 -1      1020 7.38324E-05-1.49307E-05-2.52358E-05 7.59799E-06 1.81063E-19-8.27148E-19
 -1      1021 8.77194E-05-2.24046E-05-2.79931E-05 4.72594E-06-2.99978E-19-2.18318E-18
 -1      1022 8.22556E-05-1.99972E-05-2.66819E-05-5.21124E-06 2.46418E-19 1.48064E-18
 -1      1023 8.47840E-05-2.07850E-05-2.74279E-05-4.07388E-06 9.72744E-21 3.25431E-18
 -1      1024 8.68539E-05-2.16549E-05-2.79431E-05-3.24502E-06-6.60935E-19 2.25031E-18
 -1      1025 8.85752E-05-2.25655E-05-2.82903E-05-2.61160E-06-2.74357E-19 1.34916E-18
 -1      1026 8.99996E-05-2.34628E-05-2.85161E-05-2.10435E-06-4.54535E-19 8.33608E-19
 -1      1027 9.11711E-05-2.43091E-05-2.86555E-05-1.68561E-06 2.99001E-19 2.92670E-19
 -1      1028 9.21255E-05-2.50799E-05-2.87341E-05-1.33645E-06-1.39025E-19 1.83676E-19
 -1      1029 9.28936E-05-2.57614E-05-2.87711E-05-1.04590E-06 3.02799E-20-1.28735E-18
 -1      1030 9.35032E-05-2.63484E-05-2.87808E-05-8.06293E-07-2.30372E-19-1.96179E-18
 -1      1031 9.39799E-05-2.68426E-05-2.87732E-05-6.11213E-07 1.44892E-19-1.51125E-18
 -1      1032 9.43467E-05-2.72501E-05-2.87558E-05-4.54744E-07-5.92593E-19-7.47031E-20
 -1      1033 9.46243E-05-2.75796E-05-2.87335E-05-3.31249E-07-1.32413E-18 7.33191E-19
 -1      1034 9.48304E-05-2.78413E-05-2.87097E-05-2.35412E-07-1.07291E-18-3.51177E-19
 -1      1035 9.49803E-05-2.80454E-05-2.86865E-05-1.62340E-07-1.81181E-18-6.61058E-19
 -1      1036 9.50867E-05-2.82017E-05-2.86650E-05-1.07657E-07-2.27267E-18-1.72960E-18
 -1      1037 9.51600E-05-2.83192E-05-2.86461E-05-6.75539E-08 8.65822E-19-1.64814E-18
 -1      1038 9.52085E-05-2.84058E-05-2.86298E-05-3.88015E-08 2.32252E-18-4.64758E-19
 -1      1039 9.52389E-05-2.84682E-05-2.86160E-05-1.87232E-08 9.98564E-19 2.41073E-19
 -1      1040 9.52563E-05-2.85121E-05-2.86047E-05-5.15568E-09 1.43673E-19-9.39331E-19
 -1      1041 9.52647E-05-2.85420E-05-2.85954E-05 3.61832E-09-1.82569E-19-1.87994E-18
 -1      1042 9.52672E-05-2.85620E-05-2.85879E-05 8.90898E-09-1.40941E-18-7.75527E-19
 -1      1043 8.43991E-05-2.18019E-05-2.68264E-05 7.78509E-06-5.14318E-20-1.43870E-18
 -1      1044 8.61332E-05-2.19443E-05-2.75104E-05 6.01780E-06 1.82537E-19-2.32756E-18
 -1      1045 8.25578E-05-2.21829E-05-2.58765E-05 1.02750E-05-4.56778E-19-3.52629E-20
 -1      1046 8.91319E-05-2.30452E-05-2.83236E-05 3.73964E-06-2.39616E-19-4.33248E-19
 -1      1047 9.03591E-05-2.37659E-05-2.85405E-05 2.96454E-06-7.63765E-19-1.52920E-19
 -1      1048 9.14027E-05-2.44965E-05-2.86745E-05 2.34182E-06-1.30069E-18 1.27444E-18
 -1      1049 9.22735E-05-2.51919E-05-2.87496E-05 1.83596E-06-9.62828E-19 2.51372E-18
 -1      1050 9.29869E-05-2.58249E-05-2.87840E-05 1.42432E-06-7.77961E-19 1.87679E-18
 -1      1051 9.35608E-05-2.63812E-05-2.87915E-05 1.09089E-06-1.01960E-18 2.10086E-18
 -1      1052 9.40143E-05-2.68566E-05-2.87820E-05 8.23185E-07-7.50956E-19 2.14372E-18
 -1      1053 9.43662E-05-2.72530E-05-2.87630E-05 6.10696E-07-6.44373E-19 2.32787E-18
 -1      1054 9.46343E-05-2.75764E-05-2.87392E-05 4.44254E-07-7.89566E-19 1.14772E-18
 -1      1055 9.48346E-05-2.78350E-05-2.87142E-05 3.15768E-07-1.70285E-18 7.63191E-19
 -1      1056 9.49810E-05-2.80380E-05-2.86899E-05 2.18138E-07-8.83026E-19 2.74217E-18
 -1      1057 9.50855E-05-2.81944E-05-2.86677E-05 1.45214E-07-2.29674E-19 2.22751E-18
 -1      1058 9.51578E-05-2.83125E-05-2.86480E-05 9.17663E-08-5.14517E-19 5.79564E-19
 -1      1059 9.52060E-05-2.84000E-05-2.86312E-05 5.34227E-08-1.20215E-18 5.08843E-20
 -1      1060 9.52365E-05-2.84633E-05-2.86171E-05 2.65959E-08-4.06398E-19 4.73676E-19
 -1      1061 9.52542E-05-2.85081E-05-2.86055E-05 8.40414E-09-4.18726E-19 1.34713E-18
 -1      1062 9.52629E-05-2.85388E-05-2.85960E-05-3.36256E-09-1.08290E-18-4.24989E-21
 -1      1063 9.52660E-05-2.85596E-05-2.85884E-05-1.06690E-08-1.77344E-19-1.19082E-18
 -1      1064 6.93525E-05-1.30182E-05-2.41030E-05 1.93481E-06 1.56516E-19-9.16777E-19
 -1      1065 9.52654E-05-2.85754E-05-2.85814E-05 1.23669E-08-9.28955E-20 5.60312E-19
 -1      1066 9.52684E-05-2.85610E-05-2.85889E-05-3.17296E-09-5.05838E-19-2.09390E-18
 -1      1067 7.78960E-05-1.92625E-05-2.50746E-05-1.33255E-05 3.27059E-20-6.36949E-19
 -1      1068 7.41982E-05-1.86450E-05-2.37799E-05-9.32230E-06 4.01892E-19 8.12297E-19
 -1      1069 7.91637E-05-1.94014E-05-2.56168E-05-6.88067E-06 3.64310E-19 1.29031E-18
 -1      1070 7.19352E-05-1.73878E-05-2.33712E-05 6.64713E-06 3.63993E-20 2.14890E-18
 -1      1071 8.26977E-05-2.44922E-05-2.49360E-05 1.42279E-05-1.40499E-19 5.10640E-19
 -1      1072 7.76862E-05-1.35575E-05-2.75031E-05 4.59228E-06 5.26275E-20-6.66885E-19
 -1      1073 9.52686E-05-2.85614E-05-2.85888E-05 1.67118E-09-4.60669E-19 1.20331E-18
 -1      1074 7.36070E-05-1.69586E-05-2.42704E-05-1.45651E-06 5.11446E-21 1.50867E-18
 -1      1075 8.87250E-05-2.26876E-05-2.83010E-05 1.95466E-06-1.07079E-18 1.46547E-18
 -1      1076 8.70533E-05-2.17753E-05-2.79756E-05 2.50684E-06-6.23359E-19 9.01447E-19
 -1      1077 8.47780E-05-2.05356E-05-2.75345E-05-1.16097E-06-1.09331E-18 1.49456E-18
 -1      1078 8.69415E-05-2.16008E-05-2.80041E-05-9.75595E-07-1.48258E-18 1.45831E-18
 -1      1079 8.86939E-05-2.26156E-05-2.83199E-05-8.14687E-07-6.75073E-19 1.33978E-18
 -1      1080 9.01258E-05-2.35679E-05-2.85253E-05-6.72830E-07-6.48382E-19 2.49356E-19
 -1      1081 9.12927E-05-2.44394E-05-2.86517E-05-5.48064E-07 3.01432E-19-3.04554E-19
 -1      1082 9.22362E-05-2.52167E-05-2.87228E-05-4.39383E-07-6.52514E-19-9.88633E-19
 -1      1083 9.29906E-05-2.58933E-05-2.87561E-05-3.46172E-07-5.04649E-19-9.23992E-19
 -1      1084 9.35859E-05-2.64690E-05-2.87645E-05-2.67712E-07-7.85949E-19-9.03883E-19
 -1      1085 9.40488E-05-2.69488E-05-2.87572E-05-2.02975E-07-4.88371E-20-1.68198E-18
 -1      1086 9.44031E-05-2.73409E-05-2.87410E-05-1.50628E-07-3.18395E-19-1.96177E-18
 -1      1087 9.46695E-05-2.76554E-05-2.87203E-05-1.09140E-07-1.34276E-18-4.34640E-19
 -1      1088 9.48661E-05-2.79032E-05-2.86983E-05-7.69073E-08-1.08408E-18 3.96253E-19
 -1      1089 9.50079E-05-2.80950E-05-2.86769E-05-5.23640E-08-2.38706E-18 5.22610E-19
 -1      1090 9.51076E-05-2.82408E-05-2.86572E-05-3.40620E-08-8.07097E-19 8.73574E-19
 -1      1091 9.51755E-05-2.83494E-05-2.86397E-05-2.07163E-08 1.08983E-18-1.95997E-19
 -1      1092 9.52196E-05-2.84286E-05-2.86247E-05-1.12263E-08 1.32670E-18-1.99537E-18
 -1      1093 9.52466E-05-2.84852E-05-2.86120E-05-4.67830E-09 4.34444E-19-1.78573E-18
 -1      1094 9.52613E-05-2.85245E-05-2.86015E-05-3.60213E-10 4.24128E-19-2.06391E-19
 -1      1095 7.97388E-05-1.94540E-05-2.58363E-05 5.71135E-06 1.11560E-19 3.89670E-19
 -1      1096 9.01127E-05-2.35780E-05-2.85143E-05 1.52661E-06-1.03304E-18 1.63398E-18
 -1      1097 9.12576E-05-2.44141E-05-2.86467E-05 1.18932E-06-1.56104E-18 1.18418E-18
 -1      1098 9.21923E-05-2.51733E-05-2.87221E-05 9.20786E-07-4.81352E-19 9.07351E-19
 -1      1099 9.29458E-05-2.58428E-05-2.87582E-05 7.06276E-07-5.08195E-19 5.48974E-20
 -1      1100 9.35444E-05-2.64183E-05-2.87681E-05 5.35335E-07-1.08078E-18 5.58670E-19
 -1      1101 9.40126E-05-2.69018E-05-2.87617E-05 4.00011E-07-8.29560E-19 7.29605E-19
 -1      1102 9.43729E-05-2.72995E-05-2.87456E-05 2.93906E-07-6.73554E-19 1.89672E-19
 -1      1103 9.46452E-05-2.76203E-05-2.87248E-05 2.11685E-07-6.20404E-19 3.75091E-19
 -1      1104 9.48470E-05-2.78744E-05-2.87025E-05 1.48826E-07-1.19269E-18-1.69754E-18
 -1      1105 9.49934E-05-2.80719E-05-2.86806E-05 1.01488E-07-7.42905E-19-1.45460E-18
 -1      1106 9.50968E-05-2.82227E-05-2.86603E-05 6.64332E-08 6.31306E-21 9.08347E-20
 -1      1107 9.51677E-05-2.83355E-05-2.86423E-05 4.09639E-08-6.89629E-19 1.52896E-18
 -1      1108 9.52142E-05-2.84183E-05-2.86268E-05 2.28633E-08-4.38855E-19 7.19786E-19
 -1      1109 9.52430E-05-2.84776E-05-2.86138E-05 1.03424E-08 6.25814E-19-8.09798E-19
 -1      1110 9.52591E-05-2.85190E-05-2.86029E-05 1.90117E-09 5.83304E-19-3.48805E-18
 -1      1111 9.52661E-05-2.85435E-05-2.85954E-05-2.13746E-09-6.06775E-19-3.27888E-18
 -1      1112 7.74915E-05-1.98698E-05-2.46953E-05 9.25624E-06 3.42563E-19 4.34372E-19
 -1      1113 8.27041E-05-2.01270E-05-2.68133E-05 4.24127E-06 3.99798E-19 7.15286E-19
 -1      1114 8.50505E-05-2.08900E-05-2.74974E-05 3.24306E-06-2.24803E-19 7.64199E-19
 -1      1115 7.83623E-05-1.82517E-05-2.57638E-05-1.09044E-06 6.49126E-19 1.77044E-18
 -1      1116 8.19198E-05-1.93647E-05-2.68085E-05-1.14460E-06 9.81141E-19 2.08896E-18
 -1      1117 9.52675E-05-2.85511E-05-2.85928E-05 2.39918E-09-8.38861E-20 9.48473E-20
 -1      1118 7.62257E-05-1.78379E-05-2.50230E-05 2.86204E-06 4.77698E-19 2.40933E-18
 -1      1119 9.52661E-05-2.85430E-05-2.85956E-05-1.94184E-10 2.25115E-19 8.72755E-20
 -1      1120 8.01474E-05-1.89075E-05-2.62639E-05 2.02664E-06 5.40782E-19 1.58534E-18
 -1      1121 1.19968E-04 2.69618E-10-4.32928E-05-3.97119E-05-1.24937E-19 4.08164E-18
 -1      1122 9.30567E-05 8.29696E-11-3.89026E-05-2.05101E-05-5.74924E-20 8.53968E-19
 -1      1123 8.74652E-05 4.75389E-11-3.70816E-05-1.30356E-05-5.10337E-20-5.56302E-19
 -1      1124 8.40135E-05 3.28731E-11-3.57548E-05-8.50776E-06-2.90109E-20-1.21441E-18
 -1      1125 8.12828E-05 2.32754E-11-3.46741E-05-5.37324E-06-1.81583E-20-1.57305E-18
 -1      1126 7.90705E-05 1.62205E-11-3.37971E-05-3.22247E-06-1.32878E-20-1.73297E-18
 -1      1127 7.73997E-05 1.10958E-11-3.31348E-05-1.78751E-06-7.01449E-21-1.75710E-18
 -1      1128 7.63543E-05 8.02416E-12-3.27209E-05-8.23282E-07-2.39552E-21-1.74590E-18
 -1      1129 7.60295E-05 7.17008E-12-3.25911E-05-9.25976E-08 4.96970E-21-1.73094E-18
 -1      1130 7.64444E-05 8.55544E-12-3.27530E-05 6.70332E-07 7.25272E-21-1.67719E-18
 -1      1131 7.75540E-05 1.20389E-11-3.31896E-05 1.72397E-06 1.62789E-20-1.58854E-18
 -1      1132 7.92497E-05 1.73196E-11-3.38586E-05 3.28538E-06 2.17052E-20-1.46732E-18
 -1      1133 8.14351E-05 2.44516E-11-3.47257E-05 5.57313E-06 3.39872E-20-1.16047E-18
 -1      1134 8.40990E-05 3.39359E-11-3.57849E-05 8.84063E-06 3.35637E-20-7.42246E-19
 -1      1135 8.74430E-05 4.81837E-11-3.70923E-05 1.34559E-05 5.51630E-20 1.34268E-19
 -1      1136 9.26477E-05 7.80258E-11-3.89289E-05 2.05517E-05 5.81276E-20 1.76532E-18
 -1      1137 1.10099E-04 1.77789E-10-4.20983E-05 3.43921E-05 9.42324E-20 4.96891E-18
 -1      1138 1.33518E-04-2.69617E-05-4.17436E-05-2.49926E-05-4.75821E-19 6.08847E-18
 -1      1139 1.04930E-04-3.11289E-05-3.38668E-05-2.81185E-07-1.65330E-19 5.01920E-18
 -1      1140 1.01174E-04-3.03536E-05-3.11626E-05 5.03948E-07-2.65492E-20 3.50478E-18
 -1      1141 1.02365E-04-3.08175E-05-3.08755E-05 3.47464E-07-4.20340E-20 2.41553E-18
 -1      1142 1.05158E-04-3.16255E-05-3.15702E-05 2.78075E-07-5.37866E-20 1.68231E-18
 -1      1143 1.08681E-04-3.26373E-05-3.25739E-05 2.43445E-07-4.63387E-20 1.57969E-18
 -1      1144 1.12184E-04-3.36466E-05-3.35536E-05 2.00172E-07-2.78520E-20 1.05183E-18
 -1      1145 1.14765E-04-3.43838E-05-3.42266E-05 1.11389E-07-7.96873E-20 7.78794E-19
 -1      1146 1.15326E-04-3.45212E-05-3.42897E-05-5.46905E-08 1.00036E-19 3.19662E-19
 -1      1147 1.12799E-04-3.37486E-05-3.34848E-05-3.02635E-07-1.54054E-20 4.21399E-20
 -1      1148 1.06731E-04-3.19470E-05-3.17571E-05-5.72536E-07 4.63486E-20-3.61895E-19
 -1      1149 9.80642E-05-2.94110E-05-2.94265E-05-7.23755E-07 6.64784E-20-1.87406E-20
 -1      1150 8.94905E-05-2.69327E-05-2.72134E-05-6.01959E-07-9.68794E-21 7.11137E-19
 -1      1151 8.45767E-05-2.55261E-05-2.59827E-05-1.85013E-07 1.53062E-20 4.59621E-19
 -1      1152 8.57398E-05-2.58635E-05-2.62918E-05 3.37005E-07-1.15117E-19 8.99973E-20
 -1      1153 9.25770E-05-2.78323E-05-2.80481E-05 6.87647E-07-2.91379E-19-5.98958E-19
 -1      1154 1.02162E-04-3.06179E-05-3.05724E-05 7.29852E-07-3.80338E-21-9.48889E-19
 -1      1155 1.10996E-04-3.32143E-05-3.29984E-05 5.35195E-07 1.85232E-19-1.43244E-18
 -1      1156 1.16826E-04-3.49527E-05-3.46986E-05 2.67656E-07 5.89217E-20-1.10564E-18
 -1      1157 1.19135E-04-3.56615E-05-3.54612E-05 4.87858E-08 1.14902E-19-9.02765E-19
 -1      1158 1.18584E-04-3.55220E-05-3.54044E-05-8.08354E-08-1.82016E-19-7.32399E-19
 -1      1159 1.16237E-04-3.48431E-05-3.47958E-05-1.33703E-07 2.19550E-20-8.28531E-19
 -1      1160 1.13055E-04-3.39085E-05-3.39057E-05-1.38593E-07 1.26137E-20-5.33366E-20
 -1      1161 1.09711E-04-3.29190E-05-3.29382E-05-1.20382E-07-1.31770E-19-3.97483E-19
 -1      1162 1.06597E-04-3.19931E-05-3.20194E-05-9.48202E-08 5.75395E-20-6.08183E-19
 -1      1163 1.03899E-04-3.11872E-05-3.12129E-05-6.99546E-08-5.93833E-20 1.30574E-18
 -1      1164 1.01668E-04-3.05189E-05-3.05408E-05-4.90079E-08 9.01858E-20 1.70539E-18
 -1      1165 9.98886E-05-2.99840E-05-3.00013E-05-3.26897E-08 7.27092E-22 1.90318E-19
 -1      1166 9.85072E-05-2.95677E-05-2.95807E-05-2.06075E-08 3.12405E-19 3.79769E-19
 -1      1167 9.74609E-05-2.92515E-05-2.92609E-05-1.20022E-08-1.07460E-19-1.40037E-19
 -1      1168 9.66862E-05-2.90168E-05-2.90234E-05-6.08572E-09-2.67960E-19-2.05414E-18
 -1      1169 9.61262E-05-2.88467E-05-2.88511E-05-2.17006E-09 2.51264E-19-1.43235E-18
 -1      1170 9.57318E-05-2.87265E-05-2.87294E-05 2.99147E-10-2.88837E-19-1.54824E-18
 -1      1171 9.54627E-05-2.86442E-05-2.86460E-05 1.74937E-09 1.73319E-19-3.48295E-18
 -1      1172 9.52864E-05-2.85900E-05-2.85910E-05 2.50114E-09 4.21252E-19-3.93776E-18
 -1      1173 9.51773E-05-2.85562E-05-2.85567E-05 2.78978E-09 2.79704E-19-3.58766E-18
 -1      1174 9.51159E-05-2.85370E-05-2.85371E-05 2.78495E-09 9.15035E-20-3.71450E-18
 -1      1175 9.50872E-05-2.85277E-05-2.85276E-05 2.60666E-09-2.41724E-20-1.17827E-18
 -1      1176 9.50803E-05-2.85252E-05-2.85250E-05 2.33789E-09-1.89257E-19-6.97157E-19
 -1      1177 9.50871E-05-2.85269E-05-2.85266E-05 2.03452E-09-4.86417E-20-4.40690E-19
 -1      1178 9.51021E-05-2.85311E-05-2.85308E-05 1.73271E-09 3.55835E-19-1.63163E-19
 -1      1179 9.51213E-05-2.85367E-05-2.85364E-05 1.45456E-09-1.99901E-19 1.69473E-20
 -1      1180 9.51422E-05-2.85428E-05-2.85426E-05 1.21206E-09-7.85257E-20-1.94726E-18
 -1      1181 9.51630E-05-2.85490E-05-2.85488E-05 1.00966E-09-2.11217E-19-7.51464E-19
 -1      1182 9.51828E-05-2.85548E-05-2.85546E-05 8.45089E-10 9.87644E-20 8.14693E-19
 -1      1183 9.52007E-05-2.85601E-05-2.85600E-05 7.07799E-10 3.03432E-19 4.02946E-18
 -1      1184 9.52162E-05-2.85647E-05-2.85645E-05 5.71958E-10-6.99738E-20 6.33774E-18
 -1      1185 9.52283E-05-2.85684E-05-2.85681E-05 3.72342E-10 1.92063E-19 6.72954E-18
 -1      1186 9.52358E-05-2.85705E-05-2.85703E-05-2.33495E-11 2.07690E-19 5.01020E-18
 -1      1187 9.52378E-05-2.85714E-05-2.85716E-05-2.58866E-10 2.29569E-19 3.49561E-18
 -1      1188 1.34137E-04-3.84341E-05-4.01704E-05 1.19002E-05-7.30301E-20 7.53182E-18
 -1      1189 1.04002E-04-3.04361E-05-3.35819E-05 6.49002E-07-1.98523E-21 6.26222E-18
 -1      1190 1.00992E-04-3.01404E-05-3.10336E-05 4.76943E-08-3.54695E-21 5.03662E-18
 -1      1191 1.01824E-04-3.05553E-05-3.07236E-05-4.99592E-08 7.94457E-20 4.05861E-18
 -1      1192 1.04237E-04-3.12903E-05-3.13053E-05-1.02173E-07 1.33921E-20 3.56807E-18
 -1      1193 1.07270E-04-3.21748E-05-3.21563E-05-1.46827E-07-2.80579E-20 3.32450E-18
 -1      1194 1.10160E-04-3.30131E-05-3.29531E-05-1.86424E-07 3.65283E-21 3.23286E-18
 -1      1195 1.12064E-04-3.35645E-05-3.34307E-05-2.01545E-07-1.31422E-20 2.99875E-18
 -1      1196 1.12041E-04-3.35577E-05-3.33304E-05-1.58592E-07 1.00754E-19 1.85880E-18
 -1      1197 1.09271E-04-3.27568E-05-3.24597E-05-2.52245E-08-3.31931E-20 1.58268E-18
 -1      1198 1.03546E-04-3.10952E-05-3.08212E-05 1.95882E-07 1.11421E-19 7.30884E-19
 -1      1199 9.58341E-05-2.88344E-05-2.87314E-05 4.32379E-07 1.40370E-19-8.15269E-21
 -1      1200 8.84481E-05-2.66272E-05-2.68154E-05 5.51951E-07-1.45577E-19 8.95208E-19
 -1      1201 8.42872E-05-2.53293E-05-2.57864E-05 4.49137E-07-2.64188E-19 2.53763E-18
 -1      1202 8.52846E-05-2.55587E-05-2.60869E-05 1.47795E-07 1.36955E-19 4.23014E-19
 -1      1203 9.11434E-05-2.72806E-05-2.76350E-05-1.96858E-07 5.30951E-20-9.27819E-19
 -1      1204 9.95326E-05-2.98091E-05-2.98710E-05-4.19680E-07-1.66344E-19-3.09167E-19
 -1      1205 1.07571E-04-3.22534E-05-3.20765E-05-4.62343E-07 1.32885E-19 2.20229E-19
 -1      1206 1.13253E-04-3.39838E-05-3.37066E-05-3.69345E-07 9.09899E-20-9.85999E-19
 -1      1207 1.15943E-04-3.48003E-05-3.45416E-05-2.25569E-07-1.34688E-19-4.77594E-19
 -1      1208 1.16037E-04-3.48261E-05-3.46446E-05-9.40762E-08 9.67603E-20 3.87703E-19
 -1      1209 1.14371E-04-3.43201E-05-3.42212E-05-1.80617E-09-2.05633E-19 1.05055E-18
 -1      1210 1.11775E-04-3.35364E-05-3.35005E-05 5.03951E-08 9.61027E-20-7.85358E-19
 -1      1211 1.08881E-04-3.26653E-05-3.26683E-05 7.25673E-08 1.58807E-19-3.10713E-18
 -1      1212 1.06084E-04-3.18255E-05-3.18482E-05 7.60368E-08-1.14159E-20-5.24102E-21
 -1      1213 1.03596E-04-3.10792E-05-3.11090E-05 6.96193E-08 1.80337E-19 2.13231E-18
 -1      1214 1.01499E-04-3.04505E-05-3.04805E-05 5.90498E-08-5.04233E-20 3.12157E-18
 -1      1215 9.97992E-05-2.99411E-05-2.99680E-05 4.76159E-08 4.90315E-20 2.22507E-18
 -1      1216 9.84642E-05-2.95409E-05-2.95634E-05 3.69812E-08 1.45873E-21 1.71748E-18
 -1      1217 9.74432E-05-2.92347E-05-2.92528E-05 2.78434E-08-1.18472E-19 2.95426E-18
 -1      1218 9.66815E-05-2.90062E-05-2.90202E-05 2.03731E-08-8.65417E-21 3.03803E-18
 -1      1219 9.61275E-05-2.88399E-05-2.88505E-05 1.44796E-08 2.60709E-19 1.70011E-18
 -1      1220 9.57354E-05-2.87221E-05-2.87299E-05 9.96042E-09-3.17477E-19 3.28457E-18
 -1      1221 9.54666E-05-2.86413E-05-2.86469E-05 6.58143E-09-2.35399E-19 4.60634E-18
 -1      1222 9.52898E-05-2.85880E-05-2.85919E-05 4.11656E-09-8.47735E-20 2.66598E-18
 -1      1223 9.51801E-05-2.85549E-05-2.85576E-05 2.36514E-09-3.12500E-19 5.26633E-19
 -1      1224 9.51179E-05-2.85361E-05-2.85378E-05 1.15770E-09 4.52433E-19-2.64245E-18
 -1      1225 9.50887E-05-2.85272E-05-2.85282E-05 3.55786E-10 7.07905E-19-3.62163E-18
 -1      1226 9.50813E-05-2.85248E-05-2.85254E-05-1.50937E-10-9.10758E-20-3.48842E-18
 -1      1227 9.50878E-05-2.85267E-05-2.85269E-05-4.48673E-10 8.76145E-20-3.13675E-18
 -1      1228 9.51026E-05-2.85310E-05-2.85311E-05-6.03699E-10-5.00037E-20-2.12935E-18
 -1      1229 9.51216E-05-2.85367E-05-2.85366E-05-6.66319E-10-6.41876E-19 3.43647E-18
 -1      1230 9.51424E-05-2.85428E-05-2.85427E-05-6.74388E-10 2.37500E-20 2.90370E-18
 -1      1231 9.51631E-05-2.85490E-05-2.85489E-05-6.56223E-10 2.10797E-19-2.43174E-18
 -1      1232 9.51828E-05-2.85549E-05-2.85547E-05-6.32467E-10 6.36664E-19-4.34029E-18
 -1      1233 9.52007E-05-2.85602E-05-2.85600E-05-6.16460E-10-2.18786E-19-5.53050E-18
 -1      1234 9.52162E-05-2.85648E-05-2.85646E-05-6.10427E-10 1.10362E-19-4.61713E-18
 -1      1235 9.52283E-05-2.85684E-05-2.85681E-05-5.76169E-10-1.75876E-19-4.59811E-18
 -1      1236 9.52358E-05-2.85707E-05-2.85704E-05-3.57192E-10 7.36349E-19-7.64885E-18
 -1      1237 9.52378E-05-2.85713E-05-2.85716E-05 2.24003E-10 1.43737E-21-6.60745E-18
 -1      1238 9.52369E-05-2.85705E-05-2.85716E-05 1.96463E-10-6.88959E-18-4.69489E-19
 -1      1239 9.52377E-05-2.85726E-05-2.85703E-05 1.62652E-11-8.19476E-18 8.54629E-20
 -1      1240 9.52398E-05-2.85799E-05-2.85682E-05-4.21586E-10 3.14022E-18 1.72343E-18
 -1      1241 9.52430E-05-2.85905E-05-2.85652E-05-5.55507E-10 1.13446E-17 1.39894E-18
 -1      1242 9.52464E-05-2.86020E-05-2.85619E-05-5.41584E-10 1.47603E-17-1.78453E-19
 -1      1243 9.52495E-05-2.86127E-05-2.85589E-05-4.47038E-10 8.53263E-18-2.23183E-19
 -1      1244 9.52520E-05-2.86211E-05-2.85564E-05-3.20516E-10 4.17203E-18-4.02813E-19
 -1      1245 9.52536E-05-2.86266E-05-2.85548E-05-1.64180E-10 2.78240E-18-4.54758E-19
 -1      1246 9.52542E-05-2.86285E-05-2.85543E-05 1.20710E-12 7.72132E-19-5.68516E-19
 -1      1247 9.52536E-05-2.86266E-05-2.85549E-05 1.66705E-10 1.14936E-19 5.97340E-19
 -1      1248 9.52520E-05-2.86210E-05-2.85565E-05 3.22763E-10-2.11578E-18-3.49565E-19
 -1      1249 9.52495E-05-2.86125E-05-2.85589E-05 4.56056E-10-4.25906E-18-1.42770E-19
 -1      1250 9.52463E-05-2.86019E-05-2.85620E-05 5.43018E-10-7.43920E-18-1.01113E-18
 -1      1251 9.52429E-05-2.85903E-05-2.85653E-05 5.63888E-10-6.33457E-18 5.45772E-19
 -1      1252 9.52398E-05-2.85796E-05-2.85682E-05 5.02467E-10-1.98543E-18 7.98892E-19
 -1      1253 9.52379E-05-2.85728E-05-2.85703E-05-1.45420E-10-3.07614E-18-5.94606E-19
 -1      1254 9.52369E-05-2.85705E-05-2.85716E-05-2.08474E-10-2.96775E-18 7.51635E-19
 -1      1255 3.37168E-05-1.06501E-04 1.80333E-05-1.43952E-05 4.13649E-18 9.55877E-19
 -1      1256 1.62827E-05-6.23309E-05 8.98735E-06-2.34533E-05 7.94009E-18 2.92819E-18
 -1      1257 8.01929E-06-7.88414E-06-6.62511E-06 1.40165E-06 7.87232E-18 4.98818E-18
 -1      1258 3.51507E-05 2.42525E-05-2.62506E-05 5.36524E-05 6.98972E-18 6.37985E-18
 -1      1259 1.08265E-04 1.26179E-05-4.67259E-05 1.01363E-04 4.50876E-18 6.60516E-18
 -1      1260 2.06538E-04-3.29353E-05-6.38220E-05 1.08636E-04 1.92488E-18 4.71797E-18
 -1      1261 2.87211E-04-7.87062E-05-7.53640E-05 5.99914E-05 4.54910E-19 1.66273E-18
 -1      1262 3.10733E-04-9.29547E-05-7.79970E-05-2.05018E-05 5.08061E-19-3.58168E-18
 -1      1263 2.53916E-04-5.90966E-05-7.07865E-05-9.07478E-05 2.30859E-18-7.51064E-18
 -1      1264 1.53213E-04-5.63501E-06-5.53248E-05-1.11795E-04 5.12116E-18-9.22080E-18
 -1      1265 6.14894E-05 2.55264E-05-3.53917E-05-7.77217E-05 6.88638E-18-7.91468E-18
 -1      1266 1.29577E-05 1.05584E-05-1.42557E-05-2.03901E-05 7.50810E-18-5.83097E-18
 -1      1267 1.03005E-05-3.99375E-05 3.53536E-06 1.94780E-05 5.40068E-18-2.67324E-18
 -1      1268 2.84043E-05-9.30143E-05 1.53759E-05 2.27362E-05 3.21618E-18-8.28292E-19
 -1      1269 3.75873E-05-1.14271E-04 1.93465E-05-1.46926E-06-7.82341E-19-3.92441E-19
 -1      1270 2.68547E-05-9.04929E-05 1.49236E-05-2.36719E-05-6.00885E-18-1.76215E-18
 -1      1271 1.01771E-05-3.88657E-05 3.09744E-06-1.91322E-05-7.84861E-18-3.50121E-18
 -1      1272 1.53195E-05 1.05297E-05-1.49627E-05 2.24545E-05-7.51488E-18-5.68020E-18
 -1      1273 6.62547E-05 2.32771E-05-3.62492E-05 7.87636E-05-5.92415E-18-7.01343E-18
 -1      1274 1.57186E-04-7.51470E-06-5.57847E-05 1.11928E-04-3.95734E-18-7.09305E-18
 -1      1275 2.53891E-04-5.82739E-05-7.09415E-05 9.07125E-05-1.44292E-18-4.50452E-18
 -1      1276 3.11944E-04-9.40583E-05-7.81092E-05 2.31691E-05-4.27487E-19-1.45690E-19
 -1      1277 2.92724E-04-8.24293E-05-7.58722E-05-5.75343E-05-7.05896E-19 4.64936E-18
 -1      1278 2.13595E-04-3.69280E-05-6.49698E-05-1.07338E-04-3.42328E-18 8.56181E-18
 -1      1279 1.13328E-04 1.04549E-05-4.77188E-05-1.02697E-04-6.57806E-18 9.78492E-18
 -1      1280 3.68325E-05 2.42867E-05-2.68657E-05-5.48771E-05-1.03575E-17 1.01017E-17
 -1      1281 7.69623E-06-8.20600E-06-6.21034E-06 3.47111E-07-9.11069E-18 5.79032E-18
 -1      1282 1.75279E-05-6.53468E-05 9.70744E-06 2.58880E-05-5.47692E-18 2.47630E-18
 -1      1283 3.47519E-05-1.07793E-04 1.81975E-05 1.37476E-05-9.50794E-19 6.72385E-19
 -1      1284 1.09743E-04-2.33397E-05-3.95502E-05-1.54796E-05-1.92806E-19 3.33667E-18
 -1      1285 9.53467E-05-7.77320E-06-3.76598E-05-1.63598E-05-5.06737E-19 1.78300E-19
 -1      1286 9.81889E-05-8.01716E-06-3.89213E-05-2.21752E-05-6.38557E-19 9.05955E-19
 -1      1287 8.93011E-05-4.68623E-06-3.63239E-05-1.14438E-05-4.66556E-19-8.62597E-19
 -1      1288 9.14070E-05-4.74143E-06-3.70577E-05-1.42145E-05-5.45066E-19-4.02870E-19
 -1      1289 9.72507E-05-1.18641E-05-3.66481E-05-1.45939E-05-8.79855E-19 2.13770E-19
 -1      1290 8.53120E-05-3.25888E-06-3.51992E-05-7.58153E-06-3.48236E-19-1.35352E-18
 -1      1291 8.69682E-05-3.27058E-06-3.57864E-05-9.44642E-06-4.33999E-19-1.12253E-18
 -1      1292 9.08763E-05-7.93852E-06-3.56114E-05-1.04008E-05-7.46395E-19-6.43851E-19
 -1      1293 8.21214E-05-2.30372E-06-3.42366E-05-4.78550E-06-2.49901E-19-1.66347E-18
 -1      1294 8.34910E-05-2.31738E-06-3.47249E-05-6.10087E-06-2.58557E-19-1.53249E-18
 -1      1295 8.63461E-05-5.63150E-06-3.46548E-05-6.90745E-06-4.98055E-19-1.12719E-18
 -1      1296 7.95929E-05-1.59945E-06-3.34561E-05-2.86188E-06-1.62180E-19-1.74923E-18
 -1      1297 8.06719E-05-1.61354E-06-3.38402E-05-3.76020E-06-2.01726E-19-1.70060E-18
 -1      1298 8.27929E-05-4.02107E-06-3.38128E-05-4.36834E-06-3.90833E-19-1.32727E-18
 -1      1299 7.77141E-05-1.08531E-06-3.28723E-05-1.54154E-06-7.39566E-20-1.79343E-18
 -1      1300 7.84823E-05-1.09747E-06-3.31460E-05-2.16203E-06-8.82238E-20-1.78288E-18
 -1      1301 8.00175E-05-2.83887E-06-3.31230E-05-2.59177E-06-1.99476E-19-1.45551E-18
 -1      1302 7.66477E-05-7.79252E-07-3.25414E-05-6.37564E-07 2.97189E-20-1.77604E-18
 -1      1303 7.70315E-05-7.85601E-07-3.26789E-05-1.08255E-06 4.73809E-21-1.77194E-18
 -1      1304 7.80807E-05-2.04349E-06-3.26299E-05-1.36724E-06-6.51785E-20-1.44010E-18
 -1      1305 7.64706E-05-6.96919E-07-3.24889E-05 1.01849E-07 1.25401E-19-1.73597E-18
 -1      1306 7.64412E-05-6.96185E-07-3.24804E-05-2.94492E-07 1.00923E-19-1.74828E-18
 -1      1307 7.71225E-05-1.66388E-06-3.23802E-05-4.88336E-07 1.17412E-19-1.43092E-18
 -1      1308 7.71860E-05-8.40058E-07-3.27166E-05 9.38075E-07 2.27600E-19-1.66855E-18
 -1      1309 7.67517E-05-8.32488E-07-3.25645E-05 4.62057E-07 1.80226E-19-1.70040E-18
 -1      1310 7.72060E-05-1.71502E-06-3.23944E-05 2.95242E-07 2.59167E-19-1.38657E-18
 -1      1311 7.87204E-05-1.19430E-06-3.32016E-05 2.11973E-06 3.10332E-19-1.61763E-18
 -1      1312 7.79237E-05-1.18034E-06-3.29200E-05 1.44398E-06 2.75272E-19-1.67388E-18
 -1      1313 7.83087E-05-2.18497E-06-3.26681E-05 1.23829E-06 4.36420E-19-1.38564E-18
 -1      1314 8.09076E-05-1.72277E-06-3.38906E-05 3.83099E-06 3.78650E-19-1.40667E-18
 -1      1315 7.98316E-05-1.70981E-06-3.35083E-05 2.87027E-06 3.62636E-19-1.52126E-18
 -1      1316 8.03120E-05-3.03134E-06-3.31678E-05 2.56122E-06 5.26047E-19-1.27216E-18
 -1      1317 8.37138E-05-2.43551E-06-3.47669E-05 6.32692E-06 5.23255E-19-1.12830E-18
 -1      1318 8.23676E-05-2.42342E-06-3.42870E-05 4.94323E-06 4.50727E-19-1.29264E-18
 -1      1319 8.30950E-05-4.23349E-06-3.38524E-05 4.46966E-06 6.89849E-19-1.04617E-18
 -1      1320 8.71073E-05-3.37191E-06-3.58044E-05 9.80333E-06 6.17434E-19-6.11558E-19
 -1      1321 8.54970E-05-3.36878E-06-3.52295E-05 7.87809E-06 5.71218E-19-9.20950E-19
 -1      1322 8.66282E-05-5.85336E-06-3.46819E-05 7.16224E-06 8.69770E-19-7.18707E-19
 -1      1323 9.14684E-05-4.76335E-06-3.70596E-05 1.46331E-05 6.71485E-19 3.53530E-19
 -1      1324 8.93836E-05-4.76226E-06-3.63271E-05 1.18717E-05 5.84929E-19-2.31743E-19
 -1      1325 9.10723E-05-8.13918E-06-3.56123E-05 1.07991E-05 9.82492E-19-9.53441E-20
 -1      1326 9.87279E-05-8.00095E-06-3.87714E-05 2.18145E-05 5.51313E-19 2.04749E-18
 -1      1327 9.50999E-05-7.53017E-06-3.76523E-05 1.71915E-05 5.56395E-19 1.01554E-18
 -1      1328 9.74069E-05-1.20889E-05-3.66057E-05 1.54039E-05 1.00291E-18 9.11302E-19
 -1      1329 1.27899E-04-2.61198E-05-4.05304E-05 2.66446E-05 2.38546E-19 5.14403E-18
 -1      1330 1.05441E-04-1.58218E-05-3.90105E-05 2.14496E-05 2.73486E-19 2.99553E-18
 -1      1331 1.07744E-04-2.12445E-05-3.71311E-05 1.79781E-05 8.87757E-19 2.41066E-18
 -1      1332 1.08697E-04-2.97612E-05-3.65238E-05 5.62338E-06 4.53269E-19 5.01274E-18
 -1      1333 1.11936E-04-3.23727E-05-3.55064E-05-6.04991E-06-4.79632E-19 3.48469E-18
 -1      1334 1.06644E-04-3.04713E-05-3.31846E-05-3.34145E-06-4.36593E-19 2.96456E-18
 -1      1335 1.04818E-04-3.06646E-05-3.20244E-05-8.71951E-07-3.07764E-19 2.72841E-18
 -1      1336 1.04126E-04-3.08314E-05-3.14489E-05-4.57640E-07-3.41513E-19 2.19712E-18
 -1      1337 1.07678E-04-3.06219E-05-3.33885E-05-4.74510E-06-7.67200E-19 1.71249E-18
 -1      1338 1.03568E-04-3.07832E-05-3.11798E-05 7.59668E-07-3.14712E-19 2.03026E-18
 -1      1339 1.04374E-04-3.11496E-05-3.13336E-05 8.84575E-07-2.77589E-19 1.58358E-18
 -1      1340 1.04973E-04-3.08610E-05-3.18922E-05-1.39877E-08-5.87761E-19 1.35861E-18
 -1      1341 1.04812E-04-3.13140E-05-3.14584E-05 1.46785E-06-2.44270E-19 1.30374E-18
 -1      1342 1.06284E-04-3.18274E-05-3.18755E-05 1.53708E-06-2.87313E-19 1.08298E-18
 -1      1343 1.05037E-04-3.12413E-05-3.16627E-05 2.11544E-06-5.49863E-19 1.00037E-18
 -1      1344 1.07216E-04-3.21291E-05-3.21566E-05 1.74998E-06-1.87952E-20 9.99525E-19
 -1      1345 1.08893E-04-3.27011E-05-3.26366E-05 1.75627E-06-7.67491E-20 9.15960E-19
 -1      1346 1.06430E-04-3.18498E-05-3.19774E-05 3.08549E-06-2.89543E-19 7.54289E-19
 -1      1347 1.09975E-04-3.30649E-05-3.29466E-05 1.62082E-06-1.95125E-19 9.39624E-19
 -1      1348 1.11443E-04-3.35822E-05-3.33563E-05 1.54228E-06-1.46891E-19 7.15306E-19
 -1      1349 1.08461E-04-3.26476E-05-3.24883E-05 3.20949E-06-2.97387E-19 6.62724E-19
 -1      1350 1.12345E-04-3.39184E-05-3.35904E-05 9.98655E-07-1.13655E-20 7.35966E-19
 -1      1351 1.13118E-04-3.42253E-05-3.37913E-05 8.08379E-07-2.70108E-19 5.37959E-19
 -1      1352 1.10501E-04-3.34951E-05-3.29731E-05 2.43144E-06-1.65138E-19 7.79972E-19
 -1      1353 1.13493E-04-3.44226E-05-3.38490E-05-1.77921E-07-3.14977E-19 6.73913E-19
 -1      1354 1.13046E-04-3.43304E-05-3.37016E-05-4.88041E-07-1.71743E-19 4.90750E-19
 -1      1355 1.11892E-04-3.41759E-05-3.32441E-05 6.28003E-07-3.54616E-19 7.99073E-19
 -1      1356 1.12574E-04-3.42588E-05-3.35063E-05-1.80349E-06-1.00757E-19 5.01973E-19
 -1      1357 1.10531E-04-3.36043E-05-3.29249E-05-2.18357E-06-2.43496E-19 2.97441E-19
 -1      1358 1.11953E-04-3.43892E-05-3.31477E-05-2.12908E-06-3.16632E-19 7.22253E-19
 -1      1359 1.09050E-04-3.31556E-05-3.24670E-05-3.44523E-06-2.07192E-19 5.98217E-19
 -1      1360 1.05511E-04-3.19254E-05-3.15037E-05-3.75242E-06-9.97911E-21 4.24046E-19
 -1      1361 1.10146E-04-3.38039E-05-3.26174E-05-5.27256E-06-1.82483E-19 9.33682E-19
 -1      1362 1.03234E-04-3.11152E-05-3.08811E-05-4.32173E-06 4.00124E-20 2.07100E-19
 -1      1363 9.90602E-05-2.95877E-05-2.97835E-05-4.34897E-06-4.51545E-20 4.18487E-19
 -1      1364 1.06448E-04-3.22597E-05-3.17377E-05-7.57568E-06-5.11628E-20 1.02195E-18
 -1      1365 9.67149E-05-2.86704E-05-2.91987E-05-3.64787E-06 4.49060E-20 2.43840E-19
 -1      1366 9.34297E-05-2.74231E-05-2.83581E-05-3.26721E-06-1.68771E-19 1.55007E-19
 -1      1367 1.01766E-04-3.00796E-05-3.07646E-05-7.50908E-06-5.28601E-20 2.85212E-19
 -1      1368 9.20633E-05-2.68531E-05-2.80414E-05-1.30732E-06 1.23746E-20 3.66871E-20
 -1      1369 9.11468E-05-2.64904E-05-2.78145E-05-6.35984E-07-1.98153E-19 1.19275E-19
 -1      1370 9.79386E-05-2.81788E-05-3.00486E-05-4.29402E-06-2.84855E-19-9.81764E-20
 -1      1371 9.15065E-05-2.66242E-05-2.79080E-05 1.75569E-06-3.58467E-19-1.09082E-19
 -1      1372 9.34607E-05-2.73588E-05-2.84121E-05 2.37759E-06-5.10787E-19-5.05149E-19
 -1      1373 9.68820E-05-2.76096E-05-2.98806E-05 1.06419E-06-5.94935E-19-1.66756E-19
 -1      1374 9.54181E-05-2.81335E-05-2.88915E-05 4.05669E-06-4.19917E-19-5.49354E-19
 -1      1375 9.94142E-05-2.96166E-05-2.99316E-05 4.33015E-06-3.79848E-19-8.67626E-19
 -1      1376 9.92626E-05-2.87410E-05-3.03492E-05 6.06430E-06-7.13956E-19-5.60948E-19
 -1      1377 1.02070E-04-3.06114E-05-3.06223E-05 4.66578E-06 4.66530E-22-8.11405E-19
 -1      1378 1.06523E-04-3.22048E-05-3.18122E-05 4.54646E-06 1.99880E-20-1.09220E-18
 -1      1379 1.03976E-04-3.09623E-05-3.13030E-05 8.46626E-06-2.16549E-19-6.21510E-19
 -1      1380 1.08865E-04-3.29974E-05-3.24783E-05 3.72845E-06-1.27028E-19-6.56980E-19
 -1      1381 1.12382E-04-3.41897E-05-3.34509E-05 3.38448E-06 5.94379E-20-7.81944E-19
 -1      1382 1.08989E-04-3.31733E-05-3.24171E-05 7.78055E-06-7.11772E-20-6.47411E-19
 -1      1383 1.13812E-04-3.45942E-05-3.39117E-05 2.05142E-06 3.93870E-19-8.86738E-19
 -1      1384 1.15744E-04-3.51934E-05-3.44714E-05 1.68037E-06 2.66035E-19-6.84032E-19
 -1      1385 1.12657E-04-3.45992E-05-3.33493E-05 5.10285E-06 4.13862E-19-4.86065E-19
 -1      1386 1.16155E-04-3.52354E-05-3.46554E-05 4.12100E-07 6.32098E-20-7.78503E-19
 -1      1387 1.16551E-04-3.53066E-05-3.47910E-05 1.29367E-07-9.84146E-20-7.24731E-19
 -1      1388 1.14327E-04-3.50665E-05-3.38795E-05 1.94467E-06 1.03537E-19-4.23111E-19
 -1      1389 1.16141E-04-3.51000E-05-3.47231E-05-7.80906E-07-8.56562E-20-1.00382E-18
 -1      1390 1.15419E-04-3.48166E-05-3.45357E-05-9.47372E-07-4.39819E-19-1.04120E-18
 -1      1391 1.14163E-04-3.47992E-05-3.39553E-05-6.57938E-07-1.12278E-19-9.14746E-19
 -1      1392 1.14484E-04-3.44763E-05-3.42904E-05-1.45578E-06 4.66182E-20-6.00864E-19
 -1      1393 1.13131E-04-3.40103E-05-3.39122E-05-1.52579E-06 3.10623E-19-2.03142E-19
 -1      1394 1.12705E-04-3.41162E-05-3.36527E-05-2.33016E-06-1.55609E-20-3.95293E-19
 -1      1395 1.11942E-04-3.36208E-05-3.35712E-05-1.71417E-06-3.66913E-19-4.05491E-19
 -1      1396 1.10349E-04-3.30985E-05-3.31148E-05-1.72043E-06-3.81683E-19-8.45842E-19
 -1      1397 1.10526E-04-3.32692E-05-3.31035E-05-3.13752E-06-3.23572E-19-4.27474E-19
 -1      1398 1.09105E-04-3.27133E-05-3.27439E-05-1.70027E-06-7.65853E-20-9.70687E-19
 -1      1399 1.07527E-04-3.22111E-05-3.22859E-05-1.67137E-06-9.28750E-20-9.83849E-19
 -1      1400 1.08085E-04-3.24130E-05-3.24370E-05-3.31895E-06-4.58604E-19-6.08411E-19
 -1      1401 1.06353E-04-3.18593E-05-3.19285E-05-1.53749E-06 5.48499E-19-1.00382E-18
 -1      1402 1.04930E-04-3.14155E-05-3.15122E-05-1.49323E-06 2.65038E-19-5.04673E-19
 -1      1403 1.05687E-04-3.16279E-05-3.17521E-05-3.12183E-06 3.40405E-19-5.55430E-19
 -1      1404 1.03891E-04-3.11106E-05-3.11923E-05-1.31143E-06 1.31820E-19-3.97033E-19
 -1      1405 1.02682E-04-3.07388E-05-3.08365E-05-1.26371E-06 1.43394E-19 2.25920E-20
 -1      1406 1.03507E-04-3.09474E-05-3.11115E-05-2.73645E-06 5.85495E-19-7.80073E-19
 -1      1407 1.01802E-04-3.04842E-05-3.05641E-05-1.07390E-06-1.63616E-21 3.04158E-19
 -1      1408 1.00816E-04-3.01844E-05-3.02728E-05-1.02899E-06-1.56785E-19-6.28029E-20
 -1      1409 1.01624E-04-3.03796E-05-3.05480E-05-2.28725E-06 2.33265E-21-6.74531E-19
 -1      1410 1.00096E-04-2.99778E-05-3.00492E-05-8.52502E-07-2.03384E-19-2.50388E-19
 -1      1411 9.93172E-05-2.97432E-05-2.98183E-05-8.13234E-07-3.64389E-19-6.03033E-19
 -1      1412 1.00060E-04-2.99189E-05-3.00735E-05-1.84610E-06-4.33448E-19-9.23255E-19
 -1      1413 9.87443E-05-2.95796E-05-2.96400E-05-6.59607E-07 2.20947E-19-4.94154E-19
 -1      1414 9.81445E-05-2.94004E-05-2.94617E-05-6.26818E-07 1.51400E-19-4.97495E-19
 -1      1415 9.87964E-05-2.95537E-05-2.96868E-05-1.44911E-06-1.77862E-19-1.11190E-18
 -1      1416 9.76989E-05-2.92738E-05-2.93230E-05-4.98749E-07-3.22634E-20-7.01184E-20
 -1      1417 9.72478E-05-2.91400E-05-2.91886E-05-4.72250E-07-3.13663E-19-3.77853E-19
 -1      1418 9.78015E-05-2.92702E-05-2.93800E-05-1.11050E-06 9.49934E-20-1.03752E-18
 -1      1419 9.69088E-05-2.90439E-05-2.90830E-05-3.68787E-07-7.93949E-19-2.04066E-19
 -1      1420 9.65772E-05-2.89464E-05-2.89839E-05-3.47909E-07-3.27937E-19-1.07297E-18
 -1      1421 9.70351E-05-2.90543E-05-2.91423E-05-8.32179E-07-5.74874E-19 1.93421E-19
 -1      1422 9.63246E-05-2.88749E-05-2.89052E-05-2.66388E-07 7.47483E-19-5.49237E-19
 -1      1423 9.60867E-05-2.88056E-05-2.88340E-05-2.50293E-07 5.59467E-19 3.13271E-19
 -1      1424 9.64569E-05-2.88932E-05-2.89619E-05-6.09731E-07 5.44119E-20 4.63575E-19
 -1      1425 9.59027E-05-2.87536E-05-2.87767E-05-1.87434E-07-4.73760E-19-2.30109E-19
 -1      1426 9.57367E-05-2.87057E-05-2.87268E-05-1.75274E-07-5.39396E-19-9.39663E-19
 -1      1427 9.60299E-05-2.87755E-05-2.88280E-05-4.36020E-07-9.19850E-20 3.43944E-19
 -1      1428 9.56058E-05-2.86689E-05-2.86860E-05-1.27774E-07-4.25289E-19-1.40733E-18
 -1      1429 9.54939E-05-2.86369E-05-2.86522E-05-1.18770E-07-2.08970E-19-1.91217E-18
 -1      1430 9.57217E-05-2.86915E-05-2.87308E-05-3.03158E-07-9.35229E-19 4.88195E-19
 -1      1431 9.54035E-05-2.86116E-05-2.86241E-05-8.35947E-08 7.90115E-20-2.16154E-18
 -1      1432 9.53314E-05-2.85914E-05-2.86022E-05-7.70681E-08 5.58646E-19-2.27577E-18
 -1      1433 9.55051E-05-2.86332E-05-2.86621E-05-2.03552E-07-2.55592E-19-4.35980E-19
 -1      1434 9.52713E-05-2.85746E-05-2.85835E-05-5.15714E-08 9.60357E-20-2.96156E-18
 -1      1435 9.52277E-05-2.85627E-05-2.85702E-05-4.69527E-08-5.75404E-19-3.50579E-18
 -1      1436 9.53576E-05-2.85941E-05-2.86149E-05-1.30395E-07 2.05826E-19-1.42757E-18
 -1      1437 9.51897E-05-2.85521E-05-2.85584E-05-2.89100E-08 6.67513E-19-2.92816E-18
 -1      1438 9.51663E-05-2.85461E-05-2.85510E-05-2.57328E-08 9.78095E-19-1.88304E-18
 -1      1439 9.52613E-05-2.85692E-05-2.85837E-05-7.78471E-08 5.28382E-19-1.77583E-18
 -1      1440 9.51441E-05-2.85400E-05-2.85442E-05-1.33219E-08 2.74847E-19-1.97839E-18
 -1      1441 9.51344E-05-2.85378E-05-2.85410E-05-1.12126E-08-7.57722E-20-1.44016E-18
 -1      1442 9.52021E-05-2.85544E-05-2.85643E-05-4.10512E-08 8.80185E-19-1.80318E-18
 -1      1443 9.51233E-05-2.85348E-05-2.85375E-05-2.97337E-09 5.31867E-20-5.32789E-19
 -1      1444 9.51225E-05-2.85352E-05-2.85371E-05-1.63835E-09 3.61642E-19-4.01941E-19
 -1      1445 9.51692E-05-2.85467E-05-2.85532E-05-1.60656E-08 1.74798E-19-1.62509E-18
 -1      1446 9.51188E-05-2.85343E-05-2.85360E-05 3.57620E-09 1.54285E-19-5.97599E-19
 -1      1447 9.51236E-05-2.85362E-05-2.85372E-05 4.36332E-09-5.91862E-20-3.44181E-19
 -1      1448 9.51544E-05-2.85439E-05-2.85478E-05 2.43193E-10 3.17321E-19-3.23764E-19
 -1      1449 9.51247E-05-2.85367E-05-2.85376E-05 7.43640E-09 2.10559E-19-1.93948E-19
 -1      1450 9.51327E-05-2.85394E-05-2.85398E-05 7.84668E-09-2.54790E-19-2.98304E-19
 -1      1451 9.51517E-05-2.85441E-05-2.85464E-05 1.03170E-08-1.23306E-19-1.50585E-20
 -1      1452 9.51368E-05-2.85407E-05-2.85411E-05 9.44319E-09-8.30000E-19-6.05296E-19
 -1      1453 9.51463E-05-2.85438E-05-2.85438E-05 9.60265E-09-6.24989E-19-1.18818E-18
 -1      1454 9.51566E-05-2.85463E-05-2.85474E-05 1.60192E-08-5.35676E-19-8.32970E-19
 -1      1455 9.51520E-05-2.85455E-05-2.85456E-05 1.02086E-08 2.69432E-19-5.00824E-19
 -1      1456 9.51620E-05-2.85487E-05-2.85485E-05 1.02067E-08 1.91331E-19-1.01901E-18
 -1      1457 9.51659E-05-2.85496E-05-2.85499E-05 1.87365E-08-2.77438E-21-7.25023E-19
 -1      1458 9.51684E-05-2.85506E-05-2.85505E-05 1.01611E-08-1.88017E-20 1.03959E-18
 -1      1459 9.51782E-05-2.85537E-05-2.85533E-05 1.00571E-08 2.07586E-19 1.03115E-18
 -1      1460 9.51776E-05-2.85534E-05-2.85532E-05 1.94643E-08 9.99641E-19 1.23590E-18
 -1      1461 9.51847E-05-2.85556E-05-2.85553E-05 9.57604E-09 8.82118E-19 1.26521E-18
 -1      1462 9.51938E-05-2.85584E-05-2.85580E-05 9.40359E-09 1.33976E-18 2.43623E-18
 -1      1463 9.51900E-05-2.85574E-05-2.85568E-05 1.88743E-08 1.36253E-18 2.04985E-18
 -1      1464 9.51999E-05-2.85602E-05-2.85599E-05 8.59625E-09 1.15081E-18 2.72541E-18
 -1      1465 9.52080E-05-2.85628E-05-2.85622E-05 8.36481E-09 1.05648E-18 5.00400E-18
 -1      1466 9.52022E-05-2.85612E-05-2.85604E-05 1.73630E-08 1.95916E-18 3.73838E-18
 -1      1467 9.52134E-05-2.85644E-05-2.85639E-05 7.24200E-09 5.62100E-19 4.52664E-18
 -1      1468 9.52201E-05-2.85665E-05-2.85658E-05 6.93464E-09-2.49689E-19 4.77770E-18
 -1      1469 9.52134E-05-2.85647E-05-2.85637E-05 1.50843E-08 1.02865E-18 3.61665E-18
 -1      1470 9.52245E-05-2.85679E-05-2.85671E-05 5.42780E-09-3.72384E-19 5.22121E-18
 -1      1471 9.52294E-05-2.85695E-05-2.85685E-05 4.99615E-09 1.49583E-19 5.08290E-18
 -1      1472 9.52230E-05-2.85678E-05-2.85664E-05 1.19691E-08-5.84208E-20 2.42526E-18
 -1      1473 9.52326E-05-2.85705E-05-2.85694E-05 3.00010E-09-1.86371E-19 4.62660E-18
 -1      1474 9.52351E-05-2.85712E-05-2.85702E-05 2.44121E-09-7.06391E-19 3.80304E-18
 -1      1475 9.52305E-05-2.85704E-05-2.85685E-05 7.86994E-09-5.20657E-19 3.43502E-18
 -1      1476 9.52372E-05-2.85714E-05-2.85710E-05-3.34531E-11-2.50208E-18 2.79258E-18
 -1      1477 9.52360E-05-2.85721E-05-2.85702E-05 2.38340E-09-2.88840E-18 1.33002E-18
 -1      1478 1.05170E-04-3.09882E-05-3.22910E-05 1.63140E-06 3.83891E-19 4.14649E-18
 -1      1479 1.09514E-04-3.14867E-05-3.42440E-05 3.01401E-06 3.63536E-19 4.76318E-18
 -1      1480 1.09270E-04-2.90006E-05-3.47428E-05 1.01078E-05 6.85038E-19 3.22926E-18
 -1      1481 1.03122E-04-3.07690E-05-3.10660E-05-1.23239E-07 4.15853E-19 3.32937E-18
 -1      1482 1.03640E-04-3.04904E-05-3.15483E-05 1.96936E-07 2.98592E-19 3.80406E-18
 -1      1483 1.05437E-04-3.07846E-05-3.21981E-05 2.37332E-06 6.71141E-19 2.58473E-18
 -1      1484 1.03786E-04-3.10847E-05-3.11331E-05-9.34774E-07 1.47516E-19 2.65608E-18
 -1      1485 1.03019E-04-3.06770E-05-3.09896E-05-7.51869E-07 2.13452E-19 2.95768E-18
 -1      1486 1.04135E-04-3.09214E-05-3.14293E-05-5.79001E-07 5.98045E-19 2.00612E-18
 -1      1487 1.05731E-04-3.17214E-05-3.16897E-05-1.28225E-06 1.28264E-19 2.33617E-18
 -1      1488 1.04420E-04-3.12380E-05-3.13223E-05-1.18335E-06 8.64801E-20 2.47723E-18
 -1      1489 1.04768E-04-3.13056E-05-3.14998E-05-1.88059E-06 1.97104E-19 1.55867E-18
 -1      1490 1.08087E-04-3.24820E-05-3.23713E-05-1.28287E-06 4.75920E-20 2.27582E-18
 -1      1491 1.06660E-04-3.20015E-05-3.19659E-05-1.26619E-06 1.57247E-21 2.26417E-18
 -1      1492 1.06349E-04-3.19087E-05-3.19069E-05-2.33932E-06 3.84425E-20 1.34453E-18
 -1      1493 1.10112E-04-3.31591E-05-3.29351E-05-9.11559E-07 8.34774E-20 2.10983E-18
 -1      1494 1.08967E-04-3.27961E-05-3.26213E-05-9.98260E-07 1.03917E-19 2.11212E-18
 -1      1495 1.08170E-04-3.25933E-05-3.23751E-05-2.09465E-06 1.35396E-19 1.32052E-18
 -1      1496 1.11025E-04-3.35095E-05-3.31551E-05-1.22690E-07 3.33298E-19 1.73484E-18
 -1      1497 1.10604E-04-3.34081E-05-3.30589E-05-3.36755E-07 8.61459E-20 1.86353E-18
 -1      1498 1.09580E-04-3.31786E-05-3.27003E-05-1.10222E-06 1.68361E-19 1.10874E-18
 -1      1499 1.10071E-04-3.32734E-05-3.28305E-05 1.04556E-06 9.26045E-20 1.18043E-18
 -1      1500 1.10805E-04-3.35802E-05-3.30649E-05 7.05231E-07 3.55893E-19 1.65883E-18
 -1      1501 1.09934E-04-3.34411E-05-3.27084E-05 6.46418E-07 4.57014E-19 1.15352E-18
 -1      1502 1.06782E-04-3.22590E-05-3.18639E-05 2.35513E-06 4.42727E-19 8.95129E-19
 -1      1503 1.08920E-04-3.30556E-05-3.24791E-05 1.95113E-06 6.20981E-20 1.02967E-18
 -1      1504 1.08684E-04-3.31383E-05-3.22837E-05 2.91841E-06 2.57028E-19 7.35794E-19
 -1      1505 1.01410E-04-3.04987E-05-3.03683E-05 3.31032E-06 2.09479E-19 3.63165E-19
 -1      1506 1.04751E-04-3.17006E-05-3.12860E-05 2.98667E-06 2.83273E-19 5.97794E-19
 -1      1507 1.05629E-04-3.21017E-05-3.14318E-05 5.06635E-06 4.27037E-19 2.46037E-19
 -1      1508 9.52635E-05-2.84064E-05-2.87220E-05 3.29968E-06 4.54023E-20-6.24687E-20
 -1      1509 9.89691E-05-2.96911E-05-2.97047E-05 3.24013E-06 1.37894E-19 1.45054E-19
 -1      1510 1.01247E-04-3.04118E-05-3.03310E-05 6.07366E-06 2.66094E-19-2.96991E-20
 -1      1511 9.05134E-05-2.67502E-05-2.74847E-05 1.99538E-06-4.69627E-19 1.02695E-18
 -1      1512 9.32645E-05-2.76246E-05-2.81927E-05 2.30328E-06-5.41744E-19-8.51798E-20
 -1      1513 9.68457E-05-2.85549E-05-2.93155E-05 5.02408E-06-5.36926E-19-1.12457E-19
 -1      1514 8.92329E-05-2.63022E-05-2.71525E-05-2.46534E-07 4.84986E-19 8.32223E-19
 -1      1515 8.98338E-05-2.63514E-05-2.72980E-05 3.37150E-07 2.10554E-19 1.03089E-18
 -1      1516 9.41850E-05-2.73321E-05-2.87553E-05 1.85808E-06 6.00864E-21-1.41772E-19
 -1      1517 9.21297E-05-2.73240E-05-2.78923E-05-2.44396E-06 8.35452E-20-6.56715E-19
 -1      1518 9.02418E-05-2.64953E-05-2.73974E-05-1.84792E-06 4.57927E-19 4.47128E-19
 -1      1519 9.45479E-05-2.74111E-05-2.88825E-05-2.24158E-06 8.83932E-19-1.25990E-19
 -1      1520 9.80476E-05-2.93625E-05-2.94447E-05-3.64209E-06-6.23645E-20-4.17693E-19
 -1      1521 9.44230E-05-2.80101E-05-2.84882E-05-3.28548E-06-1.26145E-19-4.81538E-19
 -1      1522 9.78763E-05-2.88050E-05-2.96741E-05-5.46570E-06 2.92756E-20-8.92296E-20
 -1      1523 1.04752E-04-3.15929E-05-3.12708E-05-3.54878E-06-3.93182E-19-4.90220E-20
 -1      1524 1.00732E-04-3.02273E-05-3.01850E-05-3.50832E-06-4.28561E-19-4.23199E-19
 -1      1525 1.02808E-04-3.08428E-05-3.08650E-05-6.60124E-06-4.78055E-19-4.53242E-19
 -1      1526 1.10231E-04-3.33319E-05-3.28382E-05-2.53702E-06 4.37138E-19-5.57718E-20
 -1      1527 1.06988E-04-3.23322E-05-3.19323E-05-2.72730E-06 3.59552E-19 4.48716E-19
 -1      1528 1.07588E-04-3.26956E-05-3.20837E-05-5.67324E-06-7.71594E-21-2.57022E-19
 -1      1529 1.13450E-04-3.42821E-05-3.38233E-05-1.21826E-06-3.14090E-19-5.60259E-19
 -1      1530 1.11562E-04-3.37819E-05-3.32714E-05-1.49473E-06 9.62772E-20-2.77562E-19
 -1      1531 1.10958E-04-3.38602E-05-3.30135E-05-3.56115E-06 5.36556E-19 3.70074E-19
 -1      1532 1.14365E-04-3.44858E-05-3.41645E-05-6.08963E-08-2.71332E-19-1.55465E-19
 -1      1533 1.13830E-04-3.44267E-05-3.39857E-05-3.14327E-07-3.69717E-19-5.54979E-19
 -1      1534 1.12480E-04-3.42559E-05-3.34952E-05-1.26505E-06-2.26806E-19-1.82413E-19
 -1      1535 1.13505E-04-3.41492E-05-3.39765E-05 7.32961E-07-2.84699E-19 3.40918E-19
 -1      1536 1.13992E-04-3.43903E-05-3.40935E-05 5.51522E-07-2.76781E-19-7.24925E-20
 -1      1537 1.12346E-04-3.40576E-05-3.35292E-05 5.78470E-07-5.00113E-19-1.94209E-19
 -1      1538 1.11550E-04-3.35012E-05-3.34428E-05 1.15930E-06 4.51030E-19 2.83465E-19
 -1      1539 1.12650E-04-3.39013E-05-3.37458E-05 1.05405E-06 4.93926E-20 2.22379E-19
 -1      1540 1.11039E-04-3.35024E-05-3.32150E-05 1.75654E-06-1.32372E-19 9.49405E-20
 -1      1541 1.09095E-04-3.27249E-05-3.27380E-05 1.30423E-06 6.51442E-19-1.48155E-18
 -1      1542 1.10462E-04-3.31780E-05-3.31278E-05 1.25895E-06 6.33712E-19-1.99953E-19
 -1      1543 1.09072E-04-3.27868E-05-3.26851E-05 2.32864E-06 1.06227E-18 1.75647E-19
 -1      1544 1.06558E-04-3.19427E-05-3.19924E-05 1.26903E-06-5.07748E-19-1.36634E-18
 -1      1545 1.07954E-04-3.23826E-05-3.23976E-05 1.26347E-06-4.84107E-20-1.77345E-18
 -1      1546 1.06856E-04-3.20422E-05-3.20591E-05 2.46020E-06 5.60141E-19-4.18467E-19
 -1      1547 1.04193E-04-3.12245E-05-3.12878E-05 1.13665E-06-4.28117E-19 3.93156E-19
 -1      1548 1.05479E-04-3.16166E-05-3.16653E-05 1.15383E-06-7.09216E-19-9.74286E-19
 -1      1549 1.04671E-04-3.13443E-05-3.14248E-05 2.32062E-06-9.29318E-19-7.01578E-19
 -1      1550 1.02126E-04-3.06032E-05-3.06668E-05 9.64126E-07-2.76634E-19 1.72249E-18
 -1      1551 1.03238E-04-3.09339E-05-3.09954E-05 9.92105E-07-7.77864E-20 8.96227E-19
 -1      1552 1.02680E-04-3.07299E-05-3.08366E-05 2.04206E-06-6.68134E-19 2.69479E-20
 -1      1553 1.00399E-04-3.00878E-05-3.01452E-05 7.86145E-07 1.36836E-19 1.71808E-18
 -1      1554 1.01317E-04-3.03558E-05-3.04180E-05 8.17421E-07-2.85642E-20 1.81893E-18
 -1      1555 1.00960E-04-3.02120E-05-3.03223E-05 1.71307E-06-1.63949E-19 1.13105E-18
 -1      1556 9.90047E-05-2.96740E-05-2.97226E-05 6.21394E-07 1.50781E-19 1.55924E-18
 -1      1557 9.97382E-05-2.98845E-05-2.99413E-05 6.51702E-07 1.73882E-19 2.03621E-18
 -1      1558 9.95309E-05-2.97894E-05-2.98913E-05 1.38648E-06 1.03029E-19 9.43009E-19
 -1      1559 9.79107E-05-2.93506E-05-2.93900E-05 4.78304E-07-6.48020E-19 2.21993E-18
 -1      1560 9.84800E-05-2.95116E-05-2.95603E-05 5.05501E-07-4.54838E-19 1.93252E-18
 -1      1561 9.83793E-05-2.94535E-05-2.95418E-05 1.08998E-06-4.92611E-19 2.37784E-18
 -1      1562 9.70734E-05-2.91040E-05-2.91350E-05 3.59250E-07-8.14525E-20 3.62581E-18
 -1      1563 9.75042E-05-2.92241E-05-2.92642E-05 3.82490E-07-2.17118E-19 2.90951E-18
 -1      1564 9.74755E-05-2.91929E-05-2.92661E-05 8.35350E-07-7.12241E-19 2.82520E-18
 -1      1565 9.64475E-05-2.89203E-05-2.89440E-05 2.63320E-07 3.40357E-19 2.83293E-18
 -1      1566 9.67656E-05-2.90076E-05-2.90397E-05 2.82496E-07 1.67285E-19 3.44886E-18
 -1      1567 9.67826E-05-2.89950E-05-2.90538E-05 6.25016E-07 1.18381E-19 2.63278E-18
 -1      1568 9.59910E-05-2.87867E-05-2.88044E-05 1.88015E-07 7.34081E-21 2.75360E-18
 -1      1569 9.62199E-05-2.88485E-05-2.88735E-05 2.03411E-07 2.75785E-19 2.75274E-18
 -1      1570 9.62635E-05-2.88480E-05-2.88940E-05 4.56392E-07 2.71291E-19 2.83568E-18
 -1      1571 9.56666E-05-2.86921E-05-2.87051E-05 1.30250E-07-5.38421E-19 2.80692E-18
 -1      1572 9.58266E-05-2.87345E-05-2.87535E-05 1.42328E-07-5.46278E-19 2.21713E-18
 -1      1573 9.58835E-05-2.87414E-05-2.87766E-05 3.24540E-07-3.72951E-19 2.25903E-18
 -1      1574 9.54432E-05-2.86273E-05-2.86365E-05 8.69004E-08 1.05210E-18 2.13393E-18
 -1      1575 9.55513E-05-2.86552E-05-2.86693E-05 9.61767E-08 4.49313E-19 2.66564E-18
 -1      1576 9.56124E-05-2.86662E-05-2.86924E-05 2.23734E-07 2.27782E-19 1.70964E-19
 -1      1577 9.52954E-05-2.85846E-05-2.85910E-05 5.50837E-08-1.50319E-19 1.30471E-18
 -1      1578 9.53650E-05-2.86019E-05-2.86122E-05 6.20651E-08 3.25287E-19 2.04474E-18
 -1      1579 9.54248E-05-2.86147E-05-2.86339E-05 1.48318E-07 5.28710E-19 6.48843E-19
 -1      1580 9.52028E-05-2.85581E-05-2.85623E-05 3.22847E-08 7.25538E-19-3.71352E-19
 -1      1581 9.52446E-05-2.85679E-05-2.85752E-05 3.74312E-08 4.78181E-19 9.74449E-19
 -1      1582 9.52997E-05-2.85809E-05-2.85946E-05 9.31396E-08 7.58519E-19 1.24878E-18
 -1      1583 9.51495E-05-2.85430E-05-2.85458E-05 1.63880E-08 9.95748E-19-1.76736E-18
 -1      1584 9.51719E-05-2.85477E-05-2.85528E-05 2.00990E-08 1.92780E-19-1.48860E-18
 -1      1585 9.52205E-05-2.85599E-05-2.85694E-05 5.37343E-08 1.23964E-18-5.76042E-19
 -1      1586 9.51236E-05-2.85359E-05-2.85376E-05 5.66462E-09-3.77614E-19-1.23720E-18
 -1      1587 9.51327E-05-2.85371E-05-2.85405E-05 8.27543E-09 4.63271E-20-1.14003E-18
 -1      1588 9.51743E-05-2.85482E-05-2.85545E-05 2.63657E-08-4.79468E-20 1.62783E-19
 -1      1589 9.51161E-05-2.85342E-05-2.85350E-05-1.26552E-09-1.30693E-19-6.86691E-19
 -1      1590 9.51165E-05-2.85332E-05-2.85353E-05 5.19621E-10 4.71955E-20-4.69849E-19
 -1      1591 9.51511E-05-2.85427E-05-2.85468E-05 7.99215E-09-4.20117E-19 7.91240E-19
 -1      1592 9.51203E-05-2.85357E-05-2.85361E-05-5.48008E-09 2.37871E-19 2.49372E-19
 -1      1593 9.51153E-05-2.85335E-05-2.85348E-05-4.30113E-09-5.84745E-20-2.16202E-19
 -1      1594 9.51433E-05-2.85415E-05-2.85439E-05-3.80587E-09-2.68750E-19 1.49662E-18
 -1      1595 9.51315E-05-2.85393E-05-2.85394E-05-7.80206E-09-1.44412E-18 2.50364E-18
 -1      1596 9.51235E-05-2.85364E-05-2.85371E-05-7.05773E-09-7.94532E-19 6.98082E-19
 -1      1597 9.51457E-05-2.85429E-05-2.85442E-05-1.09106E-08-8.38318E-19 4.47053E-18
 -1      1598 9.51466E-05-2.85440E-05-2.85438E-05-8.84376E-09 3.83163E-19 4.16348E-18
 -1      1599 9.51371E-05-2.85408E-05-2.85411E-05-8.40340E-09-4.98954E-19 2.87634E-18
 -1      1600 9.51542E-05-2.85460E-05-2.85465E-05-1.47522E-08-9.67325E-19 3.23801E-18
 -1      1601 9.51633E-05-2.85491E-05-2.85488E-05-9.04430E-09 4.96549E-19 1.79997E-18
 -1      1602 9.51533E-05-2.85459E-05-2.85459E-05-8.81210E-09 5.82722E-19 2.84360E-18
 -1      1603 9.51660E-05-2.85498E-05-2.85499E-05-1.63863E-08 8.08338E-19 3.12981E-18
 -1      1604 9.51801E-05-2.85542E-05-2.85538E-05-8.69941E-09 1.46208E-18-1.83829E-18
 -1      1605 9.51703E-05-2.85511E-05-2.85510E-05-8.60991E-09 1.65962E-18 1.05712E-18
 -1      1606 9.51793E-05-2.85540E-05-2.85538E-05-1.65588E-08 1.93589E-18 2.17087E-18
 -1      1607 9.51960E-05-2.85590E-05-2.85586E-05-7.98185E-09 4.04300E-19-2.66626E-18
 -1      1608 9.51869E-05-2.85562E-05-2.85559E-05-7.99761E-09 6.05102E-19-1.86979E-18
 -1      1609 9.51928E-05-2.85582E-05-2.85577E-05-1.57557E-08 1.67734E-18 3.83787E-19
 -1      1610 9.52103E-05-2.85633E-05-2.85629E-05-6.95365E-09-6.79988E-19-1.88706E-18
 -1      1611 9.52023E-05-2.85609E-05-2.85605E-05-7.06516E-09-2.98163E-19-2.69134E-18
 -1      1612 9.52055E-05-2.85621E-05-2.85615E-05-1.42375E-08-4.79210E-21 1.19027E-18
 -1      1613 9.52223E-05-2.85670E-05-2.85664E-05-5.57041E-09 2.54008E-19-2.67632E-18
 -1      1614 9.52157E-05-2.85650E-05-2.85645E-05-5.80099E-09-2.27267E-19-3.07056E-18
 -1      1615 9.52169E-05-2.85656E-05-2.85648E-05-1.20619E-08 2.19421E-19-4.49235E-19
 -1      1616 9.52312E-05-2.85698E-05-2.85690E-05-3.68084E-09 7.74270E-19-4.20634E-18
 -1      1617 9.52265E-05-2.85684E-05-2.85677E-05-4.10538E-09 7.89318E-19-3.30451E-18
 -1      1618 9.52262E-05-2.85686E-05-2.85675E-05-9.10606E-09 1.15010E-18-1.16910E-18
 -1      1619 9.52360E-05-2.85713E-05-2.85706E-05-1.33797E-09 6.42274E-19-6.04131E-18
 -1      1620 9.52339E-05-2.85708E-05-2.85698E-05-1.91375E-09 8.56475E-19-5.11572E-18
 -1      1621 9.52329E-05-2.85709E-05-2.85693E-05-5.19218E-09 2.18984E-18-3.20212E-18
 -1      1622 9.52371E-05-2.85714E-05-2.85710E-05-7.79627E-11-3.13856E-18-3.04776E-18
 -1      1623 9.52379E-05-2.85757E-05-2.85694E-05-3.07757E-09-1.85798E-18 2.71715E-18
 -1      1624 9.52371E-05-2.85733E-05-2.85702E-05-2.45841E-09-4.74222E-18 1.85394E-18
 -1      1625 9.52404E-05-2.85832E-05-2.85674E-05-5.03215E-09 4.48127E-18 4.64976E-18
 -1      1626 9.52389E-05-2.85788E-05-2.85686E-05-4.72073E-09-3.22496E-20 3.13948E-18
 -1      1627 9.52380E-05-2.85778E-05-2.85686E-05-7.56642E-09 2.84375E-19 5.47723E-18
 -1      1628 9.52435E-05-2.85924E-05-2.85648E-05-5.90830E-09 8.31720E-18 1.80736E-18
 -1      1629 9.52417E-05-2.85870E-05-2.85663E-05-5.82620E-09 4.48228E-18 5.08124E-18
 -1      1630 9.52407E-05-2.85847E-05-2.85668E-05-1.04675E-08 2.53334E-18 5.83223E-18
 -1      1631 9.52465E-05-2.86018E-05-2.85620E-05-5.79677E-09 6.65459E-18-8.52014E-19
 -1      1632 9.52448E-05-2.85964E-05-2.85636E-05-5.89770E-09 7.72820E-18-6.04107E-21
 -1      1633 9.52436E-05-2.85926E-05-2.85647E-05-1.13742E-08 2.21791E-18 9.39348E-19
 -1      1634 9.52492E-05-2.86101E-05-2.85596E-05-4.93155E-09 3.44838E-18-1.02718E-18
 -1      1635 9.52477E-05-2.86055E-05-2.85609E-05-5.15600E-09 6.46188E-18-1.91756E-18
 -1      1636 9.52462E-05-2.86002E-05-2.85626E-05-1.05569E-08 1.74313E-18-2.72899E-18
 -1      1637 9.52512E-05-2.86165E-05-2.85577E-05-3.50353E-09 2.69714E-18-8.63668E-19
 -1      1638 9.52501E-05-2.86131E-05-2.85587E-05-3.81999E-09 4.09364E-18-4.41593E-19
 -1      1639 9.52485E-05-2.86068E-05-2.85608E-05-8.44159E-09 1.21942E-18-1.47085E-18
 -1      1640 9.52524E-05-2.86202E-05-2.85567E-05-1.72892E-09 1.80727E-18-8.27022E-19
 -1      1641 9.52518E-05-2.86184E-05-2.85572E-05-2.09428E-09 2.38762E-18-3.18828E-19
 -1      1642 9.52501E-05-2.86116E-05-2.85594E-05-5.40303E-09 2.27978E-18-5.35932E-19
 -1      1643 9.52526E-05-2.86208E-05-2.85565E-05 2.04683E-10 1.37293E-18-3.64311E-19
 -1      1644 9.52526E-05-2.86208E-05-2.85565E-05-1.76483E-10 1.25241E-18-8.88371E-20
 -1      1645 9.52509E-05-2.86142E-05-2.85587E-05-1.83976E-09 1.28578E-18-1.16725E-18
 -1      1646 9.52518E-05-2.86184E-05-2.85572E-05 2.12131E-09-5.43524E-20 2.35340E-19
 -1      1647 9.52524E-05-2.86202E-05-2.85567E-05 1.75643E-09 6.38929E-20 3.98093E-20
 -1      1648 9.52509E-05-2.86142E-05-2.85587E-05 1.89356E-09 9.74020E-19-1.78304E-18
 -1      1649 9.52501E-05-2.86130E-05-2.85588E-05 3.84326E-09-2.31380E-18-1.35895E-18
 -1      1650 9.52512E-05-2.86164E-05-2.85578E-05 3.52863E-09-1.13092E-18-4.44299E-19
 -1      1651 9.52501E-05-2.86116E-05-2.85595E-05 5.45367E-09-5.70595E-19-9.21896E-19
 -1      1652 9.52477E-05-2.86054E-05-2.85610E-05 5.15964E-09-3.70037E-18-7.34411E-21
 -1      1653 9.52492E-05-2.86101E-05-2.85596E-05 4.93800E-09-2.41710E-18-8.14154E-19
 -1      1654 9.52485E-05-2.86068E-05-2.85608E-05 8.46478E-09-1.90531E-18-1.26430E-18
 -1      1655 9.52447E-05-2.85963E-05-2.85636E-05 5.90454E-09-4.94406E-18-1.39325E-18
 -1      1656 9.52465E-05-2.86017E-05-2.85621E-05 5.80588E-09-3.15690E-18-9.87664E-19
 -1      1657 9.52462E-05-2.86002E-05-2.85627E-05 1.05707E-08-1.65763E-18-3.13191E-19
 -1      1658 9.52416E-05-2.85869E-05-2.85663E-05 5.83674E-09-2.91600E-18 1.62342E-18
 -1      1659 9.52434E-05-2.85923E-05-2.85648E-05 5.90698E-09-5.01351E-18 1.50572E-18
 -1      1660 9.52435E-05-2.85924E-05-2.85648E-05 1.13785E-08-1.68564E-18 1.36477E-19
 -1      1661 9.52389E-05-2.85787E-05-2.85686E-05 4.70088E-09-2.49302E-18 2.28587E-19
 -1      1662 9.52404E-05-2.85831E-05-2.85674E-05 5.01684E-09-3.31752E-18 7.67304E-19
 -1      1663 9.52407E-05-2.85846E-05-2.85668E-05 1.04424E-08-2.57385E-18 1.43863E-18
 -1      1664 9.52369E-05-2.85739E-05-2.85699E-05 3.59623E-09-3.72602E-18-1.54286E-18
 -1      1665 9.52377E-05-2.85763E-05-2.85691E-05 4.49899E-09-2.46213E-18-1.53937E-18
 -1      1666 9.52378E-05-2.85783E-05-2.85683E-05 8.88027E-09-3.12633E-18-3.56958E-19
 -1      1667 9.52348E-05-2.85737E-05-2.85691E-05 7.00806E-09-2.09884E-18-1.21952E-19
 -1      1668 1.94504E-05-6.33153E-05 1.33198E-05-5.17205E-06 3.66723E-18 1.96787E-18
 -1      1669 2.30753E-05-7.41860E-05 1.55984E-05 2.34411E-06 1.36436E-18 1.23074E-18
 -1      1670 2.20250E-05-3.65306E-05 2.62224E-06 7.72795E-06 5.22026E-18 2.30700E-18
 -1      1671 2.52233E-05-5.81659E-05 8.79538E-06 3.06179E-06 3.79640E-18 2.13595E-18
 -1      1672 3.61148E-05-1.10820E-05-1.24559E-05 2.93776E-05 4.77049E-18 4.12336E-18
 -1      1673 3.02389E-05-3.08117E-05-3.98671E-06 1.23714E-05 5.21942E-18 2.46825E-18
 -1      1674 7.87585E-05-2.95210E-06-3.15235E-05 6.04187E-05 4.07169E-18 3.59735E-18
 -1      1675 5.31688E-05-8.33576E-06-2.13832E-05 3.74582E-05 4.38424E-18 3.52112E-18
 -1      1676 1.41783E-04-1.63754E-05-5.01592E-05 7.80327E-05 2.58430E-18 3.24329E-18
 -1      1677 1.00699E-04-3.86431E-06-4.09190E-05 6.59288E-05 3.54822E-18 3.89466E-18
 -1      1678 2.07489E-04-4.34047E-05-6.50276E-05 6.50749E-05 1.31714E-18 2.44623E-18
 -1      1679 1.65297E-04-2.24400E-05-5.79825E-05 7.50824E-05 2.31833E-18 3.32884E-18
 -1      1680 2.43612E-04-5.94149E-05-7.31514E-05 1.84433E-05 1.19410E-18-6.73815E-19
 -1      1681 2.19511E-04-4.62717E-05-6.94908E-05 4.83849E-05 1.53927E-18 1.40438E-18
 -1      1682 2.45708E-04-5.92537E-05-7.39120E-05-2.99336E-05 1.48527E-18-3.46606E-18
 -1      1683 2.52978E-04-6.36676E-05-7.49794E-05 4.93401E-06 1.17589E-18-1.32031E-18
 -1      1684 1.96670E-04-3.57443E-05-6.47264E-05-6.57239E-05 2.89013E-18-5.49216E-18
 -1      1685 2.34298E-04-5.55270E-05-7.05577E-05-4.37798E-05 1.76458E-18-4.27794E-18
 -1      1686 1.29036E-04-9.73756E-06-4.92969E-05-7.41953E-05 4.11404E-18-6.02664E-18
 -1      1687 1.74884E-04-2.86501E-05-5.79686E-05-7.71399E-05 3.25854E-18-5.96481E-18
 -1      1688 6.90454E-05-1.92576E-06-2.98564E-05-5.12041E-05 4.93651E-18-5.24737E-18
 -1      1689 1.03767E-04-4.89405E-06-4.01343E-05-7.24749E-05 4.36053E-18-6.08932E-18
 -1      1690 3.45792E-05-1.93323E-05-1.03831E-05-1.98742E-05 4.66715E-18-3.54907E-18
 -1      1691 4.83069E-05-3.10409E-06-2.01369E-05-4.26990E-05 5.05086E-18-4.70273E-18
 -1      1692 2.44816E-05-4.94927E-05 4.93036E-06-7.67949E-07 3.10946E-18-1.82567E-18
 -1      1693 2.26942E-05-2.57251E-05-2.23813E-06-1.10027E-05 4.07592E-18-2.95360E-18
 -1      1694 2.45343E-05-7.40926E-05 1.44269E-05 1.15240E-06 1.07361E-18-1.01750E-18
 -1      1695 1.90731E-05-5.64566E-05 1.04162E-05 5.30573E-06 2.52670E-18-1.44530E-18
 -1      1696 2.28104E-05-7.54966E-05 1.59989E-05-5.26682E-06-1.87872E-18-1.31671E-18
 -1      1697 2.31936E-05-7.65427E-05 1.61701E-05 4.47519E-06 2.00535E-19-1.11702E-18
 -1      1698 1.92803E-05-5.42859E-05 9.71027E-06-3.78965E-06-4.41389E-18-2.25729E-18
 -1      1699 2.42266E-05-7.15358E-05 1.37576E-05-8.91932E-07-2.41362E-18-1.75188E-18
 -1      1700 2.30517E-05-2.49623E-05-2.67270E-06 1.16018E-05-5.26685E-18-3.07092E-18
 -1      1701 2.45056E-05-4.83748E-05 4.49158E-06 1.15548E-06-5.15165E-18-2.06930E-18
 -1      1702 5.41631E-05-6.77445E-06-2.11066E-05 4.43668E-05-4.70781E-18-3.90313E-18
 -1      1703 3.86191E-05-2.14323E-05-1.11057E-05 2.16647E-05-4.85858E-18-3.44658E-18
 -1      1704 1.12009E-04-1.27539E-05-4.05746E-05 6.75620E-05-3.21025E-18-4.24194E-18
 -1      1705 7.86630E-05-9.23803E-06-3.07001E-05 4.92279E-05-4.03526E-18-3.68968E-18
 -1      1706 1.76042E-04-2.99932E-05-5.81437E-05 7.39331E-05-2.43268E-18-3.68798E-18
 -1      1707 1.31424E-04-1.15186E-05-4.96218E-05 7.19672E-05-3.27844E-18-4.37577E-18
 -1      1708 2.31044E-04-5.38780E-05-7.01342E-05 4.14396E-05-1.44006E-18-1.43572E-18
 -1      1709 1.95239E-04-3.55515E-05-6.44744E-05 6.18041E-05-2.07724E-18-2.96462E-18
 -1      1710 2.57819E-04-6.58398E-05-7.53977E-05-3.16369E-06-1.29067E-18 1.15181E-18
 -1      1711 2.48472E-04-6.05741E-05-7.42575E-05 3.20899E-05-1.41666E-18-1.17314E-18
 -1      1712 2.29916E-04-5.12958E-05-7.08854E-05-4.99014E-05-2.12129E-18 4.04797E-18
 -1      1713 2.52557E-04-6.38726E-05-7.41547E-05-1.96431E-05-1.37389E-18 2.08921E-18
 -1      1714 1.71100E-04-2.49049E-05-5.90873E-05-7.47000E-05-3.45081E-18 6.62126E-18
 -1      1715 2.13851E-04-4.59713E-05-6.61049E-05-6.37556E-05-2.39689E-18 5.52096E-18
 -1      1716 1.03821E-04-4.75273E-06-4.17962E-05-6.64667E-05-6.55942E-18 7.09898E-18
 -1      1717 1.46379E-04-1.82047E-05-5.11617E-05-7.80660E-05-4.73491E-18 6.80506E-18
 -1      1718 5.40246E-05-8.34714E-06-2.18497E-05-3.75957E-05-7.11762E-18 6.34428E-18
 -1      1719 8.10392E-05-3.62492E-06-3.22153E-05-6.11407E-05-6.66276E-18 6.92958E-18
 -1      1720 2.78282E-05-3.18879E-05-3.12901E-06-8.86492E-06-5.35325E-18 4.21399E-18
 -1      1721 3.41335E-05-1.02122E-05-1.22974E-05-2.81502E-05-6.96261E-18 6.24475E-18
 -1      1722 2.39148E-05-6.25018E-05 1.01650E-05 2.76783E-06-2.82570E-18 2.18585E-18
 -1      1723 1.89923E-05-3.93887E-05 4.18316E-06-8.56756E-07-4.76371E-18 2.98960E-18
 -1      1724 2.39797E-05-7.72925E-05 1.61487E-05-1.68662E-06 1.34678E-19 8.98490E-19
 -1      1725 2.06638E-05-6.78751E-05 1.40656E-05 7.07475E-06-1.89524E-18 1.89820E-18
 -1      1726 1.15994E-04-3.08963E-05-3.55253E-05 4.56107E-05 2.17603E-18 1.47045E-18
 -1      1727 7.47716E-05-3.51933E-05-1.81479E-05 3.98168E-05 2.26920E-18 1.77580E-18
 -1      1728 9.52366E-05-2.85718E-05-2.85705E-05-1.30879E-09-3.75955E-18-1.15324E-18
 -1      1729 9.52360E-05-2.85733E-05-2.85697E-05-4.21835E-09-6.31501E-19 4.25636E-19
 -1      1730 2.01325E-05-4.45834E-05 6.99878E-06 1.81913E-05 1.75082E-18 2.45153E-18
 -1      1731 4.26535E-05-4.11947E-05-3.32798E-06 3.05732E-05 2.44284E-18 1.58586E-18
 -1      1732 1.17706E-05-5.02049E-05 1.19030E-05 1.19916E-06 4.22987E-19 2.57456E-18
 -1      1733 1.59441E-04-3.06977E-05-5.19932E-05 4.37203E-05 1.76437E-18 1.79910E-18
 -1      1734 1.90066E-04-3.12551E-05-6.37336E-05 2.59033E-05 1.70317E-18-1.49501E-19
 -1      1735 2.04584E-04-3.13232E-05-6.95385E-05 3.23830E-06 2.02017E-18-1.21877E-18
 -1      1736 2.03699E-04-3.28390E-05-6.81325E-05-1.66858E-05 2.25480E-18-2.25565E-18
 -1      1737 1.77865E-04-3.15056E-05-5.86274E-05-3.63615E-05 2.52929E-18-3.14419E-18
 -1      1738 1.36136E-04-2.96813E-05-4.34456E-05-4.71070E-05 2.72745E-18-3.96327E-18
 -1      1739 8.97454E-05-3.10528E-05-2.53835E-05-4.40284E-05 2.84434E-18-3.68798E-18
 -1      1740 5.12926E-05-3.75541E-05-8.33159E-06-3.27589E-05 2.09048E-18-2.93264E-18
 -1      1741 2.59169E-05-4.60937E-05 4.66347E-06-1.92003E-05 1.24599E-18-2.00122E-18
 -1      1742 1.38057E-05-5.20515E-05 1.15674E-05-5.85595E-06 5.14573E-20-2.06507E-18
 -1      1743 1.39923E-05-5.05614E-05 1.10478E-05 7.33826E-06-1.21380E-18-2.54152E-18
 -1      1744 2.69359E-05-4.52739E-05 3.98201E-06 2.04051E-05-2.24633E-18-2.08000E-18
 -1      1745 5.52459E-05-3.89636E-05-9.09917E-06 3.46575E-05-2.84264E-18-2.14681E-18
 -1      1746 9.93536E-05-3.78918E-05-2.62001E-05 4.25030E-05-2.20906E-18-1.82874E-18
 -1      1747 1.40492E-04-3.55682E-05-4.34926E-05 4.04947E-05-1.81900E-18-1.68814E-18
 -1      1748 1.76494E-04-3.18693E-05-5.83002E-05 3.16906E-05-1.89571E-18-1.09098E-18
 -1      1749 2.02476E-04-3.25851E-05-6.79697E-05 1.41838E-05-2.03796E-18 4.10811E-20
 -1      1750 2.13695E-04-3.51908E-05-7.07964E-05-4.30275E-06-2.40727E-18 9.33642E-19
 -1      1751 1.97425E-04-3.41377E-05-6.51249E-05-2.72406E-05-2.63491E-18 3.06372E-18
 -1      1752 1.62566E-04-3.14418E-05-5.29872E-05-4.31628E-05-3.63144E-18 4.82131E-18
 -1      1753 1.18271E-04-3.14017E-05-3.62463E-05-4.52455E-05-4.63878E-18 4.68155E-18
 -1      1754 7.41655E-05-3.44534E-05-1.81270E-05-3.92957E-05-4.15893E-18 4.71924E-18
 -1      1755 3.85229E-05-4.14397E-05-1.96720E-06-2.60722E-05-3.00358E-18 4.11520E-18
 -1      1756 1.85642E-05-4.94013E-05 8.72007E-06-1.24897E-05-1.53313E-18 2.88012E-18
 -1      1757 1.12087E-04-2.50972E-05-3.73775E-05-1.42284E-05-6.20213E-19 2.77107E-18
 -1      1758 9.16264E-05-1.09627E-05-3.47112E-05-8.04031E-06-7.39063E-19-5.56395E-19
 -1      1759 9.42637E-05-1.24811E-05-3.51694E-05-9.96278E-06-8.92932E-19-2.65333E-19
 -1      1760 9.75017E-05-1.53358E-05-3.53856E-05-1.11809E-05-9.14971E-19 1.56913E-19
 -1      1761 1.00263E-04-1.77234E-05-3.58317E-05-1.31613E-05-9.94761E-19 6.31834E-19
 -1      1762 9.80209E-05-1.75777E-05-3.44817E-05-8.56001E-06-9.05726E-19 1.98788E-20
 -1      1763 8.31485E-05-5.76021E-06-3.32447E-05-3.28175E-06-3.89331E-19-1.01493E-18
 -1      1764 8.48245E-05-6.46698E-06-3.36166E-05-4.32487E-06-4.94965E-19-1.00943E-18
 -1      1765 8.02089E-05-4.15049E-06-3.26558E-05-1.83630E-06-2.11715E-19-1.11056E-18
 -1      1766 8.14882E-05-4.66166E-06-3.29492E-05-2.57651E-06-2.80408E-19-1.07931E-18
 -1      1767 8.34177E-05-7.05014E-06-3.27510E-05-2.43690E-06-3.60439E-19-9.87912E-19
 -1      1768 7.82740E-05-3.11111E-06-3.22566E-05-8.89419E-07 9.10230E-21-1.09664E-18
 -1      1769 7.90582E-05-3.41377E-06-3.24406E-05-1.40565E-06-9.89606E-20-1.14577E-18
 -1      1770 8.04544E-05-5.23783E-06-3.22528E-05-1.30720E-06-1.41311E-19-1.04328E-18
 -1      1771 7.74751E-05-2.67586E-06-3.20884E-05-2.27873E-07 2.39267E-19-1.09610E-18
 -1      1772 7.77077E-05-2.75983E-06-3.21466E-05-6.35525E-07 1.24329E-19-1.10780E-18
 -1      1773 7.86448E-05-4.16193E-06-3.19343E-05-6.19186E-07 1.03922E-19-1.03403E-18
 -1      1774 7.78665E-05-2.86279E-06-3.21675E-05 4.04560E-07 3.89729E-19-1.08443E-18
 -1      1775 7.75346E-05-2.72680E-06-3.20954E-05-2.02974E-08 2.98664E-19-1.09206E-18
 -1      1776 7.81170E-05-3.86725E-06-3.18335E-05-1.50885E-07 3.12662E-19-1.03712E-18
 -1      1777 7.93951E-05-3.64843E-06-3.24828E-05 1.26644E-06 5.20436E-19-1.11155E-18
 -1      1778 7.85368E-05-3.30416E-06-3.22892E-05 7.03153E-07 4.89587E-19-1.14079E-18
 -1      1779 7.88984E-05-4.35944E-06-3.19602E-05 3.64056E-07 4.77156E-19-1.05750E-18
 -1      1780 8.18702E-05-4.95130E-06-3.29890E-05 2.55252E-06 6.46816E-19-9.29817E-19
 -1      1781 8.05863E-05-4.42994E-06-3.26994E-05 1.76387E-06 5.64594E-19-1.00072E-18
 -1      1782 8.08783E-05-5.57602E-06-3.22923E-05 1.16876E-06 5.65318E-19-1.01285E-18
 -1      1783 8.52240E-05-6.79169E-06-3.36512E-05 4.46658E-06 8.77374E-19-7.24346E-19
 -1      1784 8.35364E-05-6.06837E-06-3.32805E-05 3.34041E-06 7.35430E-19-8.72219E-19
 -1      1785 8.38943E-05-7.45122E-06-3.27875E-05 2.45063E-06 7.61661E-19-8.55331E-19
 -1      1786 8.93613E-05-9.25870E-06-3.43988E-05 7.08319E-06 1.05569E-18-3.66156E-19
 -1      1787 8.73005E-05-8.26905E-06-3.39779E-05 5.55978E-06 9.35555E-19-5.80376E-19
 -1      1788 8.78300E-05-9.99838E-06-3.33856E-05 4.30460E-06 9.52661E-19-6.04107E-19
 -1      1789 9.44900E-05-1.28015E-05-3.51496E-05 1.03535E-05 1.14699E-18 2.29705E-19
 -1      1790 9.18989E-05-1.12709E-05-3.47070E-05 8.40725E-06 1.09205E-18-1.00638E-19
 -1      1791 9.26346E-05-1.33755E-05-3.39874E-05 6.64415E-06 1.11304E-18-1.80219E-19
 -1      1792 1.01713E-04-1.88766E-05-3.56858E-05 1.34602E-05 1.08350E-18 1.32243E-18
 -1      1793 9.78450E-05-1.58302E-05-3.53317E-05 1.15760E-05 1.09793E-18 6.73232E-19
 -1      1794 9.85631E-05-1.81924E-05-3.44324E-05 8.93987E-06 1.13889E-18 4.72803E-19
 -1      1795 1.08561E-04-2.72603E-05-3.52631E-05 1.11306E-05 8.62491E-19 2.50743E-18
 -1      1796 1.04396E-04-2.16654E-05-3.54608E-05 1.31413E-05 9.52118E-19 1.71672E-18
 -1      1797 1.03759E-04-2.39036E-05-3.42835E-05 8.97780E-06 1.06401E-18 1.31391E-18
 -1      1798 1.06275E-04-2.85194E-05-3.35146E-05 6.14919E-06 8.71623E-19 2.25444E-18
 -1      1799 1.06689E-04-2.17224E-05-3.61189E-05-1.51644E-05-8.29775E-19 1.39379E-18
 -1      1800 1.04541E-04-3.00796E-05-3.19267E-05 8.58970E-07 8.03583E-19 1.78663E-18
 -1      1801 1.05928E-04-2.99008E-05-3.26182E-05 3.19360E-06 7.43589E-19 2.02717E-18
 -1      1802 1.05182E-04-2.80038E-05-3.30823E-05 4.88791E-06 9.41609E-19 1.42284E-18
 -1      1803 1.06365E-04-2.46208E-05-3.47611E-05-1.03534E-05-8.98278E-19 1.08632E-18
 -1      1804 1.05451E-04-2.94949E-05-3.24349E-05-1.63560E-06-5.58142E-19 9.61619E-19
 -1      1805 1.04732E-04-2.98386E-05-3.20541E-05 2.04534E-07-5.83540E-19 7.59312E-19
 -1      1806 1.04650E-04-3.02446E-05-3.17927E-05 1.81860E-06-6.56417E-19 8.52929E-19
 -1      1807 1.05025E-04-3.06998E-05-3.18142E-05 2.72160E-06-5.59161E-19 6.53287E-19
 -1      1808 1.03969E-04-2.89752E-05-3.21750E-05 7.50114E-07-6.46842E-19 5.41095E-19
 -1      1809 1.05386E-04-3.10824E-05-3.17882E-05 3.59471E-06-3.71813E-19 6.63108E-19
 -1      1810 1.06251E-04-3.16132E-05-3.19768E-05 3.96218E-06-2.08243E-19 6.26162E-19
 -1      1811 1.04420E-04-3.02476E-05-3.18187E-05 3.61293E-06-4.98697E-19 5.05411E-19
 -1      1812 1.06981E-04-3.21049E-05-3.20607E-05 4.22445E-06-2.30116E-19 5.60742E-19
 -1      1813 1.08018E-04-3.27176E-05-3.22922E-05 4.10029E-06-2.36737E-19 5.60630E-19
 -1      1814 1.05651E-04-3.14954E-05-3.18072E-05 4.94783E-06-3.01765E-19 3.52614E-19
 -1      1815 1.08993E-04-3.33400E-05-3.24093E-05 3.71649E-06-1.58455E-19 7.56103E-19
 -1      1816 1.09886E-04-3.39604E-05-3.25911E-05 3.03660E-06-9.13340E-20 7.36730E-19
 -1      1817 1.07481E-04-3.29853E-05-3.19468E-05 4.89467E-06-1.01012E-19 5.87685E-19
 -1      1818 1.10941E-04-3.46522E-05-3.26909E-05 1.91665E-06-2.40451E-19 7.82917E-19
 -1      1819 1.11349E-04-3.51176E-05-3.27451E-05 6.40880E-07-2.36984E-19 8.80815E-19
 -1      1820 1.09639E-04-3.47056E-05-3.21238E-05 3.32174E-06-1.38037E-19 8.84309E-19
 -1      1821 1.12223E-04-3.56925E-05-3.28042E-05-1.20760E-06-2.19560E-19 1.03023E-18
 -1      1822 1.11821E-04-3.57364E-05-3.26831E-05-2.93817E-06-3.36894E-20 1.23752E-18
 -1      1823 1.11690E-04-3.63379E-05-3.22853E-05 1.23149E-07-1.27995E-19 1.06611E-18
 -1      1824 1.12136E-04-3.58556E-05-3.27131E-05-5.19110E-06-7.68881E-20 1.12239E-18
 -1      1825 1.10743E-04-3.51761E-05-3.24260E-05-6.89082E-06-1.14786E-19 1.24336E-18
 -1      1826 1.12956E-04-3.71689E-05-3.24462E-05-4.38667E-06-7.78840E-20 1.35871E-18
 -1      1827 1.10122E-04-3.44708E-05-3.24659E-05-8.71514E-06-2.43853E-19 1.07197E-18
 -1      1828 1.07925E-04-3.29765E-05-3.20945E-05-9.54134E-06-1.86182E-19 1.01435E-18
 -1      1829 1.12610E-04-3.62412E-05-3.26772E-05-8.99992E-06-3.49835E-19 9.49898E-19
 -1      1830 1.06383E-04-3.14356E-05-3.21739E-05-9.74419E-06-3.62851E-19 6.35725E-19
 -1      1831 1.04084E-04-2.95822E-05-3.18482E-05-8.88035E-06-3.98284E-19 2.58186E-19
 -1      1832 1.10228E-04-3.30690E-05-3.30358E-05-1.14674E-05-5.34167E-19 6.00040E-19
 -1      1833 1.02423E-04-2.79463E-05-3.19473E-05-6.70519E-06-4.32966E-19-1.41408E-19
 -1      1834 1.01075E-04-2.67292E-05-3.17870E-05-4.10971E-06-6.57205E-19-2.80656E-19
 -1      1835 1.06670E-04-2.86787E-05-3.34625E-05-9.44503E-06-6.55544E-19-9.45451E-20
 -1      1836 1.00529E-04-2.61590E-05-3.18424E-05-2.32390E-07-6.88730E-19-3.37172E-19
 -1      1837 1.00878E-04-2.64017E-05-3.19051E-05 2.97216E-06-6.75218E-19-4.23437E-19
 -1      1838 1.04204E-04-2.56674E-05-3.37704E-05-2.65006E-06-7.81533E-19-3.64840E-19
 -1      1839 1.01967E-04-2.73931E-05-3.18780E-05 6.56020E-06-8.49971E-19-3.37715E-19
 -1      1840 1.03894E-04-2.89532E-05-3.21546E-05 8.76326E-06-7.35158E-19-2.72652E-19
 -1      1841 1.04784E-04-2.62058E-05-3.37677E-05 5.84392E-06-7.25682E-19-3.26951E-19
 -1      1842 1.05779E-04-3.07164E-05-3.21010E-05 1.03002E-05-4.38227E-19-5.42200E-19
 -1      1843 1.08368E-04-3.26238E-05-3.25150E-05 1.06671E-05 5.56957E-20-4.34184E-19
 -1      1844 1.08077E-04-2.99675E-05-3.34913E-05 1.15324E-05-6.52136E-19-4.28880E-19
 -1      1845 1.09834E-04-3.40192E-05-3.24873E-05 9.91756E-06 2.29870E-19-7.32617E-19
 -1      1846 1.12082E-04-3.53834E-05-3.29078E-05 8.76590E-06 4.44315E-19-4.05716E-19
 -1      1847 1.11760E-04-3.43174E-05-3.31441E-05 1.21998E-05 1.56713E-19-6.07617E-19
 -1      1848 1.12540E-04-3.58822E-05-3.29094E-05 6.70084E-06 2.27647E-19-5.60438E-19
 -1      1849 1.13871E-04-3.64161E-05-3.32124E-05 4.91027E-06 4.00071E-19-4.43028E-19
 -1      1850 1.13859E-04-3.70017E-05-3.28854E-05 8.87901E-06 2.08430E-19-5.21567E-19
 -1      1851 1.13445E-04-3.61711E-05-3.32003E-05 2.66353E-06 4.58728E-19-7.24961E-19
 -1      1852 1.13778E-04-3.60538E-05-3.33174E-05 9.87892E-07 3.87716E-20-5.09687E-19
 -1      1853 1.13899E-04-3.74633E-05-3.27270E-05 4.03812E-06 3.23725E-19-8.36749E-19
 -1      1854 1.12851E-04-3.54486E-05-3.32491E-05-7.68871E-07-1.75945E-19-9.31563E-20
 -1      1855 1.12399E-04-3.49843E-05-3.31801E-05-1.96350E-06-1.11021E-19-2.55777E-19
 -1      1856 1.12462E-04-3.64160E-05-3.25820E-05-3.52729E-07-7.02740E-20-3.29842E-19
 -1      1857 1.11288E-04-3.43162E-05-3.30419E-05-3.04427E-06 3.22667E-20-4.59069E-20
 -1      1858 1.10345E-04-3.37392E-05-3.28319E-05-3.70973E-06 3.35389E-19-1.18075E-19
 -1      1859 1.10318E-04-3.47951E-05-3.23702E-05-3.41917E-06 3.47085E-20 1.78208E-19
 -1      1860 1.09233E-04-3.31511E-05-3.26353E-05-4.20112E-06 1.46527E-19-3.24255E-21
 -1      1861 1.08059E-04-3.25904E-05-3.23430E-05-4.44512E-06-5.21714E-19-2.00163E-19
 -1      1862 1.08004E-04-3.32090E-05-3.20630E-05-5.09629E-06 2.74659E-19-1.60713E-19
 -1      1863 1.07029E-04-3.21217E-05-3.21118E-05-4.52191E-06-8.71669E-19 4.32412E-19
 -1      1864 1.05811E-04-3.16315E-05-3.17892E-05-4.48902E-06-3.12400E-19 5.57485E-19
 -1      1865 1.05796E-04-3.19073E-05-3.16761E-05-5.68379E-06-2.41070E-19-3.41518E-20
 -1      1866 1.04897E-04-3.12736E-05-3.15479E-05-4.31774E-06-1.30269E-19 5.32215E-19
 -1      1867 1.03750E-04-3.08677E-05-3.12321E-05-4.13172E-06 4.99561E-19 3.45373E-19
 -1      1868 1.03811E-04-3.09268E-05-3.12457E-05-5.55520E-06-2.42047E-19 1.33423E-18
 -1      1869 1.02960E-04-3.05984E-05-3.09999E-05-3.83730E-06 6.67467E-19-8.78363E-19
 -1      1870 1.01946E-04-3.02728E-05-3.07129E-05-3.58516E-06 1.23697E-19-7.88562E-19
 -1      1871 1.02085E-04-3.02178E-05-3.08096E-05-5.02596E-06 3.97609E-20 2.38931E-20
 -1      1872 1.01278E-04-3.00704E-05-3.05020E-05-3.24936E-06 1.45096E-19-1.32311E-18
 -1      1873 1.00419E-04-2.98148E-05-3.02542E-05-2.98482E-06-2.31966E-19-1.07069E-18
 -1      1874 1.00619E-04-2.97133E-05-3.03970E-05-4.31948E-06 3.73092E-20-1.75658E-18
 -1      1875 9.98646E-05-2.96626E-05-3.00707E-05-2.65560E-06-4.01891E-19-1.44704E-18
 -1      1876 9.91605E-05-2.94652E-05-2.98647E-05-2.40806E-06-4.62826E-19-1.62016E-18
 -1      1877 9.93980E-05-2.93555E-05-3.00263E-05-3.57641E-06-3.49770E-19-2.16690E-18
 -1      1878 9.87095E-05-2.93508E-05-2.97105E-05-2.11026E-06-2.88525E-19-1.39905E-18
 -1      1879 9.81476E-05-2.92009E-05-2.95441E-05-1.89334E-06 1.08854E-19-9.44393E-19
 -1      1880 9.83989E-05-2.91015E-05-2.97062E-05-2.87608E-06-3.00607E-19-1.33620E-18
 -1      1881 9.77871E-05-2.91151E-05-2.94180E-05-1.63729E-06 6.51552E-19-1.38656E-18
 -1      1882 9.73490E-05-2.90032E-05-2.92870E-05-1.45526E-06 9.05369E-19-8.20653E-19
 -1      1883 9.75957E-05-2.89212E-05-2.94384E-05-2.25705E-06 4.78165E-19-3.72472E-19
 -1      1884 9.70660E-05-2.89395E-05-2.91863E-05-1.24284E-06 2.23529E-19-4.69453E-19
 -1      1885 9.67315E-05-2.88574E-05-2.90854E-05-1.09482E-06-3.86059E-19-3.73102E-19
 -1      1886 9.69611E-05-2.87936E-05-2.92202E-05-1.73283E-06 6.07320E-19-8.74326E-19
 -1      1887 9.65133E-05-2.88106E-05-2.90067E-05-9.23366E-07-5.40736E-20 3.09971E-20
 -1      1888 9.62632E-05-2.87516E-05-2.89306E-05-8.05987E-07 4.97016E-19-4.13518E-21
 -1      1889 9.64684E-05-2.87042E-05-2.90464E-05-1.30267E-06 3.87663E-19-4.91550E-19
 -1      1890 9.60980E-05-2.87179E-05-2.88703E-05-6.70727E-07-1.58735E-19 2.72315E-19
 -1      1891 9.59151E-05-2.86766E-05-2.88141E-05-5.79635E-07-3.08043E-19 6.16842E-19
 -1      1892 9.60926E-05-2.86427E-05-2.89109E-05-9.58476E-07 1.46359E-19 2.77211E-19
 -1      1893 9.57925E-05-2.86528E-05-2.87688E-05-4.75088E-07-7.69975E-19 1.27182E-18
 -1      1894 9.56619E-05-2.86247E-05-2.87283E-05-4.05796E-07-4.83959E-19 1.54162E-18
 -1      1895 9.58113E-05-2.86014E-05-2.88074E-05-6.88952E-07 3.54906E-20 1.30634E-18
 -1      1896 9.55728E-05-2.86083E-05-2.86950E-05-3.26546E-07-6.87372E-19 1.47498E-18
 -1      1897 9.54822E-05-2.85900E-05-2.86665E-05-2.74870E-07 3.84739E-19 1.40208E-18
 -1      1898 9.56051E-05-2.85747E-05-2.87298E-05-4.82049E-07-3.78072E-19 2.78154E-18
 -1      1899 9.54191E-05-2.85792E-05-2.86427E-05-2.15964E-07 1.01656E-20 1.71412E-19
 -1      1900 9.53584E-05-2.85680E-05-2.86232E-05-1.78216E-07-7.32409E-19-1.87712E-19
 -1      1901 9.54573E-05-2.85584E-05-2.86729E-05-3.26263E-07-5.72830E-19 1.48608E-18
 -1      1902 9.53150E-05-2.85612E-05-2.86066E-05-1.35335E-07 4.24141E-20-5.24894E-19
 -1      1903 9.52763E-05-2.85549E-05-2.85939E-05-1.08384E-07 6.56295E-19-5.18239E-19
 -1      1904 9.53543E-05-2.85495E-05-2.86321E-05-2.11277E-07-2.47955E-19 3.92162E-19
 -1      1905 9.52476E-05-2.85511E-05-2.85827E-05-7.78859E-08 5.73465E-19-1.16887E-18
 -1      1906 9.52247E-05-2.85482E-05-2.85749E-05-5.91469E-08 4.39934E-19-1.60196E-18
 -1      1907 9.52850E-05-2.85455E-05-2.86037E-05-1.28215E-07 1.64007E-20-4.42960E-19
 -1      1908 9.52067E-05-2.85463E-05-2.85677E-05-3.80391E-08 8.05288E-19-1.60440E-18
 -1      1909 9.51949E-05-2.85458E-05-2.85634E-05-2.54265E-08 6.16901E-19-5.50495E-19
 -1      1910 9.52404E-05-2.85448E-05-2.85846E-05-6.96587E-08 7.77373E-19-8.97758E-19
 -1      1911 9.51846E-05-2.85452E-05-2.85590E-05-1.13022E-08 2.82741E-19-8.05410E-19
 -1      1912 9.51802E-05-2.85461E-05-2.85571E-05-3.16698E-09 2.56266E-19-2.79482E-19
 -1      1913 9.52138E-05-2.85462E-05-2.85724E-05-2.95638E-08 1.38124E-19-1.72486E-19
 -1      1914 9.51753E-05-2.85464E-05-2.85548E-05 5.86943E-09 8.07651E-19 2.84414E-19
 -1      1915 9.51758E-05-2.85481E-05-2.85545E-05 1.08051E-08 4.08383E-19 4.02926E-20
 -1      1916 9.51998E-05-2.85487E-05-2.85652E-05-3.10483E-09 7.77806E-19-9.20390E-19
 -1      1917 9.51745E-05-2.85489E-05-2.85536E-05 1.62156E-08-9.29679E-19 6.03470E-19
 -1      1918 9.51780E-05-2.85510E-05-2.85542E-05 1.89197E-08-5.69483E-19 2.16503E-19
 -1      1919 9.51943E-05-2.85518E-05-2.85614E-05 1.34899E-08-4.84340E-20 3.32868E-19
 -1      1920 9.51790E-05-2.85521E-05-2.85542E-05 2.18049E-08-1.08163E-19-1.14786E-19
 -1      1921 9.51842E-05-2.85544E-05-2.85555E-05 2.29903E-08 8.35589E-19 5.33121E-19
 -1      1922 9.51946E-05-2.85552E-05-2.85599E-05 2.31040E-08-4.25036E-19 1.28551E-18
 -1      1923 9.51866E-05-2.85556E-05-2.85561E-05 2.41523E-08 2.28771E-18 8.37119E-20
 -1      1924 9.51926E-05-2.85579E-05-2.85576E-05 2.43214E-08 2.02225E-18 1.50672E-18
 -1      1925 9.51983E-05-2.85585E-05-2.85601E-05 2.78826E-08 1.52899E-18 5.02290E-19
 -1      1926 9.51957E-05-2.85592E-05-2.85585E-05 2.43159E-08 1.64599E-18 2.28809E-18
 -1      1927 9.52018E-05-2.85614E-05-2.85602E-05 2.37959E-08 2.61364E-18 3.96728E-18
 -1      1928 9.52041E-05-2.85617E-05-2.85611E-05 2.93609E-08 2.97397E-18 1.24779E-18
 -1      1929 9.52052E-05-2.85627E-05-2.85611E-05 2.29733E-08 1.57002E-18 3.17945E-18
 -1      1930 9.52110E-05-2.85647E-05-2.85627E-05 2.19412E-08 1.43281E-18 3.06622E-18
 -1      1931 9.52108E-05-2.85647E-05-2.85626E-05 2.85686E-08 1.34301E-18 2.24310E-18
 -1      1932 9.52144E-05-2.85659E-05-2.85637E-05 2.04824E-08 3.54000E-19 2.41384E-18
 -1      1933 9.52196E-05-2.85678E-05-2.85651E-05 1.89848E-08-1.10489E-20 1.36564E-18
 -1      1934 9.52176E-05-2.85676E-05-2.85643E-05 2.61185E-08 3.22431E-19 2.12388E-19
 -1      1935 9.52227E-05-2.85690E-05-2.85659E-05 1.69513E-08 4.33279E-19 5.35470E-19
 -1      1936 9.52270E-05-2.85706E-05-2.85671E-05 1.49230E-08 8.35163E-20 4.45942E-19
 -1      1937 9.52242E-05-2.85704E-05-2.85659E-05 2.22919E-08-4.39380E-19 1.87232E-19
 -1      1938 9.52294E-05-2.85716E-05-2.85677E-05 1.24444E-08-9.72302E-19-3.00140E-20
 -1      1939 9.52326E-05-2.85729E-05-2.85685E-05 9.92493E-09-1.54702E-18 1.36683E-19
 -1      1940 9.52341E-05-2.85748E-05-2.85682E-05 1.15994E-08-2.61072E-18-1.62769E-18
 -1      1941 9.52297E-05-2.85729E-05-2.85672E-05 1.73291E-08-8.01288E-19-6.29870E-19
 -1      1942 1.04323E-04-3.06988E-05-3.15213E-05-1.61680E-06 6.25183E-19 1.42214E-18
 -1      1943 1.04435E-04-3.04729E-05-3.16378E-05-5.08841E-07 7.71038E-19 1.73696E-18
 -1      1944 1.04358E-04-2.98104E-05-3.19666E-05 1.12056E-07 8.36591E-19 1.24276E-18
 -1      1945 1.05234E-04-3.13531E-05-3.16451E-05-2.79188E-06 2.10094E-19 1.07675E-18
 -1      1946 1.04653E-04-3.10159E-05-3.15120E-05-2.25872E-06 3.38522E-19 1.27197E-18
 -1      1947 1.04482E-04-3.06847E-05-3.16449E-05-2.36752E-06 4.92947E-19 1.11375E-18
 -1      1948 1.06752E-04-3.21494E-05-3.19745E-05-3.02209E-06 6.46303E-20 8.46702E-19
 -1      1949 1.05888E-04-3.17391E-05-3.17572E-05-2.91499E-06-1.59284E-20 8.72490E-19
 -1      1950 1.05487E-04-3.15379E-05-3.17101E-05-3.42840E-06 1.99096E-19 5.13123E-19
 -1      1951 1.08348E-04-3.30084E-05-3.23065E-05-2.31766E-06 1.29043E-19 7.32968E-19
 -1      1952 1.07534E-04-3.26049E-05-3.21122E-05-2.65189E-06 1.28273E-19 8.53207E-19
 -1      1953 1.06972E-04-3.25182E-05-3.19207E-05-3.32162E-06 6.78354E-20 3.12330E-19
 -1      1954 1.09476E-04-3.37476E-05-3.24824E-05-6.10512E-07 2.83270E-19 7.30807E-19
 -1      1955 1.09034E-04-3.34675E-05-3.23994E-05-1.43323E-06 2.67279E-20 7.20597E-19
 -1      1956 1.08498E-04-3.35532E-05-3.21194E-05-2.03376E-06 6.76171E-20 3.07470E-19
 -1      1957 1.09578E-04-3.40755E-05-3.23833E-05 2.00949E-06 4.65736E-19 8.48217E-19
 -1      1958 1.09808E-04-3.40732E-05-3.24801E-05 7.34441E-07 5.38051E-19 8.31916E-19
 -1      1959 1.09571E-04-3.44027E-05-3.21981E-05 4.36252E-07 4.90948E-19 4.02328E-19
 -1      1960 1.08197E-04-3.36284E-05-3.19668E-05 5.02922E-06 6.87645E-19 1.80180E-19
 -1      1961 1.09290E-04-3.40593E-05-3.22671E-05 3.55253E-06 4.33423E-19 5.69239E-19
 -1      1962 1.09649E-04-3.46558E-05-3.21042E-05 3.78189E-06 5.92830E-19 2.91748E-19
 -1      1963 1.05228E-04-3.21525E-05-3.13057E-05 7.35402E-06 1.56524E-19 1.91363E-19
 -1      1964 1.07129E-04-3.30690E-05-3.17615E-05 6.21468E-06 4.80288E-19 3.84354E-19
 -1      1965 1.08283E-04-3.38452E-05-3.18577E-05 7.11000E-06 5.87642E-19 4.86951E-19
 -1      1966 1.01275E-04-2.98516E-05-3.05893E-05 7.57143E-06 1.67951E-20 1.98709E-19
 -1      1967 1.03547E-04-3.10571E-05-3.10758E-05 7.45038E-06 2.38781E-19 2.46500E-19
 -1      1968 1.05473E-04-3.17970E-05-3.15459E-05 8.92137E-06 1.16350E-19 5.40645E-19
 -1      1969 9.77734E-05-2.76200E-05-3.00626E-05 4.82813E-06-4.60270E-19-6.31437E-20
 -1      1970 9.96292E-05-2.86302E-05-3.04145E-05 6.10582E-06-3.08823E-19 5.97423E-20
 -1      1971 1.02051E-04-2.90779E-05-3.12841E-05 7.72084E-06-2.25873E-19 3.89324E-19
 -1      1972 9.64531E-05-2.66970E-05-2.99210E-05-1.96931E-07 1.10967E-18-4.03019E-19
 -1      1973 9.70662E-05-2.69687E-05-3.00039E-05 2.11351E-06-1.05747E-20-6.52778E-19
 -1      1974 9.96056E-05-2.70077E-05-3.11611E-05 3.19369E-06 2.22386E-19-4.57669E-19
 -1      1975 9.81746E-05-2.77200E-05-3.02293E-05-5.29651E-06 3.71120E-19 1.42818E-19
 -1      1976 9.71911E-05-2.70722E-05-3.00013E-05-2.99423E-06 7.07325E-19 5.81144E-20
 -1      1977 9.95801E-05-2.68582E-05-3.12136E-05-2.99573E-06 4.59992E-19 1.03902E-19
 -1      1978 1.02175E-04-3.00988E-05-3.09039E-05-8.20542E-06-2.29380E-19 1.90463E-19
 -1      1979 9.99805E-05-2.88792E-05-3.04346E-05-6.90200E-06 1.80094E-19 1.89894E-19
 -1      1980 1.02091E-04-2.87703E-05-3.14369E-05-8.00133E-06 1.98762E-19 3.70557E-19
 -1      1981 1.06672E-04-3.25659E-05-3.17429E-05-8.14323E-06-7.02329E-19-3.71887E-19
 -1      1982 1.04121E-04-3.13449E-05-3.11819E-05-8.13077E-06-4.30105E-19-3.16579E-19
 -1      1983 1.05818E-04-3.15940E-05-3.17928E-05-9.82169E-06-1.27202E-19 1.75885E-19
 -1      1984 1.10124E-04-3.42029E-05-3.25043E-05-5.89302E-06 1.58316E-19-2.87025E-19
 -1      1985 1.08019E-04-3.33709E-05-3.20138E-05-6.81532E-06-4.89506E-19-6.62367E-19
 -1      1986 1.09116E-04-3.39399E-05-3.21980E-05-8.45078E-06-8.36445E-21-4.61567E-19
 -1      1987 1.11849E-04-3.47726E-05-3.29997E-05-2.84647E-06 3.29536E-19 2.49697E-19
 -1      1988 1.10616E-04-3.44298E-05-3.26901E-05-4.10824E-06 7.68577E-19 4.17531E-19
 -1      1989 1.11004E-04-3.50748E-05-3.25322E-05-5.24170E-06 3.38125E-19-5.19430E-19
 -1      1990 1.11941E-04-3.45294E-05-3.31551E-05-1.05681E-07-3.80238E-19-2.88567E-19
 -1      1991 1.11619E-04-3.45756E-05-3.30591E-05-1.24948E-06-2.62210E-19-3.75345E-19
 -1      1992 1.11352E-04-3.50666E-05-3.26964E-05-1.73417E-06 4.54751E-20-3.16558E-19
 -1      1993 1.10852E-04-3.38409E-05-3.29959E-05 1.82329E-06-4.80665E-19-5.53298E-19
 -1      1994 1.11246E-04-3.41226E-05-3.30863E-05 1.00875E-06-3.51029E-19-2.83041E-19
 -1      1995 1.10519E-04-3.43580E-05-3.26480E-05 1.09966E-06-3.17273E-19-4.26306E-19
 -1      1996 1.09076E-04-3.29929E-05-3.26073E-05 2.89670E-06 3.28411E-19-3.21065E-19
 -1      1997 1.09926E-04-3.33815E-05-3.28266E-05 2.43304E-06-1.99304E-19-4.41228E-19
 -1      1998 1.08970E-04-3.33801E-05-3.24029E-05 2.93061E-06-2.93957E-19-6.44107E-19
 -1      1999 1.07012E-04-3.21517E-05-3.20882E-05 3.29342E-06 1.28622E-18-2.39492E-19
 -1      2000 1.08082E-04-3.25631E-05-3.23763E-05 3.11016E-06 9.68040E-19-2.52015E-19
 -1      2001 1.07091E-04-3.24002E-05-3.20156E-05 3.83798E-06 8.47359E-19-7.02778E-19
 -1      2002 1.04935E-04-3.13953E-05-3.15232E-05 3.24188E-06-4.55504E-19-8.89103E-20
 -1      2003 1.06051E-04-3.17824E-05-3.18317E-05 3.24673E-06 4.55013E-19 5.06367E-20
 -1      2004 1.05150E-04-3.15382E-05-3.15509E-05 4.06245E-06 3.77002E-19-3.47614E-20
 -1      2005 1.03006E-04-3.07509E-05-3.09724E-05 2.93764E-06-1.20371E-18-2.80904E-19
 -1      2006 1.04060E-04-3.10915E-05-3.12688E-05 3.05058E-06-1.06642E-18-4.33970E-19
 -1      2007 1.03309E-04-3.08267E-05-3.10656E-05 3.85633E-06-7.11986E-19 3.39335E-19
 -1      2008 1.01311E-04-3.02203E-05-3.04719E-05 2.52032E-06-5.35636E-19 4.65555E-19
 -1      2009 1.02244E-04-3.05071E-05-3.07377E-05 2.68359E-06-9.30689E-19 4.27313E-20
 -1      2010 1.01658E-04-3.02590E-05-3.06007E-05 3.42122E-06-1.17214E-18 3.93303E-19
 -1      2011 9.98775E-05-2.97941E-05-3.00390E-05 2.07818E-06 1.66386E-19 8.66715E-19
 -1      2012 1.00668E-04-3.00277E-05-3.02661E-05 2.25480E-06-1.13327E-19 5.93985E-19
 -1      2013 1.00234E-04-2.98145E-05-3.01811E-05 2.89596E-06-2.96037E-19-1.11775E-19
 -1      2014 9.87028E-05-2.94586E-05-2.96782E-05 1.66102E-06-1.39264E-20 1.45637E-18
 -1      2015 9.93491E-05-2.96440E-05-2.98653E-05 1.82976E-06-1.95698E-19 8.26640E-19
 -1      2016 9.90451E-05-2.94714E-05-2.98187E-05 2.36606E-06-1.71291E-19 5.58705E-19
 -1      2017 9.77647E-05-2.91994E-05-2.93864E-05 1.29307E-06-6.33790E-19 2.17344E-18
 -1      2018 9.82787E-05-2.93432E-05-2.95361E-05 1.44327E-06-3.47491E-19 2.13579E-18
 -1      2019 9.80774E-05-2.92096E-05-2.95163E-05 1.87839E-06-5.93903E-19 1.36365E-18
 -1      2020 9.70327E-05-2.90028E-05-2.91562E-05 9.82776E-07-2.53859E-19 1.83742E-18
 -1      2021 9.74316E-05-2.91119E-05-2.92730E-05 1.11041E-06-5.86189E-19 2.43127E-18
 -1      2022 9.73078E-05-2.90125E-05-2.92710E-05 1.45444E-06-3.91309E-19 1.37124E-18
 -1      2023 9.64738E-05-2.88566E-05-2.89789E-05 7.29672E-07 7.01540E-20 1.76882E-18
 -1      2024 9.67763E-05-2.89376E-05-2.90679E-05 8.34498E-07-7.25983E-20 1.67288E-18
 -1      2025 9.67085E-05-2.88662E-05-2.90768E-05 1.10026E-06 3.56878E-19 1.02647E-18
 -1      2026 9.60562E-05-2.87501E-05-2.88453E-05 5.28663E-07 1.66161E-19 2.35357E-18
 -1      2027 9.62804E-05-2.88089E-05-2.89116E-05 6.12456E-07 3.19272E-19 2.11711E-18
 -1      2028 9.62514E-05-2.87596E-05-2.89265E-05 8.13243E-07 2.38659E-19 1.69513E-18
 -1      2029 9.57513E-05-2.86745E-05-2.87469E-05 3.72693E-07 3.65742E-19-5.70151E-19
 -1      2030 9.59134E-05-2.87160E-05-2.87951E-05 4.38132E-07 5.43291E-19 1.08682E-18
 -1      2031 9.59100E-05-2.86835E-05-2.88127E-05 5.86451E-07 1.17762E-18 7.14618E-19
 -1      2032 9.55342E-05-2.86222E-05-2.86762E-05 2.54257E-07 1.23298E-19-4.49522E-19
 -1      2033 9.56483E-05-2.86507E-05-2.87103E-05 3.04282E-07-9.18952E-20-1.32613E-18
 -1      2034 9.56606E-05-2.86305E-05-2.87284E-05 4.11216E-07 6.71627E-19-1.25878E-18
 -1      2035 9.53842E-05-2.85875E-05-2.86268E-05 1.66230E-07-2.69450E-19 1.20612E-18
 -1      2036 9.54619E-05-2.86062E-05-2.86502E-05 2.03680E-07 1.19809E-19 6.68574E-19
 -1      2037 9.54830E-05-2.85948E-05-2.86673E-05 2.78663E-07-5.52827E-19 4.91990E-19
 -1      2038 9.52845E-05-2.85656E-05-2.85934E-05 1.02258E-07 1.44990E-18 8.01814E-19
 -1      2039 9.53352E-05-2.85772E-05-2.86089E-05 1.29695E-07 4.60765E-19 1.35997E-18
 -1      2040 9.53602E-05-2.85718E-05-2.86244E-05 1.80514E-07 4.08669E-19 1.00723E-18
 -1      2041 9.52217E-05-2.85528E-05-2.85720E-05 5.69113E-08 8.50721E-19 5.30405E-19
 -1      2042 9.52527E-05-2.85594E-05-2.85816E-05 7.65471E-08 1.35885E-18 1.02809E-18
 -1      2043 9.52784E-05-2.85580E-05-2.85951E-05 1.09470E-07 1.46348E-18 1.67568E-18
 -1      2044 9.51853E-05-2.85464E-05-2.85592E-05 2.56901E-08-1.06086E-18 1.32507E-18
 -1      2045 9.52023E-05-2.85495E-05-2.85647E-05 3.93713E-08-3.33661E-19 8.16391E-19
 -1      2046 9.52268E-05-2.85506E-05-2.85761E-05 5.93326E-08-2.30150E-19 2.68184E-18
 -1      2047 9.51672E-05-2.85443E-05-2.85524E-05 4.95999E-09 4.05089E-19 1.97987E-18
 -1      2048 9.51747E-05-2.85451E-05-2.85550E-05 1.41891E-08-3.87234E-19 1.57600E-18
 -1      2049 9.51968E-05-2.85476E-05-2.85644E-05 2.49960E-08-6.41041E-19 2.23352E-18
 -1      2050 9.51616E-05-2.85450E-05-2.85498E-05-8.14971E-09-1.86432E-18 2.98174E-18
 -1      2051 9.51628E-05-2.85443E-05-2.85504E-05-2.17776E-09-1.05984E-18 1.73027E-18
 -1      2052 9.51819E-05-2.85474E-05-2.85580E-05 2.35259E-09-8.90781E-19 2.40588E-18
 -1      2053 9.51640E-05-2.85473E-05-2.85498E-05-1.58556E-08-8.42187E-19 3.72100E-18
 -1      2054 9.51612E-05-2.85457E-05-2.85492E-05-1.22122E-08-6.19951E-19 4.17158E-18
 -1      2055 9.51772E-05-2.85491E-05-2.85552E-05-1.18266E-08-1.41598E-18 3.13234E-18
 -1      2056 9.51713E-05-2.85506E-05-2.85516E-05-1.98266E-08-1.91000E-19 2.63751E-18
 -1      2057 9.51662E-05-2.85486E-05-2.85502E-05-1.78084E-08-1.03917E-18 3.02912E-18
 -1      2058 9.51792E-05-2.85517E-05-2.85548E-05-2.00213E-08-4.59007E-19 1.96328E-18
 -1      2059 9.51813E-05-2.85543E-05-2.85543E-05-2.12776E-08 7.54632E-19 2.74690E-18
 -1      2060 9.51749E-05-2.85521E-05-2.85526E-05-2.03699E-08 6.97037E-19 2.97320E-18
 -1      2061 9.51851E-05-2.85549E-05-2.85559E-05-2.40839E-08 3.52493E-19 2.88525E-18
 -1      2062 9.51923E-05-2.85581E-05-2.85574E-05-2.10475E-08 2.80722E-18 2.01330E-18
 -1      2063 9.51856E-05-2.85559E-05-2.85556E-05-2.08945E-08 1.60657E-18 2.66598E-18
 -1      2064 9.51932E-05-2.85582E-05-2.85579E-05-2.53454E-08 1.66977E-18 2.88577E-18
 -1      2065 9.52035E-05-2.85618E-05-2.85606E-05-1.96578E-08 7.75178E-19 2.27458E-18
 -1      2066 9.51968E-05-2.85597E-05-2.85588E-05-2.00414E-08 1.77623E-18 2.36188E-18
 -1      2067 9.52022E-05-2.85616E-05-2.85603E-05-2.47047E-08 1.53431E-18 2.94847E-18
 -1      2068 9.52138E-05-2.85653E-05-2.85636E-05-1.73551E-08 5.38601E-19 8.96373E-19
 -1      2069 9.52078E-05-2.85633E-05-2.85620E-05-1.81794E-08 3.17637E-19 2.05039E-18
 -1      2070 9.52113E-05-2.85648E-05-2.85628E-05-2.26878E-08 6.36936E-19 2.65321E-18
 -1      2071 9.52229E-05-2.85684E-05-2.85662E-05-1.41555E-08 9.29827E-19 5.74503E-19
 -1      2072 9.52177E-05-2.85666E-05-2.85648E-05-1.54370E-08 7.94412E-19 5.26540E-19
 -1      2073 9.52197E-05-2.85678E-05-2.85651E-05-1.95232E-08 9.76879E-19 5.24434E-19
 -1      2074 9.52301E-05-2.85710E-05-2.85682E-05-9.91322E-09 1.97143E-18 1.30667E-19
 -1      2075 9.52262E-05-2.85696E-05-2.85671E-05-1.17691E-08 1.89753E-18 1.26860E-18
 -1      2076 9.52271E-05-2.85706E-05-2.85670E-05-1.52349E-08 1.68701E-18 2.22999E-18
 -1      2077 9.52346E-05-2.85728E-05-2.85694E-05-6.01296E-09 1.19737E-18 2.04070E-19
 -1      2078 9.52319E-05-2.85718E-05-2.85686E-05-8.34505E-09 1.98080E-18 2.37304E-19
 -1      2079 9.52322E-05-2.85728E-05-2.85683E-05-1.10385E-08 2.06242E-18 2.16535E-18
 -1      2080 9.52354E-05-2.85744E-05-2.85690E-05-7.44924E-09 5.74177E-19 3.76501E-18
 -1      2081 9.52440E-05-2.85927E-05-2.85648E-05-1.50957E-08 2.32843E-19-9.95820E-19
 -1      2082 9.52422E-05-2.85888E-05-2.85658E-05-1.51390E-08 2.92172E-19 2.18669E-18
 -1      2083 9.52406E-05-2.85856E-05-2.85664E-05-1.46536E-08 1.14761E-18 4.69886E-18
 -1      2084 9.52388E-05-2.85819E-05-2.85673E-05-1.35761E-08 7.66477E-19 6.78750E-18
 -1      2085 9.52407E-05-2.85858E-05-2.85664E-05-1.86710E-08-7.97979E-19 2.78807E-18
 -1      2086 9.52377E-05-2.85796E-05-2.85678E-05-1.18924E-08 1.01372E-18 6.36069E-18
 -1      2087 9.52362E-05-2.85765E-05-2.85685E-05-9.80642E-09 5.73244E-19 5.16027E-18
 -1      2088 9.52349E-05-2.85759E-05-2.85682E-05-1.18257E-08 1.72498E-18 4.83528E-18
 -1      2089 9.52374E-05-2.85804E-05-2.85673E-05-1.62034E-08-2.55362E-19 7.27701E-18
 -1      2090 9.52468E-05-2.85991E-05-2.85633E-05-1.35354E-08-9.66158E-19-3.81818E-18
 -1      2091 9.52453E-05-2.85955E-05-2.85642E-05-1.44246E-08-1.24352E-19-2.74550E-18
 -1      2092 9.52443E-05-2.85919E-05-2.85653E-05-1.84022E-08-1.10636E-18-2.41993E-18
 -1      2093 9.52491E-05-2.86044E-05-2.85620E-05-1.03840E-08 7.33486E-19-1.44128E-19
 -1      2094 9.52479E-05-2.86015E-05-2.85627E-05-1.19280E-08-8.06239E-19-4.59121E-19
 -1      2095 9.52473E-05-2.85973E-05-2.85643E-05-1.58418E-08-1.00356E-18-1.86009E-18
 -1      2096 9.52506E-05-2.86079E-05-2.85611E-05-6.16019E-09 1.80338E-18-7.05482E-19
 -1      2097 9.52499E-05-2.86061E-05-2.85616E-05-8.11733E-09 2.11692E-18-2.77173E-19
 -1      2098 9.52495E-05-2.86015E-05-2.85635E-05-1.15044E-08 7.66041E-19 5.55743E-19
 -1      2099 9.52512E-05-2.86094E-05-2.85607E-05-1.35231E-09 6.97066E-19-2.14976E-18
 -1      2100 9.52510E-05-2.86088E-05-2.85609E-05-3.51032E-09 1.57717E-18-1.13788E-18
 -1      2101 9.52509E-05-2.86042E-05-2.85629E-05-6.01309E-09 1.76102E-18-1.26651E-18
 -1      2102 9.52510E-05-2.86088E-05-2.85609E-05 3.57971E-09-1.24037E-19-2.25983E-18
 -1      2103 9.52512E-05-2.86094E-05-2.85607E-05 1.42274E-09 5.25771E-19-2.23299E-18
 -1      2104 9.52513E-05-2.86051E-05-2.85627E-05 4.34259E-11-1.47458E-19-2.72172E-18
 -1      2105 9.52499E-05-2.86060E-05-2.85616E-05 8.18056E-09-9.85169E-19-1.68834E-18
 -1      2106 9.52506E-05-2.86079E-05-2.85611E-05 6.22764E-09-3.10461E-19-1.39336E-18
 -1      2107 9.52509E-05-2.86042E-05-2.85629E-05 6.09763E-09-5.07780E-19-1.49043E-18
 -1      2108 9.52480E-05-2.86015E-05-2.85627E-05 1.19240E-08-1.46378E-18-1.08887E-18
 -1      2109 9.52491E-05-2.86043E-05-2.85620E-05 1.04091E-08-1.46019E-18-1.17474E-18
 -1      2110 9.52495E-05-2.86015E-05-2.85635E-05 1.15417E-08-8.92862E-19-1.82568E-18
 -1      2111 9.52453E-05-2.85955E-05-2.85642E-05 1.44362E-08-4.06555E-19 1.22477E-18
 -1      2112 9.52469E-05-2.85991E-05-2.85633E-05 1.35372E-08-1.47889E-18 1.10206E-18
 -1      2113 9.52473E-05-2.85973E-05-2.85643E-05 1.58419E-08-3.97611E-19-2.68109E-19
 -1      2114 9.52422E-05-2.85887E-05-2.85658E-05 1.51402E-08-4.86140E-19 6.61407E-20
 -1      2115 9.52439E-05-2.85926E-05-2.85648E-05 1.51108E-08-2.00121E-19-9.00209E-19
 -1      2116 9.52443E-05-2.85919E-05-2.85653E-05 1.84154E-08-4.51288E-19 4.58866E-19
 -1      2117 9.52386E-05-2.85817E-05-2.85673E-05 1.36469E-08-2.34680E-18-2.90363E-19
 -1      2118 9.52406E-05-2.85856E-05-2.85664E-05 1.46420E-08-1.68100E-18 1.66386E-19
 -1      2119 9.52406E-05-2.85857E-05-2.85664E-05 1.86512E-08-1.19516E-18-9.67289E-19
 -1      2120 6.11169E-05-4.06492E-05-9.22698E-06 4.03609E-05 1.36033E-18 1.12272E-18
 -1      2121 4.63330E-05-4.07559E-05-3.35029E-06 3.49982E-05 9.84252E-19 9.51853E-19
 -1      2122 1.16845E-05-3.25126E-05 7.74396E-06 4.93330E-06 7.66988E-19 2.87949E-18
 -1      2123 1.22997E-05-3.51443E-05 8.24359E-06-5.17975E-06-2.87885E-19 3.00231E-18
 -1      2124 2.82252E-05-3.27662E-05 1.38889E-06 2.86866E-05 1.08081E-18 1.61381E-18
 -1      2125 1.90431E-05-3.41300E-05 5.29781E-06 1.71709E-05 9.67947E-19 2.44665E-18
 -1      2126 9.71804E-05-4.28259E-05-2.32149E-05 4.23795E-05 1.44716E-18 1.55431E-19
 -1      2127 7.77664E-05-4.46369E-05-1.52644E-05 3.80208E-05 1.35314E-18 9.73876E-19
 -1      2128 1.35232E-04-4.20925E-05-3.92584E-05 3.50419E-05 1.30041E-18 9.69006E-19
 -1      2129 1.15165E-04-4.42730E-05-3.09725E-05 3.39253E-05 1.38702E-18 4.36645E-19
 -1      2130 8.69215E-05-7.94396E-06-3.39541E-05-5.34649E-06-5.57308E-19-9.00727E-19
 -1      2131 8.90058E-05-8.92106E-06-3.43866E-05-6.80493E-06-6.78023E-19-6.86785E-19
 -1      2132 9.21914E-05-1.29660E-05-3.40040E-05-6.36889E-06-7.26344E-19-5.16611E-19
 -1      2133 8.73814E-05-9.58185E-06-3.33640E-05-4.13709E-06-5.55465E-19-9.01971E-19
 -1      2134 1.70651E-04-2.67212E-05-6.12238E-05 5.08446E-06 2.06930E-18-7.04096E-19
 -1      2135 1.66908E-04-3.07123E-05-5.75214E-05 1.50999E-05 1.64473E-18 1.31290E-19
 -1      2136 1.82256E-04-2.34942E-05-6.64870E-05-1.25385E-06 1.82917E-18-9.97275E-19
 -1      2137 1.73537E-04-2.09513E-05-6.46871E-05 3.88216E-06 1.92446E-18-6.42898E-19
 -1      2138 1.72308E-04-2.46309E-05-6.26297E-05-9.76454E-06 2.32934E-18-1.11851E-18
 -1      2139 1.81203E-04-2.50920E-05-6.56446E-05-4.13244E-06 2.27344E-18-7.58412E-19
 -1      2140 1.55398E-04-3.50399E-05-5.14925E-05-1.88752E-05 1.80987E-18-1.54838E-18
 -1      2141 1.67648E-04-3.25413E-05-5.72935E-05-1.21277E-05 1.93843E-18-1.14095E-18
 -1      2142 1.31260E-04-4.14568E-05-3.87907E-05-2.97559E-05 1.58120E-18-2.00196E-18
 -1      2143 1.51128E-04-4.06178E-05-4.67122E-05-2.80258E-05 1.68517E-18-1.94309E-18
 -1      2144 1.51874E-04-4.18383E-05-4.63895E-05-6.07365E-06 1.00755E-18-4.03188E-19
 -1      2145 9.19633E-05-4.40443E-05-2.15022E-05-3.81289E-05 1.30909E-18-2.41574E-18
 -1      2146 1.13279E-04-4.23524E-05-3.02057E-05-4.17729E-05 1.62588E-18-2.74185E-18
 -1      2147 5.50406E-05-4.26810E-05-6.72430E-06-3.55646E-05 7.40307E-19-2.20432E-18
 -1      2148 7.19702E-05-4.01802E-05-1.40259E-05-4.23838E-05 1.24980E-18-2.61310E-18
 -1      2149 2.67107E-05-3.89442E-05 3.61185E-06-2.40946E-05 1.38913E-19-1.66823E-18
 -1      2150 3.75337E-05-3.68753E-05-1.22357E-06-3.27895E-05 6.92026E-19-1.94987E-18
 -1      2151 1.23057E-05-3.65281E-05 8.65379E-06-5.12482E-06-4.85138E-19-2.09937E-18
 -1      2152 1.56861E-05-3.56995E-05 7.06317E-06-1.42258E-05 1.76606E-19-1.92149E-18
 -1      2153 1.66182E-05-3.32116E-05 5.94632E-06 1.59098E-05-6.92026E-19-2.38270E-18
 -1      2154 1.30679E-05-3.52992E-05 7.95579E-06 6.06666E-06-2.94238E-19-2.34713E-18
 -1      2155 4.09915E-05-3.72427E-05-2.31005E-06 3.43387E-05-1.30104E-18-1.46177E-18
 -1      2156 2.94787E-05-3.77784E-05 2.29430E-06 2.64679E-05-4.45116E-19-2.01446E-18
 -1      2157 7.51205E-05-4.24200E-05-1.43325E-05 4.30364E-05-1.29893E-18-9.35230E-19
 -1      2158 5.64666E-05-4.33488E-05-6.94144E-06 3.61580E-05-1.52635E-18-1.04910E-18
 -1      2159 5.91444E-05-4.14844E-05-7.81441E-06 4.12947E-05-1.08420E-19-9.46136E-19
 -1      2160 1.17779E-04-4.73621E-05-3.02541E-05 3.74178E-05-9.62653E-19-4.14199E-19
 -1      2161 9.59596E-05-4.69959E-05-2.18371E-05 3.75204E-05-1.18161E-18-9.21572E-19
 -1      2162 1.51883E-04-4.06059E-05-4.66948E-05 2.77814E-05-1.43000E-18-5.38289E-19
 -1      2163 1.34887E-04-4.44684E-05-3.87622E-05 2.76364E-05-1.06281E-18-4.18858E-19
 -1      2164 1.68192E-04-3.20078E-05-5.77634E-05 1.15082E-05-1.54795E-18 3.14249E-19
 -1      2165 1.58254E-04-3.53304E-05-5.22477E-05 1.91331E-05-1.60852E-18-3.77777E-19
 -1      2166 1.52894E-04-4.17043E-05-4.70738E-05 7.42298E-06-1.24022E-18 5.73018E-19
 -1      2167 1.81430E-04-2.50666E-05-6.56158E-05 3.49869E-06-2.06718E-18 3.18802E-19
 -1      2168 1.68733E-04-2.31429E-05-6.20645E-05 6.70714E-06-1.94521E-18 1.54160E-19
 -1      2169 1.78713E-04-2.34064E-05-6.55366E-05-4.05081E-06-2.69484E-18 6.89485E-19
 -1      2170 1.82090E-04-2.43909E-05-6.65282E-05 2.13187E-06-2.58176E-18 1.38596E-19
 -1      2171 1.57234E-04-1.27267E-05-6.09032E-05-6.25980E-07-2.53475E-18 2.63639E-20
 -1      2172 1.71939E-04-3.05026E-05-5.96175E-05-1.70472E-05-2.91125E-18 2.27471E-18
 -1      2173 1.81236E-04-2.92468E-05-6.38878E-05-9.24943E-06-2.84180E-18 1.44631E-18
 -1      2174 1.47351E-04-3.66847E-05-4.72600E-05-2.75779E-05-3.35023E-18 3.34874E-18
 -1      2175 1.66155E-04-3.62475E-05-5.43812E-05-2.44557E-05-2.87478E-18 2.98325E-18
 -1      2176 1.17095E-04-4.46584E-05-3.15495E-05-3.31346E-05-3.13656E-18 3.19289E-18
 -1      2177 1.37448E-04-4.26028E-05-3.99444E-05-3.42911E-05-3.45293E-18 3.14927E-18
 -1      2178 7.57426E-05-4.42107E-05-1.47199E-05-3.72197E-05-2.61479E-18 3.70683E-18
 -1      2179 9.68246E-05-4.27613E-05-2.32515E-05-4.22607E-05-2.99765E-18 2.95869E-18
 -1      2180 4.08358E-05-4.15377E-05-1.27293E-06-3.05880E-05-1.52169E-18 3.27865E-18
 -1      2181 5.58133E-05-3.90948E-05-7.82838E-06-3.84322E-05-2.14130E-18 4.20234E-18
 -1      2182 1.82166E-05-3.67164E-05 6.39992E-06-1.59004E-05-6.88426E-19 2.79944E-18
 -1      2183 2.59716E-05-3.54082E-05 2.97924E-06-2.50648E-05-1.58861E-18 3.22487E-18
 -1      2184 1.63458E-04-3.64337E-05-5.34576E-05 2.28355E-05 1.08743E-18 4.06152E-19
 -1      2185 1.45775E-04-3.69481E-05-4.66033E-05 2.59540E-05 1.12137E-18 6.95414E-19
 -1      2186 1.56273E-04-3.28010E-05-5.19931E-05 2.83090E-06 1.35885E-18-2.36746E-19
 -1      2187 1.18639E-04-5.41031E-05-2.74970E-05 3.32528E-05 8.10187E-19-1.26208E-19
 -1      2188 1.04674E-04-2.66360E-05-3.35068E-05-5.87620E-06-7.64818E-19 8.67494E-19
 -1      2189 1.45756E-04-4.75444E-05-4.15401E-05 1.60198E-05 7.90599E-19-5.37866E-20
 -1      2190 1.03029E-04-2.50909E-05-3.34832E-05-5.35438E-06-8.10597E-19 4.18884E-19
 -1      2191 4.45380E-05-3.58730E-05-4.05453E-06 3.61762E-05-2.77403E-20 8.15693E-19
 -1      2192 1.80864E-05-2.48129E-05 2.44862E-06 1.37374E-05 6.24899E-19 2.97436E-18
 -1      2193 9.52373E-05-2.85792E-05-2.85678E-05 1.33212E-08-2.64938E-18-1.26286E-18
 -1      2194 8.21831E-05-4.88553E-05-1.45020E-05 4.18556E-05 4.18858E-19 4.29657E-19
 -1      2195 1.78213E-05-2.62594E-05 2.93244E-06-1.42746E-05-1.43360E-19 3.58337E-18
 -1      2196 4.08399E-05-3.59785E-05-2.64797E-06-3.43934E-05-8.77103E-19 3.42434E-18
 -1      2197 7.81850E-05-4.79717E-05-1.32119E-05-4.14943E-05-1.14731E-18 3.62670E-18
 -1      2198 1.19248E-04-5.42491E-05-2.76052E-05-3.26744E-05-2.13961E-18 2.59806E-18
 -1      2199 1.46652E-04-4.77308E-05-4.20241E-05-1.63920E-05-2.65704E-18 2.16375E-18
 -1      2200 1.62300E-04-1.81703E-05-6.06032E-05 7.53155E-07-3.19247E-18 4.46386E-19
 -1      2201 1.58059E-04-2.45924E-05-5.65042E-05-1.15270E-06-1.54118E-18 5.81488E-19
 -1      2202 9.67899E-05-5.24796E-05-1.89475E-05 4.03712E-05-2.03288E-19-2.70627E-19
 -1      2203 2.84310E-05-2.95283E-05 2.67745E-08 2.67504E-05 1.55007E-19-2.19593E-18
 -1      2204 1.39333E-05-2.53106E-05 4.08140E-06 7.94889E-07-1.94844E-19-2.29969E-18
 -1      2205 2.50732E-05-3.02619E-05 1.47857E-06-2.49597E-05-3.31613E-19-1.83044E-18
 -1      2206 5.61868E-05-4.12168E-05-6.87426E-06-4.03920E-05 2.41404E-20-2.05490E-18
 -1      2207 1.33941E-04-5.28213E-05-3.43523E-05-2.57802E-05 6.97108E-19-1.10707E-18
 -1      2208 1.57021E-04-2.52637E-05-5.58232E-05 1.87768E-06 1.75971E-18-1.14138E-19
 -1      2209 1.63221E-04-2.08168E-05-6.03502E-05 1.43233E-07 2.11250E-18-5.59677E-19
 -1      2210 1.48212E-04-2.00305E-05-5.49219E-05-5.59317E-06 2.08052E-18-1.04312E-18
 -1      2211 1.48077E-04-1.33872E-05-5.80159E-05-5.04952E-06 2.22389E-18-6.52957E-19
 -1      2212 1.59909E-04-1.38577E-05-6.15408E-05 2.20314E-07 2.10996E-18-1.49819E-19
 -1      2213 9.59042E-05-5.13131E-05-1.91704E-05-4.09553E-05 3.51942E-19-2.16131E-18
 -1      2214 1.31770E-04-5.17033E-05-3.42127E-05 2.72598E-05-6.77415E-19-1.73642E-19
 -1      2215 1.28247E-04-5.74860E-05-2.98348E-05 2.61123E-05-3.19120E-19 6.18758E-19
 -1      2216 1.41193E-04-5.52575E-05-3.75623E-05 1.50035E-05-3.48713E-19 8.23951E-19
 -1      2217 1.61352E-04-3.27204E-05-5.39983E-05-5.92460E-06-3.19882E-18 1.22227E-18
 -1      2218 1.03447E-04-2.87973E-05-3.19744E-05-5.55240E-07 7.74982E-19 8.43896E-19
 -1      2219 1.03618E-04-2.80384E-05-3.23180E-05 1.31478E-06 8.20206E-19 8.81050E-19
 -1      2220 8.03612E-05-6.30145E-06-3.17800E-05-5.04575E-07-2.64441E-20-9.06927E-19
 -1      2221 8.16419E-05-7.03958E-06-3.19860E-05-9.19736E-07-1.67393E-19-9.54692E-19
 -1      2222 8.33181E-05-8.27632E-06-3.22121E-05-1.19974E-06-2.37573E-19-9.71328E-19
 -1      2223 8.51490E-05-9.38333E-06-3.24912E-05-1.86823E-06-3.73865E-19-9.13462E-19
 -1      2224 8.32806E-05-9.24466E-06-3.17210E-05-3.06824E-07-1.56412E-19-8.94642E-19
 -1      2225 7.84752E-05-5.05094E-06-3.14865E-05-1.00602E-07 3.71321E-19-9.59271E-19
 -1      2226 7.83986E-05-4.99896E-06-3.14795E-05-3.02369E-07 2.78639E-19-9.53339E-19
 -1      2227 7.96998E-05-5.84642E-06-3.16641E-05 1.43637E-07 4.87984E-19-1.00936E-18
 -1      2228 7.89377E-05-5.40367E-06-3.15465E-05-1.49760E-07 3.92905E-19-1.00075E-18
 -1      2229 7.92294E-05-6.47350E-06-3.11682E-05-3.39601E-07 3.81077E-19-9.78786E-19
 -1      2230 8.21667E-05-7.47300E-06-3.20241E-05 7.55686E-07 6.42170E-19-9.57369E-19
 -1      2231 8.08349E-05-6.69233E-06-3.18172E-05 2.69486E-07 5.36985E-19-9.83253E-19
 -1      2232 8.09170E-05-7.67210E-06-3.13817E-05-3.14327E-07 4.79068E-19-9.40939E-19
 -1      2233 8.57250E-05-9.88481E-06-3.25245E-05 1.90311E-06 8.45701E-19-7.63971E-19
 -1      2234 8.38876E-05-8.76076E-06-3.22493E-05 1.14737E-06 7.35092E-19-9.00472E-19
 -1      2235 8.39007E-05-9.78924E-06-3.17579E-05 1.57312E-07 6.88484E-19-8.36237E-19
 -1      2236 9.01225E-05-1.30393E-05-3.30794E-05 3.56607E-06 9.86312E-19-4.82385E-19
 -1      2237 8.78917E-05-1.15505E-05-3.27804E-05 2.55781E-06 8.84415E-19-6.70857E-19
 -1      2238 8.79289E-05-1.27074E-05-3.22341E-05 1.15043E-06 8.01199E-19-6.38693E-19
 -1      2239 9.52417E-05-1.70894E-05-3.35786E-05 5.48413E-06 1.08572E-18-5.10867E-20
 -1      2240 9.26425E-05-1.50935E-05-3.33070E-05 4.35834E-06 1.01237E-18-2.87369E-19
 -1      2241 9.26913E-05-1.63449E-05-3.27068E-05 2.50178E-06 8.96778E-19-3.61541E-19
 -1      2242 1.03976E-04-3.01357E-05-3.16336E-05-3.05114E-06 5.46892E-19 5.87907E-19
 -1      2243 1.03682E-04-2.95399E-05-3.17024E-05-2.10147E-06 7.31512E-19 8.17043E-19
 -1      2244 1.02420E-04-2.79417E-05-3.19417E-05-1.24631E-06 7.82017E-19 4.55915E-19
 -1      2245 1.02464E-04-2.67729E-05-3.23846E-05-3.96093E-07-5.45542E-19 2.52520E-19
 -1      2246 1.02538E-04-2.77645E-05-3.20508E-05 1.68900E-06-5.12829E-19 2.93585E-19
 -1      2247 1.46817E-04-4.68241E-05-4.31639E-05 5.23650E-06 4.26905E-19-6.41416E-19
 -1      2248 1.39024E-04-5.30839E-05-3.69410E-05 1.20226E-05 4.86356E-19-6.87791E-19
 -1      2249 1.29065E-04-5.77900E-05-3.08226E-05 2.49382E-05 4.21611E-19-5.57030E-19
 -1      2250 1.13439E-04-5.69673E-05-2.42137E-05 3.20417E-05-7.41154E-20-6.79003E-19
 -1      2251 1.02980E-04-2.86931E-05-3.17742E-05 3.29244E-06-5.12220E-19 3.53296E-19
 -1      2252 1.03406E-04-2.94973E-05-3.16754E-05 4.42987E-06-4.18603E-19 3.58682E-19
 -1      2253 1.01146E-04-2.67897E-05-3.18888E-05 2.55663E-06-5.34003E-19 1.73559E-20
 -1      2254 1.04038E-04-3.03338E-05-3.15372E-05 5.37891E-06-3.75981E-19 4.52824E-19
 -1      2255 1.04814E-04-3.12233E-05-3.15520E-05 5.79526E-06-2.24106E-19 3.42630E-19
 -1      2256 1.02237E-04-2.89895E-05-3.14239E-05 5.35128E-06-3.48656E-19 2.75630E-19
 -1      2257 1.05836E-04-3.22367E-05-3.14977E-05 6.04705E-06-4.03242E-20 4.84678E-19
 -1      2258 1.06862E-04-3.33039E-05-3.15588E-05 5.72957E-06 4.04475E-20 6.43262E-19
 -1      2259 1.03936E-04-3.12851E-05-3.11761E-05 6.74685E-06-8.89356E-20 4.03873E-19
 -1      2260 1.08347E-04-3.45816E-05-3.15688E-05 5.15529E-06-1.72087E-20 6.88218E-19
 -1      2261 1.09456E-04-3.57598E-05-3.16421E-05 4.01797E-06-6.41925E-20 7.40002E-19
 -1      2262 1.06489E-04-3.40746E-05-3.10818E-05 6.59278E-06-7.81024E-21 4.70996E-19
 -1      2263 1.11334E-04-3.71795E-05-3.17378E-05 2.45121E-06-1.22231E-19 7.40035E-19
 -1      2264 1.12244E-04-3.81634E-05-3.18239E-05 4.90214E-07-3.28159E-20 9.05563E-19
 -1      2265 1.09914E-04-3.73248E-05-3.11581E-05 4.58742E-06-6.18251E-20 6.37302E-19
 -1      2266 1.14160E-04-3.92694E-05-3.20726E-05-2.09041E-06-1.00638E-19 8.78605E-19
 -1      2267 1.14455E-04-3.94497E-05-3.22111E-05-4.57294E-06-8.27578E-20 6.66302E-19
 -1      2268 1.13811E-04-4.03410E-05-3.15183E-05 4.83940E-07-2.74591E-20 3.89874E-19
 -1      2269 1.15647E-04-3.94071E-05-3.27074E-05-7.67123E-06-2.58835E-19 8.12307E-19
 -1      2270 1.14924E-04-3.80678E-05-3.29545E-05-9.81999E-06-4.32995E-19 8.38690E-19
 -1      2271 1.17053E-04-4.15201E-05-3.23608E-05-5.38924E-06-1.57029E-19 3.74757E-19
 -1      2272 1.14523E-04-3.61069E-05-3.37270E-05-1.20273E-05-6.17485E-19 7.33739E-19
 -1      2273 1.12795E-04-3.31476E-05-3.40824E-05-1.24833E-05-8.24726E-19 4.94634E-19
 -1      2274 1.17922E-04-3.88552E-05-3.38508E-05-1.12350E-05-6.68845E-19 7.89127E-19
 -1      2275 1.10831E-04-2.96749E-05-3.49485E-05-1.18156E-05-8.75925E-19 5.96781E-19
 -1      2276 1.08981E-04-2.64764E-05-3.52929E-05-9.52360E-06-8.57396E-19 3.35091E-19
 -1      2277 1.15399E-04-3.18441E-05-3.58083E-05-1.33868E-05-8.22297E-19 9.71858E-19
 -1      2278 1.07209E-04-2.38038E-05-3.58729E-05-5.29611E-06-8.66832E-19 3.69922E-19
 -1      2279 1.06529E-04-2.26287E-05-3.60151E-05-9.56073E-07-6.05920E-19 4.81912E-19
 -1      2280 1.11352E-04-2.39785E-05-3.75453E-05-8.47023E-06-9.37480E-19 1.15028E-18
 -1      2281 1.06953E-04-2.31341E-05-3.59237E-05 4.76186E-06-7.09364E-19 3.51662E-19
 -1      2282 1.08159E-04-2.50900E-05-3.57468E-05 8.71569E-06-8.97431E-19 2.42443E-19
 -1      2283 1.09674E-04-2.11052E-05-3.80907E-05 2.25940E-06-7.68047E-19 5.65735E-19
 -1      2284 1.10268E-04-2.82579E-05-3.50783E-05 1.21011E-05-9.64334E-19 1.98067E-19
 -1      2285 1.12353E-04-3.16605E-05-3.47496E-05 1.36203E-05-6.75548E-19 1.32670E-19
 -1      2286 1.12495E-04-2.58781E-05-3.72025E-05 1.17559E-05-1.13447E-18 2.05075E-19
 -1      2287 1.14050E-04-3.48965E-05-3.38881E-05 1.33464E-05-2.33278E-19-2.58052E-19
 -1      2288 1.15681E-04-3.75362E-05-3.35848E-05 1.22931E-05 1.33156E-19-4.11143E-19
 -1      2289 1.16621E-04-3.41146E-05-3.53467E-05 1.46505E-05-6.89233E-19 2.03844E-19
 -1      2290 1.15643E-04-3.89809E-05-3.28889E-05 9.63023E-06-7.23948E-20-5.50416E-19
 -1      2291 1.16180E-04-3.99158E-05-3.26993E-05 7.24281E-06-1.18207E-19-7.55099E-19
 -1      2292 1.18364E-04-4.01494E-05-3.34773E-05 1.10515E-05-3.12841E-19-5.87755E-19
 -1      2293 1.14723E-04-3.95927E-05-3.22736E-05 4.12296E-06 3.65263E-19-9.47422E-19
 -1      2294 1.14295E-04-3.91851E-05-3.21643E-05 1.65335E-06 4.32776E-19-6.28098E-19
 -1      2295 1.16773E-04-4.17222E-05-3.21637E-05 4.80047E-06-5.09130E-21-6.38224E-19
 -1      2296 1.12316E-04-3.79692E-05-3.19386E-05-7.97037E-07 4.39729E-20-5.63191E-19
 -1      2297 1.11344E-04-3.69558E-05-3.18448E-05-2.67887E-06-7.60179E-21-1.19862E-19
 -1      2298 1.13214E-04-3.99583E-05-3.14289E-05-9.09547E-07 2.37960E-19-4.56555E-19
 -1      2299 1.09487E-04-3.56056E-05-3.17182E-05-4.18081E-06 7.54488E-20-1.08385E-20
 -1      2300 1.08322E-04-3.45232E-05-3.15980E-05-5.32153E-06 3.34287E-19-1.88672E-20
 -1      2301 1.09304E-04-3.69177E-05-3.10637E-05-4.82138E-06 1.49261E-19 1.05714E-20
 -1      2302 1.06828E-04-3.34042E-05-3.14988E-05-6.01637E-06 1.15140E-19-6.31740E-19
 -1      2303 1.05672E-04-3.24961E-05-3.13406E-05-6.52231E-06-8.25262E-20-8.96604E-19
 -1      2304 1.05923E-04-3.39917E-05-3.08615E-05-6.93192E-06-8.47835E-20-9.16472E-19
 -1      2305 1.04551E-04-3.16985E-05-3.12348E-05-6.65561E-06-1.95690E-20-8.99058E-19
 -1      2306 1.03493E-04-3.10207E-05-3.10472E-05-6.71479E-06-7.42924E-20-6.72119E-19
 -1      2307 1.03297E-04-3.17311E-05-3.06948E-05-7.67712E-06-2.52067E-19-1.53148E-18
 -1      2308 1.02667E-04-3.05036E-05-3.09267E-05-6.50869E-06 1.48562E-19-3.48176E-19
 -1      2309 1.01738E-04-3.00283E-05-3.07262E-05-6.29793E-06 2.46422E-19 2.03663E-19
 -1      2310 1.01347E-04-3.01943E-05-3.05094E-05-7.53499E-06 4.06999E-19-1.04066E-18
 -1      2311 1.01125E-04-2.97153E-05-3.05956E-05-5.91562E-06-4.41594E-19 5.43758E-19
 -1      2312 1.00328E-04-2.93930E-05-3.03977E-05-5.56873E-06-6.48435E-19-1.91036E-19
 -1      2313 9.99070E-05-2.92398E-05-3.02960E-05-6.88746E-06-4.57437E-20-2.93747E-19
 -1      2314 9.98622E-05-2.92144E-05-3.02654E-05-5.11796E-06-6.69030E-19-3.95631E-19
 -1      2315 9.91933E-05-2.89996E-05-3.00815E-05-4.72411E-06-1.42493E-19-8.08583E-19
 -1      2316 9.88269E-05-2.86918E-05-3.00650E-05-6.00115E-06-9.70066E-19 7.81526E-19
 -1      2317 9.88312E-05-2.89042E-05-2.99553E-05-4.27052E-06 2.86970E-19-1.73165E-18
 -1      2318 9.82791E-05-2.87624E-05-2.97922E-05-3.88327E-06-5.03463E-19-1.19853E-18
 -1      2319 9.79997E-05-2.84044E-05-2.98320E-05-5.04747E-06-7.40408E-19 9.91713E-20
 -1      2320 9.79937E-05-2.87161E-05-2.96773E-05-3.46327E-06-3.17804E-19-1.32270E-18
 -1      2321 9.75457E-05-2.86234E-05-2.95378E-05-3.11115E-06 4.04493E-19-1.40518E-19
 -1      2322 9.73546E-05-2.82743E-05-2.96105E-05-4.12822E-06-1.24715E-19-2.42126E-19
 -1      2323 9.73195E-05-2.86051E-05-2.94371E-05-2.74210E-06 3.35685E-19-4.31431E-19
 -1      2324 9.69621E-05-2.85453E-05-2.93213E-05-2.43755E-06 4.55882E-19-5.63075E-19
 -1      2325 9.68466E-05-2.82339E-05-2.94096E-05-3.29767E-06 2.94501E-19 4.62655E-19
 -1      2326 9.67831E-05-2.85422E-05-2.92358E-05-2.12505E-06 2.79373E-19-1.00094E-18
 -1      2327 9.65029E-05-2.85046E-05-2.91419E-05-1.87084E-06-2.94352E-20-1.31323E-18
 -1      2328 9.64456E-05-2.82416E-05-2.92340E-05-2.57928E-06 6.64942E-20-3.38044E-19
 -1      2329 9.63622E-05-2.85094E-05-2.90712E-05-1.61362E-06 5.98657E-19-1.14271E-18
 -1      2330 9.61464E-05-2.84867E-05-2.89968E-05-1.40720E-06 9.23113E-19-3.66505E-19
 -1      2331 9.61305E-05-2.82729E-05-2.90851E-05-1.97766E-06 3.38719E-19-6.72546E-19
 -1      2332 9.60371E-05-2.84950E-05-2.89396E-05-1.20038E-06 6.13595E-19-2.48968E-19
 -1      2333 9.58738E-05-2.84823E-05-2.88818E-05-1.03655E-06 5.47424E-19 6.88052E-19
 -1      2334 9.58851E-05-2.83135E-05-2.89621E-05-1.48667E-06 8.65745E-19-2.06582E-19
 -1      2335 9.57901E-05-2.84919E-05-2.88365E-05-8.73653E-07 4.83955E-19 7.75577E-19
 -1      2336 9.56689E-05-2.84858E-05-2.87925E-05-7.46252E-07 2.54305E-19 1.40971E-18
 -1      2337 9.56964E-05-2.83557E-05-2.88627E-05-1.09468E-06 6.42179E-19 5.69833E-19
 -1      2338 9.56059E-05-2.84954E-05-2.87573E-05-6.20381E-07-3.94616E-19 1.65718E-18
 -1      2339 9.55179E-05-2.84936E-05-2.87245E-05-5.23202E-07-3.07299E-19 1.74777E-18
 -1      2340 9.55535E-05-2.83955E-05-2.87840E-05-7.87861E-07-2.23918E-21 3.53997E-19
 -1      2341 9.54714E-05-2.85024E-05-2.86976E-05-4.27746E-07-5.40873E-19 1.42868E-18
 -1      2342 9.54090E-05-2.85033E-05-2.86737E-05-3.55035E-07-7.91719E-19 1.40066E-18
 -1      2343 9.54473E-05-2.84309E-05-2.87230E-05-5.52186E-07-7.40291E-19 6.62474E-19
 -1      2344 9.53754E-05-2.85111E-05-2.86536E-05-2.84022E-07-7.58007E-19 7.21874E-19
 -1      2345 9.53325E-05-2.85135E-05-2.86365E-05-2.30707E-07-3.01134E-19 3.24289E-19
 -1      2346 9.53698E-05-2.84612E-05-2.86765E-05-3.74521E-07-9.67451E-19 4.17156E-19
 -1      2347 9.53088E-05-2.85201E-05-2.86219E-05-1.78951E-07-2.40124E-20 6.25312E-19
 -1      2348 9.52805E-05-2.85233E-05-2.86100E-05-1.40719E-07 1.99294E-19 9.86243E-19
 -1      2349 9.53148E-05-2.84865E-05-2.86417E-05-2.43171E-07 1.40060E-19 7.36525E-19
 -1      2350 9.52643E-05-2.85289E-05-2.85996E-05-1.03855E-07 4.07613E-19 6.03677E-19
 -1      2351 9.52466E-05-2.85323E-05-2.85917E-05-7.71315E-08 5.36768E-19 3.76209E-19
 -1      2352 9.52767E-05-2.85071E-05-2.86163E-05-1.48097E-07 3.07279E-19 1.69768E-18
 -1      2353 9.52360E-05-2.85368E-05-2.85844E-05-5.15710E-08-4.46754E-19 3.83983E-19
 -1      2354 9.52259E-05-2.85403E-05-2.85794E-05-3.34653E-08-6.98529E-19-2.58145E-19
 -1      2355 9.52514E-05-2.85236E-05-2.85982E-05-8.09125E-08-1.62711E-20 8.27273E-19
 -1      2356 9.52194E-05-2.85439E-05-2.85746E-05-1.63233E-08 6.55270E-19-9.87221E-19
 -1      2357 9.52146E-05-2.85471E-05-2.85717E-05-4.54331E-09 8.29299E-19-7.68432E-19
 -1      2358 9.52355E-05-2.85366E-05-2.85857E-05-3.47742E-08-5.58115E-19-3.78342E-19
 -1      2359 9.52110E-05-2.85500E-05-2.85686E-05 6.45269E-09 5.43712E-19-1.11398E-18
 -1      2360 9.52097E-05-2.85529E-05-2.85671E-05 1.36853E-08 1.36365E-19-5.65825E-20
 -1      2361 9.52263E-05-2.85467E-05-2.85773E-05-4.21799E-09 4.31956E-19 1.83305E-19
 -1      2362 9.52082E-05-2.85552E-05-2.85653E-05 2.02866E-08-2.16579E-20 8.44008E-19
 -1      2363 9.52092E-05-2.85577E-05-2.85648E-05 2.43191E-08 8.55133E-19 1.53091E-18
 -1      2364 9.52219E-05-2.85544E-05-2.85720E-05 1.50287E-08 5.17942E-19 7.07369E-19
 -1      2365 9.52090E-05-2.85595E-05-2.85639E-05 2.78410E-08 4.88236E-19 1.15043E-18
 -1      2366 9.52113E-05-2.85618E-05-2.85641E-05 2.96628E-08 1.18345E-18 1.00334E-18
 -1      2367 9.52206E-05-2.85602E-05-2.85689E-05 2.62295E-08 3.16688E-19 1.27313E-18
 -1      2368 9.52120E-05-2.85632E-05-2.85637E-05 3.10600E-08 2.37441E-18 8.47989E-20
 -1      2369 9.52151E-05-2.85652E-05-2.85642E-05 3.13649E-08 2.78322E-18-7.03798E-19
 -1      2370 9.52214E-05-2.85647E-05-2.85672E-05 3.18074E-08 5.46173E-19 4.28913E-19
 -1      2371 9.52162E-05-2.85664E-05-2.85642E-05 3.12957E-08 2.44817E-18-1.33578E-18
 -1      2372 9.52196E-05-2.85682E-05-2.85649E-05 3.05335E-08 1.10750E-18-6.14461E-19
 -1      2373 9.52235E-05-2.85683E-05-2.85666E-05 3.34916E-08 1.75163E-18-1.80458E-18
 -1      2374 9.52211E-05-2.85693E-05-2.85651E-05 2.94104E-08-1.34578E-19-4.40571E-19
 -1      2375 9.52244E-05-2.85709E-05-2.85658E-05 2.78303E-08-3.24966E-19-7.80892E-19
 -1      2376 9.52263E-05-2.85712E-05-2.85665E-05 3.24432E-08 1.01378E-18-1.63537E-18
 -1      2377 9.52261E-05-2.85721E-05-2.85660E-05 2.58899E-08-5.76568E-19-5.76550E-19
 -1      2378 9.52292E-05-2.85737E-05-2.85667E-05 2.35812E-08-9.86437E-19-7.65464E-19
 -1      2379 9.52295E-05-2.85740E-05-2.85667E-05 2.93615E-08-3.96398E-19-1.16740E-18
 -1      2380 1.06643E-04-3.28382E-05-3.16613E-05-3.93546E-06 1.21963E-19 1.56551E-19
 -1      2381 1.05854E-04-3.21151E-05-3.15709E-05-4.25975E-06 1.80789E-19 2.81557E-19
 -1      2382 1.08387E-04-3.44020E-05-3.17592E-05-2.34572E-06 1.61969E-19 2.08310E-19
 -1      2383 1.07680E-04-3.36809E-05-3.16919E-05-3.31847E-06 2.06828E-20 1.74929E-19
 -1      2384 1.06503E-04-3.34823E-05-3.13215E-05-4.45314E-06 1.91585E-19 1.36074E-19
 -1      2385 1.09902E-04-3.57714E-05-3.18323E-05 6.29964E-07 5.85889E-19 2.72182E-19
 -1      2386 1.09547E-04-3.52683E-05-3.18204E-05-9.44013E-07 2.53819E-19 1.70388E-19
 -1      2387 1.08824E-04-3.56135E-05-3.13943E-05-2.43445E-06 2.73390E-19 1.59104E-19
 -1      2388 1.10610E-04-3.62969E-05-3.18984E-05 4.60719E-06 5.26186E-19 4.04900E-19
 -1      2389 1.10887E-04-3.63633E-05-3.19408E-05 2.71714E-06 5.49585E-19 5.38674E-19
 -1      2390 1.11098E-04-3.73883E-05-3.15872E-05 1.17326E-06 3.53309E-19 2.63011E-19
 -1      2391 1.09879E-04-3.51653E-05-3.20291E-05 8.46483E-06 2.09459E-19 9.72854E-19
 -1      2392 1.10961E-04-3.61495E-05-3.20925E-05 6.90153E-06 4.75569E-19 8.79222E-19
 -1      2393 1.12529E-04-3.78355E-05-3.19795E-05 5.83718E-06 2.05713E-19 8.13218E-19
 -1      2394 1.07478E-04-3.20301E-05-3.22871E-05 1.02894E-05 2.60079E-19 8.91059E-19
 -1      2395 1.09190E-04-3.39061E-05-3.23285E-05 9.95717E-06 3.02541E-19 9.18005E-19
 -1      2396 1.12160E-04-3.58923E-05-3.26403E-05 1.00461E-05 3.57063E-19 1.05736E-18
 -1      2397 1.04223E-04-2.78899E-05-3.26389E-05 8.23173E-06 2.95138E-20 3.84526E-19
 -1      2398 1.05908E-04-2.99193E-05-3.26398E-05 9.77574E-06 4.18090E-20 7.32009E-19
 -1      2399 1.09689E-04-3.14539E-05-3.35170E-05 1.13838E-05 3.37172E-19 7.65235E-19
 -1      2400 1.02028E-04-2.50954E-05-3.29271E-05 2.16645E-06 3.12489E-19 3.24256E-19
 -1      2401 1.02782E-04-2.60732E-05-3.29051E-05 5.27646E-06 1.31542E-19 1.58997E-19
 -1      2402 1.06358E-04-2.63440E-05-3.43406E-05 7.84235E-06 3.38304E-19 7.14425E-19
 -1      2403 1.02670E-04-2.57515E-05-3.29893E-05-5.29291E-06 2.68854E-19 5.77167E-19
 -1      2404 1.01971E-04-2.49610E-05-3.29638E-05-2.07050E-06 2.86138E-19 3.78048E-19
 -1      2405 1.04649E-04-2.37656E-05-3.47364E-05 6.21580E-08 1.40422E-19 6.99905E-19
 -1      2406 1.05838E-04-2.94100E-05-3.28238E-05-1.03901E-05 2.98486E-19 2.20758E-19
 -1      2407 1.04075E-04-2.74030E-05-3.27815E-05-8.56687E-06 3.40335E-19 4.53560E-19
 -1      2408 1.06121E-04-2.57756E-05-3.44888E-05-8.05108E-06 2.31584E-19 3.16243E-19
 -1      2409 1.09495E-04-3.35979E-05-3.25858E-05-1.11789E-05-9.95661E-20-8.24070E-20
 -1      2410 1.07571E-04-3.16088E-05-3.25019E-05-1.12537E-05 2.45762E-19 2.14868E-19
 -1      2411 1.09555E-04-3.07362E-05-3.37531E-05-1.23447E-05 3.31067E-19-1.89173E-19
 -1      2412 1.11771E-04-3.62343E-05-3.24054E-05-8.47161E-06 3.17717E-19-4.52542E-19
 -1      2413 1.10406E-04-3.50554E-05-3.23006E-05-9.89249E-06 5.56659E-20-1.82774E-20
 -1      2414 1.12437E-04-3.55503E-05-3.29146E-05-1.15908E-05 7.29110E-20-3.57469E-19
 -1      2415 1.12137E-04-3.68117E-05-3.22853E-05-4.26791E-06 2.55612E-19-2.57484E-19
 -1      2416 1.11599E-04-3.65695E-05-3.22072E-05-6.14748E-06 4.52216E-19-1.78625E-19
 -1      2417 1.13263E-04-3.79555E-05-3.22434E-05-7.60877E-06 3.33784E-19-3.96275E-20
 -1      2418 1.11045E-04-3.59573E-05-3.21714E-05-3.04598E-07-1.35912E-19 5.44550E-20
 -1      2419 1.11222E-04-3.63310E-05-3.21615E-05-1.98479E-06 1.49984E-19 2.04282E-19
 -1      2420 1.12132E-04-3.78950E-05-3.18098E-05-2.75764E-06-1.10190E-19 3.57882E-19
 -1      2421 1.09195E-04-3.45087E-05-3.19979E-05 2.58299E-06-4.93201E-19 3.45381E-19
 -1      2422 1.09844E-04-3.51397E-05-3.20734E-05 1.39736E-06-4.31100E-19 2.76235E-19
 -1      2423 1.09927E-04-3.63542E-05-3.15433E-05 1.31927E-06-5.13224E-19 7.51170E-19
 -1      2424 1.07114E-04-3.30354E-05-3.17392E-05 4.26781E-06-4.60475E-20 1.85298E-19
 -1      2425 1.08008E-04-3.36897E-05-3.18899E-05 3.60078E-06-1.03970E-19 4.33251E-19
 -1      2426 1.07454E-04-3.43762E-05-3.13362E-05 4.04746E-06-1.23164E-19 1.09770E-18
 -1      2427 1.05090E-04-3.17923E-05-3.14070E-05 4.96712E-06 9.84692E-19-3.97619E-19
 -1      2428 1.06066E-04-3.23629E-05-3.16080E-05 4.71468E-06 6.36671E-19-2.87366E-19
 -1      2429 1.05153E-04-3.25766E-05-3.11197E-05 5.48881E-06 5.29330E-19 8.28892E-19
 -1      2430 1.03253E-04-3.08365E-05-3.10313E-05 4.98761E-06 1.06385E-20 6.03771E-19
 -1      2431 1.04208E-04-3.12942E-05-3.12554E-05 5.01534E-06 5.18307E-19 9.36286E-20
 -1      2432 1.03179E-04-3.11788E-05-3.08693E-05 5.95119E-06 3.99601E-19 6.75584E-19
 -1      2433 1.01649E-04-3.01366E-05-3.06448E-05 4.60390E-06-7.83871E-19 3.96780E-19
 -1      2434 1.02524E-04-3.04884E-05-3.08695E-05 4.79426E-06-2.06195E-19 2.28179E-19
 -1      2435 1.01541E-04-3.01875E-05-3.05895E-05 5.77072E-06 1.31160E-19-1.30283E-19
 -1      2436 1.00283E-04-2.96368E-05-3.02741E-05 4.02043E-06-9.22198E-19-2.00199E-19
 -1      2437 1.01050E-04-2.99010E-05-3.04839E-05 4.28726E-06-1.25343E-18 2.08414E-19
 -1      2438 1.00200E-04-2.95241E-05-3.02972E-05 5.22426E-06-1.00886E-18-6.28583E-19
 -1      2439 9.91432E-05-2.92843E-05-2.99369E-05 3.37266E-06 1.40102E-19-9.38188E-19
 -1      2440 9.97928E-05-2.94799E-05-3.01230E-05 3.65983E-06-3.54447E-20-8.85665E-19
 -1      2441 9.91074E-05-2.90974E-05-3.00105E-05 4.51018E-06 7.66933E-20-1.12370E-18
 -1      2442 9.82088E-05-2.90374E-05-2.96425E-05 2.74185E-06-6.46286E-19-3.31381E-19
 -1      2443 9.87442E-05-2.91806E-05-2.98013E-05 3.01647E-06-5.08645E-19-7.29464E-19
 -1      2444 9.82208E-05-2.88314E-05-2.97438E-05 3.75718E-06-3.72551E-19-1.35750E-18
 -1      2445 9.74562E-05-2.88654E-05-2.93938E-05 2.17131E-06-7.99149E-19-3.12426E-20
 -1      2446 9.78871E-05-2.89691E-05-2.95251E-05 2.41650E-06-5.95543E-19-4.44621E-19
 -1      2447 9.75063E-05-2.86705E-05-2.95059E-05 3.04122E-06-5.75320E-19-8.25582E-19
 -1      2448 9.68605E-05-2.87468E-05-2.91896E-05 1.67971E-06-2.94750E-19 3.09011E-19
 -1      2449 9.71998E-05-2.88209E-05-2.92953E-05 1.88882E-06-7.95534E-19 2.25016E-19
 -1      2450 9.69359E-05-2.85769E-05-2.93011E-05 2.40177E-06-5.77633E-19-1.14188E-18
 -1      2451 9.63972E-05-2.86662E-05-2.90258E-05 1.27086E-06-2.67973E-20 8.84546E-19
 -1      2452 9.66589E-05-2.87181E-05-2.91090E-05 1.44326E-06 2.10235E-19 3.85108E-19
 -1      2453 9.64860E-05-2.85257E-05-2.91297E-05 1.85470E-06-3.84395E-19-9.51518E-19
 -1      2454 9.60433E-05-2.86127E-05-2.88974E-05 9.40193E-07 5.52060E-19-3.53936E-19
 -1      2455 9.62411E-05-2.86482E-05-2.89614E-05 1.07852E-06 5.20439E-19 5.49189E-19
 -1      2456 9.61360E-05-2.85009E-05-2.89898E-05 1.40157E-06 3.35161E-19-6.59003E-19
 -1      2457 9.57781E-05-2.85783E-05-2.87987E-05 6.79031E-07 1.78248E-18 2.28808E-20
 -1      2458 9.59244E-05-2.86019E-05-2.88469E-05 7.87471E-07 7.82290E-19 2.19358E-19
 -1      2459 9.58680E-05-2.84921E-05-2.88782E-05 1.03600E-06 8.41978E-19-1.39283E-18
 -1      2460 9.55834E-05-2.85575E-05-2.87244E-05 4.77151E-07-3.90093E-19 3.00421E-19
 -1      2461 9.56892E-05-2.85723E-05-2.87600E-05 5.60361E-07 1.17831E-18 6.12777E-19
 -1      2462 9.56661E-05-2.84927E-05-2.87909E-05 7.47703E-07 9.90707E-19 5.48681E-19
 -1      2463 9.54439E-05-2.85459E-05-2.86697E-05 3.24281E-07-5.87418E-19 8.10300E-19
 -1      2464 9.55183E-05-2.85546E-05-2.86953E-05 3.86817E-07-7.42190E-19 5.23340E-19
 -1      2465 9.55170E-05-2.84985E-05-2.87241E-05 5.25056E-07-6.13628E-19 2.22545E-18
 -1      2466 9.53466E-05-2.85407E-05-2.86305E-05 2.10914E-07 5.73528E-19 1.17697E-18
 -1      2467 9.53972E-05-2.85451E-05-2.86483E-05 2.56919E-07-1.80994E-19 1.20235E-18
 -1      2468 9.54093E-05-2.85069E-05-2.86739E-05 3.56560E-07-4.54290E-19 1.57662E-18
 -1      2469 9.52811E-05-2.85395E-05-2.86030E-05 1.28689E-07 3.79356E-19 3.10940E-18
 -1      2470 9.53141E-05-2.85412E-05-2.86151E-05 1.61760E-07 6.04730E-19 2.18274E-18
 -1      2471 9.53335E-05-2.85162E-05-2.86371E-05 2.31654E-07-5.18421E-20 1.67511E-18
 -1      2472 9.52391E-05-2.85410E-05-2.85845E-05 7.05147E-08-9.03592E-19 3.84989E-18
 -1      2473 9.52593E-05-2.85407E-05-2.85923E-05 9.36713E-08 4.93288E-20 3.77290E-18
 -1      2474 9.52817E-05-2.85254E-05-2.86107E-05 1.41083E-07-3.63295E-19 3.57113E-18
 -1      2475 9.52141E-05-2.85438E-05-2.85727E-05 3.05435E-08-1.51639E-19 2.85696E-18
 -1      2476 9.52252E-05-2.85425E-05-2.85773E-05 4.62536E-08-5.49054E-19 3.58294E-18
 -1      2477 9.52479E-05-2.85340E-05-2.85924E-05 7.70146E-08 1.12584E-20 3.80188E-18
 -1      2478 9.52010E-05-2.85474E-05-2.85656E-05 4.07065E-09-1.09284E-18 2.39817E-18
 -1      2479 9.52058E-05-2.85455E-05-2.85681E-05 1.43039E-08-9.38746E-20 2.60011E-18
 -1      2480 9.52272E-05-2.85415E-05-2.85801E-05 3.30003E-08 2.05980E-19 2.51676E-18
 -1      2481 9.51961E-05-2.85513E-05-2.85619E-05-1.26052E-08-4.51582E-19 2.26708E-18
 -1      2482 9.51967E-05-2.85491E-05-2.85628E-05-6.31191E-09-1.49462E-18 1.86392E-18
 -1      2483 9.52157E-05-2.85481E-05-2.85722E-05 3.85678E-09-7.03519E-19 1.55513E-18
 -1      2484 9.51965E-05-2.85551E-05-2.85605E-05-2.23272E-08-6.89925E-19 1.71297E-18
 -1      2485 9.51945E-05-2.85529E-05-2.85604E-05-1.88045E-08-5.37621E-20 1.60594E-18
 -1      2486 9.52107E-05-2.85536E-05-2.85676E-05-1.44883E-08 1.38032E-19 3.02602E-19
 -1      2487 9.52002E-05-2.85587E-05-2.85606E-05-2.72187E-08 5.82874E-19 2.73014E-18
 -1      2488 9.51967E-05-2.85566E-05-2.85599E-05-2.56042E-08-8.02112E-19 2.12530E-18
 -1      2489 9.52099E-05-2.85583E-05-2.85652E-05-2.51577E-08-1.03159E-18 1.28731E-18
 -1      2490 9.52058E-05-2.85621E-05-2.85615E-05-2.88028E-08 1.11454E-18 4.20768E-18
 -1      2491 9.52016E-05-2.85600E-05-2.85606E-05-2.84899E-08 1.40039E-18 3.73561E-18
 -1      2492 9.52119E-05-2.85621E-05-2.85643E-05-3.04764E-08-8.12738E-20 1.63628E-18
 -1      2493 9.52123E-05-2.85652E-05-2.85630E-05-2.81026E-08 1.45979E-18 3.75010E-18
 -1      2494 9.52078E-05-2.85633E-05-2.85619E-05-2.87008E-08 1.53209E-18 4.06128E-18
 -1      2495 9.52155E-05-2.85654E-05-2.85644E-05-3.21035E-08 9.85910E-19 4.22805E-18
 -1      2496 9.52189E-05-2.85681E-05-2.85646E-05-2.57297E-08 1.36881E-18 2.36139E-18
 -1      2497 9.52145E-05-2.85664E-05-2.85635E-05-2.70454E-08 1.07413E-18 3.56187E-18
 -1      2498 9.52199E-05-2.85683E-05-2.85650E-05-3.11791E-08 1.59467E-18 4.03595E-18
 -1      2499 9.52252E-05-2.85710E-05-2.85661E-05-2.19631E-08 4.69098E-19 2.74432E-18
 -1      2500 9.52212E-05-2.85693E-05-2.85652E-05-2.39269E-08 7.36865E-19 2.73602E-18
 -1      2501 9.52246E-05-2.85711E-05-2.85658E-05-2.83971E-08 9.16937E-19 3.83790E-18
 -1      2502 9.52308E-05-2.85737E-05-2.85674E-05-1.69409E-08 1.44663E-18 3.78662E-18
 -1      2503 9.52274E-05-2.85721E-05-2.85666E-05-1.94864E-08 1.01953E-18 3.08987E-18
 -1      2504 9.52293E-05-2.85739E-05-2.85666E-05-2.40011E-08 5.54363E-19 4.17278E-18
 -1      2505 9.52330E-05-2.85749E-05-2.85678E-05-1.35876E-08 1.69621E-18 3.68012E-18
 -1      2506 9.52487E-05-2.85960E-05-2.85654E-05-1.70313E-08-6.28850E-21-1.73673E-19
 -1      2507 9.52471E-05-2.85936E-05-2.85658E-05-1.89242E-08-4.63792E-19-3.42576E-18
 -1      2508 9.52510E-05-2.85994E-05-2.85649E-05-1.16856E-08 4.76738E-19 1.09923E-18
 -1      2509 9.52499E-05-2.85976E-05-2.85653E-05-1.43409E-08-3.58863E-19 1.92818E-18
 -1      2510 9.52500E-05-2.85943E-05-2.85668E-05-1.75324E-08 2.24686E-20 3.86620E-19
 -1      2511 9.52412E-05-2.85860E-05-2.85665E-05-2.17915E-08-1.88561E-18 5.28221E-19
 -1      2512 9.52387E-05-2.85827E-05-2.85669E-05-2.13090E-08-1.18924E-18 3.11116E-18
 -1      2513 9.52453E-05-2.85914E-05-2.85659E-05-2.05770E-08-1.93678E-18-3.53183E-18
 -1      2514 9.52433E-05-2.85885E-05-2.85664E-05-2.13474E-08-1.93558E-18-8.02199E-19
 -1      2515 9.52421E-05-2.85856E-05-2.85670E-05-2.42962E-08-1.47596E-18-8.23275E-19
 -1      2516 9.52464E-05-2.85904E-05-2.85669E-05-2.21695E-08-1.13528E-18-1.83212E-18
 -1      2517 9.52523E-05-2.86012E-05-2.85647E-05-5.24031E-09 4.96113E-19-2.05978E-18
 -1      2518 9.52518E-05-2.86003E-05-2.85649E-05-8.34584E-09 8.09350E-19-6.27940E-19
 -1      2519 9.52524E-05-2.85970E-05-2.85666E-05-1.11773E-08-7.19166E-19 2.39456E-19
 -1      2520 9.52526E-05-2.86016E-05-2.85647E-05 1.67419E-09-1.24953E-19-2.50384E-18
 -1      2521 9.52526E-05-2.86016E-05-2.85647E-05-1.57880E-09 1.90389E-20-2.17572E-18
 -1      2522 9.52535E-05-2.85983E-05-2.85666E-05-3.80281E-09-1.29235E-19-2.06689E-18
 -1      2523 9.52518E-05-2.86003E-05-2.85649E-05 8.43700E-09 2.01012E-19-1.48466E-18
 -1      2524 9.52523E-05-2.86012E-05-2.85647E-05 5.33479E-09 3.91306E-19-1.74855E-18
 -1      2525 9.52535E-05-2.85983E-05-2.85666E-05 3.90681E-09 1.43455E-18-1.75035E-18
 -1      2526 9.52500E-05-2.85976E-05-2.85652E-05 1.43305E-08 5.23924E-19-1.77525E-18
 -1      2527 9.52510E-05-2.85993E-05-2.85649E-05 1.17209E-08 5.31130E-19-2.12592E-18
 -1      2528 9.52524E-05-2.85970E-05-2.85666E-05 1.12188E-08 9.07252E-19-1.48257E-18
 -1      2529 9.52471E-05-2.85936E-05-2.85658E-05 1.89257E-08 2.91411E-19 1.97907E-20
 -1      2530 9.52487E-05-2.85960E-05-2.85654E-05 1.70272E-08 4.38209E-19-1.44226E-18
 -1      2531 9.52500E-05-2.85943E-05-2.85668E-05 1.75213E-08 1.35154E-18-2.33529E-18
 -1      2532 9.52433E-05-2.85885E-05-2.85664E-05 2.13652E-08-3.53975E-19-4.60770E-20
 -1      2533 9.52453E-05-2.85914E-05-2.85659E-05 2.05960E-08-4.71743E-19 1.63975E-19
 -1      2534 9.52464E-05-2.85904E-05-2.85669E-05 2.21884E-08 4.39612E-19-1.38422E-18
 -1      2535 9.52387E-05-2.85826E-05-2.85669E-05 2.11909E-08-2.22162E-18-2.13366E-18
 -1      2536 9.52411E-05-2.85858E-05-2.85665E-05 2.17999E-08-1.53904E-18-6.33298E-19
 -1      2537 9.52420E-05-2.85856E-05-2.85670E-05 2.42779E-08-4.39289E-19-1.62013E-18
 -1      2538 2.57823E-05-1.92120E-05-2.48240E-06 1.91802E-05-7.62330E-20 2.00429E-18
 -1      2539 1.95080E-05-1.80778E-05-3.42010E-07 4.96449E-06 7.88799E-21 3.53806E-18
 -1      2540 1.00161E-04-5.36829E-05-1.98827E-05 3.98931E-05-2.56016E-19-5.70636E-19
 -1      2541 8.25015E-05-4.81159E-05-1.45608E-05 4.10712E-05-7.26331E-19-2.55698E-19
 -1      2542 1.13532E-04-5.77432E-05-2.36381E-05 3.15802E-05-6.90861E-19-7.47348E-19
 -1      2543 1.05083E-04-3.14021E-05-3.15853E-05-4.14613E-06 2.01041E-19 3.02399E-19
 -1      2544 1.04440E-04-3.07572E-05-3.15301E-05-3.85081E-06 3.11384E-19 5.02400E-19
 -1      2545 1.04584E-04-3.15054E-05-3.13477E-05-4.87107E-06 3.24839E-19 2.90890E-19
 -1      2546 9.52353E-05-2.85782E-05-2.85674E-05 1.65316E-08-1.99220E-18-5.20523E-19
 -1      2547 1.94126E-05-1.83651E-05-1.76823E-07-6.73630E-06 1.69407E-19 4.00308E-18
 -1      2548 2.52374E-05-2.08285E-05-1.64631E-06-2.06492E-05-1.44631E-19 3.44615E-18
 -1      2549 2.70532E-05-1.49530E-05-4.53521E-06-8.29137E-07 1.08804E-19 4.00350E-18
 -1      2550 6.09472E-05-3.78191E-05-9.70135E-06 4.18763E-05-4.30504E-19-3.65283E-19
 -1      2551 4.28128E-05-2.83874E-05-5.73625E-06 3.35027E-05-4.08482E-19 2.05829E-19
 -1      2552 1.47510E-04-3.20675E-05-5.00488E-05-5.45680E-06 9.25172E-19-4.99538E-19
 -1      2553 1.47790E-04-3.98377E-05-4.65685E-05-1.34150E-06 5.48771E-19-5.89958E-19
 -1      2554 1.43281E-04-4.53672E-05-4.19324E-05-3.45049E-06 2.71421E-19-6.38875E-19
 -1      2555 3.89767E-05-2.93404E-05-3.91260E-06-3.24726E-05-3.01544E-19 3.13466E-18
 -1      2556 5.49198E-05-3.69085E-05-7.67964E-06-4.06024E-05-7.68471E-19 3.64986E-18
 -1      2557 1.11741E-04-5.67167E-05-2.36200E-05 3.66536E-05 3.15520E-20 1.95559E-19
 -1      2558 9.26543E-05-5.16926E-05-1.73254E-05 3.98644E-05 1.89735E-19 1.12377E-19
 -1      2559 3.96080E-05-2.63100E-05-5.44073E-06 3.31750E-05 5.18596E-19-1.58289E-18
 -1      2560 2.74817E-05-2.10089E-05-2.32390E-06 2.05131E-05 4.66398E-19-2.16756E-18
 -1      2561 1.44346E-04-2.75180E-05-5.04591E-05 6.43518E-06 1.39316E-18 6.87791E-19
 -1      2562 1.46757E-04-1.90142E-05-5.50522E-05 5.54801E-06 2.04262E-18 7.07167E-19
 -1      2563 7.86962E-05-5.20249E-06-3.15264E-05-2.19044E-07 2.14425E-19-9.45358E-19
 -1      2564 7.93255E-05-5.55283E-06-3.16323E-05-4.64458E-07 8.00434E-20-9.13274E-19
 -1      2565 8.04434E-05-7.26966E-06-3.13488E-05-4.29723E-08 9.00647E-20-8.13481E-19
 -1      2566 7.90474E-05-6.32174E-06-3.11546E-05-1.46001E-07 2.46973E-19-8.76378E-19
 -1      2567 1.45639E-04-1.25928E-05-5.73606E-05 3.05872E-06 1.89227E-18 2.03606E-19
 -1      2568 1.44980E-04-1.07681E-05-5.80155E-05-6.02166E-08 1.96554E-18 1.96670E-20
 -1      2569 9.12602E-05-5.14034E-05-1.69733E-05-4.05720E-05-1.99900E-19-1.91750E-18
 -1      2570 1.09978E-04-5.57369E-05-2.35302E-05-3.77401E-05 3.64224E-20-1.64600E-18
 -1      2571 1.44964E-04-4.77755E-05-4.17701E-05-3.12696E-06 6.22278E-19-1.08844E-19
 -1      2572 1.45633E-04-4.04804E-05-4.57577E-05 2.78247E-06 9.16701E-19-4.23516E-22
 -1      2573 1.27011E-04-5.76832E-05-2.96192E-05-2.50588E-05 1.45054E-20-7.19766E-19
 -1      2574 1.39818E-04-5.49657E-05-3.67980E-05-1.49695E-05 2.74121E-19-1.85077E-19
 -1      2575 5.31321E-05-3.63133E-05-7.00333E-06-3.92735E-05-4.04882E-19-1.86771E-18
 -1      2576 7.09906E-05-4.35135E-05-1.18612E-05-4.42039E-05-6.96685E-20-2.12658E-18
 -1      2577 2.35197E-05-2.26041E-05-2.72411E-07-1.93762E-05-4.09117E-19-1.77877E-18
 -1      2578 3.43634E-05-2.67301E-05-3.24051E-06-3.18371E-05-2.65121E-19-1.66400E-18
 -1      2579 1.77452E-05-1.79864E-05 2.03523E-07 6.16508E-06 6.22569E-20-2.12859E-18
 -1      2580 1.80278E-05-1.94594E-05 7.51674E-07-8.13163E-06-1.37113E-19-1.77072E-18
 -1      2581 2.71499E-05-1.74648E-05-3.63383E-06-1.45050E-05-1.14297E-19-1.74192E-18
 -1      2582 7.31275E-05-4.33418E-05-1.26906E-05 4.35530E-05 2.75709E-19-1.55642E-19
 -1      2583 5.73311E-05-3.63332E-05-8.66821E-06 3.94502E-05 6.02664E-19-9.04843E-19
 -1      2584 1.50621E-04-3.68948E-05-4.89217E-05 1.97216E-07-2.39657E-18 1.32984E-19
 -1      2585 1.52981E-04-2.91336E-05-5.35120E-05 4.03014E-06-2.72258E-18-2.32511E-19
 -1      2586 1.48798E-04-4.00800E-05-4.72023E-05-1.59606E-06-1.20046E-18 1.04630E-18
 -1      2587 1.46250E-04-4.72351E-05-4.25226E-05 3.17191E-06-8.77844E-19 8.08281E-19
 -1      2588 1.44784E-04-1.89878E-05-5.44983E-05-6.99012E-06-1.52889E-18 7.44118E-19
 -1      2589 1.46072E-04-2.82115E-05-5.08614E-05-7.00328E-06-1.23455E-18 8.55080E-19
 -1      2590 1.43457E-04-1.08029E-05-5.73592E-05 6.33232E-07-2.53940E-18 5.12587E-19
 -1      2591 1.42505E-04-1.17965E-05-5.65809E-05-3.37479E-06-2.03542E-18 6.39404E-19
 -1      2592 1.47805E-04-2.00807E-05-5.49834E-05 6.92817E-06-2.78991E-18 4.80691E-20
 -1      2593 1.43459E-04-1.35077E-05-5.63943E-05 5.73691E-06-2.84434E-18-1.16149E-19
 -1      2594 1.40727E-04-5.24841E-05-3.79045E-05-1.17590E-05-1.58903E-18 3.58507E-19
 -1      2595 1.49218E-04-4.61746E-05-4.42485E-05-6.50371E-06-2.01860E-18 4.34104E-20
 -1      2596 1.13020E-04-5.70460E-05-2.39418E-05-3.21691E-05-1.11427E-18 1.90042E-18
 -1      2597 1.29681E-04-5.79086E-05-3.10567E-05-2.40711E-05-1.49946E-18 1.39633E-18
 -1      2598 7.37938E-05-4.58764E-05-1.18695E-05-4.10591E-05-4.92338E-19 3.83648E-18
 -1      2599 9.31965E-05-5.17800E-05-1.79298E-05-4.14885E-05-1.15196E-18 3.09941E-18
 -1      2600 1.00101E-04-2.13242E-05-3.37936E-05-6.31130E-06-8.18260E-19 5.80615E-20
 -1      2601 1.01407E-04-2.48941E-05-3.28086E-05-2.33833E-06-7.01668E-19 1.04581E-19
 -1      2602 9.96878E-05-2.35338E-05-3.26406E-05-1.33005E-06-6.34282E-19-1.20396E-19
 -1      2603 9.68368E-05-1.83105E-05-3.36770E-05-5.61854E-06-7.88002E-19-2.01276E-19
 -1      2604 1.03602E-04-2.72828E-05-3.27203E-05 3.10692E-06 9.59344E-19 9.76758E-19
 -1      2605 1.04042E-04-2.58160E-05-3.35423E-05 6.27303E-06 1.00583E-18 1.13234E-18
 -1      2606 1.01831E-04-2.31203E-05-3.37917E-05 7.07001E-06 1.08414E-18 7.93630E-19
 -1      2607 1.02188E-04-2.60011E-05-3.26906E-05 2.42758E-06 9.22267E-19 5.92318E-19
 -1      2608 1.29838E-04-9.06609E-06-5.21336E-05-1.27455E-06 1.47871E-18 4.56313E-19
 -1      2609 1.40316E-04-1.13884E-05-5.55900E-05-3.30905E-06 1.88465E-18-3.59063E-19
 -1      2610 1.32180E-04-1.22074E-05-5.20794E-05-6.56925E-06 1.90413E-18-4.77991E-19
 -1      2611 8.72832E-05-1.21087E-05-3.22077E-05-1.06908E-06-3.34875E-19-7.88353E-19
 -1      2612 8.73239E-05-1.10462E-05-3.27560E-05-2.40926E-06-4.60025E-19-8.73582E-19
 -1      2613 8.95772E-05-1.24745E-05-3.30809E-05-3.35601E-06-5.80739E-19-7.70476E-19
 -1      2614 1.03240E-04-2.97597E-05-3.15174E-05-3.80194E-06 5.38732E-19 2.92380E-19
 -1      2615 9.89831E-05-2.03929E-05-3.37284E-05 6.42706E-06 1.09062E-18 3.67599E-19
 -1      2616 1.08520E-04-5.63869E-05-2.20073E-05-3.40911E-05-6.72121E-19 1.96332E-18
 -1      2617 1.36617E-04-5.75697E-05-3.39315E-05-1.42793E-05-8.79008E-19-2.76344E-19
 -1      2618 1.39096E-04-5.54539E-05-3.62673E-05-3.73345E-06-5.50260E-19-2.05194E-18
 -1      2619 1.30872E-04-5.96663E-05-3.03029E-05-1.67137E-05-3.28437E-19-1.20570E-18
 -1      2620 1.41038E-04-2.39894E-05-5.02902E-05 1.04056E-05-2.12626E-18-8.12516E-19
 -1      2621 1.35399E-04-5.77546E-05-3.31657E-05 1.31610E-05 2.14405E-20-1.27743E-18
 -1      2622 9.88469E-05-2.15726E-05-3.30769E-05 4.07712E-06 9.84007E-19 2.68225E-19
 -1      2623 1.33733E-04-1.17806E-05-5.26192E-05 4.47586E-06-2.36767E-18 3.98370E-19
 -1      2624 3.87869E-05-2.32085E-05-6.13676E-06-2.65083E-05 1.34996E-19 3.49189E-18
 -1      2625 1.35076E-04-1.57333E-05-5.14790E-05-7.44570E-06-1.65976E-18 1.10199E-18
 -1      2626 9.52338E-05-2.85766E-05-2.85674E-05-1.78863E-08 7.90474E-19 5.53221E-18
 -1      2627 9.52355E-05-2.85790E-05-2.85671E-05-1.96547E-08 1.91274E-19 6.31258E-18
 -1      2628 1.41683E-04-3.41016E-05-4.63410E-05-9.44464E-06-1.18500E-18 8.04470E-19
 -1      2629 5.32627E-05-2.57553E-05-1.13924E-05 3.13973E-05-8.35333E-19 1.28749E-19
 -1      2630 3.90405E-05-2.26636E-05-6.50849E-06 2.71913E-05-5.17961E-19 9.56935E-19
 -1      2631 3.73583E-05-1.66120E-05-8.37657E-06 1.94560E-05-8.42004E-19 1.59517E-18
 -1      2632 7.93813E-05-4.38547E-05-1.49006E-05 3.97658E-05-1.31460E-18-7.89911E-19
 -1      2633 1.46167E-04-4.26384E-05-4.44789E-05 4.41494E-06-1.33312E-18-1.31290E-18
 -1      2634 2.92874E-05-1.64514E-05-4.90447E-06 1.31739E-05 2.83121E-19-1.88592E-18
 -1      2635 1.44421E-04-2.67760E-05-5.06596E-05-8.69009E-06 1.83594E-18-9.21995E-19
 -1      2636 1.38653E-04-3.22975E-05-4.57923E-05-1.13116E-05 9.78535E-19-8.99867E-19
 -1      2637 1.36087E-04-2.07766E-05-5.02125E-05-1.18489E-05 2.10191E-18-1.27521E-18
 -1      2638 5.47496E-05-2.99569E-05-1.01300E-05 3.52365E-05 7.77894E-19-1.13375E-18
 -1      2639 9.41223E-05-1.62294E-05-3.34330E-05-4.53145E-06-6.94591E-19-4.22967E-19
 -1      2640 9.05167E-05-4.85787E-05-1.75438E-05 3.94129E-05 5.45066E-19 1.10405E-19
 -1      2641 4.99370E-05-3.03464E-05-7.94733E-06-3.57631E-05-4.90432E-19-1.93907E-18
 -1      2642 1.22416E-04-5.90391E-05-2.69326E-05-2.75405E-05-3.71212E-19-6.25428E-19
 -1      2643 1.40342E-04-5.38891E-05-3.69819E-05-5.20458E-06 1.63001E-19 3.53636E-20
 -1      2644 1.42095E-04-3.40917E-05-4.65553E-05 8.42462E-06 1.14720E-18 7.39672E-19
 -1      2645 1.33715E-04-2.72029E-05-4.64366E-05 1.27136E-05 1.66029E-18 1.39093E-18
 -1      2646 1.37748E-04-3.92858E-05-4.23273E-05 9.01765E-06 1.02179E-18 1.06557E-18
 -1      2647 1.23410E-04-5.97590E-05-2.72885E-05 2.63958E-05 1.32561E-19 6.34428E-19
 -1      2648 1.36074E-04-1.48892E-05-5.23054E-05 7.23712E-06 1.83552E-18 1.10813E-18
 -1      2649 7.15282E-05-4.16519E-05-1.23657E-05-4.01974E-05-4.56127E-19 3.53806E-18
 -1      2650 8.77858E-05-4.86454E-05-1.63987E-05-4.11232E-05-4.24787E-19-1.80852E-18
 -1      2651 1.42648E-04-5.29174E-05-3.84316E-05 6.00654E-06-4.38631E-19 7.86470E-19
 -1      2652 9.52326E-05-2.85757E-05-2.85673E-05 1.90987E-08-1.47018E-18-7.30731E-19
 -1      2653 9.52363E-05-2.85799E-05-2.85670E-05 2.09128E-08-1.76932E-18-1.84206E-18
 -1      2654 9.52363E-05-2.85800E-05-2.85670E-05 2.41750E-08-1.99692E-18-8.74428E-19
 -1      2655 9.52302E-05-2.85745E-05-2.85668E-05 2.18048E-08-9.55181E-19-5.77939E-19
 -1      2656 9.52353E-05-2.85791E-05-2.85670E-05-2.32600E-08-1.06658E-18 3.56261E-18
 -1      2657 9.52324E-05-2.85763E-05-2.85669E-05 2.54564E-08-1.49996E-18-1.73561E-18
 -1      2658 8.18226E-05-9.40875E-06-3.10363E-05-9.87763E-07 5.01968E-19-8.98925E-19
 -1      2659 8.05535E-05-8.56671E-06-3.08833E-05-1.06220E-06 4.28659E-19-9.25772E-19
 -1      2660 7.95657E-05-7.78955E-06-3.07699E-05-6.91983E-07 3.51451E-19-9.79408E-19
 -1      2661 7.90390E-05-7.43853E-06-3.07092E-05-5.81962E-07 3.29718E-19-9.60855E-19
 -1      2662 8.03993E-05-9.39814E-06-3.04035E-05-1.39317E-06 3.61245E-19-8.95726E-19
 -1      2663 8.98606E-05-1.53696E-05-3.19385E-05 9.78502E-08 7.77433E-19-6.27380E-19
 -1      2664 8.75770E-05-1.37130E-05-3.16910E-05-4.72336E-07 7.40893E-19-6.75946E-19
 -1      2665 9.48758E-05-1.93866E-05-3.23705E-05 1.17805E-06 8.53912E-19-3.01491E-19
 -1      2666 9.23265E-05-1.73318E-05-3.21674E-05 5.65653E-07 8.33990E-19-4.61358E-19
 -1      2667 9.19855E-05-1.81526E-05-3.16325E-05-1.16077E-06 6.95594E-19-4.85993E-19
 -1      2668 1.01068E-04-2.70280E-05-3.17387E-05-2.23012E-06 7.78281E-19 1.74492E-19
 -1      2669 1.00789E-04-2.58882E-05-3.20590E-05-4.65623E-07 7.69192E-19 2.57168E-19
 -1      2670 1.26689E-04-1.33303E-05-4.91439E-05 8.31888E-06-2.25883E-18-6.04040E-20
 -1      2671 1.25742E-04-1.04411E-05-5.00214E-05 1.06356E-06-2.02653E-18 5.04315E-19
 -1      2672 9.89793E-05-2.28723E-05-3.26238E-05 2.01782E-06 8.98788E-19 1.71114E-19
 -1      2673 1.00088E-04-2.70435E-05-3.12634E-05 5.18992E-06-3.15936E-19 6.23562E-20
 -1      2674 1.00768E-04-2.82838E-05-3.10711E-05 6.33275E-06-2.05425E-19 1.46538E-19
 -1      2675 1.01688E-04-2.96288E-05-3.08343E-05 7.36119E-06-7.72947E-20 2.47199E-19
 -1      2676 1.02758E-04-3.10881E-05-3.07254E-05 7.80630E-06-2.46831E-21 3.57948E-19
 -1      2677 9.92290E-05-2.78602E-05-3.06232E-05 7.45003E-06-1.52270E-19 6.13046E-20
 -1      2678 1.04247E-04-3.27848E-05-3.05653E-05 8.19788E-06 6.97379E-20 1.91874E-19
 -1      2679 1.05790E-04-3.46016E-05-3.05313E-05 7.83879E-06 1.14076E-19 3.31718E-19
 -1      2680 1.01594E-04-3.13300E-05-3.01715E-05 9.11742E-06-5.36522E-20 1.58704E-19
 -1      2681 1.08081E-04-3.67493E-05-3.04907E-05 7.34726E-06 1.49169E-19 4.37266E-19
 -1      2682 1.10021E-04-3.87941E-05-3.05704E-05 6.01880E-06 4.18752E-20 4.69800E-19
 -1      2683 1.05333E-04-3.57293E-05-2.99133E-05 9.35881E-06 1.08387E-19 1.73877E-19
 -1      2684 1.13130E-04-4.11345E-05-3.07632E-05 4.27975E-06-1.00472E-19 4.10336E-19
 -1      2685 1.15093E-04-4.28006E-05-3.10508E-05 1.89381E-06-1.64692E-19 3.69636E-19
 -1      2686 1.10741E-04-4.09277E-05-3.00203E-05 7.56072E-06-6.02030E-20 3.68416E-19
 -1      2687 1.18483E-04-4.44345E-05-3.16741E-05-1.36179E-06-2.72738E-20 5.74497E-19
 -1      2688 1.19674E-04-4.44512E-05-3.23075E-05-4.48701E-06-6.56120E-21 6.84624E-19
 -1      2689 1.17378E-04-4.56332E-05-3.08385E-05 2.94702E-06 8.69681E-20 4.07940E-19
 -1      2690 1.21915E-04-4.37056E-05-3.35938E-05-8.67429E-06-1.03894E-19 8.13430E-19
 -1      2691 1.21342E-04-4.06627E-05-3.46476E-05-1.12633E-05-5.99210E-19 1.13081E-18
 -1      2692 1.23356E-04-4.66901E-05-3.28774E-05-4.63615E-06 3.83150E-20 8.51936E-19
 -1      2693 1.20882E-04-3.62375E-05-3.65386E-05-1.40015E-05-7.90149E-19 1.14295E-18
 -1      2694 1.18514E-04-3.04734E-05-3.77815E-05-1.38077E-05-7.53198E-19 1.17761E-18
 -1      2695 1.25452E-04-4.07501E-05-3.63825E-05-1.21669E-05-5.41042E-19 1.39332E-18
 -1      2696 1.15921E-04-2.43080E-05-3.96307E-05-1.15979E-05-1.17126E-18 1.06982E-18
 -1      2697 1.13490E-04-1.94904E-05-4.04824E-05-7.48660E-06-1.17049E-18 8.75428E-19
 -1      2698 1.22012E-04-2.73539E-05-4.07909E-05-1.38614E-05-1.15885E-18 1.08277E-18
 -1      2699 1.14162E-04-1.63275E-05-4.22545E-05 4.01995E-07-1.38553E-18 4.37597E-19
 -1      2700 1.14792E-04-1.75962E-05-4.19975E-05 6.33556E-06-1.21046E-18 1.06021E-19
 -1      2701 1.19744E-04-3.36610E-05-3.69536E-05 1.50698E-05-1.18894E-18 4.02632E-19
 -1      2702 1.21761E-04-3.89213E-05-3.57179E-05 1.43555E-05-6.41654E-19 1.74356E-19
 -1      2703 1.21477E-04-4.24375E-05-3.39258E-05 1.08466E-05-5.20202E-19 1.52578E-19
 -1      2704 1.21517E-04-4.46116E-05-3.29830E-05 7.87632E-06-4.85659E-19 1.21794E-19
 -1      2705 1.25396E-04-4.31845E-05-3.52779E-05 1.18581E-05-9.34939E-19 4.63592E-19
 -1      2706 1.18769E-04-4.45718E-05-3.18743E-05 3.72881E-06-3.81514E-19-1.76004E-19
 -1      2707 1.17302E-04-4.40329E-05-3.13321E-05 6.38130E-07-1.39085E-19-2.26201E-19
 -1      2708 1.21939E-04-4.71273E-05-3.21067E-05 3.48013E-06-5.12165E-19 2.30499E-19
 -1      2709 1.13852E-04-4.21390E-05-3.08000E-05-2.35557E-06 7.78906E-20-4.52501E-19
 -1      2710 1.11817E-04-4.03608E-05-3.05415E-05-4.61797E-06 7.93920E-20-6.76316E-19
 -1      2711 1.15482E-04-4.48157E-05-3.03742E-05-3.59229E-06-2.00799E-19-4.98996E-19
 -1      2712 1.08862E-04-3.81258E-05-3.03528E-05-6.20165E-06 2.02204E-19-8.85012E-19
 -1      2713 1.06947E-04-3.62426E-05-3.02387E-05-7.52181E-06 2.09383E-19-8.36076E-19
 -1      2714 1.08981E-04-3.99848E-05-2.96609E-05-7.76131E-06 1.71673E-20-1.22862E-18
 -1      2715 1.04826E-04-3.43859E-05-3.02039E-05-8.10537E-06-1.33976E-19-6.40571E-19
 -1      2716 1.03284E-04-3.28693E-05-3.01384E-05-8.66840E-06-3.46677E-19-9.95623E-19
 -1      2717 1.03936E-04-3.53163E-05-2.94787E-05-9.55588E-06-1.41143E-19-1.12099E-18
 -1      2718 1.01917E-04-3.15763E-05-3.01479E-05-8.64352E-06-2.62397E-19-5.98818E-19
 -1      2719 1.00764E-04-3.05220E-05-3.00825E-05-8.69243E-06-4.49622E-20-7.66309E-19
 -1      2720 1.00506E-04-3.17726E-05-2.95018E-05-9.86063E-06-1.44452E-19-2.82151E-19
 -1      2721 9.99419E-05-2.97285E-05-3.00862E-05-8.34116E-06 4.51936E-19-4.51736E-19
 -1      2722 9.90980E-05-2.90647E-05-3.00051E-05-8.08069E-06 5.38819E-19-4.00869E-19
 -1      2723 9.83689E-05-2.94526E-05-2.95607E-05-9.33383E-06 2.90500E-19-2.20501E-19
 -1      2724 9.86244E-05-2.86345E-05-2.99869E-05-7.57578E-06 4.52690E-19-2.23310E-19
 -1      2725 9.80014E-05-2.82512E-05-2.98909E-05-7.15397E-06 7.18389E-20 4.20517E-19
 -1      2726 9.71073E-05-2.81038E-05-2.95859E-05-8.39407E-06 6.58535E-19-3.47601E-19
 -1      2727 9.77346E-05-2.80575E-05-2.98514E-05-6.59757E-06-5.21588E-19 4.84605E-19
 -1      2728 9.72647E-05-2.78577E-05-2.97475E-05-6.11356E-06-9.07654E-19 4.69372E-19
 -1      2729 9.63860E-05-2.74246E-05-2.95612E-05-7.28550E-06-2.50228E-19 3.90927E-19
 -1      2730 9.71141E-05-2.78052E-05-2.96932E-05-5.56535E-06-1.32362E-18 1.18620E-18
 -1      2731 9.67516E-05-2.77179E-05-2.95892E-05-5.08106E-06-1.07654E-18 5.32309E-19
 -1      2732 9.59783E-05-2.71662E-05-2.94939E-05-6.15138E-06-6.59646E-19 7.02701E-19
 -1      2733 9.66638E-05-2.77425E-05-2.95274E-05-4.57443E-06-3.92382E-19 1.25360E-18
 -1      2734 9.63797E-05-2.77201E-05-2.94294E-05-4.12530E-06 3.00162E-19 1.17084E-18
 -1      2735 9.57445E-05-2.71516E-05-2.93985E-05-5.07497E-06-4.71764E-19 1.98073E-18
 -1      2736 9.63250E-05-2.77817E-05-2.93662E-05-3.67692E-06 1.85664E-19 1.04905E-18
 -1      2737 9.61007E-05-2.77942E-05-2.92779E-05-3.28054E-06-2.60364E-19 6.31477E-19
 -1      2738 9.56042E-05-2.72648E-05-2.92893E-05-4.10182E-06 2.05783E-19 2.31772E-18
 -1      2739 9.60634E-05-2.78692E-05-2.92177E-05-2.89637E-06-1.52871E-19 4.83257E-19
 -1      2740 9.58865E-05-2.78986E-05-2.91409E-05-2.55886E-06 1.67522E-19 3.11338E-19
 -1      2741 9.55137E-05-2.74345E-05-2.91778E-05-3.25285E-06-2.06666E-19 1.31503E-18
 -1      2742 9.58590E-05-2.79740E-05-2.90863E-05-2.23818E-06 4.26808E-19 6.90495E-19
 -1      2743 9.57203E-05-2.80097E-05-2.90215E-05-1.95873E-06 3.50417E-19 7.21282E-19
 -1      2744 9.54504E-05-2.76191E-05-2.90715E-05-2.53288E-06 2.78067E-19 1.83971E-18
 -1      2745 9.56987E-05-2.80789E-05-2.89738E-05-1.69697E-06 8.73509E-19 7.42401E-19
 -1      2746 9.55912E-05-2.81151E-05-2.89205E-05-1.47092E-06 9.24612E-19 1.39682E-18
 -1      2747 9.54028E-05-2.77963E-05-2.89752E-05-1.93667E-06 7.09930E-19 8.86009E-19
 -1      2748 9.55737E-05-2.81753E-05-2.88800E-05-1.26147E-06 2.75668E-19 1.17467E-18
 -1      2749 9.54915E-05-2.82089E-05-2.88371E-05-1.08234E-06 2.47432E-19 7.25823E-19
 -1      2750 9.53654E-05-2.79551E-05-2.88911E-05-1.45320E-06 3.56194E-19 1.11074E-18
 -1      2751 9.54773E-05-2.82594E-05-2.88036E-05-9.17831E-07 2.53646E-19 5.39374E-19
 -1      2752 9.54155E-05-2.82891E-05-2.87697E-05-7.78560E-07-1.23788E-21 8.41028E-19
 -1      2753 9.53354E-05-2.80912E-05-2.88199E-05-1.06860E-06 2.63553E-19 5.07037E-19
 -1      2754 9.54039E-05-2.83303E-05-2.87427E-05-6.51667E-07-5.98249E-19 8.11493E-19
 -1      2755 9.53583E-05-2.83556E-05-2.87164E-05-5.45375E-07-8.18595E-19 7.53571E-19
 -1      2756 9.53113E-05-2.82044E-05-2.87609E-05-7.68180E-07-3.22835E-19 1.34468E-18
 -1      2757 9.53491E-05-2.83885E-05-2.86949E-05-4.49255E-07-1.24408E-18 9.09176E-19
 -1      2758 9.53161E-05-2.84095E-05-2.86750E-05-3.69645E-07-8.78939E-19 6.53345E-19
 -1      2759 9.52920E-05-2.82962E-05-2.87133E-05-5.37688E-07-8.45567E-19 8.62008E-19
 -1      2760 9.53088E-05-2.84352E-05-2.86583E-05-2.98200E-07-3.14721E-19 9.71300E-19
 -1      2761 9.52857E-05-2.84522E-05-2.86434E-05-2.39749E-07 3.31977E-19 1.56287E-18
 -1      2762 9.52769E-05-2.83691E-05-2.86754E-05-3.64048E-07-5.13044E-19 1.22623E-18
 -1      2763 9.52801E-05-2.84720E-05-2.86306E-05-1.87719E-07 2.73609E-19 8.15123E-19
 -1      2764 9.52643E-05-2.84855E-05-2.86198E-05-1.45735E-07-4.16117E-20 1.94311E-19
 -1      2765 9.52652E-05-2.84258E-05-2.86460E-05-2.35735E-07-3.91604E-19-2.52526E-19
 -1      2766 9.52600E-05-2.85004E-05-2.86102E-05-1.08706E-07 2.35385E-19-2.54474E-19
 -1      2767 9.52498E-05-2.85110E-05-2.86025E-05-7.93027E-08-2.50220E-19-2.87297E-19
 -1      2768 9.52564E-05-2.84692E-05-2.86235E-05-1.42895E-07-3.44490E-19-1.05495E-18
 -1      2769 9.52466E-05-2.85220E-05-2.85955E-05-5.36542E-08-1.03034E-18-2.42988E-19
 -1      2770 9.52403E-05-2.85302E-05-2.85902E-05-3.36867E-08-6.83379E-19 3.38613E-19
 -1      2771 9.52498E-05-2.85018E-05-2.86067E-05-7.73158E-08-2.81405E-19-1.32503E-18
 -1      2772 9.52381E-05-2.85381E-05-2.85852E-05-1.65113E-08 2.83673E-19 4.35339E-19
 -1      2773 9.52346E-05-2.85443E-05-2.85816E-05-3.48563E-09 3.52001E-19-6.23809E-20
 -1      2774 9.52451E-05-2.85257E-05-2.85943E-05-3.23081E-08-2.77813E-19-6.38596E-19
 -1      2775 9.52331E-05-2.85500E-05-2.85781E-05 7.50247E-09 1.78457E-19-2.24732E-19
 -1      2776 9.52316E-05-2.85546E-05-2.85759E-05 1.55201E-08 3.18476E-19-4.89535E-19
 -1      2777 9.52417E-05-2.85430E-05-2.85854E-05-2.53593E-09 8.00460E-20-1.22125E-18
 -1      2778 9.52305E-05-2.85585E-05-2.85735E-05 2.20780E-08 4.07087E-19-5.31594E-19
 -1      2779 9.52304E-05-2.85620E-05-2.85722E-05 2.65503E-08 1.06219E-19-8.88477E-19
 -1      2780 9.52395E-05-2.85552E-05-2.85791E-05 1.61658E-08 1.52947E-19-2.63042E-18
 -1      2781 9.52297E-05-2.85647E-05-2.85706E-05 2.99935E-08-2.03244E-19-2.80591E-19
 -1      2782 9.52304E-05-2.85673E-05-2.85699E-05 3.19915E-08 1.16899E-18-6.20942E-20
 -1      2783 9.52381E-05-2.85637E-05-2.85749E-05 2.69715E-08 7.78516E-19-1.96000E-18
 -1      2784 9.52301E-05-2.85691E-05-2.85689E-05 3.32711E-08 1.63515E-18-3.22103E-19
 -1      2785 9.52313E-05-2.85712E-05-2.85686E-05 3.35445E-08 1.73410E-18-8.23892E-19
 -1      2786 9.52374E-05-2.85696E-05-2.85720E-05 3.22316E-08 1.39811E-18-1.15336E-18
 -1      2787 9.52312E-05-2.85726E-05-2.85679E-05 3.33172E-08 1.78566E-18-7.55437E-19
 -1      2788 9.52327E-05-2.85743E-05-2.85679E-05 3.23515E-08 5.54105E-19-7.22750E-19
 -1      2789 9.52372E-05-2.85739E-05-2.85701E-05 3.36178E-08 1.06156E-18-6.40527E-19
 -1      2790 9.52330E-05-2.85756E-05-2.85674E-05 3.10392E-08 6.86319E-20-9.02673E-19
 -1      2791 9.52346E-05-2.85772E-05-2.85674E-05 2.90957E-08-6.46051E-19-1.43215E-18
 -1      2792 9.52375E-05-2.85772E-05-2.85687E-05 3.23072E-08 2.70227E-19-2.50844E-18
 -1      2793 1.09186E-04-3.70080E-05-3.09851E-05-3.20827E-06 3.76731E-19 2.33814E-19
 -1      2794 1.07966E-04-3.56665E-05-3.09291E-05-4.53936E-06 2.37786E-19 3.26786E-19
 -1      2795 9.52385E-05-2.85812E-05-2.85674E-05-2.72733E-08-2.12691E-18 1.81428E-18
 -1      2796 9.52344E-05-2.85776E-05-2.85672E-05-2.57657E-08-1.03021E-18 3.34131E-18
 -1      2797 9.52322E-05-2.85761E-05-2.85670E-05-2.83454E-08-3.05657E-19 2.82241E-18
 -1      2798 1.06209E-04-3.41118E-05-3.09327E-05-5.30191E-06 2.05152E-19 2.44391E-19
 -1      2799 1.05110E-04-3.27998E-05-3.09377E-05-5.80493E-06 2.65788E-19 3.45264E-19
 -1      2800 1.06283E-04-3.52369E-05-3.05046E-05-6.21148E-06 3.22500E-19 1.87996E-19
 -1      2801 1.14699E-04-4.01299E-05-3.20036E-05 5.86449E-06-6.28293E-20 1.15504E-18
 -1      2802 1.14353E-04-4.03745E-05-3.16875E-05 3.40033E-06-3.20781E-21 8.17307E-19
 -1      2803 1.14850E-04-3.72514E-05-3.32471E-05 1.06637E-05 4.94277E-19 1.11504E-18
 -1      2804 1.15615E-04-3.93524E-05-3.27442E-05 8.90107E-06 2.02653E-19 1.21300E-18
 -1      2805 1.17650E-04-4.18572E-05-3.24565E-05 6.62796E-06-3.98536E-21 9.41265E-19
 -1      2806 1.12147E-04-3.06247E-05-3.48877E-05 1.20023E-05 4.67165E-19 1.10328E-18
 -1      2807 1.13890E-04-3.42709E-05-3.42841E-05 1.23449E-05 5.33518E-19 1.20672E-18
 -1      2808 1.17763E-04-3.72961E-05-3.44598E-05 1.19962E-05 5.46641E-19 1.34080E-18
 -1      2809 1.08172E-04-2.33465E-05-3.63635E-05 7.45667E-06 4.39213E-19 8.45385E-19
 -1      2810 1.09951E-04-2.66464E-05-3.58985E-05 1.04729E-05 5.23810E-19 9.38208E-19
 -1      2811 1.14575E-04-2.89349E-05-3.68170E-05 1.23118E-05 5.93254E-19 1.08910E-18
 -1      2812 1.06941E-04-2.10780E-05-3.68763E-05-2.05633E-06 2.81043E-19 2.60350E-19
 -1      2813 1.07038E-04-2.13102E-05-3.68289E-05 2.30094E-06 2.32272E-19 2.27481E-19
 -1      2814 1.10497E-04-2.06280E-05-3.86301E-05 5.45763E-06 6.58568E-19 7.14313E-19
 -1      2815 1.09456E-04-2.55448E-05-3.61512E-05-1.07943E-05 2.94053E-19-1.25449E-19
 -1      2816 1.07812E-04-2.26092E-05-3.65396E-05-7.44885E-06 2.60330E-19 1.72722E-19
 -1      2817 1.10180E-04-2.00381E-05-3.87787E-05-5.20862E-06 3.63404E-19 1.31542E-19
 -1      2818 1.13765E-04-3.34308E-05-3.45896E-05-1.35887E-05 2.08837E-19-3.82005E-19
 -1      2819 1.11783E-04-2.96001E-05-3.51735E-05-1.30359E-05 5.40771E-19-1.66125E-19
 -1      2820 1.13983E-04-2.73380E-05-3.71945E-05-1.32656E-05 5.91785E-19-7.45693E-19
 -1      2821 1.15914E-04-3.89395E-05-3.30538E-05-1.08386E-05 2.11513E-19-4.17683E-19
 -1      2822 1.14784E-04-3.64825E-05-3.35613E-05-1.23266E-05 7.06280E-20-2.52000E-19
 -1      2823 1.17507E-04-3.60323E-05-3.49499E-05-1.36697E-05 6.86229E-20 7.26066E-20
 -1      2824 1.15098E-04-4.06461E-05-3.18964E-05-5.28438E-06-2.48005E-19 6.10459E-20
 -1      2825 1.15211E-04-4.01176E-05-3.22400E-05-7.74554E-06-9.75957E-20-2.97044E-19
 -1      2826 1.18067E-04-4.16830E-05-3.27419E-05-8.74428E-06-2.68079E-19-1.87459E-19
 -1      2827 1.12229E-04-3.92515E-05-3.12311E-05-4.21577E-08-5.86831E-19 7.54060E-19
 -1      2828 1.13160E-04-3.99872E-05-3.14228E-05-2.33885E-06-1.82959E-19 4.04898E-19
 -1      2829 1.15198E-04-4.21830E-05-3.13078E-05-2.38921E-06-4.51326E-19-2.01071E-20
 -1      2830 1.08781E-04-3.66045E-05-3.08862E-05 3.71339E-06-3.69979E-19 6.82373E-19
 -1      2831 1.10030E-04-3.78262E-05-3.09996E-05 2.06204E-06-2.39525E-19 7.34667E-19
 -1      2832 1.10943E-04-3.97570E-05-3.05540E-05 2.63844E-06-2.97350E-19 2.98450E-19
 -1      2833 1.05641E-04-3.39493E-05-3.06891E-05 5.86534E-06 9.82997E-20 7.24834E-20
 -1      2834 1.06881E-04-3.51425E-05-3.07816E-05 4.90522E-06-2.04929E-19 5.01648E-20
 -1      2835 1.06795E-04-3.63934E-05-3.02194E-05 5.78278E-06 1.10965E-19 1.19063E-19
 -1      2836 1.03115E-04-3.18215E-05-3.05310E-05 6.75398E-06 2.12213E-19 7.71832E-19
 -1      2837 1.04205E-04-3.27749E-05-3.06320E-05 6.35412E-06 6.90803E-20 2.24749E-19
 -1      2838 1.03455E-04-3.33478E-05-3.00831E-05 7.31172E-06-3.42256E-20-6.86119E-19
 -1      2839 1.01194E-04-3.03183E-05-3.03618E-05 6.78858E-06 6.65313E-19 8.70436E-19
 -1      2840 1.02103E-04-3.10001E-05-3.04791E-05 6.77753E-06 5.24288E-19 1.20391E-18
 -1      2841 1.01019E-04-3.10592E-05-3.00080E-05 7.70859E-06 1.08042E-19 4.49199E-19
 -1      2842 9.97578E-05-2.93464E-05-3.01698E-05 6.31178E-06 3.34599E-19 3.44559E-19
 -1      2843 1.00502E-04-2.97995E-05-3.02991E-05 6.53742E-06 9.42222E-19 8.31498E-19
 -1      2844 9.93276E-05-2.95333E-05-2.99277E-05 7.40017E-06 8.88297E-19 1.14583E-18
 -1      2845 9.86807E-05-2.87639E-05-2.99620E-05 5.57259E-06-6.84459E-19-6.41678E-19
 -1      2846 9.92860E-05-2.90486E-05-3.00950E-05 5.92017E-06-5.41130E-19 1.24282E-19
 -1      2847 9.81728E-05-2.86128E-05-2.98212E-05 6.69997E-06 2.08613E-19 1.57816E-18
 -1      2848 9.78622E-05-2.84429E-05-2.97511E-05 4.73712E-06 3.65528E-19-1.53417E-18
 -1      2849 9.83534E-05-2.86125E-05-2.98797E-05 5.12856E-06 1.20148E-21-1.38041E-18
 -1      2850 9.73792E-05-2.81166E-05-2.96902E-05 5.82055E-06 2.26858E-19-1.63594E-19
 -1      2851 9.72318E-05-2.82868E-05-2.95489E-05 3.90833E-06-4.72798E-19-1.13012E-18
 -1      2852 9.76287E-05-2.83818E-05-2.96671E-05 4.29499E-06-9.94660E-20-9.83152E-19
 -1      2853 9.68221E-05-2.78937E-05-2.95450E-05 4.89823E-06-1.29526E-19-5.88086E-19
 -1      2854 9.67417E-05-2.82296E-05-2.93638E-05 3.14454E-06-5.23355E-19-1.11976E-18
 -1      2855 9.70602E-05-2.82776E-05-2.94683E-05 3.49909E-06-4.21858E-19-1.04199E-18
 -1      2856 9.64200E-05-2.78347E-05-2.93970E-05 4.01540E-06-4.49007E-19-8.95711E-19
 -1      2857 9.63596E-05-2.82281E-05-2.92007E-05 2.47411E-06-6.98173E-19-8.94118E-19
 -1      2858 9.66125E-05-2.82477E-05-2.92901E-05 2.78363E-06-6.39712E-19-6.84242E-19
 -1      2859 9.61220E-05-2.78665E-05-2.92551E-05 3.21730E-06-9.86881E-19-9.67428E-19
 -1      2860 9.60624E-05-2.82555E-05-2.90614E-05 1.90624E-06 3.38600E-19-1.13105E-18
 -1      2861 9.62607E-05-2.82585E-05-2.91358E-05 2.16692E-06-2.01434E-19-9.12435E-19
 -1      2862 9.58969E-05-2.79429E-05-2.91255E-05 2.52445E-06 2.05224E-20-2.95786E-19
 -1      2863 9.58329E-05-2.82959E-05-2.89455E-05 1.43864E-06 3.91331E-19-8.66583E-19
 -1      2864 9.59862E-05-2.82898E-05-2.90059E-05 1.65204E-06 5.53158E-19-6.76417E-19
 -1      2865 9.57249E-05-2.80362E-05-2.90116E-05 1.94142E-06 4.22455E-19-2.31473E-19
 -1      2866 9.56576E-05-2.83398E-05-2.88513E-05 1.06268E-06 7.37013E-19-4.25723E-19
 -1      2867 9.57742E-05-2.83292E-05-2.88994E-05 1.23323E-06 4.80565E-19-4.85508E-19
 -1      2868 9.55930E-05-2.81306E-05-2.89143E-05 1.46327E-06 4.68424E-19 1.22140E-19
 -1      2869 9.55256E-05-2.83821E-05-2.87764E-05 7.66756E-07 4.17795E-19 1.01168E-18
 -1      2870 9.56127E-05-2.83698E-05-2.88138E-05 9.00180E-07 1.04859E-18 3.02365E-19
 -1      2871 9.54922E-05-2.82179E-05-2.88335E-05 1.07977E-06 3.67073E-19 8.24764E-20
 -1      2872 9.54278E-05-2.84202E-05-2.87180E-05 5.38450E-07-8.09604E-19 5.76527E-19
 -1      2873 9.54916E-05-2.84078E-05-2.87466E-05 6.40734E-07-3.37492E-19 6.20222E-19
 -1      2874 9.54159E-05-2.82942E-05-2.87678E-05 7.78411E-07 1.00243E-19-8.62670E-20
 -1      2875 9.53568E-05-2.84531E-05-2.86733E-05 3.65743E-07-2.55828E-19 8.58678E-19
 -1      2876 9.54024E-05-2.84416E-05-2.86947E-05 4.42596E-07-4.73092E-19 8.29526E-19
 -1      2877 9.53588E-05-2.83586E-05-2.87155E-05 5.46157E-07-8.51866E-19 1.13575E-20
 -1      2878 9.53065E-05-2.84806E-05-2.86399E-05 2.37717E-07-4.84700E-19 1.05147E-18
 -1      2879 9.53382E-05-2.84704E-05-2.86555E-05 2.94268E-07-1.03147E-19 1.03437E-18
 -1      2880 9.53168E-05-2.84113E-05-2.86747E-05 3.70593E-07-2.36160E-19 5.65748E-19
 -1      2881 9.52719E-05-2.85031E-05-2.86153E-05 1.44857E-07-7.48651E-19 1.71185E-18
 -1      2882 9.52932E-05-2.84943E-05-2.86265E-05 1.85534E-07-1.11530E-18 1.28006E-18
 -1      2883 9.52865E-05-2.84534E-05-2.86435E-05 2.40520E-07-9.82807E-19 3.01289E-20
 -1      2884 9.52490E-05-2.85210E-05-2.85978E-05 7.91330E-08 5.64341E-19 1.42632E-18
 -1      2885 9.52626E-05-2.85137E-05-2.86055E-05 1.07643E-07 4.77042E-19 1.81836E-18
 -1      2886 9.52652E-05-2.84864E-05-2.86201E-05 1.46215E-07-5.91756E-19-4.10500E-19
 -1      2887 9.52347E-05-2.85350E-05-2.85856E-05 3.39451E-08 6.97655E-19 1.00532E-18
 -1      2888 9.52427E-05-2.85291E-05-2.85907E-05 5.33100E-08 4.88312E-19 1.67225E-18
 -1      2889 9.52507E-05-2.85117E-05-2.86029E-05 7.94938E-08 5.25492E-19-4.33391E-19
 -1      2890 9.52265E-05-2.85458E-05-2.85774E-05 3.99317E-09-3.30709E-19 5.69479E-19
 -1      2891 9.52306E-05-2.85410E-05-2.85807E-05 1.66230E-08 5.05615E-19 1.74213E-18
 -1      2892 9.52412E-05-2.85307E-05-2.85906E-05 3.36396E-08-2.38744E-19 1.05935E-18
 -1      2893 9.52226E-05-2.85540E-05-2.85722E-05-1.48830E-08 2.22479E-19 1.40419E-18
 -1      2894 9.52241E-05-2.85502E-05-2.85741E-05-7.11178E-09-2.69170E-20 6.13499E-19
 -1      2895 9.52354E-05-2.85447E-05-2.85820E-05 3.26621E-09-1.59886E-19 2.02500E-18
 -1      2896 9.52216E-05-2.85602E-05-2.85691E-05-2.58701E-08-2.09129E-19 5.49579E-19
 -1      2897 9.52213E-05-2.85572E-05-2.85701E-05-2.15335E-08 2.53454E-19 8.54108E-19
 -1      2898 9.52322E-05-2.85549E-05-2.85762E-05-1.58485E-08 3.19101E-19 1.75453E-18
 -1      2899 9.52225E-05-2.85649E-05-2.85675E-05-3.13375E-08-5.21352E-19-1.71208E-19
 -1      2900 9.52211E-05-2.85625E-05-2.85678E-05-2.93907E-08-9.70907E-19-9.34634E-19
 -1      2901 9.52308E-05-2.85623E-05-2.85724E-05-2.69336E-08 3.05247E-19-9.61724E-19
 -1      2902 9.52246E-05-2.85686E-05-2.85668E-05-3.29776E-08 9.17597E-19 1.11299E-18
 -1      2903 9.52226E-05-2.85666E-05-2.85668E-05-3.26926E-08 8.06954E-20 3.66290E-19
 -1      2904 9.52307E-05-2.85675E-05-2.85700E-05-3.23908E-08-3.21558E-19-2.07729E-18
 -1      2905 9.52273E-05-2.85716E-05-2.85667E-05-3.18482E-08 7.73645E-19 2.13599E-18
 -1      2906 9.52251E-05-2.85699E-05-2.85665E-05-3.27879E-08 9.99213E-19 1.63660E-18
 -1      2907 9.52316E-05-2.85714E-05-2.85687E-05-3.39979E-08 1.13610E-19-1.12921E-18
 -1      2908 9.52309E-05-2.85745E-05-2.85671E-05-2.94589E-08 7.01880E-19 2.16744E-18
 -1      2909 9.52287E-05-2.85730E-05-2.85668E-05-3.12619E-08 3.81189E-19 1.61076E-18
 -1      2910 9.52340E-05-2.85748E-05-2.85682E-05-3.32116E-08-1.69367E-19-5.45648E-19
 -1      2911 9.52369E-05-2.85781E-05-2.85680E-05-3.11348E-08-1.07594E-18 1.53200E-18
 -1      2912 9.52555E-05-2.85958E-05-2.85684E-05-2.09426E-09 9.78165E-19-1.61977E-18
 -1      2913 9.52552E-05-2.85955E-05-2.85684E-05-5.99880E-09 5.16726E-19-1.35366E-18
 -1      2914 9.52347E-05-2.85780E-05-2.85672E-05 2.76519E-08-1.03618E-18-1.42863E-18
 -1      2915 9.52358E-05-2.85791E-05-2.85672E-05 2.58896E-08-9.81627E-19-5.77661E-19
 -1      2916 9.52381E-05-2.85798E-05-2.85679E-05 2.96420E-08-9.57715E-19-2.77288E-18
 -1      2917 9.52522E-05-2.85929E-05-2.85682E-05-1.72987E-08-2.37258E-19-1.89069E-20
 -1      2918 9.52505E-05-2.85913E-05-2.85682E-05-2.01710E-08 3.26614E-19-9.81303E-19
 -1      2919 9.52552E-05-2.85954E-05-2.85684E-05 6.10358E-09 1.58207E-18-1.16698E-18
 -1      2920 9.52555E-05-2.85958E-05-2.85684E-05 2.20080E-09 1.54731E-18-1.70734E-18
 -1      2921 9.52572E-05-2.85932E-05-2.85703E-05 5.49098E-11 1.27300E-18-1.13396E-18
 -1      2922 9.52545E-05-2.85949E-05-2.85684E-05-1.01243E-08-9.03039E-19-2.97105E-19
 -1      2923 9.52535E-05-2.85939E-05-2.85684E-05-1.36869E-08-6.67208E-19 7.82149E-19
 -1      2924 9.52542E-05-2.85911E-05-2.85699E-05-1.64705E-08-4.01836E-19 1.48828E-20
 -1      2925 9.52565E-05-2.85927E-05-2.85702E-05-8.55291E-09 5.64769E-19-5.04513E-20
 -1      2926 1.18660E-04-5.84107E-05-2.61414E-05 2.56340E-05-8.17599E-19-1.12875E-18
 -1      2927 1.07823E-04-5.45640E-05-2.24319E-05 3.13045E-05-7.64606E-19-1.00632E-18
 -1      2928 9.52535E-05-2.85940E-05-2.85684E-05 1.36661E-08 1.04818E-18-2.03465E-18
 -1      2929 9.52545E-05-2.85950E-05-2.85684E-05 1.01628E-08 9.09983E-19-8.40811E-19
 -1      2930 9.52565E-05-2.85927E-05-2.85702E-05 8.59089E-09 1.44439E-18-1.45345E-18
 -1      2931 9.52505E-05-2.85913E-05-2.85682E-05 2.01680E-08 1.41050E-18-2.85614E-18
 -1      2932 9.52522E-05-2.85929E-05-2.85682E-05 1.72852E-08 1.68383E-18-2.48856E-18
 -1      2933 9.52542E-05-2.85912E-05-2.85699E-05 1.64501E-08 8.19596E-19-1.45961E-18
 -1      2934 9.52460E-05-2.85875E-05-2.85680E-05 2.48651E-08 1.02630E-18-1.72189E-18
 -1      2935 9.52485E-05-2.85898E-05-2.85680E-05 2.28913E-08 1.64039E-18-1.42954E-18
 -1      2936 9.52504E-05-2.85885E-05-2.85694E-05 2.29624E-08 2.17497E-18-2.14893E-18
 -1      2937 9.10975E-05-4.72906E-05-1.87018E-05 3.74738E-05-1.01189E-18-2.82803E-19
 -1      2938 7.21334E-05-3.64690E-05-1.47924E-05 3.66585E-05-8.67044E-19-6.98379E-19
 -1      2939 9.97406E-05-4.88706E-05-2.15435E-05 3.14021E-05-7.63706E-19-6.03882E-19
 -1      2940 1.03859E-04-3.14802E-05-3.10381E-05-5.70946E-06 1.55044E-19 3.67316E-19
 -1      2941 1.03025E-04-3.03373E-05-3.11031E-05-5.45093E-06 2.63955E-19 3.37237E-19
 -1      2942 1.03256E-04-3.18465E-05-3.06473E-05-6.65601E-06 2.34186E-19 1.87131E-19
 -1      2943 3.20717E-05-1.23689E-05-7.84554E-06 4.81127E-06-3.75434E-19 3.34493E-18
 -1      2944 3.23665E-05-1.29782E-05-7.73339E-06-7.80378E-06-9.10560E-21 4.08439E-18
 -1      2945 1.40593E-04-4.62133E-05-4.07438E-05 5.90755E-06-9.16437E-19-1.52392E-18
 -1      2946 1.40994E-04-3.79366E-05-4.47340E-05 1.01621E-05-1.38860E-18-1.51841E-18
 -1      2947 1.38091E-04-4.21430E-05-4.16677E-05-8.61712E-06 2.74597E-19-5.56183E-19
 -1      2948 1.38596E-04-4.86269E-05-3.87375E-05-4.41953E-06 1.16626E-19-7.77259E-19
 -1      2949 1.24483E-04-1.43735E-05-4.78049E-05-6.56796E-06-1.64928E-18 7.96132E-19
 -1      2950 1.26892E-04-2.09014E-05-4.59444E-05-1.26536E-05-1.53048E-18 8.03411E-19
 -1      2951 9.39946E-05-1.74070E-05-3.28251E-05-2.59727E-06-6.40679E-19-4.36007E-19
 -1      2952 1.12344E-04-3.94761E-05-3.12880E-05 6.71940E-07 1.79720E-19 4.77017E-19
 -1      2953 1.11320E-04-3.85539E-05-3.11330E-05-1.43106E-06 3.34184E-19 4.48178E-19
 -1      2954 1.10228E-04-3.88841E-05-3.06325E-05-3.86826E-06 3.01583E-19 5.01362E-19
 -1      2955 1.14490E-04-4.16710E-05-3.12152E-05 6.08098E-07 2.69065E-20 1.08162E-18
 -1      2956 9.89468E-05-2.44405E-05-3.19045E-05 1.83600E-06-4.09241E-19-1.91865E-19
 -1      2957 9.94262E-05-2.57597E-05-3.15807E-05 3.64590E-06-3.25866E-19-5.58649E-20
 -1      2958 9.76864E-05-2.48784E-05-3.12231E-05 4.69962E-06-2.41995E-19-1.06791E-19
 -1      2959 1.02198E-04-2.92133E-05-3.12882E-05-4.64011E-06 4.81139E-19 2.46243E-19
 -1      2960 1.01659E-04-2.81711E-05-3.14456E-05-3.65610E-06 6.26676E-19 2.04980E-19
 -1      2961 9.97189E-05-2.62480E-05-3.14978E-05-3.13430E-06 7.26369E-19 2.08493E-20
 -1      2962 1.01152E-04-2.89286E-05-3.09788E-05-5.54921E-06 3.68149E-19 1.39024E-19
 -1      2963 1.00640E-04-5.29196E-05-2.00499E-05-3.52716E-05-2.73062E-19 1.89795E-18
 -1      2964 1.16570E-04-5.82043E-05-2.51560E-05-2.78464E-05-1.35737E-19 1.88782E-19
 -1      2965 1.00354E-04-5.09144E-05-2.12149E-05 3.50048E-05 4.51257E-19 1.98947E-19
 -1      2966 8.40161E-05-4.25859E-05-1.72796E-05 3.74332E-05 7.59047E-19-2.09747E-19
 -1      2967 8.53947E-05-1.20110E-05-3.14533E-05-7.23417E-07 7.03345E-19-7.75970E-19
 -1      2968 8.35127E-05-1.07249E-05-3.12307E-05-1.05943E-06 5.72514E-19-8.32839E-19
 -1      2969 8.32183E-05-1.14997E-05-3.07188E-05-1.92056E-06 4.88338E-19-8.10593E-19
 -1      2970 8.72462E-05-1.45123E-05-3.11593E-05-1.80258E-06 6.36968E-19-6.73519E-19
 -1      2971 8.27773E-05-1.00882E-05-3.11856E-05 7.99335E-07-4.95539E-20-8.84564E-19
 -1      2972 8.46092E-05-1.13397E-05-3.14089E-05 5.91741E-07-1.79248E-19-8.55207E-19
 -1      2973 1.35145E-04-5.64096E-05-3.35757E-05-6.16569E-06-4.99908E-19 3.95670E-19
 -1      2974 1.36954E-04-5.02489E-05-3.76661E-05 2.56374E-06 2.05300E-19 6.26063E-19
 -1      2975 1.31752E-04-6.00255E-05-3.09967E-05 1.78875E-05 2.84815E-20 4.60998E-19
 -1      2976 1.18280E-04-5.80594E-05-2.56020E-05 2.69286E-05 1.83700E-19 6.32125E-19
 -1      2977 6.80801E-05-3.39908E-05-1.44007E-05 3.74985E-05 7.90493E-19-3.67189E-19
 -1      2978 5.27752E-05-2.41270E-05-1.17500E-05 3.03634E-05 7.26648E-19-1.24080E-18
 -1      2979 8.09756E-05-3.75879E-05-1.81656E-05 3.39951E-05 6.55127E-19-2.88362E-19
 -1      2980 1.29269E-04-1.70643E-05-4.85194E-05 1.04053E-05 1.79931E-18 1.38342E-18
 -1      2981 1.28418E-04-1.23861E-05-5.04915E-05 5.23476E-06 1.52191E-18 8.03120E-19
 -1      2982 1.39985E-04-5.02406E-05-3.91131E-05-2.94913E-06-4.58695E-19 9.90605E-19
 -1      2983 1.37818E-04-5.62869E-05-3.48502E-05 6.62901E-06 1.44128E-20 6.39298E-19
 -1      2984 1.33379E-04-5.75208E-05-3.24760E-05 8.18901E-06-8.25857E-20 5.12561E-19
 -1      2985 1.14740E-04-5.70603E-05-2.42581E-05-2.97729E-05-5.98746E-19-4.25211E-19
 -1      2986 1.26818E-04-5.93708E-05-2.93672E-05-1.97956E-05-5.57189E-19 1.65383E-19
 -1      2987 2.88190E-05-1.33369E-05-6.17576E-06-7.98220E-06 7.41816E-20-1.57230E-18
 -1      2988 3.41202E-05-1.67192E-05-7.08226E-06-2.05888E-05-4.78044E-20-1.59242E-18
 -1      2989 4.59640E-05-2.35187E-05-9.00844E-06-3.03793E-05-3.38390E-19-1.60280E-18
 -1      2990 6.21871E-05-3.33082E-05-1.22771E-05-3.89986E-05-5.82335E-19-1.91218E-18
 -1      2991 1.36780E-04-5.55248E-05-3.53155E-05 4.09398E-06-9.04340E-20-1.02195E-18
 -1      2992 1.29548E-04-5.86496E-05-3.01995E-05 1.42761E-05-6.43851E-19-1.07012E-18
 -1      2993 6.77462E-05-3.65292E-05-1.28798E-05-3.78606E-05 3.19755E-20 3.36367E-18
 -1      2994 8.48382E-05-4.60764E-05-1.65662E-05-3.98602E-05 1.00585E-20 2.65810E-18
 -1      2995 9.67268E-05-4.89700E-05-2.00245E-05-3.39938E-05 2.41404E-19 1.65013E-18
 -1      2996 9.52386E-05-2.85817E-05-2.85673E-05 2.64339E-08-1.13599E-18-1.91760E-18
 -1      2997 1.34074E-04-2.94554E-05-4.55049E-05-1.30625E-05-1.37516E-18 7.03567E-19
 -1      2998 1.38843E-04-4.01055E-05-4.24895E-05-1.06191E-05-1.00437E-18 8.22998E-19
 -1      2999 3.73120E-05-1.73995E-05-8.02321E-06-2.00552E-05 4.50780E-19 3.90694E-18
 -1      3000 5.00912E-05-2.60081E-05-1.00143E-05-3.26846E-05 1.24514E-19 3.63059E-18
 -1      3001 3.79899E-05-1.59787E-05-9.05548E-06 1.94596E-05 5.92658E-19-1.57019E-18
 -1      3002 3.01349E-05-1.28762E-05-6.75453E-06 5.25961E-06 2.62514E-19-1.72117E-18
 -1      3003 3.68408E-05-1.24290E-05-9.78545E-06-6.54914E-07 2.47453E-19-1.60555E-18
 -1      3004 1.36958E-04-2.89862E-05-4.65872E-05 1.34313E-05-1.51640E-18-1.05244E-18
 -1      3005 1.30174E-04-2.06076E-05-4.77714E-05 1.31310E-05-1.65341E-18-4.70580E-19
 -1      3006 1.33207E-04-3.38988E-05-4.28559E-05 1.41503E-05-1.00977E-18-1.07965E-18
 -1      3007 8.16109E-05-4.34614E-05-1.57780E-05-3.98382E-05-6.14205E-19-1.88518E-18
 -1      3008 9.86488E-05-5.18403E-05-2.02109E-05-3.81809E-05-5.47183E-19-1.26121E-18
 -1      3009 8.67866E-05-1.30104E-05-3.16543E-05 4.96155E-07-2.17879E-19-7.62864E-19
 -1      3010 8.90925E-05-1.46669E-05-3.19136E-05 3.71330E-08-3.15410E-19-6.96513E-19
 -1      3011 8.63508E-05-1.37183E-05-3.11119E-05 1.72742E-06-1.53047E-19-7.32281E-19
 -1      3012 7.92331E-05-8.51642E-06-3.02788E-05-3.84242E-07 3.31054E-19-8.83591E-19
 -1      3013 7.89266E-05-7.33640E-06-3.07013E-05-5.90753E-08 2.84779E-19-8.72932E-19
 -1      3014 7.92552E-05-7.54243E-06-3.07480E-05 8.66866E-08 2.18673E-19-8.05814E-19
 -1      3015 9.52417E-05-2.85844E-05-2.85674E-05 2.59889E-08 2.53695E-19-2.32884E-18
 -1      3016 1.19412E-04-1.53953E-05-4.49454E-05-3.74689E-06-1.57908E-18 5.15552E-19
 -1      3017 9.72701E-05-2.18348E-05-3.23474E-05 8.25875E-07 8.58169E-19-9.07086E-20
 -1      3018 1.23895E-04-1.15930E-05-4.86991E-05 2.10809E-06 1.32667E-18 5.45304E-19
 -1      3019 1.24770E-04-5.95077E-05-2.77945E-05-2.05700E-05-6.56768E-19-1.33323E-18
 -1      3020 1.28922E-04-5.87094E-05-3.03256E-05-1.17549E-05-3.21661E-19-2.23326E-18
 -1      3021 1.16962E-04-5.65165E-05-2.57297E-05-2.35105E-05-1.62366E-19-6.81984E-19
 -1      3022 9.52504E-05-2.85885E-05-2.85694E-05-2.29254E-08-7.40104E-19-4.75425E-19
 -1      3023 9.52485E-05-2.85898E-05-2.85680E-05-2.28951E-08-4.52597E-19-1.55585E-18
 -1      3024 9.52460E-05-2.85875E-05-2.85680E-05-2.47949E-08-1.21770E-18-1.13567E-18
 -1      3025 1.14776E-04-2.20752E-05-3.98481E-05 1.11504E-05-8.59209E-19-5.23261E-19
 -1      3026 1.17469E-04-2.74810E-05-3.89155E-05 1.45676E-05-1.05831E-18-2.94079E-19
 -1      3027 5.01545E-05-1.99873E-05-1.23085E-05 2.50822E-05 5.82494E-19-1.46007E-18
 -1      3028 4.86668E-05-1.59296E-05-1.36140E-05 1.83506E-05 4.64703E-19-1.34985E-18
 -1      3029 6.15889E-05-2.40352E-05-1.60121E-05 2.79142E-05 6.58250E-19-8.74879E-19
 -1      3030 4.26247E-05-1.54801E-05-1.10009E-05-1.41751E-05 4.15231E-19 3.86798E-18
 -1      3031 6.48552E-05-3.08971E-05-1.39697E-05-3.29259E-05 5.12667E-19 3.50598E-18
 -1      3032 1.35790E-04-4.54474E-05-3.89311E-05-8.19745E-06-4.35163E-19 7.06214E-19
 -1      3033 1.24620E-04-5.72949E-05-2.86869E-05 1.56280E-05-1.01898E-18-1.34514E-18
 -1      3034 9.52417E-05-2.85839E-05-2.85676E-05-2.66937E-08-1.51002E-18-2.43974E-19
 -1      3035 1.34741E-04-5.21854E-05-3.55073E-05-2.25189E-06-2.13011E-19-1.09918E-18
 -1      3036 6.55471E-05-3.07326E-05-1.44935E-05 3.37716E-05-3.45219E-19-9.42218E-19
 -1      3037 5.90908E-05-2.40543E-05-1.47369E-05 2.79910E-05-4.12717E-19-1.08526E-19
 -1      3038 7.71460E-05-3.44774E-05-1.79890E-05 3.16584E-05-5.46230E-19-9.02937E-19
 -1      3039 9.52435E-05-2.85840E-05-2.85683E-05 2.73290E-08 5.40503E-19-2.46482E-18
 -1      3040 4.71329E-05-1.97475E-05-1.10711E-05-2.46918E-05-1.46325E-19-1.50010E-18
 -1      3041 9.68135E-05-2.25305E-05-3.18360E-05-1.14622E-06 8.64864E-19-2.63922E-19
 -1      3042 1.24501E-04-1.84838E-05-4.58525E-05 1.08722E-05-1.66590E-18-2.52628E-19
 -1      3043 1.31214E-04-1.72609E-05-4.93400E-05-1.04714E-05 1.87618E-18-7.10819E-19
 -1      3044 1.28248E-04-2.24863E-05-4.57146E-05-1.30907E-05 1.48104E-18-6.21828E-19
 -1      3045 1.23929E-04-1.40664E-05-4.75069E-05-9.18285E-06 1.31629E-18-3.55119E-19
 -1      3046 4.20168E-05-1.50894E-05-1.09617E-05 1.23321E-05-9.73082E-19 1.82536E-18
 -1      3047 1.28702E-04-5.66901E-05-3.08116E-05-1.10116E-05-4.74286E-19 3.61524E-19
 -1      3048 1.07853E-04-5.31063E-05-2.31940E-05-3.08578E-05-5.76194E-19-5.99024E-19
 -1      3049 1.26013E-04-2.71974E-05-4.26378E-05-1.30375E-05-1.45245E-18 9.25701E-19
 -1      3050 9.21634E-05-1.70997E-05-3.21904E-05-3.17839E-07-4.35674E-19-5.30871E-19
 -1      3051 9.66834E-05-2.08857E-05-3.24976E-05-1.06509E-06-6.82960E-19-2.54649E-19
 -1      3052 9.77681E-05-2.29209E-05-3.20737E-05 9.13545E-07-5.81811E-19-2.48606E-19
 -1      3053 9.17011E-05-1.78391E-05-3.16393E-05 1.39463E-06-2.82872E-19-4.80479E-19
 -1      3054 1.35248E-04-3.66834E-05-4.25445E-05-1.23180E-05 4.79738E-19-7.31731E-19
 -1      3055 1.31812E-04-4.00284E-05-3.94189E-05-1.19202E-05 2.71580E-20-6.69632E-19
 -1      3056 1.30211E-04-3.06448E-05-4.31459E-05-1.47741E-05 1.11025E-18-1.09675E-18
 -1      3057 1.39195E-04-5.19811E-05-3.76318E-05 2.73938E-06-5.75016E-19-1.63975E-18
 -1      3058 1.35435E-04-4.67913E-05-3.82604E-05 9.24212E-06-6.49568E-19-2.10440E-18
 -1      3059 1.34634E-04-5.48077E-05-3.42227E-05-1.21445E-06-2.30201E-19-2.05228E-18
 -1      3060 1.35455E-04-4.52615E-05-3.88118E-05 8.29430E-06 5.38078E-19 1.17875E-18
 -1      3061 1.29787E-04-3.87414E-05-3.96418E-05 1.24609E-05 8.60585E-19 1.66775E-18
 -1      3062 1.31089E-04-4.83042E-05-3.55088E-05 5.62319E-06 3.22250E-19 1.22706E-18
 -1      3063 1.23368E-04-3.16086E-05-3.95217E-05 1.54660E-05-7.57459E-19-5.27278E-20
 -1      3064 8.00411E-05-8.13020E-06-3.08481E-05 5.54142E-07 1.94707E-19-6.51261E-19
 -1      3065 8.11938E-05-8.89152E-06-3.09954E-05 5.79814E-07 2.04442E-20-6.91028E-19
 -1      3066 8.24170E-05-1.08202E-05-3.06670E-05 1.51667E-06 1.26178E-20-6.71268E-19
 -1      3067 7.99189E-05-9.00249E-06-3.03708E-05 7.26372E-07 2.19371E-19-7.00503E-19
 -1      3068 1.11858E-04-5.49269E-05-2.41413E-05 2.86326E-05 3.28966E-19 5.52047E-19
 -1      3069 1.04830E-04-4.95168E-05-2.35027E-05 2.88721E-05 4.53639E-19 4.18805E-19
 -1      3070 1.19923E-04-5.65376E-05-2.74205E-05 2.05949E-05 9.58471E-20 5.64210E-19
 -1      3071 1.28092E-04-2.33654E-05-4.52599E-05 1.18935E-05 1.66103E-18 1.37982E-18
 -1      3072 7.61956E-05-3.74014E-05-1.61132E-05-3.66215E-05-6.85673E-19-1.78967E-18
 -1      3073 9.58859E-05-2.18494E-05-3.17399E-05 2.05443E-06-4.01391E-19-1.86102E-19
 -1      3074 1.18323E-04-1.31021E-05-4.54492E-05 4.09084E-06 1.15493E-18 6.48437E-19
 -1      3075 1.20328E-04-1.20691E-05-4.70448E-05-2.95875E-06 1.10623E-18 1.71326E-19
 -1      3076 9.39158E-05-2.07341E-05-3.13609E-05-2.46173E-06 6.50890E-19-4.61425E-19
 -1      3077 9.14078E-05-1.88042E-05-3.11297E-05-2.82888E-06 5.76632E-19-5.50572E-19
 -1      3078 9.84518E-05-2.89341E-05-2.97494E-05 9.83647E-06-1.91182E-19 1.24984E-19
 -1      3079 9.99846E-05-3.10380E-05-2.95342E-05 1.05044E-05-1.40247E-19-8.24606E-20
 -1      3080 1.01845E-04-3.34223E-05-2.92501E-05 1.13751E-05-5.28610E-20 1.38519E-19
 -1      3081 1.04208E-04-3.61550E-05-2.91554E-05 1.13092E-05-3.43445E-21 5.76661E-20
 -1      3082 9.81023E-05-3.11657E-05-2.87637E-05 1.24050E-05-1.95364E-20-8.89616E-20
 -1      3083 1.07335E-04-3.92604E-05-2.90514E-05 1.13783E-05 5.51399E-21 2.40116E-19
 -1      3084 1.10567E-04-4.24329E-05-2.92082E-05 1.02350E-05-5.37601E-20 2.21398E-19
 -1      3085 1.02908E-04-3.72215E-05-2.82816E-05 1.39225E-05 3.67434E-20 5.94180E-20
 -1      3086 1.15250E-04-4.59257E-05-2.95353E-05 8.72159E-06 1.85642E-19 3.45057E-19
 -1      3087 1.18765E-04-4.85107E-05-3.01611E-05 6.08006E-06 2.36309E-19 4.72357E-19
 -1      3088 1.10638E-04-4.47395E-05-2.84146E-05 1.33564E-05 1.31601E-19 3.37364E-19
 -1      3089 1.28743E-04-3.56815E-05-4.02022E-05-1.45737E-05-9.19348E-19 1.24646E-18
 -1      3090 9.51073E-05-2.24033E-05-3.11402E-05 4.10537E-06-2.97679E-19-1.00018E-19
 -1      3091 9.57755E-05-2.39440E-05-3.07842E-05 5.75051E-06-2.41179E-19-1.21277E-19
 -1      3092 1.24685E-04-5.06505E-05-3.17822E-05 5.61870E-07-8.62902E-19-5.98071E-19
 -1      3093 1.21687E-04-5.00952E-05-3.05627E-05-3.29029E-06-6.90635E-19-8.30370E-19
 -1      3094 1.16225E-04-4.73226E-05-2.95777E-05-6.61461E-06-4.85932E-19-7.51355E-19
 -1      3095 1.12608E-04-4.45268E-05-2.90376E-05-9.06579E-06-3.58275E-19-1.19089E-18
 -1      3096 1.17586E-04-5.02349E-05-2.89906E-05-9.72606E-06-5.26180E-19-1.89132E-18
 -1      3097 1.08304E-04-4.11616E-05-2.87795E-05-1.01801E-05-1.43698E-19-9.44352E-19
 -1      3098 1.05283E-04-3.82591E-05-2.86234E-05-1.12658E-05 2.16265E-19-1.21024E-18
 -1      3099 1.07750E-04-4.29675E-05-2.78705E-05-1.31944E-05-2.22143E-19-1.69090E-18
 -1      3100 1.02512E-04-3.55746E-05-2.86744E-05-1.12647E-05 2.94703E-19-8.52309E-19
 -1      3101 1.00342E-04-3.32901E-05-2.86852E-05-1.15138E-05-5.91533E-20-5.91406E-19
 -1      3102 1.00929E-04-3.64425E-05-2.77516E-05-1.36662E-05 3.73780E-19-5.84205E-19
 -1      3103 9.87929E-05-3.14651E-05-2.88331E-05-1.09753E-05-8.14930E-20-5.71218E-20
 -1      3104 9.73959E-05-2.99368E-05-2.88879E-05-1.07639E-05 2.97965E-19 1.03462E-19
 -1      3105 9.67688E-05-3.15120E-05-2.80322E-05-1.26140E-05 4.74922E-19 1.69964E-19
 -1      3106 9.66405E-05-2.88483E-05-2.90345E-05-1.00597E-05 2.53032E-19-2.01551E-19
 -1      3107 9.58039E-05-2.79361E-05-2.90792E-05-9.61567E-06 6.24747E-19-2.76967E-19
 -1      3108 9.45920E-05-2.84318E-05-2.83867E-05-1.11334E-05 2.07677E-19 1.16541E-19
 -1      3109 9.55174E-05-2.73736E-05-2.91891E-05-8.89076E-06 8.99807E-19-4.20652E-19
 -1      3110 9.50375E-05-2.68929E-05-2.92062E-05-8.34390E-06 5.37505E-19-2.99847E-19
 -1      3111 9.36276E-05-2.67201E-05-2.86886E-05-9.59556E-06 5.96739E-19 2.63665E-19
 -1      3112 9.50052E-05-2.66722E-05-2.92735E-05-7.65381E-06 5.59976E-20 2.42090E-19
 -1      3113 9.47364E-05-2.64686E-05-2.92630E-05-7.07985E-06-7.60903E-22 7.31496E-19
 -1      3114 9.33509E-05-2.59253E-05-2.89008E-05-8.13950E-06 6.82297E-19-1.27610E-19
 -1      3115 9.48269E-05-2.64523E-05-2.92935E-05-6.44730E-06-2.18968E-19 1.16852E-18
 -1      3116 9.46765E-05-2.64140E-05-2.92623E-05-5.89131E-06-3.12749E-19 1.62033E-18
 -1      3117 9.34294E-05-2.57014E-05-2.90256E-05-6.80745E-06 3.04844E-19 1.47457E-18
 -1      3118 9.48143E-05-2.65090E-05-2.92652E-05-5.32619E-06-3.87507E-19 1.64970E-18
 -1      3119 9.47277E-05-2.65613E-05-2.92214E-05-4.81447E-06-1.43646E-19 2.17659E-18
 -1      3120 9.36661E-05-2.58067E-05-2.90801E-05-5.61298E-06-1.84275E-19 1.56398E-18
 -1      3121 9.48725E-05-2.67079E-05-2.92060E-05-4.32048E-06-8.85801E-20 1.61843E-18
 -1      3122 9.48195E-05-2.68035E-05-2.91565E-05-3.86682E-06-1.00998E-20 1.68928E-18
 -1      3123 9.39510E-05-2.60820E-05-2.90838E-05-4.56039E-06-1.88308E-19 7.07099E-19
 -1      3124 9.49518E-05-2.69658E-05-2.91304E-05-3.44371E-06 2.48098E-20 1.70849E-18
 -1      3125 9.49164E-05-2.70766E-05-2.90801E-05-3.05331E-06-2.46059E-19 1.73776E-18
 -1      3126 9.42277E-05-2.64277E-05-2.90545E-05-3.64914E-06 2.40505E-19 1.07964E-18
 -1      3127 9.50285E-05-2.72342E-05-2.90490E-05-2.69786E-06-1.35833E-19 1.99051E-18
 -1      3128 9.50028E-05-2.73442E-05-2.90015E-05-2.37018E-06 5.92280E-20 1.55630E-18
 -1      3129 9.44708E-05-2.67844E-05-2.90064E-05-2.87442E-06-1.30992E-19 1.09465E-18
 -1      3130 9.50932E-05-2.74869E-05-2.89693E-05-2.07706E-06-3.53436E-19 1.04073E-18
 -1      3131 9.50733E-05-2.75877E-05-2.89265E-05-1.80797E-06 4.71969E-19 6.00865E-19
 -1      3132 9.46723E-05-2.71198E-05-2.89495E-05-2.22760E-06-5.31330E-19 8.93417E-19
 -1      3133 9.51438E-05-2.77111E-05-2.88956E-05-1.57052E-06-2.62274E-20 3.07484E-19
 -1      3134 9.51277E-05-2.77992E-05-2.88584E-05-1.35387E-06 4.36796E-20 2.90323E-19
 -1      3135 9.48325E-05-2.74177E-05-2.88910E-05-1.69709E-06-2.48947E-19-1.18543E-19
 -1      3136 9.51812E-05-2.79024E-05-2.88304E-05-1.16485E-06 7.05755E-19-1.98370E-20
 -1      3137 9.51682E-05-2.79767E-05-2.87989E-05-9.93628E-07 5.70768E-19 4.34220E-19
 -1      3138 9.49561E-05-2.76724E-05-2.88352E-05-1.26951E-06 1.49759E-19-2.75597E-19
 -1      3139 9.52077E-05-2.80610E-05-2.87744E-05-8.45712E-07-6.04201E-20 3.47639E-19
 -1      3140 9.51971E-05-2.81220E-05-2.87485E-05-7.12797E-07-1.23799E-18 1.06657E-19
 -1      3141 9.50489E-05-2.78839E-05-2.87846E-05-9.30763E-07 5.72111E-20-4.99003E-19
 -1      3142 9.52255E-05-2.81893E-05-2.87276E-05-5.99033E-07-1.29792E-18 2.67801E-19
 -1      3143 9.52171E-05-2.82383E-05-2.87067E-05-4.97687E-07-4.03645E-19 3.08848E-19
 -1      3144 9.51170E-05-2.80556E-05-2.87404E-05-6.66945E-07-8.88535E-19-2.42006E-19
 -1      3145 9.52370E-05-2.82910E-05-2.86894E-05-4.11735E-07-1.02218E-18-8.95839E-21
 -1      3146 9.52303E-05-2.83296E-05-2.86729E-05-3.35876E-07-1.23601E-18-3.99920E-19
 -1      3147 9.51656E-05-2.81919E-05-2.87030E-05-4.65020E-07-1.30797E-18-7.38865E-19
 -1      3148 9.52438E-05-2.83701E-05-2.86588E-05-2.72150E-07-1.04383E-18-3.29743E-19
 -1      3149 9.52387E-05-2.84000E-05-2.86460E-05-2.16481E-07-7.64704E-19-8.10009E-19
 -1      3150 9.51994E-05-2.82982E-05-2.86720E-05-3.13230E-07-1.55751E-18-1.29338E-18
 -1      3151 9.52474E-05-2.84304E-05-2.86348E-05-1.70198E-07-8.99241E-19-6.53191E-20
 -1      3152 9.52435E-05-2.84532E-05-2.86250E-05-1.30232E-07-7.51303E-19-1.14345E-18
 -1      3153 9.52220E-05-2.83796E-05-2.86468E-05-2.01307E-07-1.01635E-18 5.54965E-19
 -1      3154 9.52489E-05-2.84757E-05-2.86163E-05-9.73952E-08-3.26112E-19-1.28787E-18
 -1      3155 9.52460E-05-2.84926E-05-2.86090E-05-6.94233E-08-5.95029E-19-1.53425E-18
 -1      3156 9.52364E-05-2.84407E-05-2.86269E-05-1.20517E-07-6.81906E-19 3.53398E-19
 -1      3157 9.52489E-05-2.85089E-05-2.86023E-05-4.67664E-08-2.24462E-19-3.88446E-19
 -1      3158 9.52468E-05-2.85213E-05-2.85969E-05-2.77901E-08-9.70534E-21-9.10998E-19
 -1      3159 9.52450E-05-2.84857E-05-2.86113E-05-6.36115E-08 1.78501E-19-1.55320E-19
 -1      3160 9.52480E-05-2.85328E-05-2.85918E-05-1.26978E-08 7.80142E-19-7.20762E-19
 -1      3161 9.52466E-05-2.85416E-05-2.85880E-05-3.43545E-10 6.69343E-19-5.31304E-19
 -1      3162 9.52495E-05-2.85180E-05-2.85993E-05-2.47000E-08 6.22183E-19 5.41954E-19
 -1      3163 9.52467E-05-2.85496E-05-2.85842E-05 9.23371E-09-2.58218E-19-7.56515E-19
 -1      3164 9.52458E-05-2.85558E-05-2.85815E-05 1.68028E-08 1.47494E-19-1.21419E-18
 -1      3165 9.52511E-05-2.85408E-05-2.85902E-05 9.02503E-10 3.75685E-19 1.15473E-18
 -1      3166 9.52453E-05-2.85611E-05-2.85787E-05 2.24346E-08 1.74599E-19-1.79808E-18
 -1      3167 9.52447E-05-2.85654E-05-2.85769E-05 2.66043E-08 4.24487E-19-1.66232E-18
 -1      3168 9.52510E-05-2.85565E-05-2.85835E-05 1.68419E-08-2.11623E-20-9.69050E-20
 -1      3169 9.52438E-05-2.85689E-05-2.85748E-05 2.94599E-08 7.71590E-19-2.22401E-18
 -1      3170 9.52435E-05-2.85719E-05-2.85736E-05 3.12414E-08 1.17287E-18-1.78966E-18
 -1      3171 9.52498E-05-2.85670E-05-2.85784E-05 2.58875E-08 5.84132E-19-2.73419E-18
 -1      3172 9.52426E-05-2.85743E-05-2.85721E-05 3.21689E-08 1.35849E-18-2.21949E-18
 -1      3173 9.52425E-05-2.85765E-05-2.85712E-05 3.22717E-08 1.29428E-18-1.76998E-18
 -1      3174 9.52482E-05-2.85740E-05-2.85747E-05 3.00741E-08 1.14605E-18-3.08320E-18
 -1      3175 9.52416E-05-2.85782E-05-2.85700E-05 3.17678E-08-2.46803E-19-2.45451E-18
 -1      3176 9.52419E-05-2.85800E-05-2.85694E-05 3.06650E-08-1.74839E-18-3.97720E-18
 -1      3177 9.52465E-05-2.85790E-05-2.85718E-05 3.08882E-08-4.23011E-19-4.23987E-18
 -1      3178 1.05922E-04-3.60342E-05-2.99730E-05-7.68720E-06 2.33574E-19 6.78892E-20
 -1      3179 1.04107E-04-3.39252E-05-3.00089E-05-8.16314E-06 2.19512E-19 2.41512E-20
 -1      3180 1.22442E-04-3.78342E-05-3.62664E-05 1.25252E-05 7.70959E-19 1.36331E-18
 -1      3181 1.23344E-04-4.25939E-05-3.47735E-05 1.00028E-05 3.86292E-19 1.20756E-18
 -1      3182 1.12057E-04-1.60532E-05-4.14482E-05-5.73195E-09 5.95835E-19 3.89933E-19
 -1      3183 1.13038E-04-1.81351E-05-4.09011E-05 5.84227E-06 8.64503E-19 9.35786E-19
 -1      3184 1.12653E-04-1.72448E-05-4.11170E-05-6.07680E-06 7.13519E-19-2.33318E-19
 -1      3185 1.19022E-04-3.04392E-05-3.83040E-05-1.53288E-05 2.91062E-19-9.45686E-19
 -1      3186 1.16162E-04-2.42239E-05-3.94868E-05-1.27082E-05 7.46977E-19-6.43467E-19
 -1      3187 1.20315E-04-4.55930E-05-3.19963E-05-4.52669E-06-4.85694E-19-3.10261E-19
 -1      3188 1.21281E-04-4.43282E-05-3.30512E-05-7.92053E-06 6.20055E-21-4.03773E-19
 -1      3189 1.15013E-04-4.38112E-05-3.04207E-05 1.95190E-06-5.42699E-19-1.16995E-19
 -1      3190 1.17021E-04-4.48719E-05-3.09684E-05-8.58351E-07-6.19277E-19-1.49518E-19
 -1      3191 1.19684E-04-4.73456E-05-3.10339E-05 3.95647E-08-5.85002E-19-7.34133E-19
 -1      3192 1.09185E-04-3.96315E-05-2.97221E-05 6.18526E-06-4.91818E-19-4.40217E-19
 -1      3193 1.11441E-04-4.16304E-05-2.99648E-05 4.35868E-06-2.63103E-19-3.32933E-19
 -1      3194 1.12692E-04-4.40989E-05-2.95068E-05 6.05430E-06-3.53908E-19-6.90841E-19
 -1      3195 1.04400E-04-3.54255E-05-2.94999E-05 8.21914E-06 1.73594E-19-6.64516E-19
 -1      3196 1.06353E-04-3.73609E-05-2.95864E-05 7.26170E-06-1.69708E-19-2.55246E-19
 -1      3197 1.06241E-04-3.89290E-05-2.89431E-05 9.03055E-06-4.37491E-19-1.23963E-18
 -1      3198 1.00984E-04-3.21122E-05-2.94801E-05 8.79366E-06-1.05125E-19-4.22829E-19
 -1      3199 1.02457E-04-3.36136E-05-2.95063E-05 8.46491E-06 1.76721E-19-2.78708E-19
 -1      3200 1.01522E-04-3.43386E-05-2.88595E-05 9.96190E-06-2.58089E-20-9.31713E-19
 -1      3201 9.87439E-05-2.98422E-05-2.95105E-05 8.51067E-06-1.93200E-19 4.78105E-19
 -1      3202 9.97797E-05-3.08671E-05-2.95284E-05 8.58528E-06-3.09452E-19 1.47993E-19
 -1      3203 9.84513E-05-3.09745E-05-2.89601E-05 9.74612E-06-4.04549E-19 5.19056E-21
 -1      3204 9.73540E-05-2.84495E-05-2.95230E-05 7.76842E-06 5.08618E-19 1.39830E-18
 -1      3205 9.80595E-05-2.90821E-05-2.95534E-05 8.07746E-06 2.75397E-19 7.20420E-19
 -1      3206 9.66217E-05-2.87966E-05-2.90913E-05 8.95752E-06-3.20236E-19 3.09581E-19
 -1      3207 9.65218E-05-2.76927E-05-2.94972E-05 6.81510E-06 1.71199E-19 1.23047E-18
 -1      3208 9.70005E-05-2.80437E-05-2.95438E-05 7.24217E-06 5.88988E-19 1.54000E-18
 -1      3209 9.56228E-05-2.75441E-05-2.91886E-05 7.91931E-06 3.69300E-19 1.23010E-18
 -1      3210 9.60331E-05-2.73557E-05-2.94357E-05 5.80125E-06 6.93589E-19 4.69388E-19
 -1      3211 9.63632E-05-2.75211E-05-2.94947E-05 6.26975E-06 7.37308E-19 6.74684E-19
 -1      3212 9.51330E-05-2.69326E-05-2.92342E-05 6.80738E-06 8.90451E-19 1.10115E-18
 -1      3213 9.57474E-05-2.72756E-05-2.93492E-05 4.81678E-06-3.70897E-19 2.72821E-19
 -1      3214 9.59812E-05-2.73269E-05-2.94146E-05 5.27852E-06 8.28007E-20 5.97632E-20
 -1      3215 9.49340E-05-2.67299E-05-2.92324E-05 5.71843E-06 6.37409E-19 9.59110E-19
 -1      3216 9.55782E-05-2.73399E-05-2.92495E-05 3.91301E-06-7.77649E-19-1.74533E-19
 -1      3217 9.57488E-05-2.73262E-05-2.93159E-05 4.33971E-06-1.79214E-19-5.36864E-19
 -1      3218 9.48891E-05-2.67681E-05-2.91952E-05 4.70669E-06 3.40288E-21-2.67167E-19
 -1      3219 9.54749E-05-2.74760E-05-2.91468E-05 3.11579E-06-9.25967E-19-8.82750E-19
 -1      3220 9.56026E-05-2.74288E-05-2.92100E-05 3.49294E-06-1.11606E-18-8.21039E-19
 -1      3221 9.49173E-05-2.69343E-05-2.91355E-05 3.80125E-06-5.04971E-19-6.95113E-19
 -1      3222 9.54089E-05-2.76392E-05-2.90481E-05 2.43402E-06-2.01387E-19-3.14862E-19
 -1      3223 9.55061E-05-2.75780E-05-2.91055E-05 2.75633E-06-5.68831E-19-6.26950E-19
 -1      3224 9.49739E-05-2.71565E-05-2.90644E-05 3.01470E-06-6.75299E-19-1.90982E-18
 -1      3225 9.53643E-05-2.78036E-05-2.89579E-05 1.86578E-06 6.56783E-19 1.29778E-19
 -1      3226 9.54389E-05-2.77399E-05-2.90082E-05 2.13381E-06 5.02456E-19 1.41137E-19
 -1      3227 9.50356E-05-2.73914E-05-2.89903E-05 2.34841E-06-1.99082E-19-9.76584E-20
 -1      3228 9.53326E-05-2.79554E-05-2.88786E-05 1.40267E-06-3.11222E-19 5.43458E-19
 -1      3229 9.53898E-05-2.78954E-05-2.89213E-05 1.62040E-06 2.94204E-19 5.76792E-20
 -1      3230 9.50916E-05-2.76145E-05-2.89188E-05 1.79641E-06 2.82098E-19-4.49272E-20
 -1      3231 9.53090E-05-2.80884E-05-2.88110E-05 1.03281E-06 3.68616E-19-5.41099E-21
 -1      3232 9.53527E-05-2.80351E-05-2.88464E-05 1.20602E-06-4.68797E-21 2.34948E-19
 -1      3233 9.51378E-05-2.78137E-05-2.88533E-05 1.34830E-06-4.39565E-19 3.56612E-19
 -1      3234 9.52911E-05-2.82005E-05-2.87548E-05 7.43040E-07-9.90937E-20 1.03502E-19
 -1      3235 9.53240E-05-2.81551E-05-2.87834E-05 8.78151E-07 5.85473E-19 2.22164E-19
 -1      3236 9.51736E-05-2.79841E-05-2.87957E-05 9.91368E-07 1.92891E-19 1.19592E-20
 -1      3237 9.52772E-05-2.82924E-05-2.87091E-05 5.20219E-07-8.60538E-19-5.34585E-19
 -1      3238 9.53018E-05-2.82548E-05-2.87318E-05 6.23618E-07-8.69344E-19-5.17799E-19
 -1      3239 9.52002E-05-2.81255E-05-2.87466E-05 7.12251E-07 7.42558E-20 6.68121E-19
 -1      3240 9.52665E-05-2.83659E-05-2.86727E-05 3.52089E-07-3.42309E-19-1.29592E-20
 -1      3241 9.52845E-05-2.83355E-05-2.86904E-05 4.29701E-07-5.00747E-19-1.09429E-19
 -1      3242 9.52189E-05-2.82398E-05-2.87057E-05 4.97922E-07-9.04930E-19-4.74900E-21
 -1      3243 9.52583E-05-2.84234E-05-2.86442E-05 2.27715E-07-1.22695E-18-5.89568E-19
 -1      3244 9.52712E-05-2.83994E-05-2.86577E-05 2.84795E-07-7.12797E-19-1.06344E-19
 -1      3245 9.52316E-05-2.83301E-05-2.86724E-05 3.36379E-07-7.07156E-19-3.52791E-19
 -1      3246 9.52521E-05-2.84675E-05-2.86224E-05 1.37672E-07-1.61060E-19-6.25535E-20
 -1      3247 9.52610E-05-2.84490E-05-2.86325E-05 1.78721E-07-1.15599E-18-2.32321E-19
 -1      3248 9.52397E-05-2.84000E-05-2.86458E-05 2.16993E-07-9.18797E-19-3.59710E-19
 -1      3249 9.52474E-05-2.85007E-05-2.86060E-05 7.40624E-08-1.05759E-19 8.44031E-19
 -1      3250 9.52534E-05-2.84866E-05-2.86135E-05 1.02832E-07 1.27272E-19 9.94690E-19
 -1      3251 9.52443E-05-2.84531E-05-2.86251E-05 1.30639E-07-7.09419E-19 1.86861E-18
 -1      3252 9.52439E-05-2.85252E-05-2.85940E-05 3.04226E-08-7.53252E-19 1.69194E-18
 -1      3253 9.52478E-05-2.85147E-05-2.85993E-05 4.99654E-08-7.01159E-19 1.10891E-18
 -1      3254 9.52466E-05-2.84926E-05-2.86091E-05 6.96934E-08-7.42673E-19 2.89743E-18
 -1      3255 9.52415E-05-2.85428E-05-2.85853E-05 1.58393E-09 9.25153E-20 1.42353E-18
 -1      3256 9.52438E-05-2.85351E-05-2.85890E-05 1.43257E-08 9.78378E-20 1.06672E-18
 -1      3257 9.52473E-05-2.85213E-05-2.85971E-05 2.79294E-08-2.96848E-19 1.00287E-18
 -1      3258 9.52398E-05-2.85553E-05-2.85792E-05-1.64961E-08 5.90713E-19 2.75959E-19
 -1      3259 9.52410E-05-2.85497E-05-2.85816E-05-8.67066E-09 4.58463E-19 1.04718E-18
 -1      3260 9.52470E-05-2.85417E-05-2.85881E-05 3.76288E-10 3.35815E-19-5.51605E-19
 -1      3261 9.52387E-05-2.85639E-05-2.85749E-05-2.69016E-08 5.09022E-19-8.19505E-19
 -1      3262 9.52391E-05-2.85600E-05-2.85766E-05-2.25662E-08 4.87592E-19-2.12179E-19
 -1      3263 9.52461E-05-2.85559E-05-2.85816E-05-1.68469E-08 5.82264E-19-8.52924E-19
 -1      3264 9.52380E-05-2.85699E-05-2.85721E-05-3.19228E-08-4.81570E-20-2.31037E-18
 -1      3265 9.52379E-05-2.85671E-05-2.85731E-05-3.00217E-08 7.84807E-19-1.24728E-18
 -1      3266 9.52449E-05-2.85655E-05-2.85770E-05-2.66937E-08 8.87201E-19-5.84419E-19
 -1      3267 9.52377E-05-2.85740E-05-2.85702E-05-3.31400E-08-6.37795E-19-1.38186E-18
 -1      3268 9.52373E-05-2.85720E-05-2.85708E-05-3.29085E-08-9.81604E-19-2.07575E-18
 -1      3269 9.52437E-05-2.85721E-05-2.85736E-05-3.13274E-08-6.84392E-19-1.92701E-18
 -1      3270 8.07801E-05-1.08587E-05-2.99638E-05-2.27560E-06 3.59198E-19-8.05558E-19
 -1      3271 7.96462E-05-1.00817E-05-2.98437E-05-1.81229E-06 2.38349E-19-8.31976E-19
 -1      3272 9.52593E-05-2.85907E-05-2.85723E-05 2.22333E-09 8.78898E-19-2.03979E-18
 -1      3273 9.52593E-05-2.85907E-05-2.85723E-05-2.12120E-09 6.67019E-19-9.80726E-19
 -1      3274 9.52504E-05-2.85858E-05-2.85706E-05 2.51550E-08 2.10166E-18-1.82154E-18
 -1      3275 9.52531E-05-2.85875E-05-2.85709E-05 2.24057E-08 2.01297E-18-2.06020E-18
 -1      3276 9.52581E-05-2.85900E-05-2.85720E-05 1.08259E-08 1.33224E-18-1.21428E-18
 -1      3277 9.52589E-05-2.85905E-05-2.85722E-05 6.72331E-09 1.62539E-18-2.20038E-18
 -1      3278 9.52610E-05-2.85880E-05-2.85741E-05 4.54131E-09 8.03727E-19-1.26164E-18
 -1      3279 1.07096E-04-5.09993E-05-2.42633E-05 2.60518E-05-8.09128E-19-1.45756E-18
 -1      3280 9.35105E-05-4.31766E-05-2.12695E-05 3.00093E-05-7.19025E-19-5.02158E-19
 -1      3281 1.02289E-04-3.18965E-05-3.01762E-05-7.87257E-06 2.88605E-19-2.56729E-19
 -1      3282 1.00981E-04-3.01234E-05-3.03218E-05-7.54064E-06 2.63694E-19-1.33978E-19
 -1      3283 1.01383E-04-3.23971E-05-2.96263E-05-9.36529E-06 1.53538E-19-2.29768E-19
 -1      3284 1.26321E-04-5.58936E-05-3.05589E-05 8.52735E-06-7.49187E-19-8.91436E-19
 -1      3285 1.18653E-04-5.44949E-05-2.71667E-05 1.73760E-05-1.01144E-18-1.13420E-18
 -1      3286 8.87235E-05-3.93269E-05-2.11557E-05 3.08942E-05 6.17831E-19 4.09752E-20
 -1      3287 7.62987E-05-3.12091E-05-1.87776E-05 3.03083E-05 7.10819E-19-2.44845E-19
 -1      3288 9.52552E-05-2.85884E-05-2.85715E-05 1.87564E-08 1.36319E-18-9.79442E-19
 -1      3289 9.52569E-05-2.85895E-05-2.85717E-05 1.51029E-08 1.13953E-18-1.29069E-18
 -1      3290 9.52592E-05-2.85873E-05-2.85737E-05 1.32882E-08 1.46974E-18-1.38362E-18
 -1      3291 9.52555E-05-2.85858E-05-2.85727E-05 2.11685E-08 1.08579E-18-5.85207E-19
 -1      3292 4.58338E-05-1.52599E-05-1.26571E-05-1.78227E-05-5.07426E-20-1.37982E-18
 -1      3293 5.57918E-05-2.20589E-05-1.43579E-05-2.78281E-05-2.87832E-19-1.23010E-18
 -1      3294 1.31863E-04-4.85716E-05-3.61810E-05-7.61697E-06-2.34271E-19-1.65637E-18
 -1      3295 1.30510E-04-5.23317E-05-3.33319E-05-1.30026E-06-4.03399E-20-1.72980E-18
 -1      3296 1.29891E-04-4.47448E-05-3.66316E-05 1.06936E-05-5.90991E-19-1.01191E-18
 -1      3297 1.29517E-04-4.95348E-05-3.43630E-05 6.78834E-06-6.11644E-19-7.84035E-19
 -1      3298 9.64483E-05-2.54755E-05-3.03901E-05 7.32664E-06-1.53285E-19 3.10069E-21
 -1      3299 9.73954E-05-2.71330E-05-3.01042E-05 8.53657E-06-9.81251E-20-6.28471E-21
 -1      3300 9.53199E-05-2.66445E-05-2.94721E-05 9.91428E-06-7.72893E-20 5.97224E-20
 -1      3301 1.00198E-04-4.74940E-05-2.20878E-05-3.12960E-05-7.18390E-19-7.00840E-19
 -1      3302 1.11751E-04-5.30914E-05-2.54598E-05-2.52801E-05-5.71562E-19 1.22582E-19
 -1      3303 1.26121E-04-2.81354E-05-4.21387E-05 1.42016E-05 1.35102E-18 1.73663E-18
 -1      3304 1.21065E-04-2.03720E-05-4.37668E-05 1.12367E-05 1.33482E-18 1.20067E-18
 -1      3305 4.48377E-05-1.32792E-05-1.32397E-05-8.42796E-06-4.27487E-21 3.20655E-18
 -1      3306 4.99939E-05-1.75874E-05-1.35652E-05-2.03136E-05 6.55683E-19 3.90239E-18
 -1      3307 7.05711E-05-3.04297E-05-1.66498E-05-3.25392E-05-5.95570E-19-1.63456E-18
 -1      3308 8.58612E-05-4.03618E-05-1.95603E-05-3.45976E-05-7.55977E-19-1.66050E-18
 -1      3309 9.34283E-05-4.12628E-05-2.21035E-05-2.92895E-05-8.66409E-19-8.72312E-19
 -1      3310 1.32017E-04-5.48479E-05-3.34698E-05 2.54140E-06-9.58223E-20 5.07240E-19
 -1      3311 1.28799E-04-5.72977E-05-3.03843E-05 1.11359E-05-8.35386E-20 4.29340E-19
 -1      3312 9.81277E-05-2.47595E-05-3.14302E-05-2.99377E-06 6.74951E-19-1.41246E-19
 -1      3313 9.57536E-05-2.24194E-05-3.14294E-05-2.63444E-06 6.63900E-19-2.99850E-19
 -1      3314 9.52076E-05-2.30250E-05-3.09388E-05-4.31450E-06 5.47254E-19-3.00116E-19
 -1      3315 9.87536E-05-2.61866E-05-3.11128E-05-4.53834E-06 5.02717E-19-2.27098E-20
 -1      3316 9.52432E-05-2.85834E-05-2.85685E-05-2.79837E-08-1.48552E-18-4.20225E-19
 -1      3317 9.08654E-05-4.33799E-05-1.99284E-05-3.24118E-05 6.75191E-19 1.58141E-18
 -1      3318 1.03419E-04-5.01396E-05-2.28599E-05-2.90483E-05 3.84818E-19 1.06525E-18
 -1      3319 6.05034E-05-2.46977E-05-1.49428E-05-2.77539E-05 1.24201E-18 3.87179E-18
 -1      3320 7.57029E-05-3.50664E-05-1.73626E-05-3.34752E-05 9.38142E-19 2.71453E-18
 -1      3321 8.55561E-05-3.74386E-05-2.03062E-05-2.91488E-05 9.39889E-19 1.83189E-18
 -1      3322 1.23272E-04-5.57129E-05-2.85855E-05-1.53767E-05-4.67867E-19 2.76662E-19
 -1      3323 1.28257E-04-5.39997E-05-3.20928E-05-4.31181E-06-2.98890E-19 5.57771E-19
 -1      3324 1.31844E-04-4.22382E-05-3.87236E-05-1.11866E-05-6.51580E-19 9.19878E-19
 -1      3325 1.34216E-04-5.06340E-05-3.57997E-05-5.21233E-06-1.31105E-19 5.45489E-19
 -1      3326 1.30494E-04-5.18564E-05-3.37175E-05-1.76310E-06-7.78212E-20 3.02867E-19
 -1      3327 1.27929E-04-4.14795E-05-3.72479E-05-1.14526E-05-4.13881E-19 1.19133E-18
 -1      3328 4.20916E-05-1.16281E-05-1.27490E-05 4.47428E-06 3.10674E-19-1.49311E-18
 -1      3329 4.13390E-05-1.18550E-05-1.21845E-05-8.17477E-06 1.38781E-19-1.43826E-18
 -1      3330 5.06295E-05-1.40265E-05-1.51841E-05-1.20211E-05-5.55865E-22-1.27478E-18
 -1      3331 5.03387E-05-1.66137E-05-1.40340E-05 1.88093E-05-8.53042E-19 1.35853E-18
 -1      3332 4.54172E-05-1.27116E-05-1.37003E-05 5.65678E-06-8.03599E-19 2.54650E-18
 -1      3333 9.28116E-05-1.94039E-05-3.14609E-05 2.28943E-06-2.39376E-19-4.20852E-19
 -1      3334 9.39674E-05-2.09265E-05-3.12974E-05 3.22392E-06-2.38368E-19-2.19136E-19
 -1      3335 8.96792E-05-1.69580E-05-3.11835E-05 2.50848E-06-1.81371E-19-6.21422E-19
 -1      3336 7.89430E-05-9.50945E-06-2.97676E-05-8.04882E-07 2.78031E-19-9.02410E-19
 -1      3337 7.88102E-05-9.39935E-06-2.97593E-05-1.56843E-07 3.09565E-19-9.01405E-19
 -1      3338 7.92480E-05-1.07963E-05-2.92987E-05-1.69609E-06 2.32786E-19-8.73682E-19
 -1      3339 9.07920E-05-1.94116E-05-3.05889E-05-4.37827E-06 5.09907E-19-5.79747E-19
 -1      3340 8.89101E-05-1.68991E-05-3.08562E-05-3.05007E-06 5.75505E-19-6.09626E-19
 -1      3341 8.65619E-05-1.52067E-05-3.06104E-05-3.24160E-06 5.11532E-19-6.01742E-19
 -1      3342 1.10935E-04-5.25998E-05-2.47547E-05-2.43061E-05 2.77350E-19-6.00037E-20
 -1      3343 1.16649E-04-5.39970E-05-2.70010E-05-1.82561E-05-4.03108E-19-1.32552E-18
 -1      3344 1.05172E-04-4.78274E-05-2.44343E-05-2.40260E-05 3.65309E-19 6.76965E-20
 -1      3345 9.52483E-05-2.85851E-05-2.85699E-05-2.72251E-08-1.61395E-18-7.25723E-19
 -1      3346 9.52432E-05-2.85816E-05-2.85693E-05-2.92740E-08-2.20574E-18-3.08463E-19
 -1      3347 9.52420E-05-2.85799E-05-2.85695E-05-3.07082E-08-1.54143E-18-1.16929E-19
 -1      3348 1.06368E-04-4.75794E-05-2.53703E-05 2.33840E-05 4.78150E-19 5.71496E-19
 -1      3349 9.82017E-05-4.37716E-05-2.30068E-05 2.82698E-05 5.89482E-19 1.60301E-19
 -1      3350 9.27585E-05-3.81958E-05-2.32836E-05 2.60959E-05 7.28395E-19 4.35560E-20
 -1      3351 8.49014E-05-1.34213E-05-3.06555E-05 2.54987E-06-8.13257E-20-8.18092E-19
 -1      3352 8.71930E-05-1.50808E-05-3.09073E-05 2.53850E-06-1.54321E-19-6.37777E-19
 -1      3353 8.83003E-05-1.65749E-05-3.07247E-05 3.41057E-06-6.30392E-20-6.70760E-19
 -1      3354 1.20374E-04-1.78981E-05-4.43347E-05 1.04113E-05-1.64335E-18-3.76612E-19
 -1      3355 1.21624E-04-5.21757E-05-2.99167E-05 9.14415E-06 2.25523E-19 4.60204E-19
 -1      3356 1.25001E-04-5.12686E-05-3.15172E-05 2.12055E-06 1.44141E-19 5.25743E-19
 -1      3357 1.28939E-04-5.32496E-05-3.25435E-05-3.15722E-07-6.24366E-19-1.90490E-18
 -1      3358 1.27572E-04-5.04500E-05-3.31328E-05-2.07736E-06 3.48607E-20 5.05361E-19
 -1      3359 1.28305E-04-4.68952E-05-3.51031E-05-8.57210E-06-9.46427E-20 9.04366E-19
 -1      3360 9.19025E-05-1.99675E-05-3.08471E-05 4.29769E-06-2.01399E-19-3.47062E-19
 -1      3361 7.15855E-05-2.67895E-05-1.89770E-05 2.64682E-05 5.88132E-19-4.66821E-19
 -1      3362 5.65512E-05-1.62824E-05-1.72266E-05 1.63618E-05 3.30237E-19-1.23238E-18
 -1      3363 4.85703E-05-1.31078E-05-1.46604E-05 1.13144E-05 2.97494E-19-1.49935E-18
 -1      3364 5.14257E-05-1.21179E-05-1.65611E-05 4.57205E-06 1.90265E-19-1.38839E-18
 -1      3365 1.12315E-04-5.04444E-05-2.64103E-05 1.84965E-05-7.78873E-19-1.12190E-18
 -1      3366 1.08606E-04-3.84449E-05-2.99755E-05-7.05163E-06 7.15594E-20 3.76476E-19
 -1      3367 1.05808E-04-3.74473E-05-2.94065E-05-9.44294E-06-9.03513E-20 1.76193E-19
 -1      3368 1.10786E-04-4.06153E-05-3.01134E-05-5.59900E-06-3.54695E-20 5.83735E-19
 -1      3369 1.18718E-04-1.52552E-05-4.47273E-05-6.44265E-06 1.14297E-18-4.03876E-19
 -1      3370 1.25874E-04-4.61145E-05-3.43155E-05 7.02636E-06 2.87157E-19 1.51276E-18
 -1      3371 1.21003E-04-4.43709E-05-3.28819E-05 6.34300E-06 7.25801E-20 1.06743E-18
 -1      3372 1.20088E-04-4.54577E-05-3.20018E-05 3.15460E-06-1.52852E-19 1.10716E-18
 -1      3373 1.28643E-04-5.09382E-05-3.33015E-05 2.15439E-06-6.61629E-20 1.03384E-18
 -1      3374 1.16905E-04-1.99713E-05-4.19732E-05 9.73086E-06 1.23635E-18 9.69694E-19
 -1      3375 1.25524E-04-4.87520E-05-3.31087E-05-4.90431E-06-1.01260E-19-1.56132E-18
 -1      3376 1.23478E-04-4.42077E-05-3.40702E-05-1.00419E-05-1.84336E-19-6.92238E-19
 -1      3377 1.22710E-04-3.98858E-05-3.55153E-05-1.21148E-05-2.34840E-19-8.78969E-19
 -1      3378 8.24152E-05-1.21476E-05-3.01499E-05-2.92704E-06 4.13010E-19-7.56204E-19
 -1      3379 8.17534E-05-1.26828E-05-2.95746E-05-3.49086E-06 3.11578E-19-6.85877E-19
 -1      3380 8.43074E-05-1.34616E-05-3.03537E-05-3.06446E-06 5.01154E-19-6.88283E-19
 -1      3381 9.52420E-05-2.85781E-05-2.85703E-05-3.14928E-08-1.43064E-18-6.14546E-19
 -1      3382 9.52407E-05-2.85763E-05-2.85705E-05-3.23526E-08-8.17163E-19-1.32821E-18
 -1      3383 9.52487E-05-2.85814E-05-2.85716E-05-2.94642E-08-1.43733E-18-5.14805E-19
 -1      3384 9.52568E-05-2.85895E-05-2.85717E-05-1.51183E-08-5.39799E-19 6.59275E-20
 -1      3385 9.52551E-05-2.85884E-05-2.85715E-05-1.87574E-08 1.26841E-19-4.08932E-20
 -1      3386 9.52433E-05-2.85828E-05-2.85688E-05 2.85760E-08-2.88053E-19-2.97603E-18
 -1      3387 6.79885E-05-2.56360E-05-1.77249E-05-2.71170E-05-3.89212E-19-1.45340E-18
 -1      3388 4.89066E-05-1.27592E-05-1.50491E-05-6.88382E-07-6.21739E-19 2.73311E-18
 -1      3389 5.43585E-05-1.40703E-05-1.70965E-05-6.47075E-06-2.41398E-19 2.40478E-18
 -1      3390 5.49624E-05-1.39461E-05-1.75058E-05 5.45373E-06-6.61572E-19 2.23426E-18
 -1      3391 9.52610E-05-2.85879E-05-2.85741E-05-4.52283E-09-7.53751E-20-2.81065E-19
 -1      3392 9.52589E-05-2.85905E-05-2.85722E-05-6.69324E-09 8.13328E-19 3.31645E-19
 -1      3393 9.52581E-05-2.85900E-05-2.85720E-05-1.08711E-08 1.37096E-19 2.41172E-19
 -1      3394 1.24995E-04-3.45277E-05-3.89385E-05 1.31049E-05 9.45871E-19 1.55928E-18
 -1      3395 9.36823E-05-2.30921E-05-3.02749E-05 6.86455E-06-2.08296E-19-1.66743E-20
 -1      3396 1.31440E-04-4.06780E-05-3.91523E-05 1.41033E-05-9.09025E-19-1.05059E-18
 -1      3397 8.69902E-05-3.86298E-05-2.05424E-05 3.01956E-05-6.19578E-19-7.30037E-19
 -1      3398 7.94242E-05-3.23904E-05-2.00480E-05 2.78201E-05-4.42972E-19-9.92670E-19
 -1      3399 9.49969E-05-4.07502E-05-2.30762E-05 2.51912E-05-9.11209E-19-5.78206E-19
 -1      3400 1.25899E-04-5.21106E-05-3.15739E-05 1.92845E-06-5.68941E-19-1.49800E-18
 -1      3401 1.20321E-04-4.75757E-05-3.11900E-05-1.15395E-06-4.16699E-19 1.29464E-18
 -1      3402 1.16884E-04-4.48741E-05-3.09240E-05-9.22927E-07-3.00149E-19 9.61394E-19
 -1      3403 9.52473E-05-2.85841E-05-2.85699E-05 2.81960E-08 2.59498E-19-2.93423E-18
 -1      3404 9.52495E-05-2.85829E-05-2.85714E-05 2.77174E-08 4.08991E-19-4.32605E-18
 -1      3405 6.09057E-05-2.10809E-05-1.67236E-05 2.10853E-05-4.49033E-19 7.06161E-19
 -1      3406 1.24381E-04-2.46818E-05-4.30590E-05 1.52749E-05-1.10792E-18-6.41839E-19
 -1      3407 1.21913E-04-2.32071E-05-4.27392E-05-1.39732E-05 1.08314E-18-4.10123E-19
 -1      3408 1.16602E-04-2.07179E-05-4.14894E-05-1.17875E-05 9.52489E-19-5.57745E-19
 -1      3409 1.29183E-04-5.66765E-05-3.11689E-05-7.44202E-06-7.01105E-19-1.95553E-18
 -1      3410 8.28871E-05-1.19072E-05-3.04235E-05 2.18455E-06 6.69020E-20-6.95462E-19
 -1      3411 8.36963E-05-1.31771E-05-3.02082E-05 2.98240E-06 4.76607E-20-5.93895E-19
 -1      3412 8.12157E-05-1.07376E-05-3.02311E-05 1.89162E-06 1.45003E-19-5.00006E-19
 -1      3413 1.23639E-04-5.08504E-05-3.12695E-05-2.97567E-06-4.24754E-19 8.22727E-19
 -1      3414 1.26480E-04-3.90927E-05-3.75618E-05-1.27937E-05-3.42519E-19-1.76564E-18
 -1      3415 1.15621E-04-2.39428E-05-3.93289E-05 1.18323E-05 9.88064E-19 9.18859E-19
 -1      3416 1.14789E-04-4.35749E-05-3.04535E-05-3.55174E-06-1.71039E-19 8.35142E-19
 -1      3417 1.18107E-04-2.98754E-05-3.81573E-05 1.34498E-05 9.52303E-19 1.25566E-18
 -1      3418 1.00165E-04-2.88123E-05-3.05869E-05-6.67449E-06 3.48674E-19-2.17313E-20
 -1      3419 9.92748E-05-2.73096E-05-3.08116E-05-5.71016E-06 4.51122E-19-1.97953E-20
 -1      3420 9.75614E-05-2.59154E-05-3.07076E-05-5.72866E-06 4.34851E-19-7.55315E-20
 -1      3421 9.88333E-05-2.86499E-05-3.01147E-05-7.90841E-06 3.39235E-19-1.93209E-19
 -1      3422 9.52533E-05-2.85877E-05-2.85709E-05-2.18877E-08-2.05807E-19-2.18738E-19
 -1      3423 9.52508E-05-2.85862E-05-2.85706E-05-2.46037E-08-9.91327E-19 7.58905E-19
 -1      3424 9.52510E-05-2.85842E-05-2.85715E-05-2.60999E-08-1.73185E-19 8.37076E-19
 -1      3425 9.52559E-05-2.85861E-05-2.85728E-05-2.07273E-08 4.12678E-19 9.92652E-21
 -1      3426 1.22252E-04-5.50422E-05-2.87365E-05 1.45319E-05 1.67951E-19 4.04855E-19
 -1      3427 1.26190E-04-3.25365E-05-4.05826E-05 1.55975E-05-6.01764E-19-7.81917E-20
 -1      3428 6.16910E-05-2.18239E-05-1.66602E-05-2.21034E-05 1.21877E-18 3.30899E-18
 -1      3429 1.15584E-04-5.18463E-05-2.72444E-05-1.81192E-05-5.13514E-19 2.56426E-19
 -1      3430 1.27911E-04-2.78245E-05-4.33552E-05-1.48733E-05 1.14551E-18-7.26595E-19
 -1      3431 5.26200E-05-1.24786E-05-1.70355E-05-6.85610E-06 1.09188E-19-1.18786E-18
 -1      3432 5.64251E-05-1.55483E-05-1.74095E-05-1.60173E-05-9.37295E-20-1.11618E-18
 -1      3433 1.15466E-04-5.07118E-05-2.74459E-05 1.71460E-05 4.58910E-19 4.07688E-19
 -1      3434 9.73648E-05-3.32503E-05-2.73863E-05 1.58033E-05 7.65853E-20 1.75056E-20
 -1      3435 1.00566E-04-3.69369E-05-2.71969E-05 1.65306E-05 7.12533E-20-3.68228E-20
 -1      3436 1.03990E-04-4.13803E-05-2.66555E-05 1.86027E-05 2.49814E-19 2.37272E-19
 -1      3437 1.08878E-04-4.60134E-05-2.68708E-05 1.82397E-05 4.51204E-19 3.35356E-19
 -1      3438 9.81859E-05-3.59316E-05-2.66656E-05-1.59332E-05 5.09844E-19 2.67743E-19
 -1      3439 9.55692E-05-3.28262E-05-2.68173E-05-1.52420E-05 9.22971E-19 6.19751E-19
 -1      3440 9.42657E-05-3.07078E-05-2.71917E-05-1.38277E-05 6.39285E-19 9.68108E-19
 -1      3441 9.27188E-05-2.87507E-05-2.74033E-05-1.30026E-05 7.65891E-19 9.17572E-19
 -1      3442 9.09674E-05-3.01681E-05-2.61302E-05-1.58308E-05 9.34468E-19 1.95700E-18
 -1      3443 9.23368E-05-2.75032E-05-2.77452E-05-1.17085E-05 5.37142E-19 2.91199E-19
 -1      3444 9.15809E-05-2.64004E-05-2.79399E-05-1.08880E-05 2.79601E-19 2.71697E-19
 -1      3445 8.94274E-05-2.66333E-05-2.69365E-05-1.27711E-05 4.00953E-19 5.63665E-19
 -1      3446 9.16674E-05-2.57913E-05-2.82074E-05-9.84137E-06 2.86286E-19 4.43984E-19
 -1      3447 9.13855E-05-2.52489E-05-2.83551E-05-9.08018E-06 6.39572E-19 2.29491E-19
 -1      3448 8.92540E-05-2.48667E-05-2.76004E-05-1.03516E-05 3.60179E-19 2.88397E-19
 -1      3449 9.16935E-05-2.50457E-05-2.85475E-05-8.22671E-06 1.06653E-18 2.23682E-19
 -1      3450 9.16655E-05-2.48564E-05-2.86445E-05-7.53853E-06 1.02178E-18 6.64191E-19
 -1      3451 8.97045E-05-2.41353E-05-2.80979E-05-8.44348E-06 7.96097E-19 3.19086E-19
 -1      3452 9.20565E-05-2.48963E-05-2.87726E-05-6.83118E-06 6.39568E-19 5.33319E-19
 -1      3453 9.21505E-05-2.49159E-05-2.88265E-05-6.21551E-06 2.78886E-19 9.06711E-19
 -1      3454 9.04284E-05-2.40386E-05-2.84456E-05-6.90796E-06 6.95128E-19 3.32507E-19
 -1      3455 9.25493E-05-2.50894E-05-2.89042E-05-5.62055E-06-2.62712E-19 1.21136E-18
 -1      3456 9.26900E-05-2.52222E-05-2.89254E-05-5.07554E-06-4.81732E-19 1.03512E-18
 -1      3457 9.12266E-05-2.43064E-05-2.86720E-05-5.64122E-06 2.24090E-19 3.33964E-19
 -1      3458 9.30583E-05-2.54579E-05-2.89662E-05-4.57188E-06-5.07160E-19 6.99322E-19
 -1      3459 9.32055E-05-2.56429E-05-2.89648E-05-4.09598E-06-2.19358E-19 7.57396E-19
 -1      3460 9.19941E-05-2.47620E-05-2.88060E-05-4.57779E-06-7.53761E-19 9.20832E-19
 -1      3461 9.35263E-05-2.58963E-05-2.89799E-05-3.67043E-06 7.37132E-21 6.65410E-19
 -1      3462 9.36606E-05-2.60962E-05-2.89643E-05-3.26148E-06 3.01053E-19 4.78329E-19
 -1      3463 9.26803E-05-2.52928E-05-2.88736E-05-3.67912E-06-3.08841E-19 6.51766E-19
 -1      3464 9.39293E-05-2.63412E-05-2.89625E-05-2.90476E-06 5.36959E-20 2.32316E-19
 -1      3465 9.40431E-05-2.65345E-05-2.89391E-05-2.55936E-06-3.03633E-20 5.45443E-19
 -1      3466 9.32658E-05-2.58294E-05-2.88957E-05-2.92146E-06-1.21185E-19 2.00921E-19
 -1      3467 9.42615E-05-2.67570E-05-2.89272E-05-2.26382E-06-9.73677E-20 3.95637E-19
 -1      3468 9.43536E-05-2.69323E-05-2.89004E-05-1.97720E-06-1.69662E-19 5.77790E-19
 -1      3469 9.37488E-05-2.63317E-05-2.88886E-05-2.28803E-06-1.76334E-20 2.74044E-19
 -1      3470 9.45268E-05-2.71262E-05-2.88831E-05-1.73574E-06-2.56150E-19 6.05055E-19
 -1      3471 9.45987E-05-2.72785E-05-2.88560E-05-1.50203E-06-1.36677E-20-1.40822E-20
 -1      3472 9.41370E-05-2.67796E-05-2.88640E-05-1.76490E-06 1.22089E-19 2.84495E-19
 -1      3473 9.47333E-05-2.74422E-05-2.88366E-05-1.30774E-06-1.66645E-19 2.07166E-19
 -1      3474 9.47879E-05-2.75706E-05-2.88110E-05-1.12043E-06 3.49112E-19 7.28180E-19
 -1      3475 9.44421E-05-2.71648E-05-2.88305E-05-1.33898E-06 1.53347E-19 5.97296E-19
 -1      3476 9.48903E-05-2.77053E-05-2.87915E-05-9.66554E-07-4.68472E-19-1.23810E-19
 -1      3477 9.49307E-05-2.78108E-05-2.87685E-05-8.18990E-07-1.02534E-18-9.25312E-19
 -1      3478 9.46770E-05-2.74872E-05-2.87937E-05-9.97531E-07-8.77887E-19 5.93153E-19
 -1      3479 9.50072E-05-2.79194E-05-2.87502E-05-6.99094E-07-1.11081E-21-1.27582E-18
 -1      3480 9.50364E-05-2.80042E-05-2.87303E-05-5.84818E-07-1.33644E-19-6.19393E-19
 -1      3481 9.48544E-05-2.77509E-05-2.87573E-05-7.28140E-07-4.16904E-19-1.81813E-18
 -1      3482 9.50922E-05-2.80900E-05-2.87138E-05-4.92970E-07-1.47131E-18-1.30403E-19
 -1      3483 9.51128E-05-2.81569E-05-2.86970E-05-4.06013E-07-1.96763E-18-1.17622E-18
 -1      3484 9.49856E-05-2.79622E-05-2.87234E-05-5.19088E-07-6.41305E-19-8.84008E-19
 -1      3485 9.51526E-05-2.82234E-05-2.86828E-05-3.36892E-07-1.42655E-18-8.90498E-19
 -1      3486 9.51666E-05-2.82753E-05-2.86689E-05-2.71930E-07-6.98557E-19 9.37887E-20
 -1      3487 9.50806E-05-2.81283E-05-2.86932E-05-3.59620E-07-1.32254E-18-7.63513E-19
 -1      3488 9.51942E-05-2.83259E-05-2.86569E-05-2.20898E-07-8.43436E-19 5.34847E-19
 -1      3489 9.52033E-05-2.83653E-05-2.86458E-05-1.73321E-07-9.11461E-19 3.23973E-19
 -1      3490 9.51477E-05-2.82565E-05-2.86672E-05-2.40157E-07-6.54845E-19-4.52134E-19
 -1      3491 9.52218E-05-2.84031E-05-2.86359E-05-1.36431E-07-7.98840E-19 1.05419E-18
 -1      3492 9.52274E-05-2.84325E-05-2.86270E-05-1.02354E-07-5.04913E-19 9.50528E-19
 -1      3493 9.51935E-05-2.83536E-05-2.86454E-05-1.52396E-07-5.22222E-19 1.41285E-18
 -1      3494 9.52391E-05-2.84602E-05-2.86190E-05-7.63260E-08-1.48227E-20 8.89314E-19
 -1      3495 9.52422E-05-2.84817E-05-2.86121E-05-5.25440E-08 4.71433E-19 8.31692E-19
 -1      3496 9.52236E-05-2.84258E-05-2.86275E-05-8.93160E-08-3.76528E-19 1.31481E-18
 -1      3497 9.52491E-05-2.85014E-05-2.86058E-05-3.47098E-08 8.29805E-19 1.31724E-19
 -1      3498 9.52505E-05-2.85168E-05-2.86005E-05-1.86398E-08 1.36762E-18 1.60635E-19
 -1      3499 9.52422E-05-2.84784E-05-2.86130E-05-4.51121E-08 8.23413E-19-2.89587E-19
 -1      3500 9.52541E-05-2.85306E-05-2.85955E-05-6.87187E-09 7.27116E-19 1.86952E-19
 -1      3501 9.52543E-05-2.85413E-05-2.85915E-05 3.52573E-09-4.46624E-19-1.28710E-19
 -1      3502 9.52527E-05-2.85157E-05-2.86015E-05-1.50874E-08 6.30192E-19-1.51398E-18
 -1      3503 9.52556E-05-2.85506E-05-2.85876E-05 1.08869E-08-9.97545E-19-2.12981E-19
 -1      3504 9.52551E-05-2.85579E-05-2.85846E-05 1.71855E-08-6.58947E-19-1.13721E-18
 -1      3505 9.52575E-05-2.85416E-05-2.85925E-05 4.48028E-09-6.78205E-19-1.81503E-18
 -1      3506 9.52549E-05-2.85641E-05-2.85817E-05 2.14028E-08-1.25877E-19-1.84009E-18
 -1      3507 9.52541E-05-2.85690E-05-2.85794E-05 2.47829E-08 8.50294E-19-2.40167E-18
 -1      3508 9.52586E-05-2.85591E-05-2.85855E-05 1.64746E-08-1.16207E-18-1.57309E-18
 -1      3509 9.52531E-05-2.85730E-05-2.85771E-05 2.68045E-08 9.35130E-19-3.33723E-18
 -1      3510 9.52522E-05-2.85763E-05-2.85754E-05 2.80833E-08 1.47379E-19-4.33580E-18
 -1      3511 9.52574E-05-2.85707E-05-2.85801E-05 2.30700E-08-9.45416E-20-3.31804E-18
 -1      3512 9.52513E-05-2.85786E-05-2.85740E-05 2.82836E-08-3.71024E-19-4.74548E-18
 -1      3513 9.52505E-05-2.85810E-05-2.85726E-05 2.81744E-08-8.60835E-19-4.80470E-18
 -1      3514 9.52540E-05-2.85828E-05-2.85734E-05 2.53452E-08 3.79147E-19-3.31052E-18
 -1      3515 9.52557E-05-2.85780E-05-2.85762E-05 2.55159E-08-1.79867E-19-5.05623E-18
 -1      3516 1.22847E-04-5.10271E-05-3.07510E-05 3.02260E-06-5.43915E-19-1.19488E-18
 -1      3517 1.19230E-04-4.99939E-05-2.95574E-05 6.64053E-06-9.87208E-19-8.66065E-19
 -1      3518 9.81006E-05-3.22206E-05-2.81913E-05 1.14873E-05-3.43142E-19-3.98426E-19
 -1      3519 1.00085E-04-3.43529E-05-2.81411E-05 1.15500E-05-2.63957E-19-9.49693E-19
 -1      3520 9.56067E-05-2.91601E-05-2.84605E-05 1.03625E-05-1.10337E-18-3.93800E-21
 -1      3521 9.68297E-05-3.05664E-05-2.83715E-05 1.07464E-05-5.55769E-19-5.98660E-19
 -1      3522 9.48411E-05-3.04290E-05-2.76576E-05 1.22613E-05-5.18032E-19-8.67764E-19
 -1      3523 9.43424E-05-2.73476E-05-2.87087E-05 9.04968E-06-1.82181E-19 1.14592E-20
 -1      3524 9.50347E-05-2.81794E-05-2.86308E-05 9.57006E-06-7.74047E-19-1.60697E-19
 -1      3525 9.31149E-05-2.76999E-05-2.80619E-05 1.05145E-05-7.62090E-19-1.31210E-19
 -1      3526 9.38223E-05-2.64173E-05-2.88910E-05 7.73868E-06 3.26453E-19 2.19560E-19
 -1      3527 9.41784E-05-2.68463E-05-2.88409E-05 8.30237E-06 6.40360E-20 1.95026E-19
 -1      3528 9.24509E-05-2.62027E-05-2.84034E-05 8.88353E-06-1.48693E-19-1.13078E-18
 -1      3529 9.37200E-05-2.60632E-05-2.90020E-05 6.50508E-06 1.00621E-18 1.32917E-19
 -1      3530 9.38790E-05-2.62306E-05-2.89806E-05 7.06274E-06 6.23588E-19 3.64194E-19
 -1      3531 9.23827E-05-2.55289E-05-2.86544E-05 7.42885E-06 3.81402E-19-1.11432E-18
 -1      3532 9.38309E-05-2.60597E-05-2.90521E-05 5.38112E-06 5.84371E-19 2.28585E-19
 -1      3533 9.38821E-05-2.60686E-05-2.90541E-05 5.90525E-06 1.12262E-18 5.80645E-19
 -1      3534 9.26208E-05-2.53744E-05-2.88186E-05 6.15034E-06 8.02132E-19-8.96085E-20
 -1      3535 9.40337E-05-2.62517E-05-2.90567E-05 4.38134E-06-1.22894E-19-2.79555E-19
 -1      3536 9.40310E-05-2.61724E-05-2.90752E-05 4.85625E-06 1.82220E-19 1.01822E-19
 -1      3537 9.29911E-05-2.55250E-05-2.89110E-05 5.03466E-06 5.64248E-19-3.27115E-19
 -1      3538 9.42602E-05-2.65373E-05-2.90309E-05 3.51084E-06-9.91595E-20-5.72035E-19
 -1      3539 9.42343E-05-2.64157E-05-2.90592E-05 3.92867E-06-5.43468E-20-2.62084E-19
 -1      3540 9.33941E-05-2.58369E-05-2.89496E-05 4.06950E-06-1.15917E-20-2.20959E-19
 -1      3541 9.44749E-05-2.68529E-05-2.89869E-05 2.76803E-06-5.64630E-19-9.39092E-19
 -1      3542 9.44423E-05-2.67174E-05-2.90199E-05 3.12643E-06-4.29729E-19-8.61052E-19
 -1      3543 9.37764E-05-2.62166E-05-2.89509E-05 3.24419E-06 6.54562E-20-5.52627E-19
 -1      3544 9.46621E-05-2.71611E-05-2.89341E-05 2.14629E-06 3.05779E-19-8.51915E-19
 -1      3545 9.46307E-05-2.70283E-05-2.89680E-05 2.44685E-06-3.64201E-19-6.42816E-19
 -1      3546 9.41128E-05-2.66067E-05-2.89284E-05 2.54821E-06-4.64300E-19-1.94547E-19
 -1      3547 9.48166E-05-2.74418E-05-2.88792E-05 1.63547E-06 7.96643E-20 2.02223E-19
 -1      3548 9.47899E-05-2.73207E-05-2.89116E-05 1.88237E-06 6.27747E-19 2.03522E-19
 -1      3549 9.43947E-05-2.69739E-05-2.88924E-05 1.97020E-06 8.55386E-20-1.75962E-19
 -1      3550 9.49394E-05-2.76860E-05-2.88263E-05 1.22327E-06-7.62605E-19-1.46421E-19
 -1      3551 9.49182E-05-2.75806E-05-2.88558E-05 1.42221E-06-5.94940E-19-6.76471E-20
 -1      3552 9.46226E-05-2.73014E-05-2.88502E-05 1.49784E-06-1.23274E-19 3.42823E-19
 -1      3553 9.50340E-05-2.78914E-05-2.87781E-05 8.96440E-07 2.96325E-19 3.17413E-19
 -1      3554 9.50180E-05-2.78027E-05-2.88039E-05 1.05381E-06-1.41118E-19 4.65535E-19
 -1      3555 9.48017E-05-2.75823E-05-2.88070E-05 1.11810E-06-4.41890E-19-4.09097E-19
 -1      3556 9.51047E-05-2.80596E-05-2.87357E-05 6.41796E-07-4.99436E-19 1.30181E-18
 -1      3557 9.50932E-05-2.79869E-05-2.87577E-05 7.64052E-07 2.22009E-19 1.10646E-18
 -1      3558 9.49387E-05-2.78162E-05-2.87659E-05 8.17835E-07-2.17178E-19 6.25826E-19
 -1      3559 9.51562E-05-2.81941E-05-2.86996E-05 4.46870E-07-8.68381E-19 1.14680E-18
 -1      3560 9.51483E-05-2.81359E-05-2.87178E-05 5.40136E-07-8.23286E-19 1.00052E-18
 -1      3561 9.50410E-05-2.80062E-05-2.87286E-05 5.84383E-07-5.66208E-19 1.63540E-18
 -1      3562 9.51926E-05-2.82995E-05-2.86696E-05 3.00369E-07-5.21921E-19-1.52068E-19
 -1      3563 9.51874E-05-2.82539E-05-2.86844E-05 3.70193E-07-3.81744E-19 4.96104E-19
 -1      3564 9.51155E-05-2.81573E-05-2.86960E-05 4.05988E-07-5.81668E-19 8.36945E-19
 -1      3565 9.52173E-05-2.83804E-05-2.86453E-05 1.92398E-07-1.72684E-18 9.12815E-19
 -1      3566 9.52142E-05-2.83454E-05-2.86570E-05 2.43630E-07-1.48679E-18 1.47457E-19
 -1      3567 9.51683E-05-2.82749E-05-2.86684E-05 2.72115E-07-1.26368E-18 1.46422E-18
 -1      3568 9.52334E-05-2.84413E-05-2.86258E-05 1.14526E-07-1.32219E-18 2.11094E-18
 -1      3569 9.52318E-05-2.84149E-05-2.86350E-05 1.51286E-07-1.62601E-18 1.45680E-18
 -1      3570 9.52045E-05-2.83647E-05-2.86455E-05 1.73592E-07-1.87899E-18 2.09138E-18
 -1      3571 9.52433E-05-2.84862E-05-2.86106E-05 5.97434E-08-8.69949E-19 2.22650E-18
 -1      3572 9.52426E-05-2.84667E-05-2.86176E-05 8.54426E-08-8.08872E-19 2.14183E-18
 -1      3573 9.52282E-05-2.84320E-05-2.86269E-05 1.02637E-07-1.45775E-18 8.23471E-19
 -1      3574 9.52486E-05-2.85185E-05-2.85989E-05 2.23513E-08 8.46736E-20 3.52079E-19
 -1      3575 9.52486E-05-2.85045E-05-2.86042E-05 3.97521E-08 1.75296E-19 1.43567E-18
 -1      3576 9.52428E-05-2.84812E-05-2.86121E-05 5.28019E-08-1.54795E-20 2.11997E-19
 -1      3577 9.52508E-05-2.85413E-05-2.85900E-05-2.18554E-09 4.63840E-20 7.93119E-19
 -1      3578 9.52513E-05-2.85314E-05-2.85939E-05 9.10463E-09-6.39354E-20 5.61102E-19
 -1      3579 9.52509E-05-2.85165E-05-2.86005E-05 1.88550E-08 1.41570E-19 5.85658E-19
 -1      3580 9.52511E-05-2.85569E-05-2.85833E-05-1.73949E-08 4.10204E-19 1.07657E-18
 -1      3581 9.52517E-05-2.85501E-05-2.85862E-05-1.05234E-08 3.85303E-19 6.95688E-19
 -1      3582 9.52546E-05-2.85411E-05-2.85915E-05-3.35796E-09-7.64536E-20 1.57887E-18
 -1      3583 9.52501E-05-2.85674E-05-2.85784E-05-2.59585E-08 1.03204E-18 6.29022E-19
 -1      3584 9.52508E-05-2.85627E-05-2.85805E-05-2.22294E-08 1.26780E-18 6.05091E-19
 -1      3585 9.52553E-05-2.85579E-05-2.85847E-05-1.70632E-08 1.11172E-18 1.66525E-18
 -1      3586 9.52486E-05-2.85744E-05-2.85747E-05-2.98835E-08-5.48955E-19-4.53341E-19
 -1      3587 9.52492E-05-2.85712E-05-2.85762E-05-2.83298E-08 2.89282E-19 6.80627E-19
 -1      3588 9.52542E-05-2.85690E-05-2.85794E-05-2.47205E-08 4.21419E-19 1.95698E-18
 -1      3589 9.52463E-05-2.85771E-05-2.85724E-05-3.13090E-08-1.39577E-18-1.68088E-18
 -1      3590 9.52592E-05-2.85872E-05-2.85737E-05-1.33747E-08-4.59255E-20 6.43284E-19
 -1      3591 9.52627E-05-2.85850E-05-2.85762E-05 6.68185E-09-2.86484E-19-1.24939E-18
 -1      3592 9.52632E-05-2.85851E-05-2.85763E-05 2.31832E-09-4.89194E-19-1.30253E-18
 -1      3593 6.44854E-05-2.07809E-05-1.84031E-05-2.24140E-05-3.09074E-19-1.13407E-18
 -1      3594 7.61246E-05-2.89628E-05-2.03437E-05-2.72815E-05-5.43133E-19-1.41677E-18
 -1      3595 6.57132E-05-1.86325E-05-1.98978E-05-1.73773E-05-2.35078E-19-1.04879E-18
 -1      3596 8.66336E-05-1.61037E-05-3.02464E-05 4.27866E-06 2.77557E-20-5.54217E-19
 -1      3597 8.92469E-05-1.79909E-05-3.05314E-05 4.31614E-06-4.69545E-20-6.26768E-19
 -1      3598 9.03715E-05-1.94623E-05-3.03748E-05 5.23765E-06-1.69752E-19-3.71310E-19
 -1      3599 9.99468E-05-3.23043E-05-2.89699E-05-1.10120E-05-6.88628E-20-1.55370E-19
 -1      3600 9.80589E-05-2.98684E-05-2.91912E-05-1.04288E-05 5.53475E-20-2.72270E-19
 -1      3601 1.20499E-04-5.01958E-05-3.00044E-05-7.14867E-06-6.47921E-19 6.41508E-19
 -1      3602 6.98290E-05-2.50857E-05-1.89619E-05 2.44790E-05-6.11187E-20-6.42157E-19
 -1      3603 6.16226E-05-1.84696E-05-1.84096E-05 1.63348E-05 1.26618E-19 1.18315E-18
 -1      3604 1.12771E-04-4.60575E-05-2.86089E-05 9.54695E-06-4.79182E-19-7.91843E-19
 -1      3605 1.14173E-04-4.92973E-05-2.79687E-05 1.29932E-05-8.70098E-19-1.29184E-18
 -1      3606 1.05406E-04-4.51948E-05-2.56093E-05 1.98308E-05-6.59820E-19-1.10432E-18
 -1      3607 1.09055E-04-4.29345E-05-2.81936E-05 1.12056E-05-2.99721E-19-9.79497E-19
 -1      3608 1.02363E-04-3.68252E-05-2.80026E-05 1.20655E-05-2.40028E-19-7.81866E-19
 -1      3609 1.05299E-04-3.96829E-05-2.80965E-05 1.14825E-05 2.23570E-20-6.87524E-19
 -1      3610 1.03979E-04-4.10058E-05-2.71061E-05 1.48396E-05-3.09896E-19-7.59623E-19
 -1      3611 9.82011E-05-3.47796E-05-2.72636E-05 1.39144E-05 5.73708E-20-7.12739E-19
 -1      3612 1.23466E-04-5.51322E-05-2.90771E-05-1.13672E-05-1.06945E-18-1.83882E-18
 -1      3613 1.28731E-04-4.33259E-05-3.70594E-05-1.10024E-05-4.19599E-19-1.69497E-18
 -1      3614 9.18945E-05-2.37295E-05-2.92020E-05 9.46041E-06-8.61153E-20-1.74200E-19
 -1      3615 9.29375E-05-2.56815E-05-2.87913E-05 1.09427E-05 5.42258E-20-1.77323E-19
 -1      3616 7.91948E-05-9.49364E-06-2.98995E-05 7.46016E-07 2.73872E-19-8.41499E-19
 -1      3617 8.00343E-05-1.00432E-05-3.00006E-05 1.30436E-06 2.46428E-19-6.44720E-19
 -1      3618 8.04458E-05-1.10259E-05-2.97421E-05 1.96721E-06 2.51676E-19-5.91128E-19
 -1      3619 7.89292E-05-1.03247E-05-2.93694E-05 4.22489E-07 2.32254E-19-8.56299E-19
 -1      3620 1.17903E-04-5.24421E-05-2.80660E-05-1.35374E-05-3.92150E-19-1.39844E-18
 -1      3621 1.12145E-04-4.83057E-05-2.71446E-05-1.58258E-05-1.12530E-20-1.26771E-18
 -1      3622 9.37238E-05-2.77387E-05-2.82539E-05 1.27757E-05 1.39837E-19-1.60283E-19
 -1      3623 9.56084E-05-3.03973E-05-2.78961E-05 1.40100E-05 6.30312E-20-1.29106E-19
 -1      3624 9.22381E-05-2.98900E-05-2.67913E-05 1.64777E-05 1.08880E-19-2.35613E-19
 -1      3625 1.12496E-04-4.34156E-05-2.96985E-05-7.31299E-06-2.60390E-19 6.03756E-19
 -1      3626 8.80738E-05-3.57082E-05-2.20465E-05-2.76745E-05-9.33616E-19-1.07991E-18
 -1      3627 9.85229E-05-4.27928E-05-2.41281E-05-2.57671E-05-9.01336E-19-2.13320E-19
 -1      3628 1.08363E-04-4.68438E-05-2.59937E-05-2.12247E-05-6.86666E-19 2.28342E-19
 -1      3629 1.16455E-04-5.01678E-05-2.85524E-05-1.31458E-05-5.60377E-19 2.87832E-19
 -1      3630 1.13634E-04-4.66636E-05-2.87661E-05-1.11713E-05-5.07439E-19 4.64306E-19
 -1      3631 1.02613E-04-4.22975E-05-2.57537E-05-2.09166E-05-8.55172E-19-3.20119E-20
 -1      3632 8.04799E-05-3.17800E-05-2.05404E-05-2.65212E-05 1.36996E-18 2.63793E-18
 -1      3633 9.26388E-05-3.99776E-05-2.26443E-05-2.63791E-05 5.64812E-19 1.74221E-18
 -1      3634 6.06432E-05-1.88129E-05-1.77768E-05-1.75901E-05 5.08511E-19 2.76355E-18
 -1      3635 6.99563E-05-2.56734E-05-1.89871E-05-2.45326E-05 1.38927E-18 3.09400E-18
 -1      3636 7.88074E-05-2.86540E-05-2.13203E-05-2.27956E-05 1.32025E-18 2.48891E-18
 -1      3637 7.72108E-05-2.73248E-05-2.14531E-05 2.39373E-05 5.18278E-19-6.49568E-20
 -1      3638 6.59349E-05-2.04111E-05-1.90312E-05 2.15093E-05 5.20012E-19-7.22307E-19
 -1      3639 9.07732E-05-2.07386E-05-3.00100E-05 6.50178E-06-1.59554E-19-2.42772E-19
 -1      3640 9.14343E-05-2.23846E-05-2.95734E-05 8.15395E-06-6.30345E-20-2.15057E-19
 -1      3641 8.87784E-05-2.13929E-05-2.89062E-05 9.15261E-06-2.55330E-20-4.74639E-19
 -1      3642 8.79615E-05-1.87580E-05-2.96761E-05 6.50035E-06 3.07149E-20-4.35987E-19
 -1      3643 9.52507E-05-2.85764E-05-2.85748E-05-2.87882E-08-7.43139E-19 9.51936E-19
 -1      3644 9.27020E-05-2.18712E-05-3.03382E-05-5.70780E-06 4.53757E-19-5.90960E-19
 -1      3645 9.00310E-05-1.99680E-05-3.00468E-05-5.88126E-06 3.72883E-19-5.26345E-19
 -1      3646 1.00754E-04-4.37691E-05-2.41546E-05-2.36948E-05 2.64380E-19 3.77641E-19
 -1      3647 1.06264E-04-4.64207E-05-2.57631E-05-1.99436E-05 8.76547E-20-3.09452E-19
 -1      3648 1.07665E-04-4.50623E-05-2.68248E-05-1.64339E-05-6.41230E-20-1.17097E-18
 -1      3649 9.52743E-05-3.89877E-05-2.41088E-05-2.26608E-05 3.91091E-19 9.22922E-19
 -1      3650 1.09450E-04-4.27274E-05-2.84825E-05-1.22124E-05-3.56191E-19 3.82265E-19
 -1      3651 9.52528E-05-2.85795E-05-2.85743E-05-2.73016E-08-3.65955E-19 1.17995E-18
 -1      3652 9.52556E-05-2.85763E-05-2.85767E-05-2.54822E-08-8.01959E-20 2.66710E-18
 -1      3653 1.03293E-04-4.08373E-05-2.66220E-05-1.68073E-05 8.66852E-20-9.04168E-19
 -1      3654 9.52578E-05-2.85811E-05-2.85757E-05 2.19199E-08 6.50577E-20-1.19851E-18
 -1      3655 9.52569E-05-2.85835E-05-2.85743E-05 2.15453E-08 3.82219E-19-6.19689E-19
 -1      3656 9.52592E-05-2.85844E-05-2.85749E-05 1.79732E-08 8.68501E-19-1.71505E-18
 -1      3657 9.52578E-05-2.85830E-05-2.85749E-05-2.08338E-08 6.49962E-20 4.46456E-19
 -1      3658 9.52554E-05-2.85824E-05-2.85742E-05-2.39532E-08-7.38718E-20 8.91893E-19
 -1      3659 1.26087E-04-3.14115E-05-4.04538E-05-1.57984E-05 2.49663E-19-1.13952E-18
 -1      3660 8.58623E-05-1.57431E-05-3.00372E-05-4.39056E-06 4.42471E-19-5.25165E-19
 -1      3661 9.52527E-05-2.85815E-05-2.85734E-05-2.63606E-08-4.36431E-19 1.31111E-18
 -1      3662 9.47692E-05-3.71794E-05-2.46944E-05 2.25870E-05 4.91782E-19 6.09599E-20
 -1      3663 8.78058E-05-3.29086E-05-2.31681E-05 2.46228E-05 4.60548E-19 5.55204E-20
 -1      3664 6.05039E-05-1.59531E-05-1.87852E-05 1.14134E-05-3.83511E-19 2.44967E-18
 -1      3665 6.12324E-05-1.52555E-05-1.96690E-05 5.83586E-06-5.02032E-19 2.91678E-18
 -1      3666 6.77724E-05-1.94591E-05-2.06440E-05 1.49290E-05-4.44696E-19 1.40465E-18
 -1      3667 9.52632E-05-2.85851E-05-2.85763E-05-2.31246E-09-3.69944E-19-9.59282E-19
 -1      3668 9.52627E-05-2.85850E-05-2.85762E-05-6.74848E-09-3.06814E-19 5.15819E-20
 -1      3669 9.52650E-05-2.85818E-05-2.85785E-05-4.27770E-11-5.96355E-19-1.23665E-18
 -1      3670 6.08831E-05-1.49495E-05-1.97257E-05-5.08448E-06-3.21052E-19 2.09850E-18
 -1      3671 5.98059E-05-1.59893E-05-1.84587E-05-1.16859E-05 1.08592E-20 2.31094E-18
 -1      3672 6.68737E-05-1.90842E-05-2.04510E-05-1.45738E-05 3.86671E-19 1.98723E-18
 -1      3673 9.72134E-05-2.81599E-05-2.95699E-05-9.12354E-06 3.21526E-19-3.51518E-19
 -1      3674 9.63888E-05-2.66299E-05-2.98694E-05-8.13922E-06 3.57973E-19-3.34452E-19
 -1      3675 9.51899E-05-2.77797E-05-2.89021E-05-1.08163E-05 9.37278E-20-4.08735E-19
 -1      3676 8.35763E-05-3.08928E-05-2.23967E-05-2.44876E-05-8.30013E-19-8.60427E-19
 -1      3677 1.04935E-04-3.80882E-05-2.86481E-05-1.17980E-05-1.78039E-19 5.28072E-21
 -1      3678 1.02150E-04-3.49639E-05-2.86984E-05-1.19257E-05-1.00432E-19-1.37675E-19
 -1      3679 9.81696E-05-3.25134E-05-2.81684E-05-1.33689E-05-1.58094E-19-4.18884E-19
 -1      3680 8.21553E-05-1.28404E-05-2.97290E-05 3.37859E-06 2.01608E-19-5.40179E-19
 -1      3681 8.42567E-05-1.43443E-05-2.99619E-05 3.84362E-06 8.62463E-20-6.48696E-19
 -1      3682 8.51494E-05-1.56757E-05-2.97580E-05 4.76667E-06 1.28445E-19-6.49054E-19
 -1      3683 6.39746E-05-1.74202E-05-1.98060E-05 1.57251E-05 3.61207E-19-8.70088E-19
 -1      3684 7.90577E-05-2.90250E-05-2.12568E-05 2.31556E-05 3.88179E-20-9.39757E-19
 -1      3685 1.02711E-04-4.13861E-05-2.61946E-05 1.73160E-05-4.99710E-19-9.29189E-19
 -1      3686 9.86455E-05-4.15635E-05-2.45199E-05 2.25709E-05-6.65516E-19-6.72121E-19
 -1      3687 9.26035E-05-3.68172E-05-2.38131E-05 2.24933E-05-6.08281E-19-9.04234E-19
 -1      3688 9.87835E-05-3.74657E-05-2.61727E-05 1.69627E-05-1.28086E-19-9.28127E-19
 -1      3689 9.52607E-05-2.85845E-05-2.85755E-05 1.45080E-08 8.17507E-19-6.54634E-19
 -1      3690 9.52620E-05-2.85850E-05-2.85759E-05 1.03306E-08 3.19203E-19-1.37034E-19
 -1      3691 9.52642E-05-2.85818E-05-2.85781E-05 7.97558E-09-1.23764E-18-4.43897E-19
 -1      3692 9.52620E-05-2.85817E-05-2.85772E-05 1.48327E-08 2.71529E-19-7.02381E-19
 -1      3693 8.98928E-05-2.47563E-05-2.79425E-05 1.24334E-05 7.88394E-20-3.85080E-19
 -1      3694 9.52618E-05-2.85849E-05-2.85759E-05-1.12484E-08 4.89816E-19 1.61706E-18
 -1      3695 9.52604E-05-2.85843E-05-2.85755E-05-1.54115E-08 2.46870E-19 5.22116E-19
 -1      3696 9.52640E-05-2.85816E-05-2.85781E-05-8.98213E-09-5.18129E-19 7.82059E-20
 -1      3697 8.23534E-05-1.43848E-05-2.91183E-05-4.94129E-06 2.31628E-19-7.00921E-19
 -1      3698 8.04310E-05-1.30523E-05-2.89125E-05-4.19195E-06 1.81734E-19-7.00127E-19
 -1      3699 5.80389E-05-1.28429E-05-1.94230E-05 5.21549E-06 2.03812E-19-1.33429E-18
 -1      3700 5.45499E-05-1.18376E-05-1.79779E-05-9.94282E-07 1.38827E-19-1.22240E-18
 -1      3701 5.97746E-05-1.29475E-05-1.99032E-05-4.73875E-06 7.09655E-20-1.13322E-18
 -1      3702 9.65820E-05-3.71837E-05-2.55369E-05-1.89224E-05 5.76212E-19 9.39902E-19
 -1      3703 8.08675E-05-2.71407E-05-2.30098E-05 2.13286E-05 3.37490E-19-4.46148E-20
 -1      3704 7.89057E-05-1.18820E-05-2.87291E-05-2.76324E-06 2.05236E-19-7.57009E-19
 -1      3705 7.80461E-05-1.12555E-05-2.86425E-05-1.62430E-06 1.77147E-19-9.88750E-19
 -1      3706 7.93343E-05-1.33806E-05-2.82337E-05-4.30640E-06 1.48961E-19-7.70546E-19
 -1      3707 9.52603E-05-2.85803E-05-2.85771E-05-1.88234E-08 2.12809E-19 4.62295E-19
 -1      3708 8.59368E-05-2.13941E-05-2.76882E-05 1.10729E-05 4.17031E-20-2.68237E-19
 -1      3709 8.66694E-05-2.33653E-05-2.70824E-05 1.29316E-05 1.20327E-19-2.72910E-19
 -1      3710 1.04588E-04-4.04762E-05-2.76202E-05-1.54521E-05-4.09789E-19 7.52668E-20
 -1      3711 8.63774E-05-2.52132E-05-2.61596E-05-1.28847E-05-1.03039E-19 1.38180E-18
 -1      3712 8.60448E-05-2.41361E-05-2.65632E-05-1.15256E-05 1.25110E-19 1.13512E-18
 -1      3713 8.68404E-05-2.36747E-05-2.70381E-05-1.01510E-05 4.72664E-19 9.59747E-19
 -1      3714 8.69504E-05-2.32055E-05-2.73476E-05-9.11690E-06 3.55229E-19 8.43030E-19
 -1      3715 8.37913E-05-2.23274E-05-2.63165E-05-1.01803E-05 5.55503E-20 1.82393E-18
 -1      3716 8.77790E-05-2.31286E-05-2.76900E-05-8.13146E-06 2.61235E-19 7.07087E-19
 -1      3717 8.81025E-05-2.30253E-05-2.79129E-05-7.32197E-06 4.68624E-19 4.24920E-19
 -1      3718 8.54614E-05-2.20115E-05-2.71722E-05-7.89853E-06 3.27683E-19 1.53561E-18
 -1      3719 8.88839E-05-2.31737E-05-2.81524E-05-6.58423E-06 5.46901E-19 1.42068E-19
 -1      3720 8.92845E-05-2.32852E-05-2.83034E-05-5.92975E-06 7.36671E-19 1.66189E-19
 -1      3721 8.70835E-05-2.22212E-05-2.77795E-05-6.26705E-06 2.80112E-19 2.49460E-19
 -1      3722 8.99868E-05-2.35578E-05-2.84647E-05-5.35209E-06 7.30567E-19 4.81388E-21
 -1      3723 9.03913E-05-2.37855E-05-2.85600E-05-4.80787E-06-2.29925E-20 3.69294E-19
 -1      3724 8.85653E-05-2.27319E-05-2.81983E-05-5.03531E-06 3.97288E-19 2.92068E-19
 -1      3725 9.10033E-05-2.41162E-05-2.86631E-05-4.34029E-06-4.42889E-19 4.31676E-19
 -1      3726 9.13753E-05-2.43963E-05-2.87173E-05-3.88080E-06-3.68665E-19 8.04117E-19
 -1      3727 8.98726E-05-2.33965E-05-2.84762E-05-4.06136E-06 1.20869E-19 5.58463E-20
 -1      3728 9.18948E-05-2.47409E-05-2.87784E-05-3.49534E-06-5.71573E-19 8.12392E-19
 -1      3729 9.22182E-05-2.50329E-05-2.88036E-05-3.10594E-06-6.27630E-19 2.24469E-19
 -1      3730 9.09958E-05-2.41182E-05-2.86505E-05-3.26717E-06-3.29506E-19-1.44894E-19
 -1      3731 9.26499E-05-2.53640E-05-2.88353E-05-2.78597E-06-4.03927E-19 7.47117E-20
 -1      3732 9.29205E-05-2.56434E-05-2.88412E-05-2.45757E-06 2.12476E-19 1.82437E-20
 -1      3733 9.19388E-05-2.48317E-05-2.87510E-05-2.60891E-06-3.63764E-19-1.20560E-19
 -1      3734 9.32723E-05-2.59454E-05-2.88531E-05-2.19256E-06 2.17478E-19-5.03625E-20
 -1      3735 9.34921E-05-2.61987E-05-2.88467E-05-1.91847E-06 1.21254E-19-4.05697E-20
 -1      3736 9.27150E-05-2.54970E-05-2.88003E-05-2.06087E-06 4.58724E-19-1.03392E-19
 -1      3737 9.37738E-05-2.64639E-05-2.88459E-05-1.70082E-06 3.39014E-19-3.80116E-20
 -1      3738 9.39482E-05-2.66850E-05-2.88325E-05-1.47512E-06 5.74637E-19 3.00286E-19
 -1      3739 9.33422E-05-2.60924E-05-2.88155E-05-1.60662E-06 1.88048E-19 3.99579E-19
 -1      3740 9.41698E-05-2.69112E-05-2.88240E-05-1.29850E-06 8.13303E-20 5.12193E-20
 -1      3741 9.43054E-05-2.70986E-05-2.88072E-05-1.11544E-06-1.15015E-19 1.27751E-19
 -1      3742 9.38404E-05-2.66085E-05-2.88091E-05-1.23380E-06 2.62729E-19-4.55509E-19
 -1      3743 9.44767E-05-2.72868E-05-2.87946E-05-9.74138E-07-9.41549E-19 1.35356E-19
 -1      3744 9.45800E-05-2.74419E-05-2.87769E-05-8.28005E-07-1.44259E-18-5.67331E-19
 -1      3745 9.42293E-05-2.70444E-05-2.87901E-05-9.31781E-07-7.29272E-19-9.81828E-19
 -1      3746 9.47102E-05-2.75952E-05-2.87626E-05-7.16671E-07-1.12124E-18-7.09731E-19
 -1      3747 9.47873E-05-2.77208E-05-2.87455E-05-6.01911E-07-4.20327E-19-9.38307E-19
 -1      3748 9.45277E-05-2.74042E-05-2.87646E-05-6.90689E-07-1.61166E-18-7.50271E-20
 -1      3749 9.48844E-05-2.78432E-05-2.87311E-05-5.15602E-07 1.21916E-19-8.53552E-19
 -1      3750 9.49408E-05-2.79431E-05-2.87153E-05-4.26985E-07-4.87385E-19-4.03894E-19
 -1      3751 9.47526E-05-2.76954E-05-2.87369E-05-5.01243E-07-3.42988E-19-7.75562E-19
 -1      3752 9.50117E-05-2.80391E-05-2.87018E-05-3.61206E-07-1.17001E-18-8.98269E-19
 -1      3753 9.50520E-05-2.81170E-05-2.86880E-05-2.93963E-07-1.36109E-18-2.80277E-19
 -1      3754 9.49189E-05-2.79266E-05-2.87096E-05-3.54819E-07-8.40888E-19-6.52708E-19
 -1      3755 9.51026E-05-2.81909E-05-2.86759E-05-2.44733E-07-1.23796E-18-6.65667E-19
 -1      3756 9.51306E-05-2.82506E-05-2.86640E-05-1.94646E-07-7.07486E-19-2.79033E-19
 -1      3757 9.50391E-05-2.81069E-05-2.86842E-05-2.43592E-07-1.39176E-18 2.19416E-19
 -1      3758 9.51657E-05-2.83065E-05-2.86535E-05-1.58521E-07-1.11207E-19-8.40772E-19
 -1      3759 9.51844E-05-2.83514E-05-2.86436E-05-1.21958E-07-3.59443E-19 1.08644E-19
 -1      3760 9.51239E-05-2.82450E-05-2.86617E-05-1.60650E-07-7.67638E-19-1.37626E-18
 -1      3761 9.52079E-05-2.83928E-05-2.86347E-05-9.60281E-08-3.98261E-19 4.25973E-19
 -1      3762 9.52198E-05-2.84258E-05-2.86266E-05-6.99405E-08 2.27821E-19 1.91549E-19
 -1      3763 9.51819E-05-2.83488E-05-2.86423E-05-1.00032E-07 1.20974E-19-1.68948E-18
 -1      3764 9.52348E-05-2.84559E-05-2.86192E-05-5.17999E-08 2.70535E-19 3.41651E-19
 -1      3765 9.52418E-05-2.84797E-05-2.86127E-05-3.36823E-08 5.32106E-19-8.07295E-19
 -1      3766 9.52199E-05-2.84252E-05-2.86260E-05-5.67271E-08 7.31350E-19 1.36322E-19
 -1      3767 9.52506E-05-2.85010E-05-2.86067E-05-2.13867E-08 9.58364E-19-1.29413E-18
 -1      3768 9.52542E-05-2.85178E-05-2.86016E-05-9.22608E-09 7.06205E-19-9.18005E-19
 -1      3769 9.52433E-05-2.84803E-05-2.86125E-05-2.66081E-08-1.94532E-20-1.75189E-19
 -1      3770 9.52587E-05-2.85325E-05-2.85968E-05-1.23242E-09-3.01662E-19-6.51036E-19
 -1      3771 9.52600E-05-2.85440E-05-2.85927E-05 6.55625E-09-9.14931E-19-1.82147E-19
 -1      3772 9.52564E-05-2.85191E-05-2.86016E-05-6.35425E-09 6.15701E-19-1.64220E-20
 -1      3773 9.52616E-05-2.85538E-05-2.85889E-05 1.14435E-08-6.81338E-19-1.99942E-20
 -1      3774 9.52614E-05-2.85615E-05-2.85858E-05 1.60723E-08-4.92833E-19 8.47042E-20
 -1      3775 9.52623E-05-2.85456E-05-2.85929E-05 6.66094E-09-9.16395E-19 1.77554E-18
 -1      3776 9.52611E-05-2.85680E-05-2.85827E-05 1.87658E-08-1.28027E-18-6.30215E-19
 -1      3777 9.52601E-05-2.85730E-05-2.85802E-05 2.10628E-08-1.21954E-18-2.21893E-18
 -1      3778 9.52636E-05-2.85633E-05-2.85858E-05 1.44561E-08-1.38662E-18 1.19261E-18
 -1      3779 9.52595E-05-2.85758E-05-2.85787E-05 2.15389E-08-1.26906E-19-1.92790E-18
 -1      3780 9.52587E-05-2.85788E-05-2.85771E-05 2.19152E-08 4.16266E-19-1.15434E-18
 -1      3781 9.52614E-05-2.85793E-05-2.85781E-05 1.82932E-08 8.83980E-19 1.34980E-19
 -1      3782 9.52627E-05-2.85734E-05-2.85812E-05 1.76801E-08-8.60715E-19 4.14873E-19
 -1      3783 9.05134E-05-2.48561E-05-2.81516E-05 8.25775E-06-1.41845E-19-1.47543E-18
 -1      3784 9.06699E-05-2.53104E-05-2.79875E-05 9.03113E-06-1.67477E-19-1.49656E-18
 -1      3785 9.04592E-05-2.58110E-05-2.77162E-05 1.00696E-05-6.93404E-19-1.54759E-18
 -1      3786 9.10226E-05-2.67604E-05-2.75038E-05 1.09576E-05-9.12215E-19-1.18094E-18
 -1      3787 8.84686E-05-2.43957E-05-2.74619E-05 9.40699E-06-5.87554E-19-1.97202E-18
 -1      3788 9.11721E-05-2.78020E-05-2.71562E-05 1.22686E-05-5.51397E-19-1.46456E-18
 -1      3789 9.24092E-05-2.94905E-05-2.69145E-05 1.32559E-05 1.24357E-19-1.57064E-18
 -1      3790 8.83191E-05-2.58391E-05-2.67969E-05 1.18093E-05-7.51501E-19-2.05397E-18
 -1      3791 9.09543E-05-2.45679E-05-2.84641E-05 6.76409E-06 3.70558E-19-1.35067E-18
 -1      3792 9.08920E-05-2.47080E-05-2.83499E-05 7.43305E-06-1.65473E-19-1.69003E-18
 -1      3793 8.91040E-05-2.38466E-05-2.79628E-05 7.54907E-06-1.06981E-19-1.39783E-18
 -1      3794 9.15560E-05-2.46829E-05-2.86717E-05 5.51746E-06 7.19766E-19-9.09182E-19
 -1      3795 9.13900E-05-2.46341E-05-2.86004E-05 6.09708E-06 7.61747E-19-1.03448E-18
 -1      3796 8.99381E-05-2.38418E-05-2.83197E-05 6.08871E-06 1.54624E-19-1.33290E-18
 -1      3797 9.21918E-05-2.50233E-05-2.87970E-05 4.46721E-06 2.91024E-19-5.75038E-19
 -1      3798 9.19889E-05-2.48699E-05-2.87592E-05 4.96855E-06 6.94501E-19-4.85551E-19
 -1      3799 9.08131E-05-2.41548E-05-2.85598E-05 4.91107E-06 6.28920E-19-9.07712E-19
 -1      3800 9.27925E-05-2.54704E-05-2.88615E-05 3.58071E-06-7.34974E-20-6.13303E-19
 -1      3801 9.25897E-05-2.52681E-05-2.88478E-05 4.01145E-06 3.25085E-19-2.99297E-19
 -1      3802 9.16438E-05-2.46354E-05-2.87102E-05 3.94394E-06-9.78229E-21-5.81888E-19
 -1      3803 9.33245E-05-2.59480E-05-2.88834E-05 2.83567E-06 2.72068E-20-5.48665E-19
 -1      3804 9.31406E-05-2.57321E-05-2.88860E-05 3.20175E-06-8.67274E-20-4.53479E-19
 -1      3805 9.23870E-05-2.51836E-05-2.87946E-05 3.14237E-06-9.70383E-20-5.38962E-19
 -1      3806 9.37756E-05-2.64101E-05-2.88775E-05 2.21512E-06-4.50611E-19 1.09963E-19
 -1      3807 9.36184E-05-2.62017E-05-2.88901E-05 2.52203E-06-1.90054E-19 5.13606E-19
 -1      3808 9.30251E-05-2.57356E-05-2.88326E-05 2.47726E-06-6.09911E-19 2.00620E-20
 -1      3809 9.41459E-05-2.68309E-05-2.88547E-05 1.70449E-06-2.10295E-19 5.54488E-19
 -1      3810 9.40168E-05-2.66416E-05-2.88727E-05 1.95790E-06-5.24741E-19 8.36767E-20
 -1      3811 9.35562E-05-2.62531E-05-2.88395E-05 1.92826E-06-4.65000E-19 1.03510E-18
 -1      3812 9.44418E-05-2.71984E-05-2.88230E-05 1.29014E-06-3.84958E-19 6.15828E-19
 -1      3813 9.43391E-05-2.70335E-05-2.88432E-05 1.49605E-06 2.65756E-19 7.49952E-19
 -1      3814 9.39871E-05-2.67157E-05-2.88268E-05 1.47943E-06-2.12433E-19 7.92062E-19
 -1      3815 9.46727E-05-2.75093E-05-2.87878E-05 9.58917E-07-9.80306E-20-3.22188E-19
 -1      3816 9.45932E-05-2.73702E-05-2.88081E-05 1.12352E-06-4.54474E-19 2.31464E-19
 -1      3817 9.43287E-05-2.71149E-05-2.88030E-05 1.11694E-06-1.61424E-19 9.10460E-19
 -1      3818 9.48489E-05-2.77656E-05-2.87527E-05 6.98271E-07-1.03806E-18 6.15951E-19
 -1      3819 9.47889E-05-2.76512E-05-2.87718E-05 8.27687E-07-4.58081E-19 2.74937E-19
 -1      3820 9.45940E-05-2.74498E-05-2.87739E-05 8.28225E-07-4.85057E-19 9.32792E-19
 -1      3821 9.49804E-05-2.79721E-05-2.87200E-05 4.96473E-07-6.80948E-19 1.16977E-18
 -1      3822 9.49362E-05-2.78801E-05-2.87371E-05 5.96520E-07-1.07313E-18 1.48377E-18
 -1      3823 9.47957E-05-2.77240E-05-2.87434E-05 6.01676E-07-1.42253E-18 1.66821E-18
 -1      3824 9.50763E-05-2.81351E-05-2.86907E-05 3.42869E-07-6.04187E-19 1.96221E-18
 -1      3825 9.50446E-05-2.80627E-05-2.87055E-05 4.18872E-07-4.58352E-19 1.73490E-18
 -1      3826 9.49459E-05-2.79439E-05-2.87140E-05 4.26692E-07-9.04934E-19 1.79113E-18
 -1      3827 9.51444E-05-2.82613E-05-2.86654E-05 2.28040E-07-1.97935E-18 2.29834E-18
 -1      3828 9.51223E-05-2.82054E-05-2.86779E-05 2.84720E-07-1.25863E-18 2.69168E-18
 -1      3829 9.50551E-05-2.81166E-05-2.86871E-05 2.93776E-07-9.82246E-19 2.74717E-18
 -1      3830 9.51912E-05-2.83571E-05-2.86440E-05 1.43863E-07-1.73291E-18 1.46334E-18
 -1      3831 9.51764E-05-2.83147E-05-2.86544E-05 1.85294E-07-1.35417E-18 1.66707E-18
 -1      3832 9.51325E-05-2.82498E-05-2.86634E-05 1.94604E-07-1.45263E-18 1.88057E-18
 -1      3833 9.52221E-05-2.84284E-05-2.86265E-05 8.34999E-08-7.25108E-19 3.35093E-19
 -1      3834 9.52127E-05-2.83969E-05-2.86348E-05 1.13107E-07-1.26231E-18 1.24843E-18
 -1      3835 9.51856E-05-2.83505E-05-2.86432E-05 1.22045E-07-1.44984E-18 4.37962E-19
 -1      3836 9.52414E-05-2.84802E-05-2.86123E-05 4.13135E-08 3.63947E-19-1.08099E-19
 -1      3837 9.52359E-05-2.84574E-05-2.86189E-05 6.19153E-08-3.08620E-19 1.36484E-19
 -1      3838 9.52206E-05-2.84251E-05-2.86264E-05 7.01176E-08 2.67514E-20-2.73696E-19
 -1      3839 9.52523E-05-2.85171E-05-2.86011E-05 1.27571E-08-1.47301E-19-1.31877E-19
 -1      3840 9.52495E-05-2.85009E-05-2.86062E-05 2.66213E-08-3.48861E-20 1.15650E-19
 -1      3841 9.52423E-05-2.84792E-05-2.86126E-05 3.39119E-08-2.87140E-19 1.60908E-19
 -1      3842 9.52574E-05-2.85427E-05-2.85922E-05-5.76961E-09 4.74456E-19 3.32412E-19
 -1      3843 9.52564E-05-2.85315E-05-2.85962E-05 3.14667E-09 3.53011E-19 2.72322E-19
 -1      3844 9.52545E-05-2.85174E-05-2.86015E-05 9.47920E-09 4.38081E-20-6.54809E-19
 -1      3845 9.52587E-05-2.85599E-05-2.85853E-05-1.70412E-08 4.20987E-19 2.29369E-18
 -1      3846 9.52589E-05-2.85523E-05-2.85884E-05-1.17014E-08 4.98150E-19 2.13822E-18
 -1      3847 9.52601E-05-2.85438E-05-2.85927E-05-6.31500E-09-5.81776E-19 1.54371E-18
 -1      3848 9.52576E-05-2.85713E-05-2.85799E-05-2.32476E-08-3.25273E-19 3.17859E-18
 -1      3849 9.52585E-05-2.85662E-05-2.85823E-05-2.03607E-08 1.62431E-19 2.72493E-18
 -1      3850 9.52614E-05-2.85614E-05-2.85857E-05-1.58443E-08-1.64709E-19 3.76692E-18
 -1      3851 9.56856E-05-2.42823E-05-3.06073E-05-5.61523E-06 4.67989E-19-3.23029E-19
 -1      3852 9.51093E-05-2.48888E-05-3.00955E-05-7.15305E-06 3.83186E-19-3.81875E-19
 -1      3853 6.49730E-05-1.57182E-05-2.10039E-05-1.24912E-05-9.91293E-20-9.06365E-19
 -1      3854 7.13830E-05-2.06818E-05-2.18119E-05-1.84787E-05-3.37692E-19-8.15322E-19
 -1      3855 6.95066E-05-1.85085E-05-2.19761E-05 1.55056E-05 4.04026E-19-7.66737E-19
 -1      3856 6.29266E-05-1.45617E-05-2.04127E-05 1.09248E-05 3.79424E-19-1.09990E-18
 -1      3857 6.43490E-05-1.39009E-05-2.15526E-05 6.20780E-06 3.04297E-19-1.03133E-18
 -1      3858 9.67000E-05-3.72138E-05-2.55361E-05 2.11168E-05 2.91346E-19 3.56879E-20
 -1      3859 8.42885E-05-3.12456E-05-2.27434E-05 2.24925E-05 1.32415E-20-1.51230E-18
 -1      3860 7.58860E-05-2.47323E-05-2.18850E-05 1.92788E-05 3.12449E-19-1.07740E-18
 -1      3861 8.89258E-05-3.23155E-05-2.41725E-05 1.98143E-05 1.43916E-19-9.81040E-19
 -1      3862 9.02584E-05-3.31273E-05-2.43177E-05-2.03953E-05 1.06692E-18 2.24353E-18
 -1      3863 9.52636E-05-2.85776E-05-2.85797E-05-1.50486E-08 6.30791E-19 6.07795E-19
 -1      3864 9.52606E-05-2.85766E-05-2.85789E-05-2.01768E-08 5.01530E-19 1.35369E-18
 -1      3865 9.81187E-05-3.66658E-05-2.61462E-05-1.89489E-05-6.47213E-19-2.86383E-19
 -1      3866 9.52592E-05-2.85741E-05-2.85793E-05-2.17883E-08-9.21423E-22 3.31759E-18
 -1      3867 8.68327E-05-2.83841E-05-2.50311E-05-1.66975E-05 7.96175E-19 2.17421E-18
 -1      3868 8.57241E-05-2.61427E-05-2.55172E-05-1.48179E-05 4.70242E-19 1.64175E-18
 -1      3869 8.23495E-05-2.35867E-05-2.51365E-05-1.35388E-05 6.81961E-20 1.50872E-18
 -1      3870 7.95591E-05-2.60683E-05-2.26937E-05-2.16448E-05-7.19187E-19-8.81814E-19
 -1      3871 8.89951E-05-3.28314E-05-2.41828E-05-2.25733E-05-8.63333E-19-5.88979E-19
 -1      3872 7.61400E-05-2.33671E-05-2.23585E-05-1.77079E-05 8.39883E-19 2.01407E-18
 -1      3873 8.38010E-05-2.88668E-05-2.35978E-05-1.96687E-05 1.06518E-18 2.53602E-18
 -1      3874 8.72973E-05-1.79644E-05-2.96963E-05-5.88520E-06 3.27252E-19-4.25064E-19
 -1      3875 8.47562E-05-1.61994E-05-2.94164E-05-5.64797E-06 2.79629E-19-5.48038E-19
 -1      3876 8.36514E-05-1.65186E-05-2.87506E-05-6.56563E-06 1.41613E-19-5.75810E-19
 -1      3877 8.91475E-05-2.04401E-05-2.94384E-05-7.30544E-06 2.50223E-19-4.35886E-19
 -1      3878 9.31620E-05-2.42637E-05-2.95550E-05-8.38805E-06 3.01109E-19-5.04751E-19
 -1      3879 9.52626E-05-2.85707E-05-2.85822E-05-1.75760E-08 8.41836E-19 2.66896E-18
 -1      3880 7.73501E-05-1.19155E-05-2.80160E-05-8.07260E-07 1.36161E-19-8.68918E-19
 -1      3881 7.78411E-05-1.11078E-05-2.86316E-05 2.18641E-07 1.79459E-19-9.72249E-19
 -1      3882 8.50793E-05-2.76006E-05-2.47237E-05 1.92184E-05 3.20261E-19-1.80921E-20
 -1      3883 7.72159E-05-2.22192E-05-2.33021E-05 1.79224E-05 3.86517E-19-3.54257E-19
 -1      3884 9.35958E-05-3.23443E-05-2.62582E-05-1.76522E-05-4.36143E-19-4.51715E-19
 -1      3885 8.19986E-05-2.13497E-05-2.59118E-05 1.38511E-05 9.75924E-20-3.51811E-19
 -1      3886 8.60687E-05-2.49771E-05-2.61966E-05 1.54430E-05 2.34047E-19-2.84626E-19
 -1      3887 7.29312E-05-2.17492E-05-2.18397E-05 1.65977E-05-4.90515E-19 2.34866E-19
 -1      3888 7.04166E-05-1.91731E-05-2.20174E-05 1.23702E-05-1.31221E-18 1.60584E-18
 -1      3889 7.82962E-05-2.39366E-05-2.31981E-05 1.62040E-05-6.43645E-19-3.32460E-19
 -1      3890 9.00918E-05-2.21729E-05-2.90905E-05-8.62826E-06 2.44525E-19-3.89169E-19
 -1      3891 8.70192E-05-2.01453E-05-2.87012E-05-8.70463E-06 1.94013E-19-3.48571E-19
 -1      3892 9.12323E-05-2.40191E-05-2.88126E-05-9.83657E-06 1.31697E-19-3.75931E-19
 -1      3893 8.51366E-05-1.67530E-05-2.93111E-05 5.95179E-06 1.08888E-19-4.94511E-19
 -1      3894 8.55013E-05-1.79888E-05-2.89148E-05 7.21880E-06 9.83683E-20-4.35594E-19
 -1      3895 8.26684E-05-1.49598E-05-2.90125E-05 5.37373E-06 2.37462E-19-5.53467E-19
 -1      3896 7.46279E-05-1.93944E-05-2.37169E-05 1.42561E-05 2.89857E-19-5.85889E-19
 -1      3897 6.59260E-05-1.60978E-05-2.13584E-05 5.80294E-06-4.83507E-19 2.31372E-18
 -1      3898 6.23122E-05-1.43820E-05-2.02658E-05 5.48121E-07-3.06810E-19 2.47804E-18
 -1      3899 6.53876E-05-1.57722E-05-2.13622E-05-3.89380E-06-1.01617E-19 2.10956E-18
 -1      3900 9.52665E-05-2.85778E-05-2.85809E-05 2.09961E-09-1.13636E-18-1.13203E-18
 -1      3901 9.52665E-05-2.85778E-05-2.85809E-05-2.19122E-09-8.55265E-19-1.07055E-18
 -1      3902 9.19160E-05-2.56450E-05-2.83768E-05-1.12132E-05 3.40023E-20-3.85983E-19
 -1      3903 8.11146E-05-1.22757E-05-2.94856E-05 3.03979E-06 1.79234E-19-4.49461E-19
 -1      3904 8.15235E-05-1.33631E-05-2.92220E-05 3.90552E-06 3.24641E-19-5.56206E-19
 -1      3905 8.13495E-05-1.43239E-05-2.87505E-05 4.98795E-06 3.40498E-19-4.14505E-19
 -1      3906 7.97347E-05-1.15947E-05-2.92426E-05 2.42967E-06 2.86147E-19-5.55610E-19
 -1      3907 7.78690E-05-2.27921E-05-2.35066E-05-1.74764E-05-4.30870E-19-6.67925E-19
 -1      3908 6.41489E-05-1.39365E-05-2.13827E-05-8.42914E-06-5.57487E-20-9.98705E-19
 -1      3909 6.94373E-05-1.56595E-05-2.30921E-05-9.90623E-06-1.79253E-19-7.77550E-19
 -1      3910 6.44812E-05-1.30651E-05-2.20803E-05-3.06805E-06-3.31534E-21-9.83670E-19
 -1      3911 7.37620E-05-2.07364E-05-2.27238E-05-1.33397E-05 4.66709E-19 1.77219E-18
 -1      3912 9.52654E-05-2.85781E-05-2.85803E-05 8.89763E-09-1.95160E-19 1.81417E-19
 -1      3913 9.52661E-05-2.85780E-05-2.85806E-05 5.54682E-09-8.16326E-19-4.77729E-19
 -1      3914 9.52676E-05-2.85733E-05-2.85832E-05 3.14037E-09-8.11790E-19-3.01702E-19
 -1      3915 7.83864E-05-1.11659E-05-2.87887E-05 1.25998E-06 2.01874E-19-7.12632E-19
 -1      3916 9.52660E-05-2.85779E-05-2.85807E-05-6.46171E-09-9.54924E-19-7.09453E-19
 -1      3917 9.52649E-05-2.85778E-05-2.85803E-05-1.06232E-08-2.97858E-19-1.56940E-19
 -1      3918 9.52675E-05-2.85731E-05-2.85832E-05-4.14391E-09-6.19050E-19-1.09243E-18
 -1      3919 9.52655E-05-2.85731E-05-2.85824E-05-1.23749E-08-2.61094E-20-4.17955E-19
 -1      3920 8.74808E-05-2.78870E-05-2.55237E-05 1.77344E-05 2.06458E-19-1.57326E-19
 -1      3921 9.48628E-05-3.08056E-05-2.74695E-05-1.44893E-05-2.25025E-19-4.66543E-19
 -1      3922 9.25911E-05-2.78370E-05-2.78017E-05-1.31668E-05-7.95754E-20-4.62052E-19
 -1      3923 8.85492E-05-2.37613E-05-2.77135E-05-1.21041E-05 8.48174E-20-2.56184E-19
 -1      3924 9.37101E-05-3.15581E-05-2.66005E-05 1.47377E-05 5.76332E-19-1.77013E-18
 -1      3925 9.59371E-05-3.42593E-05-2.63784E-05 1.57044E-05 4.00369E-19-1.15543E-18
 -1      3926 9.34992E-05-3.43365E-05-2.54229E-05 1.82014E-05 1.85097E-19-1.13697E-18
 -1      3927 8.95373E-05-2.88460E-05-2.60554E-05 1.48461E-05 1.17599E-19-1.70436E-18
 -1      3928 8.38291E-05-1.78237E-05-2.82707E-05-7.94563E-06 1.51960E-19-5.31503E-19
 -1      3929 8.11635E-05-1.60544E-05-2.79396E-05-7.25817E-06 1.62172E-19-6.85521E-19
 -1      3930 8.44071E-05-1.94970E-05-2.78564E-05-9.50063E-06 1.71041E-19-4.49660E-19
 -1      3931 7.86202E-05-1.41262E-05-2.76334E-05-5.36553E-06 1.62170E-19-7.17271E-19
 -1      3932 7.70361E-05-1.30408E-05-2.74322E-05-3.82743E-06 1.73225E-19-7.62612E-19
 -1      3933 7.85052E-05-1.53210E-05-2.70973E-05-6.91514E-06 1.53548E-19-6.89858E-19
 -1      3934 8.55133E-05-1.89530E-05-2.85241E-05 8.32658E-06 1.48879E-19-4.81915E-19
 -1      3935 8.59432E-05-2.02482E-05-2.81145E-05 9.68263E-06 1.14576E-19-4.16722E-19
 -1      3936 8.25175E-05-1.88077E-05-2.72679E-05 1.01351E-05 1.49348E-19-2.79395E-19
 -1      3937 8.25632E-05-1.69235E-05-2.81296E-05 7.69160E-06 1.99296E-19-4.17744E-19
 -1      3938 7.60474E-05-1.23027E-05-2.73428E-05-1.25142E-06 1.22300E-19-8.23137E-19
 -1      3939 7.61274E-05-1.21833E-05-2.73424E-05 8.28101E-07 2.33563E-20-7.81063E-19
 -1      3940 7.54697E-05-1.30588E-05-2.67290E-05-2.18365E-06 1.20380E-19-8.03069E-19
 -1      3941 8.75841E-05-2.70220E-05-2.58345E-05-1.70498E-05-3.63116E-19-5.71736E-19
 -1      3942 7.78614E-05-1.74064E-05-2.60027E-05 9.82558E-06 1.14503E-19-6.64448E-19
 -1      3943 7.70982E-05-1.87593E-05-2.50246E-05 1.20465E-05 2.00565E-19-5.71916E-19
 -1      3944 7.14489E-05-1.52198E-05-2.39074E-05 9.30780E-06 3.01246E-19-7.69779E-19
 -1      3945 8.90161E-05-2.31933E-05-2.82280E-05 5.11089E-06-5.30987E-20-1.84967E-18
 -1      3946 8.85722E-05-2.30510E-05-2.80731E-05 5.72478E-06-9.58324E-20-2.42788E-18
 -1      3947 8.33464E-05-2.09571E-05-2.67300E-05-6.98923E-06 2.21998E-19 1.61547E-18
 -1      3948 8.42084E-05-2.10556E-05-2.71022E-05-6.13676E-06 3.83167E-20 1.33412E-18
 -1      3949 8.54621E-05-2.13728E-05-2.74647E-05-5.48963E-06-7.55009E-21 1.67746E-18
 -1      3950 8.62622E-05-2.16290E-05-2.77251E-05-4.86358E-06 2.22225E-19 1.51855E-18
 -1      3951 8.36480E-05-2.03934E-05-2.70675E-05-4.62652E-06 4.77556E-20 2.40938E-18
 -1      3952 8.72951E-05-2.20206E-05-2.79754E-05-4.39094E-06-2.98685E-19 1.17316E-18
 -1      3953 8.80068E-05-2.23621E-05-2.81523E-05-3.90400E-06-2.78202E-19 9.50597E-19
 -1      3954 8.59096E-05-2.12252E-05-2.76945E-05-3.65093E-06-2.94372E-19 3.10807E-18
 -1      3955 8.88680E-05-2.27901E-05-2.83207E-05-3.53793E-06-2.57310E-19 8.75310E-19
 -1      3956 8.94850E-05-2.31691E-05-2.84355E-05-3.14481E-06-1.46221E-19 8.90635E-20
 -1      3957 8.77809E-05-2.21118E-05-2.81232E-05-2.92198E-06-4.21713E-19 1.69831E-18
 -1      3958 9.01985E-05-2.35988E-05-2.85446E-05-2.85224E-06-3.16979E-19-4.13571E-19
 -1      3959 9.07212E-05-2.39802E-05-2.86146E-05-2.52653E-06-3.95720E-19 8.75292E-21
 -1      3960 8.93386E-05-2.30155E-05-2.84079E-05-2.35387E-06-3.00541E-19 1.08505E-18
 -1      3961 9.13083E-05-2.43889E-05-2.86814E-05-2.28666E-06 1.16065E-20-3.91620E-19
 -1      3962 9.17420E-05-2.47503E-05-2.87198E-05-2.01385E-06 3.88802E-19 4.55384E-19
 -1      3963 9.06250E-05-2.38868E-05-2.85891E-05-1.89187E-06-1.12865E-19 4.69127E-19
 -1      3964 9.22204E-05-2.51239E-05-2.87569E-05-1.81548E-06 2.87198E-19 2.81212E-19
 -1      3965 9.25737E-05-2.54518E-05-2.87738E-05-1.58712E-06-3.60480E-20 2.10634E-20
 -1      3966 9.16790E-05-2.46951E-05-2.86971E-05-1.50847E-06 1.01932E-19 4.46318E-19
 -1      3967 9.29586E-05-2.57824E-05-2.87907E-05-1.42346E-06 1.55630E-20-6.41058E-19
 -1      3968 9.32414E-05-2.60704E-05-2.87935E-05-1.23382E-06 3.03966E-19-6.14867E-19
 -1      3969 9.25333E-05-2.54212E-05-2.87542E-05-1.18897E-06 4.45024E-20-3.97979E-19
 -1      3970 9.35470E-05-2.63550E-05-2.87971E-05-1.09996E-06 2.75509E-19-1.19260E-18
 -1      3971 9.37695E-05-2.66010E-05-2.87912E-05-9.44397E-07-3.37626E-19-1.68445E-18
 -1      3972 9.32165E-05-2.60553E-05-2.87770E-05-9.24167E-07-3.37309E-19-1.75336E-18
 -1      3973 9.40084E-05-2.68404E-05-2.87866E-05-8.36274E-07-4.29998E-19-1.45528E-18
 -1      3974 9.41805E-05-2.70457E-05-2.87758E-05-7.10489E-07-7.11594E-19-1.12111E-18
 -1      3975 9.37552E-05-2.65958E-05-2.87777E-05-7.07072E-07 3.29864E-20-1.42869E-18
 -1      3976 9.43644E-05-2.72428E-05-2.87665E-05-6.24414E-07-1.18683E-18-1.40477E-19
 -1      3977 9.44952E-05-2.74107E-05-2.87534E-05-5.24287E-07-1.12782E-18 3.38353E-19
 -1      3978 9.41735E-05-2.70466E-05-2.87649E-05-5.31535E-07-1.56932E-19-1.32814E-18
 -1      3979 9.46343E-05-2.75699E-05-2.87419E-05-4.56838E-07-1.19420E-18 6.90987E-19
 -1      3980 9.47319E-05-2.77045E-05-2.87283E-05-3.78427E-07-4.73103E-19-1.98144E-19
 -1      3981 9.44930E-05-2.74151E-05-2.87449E-05-3.91779E-07-1.03426E-18 4.57371E-19
 -1      3982 9.48352E-05-2.78307E-05-2.87162E-05-3.26454E-07-7.64061E-19-6.38368E-19
 -1      3983 9.49066E-05-2.79367E-05-2.87031E-05-2.66082E-07-1.28029E-18-3.02742E-19
 -1      3984 9.47327E-05-2.77106E-05-2.87217E-05-2.82323E-07-1.20605E-18 3.39774E-20
 -1      3985 9.49817E-05-2.80349E-05-2.86914E-05-2.26739E-07-1.65160E-18-1.31113E-19
 -1      3986 9.50327E-05-2.81169E-05-2.86795E-05-1.81073E-07-1.68026E-18-7.83878E-19
 -1      3987 9.49091E-05-2.79435E-05-2.86981E-05-1.98058E-07-1.22800E-18-3.03001E-19
 -1      3988 9.50860E-05-2.81920E-05-2.86687E-05-1.51851E-07-2.02534E-18-1.41593E-18
 -1      3989 9.51213E-05-2.82543E-05-2.86582E-05-1.17958E-07-1.50540E-18-2.13140E-18
 -1      3990 9.50360E-05-2.81236E-05-2.86757E-05-1.34347E-07-2.17066E-18-1.39359E-18
 -1      3991 9.51581E-05-2.83107E-05-2.86488E-05-9.67026E-08 5.85837E-19-2.85247E-18
 -1      3992 9.51817E-05-2.83570E-05-2.86398E-05-7.20645E-08 1.22931E-18-1.78100E-18
 -1      3993 9.51250E-05-2.82605E-05-2.86555E-05-8.70961E-08-9.19502E-19-1.93174E-18
 -1      3994 9.52061E-05-2.83985E-05-2.86317E-05-5.69651E-08 1.19496E-18-7.92169E-19
 -1      3995 9.52211E-05-2.84323E-05-2.86243E-05-3.94745E-08 1.26991E-18-4.11575E-20
 -1      3996 9.51852E-05-2.83625E-05-2.86378E-05-5.27869E-08 1.79449E-18-8.55016E-19
 -1      3997 9.52364E-05-2.84621E-05-2.86174E-05-2.90450E-08 5.07466E-19 1.04959E-19
 -1      3998 9.52453E-05-2.84862E-05-2.86113E-05-1.69771E-08 6.31025E-19 1.94300E-19
 -1      3999 9.52243E-05-2.84370E-05-2.86228E-05-2.84683E-08 1.48460E-18-4.99630E-19
 -1      4000 9.52540E-05-2.85071E-05-2.86057E-05-1.00273E-08 6.16204E-19-4.72232E-19
 -1      4001 9.52585E-05-2.85239E-05-2.86008E-05-2.00422E-09 3.24634E-19-6.55610E-19
 -1      4002 9.52479E-05-2.84901E-05-2.86103E-05-1.17206E-08 2.91838E-19 3.78112E-19
 -1      4003 9.52628E-05-2.85381E-05-2.85962E-05 2.40824E-09-1.58912E-19-3.18372E-20
 -1      4004 9.52644E-05-2.85495E-05-2.85922E-05 7.48982E-09-1.18159E-18 4.03119E-20
 -1      4005 9.52606E-05-2.85271E-05-2.86000E-05-6.29517E-10 3.09929E-19-1.56649E-18
 -1      4006 9.52656E-05-2.85589E-05-2.85885E-05 1.00728E-08-1.52984E-18 6.57354E-19
 -1      4007 9.52654E-05-2.85664E-05-2.85853E-05 1.30290E-08-1.79551E-18-4.46853E-20
 -1      4008 9.52659E-05-2.85521E-05-2.85916E-05 6.36505E-09-1.07303E-18-1.40098E-18
 -1      4009 8.65309E-05-2.29220E-05-2.72890E-05 8.11476E-06-4.64081E-19-1.63712E-18
 -1      4010 8.62989E-05-2.32740E-05-2.69822E-05 9.12658E-06-3.53802E-19-1.63280E-18
 -1      4011 8.77820E-05-2.28731E-05-2.78410E-05 6.41172E-06 2.25716E-19-2.33412E-18
 -1      4012 8.73883E-05-2.29132E-05-2.76175E-05 7.18799E-06-1.25765E-19-2.06695E-18
 -1      4013 8.69869E-05-2.21744E-05-2.77594E-05 5.35662E-06-1.00249E-19-2.23783E-18
 -1      4014 8.54082E-05-2.35781E-05-2.65296E-05 1.04310E-05-3.80127E-19-8.70998E-19
 -1      4015 8.55005E-05-2.44382E-05-2.61240E-05 1.17844E-05-5.48792E-19-5.80657E-19
 -1      4016 8.35533E-05-2.19952E-05-2.63665E-05 8.98718E-06-5.37188E-20-8.13696E-19
 -1      4017 9.01591E-05-2.37213E-05-2.84879E-05 4.08357E-06 3.24834E-20-7.31181E-19
 -1      4018 8.97214E-05-2.34773E-05-2.83865E-05 4.58187E-06 1.54079E-19-9.27873E-19
 -1      4019 8.84769E-05-2.27249E-05-2.81642E-05 4.22202E-06-2.31996E-19-1.35126E-18
 -1      4020 9.11736E-05-2.43450E-05-2.86526E-05 3.25414E-06-2.50015E-19-2.86247E-19
 -1      4021 9.07727E-05-2.40550E-05-2.85914E-05 3.66545E-06-3.19014E-19-5.73744E-19
 -1      4022 8.97879E-05-2.34060E-05-2.84364E-05 3.34432E-06-3.45299E-19 3.78780E-19
 -1      4023 9.20462E-05-2.49891E-05-2.87484E-05 2.57565E-06-9.27430E-19 1.01833E-18
 -1      4024 9.16961E-05-2.46898E-05-2.87160E-05 2.91754E-06-4.92758E-19 5.66820E-19
 -1      4025 9.09152E-05-2.41316E-05-2.86107E-05 2.64737E-06-1.05393E-18-2.22838E-19
 -1      4026 9.27778E-05-2.56061E-05-2.87957E-05 2.01852E-06-8.37319E-19 1.66209E-18
 -1      4027 9.24825E-05-2.53202E-05-2.87832E-05 2.30234E-06-7.90592E-19 1.33431E-18
 -1      4028 9.18655E-05-2.48445E-05-2.87143E-05 2.08426E-06-1.26287E-18 2.06455E-18
 -1      4029 9.33775E-05-2.61682E-05-2.88104E-05 1.56264E-06-6.42693E-19 1.74905E-18
 -1      4030 9.31353E-05-2.59087E-05-2.88109E-05 1.79657E-06-7.51695E-19 1.39161E-18
 -1      4031 9.26517E-05-2.55087E-05-2.87684E-05 1.62631E-06-8.98745E-19 2.32432E-18
 -1      4032 9.38593E-05-2.66614E-05-2.88042E-05 1.19268E-06-6.04475E-19 2.46493E-18
 -1      4033 9.36652E-05-2.64345E-05-2.88127E-05 1.38340E-06-5.84994E-19 1.91100E-18
 -1      4034 9.32905E-05-2.61033E-05-2.87888E-05 1.25439E-06-8.84868E-19 1.92634E-18
 -1      4035 9.42387E-05-2.70816E-05-2.87857E-05 8.95805E-07-6.59676E-19 2.09481E-18
 -1      4036 9.40867E-05-2.68890E-05-2.87985E-05 1.04929E-06-6.37235E-19 1.95346E-18
 -1      4037 9.38003E-05-2.66191E-05-2.87874E-05 9.54336E-07-5.57142E-19 1.82109E-18
 -1      4038 9.45320E-05-2.74307E-05-2.87609E-05 6.60698E-07-5.23306E-19 1.67200E-18
 -1      4039 9.44152E-05-2.72712E-05-2.87755E-05 7.82456E-07-2.96315E-19 2.19451E-18
 -1      4040 9.41998E-05-2.70550E-05-2.87729E-05 7.14679E-07-9.50215E-19 2.54640E-18
 -1      4041 9.47542E-05-2.77144E-05-2.87339E-05 4.77177E-07-1.54522E-18 1.21851E-18
 -1      4042 9.46665E-05-2.75853E-05-2.87486E-05 5.72298E-07-8.89636E-19 1.45237E-18
 -1      4043 9.45072E-05-2.74148E-05-2.87513E-05 5.25603E-07-6.05380E-19 1.56558E-18
 -1      4044 9.49193E-05-2.79404E-05-2.87071E-05 3.36127E-07-1.03380E-18 1.67370E-18
 -1      4045 9.48547E-05-2.78379E-05-2.87211E-05 4.09254E-07-1.65239E-18 8.47892E-19
 -1      4046 9.47395E-05-2.77058E-05-2.87267E-05 3.78483E-07-1.25459E-18 4.04254E-19
 -1      4047 9.50390E-05-2.81170E-05-2.86823E-05 2.29505E-07-9.96137E-19 2.56583E-18
 -1      4048 9.49927E-05-2.80372E-05-2.86948E-05 2.84773E-07-8.69038E-19 2.62392E-18
 -1      4049 9.49113E-05-2.79366E-05-2.87020E-05 2.65724E-07-1.19126E-18 1.99982E-18
 -1      4050 9.51237E-05-2.82524E-05-2.86602E-05 1.50344E-07-1.36200E-18 1.22000E-18
 -1      4051 9.50914E-05-2.81914E-05-2.86711E-05 1.91357E-07-8.52660E-19 1.97117E-18
 -1      4052 9.50356E-05-2.81163E-05-2.86787E-05 1.80703E-07-6.34130E-19 2.49463E-18
 -1      4053 9.51817E-05-2.83542E-05-2.86411E-05 9.27298E-08-1.32205E-18 1.09075E-19
 -1      4054 9.51600E-05-2.83085E-05-2.86504E-05 1.22555E-07-1.51082E-18 2.30145E-20
 -1      4055 9.51232E-05-2.82535E-05-2.86577E-05 1.17733E-07-2.13178E-19 1.45221E-18
 -1      4056 9.52198E-05-2.84292E-05-2.86251E-05 5.17404E-08-6.60525E-19 2.99253E-19
 -1      4057 9.52059E-05-2.83956E-05-2.86327E-05 7.29335E-08-1.08461E-18-2.15445E-19
 -1      4058 9.51828E-05-2.83563E-05-2.86395E-05 7.20143E-08-8.14982E-19 1.36004E-19
 -1      4059 9.52433E-05-2.84832E-05-2.86118E-05 2.33592E-08-5.87455E-20 3.36191E-19
 -1      4060 9.52351E-05-2.84591E-05-2.86181E-05 3.80063E-08-6.71571E-19 2.03077E-20
 -1      4061 9.52218E-05-2.84317E-05-2.86240E-05 3.95732E-08-9.71755E-19-4.15096E-20
 -1      4062 9.52564E-05-2.85211E-05-2.86011E-05 4.38004E-09-4.88035E-19 3.08544E-19
 -1      4063 9.52522E-05-2.85043E-05-2.86061E-05 1.41478E-08 3.67485E-19 1.70702E-19
 -1      4064 9.52456E-05-2.84857E-05-2.86112E-05 1.71768E-08 2.81348E-20 9.92521E-19
 -1      4065 9.52624E-05-2.85470E-05-2.85925E-05-7.76129E-09-9.38350E-19 1.32405E-18
 -1      4066 9.52608E-05-2.85355E-05-2.85964E-05-1.50599E-09-1.06785E-18 7.19763E-19
 -1      4067 9.52587E-05-2.85235E-05-2.86007E-05 2.30494E-09-1.27638E-18 9.50107E-19
 -1      4068 9.52637E-05-2.85643E-05-2.85855E-05-1.49562E-08-3.45127E-19 1.83141E-18
 -1      4069 9.52639E-05-2.85566E-05-2.85887E-05-1.12287E-08-4.30242E-19 1.41340E-18
 -1      4070 9.52643E-05-2.85493E-05-2.85922E-05-7.18475E-09-4.17305E-19-5.65503E-19
 -1      4071 6.83856E-05-1.42136E-05-2.32661E-05 6.26601E-06 2.89834E-19-9.19970E-19
 -1      4072 6.54158E-05-1.26329E-05-2.24488E-05 1.18726E-06 1.51200E-19-1.06521E-18
 -1      4073 6.88705E-05-1.33375E-05-2.37484E-05-1.87578E-06 6.62158E-20-7.59989E-19
 -1      4074 7.12760E-05-1.39272E-05-2.46532E-05 4.87932E-06 1.50424E-19-8.76462E-19
 -1      4075 9.19756E-05-3.24327E-05-2.54028E-05 1.98850E-05 1.38497E-19-3.50923E-20
 -1      4076 7.87155E-05-1.22449E-05-2.84927E-05 2.48255E-06 2.24834E-19-6.72067E-19
 -1      4077 9.52630E-05-2.85787E-05-2.85790E-05 1.52429E-08 2.28651E-19-4.17169E-19
 -1      4078 9.52644E-05-2.85789E-05-2.85796E-05 1.19953E-08-4.74703E-19 7.35918E-19
 -1      4079 9.52663E-05-2.85745E-05-2.85822E-05 9.42396E-09 1.43856E-19-3.44203E-20
 -1      4080 9.52638E-05-2.85759E-05-2.85805E-05 1.52764E-08 5.43249E-19 2.62211E-19
 -1      4081 8.63247E-05-2.90357E-05-2.45264E-05 1.78245E-05 5.50287E-19-1.38934E-18
 -1      4082 8.48737E-05-2.13663E-05-2.72193E-05-1.14653E-05 3.94445E-20-4.45698E-19
 -1      4083 9.52683E-05-2.85674E-05-2.85861E-05-1.77725E-09-1.11945E-18-7.32852E-19
 -1      4084 9.52678E-05-2.85676E-05-2.85859E-05-5.54360E-09-4.08348E-19-1.91549E-18
 -1      4085 9.52648E-05-2.85666E-05-2.85850E-05-1.34840E-08 4.35710E-19-4.90719E-19
 -1      4086 7.47308E-05-1.83216E-05-2.39405E-05-1.37287E-05-6.20609E-20-6.43335E-19
 -1      4087 8.08966E-05-2.34999E-05-2.46714E-05-1.66921E-05-2.87098E-19-6.47768E-19
 -1      4088 8.35476E-05-2.27982E-05-2.61083E-05-1.40882E-05-2.30089E-20-4.62748E-19
 -1      4089 7.30952E-05-1.65523E-05-2.42062E-05-1.00725E-05-9.19229E-20-6.96261E-19
 -1      4090 7.03190E-05-1.74903E-05-2.24106E-05-9.56582E-06 7.90851E-20 1.36243E-18
 -1      4091 7.75752E-05-2.15452E-05-2.40715E-05-1.25012E-05 5.16122E-19 1.09060E-18
 -1      4092 8.09222E-05-2.09412E-05-2.56939E-05-9.16562E-06 1.23426E-19 1.42570E-18
 -1      4093 8.17947E-05-2.07718E-05-2.62105E-05-7.92471E-06 1.76961E-19 1.53652E-18
 -1      4094 8.08841E-05-1.96938E-05-2.61652E-05-6.01849E-06 3.14049E-19 1.34818E-18
 -1      4095 7.00009E-05-1.68540E-05-2.27862E-05-4.53655E-06 6.08276E-20 1.78863E-18
 -1      4096 7.34524E-05-1.91574E-05-2.32172E-05 1.01635E-05-5.55558E-19 1.41507E-18
 -1      4097 6.92871E-05-1.72625E-05-2.21704E-05 8.61281E-06-6.94466E-19 2.47691E-18
 -1      4098 6.89403E-05-1.64036E-05-2.26329E-05 4.08718E-06-1.96603E-19 1.94469E-18
 -1      4099 8.68776E-05-2.76699E-05-2.52987E-05 1.54003E-05 1.93133E-19-4.62221E-19
 -1      4100 8.20990E-05-2.57505E-05-2.41479E-05 1.65202E-05 7.61337E-21-2.31137E-19
 -1      4101 7.88792E-05-2.28984E-05-2.40398E-05 1.40513E-05-6.36635E-19 5.84350E-19
 -1      4102 8.56079E-05-2.57117E-05-2.56826E-05 1.36712E-05-4.45739E-19-5.38608E-19
 -1      4103 8.53369E-05-2.18750E-05-2.71783E-05 6.87635E-06-2.27286E-20-2.02649E-18
 -1      4104 9.52644E-05-2.85727E-05-2.85821E-05 1.46207E-08-1.00265E-18 7.07427E-19
 -1      4105 7.84605E-05-2.07524E-05-2.48043E-05-1.04940E-05 2.68196E-19 1.00023E-18
 -1      4106 7.73509E-05-1.27272E-05-2.77570E-05 2.86910E-06 6.97470E-20-7.25582E-19
 -1      4107 7.93013E-05-1.32179E-05-2.82613E-05 4.09727E-06 1.92530E-19-5.31326E-19
 -1      4108 8.00705E-05-1.47288E-05-2.80173E-05 5.66910E-06 1.75604E-19-5.55125E-19
 -1      4109 7.60755E-05-1.30226E-05-2.70711E-05 2.70561E-06-3.15230E-20-7.13368E-19
 -1      4110 7.70773E-05-1.91032E-05-2.47418E-05-8.00290E-06 5.09761E-19 9.75279E-19
 -1      4111 7.98297E-05-1.82322E-05-2.62935E-05-1.07964E-05 1.08524E-19-6.56960E-19
 -1      4112 9.52666E-05-2.85667E-05-2.85857E-05-9.80699E-09-6.51863E-20-1.87764E-18
 -1      4113 8.25787E-05-2.33083E-05-2.54078E-05 1.22143E-05-3.41479E-19 3.76650E-19
 -1      4114 9.52683E-05-2.85676E-05-2.85861E-05 9.72209E-10-1.04163E-18 1.12234E-19
 -1      4115 9.52686E-05-2.85608E-05-2.85889E-05-7.77277E-10-2.29226E-19-6.76559E-19
 -1      4116 9.52680E-05-2.85678E-05-2.85858E-05 3.97537E-09-3.81908E-19 3.08434E-19
 -1      4117 9.52672E-05-2.85597E-05-2.85888E-05-6.84177E-09-2.98423E-19-2.39103E-18
 -1      4118 7.66791E-05-1.62640E-05-2.59317E-05-8.74564E-06 2.63507E-20-7.59001E-19
 -1      4119 9.52662E-05-2.85689E-05-2.85846E-05 1.07031E-08-8.48865E-19-1.89485E-20
 -1      4120 7.04066E-05-1.60734E-05-2.31265E-05-3.02276E-07 1.61342E-20 1.50678E-18
 -1      4121 7.34592E-05-1.76834E-05-2.39834E-05-5.25389E-06 2.68849E-19 1.60965E-18
 -1      4122 7.97164E-05-1.64884E-05-2.71188E-05 7.97001E-06 7.39963E-20-5.20512E-19
 -1      4123 7.61653E-05-1.42880E-05-2.64141E-05 5.94464E-06 8.87532E-20-7.67521E-19
 -1      4124 8.95398E-05-2.32544E-05-2.84244E-05 2.47095E-06-8.87057E-19 8.96957E-19
 -1      4125 8.89285E-05-2.28708E-05-2.83122E-05 2.81040E-06-7.86005E-19 4.72862E-19
 -1      4126 8.80893E-05-2.24460E-05-2.81543E-05 3.13906E-06-5.05067E-19-7.39979E-20
 -1      4127 8.73854E-05-2.20914E-05-2.79840E-05 3.57154E-06-3.29019E-19-4.20347E-19
 -1      4128 8.80025E-05-2.22329E-05-2.81476E-05 2.23166E-06-7.88512E-19 8.61827E-19
 -1      4129 8.47402E-05-2.06619E-05-2.74794E-05-2.59722E-06-5.48259E-19 2.77796E-18
 -1      4130 8.58001E-05-2.11226E-05-2.77419E-05-2.26445E-06-8.73543E-19 2.47315E-18
 -1      4131 8.68790E-05-2.16349E-05-2.79732E-05-2.08467E-06-1.00940E-18 1.98803E-18
 -1      4132 8.77509E-05-2.21059E-05-2.81502E-05-1.83614E-06-7.63144E-19 1.57904E-18
 -1      4133 8.60051E-05-2.10757E-05-2.77819E-05-1.05976E-06-1.44478E-18 1.40221E-18
 -1      4134 8.86224E-05-2.25982E-05-2.83049E-05-1.69305E-06-2.54310E-19 1.34136E-18
 -1      4135 8.93421E-05-2.30569E-05-2.84204E-05-1.49149E-06-4.39797E-19 1.11964E-18
 -1      4136 8.79277E-05-2.21116E-05-2.81714E-05-8.89823E-07-9.27941E-19 1.50838E-18
 -1      4137 9.00536E-05-2.35217E-05-2.85206E-05-1.37330E-06-7.14950E-19 8.16596E-19
 -1      4138 9.06451E-05-2.39525E-05-2.85922E-05-1.20382E-06-3.01820E-19 3.22250E-19
 -1      4139 8.94939E-05-2.30940E-05-2.84295E-05-7.40062E-07-7.88611E-19 5.42341E-19
 -1      4140 9.12248E-05-2.43792E-05-2.86535E-05-1.10535E-06 3.12640E-19 9.77148E-21
 -1      4141 9.17066E-05-2.47709E-05-2.86943E-05-9.61287E-07 8.09731E-20-3.34960E-19
 -1      4142 9.07740E-05-2.40055E-05-2.85934E-05-6.07988E-07-7.57584E-20 2.06477E-20
 -1      4143 9.21751E-05-2.51520E-05-2.87284E-05-8.79410E-07-6.87646E-19-3.95639E-19
 -1      4144 9.25630E-05-2.54982E-05-2.87480E-05-7.57318E-07-4.27730E-19-9.29037E-19
 -1      4145 9.18145E-05-2.48297E-05-2.86908E-05-4.92159E-07-2.82820E-19-6.73345E-19
 -1      4146 9.29374E-05-2.58300E-05-2.87636E-05-6.89855E-07-1.78626E-19-9.55481E-19
 -1      4147 9.32454E-05-2.61282E-05-2.87692E-05-5.87456E-07-4.27309E-19-9.29828E-19
 -1      4148 9.26518E-05-2.55566E-05-2.87419E-05-3.91842E-07-4.80509E-19-1.14111E-18
 -1      4149 9.35408E-05-2.64105E-05-2.87726E-05-5.32609E-07-5.56563E-19-9.67161E-19
 -1      4150 9.37818E-05-2.66618E-05-2.87694E-05-4.47946E-07-2.21450E-19-8.99864E-19
 -1      4151 9.33176E-05-2.61826E-05-2.87619E-05-3.06442E-07-7.23275E-19-5.25175E-19
 -1      4152 9.40113E-05-2.68968E-05-2.87652E-05-4.04059E-07 1.56461E-19-1.65451E-18
 -1      4153 9.41970E-05-2.71042E-05-2.87569E-05-3.35179E-07-1.18826E-19-1.22759E-18
 -1      4154 9.38394E-05-2.67103E-05-2.87619E-05-2.35138E-07-4.22309E-19-1.40647E-18
 -1      4155 9.43725E-05-2.72961E-05-2.87484E-05-3.00666E-07-2.97423E-19-7.99712E-19
 -1      4156 9.45131E-05-2.74639E-05-2.87375E-05-2.45564E-07-8.93784E-19-5.27226E-19
 -1      4157 9.42423E-05-2.71461E-05-2.87497E-05-1.76789E-07-1.04561E-19-1.74828E-18
 -1      4158 9.46450E-05-2.76178E-05-2.87269E-05-2.18916E-07-1.68463E-18 5.17074E-19
 -1      4159 9.47496E-05-2.77512E-05-2.87152E-05-1.75592E-07-1.39271E-18 5.61516E-20
 -1      4160 9.45483E-05-2.74992E-05-2.87310E-05-1.29991E-07-9.04033E-19-1.41677E-18
 -1      4161 9.48468E-05-2.78723E-05-2.87040E-05-1.55410E-07-9.98132E-19 3.00225E-19
 -1      4162 9.49229E-05-2.79765E-05-2.86925E-05-1.21943E-07-1.17330E-18 3.56742E-19
 -1      4163 9.47763E-05-2.77803E-05-2.87095E-05-9.31979E-08-1.34360E-18-3.50857E-20
 -1      4164 9.49930E-05-2.80701E-05-2.86817E-05-1.06969E-07-1.85204E-18-8.85183E-20
 -1      4165 9.50471E-05-2.81500E-05-2.86710E-05-8.15833E-08-2.07122E-18-3.86548E-19
 -1      4166 9.49429E-05-2.79999E-05-2.86877E-05-6.48408E-08-1.42243E-18 4.96985E-19
 -1      4167 9.50963E-05-2.82211E-05-2.86611E-05-7.07210E-08-1.49325E-18-3.82119E-19
 -1      4168 9.51337E-05-2.82812E-05-2.86517E-05-5.18330E-08-4.94153E-19 2.86623E-19
 -1      4169 9.50618E-05-2.81686E-05-2.86670E-05-4.34245E-08-1.95436E-18 7.60639E-19
 -1      4170 9.51671E-05-2.83341E-05-2.86429E-05-4.41516E-08 6.52280E-19-3.65340E-19
 -1      4171 9.51919E-05-2.83784E-05-2.86347E-05-3.03906E-08 2.32990E-18-1.01068E-19
 -1      4172 9.51441E-05-2.82956E-05-2.86484E-05-2.75909E-08 9.30798E-20 2.27369E-19
 -1      4173 9.52136E-05-2.84170E-05-2.86272E-05-2.51201E-08 2.16782E-18-7.70427E-19
 -1      4174 9.52292E-05-2.84490E-05-2.86204E-05-1.53311E-08 1.53482E-18-8.35555E-19
 -1      4175 9.51991E-05-2.83894E-05-2.86321E-05-1.61535E-08 1.37680E-18-1.06265E-18
 -1      4176 9.52424E-05-2.84765E-05-2.86140E-05-1.18475E-08 8.75544E-19-1.20920E-18
 -1      4177 9.52514E-05-2.84990E-05-2.86083E-05-5.08209E-09 6.88717E-21-1.54649E-18
 -1      4178 9.52339E-05-2.84572E-05-2.86182E-05-8.10972E-09 8.53517E-19-2.07941E-18
 -1      4179 9.52586E-05-2.85181E-05-2.86031E-05-2.88811E-09 1.62243E-19-9.51759E-19
 -1      4180 9.52630E-05-2.85335E-05-2.85984E-05 1.52990E-09 2.05457E-19-1.21348E-18
 -1      4181 9.52543E-05-2.85051E-05-2.86066E-05-2.61820E-09 3.88722E-19-1.14957E-18
 -1      4182 8.20209E-05-2.06819E-05-2.63304E-05 6.83667E-06 1.23141E-19-5.90604E-19
 -1      4183 8.11009E-05-2.07346E-05-2.58389E-05 7.95205E-06-2.44549E-19-2.50278E-19
 -1      4184 9.07554E-05-2.40585E-05-2.85971E-05 1.94300E-06-1.07570E-18 8.63537E-19
 -1      4185 9.02359E-05-2.36763E-05-2.85274E-05 2.21674E-06-8.18763E-19 4.49282E-19
 -1      4186 8.95070E-05-2.31338E-05-2.84145E-05 1.74125E-06-1.00910E-18 1.50866E-18
 -1      4187 9.17632E-05-2.48197E-05-2.87002E-05 1.51936E-06-1.52822E-18 1.31209E-18
 -1      4188 9.13299E-05-2.44589E-05-2.86606E-05 1.74306E-06-1.59608E-18 1.02141E-18
 -1      4189 9.07537E-05-2.39970E-05-2.85855E-05 1.35804E-06-1.27796E-18 1.17487E-18
 -1      4190 9.25874E-05-2.55123E-05-2.87545E-05 1.17754E-06-5.39022E-19 1.60425E-18
 -1      4191 9.22326E-05-2.51854E-05-2.87359E-05 1.36091E-06-5.42605E-19 2.10213E-18
 -1      4192 9.17781E-05-2.47946E-05-2.86880E-05 1.05455E-06-1.23104E-18 1.05954E-18
 -1      4193 9.32512E-05-2.61225E-05-2.87759E-05 9.02163E-07-8.72130E-19 7.60034E-19
 -1      4194 9.29660E-05-2.58357E-05-2.87711E-05 1.05186E-06-5.48178E-19 1.03679E-18
 -1      4195 9.26101E-05-2.55090E-05-2.87426E-05 8.12546E-07-4.45309E-19 4.25388E-19
 -1      4196 9.37775E-05-2.66458E-05-2.87758E-05 6.81726E-07-5.21976E-19 1.43302E-18
 -1      4197 9.35523E-05-2.64010E-05-2.87798E-05 8.02907E-07-7.40541E-19 9.47441E-19
 -1      4198 9.32765E-05-2.61314E-05-2.87648E-05 6.19493E-07-7.81609E-19 1.14264E-19
 -1      4199 9.41879E-05-2.70839E-05-2.87628E-05 5.06967E-07-8.60229E-19 1.35014E-18
 -1      4200 9.40132E-05-2.68798E-05-2.87719E-05 6.03960E-07-6.17024E-19 1.38040E-18
 -1      4201 9.38022E-05-2.66608E-05-2.87660E-05 4.66184E-07-9.49660E-19 9.62504E-19
 -1      4202 9.45023E-05-2.74430E-05-2.87428E-05 3.70064E-07-5.26998E-19 1.14852E-18
 -1      4203 9.43694E-05-2.72765E-05-2.87543E-05 4.46685E-07-7.06490E-19 1.23041E-18
 -1      4204 9.42104E-05-2.71013E-05-2.87543E-05 3.45421E-07-7.57497E-19 1.29971E-19
 -1      4205 9.47388E-05-2.77316E-05-2.87197E-05 2.64260E-07-1.45391E-18 6.45709E-19
 -1      4206 9.46396E-05-2.75983E-05-2.87321E-05 3.23927E-07-6.32177E-19 8.34659E-19
 -1      4207 9.45219E-05-2.74605E-05-2.87356E-05 2.51306E-07-6.36049E-19 3.85009E-19
 -1      4208 9.49132E-05-2.79592E-05-2.86963E-05 1.83706E-07-9.38891E-19 5.43830E-19
 -1      4209 9.48407E-05-2.78545E-05-2.87083E-05 2.29459E-07-1.53409E-18 3.79042E-20
 -1      4210 9.47552E-05-2.77479E-05-2.87138E-05 1.78877E-07-8.48487E-19-5.17546E-19
 -1      4211 9.50388E-05-2.81354E-05-2.86742E-05 1.23373E-07 3.18120E-20 1.11006E-18
 -1      4212 9.49872E-05-2.80547E-05-2.86853E-05 1.57881E-07-5.76042E-19 9.45708E-19
 -1      4213 9.49265E-05-2.79736E-05-2.86916E-05 1.23926E-07-1.28386E-18-1.56956E-18
 -1      4214 9.51268E-05-2.82692E-05-2.86542E-05 7.89982E-08-1.20655E-19 8.63847E-19
 -1      4215 9.50911E-05-2.82082E-05-2.86640E-05 1.04561E-07 2.13499E-19 1.38871E-18
 -1      4216 9.50494E-05-2.81476E-05-2.86704E-05 8.28946E-08-1.38385E-19-1.15630E-18
 -1      4217 9.51865E-05-2.83689E-05-2.86368E-05 4.70251E-08-8.50963E-19 8.60604E-19
 -1      4218 9.51628E-05-2.83237E-05-2.86452E-05 6.55856E-08-5.18839E-19 1.57371E-18
 -1      4219 9.51350E-05-2.82794E-05-2.86512E-05 5.27982E-08-5.43727E-19 9.59800E-19
 -1      4220 9.52251E-05-2.84416E-05-2.86219E-05 2.45344E-08-2.48365E-19 7.46994E-19
 -1      4221 9.52101E-05-2.84088E-05-2.86290E-05 3.77022E-08-7.39963E-19 8.37025E-19
 -1      4222 9.51926E-05-2.83771E-05-2.86345E-05 3.11701E-08-5.46091E-19 1.04998E-18
 -1      4223 9.52484E-05-2.84934E-05-2.86096E-05 9.17191E-09 1.02959E-20 3.80596E-19
 -1      4224 9.52398E-05-2.84701E-05-2.86154E-05 1.82530E-08 1.17722E-19 7.65889E-19
 -1      4225 9.52295E-05-2.84481E-05-2.86202E-05 1.59997E-08-1.73465E-20-1.74109E-19
 -1      4226 9.52610E-05-2.85293E-05-2.85995E-05-8.29944E-10-1.80269E-19-2.36958E-18
 -1      4227 9.52567E-05-2.85133E-05-2.86042E-05 5.07042E-09-2.85242E-19-7.92052E-19
 -1      4228 9.52514E-05-2.84984E-05-2.86082E-05 5.64487E-09 6.67721E-19-1.78763E-18
 -1      4229 9.52661E-05-2.85518E-05-2.85919E-05-6.20556E-09-1.01445E-19-2.41912E-18
 -1      4230 9.52645E-05-2.85407E-05-2.85958E-05-2.63363E-09-4.13433E-19-2.07780E-18
 -1      4231 9.52625E-05-2.85311E-05-2.85991E-05-6.11933E-10-4.33711E-20-4.25379E-18
 -1      4232 9.52672E-05-2.85524E-05-2.85921E-05-2.93954E-09-4.42513E-19-2.91126E-18
 -1      4233 7.27539E-05-1.37721E-05-2.52003E-05-5.31035E-06 5.88291E-21-7.62508E-19
 -1      4234 7.41288E-05-1.36888E-05-2.59385E-05 3.83213E-06 4.23914E-20-7.95936E-19
 -1      4235 7.61412E-05-1.81650E-05-2.49276E-05-4.29160E-06 2.13175E-19 1.63239E-18
 -1      4236 8.00590E-05-2.20940E-05-2.47901E-05 1.17632E-05 6.93694E-22 3.10899E-19
 -1      4237 7.63987E-05-2.04923E-05-2.39226E-05 1.14588E-05-3.72661E-19 3.47810E-19
 -1      4238 7.46094E-05-1.87318E-05-2.40346E-05 8.04609E-06 3.84008E-19 1.23201E-18
 -1      4239 7.99870E-05-2.10969E-05-2.52907E-05 9.78104E-06-3.73811E-19 2.74091E-19
 -1      4240 9.52673E-05-2.85682E-05-2.85854E-05 7.85487E-09-4.48966E-19-9.26753E-19
 -1      4241 9.52678E-05-2.85612E-05-2.85885E-05 5.20672E-09-1.04206E-18 3.30571E-19
 -1      4242 7.23027E-05-1.28390E-05-2.54216E-05 1.29569E-06 6.26498E-20-7.86905E-19
 -1      4243 8.43548E-05-2.10561E-05-2.71645E-05 5.18941E-06 2.52915E-19-6.33140E-19
 -1      4244 8.35010E-05-2.09119E-05-2.68111E-05 5.99911E-06 1.63898E-19-3.98837E-19
 -1      4245 8.13825E-05-1.98329E-05-2.63460E-05 4.95005E-06 1.57527E-19 6.02768E-19
 -1      4246 7.15662E-05-1.30042E-05-2.51046E-05-2.23114E-06 2.99357E-21-7.80825E-19
 -1      4247 8.63719E-05-2.16893E-05-2.77503E-05 4.01246E-06-3.39195E-19-3.19239E-19
 -1      4248 8.55853E-05-2.14101E-05-2.75014E-05 4.58672E-06-6.51446E-20-4.86065E-19
 -1      4249 8.39943E-05-2.05100E-05-2.71677E-05 3.73354E-06 1.91958E-19 6.77957E-19
 -1      4250 8.61845E-05-2.13307E-05-2.77480E-05 2.87144E-06-5.57215E-19 1.26039E-18
 -1      4251 7.85320E-05-1.87327E-05-2.56582E-05-3.92958E-06 4.44057E-19 1.57034E-18
 -1      4252 8.01524E-05-1.91132E-05-2.62090E-05-3.24954E-06 4.01348E-19 1.70984E-18
 -1      4253 7.62656E-05-1.76407E-05-2.50441E-05-1.24186E-06 2.97686E-19 1.44809E-18
 -1      4254 8.20240E-05-1.96886E-05-2.67363E-05-3.15443E-06 8.68609E-19 2.03738E-18
 -1      4255 8.33185E-05-2.01203E-05-2.71184E-05-2.70578E-06 6.86976E-19 2.96585E-18
 -1      4256 8.35266E-05-1.99663E-05-2.71900E-05-1.13416E-06 1.39770E-19 1.64666E-18
 -1      4257 8.03976E-05-1.88752E-05-2.63119E-05-1.13776E-06 7.25527E-19 1.95941E-18
 -1      4258 7.86596E-05-1.96115E-05-2.52762E-05 7.42556E-06 2.94490E-19 5.23370E-19
 -1      4259 9.52661E-05-2.85464E-05-2.85941E-05 2.96068E-09-1.06094E-19-1.20717E-18
 -1      4260 9.52674E-05-2.85566E-05-2.85904E-05 5.51767E-09-8.20043E-19-3.63687E-19
 -1      4261 9.52646E-05-2.85381E-05-2.85970E-05 1.02927E-09 2.77422E-19-2.92107E-19
 -1      4262 7.98482E-05-1.56247E-05-2.75730E-05 6.73398E-06 1.44331E-19-5.47186E-19
 -1      4263 9.52680E-05-2.85563E-05-2.85908E-05 2.09907E-09-3.59007E-19 1.07227E-18
 -1      4264 7.26841E-05-1.70902E-05-2.37986E-05 2.40973E-06 1.23903E-19 1.69644E-18
 -1      4265 7.67760E-05-1.87417E-05-2.48348E-05 5.98354E-06 6.58682E-19 1.63637E-18
 -1      4266 7.42128E-05-1.75519E-05-2.42145E-05 4.65909E-06 4.60625E-19 2.17479E-18
 -1      4267 7.48088E-05-1.74762E-05-2.46405E-05 8.25596E-07 2.17156E-19 1.93612E-18
 -1      4268 7.79125E-05-1.87030E-05-2.54250E-05 4.35871E-06 3.21115E-19 1.61041E-18
 -1      4269 9.52674E-05-2.85524E-05-2.85922E-05 5.31696E-10 2.61637E-19 8.62600E-19
 -1      4270 9.52673E-05-2.85524E-05-2.85922E-05-1.54815E-09-4.18861E-20-8.68806E-19
 -1      4271 8.77045E-05-2.21167E-05-2.81392E-05 5.42377E-07-1.06294E-18 1.76376E-18
 -1      4272 8.85849E-05-2.26065E-05-2.82952E-05 5.56897E-07-9.31793E-19 1.95310E-18
 -1      4273 8.93036E-05-2.30752E-05-2.84071E-05 3.97023E-07-1.03532E-18 2.02834E-18
 -1      4274 9.00230E-05-2.35369E-05-2.85086E-05 4.16895E-07-7.68814E-19 1.32551E-18
 -1      4275 9.06151E-05-2.39745E-05-2.85787E-05 2.91164E-07-7.41800E-19 1.15139E-18
 -1      4276 9.12008E-05-2.43976E-05-2.86412E-05 3.13170E-07-4.30679E-19 1.07088E-18
 -1      4277 9.16840E-05-2.47939E-05-2.86816E-05 2.13066E-07-2.79930E-19 2.71650E-19
 -1      4278 9.21570E-05-2.51713E-05-2.87168E-05 2.35304E-07-3.26436E-19-1.34025E-19
 -1      4279 9.25466E-05-2.55206E-05-2.87367E-05 1.55147E-07-3.92214E-19-3.88711E-19
 -1      4280 9.29243E-05-2.58488E-05-2.87532E-05 1.76292E-07-5.23879E-19-8.26167E-19
 -1      4281 9.32341E-05-2.61491E-05-2.87595E-05 1.12128E-07-1.11375E-18-5.14863E-19
 -1      4282 9.35318E-05-2.64282E-05-2.87637E-05 1.31316E-07-1.08099E-18-6.50762E-19
 -1      4283 9.37746E-05-2.66806E-05-2.87613E-05 8.02076E-08-8.23046E-19-3.34949E-19
 -1      4284 9.40057E-05-2.69129E-05-2.87577E-05 9.69706E-08-5.45087E-19-6.38675E-19
 -1      4285 9.41929E-05-2.71208E-05-2.87503E-05 5.65974E-08-5.52593E-19-8.18040E-19
 -1      4286 9.43696E-05-2.73105E-05-2.87423E-05 7.07800E-08-6.35902E-19-9.48551E-19
 -1      4287 9.45113E-05-2.74784E-05-2.87323E-05 3.92246E-08-5.34537E-19-8.55815E-19
 -1      4288 9.46440E-05-2.76303E-05-2.87221E-05 5.08948E-08-5.78173E-19-5.96610E-19
 -1      4289 9.47494E-05-2.77635E-05-2.87111E-05 2.65361E-08-9.25969E-19-1.39805E-18
 -1      4290 9.48471E-05-2.78831E-05-2.87002E-05 3.59024E-08-1.34864E-18-1.23103E-18
 -1      4291 9.49238E-05-2.79868E-05-2.86893E-05 1.73599E-08-1.22323E-18-9.02982E-19
 -1      4292 9.49942E-05-2.80792E-05-2.86788E-05 2.47055E-08-1.62583E-18-1.01249E-18
 -1      4293 9.50486E-05-2.81585E-05-2.86686E-05 1.08077E-08-1.35350E-18 3.83379E-19
 -1      4294 9.50980E-05-2.82285E-05-2.86589E-05 1.64422E-08-5.42752E-19 8.50455E-19
 -1      4295 9.51354E-05-2.82880E-05-2.86499E-05 6.20499E-09-5.82178E-19 1.01990E-18
 -1      4296 9.51689E-05-2.83401E-05-2.86412E-05 1.04316E-08 1.77089E-20 4.94662E-19
 -1      4297 9.51936E-05-2.83839E-05-2.86334E-05 3.03945E-09 1.44611E-19 1.15343E-19
 -1      4298 9.52153E-05-2.84218E-05-2.86260E-05 6.13576E-09 2.93804E-19-9.39353E-19
 -1      4299 9.52308E-05-2.84532E-05-2.86194E-05 9.24846E-10 7.54989E-19-1.79042E-18
 -1      4300 9.52440E-05-2.84802E-05-2.86131E-05 3.13968E-09 6.69524E-19-1.09834E-18
 -1      4301 9.52528E-05-2.85022E-05-2.86076E-05-4.33146E-10 7.54172E-19-1.35582E-18
 -1      4302 9.52598E-05-2.85209E-05-2.86024E-05 9.64766E-10 6.34812E-19-1.54504E-18
 -1      4303 9.52635E-05-2.85338E-05-2.85985E-05-8.13384E-10-1.72285E-19-7.16943E-19
 -1      4304 8.13751E-05-1.95480E-05-2.65304E-05 3.13645E-06 4.38098E-19 1.02932E-18
 -1      4305 7.99347E-05-1.91597E-05-2.60483E-05 3.76209E-06 1.80910E-19 1.30391E-18
 -1      4306 7.83770E-05-1.84076E-05-2.56675E-05 2.43436E-06 4.71223E-19 2.10756E-18
 -1      4307 8.57600E-05-2.11251E-05-2.77377E-05 7.48430E-07-1.05337E-18 9.84784E-19
 -1      4308 8.68386E-05-2.16318E-05-2.79693E-05 7.48733E-07-1.00726E-18 1.06387E-18
 -1      4309 7.72518E-05-1.80476E-05-2.53957E-05 8.17738E-07 6.23273E-19 1.95456E-18
 -1      4310 9.52668E-05-2.85468E-05-2.85942E-05 9.74439E-10 2.93130E-19 1.30835E-19
 -1      4311 8.47318E-05-2.06421E-05-2.74899E-05 1.01772E-06-5.41070E-19 7.68983E-19
 -1      4312 8.33170E-05-2.00819E-05-2.71367E-05 1.19737E-06 3.77587E-19 9.31868E-19
 -1      4313 9.52660E-05-2.85429E-05-2.85955E-05-9.53749E-10-4.28678E-19-1.29841E-18
 -1      4314 7.92501E-05-1.86196E-05-2.60150E-05 5.71434E-07 7.25935E-19 1.78363E-18
 -1      4315 8.10061E-05-1.91092E-05-2.65313E-05 3.91291E-07 6.25727E-19 1.57484E-18
 -1      4316 9.52637E-05-2.85338E-05-2.85985E-05-1.43407E-10 3.37156E-19-2.46744E-21
 -1      4317 8.20726E-05-1.96326E-05-2.67748E-05 1.53538E-06 5.91319E-19 1.28994E-18
 -3
    1PSTEP                         4           1           1          
  100CL  101 1.000000000        4317                     0    1           1
 -4  ERROR       1    1
 -5  STR(%)      1    1    0    0
 -1         1 1.22999E+01
 -1         2 2.54280E+01
 -1         3 3.48942E-04
 -1         4 4.17714E-04
 -1         5 1.30506E+01
 -1         6 1.21069E+01
 -1         7 1.21069E+01
 -1         8 3.61818E+00
 -1         9 2.14634E+00
 -1        10 1.58395E+00
 -1        11 1.26825E+00
 -1        12 1.00577E+00
 -1        13 7.67339E-01
 -1        14 5.19399E-01
 -1        15 5.49819E-01
 -1        16 7.88922E-01
 -1        17 1.01201E+00
 -1        18 1.26883E+00
 -1        19 1.59329E+00
 -1        20 2.14188E+00
 -1        21 3.47093E+00
 -1        22 8.02053E+00
 -1        23 1.21069E+01
 -1        24 3.65967E+00
 -1        25 2.30286E+00
 -1        26 1.36635E+00
 -1        27 8.08294E-01
 -1        28 1.00081E+00
 -1        29 1.19790E+00
 -1        30 1.19790E+00
 -1        31 1.21001E+00
 -1        32 1.60907E+00
 -1        33 2.47617E+00
 -1        34 3.91405E+00
 -1        35 4.32231E+00
 -1        36 4.38563E+00
 -1        37 4.38563E+00
 -1        38 3.58704E+00
 -1        39 1.99880E+00
 -1        40 1.55664E+00
 -1        41 1.47255E+00
 -1        42 1.44947E+00
 -1        43 1.44947E+00
 -1        44 1.34447E+00
 -1        45 1.13076E+00
 -1        46 9.01078E-01
 -1        47 7.15367E-01
 -1        48 5.61828E-01
 -1        49 4.75369E-01
 -1        50 3.87468E-01
 -1        51 3.06249E-01
 -1        52 2.35603E-01
 -1        53 1.76725E-01
 -1        54 1.29242E-01
 -1        55 1.02695E-01
 -1        56 8.46782E-02
 -1        57 6.83150E-02
 -1        58 5.40230E-02
 -1        59 4.19049E-02
 -1        60 3.18721E-02
 -1        61 2.37288E-02
 -1        62 1.95521E-02
 -1        63 1.59223E-02
 -1        64 1.26580E-02
 -1        65 9.78689E-03
 -1        66 7.28588E-03
 -1        67 5.34244E-03
 -1        68 4.08082E-03
 -1        69 3.52170E-03
 -1        70 2.68805E-03
 -1        71 2.00257E-03
 -1        72 1.30506E+01
 -1        73 2.98384E+00
 -1        74 1.77684E+00
 -1        75 1.25004E+00
 -1        76 8.27948E-01
 -1        77 6.43866E-01
 -1        78 8.11285E-01
 -1        79 1.02764E+00
 -1        80 1.23861E+00
 -1        81 1.49804E+00
 -1        82 1.80513E+00
 -1        83 2.77890E+00
 -1        84 3.32416E+00
 -1        85 3.79863E+00
 -1        86 3.79863E+00
 -1        87 3.49703E+00
 -1        88 2.34608E+00
 -1        89 1.45734E+00
 -1        90 1.05128E+00
 -1        91 1.16643E+00
 -1        92 1.23105E+00
 -1        93 1.23105E+00
 -1        94 1.14197E+00
 -1        95 9.77921E-01
 -1        96 8.22567E-01
 -1        97 6.65501E-01
 -1        98 5.16689E-01
 -1        99 3.86311E-01
 -1       100 2.95005E-01
 -1       101 2.29212E-01
 -1       102 1.73360E-01
 -1       103 1.27679E-01
 -1       104 9.14322E-02
 -1       105 6.34200E-02
 -1       106 4.73645E-02
 -1       107 3.94372E-02
 -1       108 3.20912E-02
 -1       109 2.55710E-02
 -1       110 1.99641E-02
 -1       111 1.74784E-02
 -1       112 1.51123E-02
 -1       113 1.27007E-02
 -1       114 1.03852E-02
 -1       115 8.22741E-03
 -1       116 6.40789E-03
 -1       117 4.75658E-03
 -1       118 3.48540E-03
 -1       119 2.65588E-03
 -1       120 1.41003E-03
 -1       121 6.77467E-04
 -1       122 6.77467E-04
 -1       123 4.46286E-04
 -1       124 1.50261E-04
 -1       125 3.24705E-04
 -1       126 4.45108E-04
 -1       127 5.10312E-04
 -1       128 5.27477E-04
 -1       129 5.27477E-04
 -1       130 5.09826E-04
 -1       131 4.40344E-04
 -1       132 3.23824E-04
 -1       133 1.52670E-04
 -1       134 4.53555E-04
 -1       135 8.98374E-04
 -1       136 1.10463E-03
 -1       137 2.54280E+01
 -1       138 4.67983E+01
 -1       139 4.67983E+01
 -1       140 1.98727E+01
 -1       141 1.21616E+01
 -1       142 1.34697E+01
 -1       143 1.34697E+01
 -1       144 1.28265E+01
 -1       145 1.28265E+01
 -1       146 1.42575E+01
 -1       147 3.71791E+01
 -1       148 3.71791E+01
 -1       149 2.55948E+01
 -1       150 2.43203E+01
 -1       151 2.50323E+01
 -1       152 2.56855E+01
 -1       153 3.58352E+01
 -1       154 3.58352E+01
 -1       155 1.32942E+01
 -1       156 1.34064E+01
 -1       157 1.34064E+01
 -1       158 1.22999E+01
 -1       159 1.19523E+01
 -1       160 1.97627E+01
 -1       161 4.79421E+01
 -1       162 4.79421E+01
 -1       163 2.44997E+01
 -1       164 5.80772E+00
 -1       165 2.56879E+00
 -1       166 1.83239E+00
 -1       167 1.40579E+00
 -1       168 1.08585E+00
 -1       169 8.33724E-01
 -1       170 5.82768E-01
 -1       171 4.23122E-01
 -1       172 6.15710E-01
 -1       173 8.40845E-01
 -1       174 1.11481E+00
 -1       175 1.42970E+00
 -1       176 1.85047E+00
 -1       177 2.55158E+00
 -1       178 3.80654E+00
 -1       179 1.30506E+01
 -1       180 3.65967E+00
 -1       181 2.30286E+00
 -1       182 1.36635E+00
 -1       183 8.08294E-01
 -1       184 7.50189E-01
 -1       185 1.00081E+00
 -1       186 1.19790E+00
 -1       187 1.18598E+00
 -1       188 1.21001E+00
 -1       189 1.60907E+00
 -1       190 2.51408E+00
 -1       191 3.91405E+00
 -1       192 4.32231E+00
 -1       193 4.38563E+00
 -1       194 3.58704E+00
 -1       195 2.22505E+00
 -1       196 1.55664E+00
 -1       197 1.47255E+00
 -1       198 1.41536E+00
 -1       199 1.44947E+00
 -1       200 1.34447E+00
 -1       201 1.13076E+00
 -1       202 9.44776E-01
 -1       203 8.16385E-01
 -1       204 6.77867E-01
 -1       205 5.37646E-01
 -1       206 4.10013E-01
 -1       207 3.06249E-01
 -1       208 2.38301E-01
 -1       209 1.84784E-01
 -1       210 1.40010E-01
 -1       211 1.03678E-01
 -1       212 8.46782E-02
 -1       213 6.83150E-02
 -1       214 5.40230E-02
 -1       215 4.19049E-02
 -1       216 3.18721E-02
 -1       217 2.46906E-02
 -1       218 1.95521E-02
 -1       219 1.59223E-02
 -1       220 1.26580E-02
 -1       221 9.84138E-03
 -1       222 7.65340E-03
 -1       223 5.77395E-03
 -1       224 4.32544E-03
 -1       225 3.52170E-03
 -1       226 2.68805E-03
 -1       227 2.00257E-03
 -1       228 2.98384E+00
 -1       229 1.77684E+00
 -1       230 1.25004E+00
 -1       231 8.27948E-01
 -1       232 6.43866E-01
 -1       233 5.94838E-01
 -1       234 8.11285E-01
 -1       235 1.02764E+00
 -1       236 1.23861E+00
 -1       237 1.49804E+00
 -1       238 1.97518E+00
 -1       239 2.77890E+00
 -1       240 3.32416E+00
 -1       241 3.79863E+00
 -1       242 3.49703E+00
 -1       243 2.34608E+00
 -1       244 1.45734E+00
 -1       245 9.10676E-01
 -1       246 1.05128E+00
 -1       247 1.16643E+00
 -1       248 1.23105E+00
 -1       249 1.14197E+00
 -1       250 9.77921E-01
 -1       251 8.22567E-01
 -1       252 6.79332E-01
 -1       253 5.43003E-01
 -1       254 4.18138E-01
 -1       255 3.10930E-01
 -1       256 2.29212E-01
 -1       257 1.73360E-01
 -1       258 1.27679E-01
 -1       259 9.35436E-02
 -1       260 6.69054E-02
 -1       261 4.73645E-02
 -1       262 3.94372E-02
 -1       263 3.20912E-02
 -1       264 2.55710E-02
 -1       265 1.99641E-02
 -1       266 1.74784E-02
 -1       267 1.51123E-02
 -1       268 1.27007E-02
 -1       269 1.03852E-02
 -1       270 8.22741E-03
 -1       271 6.40789E-03
 -1       272 4.75658E-03
 -1       273 3.48540E-03
 -1       274 2.65588E-03
 -1       275 1.54006E-03
 -1       276 7.61832E-04
 -1       277 7.61832E-04
 -1       278 6.07096E-04
 -1       279 5.29307E-04
 -1       280 7.73375E-04
 -1       281 9.12524E-04
 -1       282 9.65469E-04
 -1       283 9.65483E-04
 -1       284 9.65483E-04
 -1       285 9.08410E-04
 -1       286 7.73755E-04
 -1       287 5.34634E-04
 -1       288 5.99697E-04
 -1       289 5.99697E-04
 -1       290 1.10463E-03
 -1       291 3.00055E+01
 -1       292 2.63466E+01
 -1       293 4.67983E+01
 -1       294 2.10139E+01
 -1       295 1.09382E+01
 -1       296 1.21616E+01
 -1       297 1.34697E+01
 -1       298 1.23939E+01
 -1       299 1.28265E+01
 -1       300 1.14890E+01
 -1       301 1.42575E+01
 -1       302 3.71791E+01
 -1       303 3.51093E+01
 -1       304 2.66066E+01
 -1       305 2.75816E+01
 -1       306 2.75816E+01
 -1       307 3.47061E+01
 -1       308 3.58352E+01
 -1       309 1.36046E+01
 -1       310 1.19715E+01
 -1       311 1.34064E+01
 -1       312 1.17802E+01
 -1       313 1.22999E+01
 -1       314 1.19523E+01
 -1       315 1.09622E+01
 -1       316 2.17308E+01
 -1       317 4.79421E+01
 -1       318 3.03484E+01
 -1       319 3.00055E+01
 -1       320 1.57885E+00
 -1       321 2.54605E+00
 -1       322 1.11365E+00
 -1       323 9.24374E-01
 -1       324 7.06445E-01
 -1       325 4.46857E-01
 -1       326 4.84056E-01
 -1       327 7.21999E-01
 -1       328 9.23480E-01
 -1       329 1.10076E+00
 -1       330 1.28924E+00
 -1       331 1.55307E+00
 -1       332 1.63092E+00
 -1       333 1.69930E+00
 -1       334 1.28277E+00
 -1       335 1.08054E+00
 -1       336 7.49054E-01
 -1       337 7.70911E-01
 -1       338 8.22737E-01
 -1       339 8.38101E-01
 -1       340 7.83318E-01
 -1       341 9.39420E-01
 -1       342 1.16240E+00
 -1       343 1.74493E+00
 -1       344 2.26237E+00
 -1       345 2.61159E+00
 -1       346 2.52609E+00
 -1       347 2.59958E+00
 -1       348 2.04438E+00
 -1       349 1.51174E+00
 -1       350 9.37882E-01
 -1       351 9.03111E-01
 -1       352 9.73931E-01
 -1       353 1.10157E+00
 -1       354 1.06381E+00
 -1       355 9.50681E-01
 -1       356 8.53313E-01
 -1       357 7.44496E-01
 -1       358 6.18937E-01
 -1       359 4.95015E-01
 -1       360 3.83049E-01
 -1       361 2.87620E-01
 -1       362 2.09681E-01
 -1       363 1.48144E-01
 -1       364 1.03678E-01
 -1       365 7.49330E-02
 -1       366 5.42615E-02
 -1       367 4.20324E-02
 -1       368 3.48231E-02
 -1       369 2.82113E-02
 -1       370 2.23704E-02
 -1       371 1.73526E-02
 -1       372 1.34829E-02
 -1       373 1.14132E-02
 -1       374 9.37879E-03
 -1       375 7.43602E-03
 -1       376 5.77395E-03
 -1       377 4.35510E-03
 -1       378 3.20405E-03
 -1       379 2.34665E-03
 -1       380 1.76215E-03
 -1       381 5.77387E-01
 -1       382 5.60222E-01
 -1       383 5.87252E-01
 -1       384 5.66749E-01
 -1       385 5.13610E-01
 -1       386 5.20954E-01
 -1       387 8.75492E-01
 -1       388 1.48715E+00
 -1       389 1.91298E+00
 -1       390 1.92933E+00
 -1       391 1.90451E+00
 -1       392 2.13262E+00
 -1       393 2.21317E+00
 -1       394 1.71168E+00
 -1       395 1.04821E+00
 -1       396 6.71542E-01
 -1       397 7.16586E-01
 -1       398 8.57805E-01
 -1       399 8.94669E-01
 -1       400 8.94077E-01
 -1       401 8.14319E-01
 -1       402 7.29309E-01
 -1       403 6.24287E-01
 -1       404 5.10765E-01
 -1       405 4.02428E-01
 -1       406 3.06597E-01
 -1       407 2.26201E-01
 -1       408 1.69031E-01
 -1       409 1.27323E-01
 -1       410 9.35436E-02
 -1       411 6.69054E-02
 -1       412 4.63948E-02
 -1       413 3.09573E-02
 -1       414 2.56779E-02
 -1       415 2.16969E-02
 -1       416 1.78531E-02
 -1       417 1.43219E-02
 -1       418 1.11869E-02
 -1       419 9.33954E-03
 -1       420 7.81390E-03
 -1       421 6.40628E-03
 -1       422 5.25613E-03
 -1       423 4.15333E-03
 -1       424 3.08386E-03
 -1       425 2.28382E-03
 -1       426 1.54006E-03
 -1       427 7.96596E-04
 -1       428 1.49571E-03
 -1       429 1.49571E-03
 -1       430 1.03050E-03
 -1       431 1.21280E-03
 -1       432 1.28870E-03
 -1       433 1.28870E-03
 -1       434 1.28696E-03
 -1       435 1.28696E-03
 -1       436 1.21335E-03
 -1       437 1.03511E-03
 -1       438 8.05386E-04
 -1       439 1.38890E-03
 -1       440 2.63466E+01
 -1       441 3.23634E+01
 -1       442 3.23634E+01
 -1       443 1.63761E+01
 -1       444 9.32179E+00
 -1       445 1.78759E+00
 -1       446 8.86944E+00
 -1       447 1.03689E+01
 -1       448 1.05428E+01
 -1       449 9.32555E+00
 -1       450 7.66689E+00
 -1       451 1.36591E+01
 -1       452 2.36335E+01
 -1       453 2.80177E+01
 -1       454 3.60746E+01
 -1       455 3.60746E+01
 -1       456 2.51541E+01
 -1       457 2.21596E+01
 -1       458 1.23860E+01
 -1       459 7.26271E+00
 -1       460 7.98994E+00
 -1       461 1.12578E+01
 -1       462 1.13635E+01
 -1       463 9.49971E+00
 -1       464 7.44060E+00
 -1       465 9.64552E+00
 -1       466 1.71936E+01
 -1       467 3.03484E+01
 -1       468 3.16234E+01
 -1       469 7.27367E+00
 -1       470 9.08603E+00
 -1       471 7.03101E+00
 -1       472 1.29752E+00
 -1       473 8.73046E-01
 -1       474 1.00891E+00
 -1       475 3.92062E-01
 -1       476 6.58102E-01
 -1       477 8.84993E-01
 -1       478 9.77825E-01
 -1       479 1.05109E+00
 -1       480 1.40307E+00
 -1       481 7.58905E-01
 -1       482 1.22297E+00
 -1       483 5.42260E+00
 -1       484 7.65395E+00
 -1       485 9.36966E-01
 -1       486 1.00212E+00
 -1       487 1.11052E+00
 -1       488 1.20776E+00
 -1       489 1.30302E+00
 -1       490 1.69310E+00
 -1       491 1.81204E+00
 -1       492 1.98743E+00
 -1       493 2.48432E+00
 -1       494 4.27569E+00
 -1       495 3.61200E+00
 -1       496 2.24202E+00
 -1       497 1.98262E+00
 -1       498 1.77412E+00
 -1       499 1.62342E+00
 -1       500 1.35109E+00
 -1       501 1.29568E+00
 -1       502 1.15942E+00
 -1       503 1.00394E+00
 -1       504 9.11695E-01
 -1       505 7.99583E-01
 -1       506 6.73173E-01
 -1       507 5.48393E-01
 -1       508 4.34448E-01
 -1       509 3.35702E-01
 -1       510 2.53352E-01
 -1       511 1.86730E-01
 -1       512 1.34194E-01
 -1       513 9.37116E-02
 -1       514 6.31967E-02
 -1       515 4.07063E-02
 -1       516 2.74317E-02
 -1       517 2.02445E-02
 -1       518 1.77562E-02
 -1       519 1.50664E-02
 -1       520 1.24107E-02
 -1       521 9.92812E-03
 -1       522 7.94849E-03
 -1       523 6.74210E-03
 -1       524 5.46281E-03
 -1       525 4.21416E-03
 -1       526 3.21189E-03
 -1       527 2.30240E-03
 -1       528 8.08751E-01
 -1       529 7.99752E-01
 -1       530 9.35350E-01
 -1       531 1.09114E+00
 -1       532 1.38227E+00
 -1       533 1.67864E+00
 -1       534 1.99337E+00
 -1       535 2.29165E+00
 -1       536 2.27309E+00
 -1       537 2.13567E+00
 -1       538 1.65084E+00
 -1       539 1.35273E+00
 -1       540 1.09869E+00
 -1       541 9.80794E-01
 -1       542 9.35771E-01
 -1       543 9.47721E-01
 -1       544 8.86286E-01
 -1       545 8.14941E-01
 -1       546 7.37567E-01
 -1       547 6.45412E-01
 -1       548 5.40301E-01
 -1       549 4.36248E-01
 -1       550 3.41416E-01
 -1       551 2.59675E-01
 -1       552 1.92075E-01
 -1       553 1.37995E-01
 -1       554 9.59471E-02
 -1       555 6.41033E-02
 -1       556 4.41350E-02
 -1       557 3.11133E-02
 -1       558 2.56779E-02
 -1       559 2.16969E-02
 -1       560 1.78531E-02
 -1       561 1.43219E-02
 -1       562 1.11869E-02
 -1       563 9.33954E-03
 -1       564 7.81390E-03
 -1       565 6.27227E-03
 -1       566 4.86336E-03
 -1       567 3.67496E-03
 -1       568 2.89034E-03
 -1       569 2.16889E-03
 -1       570 1.49011E-03
 -1       571 1.57773E-03
 -1       572 1.66774E-03
 -1       573 1.63779E-03
 -1       574 1.57773E-03
 -1       575 1.55716E-03
 -1       576 1.58243E-03
 -1       577 1.58243E-03
 -1       578 1.49444E-03
 -1       579 1.63497E-03
 -1       580 1.30343E-03
 -1       581 3.23634E+01
 -1       582 1.22880E+01
 -1       583 7.81401E-01
 -1       584 3.16234E+01
 -1       585 2.03171E+01
 -1       586 4.65805E+00
 -1       587 2.10980E+01
 -1       588 1.07669E+01
 -1       589 2.51541E+01
 -1       590 6.21538E+00
 -1       591 6.15786E-01
 -1       592 7.61070E+00
 -1       593 1.11854E+01
 -1       594 3.96279E+00
 -1       595 8.02601E+00
 -1       596 1.72280E+01
 -1       597 2.80177E+01
 -1       598 3.60746E+01
 -1       599 1.50287E+01
 -1       600 5.56941E+00
 -1       601 3.86667E+00
 -1       602 6.36655E+00
 -1       603 8.00758E+00
 -1       604 8.20743E+00
 -1       605 4.06140E+00
 -1       606 9.63323E+00
 -1       607 1.36256E+01
 -1       608 1.78759E+00
 -1       609 1.40307E+00
 -1       610 7.57449E+00
 -1       611 1.78759E+00
 -1       612 4.46521E+00
 -1       613 1.74260E+01
 -1       614 5.84807E+00
 -1       615 4.86822E+00
 -1       616 1.47051E-03
 -1       617 9.11188E-01
 -1       618 6.66645E-01
 -1       619 1.03203E+00
 -1       620 1.03203E+00
 -1       621 1.19531E+00
 -1       622 5.20283E+00
 -1       623 1.07925E+00
 -1       624 1.26003E+00
 -1       625 1.52944E+00
 -1       626 1.85931E+00
 -1       627 2.16727E+00
 -1       628 2.98117E+00
 -1       629 1.98743E+00
 -1       630 2.48432E+00
 -1       631 5.52798E+00
 -1       632 2.82893E+00
 -1       633 3.03044E+00
 -1       634 2.52276E+00
 -1       635 2.18568E+00
 -1       636 1.83094E+00
 -1       637 1.47419E+00
 -1       638 1.21047E+00
 -1       639 1.04554E+00
 -1       640 8.75948E-01
 -1       641 7.17823E-01
 -1       642 5.77627E-01
 -1       643 4.57134E-01
 -1       644 3.55949E-01
 -1       645 2.72625E-01
 -1       646 2.05226E-01
 -1       647 1.51630E-01
 -1       648 1.09720E-01
 -1       649 7.74974E-02
 -1       650 5.31571E-02
 -1       651 3.51159E-02
 -1       652 2.20232E-02
 -1       653 1.31562E-02
 -1       654 1.02353E-02
 -1       655 9.64679E-03
 -1       656 8.60494E-03
 -1       657 7.34191E-03
 -1       658 6.01248E-03
 -1       659 4.93423E-03
 -1       660 4.03772E-03
 -1       661 3.12114E-03
 -1       662 2.40371E-03
 -1       663 1.25729E+00
 -1       664 2.80427E-03
 -1       665 1.14366E+00
 -1       666 1.84076E+00
 -1       667 2.33448E+00
 -1       668 2.36149E+00
 -1       669 3.66640E+00
 -1       670 2.29165E+00
 -1       671 3.79070E+00
 -1       672 2.13567E+00
 -1       673 1.54795E+00
 -1       674 1.89592E+00
 -1       675 1.63284E+00
 -1       676 1.35516E+00
 -1       677 1.23167E+00
 -1       678 1.06364E+00
 -1       679 9.00554E-01
 -1       680 8.05943E-01
 -1       681 6.96143E-01
 -1       682 5.81643E-01
 -1       683 4.72730E-01
 -1       684 3.74995E-01
 -1       685 2.90871E-01
 -1       686 2.20764E-01
 -1       687 1.63881E-01
 -1       688 1.18798E-01
 -1       689 8.38324E-02
 -1       690 5.72815E-02
 -1       691 3.75518E-02
 -1       692 2.32298E-02
 -1       693 1.54419E-02
 -1       694 1.31823E-02
 -1       695 1.17793E-02
 -1       696 1.01090E-02
 -1       697 8.36776E-03
 -1       698 6.67928E-03
 -1       699 5.54032E-03
 -1       700 4.52445E-03
 -1       701 4.49143E-03
 -1       702 3.78344E-03
 -1       703 1.81306E-03
 -1       704 2.37366E-03
 -1       705 1.87271E-03
 -1       706 1.80834E-03
 -1       707 1.81306E-03
 -1       708 7.55339E+00
 -1       709 1.83734E-03
 -1       710 1.83734E-03
 -1       711 2.40371E-03
 -1       712 1.05567E+01
 -1       713 8.81620E-01
 -1       714 1.29255E+01
 -1       715 2.82893E+00
 -1       716 2.79712E+00
 -1       717 1.70564E+00
 -1       718 1.29249E+00
 -1       719 7.81401E-01
 -1       720 7.68256E+00
 -1       721 8.29981E+00
 -1       722 1.01880E+00
 -1       723 1.02703E+00
 -1       724 4.89255E+00
 -1       725 6.45158E+00
 -1       726 1.30481E+01
 -1       727 4.83969E+00
 -1       728 3.73322E+00
 -1       729 7.37549E+00
 -1       730 1.61891E+01
 -1       731 1.51175E+01
 -1       732 5.22075E+00
 -1       733 1.13734E+01
 -1       734 3.04679E+00
 -1       735 1.71414E+01
 -1       736 1.56516E+01
 -1       737 4.98641E+00
 -1       738 1.06206E+01
 -1       739 1.25534E+00
 -1       740 6.18294E-01
 -1       741 4.83584E+00
 -1       742 2.74339E-03
 -1       743 3.61200E+00
 -1       744 1.11185E+01
 -1       745 9.77900E+00
 -1       746 4.84862E+00
 -1       747 1.73569E+00
 -1       748 3.62886E+00
 -1       749 3.05173E+00
 -1       750 3.19322E+00
 -1       751 8.38130E-01
 -1       752 5.64960E+00
 -1       753 4.05091E+00
 -1       754 1.18765E+00
 -1       755 1.72777E+00
 -1       756 2.08210E+00
 -1       757 2.94789E+00
 -1       758 4.10809E+00
 -1       759 1.29249E+00
 -1       760 3.51820E+00
 -1       761 2.78632E+00
 -1       762 2.85459E+00
 -1       763 2.07572E+00
 -1       764 1.64973E+00
 -1       765 1.28394E+00
 -1       766 9.92857E-01
 -1       767 7.80512E-01
 -1       768 6.27656E-01
 -1       769 5.04111E-01
 -1       770 3.95063E-01
 -1       771 3.02828E-01
 -1       772 2.27205E-01
 -1       773 1.66724E-01
 -1       774 1.19395E-01
 -1       775 8.45096E-02
 -1       776 5.85395E-02
 -1       777 3.92187E-02
 -1       778 2.62292E-02
 -1       779 1.67707E-02
 -1       780 1.00387E-02
 -1       781 5.91275E-03
 -1       782 5.86450E-03
 -1       783 5.83014E-03
 -1       784 5.35907E-03
 -1       785 4.64357E-03
 -1       786 3.81557E-03
 -1       787 3.23833E-03
 -1       788 2.79686E-03
 -1       789 1.61726E+00
 -1       790 3.41297E+00
 -1       791 1.89592E+00
 -1       792 2.82938E+00
 -1       793 2.20154E+00
 -1       794 1.73289E+00
 -1       795 1.35258E+00
 -1       796 1.12759E+00
 -1       797 9.40862E-01
 -1       798 7.70996E-01
 -1       799 6.23994E-01
 -1       800 4.94838E-01
 -1       801 3.85590E-01
 -1       802 2.97891E-01
 -1       803 2.27721E-01
 -1       804 1.71447E-01
 -1       805 1.26890E-01
 -1       806 9.20953E-02
 -1       807 6.53288E-02
 -1       808 4.50709E-02
 -1       809 3.00121E-02
 -1       810 1.90437E-02
 -1       811 1.12431E-02
 -1       812 7.19935E-03
 -1       813 7.33727E-03
 -1       814 6.91650E-03
 -1       815 6.13948E-03
 -1       816 5.18436E-03
 -1       817 4.25705E-03
 -1       818 4.49143E-03
 -1       819 9.95893E-01
 -1       820 1.85792E-03
 -1       821 2.63524E-03
 -1       822 2.06102E-03
 -1       823 5.78550E+00
 -1       824 1.23721E+00
 -1       825 4.92766E+00
 -1       826 9.03057E+00
 -1       827 2.38925E-03
 -1       828 1.06833E+01
 -1       829 2.93766E+00
 -1       830 1.40450E+00
 -1       831 6.45792E+00
 -1       832 3.32799E+00
 -1       833 9.17704E+00
 -1       834 9.03871E+00
 -1       835 4.51636E+00
 -1       836 8.73209E-01
 -1       837 7.20797E+00
 -1       838 1.00057E+01
 -1       839 5.18130E+00
 -1       840 2.48055E+00
 -1       841 1.01698E+01
 -1       842 9.16231E+00
 -1       843 1.29249E+00
 -1       844 9.67684E-01
 -1       845 1.16145E+00
 -1       846 3.94499E+00
 -1       847 3.58028E-03
 -1       848 4.56516E+00
 -1       849 1.13301E+00
 -1       850 8.76872E+00
 -1       851 2.04734E+00
 -1       852 2.97104E+00
 -1       853 1.16145E+00
 -1       854 4.49143E-03
 -1       855 2.06078E-03
 -1       856 9.17704E+00
 -1       857 2.06078E-03
 -1       858 5.86768E+00
 -1       859 3.27291E+00
 -1       860 1.03211E+00
 -1       861 1.32867E+00
 -1       862 2.83719E-03
 -1       863 6.69759E+00
 -1       864 3.32887E+00
 -1       865 2.91030E+00
 -1       866 2.38282E+00
 -1       867 1.62490E+00
 -1       868 1.22366E+00
 -1       869 9.73699E-01
 -1       870 7.80512E-01
 -1       871 6.17282E-01
 -1       872 4.82335E-01
 -1       873 3.72140E-01
 -1       874 2.83226E-01
 -1       875 2.12305E-01
 -1       876 1.56421E-01
 -1       877 1.12970E-01
 -1       878 7.96751E-02
 -1       879 5.50815E-02
 -1       880 3.74893E-02
 -1       881 2.45142E-02
 -1       882 1.51452E-02
 -1       883 8.63151E-03
 -1       884 4.23866E-03
 -1       885 3.43447E-03
 -1       886 3.93495E-03
 -1       887 3.91674E-03
 -1       888 3.57544E-03
 -1       889 3.05839E-03
 -1       890 2.79686E-03
 -1       891 1.82383E+00
 -1       892 1.54078E+00
 -1       893 1.15129E+00
 -1       894 8.87209E-01
 -1       895 7.05247E-01
 -1       896 5.78006E-01
 -1       897 4.65031E-01
 -1       898 3.66071E-01
 -1       899 2.82416E-01
 -1       900 2.13570E-01
 -1       901 1.58165E-01
 -1       902 1.14472E-01
 -1       903 8.06814E-02
 -1       904 5.62538E-02
 -1       905 3.80676E-02
 -1       906 2.46500E-02
 -1       907 1.50607E-02
 -1       908 8.40077E-03
 -1       909 4.33895E-03
 -1       910 4.37054E-03
 -1       911 4.67297E-03
 -1       912 4.48498E-03
 -1       913 4.00503E-03
 -1       914 3.34036E-03
 -1       915 1.87374E-03
 -1       916 6.82779E+00
 -1       917 1.35063E+00
 -1       918 2.33732E+00
 -1       919 6.91278E+00
 -1       920 3.18393E+00
 -1       921 2.20154E+00
 -1       922 1.81123E+00
 -1       923 9.64848E-01
 -1       924 2.74279E+00
 -1       925 5.72280E+00
 -1       926 4.33499E+00
 -1       927 5.54006E+00
 -1       928 6.94587E+00
 -1       929 6.68505E+00
 -1       930 1.55413E+00
 -1       931 1.35204E+00
 -1       932 3.79761E+00
 -1       933 2.86111E-03
 -1       934 2.44932E-03
 -1       935 5.64215E+00
 -1       936 5.22512E+00
 -1       937 1.95338E-03
 -1       938 5.72473E+00
 -1       939 1.69226E+00
 -1       940 4.03701E+00
 -1       941 1.35063E+00
 -1       942 3.61818E+00
 -1       943 2.07975E-03
 -1       944 2.55844E-03
 -1       945 1.53763E+00
 -1       946 6.69759E+00
 -1       947 1.53763E+00
 -1       948 2.74018E+00
 -1       949 2.58173E+00
 -1       950 1.62490E+00
 -1       951 1.22366E+00
 -1       952 9.26729E-01
 -1       953 7.07567E-01
 -1       954 5.42789E-01
 -1       955 4.15892E-01
 -1       956 3.17175E-01
 -1       957 2.39896E-01
 -1       958 1.79360E-01
 -1       959 1.32153E-01
 -1       960 9.56454E-02
 -1       961 6.77312E-02
 -1       962 4.66807E-02
 -1       963 3.17623E-02
 -1       964 2.10564E-02
 -1       965 1.32763E-02
 -1       966 7.75272E-03
 -1       967 4.09323E-03
 -1       968 2.12403E-03
 -1       969 2.71952E-03
 -1       970 2.90358E-03
 -1       971 2.77040E-03
 -1       972 2.62145E-03
 -1       973 1.10390E+00
 -1       974 1.48592E+00
 -1       975 1.83421E+00
 -1       976 8.87209E-01
 -1       977 7.05247E-01
 -1       978 5.55525E-01
 -1       979 4.33358E-01
 -1       980 3.34482E-01
 -1       981 2.55015E-01
 -1       982 1.91670E-01
 -1       983 1.41690E-01
 -1       984 1.02734E-01
 -1       985 7.27915E-02
 -1       986 5.01358E-02
 -1       987 3.42278E-02
 -1       988 2.25797E-02
 -1       989 1.41262E-02
 -1       990 8.13926E-03
 -1       991 4.18157E-03
 -1       992 2.56764E-03
 -1       993 3.19574E-03
 -1       994 3.30830E-03
 -1       995 3.07484E-03
 -1       996 4.36493E+00
 -1       997 5.38918E+00
 -1       998 4.51832E+00
 -1       999 2.73709E-03
 -1      1000 5.72473E+00
 -1      1001 4.36493E+00
 -1      1002 1.43982E+00
 -1      1003 1.28406E+00
 -1      1004 4.52887E+00
 -1      1005 3.15287E+00
 -1      1006 2.00249E+00
 -1      1007 1.55413E+00
 -1      1008 4.17457E+00
 -1      1009 1.80726E-03
 -1      1010 1.28406E+00
 -1      1011 4.32182E+00
 -1      1012 1.98153E-03
 -1      1013 2.06617E-03
 -1      1014 3.19097E+00
 -1      1015 3.16454E+00
 -1      1016 2.40942E+00
 -1      1017 2.91180E+00
 -1      1018 1.78661E+00
 -1      1019 2.91180E+00
 -1      1020 3.29171E+00
 -1      1021 8.20897E-01
 -1      1022 1.46601E+00
 -1      1023 1.01288E+00
 -1      1024 7.38486E-01
 -1      1025 5.54258E-01
 -1      1026 4.18695E-01
 -1      1027 3.18247E-01
 -1      1028 2.41582E-01
 -1      1029 1.82175E-01
 -1      1030 1.35921E-01
 -1      1031 9.99875E-02
 -1      1032 7.22677E-02
 -1      1033 5.11083E-02
 -1      1034 3.51710E-02
 -1      1035 2.42855E-02
 -1      1036 1.67780E-02
 -1      1037 1.11603E-02
 -1      1038 7.03331E-03
 -1      1039 4.06310E-03
 -1      1040 1.97878E-03
 -1      1041 1.97008E-03
 -1      1042 2.20307E-03
 -1      1043 1.48592E+00
 -1      1044 1.09089E+00
 -1      1045 1.57242E+00
 -1      1046 6.23174E-01
 -1      1047 4.75096E-01
 -1      1048 3.62636E-01
 -1      1049 2.75854E-01
 -1      1050 2.08245E-01
 -1      1051 1.55472E-01
 -1      1052 1.14427E-01
 -1      1053 8.27463E-02
 -1      1054 5.85563E-02
 -1      1055 4.03317E-02
 -1      1056 2.72885E-02
 -1      1057 1.81419E-02
 -1      1058 1.14838E-02
 -1      1059 7.19559E-03
 -1      1060 4.18157E-03
 -1      1061 2.11847E-03
 -1      1062 2.27598E-03
 -1      1063 2.48831E-03
 -1      1064 3.70927E+00
 -1      1065 2.08468E-03
 -1      1066 1.81496E-03
 -1      1067 3.81209E+00
 -1      1068 4.10282E+00
 -1      1069 2.31307E+00
 -1      1070 2.95352E+00
 -1      1071 2.34484E+00
 -1      1072 2.04403E+00
 -1      1073 1.76861E-03
 -1      1074 2.90039E+00
 -1      1075 6.25609E-01
 -1      1076 8.25109E-01
 -1      1077 8.34496E-01
 -1      1078 6.25609E-01
 -1      1079 4.74682E-01
 -1      1080 3.61365E-01
 -1      1081 2.74882E-01
 -1      1082 2.08009E-01
 -1      1083 1.56309E-01
 -1      1084 1.17825E-01
 -1      1085 8.75022E-02
 -1      1086 6.38391E-02
 -1      1087 4.55945E-02
 -1      1088 3.17234E-02
 -1      1089 2.20111E-02
 -1      1090 1.49405E-02
 -1      1091 9.69976E-03
 -1      1092 5.88893E-03
 -1      1093 3.17653E-03
 -1      1094 1.29644E-03
 -1      1095 1.54172E+00
 -1      1096 4.74682E-01
 -1      1097 3.61365E-01
 -1      1098 2.74882E-01
 -1      1099 2.08009E-01
 -1      1100 1.55987E-01
 -1      1101 1.15527E-01
 -1      1102 8.42237E-02
 -1      1103 6.02173E-02
 -1      1104 4.23719E-02
 -1      1105 2.95482E-02
 -1      1106 1.99527E-02
 -1      1107 1.28967E-02
 -1      1108 7.81185E-03
 -1      1109 4.23197E-03
 -1      1110 1.99366E-03
 -1      1111 2.00748E-03
 -1      1112 2.19947E+00
 -1      1113 1.23045E+00
 -1      1114 1.11171E+00
 -1      1115 1.54814E+00
 -1      1116 1.15593E+00
 -1      1117 1.55785E-03
 -1      1118 1.86004E+00
 -1      1119 1.45004E-03
 -1      1120 1.28140E+00
 -1      1121 1.21069E+01
 -1      1122 7.86253E+00
 -1      1123 2.88226E+00
 -1      1124 1.86514E+00
 -1      1125 1.42610E+00
 -1      1126 1.13701E+00
 -1      1127 8.86556E-01
 -1      1128 6.43369E-01
 -1      1129 5.34609E-01
 -1      1130 6.69370E-01
 -1      1131 9.00464E-01
 -1      1132 1.14042E+00
 -1      1133 1.43106E+00
 -1      1134 1.86759E+00
 -1      1135 2.80641E+00
 -1      1136 5.74573E+00
 -1      1137 1.05356E+01
 -1      1138 1.21069E+01
 -1      1139 7.88327E+00
 -1      1140 2.98127E+00
 -1      1141 1.83461E+00
 -1      1142 1.08732E+00
 -1      1143 9.04552E-01
 -1      1144 1.09935E+00
 -1      1145 1.19790E+00
 -1      1146 1.20396E+00
 -1      1147 1.40954E+00
 -1      1148 2.04262E+00
 -1      1149 3.19511E+00
 -1      1150 4.11818E+00
 -1      1151 4.35397E+00
 -1      1152 4.38563E+00
 -1      1153 3.98634E+00
 -1      1154 2.79292E+00
 -1      1155 1.77772E+00
 -1      1156 1.51459E+00
 -1      1157 1.46101E+00
 -1      1158 1.44947E+00
 -1      1159 1.39697E+00
 -1      1160 1.23762E+00
 -1      1161 1.01592E+00
 -1      1162 8.08222E-01
 -1      1163 6.38598E-01
 -1      1164 5.18599E-01
 -1      1165 4.31418E-01
 -1      1166 3.46858E-01
 -1      1167 2.70926E-01
 -1      1168 2.06164E-01
 -1      1169 1.52983E-01
 -1      1170 1.15969E-01
 -1      1171 9.36867E-02
 -1      1172 7.64966E-02
 -1      1173 6.11690E-02
 -1      1174 4.79640E-02
 -1      1175 3.68885E-02
 -1      1176 2.78004E-02
 -1      1177 2.16404E-02
 -1      1178 1.77372E-02
 -1      1179 1.42901E-02
 -1      1180 1.12225E-02
 -1      1181 8.53639E-03
 -1      1182 6.31416E-03
 -1      1183 4.71163E-03
 -1      1184 3.80126E-03
 -1      1185 3.10487E-03
 -1      1186 2.34531E-03
 -1      1187 1.21014E-03
 -1      1188 1.30506E+01
 -1      1189 8.01721E+00
 -1      1190 2.38034E+00
 -1      1191 1.51344E+00
 -1      1192 1.03899E+00
 -1      1193 7.35907E-01
 -1      1194 7.27576E-01
 -1      1195 9.19465E-01
 -1      1196 1.13312E+00
 -1      1197 1.36832E+00
 -1      1198 1.65158E+00
 -1      1199 2.29201E+00
 -1      1200 3.05153E+00
 -1      1201 3.56139E+00
 -1      1202 3.79863E+00
 -1      1203 3.64783E+00
 -1      1204 2.92156E+00
 -1      1205 1.90171E+00
 -1      1206 1.25431E+00
 -1      1207 1.10885E+00
 -1      1208 1.19874E+00
 -1      1209 1.23105E+00
 -1      1210 1.18651E+00
 -1      1211 1.05995E+00
 -1      1212 9.00244E-01
 -1      1213 7.44034E-01
 -1      1214 5.91095E-01
 -1      1215 4.51500E-01
 -1      1216 3.40658E-01
 -1      1217 2.62109E-01
 -1      1218 2.01286E-01
 -1      1219 1.50520E-01
 -1      1220 1.09556E-01
 -1      1221 7.74261E-02
 -1      1222 5.53923E-02
 -1      1223 4.34008E-02
 -1      1224 3.57642E-02
 -1      1225 2.88311E-02
 -1      1226 2.27676E-02
 -1      1227 1.87213E-02
 -1      1228 1.62954E-02
 -1      1229 1.39065E-02
 -1      1230 1.15430E-02
 -1      1231 9.30633E-03
 -1      1232 7.31765E-03
 -1      1233 5.58223E-03
 -1      1234 4.12099E-03
 -1      1235 3.07064E-03
 -1      1236 2.03296E-03
 -1      1237 8.79488E-04
 -1      1238 5.13205E-04
 -1      1239 6.77467E-04
 -1      1240 5.61876E-04
 -1      1241 2.98274E-04
 -1      1242 2.37483E-04
 -1      1243 3.84906E-04
 -1      1244 4.77710E-04
 -1      1245 5.18895E-04
 -1      1246 5.27477E-04
 -1      1247 5.18651E-04
 -1      1248 4.75085E-04
 -1      1249 3.82084E-04
 -1      1250 2.38247E-04
 -1      1251 3.03112E-04
 -1      1252 6.75964E-04
 -1      1253 1.00150E-03
 -1      1254 7.61172E-04
 -1      1255 2.54280E+01
 -1      1256 3.61131E+01
 -1      1257 4.67983E+01
 -1      1258 3.33355E+01
 -1      1259 1.60171E+01
 -1      1260 1.28157E+01
 -1      1261 1.34697E+01
 -1      1262 1.31481E+01
 -1      1263 1.28265E+01
 -1      1264 1.35420E+01
 -1      1265 2.57183E+01
 -1      1266 3.71791E+01
 -1      1267 3.13870E+01
 -1      1268 2.49575E+01
 -1      1269 2.46763E+01
 -1      1270 2.53589E+01
 -1      1271 3.07603E+01
 -1      1272 3.58352E+01
 -1      1273 2.45647E+01
 -1      1274 1.33503E+01
 -1      1275 1.34064E+01
 -1      1276 1.28531E+01
 -1      1277 1.22999E+01
 -1      1278 1.21261E+01
 -1      1279 1.58575E+01
 -1      1280 3.38524E+01
 -1      1281 4.79421E+01
 -1      1282 3.62209E+01
 -1      1283 2.49638E+01
 -1      1284 1.21069E+01
 -1      1285 4.71295E+00
 -1      1286 8.95730E+00
 -1      1287 2.35756E+00
 -1      1288 3.09348E+00
 -1      1289 4.18826E+00
 -1      1290 1.70817E+00
 -1      1291 1.98937E+00
 -1      1292 2.20059E+00
 -1      1293 1.33702E+00
 -1      1294 1.49487E+00
 -1      1295 1.61909E+00
 -1      1296 1.04581E+00
 -1      1297 1.17705E+00
 -1      1298 1.24582E+00
 -1      1299 8.00531E-01
 -1      1300 9.19749E-01
 -1      1301 9.59787E-01
 -1      1302 5.51084E-01
 -1      1303 6.75053E-01
 -1      1304 7.08246E-01
 -1      1305 4.86470E-01
 -1      1306 4.71260E-01
 -1      1307 5.02945E-01
 -1      1308 7.02316E-01
 -1      1309 5.82765E-01
 -1      1310 5.19416E-01
 -1      1311 9.26426E-01
 -1      1312 8.14883E-01
 -1      1313 7.28277E-01
 -1      1314 1.19182E+00
 -1      1315 1.06341E+00
 -1      1316 9.77826E-01
 -1      1317 1.51150E+00
 -1      1318 1.34927E+00
 -1      1319 1.27225E+00
 -1      1320 1.99617E+00
 -1      1321 1.72188E+00
 -1      1322 1.64008E+00
 -1      1323 3.01126E+00
 -1      1324 2.34673E+00
 -1      1325 2.20102E+00
 -1      1326 5.91354E+00
 -1      1327 3.63874E+00
 -1      1328 3.17906E+00
 -1      1329 1.30506E+01
 -1      1330 1.05356E+01
 -1      1331 8.42856E+00
 -1      1332 1.30506E+01
 -1      1333 7.88327E+00
 -1      1334 3.65967E+00
 -1      1335 2.98127E+00
 -1      1336 2.30286E+00
 -1      1337 2.98127E+00
 -1      1338 1.83461E+00
 -1      1339 1.36635E+00
 -1      1340 1.83461E+00
 -1      1341 1.08732E+00
 -1      1342 8.08294E-01
 -1      1343 1.08732E+00
 -1      1344 7.79242E-01
 -1      1345 8.75500E-01
 -1      1346 7.79242E-01
 -1      1347 1.00081E+00
 -1      1348 1.09935E+00
 -1      1349 8.75500E-01
 -1      1350 1.19790E+00
 -1      1351 1.19790E+00
 -1      1352 1.09935E+00
 -1      1353 1.19194E+00
 -1      1354 1.19800E+00
 -1      1355 1.19194E+00
 -1      1356 1.21001E+00
 -1      1357 1.40954E+00
 -1      1358 1.19800E+00
 -1      1359 1.60907E+00
 -1      1360 2.04262E+00
 -1      1361 1.40954E+00
 -1      1362 2.49512E+00
 -1      1363 3.21406E+00
 -1      1364 2.06157E+00
 -1      1365 3.91405E+00
 -1      1366 4.11818E+00
 -1      1367 3.21406E+00
 -1      1368 4.32231E+00
 -1      1369 4.35397E+00
 -1      1370 4.11818E+00
 -1      1371 4.38563E+00
 -1      1372 4.38563E+00
 -1      1373 4.35397E+00
 -1      1374 3.98634E+00
 -1      1375 3.58704E+00
 -1      1376 3.98634E+00
 -1      1377 2.90604E+00
 -1      1378 2.11192E+00
 -1      1379 2.90604E+00
 -1      1380 1.77772E+00
 -1      1381 1.55664E+00
 -1      1382 1.89084E+00
 -1      1383 1.51459E+00
 -1      1384 1.47255E+00
 -1      1385 1.51459E+00
 -1      1386 1.44395E+00
 -1      1387 1.43242E+00
 -1      1388 1.44395E+00
 -1      1389 1.44947E+00
 -1      1390 1.44947E+00
 -1      1391 1.43242E+00
 -1      1392 1.39697E+00
 -1      1393 1.34447E+00
 -1      1394 1.39697E+00
 -1      1395 1.23762E+00
 -1      1396 1.13076E+00
 -1      1397 1.23762E+00
 -1      1398 1.03777E+00
 -1      1399 9.22927E-01
 -1      1400 1.03777E+00
 -1      1401 8.58732E-01
 -1      1402 7.65876E-01
 -1      1403 8.80580E-01
 -1      1404 6.96617E-01
 -1      1405 6.19848E-01
 -1      1406 7.47126E-01
 -1      1407 5.49737E-01
 -1      1408 5.06508E-01
 -1      1409 6.07757E-01
 -1      1410 4.42691E-01
 -1      1411 3.98740E-01
 -1      1412 4.73829E-01
 -1      1413 3.46858E-01
 -1      1414 3.06249E-01
 -1      1415 3.58131E-01
 -1      1416 2.72275E-01
 -1      1417 2.36952E-01
 -1      1418 2.72275E-01
 -1      1419 2.10194E-01
 -1      1420 1.80754E-01
 -1      1421 2.11543E-01
 -1      1422 1.58367E-01
 -1      1423 1.34626E-01
 -1      1424 1.62397E-01
 -1      1425 1.16460E-01
 -1      1426 1.03186E-01
 -1      1427 1.21844E-01
 -1      1428 9.36867E-02
 -1      1429 8.46782E-02
 -1      1430 9.41779E-02
 -1      1431 7.64966E-02
 -1      1432 6.83150E-02
 -1      1433 7.64966E-02
 -1      1434 6.11690E-02
 -1      1435 5.40230E-02
 -1      1436 6.11690E-02
 -1      1437 4.79640E-02
 -1      1438 4.19049E-02
 -1      1439 4.79640E-02
 -1      1440 3.68885E-02
 -1      1441 3.18721E-02
 -1      1442 3.68885E-02
 -1      1443 2.82813E-02
 -1      1444 2.42097E-02
 -1      1445 2.82813E-02
 -1      1446 2.16404E-02
 -1      1447 1.95521E-02
 -1      1448 2.21213E-02
 -1      1449 1.77372E-02
 -1      1450 1.59223E-02
 -1      1451 1.77372E-02
 -1      1452 1.42901E-02
 -1      1453 1.26580E-02
 -1      1454 1.42901E-02
 -1      1455 1.12497E-02
 -1      1456 9.81413E-03
 -1      1457 1.12497E-02
 -1      1458 8.72014E-03
 -1      1459 7.46964E-03
 -1      1460 8.74739E-03
 -1      1461 6.52992E-03
 -1      1462 5.55819E-03
 -1      1463 6.71367E-03
 -1      1464 4.83394E-03
 -1      1465 4.20313E-03
 -1      1466 5.04970E-03
 -1      1467 3.80126E-03
 -1      1468 3.52170E-03
 -1      1469 3.92357E-03
 -1      1470 3.10487E-03
 -1      1471 2.68805E-03
 -1      1472 3.10487E-03
 -1      1473 2.34531E-03
 -1      1474 2.00257E-03
 -1      1475 2.34531E-03
 -1      1476 1.55360E-03
 -1      1477 1.55360E-03
 -1      1478 2.98384E+00
 -1      1479 8.01721E+00
 -1      1480 8.01721E+00
 -1      1481 1.77684E+00
 -1      1482 2.38034E+00
 -1      1483 2.38034E+00
 -1      1484 1.25004E+00
 -1      1485 1.51344E+00
 -1      1486 1.51344E+00
 -1      1487 8.27948E-01
 -1      1488 1.03899E+00
 -1      1489 1.03899E+00
 -1      1490 6.43866E-01
 -1      1491 7.35907E-01
 -1      1492 7.35907E-01
 -1      1493 7.03062E-01
 -1      1494 6.19352E-01
 -1      1495 6.19352E-01
 -1      1496 9.19465E-01
 -1      1497 8.11285E-01
 -1      1498 7.03062E-01
 -1      1499 1.13312E+00
 -1      1500 1.02764E+00
 -1      1501 9.19465E-01
 -1      1502 1.36832E+00
 -1      1503 1.23861E+00
 -1      1504 1.13312E+00
 -1      1505 1.65158E+00
 -1      1506 1.49804E+00
 -1      1507 1.36832E+00
 -1      1508 2.37704E+00
 -1      1509 1.89015E+00
 -1      1510 1.73661E+00
 -1      1511 3.05153E+00
 -1      1512 2.77890E+00
 -1      1513 2.37704E+00
 -1      1514 3.56139E+00
 -1      1515 3.32416E+00
 -1      1516 3.05153E+00
 -1      1517 3.79863E+00
 -1      1518 3.79863E+00
 -1      1519 3.56139E+00
 -1      1520 3.49703E+00
 -1      1521 3.64783E+00
 -1      1522 3.64783E+00
 -1      1523 2.34608E+00
 -1      1524 2.92156E+00
 -1      1525 2.92156E+00
 -1      1526 1.45734E+00
 -1      1527 1.90171E+00
 -1      1528 1.90171E+00
 -1      1529 9.80977E-01
 -1      1530 1.18401E+00
 -1      1531 1.18401E+00
 -1      1532 1.10885E+00
 -1      1533 1.05128E+00
 -1      1534 9.80977E-01
 -1      1535 1.19874E+00
 -1      1536 1.16643E+00
 -1      1537 1.10885E+00
 -1      1538 1.23105E+00
 -1      1539 1.23105E+00
 -1      1540 1.19874E+00
 -1      1541 1.14197E+00
 -1      1542 1.18651E+00
 -1      1543 1.18651E+00
 -1      1544 9.77921E-01
 -1      1545 1.05995E+00
 -1      1546 1.05995E+00
 -1      1547 8.22567E-01
 -1      1548 9.00244E-01
 -1      1549 9.00244E-01
 -1      1550 6.72417E-01
 -1      1551 7.50950E-01
 -1      1552 7.50950E-01
 -1      1553 5.29846E-01
 -1      1554 6.04252E-01
 -1      1555 6.11168E-01
 -1      1556 4.02224E-01
 -1      1557 4.67413E-01
 -1      1558 4.80570E-01
 -1      1559 3.02968E-01
 -1      1560 3.48620E-01
 -1      1561 3.64534E-01
 -1      1562 2.29212E-01
 -1      1563 2.62109E-01
 -1      1564 2.70071E-01
 -1      1565 1.73360E-01
 -1      1566 2.01286E-01
 -1      1567 2.01286E-01
 -1      1568 1.27679E-01
 -1      1569 1.50520E-01
 -1      1570 1.50520E-01
 -1      1571 9.24879E-02
 -1      1572 1.10612E-01
 -1      1573 1.10612E-01
 -1      1574 6.51627E-02
 -1      1575 7.91688E-02
 -1      1576 8.02245E-02
 -1      1577 4.73645E-02
 -1      1578 5.53923E-02
 -1      1579 5.71349E-02
 -1      1580 3.94372E-02
 -1      1581 4.34008E-02
 -1      1582 4.34008E-02
 -1      1583 3.20912E-02
 -1      1584 3.57642E-02
 -1      1585 3.57642E-02
 -1      1586 2.55710E-02
 -1      1587 2.88311E-02
 -1      1588 2.88311E-02
 -1      1589 1.99641E-02
 -1      1590 2.27676E-02
 -1      1591 2.27676E-02
 -1      1592 1.74784E-02
 -1      1593 1.87213E-02
 -1      1594 1.87213E-02
 -1      1595 1.51123E-02
 -1      1596 1.62954E-02
 -1      1597 1.62954E-02
 -1      1598 1.27007E-02
 -1      1599 1.39065E-02
 -1      1600 1.39065E-02
 -1      1601 1.03852E-02
 -1      1602 1.15430E-02
 -1      1603 1.15430E-02
 -1      1604 8.22741E-03
 -1      1605 9.30633E-03
 -1      1606 9.30633E-03
 -1      1607 6.40789E-03
 -1      1608 7.31765E-03
 -1      1609 7.31765E-03
 -1      1610 4.75658E-03
 -1      1611 5.58223E-03
 -1      1612 5.58223E-03
 -1      1613 3.48540E-03
 -1      1614 4.12099E-03
 -1      1615 4.12099E-03
 -1      1616 2.65588E-03
 -1      1617 3.07064E-03
 -1      1618 3.07064E-03
 -1      1619 1.47505E-03
 -1      1620 2.09797E-03
 -1      1621 2.09797E-03
 -1      1622 1.04375E-03
 -1      1623 7.19650E-04
 -1      1624 7.19650E-04
 -1      1625 6.04059E-04
 -1      1626 7.19650E-04
 -1      1627 7.61832E-04
 -1      1628 3.78679E-04
 -1      1629 5.26691E-04
 -1      1630 6.84464E-04
 -1      1631 4.27006E-04
 -1      1632 3.39784E-04
 -1      1633 5.68201E-04
 -1      1634 6.09241E-04
 -1      1635 5.49040E-04
 -1      1636 6.51341E-04
 -1      1637 7.11418E-04
 -1      1638 6.78816E-04
 -1      1639 8.42949E-04
 -1      1640 7.46473E-04
 -1      1641 7.37891E-04
 -1      1642 9.38996E-04
 -1      1643 7.46480E-04
 -1      1644 7.46480E-04
 -1      1645 9.65476E-04
 -1      1646 7.37654E-04
 -1      1647 7.46480E-04
 -1      1648 9.65483E-04
 -1      1649 6.74377E-04
 -1      1650 7.09118E-04
 -1      1651 9.36947E-04
 -1      1652 5.48789E-04
 -1      1653 6.07049E-04
 -1      1654 8.41082E-04
 -1      1655 3.43652E-04
 -1      1656 4.29229E-04
 -1      1657 6.54195E-04
 -1      1658 5.26626E-04
 -1      1659 3.76184E-04
 -1      1660 5.67166E-04
 -1      1661 7.49036E-04
 -1      1662 5.26626E-04
 -1      1663 5.99697E-04
 -1      1664 1.10463E-03
 -1      1665 1.00150E-03
 -1      1666 8.52164E-04
 -1      1667 1.55360E-03
 -1      1668 2.77167E+01
 -1      1669 2.77167E+01
 -1      1670 3.65724E+01
 -1      1671 2.58873E+01
 -1      1672 4.67983E+01
 -1      1673 4.67983E+01
 -1      1674 2.04433E+01
 -1      1675 3.39061E+01
 -1      1676 1.15499E+01
 -1      1677 1.54054E+01
 -1      1678 1.28157E+01
 -1      1679 1.21616E+01
 -1      1680 1.34697E+01
 -1      1681 1.34697E+01
 -1      1682 1.26102E+01
 -1      1683 1.29318E+01
 -1      1684 1.28265E+01
 -1      1685 1.28265E+01
 -1      1686 1.28732E+01
 -1      1687 1.21578E+01
 -1      1688 2.57183E+01
 -1      1689 1.42575E+01
 -1      1690 3.71791E+01
 -1      1691 3.71791E+01
 -1      1692 3.03520E+01
 -1      1693 3.61442E+01
 -1      1694 2.54635E+01
 -1      1695 2.61007E+01
 -1      1696 2.63069E+01
 -1      1697 2.59510E+01
 -1      1698 2.66335E+01
 -1      1699 2.63069E+01
 -1      1700 3.52706E+01
 -1      1701 3.01958E+01
 -1      1702 3.58352E+01
 -1      1703 3.58352E+01
 -1      1704 1.34494E+01
 -1      1705 2.47199E+01
 -1      1706 1.26890E+01
 -1      1707 1.26329E+01
 -1      1708 1.34064E+01
 -1      1709 1.34064E+01
 -1      1710 1.20400E+01
 -1      1711 1.25933E+01
 -1      1712 1.22999E+01
 -1      1713 1.22999E+01
 -1      1714 1.19523E+01
 -1      1715 1.21261E+01
 -1      1716 1.53624E+01
 -1      1717 1.14572E+01
 -1      1718 3.48365E+01
 -1      1719 2.07468E+01
 -1      1720 4.79421E+01
 -1      1721 4.79421E+01
 -1      1722 2.74240E+01
 -1      1723 3.91452E+01
 -1      1724 2.77167E+01
 -1      1725 2.72526E+01
 -1      1726 1.59760E+01
 -1      1727 3.39061E+01
 -1      1728 1.10877E-03
 -1      1729 1.15095E-03
 -1      1730 2.81760E+01
 -1      1731 3.65724E+01
 -1      1732 3.00055E+01
 -1      1733 1.15499E+01
 -1      1734 1.28157E+01
 -1      1735 1.29318E+01
 -1      1736 1.26102E+01
 -1      1737 1.21578E+01
 -1      1738 1.28732E+01
 -1      1739 2.57183E+01
 -1      1740 3.61442E+01
 -1      1741 3.08579E+01
 -1      1742 2.70941E+01
 -1      1743 2.75816E+01
 -1      1744 3.11438E+01
 -1      1745 3.52706E+01
 -1      1746 2.47199E+01
 -1      1747 1.27881E+01
 -1      1748 1.26890E+01
 -1      1749 1.25933E+01
 -1      1750 1.20400E+01
 -1      1751 1.21261E+01
 -1      1752 1.14572E+01
 -1      1753 1.63465E+01
 -1      1754 3.48365E+01
 -1      1755 3.91452E+01
 -1      1756 3.01769E+01
 -1      1757 8.95730E+00
 -1      1758 1.70562E+00
 -1      1759 2.07382E+00
 -1      1760 2.55742E+00
 -1      1761 4.17689E+00
 -1      1762 2.06245E+00
 -1      1763 1.09975E+00
 -1      1764 1.25972E+00
 -1      1765 8.79049E-01
 -1      1766 1.00511E+00
 -1      1767 1.01901E+00
 -1      1768 6.44607E-01
 -1      1769 7.70084E-01
 -1      1770 8.15409E-01
 -1      1771 4.34989E-01
 -1      1772 5.14812E-01
 -1      1773 5.76651E-01
 -1      1774 5.49883E-01
 -1      1775 4.53589E-01
 -1      1776 4.65457E-01
 -1      1777 7.81422E-01
 -1      1778 6.68854E-01
 -1      1779 6.03027E-01
 -1      1780 1.01914E+00
 -1      1781 8.82162E-01
 -1      1782 8.22739E-01
 -1      1783 1.26523E+00
 -1      1784 1.10778E+00
 -1      1785 1.01212E+00
 -1      1786 1.56985E+00
 -1      1787 1.35947E+00
 -1      1788 1.19500E+00
 -1      1789 2.05232E+00
 -1      1790 1.70177E+00
 -1      1791 1.42115E+00
 -1      1792 2.71873E+00
 -1      1793 2.09125E+00
 -1      1794 1.59200E+00
 -1      1795 7.37494E+00
 -1      1796 2.75292E+00
 -1      1797 1.66511E+00
 -1      1798 2.34157E+00
 -1      1799 4.73370E+00
 -1      1800 1.52981E+00
 -1      1801 2.13330E+00
 -1      1802 1.49103E+00
 -1      1803 3.10286E+00
 -1      1804 1.69170E+00
 -1      1805 1.22344E+00
 -1      1806 1.05770E+00
 -1      1807 7.78674E-01
 -1      1808 9.14795E-01
 -1      1809 7.89602E-01
 -1      1810 7.60550E-01
 -1      1811 7.59983E-01
 -1      1812 7.86463E-01
 -1      1813 9.11774E-01
 -1      1814 7.96824E-01
 -1      1815 9.19456E-01
 -1      1816 1.01800E+00
 -1      1817 8.30419E-01
 -1      1818 9.90608E-01
 -1      1819 9.84650E-01
 -1      1820 8.10709E-01
 -1      1821 1.06270E+00
 -1      1822 1.07472E+00
 -1      1823 8.61369E-01
 -1      1824 1.18621E+00
 -1      1825 1.38573E+00
 -1      1826 1.05091E+00
 -1      1827 1.67700E+00
 -1      1828 2.12951E+00
 -1      1829 1.45367E+00
 -1      1830 2.38822E+00
 -1      1831 3.08821E+00
 -1      1832 2.00365E+00
 -1      1833 3.26282E+00
 -1      1834 3.46695E+00
 -1      1835 2.43698E+00
 -1      1836 3.42420E+00
 -1      1837 3.45586E+00
 -1      1838 2.56884E+00
 -1      1839 3.49261E+00
 -1      1840 3.09331E+00
 -1      1841 2.56284E+00
 -1      1842 2.81571E+00
 -1      1843 2.13471E+00
 -1      1844 2.32198E+00
 -1      1845 1.86839E+00
 -1      1846 1.53419E+00
 -1      1847 1.77806E+00
 -1      1848 1.24726E+00
 -1      1849 1.20521E+00
 -1      1850 1.22481E+00
 -1      1851 1.18783E+00
 -1      1852 1.15924E+00
 -1      1853 9.20497E-01
 -1      1854 1.19465E+00
 -1      1855 1.21170E+00
 -1      1856 9.38522E-01
 -1      1857 1.27552E+00
 -1      1858 1.22302E+00
 -1      1859 1.03775E+00
 -1      1860 1.20414E+00
 -1      1861 1.09728E+00
 -1      1862 1.08269E+00
 -1      1863 1.04072E+00
 -1      1864 9.47729E-01
 -1      1865 1.00724E+00
 -1      1866 8.99045E-01
 -1      1867 8.34849E-01
 -1      1868 9.01997E-01
 -1      1869 7.80441E-01
 -1      1870 7.11182E-01
 -1      1871 7.98905E-01
 -1      1872 6.48402E-01
 -1      1873 5.78292E-01
 -1      1874 6.81717E-01
 -1      1875 5.16331E-01
 -1      1876 4.52514E-01
 -1      1877 5.56976E-01
 -1      1878 3.96531E-01
 -1      1879 3.44649E-01
 -1      1880 4.39032E-01
 -1      1881 2.96934E-01
 -1      1882 2.62961E-01
 -1      1883 3.35334E-01
 -1      1884 2.23991E-01
 -1      1885 1.97233E-01
 -1      1886 2.48651E-01
 -1      1887 1.66464E-01
 -1      1888 1.44077E-01
 -1      1889 1.78913E-01
 -1      1890 1.21844E-01
 -1      1891 1.03678E-01
 -1      1892 1.25911E-01
 -1      1893 8.93053E-02
 -1      1894 7.98056E-02
 -1      1895 8.93053E-02
 -1      1896 6.94699E-02
 -1      1897 6.12883E-02
 -1      1898 6.45973E-02
 -1      1899 5.51737E-02
 -1      1900 4.80277E-02
 -1      1901 4.81470E-02
 -1      1902 4.44230E-02
 -1      1903 3.83640E-02
 -1      1904 3.84277E-02
 -1      1905 3.50581E-02
 -1      1906 3.00417E-02
 -1      1907 3.15172E-02
 -1      1908 2.71212E-02
 -1      1909 2.35305E-02
 -1      1910 2.52908E-02
 -1      1911 2.10216E-02
 -1      1912 1.84524E-02
 -1      1913 1.98615E-02
 -1      1914 1.65175E-02
 -1      1915 1.47026E-02
 -1      1916 1.54178E-02
 -1      1917 1.36677E-02
 -1      1918 1.20356E-02
 -1      1919 1.24481E-02
 -1      1920 1.10184E-02
 -1      1921 9.61008E-03
 -1      1922 1.03960E-02
 -1      1923 8.63870E-03
 -1      1924 7.54471E-03
 -1      1925 8.40740E-03
 -1      1926 6.71367E-03
 -1      1927 5.77395E-03
 -1      1928 6.60498E-03
 -1      1929 5.06453E-03
 -1      1930 4.34027E-03
 -1      1931 5.06453E-03
 -1      1932 3.76475E-03
 -1      1933 3.36287E-03
 -1      1934 3.77958E-03
 -1      1935 2.93418E-03
 -1      1936 2.51735E-03
 -1      1937 2.77535E-03
 -1      1938 2.22510E-03
 -1      1939 1.88236E-03
 -1      1940 1.43339E-03
 -1      1941 2.05440E-03
 -1      1942 9.13711E-01
 -1      1943 1.17712E+00
 -1      1944 9.30079E-01
 -1      1945 6.94085E-01
 -1      1946 9.05129E-01
 -1      1947 5.68805E-01
 -1      1948 6.15559E-01
 -1      1949 7.07600E-01
 -1      1950 5.73737E-01
 -1      1951 5.80794E-01
 -1      1952 6.05308E-01
 -1      1953 5.77000E-01
 -1      1954 6.62448E-01
 -1      1955 5.54224E-01
 -1      1956 5.40180E-01
 -1      1957 7.74299E-01
 -1      1958 6.66120E-01
 -1      1959 5.17282E-01
 -1      1960 1.05705E+00
 -1      1961 9.51568E-01
 -1      1962 6.98223E-01
 -1      1963 1.49259E+00
 -1      1964 1.36288E+00
 -1      1965 1.18132E+00
 -1      1966 1.94408E+00
 -1      1967 1.70551E+00
 -1      1968 1.70007E+00
 -1      1969 2.35412E+00
 -1      1970 1.95226E+00
 -1      1971 1.92116E+00
 -1      1972 2.61433E+00
 -1      1973 2.34170E+00
 -1      1974 1.91692E+00
 -1      1975 2.96562E+00
 -1      1976 2.72839E+00
 -1      1977 2.01856E+00
 -1      1978 2.85510E+00
 -1      1979 3.00590E+00
 -1      1980 2.17289E+00
 -1      1981 2.02888E+00
 -1      1982 2.60436E+00
 -1      1983 1.96242E+00
 -1      1984 1.25277E+00
 -1      1985 1.69715E+00
 -1      1986 1.37994E+00
 -1      1987 7.91109E-01
 -1      1988 1.06444E+00
 -1      1989 8.59875E-01
 -1      1990 8.83932E-01
 -1      1991 8.13631E-01
 -1      1992 6.94064E-01
 -1      1993 1.01212E+00
 -1      1994 9.54541E-01
 -1      1995 7.87196E-01
 -1      1996 1.06286E+00
 -1      1997 1.03055E+00
 -1      1998 8.76237E-01
 -1      1999 1.01802E+00
 -1      2000 1.06256E+00
 -1      2001 8.94373E-01
 -1      2002 8.96120E-01
 -1      2003 9.78145E-01
 -1      2004 8.54198E-01
 -1      2005 7.75938E-01
 -1      2006 8.53615E-01
 -1      2007 7.71814E-01
 -1      2008 6.51810E-01
 -1      2009 7.23427E-01
 -1      2010 6.76798E-01
 -1      2011 5.26884E-01
 -1      2012 5.95049E-01
 -1      2013 5.67526E-01
 -1      2014 4.10283E-01
 -1      2015 4.72716E-01
 -1      2016 4.56597E-01
 -1      2017 3.08763E-01
 -1      2018 3.62367E-01
 -1      2019 3.54513E-01
 -1      2020 2.27706E-01
 -1      2021 2.68565E-01
 -1      2022 2.66399E-01
 -1      2023 1.71196E-01
 -1      2024 1.99122E-01
 -1      2025 1.97616E-01
 -1      2026 1.27501E-01
 -1      2027 1.50342E-01
 -1      2028 1.48177E-01
 -1      2029 9.35436E-02
 -1      2030 1.10612E-01
 -1      2031 1.10433E-01
 -1      2032 6.69054E-02
 -1      2033 8.02245E-02
 -1      2034 8.02245E-02
 -1      2035 4.68797E-02
 -1      2036 5.66501E-02
 -1      2037 5.66501E-02
 -1      2038 3.51973E-02
 -1      2039 3.91609E-02
 -1      2040 3.86761E-02
 -1      2041 2.88845E-02
 -1      2042 3.25575E-02
 -1      2043 2.83176E-02
 -1      2044 2.36340E-02
 -1      2045 2.68940E-02
 -1      2046 2.36874E-02
 -1      2047 1.89086E-02
 -1      2048 2.17121E-02
 -1      2049 1.97750E-02
 -1      2050 1.59001E-02
 -1      2051 1.71430E-02
 -1      2052 1.60875E-02
 -1      2053 1.31496E-02
 -1      2054 1.43327E-02
 -1      2055 1.27544E-02
 -1      2056 1.10201E-02
 -1      2057 1.22259E-02
 -1      2058 1.02632E-02
 -1      2059 9.09957E-03
 -1      2060 1.02573E-02
 -1      2061 8.57672E-03
 -1      2062 7.31685E-03
 -1      2063 8.39577E-03
 -1      2064 7.11009E-03
 -1      2065 5.83201E-03
 -1      2066 6.74177E-03
 -1      2067 5.83121E-03
 -1      2068 4.45495E-03
 -1      2069 5.28061E-03
 -1      2070 4.70473E-03
 -1      2071 3.28463E-03
 -1      2072 3.92022E-03
 -1      2073 3.61859E-03
 -1      2074 2.46985E-03
 -1      2075 2.88461E-03
 -1      2076 2.68384E-03
 -1      2077 1.54006E-03
 -1      2078 2.09797E-03
 -1      2079 1.91194E-03
 -1      2080 1.15095E-03
 -1      2081 6.62951E-04
 -1      2082 7.01846E-04
 -1      2083 1.05140E-03
 -1      2084 1.12877E-03
 -1      2085 1.14615E-03
 -1      2086 1.12877E-03
 -1      2087 1.12877E-03
 -1      2088 1.51789E-03
 -1      2089 1.49571E-03
 -1      2090 9.01938E-04
 -1      2091 7.79904E-04
 -1      2092 9.13548E-04
 -1      2093 1.06266E-03
 -1      2094 9.93090E-04
 -1      2095 1.12165E-03
 -1      2096 1.12709E-03
 -1      2097 1.10061E-03
 -1      2098 1.25075E-03
 -1      2099 1.12709E-03
 -1      2100 1.12709E-03
 -1      2101 1.28870E-03
 -1      2102 1.12622E-03
 -1      2103 1.12622E-03
 -1      2104 1.28783E-03
 -1      2105 1.09769E-03
 -1      2106 1.12622E-03
 -1      2107 1.28696E-03
 -1      2108 9.93553E-04
 -1      2109 1.06088E-03
 -1      2110 1.25016E-03
 -1      2111 7.84873E-04
 -1      2112 9.04434E-04
 -1      2113 1.12423E-03
 -1      2114 7.02542E-04
 -1      2115 6.70010E-04
 -1      2116 9.20249E-04
 -1      2117 9.94298E-04
 -1      2118 9.94298E-04
 -1      2119 1.09714E-03
 -1      2120 3.65724E+01
 -1      2121 2.63466E+01
 -1      2122 3.11845E+01
 -1      2123 3.11845E+01
 -1      2124 2.93550E+01
 -1      2125 3.11845E+01
 -1      2126 1.86950E+01
 -1      2127 3.15872E+01
 -1      2128 1.01300E+01
 -1      2129 1.51678E+01
 -1      2130 1.59669E+00
 -1      2131 1.80999E+00
 -1      2132 1.68322E+00
 -1      2133 1.45062E+00
 -1      2134 1.11696E+01
 -1      2135 1.05155E+01
 -1      2136 1.13814E+01
 -1      2137 1.19193E+01
 -1      2138 1.16847E+01
 -1      2139 1.14684E+01
 -1      2140 1.04073E+01
 -1      2141 1.10760E+01
 -1      2142 1.09622E+01
 -1      2143 9.57795E+00
 -1      2144 8.49622E+00
 -1      2145 2.54191E+01
 -1      2146 1.39583E+01
 -1      2147 2.93714E+01
 -1      2148 3.04063E+01
 -1      2149 2.73122E+01
 -1      2150 3.15635E+01
 -1      2151 3.18281E+01
 -1      2152 3.13406E+01
 -1      2153 3.18281E+01
 -1      2154 3.18281E+01
 -1      2155 2.99301E+01
 -1      2156 2.63679E+01
 -1      2157 2.89974E+01
 -1      2158 2.84328E+01
 -1      2159 2.36569E+01
 -1      2160 1.29953E+01
 -1      2161 2.41106E+01
 -1      2162 9.61713E+00
 -1      2163 1.04337E+01
 -1      2164 1.06982E+01
 -1      2165 9.98074E+00
 -1      2166 7.62632E+00
 -1      2167 1.15190E+01
 -1      2168 1.23321E+01
 -1      2169 1.18317E+01
 -1      2170 1.15718E+01
 -1      2171 1.13107E+01
 -1      2172 1.07260E+01
 -1      2173 1.08998E+01
 -1      2174 9.20138E+00
 -1      2175 9.69646E+00
 -1      2176 1.56882E+01
 -1      2177 1.03038E+01
 -1      2178 3.25678E+01
 -1      2179 1.94622E+01
 -1      2180 3.03484E+01
 -1      2181 3.91452E+01
 -1      2182 3.08145E+01
 -1      2183 3.09859E+01
 -1      2184 9.71764E+00
 -1      2185 9.10593E+00
 -1      2186 8.07156E+00
 -1      2187 1.28490E+01
 -1      2188 2.42446E+00
 -1      2189 8.29773E+00
 -1      2190 1.81329E+00
 -1      2191 2.93550E+01
 -1      2192 3.23634E+01
 -1      2193 1.24676E-03
 -1      2194 2.13614E+01
 -1      2195 3.19934E+01
 -1      2196 3.09859E+01
 -1      2197 2.37710E+01
 -1      2198 1.34195E+01
 -1      2199 8.54306E+00
 -1      2200 1.04316E+01
 -1      2201 9.62389E+00
 -1      2202 1.72728E+01
 -1      2203 3.06143E+01
 -1      2204 3.60746E+01
 -1      2205 3.20461E+01
 -1      2206 2.58256E+01
 -1      2207 1.06630E+01
 -1      2208 9.93419E+00
 -1      2209 1.12779E+01
 -1      2210 8.97774E+00
 -1      2211 9.72748E+00
 -1      2212 1.04559E+01
 -1      2213 1.86463E+01
 -1      2214 1.03178E+01
 -1      2215 9.70852E+00
 -1      2216 7.14686E+00
 -1      2217 8.47015E+00
 -1      2218 9.37452E-01
 -1      2219 1.29014E+00
 -1      2220 7.89745E-01
 -1      2221 8.98710E-01
 -1      2222 9.66644E-01
 -1      2223 1.06128E+00
 -1      2224 9.40980E-01
 -1      2225 4.38059E-01
 -1      2226 4.19459E-01
 -1      2227 6.90050E-01
 -1      2228 5.71079E-01
 -1      2229 5.25082E-01
 -1      2230 9.04237E-01
 -1      2231 8.03496E-01
 -1      2232 7.71548E-01
 -1      2233 1.03929E+00
 -1      2234 9.50653E-01
 -1      2235 9.31409E-01
 -1      2236 1.17016E+00
 -1      2237 1.07592E+00
 -1      2238 1.01446E+00
 -1      2239 1.47807E+00
 -1      2240 1.34615E+00
 -1      2241 1.22708E+00
 -1      2242 6.59563E-01
 -1      2243 6.68146E-01
 -1      2244 1.02821E+00
 -1      2245 1.15175E+00
 -1      2246 9.86011E-01
 -1      2247 6.34814E+00
 -1      2248 7.37220E+00
 -1      2249 8.48787E+00
 -1      2250 1.20150E+01
 -1      2251 8.43010E-01
 -1      2252 8.53938E-01
 -1      2253 1.07997E+00
 -1      2254 8.86514E-01
 -1      2255 9.12427E-01
 -1      2256 9.69542E-01
 -1      2257 9.66630E-01
 -1      2258 9.74312E-01
 -1      2259 1.05632E+00
 -1      2260 1.02293E+00
 -1      2261 9.95538E-01
 -1      2262 1.15914E+00
 -1      2263 1.04317E+00
 -1      2264 1.12122E+00
 -1      2265 1.25539E+00
 -1      2266 1.31626E+00
 -1      2267 1.42775E+00
 -1      2268 1.49806E+00
 -1      2269 1.48722E+00
 -1      2270 1.77849E+00
 -1      2271 1.75257E+00
 -1      2272 1.86618E+00
 -1      2273 2.12490E+00
 -1      2274 1.89973E+00
 -1      2275 2.37335E+00
 -1      2276 2.54796E+00
 -1      2277 2.23588E+00
 -1      2278 3.44364E+00
 -1      2279 3.40089E+00
 -1      2280 3.38001E+00
 -1      2281 3.06905E+00
 -1      2282 3.10579E+00
 -1      2283 3.94384E+00
 -1      2284 2.42080E+00
 -1      2285 2.14320E+00
 -1      2286 2.92701E+00
 -1      2287 2.01350E+00
 -1      2288 1.74718E+00
 -1      2289 2.11232E+00
 -1      2290 1.64293E+00
 -1      2291 1.35600E+00
 -1      2292 1.87837E+00
 -1      2293 1.28065E+00
 -1      2294 1.26327E+00
 -1      2295 1.69877E+00
 -1      2296 1.12710E+00
 -1      2297 1.16251E+00
 -1      2298 1.48726E+00
 -1      2299 1.13481E+00
 -1      2300 1.19863E+00
 -1      2301 1.32339E+00
 -1      2302 1.13049E+00
 -1      2303 1.11161E+00
 -1      2304 1.22755E+00
 -1      2305 1.03387E+00
 -1      2306 9.77310E-01
 -1      2307 1.08168E+00
 -1      2308 9.31188E-01
 -1      2309 8.82504E-01
 -1      2310 9.57817E-01
 -1      2311 8.26448E-01
 -1      2312 7.72040E-01
 -1      2313 8.55639E-01
 -1      2314 7.08835E-01
 -1      2315 6.46055E-01
 -1      2316 7.36378E-01
 -1      2317 5.83665E-01
 -1      2318 5.21704E-01
 -1      2319 6.10783E-01
 -1      2320 4.64732E-01
 -1      2321 4.08749E-01
 -1      2322 4.91421E-01
 -1      2323 3.59375E-01
 -1      2324 3.11661E-01
 -1      2325 3.85075E-01
 -1      2326 2.70486E-01
 -1      2327 2.31517E-01
 -1      2328 2.94527E-01
 -1      2329 1.98205E-01
 -1      2330 1.67437E-01
 -1      2331 2.20041E-01
 -1      2332 1.41169E-01
 -1      2333 1.18936E-01
 -1      2334 1.60462E-01
 -1      2335 9.86946E-02
 -1      2336 8.43223E-02
 -1      2337 1.13953E-01
 -1      2338 6.90649E-02
 -1      2339 5.87291E-02
 -1      2340 7.84542E-02
 -1      2341 4.74839E-02
 -1      2342 4.13693E-02
 -1      2343 5.19515E-02
 -1      2344 3.47320E-02
 -1      2345 3.11274E-02
 -1      2346 3.40690E-02
 -1      2347 2.75338E-02
 -1      2348 2.42279E-02
 -1      2349 2.38381E-02
 -1      2350 2.29837E-02
 -1      2351 2.00633E-02
 -1      2352 1.90003E-02
 -1      2353 1.87184E-02
 -1      2354 1.62095E-02
 -1      2355 1.64113E-02
 -1      2356 1.48817E-02
 -1      2357 1.29468E-02
 -1      2358 1.37386E-02
 -1      2359 1.17055E-02
 -1      2360 1.06707E-02
 -1      2361 1.11694E-02
 -1      2362 9.68084E-03
 -1      2363 8.66364E-03
 -1      2364 8.93831E-03
 -1      2365 8.06045E-03
 -1      2366 7.08906E-03
 -1      2367 7.34530E-03
 -1      2368 6.44941E-03
 -1      2369 5.61838E-03
 -1      2370 6.10246E-03
 -1      2371 4.99405E-03
 -1      2372 4.28463E-03
 -1      2373 4.83848E-03
 -1      2374 3.78350E-03
 -1      2375 3.20797E-03
 -1      2376 3.71303E-03
 -1      2377 2.75322E-03
 -1      2378 2.32453E-03
 -1      2379 2.75715E-03
 -1      2380 6.87750E-01
 -1      2381 6.98001E-01
 -1      2382 6.56681E-01
 -1      2383 6.83251E-01
 -1      2384 8.04252E-01
 -1      2385 7.28152E-01
 -1      2386 7.24480E-01
 -1      2387 8.67551E-01
 -1      2388 9.83314E-01
 -1      2389 8.06045E-01
 -1      2390 1.01324E+00
 -1      2391 1.43471E+00
 -1      2392 1.12888E+00
 -1      2393 1.23670E+00
 -1      2394 1.79581E+00
 -1      2395 1.58289E+00
 -1      2396 1.53046E+00
 -1      2397 1.96135E+00
 -1      2398 1.95318E+00
 -1      2399 1.83601E+00
 -1      2400 2.09808E+00
 -1      2401 2.11049E+00
 -1      2402 2.14251E+00
 -1      2403 2.20285E+00
 -1      2404 2.08880E+00
 -1      2405 2.28237E+00
 -1      2406 2.17442E+00
 -1      2407 2.13414E+00
 -1      2408 2.20438E+00
 -1      2409 1.68126E+00
 -1      2410 1.93200E+00
 -1      2411 1.89325E+00
 -1      2412 1.20047E+00
 -1      2413 1.53220E+00
 -1      2414 1.50178E+00
 -1      2415 8.85118E-01
 -1      2416 1.07345E+00
 -1      2417 1.22571E+00
 -1      2418 8.48690E-01
 -1      2419 8.26168E-01
 -1      2420 1.03974E+00
 -1      2421 8.96788E-01
 -1      2422 8.26179E-01
 -1      2423 9.58283E-01
 -1      2424 9.21195E-01
 -1      2425 9.02763E-01
 -1      2426 9.41746E-01
 -1      2427 8.90181E-01
 -1      2428 8.90477E-01
 -1      2429 9.17003E-01
 -1      2430 8.14630E-01
 -1      2431 8.54509E-01
 -1      2432 8.50613E-01
 -1      2433 7.33438E-01
 -1      2434 7.75943E-01
 -1      2435 7.76254E-01
 -1      2436 6.34849E-01
 -1      2437 6.87360E-01
 -1      2438 6.91489E-01
 -1      2439 5.25533E-01
 -1      2440 5.82294E-01
 -1      2441 5.92856E-01
 -1      2442 4.19338E-01
 -1      2443 4.73507E-01
 -1      2444 4.88274E-01
 -1      2445 3.24006E-01
 -1      2446 3.71922E-01
 -1      2447 3.88832E-01
 -1      2448 2.42938E-01
 -1      2449 2.83136E-01
 -1      2450 3.00545E-01
 -1      2451 1.80553E-01
 -1      2452 2.09138E-01
 -1      2453 2.25875E-01
 -1      2454 1.32659E-01
 -1      2455 1.53513E-01
 -1      2456 1.65035E-01
 -1      2457 9.47453E-02
 -1      2458 1.11635E-01
 -1      2459 1.16971E-01
 -1      2460 6.55044E-02
 -1      2461 7.88235E-02
 -1      2462 8.00252E-02
 -1      2463 4.52649E-02
 -1      2464 5.55202E-02
 -1      2465 5.41192E-02
 -1      2466 3.10353E-02
 -1      2467 3.87541E-02
 -1      2468 3.76242E-02
 -1      2469 2.56779E-02
 -1      2470 2.83176E-02
 -1      2471 2.83956E-02
 -1      2472 2.16969E-02
 -1      2473 2.36874E-02
 -1      2474 2.36874E-02
 -1      2475 1.78531E-02
 -1      2476 1.97750E-02
 -1      2477 1.97750E-02
 -1      2478 1.43219E-02
 -1      2479 1.60875E-02
 -1      2480 1.60875E-02
 -1      2481 1.11869E-02
 -1      2482 1.27544E-02
 -1      2483 1.27544E-02
 -1      2484 9.33954E-03
 -1      2485 1.02632E-02
 -1      2486 1.02632E-02
 -1      2487 7.81390E-03
 -1      2488 8.57672E-03
 -1      2489 8.57672E-03
 -1      2490 6.33928E-03
 -1      2491 7.04308E-03
 -1      2492 7.04308E-03
 -1      2493 5.05975E-03
 -1      2494 5.63482E-03
 -1      2495 5.56781E-03
 -1      2496 3.91414E-03
 -1      2497 4.46554E-03
 -1      2498 4.26916E-03
 -1      2499 2.98710E-03
 -1      2500 3.52184E-03
 -1      2501 3.28265E-03
 -1      2502 2.22635E-03
 -1      2503 2.62637E-03
 -1      2504 2.52962E-03
 -1      2505 1.88976E-03
 -1      2506 1.35146E-03
 -1      2507 1.26030E-03
 -1      2508 1.43322E-03
 -1      2509 1.39527E-03
 -1      2510 1.53392E-03
 -1      2511 1.23217E-03
 -1      2512 1.58173E-03
 -1      2513 1.33415E-03
 -1      2514 1.21719E-03
 -1      2515 1.65277E-03
 -1      2516 1.56395E-03
 -1      2517 1.43322E-03
 -1      2518 1.43322E-03
 -1      2519 1.57773E-03
 -1      2520 1.42206E-03
 -1      2521 1.42293E-03
 -1      2522 1.56745E-03
 -1      2523 1.43470E-03
 -1      2524 1.43470E-03
 -1      2525 1.56980E-03
 -1      2526 1.39789E-03
 -1      2527 1.43470E-03
 -1      2528 1.58243E-03
 -1      2529 1.26478E-03
 -1      2530 1.35390E-03
 -1      2531 1.53844E-03
 -1      2532 1.22018E-03
 -1      2533 1.33504E-03
 -1      2534 1.56470E-03
 -1      2535 1.34616E-03
 -1      2536 1.05441E-03
 -1      2537 1.46920E-03
 -1      2538 3.23634E+01
 -1      2539 3.23634E+01
 -1      2540 1.43321E+01
 -1      2541 1.93173E+01
 -1      2542 9.97100E+00
 -1      2543 6.84326E-01
 -1      2544 6.70811E-01
 -1      2545 7.95076E-01
 -1      2546 1.57552E-03
 -1      2547 3.19934E+01
 -1      2548 3.16234E+01
 -1      2549 3.19934E+01
 -1      2550 2.33318E+01
 -1      2551 2.63403E+01
 -1      2552 6.76375E+00
 -1      2553 5.96586E+00
 -1      2554 5.04033E+00
 -1      2555 2.63607E+01
 -1      2556 2.57232E+01
 -1      2557 1.15764E+01
 -1      2558 1.64632E+01
 -1      2559 2.51541E+01
 -1      2560 3.06143E+01
 -1      2561 7.77047E+00
 -1      2562 8.37911E+00
 -1      2563 5.31321E-01
 -1      2564 6.61115E-01
 -1      2565 7.44416E-01
 -1      2566 5.03924E-01
 -1      2567 9.07677E+00
 -1      2568 8.98982E+00
 -1      2569 1.74095E+01
 -1      2570 1.24223E+01
 -1      2571 5.81484E+00
 -1      2572 6.64417E+00
 -1      2573 1.08426E+01
 -1      2574 7.84645E+00
 -1      2575 2.26229E+01
 -1      2576 2.04308E+01
 -1      2577 3.20461E+01
 -1      2578 2.80177E+01
 -1      2579 3.60746E+01
 -1      2580 3.60746E+01
 -1      2581 3.20461E+01
 -1      2582 1.85942E+01
 -1      2583 2.00914E+01
 -1      2584 6.50500E+00
 -1      2585 7.53456E+00
 -1      2586 5.92830E+00
 -1      2587 5.56469E+00
 -1      2588 8.81219E+00
 -1      2589 7.17824E+00
 -1      2590 9.68553E+00
 -1      2591 9.63271E+00
 -1      2592 8.85357E+00
 -1      2593 9.78545E+00
 -1      2594 6.85346E+00
 -1      2595 5.75100E+00
 -1      2596 1.34134E+01
 -1      2597 9.63938E+00
 -1      2598 2.19870E+01
 -1      2599 1.54096E+01
 -1      2600 2.16682E+00
 -1      2601 1.43406E+00
 -1      2602 1.50528E+00
 -1      2603 1.68322E+00
 -1      2604 1.34292E+00
 -1      2605 1.55118E+00
 -1      2606 1.51699E+00
 -1      2607 1.35029E+00
 -1      2608 7.59260E+00
 -1      2609 8.97171E+00
 -1      2610 8.33026E+00
 -1      2611 1.39825E+00
 -1      2612 1.45062E+00
 -1      2613 1.78759E+00
 -1      2614 7.70153E-01
 -1      2615 1.47807E+00
 -1      2616 1.16294E+01
 -1      2617 7.05537E+00
 -1      2618 4.26330E+00
 -1      2619 7.04922E+00
 -1      2620 6.88842E+00
 -1      2621 6.53828E+00
 -1      2622 1.40307E+00
 -1      2623 8.10751E+00
 -1      2624 2.63607E+01
 -1      2625 7.18707E+00
 -1      2626 1.83230E-03
 -1      2627 1.83230E-03
 -1      2628 5.11661E+00
 -1      2629 1.88715E+01
 -1      2630 2.48947E+01
 -1      2631 2.48947E+01
 -1      2632 1.63026E+01
 -1      2633 4.81540E+00
 -1      2634 3.06143E+01
 -1      2635 7.35876E+00
 -1      2636 5.25306E+00
 -1      2637 7.46705E+00
 -1      2638 2.00914E+01
 -1      2639 1.78759E+00
 -1      2640 1.28978E+01
 -1      2641 2.26229E+01
 -1      2642 9.60572E+00
 -1      2643 5.99440E+00
 -1      2644 7.09689E+00
 -1      2645 5.54180E+00
 -1      2646 4.41551E+00
 -1      2647 8.89894E+00
 -1      2648 6.91304E+00
 -1      2649 1.73618E+01
 -1      2650 1.42067E+01
 -1      2651 5.44884E+00
 -1      2652 1.61633E-03
 -1      2653 1.42971E-03
 -1      2654 1.38697E-03
 -1      2655 1.90858E-03
 -1      2656 1.91832E-03
 -1      2657 1.88646E-03
 -1      2658 8.98091E-01
 -1      2659 7.84645E-01
 -1      2660 6.62373E-01
 -1      2661 5.29353E-01
 -1      2662 7.88916E-01
 -1      2663 1.04156E+00
 -1      2664 1.00493E+00
 -1      2665 1.21755E+00
 -1      2666 1.04156E+00
 -1      2667 1.03203E+00
 -1      2668 9.77109E-01
 -1      2669 1.24642E+00
 -1      2670 6.70513E+00
 -1      2671 6.60521E+00
 -1      2672 1.35029E+00
 -1      2673 1.00811E+00
 -1      2674 1.04068E+00
 -1      2675 1.13107E+00
 -1      2676 1.18528E+00
 -1      2677 1.16964E+00
 -1      2678 1.31998E+00
 -1      2679 1.36860E+00
 -1      2680 1.39473E+00
 -1      2681 1.53353E+00
 -1      2682 1.58117E+00
 -1      2683 1.69438E+00
 -1      2684 1.73515E+00
 -1      2685 1.93018E+00
 -1      2686 2.01329E+00
 -1      2687 2.33713E+00
 -1      2688 2.39661E+00
 -1      2689 2.57422E+00
 -1      2690 1.89973E+00
 -1      2691 1.98743E+00
 -1      2692 2.48430E+00
 -1      2693 2.23588E+00
 -1      2694 2.48432E+00
 -1      2695 2.23588E+00
 -1      2696 4.00615E+00
 -1      2697 4.90183E+00
 -1      2698 4.00615E+00
 -1      2699 4.73926E+00
 -1      2700 4.40742E+00
 -1      2701 2.53547E+00
 -1      2702 2.40577E+00
 -1      2703 2.50653E+00
 -1      2704 2.40228E+00
 -1      2705 2.92969E+00
 -1      2706 2.14844E+00
 -1      2707 2.07309E+00
 -1      2708 2.77660E+00
 -1      2709 1.90455E+00
 -1      2710 1.76838E+00
 -1      2711 2.35422E+00
 -1      2712 1.59102E+00
 -1      2713 1.56331E+00
 -1      2714 2.00831E+00
 -1      2715 1.38494E+00
 -1      2716 1.31680E+00
 -1      2717 1.65257E+00
 -1      2718 1.18494E+00
 -1      2719 1.10720E+00
 -1      2720 1.34233E+00
 -1      2721 1.02474E+00
 -1      2722 9.78619E-01
 -1      2723 1.12800E+00
 -1      2724 8.93821E-01
 -1      2725 8.37766E-01
 -1      2726 9.60746E-01
 -1      2727 7.58703E-01
 -1      2728 6.95498E-01
 -1      2729 7.96885E-01
 -1      2730 6.25400E-01
 -1      2731 5.63010E-01
 -1      2732 6.47725E-01
 -1      2733 5.02764E-01
 -1      2734 4.45791E-01
 -1      2735 5.17381E-01
 -1      2736 3.95199E-01
 -1      2737 3.45825E-01
 -1      2738 4.06542E-01
 -1      2739 3.04163E-01
 -1      2740 2.62988E-01
 -1      2741 3.14287E-01
 -1      2742 2.29289E-01
 -1      2743 1.95978E-01
 -1      2744 2.38926E-01
 -1      2745 1.69180E-01
 -1      2746 1.42912E-01
 -1      2747 1.78428E-01
 -1      2748 1.21957E-01
 -1      2749 1.01716E-01
 -1      2750 1.30675E-01
 -1      2751 8.56045E-02
 -1      2752 7.03471E-02
 -1      2753 9.36086E-02
 -1      2754 5.81769E-02
 -1      2755 4.69317E-02
 -1      2756 6.53273E-02
 -1      2757 3.79111E-02
 -1      2758 3.12738E-02
 -1      2759 4.41365E-02
 -1      2760 2.47274E-02
 -1      2761 2.11339E-02
 -1      2762 2.85696E-02
 -1      2763 1.67003E-02
 -1      2764 1.54562E-02
 -1      2765 1.75897E-02
 -1      2766 1.39957E-02
 -1      2767 1.26508E-02
 -1      2768 1.16957E-02
 -1      2769 1.23566E-02
 -1      2770 1.10288E-02
 -1      2771 9.94105E-03
 -1      2772 1.05078E-02
 -1      2773 9.26653E-03
 -1      2774 9.12587E-03
 -1      2775 8.63502E-03
 -1      2776 7.64520E-03
 -1      2777 7.97343E-03
 -1      2778 6.98049E-03
 -1      2779 6.37729E-03
 -1      2780 6.67719E-03
 -1      2781 5.83817E-03
 -1      2782 5.19852E-03
 -1      2783 5.47335E-03
 -1      2784 4.75026E-03
 -1      2785 4.12594E-03
 -1      2786 4.48597E-03
 -1      2787 3.66765E-03
 -1      2788 3.16651E-03
 -1      2789 3.57943E-03
 -1      2790 2.80780E-03
 -1      2791 2.35305E-03
 -1      2792 2.76242E-03
 -1      2793 1.09632E+00
 -1      2794 1.02852E+00
 -1      2795 2.23601E-03
 -1      2796 2.48658E-03
 -1      2797 2.84731E-03
 -1      2798 9.71707E-01
 -1      2799 9.76206E-01
 -1      2800 1.20047E+00
 -1      2801 1.61152E+00
 -1      2802 1.46595E+00
 -1      2803 2.00656E+00
 -1      2804 1.85838E+00
 -1      2805 2.08762E+00
 -1      2806 2.17743E+00
 -1      2807 2.02006E+00
 -1      2808 2.34798E+00
 -1      2809 2.97902E+00
 -1      2810 2.82989E+00
 -1      2811 3.01394E+00
 -1      2812 2.28237E+00
 -1      2813 2.29165E+00
 -1      2814 2.97902E+00
 -1      2815 2.96318E+00
 -1      2816 3.03190E+00
 -1      2817 3.04117E+00
 -1      2818 1.89325E+00
 -1      2819 2.13567E+00
 -1      2820 2.96318E+00
 -1      2821 1.45034E+00
 -1      2822 1.59939E+00
 -1      2823 1.84181E+00
 -1      2824 1.49731E+00
 -1      2825 1.62432E+00
 -1      2826 1.72193E+00
 -1      2827 1.30682E+00
 -1      2828 1.36577E+00
 -1      2829 1.76438E+00
 -1      2830 1.14547E+00
 -1      2831 1.16798E+00
 -1      2832 1.49400E+00
 -1      2833 1.08970E+00
 -1      2834 1.08372E+00
 -1      2835 1.29342E+00
 -1      2836 9.74965E-01
 -1      2837 1.00568E+00
 -1      2838 1.14766E+00
 -1      2839 8.57748E-01
 -1      2840 8.93420E-01
 -1      2841 9.82099E-01
 -1      2842 7.71755E-01
 -1      2843 8.10442E-01
 -1      2844 8.53248E-01
 -1      2845 6.70778E-01
 -1      2846 7.16855E-01
 -1      2847 7.51043E-01
 -1      2848 5.60972E-01
 -1      2849 6.13527E-01
 -1      2850 6.38893E-01
 -1      2851 4.54489E-01
 -1      2852 5.06515E-01
 -1      2853 5.27186E-01
 -1      2854 3.58205E-01
 -1      2855 4.05622E-01
 -1      2856 4.23862E-01
 -1      2857 2.75273E-01
 -1      2858 3.16143E-01
 -1      2859 3.32933E-01
 -1      2860 2.06420E-01
 -1      2861 2.40219E-01
 -1      2862 2.55817E-01
 -1      2863 1.50938E-01
 -1      2864 1.77978E-01
 -1      2865 1.92322E-01
 -1      2866 1.07372E-01
 -1      2867 1.28396E-01
 -1      2868 1.41339E-01
 -1      2869 7.39679E-02
 -1      2870 8.98897E-02
 -1      2871 1.01315E-01
 -1      2872 5.07083E-02
 -1      2873 6.06924E-02
 -1      2874 7.05570E-02
 -1      2875 3.43326E-02
 -1      2876 4.08434E-02
 -1      2877 4.74167E-02
 -1      2878 2.44539E-02
 -1      2879 2.71716E-02
 -1      2880 3.03908E-02
 -1      2881 1.85694E-02
 -1      2882 2.05599E-02
 -1      2883 1.93358E-02
 -1      2884 1.55177E-02
 -1      2885 1.74396E-02
 -1      2886 1.43121E-02
 -1      2887 1.30506E-02
 -1      2888 1.48162E-02
 -1      2889 1.24808E-02
 -1      2890 1.06479E-02
 -1      2891 1.22154E-02
 -1      2892 1.09441E-02
 -1      2893 8.85365E-03
 -1      2894 9.77734E-03
 -1      2895 9.23837E-03
 -1      2896 7.24659E-03
 -1      2897 8.00941E-03
 -1      2898 7.52352E-03
 -1      2899 5.90629E-03
 -1      2900 6.67711E-03
 -1      2901 6.10980E-03
 -1      2902 4.69391E-03
 -1      2903 5.39836E-03
 -1      2904 5.03238E-03
 -1      2905 4.08319E-03
 -1      2906 4.67740E-03
 -1      2907 4.50794E-03
 -1      2908 3.33689E-03
 -1      2909 3.72920E-03
 -1      2910 4.13743E-03
 -1      2911 3.29386E-03
 -1      2912 1.68511E-03
 -1      2913 1.69539E-03
 -1      2914 2.33803E-03
 -1      2915 1.92209E-03
 -1      2916 2.38868E-03
 -1      2917 1.72522E-03
 -1      2918 1.68141E-03
 -1      2919 1.69538E-03
 -1      2920 1.68275E-03
 -1      2921 1.81070E-03
 -1      2922 1.69539E-03
 -1      2923 1.69539E-03
 -1      2924 1.84288E-03
 -1      2925 1.81306E-03
 -1      2926 7.60367E+00
 -1      2927 9.92072E+00
 -1      2928 1.70989E-03
 -1      2929 1.70989E-03
 -1      2930 1.82284E-03
 -1      2931 1.66589E-03
 -1      2932 1.70989E-03
 -1      2933 1.83734E-03
 -1      2934 2.01934E-03
 -1      2935 1.94908E-03
 -1      2936 2.12053E-03
 -1      2937 1.14224E+01
 -1      2938 1.54369E+01
 -1      2939 9.05507E+00
 -1      2940 8.45185E-01
 -1      2941 8.31510E-01
 -1      2942 1.01264E+00
 -1      2943 2.26445E+01
 -1      2944 2.22745E+01
 -1      2945 3.44516E+00
 -1      2946 4.19917E+00
 -1      2947 3.72759E+00
 -1      2948 4.10986E+00
 -1      2949 6.76778E+00
 -1      2950 5.94726E+00
 -1      2951 1.78759E+00
 -1      2952 1.39839E+00
 -1      2953 1.32049E+00
 -1      2954 1.48146E+00
 -1      2955 1.77320E+00
 -1      2956 1.25773E+00
 -1      2957 1.11473E+00
 -1      2958 1.18587E+00
 -1      2959 7.81401E-01
 -1      2960 7.70153E-01
 -1      2961 9.88357E-01
 -1      2962 8.31510E-01
 -1      2963 1.06541E+01
 -1      2964 8.65790E+00
 -1      2965 9.53333E+00
 -1      2966 1.16643E+01
 -1      2967 9.98313E-01
 -1      2968 9.51898E-01
 -1      2969 9.64995E-01
 -1      2970 1.02541E+00
 -1      2971 9.50037E-01
 -1      2972 1.01797E+00
 -1      2973 6.45928E+00
 -1      2974 4.42767E+00
 -1      2975 6.74130E+00
 -1      2976 8.60922E+00
 -1      2977 1.40384E+01
 -1      2978 1.91011E+01
 -1      2979 1.06740E+01
 -1      2980 5.52754E+00
 -1      2981 6.22520E+00
 -1      2982 3.79994E+00
 -1      2983 5.38211E+00
 -1      2984 5.09240E+00
 -1      2985 9.28046E+00
 -1      2986 7.70075E+00
 -1      2987 2.61318E+01
 -1      2988 2.21034E+01
 -1      2989 2.15676E+01
 -1      2990 1.61728E+01
 -1      2991 5.32168E+00
 -1      2992 6.43735E+00
 -1      2993 1.62357E+01
 -1      2994 1.24995E+01
 -1      2995 9.52800E+00
 -1      2996 1.83855E-03
 -1      2997 4.70667E+00
 -1      2998 3.45673E+00
 -1      2999 2.43824E+01
 -1      3000 1.91197E+01
 -1      3001 2.04029E+01
 -1      3002 2.58631E+01
 -1      3003 1.59203E+01
 -1      3004 5.27791E+00
 -1      3005 6.59692E+00
 -1      3006 3.90767E+00
 -1      3007 1.39243E+01
 -1      3008 1.09030E+01
 -1      3009 1.13213E+00
 -1      3010 1.52147E+00
 -1      3011 1.14118E+00
 -1      3012 6.42469E-01
 -1      3013 5.05178E-01
 -1      3014 6.17040E-01
 -1      3015 2.00431E-03
 -1      3016 5.36540E+00
 -1      3017 1.29919E+00
 -1      3018 6.20709E+00
 -1      3019 7.23453E+00
 -1      3020 4.65052E+00
 -1      3021 6.25920E+00
 -1      3022 2.30805E-03
 -1      3023 2.11675E-03
 -1      3024 2.19059E-03
 -1      3025 3.61200E+00
 -1      3026 2.92701E+00
 -1      3027 1.81363E+01
 -1      3028 1.33850E+01
 -1      3029 1.20833E+01
 -1      3030 1.50335E+01
 -1      3031 1.42574E+01
 -1      3032 3.39000E+00
 -1      3033 6.38707E+00
 -1      3034 2.22103E-03
 -1      3035 4.00893E+00
 -1      3036 1.50480E+01
 -1      3037 1.36025E+01
 -1      3038 1.01679E+01
 -1      3039 2.38868E-03
 -1      3040 1.56533E+01
 -1      3041 1.11367E+00
 -1      3042 5.09462E+00
 -1      3043 6.96733E+00
 -1      3044 5.34835E+00
 -1      3045 6.21155E+00
 -1      3046 1.51758E+01
 -1      3047 6.13402E+00
 -1      3048 8.99807E+00
 -1      3049 4.28738E+00
 -1      3050 1.76164E+00
 -1      3051 1.76164E+00
 -1      3052 1.47933E+00
 -1      3053 1.49552E+00
 -1      3054 4.14346E+00
 -1      3055 3.21299E+00
 -1      3056 4.73846E+00
 -1      3057 3.55656E+00
 -1      3058 2.94033E+00
 -1      3059 3.75847E+00
 -1      3060 3.57801E+00
 -1      3061 4.03072E+00
 -1      3062 4.04288E+00
 -1      3063 3.22046E+00
 -1      3064 7.26958E-01
 -1      3065 8.55588E-01
 -1      3066 9.32579E-01
 -1      3067 7.28212E-01
 -1      3068 8.20823E+00
 -1      3069 6.97470E+00
 -1      3070 6.05059E+00
 -1      3071 4.85396E+00
 -1      3072 1.28691E+01
 -1      3073 1.51409E+00
 -1      3074 4.44530E+00
 -1      3075 5.81270E+00
 -1      3076 1.10984E+00
 -1      3077 1.10984E+00
 -1      3078 1.49390E+00
 -1      3079 1.62860E+00
 -1      3080 1.80577E+00
 -1      3081 1.97071E+00
 -1      3082 1.90494E+00
 -1      3083 2.40360E+00
 -1      3084 2.55758E+00
 -1      3085 2.51500E+00
 -1      3086 3.13768E+00
 -1      3087 3.54463E+00
 -1      3088 3.52799E+00
 -1      3089 2.76556E+00
 -1      3090 1.29249E+00
 -1      3091 1.18587E+00
 -1      3092 3.27432E+00
 -1      3093 3.02048E+00
 -1      3094 2.65454E+00
 -1      3095 2.48600E+00
 -1      3096 3.15226E+00
 -1      3097 2.52014E+00
 -1      3098 2.34277E+00
 -1      3099 2.82046E+00
 -1      3100 1.95333E+00
 -1      3101 1.77496E+00
 -1      3102 2.46516E+00
 -1      3103 1.56196E+00
 -1      3104 1.43010E+00
 -1      3105 1.86272E+00
 -1      3106 1.24720E+00
 -1      3107 1.16474E+00
 -1      3108 1.46683E+00
 -1      3109 1.01920E+00
 -1      3110 9.34403E-01
 -1      3111 1.13840E+00
 -1      3112 8.28230E-01
 -1      3113 7.49167E-01
 -1      3114 8.86685E-01
 -1      3115 6.72739E-01
 -1      3116 6.02641E-01
 -1      3117 7.04084E-01
 -1      3118 5.40869E-01
 -1      3119 4.80623E-01
 -1      3120 5.65883E-01
 -1      3121 4.26099E-01
 -1      3122 3.75506E-01
 -1      3123 4.49587E-01
 -1      3124 3.29389E-01
 -1      3125 2.87727E-01
 -1      3126 3.48946E-01
 -1      3127 2.49915E-01
 -1      3128 2.16215E-01
 -1      3129 2.65017E-01
 -1      3130 1.85975E-01
 -1      3131 1.59177E-01
 -1      3132 1.96964E-01
 -1      3133 1.35513E-01
 -1      3134 1.14557E-01
 -1      3135 1.43059E-01
 -1      3136 9.71147E-02
 -1      3137 8.10035E-02
 -1      3138 1.01952E-01
 -1      3139 6.80185E-02
 -1      3140 5.58483E-02
 -1      3141 7.15246E-02
 -1      3142 4.61879E-02
 -1      3143 3.71673E-02
 -1      3144 4.88791E-02
 -1      3145 3.06726E-02
 -1      3146 2.41262E-02
 -1      3147 3.27239E-02
 -1      3148 1.93970E-02
 -1      3149 1.49634E-02
 -1      3150 2.15000E-02
 -1      3151 1.15974E-02
 -1      3152 1.01370E-02
 -1      3153 1.34047E-02
 -1      3154 8.07403E-03
 -1      3155 7.77977E-03
 -1      3156 7.97572E-03
 -1      3157 7.75565E-03
 -1      3158 7.23472E-03
 -1      3159 5.88862E-03
 -1      3160 7.21754E-03
 -1      3161 6.58603E-03
 -1      3162 5.84732E-03
 -1      3163 6.35049E-03
 -1      3164 5.68577E-03
 -1      3165 5.59460E-03
 -1      3166 5.32802E-03
 -1      3167 4.78890E-03
 -1      3168 5.00131E-03
 -1      3169 4.37490E-03
 -1      3170 3.92664E-03
 -1      3171 4.22957E-03
 -1      3172 3.63802E-03
 -1      3173 3.17973E-03
 -1      3174 3.52695E-03
 -1      3175 2.95900E-03
 -1      3176 2.60028E-03
 -1      3177 3.01759E-03
 -1      3178 1.43727E+00
 -1      3179 1.38046E+00
 -1      3180 2.77735E+00
 -1      3181 2.76385E+00
 -1      3182 3.17128E+00
 -1      3183 3.85865E+00
 -1      3184 3.92080E+00
 -1      3185 2.77432E+00
 -1      3186 3.60184E+00
 -1      3187 1.89592E+00
 -1      3188 1.72193E+00
 -1      3189 2.23111E+00
 -1      3190 2.36265E+00
 -1      3191 2.36265E+00
 -1      3192 1.77835E+00
 -1      3193 1.91719E+00
 -1      3194 2.51546E+00
 -1      3195 1.48228E+00
 -1      3196 1.54402E+00
 -1      3197 1.96722E+00
 -1      3198 1.20811E+00
 -1      3199 1.29213E+00
 -1      3200 1.54274E+00
 -1      3201 1.01407E+00
 -1      3202 1.09562E+00
 -1      3203 1.24009E+00
 -1      3204 8.73402E-01
 -1      3205 9.20708E-01
 -1      3206 1.03423E+00
 -1      3207 7.33570E-01
 -1      3208 7.88469E-01
 -1      3209 8.55929E-01
 -1      3210 6.02818E-01
 -1      3211 6.60068E-01
 -1      3212 6.97495E-01
 -1      3213 4.83784E-01
 -1      3214 5.38241E-01
 -1      3215 5.59416E-01
 -1      3216 3.80293E-01
 -1      3217 4.29160E-01
 -1      3218 4.40214E-01
 -1      3219 2.94381E-01
 -1      3220 3.36443E-01
 -1      3221 3.41740E-01
 -1      3222 2.24242E-01
 -1      3223 2.59296E-01
 -1      3224 2.62806E-01
 -1      3225 1.67664E-01
 -1      3226 1.96106E-01
 -1      3227 1.99584E-01
 -1      3228 1.22844E-01
 -1      3229 1.45385E-01
 -1      3230 1.49169E-01
 -1      3231 8.79638E-02
 -1      3232 1.05446E-01
 -1      3233 1.09493E-01
 -1      3234 6.13052E-02
 -1      3235 7.45806E-02
 -1      3236 7.87121E-02
 -1      3237 4.13114E-02
 -1      3238 5.11762E-02
 -1      3239 5.51999E-02
 -1      3240 2.66210E-02
 -1      3241 3.37820E-02
 -1      3242 3.75415E-02
 -1      3243 1.72428E-02
 -1      3244 2.11367E-02
 -1      3245 2.45279E-02
 -1      3246 1.22127E-02
 -1      3247 1.33425E-02
 -1      3248 1.51434E-02
 -1      3249 9.48933E-03
 -1      3250 1.01908E-02
 -1      3251 9.22124E-03
 -1      3252 8.72312E-03
 -1      3253 9.55829E-03
 -1      3254 7.26831E-03
 -1      3255 7.64213E-03
 -1      3256 8.51274E-03
 -1      3257 7.12688E-03
 -1      3258 6.40938E-03
 -1      3259 7.25362E-03
 -1      3260 6.52799E-03
 -1      3261 5.36234E-03
 -1      3262 5.93182E-03
 -1      3263 5.66192E-03
 -1      3264 4.39075E-03
 -1      3265 4.89869E-03
 -1      3266 4.72070E-03
 -1      3267 4.49143E-03
 -1      3268 4.50794E-03
 -1      3269 4.37424E-03
 -1      3270 9.53540E-01
 -1      3271 8.31269E-01
 -1      3272 1.83313E-03
 -1      3273 1.83549E-03
 -1      3274 2.51947E-03
 -1      3275 2.23629E-03
 -1      3276 1.94918E-03
 -1      3277 1.93468E-03
 -1      3278 1.95947E-03
 -1      3279 6.66944E+00
 -1      3280 8.17112E+00
 -1      3281 1.19043E+00
 -1      3282 1.05941E+00
 -1      3283 1.42723E+00
 -1      3284 5.07420E+00
 -1      3285 6.24052E+00
 -1      3286 8.66519E+00
 -1      3287 1.10393E+01
 -1      3288 2.11330E-03
 -1      3289 2.11330E-03
 -1      3290 2.22514E-03
 -1      3291 2.51225E-03
 -1      3292 1.34362E+01
 -1      3293 1.29004E+01
 -1      3294 2.86739E+00
 -1      3295 4.07920E+00
 -1      3296 2.94033E+00
 -1      3297 3.04109E+00
 -1      3298 1.24187E+00
 -1      3299 1.33226E+00
 -1      3300 1.56613E+00
 -1      3301 8.53928E+00
 -1      3302 6.91671E+00
 -1      3303 4.09810E+00
 -1      3304 4.08384E+00
 -1      3305 1.10513E+01
 -1      3306 1.31592E+01
 -1      3307 1.20781E+01
 -1      3308 9.82967E+00
 -1      3309 7.74832E+00
 -1      3310 4.12479E+00
 -1      3311 5.48397E+00
 -1      3312 1.03426E+00
 -1      3313 9.52618E-01
 -1      3314 1.03043E+00
 -1      3315 8.27305E-01
 -1      3316 2.77383E-03
 -1      3317 9.29071E+00
 -1      3318 7.44527E+00
 -1      3319 1.35736E+01
 -1      3320 1.06896E+01
 -1      3321 8.60682E+00
 -1      3322 6.27840E+00
 -1      3323 5.03692E+00
 -1      3324 2.76367E+00
 -1      3325 3.10689E+00
 -1      3326 3.49846E+00
 -1      3327 2.48244E+00
 -1      3328 1.29107E+01
 -1      3329 1.31795E+01
 -1      3330 1.04266E+01
 -1      3331 1.32942E+01
 -1      3332 1.10439E+01
 -1      3333 1.51409E+00
 -1      3334 1.29249E+00
 -1      3335 1.27391E+00
 -1      3336 8.17164E-01
 -1      3337 7.92989E-01
 -1      3338 9.81788E-01
 -1      3339 1.17455E+00
 -1      3340 1.09674E+00
 -1      3341 1.09013E+00
 -1      3342 5.81378E+00
 -1      3343 4.39041E+00
 -1      3344 5.57648E+00
 -1      3345 3.16183E-03
 -1      3346 3.19228E-03
 -1      3347 3.68186E-03
 -1      3348 5.10738E+00
 -1      3349 6.43248E+00
 -1      3350 6.79786E+00
 -1      3351 1.08002E+00
 -1      3352 1.19418E+00
 -1      3353 1.21275E+00
 -1      3354 4.40742E+00
 -1      3355 4.31223E+00
 -1      3356 3.74877E+00
 -1      3357 3.28497E+00
 -1      3358 3.25190E+00
 -1      3359 2.23399E+00
 -1      3360 1.29249E+00
 -1      3361 1.00745E+01
 -1      3362 9.94360E+00
 -1      3363 1.22102E+01
 -1      3364 9.46926E+00
 -1      3365 5.35658E+00
 -1      3366 1.65231E+00
 -1      3367 1.83230E+00
 -1      3368 1.87649E+00
 -1      3369 4.44976E+00
 -1      3370 3.08213E+00
 -1      3371 2.65276E+00
 -1      3372 2.40590E+00
 -1      3373 3.93180E+00
 -1      3374 4.25305E+00
 -1      3375 2.41679E+00
 -1      3376 2.24280E+00
 -1      3377 2.53666E+00
 -1      3378 1.03632E+00
 -1      3379 1.07867E+00
 -1      3380 1.09013E+00
 -1      3381 4.13743E-03
 -1      3382 4.49143E-03
 -1      3383 4.03586E-03
 -1      3384 1.93692E-03
 -1      3385 1.96674E-03
 -1      3386 2.40371E-03
 -1      3387 9.86101E+00
 -1      3388 1.10513E+01
 -1      3389 9.17704E+00
 -1      3390 9.16967E+00
 -1      3391 1.95935E-03
 -1      3392 1.93692E-03
 -1      3393 1.93692E-03
 -1      3394 3.26060E+00
 -1      3395 1.34849E+00
 -1      3396 2.82893E+00
 -1      3397 8.21221E+00
 -1      3398 7.82334E+00
 -1      3399 5.82659E+00
 -1      3400 3.93266E+00
 -1      3401 3.12198E+00
 -1      3402 2.55684E+00
 -1      3403 2.60028E-03
 -1      3404 2.71605E-03
 -1      3405 9.47065E+00
 -1      3406 4.29920E+00
 -1      3407 4.13080E+00
 -1      3408 4.31966E+00
 -1      3409 3.99171E+00
 -1      3410 1.02957E+00
 -1      3411 1.08256E+00
 -1      3412 9.35120E-01
 -1      3413 4.07617E+00
 -1      3414 3.17532E+00
 -1      3415 3.49719E+00
 -1      3416 2.48927E+00
 -1      3417 2.84474E+00
 -1      3418 1.10514E+00
 -1      3419 1.05503E+00
 -1      3420 1.10094E+00
 -1      3421 1.28294E+00
 -1      3422 2.35495E-03
 -1      3423 2.79029E-03
 -1      3424 3.20873E-03
 -1      3425 2.44898E-03
 -1      3426 5.08298E+00
 -1      3427 3.90767E+00
 -1      3428 9.59135E+00
 -1      3429 5.81961E+00
 -1      3430 4.63052E+00
 -1      3431 8.43370E+00
 -1      3432 8.69045E+00
 -1      3433 4.87884E+00
 -1      3434 2.70549E+00
 -1      3435 3.13838E+00
 -1      3436 3.75652E+00
 -1      3437 4.33663E+00
 -1      3438 2.88245E+00
 -1      3439 2.49301E+00
 -1      3440 2.22927E+00
 -1      3441 2.01628E+00
 -1      3442 2.64656E+00
 -1      3443 1.63732E+00
 -1      3444 1.45442E+00
 -1      3445 2.00386E+00
 -1      3446 1.25380E+00
 -1      3447 1.10826E+00
 -1      3448 1.42428E+00
 -1      3449 9.83278E-01
 -1      3450 8.77106E-01
 -1      3451 1.09868E+00
 -1      3452 7.80512E-01
 -1      3453 7.04084E-01
 -1      3454 8.77106E-01
 -1      3455 6.22469E-01
 -1      3456 5.60697E-01
 -1      3457 6.98897E-01
 -1      3458 4.93223E-01
 -1      3459 4.38699E-01
 -1      3460 5.49809E-01
 -1      3461 3.83602E-01
 -1      3462 3.37484E-01
 -1      3463 4.27238E-01
 -1      3464 2.93027E-01
 -1      3465 2.55215E-01
 -1      3466 3.27683E-01
 -1      3467 2.19755E-01
 -1      3468 1.89515E-01
 -1      3469 2.47765E-01
 -1      3470 1.61573E-01
 -1      3471 1.37908E-01
 -1      3472 1.84363E-01
 -1      3473 1.16182E-01
 -1      3474 9.87397E-02
 -1      3475 1.34696E-01
 -1      3476 8.20924E-02
 -1      3477 6.91073E-02
 -1      3478 9.63225E-02
 -1      3479 5.68105E-02
 -1      3480 4.71501E-02
 -1      3481 6.73783E-02
 -1      3482 3.83540E-02
 -1      3483 3.18592E-02
 -1      3484 4.62854E-02
 -1      3485 2.53717E-02
 -1      3486 2.06425E-02
 -1      3487 3.10017E-02
 -1      3488 1.59580E-02
 -1      3489 1.25920E-02
 -1      3490 1.98297E-02
 -1      3491 9.33510E-03
 -1      3492 7.27213E-03
 -1      3493 1.18884E-02
 -1      3494 5.07570E-03
 -1      3495 5.05158E-03
 -1      3496 6.43508E-03
 -1      3497 4.64949E-03
 -1      3498 4.63231E-03
 -1      3499 3.83656E-03
 -1      3500 4.88255E-03
 -1      3501 4.64701E-03
 -1      3502 3.68471E-03
 -1      3503 4.63790E-03
 -1      3504 4.28015E-03
 -1      3505 3.92585E-03
 -1      3506 4.10950E-03
 -1      3507 3.69551E-03
 -1      3508 3.74609E-03
 -1      3509 3.43698E-03
 -1      3510 3.14836E-03
 -1      3511 3.31692E-03
 -1      3512 3.01759E-03
 -1      3513 2.79686E-03
 -1      3514 2.71605E-03
 -1      3515 2.92763E-03
 -1      3516 3.41179E+00
 -1      3517 3.87852E+00
 -1      3518 1.58821E+00
 -1      3519 1.77836E+00
 -1      3520 1.33419E+00
 -1      3521 1.44668E+00
 -1      3522 1.68231E+00
 -1      3523 1.04608E+00
 -1      3524 1.13944E+00
 -1      3525 1.34604E+00
 -1      3526 8.29102E-01
 -1      3527 9.14035E-01
 -1      3528 1.01925E+00
 -1      3529 6.64620E-01
 -1      3530 7.38122E-01
 -1      3531 7.96228E-01
 -1      3532 5.36422E-01
 -1      3533 6.01000E-01
 -1      3534 6.41627E-01
 -1      3535 4.25311E-01
 -1      3536 4.79935E-01
 -1      3537 5.21519E-01
 -1      3538 3.31981E-01
 -1      3539 3.75830E-01
 -1      3540 4.15551E-01
 -1      3541 2.55069E-01
 -1      3542 2.90153E-01
 -1      3543 3.24243E-01
 -1      3544 1.92509E-01
 -1      3545 2.20646E-01
 -1      3546 2.47993E-01
 -1      3547 1.42528E-01
 -1      3548 1.64806E-01
 -1      3549 1.85868E-01
 -1      3550 1.03284E-01
 -1      3551 1.20681E-01
 -1      3552 1.36319E-01
 -1      3553 7.30051E-02
 -1      3554 8.63883E-02
 -1      3555 9.75767E-02
 -1      3556 5.06623E-02
 -1      3557 6.07913E-02
 -1      3558 6.84676E-02
 -1      3559 3.40398E-02
 -1      3560 4.15692E-02
 -1      3561 4.71607E-02
 -1      3562 2.18469E-02
 -1      3563 2.73311E-02
 -1      3564 3.13588E-02
 -1      3565 1.31519E-02
 -1      3566 1.70522E-02
 -1      3567 1.98554E-02
 -1      3568 7.80006E-03
 -1      3569 9.82195E-03
 -1      3570 1.17308E-02
 -1      3571 5.83811E-03
 -1      3572 5.76915E-03
 -1      3573 6.36986E-03
 -1      3574 5.64352E-03
 -1      3575 5.85390E-03
 -1      3576 4.35475E-03
 -1      3577 5.40622E-03
 -1      3578 5.79474E-03
 -1      3579 4.52175E-03
 -1      3580 4.83467E-03
 -1      3581 5.31223E-03
 -1      3582 4.57897E-03
 -1      3583 4.13104E-03
 -1      3584 4.59469E-03
 -1      3585 4.24500E-03
 -1      3586 3.91590E-03
 -1      3587 3.79871E-03
 -1      3588 3.67270E-03
 -1      3589 4.49143E-03
 -1      3590 2.06078E-03
 -1      3591 1.96738E-03
 -1      3592 1.86583E-03
 -1      3593 8.75555E+00
 -1      3594 7.93325E+00
 -1      3595 6.76269E+00
 -1      3596 1.24182E+00
 -1      3597 1.32156E+00
 -1      3598 1.32156E+00
 -1      3599 1.97729E+00
 -1      3600 1.78726E+00
 -1      3601 4.22710E+00
 -1      3602 8.34589E+00
 -1      3603 8.03755E+00
 -1      3604 3.00665E+00
 -1      3605 4.05579E+00
 -1      3606 4.48471E+00
 -1      3607 2.69273E+00
 -1      3608 1.96722E+00
 -1      3609 2.20154E+00
 -1      3610 2.69273E+00
 -1      3611 2.01269E+00
 -1      3612 4.17702E+00
 -1      3613 3.28326E+00
 -1      3614 1.60786E+00
 -1      3615 1.76950E+00
 -1      3616 7.91571E-01
 -1      3617 9.01489E-01
 -1      3618 9.98479E-01
 -1      3619 9.66266E-01
 -1      3620 3.73160E+00
 -1      3621 3.36566E+00
 -1      3622 2.23528E+00
 -1      3623 2.41245E+00
 -1      3624 3.03583E+00
 -1      3625 2.66012E+00
 -1      3626 7.38075E+00
 -1      3627 6.09036E+00
 -1      3628 5.39646E+00
 -1      3629 4.75815E+00
 -1      3630 3.80395E+00
 -1      3631 5.02890E+00
 -1      3632 7.77286E+00
 -1      3633 6.37402E+00
 -1      3634 8.06145E+00
 -1      3635 8.47577E+00
 -1      3636 6.24297E+00
 -1      3637 7.85781E+00
 -1      3638 8.90176E+00
 -1      3639 1.42331E+00
 -1      3640 1.47932E+00
 -1      3641 1.68268E+00
 -1      3642 1.45238E+00
 -1      3643 3.91590E-03
 -1      3644 1.26984E+00
 -1      3645 1.25674E+00
 -1      3646 5.50279E+00
 -1      3647 3.87130E+00
 -1      3648 3.29197E+00
 -1      3649 4.66884E+00
 -1      3650 3.19117E+00
 -1      3651 3.67627E-03
 -1      3652 3.10074E-03
 -1      3653 3.32610E+00
 -1      3654 2.62309E-03
 -1      3655 2.54228E-03
 -1      3656 2.41929E-03
 -1      3657 2.46095E-03
 -1      3658 2.84915E-03
 -1      3659 3.52091E+00
 -1      3660 1.16145E+00
 -1      3661 3.22070E-03
 -1      3662 5.10365E+00
 -1      3663 7.33636E+00
 -1      3664 7.19372E+00
 -1      3665 7.20108E+00
 -1      3666 6.06895E+00
 -1      3667 1.90565E-03
 -1      3668 2.00708E-03
 -1      3669 1.91356E-03
 -1      3670 7.45089E+00
 -1      3671 7.45089E+00
 -1      3672 6.33530E+00
 -1      3673 1.46473E+00
 -1      3674 1.51046E+00
 -1      3675 2.01479E+00
 -1      3676 6.27529E+00
 -1      3677 3.04218E+00
 -1      3678 2.82714E+00
 -1      3679 3.18717E+00
 -1      3680 1.19137E+00
 -1      3681 1.24182E+00
 -1      3682 1.35063E+00
 -1      3683 7.72688E+00
 -1      3684 6.39023E+00
 -1      3685 3.40106E+00
 -1      3686 4.70184E+00
 -1      3687 4.74293E+00
 -1      3688 2.90986E+00
 -1      3689 2.23450E-03
 -1      3690 2.07039E-03
 -1      3691 1.97675E-03
 -1      3692 2.26453E-03
 -1      3693 2.27701E+00
 -1      3694 2.30961E-03
 -1      3695 2.30961E-03
 -1      3696 2.25591E-03
 -1      3697 1.34954E+00
 -1      3698 1.26676E+00
 -1      3699 7.73315E+00
 -1      3700 8.43370E+00
 -1      3701 6.69759E+00
 -1      3702 3.35396E+00
 -1      3703 6.16360E+00
 -1      3704 1.26676E+00
 -1      3705 1.25265E+00
 -1      3706 1.53763E+00
 -1      3707 2.70978E-03
 -1      3708 2.27570E+00
 -1      3709 2.74148E+00
 -1      3710 4.18600E+00
 -1      3711 2.48228E+00
 -1      3712 2.10332E+00
 -1      3713 1.62490E+00
 -1      3714 1.42428E+00
 -1      3715 2.10332E+00
 -1      3716 1.22366E+00
 -1      3717 1.09868E+00
 -1      3718 1.42428E+00
 -1      3719 9.50214E-01
 -1      3720 8.53621E-01
 -1      3721 1.07520E+00
 -1      3722 7.44039E-01
 -1      3723 6.62424E-01
 -1      3724 8.17148E-01
 -1      3725 5.80035E-01
 -1      3726 5.12562E-01
 -1      3727 6.25178E-01
 -1      3728 4.49113E-01
 -1      3729 3.94016E-01
 -1      3730 4.79340E-01
 -1      3731 3.44658E-01
 -1      3732 3.00200E-01
 -1      3733 3.66533E-01
 -1      3734 2.61561E-01
 -1      3735 2.26100E-01
 -1      3736 2.78536E-01
 -1      3737 1.95833E-01
 -1      3738 1.67891E-01
 -1      3739 2.09628E-01
 -1      3740 1.44287E-01
 -1      3741 1.22561E-01
 -1      3742 1.55757E-01
 -1      3743 1.04308E-01
 -1      3744 8.76602E-02
 -1      3745 1.13899E-01
 -1      3746 7.37032E-02
 -1      3747 6.14064E-02
 -1      3748 8.16883E-02
 -1      3749 5.08811E-02
 -1      3750 4.20850E-02
 -1      3751 5.72060E-02
 -1      3752 3.46258E-02
 -1      3753 2.81382E-02
 -1      3754 3.92215E-02
 -1      3755 2.27853E-02
 -1      3756 1.81008E-02
 -1      3757 2.64093E-02
 -1      3758 1.42107E-02
 -1      3759 1.09539E-02
 -1      3760 1.71664E-02
 -1      3761 8.19211E-03
 -1      3762 5.99569E-03
 -1      3763 1.05145E-02
 -1      3764 4.16594E-03
 -1      3765 3.76385E-03
 -1      3766 5.92298E-03
 -1      3767 2.77925E-03
 -1      3768 3.02949E-03
 -1      3769 3.10863E-03
 -1      3770 3.32723E-03
 -1      3771 3.31813E-03
 -1      3772 2.42178E-03
 -1      3773 3.41016E-03
 -1      3774 3.23951E-03
 -1      3775 2.81155E-03
 -1      3776 3.17292E-03
 -1      3777 2.91439E-03
 -1      3778 2.83699E-03
 -1      3779 2.83992E-03
 -1      3780 2.70916E-03
 -1      3781 2.53539E-03
 -1      3782 2.69593E-03
 -1      3783 9.95554E-01
 -1      3784 1.12760E+00
 -1      3785 1.31861E+00
 -1      3786 1.51335E+00
 -1      3787 1.29491E+00
 -1      3788 1.68750E+00
 -1      3789 1.82902E+00
 -1      3790 1.66007E+00
 -1      3791 7.96228E-01
 -1      3792 8.87209E-01
 -1      3793 9.95554E-01
 -1      3794 6.41627E-01
 -1      3795 7.05247E-01
 -1      3796 7.96228E-01
 -1      3797 5.10278E-01
 -1      3798 5.66766E-01
 -1      3799 6.30386E-01
 -1      3800 3.99714E-01
 -1      3801 4.49195E-01
 -1      3802 4.94442E-01
 -1      3803 3.08449E-01
 -1      3804 3.50277E-01
 -1      3805 3.83920E-01
 -1      3806 2.34293E-01
 -1      3807 2.68716E-01
 -1      3808 2.94749E-01
 -1      3809 1.74918E-01
 -1      3810 2.02620E-01
 -1      3811 2.23343E-01
 -1      3812 1.28081E-01
 -1      3813 1.49927E-01
 -1      3814 1.66680E-01
 -1      3815 9.17075E-02
 -1      3816 1.08603E-01
 -1      3817 1.22212E-01
 -1      3818 6.45226E-02
 -1      3819 7.67364E-02
 -1      3820 8.77626E-02
 -1      3821 4.41017E-02
 -1      3822 5.31948E-02
 -1      3823 6.14637E-02
 -1      3824 2.94389E-02
 -1      3825 3.61477E-02
 -1      3826 4.21818E-02
 -1      3827 1.88202E-02
 -1      3828 2.36149E-02
 -1      3829 2.84038E-02
 -1      3830 1.12635E-02
 -1      3831 1.45935E-02
 -1      3832 1.83530E-02
 -1      3833 6.23911E-03
 -1      3834 8.27002E-03
 -1      3835 1.11327E-02
 -1      3836 4.27605E-03
 -1      3837 4.26026E-03
 -1      3838 6.16042E-03
 -1      3839 3.62031E-03
 -1      3840 3.46909E-03
 -1      3841 3.37461E-03
 -1      3842 3.84036E-03
 -1      3843 3.93436E-03
 -1      3844 2.88169E-03
 -1      3845 3.65666E-03
 -1      3846 3.89664E-03
 -1      3847 3.25202E-03
 -1      3848 3.20760E-03
 -1      3849 3.53993E-03
 -1      3850 3.19157E-03
 -1      3851 1.25816E+00
 -1      3852 1.34035E+00
 -1      3853 5.53126E+00
 -1      3854 5.59636E+00
 -1      3855 6.03711E+00
 -1      3856 7.07895E+00
 -1      3857 6.04338E+00
 -1      3858 3.94702E+00
 -1      3859 5.19300E+00
 -1      3860 5.71555E+00
 -1      3861 4.06825E+00
 -1      3862 4.22518E+00
 -1      3863 2.64776E-03
 -1      3864 2.79910E-03
 -1      3865 4.87991E+00
 -1      3866 2.96797E-03
 -1      3867 4.31752E+00
 -1      3868 4.05378E+00
 -1      3869 4.15323E+00
 -1      3870 5.59636E+00
 -1      3871 5.04386E+00
 -1      3872 6.33530E+00
 -1      3873 5.63240E+00
 -1      3874 1.30063E+00
 -1      3875 1.30063E+00
 -1      3876 1.48872E+00
 -1      3877 1.39593E+00
 -1      3878 1.52215E+00
 -1      3879 2.90596E-03
 -1      3880 1.41084E+00
 -1      3881 1.12587E+00
 -1      3882 5.08551E+00
 -1      3883 5.60696E+00
 -1      3884 4.20097E+00
 -1      3885 3.63452E+00
 -1      3886 3.63583E+00
 -1      3887 5.03283E+00
 -1      3888 4.18900E+00
 -1      3889 3.83559E+00
 -1      3890 1.67726E+00
 -1      3891 1.72115E+00
 -1      3892 1.84737E+00
 -1      3893 1.45238E+00
 -1      3894 1.55413E+00
 -1      3895 1.45238E+00
 -1      3896 4.95902E+00
 -1      3897 4.69985E+00
 -1      3898 6.67580E+00
 -1      3899 4.94965E+00
 -1      3900 1.84050E-03
 -1      3901 1.88032E-03
 -1      3902 2.16990E+00
 -1      3903 1.15809E+00
 -1      3904 1.31735E+00
 -1      3905 1.41910E+00
 -1      3906 1.12445E+00
 -1      3907 4.36493E+00
 -1      3908 5.50971E+00
 -1      3909 4.34338E+00
 -1      3910 5.50971E+00
 -1      3911 5.72473E+00
 -1      3912 2.03064E-03
 -1      3913 1.92764E-03
 -1      3914 1.89440E-03
 -1      3915 1.12445E+00
 -1      3916 2.00978E-03
 -1      3917 2.31230E-03
 -1      3918 1.93672E-03
 -1      3919 2.40163E-03
 -1      3920 3.92887E+00
 -1      3921 3.61399E+00
 -1      3922 2.76414E+00
 -1      3923 2.59673E+00
 -1      3924 2.49419E+00
 -1      3925 2.68304E+00
 -1      3926 3.39136E+00
 -1      3927 2.49938E+00
 -1      3928 1.92462E+00
 -1      3929 1.97352E+00
 -1      3930 2.20595E+00
 -1      3931 2.22471E+00
 -1      3932 2.22471E+00
 -1      3933 2.66061E+00
 -1      3934 1.67037E+00
 -1      3935 1.79892E+00
 -1      3936 2.26340E+00
 -1      3937 1.67037E+00
 -1      3938 2.22471E+00
 -1      3939 2.09793E+00
 -1      3940 2.91180E+00
 -1      3941 3.77795E+00
 -1      3942 3.01594E+00
 -1      3943 3.91029E+00
 -1      3944 4.34044E+00
 -1      3945 7.63072E-01
 -1      3946 8.54053E-01
 -1      3947 1.54546E+00
 -1      3948 1.34484E+00
 -1      3949 1.11827E+00
 -1      3950 9.69804E-01
 -1      3951 1.23944E+00
 -1      3952 8.32608E-01
 -1      3953 7.23027E-01
 -1      3954 8.75683E-01
 -1      3955 6.30912E-01
 -1      3956 5.48523E-01
 -1      3957 6.46372E-01
 -1      3958 4.80742E-01
 -1      3959 4.17293E-01
 -1      3960 4.86476E-01
 -1      3961 3.67070E-01
 -1      3962 3.17711E-01
 -1      3963 3.68471E-01
 -1      3964 2.79378E-01
 -1      3965 2.40739E-01
 -1      3966 2.79915E-01
 -1      3967 2.11035E-01
 -1      3968 1.80768E-01
 -1      3969 2.11878E-01
 -1      3970 1.57641E-01
 -1      3971 1.34037E-01
 -1      3972 1.59048E-01
 -1      3973 1.16070E-01
 -1      3974 9.78164E-02
 -1      3975 1.17954E-01
 -1      3976 8.39565E-02
 -1      3977 6.99995E-02
 -1      3978 8.61276E-02
 -1      3979 5.94198E-02
 -1      3980 4.88945E-02
 -1      3981 6.16880E-02
 -1      3982 4.09258E-02
 -1      3983 3.34666E-02
 -1      3984 4.31396E-02
 -1      3985 2.80239E-02
 -1      3986 2.26710E-02
 -1      3987 2.97283E-02
 -1      3988 1.89172E-02
 -1      3989 1.50271E-02
 -1      3990 2.05317E-02
 -1      3991 1.22183E-02
 -1      3992 9.45653E-03
 -1      3993 1.39692E-02
 -1      3994 7.39302E-03
 -1      3995 5.56327E-03
 -1      3996 9.09683E-03
 -1      3997 4.07817E-03
 -1      3998 3.09357E-03
 -1      3999 5.54821E-03
 -1      4000 2.05140E-03
 -1      4001 2.34915E-03
 -1      4002 3.02094E-03
 -1      4003 2.34480E-03
 -1      4004 2.43683E-03
 -1      4005 1.97443E-03
 -1      4006 2.55333E-03
 -1      4007 2.48673E-03
 -1      4008 2.08657E-03
 -1      4009 1.29491E+00
 -1      4010 1.48592E+00
 -1      4011 9.89051E-01
 -1      4012 1.09740E+00
 -1      4013 9.55895E-01
 -1      4014 1.52917E+00
 -1      4015 1.70331E+00
 -1      4016 1.52917E+00
 -1      4017 5.89350E-01
 -1      4018 6.64211E-01
 -1      4019 7.22036E-01
 -1      4020 4.54227E-01
 -1      4021 5.15310E-01
 -1      4022 5.49135E-01
 -1      4023 3.48559E-01
 -1      4024 3.97997E-01
 -1      4025 4.18866E-01
 -1      4026 2.65435E-01
 -1      4027 3.05168E-01
 -1      4028 3.19245E-01
 -1      4029 1.99957E-01
 -1      4030 2.31630E-01
 -1      4031 2.42049E-01
 -1      4032 1.48581E-01
 -1      4033 1.73571E-01
 -1      4034 1.81859E-01
 -1      4035 1.08580E-01
 -1      4036 1.28058E-01
 -1      4037 1.34950E-01
 -1      4038 7.77689E-02
 -1      4039 9.27400E-02
 -1      4040 9.85866E-02
 -1      4041 5.43460E-02
 -1      4042 6.56739E-02
 -1      4043 7.06513E-02
 -1      4044 3.72798E-02
 -1      4045 4.52338E-02
 -1      4046 4.94440E-02
 -1      4047 2.49341E-02
 -1      4048 3.07581E-02
 -1      4049 3.38101E-02
 -1      4050 1.61341E-02
 -1      4051 2.03608E-02
 -1      4052 2.27152E-02
 -1      4053 9.81153E-03
 -1      4054 1.28050E-02
 -1      4055 1.48129E-02
 -1      4056 5.68858E-03
 -1      4057 7.66743E-03
 -1      4058 9.33969E-03
 -1      4059 3.37461E-03
 -1      4060 4.18157E-03
 -1      4061 5.68858E-03
 -1      4062 2.65710E-03
 -1      4063 2.34305E-03
 -1      4064 3.15002E-03
 -1      4065 2.79214E-03
 -1      4066 2.73586E-03
 -1      4067 2.19722E-03
 -1      4068 2.78157E-03
 -1      4069 2.89830E-03
 -1      4070 2.38214E-03
 -1      4071 4.54922E+00
 -1      4072 5.20343E+00
 -1      4073 4.01555E+00
 -1      4074 3.50049E+00
 -1      4075 4.48551E+00
 -1      4076 1.28406E+00
 -1      4077 2.26700E-03
 -1      4078 2.08221E-03
 -1      4079 2.03311E-03
 -1      4080 2.35307E-03
 -1      4081 3.84143E+00
 -1      4082 2.80019E+00
 -1      4083 1.81111E-03
 -1      4084 1.94056E-03
 -1      4085 2.61270E-03
 -1      4086 4.08851E+00
 -1      4087 4.08851E+00
 -1      4088 3.50153E+00
 -1      4089 4.06696E+00
 -1      4090 4.91378E+00
 -1      4091 4.91378E+00
 -1      4092 2.44740E+00
 -1      4093 1.96899E+00
 -1      4094 1.88954E+00
 -1      4095 4.13869E+00
 -1      4096 3.05319E+00
 -1      4097 4.08932E+00
 -1      4098 3.56404E+00
 -1      4099 2.75469E+00
 -1      4100 3.43158E+00
 -1      4101 2.74885E+00
 -1      4102 2.08953E+00
 -1      4103 1.28841E+00
 -1      4104 2.42754E-03
 -1      4105 3.34228E+00
 -1      4106 1.66404E+00
 -1      4107 1.66404E+00
 -1      4108 1.79908E+00
 -1      4109 2.47791E+00
 -1      4110 3.20795E+00
 -1      4111 3.11076E+00
 -1      4112 2.27724E-03
 -1      4113 1.95863E+00
 -1      4114 1.78793E-03
 -1      4115 1.79178E-03
 -1      4116 1.87507E-03
 -1      4117 2.15163E-03
 -1      4118 3.36194E+00
 -1      4119 2.14387E-03
 -1      4120 3.53748E+00
 -1      4121 3.50160E+00
 -1      4122 2.39210E+00
 -1      4123 2.66787E+00
 -1      4124 5.50353E-01
 -1      4125 6.24392E-01
 -1      4126 7.24142E-01
 -1      4127 8.23003E-01
 -1      4128 7.25359E-01
 -1      4129 9.23688E-01
 -1      4130 7.86491E-01
 -1      4131 6.82048E-01
 -1      4132 5.89934E-01
 -1      4133 7.30053E-01
 -1      4134 5.14470E-01
 -1      4135 4.46688E-01
 -1      4136 5.50146E-01
 -1      4137 3.90030E-01
 -1      4138 3.39806E-01
 -1      4139 4.18024E-01
 -1      4140 2.96564E-01
 -1      4141 2.58232E-01
 -1      4142 3.18123E-01
 -1      4143 2.24796E-01
 -1      4144 1.95092E-01
 -1      4145 2.41445E-01
 -1      4146 1.69242E-01
 -1      4147 1.46115E-01
 -1      4148 1.82159E-01
 -1      4149 1.26873E-01
 -1      4150 1.08906E-01
 -1      4151 1.37067E-01
 -1      4152 9.37448E-02
 -1      4153 7.98849E-02
 -1      4154 1.02664E-01
 -1      4155 6.80534E-02
 -1      4156 5.74737E-02
 -1      4157 7.56706E-02
 -1      4158 4.83514E-02
 -1      4159 4.03827E-02
 -1      4160 5.47168E-02
 -1      4161 3.34472E-02
 -1      4162 2.80045E-02
 -1      4163 3.86589E-02
 -1      4164 2.31483E-02
 -1      4165 1.93945E-02
 -1      4166 2.68672E-02
 -1      4167 1.58592E-02
 -1      4168 1.30504E-02
 -1      4169 1.84758E-02
 -1      4170 1.04300E-02
 -1      4171 8.36653E-03
 -1      4172 1.23201E-02
 -1      4173 6.46112E-03
 -1      4174 4.97602E-03
 -1      4175 7.79434E-03
 -1      4176 3.61982E-03
 -1      4177 2.57765E-03
 -1      4178 4.53273E-03
 -1      4179 1.63761E-03
 -1      4180 1.63326E-03
 -1      4181 2.23649E-03
 -1      4182 1.51382E+00
 -1      4183 1.55707E+00
 -1      4184 4.18659E-01
 -1      4185 4.74889E-01
 -1      4186 5.50146E-01
 -1      4187 3.18609E-01
 -1      4188 3.62001E-01
 -1      4189 4.18024E-01
 -1      4190 2.41563E-01
 -1      4191 2.75368E-01
 -1      4192 3.18123E-01
 -1      4193 1.81741E-01
 -1      4194 2.08127E-01
 -1      4195 2.41445E-01
 -1      4196 1.35207E-01
 -1      4197 1.55730E-01
 -1      4198 1.81998E-01
 -1      4199 9.91369E-02
 -1      4200 1.14977E-01
 -1      4201 1.35757E-01
 -1      4202 7.13900E-02
 -1      4203 8.34850E-02
 -1      4204 9.98756E-02
 -1      4205 5.02745E-02
 -1      4206 5.93868E-02
 -1      4207 7.22205E-02
 -1      4208 3.48302E-02
 -1      4209 4.13518E-02
 -1      4210 5.12946E-02
 -1      4211 2.38451E-02
 -1      4212 2.84184E-02
 -1      4213 3.59601E-02
 -1      4214 1.57182E-02
 -1      4215 1.90473E-02
 -1      4216 2.47504E-02
 -1      4217 1.00461E-02
 -1      4218 1.21903E-02
 -1      4219 1.64247E-02
 -1      4220 5.99671E-03
 -1      4221 7.50372E-03
 -1      4222 1.03543E-02
 -1      4223 3.17522E-03
 -1      4224 4.20677E-03
 -1      4225 6.02191E-03
 -1      4226 2.13482E-03
 -1      4227 2.05606E-03
 -1      4228 3.11282E-03
 -1      4229 2.24790E-03
 -1      4230 2.14173E-03
 -1      4231 2.00057E-03
 -1      4232 1.91122E-03
 -1      4233 3.61681E+00
 -1      4234 3.10175E+00
 -1      4235 2.60673E+00
 -1      4236 2.27216E+00
 -1      4237 2.67617E+00
 -1      4238 2.57650E+00
 -1      4239 1.88594E+00
 -1      4240 2.09230E-03
 -1      4241 1.98584E-03
 -1      4242 3.31053E+00
 -1      4243 1.16067E+00
 -1      4244 1.35818E+00
 -1      4245 1.38608E+00
 -1      4246 3.61681E+00
 -1      4247 9.66302E-01
 -1      4248 1.10130E+00
 -1      4249 1.17108E+00
 -1      4250 9.68408E-01
 -1      4251 1.93061E+00
 -1      4252 1.50707E+00
 -1      4253 2.22426E+00
 -1      4254 1.31097E+00
 -1      4255 1.08440E+00
 -1      4256 9.95212E-01
 -1      4257 1.35203E+00
 -1      4258 1.87060E+00
 -1      4259 1.76396E-03
 -1      4260 1.88046E-03
 -1      4261 1.42714E-03
 -1      4262 1.91532E+00
 -1      4263 1.66323E-03
 -1      4264 2.92695E+00
 -1      4265 2.02976E+00
 -1      4266 2.40678E+00
 -1      4267 2.38022E+00
 -1      4268 1.70088E+00
 -1      4269 1.60932E-03
 -1      4270 1.63250E-03
 -1      4271 6.25609E-01
 -1      4272 5.50146E-01
 -1      4273 4.74682E-01
 -1      4274 4.18024E-01
 -1      4275 3.61365E-01
 -1      4276 3.18123E-01
 -1      4277 2.74882E-01
 -1      4278 2.41445E-01
 -1      4279 2.08009E-01
 -1      4280 1.82159E-01
 -1      4281 1.56148E-01
 -1      4282 1.36906E-01
 -1      4283 1.16676E-01
 -1      4284 1.01515E-01
 -1      4285 8.58629E-02
 -1      4286 7.40314E-02
 -1      4287 6.20282E-02
 -1      4288 5.29059E-02
 -1      4289 4.39832E-02
 -1      4290 3.70477E-02
 -1      4291 3.06358E-02
 -1      4292 2.57797E-02
 -1      4293 2.09819E-02
 -1      4294 1.74466E-02
 -1      4295 1.39186E-02
 -1      4296 1.12982E-02
 -1      4297 8.75580E-03
 -1      4298 6.85039E-03
 -1      4299 5.06045E-03
 -1      4300 3.70425E-03
 -1      4301 2.58509E-03
 -1      4302 1.64505E-03
 -1      4303 1.65196E-03
 -1      4304 1.25592E+00
 -1      4305 1.41156E+00
 -1      4306 1.57072E+00
 -1      4307 8.29802E-01
 -1      4308 7.25359E-01
 -1      4309 1.70409E+00
 -1      4310 1.50394E-03
 -1      4311 9.73101E-01
 -1      4312 1.13382E+00
 -1      4313 1.72876E-03
 -1      4314 1.41477E+00
 -1      4315 1.21866E+00
 -1      4316 1.37324E-03
 -1      4317 1.19319E+00
 -3
 9999
