    1C
    1UUSER                                                              
    1UDATE              27.october.2022                                 
    1UTIME              00:32:56                                        
    1UHOST                                                              
    1UPGM               CalculiX                                        
    1UVERSION           Version 2.17                             
    1UCOMPILETIME       Thu Jul 23 21:43:50 CEST 2020                    
    1UDIR                                                               
    1UDBN                                                               
    1UMAT    1SOLIDMATERIAL                                             
    2C                          4292                                     1
 -1         1 5.27894E+01 4.54098E+01 0.00000E+00
 -1         2 5.97871E+01 3.84098E+01 0.00000E+00
 -1         3 1.50000E+02 0.00000E+00 0.00000E+00
 -1         4 1.50000E+02 5.00000E+01 0.00000E+00
 -1         5 0.00000E+00 0.00000E+00 0.00000E+00
 -1         6 0.00000E+00 5.00000E+01 0.00000E+00
 -1         7 0.00000E+00 4.70500E+01 0.00000E+00
 -1         8 0.00000E+00 4.41000E+01 0.00000E+00
 -1         9 0.00000E+00 4.11500E+01 0.00000E+00
 -1        10 0.00000E+00 3.82000E+01 0.00000E+00
 -1        11 0.00000E+00 3.52500E+01 0.00000E+00
 -1        12 0.00000E+00 3.23500E+01 0.00000E+00
 -1        13 0.00000E+00 2.94000E+01 0.00000E+00
 -1        14 0.00000E+00 2.64500E+01 0.00000E+00
 -1        15 0.00000E+00 2.35000E+01 0.00000E+00
 -1        16 0.00000E+00 2.05500E+01 0.00000E+00
 -1        17 0.00000E+00 1.76000E+01 0.00000E+00
 -1        18 0.00000E+00 1.47000E+01 0.00000E+00
 -1        19 0.00000E+00 1.17500E+01 0.00000E+00
 -1        20 0.00000E+00 8.80000E+00 0.00000E+00
 -1        21 0.00000E+00 5.85000E+00 0.00000E+00
 -1        22 0.00000E+00 2.90000E+00 0.00000E+00
 -1        23 3.15000E+00 5.00000E+01 0.00000E+00
 -1        24 6.15000E+00 5.00000E+01 0.00000E+00
 -1        25 9.15000E+00 5.00000E+01 0.00000E+00
 -1        26 1.21500E+01 5.00000E+01 0.00000E+00
 -1        27 1.51500E+01 5.00000E+01 0.00000E+00
 -1        28 1.81500E+01 5.00000E+01 0.00000E+00
 -1        29 2.11500E+01 5.00000E+01 0.00000E+00
 -1        30 2.43000E+01 5.00000E+01 0.00000E+00
 -1        31 2.73000E+01 5.00000E+01 0.00000E+00
 -1        32 3.03000E+01 5.00000E+01 0.00000E+00
 -1        33 3.33000E+01 5.00000E+01 0.00000E+00
 -1        34 3.63000E+01 5.00000E+01 0.00000E+00
 -1        35 3.93000E+01 5.00000E+01 0.00000E+00
 -1        36 4.23000E+01 5.00000E+01 0.00000E+00
 -1        37 4.50000E+01 5.00000E+01 0.00000E+00
 -1        38 4.77000E+01 5.00000E+01 0.00000E+00
 -1        39 5.01000E+01 5.00000E+01 0.00000E+00
 -1        40 5.25000E+01 5.00000E+01 0.00000E+00
 -1        41 5.46000E+01 5.00000E+01 0.00000E+00
 -1        42 5.68500E+01 5.00000E+01 0.00000E+00
 -1        43 5.94000E+01 5.00000E+01 0.00000E+00
 -1        44 6.25500E+01 5.00000E+01 0.00000E+00
 -1        45 6.55500E+01 5.00000E+01 0.00000E+00
 -1        46 6.85500E+01 5.00000E+01 0.00000E+00
 -1        47 7.15500E+01 5.00000E+01 0.00000E+00
 -1        48 7.45500E+01 5.00000E+01 0.00000E+00
 -1        49 7.75500E+01 5.00000E+01 0.00000E+00
 -1        50 8.05500E+01 5.00000E+01 0.00000E+00
 -1        51 8.37000E+01 5.00000E+01 0.00000E+00
 -1        52 8.67000E+01 5.00000E+01 0.00000E+00
 -1        53 8.97000E+01 5.00000E+01 0.00000E+00
 -1        54 9.27000E+01 5.00000E+01 0.00000E+00
 -1        55 9.57000E+01 5.00000E+01 0.00000E+00
 -1        56 9.87000E+01 5.00000E+01 0.00000E+00
 -1        57 1.01700E+02 5.00000E+01 0.00000E+00
 -1        58 1.04700E+02 5.00000E+01 0.00000E+00
 -1        59 1.07850E+02 5.00000E+01 0.00000E+00
 -1        60 1.10850E+02 5.00000E+01 0.00000E+00
 -1        61 1.13850E+02 5.00000E+01 0.00000E+00
 -1        62 1.16850E+02 5.00000E+01 0.00000E+00
 -1        63 1.19850E+02 5.00000E+01 0.00000E+00
 -1        64 1.22850E+02 5.00000E+01 0.00000E+00
 -1        65 1.25850E+02 5.00000E+01 0.00000E+00
 -1        66 1.29000E+02 5.00000E+01 0.00000E+00
 -1        67 1.32000E+02 5.00000E+01 0.00000E+00
 -1        68 1.35000E+02 5.00000E+01 0.00000E+00
 -1        69 1.38000E+02 5.00000E+01 0.00000E+00
 -1        70 1.41000E+02 5.00000E+01 0.00000E+00
 -1        71 1.44000E+02 5.00000E+01 0.00000E+00
 -1        72 1.47000E+02 5.00000E+01 0.00000E+00
 -1        73 3.15000E+00 0.00000E+00 0.00000E+00
 -1        74 6.15000E+00 0.00000E+00 0.00000E+00
 -1        75 9.15000E+00 0.00000E+00 0.00000E+00
 -1        76 1.21500E+01 0.00000E+00 0.00000E+00
 -1        77 1.51500E+01 0.00000E+00 0.00000E+00
 -1        78 1.81500E+01 0.00000E+00 0.00000E+00
 -1        79 2.11500E+01 0.00000E+00 0.00000E+00
 -1        80 2.41500E+01 0.00000E+00 0.00000E+00
 -1        81 2.71500E+01 0.00000E+00 0.00000E+00
 -1        82 3.01500E+01 0.00000E+00 0.00000E+00
 -1        83 3.31500E+01 0.00000E+00 0.00000E+00
 -1        84 3.61500E+01 0.00000E+00 0.00000E+00
 -1        85 3.91500E+01 0.00000E+00 0.00000E+00
 -1        86 4.21500E+01 0.00000E+00 0.00000E+00
 -1        87 4.51500E+01 0.00000E+00 0.00000E+00
 -1        88 4.81500E+01 0.00000E+00 0.00000E+00
 -1        89 5.11500E+01 0.00000E+00 0.00000E+00
 -1        90 5.41500E+01 0.00000E+00 0.00000E+00
 -1        91 5.71500E+01 0.00000E+00 0.00000E+00
 -1        92 6.01500E+01 0.00000E+00 0.00000E+00
 -1        93 6.31500E+01 0.00000E+00 0.00000E+00
 -1        94 6.61500E+01 0.00000E+00 0.00000E+00
 -1        95 6.91500E+01 0.00000E+00 0.00000E+00
 -1        96 7.21500E+01 0.00000E+00 0.00000E+00
 -1        97 7.51500E+01 0.00000E+00 0.00000E+00
 -1        98 7.81500E+01 0.00000E+00 0.00000E+00
 -1        99 8.11500E+01 0.00000E+00 0.00000E+00
 -1       100 8.41500E+01 0.00000E+00 0.00000E+00
 -1       101 8.71500E+01 0.00000E+00 0.00000E+00
 -1       102 9.01500E+01 0.00000E+00 0.00000E+00
 -1       103 9.31500E+01 0.00000E+00 0.00000E+00
 -1       104 9.61500E+01 0.00000E+00 0.00000E+00
 -1       105 9.91500E+01 0.00000E+00 0.00000E+00
 -1       106 1.02150E+02 0.00000E+00 0.00000E+00
 -1       107 1.05150E+02 0.00000E+00 0.00000E+00
 -1       108 1.08150E+02 0.00000E+00 0.00000E+00
 -1       109 1.11150E+02 0.00000E+00 0.00000E+00
 -1       110 1.14150E+02 0.00000E+00 0.00000E+00
 -1       111 1.17150E+02 0.00000E+00 0.00000E+00
 -1       112 1.20150E+02 0.00000E+00 0.00000E+00
 -1       113 1.23150E+02 0.00000E+00 0.00000E+00
 -1       114 1.26150E+02 0.00000E+00 0.00000E+00
 -1       115 1.29150E+02 0.00000E+00 0.00000E+00
 -1       116 1.32150E+02 0.00000E+00 0.00000E+00
 -1       117 1.35150E+02 0.00000E+00 0.00000E+00
 -1       118 1.38150E+02 0.00000E+00 0.00000E+00
 -1       119 1.41150E+02 0.00000E+00 0.00000E+00
 -1       120 1.44150E+02 0.00000E+00 0.00000E+00
 -1       121 1.47150E+02 0.00000E+00 0.00000E+00
 -1       122 1.50000E+02 2.95000E+00 0.00000E+00
 -1       123 1.50000E+02 5.90000E+00 0.00000E+00
 -1       124 1.50000E+02 8.85000E+00 0.00000E+00
 -1       125 1.50000E+02 1.18000E+01 0.00000E+00
 -1       126 1.50000E+02 1.47500E+01 0.00000E+00
 -1       127 1.50000E+02 1.76500E+01 0.00000E+00
 -1       128 1.50000E+02 2.06000E+01 0.00000E+00
 -1       129 1.50000E+02 2.35500E+01 0.00000E+00
 -1       130 1.50000E+02 2.65000E+01 0.00000E+00
 -1       131 1.50000E+02 2.94500E+01 0.00000E+00
 -1       132 1.50000E+02 3.24000E+01 0.00000E+00
 -1       133 1.50000E+02 3.53000E+01 0.00000E+00
 -1       134 1.50000E+02 3.82500E+01 0.00000E+00
 -1       135 1.50000E+02 4.12000E+01 0.00000E+00
 -1       136 1.50000E+02 4.41500E+01 0.00000E+00
 -1       137 1.50000E+02 4.71000E+01 0.00000E+00
 -1       138 5.96366E+01 3.69662E+01 0.00000E+00
 -1       139 5.91668E+01 3.55289E+01 0.00000E+00
 -1       140 5.83952E+01 3.42207E+01 0.00000E+00
 -1       141 5.74100E+01 3.31535E+01 0.00000E+00
 -1       142 5.60980E+01 3.22423E+01 0.00000E+00
 -1       143 5.47134E+01 3.16801E+01 0.00000E+00
 -1       144 5.32817E+01 3.14273E+01 0.00000E+00
 -1       145 5.17300E+01 3.14901E+01 0.00000E+00
 -1       146 5.02737E+01 3.18766E+01 0.00000E+00
 -1       147 4.89185E+01 3.25760E+01 0.00000E+00
 -1       148 4.77752E+01 3.35230E+01 0.00000E+00
 -1       149 4.68756E+01 3.46608E+01 0.00000E+00
 -1       150 4.62251E+01 3.59724E+01 0.00000E+00
 -1       151 4.58528E+01 3.74531E+01 0.00000E+00
 -1       152 4.58023E+01 3.88720E+01 0.00000E+00
 -1       153 4.60989E+01 4.04758E+01 0.00000E+00
 -1       154 4.66519E+01 4.17803E+01 0.00000E+00
 -1       155 4.74610E+01 4.29522E+01 0.00000E+00
 -1       156 4.85660E+01 4.39939E+01 0.00000E+00
 -1       157 4.98474E+01 4.47626E+01 0.00000E+00
 -1       158 5.12906E+01 4.52480E+01 0.00000E+00
 -1       159 5.43121E+01 4.52417E+01 0.00000E+00
 -1       160 5.58499E+01 4.47042E+01 0.00000E+00
 -1       161 5.71605E+01 4.38754E+01 0.00000E+00
 -1       162 5.82477E+01 4.27895E+01 0.00000E+00
 -1       163 5.90783E+01 4.14792E+01 0.00000E+00
 -1       164 5.95968E+01 4.00310E+01 0.00000E+00
 -1       165 2.59800E+00 4.55750E+01 0.00000E+00
 -1       166 2.59800E+00 4.26250E+01 0.00000E+00
 -1       167 2.59800E+00 3.96750E+01 0.00000E+00
 -1       168 2.59800E+00 3.67250E+01 0.00000E+00
 -1       169 2.59800E+00 3.38250E+01 0.00000E+00
 -1       170 2.59800E+00 3.08750E+01 0.00000E+00
 -1       171 2.59800E+00 2.79250E+01 0.00000E+00
 -1       172 2.59800E+00 2.49750E+01 0.00000E+00
 -1       173 2.59800E+00 2.20250E+01 0.00000E+00
 -1       174 2.59800E+00 1.90750E+01 0.00000E+00
 -1       175 2.59800E+00 1.61750E+01 0.00000E+00
 -1       176 2.59800E+00 1.32250E+01 0.00000E+00
 -1       177 2.59800E+00 1.02750E+01 0.00000E+00
 -1       178 2.59800E+00 7.32500E+00 0.00000E+00
 -1       179 2.59800E+00 4.37500E+00 0.00000E+00
 -1       180 2.87400E+00 2.18750E+00 0.00000E+00
 -1       181 4.65000E+00 4.74020E+01 0.00000E+00
 -1       182 7.65000E+00 4.74020E+01 0.00000E+00
 -1       183 1.06500E+01 4.74020E+01 0.00000E+00
 -1       184 1.36500E+01 4.74020E+01 0.00000E+00
 -1       185 1.66500E+01 4.74020E+01 0.00000E+00
 -1       186 1.96500E+01 4.74020E+01 0.00000E+00
 -1       187 2.28000E+01 4.74020E+01 0.00000E+00
 -1       188 2.58000E+01 4.74020E+01 0.00000E+00
 -1       189 2.88000E+01 4.74020E+01 0.00000E+00
 -1       190 3.18000E+01 4.74020E+01 0.00000E+00
 -1       191 3.48000E+01 4.74020E+01 0.00000E+00
 -1       192 3.78000E+01 4.74020E+01 0.00000E+00
 -1       193 4.08000E+01 4.74020E+01 0.00000E+00
 -1       194 4.35000E+01 4.74020E+01 0.00000E+00
 -1       195 4.89000E+01 4.77822E+01 0.00000E+00
 -1       196 5.13000E+01 4.77822E+01 0.00000E+00
 -1       197 5.34000E+01 4.77822E+01 0.00000E+00
 -1       198 5.56500E+01 4.77822E+01 0.00000E+00
 -1       199 5.82000E+01 4.77822E+01 0.00000E+00
 -1       200 6.13500E+01 4.77822E+01 0.00000E+00
 -1       201 6.43500E+01 4.77822E+01 0.00000E+00
 -1       202 6.73500E+01 4.77822E+01 0.00000E+00
 -1       203 7.03500E+01 4.77822E+01 0.00000E+00
 -1       204 7.33500E+01 4.77822E+01 0.00000E+00
 -1       205 7.63500E+01 4.77822E+01 0.00000E+00
 -1       206 7.93500E+01 4.77822E+01 0.00000E+00
 -1       207 8.25000E+01 4.77822E+01 0.00000E+00
 -1       208 8.55000E+01 4.77822E+01 0.00000E+00
 -1       209 8.85000E+01 4.77822E+01 0.00000E+00
 -1       210 9.15000E+01 4.77822E+01 0.00000E+00
 -1       211 9.45000E+01 4.77822E+01 0.00000E+00
 -1       212 9.75000E+01 4.77822E+01 0.00000E+00
 -1       213 1.00500E+02 4.77822E+01 0.00000E+00
 -1       214 1.03500E+02 4.77822E+01 0.00000E+00
 -1       215 1.06650E+02 4.77822E+01 0.00000E+00
 -1       216 1.09650E+02 4.77822E+01 0.00000E+00
 -1       217 1.12650E+02 4.77822E+01 0.00000E+00
 -1       218 1.15650E+02 4.77822E+01 0.00000E+00
 -1       219 1.18650E+02 4.77822E+01 0.00000E+00
 -1       220 1.21650E+02 4.77822E+01 0.00000E+00
 -1       221 1.24650E+02 4.77822E+01 0.00000E+00
 -1       222 1.27800E+02 4.77822E+01 0.00000E+00
 -1       223 1.30800E+02 4.77822E+01 0.00000E+00
 -1       224 1.33800E+02 4.77822E+01 0.00000E+00
 -1       225 1.36800E+02 4.77822E+01 0.00000E+00
 -1       226 1.39800E+02 4.77822E+01 0.00000E+00
 -1       227 1.42800E+02 4.77822E+01 0.00000E+00
 -1       228 1.45800E+02 4.77822E+01 0.00000E+00
 -1       229 1.47900E+02 4.74411E+01 0.00000E+00
 -1       230 5.87400E+00 2.18750E+00 0.00000E+00
 -1       231 8.87400E+00 2.18750E+00 0.00000E+00
 -1       232 1.18740E+01 2.18750E+00 0.00000E+00
 -1       233 1.48740E+01 2.18750E+00 0.00000E+00
 -1       234 1.78740E+01 2.18750E+00 0.00000E+00
 -1       235 2.08740E+01 2.18750E+00 0.00000E+00
 -1       236 2.38740E+01 2.18750E+00 0.00000E+00
 -1       237 2.68740E+01 2.18750E+00 0.00000E+00
 -1       238 2.98740E+01 2.18750E+00 0.00000E+00
 -1       239 3.28740E+01 2.18750E+00 0.00000E+00
 -1       240 3.58740E+01 2.18750E+00 0.00000E+00
 -1       241 3.88740E+01 2.18750E+00 0.00000E+00
 -1       242 4.18740E+01 2.18750E+00 0.00000E+00
 -1       243 4.48740E+01 2.18750E+00 0.00000E+00
 -1       244 4.78740E+01 2.18750E+00 0.00000E+00
 -1       245 5.08740E+01 2.18750E+00 0.00000E+00
 -1       246 5.38740E+01 2.18750E+00 0.00000E+00
 -1       247 5.68740E+01 2.18750E+00 0.00000E+00
 -1       248 5.98740E+01 2.18750E+00 0.00000E+00
 -1       249 6.28740E+01 2.18750E+00 0.00000E+00
 -1       250 6.58740E+01 2.18750E+00 0.00000E+00
 -1       251 6.88740E+01 2.18750E+00 0.00000E+00
 -1       252 7.18740E+01 2.18750E+00 0.00000E+00
 -1       253 7.48740E+01 2.18750E+00 0.00000E+00
 -1       254 7.78740E+01 2.18750E+00 0.00000E+00
 -1       255 8.08740E+01 2.18750E+00 0.00000E+00
 -1       256 8.38740E+01 2.18750E+00 0.00000E+00
 -1       257 8.68740E+01 2.18750E+00 0.00000E+00
 -1       258 8.98740E+01 2.18750E+00 0.00000E+00
 -1       259 9.28740E+01 2.18750E+00 0.00000E+00
 -1       260 9.58740E+01 2.18750E+00 0.00000E+00
 -1       261 9.88740E+01 2.18750E+00 0.00000E+00
 -1       262 1.01874E+02 2.18750E+00 0.00000E+00
 -1       263 1.04874E+02 2.18750E+00 0.00000E+00
 -1       264 1.07874E+02 2.18750E+00 0.00000E+00
 -1       265 1.10874E+02 2.18750E+00 0.00000E+00
 -1       266 1.13874E+02 2.18750E+00 0.00000E+00
 -1       267 1.16874E+02 2.18750E+00 0.00000E+00
 -1       268 1.19874E+02 2.18750E+00 0.00000E+00
 -1       269 1.22874E+02 2.18750E+00 0.00000E+00
 -1       270 1.25874E+02 2.18750E+00 0.00000E+00
 -1       271 1.28874E+02 2.18750E+00 0.00000E+00
 -1       272 1.31874E+02 2.18750E+00 0.00000E+00
 -1       273 1.34874E+02 2.18750E+00 0.00000E+00
 -1       274 1.37874E+02 2.18750E+00 0.00000E+00
 -1       275 1.40874E+02 2.18750E+00 0.00000E+00
 -1       276 1.43874E+02 2.18750E+00 0.00000E+00
 -1       277 1.46874E+02 2.18750E+00 0.00000E+00
 -1       278 1.47402E+02 4.42500E+00 0.00000E+00
 -1       279 1.47402E+02 7.37500E+00 0.00000E+00
 -1       280 1.47402E+02 1.03250E+01 0.00000E+00
 -1       281 1.47402E+02 1.32750E+01 0.00000E+00
 -1       282 1.47402E+02 1.61750E+01 0.00000E+00
 -1       283 1.47402E+02 1.91250E+01 0.00000E+00
 -1       284 1.47402E+02 2.20750E+01 0.00000E+00
 -1       285 1.47402E+02 2.50250E+01 0.00000E+00
 -1       286 1.47402E+02 2.79750E+01 0.00000E+00
 -1       287 1.47402E+02 3.09250E+01 0.00000E+00
 -1       288 1.47402E+02 3.38250E+01 0.00000E+00
 -1       289 1.47402E+02 3.67750E+01 0.00000E+00
 -1       290 1.47402E+02 3.97250E+01 0.00000E+00
 -1       291 1.47402E+02 4.26750E+01 0.00000E+00
 -1       292 1.47651E+02 4.50580E+01 0.00000E+00
 -1       293 6.10010E+01 3.75537E+01 0.00000E+00
 -1       294 6.07133E+01 3.58188E+01 0.00000E+00
 -1       295 5.98975E+01 3.42164E+01 0.00000E+00
 -1       296 5.87934E+01 3.28647E+01 0.00000E+00
 -1       297 5.76368E+01 3.14269E+01 0.00000E+00
 -1       298 5.58619E+01 3.08379E+01 0.00000E+00
 -1       299 5.42084E+01 3.03598E+01 0.00000E+00
 -1       300 5.24433E+01 2.99124E+01 0.00000E+00
 -1       301 5.06693E+01 3.04305E+01 0.00000E+00
 -1       302 4.89248E+01 3.09255E+01 0.00000E+00
 -1       303 4.74665E+01 3.19867E+01 0.00000E+00
 -1       304 4.63744E+01 3.33400E+01 0.00000E+00
 -1       305 4.54642E+01 3.47779E+01 0.00000E+00
 -1       306 4.47819E+01 3.63966E+01 0.00000E+00
 -1       307 4.46159E+01 3.81195E+01 0.00000E+00
 -1       308 4.44289E+01 3.99553E+01 0.00000E+00
 -1       309 4.52592E+01 4.16012E+01 0.00000E+00
 -1       310 4.60587E+01 4.30550E+01 0.00000E+00
 -1       311 4.70669E+01 4.44771E+01 0.00000E+00
 -1       312 4.85830E+01 4.54180E+01 0.00000E+00
 -1       313 5.01825E+01 4.61545E+01 0.00000E+00
 -1       314 5.18919E+01 4.67009E+01 0.00000E+00
 -1       315 5.36838E+01 4.65308E+01 0.00000E+00
 -1       316 5.55087E+01 4.61965E+01 0.00000E+00
 -1       317 5.71532E+01 4.53145E+01 0.00000E+00
 -1       318 5.85609E+01 4.41903E+01 0.00000E+00
 -1       319 5.96870E+01 4.27834E+01 0.00000E+00
 -1       320 6.04790E+01 4.11637E+01 0.00000E+00
 -1       321 6.10625E+01 3.93813E+01 0.00000E+00
 -1       322 4.63500E+01 4.76146E+01 0.00000E+00
 -1       323 5.19600E+00 4.11500E+01 0.00000E+00
 -1       324 5.19600E+00 4.41000E+01 0.00000E+00
 -1       325 5.19600E+00 3.52750E+01 0.00000E+00
 -1       326 5.19600E+00 3.23250E+01 0.00000E+00
 -1       327 5.19600E+00 2.93750E+01 0.00000E+00
 -1       328 5.19600E+00 2.64250E+01 0.00000E+00
 -1       329 5.19600E+00 2.34750E+01 0.00000E+00
 -1       330 5.19600E+00 2.05250E+01 0.00000E+00
 -1       331 5.19600E+00 1.76250E+01 0.00000E+00
 -1       332 5.19600E+00 1.46750E+01 0.00000E+00
 -1       333 5.19600E+00 1.17250E+01 0.00000E+00
 -1       334 5.19600E+00 8.77500E+00 0.00000E+00
 -1       335 5.19600E+00 5.82500E+00 0.00000E+00
 -1       336 5.53500E+00 4.00625E+00 0.00000E+00
 -1       337 8.53500E+00 4.00625E+00 0.00000E+00
 -1       338 4.50651E+01 4.56308E+01 0.00000E+00
 -1       339 9.15000E+00 4.48040E+01 0.00000E+00
 -1       340 1.21500E+01 4.48040E+01 0.00000E+00
 -1       341 1.51500E+01 4.48040E+01 0.00000E+00
 -1       342 1.81500E+01 4.48040E+01 0.00000E+00
 -1       343 2.13000E+01 4.48040E+01 0.00000E+00
 -1       344 2.43000E+01 4.48040E+01 0.00000E+00
 -1       345 2.73000E+01 4.48040E+01 0.00000E+00
 -1       346 3.03000E+01 4.48040E+01 0.00000E+00
 -1       347 3.33000E+01 4.48040E+01 0.00000E+00
 -1       348 3.63000E+01 4.48040E+01 0.00000E+00
 -1       349 3.93000E+01 4.48040E+01 0.00000E+00
 -1       350 4.20000E+01 4.48040E+01 0.00000E+00
 -1       351 6.06738E+01 3.24556E+01 0.00000E+00
 -1       352 5.97750E+01 4.57319E+01 0.00000E+00
 -1       353 6.28500E+01 4.52292E+01 0.00000E+00
 -1       354 6.58500E+01 4.52292E+01 0.00000E+00
 -1       355 6.88500E+01 4.52292E+01 0.00000E+00
 -1       356 7.18500E+01 4.52292E+01 0.00000E+00
 -1       357 7.48500E+01 4.52292E+01 0.00000E+00
 -1       358 7.78500E+01 4.52292E+01 0.00000E+00
 -1       359 8.10000E+01 4.52292E+01 0.00000E+00
 -1       360 8.40000E+01 4.52292E+01 0.00000E+00
 -1       361 8.70000E+01 4.52292E+01 0.00000E+00
 -1       362 9.00000E+01 4.52292E+01 0.00000E+00
 -1       363 9.30000E+01 4.52292E+01 0.00000E+00
 -1       364 9.60000E+01 4.52292E+01 0.00000E+00
 -1       365 9.90000E+01 4.52292E+01 0.00000E+00
 -1       366 1.02000E+02 4.52292E+01 0.00000E+00
 -1       367 1.05150E+02 4.52292E+01 0.00000E+00
 -1       368 1.08150E+02 4.52292E+01 0.00000E+00
 -1       369 1.11150E+02 4.52292E+01 0.00000E+00
 -1       370 1.14150E+02 4.52292E+01 0.00000E+00
 -1       371 1.17150E+02 4.52292E+01 0.00000E+00
 -1       372 1.20150E+02 4.52292E+01 0.00000E+00
 -1       373 1.23150E+02 4.52292E+01 0.00000E+00
 -1       374 1.26300E+02 4.52292E+01 0.00000E+00
 -1       375 1.29300E+02 4.52292E+01 0.00000E+00
 -1       376 1.32300E+02 4.52292E+01 0.00000E+00
 -1       377 1.35300E+02 4.52292E+01 0.00000E+00
 -1       378 1.38300E+02 4.52292E+01 0.00000E+00
 -1       379 1.41300E+02 4.52292E+01 0.00000E+00
 -1       380 1.44300E+02 4.52292E+01 0.00000E+00
 -1       381 1.33740E+01 4.78550E+00 0.00000E+00
 -1       382 1.63740E+01 4.78550E+00 0.00000E+00
 -1       383 1.93740E+01 4.78550E+00 0.00000E+00
 -1       384 2.23740E+01 4.78550E+00 0.00000E+00
 -1       385 2.53740E+01 4.78550E+00 0.00000E+00
 -1       386 2.83740E+01 4.78550E+00 0.00000E+00
 -1       387 3.13740E+01 4.78550E+00 0.00000E+00
 -1       388 3.43740E+01 4.78550E+00 0.00000E+00
 -1       389 3.73740E+01 4.78550E+00 0.00000E+00
 -1       390 4.03740E+01 4.78550E+00 0.00000E+00
 -1       391 4.33740E+01 4.78550E+00 0.00000E+00
 -1       392 4.63740E+01 4.78550E+00 0.00000E+00
 -1       393 4.93740E+01 4.78550E+00 0.00000E+00
 -1       394 5.23740E+01 4.78550E+00 0.00000E+00
 -1       395 5.53740E+01 4.78550E+00 0.00000E+00
 -1       396 5.83740E+01 4.78550E+00 0.00000E+00
 -1       397 6.13740E+01 4.78550E+00 0.00000E+00
 -1       398 6.43740E+01 4.78550E+00 0.00000E+00
 -1       399 6.73740E+01 4.78550E+00 0.00000E+00
 -1       400 7.03740E+01 4.78550E+00 0.00000E+00
 -1       401 7.33740E+01 4.78550E+00 0.00000E+00
 -1       402 7.63740E+01 4.78550E+00 0.00000E+00
 -1       403 7.93740E+01 4.78550E+00 0.00000E+00
 -1       404 8.23740E+01 4.78550E+00 0.00000E+00
 -1       405 8.53740E+01 4.78550E+00 0.00000E+00
 -1       406 8.83740E+01 4.78550E+00 0.00000E+00
 -1       407 9.13740E+01 4.78550E+00 0.00000E+00
 -1       408 9.43740E+01 4.78550E+00 0.00000E+00
 -1       409 9.73740E+01 4.78550E+00 0.00000E+00
 -1       410 1.00374E+02 4.78550E+00 0.00000E+00
 -1       411 1.03374E+02 4.78550E+00 0.00000E+00
 -1       412 1.06374E+02 4.78550E+00 0.00000E+00
 -1       413 1.09374E+02 4.78550E+00 0.00000E+00
 -1       414 1.12374E+02 4.78550E+00 0.00000E+00
 -1       415 1.15374E+02 4.78550E+00 0.00000E+00
 -1       416 1.18374E+02 4.78550E+00 0.00000E+00
 -1       417 1.21374E+02 4.78550E+00 0.00000E+00
 -1       418 1.24374E+02 4.78550E+00 0.00000E+00
 -1       419 1.27374E+02 4.78550E+00 0.00000E+00
 -1       420 1.30374E+02 4.78550E+00 0.00000E+00
 -1       421 1.33374E+02 4.78550E+00 0.00000E+00
 -1       422 1.36374E+02 4.78550E+00 0.00000E+00
 -1       423 1.39374E+02 4.78550E+00 0.00000E+00
 -1       424 1.42374E+02 4.78550E+00 0.00000E+00
 -1       425 1.44888E+02 4.60525E+00 0.00000E+00
 -1       426 1.44804E+02 1.18000E+01 0.00000E+00
 -1       427 1.44804E+02 8.85000E+00 0.00000E+00
 -1       428 1.44804E+02 1.47000E+01 0.00000E+00
 -1       429 1.44804E+02 1.76500E+01 0.00000E+00
 -1       430 1.44804E+02 2.06000E+01 0.00000E+00
 -1       431 1.44804E+02 2.35500E+01 0.00000E+00
 -1       432 1.44804E+02 2.65000E+01 0.00000E+00
 -1       433 1.44804E+02 2.94500E+01 0.00000E+00
 -1       434 1.44804E+02 3.23500E+01 0.00000E+00
 -1       435 1.44804E+02 3.53000E+01 0.00000E+00
 -1       436 1.44804E+02 3.82500E+01 0.00000E+00
 -1       437 1.44804E+02 4.12000E+01 0.00000E+00
 -1       438 1.09545E+01 4.39587E+00 0.00000E+00
 -1       439 6.16845E+01 3.43155E+01 0.00000E+00
 -1       440 5.95171E+01 3.10177E+01 0.00000E+00
 -1       441 6.23272E+01 3.84239E+01 0.00000E+00
 -1       442 5.19600E+00 3.82125E+01 0.00000E+00
 -1       443 5.72631E+01 2.95841E+01 0.00000E+00
 -1       444 5.56096E+01 2.91060E+01 0.00000E+00
 -1       445 5.38446E+01 2.86586E+01 0.00000E+00
 -1       446 5.11930E+01 2.89273E+01 0.00000E+00
 -1       447 4.93975E+01 2.92699E+01 0.00000E+00
 -1       448 4.72851E+01 3.02048E+01 0.00000E+00
 -1       449 4.58466E+01 3.17967E+01 0.00000E+00
 -1       450 4.48241E+01 3.33657E+01 0.00000E+00
 -1       451 4.39287E+01 3.50838E+01 0.00000E+00
 -1       452 4.33253E+01 3.71257E+01 0.00000E+00
 -1       453 4.31383E+01 3.89615E+01 0.00000E+00
 -1       454 4.36867E+01 4.13620E+01 0.00000E+00
 -1       455 4.43764E+01 4.30335E+01 0.00000E+00
 -1       456 4.53687E+01 4.46126E+01 0.00000E+00
 -1       457 4.70973E+01 4.61201E+01 0.00000E+00
 -1       458 6.09011E+01 4.43251E+01 0.00000E+00
 -1       459 6.16931E+01 4.27054E+01 0.00000E+00
 -1       460 6.22766E+01 4.09229E+01 0.00000E+00
 -1       461 6.23012E+01 3.64468E+01 0.00000E+00
 -1       462 4.23961E+01 4.03682E+01 0.00000E+00
 -1       463 5.25942E+01 2.76734E+01 0.00000E+00
 -1       464 7.79400E+00 3.08500E+01 0.00000E+00
 -1       465 7.79400E+00 3.38000E+01 0.00000E+00
 -1       466 7.79400E+00 2.49500E+01 0.00000E+00
 -1       467 7.79400E+00 2.20000E+01 0.00000E+00
 -1       468 7.79400E+00 1.91000E+01 0.00000E+00
 -1       469 7.79400E+00 1.61500E+01 0.00000E+00
 -1       470 7.79400E+00 1.32000E+01 0.00000E+00
 -1       471 7.79400E+00 1.02500E+01 0.00000E+00
 -1       472 7.79400E+00 7.30000E+00 0.00000E+00
 -1       473 8.16450E+00 5.65312E+00 0.00000E+00
 -1       474 5.92206E+01 2.89951E+01 0.00000E+00
 -1       475 6.28333E+01 3.24866E+01 0.00000E+00
 -1       476 1.06500E+01 4.22060E+01 0.00000E+00
 -1       477 1.36500E+01 4.22060E+01 0.00000E+00
 -1       478 1.66500E+01 4.22060E+01 0.00000E+00
 -1       479 1.98000E+01 4.22060E+01 0.00000E+00
 -1       480 2.28000E+01 4.22060E+01 0.00000E+00
 -1       481 2.58000E+01 4.22060E+01 0.00000E+00
 -1       482 2.88000E+01 4.22060E+01 0.00000E+00
 -1       483 3.18000E+01 4.22060E+01 0.00000E+00
 -1       484 3.48000E+01 4.22060E+01 0.00000E+00
 -1       485 3.78000E+01 4.22060E+01 0.00000E+00
 -1       486 4.06500E+01 4.29213E+01 0.00000E+00
 -1       487 7.92300E+00 4.16780E+01 0.00000E+00
 -1       488 6.73500E+01 4.28438E+01 0.00000E+00
 -1       489 7.03500E+01 4.28438E+01 0.00000E+00
 -1       490 7.33500E+01 4.28438E+01 0.00000E+00
 -1       491 7.63500E+01 4.28438E+01 0.00000E+00
 -1       492 7.95000E+01 4.28438E+01 0.00000E+00
 -1       493 8.25000E+01 4.28438E+01 0.00000E+00
 -1       494 8.55000E+01 4.28438E+01 0.00000E+00
 -1       495 8.85000E+01 4.28438E+01 0.00000E+00
 -1       496 9.15000E+01 4.28438E+01 0.00000E+00
 -1       497 9.45000E+01 4.28438E+01 0.00000E+00
 -1       498 9.75000E+01 4.28438E+01 0.00000E+00
 -1       499 1.00500E+02 4.28438E+01 0.00000E+00
 -1       500 1.03650E+02 4.28438E+01 0.00000E+00
 -1       501 1.06650E+02 4.28438E+01 0.00000E+00
 -1       502 1.09650E+02 4.28438E+01 0.00000E+00
 -1       503 1.12650E+02 4.28438E+01 0.00000E+00
 -1       504 1.15650E+02 4.28438E+01 0.00000E+00
 -1       505 1.18650E+02 4.28438E+01 0.00000E+00
 -1       506 1.21650E+02 4.28438E+01 0.00000E+00
 -1       507 1.24800E+02 4.28438E+01 0.00000E+00
 -1       508 1.27800E+02 4.28438E+01 0.00000E+00
 -1       509 1.30800E+02 4.28438E+01 0.00000E+00
 -1       510 1.33800E+02 4.28438E+01 0.00000E+00
 -1       511 1.36800E+02 4.28438E+01 0.00000E+00
 -1       512 1.39800E+02 4.28438E+01 0.00000E+00
 -1       513 1.42302E+02 4.20219E+01 0.00000E+00
 -1       514 2.08740E+01 7.38350E+00 0.00000E+00
 -1       515 1.78740E+01 7.38350E+00 0.00000E+00
 -1       516 1.48740E+01 7.38350E+00 0.00000E+00
 -1       517 2.38740E+01 7.38350E+00 0.00000E+00
 -1       518 2.68740E+01 7.38350E+00 0.00000E+00
 -1       519 2.98740E+01 7.38350E+00 0.00000E+00
 -1       520 3.28740E+01 7.38350E+00 0.00000E+00
 -1       521 3.58740E+01 7.38350E+00 0.00000E+00
 -1       522 3.88740E+01 7.38350E+00 0.00000E+00
 -1       523 4.18740E+01 7.38350E+00 0.00000E+00
 -1       524 4.48740E+01 7.38350E+00 0.00000E+00
 -1       525 4.78740E+01 7.38350E+00 0.00000E+00
 -1       526 5.08740E+01 7.38350E+00 0.00000E+00
 -1       527 5.38740E+01 7.38350E+00 0.00000E+00
 -1       528 5.68740E+01 7.38350E+00 0.00000E+00
 -1       529 5.98740E+01 7.38350E+00 0.00000E+00
 -1       530 6.28740E+01 7.38350E+00 0.00000E+00
 -1       531 6.58740E+01 7.38350E+00 0.00000E+00
 -1       532 6.88740E+01 7.38350E+00 0.00000E+00
 -1       533 7.18740E+01 7.38350E+00 0.00000E+00
 -1       534 7.48740E+01 7.38350E+00 0.00000E+00
 -1       535 7.78740E+01 7.38350E+00 0.00000E+00
 -1       536 8.08740E+01 7.38350E+00 0.00000E+00
 -1       537 8.38740E+01 7.38350E+00 0.00000E+00
 -1       538 8.68740E+01 7.38350E+00 0.00000E+00
 -1       539 8.98740E+01 7.38350E+00 0.00000E+00
 -1       540 9.28740E+01 7.38350E+00 0.00000E+00
 -1       541 9.58740E+01 7.38350E+00 0.00000E+00
 -1       542 9.88740E+01 7.38350E+00 0.00000E+00
 -1       543 1.01874E+02 7.38350E+00 0.00000E+00
 -1       544 1.04874E+02 7.38350E+00 0.00000E+00
 -1       545 1.07874E+02 7.38350E+00 0.00000E+00
 -1       546 1.10874E+02 7.38350E+00 0.00000E+00
 -1       547 1.13874E+02 7.38350E+00 0.00000E+00
 -1       548 1.16874E+02 7.38350E+00 0.00000E+00
 -1       549 1.19874E+02 7.38350E+00 0.00000E+00
 -1       550 1.22874E+02 7.38350E+00 0.00000E+00
 -1       551 1.25874E+02 7.38350E+00 0.00000E+00
 -1       552 1.28874E+02 7.38350E+00 0.00000E+00
 -1       553 1.31874E+02 7.38350E+00 0.00000E+00
 -1       554 1.34874E+02 7.38350E+00 0.00000E+00
 -1       555 1.37874E+02 7.38350E+00 0.00000E+00
 -1       556 1.40874E+02 7.38350E+00 0.00000E+00
 -1       557 1.42206E+02 1.61750E+01 0.00000E+00
 -1       558 1.42206E+02 1.32750E+01 0.00000E+00
 -1       559 1.42206E+02 1.03250E+01 0.00000E+00
 -1       560 4.40388E+01 3.17363E+01 0.00000E+00
 -1       561 1.42206E+02 1.91250E+01 0.00000E+00
 -1       562 1.42206E+02 2.20750E+01 0.00000E+00
 -1       563 1.42206E+02 2.50250E+01 0.00000E+00
 -1       564 1.42206E+02 2.79750E+01 0.00000E+00
 -1       565 1.42206E+02 3.08750E+01 0.00000E+00
 -1       566 1.42206E+02 3.38250E+01 0.00000E+00
 -1       567 1.42206E+02 3.67750E+01 0.00000E+00
 -1       568 1.42254E+02 3.93985E+01 0.00000E+00
 -1       569 4.24461E+01 4.28519E+01 0.00000E+00
 -1       570 6.40166E+01 3.97082E+01 0.00000E+00
 -1       571 6.14318E+01 3.06616E+01 0.00000E+00
 -1       572 4.18215E+01 3.55712E+01 0.00000E+00
 -1       573 6.43500E+01 4.31790E+01 0.00000E+00
 -1       574 6.35599E+01 3.49277E+01 0.00000E+00
 -1       575 4.99738E+01 2.74138E+01 0.00000E+00
 -1       576 7.79400E+00 2.79000E+01 0.00000E+00
 -1       577 5.69128E+01 2.76974E+01 0.00000E+00
 -1       578 4.75793E+01 2.80158E+01 0.00000E+00
 -1       579 4.30783E+01 3.35483E+01 0.00000E+00
 -1       580 4.17756E+01 3.78952E+01 0.00000E+00
 -1       581 6.33759E+01 4.22696E+01 0.00000E+00
 -1       582 4.52933E+01 2.98508E+01 0.00000E+00
 -1       583 6.38616E+01 3.74150E+01 0.00000E+00
 -1       584 5.51477E+01 2.72500E+01 0.00000E+00
 -1       585 7.79400E+00 3.67375E+01 0.00000E+00
 -1       586 1.05840E+01 6.04275E+00 0.00000E+00
 -1       587 4.15231E+01 4.16448E+01 0.00000E+00
 -1       588 1.27290E+01 6.71313E+00 0.00000E+00
 -1       589 5.38973E+01 2.62649E+01 0.00000E+00
 -1       590 4.10334E+01 3.93020E+01 0.00000E+00
 -1       591 7.85850E+00 3.92077E+01 0.00000E+00
 -1       592 5.89073E+01 2.68513E+01 0.00000E+00
 -1       593 1.03920E+01 2.05500E+01 0.00000E+00
 -1       594 1.03920E+01 2.35000E+01 0.00000E+00
 -1       595 1.03920E+01 1.46750E+01 0.00000E+00
 -1       596 1.03920E+01 1.17250E+01 0.00000E+00
 -1       597 1.02135E+01 7.68962E+00 0.00000E+00
 -1       598 1.39206E+02 1.03250E+01 0.00000E+00
 -1       599 3.86731E+01 4.09295E+01 0.00000E+00
 -1       600 1.21500E+01 3.96080E+01 0.00000E+00
 -1       601 1.51500E+01 3.96080E+01 0.00000E+00
 -1       602 1.83000E+01 3.96080E+01 0.00000E+00
 -1       603 2.13000E+01 3.96080E+01 0.00000E+00
 -1       604 2.43000E+01 3.96080E+01 0.00000E+00
 -1       605 2.73000E+01 3.96080E+01 0.00000E+00
 -1       606 3.03000E+01 3.96080E+01 0.00000E+00
 -1       607 3.33000E+01 3.96080E+01 0.00000E+00
 -1       608 3.63000E+01 3.96080E+01 0.00000E+00
 -1       609 6.14593E+01 2.83249E+01 0.00000E+00
 -1       610 1.00042E+01 3.94079E+01 0.00000E+00
 -1       611 1.39608E+02 1.47250E+01 0.00000E+00
 -1       612 6.88500E+01 4.06260E+01 0.00000E+00
 -1       613 7.18500E+01 4.04584E+01 0.00000E+00
 -1       614 7.48500E+01 4.04584E+01 0.00000E+00
 -1       615 7.80000E+01 4.04584E+01 0.00000E+00
 -1       616 8.10000E+01 4.04584E+01 0.00000E+00
 -1       617 8.40000E+01 4.04584E+01 0.00000E+00
 -1       618 8.70000E+01 4.04584E+01 0.00000E+00
 -1       619 9.00000E+01 4.04584E+01 0.00000E+00
 -1       620 9.30000E+01 4.04584E+01 0.00000E+00
 -1       621 9.60000E+01 4.04584E+01 0.00000E+00
 -1       622 9.90000E+01 4.04584E+01 0.00000E+00
 -1       623 1.02150E+02 4.04584E+01 0.00000E+00
 -1       624 1.05150E+02 4.04584E+01 0.00000E+00
 -1       625 1.08150E+02 4.04584E+01 0.00000E+00
 -1       626 1.11150E+02 4.04584E+01 0.00000E+00
 -1       627 1.14150E+02 4.04584E+01 0.00000E+00
 -1       628 1.17150E+02 4.04584E+01 0.00000E+00
 -1       629 1.20150E+02 4.04584E+01 0.00000E+00
 -1       630 1.23300E+02 4.04584E+01 0.00000E+00
 -1       631 1.26300E+02 4.04584E+01 0.00000E+00
 -1       632 1.29300E+02 4.04584E+01 0.00000E+00
 -1       633 1.32300E+02 4.04584E+01 0.00000E+00
 -1       634 1.35300E+02 4.04584E+01 0.00000E+00
 -1       635 1.38300E+02 4.04584E+01 0.00000E+00
 -1       636 1.40277E+02 3.99284E+01 0.00000E+00
 -1       637 1.93740E+01 9.98150E+00 0.00000E+00
 -1       638 2.23740E+01 9.98150E+00 0.00000E+00
 -1       639 1.63740E+01 9.98150E+00 0.00000E+00
 -1       640 2.83740E+01 9.98150E+00 0.00000E+00
 -1       641 3.13740E+01 9.98150E+00 0.00000E+00
 -1       642 3.43740E+01 9.98150E+00 0.00000E+00
 -1       643 3.73740E+01 9.98150E+00 0.00000E+00
 -1       644 4.03740E+01 9.98150E+00 0.00000E+00
 -1       645 4.33740E+01 9.98150E+00 0.00000E+00
 -1       646 4.63740E+01 9.98150E+00 0.00000E+00
 -1       647 4.93740E+01 9.98150E+00 0.00000E+00
 -1       648 5.23740E+01 9.98150E+00 0.00000E+00
 -1       649 5.53740E+01 9.98150E+00 0.00000E+00
 -1       650 5.83740E+01 9.98150E+00 0.00000E+00
 -1       651 6.13740E+01 9.98150E+00 0.00000E+00
 -1       652 6.43740E+01 9.98150E+00 0.00000E+00
 -1       653 6.73740E+01 9.98150E+00 0.00000E+00
 -1       654 7.03740E+01 9.98150E+00 0.00000E+00
 -1       655 7.33740E+01 9.98150E+00 0.00000E+00
 -1       656 7.63740E+01 9.98150E+00 0.00000E+00
 -1       657 7.93740E+01 9.98150E+00 0.00000E+00
 -1       658 8.23740E+01 9.98150E+00 0.00000E+00
 -1       659 8.53740E+01 9.98150E+00 0.00000E+00
 -1       660 8.83740E+01 9.98150E+00 0.00000E+00
 -1       661 9.13740E+01 9.98150E+00 0.00000E+00
 -1       662 9.43740E+01 9.98150E+00 0.00000E+00
 -1       663 9.73740E+01 9.98150E+00 0.00000E+00
 -1       664 1.00374E+02 9.98150E+00 0.00000E+00
 -1       665 1.03374E+02 9.98150E+00 0.00000E+00
 -1       666 1.06374E+02 9.98150E+00 0.00000E+00
 -1       667 1.09374E+02 9.98150E+00 0.00000E+00
 -1       668 1.12374E+02 9.98150E+00 0.00000E+00
 -1       669 1.15374E+02 9.98150E+00 0.00000E+00
 -1       670 1.18374E+02 9.98150E+00 0.00000E+00
 -1       671 1.21374E+02 9.98150E+00 0.00000E+00
 -1       672 1.24374E+02 9.98150E+00 0.00000E+00
 -1       673 1.27374E+02 9.98150E+00 0.00000E+00
 -1       674 1.30374E+02 9.98150E+00 0.00000E+00
 -1       675 1.33374E+02 9.98150E+00 0.00000E+00
 -1       676 1.36290E+02 1.01532E+01 0.00000E+00
 -1       677 1.39608E+02 2.06000E+01 0.00000E+00
 -1       678 1.39608E+02 1.76625E+01 0.00000E+00
 -1       679 1.39608E+02 2.65000E+01 0.00000E+00
 -1       680 1.39608E+02 2.94000E+01 0.00000E+00
 -1       681 1.39608E+02 3.23500E+01 0.00000E+00
 -1       682 1.39608E+02 3.53000E+01 0.00000E+00
 -1       683 6.37586E+01 3.03253E+01 0.00000E+00
 -1       684 6.51617E+01 3.31222E+01 0.00000E+00
 -1       685 4.17471E+01 3.16821E+01 0.00000E+00
 -1       686 6.59847E+01 3.84233E+01 0.00000E+00
 -1       687 4.04902E+01 3.37050E+01 0.00000E+00
 -1       688 3.99162E+01 3.66960E+01 0.00000E+00
 -1       689 5.14696E+01 2.56701E+01 0.00000E+00
 -1       690 1.03920E+01 1.76125E+01 0.00000E+00
 -1       691 2.53740E+01 9.98150E+00 0.00000E+00
 -1       692 6.56830E+01 3.59360E+01 0.00000E+00
 -1       693 1.03920E+01 3.23250E+01 0.00000E+00
 -1       694 4.30016E+01 2.97966E+01 0.00000E+00
 -1       695 4.82767E+01 2.57264E+01 0.00000E+00
 -1       696 4.50480E+01 2.72038E+01 0.00000E+00
 -1       697 1.39608E+02 2.35500E+01 0.00000E+00
 -1       698 6.56410E+01 4.11404E+01 0.00000E+00
 -1       699 5.64928E+01 2.56487E+01 0.00000E+00
 -1       700 1.03920E+01 2.64500E+01 0.00000E+00
 -1       701 5.52424E+01 2.46636E+01 0.00000E+00
 -1       702 1.39943E+02 3.76142E+01 0.00000E+00
 -1       703 1.33741E+01 9.98153E+00 0.00000E+00
 -1       704 1.03920E+01 3.52625E+01 0.00000E+00
 -1       705 3.91741E+01 3.81028E+01 0.00000E+00
 -1       706 1.03920E+01 2.93875E+01 0.00000E+00
 -1       707 1.29900E+01 1.32000E+01 0.00000E+00
 -1       708 5.28146E+01 2.40688E+01 0.00000E+00
 -1       709 1.37010E+02 3.08750E+01 0.00000E+00
 -1       710 1.67250E+01 3.70100E+01 0.00000E+00
 -1       711 1.97250E+01 3.70100E+01 0.00000E+00
 -1       712 2.27250E+01 3.70100E+01 0.00000E+00
 -1       713 2.57250E+01 3.70100E+01 0.00000E+00
 -1       714 2.87250E+01 3.70100E+01 0.00000E+00
 -1       715 3.17250E+01 3.70100E+01 0.00000E+00
 -1       716 3.47250E+01 3.70100E+01 0.00000E+00
 -1       717 6.77028E+01 3.69529E+01 0.00000E+00
 -1       718 7.64250E+01 3.78604E+01 0.00000E+00
 -1       719 7.94250E+01 3.78604E+01 0.00000E+00
 -1       720 8.24250E+01 3.78604E+01 0.00000E+00
 -1       721 8.54250E+01 3.78604E+01 0.00000E+00
 -1       722 8.84250E+01 3.78604E+01 0.00000E+00
 -1       723 9.14250E+01 3.78604E+01 0.00000E+00
 -1       724 9.44250E+01 3.78604E+01 0.00000E+00
 -1       725 9.74250E+01 3.78604E+01 0.00000E+00
 -1       726 1.00575E+02 3.78604E+01 0.00000E+00
 -1       727 1.03575E+02 3.78604E+01 0.00000E+00
 -1       728 1.06575E+02 3.78604E+01 0.00000E+00
 -1       729 1.09575E+02 3.78604E+01 0.00000E+00
 -1       730 1.12575E+02 3.78604E+01 0.00000E+00
 -1       731 1.15575E+02 3.78604E+01 0.00000E+00
 -1       732 1.18575E+02 3.78604E+01 0.00000E+00
 -1       733 1.21725E+02 3.78604E+01 0.00000E+00
 -1       734 1.24725E+02 3.78604E+01 0.00000E+00
 -1       735 1.27725E+02 3.78604E+01 0.00000E+00
 -1       736 1.30725E+02 3.78604E+01 0.00000E+00
 -1       737 1.33725E+02 3.78604E+01 0.00000E+00
 -1       738 1.36725E+02 3.78604E+01 0.00000E+00
 -1       739 2.08740E+01 1.25795E+01 0.00000E+00
 -1       740 1.78740E+01 1.25795E+01 0.00000E+00
 -1       741 3.28740E+01 1.25795E+01 0.00000E+00
 -1       742 2.98740E+01 1.25795E+01 0.00000E+00
 -1       743 3.88740E+01 1.25795E+01 0.00000E+00
 -1       744 4.18740E+01 1.25795E+01 0.00000E+00
 -1       745 4.48740E+01 1.25795E+01 0.00000E+00
 -1       746 4.78740E+01 1.25795E+01 0.00000E+00
 -1       747 5.08740E+01 1.25795E+01 0.00000E+00
 -1       748 5.38740E+01 1.25795E+01 0.00000E+00
 -1       749 5.68740E+01 1.25795E+01 0.00000E+00
 -1       750 5.98740E+01 1.25795E+01 0.00000E+00
 -1       751 6.28740E+01 1.25795E+01 0.00000E+00
 -1       752 6.58740E+01 1.25795E+01 0.00000E+00
 -1       753 6.88740E+01 1.25795E+01 0.00000E+00
 -1       754 7.18740E+01 1.25795E+01 0.00000E+00
 -1       755 7.48740E+01 1.25795E+01 0.00000E+00
 -1       756 7.78740E+01 1.25795E+01 0.00000E+00
 -1       757 8.08740E+01 1.25795E+01 0.00000E+00
 -1       758 8.38740E+01 1.25795E+01 0.00000E+00
 -1       759 8.68740E+01 1.25795E+01 0.00000E+00
 -1       760 8.98740E+01 1.25795E+01 0.00000E+00
 -1       761 9.28740E+01 1.25795E+01 0.00000E+00
 -1       762 9.58740E+01 1.25795E+01 0.00000E+00
 -1       763 9.88740E+01 1.25795E+01 0.00000E+00
 -1       764 1.01874E+02 1.25795E+01 0.00000E+00
 -1       765 1.04874E+02 1.25795E+01 0.00000E+00
 -1       766 1.07874E+02 1.25795E+01 0.00000E+00
 -1       767 1.10874E+02 1.25795E+01 0.00000E+00
 -1       768 1.13874E+02 1.25795E+01 0.00000E+00
 -1       769 1.16874E+02 1.25795E+01 0.00000E+00
 -1       770 1.19874E+02 1.25795E+01 0.00000E+00
 -1       771 1.22874E+02 1.25795E+01 0.00000E+00
 -1       772 1.25874E+02 1.25795E+01 0.00000E+00
 -1       773 1.28874E+02 1.25795E+01 0.00000E+00
 -1       774 1.31874E+02 1.25795E+01 0.00000E+00
 -1       775 7.02170E+01 3.81605E+01 0.00000E+00
 -1       776 1.37010E+02 3.38250E+01 0.00000E+00
 -1       777 1.37010E+02 2.79750E+01 0.00000E+00
 -1       778 1.36692E+02 1.45533E+01 0.00000E+00
 -1       779 6.12085E+01 2.58125E+01 0.00000E+00
 -1       780 4.98370E+01 2.36483E+01 0.00000E+00
 -1       781 1.37010E+02 2.20750E+01 0.00000E+00
 -1       782 3.97596E+01 3.56342E+01 0.00000E+00
 -1       783 3.58740E+01 1.25795E+01 0.00000E+00
 -1       784 7.34250E+01 3.78604E+01 0.00000E+00
 -1       785 3.92348E+01 3.15231E+01 0.00000E+00
 -1       786 6.77678E+01 3.40945E+01 0.00000E+00
 -1       787 1.37010E+02 2.50250E+01 0.00000E+00
 -1       788 1.37250E+01 3.70100E+01 0.00000E+00
 -1       789 4.04893E+01 2.96377E+01 0.00000E+00
 -1       790 6.40647E+01 2.76519E+01 0.00000E+00
 -1       791 1.01981E+01 3.73352E+01 0.00000E+00
 -1       792 5.85394E+01 2.45648E+01 0.00000E+00
 -1       793 4.56698E+01 2.42960E+01 0.00000E+00
 -1       794 1.29900E+01 2.20250E+01 0.00000E+00
 -1       795 6.64425E+01 3.07294E+01 0.00000E+00
 -1       796 4.24154E+01 2.72300E+01 0.00000E+00
 -1       797 3.85210E+01 3.40621E+01 0.00000E+00
 -1       798 2.38740E+01 1.25795E+01 0.00000E+00
 -1       799 1.36692E+02 1.74907E+01 0.00000E+00
 -1       800 2.68740E+01 1.25795E+01 0.00000E+00
 -1       801 1.34283E+02 1.35664E+01 0.00000E+00
 -1       802 1.36851E+02 1.97829E+01 0.00000E+00
 -1       803 1.48741E+01 1.25795E+01 0.00000E+00
 -1       804 4.72301E+01 2.22179E+01 0.00000E+00
 -1       805 1.29900E+01 3.37938E+01 0.00000E+00
 -1       806 3.78096E+01 3.64642E+01 0.00000E+00
 -1       807 6.67486E+01 2.80559E+01 0.00000E+00
 -1       808 1.29900E+01 1.90875E+01 0.00000E+00
 -1       809 1.29900E+01 1.61375E+01 0.00000E+00
 -1       810 1.29900E+01 3.08563E+01 0.00000E+00
 -1       811 5.72890E+01 2.35796E+01 0.00000E+00
 -1       812 1.29900E+01 2.49750E+01 0.00000E+00
 -1       813 4.30372E+01 2.43222E+01 0.00000E+00
 -1       814 1.52250E+01 3.44120E+01 0.00000E+00
 -1       815 2.12250E+01 3.44120E+01 0.00000E+00
 -1       816 2.42250E+01 3.44120E+01 0.00000E+00
 -1       817 2.72250E+01 3.44120E+01 0.00000E+00
 -1       818 3.02250E+01 3.44120E+01 0.00000E+00
 -1       819 3.32250E+01 3.44120E+01 0.00000E+00
 -1       820 7.49250E+01 3.52624E+01 0.00000E+00
 -1       821 8.09250E+01 3.52624E+01 0.00000E+00
 -1       822 8.39250E+01 3.52624E+01 0.00000E+00
 -1       823 8.69250E+01 3.52624E+01 0.00000E+00
 -1       824 8.99250E+01 3.52624E+01 0.00000E+00
 -1       825 9.29250E+01 3.52624E+01 0.00000E+00
 -1       826 9.59250E+01 3.52624E+01 0.00000E+00
 -1       827 9.90750E+01 3.52624E+01 0.00000E+00
 -1       828 1.02075E+02 3.52624E+01 0.00000E+00
 -1       829 1.05075E+02 3.52624E+01 0.00000E+00
 -1       830 1.08075E+02 3.52624E+01 0.00000E+00
 -1       831 1.11075E+02 3.52624E+01 0.00000E+00
 -1       832 1.14075E+02 3.52624E+01 0.00000E+00
 -1       833 1.17075E+02 3.52624E+01 0.00000E+00
 -1       834 1.20225E+02 3.52624E+01 0.00000E+00
 -1       835 1.23225E+02 3.52624E+01 0.00000E+00
 -1       836 1.26225E+02 3.52624E+01 0.00000E+00
 -1       837 1.29225E+02 3.52624E+01 0.00000E+00
 -1       838 1.32225E+02 3.52624E+01 0.00000E+00
 -1       839 1.34617E+02 3.45437E+01 0.00000E+00
 -1       840 5.16360E+01 2.16625E+01 0.00000E+00
 -1       841 4.33740E+01 1.51775E+01 0.00000E+00
 -1       842 4.03740E+01 1.51775E+01 0.00000E+00
 -1       843 4.93740E+01 1.51775E+01 0.00000E+00
 -1       844 5.23740E+01 1.51775E+01 0.00000E+00
 -1       845 5.53740E+01 1.51775E+01 0.00000E+00
 -1       846 5.83740E+01 1.51775E+01 0.00000E+00
 -1       847 6.13740E+01 1.51775E+01 0.00000E+00
 -1       848 6.43740E+01 1.51775E+01 0.00000E+00
 -1       849 6.73740E+01 1.51775E+01 0.00000E+00
 -1       850 7.03740E+01 1.51775E+01 0.00000E+00
 -1       851 7.33740E+01 1.51775E+01 0.00000E+00
 -1       852 7.63740E+01 1.51775E+01 0.00000E+00
 -1       853 7.93740E+01 1.51775E+01 0.00000E+00
 -1       854 8.23740E+01 1.51775E+01 0.00000E+00
 -1       855 8.53740E+01 1.51775E+01 0.00000E+00
 -1       856 8.83740E+01 1.51775E+01 0.00000E+00
 -1       857 9.13740E+01 1.51775E+01 0.00000E+00
 -1       858 9.43740E+01 1.51775E+01 0.00000E+00
 -1       859 9.73740E+01 1.51775E+01 0.00000E+00
 -1       860 1.00374E+02 1.51775E+01 0.00000E+00
 -1       861 1.03374E+02 1.51775E+01 0.00000E+00
 -1       862 1.06374E+02 1.51775E+01 0.00000E+00
 -1       863 1.09374E+02 1.51775E+01 0.00000E+00
 -1       864 1.12374E+02 1.51775E+01 0.00000E+00
 -1       865 1.15374E+02 1.51775E+01 0.00000E+00
 -1       866 1.18374E+02 1.51775E+01 0.00000E+00
 -1       867 1.21374E+02 1.51775E+01 0.00000E+00
 -1       868 1.24374E+02 1.51775E+01 0.00000E+00
 -1       869 1.27374E+02 1.51775E+01 0.00000E+00
 -1       870 1.30374E+02 1.51775E+01 0.00000E+00
 -1       871 1.34617E+02 3.15937E+01 0.00000E+00
 -1       872 6.38374E+01 2.48676E+01 0.00000E+00
 -1       873 7.15790E+01 3.54238E+01 0.00000E+00
 -1       874 1.34617E+02 2.86937E+01 0.00000E+00
 -1       875 1.63740E+01 1.51775E+01 0.00000E+00
 -1       876 4.63740E+01 1.51775E+01 0.00000E+00
 -1       877 3.94236E+01 2.68109E+01 0.00000E+00
 -1       878 3.13740E+01 1.51775E+01 0.00000E+00
 -1       879 5.44765E+01 2.25376E+01 0.00000E+00
 -1       880 1.29900E+01 2.79188E+01 0.00000E+00
 -1       881 1.93740E+01 1.51775E+01 0.00000E+00
 -1       882 6.93246E+01 3.15379E+01 0.00000E+00
 -1       883 7.79250E+01 3.52624E+01 0.00000E+00
 -1       884 3.81691E+01 2.86964E+01 0.00000E+00
 -1       885 6.08132E+01 2.31795E+01 0.00000E+00
 -1       886 1.82250E+01 3.44120E+01 0.00000E+00
 -1       887 1.46820E+01 1.56575E+01 0.00000E+00
 -1       888 3.63601E+01 3.47286E+01 0.00000E+00
 -1       889 3.70739E+01 3.21896E+01 0.00000E+00
 -1       890 6.65213E+01 2.52716E+01 0.00000E+00
 -1       891 4.00455E+01 2.39031E+01 0.00000E+00
 -1       892 1.34283E+02 1.65039E+01 0.00000E+00
 -1       893 2.83740E+01 1.51775E+01 0.00000E+00
 -1       894 4.45975E+01 2.22441E+01 0.00000E+00
 -1       895 3.73740E+01 1.51775E+01 0.00000E+00
 -1       896 1.52250E+01 3.14745E+01 0.00000E+00
 -1       897 3.43740E+01 1.51775E+01 0.00000E+00
 -1       898 1.34339E+02 2.11087E+01 0.00000E+00
 -1       899 1.34617E+02 2.57437E+01 0.00000E+00
 -1       900 7.05836E+01 3.40568E+01 0.00000E+00
 -1       901 4.90291E+01 2.02321E+01 0.00000E+00
 -1       902 5.95628E+01 2.21944E+01 0.00000E+00
 -1       903 2.23740E+01 1.51775E+01 0.00000E+00
 -1       904 6.96307E+01 2.88644E+01 0.00000E+00
 -1       905 6.99526E+01 3.55741E+01 0.00000E+00
 -1       906 1.55880E+01 2.35000E+01 0.00000E+00
 -1       907 1.55880E+01 2.05625E+01 0.00000E+00
 -1       908 1.34478E+02 2.34262E+01 0.00000E+00
 -1       909 8.24250E+01 3.26644E+01 0.00000E+00
 -1       910 2.57250E+01 3.18140E+01 0.00000E+00
 -1       911 2.87250E+01 3.18140E+01 0.00000E+00
 -1       912 3.17250E+01 3.18140E+01 0.00000E+00
 -1       913 4.18740E+01 1.77755E+01 0.00000E+00
 -1       914 3.43995E+01 3.20018E+01 0.00000E+00
 -1       915 8.54250E+01 3.26644E+01 0.00000E+00
 -1       916 8.84250E+01 3.26644E+01 0.00000E+00
 -1       917 9.14250E+01 3.26644E+01 0.00000E+00
 -1       918 9.44250E+01 3.26644E+01 0.00000E+00
 -1       919 9.75750E+01 3.26644E+01 0.00000E+00
 -1       920 1.00575E+02 3.26644E+01 0.00000E+00
 -1       921 1.03575E+02 3.26644E+01 0.00000E+00
 -1       922 1.06575E+02 3.26644E+01 0.00000E+00
 -1       923 1.09575E+02 3.26644E+01 0.00000E+00
 -1       924 1.12575E+02 3.26644E+01 0.00000E+00
 -1       925 1.15575E+02 3.26644E+01 0.00000E+00
 -1       926 1.18725E+02 3.26644E+01 0.00000E+00
 -1       927 1.21725E+02 3.26644E+01 0.00000E+00
 -1       928 1.24725E+02 3.26644E+01 0.00000E+00
 -1       929 1.27725E+02 3.26644E+01 0.00000E+00
 -1       930 1.30725E+02 3.26644E+01 0.00000E+00
 -1       931 1.32671E+02 3.21291E+01 0.00000E+00
 -1       932 5.38740E+01 1.77755E+01 0.00000E+00
 -1       933 5.08740E+01 1.77755E+01 0.00000E+00
 -1       934 5.98740E+01 1.77755E+01 0.00000E+00
 -1       935 6.28740E+01 1.77755E+01 0.00000E+00
 -1       936 6.58740E+01 1.77755E+01 0.00000E+00
 -1       937 6.88740E+01 1.77755E+01 0.00000E+00
 -1       938 7.18740E+01 1.77755E+01 0.00000E+00
 -1       939 7.48740E+01 1.77755E+01 0.00000E+00
 -1       940 7.78740E+01 1.77755E+01 0.00000E+00
 -1       941 8.08740E+01 1.77755E+01 0.00000E+00
 -1       942 8.38740E+01 1.77755E+01 0.00000E+00
 -1       943 8.68740E+01 1.77755E+01 0.00000E+00
 -1       944 8.98740E+01 1.77755E+01 0.00000E+00
 -1       945 9.28740E+01 1.77755E+01 0.00000E+00
 -1       946 9.58740E+01 1.77755E+01 0.00000E+00
 -1       947 9.88740E+01 1.77755E+01 0.00000E+00
 -1       948 1.01874E+02 1.77755E+01 0.00000E+00
 -1       949 1.04874E+02 1.77755E+01 0.00000E+00
 -1       950 1.07874E+02 1.77755E+01 0.00000E+00
 -1       951 1.10874E+02 1.77755E+01 0.00000E+00
 -1       952 1.13874E+02 1.77755E+01 0.00000E+00
 -1       953 1.16874E+02 1.77755E+01 0.00000E+00
 -1       954 1.19874E+02 1.77755E+01 0.00000E+00
 -1       955 1.22874E+02 1.77755E+01 0.00000E+00
 -1       956 1.25874E+02 1.77755E+01 0.00000E+00
 -1       957 1.28874E+02 1.77755E+01 0.00000E+00
 -1       958 2.53740E+01 1.51775E+01 0.00000E+00
 -1       959 5.38211E+01 1.96172E+01 0.00000E+00
 -1       960 7.22780E+01 3.16359E+01 0.00000E+00
 -1       961 1.34180E+02 1.88166E+01 0.00000E+00
 -1       962 3.66334E+01 2.63145E+01 0.00000E+00
 -1       963 1.55880E+01 2.64438E+01 0.00000E+00
 -1       964 1.54065E+01 2.89591E+01 0.00000E+00
 -1       965 6.35696E+01 2.17943E+01 0.00000E+00
 -1       966 1.32671E+02 2.92291E+01 0.00000E+00
 -1       967 5.66336E+01 2.06592E+01 0.00000E+00
 -1       968 1.78740E+01 1.77755E+01 0.00000E+00
 -1       969 1.51350E+01 1.81100E+01 0.00000E+00
 -1       970 3.55164E+01 2.91581E+01 0.00000E+00
 -1       971 5.68740E+01 1.77755E+01 0.00000E+00
 -1       972 7.64250E+01 3.26644E+01 0.00000E+00
 -1       973 2.27250E+01 3.18140E+01 0.00000E+00
 -1       974 1.97250E+01 3.18140E+01 0.00000E+00
 -1       975 7.94250E+01 3.26644E+01 0.00000E+00
 -1       976 7.32734E+01 3.30028E+01 0.00000E+00
 -1       977 3.88740E+01 1.77755E+01 0.00000E+00
 -1       978 4.48740E+01 1.77755E+01 0.00000E+00
 -1       979 6.62535E+01 2.21984E+01 0.00000E+00
 -1       980 3.72553E+01 2.34067E+01 0.00000E+00
 -1       981 2.98740E+01 1.77755E+01 0.00000E+00
 -1       982 4.16058E+01 2.18251E+01 0.00000E+00
 -1       983 1.31667E+02 2.01424E+01 0.00000E+00
 -1       984 4.62376E+01 1.95110E+01 0.00000E+00
 -1       985 1.32671E+02 2.62791E+01 0.00000E+00
 -1       986 1.81860E+01 2.49719E+01 0.00000E+00
 -1       987 6.94034E+01 2.60801E+01 0.00000E+00
 -1       988 4.78740E+01 1.77755E+01 0.00000E+00
 -1       989 2.08740E+01 1.77755E+01 0.00000E+00
 -1       990 1.81860E+01 2.20344E+01 0.00000E+00
 -1       991 1.31527E+02 1.82960E+01 0.00000E+00
 -1       992 3.28740E+01 1.77755E+01 0.00000E+00
 -1       993 1.31807E+02 2.24599E+01 0.00000E+00
 -1       994 6.23192E+01 2.08092E+01 0.00000E+00
 -1       995 7.54296E+01 3.12975E+01 0.00000E+00
 -1       996 2.72250E+01 2.92160E+01 0.00000E+00
 -1       997 3.02250E+01 2.92160E+01 0.00000E+00
 -1       998 6.73740E+01 2.03735E+01 0.00000E+00
 -1       999 8.69250E+01 3.00664E+01 0.00000E+00
 -1      1000 8.99250E+01 3.00664E+01 0.00000E+00
 -1      1001 9.29250E+01 3.00664E+01 0.00000E+00
 -1      1002 9.60750E+01 3.00664E+01 0.00000E+00
 -1      1003 9.90750E+01 3.00664E+01 0.00000E+00
 -1      1004 1.02075E+02 3.00664E+01 0.00000E+00
 -1      1005 1.05075E+02 3.00664E+01 0.00000E+00
 -1      1006 1.08075E+02 3.00664E+01 0.00000E+00
 -1      1007 1.11075E+02 3.00664E+01 0.00000E+00
 -1      1008 1.14075E+02 3.00664E+01 0.00000E+00
 -1      1009 1.17225E+02 3.00664E+01 0.00000E+00
 -1      1010 1.20225E+02 3.00664E+01 0.00000E+00
 -1      1011 1.23225E+02 3.00664E+01 0.00000E+00
 -1      1012 1.26225E+02 3.00664E+01 0.00000E+00
 -1      1013 1.29225E+02 3.00664E+01 0.00000E+00
 -1      1014 1.30948E+02 2.96478E+01 0.00000E+00
 -1      1015 7.03740E+01 2.03735E+01 0.00000E+00
 -1      1016 7.33740E+01 2.03735E+01 0.00000E+00
 -1      1017 7.63740E+01 2.03735E+01 0.00000E+00
 -1      1018 7.93740E+01 2.03735E+01 0.00000E+00
 -1      1019 8.23740E+01 2.03735E+01 0.00000E+00
 -1      1020 8.53740E+01 2.03735E+01 0.00000E+00
 -1      1021 8.83740E+01 2.03735E+01 0.00000E+00
 -1      1022 9.13740E+01 2.03735E+01 0.00000E+00
 -1      1023 9.43740E+01 2.03735E+01 0.00000E+00
 -1      1024 9.73740E+01 2.03735E+01 0.00000E+00
 -1      1025 1.00374E+02 2.03735E+01 0.00000E+00
 -1      1026 1.03374E+02 2.03735E+01 0.00000E+00
 -1      1027 1.06374E+02 2.03735E+01 0.00000E+00
 -1      1028 1.09374E+02 2.03735E+01 0.00000E+00
 -1      1029 1.12374E+02 2.03735E+01 0.00000E+00
 -1      1030 1.15374E+02 2.03735E+01 0.00000E+00
 -1      1031 1.18374E+02 2.03735E+01 0.00000E+00
 -1      1032 1.21374E+02 2.03735E+01 0.00000E+00
 -1      1033 1.24374E+02 2.03735E+01 0.00000E+00
 -1      1034 1.27374E+02 2.03735E+01 0.00000E+00
 -1      1035 3.58740E+01 1.77755E+01 0.00000E+00
 -1      1036 2.68740E+01 1.77755E+01 0.00000E+00
 -1      1037 1.80045E+01 2.74872E+01 0.00000E+00
 -1      1038 3.28707E+01 2.91871E+01 0.00000E+00
 -1      1039 2.42250E+01 2.92160E+01 0.00000E+00
 -1      1040 1.32239E+02 2.43695E+01 0.00000E+00
 -1      1041 7.28330E+01 2.84556E+01 0.00000E+00
 -1      1042 8.39250E+01 3.00664E+01 0.00000E+00
 -1      1043 2.12250E+01 2.92160E+01 0.00000E+00
 -1      1044 1.83158E+01 2.90876E+01 0.00000E+00
 -1      1045 8.09250E+01 3.00664E+01 0.00000E+00
 -1      1046 4.03740E+01 2.03735E+01 0.00000E+00
 -1      1047 2.38740E+01 1.77755E+01 0.00000E+00
 -1      1048 3.44038E+01 2.43173E+01 0.00000E+00
 -1      1049 1.30948E+02 2.66978E+01 0.00000E+00
 -1      1050 1.29144E+02 2.14572E+01 0.00000E+00
 -1      1051 3.36372E+01 2.67522E+01 0.00000E+00
 -1      1052 2.83740E+01 2.03735E+01 0.00000E+00
 -1      1053 2.07840E+01 2.35031E+01 0.00000E+00
 -1      1054 4.31898E+01 1.95408E+01 0.00000E+00
 -1      1055 7.79250E+01 3.00664E+01 0.00000E+00
 -1      1056 3.13740E+01 2.03735E+01 0.00000E+00
 -1      1057 2.06025E+01 2.60185E+01 0.00000E+00
 -1      1058 7.18740E+01 2.29715E+01 0.00000E+00
 -1      1059 1.29576E+02 2.33667E+01 0.00000E+00
 -1      1060 9.14250E+01 2.74684E+01 0.00000E+00
 -1      1061 9.45750E+01 2.74684E+01 0.00000E+00
 -1      1062 9.75750E+01 2.74684E+01 0.00000E+00
 -1      1063 1.00575E+02 2.74684E+01 0.00000E+00
 -1      1064 1.03575E+02 2.74684E+01 0.00000E+00
 -1      1065 1.06575E+02 2.74684E+01 0.00000E+00
 -1      1066 1.09575E+02 2.74684E+01 0.00000E+00
 -1      1067 1.12575E+02 2.74684E+01 0.00000E+00
 -1      1068 1.15725E+02 2.74684E+01 0.00000E+00
 -1      1069 1.18725E+02 2.74684E+01 0.00000E+00
 -1      1070 1.21725E+02 2.74684E+01 0.00000E+00
 -1      1071 1.24725E+02 2.74684E+01 0.00000E+00
 -1      1072 1.27725E+02 2.74684E+01 0.00000E+00
 -1      1073 1.29337E+02 2.70831E+01 0.00000E+00
 -1      1074 3.87481E+01 2.13042E+01 0.00000E+00
 -1      1075 7.53284E+01 2.72246E+01 0.00000E+00
 -1      1076 7.48740E+01 2.29715E+01 0.00000E+00
 -1      1077 7.78740E+01 2.29715E+01 0.00000E+00
 -1      1078 8.08740E+01 2.29715E+01 0.00000E+00
 -1      1079 8.38740E+01 2.29715E+01 0.00000E+00
 -1      1080 8.68740E+01 2.29715E+01 0.00000E+00
 -1      1081 8.98740E+01 2.29715E+01 0.00000E+00
 -1      1082 9.28740E+01 2.29715E+01 0.00000E+00
 -1      1083 9.58740E+01 2.29715E+01 0.00000E+00
 -1      1084 9.88740E+01 2.29715E+01 0.00000E+00
 -1      1085 1.01874E+02 2.29715E+01 0.00000E+00
 -1      1086 1.04874E+02 2.29715E+01 0.00000E+00
 -1      1087 1.07874E+02 2.29715E+01 0.00000E+00
 -1      1088 1.10874E+02 2.29715E+01 0.00000E+00
 -1      1089 1.13874E+02 2.29715E+01 0.00000E+00
 -1      1090 1.16874E+02 2.29715E+01 0.00000E+00
 -1      1091 1.19874E+02 2.29715E+01 0.00000E+00
 -1      1092 1.22874E+02 2.29715E+01 0.00000E+00
 -1      1093 1.25874E+02 2.29715E+01 0.00000E+00
 -1      1094 3.43740E+01 2.03735E+01 0.00000E+00
 -1      1095 6.89756E+01 2.35094E+01 0.00000E+00
 -1      1096 8.84250E+01 2.74684E+01 0.00000E+00
 -1      1097 2.27250E+01 2.66180E+01 0.00000E+00
 -1      1098 8.54250E+01 2.74684E+01 0.00000E+00
 -1      1099 2.53740E+01 2.03735E+01 0.00000E+00
 -1      1100 2.87250E+01 2.66180E+01 0.00000E+00
 -1      1101 2.57250E+01 2.66180E+01 0.00000E+00
 -1      1102 1.27725E+02 2.31691E+01 0.00000E+00
 -1      1103 2.23290E+01 2.06393E+01 0.00000E+00
 -1      1104 7.25975E+01 2.51322E+01 0.00000E+00
 -1      1105 2.38430E+01 2.33048E+01 0.00000E+00
 -1      1106 7.85447E+01 2.68931E+01 0.00000E+00
 -1      1107 3.15424E+01 2.47546E+01 0.00000E+00
 -1      1108 3.14582E+01 2.25640E+01 0.00000E+00
 -1      1109 3.11811E+01 2.66851E+01 0.00000E+00
 -1      1110 8.24250E+01 2.74684E+01 0.00000E+00
 -1      1111 2.84582E+01 2.25640E+01 0.00000E+00
 -1      1112 2.72250E+01 2.40200E+01 0.00000E+00
 -1      1113 2.98197E+01 2.46246E+01 0.00000E+00
 -1      1114 1.28531E+02 2.51261E+01 0.00000E+00
 -1      1115 0.00000E+00 4.85250E+01 0.00000E+00
 -1      1116 0.00000E+00 4.55750E+01 0.00000E+00
 -1      1117 0.00000E+00 4.26250E+01 0.00000E+00
 -1      1118 0.00000E+00 3.96750E+01 0.00000E+00
 -1      1119 0.00000E+00 3.67250E+01 0.00000E+00
 -1      1120 0.00000E+00 3.38000E+01 0.00000E+00
 -1      1121 0.00000E+00 3.08750E+01 0.00000E+00
 -1      1122 0.00000E+00 2.79250E+01 0.00000E+00
 -1      1123 0.00000E+00 2.49750E+01 0.00000E+00
 -1      1124 0.00000E+00 2.20250E+01 0.00000E+00
 -1      1125 0.00000E+00 1.90750E+01 0.00000E+00
 -1      1126 0.00000E+00 1.61500E+01 0.00000E+00
 -1      1127 0.00000E+00 1.32250E+01 0.00000E+00
 -1      1128 0.00000E+00 1.02750E+01 0.00000E+00
 -1      1129 0.00000E+00 7.32500E+00 0.00000E+00
 -1      1130 0.00000E+00 4.37500E+00 0.00000E+00
 -1      1131 0.00000E+00 1.45000E+00 0.00000E+00
 -1      1132 1.57500E+00 5.00000E+01 0.00000E+00
 -1      1133 4.65000E+00 5.00000E+01 0.00000E+00
 -1      1134 7.65000E+00 5.00000E+01 0.00000E+00
 -1      1135 1.06500E+01 5.00000E+01 0.00000E+00
 -1      1136 1.36500E+01 5.00000E+01 0.00000E+00
 -1      1137 1.66500E+01 5.00000E+01 0.00000E+00
 -1      1138 1.96500E+01 5.00000E+01 0.00000E+00
 -1      1139 2.27250E+01 5.00000E+01 0.00000E+00
 -1      1140 2.58000E+01 5.00000E+01 0.00000E+00
 -1      1141 2.88000E+01 5.00000E+01 0.00000E+00
 -1      1142 3.18000E+01 5.00000E+01 0.00000E+00
 -1      1143 3.48000E+01 5.00000E+01 0.00000E+00
 -1      1144 3.78000E+01 5.00000E+01 0.00000E+00
 -1      1145 4.08000E+01 5.00000E+01 0.00000E+00
 -1      1146 4.36500E+01 5.00000E+01 0.00000E+00
 -1      1147 4.63500E+01 5.00000E+01 0.00000E+00
 -1      1148 4.89000E+01 5.00000E+01 0.00000E+00
 -1      1149 5.13000E+01 5.00000E+01 0.00000E+00
 -1      1150 5.35500E+01 5.00000E+01 0.00000E+00
 -1      1151 5.57250E+01 5.00000E+01 0.00000E+00
 -1      1152 5.81250E+01 5.00000E+01 0.00000E+00
 -1      1153 6.09750E+01 5.00000E+01 0.00000E+00
 -1      1154 6.40500E+01 5.00000E+01 0.00000E+00
 -1      1155 6.70500E+01 5.00000E+01 0.00000E+00
 -1      1156 7.00500E+01 5.00000E+01 0.00000E+00
 -1      1157 7.30500E+01 5.00000E+01 0.00000E+00
 -1      1158 7.60500E+01 5.00000E+01 0.00000E+00
 -1      1159 7.90500E+01 5.00000E+01 0.00000E+00
 -1      1160 8.21250E+01 5.00000E+01 0.00000E+00
 -1      1161 8.52000E+01 5.00000E+01 0.00000E+00
 -1      1162 8.82000E+01 5.00000E+01 0.00000E+00
 -1      1163 9.12000E+01 5.00000E+01 0.00000E+00
 -1      1164 9.42000E+01 5.00000E+01 0.00000E+00
 -1      1165 9.72000E+01 5.00000E+01 0.00000E+00
 -1      1166 1.00200E+02 5.00000E+01 0.00000E+00
 -1      1167 1.03200E+02 5.00000E+01 0.00000E+00
 -1      1168 1.06275E+02 5.00000E+01 0.00000E+00
 -1      1169 1.09350E+02 5.00000E+01 0.00000E+00
 -1      1170 1.12350E+02 5.00000E+01 0.00000E+00
 -1      1171 1.15350E+02 5.00000E+01 0.00000E+00
 -1      1172 1.18350E+02 5.00000E+01 0.00000E+00
 -1      1173 1.21350E+02 5.00000E+01 0.00000E+00
 -1      1174 1.24350E+02 5.00000E+01 0.00000E+00
 -1      1175 1.27425E+02 5.00000E+01 0.00000E+00
 -1      1176 1.30500E+02 5.00000E+01 0.00000E+00
 -1      1177 1.33500E+02 5.00000E+01 0.00000E+00
 -1      1178 1.36500E+02 5.00000E+01 0.00000E+00
 -1      1179 1.39500E+02 5.00000E+01 0.00000E+00
 -1      1180 1.42500E+02 5.00000E+01 0.00000E+00
 -1      1181 1.45500E+02 5.00000E+01 0.00000E+00
 -1      1182 1.48500E+02 5.00000E+01 0.00000E+00
 -1      1183 1.57500E+00 0.00000E+00 0.00000E+00
 -1      1184 4.65000E+00 0.00000E+00 0.00000E+00
 -1      1185 7.65000E+00 0.00000E+00 0.00000E+00
 -1      1186 1.06500E+01 0.00000E+00 0.00000E+00
 -1      1187 1.36500E+01 0.00000E+00 0.00000E+00
 -1      1188 1.66500E+01 0.00000E+00 0.00000E+00
 -1      1189 1.96500E+01 0.00000E+00 0.00000E+00
 -1      1190 2.26500E+01 0.00000E+00 0.00000E+00
 -1      1191 2.56500E+01 0.00000E+00 0.00000E+00
 -1      1192 2.86500E+01 0.00000E+00 0.00000E+00
 -1      1193 3.16500E+01 0.00000E+00 0.00000E+00
 -1      1194 3.46500E+01 0.00000E+00 0.00000E+00
 -1      1195 3.76500E+01 0.00000E+00 0.00000E+00
 -1      1196 4.06500E+01 0.00000E+00 0.00000E+00
 -1      1197 4.36500E+01 0.00000E+00 0.00000E+00
 -1      1198 4.66500E+01 0.00000E+00 0.00000E+00
 -1      1199 4.96500E+01 0.00000E+00 0.00000E+00
 -1      1200 5.26500E+01 0.00000E+00 0.00000E+00
 -1      1201 5.56500E+01 0.00000E+00 0.00000E+00
 -1      1202 5.86500E+01 0.00000E+00 0.00000E+00
 -1      1203 6.16500E+01 0.00000E+00 0.00000E+00
 -1      1204 6.46500E+01 0.00000E+00 0.00000E+00
 -1      1205 6.76500E+01 0.00000E+00 0.00000E+00
 -1      1206 7.06500E+01 0.00000E+00 0.00000E+00
 -1      1207 7.36500E+01 0.00000E+00 0.00000E+00
 -1      1208 7.66500E+01 0.00000E+00 0.00000E+00
 -1      1209 7.96500E+01 0.00000E+00 0.00000E+00
 -1      1210 8.26500E+01 0.00000E+00 0.00000E+00
 -1      1211 8.56500E+01 0.00000E+00 0.00000E+00
 -1      1212 8.86500E+01 0.00000E+00 0.00000E+00
 -1      1213 9.16500E+01 0.00000E+00 0.00000E+00
 -1      1214 9.46500E+01 0.00000E+00 0.00000E+00
 -1      1215 9.76500E+01 0.00000E+00 0.00000E+00
 -1      1216 1.00650E+02 0.00000E+00 0.00000E+00
 -1      1217 1.03650E+02 0.00000E+00 0.00000E+00
 -1      1218 1.06650E+02 0.00000E+00 0.00000E+00
 -1      1219 1.09650E+02 0.00000E+00 0.00000E+00
 -1      1220 1.12650E+02 0.00000E+00 0.00000E+00
 -1      1221 1.15650E+02 0.00000E+00 0.00000E+00
 -1      1222 1.18650E+02 0.00000E+00 0.00000E+00
 -1      1223 1.21650E+02 0.00000E+00 0.00000E+00
 -1      1224 1.24650E+02 0.00000E+00 0.00000E+00
 -1      1225 1.27650E+02 0.00000E+00 0.00000E+00
 -1      1226 1.30650E+02 0.00000E+00 0.00000E+00
 -1      1227 1.33650E+02 0.00000E+00 0.00000E+00
 -1      1228 1.36650E+02 0.00000E+00 0.00000E+00
 -1      1229 1.39650E+02 0.00000E+00 0.00000E+00
 -1      1230 1.42650E+02 0.00000E+00 0.00000E+00
 -1      1231 1.45650E+02 0.00000E+00 0.00000E+00
 -1      1232 1.48575E+02 0.00000E+00 0.00000E+00
 -1      1233 1.50000E+02 1.47500E+00 0.00000E+00
 -1      1234 1.50000E+02 4.42500E+00 0.00000E+00
 -1      1235 1.50000E+02 7.37500E+00 0.00000E+00
 -1      1236 1.50000E+02 1.03250E+01 0.00000E+00
 -1      1237 1.50000E+02 1.32750E+01 0.00000E+00
 -1      1238 1.50000E+02 1.62000E+01 0.00000E+00
 -1      1239 1.50000E+02 1.91250E+01 0.00000E+00
 -1      1240 1.50000E+02 2.20750E+01 0.00000E+00
 -1      1241 1.50000E+02 2.50250E+01 0.00000E+00
 -1      1242 1.50000E+02 2.79750E+01 0.00000E+00
 -1      1243 1.50000E+02 3.09250E+01 0.00000E+00
 -1      1244 1.50000E+02 3.38500E+01 0.00000E+00
 -1      1245 1.50000E+02 3.67750E+01 0.00000E+00
 -1      1246 1.50000E+02 3.97250E+01 0.00000E+00
 -1      1247 1.50000E+02 4.26750E+01 0.00000E+00
 -1      1248 1.50000E+02 4.56250E+01 0.00000E+00
 -1      1249 1.50000E+02 4.85500E+01 0.00000E+00
 -1      1250 5.97494E+01 3.76841E+01 0.00000E+00
 -1      1251 5.94406E+01 3.62349E+01 0.00000E+00
 -1      1252 5.88166E+01 3.48538E+01 0.00000E+00
 -1      1253 5.79304E+01 3.36615E+01 0.00000E+00
 -1      1254 5.67801E+01 3.26604E+01 0.00000E+00
 -1      1255 5.54207E+01 3.19242E+01 0.00000E+00
 -1      1256 5.40042E+01 3.15164E+01 0.00000E+00
 -1      1257 5.25041E+01 3.14155E+01 0.00000E+00
 -1      1258 5.09914E+01 3.16441E+01 0.00000E+00
 -1      1259 4.95770E+01 3.21893E+01 0.00000E+00
 -1      1260 4.83217E+01 3.30191E+01 0.00000E+00
 -1      1261 4.72959E+01 3.40685E+01 0.00000E+00
 -1      1262 4.65160E+01 3.52996E+01 0.00000E+00
 -1      1263 4.59985E+01 3.67026E+01 0.00000E+00
 -1      1264 4.57915E+01 3.81613E+01 0.00000E+00
 -1      1265 4.59037E+01 3.96826E+01 0.00000E+00
 -1      1266 4.63423E+01 4.11421E+01 0.00000E+00
 -1      1267 4.70266E+01 4.23869E+01 0.00000E+00
 -1      1268 4.79852E+01 4.35031E+01 0.00000E+00
 -1      1269 4.91861E+01 4.44126E+01 0.00000E+00
 -1      1270 5.05557E+01 4.50447E+01 0.00000E+00
 -1      1271 5.20356E+01 4.53694E+01 0.00000E+00
 -1      1272 5.35554E+01 4.53675E+01 0.00000E+00
 -1      1273 5.50967E+01 4.50178E+01 0.00000E+00
 -1      1274 5.65282E+01 4.43262E+01 0.00000E+00
 -1      1275 5.77340E+01 4.33624E+01 0.00000E+00
 -1      1276 5.86994E+01 4.21574E+01 0.00000E+00
 -1      1277 5.93774E+01 4.07694E+01 0.00000E+00
 -1      1278 5.97393E+01 3.92260E+01 0.00000E+00
 -1      1279 1.57500E+00 4.85250E+01 0.00000E+00
 -1      1280 1.29900E+00 4.48375E+01 0.00000E+00
 -1      1281 1.29900E+00 4.63125E+01 0.00000E+00
 -1      1282 1.29900E+00 4.18875E+01 0.00000E+00
 -1      1283 1.29900E+00 4.33625E+01 0.00000E+00
 -1      1284 2.59800E+00 4.41000E+01 0.00000E+00
 -1      1285 1.29900E+00 3.89375E+01 0.00000E+00
 -1      1286 1.29900E+00 4.04125E+01 0.00000E+00
 -1      1287 2.59800E+00 4.11500E+01 0.00000E+00
 -1      1288 1.29900E+00 3.59875E+01 0.00000E+00
 -1      1289 1.29900E+00 3.74625E+01 0.00000E+00
 -1      1290 2.59800E+00 3.82000E+01 0.00000E+00
 -1      1291 1.29900E+00 3.30875E+01 0.00000E+00
 -1      1292 1.29900E+00 3.45375E+01 0.00000E+00
 -1      1293 2.59800E+00 3.52750E+01 0.00000E+00
 -1      1294 1.29900E+00 3.01375E+01 0.00000E+00
 -1      1295 1.29900E+00 3.16125E+01 0.00000E+00
 -1      1296 2.59800E+00 3.23500E+01 0.00000E+00
 -1      1297 1.29900E+00 2.71875E+01 0.00000E+00
 -1      1298 1.29900E+00 2.86625E+01 0.00000E+00
 -1      1299 2.59800E+00 2.94000E+01 0.00000E+00
 -1      1300 1.29900E+00 2.42375E+01 0.00000E+00
 -1      1301 1.29900E+00 2.57125E+01 0.00000E+00
 -1      1302 2.59800E+00 2.64500E+01 0.00000E+00
 -1      1303 1.29900E+00 2.12875E+01 0.00000E+00
 -1      1304 1.29900E+00 2.27625E+01 0.00000E+00
 -1      1305 2.59800E+00 2.35000E+01 0.00000E+00
 -1      1306 1.29900E+00 1.83375E+01 0.00000E+00
 -1      1307 1.29900E+00 1.98125E+01 0.00000E+00
 -1      1308 2.59800E+00 2.05500E+01 0.00000E+00
 -1      1309 1.29900E+00 1.54375E+01 0.00000E+00
 -1      1310 1.29900E+00 1.68875E+01 0.00000E+00
 -1      1311 2.59800E+00 1.76250E+01 0.00000E+00
 -1      1312 1.29900E+00 1.24875E+01 0.00000E+00
 -1      1313 1.29900E+00 1.39625E+01 0.00000E+00
 -1      1314 2.59800E+00 1.47000E+01 0.00000E+00
 -1      1315 1.29900E+00 9.53750E+00 0.00000E+00
 -1      1316 1.29900E+00 1.10125E+01 0.00000E+00
 -1      1317 2.59800E+00 1.17500E+01 0.00000E+00
 -1      1318 1.29900E+00 6.58750E+00 0.00000E+00
 -1      1319 1.29900E+00 8.06250E+00 0.00000E+00
 -1      1320 2.59800E+00 8.80000E+00 0.00000E+00
 -1      1321 1.29900E+00 3.63750E+00 0.00000E+00
 -1      1322 1.29900E+00 5.11250E+00 0.00000E+00
 -1      1323 2.59800E+00 5.85000E+00 0.00000E+00
 -1      1324 1.43700E+00 1.09375E+00 0.00000E+00
 -1      1325 1.43700E+00 2.54375E+00 0.00000E+00
 -1      1326 2.73600E+00 3.28125E+00 0.00000E+00
 -1      1327 3.01200E+00 1.09375E+00 0.00000E+00
 -1      1328 3.90000E+00 4.87010E+01 0.00000E+00
 -1      1329 5.40000E+00 4.87010E+01 0.00000E+00
 -1      1330 6.90000E+00 4.87010E+01 0.00000E+00
 -1      1331 8.40000E+00 4.87010E+01 0.00000E+00
 -1      1332 6.15000E+00 4.74020E+01 0.00000E+00
 -1      1333 9.90000E+00 4.87010E+01 0.00000E+00
 -1      1334 1.14000E+01 4.87010E+01 0.00000E+00
 -1      1335 9.15000E+00 4.74020E+01 0.00000E+00
 -1      1336 1.29000E+01 4.87010E+01 0.00000E+00
 -1      1337 1.44000E+01 4.87010E+01 0.00000E+00
 -1      1338 1.21500E+01 4.74020E+01 0.00000E+00
 -1      1339 1.59000E+01 4.87010E+01 0.00000E+00
 -1      1340 1.74000E+01 4.87010E+01 0.00000E+00
 -1      1341 1.51500E+01 4.74020E+01 0.00000E+00
 -1      1342 1.89000E+01 4.87010E+01 0.00000E+00
 -1      1343 2.04000E+01 4.87010E+01 0.00000E+00
 -1      1344 1.81500E+01 4.74020E+01 0.00000E+00
 -1      1345 2.19750E+01 4.87010E+01 0.00000E+00
 -1      1346 2.35500E+01 4.87010E+01 0.00000E+00
 -1      1347 2.12250E+01 4.74020E+01 0.00000E+00
 -1      1348 2.50500E+01 4.87010E+01 0.00000E+00
 -1      1349 2.65500E+01 4.87010E+01 0.00000E+00
 -1      1350 2.43000E+01 4.74020E+01 0.00000E+00
 -1      1351 2.80500E+01 4.87010E+01 0.00000E+00
 -1      1352 2.95500E+01 4.87010E+01 0.00000E+00
 -1      1353 2.73000E+01 4.74020E+01 0.00000E+00
 -1      1354 3.10500E+01 4.87010E+01 0.00000E+00
 -1      1355 3.25500E+01 4.87010E+01 0.00000E+00
 -1      1356 3.03000E+01 4.74020E+01 0.00000E+00
 -1      1357 3.40500E+01 4.87010E+01 0.00000E+00
 -1      1358 3.55500E+01 4.87010E+01 0.00000E+00
 -1      1359 3.33000E+01 4.74020E+01 0.00000E+00
 -1      1360 3.70500E+01 4.87010E+01 0.00000E+00
 -1      1361 3.85500E+01 4.87010E+01 0.00000E+00
 -1      1362 3.63000E+01 4.74020E+01 0.00000E+00
 -1      1363 4.00500E+01 4.87010E+01 0.00000E+00
 -1      1364 4.15500E+01 4.87010E+01 0.00000E+00
 -1      1365 3.93000E+01 4.74020E+01 0.00000E+00
 -1      1366 4.29000E+01 4.87010E+01 0.00000E+00
 -1      1367 4.42500E+01 4.87010E+01 0.00000E+00
 -1      1368 4.21500E+01 4.74020E+01 0.00000E+00
 -1      1369 4.83000E+01 4.88911E+01 0.00000E+00
 -1      1370 4.95000E+01 4.88911E+01 0.00000E+00
 -1      1371 5.07000E+01 4.88911E+01 0.00000E+00
 -1      1372 5.19000E+01 4.88911E+01 0.00000E+00
 -1      1373 5.01000E+01 4.77822E+01 0.00000E+00
 -1      1374 5.29500E+01 4.88911E+01 0.00000E+00
 -1      1375 5.40000E+01 4.88911E+01 0.00000E+00
 -1      1376 5.23500E+01 4.77822E+01 0.00000E+00
 -1      1377 5.51250E+01 4.88911E+01 0.00000E+00
 -1      1378 5.62500E+01 4.88911E+01 0.00000E+00
 -1      1379 5.45250E+01 4.77822E+01 0.00000E+00
 -1      1380 5.75250E+01 4.88911E+01 0.00000E+00
 -1      1381 5.88000E+01 4.88911E+01 0.00000E+00
 -1      1382 5.69250E+01 4.77822E+01 0.00000E+00
 -1      1383 6.03750E+01 4.88911E+01 0.00000E+00
 -1      1384 6.19500E+01 4.88911E+01 0.00000E+00
 -1      1385 5.97750E+01 4.77822E+01 0.00000E+00
 -1      1386 6.34500E+01 4.88911E+01 0.00000E+00
 -1      1387 6.49500E+01 4.88911E+01 0.00000E+00
 -1      1388 6.28500E+01 4.77822E+01 0.00000E+00
 -1      1389 6.64500E+01 4.88911E+01 0.00000E+00
 -1      1390 6.79500E+01 4.88911E+01 0.00000E+00
 -1      1391 6.58500E+01 4.77822E+01 0.00000E+00
 -1      1392 6.94500E+01 4.88911E+01 0.00000E+00
 -1      1393 7.09500E+01 4.88911E+01 0.00000E+00
 -1      1394 6.88500E+01 4.77822E+01 0.00000E+00
 -1      1395 7.24500E+01 4.88911E+01 0.00000E+00
 -1      1396 7.39500E+01 4.88911E+01 0.00000E+00
 -1      1397 7.18500E+01 4.77822E+01 0.00000E+00
 -1      1398 7.54500E+01 4.88911E+01 0.00000E+00
 -1      1399 7.69500E+01 4.88911E+01 0.00000E+00
 -1      1400 7.48500E+01 4.77822E+01 0.00000E+00
 -1      1401 7.84500E+01 4.88911E+01 0.00000E+00
 -1      1402 7.99500E+01 4.88911E+01 0.00000E+00
 -1      1403 7.78500E+01 4.77822E+01 0.00000E+00
 -1      1404 8.15250E+01 4.88911E+01 0.00000E+00
 -1      1405 8.31000E+01 4.88911E+01 0.00000E+00
 -1      1406 8.09250E+01 4.77822E+01 0.00000E+00
 -1      1407 8.46000E+01 4.88911E+01 0.00000E+00
 -1      1408 8.61000E+01 4.88911E+01 0.00000E+00
 -1      1409 8.40000E+01 4.77822E+01 0.00000E+00
 -1      1410 8.76000E+01 4.88911E+01 0.00000E+00
 -1      1411 8.91000E+01 4.88911E+01 0.00000E+00
 -1      1412 8.70000E+01 4.77822E+01 0.00000E+00
 -1      1413 9.06000E+01 4.88911E+01 0.00000E+00
 -1      1414 9.21000E+01 4.88911E+01 0.00000E+00
 -1      1415 9.00000E+01 4.77822E+01 0.00000E+00
 -1      1416 9.36000E+01 4.88911E+01 0.00000E+00
 -1      1417 9.51000E+01 4.88911E+01 0.00000E+00
 -1      1418 9.30000E+01 4.77822E+01 0.00000E+00
 -1      1419 9.66000E+01 4.88911E+01 0.00000E+00
 -1      1420 9.81000E+01 4.88911E+01 0.00000E+00
 -1      1421 9.60000E+01 4.77822E+01 0.00000E+00
 -1      1422 9.96000E+01 4.88911E+01 0.00000E+00
 -1      1423 1.01100E+02 4.88911E+01 0.00000E+00
 -1      1424 9.90000E+01 4.77822E+01 0.00000E+00
 -1      1425 1.02600E+02 4.88911E+01 0.00000E+00
 -1      1426 1.04100E+02 4.88911E+01 0.00000E+00
 -1      1427 1.02000E+02 4.77822E+01 0.00000E+00
 -1      1428 1.05675E+02 4.88911E+01 0.00000E+00
 -1      1429 1.07250E+02 4.88911E+01 0.00000E+00
 -1      1430 1.05075E+02 4.77822E+01 0.00000E+00
 -1      1431 1.08750E+02 4.88911E+01 0.00000E+00
 -1      1432 1.10250E+02 4.88911E+01 0.00000E+00
 -1      1433 1.08150E+02 4.77822E+01 0.00000E+00
 -1      1434 1.11750E+02 4.88911E+01 0.00000E+00
 -1      1435 1.13250E+02 4.88911E+01 0.00000E+00
 -1      1436 1.11150E+02 4.77822E+01 0.00000E+00
 -1      1437 1.14750E+02 4.88911E+01 0.00000E+00
 -1      1438 1.16250E+02 4.88911E+01 0.00000E+00
 -1      1439 1.14150E+02 4.77822E+01 0.00000E+00
 -1      1440 1.17750E+02 4.88911E+01 0.00000E+00
 -1      1441 1.19250E+02 4.88911E+01 0.00000E+00
 -1      1442 1.17150E+02 4.77822E+01 0.00000E+00
 -1      1443 1.20750E+02 4.88911E+01 0.00000E+00
 -1      1444 1.22250E+02 4.88911E+01 0.00000E+00
 -1      1445 1.20150E+02 4.77822E+01 0.00000E+00
 -1      1446 1.23750E+02 4.88911E+01 0.00000E+00
 -1      1447 1.25250E+02 4.88911E+01 0.00000E+00
 -1      1448 1.23150E+02 4.77822E+01 0.00000E+00
 -1      1449 1.26825E+02 4.88911E+01 0.00000E+00
 -1      1450 1.28400E+02 4.88911E+01 0.00000E+00
 -1      1451 1.26225E+02 4.77822E+01 0.00000E+00
 -1      1452 1.29900E+02 4.88911E+01 0.00000E+00
 -1      1453 1.31400E+02 4.88911E+01 0.00000E+00
 -1      1454 1.29300E+02 4.77822E+01 0.00000E+00
 -1      1455 1.32900E+02 4.88911E+01 0.00000E+00
 -1      1456 1.34400E+02 4.88911E+01 0.00000E+00
 -1      1457 1.32300E+02 4.77822E+01 0.00000E+00
 -1      1458 1.35900E+02 4.88911E+01 0.00000E+00
 -1      1459 1.37400E+02 4.88911E+01 0.00000E+00
 -1      1460 1.35300E+02 4.77822E+01 0.00000E+00
 -1      1461 1.38900E+02 4.88911E+01 0.00000E+00
 -1      1462 1.40400E+02 4.88911E+01 0.00000E+00
 -1      1463 1.38300E+02 4.77822E+01 0.00000E+00
 -1      1464 1.41900E+02 4.88911E+01 0.00000E+00
 -1      1465 1.43400E+02 4.88911E+01 0.00000E+00
 -1      1466 1.41300E+02 4.77822E+01 0.00000E+00
 -1      1467 1.44900E+02 4.88911E+01 0.00000E+00
 -1      1468 1.46400E+02 4.88911E+01 0.00000E+00
 -1      1469 1.44300E+02 4.77822E+01 0.00000E+00
 -1      1470 1.47450E+02 4.87205E+01 0.00000E+00
 -1      1471 1.48950E+02 4.87205E+01 0.00000E+00
 -1      1472 1.48950E+02 4.72705E+01 0.00000E+00
 -1      1473 1.46850E+02 4.76116E+01 0.00000E+00
 -1      1474 6.01200E+00 1.09375E+00 0.00000E+00
 -1      1475 4.51200E+00 1.09375E+00 0.00000E+00
 -1      1476 4.37400E+00 2.18750E+00 0.00000E+00
 -1      1477 9.01200E+00 1.09375E+00 0.00000E+00
 -1      1478 7.51200E+00 1.09375E+00 0.00000E+00
 -1      1479 7.37400E+00 2.18750E+00 0.00000E+00
 -1      1480 1.20120E+01 1.09375E+00 0.00000E+00
 -1      1481 1.05120E+01 1.09375E+00 0.00000E+00
 -1      1482 1.03740E+01 2.18750E+00 0.00000E+00
 -1      1483 1.50120E+01 1.09375E+00 0.00000E+00
 -1      1484 1.35120E+01 1.09375E+00 0.00000E+00
 -1      1485 1.33740E+01 2.18750E+00 0.00000E+00
 -1      1486 1.80120E+01 1.09375E+00 0.00000E+00
 -1      1487 1.65120E+01 1.09375E+00 0.00000E+00
 -1      1488 1.63740E+01 2.18750E+00 0.00000E+00
 -1      1489 2.10120E+01 1.09375E+00 0.00000E+00
 -1      1490 1.95120E+01 1.09375E+00 0.00000E+00
 -1      1491 1.93740E+01 2.18750E+00 0.00000E+00
 -1      1492 2.40120E+01 1.09375E+00 0.00000E+00
 -1      1493 2.25120E+01 1.09375E+00 0.00000E+00
 -1      1494 2.23740E+01 2.18750E+00 0.00000E+00
 -1      1495 2.70120E+01 1.09375E+00 0.00000E+00
 -1      1496 2.55120E+01 1.09375E+00 0.00000E+00
 -1      1497 2.53740E+01 2.18750E+00 0.00000E+00
 -1      1498 3.00120E+01 1.09375E+00 0.00000E+00
 -1      1499 2.85120E+01 1.09375E+00 0.00000E+00
 -1      1500 2.83740E+01 2.18750E+00 0.00000E+00
 -1      1501 3.30120E+01 1.09375E+00 0.00000E+00
 -1      1502 3.15120E+01 1.09375E+00 0.00000E+00
 -1      1503 3.13740E+01 2.18750E+00 0.00000E+00
 -1      1504 3.60120E+01 1.09375E+00 0.00000E+00
 -1      1505 3.45120E+01 1.09375E+00 0.00000E+00
 -1      1506 3.43740E+01 2.18750E+00 0.00000E+00
 -1      1507 3.90120E+01 1.09375E+00 0.00000E+00
 -1      1508 3.75120E+01 1.09375E+00 0.00000E+00
 -1      1509 3.73740E+01 2.18750E+00 0.00000E+00
 -1      1510 4.20120E+01 1.09375E+00 0.00000E+00
 -1      1511 4.05120E+01 1.09375E+00 0.00000E+00
 -1      1512 4.03740E+01 2.18750E+00 0.00000E+00
 -1      1513 4.50120E+01 1.09375E+00 0.00000E+00
 -1      1514 4.35120E+01 1.09375E+00 0.00000E+00
 -1      1515 4.33740E+01 2.18750E+00 0.00000E+00
 -1      1516 4.80120E+01 1.09375E+00 0.00000E+00
 -1      1517 4.65120E+01 1.09375E+00 0.00000E+00
 -1      1518 4.63740E+01 2.18750E+00 0.00000E+00
 -1      1519 5.10120E+01 1.09375E+00 0.00000E+00
 -1      1520 4.95120E+01 1.09375E+00 0.00000E+00
 -1      1521 4.93740E+01 2.18750E+00 0.00000E+00
 -1      1522 5.40120E+01 1.09375E+00 0.00000E+00
 -1      1523 5.25120E+01 1.09375E+00 0.00000E+00
 -1      1524 5.23740E+01 2.18750E+00 0.00000E+00
 -1      1525 5.70120E+01 1.09375E+00 0.00000E+00
 -1      1526 5.55120E+01 1.09375E+00 0.00000E+00
 -1      1527 5.53740E+01 2.18750E+00 0.00000E+00
 -1      1528 6.00120E+01 1.09375E+00 0.00000E+00
 -1      1529 5.85120E+01 1.09375E+00 0.00000E+00
 -1      1530 5.83740E+01 2.18750E+00 0.00000E+00
 -1      1531 6.30120E+01 1.09375E+00 0.00000E+00
 -1      1532 6.15120E+01 1.09375E+00 0.00000E+00
 -1      1533 6.13740E+01 2.18750E+00 0.00000E+00
 -1      1534 6.60120E+01 1.09375E+00 0.00000E+00
 -1      1535 6.45120E+01 1.09375E+00 0.00000E+00
 -1      1536 6.43740E+01 2.18750E+00 0.00000E+00
 -1      1537 6.90120E+01 1.09375E+00 0.00000E+00
 -1      1538 6.75120E+01 1.09375E+00 0.00000E+00
 -1      1539 6.73740E+01 2.18750E+00 0.00000E+00
 -1      1540 7.20120E+01 1.09375E+00 0.00000E+00
 -1      1541 7.05120E+01 1.09375E+00 0.00000E+00
 -1      1542 7.03740E+01 2.18750E+00 0.00000E+00
 -1      1543 7.50120E+01 1.09375E+00 0.00000E+00
 -1      1544 7.35120E+01 1.09375E+00 0.00000E+00
 -1      1545 7.33740E+01 2.18750E+00 0.00000E+00
 -1      1546 7.80120E+01 1.09375E+00 0.00000E+00
 -1      1547 7.65120E+01 1.09375E+00 0.00000E+00
 -1      1548 7.63740E+01 2.18750E+00 0.00000E+00
 -1      1549 8.10120E+01 1.09375E+00 0.00000E+00
 -1      1550 7.95120E+01 1.09375E+00 0.00000E+00
 -1      1551 7.93740E+01 2.18750E+00 0.00000E+00
 -1      1552 8.40120E+01 1.09375E+00 0.00000E+00
 -1      1553 8.25120E+01 1.09375E+00 0.00000E+00
 -1      1554 8.23740E+01 2.18750E+00 0.00000E+00
 -1      1555 8.70120E+01 1.09375E+00 0.00000E+00
 -1      1556 8.55120E+01 1.09375E+00 0.00000E+00
 -1      1557 8.53740E+01 2.18750E+00 0.00000E+00
 -1      1558 9.00120E+01 1.09375E+00 0.00000E+00
 -1      1559 8.85120E+01 1.09375E+00 0.00000E+00
 -1      1560 8.83740E+01 2.18750E+00 0.00000E+00
 -1      1561 9.30120E+01 1.09375E+00 0.00000E+00
 -1      1562 9.15120E+01 1.09375E+00 0.00000E+00
 -1      1563 9.13740E+01 2.18750E+00 0.00000E+00
 -1      1564 9.60120E+01 1.09375E+00 0.00000E+00
 -1      1565 9.45120E+01 1.09375E+00 0.00000E+00
 -1      1566 9.43740E+01 2.18750E+00 0.00000E+00
 -1      1567 9.90120E+01 1.09375E+00 0.00000E+00
 -1      1568 9.75120E+01 1.09375E+00 0.00000E+00
 -1      1569 9.73740E+01 2.18750E+00 0.00000E+00
 -1      1570 1.02012E+02 1.09375E+00 0.00000E+00
 -1      1571 1.00512E+02 1.09375E+00 0.00000E+00
 -1      1572 1.00374E+02 2.18750E+00 0.00000E+00
 -1      1573 1.05012E+02 1.09375E+00 0.00000E+00
 -1      1574 1.03512E+02 1.09375E+00 0.00000E+00
 -1      1575 1.03374E+02 2.18750E+00 0.00000E+00
 -1      1576 1.08012E+02 1.09375E+00 0.00000E+00
 -1      1577 1.06512E+02 1.09375E+00 0.00000E+00
 -1      1578 1.06374E+02 2.18750E+00 0.00000E+00
 -1      1579 1.11012E+02 1.09375E+00 0.00000E+00
 -1      1580 1.09512E+02 1.09375E+00 0.00000E+00
 -1      1581 1.09374E+02 2.18750E+00 0.00000E+00
 -1      1582 1.14012E+02 1.09375E+00 0.00000E+00
 -1      1583 1.12512E+02 1.09375E+00 0.00000E+00
 -1      1584 1.12374E+02 2.18750E+00 0.00000E+00
 -1      1585 1.17012E+02 1.09375E+00 0.00000E+00
 -1      1586 1.15512E+02 1.09375E+00 0.00000E+00
 -1      1587 1.15374E+02 2.18750E+00 0.00000E+00
 -1      1588 1.20012E+02 1.09375E+00 0.00000E+00
 -1      1589 1.18512E+02 1.09375E+00 0.00000E+00
 -1      1590 1.18374E+02 2.18750E+00 0.00000E+00
 -1      1591 1.23012E+02 1.09375E+00 0.00000E+00
 -1      1592 1.21512E+02 1.09375E+00 0.00000E+00
 -1      1593 1.21374E+02 2.18750E+00 0.00000E+00
 -1      1594 1.26012E+02 1.09375E+00 0.00000E+00
 -1      1595 1.24512E+02 1.09375E+00 0.00000E+00
 -1      1596 1.24374E+02 2.18750E+00 0.00000E+00
 -1      1597 1.29012E+02 1.09375E+00 0.00000E+00
 -1      1598 1.27512E+02 1.09375E+00 0.00000E+00
 -1      1599 1.27374E+02 2.18750E+00 0.00000E+00
 -1      1600 1.32012E+02 1.09375E+00 0.00000E+00
 -1      1601 1.30512E+02 1.09375E+00 0.00000E+00
 -1      1602 1.30374E+02 2.18750E+00 0.00000E+00
 -1      1603 1.35012E+02 1.09375E+00 0.00000E+00
 -1      1604 1.33512E+02 1.09375E+00 0.00000E+00
 -1      1605 1.33374E+02 2.18750E+00 0.00000E+00
 -1      1606 1.38012E+02 1.09375E+00 0.00000E+00
 -1      1607 1.36512E+02 1.09375E+00 0.00000E+00
 -1      1608 1.36374E+02 2.18750E+00 0.00000E+00
 -1      1609 1.41012E+02 1.09375E+00 0.00000E+00
 -1      1610 1.39512E+02 1.09375E+00 0.00000E+00
 -1      1611 1.39374E+02 2.18750E+00 0.00000E+00
 -1      1612 1.44012E+02 1.09375E+00 0.00000E+00
 -1      1613 1.42512E+02 1.09375E+00 0.00000E+00
 -1      1614 1.42374E+02 2.18750E+00 0.00000E+00
 -1      1615 1.47012E+02 1.09375E+00 0.00000E+00
 -1      1616 1.45512E+02 1.09375E+00 0.00000E+00
 -1      1617 1.45374E+02 2.18750E+00 0.00000E+00
 -1      1618 1.48575E+02 1.47500E+00 0.00000E+00
 -1      1619 1.48701E+02 5.16250E+00 0.00000E+00
 -1      1620 1.48701E+02 3.68750E+00 0.00000E+00
 -1      1621 1.48701E+02 8.11250E+00 0.00000E+00
 -1      1622 1.48701E+02 6.63750E+00 0.00000E+00
 -1      1623 1.47402E+02 5.90000E+00 0.00000E+00
 -1      1624 1.48701E+02 1.10625E+01 0.00000E+00
 -1      1625 1.48701E+02 9.58750E+00 0.00000E+00
 -1      1626 1.47402E+02 8.85000E+00 0.00000E+00
 -1      1627 1.48701E+02 1.40125E+01 0.00000E+00
 -1      1628 1.48701E+02 1.25375E+01 0.00000E+00
 -1      1629 1.47402E+02 1.18000E+01 0.00000E+00
 -1      1630 1.48701E+02 1.69125E+01 0.00000E+00
 -1      1631 1.48701E+02 1.54625E+01 0.00000E+00
 -1      1632 1.47402E+02 1.47250E+01 0.00000E+00
 -1      1633 1.48701E+02 1.98625E+01 0.00000E+00
 -1      1634 1.48701E+02 1.83875E+01 0.00000E+00
 -1      1635 1.47402E+02 1.76500E+01 0.00000E+00
 -1      1636 1.48701E+02 2.28125E+01 0.00000E+00
 -1      1637 1.48701E+02 2.13375E+01 0.00000E+00
 -1      1638 1.47402E+02 2.06000E+01 0.00000E+00
 -1      1639 1.48701E+02 2.57625E+01 0.00000E+00
 -1      1640 1.48701E+02 2.42875E+01 0.00000E+00
 -1      1641 1.47402E+02 2.35500E+01 0.00000E+00
 -1      1642 1.48701E+02 2.87125E+01 0.00000E+00
 -1      1643 1.48701E+02 2.72375E+01 0.00000E+00
 -1      1644 1.47402E+02 2.65000E+01 0.00000E+00
 -1      1645 1.48701E+02 3.16625E+01 0.00000E+00
 -1      1646 1.48701E+02 3.01875E+01 0.00000E+00
 -1      1647 1.47402E+02 2.94500E+01 0.00000E+00
 -1      1648 1.48701E+02 3.45625E+01 0.00000E+00
 -1      1649 1.48701E+02 3.31125E+01 0.00000E+00
 -1      1650 1.47402E+02 3.23750E+01 0.00000E+00
 -1      1651 1.48701E+02 3.75125E+01 0.00000E+00
 -1      1652 1.48701E+02 3.60375E+01 0.00000E+00
 -1      1653 1.47402E+02 3.53000E+01 0.00000E+00
 -1      1654 1.48701E+02 4.04625E+01 0.00000E+00
 -1      1655 1.48701E+02 3.89875E+01 0.00000E+00
 -1      1656 1.47402E+02 3.82500E+01 0.00000E+00
 -1      1657 1.48701E+02 4.34125E+01 0.00000E+00
 -1      1658 1.48701E+02 4.19375E+01 0.00000E+00
 -1      1659 1.47402E+02 4.12000E+01 0.00000E+00
 -1      1660 1.48826E+02 4.60790E+01 0.00000E+00
 -1      1661 1.48826E+02 4.46040E+01 0.00000E+00
 -1      1662 1.47527E+02 4.38665E+01 0.00000E+00
 -1      1663 1.47775E+02 4.62496E+01 0.00000E+00
 -1      1664 6.03188E+01 3.72600E+01 0.00000E+00
 -1      1665 6.03941E+01 3.79817E+01 0.00000E+00
 -1      1666 5.99401E+01 3.56739E+01 0.00000E+00
 -1      1667 6.01750E+01 3.63925E+01 0.00000E+00
 -1      1668 5.91464E+01 3.42186E+01 0.00000E+00
 -1      1669 5.95321E+01 3.48727E+01 0.00000E+00
 -1      1670 5.81017E+01 3.30091E+01 0.00000E+00
 -1      1671 5.85943E+01 3.35427E+01 0.00000E+00
 -1      1672 5.68674E+01 3.18346E+01 0.00000E+00
 -1      1673 5.75234E+01 3.22902E+01 0.00000E+00
 -1      1674 5.52876E+01 3.12590E+01 0.00000E+00
 -1      1675 5.59799E+01 3.15401E+01 0.00000E+00
 -1      1676 5.37451E+01 3.08936E+01 0.00000E+00
 -1      1677 5.44609E+01 3.10199E+01 0.00000E+00
 -1      1678 5.20867E+01 3.07013E+01 0.00000E+00
 -1      1679 5.28625E+01 3.06699E+01 0.00000E+00
 -1      1680 5.04715E+01 3.11536E+01 0.00000E+00
 -1      1681 5.11997E+01 3.09603E+01 0.00000E+00
 -1      1682 4.89216E+01 3.17507E+01 0.00000E+00
 -1      1683 4.95992E+01 3.14011E+01 0.00000E+00
 -1      1684 4.76209E+01 3.27548E+01 0.00000E+00
 -1      1685 4.81925E+01 3.22813E+01 0.00000E+00
 -1      1686 4.66250E+01 3.40004E+01 0.00000E+00
 -1      1687 4.70748E+01 3.34315E+01 0.00000E+00
 -1      1688 4.58447E+01 3.53751E+01 0.00000E+00
 -1      1689 4.61699E+01 3.47194E+01 0.00000E+00
 -1      1690 4.53173E+01 3.69249E+01 0.00000E+00
 -1      1691 4.55035E+01 3.61845E+01 0.00000E+00
 -1      1692 4.52091E+01 3.84958E+01 0.00000E+00
 -1      1693 4.52343E+01 3.77863E+01 0.00000E+00
 -1      1694 4.52639E+01 4.02155E+01 0.00000E+00
 -1      1695 4.51156E+01 3.94136E+01 0.00000E+00
 -1      1696 4.59555E+01 4.16908E+01 0.00000E+00
 -1      1697 4.56790E+01 4.10385E+01 0.00000E+00
 -1      1698 4.67599E+01 4.30036E+01 0.00000E+00
 -1      1699 4.63553E+01 4.24177E+01 0.00000E+00
 -1      1700 4.78164E+01 4.42355E+01 0.00000E+00
 -1      1701 4.72639E+01 4.37147E+01 0.00000E+00
 -1      1702 4.92152E+01 4.50903E+01 0.00000E+00
 -1      1703 4.85745E+01 4.47060E+01 0.00000E+00
 -1      1704 5.07366E+01 4.57012E+01 0.00000E+00
 -1      1705 5.00149E+01 4.54585E+01 0.00000E+00
 -1      1706 5.23406E+01 4.60554E+01 0.00000E+00
 -1      1707 5.15912E+01 4.59744E+01 0.00000E+00
 -1      1708 5.39980E+01 4.58862E+01 0.00000E+00
 -1      1709 5.32366E+01 4.59703E+01 0.00000E+00
 -1      1710 5.56793E+01 4.54504E+01 0.00000E+00
 -1      1711 5.49104E+01 4.57191E+01 0.00000E+00
 -1      1712 5.71568E+01 4.45950E+01 0.00000E+00
 -1      1713 5.65015E+01 4.50094E+01 0.00000E+00
 -1      1714 5.84043E+01 4.34899E+01 0.00000E+00
 -1      1715 5.78607E+01 4.40329E+01 0.00000E+00
 -1      1716 5.93826E+01 4.21313E+01 0.00000E+00
 -1      1717 5.89673E+01 4.27865E+01 0.00000E+00
 -1      1718 6.00379E+01 4.05974E+01 0.00000E+00
 -1      1719 5.97786E+01 4.13215E+01 0.00000E+00
 -1      1720 6.04248E+01 3.88956E+01 0.00000E+00
 -1      1721 6.03296E+01 3.97061E+01 0.00000E+00
 -1      1722 4.56750E+01 4.88073E+01 0.00000E+00
 -1      1723 4.70250E+01 4.88073E+01 0.00000E+00
 -1      1724 5.93455E+01 3.35405E+01 0.00000E+00
 -1      1725 6.10318E+01 3.84675E+01 0.00000E+00
 -1      1726 1.48437E+02 2.56875E+00 0.00000E+00
 -1      1727 1.47138E+02 3.30625E+00 0.00000E+00
 -1      1728 6.08572E+01 3.66862E+01 0.00000E+00
 -1      1729 6.03054E+01 3.50176E+01 0.00000E+00
 -1      1730 5.82151E+01 3.21458E+01 0.00000E+00
 -1      1731 5.67493E+01 3.11324E+01 0.00000E+00
 -1      1732 5.50351E+01 3.05988E+01 0.00000E+00
 -1      1733 5.33259E+01 3.01361E+01 0.00000E+00
 -1      1734 5.15563E+01 3.01715E+01 0.00000E+00
 -1      1735 4.97971E+01 3.06780E+01 0.00000E+00
 -1      1736 4.81957E+01 3.14561E+01 0.00000E+00
 -1      1737 4.69205E+01 3.26634E+01 0.00000E+00
 -1      1738 4.59193E+01 3.40589E+01 0.00000E+00
 -1      1739 4.51231E+01 3.55873E+01 0.00000E+00
 -1      1740 4.46989E+01 3.72581E+01 0.00000E+00
 -1      1741 4.45224E+01 3.90374E+01 0.00000E+00
 -1      1742 4.48440E+01 4.07783E+01 0.00000E+00
 -1      1743 4.56590E+01 4.23281E+01 0.00000E+00
 -1      1744 4.65628E+01 4.37661E+01 0.00000E+00
 -1      1745 4.78249E+01 4.49476E+01 0.00000E+00
 -1      1746 4.93828E+01 4.57862E+01 0.00000E+00
 -1      1747 5.10372E+01 4.64277E+01 0.00000E+00
 -1      1748 5.27879E+01 4.66159E+01 0.00000E+00
 -1      1749 5.45963E+01 4.63637E+01 0.00000E+00
 -1      1750 5.63309E+01 4.57555E+01 0.00000E+00
 -1      1751 5.78570E+01 4.47524E+01 0.00000E+00
 -1      1752 5.91239E+01 4.34869E+01 0.00000E+00
 -1      1753 6.00830E+01 4.19736E+01 0.00000E+00
 -1      1754 6.07707E+01 4.02725E+01 0.00000E+00
 -1      1755 4.76250E+01 4.76984E+01 0.00000E+00
 -1      1756 2.87400E+00 4.77875E+01 0.00000E+00
 -1      1757 4.49250E+01 4.75083E+01 0.00000E+00
 -1      1758 3.89700E+00 4.04125E+01 0.00000E+00
 -1      1759 3.89700E+00 4.18875E+01 0.00000E+00
 -1      1760 3.89700E+00 4.33625E+01 0.00000E+00
 -1      1761 3.89700E+00 4.48375E+01 0.00000E+00
 -1      1762 5.19600E+00 4.26250E+01 0.00000E+00
 -1      1763 3.89700E+00 3.45500E+01 0.00000E+00
 -1      1764 3.89700E+00 3.60000E+01 0.00000E+00
 -1      1765 3.89700E+00 3.16000E+01 0.00000E+00
 -1      1766 3.89700E+00 3.30750E+01 0.00000E+00
 -1      1767 5.19600E+00 3.38000E+01 0.00000E+00
 -1      1768 3.89700E+00 2.86500E+01 0.00000E+00
 -1      1769 3.89700E+00 3.01250E+01 0.00000E+00
 -1      1770 5.19600E+00 3.08500E+01 0.00000E+00
 -1      1771 3.89700E+00 2.57000E+01 0.00000E+00
 -1      1772 3.89700E+00 2.71750E+01 0.00000E+00
 -1      1773 5.19600E+00 2.79000E+01 0.00000E+00
 -1      1774 3.89700E+00 2.27500E+01 0.00000E+00
 -1      1775 3.89700E+00 2.42250E+01 0.00000E+00
 -1      1776 5.19600E+00 2.49500E+01 0.00000E+00
 -1      1777 3.89700E+00 1.98000E+01 0.00000E+00
 -1      1778 3.89700E+00 2.12750E+01 0.00000E+00
 -1      1779 5.19600E+00 2.20000E+01 0.00000E+00
 -1      1780 3.89700E+00 1.69000E+01 0.00000E+00
 -1      1781 3.89700E+00 1.83500E+01 0.00000E+00
 -1      1782 5.19600E+00 1.90750E+01 0.00000E+00
 -1      1783 3.89700E+00 1.39500E+01 0.00000E+00
 -1      1784 3.89700E+00 1.54250E+01 0.00000E+00
 -1      1785 5.19600E+00 1.61500E+01 0.00000E+00
 -1      1786 3.89700E+00 1.10000E+01 0.00000E+00
 -1      1787 3.89700E+00 1.24750E+01 0.00000E+00
 -1      1788 5.19600E+00 1.32000E+01 0.00000E+00
 -1      1789 3.89700E+00 8.05000E+00 0.00000E+00
 -1      1790 3.89700E+00 9.52500E+00 0.00000E+00
 -1      1791 5.19600E+00 1.02500E+01 0.00000E+00
 -1      1792 3.89700E+00 5.10000E+00 0.00000E+00
 -1      1793 3.89700E+00 6.57500E+00 0.00000E+00
 -1      1794 5.19600E+00 7.30000E+00 0.00000E+00
 -1      1795 4.20450E+00 3.09687E+00 0.00000E+00
 -1      1796 4.06650E+00 4.19063E+00 0.00000E+00
 -1      1797 5.36550E+00 4.91563E+00 0.00000E+00
 -1      1798 5.70450E+00 3.09687E+00 0.00000E+00
 -1      1799 3.62400E+00 4.64885E+01 0.00000E+00
 -1      1800 8.70450E+00 3.09687E+00 0.00000E+00
 -1      1801 7.20450E+00 3.09687E+00 0.00000E+00
 -1      1802 7.03500E+00 4.00625E+00 0.00000E+00
 -1      1803 4.42825E+01 4.65164E+01 0.00000E+00
 -1      1804 4.57075E+01 4.66227E+01 0.00000E+00
 -1      1805 8.40000E+00 4.61030E+01 0.00000E+00
 -1      1806 9.90000E+00 4.61030E+01 0.00000E+00
 -1      1807 1.14000E+01 4.61030E+01 0.00000E+00
 -1      1808 1.29000E+01 4.61030E+01 0.00000E+00
 -1      1809 1.06500E+01 4.48040E+01 0.00000E+00
 -1      1810 1.44000E+01 4.61030E+01 0.00000E+00
 -1      1811 1.59000E+01 4.61030E+01 0.00000E+00
 -1      1812 1.36500E+01 4.48040E+01 0.00000E+00
 -1      1813 1.74000E+01 4.61030E+01 0.00000E+00
 -1      1814 1.89000E+01 4.61030E+01 0.00000E+00
 -1      1815 1.66500E+01 4.48040E+01 0.00000E+00
 -1      1816 2.04750E+01 4.61030E+01 0.00000E+00
 -1      1817 2.20500E+01 4.61030E+01 0.00000E+00
 -1      1818 1.97250E+01 4.48040E+01 0.00000E+00
 -1      1819 2.35500E+01 4.61030E+01 0.00000E+00
 -1      1820 2.50500E+01 4.61030E+01 0.00000E+00
 -1      1821 2.28000E+01 4.48040E+01 0.00000E+00
 -1      1822 2.65500E+01 4.61030E+01 0.00000E+00
 -1      1823 2.80500E+01 4.61030E+01 0.00000E+00
 -1      1824 2.58000E+01 4.48040E+01 0.00000E+00
 -1      1825 2.95500E+01 4.61030E+01 0.00000E+00
 -1      1826 3.10500E+01 4.61030E+01 0.00000E+00
 -1      1827 2.88000E+01 4.48040E+01 0.00000E+00
 -1      1828 3.25500E+01 4.61030E+01 0.00000E+00
 -1      1829 3.40500E+01 4.61030E+01 0.00000E+00
 -1      1830 3.18000E+01 4.48040E+01 0.00000E+00
 -1      1831 3.55500E+01 4.61030E+01 0.00000E+00
 -1      1832 3.70500E+01 4.61030E+01 0.00000E+00
 -1      1833 3.48000E+01 4.48040E+01 0.00000E+00
 -1      1834 3.85500E+01 4.61030E+01 0.00000E+00
 -1      1835 4.00500E+01 4.61030E+01 0.00000E+00
 -1      1836 3.78000E+01 4.48040E+01 0.00000E+00
 -1      1837 4.14000E+01 4.61030E+01 0.00000E+00
 -1      1838 4.27500E+01 4.61030E+01 0.00000E+00
 -1      1839 4.06500E+01 4.48040E+01 0.00000E+00
 -1      1840 5.97336E+01 3.26601E+01 0.00000E+00
 -1      1841 6.02856E+01 3.33360E+01 0.00000E+00
 -1      1842 4.92300E+00 4.57510E+01 0.00000E+00
 -1      1843 5.15959E+01 4.72415E+01 0.00000E+00
 -1      1844 5.26459E+01 4.72415E+01 0.00000E+00
 -1      1845 5.35419E+01 4.71565E+01 0.00000E+00
 -1      1846 5.46669E+01 4.71565E+01 0.00000E+00
 -1      1847 5.89875E+01 4.67571E+01 0.00000E+00
 -1      1848 6.05625E+01 4.67571E+01 0.00000E+00
 -1      1849 6.21000E+01 4.65057E+01 0.00000E+00
 -1      1850 6.36000E+01 4.65057E+01 0.00000E+00
 -1      1851 6.51000E+01 4.65057E+01 0.00000E+00
 -1      1852 6.66000E+01 4.65057E+01 0.00000E+00
 -1      1853 6.43500E+01 4.52292E+01 0.00000E+00
 -1      1854 6.81000E+01 4.65057E+01 0.00000E+00
 -1      1855 6.96000E+01 4.65057E+01 0.00000E+00
 -1      1856 6.73500E+01 4.52292E+01 0.00000E+00
 -1      1857 7.11000E+01 4.65057E+01 0.00000E+00
 -1      1858 7.26000E+01 4.65057E+01 0.00000E+00
 -1      1859 7.03500E+01 4.52292E+01 0.00000E+00
 -1      1860 7.41000E+01 4.65057E+01 0.00000E+00
 -1      1861 7.56000E+01 4.65057E+01 0.00000E+00
 -1      1862 7.33500E+01 4.52292E+01 0.00000E+00
 -1      1863 7.71000E+01 4.65057E+01 0.00000E+00
 -1      1864 7.86000E+01 4.65057E+01 0.00000E+00
 -1      1865 7.63500E+01 4.52292E+01 0.00000E+00
 -1      1866 8.01750E+01 4.65057E+01 0.00000E+00
 -1      1867 8.17500E+01 4.65057E+01 0.00000E+00
 -1      1868 7.94250E+01 4.52292E+01 0.00000E+00
 -1      1869 8.32500E+01 4.65057E+01 0.00000E+00
 -1      1870 8.47500E+01 4.65057E+01 0.00000E+00
 -1      1871 8.25000E+01 4.52292E+01 0.00000E+00
 -1      1872 8.62500E+01 4.65057E+01 0.00000E+00
 -1      1873 8.77500E+01 4.65057E+01 0.00000E+00
 -1      1874 8.55000E+01 4.52292E+01 0.00000E+00
 -1      1875 8.92500E+01 4.65057E+01 0.00000E+00
 -1      1876 9.07500E+01 4.65057E+01 0.00000E+00
 -1      1877 8.85000E+01 4.52292E+01 0.00000E+00
 -1      1878 9.22500E+01 4.65057E+01 0.00000E+00
 -1      1879 9.37500E+01 4.65057E+01 0.00000E+00
 -1      1880 9.15000E+01 4.52292E+01 0.00000E+00
 -1      1881 9.52500E+01 4.65057E+01 0.00000E+00
 -1      1882 9.67500E+01 4.65057E+01 0.00000E+00
 -1      1883 9.45000E+01 4.52292E+01 0.00000E+00
 -1      1884 9.82500E+01 4.65057E+01 0.00000E+00
 -1      1885 9.97500E+01 4.65057E+01 0.00000E+00
 -1      1886 9.75000E+01 4.52292E+01 0.00000E+00
 -1      1887 1.01250E+02 4.65057E+01 0.00000E+00
 -1      1888 1.02750E+02 4.65057E+01 0.00000E+00
 -1      1889 1.00500E+02 4.52292E+01 0.00000E+00
 -1      1890 1.04325E+02 4.65057E+01 0.00000E+00
 -1      1891 1.05900E+02 4.65057E+01 0.00000E+00
 -1      1892 1.03575E+02 4.52292E+01 0.00000E+00
 -1      1893 1.07400E+02 4.65057E+01 0.00000E+00
 -1      1894 1.08900E+02 4.65057E+01 0.00000E+00
 -1      1895 1.06650E+02 4.52292E+01 0.00000E+00
 -1      1896 1.10400E+02 4.65057E+01 0.00000E+00
 -1      1897 1.11900E+02 4.65057E+01 0.00000E+00
 -1      1898 1.09650E+02 4.52292E+01 0.00000E+00
 -1      1899 1.13400E+02 4.65057E+01 0.00000E+00
 -1      1900 1.14900E+02 4.65057E+01 0.00000E+00
 -1      1901 1.12650E+02 4.52292E+01 0.00000E+00
 -1      1902 1.16400E+02 4.65057E+01 0.00000E+00
 -1      1903 1.17900E+02 4.65057E+01 0.00000E+00
 -1      1904 1.15650E+02 4.52292E+01 0.00000E+00
 -1      1905 1.19400E+02 4.65057E+01 0.00000E+00
 -1      1906 1.20900E+02 4.65057E+01 0.00000E+00
 -1      1907 1.18650E+02 4.52292E+01 0.00000E+00
 -1      1908 1.22400E+02 4.65057E+01 0.00000E+00
 -1      1909 1.23900E+02 4.65057E+01 0.00000E+00
 -1      1910 1.21650E+02 4.52292E+01 0.00000E+00
 -1      1911 1.25475E+02 4.65057E+01 0.00000E+00
 -1      1912 1.27050E+02 4.65057E+01 0.00000E+00
 -1      1913 1.24725E+02 4.52292E+01 0.00000E+00
 -1      1914 1.28550E+02 4.65057E+01 0.00000E+00
 -1      1915 1.30050E+02 4.65057E+01 0.00000E+00
 -1      1916 1.27800E+02 4.52292E+01 0.00000E+00
 -1      1917 1.31550E+02 4.65057E+01 0.00000E+00
 -1      1918 1.33050E+02 4.65057E+01 0.00000E+00
 -1      1919 1.30800E+02 4.52292E+01 0.00000E+00
 -1      1920 1.34550E+02 4.65057E+01 0.00000E+00
 -1      1921 1.36050E+02 4.65057E+01 0.00000E+00
 -1      1922 1.33800E+02 4.52292E+01 0.00000E+00
 -1      1923 1.37550E+02 4.65057E+01 0.00000E+00
 -1      1924 1.39050E+02 4.65057E+01 0.00000E+00
 -1      1925 1.36800E+02 4.52292E+01 0.00000E+00
 -1      1926 1.40550E+02 4.65057E+01 0.00000E+00
 -1      1927 1.42050E+02 4.65057E+01 0.00000E+00
 -1      1928 1.39800E+02 4.52292E+01 0.00000E+00
 -1      1929 1.43550E+02 4.65057E+01 0.00000E+00
 -1      1930 1.45050E+02 4.65057E+01 0.00000E+00
 -1      1931 1.42800E+02 4.52292E+01 0.00000E+00
 -1      1932 1.46725E+02 4.64201E+01 0.00000E+00
 -1      1933 1.41240E+01 3.48650E+00 0.00000E+00
 -1      1934 1.26240E+01 3.48650E+00 0.00000E+00
 -1      1935 1.71240E+01 3.48650E+00 0.00000E+00
 -1      1936 1.56240E+01 3.48650E+00 0.00000E+00
 -1      1937 1.48740E+01 4.78550E+00 0.00000E+00
 -1      1938 2.01240E+01 3.48650E+00 0.00000E+00
 -1      1939 1.86240E+01 3.48650E+00 0.00000E+00
 -1      1940 1.78740E+01 4.78550E+00 0.00000E+00
 -1      1941 2.31240E+01 3.48650E+00 0.00000E+00
 -1      1942 2.16240E+01 3.48650E+00 0.00000E+00
 -1      1943 2.08740E+01 4.78550E+00 0.00000E+00
 -1      1944 2.61240E+01 3.48650E+00 0.00000E+00
 -1      1945 2.46240E+01 3.48650E+00 0.00000E+00
 -1      1946 2.38740E+01 4.78550E+00 0.00000E+00
 -1      1947 2.91240E+01 3.48650E+00 0.00000E+00
 -1      1948 2.76240E+01 3.48650E+00 0.00000E+00
 -1      1949 2.68740E+01 4.78550E+00 0.00000E+00
 -1      1950 3.21240E+01 3.48650E+00 0.00000E+00
 -1      1951 3.06240E+01 3.48650E+00 0.00000E+00
 -1      1952 2.98740E+01 4.78550E+00 0.00000E+00
 -1      1953 3.51240E+01 3.48650E+00 0.00000E+00
 -1      1954 3.36240E+01 3.48650E+00 0.00000E+00
 -1      1955 3.28740E+01 4.78550E+00 0.00000E+00
 -1      1956 3.81240E+01 3.48650E+00 0.00000E+00
 -1      1957 3.66240E+01 3.48650E+00 0.00000E+00
 -1      1958 3.58740E+01 4.78550E+00 0.00000E+00
 -1      1959 4.11240E+01 3.48650E+00 0.00000E+00
 -1      1960 3.96240E+01 3.48650E+00 0.00000E+00
 -1      1961 3.88740E+01 4.78550E+00 0.00000E+00
 -1      1962 4.41240E+01 3.48650E+00 0.00000E+00
 -1      1963 4.26240E+01 3.48650E+00 0.00000E+00
 -1      1964 4.18740E+01 4.78550E+00 0.00000E+00
 -1      1965 4.71240E+01 3.48650E+00 0.00000E+00
 -1      1966 4.56240E+01 3.48650E+00 0.00000E+00
 -1      1967 4.48740E+01 4.78550E+00 0.00000E+00
 -1      1968 5.01240E+01 3.48650E+00 0.00000E+00
 -1      1969 4.86240E+01 3.48650E+00 0.00000E+00
 -1      1970 4.78740E+01 4.78550E+00 0.00000E+00
 -1      1971 5.31240E+01 3.48650E+00 0.00000E+00
 -1      1972 5.16240E+01 3.48650E+00 0.00000E+00
 -1      1973 5.08740E+01 4.78550E+00 0.00000E+00
 -1      1974 5.61240E+01 3.48650E+00 0.00000E+00
 -1      1975 5.46240E+01 3.48650E+00 0.00000E+00
 -1      1976 5.38740E+01 4.78550E+00 0.00000E+00
 -1      1977 5.91240E+01 3.48650E+00 0.00000E+00
 -1      1978 5.76240E+01 3.48650E+00 0.00000E+00
 -1      1979 5.68740E+01 4.78550E+00 0.00000E+00
 -1      1980 6.21240E+01 3.48650E+00 0.00000E+00
 -1      1981 6.06240E+01 3.48650E+00 0.00000E+00
 -1      1982 5.98740E+01 4.78550E+00 0.00000E+00
 -1      1983 6.51240E+01 3.48650E+00 0.00000E+00
 -1      1984 6.36240E+01 3.48650E+00 0.00000E+00
 -1      1985 6.28740E+01 4.78550E+00 0.00000E+00
 -1      1986 6.81240E+01 3.48650E+00 0.00000E+00
 -1      1987 6.66240E+01 3.48650E+00 0.00000E+00
 -1      1988 6.58740E+01 4.78550E+00 0.00000E+00
 -1      1989 7.11240E+01 3.48650E+00 0.00000E+00
 -1      1990 6.96240E+01 3.48650E+00 0.00000E+00
 -1      1991 6.88740E+01 4.78550E+00 0.00000E+00
 -1      1992 7.41240E+01 3.48650E+00 0.00000E+00
 -1      1993 7.26240E+01 3.48650E+00 0.00000E+00
 -1      1994 7.18740E+01 4.78550E+00 0.00000E+00
 -1      1995 7.71240E+01 3.48650E+00 0.00000E+00
 -1      1996 7.56240E+01 3.48650E+00 0.00000E+00
 -1      1997 7.48740E+01 4.78550E+00 0.00000E+00
 -1      1998 8.01240E+01 3.48650E+00 0.00000E+00
 -1      1999 7.86240E+01 3.48650E+00 0.00000E+00
 -1      2000 7.78740E+01 4.78550E+00 0.00000E+00
 -1      2001 8.31240E+01 3.48650E+00 0.00000E+00
 -1      2002 8.16240E+01 3.48650E+00 0.00000E+00
 -1      2003 8.08740E+01 4.78550E+00 0.00000E+00
 -1      2004 8.61240E+01 3.48650E+00 0.00000E+00
 -1      2005 8.46240E+01 3.48650E+00 0.00000E+00
 -1      2006 8.38740E+01 4.78550E+00 0.00000E+00
 -1      2007 8.91240E+01 3.48650E+00 0.00000E+00
 -1      2008 8.76240E+01 3.48650E+00 0.00000E+00
 -1      2009 8.68740E+01 4.78550E+00 0.00000E+00
 -1      2010 9.21240E+01 3.48650E+00 0.00000E+00
 -1      2011 9.06240E+01 3.48650E+00 0.00000E+00
 -1      2012 8.98740E+01 4.78550E+00 0.00000E+00
 -1      2013 9.51240E+01 3.48650E+00 0.00000E+00
 -1      2014 9.36240E+01 3.48650E+00 0.00000E+00
 -1      2015 9.28740E+01 4.78550E+00 0.00000E+00
 -1      2016 9.81240E+01 3.48650E+00 0.00000E+00
 -1      2017 9.66240E+01 3.48650E+00 0.00000E+00
 -1      2018 9.58740E+01 4.78550E+00 0.00000E+00
 -1      2019 1.01124E+02 3.48650E+00 0.00000E+00
 -1      2020 9.96240E+01 3.48650E+00 0.00000E+00
 -1      2021 9.88740E+01 4.78550E+00 0.00000E+00
 -1      2022 1.04124E+02 3.48650E+00 0.00000E+00
 -1      2023 1.02624E+02 3.48650E+00 0.00000E+00
 -1      2024 1.01874E+02 4.78550E+00 0.00000E+00
 -1      2025 1.07124E+02 3.48650E+00 0.00000E+00
 -1      2026 1.05624E+02 3.48650E+00 0.00000E+00
 -1      2027 1.04874E+02 4.78550E+00 0.00000E+00
 -1      2028 1.10124E+02 3.48650E+00 0.00000E+00
 -1      2029 1.08624E+02 3.48650E+00 0.00000E+00
 -1      2030 1.07874E+02 4.78550E+00 0.00000E+00
 -1      2031 1.13124E+02 3.48650E+00 0.00000E+00
 -1      2032 1.11624E+02 3.48650E+00 0.00000E+00
 -1      2033 1.10874E+02 4.78550E+00 0.00000E+00
 -1      2034 1.16124E+02 3.48650E+00 0.00000E+00
 -1      2035 1.14624E+02 3.48650E+00 0.00000E+00
 -1      2036 1.13874E+02 4.78550E+00 0.00000E+00
 -1      2037 1.19124E+02 3.48650E+00 0.00000E+00
 -1      2038 1.17624E+02 3.48650E+00 0.00000E+00
 -1      2039 1.16874E+02 4.78550E+00 0.00000E+00
 -1      2040 1.22124E+02 3.48650E+00 0.00000E+00
 -1      2041 1.20624E+02 3.48650E+00 0.00000E+00
 -1      2042 1.19874E+02 4.78550E+00 0.00000E+00
 -1      2043 1.25124E+02 3.48650E+00 0.00000E+00
 -1      2044 1.23624E+02 3.48650E+00 0.00000E+00
 -1      2045 1.22874E+02 4.78550E+00 0.00000E+00
 -1      2046 1.28124E+02 3.48650E+00 0.00000E+00
 -1      2047 1.26624E+02 3.48650E+00 0.00000E+00
 -1      2048 1.25874E+02 4.78550E+00 0.00000E+00
 -1      2049 1.31124E+02 3.48650E+00 0.00000E+00
 -1      2050 1.29624E+02 3.48650E+00 0.00000E+00
 -1      2051 1.28874E+02 4.78550E+00 0.00000E+00
 -1      2052 1.34124E+02 3.48650E+00 0.00000E+00
 -1      2053 1.32624E+02 3.48650E+00 0.00000E+00
 -1      2054 1.31874E+02 4.78550E+00 0.00000E+00
 -1      2055 1.37124E+02 3.48650E+00 0.00000E+00
 -1      2056 1.35624E+02 3.48650E+00 0.00000E+00
 -1      2057 1.34874E+02 4.78550E+00 0.00000E+00
 -1      2058 1.40124E+02 3.48650E+00 0.00000E+00
 -1      2059 1.38624E+02 3.48650E+00 0.00000E+00
 -1      2060 1.37874E+02 4.78550E+00 0.00000E+00
 -1      2061 1.43124E+02 3.48650E+00 0.00000E+00
 -1      2062 1.41624E+02 3.48650E+00 0.00000E+00
 -1      2063 1.40874E+02 4.78550E+00 0.00000E+00
 -1      2064 1.45881E+02 3.39637E+00 0.00000E+00
 -1      2065 1.44381E+02 3.39637E+00 0.00000E+00
 -1      2066 1.43631E+02 4.69537E+00 0.00000E+00
 -1      2067 1.46145E+02 4.51512E+00 0.00000E+00
 -1      2068 1.46103E+02 1.25375E+01 0.00000E+00
 -1      2069 1.46103E+02 1.10625E+01 0.00000E+00
 -1      2070 1.46103E+02 9.58750E+00 0.00000E+00
 -1      2071 1.46103E+02 8.11250E+00 0.00000E+00
 -1      2072 1.44804E+02 1.03250E+01 0.00000E+00
 -1      2073 1.46145E+02 5.99013E+00 0.00000E+00
 -1      2074 1.46103E+02 1.54375E+01 0.00000E+00
 -1      2075 1.46103E+02 1.39875E+01 0.00000E+00
 -1      2076 1.44804E+02 1.32500E+01 0.00000E+00
 -1      2077 1.46103E+02 1.83875E+01 0.00000E+00
 -1      2078 1.46103E+02 1.69125E+01 0.00000E+00
 -1      2079 1.44804E+02 1.61750E+01 0.00000E+00
 -1      2080 1.46103E+02 2.13375E+01 0.00000E+00
 -1      2081 1.46103E+02 1.98625E+01 0.00000E+00
 -1      2082 1.44804E+02 1.91250E+01 0.00000E+00
 -1      2083 1.46103E+02 2.42875E+01 0.00000E+00
 -1      2084 1.46103E+02 2.28125E+01 0.00000E+00
 -1      2085 1.44804E+02 2.20750E+01 0.00000E+00
 -1      2086 1.46103E+02 2.72375E+01 0.00000E+00
 -1      2087 1.46103E+02 2.57625E+01 0.00000E+00
 -1      2088 1.44804E+02 2.50250E+01 0.00000E+00
 -1      2089 1.46103E+02 3.01875E+01 0.00000E+00
 -1      2090 1.46103E+02 2.87125E+01 0.00000E+00
 -1      2091 1.44804E+02 2.79750E+01 0.00000E+00
 -1      2092 1.46103E+02 3.30875E+01 0.00000E+00
 -1      2093 1.46103E+02 3.16375E+01 0.00000E+00
 -1      2094 1.44804E+02 3.09000E+01 0.00000E+00
 -1      2095 1.46103E+02 3.60375E+01 0.00000E+00
 -1      2096 1.46103E+02 3.45625E+01 0.00000E+00
 -1      2097 1.44804E+02 3.38250E+01 0.00000E+00
 -1      2098 1.46103E+02 3.89875E+01 0.00000E+00
 -1      2099 1.46103E+02 3.75125E+01 0.00000E+00
 -1      2100 1.44804E+02 3.67750E+01 0.00000E+00
 -1      2101 1.46103E+02 4.19375E+01 0.00000E+00
 -1      2102 1.46103E+02 4.04625E+01 0.00000E+00
 -1      2103 1.44804E+02 3.97250E+01 0.00000E+00
 -1      2104 1.14143E+01 3.29169E+00 0.00000E+00
 -1      2105 9.91425E+00 3.29169E+00 0.00000E+00
 -1      2106 9.74475E+00 4.20106E+00 0.00000E+00
 -1      2107 1.21643E+01 4.59069E+00 0.00000E+00
 -1      2108 6.07910E+01 3.42659E+01 0.00000E+00
 -1      2109 6.11989E+01 3.50671E+01 0.00000E+00
 -1      2110 5.85769E+01 3.12223E+01 0.00000E+00
 -1      2111 5.91553E+01 3.19412E+01 0.00000E+00
 -1      2112 6.00954E+01 3.17366E+01 0.00000E+00
 -1      2113 6.16641E+01 3.79888E+01 0.00000E+00
 -1      2114 6.16948E+01 3.89026E+01 0.00000E+00
 -1      2115 3.89700E+00 3.74688E+01 0.00000E+00
 -1      2116 3.89700E+00 3.89437E+01 0.00000E+00
 -1      2117 5.19600E+00 3.96813E+01 0.00000E+00
 -1      2118 5.19600E+00 3.67438E+01 0.00000E+00
 -1      2119 5.65625E+01 3.02110E+01 0.00000E+00
 -1      2120 5.74499E+01 3.05055E+01 0.00000E+00
 -1      2121 5.49090E+01 2.97329E+01 0.00000E+00
 -1      2122 5.57357E+01 2.99719E+01 0.00000E+00
 -1      2123 5.64363E+01 2.93450E+01 0.00000E+00
 -1      2124 5.31439E+01 2.92855E+01 0.00000E+00
 -1      2125 5.40265E+01 2.95092E+01 0.00000E+00
 -1      2126 5.47271E+01 2.88823E+01 0.00000E+00
 -1      2127 5.09311E+01 2.96789E+01 0.00000E+00
 -1      2128 5.18181E+01 2.94199E+01 0.00000E+00
 -1      2129 4.91612E+01 3.00977E+01 0.00000E+00
 -1      2130 5.00334E+01 2.98502E+01 0.00000E+00
 -1      2131 4.73758E+01 3.10958E+01 0.00000E+00
 -1      2132 4.81049E+01 3.05652E+01 0.00000E+00
 -1      2133 4.61105E+01 3.25683E+01 0.00000E+00
 -1      2134 4.66566E+01 3.18917E+01 0.00000E+00
 -1      2135 4.51442E+01 3.40718E+01 0.00000E+00
 -1      2136 4.55992E+01 3.33529E+01 0.00000E+00
 -1      2137 4.43553E+01 3.57402E+01 0.00000E+00
 -1      2138 4.46965E+01 3.49309E+01 0.00000E+00
 -1      2139 4.39706E+01 3.76226E+01 0.00000E+00
 -1      2140 4.40536E+01 3.67612E+01 0.00000E+00
 -1      2141 4.37836E+01 3.94584E+01 0.00000E+00
 -1      2142 4.38771E+01 3.85405E+01 0.00000E+00
 -1      2143 4.32318E+01 3.80436E+01 0.00000E+00
 -1      2144 4.44730E+01 4.14816E+01 0.00000E+00
 -1      2145 4.40578E+01 4.06587E+01 0.00000E+00
 -1      2146 4.52176E+01 4.30443E+01 0.00000E+00
 -1      2147 4.48178E+01 4.23174E+01 0.00000E+00
 -1      2148 4.62178E+01 4.45449E+01 0.00000E+00
 -1      2149 4.57137E+01 4.38338E+01 0.00000E+00
 -1      2150 4.78401E+01 4.57690E+01 0.00000E+00
 -1      2151 4.70821E+01 4.52986E+01 0.00000E+00
 -1      2152 5.07413E+01 4.69683E+01 0.00000E+00
 -1      2153 5.55793E+01 4.69894E+01 0.00000E+00
 -1      2154 5.91679E+01 4.49611E+01 0.00000E+00
 -1      2155 5.84641E+01 4.55232E+01 0.00000E+00
 -1      2156 6.02940E+01 4.35543E+01 0.00000E+00
 -1      2157 5.97310E+01 4.42577E+01 0.00000E+00
 -1      2158 6.03380E+01 4.50285E+01 0.00000E+00
 -1      2159 6.10860E+01 4.19346E+01 0.00000E+00
 -1      2160 6.06900E+01 4.27444E+01 0.00000E+00
 -1      2161 6.12971E+01 4.35152E+01 0.00000E+00
 -1      2162 6.16695E+01 4.01521E+01 0.00000E+00
 -1      2163 6.13778E+01 4.10433E+01 0.00000E+00
 -1      2164 6.19848E+01 4.18142E+01 0.00000E+00
 -1      2165 6.15073E+01 3.61328E+01 0.00000E+00
 -1      2166 6.16511E+01 3.70002E+01 0.00000E+00
 -1      2167 4.95413E+01 4.69683E+01 0.00000E+00
 -1      2168 4.87415E+01 4.66001E+01 0.00000E+00
 -1      2169 4.60812E+01 4.58755E+01 0.00000E+00
 -1      2170 4.67237E+01 4.68674E+01 0.00000E+00
 -1      2171 6.11791E+01 3.33855E+01 0.00000E+00
 -1      2172 6.42300E+00 4.57510E+01 0.00000E+00
 -1      2173 7.17300E+00 4.44520E+01 0.00000E+00
 -1      2174 5.83901E+01 3.03009E+01 0.00000E+00
 -1      2175 6.23019E+01 3.96734E+01 0.00000E+00
 -1      2176 5.68543E+01 4.69894E+01 0.00000E+00
 -1      2177 6.13125E+01 4.54806E+01 0.00000E+00
 -1      2178 1.45975E+02 4.51436E+01 0.00000E+00
 -1      2179 1.44846E+02 6.72762E+00 0.00000E+00
 -1      2180 4.53353E+01 3.25812E+01 0.00000E+00
 -1      2181 1.45851E+02 4.39521E+01 0.00000E+00
 -1      2182 6.19929E+01 3.53811E+01 0.00000E+00
 -1      2183 6.23142E+01 3.74354E+01 0.00000E+00
 -1      2184 4.65658E+01 3.10008E+01 0.00000E+00
 -1      2185 4.62330E+01 4.53664E+01 0.00000E+00
 -1      2186 4.48725E+01 4.38231E+01 0.00000E+00
 -1      2187 4.34125E+01 4.01618E+01 0.00000E+00
 -1      2188 4.27672E+01 3.96649E+01 0.00000E+00
 -1      2189 4.30414E+01 4.08651E+01 0.00000E+00
 -1      2190 4.36270E+01 3.61048E+01 0.00000E+00
 -1      2191 4.43764E+01 3.42248E+01 0.00000E+00
 -1      2192 4.83413E+01 2.97373E+01 0.00000E+00
 -1      2193 5.18936E+01 2.83004E+01 0.00000E+00
 -1      2194 5.25188E+01 2.87929E+01 0.00000E+00
 -1      2195 5.32194E+01 2.81660E+01 0.00000E+00
 -1      2196 4.74665E+01 4.65163E+01 0.00000E+00
 -1      2197 5.76766E+01 4.65484E+01 0.00000E+00
 -1      2198 5.02952E+01 2.90986E+01 0.00000E+00
 -1      2199 1.44552E+02 4.32146E+01 0.00000E+00
 -1      2200 4.40316E+01 4.21978E+01 0.00000E+00
 -1      2201 6.49500E+00 3.01125E+01 0.00000E+00
 -1      2202 6.49500E+00 3.15875E+01 0.00000E+00
 -1      2203 6.49500E+00 3.30625E+01 0.00000E+00
 -1      2204 6.49500E+00 3.45375E+01 0.00000E+00
 -1      2205 7.79400E+00 3.23250E+01 0.00000E+00
 -1      2206 6.49500E+00 2.42125E+01 0.00000E+00
 -1      2207 6.49500E+00 2.56875E+01 0.00000E+00
 -1      2208 6.49500E+00 2.12625E+01 0.00000E+00
 -1      2209 6.49500E+00 2.27375E+01 0.00000E+00
 -1      2210 7.79400E+00 2.34750E+01 0.00000E+00
 -1      2211 6.49500E+00 1.83625E+01 0.00000E+00
 -1      2212 6.49500E+00 1.98125E+01 0.00000E+00
 -1      2213 7.79400E+00 2.05500E+01 0.00000E+00
 -1      2214 6.49500E+00 1.54125E+01 0.00000E+00
 -1      2215 6.49500E+00 1.68875E+01 0.00000E+00
 -1      2216 7.79400E+00 1.76250E+01 0.00000E+00
 -1      2217 6.49500E+00 1.24625E+01 0.00000E+00
 -1      2218 6.49500E+00 1.39375E+01 0.00000E+00
 -1      2219 7.79400E+00 1.46750E+01 0.00000E+00
 -1      2220 6.49500E+00 9.51250E+00 0.00000E+00
 -1      2221 6.49500E+00 1.09875E+01 0.00000E+00
 -1      2222 7.79400E+00 1.17250E+01 0.00000E+00
 -1      2223 6.49500E+00 6.56250E+00 0.00000E+00
 -1      2224 6.49500E+00 8.03750E+00 0.00000E+00
 -1      2225 7.79400E+00 8.77500E+00 0.00000E+00
 -1      2226 6.84975E+00 4.82969E+00 0.00000E+00
 -1      2227 6.68025E+00 5.73906E+00 0.00000E+00
 -1      2228 7.97925E+00 6.47656E+00 0.00000E+00
 -1      2229 8.34975E+00 4.82969E+00 0.00000E+00
 -1      2230 5.82418E+01 2.92896E+01 0.00000E+00
 -1      2231 5.93689E+01 3.00064E+01 0.00000E+00
 -1      2232 6.17535E+01 3.24711E+01 0.00000E+00
 -1      2233 6.22589E+01 3.34010E+01 0.00000E+00
 -1      2234 9.90000E+00 4.35050E+01 0.00000E+00
 -1      2235 1.14000E+01 4.35050E+01 0.00000E+00
 -1      2236 4.35325E+01 4.52174E+01 0.00000E+00
 -1      2237 1.29000E+01 4.35050E+01 0.00000E+00
 -1      2238 1.44000E+01 4.35050E+01 0.00000E+00
 -1      2239 1.21500E+01 4.22060E+01 0.00000E+00
 -1      2240 1.59000E+01 4.35050E+01 0.00000E+00
 -1      2241 1.74000E+01 4.35050E+01 0.00000E+00
 -1      2242 1.51500E+01 4.22060E+01 0.00000E+00
 -1      2243 1.89750E+01 4.35050E+01 0.00000E+00
 -1      2244 2.05500E+01 4.35050E+01 0.00000E+00
 -1      2245 1.82250E+01 4.22060E+01 0.00000E+00
 -1      2246 2.20500E+01 4.35050E+01 0.00000E+00
 -1      2247 2.35500E+01 4.35050E+01 0.00000E+00
 -1      2248 2.13000E+01 4.22060E+01 0.00000E+00
 -1      2249 2.50500E+01 4.35050E+01 0.00000E+00
 -1      2250 2.65500E+01 4.35050E+01 0.00000E+00
 -1      2251 2.43000E+01 4.22060E+01 0.00000E+00
 -1      2252 2.80500E+01 4.35050E+01 0.00000E+00
 -1      2253 2.95500E+01 4.35050E+01 0.00000E+00
 -1      2254 2.73000E+01 4.22060E+01 0.00000E+00
 -1      2255 3.10500E+01 4.35050E+01 0.00000E+00
 -1      2256 3.25500E+01 4.35050E+01 0.00000E+00
 -1      2257 3.03000E+01 4.22060E+01 0.00000E+00
 -1      2258 3.40500E+01 4.35050E+01 0.00000E+00
 -1      2259 3.55500E+01 4.35050E+01 0.00000E+00
 -1      2260 3.33000E+01 4.22060E+01 0.00000E+00
 -1      2261 3.70500E+01 4.35050E+01 0.00000E+00
 -1      2262 3.85500E+01 4.35050E+01 0.00000E+00
 -1      2263 3.63000E+01 4.22060E+01 0.00000E+00
 -1      2264 3.99750E+01 4.38627E+01 0.00000E+00
 -1      2265 4.13250E+01 4.38627E+01 0.00000E+00
 -1      2266 6.55950E+00 4.28890E+01 0.00000E+00
 -1      2267 8.53650E+00 4.32410E+01 0.00000E+00
 -1      2268 9.28650E+00 4.19420E+01 0.00000E+00
 -1      2269 6.55950E+00 4.14140E+01 0.00000E+00
 -1      2270 1.43589E+02 6.81775E+00 0.00000E+00
 -1      2271 6.66000E+01 4.40365E+01 0.00000E+00
 -1      2272 6.81000E+01 4.40365E+01 0.00000E+00
 -1      2273 6.96000E+01 4.40365E+01 0.00000E+00
 -1      2274 7.11000E+01 4.40365E+01 0.00000E+00
 -1      2275 6.88500E+01 4.28438E+01 0.00000E+00
 -1      2276 7.26000E+01 4.40365E+01 0.00000E+00
 -1      2277 7.41000E+01 4.40365E+01 0.00000E+00
 -1      2278 7.18500E+01 4.28438E+01 0.00000E+00
 -1      2279 7.56000E+01 4.40365E+01 0.00000E+00
 -1      2280 7.71000E+01 4.40365E+01 0.00000E+00
 -1      2281 7.48500E+01 4.28438E+01 0.00000E+00
 -1      2282 7.86750E+01 4.40365E+01 0.00000E+00
 -1      2283 8.02500E+01 4.40365E+01 0.00000E+00
 -1      2284 7.79250E+01 4.28438E+01 0.00000E+00
 -1      2285 8.17500E+01 4.40365E+01 0.00000E+00
 -1      2286 8.32500E+01 4.40365E+01 0.00000E+00
 -1      2287 8.10000E+01 4.28438E+01 0.00000E+00
 -1      2288 8.47500E+01 4.40365E+01 0.00000E+00
 -1      2289 8.62500E+01 4.40365E+01 0.00000E+00
 -1      2290 8.40000E+01 4.28438E+01 0.00000E+00
 -1      2291 8.77500E+01 4.40365E+01 0.00000E+00
 -1      2292 8.92500E+01 4.40365E+01 0.00000E+00
 -1      2293 8.70000E+01 4.28438E+01 0.00000E+00
 -1      2294 9.07500E+01 4.40365E+01 0.00000E+00
 -1      2295 9.22500E+01 4.40365E+01 0.00000E+00
 -1      2296 9.00000E+01 4.28438E+01 0.00000E+00
 -1      2297 9.37500E+01 4.40365E+01 0.00000E+00
 -1      2298 9.52500E+01 4.40365E+01 0.00000E+00
 -1      2299 9.30000E+01 4.28438E+01 0.00000E+00
 -1      2300 9.67500E+01 4.40365E+01 0.00000E+00
 -1      2301 9.82500E+01 4.40365E+01 0.00000E+00
 -1      2302 9.60000E+01 4.28438E+01 0.00000E+00
 -1      2303 9.97500E+01 4.40365E+01 0.00000E+00
 -1      2304 1.01250E+02 4.40365E+01 0.00000E+00
 -1      2305 9.90000E+01 4.28438E+01 0.00000E+00
 -1      2306 1.02825E+02 4.40365E+01 0.00000E+00
 -1      2307 1.04400E+02 4.40365E+01 0.00000E+00
 -1      2308 1.02075E+02 4.28438E+01 0.00000E+00
 -1      2309 1.05900E+02 4.40365E+01 0.00000E+00
 -1      2310 1.07400E+02 4.40365E+01 0.00000E+00
 -1      2311 1.05150E+02 4.28438E+01 0.00000E+00
 -1      2312 1.08900E+02 4.40365E+01 0.00000E+00
 -1      2313 1.10400E+02 4.40365E+01 0.00000E+00
 -1      2314 1.08150E+02 4.28438E+01 0.00000E+00
 -1      2315 1.11900E+02 4.40365E+01 0.00000E+00
 -1      2316 1.13400E+02 4.40365E+01 0.00000E+00
 -1      2317 1.11150E+02 4.28438E+01 0.00000E+00
 -1      2318 1.14900E+02 4.40365E+01 0.00000E+00
 -1      2319 1.16400E+02 4.40365E+01 0.00000E+00
 -1      2320 1.14150E+02 4.28438E+01 0.00000E+00
 -1      2321 1.17900E+02 4.40365E+01 0.00000E+00
 -1      2322 1.19400E+02 4.40365E+01 0.00000E+00
 -1      2323 1.17150E+02 4.28438E+01 0.00000E+00
 -1      2324 1.20900E+02 4.40365E+01 0.00000E+00
 -1      2325 1.22400E+02 4.40365E+01 0.00000E+00
 -1      2326 1.20150E+02 4.28438E+01 0.00000E+00
 -1      2327 1.23975E+02 4.40365E+01 0.00000E+00
 -1      2328 1.25550E+02 4.40365E+01 0.00000E+00
 -1      2329 1.23225E+02 4.28438E+01 0.00000E+00
 -1      2330 1.27050E+02 4.40365E+01 0.00000E+00
 -1      2331 1.28550E+02 4.40365E+01 0.00000E+00
 -1      2332 1.26300E+02 4.28438E+01 0.00000E+00
 -1      2333 1.30050E+02 4.40365E+01 0.00000E+00
 -1      2334 1.31550E+02 4.40365E+01 0.00000E+00
 -1      2335 1.29300E+02 4.28438E+01 0.00000E+00
 -1      2336 1.33050E+02 4.40365E+01 0.00000E+00
 -1      2337 1.34550E+02 4.40365E+01 0.00000E+00
 -1      2338 1.32300E+02 4.28438E+01 0.00000E+00
 -1      2339 1.36050E+02 4.40365E+01 0.00000E+00
 -1      2340 1.37550E+02 4.40365E+01 0.00000E+00
 -1      2341 1.35300E+02 4.28438E+01 0.00000E+00
 -1      2342 1.39050E+02 4.40365E+01 0.00000E+00
 -1      2343 1.40550E+02 4.40365E+01 0.00000E+00
 -1      2344 1.38300E+02 4.28438E+01 0.00000E+00
 -1      2345 1.41801E+02 4.36256E+01 0.00000E+00
 -1      2346 1.43301E+02 4.36256E+01 0.00000E+00
 -1      2347 1.43553E+02 4.16110E+01 0.00000E+00
 -1      2348 1.41051E+02 4.24329E+01 0.00000E+00
 -1      2349 2.16240E+01 6.08450E+00 0.00000E+00
 -1      2350 2.01240E+01 6.08450E+00 0.00000E+00
 -1      2351 1.86240E+01 6.08450E+00 0.00000E+00
 -1      2352 1.71240E+01 6.08450E+00 0.00000E+00
 -1      2353 1.93740E+01 7.38350E+00 0.00000E+00
 -1      2354 1.56240E+01 6.08450E+00 0.00000E+00
 -1      2355 1.41240E+01 6.08450E+00 0.00000E+00
 -1      2356 1.63740E+01 7.38350E+00 0.00000E+00
 -1      2357 2.46240E+01 6.08450E+00 0.00000E+00
 -1      2358 2.31240E+01 6.08450E+00 0.00000E+00
 -1      2359 2.23740E+01 7.38350E+00 0.00000E+00
 -1      2360 2.76240E+01 6.08450E+00 0.00000E+00
 -1      2361 2.61240E+01 6.08450E+00 0.00000E+00
 -1      2362 2.53740E+01 7.38350E+00 0.00000E+00
 -1      2363 3.06240E+01 6.08450E+00 0.00000E+00
 -1      2364 2.91240E+01 6.08450E+00 0.00000E+00
 -1      2365 2.83740E+01 7.38350E+00 0.00000E+00
 -1      2366 3.36240E+01 6.08450E+00 0.00000E+00
 -1      2367 3.21240E+01 6.08450E+00 0.00000E+00
 -1      2368 3.13740E+01 7.38350E+00 0.00000E+00
 -1      2369 3.66240E+01 6.08450E+00 0.00000E+00
 -1      2370 3.51240E+01 6.08450E+00 0.00000E+00
 -1      2371 3.43740E+01 7.38350E+00 0.00000E+00
 -1      2372 3.96240E+01 6.08450E+00 0.00000E+00
 -1      2373 3.81240E+01 6.08450E+00 0.00000E+00
 -1      2374 3.73740E+01 7.38350E+00 0.00000E+00
 -1      2375 4.26240E+01 6.08450E+00 0.00000E+00
 -1      2376 4.11240E+01 6.08450E+00 0.00000E+00
 -1      2377 4.03740E+01 7.38350E+00 0.00000E+00
 -1      2378 4.56240E+01 6.08450E+00 0.00000E+00
 -1      2379 4.41240E+01 6.08450E+00 0.00000E+00
 -1      2380 4.33740E+01 7.38350E+00 0.00000E+00
 -1      2381 4.86240E+01 6.08450E+00 0.00000E+00
 -1      2382 4.71240E+01 6.08450E+00 0.00000E+00
 -1      2383 4.63740E+01 7.38350E+00 0.00000E+00
 -1      2384 5.16240E+01 6.08450E+00 0.00000E+00
 -1      2385 5.01240E+01 6.08450E+00 0.00000E+00
 -1      2386 4.93740E+01 7.38350E+00 0.00000E+00
 -1      2387 5.46240E+01 6.08450E+00 0.00000E+00
 -1      2388 5.31240E+01 6.08450E+00 0.00000E+00
 -1      2389 5.23740E+01 7.38350E+00 0.00000E+00
 -1      2390 5.76240E+01 6.08450E+00 0.00000E+00
 -1      2391 5.61240E+01 6.08450E+00 0.00000E+00
 -1      2392 5.53740E+01 7.38350E+00 0.00000E+00
 -1      2393 6.06240E+01 6.08450E+00 0.00000E+00
 -1      2394 5.91240E+01 6.08450E+00 0.00000E+00
 -1      2395 5.83740E+01 7.38350E+00 0.00000E+00
 -1      2396 6.36240E+01 6.08450E+00 0.00000E+00
 -1      2397 6.21240E+01 6.08450E+00 0.00000E+00
 -1      2398 6.13740E+01 7.38350E+00 0.00000E+00
 -1      2399 6.66240E+01 6.08450E+00 0.00000E+00
 -1      2400 6.51240E+01 6.08450E+00 0.00000E+00
 -1      2401 6.43740E+01 7.38350E+00 0.00000E+00
 -1      2402 6.96240E+01 6.08450E+00 0.00000E+00
 -1      2403 6.81240E+01 6.08450E+00 0.00000E+00
 -1      2404 6.73740E+01 7.38350E+00 0.00000E+00
 -1      2405 7.26240E+01 6.08450E+00 0.00000E+00
 -1      2406 7.11240E+01 6.08450E+00 0.00000E+00
 -1      2407 7.03740E+01 7.38350E+00 0.00000E+00
 -1      2408 7.56240E+01 6.08450E+00 0.00000E+00
 -1      2409 7.41240E+01 6.08450E+00 0.00000E+00
 -1      2410 7.33740E+01 7.38350E+00 0.00000E+00
 -1      2411 7.86240E+01 6.08450E+00 0.00000E+00
 -1      2412 7.71240E+01 6.08450E+00 0.00000E+00
 -1      2413 7.63740E+01 7.38350E+00 0.00000E+00
 -1      2414 8.16240E+01 6.08450E+00 0.00000E+00
 -1      2415 8.01240E+01 6.08450E+00 0.00000E+00
 -1      2416 7.93740E+01 7.38350E+00 0.00000E+00
 -1      2417 8.46240E+01 6.08450E+00 0.00000E+00
 -1      2418 8.31240E+01 6.08450E+00 0.00000E+00
 -1      2419 8.23740E+01 7.38350E+00 0.00000E+00
 -1      2420 8.76240E+01 6.08450E+00 0.00000E+00
 -1      2421 8.61240E+01 6.08450E+00 0.00000E+00
 -1      2422 8.53740E+01 7.38350E+00 0.00000E+00
 -1      2423 9.06240E+01 6.08450E+00 0.00000E+00
 -1      2424 8.91240E+01 6.08450E+00 0.00000E+00
 -1      2425 8.83740E+01 7.38350E+00 0.00000E+00
 -1      2426 9.36240E+01 6.08450E+00 0.00000E+00
 -1      2427 9.21240E+01 6.08450E+00 0.00000E+00
 -1      2428 9.13740E+01 7.38350E+00 0.00000E+00
 -1      2429 9.66240E+01 6.08450E+00 0.00000E+00
 -1      2430 9.51240E+01 6.08450E+00 0.00000E+00
 -1      2431 9.43740E+01 7.38350E+00 0.00000E+00
 -1      2432 9.96240E+01 6.08450E+00 0.00000E+00
 -1      2433 9.81240E+01 6.08450E+00 0.00000E+00
 -1      2434 9.73740E+01 7.38350E+00 0.00000E+00
 -1      2435 1.02624E+02 6.08450E+00 0.00000E+00
 -1      2436 1.01124E+02 6.08450E+00 0.00000E+00
 -1      2437 1.00374E+02 7.38350E+00 0.00000E+00
 -1      2438 1.05624E+02 6.08450E+00 0.00000E+00
 -1      2439 1.04124E+02 6.08450E+00 0.00000E+00
 -1      2440 1.03374E+02 7.38350E+00 0.00000E+00
 -1      2441 1.08624E+02 6.08450E+00 0.00000E+00
 -1      2442 1.07124E+02 6.08450E+00 0.00000E+00
 -1      2443 1.06374E+02 7.38350E+00 0.00000E+00
 -1      2444 1.11624E+02 6.08450E+00 0.00000E+00
 -1      2445 1.10124E+02 6.08450E+00 0.00000E+00
 -1      2446 1.09374E+02 7.38350E+00 0.00000E+00
 -1      2447 1.14624E+02 6.08450E+00 0.00000E+00
 -1      2448 1.13124E+02 6.08450E+00 0.00000E+00
 -1      2449 1.12374E+02 7.38350E+00 0.00000E+00
 -1      2450 1.17624E+02 6.08450E+00 0.00000E+00
 -1      2451 1.16124E+02 6.08450E+00 0.00000E+00
 -1      2452 1.15374E+02 7.38350E+00 0.00000E+00
 -1      2453 1.20624E+02 6.08450E+00 0.00000E+00
 -1      2454 1.19124E+02 6.08450E+00 0.00000E+00
 -1      2455 1.18374E+02 7.38350E+00 0.00000E+00
 -1      2456 1.23624E+02 6.08450E+00 0.00000E+00
 -1      2457 1.22124E+02 6.08450E+00 0.00000E+00
 -1      2458 1.21374E+02 7.38350E+00 0.00000E+00
 -1      2459 1.26624E+02 6.08450E+00 0.00000E+00
 -1      2460 1.25124E+02 6.08450E+00 0.00000E+00
 -1      2461 1.24374E+02 7.38350E+00 0.00000E+00
 -1      2462 1.29624E+02 6.08450E+00 0.00000E+00
 -1      2463 1.28124E+02 6.08450E+00 0.00000E+00
 -1      2464 1.27374E+02 7.38350E+00 0.00000E+00
 -1      2465 1.32624E+02 6.08450E+00 0.00000E+00
 -1      2466 1.31124E+02 6.08450E+00 0.00000E+00
 -1      2467 1.30374E+02 7.38350E+00 0.00000E+00
 -1      2468 1.35624E+02 6.08450E+00 0.00000E+00
 -1      2469 1.34124E+02 6.08450E+00 0.00000E+00
 -1      2470 1.33374E+02 7.38350E+00 0.00000E+00
 -1      2471 1.38624E+02 6.08450E+00 0.00000E+00
 -1      2472 1.37124E+02 6.08450E+00 0.00000E+00
 -1      2473 1.36374E+02 7.38350E+00 0.00000E+00
 -1      2474 1.41624E+02 6.08450E+00 0.00000E+00
 -1      2475 1.40124E+02 6.08450E+00 0.00000E+00
 -1      2476 1.39374E+02 7.38350E+00 0.00000E+00
 -1      2477 1.43505E+02 1.69125E+01 0.00000E+00
 -1      2478 1.43505E+02 1.54375E+01 0.00000E+00
 -1      2479 1.43505E+02 1.39875E+01 0.00000E+00
 -1      2480 1.43505E+02 1.25375E+01 0.00000E+00
 -1      2481 1.42206E+02 1.47250E+01 0.00000E+00
 -1      2482 1.43505E+02 1.10625E+01 0.00000E+00
 -1      2483 1.43505E+02 9.58750E+00 0.00000E+00
 -1      2484 1.42206E+02 1.18000E+01 0.00000E+00
 -1      2485 4.44314E+01 3.25510E+01 0.00000E+00
 -1      2486 4.49427E+01 3.17665E+01 0.00000E+00
 -1      2487 1.43505E+02 1.98625E+01 0.00000E+00
 -1      2488 1.43505E+02 1.83875E+01 0.00000E+00
 -1      2489 1.42206E+02 1.76500E+01 0.00000E+00
 -1      2490 1.43505E+02 2.28125E+01 0.00000E+00
 -1      2491 1.43505E+02 2.13375E+01 0.00000E+00
 -1      2492 1.42206E+02 2.06000E+01 0.00000E+00
 -1      2493 1.43505E+02 2.57625E+01 0.00000E+00
 -1      2494 1.43505E+02 2.42875E+01 0.00000E+00
 -1      2495 1.42206E+02 2.35500E+01 0.00000E+00
 -1      2496 1.43505E+02 2.87125E+01 0.00000E+00
 -1      2497 1.43505E+02 2.72375E+01 0.00000E+00
 -1      2498 1.42206E+02 2.65000E+01 0.00000E+00
 -1      2499 1.43505E+02 3.16125E+01 0.00000E+00
 -1      2500 1.43505E+02 3.01625E+01 0.00000E+00
 -1      2501 1.42206E+02 2.94250E+01 0.00000E+00
 -1      2502 1.43505E+02 3.45625E+01 0.00000E+00
 -1      2503 1.43505E+02 3.30875E+01 0.00000E+00
 -1      2504 1.42206E+02 3.23500E+01 0.00000E+00
 -1      2505 1.43505E+02 3.75125E+01 0.00000E+00
 -1      2506 1.43505E+02 3.60375E+01 0.00000E+00
 -1      2507 1.42206E+02 3.53000E+01 0.00000E+00
 -1      2508 1.43529E+02 4.02992E+01 0.00000E+00
 -1      2509 1.43529E+02 3.88242E+01 0.00000E+00
 -1      2510 1.42230E+02 3.80867E+01 0.00000E+00
 -1      2511 1.42278E+02 4.07102E+01 0.00000E+00
 -1      2512 4.34113E+01 4.29427E+01 0.00000E+00
 -1      2513 4.30664E+01 4.21070E+01 0.00000E+00
 -1      2514 6.31719E+01 3.90660E+01 0.00000E+00
 -1      2515 6.31466E+01 4.03156E+01 0.00000E+00
 -1      2516 6.04744E+01 3.08397E+01 0.00000E+00
 -1      2517 6.10528E+01 3.15586E+01 0.00000E+00
 -1      2518 4.25734E+01 3.63485E+01 0.00000E+00
 -1      2519 4.28751E+01 3.53275E+01 0.00000E+00
 -1      2520 6.36000E+01 4.42041E+01 0.00000E+00
 -1      2521 6.51000E+01 4.42041E+01 0.00000E+00
 -1      2522 6.26222E+01 3.46216E+01 0.00000E+00
 -1      2523 6.29306E+01 3.56872E+01 0.00000E+00
 -1      2524 4.96857E+01 2.83418E+01 0.00000E+00
 -1      2525 5.05834E+01 2.81706E+01 0.00000E+00
 -1      2526 6.49500E+00 2.71625E+01 0.00000E+00
 -1      2527 6.49500E+00 2.86375E+01 0.00000E+00
 -1      2528 7.79400E+00 2.93750E+01 0.00000E+00
 -1      2529 7.79400E+00 2.64250E+01 0.00000E+00
 -1      2530 1.42839E+02 8.11675E+00 0.00000E+00
 -1      2531 5.62612E+01 2.84017E+01 0.00000E+00
 -1      2532 5.70879E+01 2.86407E+01 0.00000E+00
 -1      2533 4.74322E+01 2.91103E+01 0.00000E+00
 -1      2534 4.84884E+01 2.86428E+01 0.00000E+00
 -1      2535 4.35035E+01 3.43160E+01 0.00000E+00
 -1      2536 4.39512E+01 3.34570E+01 0.00000E+00
 -1      2537 4.24569E+01 3.84283E+01 0.00000E+00
 -1      2538 4.25504E+01 3.75105E+01 0.00000E+00
 -1      2539 6.28263E+01 4.15963E+01 0.00000E+00
 -1      2540 6.25345E+01 4.24875E+01 0.00000E+00
 -1      2541 4.55700E+01 3.08238E+01 0.00000E+00
 -1      2542 4.62892E+01 3.00278E+01 0.00000E+00
 -1      2543 6.30814E+01 3.69309E+01 0.00000E+00
 -1      2544 6.30944E+01 3.79195E+01 0.00000E+00
 -1      2545 5.44961E+01 2.79543E+01 0.00000E+00
 -1      2546 5.53787E+01 2.81780E+01 0.00000E+00
 -1      2547 5.60302E+01 2.74737E+01 0.00000E+00
 -1      2548 6.49500E+00 3.60062E+01 0.00000E+00
 -1      2549 6.49500E+00 3.74750E+01 0.00000E+00
 -1      2550 7.79400E+00 3.52687E+01 0.00000E+00
 -1      2551 5.80667E+01 2.83463E+01 0.00000E+00
 -1      2552 9.55950E+00 5.02450E+00 0.00000E+00
 -1      2553 9.37425E+00 5.84794E+00 0.00000E+00
 -1      2554 1.07692E+01 5.21931E+00 0.00000E+00
 -1      2555 6.21326E+01 3.15741E+01 0.00000E+00
 -1      2556 6.31966E+01 3.37071E+01 0.00000E+00
 -1      2557 4.15481E+01 4.28866E+01 0.00000E+00
 -1      2558 4.22231E+01 4.38280E+01 0.00000E+00
 -1      2559 3.92250E+01 4.25637E+01 0.00000E+00
 -1      2560 6.03262E+01 2.98283E+01 0.00000E+00
 -1      2561 6.18755E+01 4.47772E+01 0.00000E+00
 -1      2562 6.58500E+01 4.30114E+01 0.00000E+00
 -1      2563 4.19846E+01 4.22484E+01 0.00000E+00
 -1      2564 4.26049E+01 4.15034E+01 0.00000E+00
 -1      2565 4.19596E+01 4.10065E+01 0.00000E+00
 -1      2566 4.10865E+01 4.22831E+01 0.00000E+00
 -1      2567 1.41540E+02 8.85425E+00 0.00000E+00
 -1      2568 4.46661E+01 3.07936E+01 0.00000E+00
 -1      2569 4.35586E+01 3.26423E+01 0.00000E+00
 -1      2570 4.31882E+01 4.39188E+01 0.00000E+00
 -1      2571 6.39391E+01 3.85616E+01 0.00000E+00
 -1      2572 6.36963E+01 4.09889E+01 0.00000E+00
 -1      2573 1.30515E+01 5.74931E+00 0.00000E+00
 -1      2574 1.18418E+01 5.55450E+00 0.00000E+00
 -1      2575 1.16565E+01 6.37794E+00 0.00000E+00
 -1      2576 1.38015E+01 7.04831E+00 0.00000E+00
 -1      2577 5.38709E+01 2.74617E+01 0.00000E+00
 -1      2578 5.45225E+01 2.67575E+01 0.00000E+00
 -1      2579 5.32458E+01 2.69692E+01 0.00000E+00
 -1      2580 6.37108E+01 3.61713E+01 0.00000E+00
 -1      2581 4.24499E+01 3.45598E+01 0.00000E+00
 -1      2582 4.20858E+01 3.91317E+01 0.00000E+00
 -1      2583 4.14045E+01 3.85986E+01 0.00000E+00
 -1      2584 4.17148E+01 3.98351E+01 0.00000E+00
 -1      2585 4.87765E+01 2.77148E+01 0.00000E+00
 -1      2586 5.12840E+01 2.75436E+01 0.00000E+00
 -1      2587 4.17985E+01 3.67332E+01 0.00000E+00
 -1      2588 4.52169E+01 4.51217E+01 0.00000E+00
 -1      2589 6.22715E+01 4.39673E+01 0.00000E+00
 -1      2590 4.64363E+01 2.89333E+01 0.00000E+00
 -1      2591 6.52725E+00 3.87101E+01 0.00000E+00
 -1      2592 6.52725E+00 4.01789E+01 0.00000E+00
 -1      2593 7.89075E+00 4.04429E+01 0.00000E+00
 -1      2594 7.82625E+00 3.79726E+01 0.00000E+00
 -1      2595 6.30215E+01 4.29422E+01 0.00000E+00
 -1      2596 5.79100E+01 2.72743E+01 0.00000E+00
 -1      2597 5.90640E+01 2.79232E+01 0.00000E+00
 -1      2598 9.09300E+00 1.98250E+01 0.00000E+00
 -1      2599 9.09300E+00 2.12750E+01 0.00000E+00
 -1      2600 9.09300E+00 2.27500E+01 0.00000E+00
 -1      2601 9.09300E+00 2.42250E+01 0.00000E+00
 -1      2602 1.03920E+01 2.20250E+01 0.00000E+00
 -1      2603 9.09300E+00 1.39375E+01 0.00000E+00
 -1      2604 9.09300E+00 1.54125E+01 0.00000E+00
 -1      2605 9.09300E+00 1.09875E+01 0.00000E+00
 -1      2606 9.09300E+00 1.24625E+01 0.00000E+00
 -1      2607 1.03920E+01 1.32000E+01 0.00000E+00
 -1      2608 9.18900E+00 6.67137E+00 0.00000E+00
 -1      2609 9.00375E+00 7.49481E+00 0.00000E+00
 -1      2610 1.03988E+01 6.86619E+00 0.00000E+00
 -1      2611 1.40706E+02 1.03250E+01 0.00000E+00
 -1      2612 1.40040E+02 8.85425E+00 0.00000E+00
 -1      2613 1.38540E+02 8.85425E+00 0.00000E+00
 -1      2614 3.82365E+01 4.15677E+01 0.00000E+00
 -1      2615 3.96615E+01 4.19254E+01 0.00000E+00
 -1      2616 4.00981E+01 4.12871E+01 0.00000E+00
 -1      2617 1.14000E+01 4.09070E+01 0.00000E+00
 -1      2618 1.29000E+01 4.09070E+01 0.00000E+00
 -1      2619 1.44000E+01 4.09070E+01 0.00000E+00
 -1      2620 1.59000E+01 4.09070E+01 0.00000E+00
 -1      2621 1.36500E+01 3.96080E+01 0.00000E+00
 -1      2622 1.74750E+01 4.09070E+01 0.00000E+00
 -1      2623 1.90500E+01 4.09070E+01 0.00000E+00
 -1      2624 1.67250E+01 3.96080E+01 0.00000E+00
 -1      2625 2.05500E+01 4.09070E+01 0.00000E+00
 -1      2626 2.20500E+01 4.09070E+01 0.00000E+00
 -1      2627 1.98000E+01 3.96080E+01 0.00000E+00
 -1      2628 2.35500E+01 4.09070E+01 0.00000E+00
 -1      2629 2.50500E+01 4.09070E+01 0.00000E+00
 -1      2630 2.28000E+01 3.96080E+01 0.00000E+00
 -1      2631 2.65500E+01 4.09070E+01 0.00000E+00
 -1      2632 2.80500E+01 4.09070E+01 0.00000E+00
 -1      2633 2.58000E+01 3.96080E+01 0.00000E+00
 -1      2634 2.95500E+01 4.09070E+01 0.00000E+00
 -1      2635 3.10500E+01 4.09070E+01 0.00000E+00
 -1      2636 2.88000E+01 3.96080E+01 0.00000E+00
 -1      2637 3.25500E+01 4.09070E+01 0.00000E+00
 -1      2638 3.40500E+01 4.09070E+01 0.00000E+00
 -1      2639 3.18000E+01 3.96080E+01 0.00000E+00
 -1      2640 3.55500E+01 4.09070E+01 0.00000E+00
 -1      2641 3.70500E+01 4.09070E+01 0.00000E+00
 -1      2642 3.48000E+01 3.96080E+01 0.00000E+00
 -1      2643 6.03400E+01 2.86600E+01 0.00000E+00
 -1      2644 6.14456E+01 2.94932E+01 0.00000E+00
 -1      2645 8.96362E+00 4.05429E+01 0.00000E+00
 -1      2646 1.03271E+01 4.08069E+01 0.00000E+00
 -1      2647 1.10771E+01 3.95079E+01 0.00000E+00
 -1      2648 8.93137E+00 3.93078E+01 0.00000E+00
 -1      2649 1.40907E+02 1.54500E+01 0.00000E+00
 -1      2650 1.40907E+02 1.40000E+01 0.00000E+00
 -1      2651 6.81000E+01 4.17349E+01 0.00000E+00
 -1      2652 6.96000E+01 4.17349E+01 0.00000E+00
 -1      2653 7.11000E+01 4.16511E+01 0.00000E+00
 -1      2654 7.26000E+01 4.16511E+01 0.00000E+00
 -1      2655 7.41000E+01 4.16511E+01 0.00000E+00
 -1      2656 7.56000E+01 4.16511E+01 0.00000E+00
 -1      2657 7.33500E+01 4.04584E+01 0.00000E+00
 -1      2658 7.71750E+01 4.16511E+01 0.00000E+00
 -1      2659 7.87500E+01 4.16511E+01 0.00000E+00
 -1      2660 7.64250E+01 4.04584E+01 0.00000E+00
 -1      2661 8.02500E+01 4.16511E+01 0.00000E+00
 -1      2662 8.17500E+01 4.16511E+01 0.00000E+00
 -1      2663 7.95000E+01 4.04584E+01 0.00000E+00
 -1      2664 8.32500E+01 4.16511E+01 0.00000E+00
 -1      2665 8.47500E+01 4.16511E+01 0.00000E+00
 -1      2666 8.25000E+01 4.04584E+01 0.00000E+00
 -1      2667 8.62500E+01 4.16511E+01 0.00000E+00
 -1      2668 8.77500E+01 4.16511E+01 0.00000E+00
 -1      2669 8.55000E+01 4.04584E+01 0.00000E+00
 -1      2670 8.92500E+01 4.16511E+01 0.00000E+00
 -1      2671 9.07500E+01 4.16511E+01 0.00000E+00
 -1      2672 8.85000E+01 4.04584E+01 0.00000E+00
 -1      2673 9.22500E+01 4.16511E+01 0.00000E+00
 -1      2674 9.37500E+01 4.16511E+01 0.00000E+00
 -1      2675 9.15000E+01 4.04584E+01 0.00000E+00
 -1      2676 9.52500E+01 4.16511E+01 0.00000E+00
 -1      2677 9.67500E+01 4.16511E+01 0.00000E+00
 -1      2678 9.45000E+01 4.04584E+01 0.00000E+00
 -1      2679 9.82500E+01 4.16511E+01 0.00000E+00
 -1      2680 9.97500E+01 4.16511E+01 0.00000E+00
 -1      2681 9.75000E+01 4.04584E+01 0.00000E+00
 -1      2682 1.01325E+02 4.16511E+01 0.00000E+00
 -1      2683 1.02900E+02 4.16511E+01 0.00000E+00
 -1      2684 1.00575E+02 4.04584E+01 0.00000E+00
 -1      2685 1.04400E+02 4.16511E+01 0.00000E+00
 -1      2686 1.05900E+02 4.16511E+01 0.00000E+00
 -1      2687 1.03650E+02 4.04584E+01 0.00000E+00
 -1      2688 1.07400E+02 4.16511E+01 0.00000E+00
 -1      2689 1.08900E+02 4.16511E+01 0.00000E+00
 -1      2690 1.06650E+02 4.04584E+01 0.00000E+00
 -1      2691 1.10400E+02 4.16511E+01 0.00000E+00
 -1      2692 1.11900E+02 4.16511E+01 0.00000E+00
 -1      2693 1.09650E+02 4.04584E+01 0.00000E+00
 -1      2694 1.13400E+02 4.16511E+01 0.00000E+00
 -1      2695 1.14900E+02 4.16511E+01 0.00000E+00
 -1      2696 1.12650E+02 4.04584E+01 0.00000E+00
 -1      2697 1.16400E+02 4.16511E+01 0.00000E+00
 -1      2698 1.17900E+02 4.16511E+01 0.00000E+00
 -1      2699 1.15650E+02 4.04584E+01 0.00000E+00
 -1      2700 1.19400E+02 4.16511E+01 0.00000E+00
 -1      2701 1.20900E+02 4.16511E+01 0.00000E+00
 -1      2702 1.18650E+02 4.04584E+01 0.00000E+00
 -1      2703 1.22475E+02 4.16511E+01 0.00000E+00
 -1      2704 1.24050E+02 4.16511E+01 0.00000E+00
 -1      2705 1.21725E+02 4.04584E+01 0.00000E+00
 -1      2706 1.25550E+02 4.16511E+01 0.00000E+00
 -1      2707 1.27050E+02 4.16511E+01 0.00000E+00
 -1      2708 1.24800E+02 4.04584E+01 0.00000E+00
 -1      2709 1.28550E+02 4.16511E+01 0.00000E+00
 -1      2710 1.30050E+02 4.16511E+01 0.00000E+00
 -1      2711 1.27800E+02 4.04584E+01 0.00000E+00
 -1      2712 1.31550E+02 4.16511E+01 0.00000E+00
 -1      2713 1.33050E+02 4.16511E+01 0.00000E+00
 -1      2714 1.30800E+02 4.04584E+01 0.00000E+00
 -1      2715 1.34550E+02 4.16511E+01 0.00000E+00
 -1      2716 1.36050E+02 4.16511E+01 0.00000E+00
 -1      2717 1.33800E+02 4.04584E+01 0.00000E+00
 -1      2718 1.37550E+02 4.16511E+01 0.00000E+00
 -1      2719 1.39050E+02 4.16511E+01 0.00000E+00
 -1      2720 1.36800E+02 4.04584E+01 0.00000E+00
 -1      2721 1.40038E+02 4.13861E+01 0.00000E+00
 -1      2722 1.41290E+02 4.09752E+01 0.00000E+00
 -1      2723 1.41266E+02 3.96635E+01 0.00000E+00
 -1      2724 1.39288E+02 4.01934E+01 0.00000E+00
 -1      2725 2.01240E+01 8.68250E+00 0.00000E+00
 -1      2726 1.86240E+01 8.68250E+00 0.00000E+00
 -1      2727 2.31240E+01 8.68250E+00 0.00000E+00
 -1      2728 2.16240E+01 8.68250E+00 0.00000E+00
 -1      2729 2.08740E+01 9.98150E+00 0.00000E+00
 -1      2730 1.71240E+01 8.68250E+00 0.00000E+00
 -1      2731 1.56240E+01 8.68250E+00 0.00000E+00
 -1      2732 1.78740E+01 9.98150E+00 0.00000E+00
 -1      2733 2.91240E+01 8.68250E+00 0.00000E+00
 -1      2734 2.76240E+01 8.68250E+00 0.00000E+00
 -1      2735 3.21240E+01 8.68250E+00 0.00000E+00
 -1      2736 3.06240E+01 8.68250E+00 0.00000E+00
 -1      2737 2.98740E+01 9.98150E+00 0.00000E+00
 -1      2738 3.51240E+01 8.68250E+00 0.00000E+00
 -1      2739 3.36240E+01 8.68250E+00 0.00000E+00
 -1      2740 3.28740E+01 9.98150E+00 0.00000E+00
 -1      2741 3.81240E+01 8.68250E+00 0.00000E+00
 -1      2742 3.66240E+01 8.68250E+00 0.00000E+00
 -1      2743 3.58740E+01 9.98150E+00 0.00000E+00
 -1      2744 4.11240E+01 8.68250E+00 0.00000E+00
 -1      2745 3.96240E+01 8.68250E+00 0.00000E+00
 -1      2746 3.88740E+01 9.98150E+00 0.00000E+00
 -1      2747 4.41240E+01 8.68250E+00 0.00000E+00
 -1      2748 4.26240E+01 8.68250E+00 0.00000E+00
 -1      2749 4.18740E+01 9.98150E+00 0.00000E+00
 -1      2750 4.71240E+01 8.68250E+00 0.00000E+00
 -1      2751 4.56240E+01 8.68250E+00 0.00000E+00
 -1      2752 4.48740E+01 9.98150E+00 0.00000E+00
 -1      2753 5.01240E+01 8.68250E+00 0.00000E+00
 -1      2754 4.86240E+01 8.68250E+00 0.00000E+00
 -1      2755 4.78740E+01 9.98150E+00 0.00000E+00
 -1      2756 5.31240E+01 8.68250E+00 0.00000E+00
 -1      2757 5.16240E+01 8.68250E+00 0.00000E+00
 -1      2758 5.08740E+01 9.98150E+00 0.00000E+00
 -1      2759 5.61240E+01 8.68250E+00 0.00000E+00
 -1      2760 5.46240E+01 8.68250E+00 0.00000E+00
 -1      2761 5.38740E+01 9.98150E+00 0.00000E+00
 -1      2762 5.91240E+01 8.68250E+00 0.00000E+00
 -1      2763 5.76240E+01 8.68250E+00 0.00000E+00
 -1      2764 5.68740E+01 9.98150E+00 0.00000E+00
 -1      2765 6.21240E+01 8.68250E+00 0.00000E+00
 -1      2766 6.06240E+01 8.68250E+00 0.00000E+00
 -1      2767 5.98740E+01 9.98150E+00 0.00000E+00
 -1      2768 6.51240E+01 8.68250E+00 0.00000E+00
 -1      2769 6.36240E+01 8.68250E+00 0.00000E+00
 -1      2770 6.28740E+01 9.98150E+00 0.00000E+00
 -1      2771 6.81240E+01 8.68250E+00 0.00000E+00
 -1      2772 6.66240E+01 8.68250E+00 0.00000E+00
 -1      2773 6.58740E+01 9.98150E+00 0.00000E+00
 -1      2774 7.11240E+01 8.68250E+00 0.00000E+00
 -1      2775 6.96240E+01 8.68250E+00 0.00000E+00
 -1      2776 6.88740E+01 9.98150E+00 0.00000E+00
 -1      2777 7.41240E+01 8.68250E+00 0.00000E+00
 -1      2778 7.26240E+01 8.68250E+00 0.00000E+00
 -1      2779 7.18740E+01 9.98150E+00 0.00000E+00
 -1      2780 7.71240E+01 8.68250E+00 0.00000E+00
 -1      2781 7.56240E+01 8.68250E+00 0.00000E+00
 -1      2782 7.48740E+01 9.98150E+00 0.00000E+00
 -1      2783 8.01240E+01 8.68250E+00 0.00000E+00
 -1      2784 7.86240E+01 8.68250E+00 0.00000E+00
 -1      2785 7.78740E+01 9.98150E+00 0.00000E+00
 -1      2786 8.31240E+01 8.68250E+00 0.00000E+00
 -1      2787 8.16240E+01 8.68250E+00 0.00000E+00
 -1      2788 8.08740E+01 9.98150E+00 0.00000E+00
 -1      2789 8.61240E+01 8.68250E+00 0.00000E+00
 -1      2790 8.46240E+01 8.68250E+00 0.00000E+00
 -1      2791 8.38740E+01 9.98150E+00 0.00000E+00
 -1      2792 8.91240E+01 8.68250E+00 0.00000E+00
 -1      2793 8.76240E+01 8.68250E+00 0.00000E+00
 -1      2794 8.68740E+01 9.98150E+00 0.00000E+00
 -1      2795 9.21240E+01 8.68250E+00 0.00000E+00
 -1      2796 9.06240E+01 8.68250E+00 0.00000E+00
 -1      2797 8.98740E+01 9.98150E+00 0.00000E+00
 -1      2798 9.51240E+01 8.68250E+00 0.00000E+00
 -1      2799 9.36240E+01 8.68250E+00 0.00000E+00
 -1      2800 9.28740E+01 9.98150E+00 0.00000E+00
 -1      2801 9.81240E+01 8.68250E+00 0.00000E+00
 -1      2802 9.66240E+01 8.68250E+00 0.00000E+00
 -1      2803 9.58740E+01 9.98150E+00 0.00000E+00
 -1      2804 1.01124E+02 8.68250E+00 0.00000E+00
 -1      2805 9.96240E+01 8.68250E+00 0.00000E+00
 -1      2806 9.88740E+01 9.98150E+00 0.00000E+00
 -1      2807 1.04124E+02 8.68250E+00 0.00000E+00
 -1      2808 1.02624E+02 8.68250E+00 0.00000E+00
 -1      2809 1.01874E+02 9.98150E+00 0.00000E+00
 -1      2810 1.07124E+02 8.68250E+00 0.00000E+00
 -1      2811 1.05624E+02 8.68250E+00 0.00000E+00
 -1      2812 1.04874E+02 9.98150E+00 0.00000E+00
 -1      2813 1.10124E+02 8.68250E+00 0.00000E+00
 -1      2814 1.08624E+02 8.68250E+00 0.00000E+00
 -1      2815 1.07874E+02 9.98150E+00 0.00000E+00
 -1      2816 1.13124E+02 8.68250E+00 0.00000E+00
 -1      2817 1.11624E+02 8.68250E+00 0.00000E+00
 -1      2818 1.10874E+02 9.98150E+00 0.00000E+00
 -1      2819 1.16124E+02 8.68250E+00 0.00000E+00
 -1      2820 1.14624E+02 8.68250E+00 0.00000E+00
 -1      2821 1.13874E+02 9.98150E+00 0.00000E+00
 -1      2822 1.19124E+02 8.68250E+00 0.00000E+00
 -1      2823 1.17624E+02 8.68250E+00 0.00000E+00
 -1      2824 1.16874E+02 9.98150E+00 0.00000E+00
 -1      2825 1.22124E+02 8.68250E+00 0.00000E+00
 -1      2826 1.20624E+02 8.68250E+00 0.00000E+00
 -1      2827 1.19874E+02 9.98150E+00 0.00000E+00
 -1      2828 1.25124E+02 8.68250E+00 0.00000E+00
 -1      2829 1.23624E+02 8.68250E+00 0.00000E+00
 -1      2830 1.22874E+02 9.98150E+00 0.00000E+00
 -1      2831 1.28124E+02 8.68250E+00 0.00000E+00
 -1      2832 1.26624E+02 8.68250E+00 0.00000E+00
 -1      2833 1.25874E+02 9.98150E+00 0.00000E+00
 -1      2834 1.31124E+02 8.68250E+00 0.00000E+00
 -1      2835 1.29624E+02 8.68250E+00 0.00000E+00
 -1      2836 1.28874E+02 9.98150E+00 0.00000E+00
 -1      2837 1.34124E+02 8.68250E+00 0.00000E+00
 -1      2838 1.32624E+02 8.68250E+00 0.00000E+00
 -1      2839 1.31874E+02 9.98150E+00 0.00000E+00
 -1      2840 1.37082E+02 8.76838E+00 0.00000E+00
 -1      2841 1.35582E+02 8.76838E+00 0.00000E+00
 -1      2842 1.34832E+02 1.00674E+01 0.00000E+00
 -1      2843 1.37748E+02 1.02391E+01 0.00000E+00
 -1      2844 1.40907E+02 2.13375E+01 0.00000E+00
 -1      2845 1.40907E+02 1.98625E+01 0.00000E+00
 -1      2846 1.40706E+02 1.18000E+01 0.00000E+00
 -1      2847 1.40907E+02 1.83937E+01 0.00000E+00
 -1      2848 1.40907E+02 1.69188E+01 0.00000E+00
 -1      2849 1.39608E+02 1.61938E+01 0.00000E+00
 -1      2850 1.39608E+02 1.91313E+01 0.00000E+00
 -1      2851 1.40907E+02 2.72375E+01 0.00000E+00
 -1      2852 1.40907E+02 2.57625E+01 0.00000E+00
 -1      2853 1.40907E+02 3.01375E+01 0.00000E+00
 -1      2854 1.40907E+02 2.86875E+01 0.00000E+00
 -1      2855 1.39608E+02 2.79500E+01 0.00000E+00
 -1      2856 1.40907E+02 3.30875E+01 0.00000E+00
 -1      2857 1.40907E+02 3.16125E+01 0.00000E+00
 -1      2858 1.39608E+02 3.08750E+01 0.00000E+00
 -1      2859 1.40907E+02 3.60375E+01 0.00000E+00
 -1      2860 1.40907E+02 3.45625E+01 0.00000E+00
 -1      2861 1.39608E+02 3.38250E+01 0.00000E+00
 -1      2862 6.25952E+01 3.04935E+01 0.00000E+00
 -1      2863 6.32960E+01 3.14059E+01 0.00000E+00
 -1      2864 6.39975E+01 3.28044E+01 0.00000E+00
 -1      2865 6.43608E+01 3.40250E+01 0.00000E+00
 -1      2866 4.24127E+01 3.26152E+01 0.00000E+00
 -1      2867 4.28929E+01 3.17092E+01 0.00000E+00
 -1      2868 6.49232E+01 3.79192E+01 0.00000E+00
 -1      2869 6.50007E+01 3.90657E+01 0.00000E+00
 -1      2870 4.11559E+01 3.46381E+01 0.00000E+00
 -1      2871 4.17843E+01 3.36267E+01 0.00000E+00
 -1      2872 4.11187E+01 3.26936E+01 0.00000E+00
 -1      2873 4.08459E+01 3.72956E+01 0.00000E+00
 -1      2874 4.08689E+01 3.61336E+01 0.00000E+00
 -1      2875 5.07217E+01 2.65420E+01 0.00000E+00
 -1      2876 5.20319E+01 2.66718E+01 0.00000E+00
 -1      2877 9.09300E+00 1.68813E+01 0.00000E+00
 -1      2878 9.09300E+00 1.83563E+01 0.00000E+00
 -1      2879 1.03920E+01 1.90812E+01 0.00000E+00
 -1      2880 1.03920E+01 1.61437E+01 0.00000E+00
 -1      2881 2.61240E+01 8.68250E+00 0.00000E+00
 -1      2882 2.46240E+01 8.68250E+00 0.00000E+00
 -1      2883 2.38740E+01 9.98150E+00 0.00000E+00
 -1      2884 2.68740E+01 9.98150E+00 0.00000E+00
 -1      2885 6.46214E+01 3.54318E+01 0.00000E+00
 -1      2886 6.47723E+01 3.66755E+01 0.00000E+00
 -1      2887 6.58339E+01 3.71796E+01 0.00000E+00
 -1      2888 9.09300E+00 3.15875E+01 0.00000E+00
 -1      2889 9.09300E+00 3.30625E+01 0.00000E+00
 -1      2890 4.36843E+01 4.47083E+01 0.00000E+00
 -1      2891 4.35202E+01 3.07664E+01 0.00000E+00
 -1      2892 4.41475E+01 2.98237E+01 0.00000E+00
 -1      2893 4.23743E+01 3.07393E+01 0.00000E+00
 -1      2894 4.79280E+01 2.68711E+01 0.00000E+00
 -1      2895 4.91252E+01 2.65701E+01 0.00000E+00
 -1      2896 4.51706E+01 2.85273E+01 0.00000E+00
 -1      2897 4.63136E+01 2.76098E+01 0.00000E+00
 -1      2898 1.40907E+02 2.42875E+01 0.00000E+00
 -1      2899 1.40907E+02 2.28125E+01 0.00000E+00
 -1      2900 1.39608E+02 2.50250E+01 0.00000E+00
 -1      2901 6.49955E+01 4.21597E+01 0.00000E+00
 -1      2902 6.64955E+01 4.19921E+01 0.00000E+00
 -1      2903 5.58203E+01 2.64494E+01 0.00000E+00
 -1      2904 5.67028E+01 2.66731E+01 0.00000E+00
 -1      2905 1.03920E+01 2.49750E+01 0.00000E+00
 -1      2906 9.09300E+00 2.57000E+01 0.00000E+00
 -1      2907 9.09300E+00 2.71750E+01 0.00000E+00
 -1      2908 9.00375E+00 8.96981E+00 0.00000E+00
 -1      2909 5.26835E+01 2.59675E+01 0.00000E+00
 -1      2910 3.74865E+01 4.02687E+01 0.00000E+00
 -1      2911 6.26090E+01 2.93251E+01 0.00000E+00
 -1      2912 6.01833E+01 2.75881E+01 0.00000E+00
 -1      2913 6.72455E+01 4.08832E+01 0.00000E+00
 -1      2914 7.03500E+01 4.05422E+01 0.00000E+00
 -1      2915 6.54223E+01 3.45291E+01 0.00000E+00
 -1      2916 1.39608E+02 2.20750E+01 0.00000E+00
 -1      2917 6.44601E+01 3.17238E+01 0.00000E+00
 -1      2918 1.39407E+02 1.25250E+01 0.00000E+00
 -1      2919 5.45699E+01 2.54642E+01 0.00000E+00
 -1      2920 5.51951E+01 2.59568E+01 0.00000E+00
 -1      2921 5.58676E+01 2.51562E+01 0.00000E+00
 -1      2922 1.41098E+02 3.85063E+01 0.00000E+00
 -1      2923 1.41074E+02 3.71946E+01 0.00000E+00
 -1      2924 1.39775E+02 3.64571E+01 0.00000E+00
 -1      2925 1.40110E+02 3.87713E+01 0.00000E+00
 -1      2926 1.48740E+01 9.98151E+00 0.00000E+00
 -1      2927 1.41240E+01 8.68251E+00 0.00000E+00
 -1      2928 4.98731E+01 2.56983E+01 0.00000E+00
 -1      2929 1.30515E+01 8.34733E+00 0.00000E+00
 -1      2930 1.03920E+01 3.37938E+01 0.00000E+00
 -1      2931 9.09300E+00 3.45313E+01 0.00000E+00
 -1      2932 9.09300E+00 3.60000E+01 0.00000E+00
 -1      2933 4.12783E+01 4.04734E+01 0.00000E+00
 -1      2934 6.58128E+01 3.97818E+01 0.00000E+00
 -1      2935 6.48288E+01 4.04243E+01 0.00000E+00
 -1      2936 1.03027E+01 9.70731E+00 0.00000E+00
 -1      2937 4.04748E+01 3.79990E+01 0.00000E+00
 -1      2938 3.95452E+01 3.73994E+01 0.00000E+00
 -1      2939 4.01038E+01 3.87024E+01 0.00000E+00
 -1      2940 9.09300E+00 2.86437E+01 0.00000E+00
 -1      2941 9.09300E+00 3.01187E+01 0.00000E+00
 -1      2942 1.03920E+01 3.08563E+01 0.00000E+00
 -1      2943 1.03920E+01 2.79188E+01 0.00000E+00
 -1      2944 4.40248E+01 2.85002E+01 0.00000E+00
 -1      2945 4.66623E+01 2.64651E+01 0.00000E+00
 -1      2946 5.77000E+01 2.62500E+01 0.00000E+00
 -1      2947 6.45085E+01 4.17050E+01 0.00000E+00
 -1      2948 1.16910E+01 1.24625E+01 0.00000E+00
 -1      2949 1.16910E+01 1.39375E+01 0.00000E+00
 -1      2950 1.14712E+01 7.20138E+00 0.00000E+00
 -1      2951 5.21421E+01 2.48695E+01 0.00000E+00
 -1      2952 5.33560E+01 2.51669E+01 0.00000E+00
 -1      2953 5.40285E+01 2.43662E+01 0.00000E+00
 -1      2954 1.38309E+02 3.16125E+01 0.00000E+00
 -1      2955 1.38309E+02 3.01375E+01 0.00000E+00
 -1      2956 1.59375E+01 3.83090E+01 0.00000E+00
 -1      2957 1.75125E+01 3.83090E+01 0.00000E+00
 -1      2958 1.90125E+01 3.83090E+01 0.00000E+00
 -1      2959 2.05125E+01 3.83090E+01 0.00000E+00
 -1      2960 1.82250E+01 3.70100E+01 0.00000E+00
 -1      2961 2.20125E+01 3.83090E+01 0.00000E+00
 -1      2962 2.35125E+01 3.83090E+01 0.00000E+00
 -1      2963 2.12250E+01 3.70100E+01 0.00000E+00
 -1      2964 2.50125E+01 3.83090E+01 0.00000E+00
 -1      2965 2.65125E+01 3.83090E+01 0.00000E+00
 -1      2966 2.42250E+01 3.70100E+01 0.00000E+00
 -1      2967 2.80125E+01 3.83090E+01 0.00000E+00
 -1      2968 2.95125E+01 3.83090E+01 0.00000E+00
 -1      2969 2.72250E+01 3.70100E+01 0.00000E+00
 -1      2970 3.10125E+01 3.83090E+01 0.00000E+00
 -1      2971 3.25125E+01 3.83090E+01 0.00000E+00
 -1      2972 3.02250E+01 3.70100E+01 0.00000E+00
 -1      2973 3.40125E+01 3.83090E+01 0.00000E+00
 -1      2974 3.55125E+01 3.83090E+01 0.00000E+00
 -1      2975 3.32250E+01 3.70100E+01 0.00000E+00
 -1      2976 6.66929E+01 3.64444E+01 0.00000E+00
 -1      2977 6.68438E+01 3.76881E+01 0.00000E+00
 -1      2978 7.56375E+01 3.91594E+01 0.00000E+00
 -1      2979 7.72125E+01 3.91594E+01 0.00000E+00
 -1      2980 7.87125E+01 3.91594E+01 0.00000E+00
 -1      2981 8.02125E+01 3.91594E+01 0.00000E+00
 -1      2982 7.79250E+01 3.78604E+01 0.00000E+00
 -1      2983 8.17125E+01 3.91594E+01 0.00000E+00
 -1      2984 8.32125E+01 3.91594E+01 0.00000E+00
 -1      2985 8.09250E+01 3.78604E+01 0.00000E+00
 -1      2986 8.47125E+01 3.91594E+01 0.00000E+00
 -1      2987 8.62125E+01 3.91594E+01 0.00000E+00
 -1      2988 8.39250E+01 3.78604E+01 0.00000E+00
 -1      2989 8.77125E+01 3.91594E+01 0.00000E+00
 -1      2990 8.92125E+01 3.91594E+01 0.00000E+00
 -1      2991 8.69250E+01 3.78604E+01 0.00000E+00
 -1      2992 9.07125E+01 3.91594E+01 0.00000E+00
 -1      2993 9.22125E+01 3.91594E+01 0.00000E+00
 -1      2994 8.99250E+01 3.78604E+01 0.00000E+00
 -1      2995 9.37125E+01 3.91594E+01 0.00000E+00
 -1      2996 9.52125E+01 3.91594E+01 0.00000E+00
 -1      2997 9.29250E+01 3.78604E+01 0.00000E+00
 -1      2998 9.67125E+01 3.91594E+01 0.00000E+00
 -1      2999 9.82125E+01 3.91594E+01 0.00000E+00
 -1      3000 9.59250E+01 3.78604E+01 0.00000E+00
 -1      3001 9.97875E+01 3.91594E+01 0.00000E+00
 -1      3002 1.01363E+02 3.91594E+01 0.00000E+00
 -1      3003 9.90000E+01 3.78604E+01 0.00000E+00
 -1      3004 1.02863E+02 3.91594E+01 0.00000E+00
 -1      3005 1.04363E+02 3.91594E+01 0.00000E+00
 -1      3006 1.02075E+02 3.78604E+01 0.00000E+00
 -1      3007 1.05863E+02 3.91594E+01 0.00000E+00
 -1      3008 1.07363E+02 3.91594E+01 0.00000E+00
 -1      3009 1.05075E+02 3.78604E+01 0.00000E+00
 -1      3010 1.08863E+02 3.91594E+01 0.00000E+00
 -1      3011 1.10363E+02 3.91594E+01 0.00000E+00
 -1      3012 1.08075E+02 3.78604E+01 0.00000E+00
 -1      3013 1.11863E+02 3.91594E+01 0.00000E+00
 -1      3014 1.13363E+02 3.91594E+01 0.00000E+00
 -1      3015 1.11075E+02 3.78604E+01 0.00000E+00
 -1      3016 1.14863E+02 3.91594E+01 0.00000E+00
 -1      3017 1.16363E+02 3.91594E+01 0.00000E+00
 -1      3018 1.14075E+02 3.78604E+01 0.00000E+00
 -1      3019 1.17863E+02 3.91594E+01 0.00000E+00
 -1      3020 1.19363E+02 3.91594E+01 0.00000E+00
 -1      3021 1.17075E+02 3.78604E+01 0.00000E+00
 -1      3022 1.20938E+02 3.91594E+01 0.00000E+00
 -1      3023 1.22512E+02 3.91594E+01 0.00000E+00
 -1      3024 1.20150E+02 3.78604E+01 0.00000E+00
 -1      3025 1.24012E+02 3.91594E+01 0.00000E+00
 -1      3026 1.25512E+02 3.91594E+01 0.00000E+00
 -1      3027 1.23225E+02 3.78604E+01 0.00000E+00
 -1      3028 1.27012E+02 3.91594E+01 0.00000E+00
 -1      3029 1.28512E+02 3.91594E+01 0.00000E+00
 -1      3030 1.26225E+02 3.78604E+01 0.00000E+00
 -1      3031 1.30012E+02 3.91594E+01 0.00000E+00
 -1      3032 1.31512E+02 3.91594E+01 0.00000E+00
 -1      3033 1.29225E+02 3.78604E+01 0.00000E+00
 -1      3034 1.33012E+02 3.91594E+01 0.00000E+00
 -1      3035 1.34512E+02 3.91594E+01 0.00000E+00
 -1      3036 1.32225E+02 3.78604E+01 0.00000E+00
 -1      3037 1.36012E+02 3.91594E+01 0.00000E+00
 -1      3038 1.37512E+02 3.91594E+01 0.00000E+00
 -1      3039 1.35225E+02 3.78604E+01 0.00000E+00
 -1      3040 2.16240E+01 1.12805E+01 0.00000E+00
 -1      3041 2.01240E+01 1.12805E+01 0.00000E+00
 -1      3042 1.86240E+01 1.12805E+01 0.00000E+00
 -1      3043 1.71240E+01 1.12805E+01 0.00000E+00
 -1      3044 1.93740E+01 1.25795E+01 0.00000E+00
 -1      3045 3.36240E+01 1.12805E+01 0.00000E+00
 -1      3046 3.21240E+01 1.12805E+01 0.00000E+00
 -1      3047 3.06240E+01 1.12805E+01 0.00000E+00
 -1      3048 2.91240E+01 1.12805E+01 0.00000E+00
 -1      3049 3.13740E+01 1.25795E+01 0.00000E+00
 -1      3050 3.96240E+01 1.12805E+01 0.00000E+00
 -1      3051 3.81240E+01 1.12805E+01 0.00000E+00
 -1      3052 4.26240E+01 1.12805E+01 0.00000E+00
 -1      3053 4.11240E+01 1.12805E+01 0.00000E+00
 -1      3054 4.03740E+01 1.25795E+01 0.00000E+00
 -1      3055 4.56240E+01 1.12805E+01 0.00000E+00
 -1      3056 4.41240E+01 1.12805E+01 0.00000E+00
 -1      3057 4.33740E+01 1.25795E+01 0.00000E+00
 -1      3058 4.86240E+01 1.12805E+01 0.00000E+00
 -1      3059 4.71240E+01 1.12805E+01 0.00000E+00
 -1      3060 4.63740E+01 1.25795E+01 0.00000E+00
 -1      3061 5.16240E+01 1.12805E+01 0.00000E+00
 -1      3062 5.01240E+01 1.12805E+01 0.00000E+00
 -1      3063 4.93740E+01 1.25795E+01 0.00000E+00
 -1      3064 5.46240E+01 1.12805E+01 0.00000E+00
 -1      3065 5.31240E+01 1.12805E+01 0.00000E+00
 -1      3066 5.23740E+01 1.25795E+01 0.00000E+00
 -1      3067 5.76240E+01 1.12805E+01 0.00000E+00
 -1      3068 5.61240E+01 1.12805E+01 0.00000E+00
 -1      3069 5.53740E+01 1.25795E+01 0.00000E+00
 -1      3070 6.06240E+01 1.12805E+01 0.00000E+00
 -1      3071 5.91240E+01 1.12805E+01 0.00000E+00
 -1      3072 5.83740E+01 1.25795E+01 0.00000E+00
 -1      3073 6.36240E+01 1.12805E+01 0.00000E+00
 -1      3074 6.21240E+01 1.12805E+01 0.00000E+00
 -1      3075 6.13740E+01 1.25795E+01 0.00000E+00
 -1      3076 6.66240E+01 1.12805E+01 0.00000E+00
 -1      3077 6.51240E+01 1.12805E+01 0.00000E+00
 -1      3078 6.43740E+01 1.25795E+01 0.00000E+00
 -1      3079 6.96240E+01 1.12805E+01 0.00000E+00
 -1      3080 6.81240E+01 1.12805E+01 0.00000E+00
 -1      3081 6.73740E+01 1.25795E+01 0.00000E+00
 -1      3082 7.26240E+01 1.12805E+01 0.00000E+00
 -1      3083 7.11240E+01 1.12805E+01 0.00000E+00
 -1      3084 7.03740E+01 1.25795E+01 0.00000E+00
 -1      3085 7.56240E+01 1.12805E+01 0.00000E+00
 -1      3086 7.41240E+01 1.12805E+01 0.00000E+00
 -1      3087 7.33740E+01 1.25795E+01 0.00000E+00
 -1      3088 7.86240E+01 1.12805E+01 0.00000E+00
 -1      3089 7.71240E+01 1.12805E+01 0.00000E+00
 -1      3090 7.63740E+01 1.25795E+01 0.00000E+00
 -1      3091 8.16240E+01 1.12805E+01 0.00000E+00
 -1      3092 8.01240E+01 1.12805E+01 0.00000E+00
 -1      3093 7.93740E+01 1.25795E+01 0.00000E+00
 -1      3094 8.46240E+01 1.12805E+01 0.00000E+00
 -1      3095 8.31240E+01 1.12805E+01 0.00000E+00
 -1      3096 8.23740E+01 1.25795E+01 0.00000E+00
 -1      3097 8.76240E+01 1.12805E+01 0.00000E+00
 -1      3098 8.61240E+01 1.12805E+01 0.00000E+00
 -1      3099 8.53740E+01 1.25795E+01 0.00000E+00
 -1      3100 9.06240E+01 1.12805E+01 0.00000E+00
 -1      3101 8.91240E+01 1.12805E+01 0.00000E+00
 -1      3102 8.83740E+01 1.25795E+01 0.00000E+00
 -1      3103 9.36240E+01 1.12805E+01 0.00000E+00
 -1      3104 9.21240E+01 1.12805E+01 0.00000E+00
 -1      3105 9.13740E+01 1.25795E+01 0.00000E+00
 -1      3106 9.66240E+01 1.12805E+01 0.00000E+00
 -1      3107 9.51240E+01 1.12805E+01 0.00000E+00
 -1      3108 9.43740E+01 1.25795E+01 0.00000E+00
 -1      3109 9.96240E+01 1.12805E+01 0.00000E+00
 -1      3110 9.81240E+01 1.12805E+01 0.00000E+00
 -1      3111 9.73740E+01 1.25795E+01 0.00000E+00
 -1      3112 1.02624E+02 1.12805E+01 0.00000E+00
 -1      3113 1.01124E+02 1.12805E+01 0.00000E+00
 -1      3114 1.00374E+02 1.25795E+01 0.00000E+00
 -1      3115 1.05624E+02 1.12805E+01 0.00000E+00
 -1      3116 1.04124E+02 1.12805E+01 0.00000E+00
 -1      3117 1.03374E+02 1.25795E+01 0.00000E+00
 -1      3118 1.08624E+02 1.12805E+01 0.00000E+00
 -1      3119 1.07124E+02 1.12805E+01 0.00000E+00
 -1      3120 1.06374E+02 1.25795E+01 0.00000E+00
 -1      3121 1.11624E+02 1.12805E+01 0.00000E+00
 -1      3122 1.10124E+02 1.12805E+01 0.00000E+00
 -1      3123 1.09374E+02 1.25795E+01 0.00000E+00
 -1      3124 1.14624E+02 1.12805E+01 0.00000E+00
 -1      3125 1.13124E+02 1.12805E+01 0.00000E+00
 -1      3126 1.12374E+02 1.25795E+01 0.00000E+00
 -1      3127 1.17624E+02 1.12805E+01 0.00000E+00
 -1      3128 1.16124E+02 1.12805E+01 0.00000E+00
 -1      3129 1.15374E+02 1.25795E+01 0.00000E+00
 -1      3130 1.20624E+02 1.12805E+01 0.00000E+00
 -1      3131 1.19124E+02 1.12805E+01 0.00000E+00
 -1      3132 1.18374E+02 1.25795E+01 0.00000E+00
 -1      3133 1.23624E+02 1.12805E+01 0.00000E+00
 -1      3134 1.22124E+02 1.12805E+01 0.00000E+00
 -1      3135 1.21374E+02 1.25795E+01 0.00000E+00
 -1      3136 1.26624E+02 1.12805E+01 0.00000E+00
 -1      3137 1.25124E+02 1.12805E+01 0.00000E+00
 -1      3138 1.24374E+02 1.25795E+01 0.00000E+00
 -1      3139 1.29624E+02 1.12805E+01 0.00000E+00
 -1      3140 1.28124E+02 1.12805E+01 0.00000E+00
 -1      3141 1.27374E+02 1.25795E+01 0.00000E+00
 -1      3142 1.32624E+02 1.12805E+01 0.00000E+00
 -1      3143 1.31124E+02 1.12805E+01 0.00000E+00
 -1      3144 1.30374E+02 1.25795E+01 0.00000E+00
 -1      3145 3.98533E+01 4.01157E+01 0.00000E+00
 -1      3146 6.95335E+01 3.93933E+01 0.00000E+00
 -1      3147 7.10335E+01 3.93095E+01 0.00000E+00
 -1      3148 1.38309E+02 3.45625E+01 0.00000E+00
 -1      3149 1.38309E+02 3.30875E+01 0.00000E+00
 -1      3150 1.37010E+02 3.23500E+01 0.00000E+00
 -1      3151 1.38309E+02 2.86875E+01 0.00000E+00
 -1      3152 1.38309E+02 2.72375E+01 0.00000E+00
 -1      3153 1.37010E+02 2.94250E+01 0.00000E+00
 -1      3154 1.38150E+02 1.46391E+01 0.00000E+00
 -1      3155 1.37949E+02 1.24391E+01 0.00000E+00
 -1      3156 1.36491E+02 1.23532E+01 0.00000E+00
 -1      3157 6.00579E+01 2.63319E+01 0.00000E+00
 -1      3158 6.13339E+01 2.70687E+01 0.00000E+00
 -1      3159 4.90569E+01 2.46874E+01 0.00000E+00
 -1      3160 5.06533E+01 2.46592E+01 0.00000E+00
 -1      3161 1.38309E+02 2.28125E+01 0.00000E+00
 -1      3162 1.38309E+02 2.13375E+01 0.00000E+00
 -1      3163 4.07906E+01 3.56027E+01 0.00000E+00
 -1      3164 4.01249E+01 3.46696E+01 0.00000E+00
 -1      3165 3.98379E+01 3.61651E+01 0.00000E+00
 -1      3166 1.17938E+01 8.83558E+00 0.00000E+00
 -1      3167 6.74174E+01 3.95246E+01 0.00000E+00
 -1      3168 1.18830E+01 1.08533E+01 0.00000E+00
 -1      3169 3.66240E+01 1.12805E+01 0.00000E+00
 -1      3170 3.51240E+01 1.12805E+01 0.00000E+00
 -1      3171 3.43740E+01 1.25795E+01 0.00000E+00
 -1      3172 3.73740E+01 1.25795E+01 0.00000E+00
 -1      3173 7.26375E+01 3.91594E+01 0.00000E+00
 -1      3174 7.41375E+01 3.91594E+01 0.00000E+00
 -1      3175 7.49250E+01 3.78604E+01 0.00000E+00
 -1      3176 3.98625E+01 3.26141E+01 0.00000E+00
 -1      3177 4.04909E+01 3.16026E+01 0.00000E+00
 -1      3178 6.64647E+01 3.36084E+01 0.00000E+00
 -1      3179 6.67254E+01 3.50152E+01 0.00000E+00
 -1      3180 3.77371E+01 3.88554E+01 0.00000E+00
 -1      3181 3.89236E+01 3.95161E+01 0.00000E+00
 -1      3182 6.38630E+01 4.27243E+01 0.00000E+00
 -1      3183 1.31820E+01 1.15908E+01 0.00000E+00
 -1      3184 1.38309E+02 2.57625E+01 0.00000E+00
 -1      3185 1.38309E+02 2.42875E+01 0.00000E+00
 -1      3186 1.37010E+02 2.35500E+01 0.00000E+00
 -1      3187 1.37010E+02 2.65000E+01 0.00000E+00
 -1      3188 1.29375E+01 3.83090E+01 0.00000E+00
 -1      3189 1.44375E+01 3.83090E+01 0.00000E+00
 -1      3190 1.52250E+01 3.70100E+01 0.00000E+00
 -1      3191 4.11182E+01 3.06599E+01 0.00000E+00
 -1      3192 4.17455E+01 2.97171E+01 0.00000E+00
 -1      3193 3.98621E+01 3.05804E+01 0.00000E+00
 -1      3194 6.27620E+01 2.79884E+01 0.00000E+00
 -1      3195 6.39117E+01 2.89886E+01 0.00000E+00
 -1      3196 8.99606E+00 3.70363E+01 0.00000E+00
 -1      3197 9.02831E+00 3.82715E+01 0.00000E+00
 -1      3198 1.01012E+01 3.83715E+01 0.00000E+00
 -1      3199 1.02951E+01 3.62988E+01 0.00000E+00
 -1      3200 5.75161E+01 2.51068E+01 0.00000E+00
 -1      3201 5.87233E+01 2.57080E+01 0.00000E+00
 -1      3202 4.53589E+01 2.57499E+01 0.00000E+00
 -1      3203 4.69733E+01 2.50112E+01 0.00000E+00
 -1      3204 1.16910E+01 2.12875E+01 0.00000E+00
 -1      3205 1.16910E+01 2.27625E+01 0.00000E+00
 -1      3206 6.51006E+01 3.05273E+01 0.00000E+00
 -1      3207 6.58021E+01 3.19258E+01 0.00000E+00
 -1      3208 4.27085E+01 2.85133E+01 0.00000E+00
 -1      3209 4.37317E+01 2.72169E+01 0.00000E+00
 -1      3210 6.81008E+01 3.82919E+01 0.00000E+00
 -1      3211 3.91403E+01 3.48481E+01 0.00000E+00
 -1      3212 3.95056E+01 3.38836E+01 0.00000E+00
 -1      3213 2.46240E+01 1.12805E+01 0.00000E+00
 -1      3214 2.31240E+01 1.12805E+01 0.00000E+00
 -1      3215 2.23740E+01 1.25795E+01 0.00000E+00
 -1      3216 5.13258E+01 2.38586E+01 0.00000E+00
 -1      3217 1.38150E+02 1.75766E+01 0.00000E+00
 -1      3218 1.38150E+02 1.61079E+01 0.00000E+00
 -1      3219 1.36692E+02 1.60220E+01 0.00000E+00
 -1      3220 3.69496E+01 3.75564E+01 0.00000E+00
 -1      3221 6.77353E+01 3.55237E+01 0.00000E+00
 -1      3222 1.11741E+01 3.84716E+01 0.00000E+00
 -1      3223 5.98739E+01 2.51887E+01 0.00000E+00
 -1      3224 1.39121E+02 3.90363E+01 0.00000E+00
 -1      3225 7.18210E+01 3.80105E+01 0.00000E+00
 -1      3226 2.83740E+01 1.25795E+01 0.00000E+00
 -1      3227 2.76240E+01 1.12805E+01 0.00000E+00
 -1      3228 2.61240E+01 1.12805E+01 0.00000E+00
 -1      3229 1.38167E+02 3.65802E+01 0.00000E+00
 -1      3230 1.36867E+02 3.58427E+01 0.00000E+00
 -1      3231 1.35286E+02 1.18598E+01 0.00000E+00
 -1      3232 1.33829E+02 1.17739E+01 0.00000E+00
 -1      3233 1.33079E+02 1.30729E+01 0.00000E+00
 -1      3234 1.35488E+02 1.40598E+01 0.00000E+00
 -1      3235 6.26366E+01 2.67322E+01 0.00000E+00
 -1      3236 1.19616E+01 3.71726E+01 0.00000E+00
 -1      3237 1.38230E+02 2.01914E+01 0.00000E+00
 -1      3238 1.38230E+02 1.87227E+01 0.00000E+00
 -1      3239 1.36771E+02 1.86368E+01 0.00000E+00
 -1      3240 1.36930E+02 2.09289E+01 0.00000E+00
 -1      3241 1.56240E+01 1.12805E+01 0.00000E+00
 -1      3242 1.41241E+01 1.12805E+01 0.00000E+00
 -1      3243 4.77534E+01 2.39722E+01 0.00000E+00
 -1      3244 4.85336E+01 2.29331E+01 0.00000E+00
 -1      3245 4.64500E+01 2.32570E+01 0.00000E+00
 -1      3246 1.39320E+01 1.28898E+01 0.00000E+00
 -1      3247 1.16910E+01 3.30594E+01 0.00000E+00
 -1      3248 1.16910E+01 3.45281E+01 0.00000E+00
 -1      3249 3.88629E+01 3.65801E+01 0.00000E+00
 -1      3250 3.87846E+01 3.60492E+01 0.00000E+00
 -1      3251 6.52536E+01 2.91906E+01 0.00000E+00
 -1      3252 6.65956E+01 2.93926E+01 0.00000E+00
 -1      3253 6.54067E+01 2.78539E+01 0.00000E+00
 -1      3254 1.16910E+01 1.83500E+01 0.00000E+00
 -1      3255 1.16910E+01 1.98188E+01 0.00000E+00
 -1      3256 1.29900E+01 2.05562E+01 0.00000E+00
 -1      3257 6.71052E+01 3.24119E+01 0.00000E+00
 -1      3258 3.88779E+01 3.27926E+01 0.00000E+00
 -1      3259 1.29900E+01 1.46687E+01 0.00000E+00
 -1      3260 1.16910E+01 1.54063E+01 0.00000E+00
 -1      3261 1.16910E+01 1.68750E+01 0.00000E+00
 -1      3262 3.81653E+01 3.52632E+01 0.00000E+00
 -1      3263 4.14523E+01 2.84338E+01 0.00000E+00
 -1      3264 1.16910E+01 3.01219E+01 0.00000E+00
 -1      3265 1.16910E+01 3.15906E+01 0.00000E+00
 -1      3266 1.29900E+01 3.23250E+01 0.00000E+00
 -1      3267 5.68909E+01 2.46142E+01 0.00000E+00
 -1      3268 5.79142E+01 2.40722E+01 0.00000E+00
 -1      3269 5.62657E+01 2.41216E+01 0.00000E+00
 -1      3270 1.16910E+01 2.42375E+01 0.00000E+00
 -1      3271 1.16910E+01 2.57125E+01 0.00000E+00
 -1      3272 1.29900E+01 2.35000E+01 0.00000E+00
 -1      3273 1.38334E+02 3.77373E+01 0.00000E+00
 -1      3274 4.40426E+01 2.57630E+01 0.00000E+00
 -1      3275 4.43535E+01 2.43091E+01 0.00000E+00
 -1      3276 4.27263E+01 2.57761E+01 0.00000E+00
 -1      3277 3.84919E+01 3.72835E+01 0.00000E+00
 -1      3278 1.63740E+01 1.25795E+01 0.00000E+00
 -1      3279 1.44750E+01 3.57110E+01 0.00000E+00
 -1      3280 1.59750E+01 3.57110E+01 0.00000E+00
 -1      3281 2.04750E+01 3.57110E+01 0.00000E+00
 -1      3282 2.19750E+01 3.57110E+01 0.00000E+00
 -1      3283 2.34750E+01 3.57110E+01 0.00000E+00
 -1      3284 2.49750E+01 3.57110E+01 0.00000E+00
 -1      3285 2.27250E+01 3.44120E+01 0.00000E+00
 -1      3286 2.64750E+01 3.57110E+01 0.00000E+00
 -1      3287 2.79750E+01 3.57110E+01 0.00000E+00
 -1      3288 2.57250E+01 3.44120E+01 0.00000E+00
 -1      3289 2.94750E+01 3.57110E+01 0.00000E+00
 -1      3290 3.09750E+01 3.57110E+01 0.00000E+00
 -1      3291 2.87250E+01 3.44120E+01 0.00000E+00
 -1      3292 3.24750E+01 3.57110E+01 0.00000E+00
 -1      3293 3.39750E+01 3.57110E+01 0.00000E+00
 -1      3294 3.17250E+01 3.44120E+01 0.00000E+00
 -1      3295 7.41750E+01 3.65614E+01 0.00000E+00
 -1      3296 7.56750E+01 3.65614E+01 0.00000E+00
 -1      3297 8.01750E+01 3.65614E+01 0.00000E+00
 -1      3298 8.16750E+01 3.65614E+01 0.00000E+00
 -1      3299 8.31750E+01 3.65614E+01 0.00000E+00
 -1      3300 8.46750E+01 3.65614E+01 0.00000E+00
 -1      3301 8.24250E+01 3.52624E+01 0.00000E+00
 -1      3302 8.61750E+01 3.65614E+01 0.00000E+00
 -1      3303 8.76750E+01 3.65614E+01 0.00000E+00
 -1      3304 8.54250E+01 3.52624E+01 0.00000E+00
 -1      3305 8.91750E+01 3.65614E+01 0.00000E+00
 -1      3306 9.06750E+01 3.65614E+01 0.00000E+00
 -1      3307 8.84250E+01 3.52624E+01 0.00000E+00
 -1      3308 9.21750E+01 3.65614E+01 0.00000E+00
 -1      3309 9.36750E+01 3.65614E+01 0.00000E+00
 -1      3310 9.14250E+01 3.52624E+01 0.00000E+00
 -1      3311 9.51750E+01 3.65614E+01 0.00000E+00
 -1      3312 9.66750E+01 3.65614E+01 0.00000E+00
 -1      3313 9.44250E+01 3.52624E+01 0.00000E+00
 -1      3314 9.82500E+01 3.65614E+01 0.00000E+00
 -1      3315 9.98250E+01 3.65614E+01 0.00000E+00
 -1      3316 9.75000E+01 3.52624E+01 0.00000E+00
 -1      3317 1.01325E+02 3.65614E+01 0.00000E+00
 -1      3318 1.02825E+02 3.65614E+01 0.00000E+00
 -1      3319 1.00575E+02 3.52624E+01 0.00000E+00
 -1      3320 1.04325E+02 3.65614E+01 0.00000E+00
 -1      3321 1.05825E+02 3.65614E+01 0.00000E+00
 -1      3322 1.03575E+02 3.52624E+01 0.00000E+00
 -1      3323 1.07325E+02 3.65614E+01 0.00000E+00
 -1      3324 1.08825E+02 3.65614E+01 0.00000E+00
 -1      3325 1.06575E+02 3.52624E+01 0.00000E+00
 -1      3326 1.10325E+02 3.65614E+01 0.00000E+00
 -1      3327 1.11825E+02 3.65614E+01 0.00000E+00
 -1      3328 1.09575E+02 3.52624E+01 0.00000E+00
 -1      3329 1.13325E+02 3.65614E+01 0.00000E+00
 -1      3330 1.14825E+02 3.65614E+01 0.00000E+00
 -1      3331 1.12575E+02 3.52624E+01 0.00000E+00
 -1      3332 1.16325E+02 3.65614E+01 0.00000E+00
 -1      3333 1.17825E+02 3.65614E+01 0.00000E+00
 -1      3334 1.15575E+02 3.52624E+01 0.00000E+00
 -1      3335 1.19400E+02 3.65614E+01 0.00000E+00
 -1      3336 1.20975E+02 3.65614E+01 0.00000E+00
 -1      3337 1.18650E+02 3.52624E+01 0.00000E+00
 -1      3338 1.22475E+02 3.65614E+01 0.00000E+00
 -1      3339 1.23975E+02 3.65614E+01 0.00000E+00
 -1      3340 1.21725E+02 3.52624E+01 0.00000E+00
 -1      3341 1.25475E+02 3.65614E+01 0.00000E+00
 -1      3342 1.26975E+02 3.65614E+01 0.00000E+00
 -1      3343 1.24725E+02 3.52624E+01 0.00000E+00
 -1      3344 1.28475E+02 3.65614E+01 0.00000E+00
 -1      3345 1.29975E+02 3.65614E+01 0.00000E+00
 -1      3346 1.27725E+02 3.52624E+01 0.00000E+00
 -1      3347 1.31475E+02 3.65614E+01 0.00000E+00
 -1      3348 1.32975E+02 3.65614E+01 0.00000E+00
 -1      3349 1.30725E+02 3.52624E+01 0.00000E+00
 -1      3350 1.34171E+02 3.62021E+01 0.00000E+00
 -1      3351 1.35671E+02 3.62021E+01 0.00000E+00
 -1      3352 1.35814E+02 3.41844E+01 0.00000E+00
 -1      3353 1.33421E+02 3.49031E+01 0.00000E+00
 -1      3354 5.07365E+01 2.26554E+01 0.00000E+00
 -1      3355 5.22253E+01 2.28657E+01 0.00000E+00
 -1      3356 4.41240E+01 1.38785E+01 0.00000E+00
 -1      3357 4.26240E+01 1.38785E+01 0.00000E+00
 -1      3358 4.11240E+01 1.38785E+01 0.00000E+00
 -1      3359 3.96240E+01 1.38785E+01 0.00000E+00
 -1      3360 4.18740E+01 1.51775E+01 0.00000E+00
 -1      3361 5.01240E+01 1.38785E+01 0.00000E+00
 -1      3362 4.86240E+01 1.38785E+01 0.00000E+00
 -1      3363 5.31240E+01 1.38785E+01 0.00000E+00
 -1      3364 5.16240E+01 1.38785E+01 0.00000E+00
 -1      3365 5.08740E+01 1.51775E+01 0.00000E+00
 -1      3366 5.61240E+01 1.38785E+01 0.00000E+00
 -1      3367 5.46240E+01 1.38785E+01 0.00000E+00
 -1      3368 5.38740E+01 1.51775E+01 0.00000E+00
 -1      3369 5.91240E+01 1.38785E+01 0.00000E+00
 -1      3370 5.76240E+01 1.38785E+01 0.00000E+00
 -1      3371 5.68740E+01 1.51775E+01 0.00000E+00
 -1      3372 6.21240E+01 1.38785E+01 0.00000E+00
 -1      3373 6.06240E+01 1.38785E+01 0.00000E+00
 -1      3374 5.98740E+01 1.51775E+01 0.00000E+00
 -1      3375 6.51240E+01 1.38785E+01 0.00000E+00
 -1      3376 6.36240E+01 1.38785E+01 0.00000E+00
 -1      3377 6.28740E+01 1.51775E+01 0.00000E+00
 -1      3378 6.81240E+01 1.38785E+01 0.00000E+00
 -1      3379 6.66240E+01 1.38785E+01 0.00000E+00
 -1      3380 6.58740E+01 1.51775E+01 0.00000E+00
 -1      3381 7.11240E+01 1.38785E+01 0.00000E+00
 -1      3382 6.96240E+01 1.38785E+01 0.00000E+00
 -1      3383 6.88740E+01 1.51775E+01 0.00000E+00
 -1      3384 7.41240E+01 1.38785E+01 0.00000E+00
 -1      3385 7.26240E+01 1.38785E+01 0.00000E+00
 -1      3386 7.18740E+01 1.51775E+01 0.00000E+00
 -1      3387 7.71240E+01 1.38785E+01 0.00000E+00
 -1      3388 7.56240E+01 1.38785E+01 0.00000E+00
 -1      3389 7.48740E+01 1.51775E+01 0.00000E+00
 -1      3390 8.01240E+01 1.38785E+01 0.00000E+00
 -1      3391 7.86240E+01 1.38785E+01 0.00000E+00
 -1      3392 7.78740E+01 1.51775E+01 0.00000E+00
 -1      3393 8.31240E+01 1.38785E+01 0.00000E+00
 -1      3394 8.16240E+01 1.38785E+01 0.00000E+00
 -1      3395 8.08740E+01 1.51775E+01 0.00000E+00
 -1      3396 8.61240E+01 1.38785E+01 0.00000E+00
 -1      3397 8.46240E+01 1.38785E+01 0.00000E+00
 -1      3398 8.38740E+01 1.51775E+01 0.00000E+00
 -1      3399 8.91240E+01 1.38785E+01 0.00000E+00
 -1      3400 8.76240E+01 1.38785E+01 0.00000E+00
 -1      3401 8.68740E+01 1.51775E+01 0.00000E+00
 -1      3402 9.21240E+01 1.38785E+01 0.00000E+00
 -1      3403 9.06240E+01 1.38785E+01 0.00000E+00
 -1      3404 8.98740E+01 1.51775E+01 0.00000E+00
 -1      3405 9.51240E+01 1.38785E+01 0.00000E+00
 -1      3406 9.36240E+01 1.38785E+01 0.00000E+00
 -1      3407 9.28740E+01 1.51775E+01 0.00000E+00
 -1      3408 9.81240E+01 1.38785E+01 0.00000E+00
 -1      3409 9.66240E+01 1.38785E+01 0.00000E+00
 -1      3410 9.58740E+01 1.51775E+01 0.00000E+00
 -1      3411 1.01124E+02 1.38785E+01 0.00000E+00
 -1      3412 9.96240E+01 1.38785E+01 0.00000E+00
 -1      3413 9.88740E+01 1.51775E+01 0.00000E+00
 -1      3414 1.04124E+02 1.38785E+01 0.00000E+00
 -1      3415 1.02624E+02 1.38785E+01 0.00000E+00
 -1      3416 1.01874E+02 1.51775E+01 0.00000E+00
 -1      3417 1.07124E+02 1.38785E+01 0.00000E+00
 -1      3418 1.05624E+02 1.38785E+01 0.00000E+00
 -1      3419 1.04874E+02 1.51775E+01 0.00000E+00
 -1      3420 1.10124E+02 1.38785E+01 0.00000E+00
 -1      3421 1.08624E+02 1.38785E+01 0.00000E+00
 -1      3422 1.07874E+02 1.51775E+01 0.00000E+00
 -1      3423 1.13124E+02 1.38785E+01 0.00000E+00
 -1      3424 1.11624E+02 1.38785E+01 0.00000E+00
 -1      3425 1.10874E+02 1.51775E+01 0.00000E+00
 -1      3426 1.16124E+02 1.38785E+01 0.00000E+00
 -1      3427 1.14624E+02 1.38785E+01 0.00000E+00
 -1      3428 1.13874E+02 1.51775E+01 0.00000E+00
 -1      3429 1.19124E+02 1.38785E+01 0.00000E+00
 -1      3430 1.17624E+02 1.38785E+01 0.00000E+00
 -1      3431 1.16874E+02 1.51775E+01 0.00000E+00
 -1      3432 1.22124E+02 1.38785E+01 0.00000E+00
 -1      3433 1.20624E+02 1.38785E+01 0.00000E+00
 -1      3434 1.19874E+02 1.51775E+01 0.00000E+00
 -1      3435 1.25124E+02 1.38785E+01 0.00000E+00
 -1      3436 1.23624E+02 1.38785E+01 0.00000E+00
 -1      3437 1.22874E+02 1.51775E+01 0.00000E+00
 -1      3438 1.28124E+02 1.38785E+01 0.00000E+00
 -1      3439 1.26624E+02 1.38785E+01 0.00000E+00
 -1      3440 1.25874E+02 1.51775E+01 0.00000E+00
 -1      3441 1.31124E+02 1.38785E+01 0.00000E+00
 -1      3442 1.29624E+02 1.38785E+01 0.00000E+00
 -1      3443 1.28874E+02 1.51775E+01 0.00000E+00
 -1      3444 1.35814E+02 3.27094E+01 0.00000E+00
 -1      3445 1.35814E+02 3.12344E+01 0.00000E+00
 -1      3446 1.34617E+02 3.30687E+01 0.00000E+00
 -1      3447 6.25230E+01 2.53401E+01 0.00000E+00
 -1      3448 6.39511E+01 2.62597E+01 0.00000E+00
 -1      3449 7.08980E+01 3.67922E+01 0.00000E+00
 -1      3450 7.25020E+01 3.66421E+01 0.00000E+00
 -1      3451 1.35814E+02 2.97844E+01 0.00000E+00
 -1      3452 1.35814E+02 2.83344E+01 0.00000E+00
 -1      3453 1.34617E+02 3.01437E+01 0.00000E+00
 -1      3454 1.71240E+01 1.38785E+01 0.00000E+00
 -1      3455 1.56241E+01 1.38785E+01 0.00000E+00
 -1      3456 4.71240E+01 1.38785E+01 0.00000E+00
 -1      3457 4.56240E+01 1.38785E+01 0.00000E+00
 -1      3458 4.48740E+01 1.51775E+01 0.00000E+00
 -1      3459 4.78740E+01 1.51775E+01 0.00000E+00
 -1      3460 3.99565E+01 2.82243E+01 0.00000E+00
 -1      3461 4.09195E+01 2.70205E+01 0.00000E+00
 -1      3462 3.21240E+01 1.38785E+01 0.00000E+00
 -1      3463 3.06240E+01 1.38785E+01 0.00000E+00
 -1      3464 5.36456E+01 2.33032E+01 0.00000E+00
 -1      3465 5.48595E+01 2.36006E+01 0.00000E+00
 -1      3466 1.16910E+01 2.71844E+01 0.00000E+00
 -1      3467 1.16910E+01 2.86531E+01 0.00000E+00
 -1      3468 1.29900E+01 2.93875E+01 0.00000E+00
 -1      3469 2.01240E+01 1.38785E+01 0.00000E+00
 -1      3470 1.86240E+01 1.38785E+01 0.00000E+00
 -1      3471 1.78740E+01 1.51775E+01 0.00000E+00
 -1      3472 6.78836E+01 3.11336E+01 0.00000E+00
 -1      3473 6.85462E+01 3.28162E+01 0.00000E+00
 -1      3474 1.20585E+01 3.61362E+01 0.00000E+00
 -1      3475 7.71750E+01 3.65614E+01 0.00000E+00
 -1      3476 7.86750E+01 3.65614E+01 0.00000E+00
 -1      3477 7.64250E+01 3.52624E+01 0.00000E+00
 -1      3478 3.87020E+01 3.01098E+01 0.00000E+00
 -1      3479 3.93292E+01 2.91670E+01 0.00000E+00
 -1      3480 3.87964E+01 2.77537E+01 0.00000E+00
 -1      3481 5.96763E+01 2.38721E+01 0.00000E+00
 -1      3482 6.10108E+01 2.44960E+01 0.00000E+00
 -1      3483 1.74750E+01 3.57110E+01 0.00000E+00
 -1      3484 1.89750E+01 3.57110E+01 0.00000E+00
 -1      3485 1.67250E+01 3.44120E+01 0.00000E+00
 -1      3486 1.47780E+01 1.41185E+01 0.00000E+00
 -1      3487 1.38360E+01 1.44288E+01 0.00000E+00
 -1      3488 1.38360E+01 1.58975E+01 0.00000E+00
 -1      3489 1.55280E+01 1.54175E+01 0.00000E+00
 -1      3490 3.70849E+01 3.55964E+01 0.00000E+00
 -1      3491 3.74406E+01 3.43954E+01 0.00000E+00
 -1      3492 3.77975E+01 3.31259E+01 0.00000E+00
 -1      3493 3.81544E+01 3.18564E+01 0.00000E+00
 -1      3494 3.67170E+01 3.34591E+01 0.00000E+00
 -1      3495 1.33575E+01 3.54019E+01 0.00000E+00
 -1      3496 1.41075E+01 3.41029E+01 0.00000E+00
 -1      3497 3.47926E+01 3.45703E+01 0.00000E+00
 -1      3498 3.55426E+01 3.58693E+01 0.00000E+00
 -1      3499 6.89599E+01 3.75567E+01 0.00000E+00
 -1      3500 7.94250E+01 3.52624E+01 0.00000E+00
 -1      3501 6.51794E+01 2.50696E+01 0.00000E+00
 -1      3502 6.52930E+01 2.64618E+01 0.00000E+00
 -1      3503 6.66350E+01 2.66638E+01 0.00000E+00
 -1      3504 5.30562E+01 2.21001E+01 0.00000E+00
 -1      3505 6.23253E+01 2.40236E+01 0.00000E+00
 -1      3506 3.97345E+01 2.53570E+01 0.00000E+00
 -1      3507 4.12304E+01 2.55666E+01 0.00000E+00
 -1      3508 4.15414E+01 2.41127E+01 0.00000E+00
 -1      3509 1.35488E+02 1.55286E+01 0.00000E+00
 -1      3510 1.34283E+02 1.50351E+01 0.00000E+00
 -1      3511 1.35488E+02 1.69973E+01 0.00000E+00
 -1      3512 2.91240E+01 1.38785E+01 0.00000E+00
 -1      3513 2.76240E+01 1.38785E+01 0.00000E+00
 -1      3514 2.98740E+01 1.51775E+01 0.00000E+00
 -1      3515 4.38174E+01 2.32832E+01 0.00000E+00
 -1      3516 4.51337E+01 2.32701E+01 0.00000E+00
 -1      3517 4.59138E+01 2.22310E+01 0.00000E+00
 -1      3518 3.88740E+01 1.51775E+01 0.00000E+00
 -1      3519 3.81240E+01 1.38785E+01 0.00000E+00
 -1      3520 3.66240E+01 1.38785E+01 0.00000E+00
 -1      3521 1.41075E+01 3.26341E+01 0.00000E+00
 -1      3522 1.52250E+01 3.29432E+01 0.00000E+00
 -1      3523 1.41075E+01 3.11654E+01 0.00000E+00
 -1      3524 1.32329E+02 1.43719E+01 0.00000E+00
 -1      3525 2.53740E+01 1.25795E+01 0.00000E+00
 -1      3526 1.29900E+01 2.64469E+01 0.00000E+00
 -1      3527 3.51240E+01 1.38785E+01 0.00000E+00
 -1      3528 3.36240E+01 1.38785E+01 0.00000E+00
 -1      3529 3.28740E+01 1.51775E+01 0.00000E+00
 -1      3530 3.58740E+01 1.51775E+01 0.00000E+00
 -1      3531 1.35674E+02 2.15919E+01 0.00000E+00
 -1      3532 1.35595E+02 2.04458E+01 0.00000E+00
 -1      3533 7.32520E+01 3.53431E+01 0.00000E+00
 -1      3534 1.34617E+02 2.72187E+01 0.00000E+00
 -1      3535 1.35814E+02 2.68594E+01 0.00000E+00
 -1      3536 1.35814E+02 2.53844E+01 0.00000E+00
 -1      3537 6.99541E+01 3.27973E+01 0.00000E+00
 -1      3538 6.91757E+01 3.40757E+01 0.00000E+00
 -1      3539 4.81296E+01 2.12250E+01 0.00000E+00
 -1      3540 4.94330E+01 2.19402E+01 0.00000E+00
 -1      3541 5.03325E+01 2.09473E+01 0.00000E+00
 -1      3542 5.84259E+01 2.28870E+01 0.00000E+00
 -1      3543 5.90511E+01 2.33796E+01 0.00000E+00
 -1      3544 6.01880E+01 2.26869E+01 0.00000E+00
 -1      3545 2.31240E+01 1.38785E+01 0.00000E+00
 -1      3546 2.16240E+01 1.38785E+01 0.00000E+00
 -1      3547 2.08740E+01 1.51775E+01 0.00000E+00
 -1      3548 6.81897E+01 2.84602E+01 0.00000E+00
 -1      3549 6.80366E+01 2.97969E+01 0.00000E+00
 -1      3550 6.94777E+01 3.02012E+01 0.00000E+00
 -1      3551 5.58827E+01 2.30586E+01 0.00000E+00
 -1      3552 1.29900E+01 1.76125E+01 0.00000E+00
 -1      3553 6.88602E+01 3.48343E+01 0.00000E+00
 -1      3554 6.88277E+01 3.62635E+01 0.00000E+00
 -1      3555 7.02681E+01 3.48155E+01 0.00000E+00
 -1      3556 1.42890E+01 2.27625E+01 0.00000E+00
 -1      3557 1.42890E+01 2.42375E+01 0.00000E+00
 -1      3558 1.42890E+01 1.98250E+01 0.00000E+00
 -1      3559 1.42890E+01 2.12938E+01 0.00000E+00
 -1      3560 1.55880E+01 2.20313E+01 0.00000E+00
 -1      3561 3.76215E+01 3.04430E+01 0.00000E+00
 -1      3562 1.97250E+01 3.44120E+01 0.00000E+00
 -1      3563 1.35744E+02 2.42256E+01 0.00000E+00
 -1      3564 1.35744E+02 2.27506E+01 0.00000E+00
 -1      3565 1.34408E+02 2.22675E+01 0.00000E+00
 -1      3566 1.34548E+02 2.45850E+01 0.00000E+00
 -1      3567 7.00848E+01 3.68673E+01 0.00000E+00
 -1      3568 7.07658E+01 3.54989E+01 0.00000E+00
 -1      3569 3.62673E+01 3.67371E+01 0.00000E+00
 -1      3570 8.16750E+01 3.39634E+01 0.00000E+00
 -1      3571 8.31750E+01 3.39634E+01 0.00000E+00
 -1      3572 2.49750E+01 3.31130E+01 0.00000E+00
 -1      3573 2.64750E+01 3.31130E+01 0.00000E+00
 -1      3574 2.79750E+01 3.31130E+01 0.00000E+00
 -1      3575 2.94750E+01 3.31130E+01 0.00000E+00
 -1      3576 2.72250E+01 3.18140E+01 0.00000E+00
 -1      3577 3.09750E+01 3.31130E+01 0.00000E+00
 -1      3578 3.24750E+01 3.31130E+01 0.00000E+00
 -1      3579 3.02250E+01 3.18140E+01 0.00000E+00
 -1      3580 4.26240E+01 1.64765E+01 0.00000E+00
 -1      3581 4.11240E+01 1.64765E+01 0.00000E+00
 -1      3582 3.38122E+01 3.32069E+01 0.00000E+00
 -1      3583 3.53798E+01 3.33652E+01 0.00000E+00
 -1      3584 3.57367E+01 3.20957E+01 0.00000E+00
 -1      3585 3.30622E+01 3.19079E+01 0.00000E+00
 -1      3586 8.46750E+01 3.39634E+01 0.00000E+00
 -1      3587 8.61750E+01 3.39634E+01 0.00000E+00
 -1      3588 8.39250E+01 3.26644E+01 0.00000E+00
 -1      3589 8.76750E+01 3.39634E+01 0.00000E+00
 -1      3590 8.91750E+01 3.39634E+01 0.00000E+00
 -1      3591 8.69250E+01 3.26644E+01 0.00000E+00
 -1      3592 9.06750E+01 3.39634E+01 0.00000E+00
 -1      3593 9.21750E+01 3.39634E+01 0.00000E+00
 -1      3594 8.99250E+01 3.26644E+01 0.00000E+00
 -1      3595 9.36750E+01 3.39634E+01 0.00000E+00
 -1      3596 9.51750E+01 3.39634E+01 0.00000E+00
 -1      3597 9.29250E+01 3.26644E+01 0.00000E+00
 -1      3598 9.67500E+01 3.39634E+01 0.00000E+00
 -1      3599 9.83250E+01 3.39634E+01 0.00000E+00
 -1      3600 9.60000E+01 3.26644E+01 0.00000E+00
 -1      3601 9.98250E+01 3.39634E+01 0.00000E+00
 -1      3602 1.01325E+02 3.39634E+01 0.00000E+00
 -1      3603 9.90750E+01 3.26644E+01 0.00000E+00
 -1      3604 1.02825E+02 3.39634E+01 0.00000E+00
 -1      3605 1.04325E+02 3.39634E+01 0.00000E+00
 -1      3606 1.02075E+02 3.26644E+01 0.00000E+00
 -1      3607 1.05825E+02 3.39634E+01 0.00000E+00
 -1      3608 1.07325E+02 3.39634E+01 0.00000E+00
 -1      3609 1.05075E+02 3.26644E+01 0.00000E+00
 -1      3610 1.08825E+02 3.39634E+01 0.00000E+00
 -1      3611 1.10325E+02 3.39634E+01 0.00000E+00
 -1      3612 1.08075E+02 3.26644E+01 0.00000E+00
 -1      3613 1.11825E+02 3.39634E+01 0.00000E+00
 -1      3614 1.13325E+02 3.39634E+01 0.00000E+00
 -1      3615 1.11075E+02 3.26644E+01 0.00000E+00
 -1      3616 1.14825E+02 3.39634E+01 0.00000E+00
 -1      3617 1.16325E+02 3.39634E+01 0.00000E+00
 -1      3618 1.14075E+02 3.26644E+01 0.00000E+00
 -1      3619 1.17900E+02 3.39634E+01 0.00000E+00
 -1      3620 1.19475E+02 3.39634E+01 0.00000E+00
 -1      3621 1.17150E+02 3.26644E+01 0.00000E+00
 -1      3622 1.20975E+02 3.39634E+01 0.00000E+00
 -1      3623 1.22475E+02 3.39634E+01 0.00000E+00
 -1      3624 1.20225E+02 3.26644E+01 0.00000E+00
 -1      3625 1.23975E+02 3.39634E+01 0.00000E+00
 -1      3626 1.25475E+02 3.39634E+01 0.00000E+00
 -1      3627 1.23225E+02 3.26644E+01 0.00000E+00
 -1      3628 1.26975E+02 3.39634E+01 0.00000E+00
 -1      3629 1.28475E+02 3.39634E+01 0.00000E+00
 -1      3630 1.26225E+02 3.26644E+01 0.00000E+00
 -1      3631 1.29975E+02 3.39634E+01 0.00000E+00
 -1      3632 1.31475E+02 3.39634E+01 0.00000E+00
 -1      3633 1.29225E+02 3.26644E+01 0.00000E+00
 -1      3634 1.32448E+02 3.36958E+01 0.00000E+00
 -1      3635 1.33644E+02 3.33364E+01 0.00000E+00
 -1      3636 1.33644E+02 3.18614E+01 0.00000E+00
 -1      3637 1.31698E+02 3.23968E+01 0.00000E+00
 -1      3638 5.46240E+01 1.64765E+01 0.00000E+00
 -1      3639 5.31240E+01 1.64765E+01 0.00000E+00
 -1      3640 5.16240E+01 1.64765E+01 0.00000E+00
 -1      3641 5.01240E+01 1.64765E+01 0.00000E+00
 -1      3642 5.23740E+01 1.77755E+01 0.00000E+00
 -1      3643 6.06240E+01 1.64765E+01 0.00000E+00
 -1      3644 5.91240E+01 1.64765E+01 0.00000E+00
 -1      3645 6.36240E+01 1.64765E+01 0.00000E+00
 -1      3646 6.21240E+01 1.64765E+01 0.00000E+00
 -1      3647 6.13740E+01 1.77755E+01 0.00000E+00
 -1      3648 6.66240E+01 1.64765E+01 0.00000E+00
 -1      3649 6.51240E+01 1.64765E+01 0.00000E+00
 -1      3650 6.43740E+01 1.77755E+01 0.00000E+00
 -1      3651 6.96240E+01 1.64765E+01 0.00000E+00
 -1      3652 6.81240E+01 1.64765E+01 0.00000E+00
 -1      3653 6.73740E+01 1.77755E+01 0.00000E+00
 -1      3654 7.26240E+01 1.64765E+01 0.00000E+00
 -1      3655 7.11240E+01 1.64765E+01 0.00000E+00
 -1      3656 7.03740E+01 1.77755E+01 0.00000E+00
 -1      3657 7.56240E+01 1.64765E+01 0.00000E+00
 -1      3658 7.41240E+01 1.64765E+01 0.00000E+00
 -1      3659 7.33740E+01 1.77755E+01 0.00000E+00
 -1      3660 7.86240E+01 1.64765E+01 0.00000E+00
 -1      3661 7.71240E+01 1.64765E+01 0.00000E+00
 -1      3662 7.63740E+01 1.77755E+01 0.00000E+00
 -1      3663 8.16240E+01 1.64765E+01 0.00000E+00
 -1      3664 8.01240E+01 1.64765E+01 0.00000E+00
 -1      3665 7.93740E+01 1.77755E+01 0.00000E+00
 -1      3666 8.46240E+01 1.64765E+01 0.00000E+00
 -1      3667 8.31240E+01 1.64765E+01 0.00000E+00
 -1      3668 8.23740E+01 1.77755E+01 0.00000E+00
 -1      3669 8.76240E+01 1.64765E+01 0.00000E+00
 -1      3670 8.61240E+01 1.64765E+01 0.00000E+00
 -1      3671 8.53740E+01 1.77755E+01 0.00000E+00
 -1      3672 9.06240E+01 1.64765E+01 0.00000E+00
 -1      3673 8.91240E+01 1.64765E+01 0.00000E+00
 -1      3674 8.83740E+01 1.77755E+01 0.00000E+00
 -1      3675 9.36240E+01 1.64765E+01 0.00000E+00
 -1      3676 9.21240E+01 1.64765E+01 0.00000E+00
 -1      3677 9.13740E+01 1.77755E+01 0.00000E+00
 -1      3678 9.66240E+01 1.64765E+01 0.00000E+00
 -1      3679 9.51240E+01 1.64765E+01 0.00000E+00
 -1      3680 9.43740E+01 1.77755E+01 0.00000E+00
 -1      3681 9.96240E+01 1.64765E+01 0.00000E+00
 -1      3682 9.81240E+01 1.64765E+01 0.00000E+00
 -1      3683 9.73740E+01 1.77755E+01 0.00000E+00
 -1      3684 1.02624E+02 1.64765E+01 0.00000E+00
 -1      3685 1.01124E+02 1.64765E+01 0.00000E+00
 -1      3686 1.00374E+02 1.77755E+01 0.00000E+00
 -1      3687 1.05624E+02 1.64765E+01 0.00000E+00
 -1      3688 1.04124E+02 1.64765E+01 0.00000E+00
 -1      3689 1.03374E+02 1.77755E+01 0.00000E+00
 -1      3690 1.08624E+02 1.64765E+01 0.00000E+00
 -1      3691 1.07124E+02 1.64765E+01 0.00000E+00
 -1      3692 1.06374E+02 1.77755E+01 0.00000E+00
 -1      3693 1.11624E+02 1.64765E+01 0.00000E+00
 -1      3694 1.10124E+02 1.64765E+01 0.00000E+00
 -1      3695 1.09374E+02 1.77755E+01 0.00000E+00
 -1      3696 1.14624E+02 1.64765E+01 0.00000E+00
 -1      3697 1.13124E+02 1.64765E+01 0.00000E+00
 -1      3698 1.12374E+02 1.77755E+01 0.00000E+00
 -1      3699 1.17624E+02 1.64765E+01 0.00000E+00
 -1      3700 1.16124E+02 1.64765E+01 0.00000E+00
 -1      3701 1.15374E+02 1.77755E+01 0.00000E+00
 -1      3702 1.20624E+02 1.64765E+01 0.00000E+00
 -1      3703 1.19124E+02 1.64765E+01 0.00000E+00
 -1      3704 1.18374E+02 1.77755E+01 0.00000E+00
 -1      3705 1.23624E+02 1.64765E+01 0.00000E+00
 -1      3706 1.22124E+02 1.64765E+01 0.00000E+00
 -1      3707 1.21374E+02 1.77755E+01 0.00000E+00
 -1      3708 1.26624E+02 1.64765E+01 0.00000E+00
 -1      3709 1.25124E+02 1.64765E+01 0.00000E+00
 -1      3710 1.24374E+02 1.77755E+01 0.00000E+00
 -1      3711 1.29624E+02 1.64765E+01 0.00000E+00
 -1      3712 1.28124E+02 1.64765E+01 0.00000E+00
 -1      3713 1.27374E+02 1.77755E+01 0.00000E+00
 -1      3714 2.61240E+01 1.38785E+01 0.00000E+00
 -1      3715 2.46240E+01 1.38785E+01 0.00000E+00
 -1      3716 2.38740E+01 1.51775E+01 0.00000E+00
 -1      3717 2.68740E+01 1.51775E+01 0.00000E+00
 -1      3718 1.67250E+01 3.29432E+01 0.00000E+00
 -1      3719 5.27285E+01 2.06399E+01 0.00000E+00
 -1      3720 5.41488E+01 2.10774E+01 0.00000E+00
 -1      3721 7.08013E+01 3.15869E+01 0.00000E+00
 -1      3722 7.14308E+01 3.28463E+01 0.00000E+00
 -1      3723 1.34259E+02 1.99627E+01 0.00000E+00
 -1      3724 1.35515E+02 1.92997E+01 0.00000E+00
 -1      3725 1.35436E+02 1.81537E+01 0.00000E+00
 -1      3726 3.74012E+01 2.75054E+01 0.00000E+00
 -1      3727 3.80285E+01 2.65627E+01 0.00000E+00
 -1      3728 1.55880E+01 2.49719E+01 0.00000E+00
 -1      3729 1.42890E+01 2.57094E+01 0.00000E+00
 -1      3730 1.42890E+01 2.71812E+01 0.00000E+00
 -1      3731 1.41982E+01 2.84389E+01 0.00000E+00
 -1      3732 1.41982E+01 2.99077E+01 0.00000E+00
 -1      3733 1.53158E+01 3.02168E+01 0.00000E+00
 -1      3734 1.54972E+01 2.77014E+01 0.00000E+00
 -1      3735 6.21914E+01 2.24869E+01 0.00000E+00
 -1      3736 6.37035E+01 2.33310E+01 0.00000E+00
 -1      3737 1.33644E+02 3.04114E+01 0.00000E+00
 -1      3738 1.33644E+02 2.89614E+01 0.00000E+00
 -1      3739 1.32671E+02 3.06791E+01 0.00000E+00
 -1      3740 7.10813E+01 3.47403E+01 0.00000E+00
 -1      3741 5.55550E+01 2.15984E+01 0.00000E+00
 -1      3742 5.69613E+01 2.21194E+01 0.00000E+00
 -1      3743 5.52273E+01 2.01382E+01 0.00000E+00
 -1      3744 1.86240E+01 1.64765E+01 0.00000E+00
 -1      3745 1.71240E+01 1.64765E+01 0.00000E+00
 -1      3746 1.40625E+01 1.71238E+01 0.00000E+00
 -1      3747 1.40625E+01 1.85988E+01 0.00000E+00
 -1      3748 1.53615E+01 1.93363E+01 0.00000E+00
 -1      3749 1.49085E+01 1.68838E+01 0.00000E+00
 -1      3750 3.62952E+01 3.06739E+01 0.00000E+00
 -1      3751 3.68428E+01 2.89273E+01 0.00000E+00
 -1      3752 3.60749E+01 2.77363E+01 0.00000E+00
 -1      3753 3.49579E+01 3.05800E+01 0.00000E+00
 -1      3754 5.76240E+01 1.64765E+01 0.00000E+00
 -1      3755 5.61240E+01 1.64765E+01 0.00000E+00
 -1      3756 5.53740E+01 1.77755E+01 0.00000E+00
 -1      3757 5.83740E+01 1.77755E+01 0.00000E+00
 -1      3758 7.56750E+01 3.39634E+01 0.00000E+00
 -1      3759 7.71750E+01 3.39634E+01 0.00000E+00
 -1      3760 2.19750E+01 3.31130E+01 0.00000E+00
 -1      3761 2.34750E+01 3.31130E+01 0.00000E+00
 -1      3762 2.42250E+01 3.18140E+01 0.00000E+00
 -1      3763 1.89750E+01 3.31130E+01 0.00000E+00
 -1      3764 2.04750E+01 3.31130E+01 0.00000E+00
 -1      3765 2.12250E+01 3.18140E+01 0.00000E+00
 -1      3766 1.32329E+02 1.58407E+01 0.00000E+00
 -1      3767 7.86750E+01 3.39634E+01 0.00000E+00
 -1      3768 8.01750E+01 3.39634E+01 0.00000E+00
 -1      3769 8.09250E+01 3.26644E+01 0.00000E+00
 -1      3770 7.79250E+01 3.26644E+01 0.00000E+00
 -1      3771 7.19285E+01 3.35298E+01 0.00000E+00
 -1      3772 7.24262E+01 3.42133E+01 0.00000E+00
 -1      3773 7.27757E+01 3.23193E+01 0.00000E+00
 -1      3774 4.03740E+01 1.77755E+01 0.00000E+00
 -1      3775 3.96240E+01 1.64765E+01 0.00000E+00
 -1      3776 3.81240E+01 1.64765E+01 0.00000E+00
 -1      3777 4.41240E+01 1.64765E+01 0.00000E+00
 -1      3778 4.33740E+01 1.77755E+01 0.00000E+00
 -1      3779 4.56240E+01 1.64765E+01 0.00000E+00
 -1      3780 6.50455E+01 2.35330E+01 0.00000E+00
 -1      3781 6.63874E+01 2.37350E+01 0.00000E+00
 -1      3782 6.49115E+01 2.19964E+01 0.00000E+00
 -1      3783 3.83394E+01 2.51088E+01 0.00000E+00
 -1      3784 3.86504E+01 2.36549E+01 0.00000E+00
 -1      3785 3.69443E+01 2.48606E+01 0.00000E+00
 -1      3786 1.34231E+02 1.76602E+01 0.00000E+00
 -1      3787 3.06240E+01 1.64765E+01 0.00000E+00
 -1      3788 2.91240E+01 1.64765E+01 0.00000E+00
 -1      3789 4.23215E+01 2.30736E+01 0.00000E+00
 -1      3790 4.31017E+01 2.20346E+01 0.00000E+00
 -1      3791 4.08256E+01 2.28641E+01 0.00000E+00
 -1      3792 7.40992E+01 3.41326E+01 0.00000E+00
 -1      3793 7.48492E+01 3.28336E+01 0.00000E+00
 -1      3794 1.33003E+02 2.06256E+01 0.00000E+00
 -1      3795 1.32924E+02 1.94795E+01 0.00000E+00
 -1      3796 4.67338E+01 2.08645E+01 0.00000E+00
 -1      3797 4.76333E+01 1.98716E+01 0.00000E+00
 -1      3798 1.33644E+02 2.74864E+01 0.00000E+00
 -1      3799 1.33644E+02 2.60114E+01 0.00000E+00
 -1      3800 1.32671E+02 2.77541E+01 0.00000E+00
 -1      3801 4.99515E+01 1.90038E+01 0.00000E+00
 -1      3802 5.12550E+01 1.97190E+01 0.00000E+00
 -1      3803 1.68870E+01 2.42359E+01 0.00000E+00
 -1      3804 1.68870E+01 2.57078E+01 0.00000E+00
 -1      3805 5.80982E+01 2.14268E+01 0.00000E+00
 -1      3806 1.74750E+01 3.16443E+01 0.00000E+00
 -1      3807 7.09544E+01 3.02502E+01 0.00000E+00
 -1      3808 6.80760E+01 2.70680E+01 0.00000E+00
 -1      3809 6.95171E+01 2.74723E+01 0.00000E+00
 -1      3810 6.79624E+01 2.56759E+01 0.00000E+00
 -1      3811 4.54175E+01 2.08776E+01 0.00000E+00
 -1      3812 4.86240E+01 1.64765E+01 0.00000E+00
 -1      3813 4.71240E+01 1.64765E+01 0.00000E+00
 -1      3814 4.63740E+01 1.77755E+01 0.00000E+00
 -1      3815 4.93740E+01 1.77755E+01 0.00000E+00
 -1      3816 2.01240E+01 1.64765E+01 0.00000E+00
 -1      3817 1.93740E+01 1.77755E+01 0.00000E+00
 -1      3818 2.16240E+01 1.64765E+01 0.00000E+00
 -1      3819 1.68870E+01 2.12984E+01 0.00000E+00
 -1      3820 1.68870E+01 2.27672E+01 0.00000E+00
 -1      3821 1.81860E+01 2.35031E+01 0.00000E+00
 -1      3822 1.32905E+02 1.74000E+01 0.00000E+00
 -1      3823 1.30950E+02 1.67368E+01 0.00000E+00
 -1      3824 1.30200E+02 1.80358E+01 0.00000E+00
 -1      3825 1.32853E+02 1.85563E+01 0.00000E+00
 -1      3826 3.36240E+01 1.64765E+01 0.00000E+00
 -1      3827 3.21240E+01 1.64765E+01 0.00000E+00
 -1      3828 3.13740E+01 1.77755E+01 0.00000E+00
 -1      3829 1.33142E+02 2.29431E+01 0.00000E+00
 -1      3830 1.33073E+02 2.17843E+01 0.00000E+00
 -1      3831 1.31737E+02 2.13012E+01 0.00000E+00
 -1      3832 6.09410E+01 2.15018E+01 0.00000E+00
 -1      3833 6.15662E+01 2.19944E+01 0.00000E+00
 -1      3834 6.29444E+01 2.13018E+01 0.00000E+00
 -1      3835 7.38538E+01 3.14667E+01 0.00000E+00
 -1      3836 7.43515E+01 3.21502E+01 0.00000E+00
 -1      3837 7.59273E+01 3.19810E+01 0.00000E+00
 -1      3838 2.64750E+01 3.05150E+01 0.00000E+00
 -1      3839 2.79750E+01 3.05150E+01 0.00000E+00
 -1      3840 2.94750E+01 3.05150E+01 0.00000E+00
 -1      3841 3.09750E+01 3.05150E+01 0.00000E+00
 -1      3842 2.87250E+01 2.92160E+01 0.00000E+00
 -1      3843 6.81240E+01 1.90745E+01 0.00000E+00
 -1      3844 6.66240E+01 1.90745E+01 0.00000E+00
 -1      3845 8.61750E+01 3.13654E+01 0.00000E+00
 -1      3846 8.76750E+01 3.13654E+01 0.00000E+00
 -1      3847 8.91750E+01 3.13654E+01 0.00000E+00
 -1      3848 9.06750E+01 3.13654E+01 0.00000E+00
 -1      3849 8.84250E+01 3.00664E+01 0.00000E+00
 -1      3850 9.21750E+01 3.13654E+01 0.00000E+00
 -1      3851 9.36750E+01 3.13654E+01 0.00000E+00
 -1      3852 9.14250E+01 3.00664E+01 0.00000E+00
 -1      3853 9.52500E+01 3.13654E+01 0.00000E+00
 -1      3854 9.68250E+01 3.13654E+01 0.00000E+00
 -1      3855 9.45000E+01 3.00664E+01 0.00000E+00
 -1      3856 9.83250E+01 3.13654E+01 0.00000E+00
 -1      3857 9.98250E+01 3.13654E+01 0.00000E+00
 -1      3858 9.75750E+01 3.00664E+01 0.00000E+00
 -1      3859 1.01325E+02 3.13654E+01 0.00000E+00
 -1      3860 1.02825E+02 3.13654E+01 0.00000E+00
 -1      3861 1.00575E+02 3.00664E+01 0.00000E+00
 -1      3862 1.04325E+02 3.13654E+01 0.00000E+00
 -1      3863 1.05825E+02 3.13654E+01 0.00000E+00
 -1      3864 1.03575E+02 3.00664E+01 0.00000E+00
 -1      3865 1.07325E+02 3.13654E+01 0.00000E+00
 -1      3866 1.08825E+02 3.13654E+01 0.00000E+00
 -1      3867 1.06575E+02 3.00664E+01 0.00000E+00
 -1      3868 1.10325E+02 3.13654E+01 0.00000E+00
 -1      3869 1.11825E+02 3.13654E+01 0.00000E+00
 -1      3870 1.09575E+02 3.00664E+01 0.00000E+00
 -1      3871 1.13325E+02 3.13654E+01 0.00000E+00
 -1      3872 1.14825E+02 3.13654E+01 0.00000E+00
 -1      3873 1.12575E+02 3.00664E+01 0.00000E+00
 -1      3874 1.16400E+02 3.13654E+01 0.00000E+00
 -1      3875 1.17975E+02 3.13654E+01 0.00000E+00
 -1      3876 1.15650E+02 3.00664E+01 0.00000E+00
 -1      3877 1.19475E+02 3.13654E+01 0.00000E+00
 -1      3878 1.20975E+02 3.13654E+01 0.00000E+00
 -1      3879 1.18725E+02 3.00664E+01 0.00000E+00
 -1      3880 1.22475E+02 3.13654E+01 0.00000E+00
 -1      3881 1.23975E+02 3.13654E+01 0.00000E+00
 -1      3882 1.21725E+02 3.00664E+01 0.00000E+00
 -1      3883 1.25475E+02 3.13654E+01 0.00000E+00
 -1      3884 1.26975E+02 3.13654E+01 0.00000E+00
 -1      3885 1.24725E+02 3.00664E+01 0.00000E+00
 -1      3886 1.28475E+02 3.13654E+01 0.00000E+00
 -1      3887 1.29975E+02 3.13654E+01 0.00000E+00
 -1      3888 1.27725E+02 3.00664E+01 0.00000E+00
 -1      3889 1.30837E+02 3.11561E+01 0.00000E+00
 -1      3890 1.31810E+02 3.08884E+01 0.00000E+00
 -1      3891 1.31810E+02 2.94384E+01 0.00000E+00
 -1      3892 1.30087E+02 2.98571E+01 0.00000E+00
 -1      3893 5.38475E+01 1.86964E+01 0.00000E+00
 -1      3894 5.23475E+01 1.86964E+01 0.00000E+00
 -1      3895 6.40966E+01 1.92923E+01 0.00000E+00
 -1      3896 6.25966E+01 1.92923E+01 0.00000E+00
 -1      3897 6.10966E+01 1.92923E+01 0.00000E+00
 -1      3898 7.11240E+01 1.90745E+01 0.00000E+00
 -1      3899 6.96240E+01 1.90745E+01 0.00000E+00
 -1      3900 6.88740E+01 2.03735E+01 0.00000E+00
 -1      3901 7.41240E+01 1.90745E+01 0.00000E+00
 -1      3902 7.26240E+01 1.90745E+01 0.00000E+00
 -1      3903 7.18740E+01 2.03735E+01 0.00000E+00
 -1      3904 7.71240E+01 1.90745E+01 0.00000E+00
 -1      3905 7.56240E+01 1.90745E+01 0.00000E+00
 -1      3906 7.48740E+01 2.03735E+01 0.00000E+00
 -1      3907 8.01240E+01 1.90745E+01 0.00000E+00
 -1      3908 7.86240E+01 1.90745E+01 0.00000E+00
 -1      3909 7.78740E+01 2.03735E+01 0.00000E+00
 -1      3910 8.31240E+01 1.90745E+01 0.00000E+00
 -1      3911 8.16240E+01 1.90745E+01 0.00000E+00
 -1      3912 8.08740E+01 2.03735E+01 0.00000E+00
 -1      3913 8.61240E+01 1.90745E+01 0.00000E+00
 -1      3914 8.46240E+01 1.90745E+01 0.00000E+00
 -1      3915 8.38740E+01 2.03735E+01 0.00000E+00
 -1      3916 8.91240E+01 1.90745E+01 0.00000E+00
 -1      3917 8.76240E+01 1.90745E+01 0.00000E+00
 -1      3918 8.68740E+01 2.03735E+01 0.00000E+00
 -1      3919 9.21240E+01 1.90745E+01 0.00000E+00
 -1      3920 9.06240E+01 1.90745E+01 0.00000E+00
 -1      3921 8.98740E+01 2.03735E+01 0.00000E+00
 -1      3922 9.51240E+01 1.90745E+01 0.00000E+00
 -1      3923 9.36240E+01 1.90745E+01 0.00000E+00
 -1      3924 9.28740E+01 2.03735E+01 0.00000E+00
 -1      3925 9.81240E+01 1.90745E+01 0.00000E+00
 -1      3926 9.66240E+01 1.90745E+01 0.00000E+00
 -1      3927 9.58740E+01 2.03735E+01 0.00000E+00
 -1      3928 1.01124E+02 1.90745E+01 0.00000E+00
 -1      3929 9.96240E+01 1.90745E+01 0.00000E+00
 -1      3930 9.88740E+01 2.03735E+01 0.00000E+00
 -1      3931 1.04124E+02 1.90745E+01 0.00000E+00
 -1      3932 1.02624E+02 1.90745E+01 0.00000E+00
 -1      3933 1.01874E+02 2.03735E+01 0.00000E+00
 -1      3934 1.07124E+02 1.90745E+01 0.00000E+00
 -1      3935 1.05624E+02 1.90745E+01 0.00000E+00
 -1      3936 1.04874E+02 2.03735E+01 0.00000E+00
 -1      3937 1.10124E+02 1.90745E+01 0.00000E+00
 -1      3938 1.08624E+02 1.90745E+01 0.00000E+00
 -1      3939 1.07874E+02 2.03735E+01 0.00000E+00
 -1      3940 1.13124E+02 1.90745E+01 0.00000E+00
 -1      3941 1.11624E+02 1.90745E+01 0.00000E+00
 -1      3942 1.10874E+02 2.03735E+01 0.00000E+00
 -1      3943 1.16124E+02 1.90745E+01 0.00000E+00
 -1      3944 1.14624E+02 1.90745E+01 0.00000E+00
 -1      3945 1.13874E+02 2.03735E+01 0.00000E+00
 -1      3946 1.19124E+02 1.90745E+01 0.00000E+00
 -1      3947 1.17624E+02 1.90745E+01 0.00000E+00
 -1      3948 1.16874E+02 2.03735E+01 0.00000E+00
 -1      3949 1.22124E+02 1.90745E+01 0.00000E+00
 -1      3950 1.20624E+02 1.90745E+01 0.00000E+00
 -1      3951 1.19874E+02 2.03735E+01 0.00000E+00
 -1      3952 1.25124E+02 1.90745E+01 0.00000E+00
 -1      3953 1.23624E+02 1.90745E+01 0.00000E+00
 -1      3954 1.22874E+02 2.03735E+01 0.00000E+00
 -1      3955 1.28124E+02 1.90745E+01 0.00000E+00
 -1      3956 1.26624E+02 1.90745E+01 0.00000E+00
 -1      3957 1.25874E+02 2.03735E+01 0.00000E+00
 -1      3958 1.31597E+02 1.92192E+01 0.00000E+00
 -1      3959 3.66240E+01 1.64765E+01 0.00000E+00
 -1      3960 3.51240E+01 1.64765E+01 0.00000E+00
 -1      3961 3.73740E+01 1.77755E+01 0.00000E+00
 -1      3962 4.84515E+01 1.90038E+01 0.00000E+00
 -1      3963 2.83740E+01 1.77755E+01 0.00000E+00
 -1      3964 2.76240E+01 1.64765E+01 0.00000E+00
 -1      3965 2.61240E+01 1.64765E+01 0.00000E+00
 -1      3966 1.80952E+01 2.62296E+01 0.00000E+00
 -1      3967 1.67962E+01 2.69655E+01 0.00000E+00
 -1      3968 1.67055E+01 2.82232E+01 0.00000E+00
 -1      3969 3.22979E+01 3.05005E+01 0.00000E+00
 -1      3970 3.36351E+01 3.05944E+01 0.00000E+00
 -1      3971 3.41936E+01 2.91726E+01 0.00000E+00
 -1      3972 3.15479E+01 2.92015E+01 0.00000E+00
 -1      3973 1.65045E+01 1.79428E+01 0.00000E+00
 -1      3974 1.57545E+01 1.66438E+01 0.00000E+00
 -1      3975 1.67310E+01 1.91690E+01 0.00000E+00
 -1      3976 2.34750E+01 3.05150E+01 0.00000E+00
 -1      3977 2.49750E+01 3.05150E+01 0.00000E+00
 -1      3978 2.57250E+01 2.92160E+01 0.00000E+00
 -1      3979 1.33428E+02 2.50566E+01 0.00000E+00
 -1      3980 1.33359E+02 2.38979E+01 0.00000E+00
 -1      3981 1.32023E+02 2.34147E+01 0.00000E+00
 -1      3982 1.32455E+02 2.53243E+01 0.00000E+00
 -1      3983 7.12319E+01 2.86600E+01 0.00000E+00
 -1      3984 7.25555E+01 3.00458E+01 0.00000E+00
 -1      3985 8.31750E+01 3.13654E+01 0.00000E+00
 -1      3986 8.46750E+01 3.13654E+01 0.00000E+00
 -1      3987 8.54250E+01 3.00664E+01 0.00000E+00
 -1      3988 2.04750E+01 3.05150E+01 0.00000E+00
 -1      3989 2.19750E+01 3.05150E+01 0.00000E+00
 -1      3990 2.27250E+01 2.92160E+01 0.00000E+00
 -1      3991 1.67704E+01 3.02810E+01 0.00000E+00
 -1      3992 1.90204E+01 3.04508E+01 0.00000E+00
 -1      3993 1.97704E+01 2.91518E+01 0.00000E+00
 -1      3994 1.68611E+01 2.90233E+01 0.00000E+00
 -1      3995 1.80300E+01 1.99049E+01 0.00000E+00
 -1      3996 8.16750E+01 3.13654E+01 0.00000E+00
 -1      3997 8.24250E+01 3.00664E+01 0.00000E+00
 -1      3998 8.01750E+01 3.13654E+01 0.00000E+00
 -1      3999 4.11240E+01 1.90745E+01 0.00000E+00
 -1      4000 3.96240E+01 1.90745E+01 0.00000E+00
 -1      4001 2.31240E+01 1.64765E+01 0.00000E+00
 -1      4002 2.23740E+01 1.77755E+01 0.00000E+00
 -1      4003 2.46240E+01 1.64765E+01 0.00000E+00
 -1      4004 3.55186E+01 2.53159E+01 0.00000E+00
 -1      4005 3.58295E+01 2.38620E+01 0.00000E+00
 -1      4006 4.70558E+01 1.86433E+01 0.00000E+00
 -1      4007 1.30948E+02 2.81728E+01 0.00000E+00
 -1      4008 1.31810E+02 2.79634E+01 0.00000E+00
 -1      4009 1.31810E+02 2.64884E+01 0.00000E+00
 -1      4010 1.30475E+02 2.19586E+01 0.00000E+00
 -1      4011 1.30406E+02 2.07998E+01 0.00000E+00
 -1      4012 3.45768E+01 2.79552E+01 0.00000E+00
 -1      4013 3.51353E+01 2.65333E+01 0.00000E+00
 -1      4014 3.40205E+01 2.55347E+01 0.00000E+00
 -1      4015 3.32540E+01 2.79696E+01 0.00000E+00
 -1      4016 7.41313E+01 2.98766E+01 0.00000E+00
 -1      4017 1.95300E+01 1.99049E+01 0.00000E+00
 -1      4018 5.97184E+01 1.99849E+01 0.00000E+00
 -1      4019 1.29009E+02 1.96163E+01 0.00000E+00
 -1      4020 1.28259E+02 2.09153E+01 0.00000E+00
 -1      4021 3.43740E+01 1.77755E+01 0.00000E+00
 -1      4022 2.91240E+01 1.90745E+01 0.00000E+00
 -1      4023 2.76240E+01 1.90745E+01 0.00000E+00
 -1      4024 5.82538E+01 1.92174E+01 0.00000E+00
 -1      4025 5.53475E+01 1.86964E+01 0.00000E+00
 -1      4026 5.67538E+01 1.92174E+01 0.00000E+00
 -1      4027 7.11182E+01 2.72679E+01 0.00000E+00
 -1      4028 1.94850E+01 2.27687E+01 0.00000E+00
 -1      4029 1.94850E+01 2.42375E+01 0.00000E+00
 -1      4030 4.38937E+01 2.08925E+01 0.00000E+00
 -1      4031 4.47137E+01 1.95259E+01 0.00000E+00
 -1      4032 7.71750E+01 3.13654E+01 0.00000E+00
 -1      4033 7.86750E+01 3.13654E+01 0.00000E+00
 -1      4034 7.94250E+01 3.00664E+01 0.00000E+00
 -1      4035 3.21240E+01 1.90745E+01 0.00000E+00
 -1      4036 3.06240E+01 1.90745E+01 0.00000E+00
 -1      4037 2.98740E+01 2.03735E+01 0.00000E+00
 -1      4038 2.06933E+01 2.47608E+01 0.00000E+00
 -1      4039 1.93943E+01 2.54952E+01 0.00000E+00
 -1      4040 1.93035E+01 2.67529E+01 0.00000E+00
 -1      4041 4.55558E+01 1.86433E+01 0.00000E+00
 -1      4042 4.40319E+01 1.86582E+01 0.00000E+00
 -1      4043 4.23978E+01 2.06829E+01 0.00000E+00
 -1      4044 7.66773E+01 3.06820E+01 0.00000E+00
 -1      4045 4.25319E+01 1.86582E+01 0.00000E+00
 -1      4046 4.17819E+01 1.99572E+01 0.00000E+00
 -1      4047 7.26240E+01 2.16725E+01 0.00000E+00
 -1      4048 7.11240E+01 2.16725E+01 0.00000E+00
 -1      4049 1.30691E+02 2.29133E+01 0.00000E+00
 -1      4050 1.29360E+02 2.24120E+01 0.00000E+00
 -1      4051 1.30908E+02 2.38681E+01 0.00000E+00
 -1      4052 9.06750E+01 2.87674E+01 0.00000E+00
 -1      4053 9.21750E+01 2.87674E+01 0.00000E+00
 -1      4054 9.37500E+01 2.87674E+01 0.00000E+00
 -1      4055 9.53250E+01 2.87674E+01 0.00000E+00
 -1      4056 9.30000E+01 2.74684E+01 0.00000E+00
 -1      4057 9.68250E+01 2.87674E+01 0.00000E+00
 -1      4058 9.83250E+01 2.87674E+01 0.00000E+00
 -1      4059 9.60750E+01 2.74684E+01 0.00000E+00
 -1      4060 9.98250E+01 2.87674E+01 0.00000E+00
 -1      4061 1.01325E+02 2.87674E+01 0.00000E+00
 -1      4062 9.90750E+01 2.74684E+01 0.00000E+00
 -1      4063 1.02825E+02 2.87674E+01 0.00000E+00
 -1      4064 1.04325E+02 2.87674E+01 0.00000E+00
 -1      4065 1.02075E+02 2.74684E+01 0.00000E+00
 -1      4066 1.05825E+02 2.87674E+01 0.00000E+00
 -1      4067 1.07325E+02 2.87674E+01 0.00000E+00
 -1      4068 1.05075E+02 2.74684E+01 0.00000E+00
 -1      4069 1.08825E+02 2.87674E+01 0.00000E+00
 -1      4070 1.10325E+02 2.87674E+01 0.00000E+00
 -1      4071 1.08075E+02 2.74684E+01 0.00000E+00
 -1      4072 1.11825E+02 2.87674E+01 0.00000E+00
 -1      4073 1.13325E+02 2.87674E+01 0.00000E+00
 -1      4074 1.11075E+02 2.74684E+01 0.00000E+00
 -1      4075 1.14900E+02 2.87674E+01 0.00000E+00
 -1      4076 1.16475E+02 2.87674E+01 0.00000E+00
 -1      4077 1.14150E+02 2.74684E+01 0.00000E+00
 -1      4078 1.17975E+02 2.87674E+01 0.00000E+00
 -1      4079 1.19475E+02 2.87674E+01 0.00000E+00
 -1      4080 1.17225E+02 2.74684E+01 0.00000E+00
 -1      4081 1.20975E+02 2.87674E+01 0.00000E+00
 -1      4082 1.22475E+02 2.87674E+01 0.00000E+00
 -1      4083 1.20225E+02 2.74684E+01 0.00000E+00
 -1      4084 1.23975E+02 2.87674E+01 0.00000E+00
 -1      4085 1.25475E+02 2.87674E+01 0.00000E+00
 -1      4086 1.23225E+02 2.74684E+01 0.00000E+00
 -1      4087 1.26975E+02 2.87674E+01 0.00000E+00
 -1      4088 1.28475E+02 2.87674E+01 0.00000E+00
 -1      4089 1.26225E+02 2.74684E+01 0.00000E+00
 -1      4090 1.29281E+02 2.85748E+01 0.00000E+00
 -1      4091 1.30142E+02 2.83654E+01 0.00000E+00
 -1      4092 1.30142E+02 2.68904E+01 0.00000E+00
 -1      4093 1.28531E+02 2.72758E+01 0.00000E+00
 -1      4094 6.48466E+01 2.05913E+01 0.00000E+00
 -1      4095 3.93968E+01 2.26037E+01 0.00000E+00
 -1      4096 4.01769E+01 2.15646E+01 0.00000E+00
 -1      4097 7.53790E+01 2.92610E+01 0.00000E+00
 -1      4098 7.66267E+01 2.86455E+01 0.00000E+00
 -1      4099 7.40807E+01 2.78401E+01 0.00000E+00
 -1      4100 1.30271E+02 1.89590E+01 0.00000E+00
 -1      4101 7.56240E+01 2.16725E+01 0.00000E+00
 -1      4102 7.41240E+01 2.16725E+01 0.00000E+00
 -1      4103 7.33740E+01 2.29715E+01 0.00000E+00
 -1      4104 7.86240E+01 2.16725E+01 0.00000E+00
 -1      4105 7.71240E+01 2.16725E+01 0.00000E+00
 -1      4106 7.63740E+01 2.29715E+01 0.00000E+00
 -1      4107 8.16240E+01 2.16725E+01 0.00000E+00
 -1      4108 8.01240E+01 2.16725E+01 0.00000E+00
 -1      4109 7.93740E+01 2.29715E+01 0.00000E+00
 -1      4110 8.46240E+01 2.16725E+01 0.00000E+00
 -1      4111 8.31240E+01 2.16725E+01 0.00000E+00
 -1      4112 8.23740E+01 2.29715E+01 0.00000E+00
 -1      4113 8.76240E+01 2.16725E+01 0.00000E+00
 -1      4114 8.61240E+01 2.16725E+01 0.00000E+00
 -1      4115 8.53740E+01 2.29715E+01 0.00000E+00
 -1      4116 9.06240E+01 2.16725E+01 0.00000E+00
 -1      4117 8.91240E+01 2.16725E+01 0.00000E+00
 -1      4118 8.83740E+01 2.29715E+01 0.00000E+00
 -1      4119 9.36240E+01 2.16725E+01 0.00000E+00
 -1      4120 9.21240E+01 2.16725E+01 0.00000E+00
 -1      4121 9.13740E+01 2.29715E+01 0.00000E+00
 -1      4122 9.66240E+01 2.16725E+01 0.00000E+00
 -1      4123 9.51240E+01 2.16725E+01 0.00000E+00
 -1      4124 9.43740E+01 2.29715E+01 0.00000E+00
 -1      4125 9.96240E+01 2.16725E+01 0.00000E+00
 -1      4126 9.81240E+01 2.16725E+01 0.00000E+00
 -1      4127 9.73740E+01 2.29715E+01 0.00000E+00
 -1      4128 1.02624E+02 2.16725E+01 0.00000E+00
 -1      4129 1.01124E+02 2.16725E+01 0.00000E+00
 -1      4130 1.00374E+02 2.29715E+01 0.00000E+00
 -1      4131 1.05624E+02 2.16725E+01 0.00000E+00
 -1      4132 1.04124E+02 2.16725E+01 0.00000E+00
 -1      4133 1.03374E+02 2.29715E+01 0.00000E+00
 -1      4134 1.08624E+02 2.16725E+01 0.00000E+00
 -1      4135 1.07124E+02 2.16725E+01 0.00000E+00
 -1      4136 1.06374E+02 2.29715E+01 0.00000E+00
 -1      4137 1.11624E+02 2.16725E+01 0.00000E+00
 -1      4138 1.10124E+02 2.16725E+01 0.00000E+00
 -1      4139 1.09374E+02 2.29715E+01 0.00000E+00
 -1      4140 1.14624E+02 2.16725E+01 0.00000E+00
 -1      4141 1.13124E+02 2.16725E+01 0.00000E+00
 -1      4142 1.12374E+02 2.29715E+01 0.00000E+00
 -1      4143 1.17624E+02 2.16725E+01 0.00000E+00
 -1      4144 1.16124E+02 2.16725E+01 0.00000E+00
 -1      4145 1.15374E+02 2.29715E+01 0.00000E+00
 -1      4146 1.20624E+02 2.16725E+01 0.00000E+00
 -1      4147 1.19124E+02 2.16725E+01 0.00000E+00
 -1      4148 1.18374E+02 2.29715E+01 0.00000E+00
 -1      4149 1.23624E+02 2.16725E+01 0.00000E+00
 -1      4150 1.22124E+02 2.16725E+01 0.00000E+00
 -1      4151 1.21374E+02 2.29715E+01 0.00000E+00
 -1      4152 1.26624E+02 2.16725E+01 0.00000E+00
 -1      4153 1.25124E+02 2.16725E+01 0.00000E+00
 -1      4154 1.24374E+02 2.29715E+01 0.00000E+00
 -1      4155 3.51240E+01 1.90745E+01 0.00000E+00
 -1      4156 3.36240E+01 1.90745E+01 0.00000E+00
 -1      4157 3.28740E+01 2.03735E+01 0.00000E+00
 -1      4158 3.43889E+01 2.23454E+01 0.00000E+00
 -1      4159 3.58146E+01 2.18901E+01 0.00000E+00
 -1      4160 1.81601E+01 2.82874E+01 0.00000E+00
 -1      4161 3.80017E+01 2.23554E+01 0.00000E+00
 -1      4162 6.76145E+01 2.28539E+01 0.00000E+00
 -1      4163 6.77485E+01 2.43905E+01 0.00000E+00
 -1      4164 6.91895E+01 2.47948E+01 0.00000E+00
 -1      4165 8.76750E+01 2.87674E+01 0.00000E+00
 -1      4166 8.91750E+01 2.87674E+01 0.00000E+00
 -1      4167 8.99250E+01 2.74684E+01 0.00000E+00
 -1      4168 2.53740E+01 1.77755E+01 0.00000E+00
 -1      4169 2.19750E+01 2.79170E+01 0.00000E+00
 -1      4170 2.34750E+01 2.79170E+01 0.00000E+00
 -1      4171 8.46750E+01 2.87674E+01 0.00000E+00
 -1      4172 8.61750E+01 2.87674E+01 0.00000E+00
 -1      4173 8.69250E+01 2.74684E+01 0.00000E+00
 -1      4174 2.68740E+01 2.03735E+01 0.00000E+00
 -1      4175 2.61240E+01 1.90745E+01 0.00000E+00
 -1      4176 2.46240E+01 1.90745E+01 0.00000E+00
 -1      4177 2.79750E+01 2.79170E+01 0.00000E+00
 -1      4178 2.94750E+01 2.79170E+01 0.00000E+00
 -1      4179 2.49750E+01 2.79170E+01 0.00000E+00
 -1      4180 2.64750E+01 2.79170E+01 0.00000E+00
 -1      4181 2.42250E+01 2.66180E+01 0.00000E+00
 -1      4182 3.65610E+01 2.08388E+01 0.00000E+00
 -1      4183 1.28434E+02 2.23131E+01 0.00000E+00
 -1      4184 1.27550E+02 2.17713E+01 0.00000E+00
 -1      4185 1.26800E+02 2.30703E+01 0.00000E+00
 -1      4186 1.28651E+02 2.32679E+01 0.00000E+00
 -1      4187 2.16015E+01 1.92074E+01 0.00000E+00
 -1      4188 2.02575E+01 2.13368E+01 0.00000E+00
 -1      4189 2.15565E+01 2.20712E+01 0.00000E+00
 -1      4190 2.31015E+01 1.92074E+01 0.00000E+00
 -1      4191 7.10005E+01 2.56062E+01 0.00000E+00
 -1      4192 7.27153E+01 2.67939E+01 0.00000E+00
 -1      4193 7.07866E+01 2.43208E+01 0.00000E+00
 -1      4194 7.39630E+01 2.61784E+01 0.00000E+00
 -1      4195 2.30860E+01 2.19720E+01 0.00000E+00
 -1      4196 2.23135E+01 2.34039E+01 0.00000E+00
 -1      4197 6.54718E+01 2.10839E+01 0.00000E+00
 -1      4198 6.68137E+01 2.12859E+01 0.00000E+00
 -1      4199 2.22227E+01 2.46616E+01 0.00000E+00
 -1      4200 6.96748E+01 2.19415E+01 0.00000E+00
 -1      4201 6.81748E+01 2.19415E+01 0.00000E+00
 -1      4202 7.69366E+01 2.70588E+01 0.00000E+00
 -1      4203 7.82348E+01 2.84798E+01 0.00000E+00
 -1      4204 3.25898E+01 2.57534E+01 0.00000E+00
 -1      4205 3.29731E+01 2.45359E+01 0.00000E+00
 -1      4206 4.09899E+01 2.10993E+01 0.00000E+00
 -1      4207 3.29310E+01 2.34407E+01 0.00000E+00
 -1      4208 3.29161E+01 2.14688E+01 0.00000E+00
 -1      4209 3.14161E+01 2.14688E+01 0.00000E+00
 -1      4210 3.15003E+01 2.36593E+01 0.00000E+00
 -1      4211 3.88110E+01 1.95398E+01 0.00000E+00
 -1      4212 3.73110E+01 1.95398E+01 0.00000E+00
 -1      4213 1.31594E+02 2.55336E+01 0.00000E+00
 -1      4214 7.04248E+01 2.32405E+01 0.00000E+00
 -1      4215 7.97348E+01 2.84798E+01 0.00000E+00
 -1      4216 3.95610E+01 2.08388E+01 0.00000E+00
 -1      4217 3.07031E+01 2.79505E+01 0.00000E+00
 -1      4218 3.20259E+01 2.79361E+01 0.00000E+00
 -1      4219 3.24092E+01 2.67186E+01 0.00000E+00
 -1      4220 2.99531E+01 2.66515E+01 0.00000E+00
 -1      4221 8.31750E+01 2.87674E+01 0.00000E+00
 -1      4222 8.39250E+01 2.74684E+01 0.00000E+00
 -1      4223 8.16750E+01 2.87674E+01 0.00000E+00
 -1      4224 2.99161E+01 2.14688E+01 0.00000E+00
 -1      4225 2.84161E+01 2.14688E+01 0.00000E+00
 -1      4226 2.99582E+01 2.25640E+01 0.00000E+00
 -1      4227 2.69161E+01 2.14688E+01 0.00000E+00
 -1      4228 2.72250E+01 2.66180E+01 0.00000E+00
 -1      4229 7.22358E+01 2.40518E+01 0.00000E+00
 -1      4230 8.04848E+01 2.71808E+01 0.00000E+00
 -1      4231 2.38515E+01 2.05064E+01 0.00000E+00
 -1      4232 2.46085E+01 2.18391E+01 0.00000E+00
 -1      4233 9.21495E+01 2.52200E+01 0.00000E+00
 -1      4234 9.37245E+01 2.52200E+01 0.00000E+00
 -1      4235 9.52245E+01 2.52200E+01 0.00000E+00
 -1      4236 9.67245E+01 2.52200E+01 0.00000E+00
 -1      4237 9.82245E+01 2.52200E+01 0.00000E+00
 -1      4238 9.97245E+01 2.52200E+01 0.00000E+00
 -1      4239 1.01225E+02 2.52200E+01 0.00000E+00
 -1      4240 1.02725E+02 2.52200E+01 0.00000E+00
 -1      4241 1.04225E+02 2.52200E+01 0.00000E+00
 -1      4242 1.05725E+02 2.52200E+01 0.00000E+00
 -1      4243 1.07225E+02 2.52200E+01 0.00000E+00
 -1      4244 1.08725E+02 2.52200E+01 0.00000E+00
 -1      4245 1.10225E+02 2.52200E+01 0.00000E+00
 -1      4246 1.11725E+02 2.52200E+01 0.00000E+00
 -1      4247 1.13225E+02 2.52200E+01 0.00000E+00
 -1      4248 1.14799E+02 2.52200E+01 0.00000E+00
 -1      4249 1.16299E+02 2.52200E+01 0.00000E+00
 -1      4250 1.17799E+02 2.52200E+01 0.00000E+00
 -1      4251 1.19299E+02 2.52200E+01 0.00000E+00
 -1      4252 1.20799E+02 2.52200E+01 0.00000E+00
 -1      4253 1.22299E+02 2.52200E+01 0.00000E+00
 -1      4254 1.23799E+02 2.52200E+01 0.00000E+00
 -1      4255 1.25299E+02 2.52200E+01 0.00000E+00
 -1      4256 1.26799E+02 2.52200E+01 0.00000E+00
 -1      4257 8.91495E+01 2.52200E+01 0.00000E+00
 -1      4258 9.06495E+01 2.52200E+01 0.00000E+00
 -1      4259 7.97093E+01 2.49323E+01 0.00000E+00
 -1      4260 7.82093E+01 2.49323E+01 0.00000E+00
 -1      4261 8.31495E+01 2.52200E+01 0.00000E+00
 -1      4262 8.16495E+01 2.52200E+01 0.00000E+00
 -1      4263 8.61495E+01 2.52200E+01 0.00000E+00
 -1      4264 8.46495E+01 2.52200E+01 0.00000E+00
 -1      4265 8.76495E+01 2.52200E+01 0.00000E+00
 -1      4266 7.66012E+01 2.50980E+01 0.00000E+00
 -1      4267 2.09137E+01 2.76173E+01 0.00000E+00
 -1      4268 1.96147E+01 2.83516E+01 0.00000E+00
 -1      4269 1.30262E+02 2.50322E+01 0.00000E+00
 -1      4270 2.16637E+01 2.63183E+01 0.00000E+00
 -1      4271 7.37358E+01 2.40518E+01 0.00000E+00
 -1      4272 2.64750E+01 2.53190E+01 0.00000E+00
 -1      4273 2.79750E+01 2.53190E+01 0.00000E+00
 -1      4274 2.61506E+01 2.29344E+01 0.00000E+00
 -1      4275 3.13618E+01 2.57198E+01 0.00000E+00
 -1      4276 7.51012E+01 2.50980E+01 0.00000E+00
 -1      4277 2.32840E+01 2.49614E+01 0.00000E+00
 -1      4278 2.47840E+01 2.49614E+01 0.00000E+00
 -1      4279 3.06810E+01 2.46896E+01 0.00000E+00
 -1      4280 3.06389E+01 2.35943E+01 0.00000E+00
 -1      4281 2.91389E+01 2.35943E+01 0.00000E+00
 -1      4282 3.05004E+01 2.56548E+01 0.00000E+00
 -1      4283 1.29739E+02 2.59119E+01 0.00000E+00
 -1      4284 1.29053E+02 2.42464E+01 0.00000E+00
 -1      4285 1.28128E+02 2.41476E+01 0.00000E+00
 -1      4286 1.28934E+02 2.61046E+01 0.00000E+00
 -1      4287 2.85223E+01 2.43223E+01 0.00000E+00
 -1      4288 2.92723E+01 2.56213E+01 0.00000E+00
 -1      4289 1.27202E+02 2.40488E+01 0.00000E+00
 -1      4290 1.28128E+02 2.62973E+01 0.00000E+00
 -1      4291 2.55340E+01 2.36624E+01 0.00000E+00
 -1      4292 2.78416E+01 2.32920E+01 0.00000E+00
 -3
    3C                          2064                                     1
 -1       165    8    0    1
 -2         6         7        23      1115      1279      1132
 -1       166    8    0    1
 -2         7         8       165      1116      1280      1281
 -1       167    8    0    1
 -2         8         9       166      1117      1282      1283
 -1       168    8    0    1
 -2         8       166       165      1283      1284      1280
 -1       169    8    0    1
 -2         9        10       167      1118      1285      1286
 -1       170    8    0    1
 -2         9       167       166      1286      1287      1282
 -1       171    8    0    1
 -2        10        11       168      1119      1288      1289
 -1       172    8    0    1
 -2        10       168       167      1289      1290      1285
 -1       173    8    0    1
 -2        11        12       169      1120      1291      1292
 -1       174    8    0    1
 -2        11       169       168      1292      1293      1288
 -1       175    8    0    1
 -2        12        13       170      1121      1294      1295
 -1       176    8    0    1
 -2        12       170       169      1295      1296      1291
 -1       177    8    0    1
 -2        13        14       171      1122      1297      1298
 -1       178    8    0    1
 -2        13       171       170      1298      1299      1294
 -1       179    8    0    1
 -2        14        15       172      1123      1300      1301
 -1       180    8    0    1
 -2        14       172       171      1301      1302      1297
 -1       181    8    0    1
 -2        15        16       173      1124      1303      1304
 -1       182    8    0    1
 -2        15       173       172      1304      1305      1300
 -1       183    8    0    1
 -2        16        17       174      1125      1306      1307
 -1       184    8    0    1
 -2        16       174       173      1307      1308      1303
 -1       185    8    0    1
 -2        17        18       175      1126      1309      1310
 -1       186    8    0    1
 -2        17       175       174      1310      1311      1306
 -1       187    8    0    1
 -2        18        19       176      1127      1312      1313
 -1       188    8    0    1
 -2        18       176       175      1313      1314      1309
 -1       189    8    0    1
 -2        19        20       177      1128      1315      1316
 -1       190    8    0    1
 -2        19       177       176      1316      1317      1312
 -1       191    8    0    1
 -2        20        21       178      1129      1318      1319
 -1       192    8    0    1
 -2        20       178       177      1319      1320      1315
 -1       193    8    0    1
 -2        21        22       179      1130      1321      1322
 -1       194    8    0    1
 -2        21       179       178      1322      1323      1318
 -1       195    8    0    1
 -2        22         5       180      1131      1324      1325
 -1       196    8    0    1
 -2       179        22       180      1321      1325      1326
 -1       197    8    0    1
 -2         5        73       180      1183      1327      1324
 -1       198    8    0    1
 -2        24        23       181      1133      1328      1329
 -1       199    8    0    1
 -2        25        24       182      1134      1330      1331
 -1       200    8    0    1
 -2        24       181       182      1329      1332      1330
 -1       201    8    0    1
 -2        26        25       183      1135      1333      1334
 -1       202    8    0    1
 -2        25       182       183      1331      1335      1333
 -1       203    8    0    1
 -2        27        26       184      1136      1336      1337
 -1       204    8    0    1
 -2        26       183       184      1334      1338      1336
 -1       205    8    0    1
 -2        28        27       185      1137      1339      1340
 -1       206    8    0    1
 -2        27       184       185      1337      1341      1339
 -1       207    8    0    1
 -2        29        28       186      1138      1342      1343
 -1       208    8    0    1
 -2        28       185       186      1340      1344      1342
 -1       209    8    0    1
 -2        30        29       187      1139      1345      1346
 -1       210    8    0    1
 -2        29       186       187      1343      1347      1345
 -1       211    8    0    1
 -2        31        30       188      1140      1348      1349
 -1       212    8    0    1
 -2        30       187       188      1346      1350      1348
 -1       213    8    0    1
 -2        32        31       189      1141      1351      1352
 -1       214    8    0    1
 -2        31       188       189      1349      1353      1351
 -1       215    8    0    1
 -2        33        32       190      1142      1354      1355
 -1       216    8    0    1
 -2        32       189       190      1352      1356      1354
 -1       217    8    0    1
 -2        34        33       191      1143      1357      1358
 -1       218    8    0    1
 -2        33       190       191      1355      1359      1357
 -1       219    8    0    1
 -2        35        34       192      1144      1360      1361
 -1       220    8    0    1
 -2        34       191       192      1358      1362      1360
 -1       221    8    0    1
 -2        36        35       193      1145      1363      1364
 -1       222    8    0    1
 -2        35       192       193      1361      1365      1363
 -1       223    8    0    1
 -2        37        36       194      1146      1366      1367
 -1       224    8    0    1
 -2        36       193       194      1364      1368      1366
 -1       225    8    0    1
 -2        39        38       195      1148      1369      1370
 -1       226    8    0    1
 -2        40        39       196      1149      1371      1372
 -1       227    8    0    1
 -2        39       195       196      1370      1373      1371
 -1       228    8    0    1
 -2        41        40       197      1150      1374      1375
 -1       229    8    0    1
 -2        40       196       197      1372      1376      1374
 -1       230    8    0    1
 -2        42        41       198      1151      1377      1378
 -1       231    8    0    1
 -2        41       197       198      1375      1379      1377
 -1       232    8    0    1
 -2        43        42       199      1152      1380      1381
 -1       233    8    0    1
 -2        42       198       199      1378      1382      1380
 -1       234    8    0    1
 -2        44        43       200      1153      1383      1384
 -1       235    8    0    1
 -2        43       199       200      1381      1385      1383
 -1       236    8    0    1
 -2        45        44       201      1154      1386      1387
 -1       237    8    0    1
 -2        44       200       201      1384      1388      1386
 -1       238    8    0    1
 -2        46        45       202      1155      1389      1390
 -1       239    8    0    1
 -2        45       201       202      1387      1391      1389
 -1       240    8    0    1
 -2        47        46       203      1156      1392      1393
 -1       241    8    0    1
 -2        46       202       203      1390      1394      1392
 -1       242    8    0    1
 -2        48        47       204      1157      1395      1396
 -1       243    8    0    1
 -2        47       203       204      1393      1397      1395
 -1       244    8    0    1
 -2        49        48       205      1158      1398      1399
 -1       245    8    0    1
 -2        48       204       205      1396      1400      1398
 -1       246    8    0    1
 -2        50        49       206      1159      1401      1402
 -1       247    8    0    1
 -2        49       205       206      1399      1403      1401
 -1       248    8    0    1
 -2        51        50       207      1160      1404      1405
 -1       249    8    0    1
 -2        50       206       207      1402      1406      1404
 -1       250    8    0    1
 -2        52        51       208      1161      1407      1408
 -1       251    8    0    1
 -2        51       207       208      1405      1409      1407
 -1       252    8    0    1
 -2        53        52       209      1162      1410      1411
 -1       253    8    0    1
 -2        52       208       209      1408      1412      1410
 -1       254    8    0    1
 -2        54        53       210      1163      1413      1414
 -1       255    8    0    1
 -2        53       209       210      1411      1415      1413
 -1       256    8    0    1
 -2        55        54       211      1164      1416      1417
 -1       257    8    0    1
 -2        54       210       211      1414      1418      1416
 -1       258    8    0    1
 -2        56        55       212      1165      1419      1420
 -1       259    8    0    1
 -2        55       211       212      1417      1421      1419
 -1       260    8    0    1
 -2        57        56       213      1166      1422      1423
 -1       261    8    0    1
 -2        56       212       213      1420      1424      1422
 -1       262    8    0    1
 -2        58        57       214      1167      1425      1426
 -1       263    8    0    1
 -2        57       213       214      1423      1427      1425
 -1       264    8    0    1
 -2        59        58       215      1168      1428      1429
 -1       265    8    0    1
 -2        58       214       215      1426      1430      1428
 -1       266    8    0    1
 -2        60        59       216      1169      1431      1432
 -1       267    8    0    1
 -2        59       215       216      1429      1433      1431
 -1       268    8    0    1
 -2        61        60       217      1170      1434      1435
 -1       269    8    0    1
 -2        60       216       217      1432      1436      1434
 -1       270    8    0    1
 -2        62        61       218      1171      1437      1438
 -1       271    8    0    1
 -2        61       217       218      1435      1439      1437
 -1       272    8    0    1
 -2        63        62       219      1172      1440      1441
 -1       273    8    0    1
 -2        62       218       219      1438      1442      1440
 -1       274    8    0    1
 -2        64        63       220      1173      1443      1444
 -1       275    8    0    1
 -2        63       219       220      1441      1445      1443
 -1       276    8    0    1
 -2        65        64       221      1174      1446      1447
 -1       277    8    0    1
 -2        64       220       221      1444      1448      1446
 -1       278    8    0    1
 -2        66        65       222      1175      1449      1450
 -1       279    8    0    1
 -2        65       221       222      1447      1451      1449
 -1       280    8    0    1
 -2        67        66       223      1176      1452      1453
 -1       281    8    0    1
 -2        66       222       223      1450      1454      1452
 -1       282    8    0    1
 -2        68        67       224      1177      1455      1456
 -1       283    8    0    1
 -2        67       223       224      1453      1457      1455
 -1       284    8    0    1
 -2        69        68       225      1178      1458      1459
 -1       285    8    0    1
 -2        68       224       225      1456      1460      1458
 -1       286    8    0    1
 -2        70        69       226      1179      1461      1462
 -1       287    8    0    1
 -2        69       225       226      1459      1463      1461
 -1       288    8    0    1
 -2        71        70       227      1180      1464      1465
 -1       289    8    0    1
 -2        70       226       227      1462      1466      1464
 -1       290    8    0    1
 -2        72        71       228      1181      1467      1468
 -1       291    8    0    1
 -2        71       227       228      1465      1469      1467
 -1       292    8    0    1
 -2         4        72       229      1182      1470      1471
 -1       293    8    0    1
 -2       137         4       229      1249      1471      1472
 -1       294    8    0    1
 -2        72       228       229      1468      1473      1470
 -1       295    8    0    1
 -2        73        74       230      1184      1474      1475
 -1       296    8    0    1
 -2        73       230       180      1475      1476      1327
 -1       297    8    0    1
 -2        74        75       231      1185      1477      1478
 -1       298    8    0    1
 -2        74       231       230      1478      1479      1474
 -1       299    8    0    1
 -2        75        76       232      1186      1480      1481
 -1       300    8    0    1
 -2        75       232       231      1481      1482      1477
 -1       301    8    0    1
 -2        76        77       233      1187      1483      1484
 -1       302    8    0    1
 -2        76       233       232      1484      1485      1480
 -1       303    8    0    1
 -2        77        78       234      1188      1486      1487
 -1       304    8    0    1
 -2        77       234       233      1487      1488      1483
 -1       305    8    0    1
 -2        78        79       235      1189      1489      1490
 -1       306    8    0    1
 -2        78       235       234      1490      1491      1486
 -1       307    8    0    1
 -2        79        80       236      1190      1492      1493
 -1       308    8    0    1
 -2        79       236       235      1493      1494      1489
 -1       309    8    0    1
 -2        80        81       237      1191      1495      1496
 -1       310    8    0    1
 -2        80       237       236      1496      1497      1492
 -1       311    8    0    1
 -2        81        82       238      1192      1498      1499
 -1       312    8    0    1
 -2        81       238       237      1499      1500      1495
 -1       313    8    0    1
 -2        82        83       239      1193      1501      1502
 -1       314    8    0    1
 -2        82       239       238      1502      1503      1498
 -1       315    8    0    1
 -2        83        84       240      1194      1504      1505
 -1       316    8    0    1
 -2        83       240       239      1505      1506      1501
 -1       317    8    0    1
 -2        84        85       241      1195      1507      1508
 -1       318    8    0    1
 -2        84       241       240      1508      1509      1504
 -1       319    8    0    1
 -2        85        86       242      1196      1510      1511
 -1       320    8    0    1
 -2        85       242       241      1511      1512      1507
 -1       321    8    0    1
 -2        86        87       243      1197      1513      1514
 -1       322    8    0    1
 -2        86       243       242      1514      1515      1510
 -1       323    8    0    1
 -2        87        88       244      1198      1516      1517
 -1       324    8    0    1
 -2        87       244       243      1517      1518      1513
 -1       325    8    0    1
 -2        88        89       245      1199      1519      1520
 -1       326    8    0    1
 -2        88       245       244      1520      1521      1516
 -1       327    8    0    1
 -2        89        90       246      1200      1522      1523
 -1       328    8    0    1
 -2        89       246       245      1523      1524      1519
 -1       329    8    0    1
 -2        90        91       247      1201      1525      1526
 -1       330    8    0    1
 -2        90       247       246      1526      1527      1522
 -1       331    8    0    1
 -2        91        92       248      1202      1528      1529
 -1       332    8    0    1
 -2        91       248       247      1529      1530      1525
 -1       333    8    0    1
 -2        92        93       249      1203      1531      1532
 -1       334    8    0    1
 -2        92       249       248      1532      1533      1528
 -1       335    8    0    1
 -2        93        94       250      1204      1534      1535
 -1       336    8    0    1
 -2        93       250       249      1535      1536      1531
 -1       337    8    0    1
 -2        94        95       251      1205      1537      1538
 -1       338    8    0    1
 -2        94       251       250      1538      1539      1534
 -1       339    8    0    1
 -2        95        96       252      1206      1540      1541
 -1       340    8    0    1
 -2        95       252       251      1541      1542      1537
 -1       341    8    0    1
 -2        96        97       253      1207      1543      1544
 -1       342    8    0    1
 -2        96       253       252      1544      1545      1540
 -1       343    8    0    1
 -2        97        98       254      1208      1546      1547
 -1       344    8    0    1
 -2        97       254       253      1547      1548      1543
 -1       345    8    0    1
 -2        98        99       255      1209      1549      1550
 -1       346    8    0    1
 -2        98       255       254      1550      1551      1546
 -1       347    8    0    1
 -2        99       100       256      1210      1552      1553
 -1       348    8    0    1
 -2        99       256       255      1553      1554      1549
 -1       349    8    0    1
 -2       100       101       257      1211      1555      1556
 -1       350    8    0    1
 -2       100       257       256      1556      1557      1552
 -1       351    8    0    1
 -2       101       102       258      1212      1558      1559
 -1       352    8    0    1
 -2       101       258       257      1559      1560      1555
 -1       353    8    0    1
 -2       102       103       259      1213      1561      1562
 -1       354    8    0    1
 -2       102       259       258      1562      1563      1558
 -1       355    8    0    1
 -2       103       104       260      1214      1564      1565
 -1       356    8    0    1
 -2       103       260       259      1565      1566      1561
 -1       357    8    0    1
 -2       104       105       261      1215      1567      1568
 -1       358    8    0    1
 -2       104       261       260      1568      1569      1564
 -1       359    8    0    1
 -2       105       106       262      1216      1570      1571
 -1       360    8    0    1
 -2       105       262       261      1571      1572      1567
 -1       361    8    0    1
 -2       106       107       263      1217      1573      1574
 -1       362    8    0    1
 -2       106       263       262      1574      1575      1570
 -1       363    8    0    1
 -2       107       108       264      1218      1576      1577
 -1       364    8    0    1
 -2       107       264       263      1577      1578      1573
 -1       365    8    0    1
 -2       108       109       265      1219      1579      1580
 -1       366    8    0    1
 -2       108       265       264      1580      1581      1576
 -1       367    8    0    1
 -2       109       110       266      1220      1582      1583
 -1       368    8    0    1
 -2       109       266       265      1583      1584      1579
 -1       369    8    0    1
 -2       110       111       267      1221      1585      1586
 -1       370    8    0    1
 -2       110       267       266      1586      1587      1582
 -1       371    8    0    1
 -2       111       112       268      1222      1588      1589
 -1       372    8    0    1
 -2       111       268       267      1589      1590      1585
 -1       373    8    0    1
 -2       112       113       269      1223      1591      1592
 -1       374    8    0    1
 -2       112       269       268      1592      1593      1588
 -1       375    8    0    1
 -2       113       114       270      1224      1594      1595
 -1       376    8    0    1
 -2       113       270       269      1595      1596      1591
 -1       377    8    0    1
 -2       114       115       271      1225      1597      1598
 -1       378    8    0    1
 -2       114       271       270      1598      1599      1594
 -1       379    8    0    1
 -2       115       116       272      1226      1600      1601
 -1       380    8    0    1
 -2       115       272       271      1601      1602      1597
 -1       381    8    0    1
 -2       116       117       273      1227      1603      1604
 -1       382    8    0    1
 -2       116       273       272      1604      1605      1600
 -1       383    8    0    1
 -2       117       118       274      1228      1606      1607
 -1       384    8    0    1
 -2       117       274       273      1607      1608      1603
 -1       385    8    0    1
 -2       118       119       275      1229      1609      1610
 -1       386    8    0    1
 -2       118       275       274      1610      1611      1606
 -1       387    8    0    1
 -2       119       120       276      1230      1612      1613
 -1       388    8    0    1
 -2       119       276       275      1613      1614      1609
 -1       389    8    0    1
 -2       120       121       277      1231      1615      1616
 -1       390    8    0    1
 -2       120       277       276      1616      1617      1612
 -1       391    8    0    1
 -2       121         3       122      1232      1233      1618
 -1       392    8    0    1
 -2       122       123       278      1234      1619      1620
 -1       393    8    0    1
 -2       123       124       279      1235      1621      1622
 -1       394    8    0    1
 -2       123       279       278      1622      1623      1619
 -1       395    8    0    1
 -2       124       125       280      1236      1624      1625
 -1       396    8    0    1
 -2       124       280       279      1625      1626      1621
 -1       397    8    0    1
 -2       125       126       281      1237      1627      1628
 -1       398    8    0    1
 -2       125       281       280      1628      1629      1624
 -1       399    8    0    1
 -2       126       127       282      1238      1630      1631
 -1       400    8    0    1
 -2       126       282       281      1631      1632      1627
 -1       401    8    0    1
 -2       127       128       283      1239      1633      1634
 -1       402    8    0    1
 -2       127       283       282      1634      1635      1630
 -1       403    8    0    1
 -2       128       129       284      1240      1636      1637
 -1       404    8    0    1
 -2       128       284       283      1637      1638      1633
 -1       405    8    0    1
 -2       129       130       285      1241      1639      1640
 -1       406    8    0    1
 -2       129       285       284      1640      1641      1636
 -1       407    8    0    1
 -2       130       131       286      1242      1642      1643
 -1       408    8    0    1
 -2       130       286       285      1643      1644      1639
 -1       409    8    0    1
 -2       131       132       287      1243      1645      1646
 -1       410    8    0    1
 -2       131       287       286      1646      1647      1642
 -1       411    8    0    1
 -2       132       133       288      1244      1648      1649
 -1       412    8    0    1
 -2       132       288       287      1649      1650      1645
 -1       413    8    0    1
 -2       133       134       289      1245      1651      1652
 -1       414    8    0    1
 -2       133       289       288      1652      1653      1648
 -1       415    8    0    1
 -2       134       135       290      1246      1654      1655
 -1       416    8    0    1
 -2       134       290       289      1655      1656      1651
 -1       417    8    0    1
 -2       135       136       291      1247      1657      1658
 -1       418    8    0    1
 -2       135       291       290      1658      1659      1654
 -1       419    8    0    1
 -2       136       137       292      1248      1660      1661
 -1       420    8    0    1
 -2       291       136       292      1657      1661      1662
 -1       421    8    0    1
 -2       137       229       292      1472      1663      1660
 -1       422    8    0    1
 -2         2       138       293      1250      1664      1665
 -1       423    8    0    1
 -2       138       139       294      1251      1666      1667
 -1       424    8    0    1
 -2       139       140       295      1252      1668      1669
 -1       425    8    0    1
 -2       140       141       296      1253      1670      1671
 -1       426    8    0    1
 -2       141       142       297      1254      1672      1673
 -1       427    8    0    1
 -2       142       143       298      1255      1674      1675
 -1       428    8    0    1
 -2       143       144       299      1256      1676      1677
 -1       429    8    0    1
 -2       144       145       300      1257      1678      1679
 -1       430    8    0    1
 -2       145       146       301      1258      1680      1681
 -1       431    8    0    1
 -2       146       147       302      1259      1682      1683
 -1       432    8    0    1
 -2       147       148       303      1260      1684      1685
 -1       433    8    0    1
 -2       148       149       304      1261      1686      1687
 -1       434    8    0    1
 -2       149       150       305      1262      1688      1689
 -1       435    8    0    1
 -2       150       151       306      1263      1690      1691
 -1       436    8    0    1
 -2       151       152       307      1264      1692      1693
 -1       437    8    0    1
 -2       152       153       308      1265      1694      1695
 -1       438    8    0    1
 -2       153       154       309      1266      1696      1697
 -1       439    8    0    1
 -2       154       155       310      1267      1698      1699
 -1       440    8    0    1
 -2       155       156       311      1268      1700      1701
 -1       441    8    0    1
 -2       156       157       312      1269      1702      1703
 -1       442    8    0    1
 -2       157       158       313      1270      1704      1705
 -1       443    8    0    1
 -2       158         1       314      1271      1706      1707
 -1       444    8    0    1
 -2         1       159       315      1272      1708      1709
 -1       445    8    0    1
 -2       159       160       316      1273      1710      1711
 -1       446    8    0    1
 -2       160       161       317      1274      1712      1713
 -1       447    8    0    1
 -2       161       162       318      1275      1714      1715
 -1       448    8    0    1
 -2       162       163       319      1276      1716      1717
 -1       449    8    0    1
 -2       163       164       320      1277      1718      1719
 -1       450    8    0    1
 -2       164         2       321      1278      1720      1721
 -1       451    8    0    1
 -2        38        37       322      1147      1722      1723
 -1       452    8    0    1
 -2       295       140       296      1668      1671      1724
 -1       453    8    0    1
 -2         2       293       321      1665      1725      1720
 -1       454    8    0    1
 -2       121       122       277      1618      1726      1615
 -1       455    8    0    1
 -2       122       278       277      1620      1727      1726
 -1       456    8    0    1
 -2       293       138       294      1664      1667      1728
 -1       457    8    0    1
 -2       294       139       295      1666      1669      1729
 -1       458    8    0    1
 -2       141       297       296      1673      1730      1670
 -1       459    8    0    1
 -2       142       298       297      1675      1731      1672
 -1       460    8    0    1
 -2       143       299       298      1677      1732      1674
 -1       461    8    0    1
 -2       144       300       299      1679      1733      1676
 -1       462    8    0    1
 -2       145       301       300      1681      1734      1678
 -1       463    8    0    1
 -2       146       302       301      1683      1735      1680
 -1       464    8    0    1
 -2       147       303       302      1685      1736      1682
 -1       465    8    0    1
 -2       148       304       303      1687      1737      1684
 -1       466    8    0    1
 -2       149       305       304      1689      1738      1686
 -1       467    8    0    1
 -2       150       306       305      1691      1739      1688
 -1       468    8    0    1
 -2       151       307       306      1693      1740      1690
 -1       469    8    0    1
 -2       152       308       307      1695      1741      1692
 -1       470    8    0    1
 -2       153       309       308      1697      1742      1694
 -1       471    8    0    1
 -2       154       310       309      1699      1743      1696
 -1       472    8    0    1
 -2       155       311       310      1701      1744      1698
 -1       473    8    0    1
 -2       156       312       311      1703      1745      1700
 -1       474    8    0    1
 -2       157       313       312      1705      1746      1702
 -1       475    8    0    1
 -2       158       314       313      1707      1747      1704
 -1       476    8    0    1
 -2         1       315       314      1709      1748      1706
 -1       477    8    0    1
 -2       159       316       315      1711      1749      1708
 -1       478    8    0    1
 -2       160       317       316      1713      1750      1710
 -1       479    8    0    1
 -2       161       318       317      1715      1751      1712
 -1       480    8    0    1
 -2       162       319       318      1717      1752      1714
 -1       481    8    0    1
 -2       163       320       319      1719      1753      1716
 -1       482    8    0    1
 -2       164       321       320      1721      1754      1718
 -1       483    8    0    1
 -2        38       322       195      1723      1755      1369
 -1       484    8    0    1
 -2        23         7       165      1279      1281      1756
 -1       485    8    0    1
 -2       322        37       194      1722      1367      1757
 -1       486    8    0    1
 -2       166       167       323      1287      1758      1759
 -1       487    8    0    1
 -2       165       166       324      1284      1760      1761
 -1       488    8    0    1
 -2       166       323       324      1759      1762      1760
 -1       489    8    0    1
 -2       168       169       325      1293      1763      1764
 -1       490    8    0    1
 -2       169       170       326      1296      1765      1766
 -1       491    8    0    1
 -2       169       326       325      1766      1767      1763
 -1       492    8    0    1
 -2       170       171       327      1299      1768      1769
 -1       493    8    0    1
 -2       170       327       326      1769      1770      1765
 -1       494    8    0    1
 -2       171       172       328      1302      1771      1772
 -1       495    8    0    1
 -2       171       328       327      1772      1773      1768
 -1       496    8    0    1
 -2       172       173       329      1305      1774      1775
 -1       497    8    0    1
 -2       172       329       328      1775      1776      1771
 -1       498    8    0    1
 -2       173       174       330      1308      1777      1778
 -1       499    8    0    1
 -2       173       330       329      1778      1779      1774
 -1       500    8    0    1
 -2       174       175       331      1311      1780      1781
 -1       501    8    0    1
 -2       174       331       330      1781      1782      1777
 -1       502    8    0    1
 -2       175       176       332      1314      1783      1784
 -1       503    8    0    1
 -2       175       332       331      1784      1785      1780
 -1       504    8    0    1
 -2       176       177       333      1317      1786      1787
 -1       505    8    0    1
 -2       176       333       332      1787      1788      1783
 -1       506    8    0    1
 -2       177       178       334      1320      1789      1790
 -1       507    8    0    1
 -2       177       334       333      1790      1791      1786
 -1       508    8    0    1
 -2       178       179       335      1323      1792      1793
 -1       509    8    0    1
 -2       178       335       334      1793      1794      1789
 -1       510    8    0    1
 -2       179       180       336      1326      1795      1796
 -1       511    8    0    1
 -2       335       179       336      1792      1796      1797
 -1       512    8    0    1
 -2       180       230       336      1476      1798      1795
 -1       513    8    0    1
 -2       181        23       165      1328      1756      1799
 -1       514    8    0    1
 -2       230       231       337      1479      1800      1801
 -1       515    8    0    1
 -2       230       337       336      1801      1802      1798
 -1       516    8    0    1
 -2       322       194       338      1757      1803      1804
 -1       517    8    0    1
 -2       183       182       339      1335      1805      1806
 -1       518    8    0    1
 -2       184       183       340      1338      1807      1808
 -1       519    8    0    1
 -2       183       339       340      1806      1809      1807
 -1       520    8    0    1
 -2       185       184       341      1341      1810      1811
 -1       521    8    0    1
 -2       184       340       341      1808      1812      1810
 -1       522    8    0    1
 -2       186       185       342      1344      1813      1814
 -1       523    8    0    1
 -2       185       341       342      1811      1815      1813
 -1       524    8    0    1
 -2       187       186       343      1347      1816      1817
 -1       525    8    0    1
 -2       186       342       343      1814      1818      1816
 -1       526    8    0    1
 -2       188       187       344      1350      1819      1820
 -1       527    8    0    1
 -2       187       343       344      1817      1821      1819
 -1       528    8    0    1
 -2       189       188       345      1353      1822      1823
 -1       529    8    0    1
 -2       188       344       345      1820      1824      1822
 -1       530    8    0    1
 -2       190       189       346      1356      1825      1826
 -1       531    8    0    1
 -2       189       345       346      1823      1827      1825
 -1       532    8    0    1
 -2       191       190       347      1359      1828      1829
 -1       533    8    0    1
 -2       190       346       347      1826      1830      1828
 -1       534    8    0    1
 -2       192       191       348      1362      1831      1832
 -1       535    8    0    1
 -2       191       347       348      1829      1833      1831
 -1       536    8    0    1
 -2       193       192       349      1365      1834      1835
 -1       537    8    0    1
 -2       192       348       349      1832      1836      1834
 -1       538    8    0    1
 -2       194       193       350      1368      1837      1838
 -1       539    8    0    1
 -2       193       349       350      1835      1839      1837
 -1       540    8    0    1
 -2       295       296       351      1724      1840      1841
 -1       541    8    0    1
 -2       181       165       324      1799      1761      1842
 -1       542    8    0    1
 -2       197       196       314      1376      1843      1844
 -1       543    8    0    1
 -2       198       197       315      1379      1845      1846
 -1       544    8    0    1
 -2       200       199       352      1385      1847      1848
 -1       545    8    0    1
 -2       201       200       353      1388      1849      1850
 -1       546    8    0    1
 -2       202       201       354      1391      1851      1852
 -1       547    8    0    1
 -2       201       353       354      1850      1853      1851
 -1       548    8    0    1
 -2       203       202       355      1394      1854      1855
 -1       549    8    0    1
 -2       202       354       355      1852      1856      1854
 -1       550    8    0    1
 -2       204       203       356      1397      1857      1858
 -1       551    8    0    1
 -2       203       355       356      1855      1859      1857
 -1       552    8    0    1
 -2       205       204       357      1400      1860      1861
 -1       553    8    0    1
 -2       204       356       357      1858      1862      1860
 -1       554    8    0    1
 -2       206       205       358      1403      1863      1864
 -1       555    8    0    1
 -2       205       357       358      1861      1865      1863
 -1       556    8    0    1
 -2       207       206       359      1406      1866      1867
 -1       557    8    0    1
 -2       206       358       359      1864      1868      1866
 -1       558    8    0    1
 -2       208       207       360      1409      1869      1870
 -1       559    8    0    1
 -2       207       359       360      1867      1871      1869
 -1       560    8    0    1
 -2       209       208       361      1412      1872      1873
 -1       561    8    0    1
 -2       208       360       361      1870      1874      1872
 -1       562    8    0    1
 -2       210       209       362      1415      1875      1876
 -1       563    8    0    1
 -2       209       361       362      1873      1877      1875
 -1       564    8    0    1
 -2       211       210       363      1418      1878      1879
 -1       565    8    0    1
 -2       210       362       363      1876      1880      1878
 -1       566    8    0    1
 -2       212       211       364      1421      1881      1882
 -1       567    8    0    1
 -2       211       363       364      1879      1883      1881
 -1       568    8    0    1
 -2       213       212       365      1424      1884      1885
 -1       569    8    0    1
 -2       212       364       365      1882      1886      1884
 -1       570    8    0    1
 -2       214       213       366      1427      1887      1888
 -1       571    8    0    1
 -2       213       365       366      1885      1889      1887
 -1       572    8    0    1
 -2       215       214       367      1430      1890      1891
 -1       573    8    0    1
 -2       214       366       367      1888      1892      1890
 -1       574    8    0    1
 -2       216       215       368      1433      1893      1894
 -1       575    8    0    1
 -2       215       367       368      1891      1895      1893
 -1       576    8    0    1
 -2       217       216       369      1436      1896      1897
 -1       577    8    0    1
 -2       216       368       369      1894      1898      1896
 -1       578    8    0    1
 -2       218       217       370      1439      1899      1900
 -1       579    8    0    1
 -2       217       369       370      1897      1901      1899
 -1       580    8    0    1
 -2       219       218       371      1442      1902      1903
 -1       581    8    0    1
 -2       218       370       371      1900      1904      1902
 -1       582    8    0    1
 -2       220       219       372      1445      1905      1906
 -1       583    8    0    1
 -2       219       371       372      1903      1907      1905
 -1       584    8    0    1
 -2       221       220       373      1448      1908      1909
 -1       585    8    0    1
 -2       220       372       373      1906      1910      1908
 -1       586    8    0    1
 -2       222       221       374      1451      1911      1912
 -1       587    8    0    1
 -2       221       373       374      1909      1913      1911
 -1       588    8    0    1
 -2       223       222       375      1454      1914      1915
 -1       589    8    0    1
 -2       222       374       375      1912      1916      1914
 -1       590    8    0    1
 -2       224       223       376      1457      1917      1918
 -1       591    8    0    1
 -2       223       375       376      1915      1919      1917
 -1       592    8    0    1
 -2       225       224       377      1460      1920      1921
 -1       593    8    0    1
 -2       224       376       377      1918      1922      1920
 -1       594    8    0    1
 -2       226       225       378      1463      1923      1924
 -1       595    8    0    1
 -2       225       377       378      1921      1925      1923
 -1       596    8    0    1
 -2       227       226       379      1466      1926      1927
 -1       597    8    0    1
 -2       226       378       379      1924      1928      1926
 -1       598    8    0    1
 -2       228       227       380      1469      1929      1930
 -1       599    8    0    1
 -2       227       379       380      1927      1931      1929
 -1       600    8    0    1
 -2       229       228       292      1473      1932      1663
 -1       601    8    0    1
 -2       232       233       381      1485      1933      1934
 -1       602    8    0    1
 -2       233       234       382      1488      1935      1936
 -1       603    8    0    1
 -2       233       382       381      1936      1937      1933
 -1       604    8    0    1
 -2       234       235       383      1491      1938      1939
 -1       605    8    0    1
 -2       234       383       382      1939      1940      1935
 -1       606    8    0    1
 -2       235       236       384      1494      1941      1942
 -1       607    8    0    1
 -2       235       384       383      1942      1943      1938
 -1       608    8    0    1
 -2       236       237       385      1497      1944      1945
 -1       609    8    0    1
 -2       236       385       384      1945      1946      1941
 -1       610    8    0    1
 -2       237       238       386      1500      1947      1948
 -1       611    8    0    1
 -2       237       386       385      1948      1949      1944
 -1       612    8    0    1
 -2       238       239       387      1503      1950      1951
 -1       613    8    0    1
 -2       238       387       386      1951      1952      1947
 -1       614    8    0    1
 -2       239       240       388      1506      1953      1954
 -1       615    8    0    1
 -2       239       388       387      1954      1955      1950
 -1       616    8    0    1
 -2       240       241       389      1509      1956      1957
 -1       617    8    0    1
 -2       240       389       388      1957      1958      1953
 -1       618    8    0    1
 -2       241       242       390      1512      1959      1960
 -1       619    8    0    1
 -2       241       390       389      1960      1961      1956
 -1       620    8    0    1
 -2       242       243       391      1515      1962      1963
 -1       621    8    0    1
 -2       242       391       390      1963      1964      1959
 -1       622    8    0    1
 -2       243       244       392      1518      1965      1966
 -1       623    8    0    1
 -2       243       392       391      1966      1967      1962
 -1       624    8    0    1
 -2       244       245       393      1521      1968      1969
 -1       625    8    0    1
 -2       244       393       392      1969      1970      1965
 -1       626    8    0    1
 -2       245       246       394      1524      1971      1972
 -1       627    8    0    1
 -2       245       394       393      1972      1973      1968
 -1       628    8    0    1
 -2       246       247       395      1527      1974      1975
 -1       629    8    0    1
 -2       246       395       394      1975      1976      1971
 -1       630    8    0    1
 -2       247       248       396      1530      1977      1978
 -1       631    8    0    1
 -2       247       396       395      1978      1979      1974
 -1       632    8    0    1
 -2       248       249       397      1533      1980      1981
 -1       633    8    0    1
 -2       248       397       396      1981      1982      1977
 -1       634    8    0    1
 -2       249       250       398      1536      1983      1984
 -1       635    8    0    1
 -2       249       398       397      1984      1985      1980
 -1       636    8    0    1
 -2       250       251       399      1539      1986      1987
 -1       637    8    0    1
 -2       250       399       398      1987      1988      1983
 -1       638    8    0    1
 -2       251       252       400      1542      1989      1990
 -1       639    8    0    1
 -2       251       400       399      1990      1991      1986
 -1       640    8    0    1
 -2       252       253       401      1545      1992      1993
 -1       641    8    0    1
 -2       252       401       400      1993      1994      1989
 -1       642    8    0    1
 -2       253       254       402      1548      1995      1996
 -1       643    8    0    1
 -2       253       402       401      1996      1997      1992
 -1       644    8    0    1
 -2       254       255       403      1551      1998      1999
 -1       645    8    0    1
 -2       254       403       402      1999      2000      1995
 -1       646    8    0    1
 -2       255       256       404      1554      2001      2002
 -1       647    8    0    1
 -2       255       404       403      2002      2003      1998
 -1       648    8    0    1
 -2       256       257       405      1557      2004      2005
 -1       649    8    0    1
 -2       256       405       404      2005      2006      2001
 -1       650    8    0    1
 -2       257       258       406      1560      2007      2008
 -1       651    8    0    1
 -2       257       406       405      2008      2009      2004
 -1       652    8    0    1
 -2       258       259       407      1563      2010      2011
 -1       653    8    0    1
 -2       258       407       406      2011      2012      2007
 -1       654    8    0    1
 -2       259       260       408      1566      2013      2014
 -1       655    8    0    1
 -2       259       408       407      2014      2015      2010
 -1       656    8    0    1
 -2       260       261       409      1569      2016      2017
 -1       657    8    0    1
 -2       260       409       408      2017      2018      2013
 -1       658    8    0    1
 -2       261       262       410      1572      2019      2020
 -1       659    8    0    1
 -2       261       410       409      2020      2021      2016
 -1       660    8    0    1
 -2       262       263       411      1575      2022      2023
 -1       661    8    0    1
 -2       262       411       410      2023      2024      2019
 -1       662    8    0    1
 -2       263       264       412      1578      2025      2026
 -1       663    8    0    1
 -2       263       412       411      2026      2027      2022
 -1       664    8    0    1
 -2       264       265       413      1581      2028      2029
 -1       665    8    0    1
 -2       264       413       412      2029      2030      2025
 -1       666    8    0    1
 -2       265       266       414      1584      2031      2032
 -1       667    8    0    1
 -2       265       414       413      2032      2033      2028
 -1       668    8    0    1
 -2       266       267       415      1587      2034      2035
 -1       669    8    0    1
 -2       266       415       414      2035      2036      2031
 -1       670    8    0    1
 -2       267       268       416      1590      2037      2038
 -1       671    8    0    1
 -2       267       416       415      2038      2039      2034
 -1       672    8    0    1
 -2       268       269       417      1593      2040      2041
 -1       673    8    0    1
 -2       268       417       416      2041      2042      2037
 -1       674    8    0    1
 -2       269       270       418      1596      2043      2044
 -1       675    8    0    1
 -2       269       418       417      2044      2045      2040
 -1       676    8    0    1
 -2       270       271       419      1599      2046      2047
 -1       677    8    0    1
 -2       270       419       418      2047      2048      2043
 -1       678    8    0    1
 -2       271       272       420      1602      2049      2050
 -1       679    8    0    1
 -2       271       420       419      2050      2051      2046
 -1       680    8    0    1
 -2       272       273       421      1605      2052      2053
 -1       681    8    0    1
 -2       272       421       420      2053      2054      2049
 -1       682    8    0    1
 -2       273       274       422      1608      2055      2056
 -1       683    8    0    1
 -2       273       422       421      2056      2057      2052
 -1       684    8    0    1
 -2       274       275       423      1611      2058      2059
 -1       685    8    0    1
 -2       274       423       422      2059      2060      2055
 -1       686    8    0    1
 -2       275       276       424      1614      2061      2062
 -1       687    8    0    1
 -2       275       424       423      2062      2063      2058
 -1       688    8    0    1
 -2       276       277       425      1617      2064      2065
 -1       689    8    0    1
 -2       424       276       425      2061      2065      2066
 -1       690    8    0    1
 -2       277       278       425      1727      2067      2064
 -1       691    8    0    1
 -2       280       281       426      1629      2068      2069
 -1       692    8    0    1
 -2       279       280       427      1626      2070      2071
 -1       693    8    0    1
 -2       280       426       427      2069      2072      2070
 -1       694    8    0    1
 -2       278       279       425      1623      2073      2067
 -1       695    8    0    1
 -2       281       282       428      1632      2074      2075
 -1       696    8    0    1
 -2       281       428       426      2075      2076      2068
 -1       697    8    0    1
 -2       282       283       429      1635      2077      2078
 -1       698    8    0    1
 -2       282       429       428      2078      2079      2074
 -1       699    8    0    1
 -2       283       284       430      1638      2080      2081
 -1       700    8    0    1
 -2       283       430       429      2081      2082      2077
 -1       701    8    0    1
 -2       284       285       431      1641      2083      2084
 -1       702    8    0    1
 -2       284       431       430      2084      2085      2080
 -1       703    8    0    1
 -2       285       286       432      1644      2086      2087
 -1       704    8    0    1
 -2       285       432       431      2087      2088      2083
 -1       705    8    0    1
 -2       286       287       433      1647      2089      2090
 -1       706    8    0    1
 -2       286       433       432      2090      2091      2086
 -1       707    8    0    1
 -2       287       288       434      1650      2092      2093
 -1       708    8    0    1
 -2       287       434       433      2093      2094      2089
 -1       709    8    0    1
 -2       288       289       435      1653      2095      2096
 -1       710    8    0    1
 -2       288       435       434      2096      2097      2092
 -1       711    8    0    1
 -2       289       290       436      1656      2098      2099
 -1       712    8    0    1
 -2       289       436       435      2099      2100      2095
 -1       713    8    0    1
 -2       290       291       437      1659      2101      2102
 -1       714    8    0    1
 -2       290       437       436      2102      2103      2098
 -1       715    8    0    1
 -2       231       232       438      1482      2104      2105
 -1       716    8    0    1
 -2       337       231       438      1800      2105      2106
 -1       717    8    0    1
 -2       232       381       438      1934      2107      2104
 -1       718    8    0    1
 -2       294       295       439      1729      2108      2109
 -1       719    8    0    1
 -2       296       297       440      1730      2110      2111
 -1       720    8    0    1
 -2       296       440       351      2111      2112      1840
 -1       721    8    0    1
 -2       321       293       441      1725      2113      2114
 -1       722    8    0    1
 -2       315       197       314      1845      1844      1748
 -1       723    8    0    1
 -2       167       168       442      1290      2115      2116
 -1       724    8    0    1
 -2       323       167       442      1758      2116      2117
 -1       725    8    0    1
 -2       168       325       442      1764      2118      2115
 -1       726    8    0    1
 -2       297       298       443      1731      2119      2120
 -1       727    8    0    1
 -2       298       299       444      1732      2121      2122
 -1       728    8    0    1
 -2       298       444       443      2122      2123      2119
 -1       729    8    0    1
 -2       299       300       445      1733      2124      2125
 -1       730    8    0    1
 -2       299       445       444      2125      2126      2121
 -1       731    8    0    1
 -2       300       301       446      1734      2127      2128
 -1       732    8    0    1
 -2       301       302       447      1735      2129      2130
 -1       733    8    0    1
 -2       302       303       448      1736      2131      2132
 -1       734    8    0    1
 -2       303       304       449      1737      2133      2134
 -1       735    8    0    1
 -2       304       305       450      1738      2135      2136
 -1       736    8    0    1
 -2       305       306       451      1739      2137      2138
 -1       737    8    0    1
 -2       306       307       452      1740      2139      2140
 -1       738    8    0    1
 -2       307       308       453      1741      2141      2142
 -1       739    8    0    1
 -2       307       453       452      2142      2143      2139
 -1       740    8    0    1
 -2       308       309       454      1742      2144      2145
 -1       741    8    0    1
 -2       309       310       455      1743      2146      2147
 -1       742    8    0    1
 -2       310       311       456      1744      2148      2149
 -1       743    8    0    1
 -2       311       312       457      1745      2150      2151
 -1       744    8    0    1
 -2       313       314       196      1747      1843      2152
 -1       745    8    0    1
 -2       315       316       198      1749      2153      1846
 -1       746    8    0    1
 -2       317       318       352      1751      2154      2155
 -1       747    8    0    1
 -2       318       319       458      1752      2156      2157
 -1       748    8    0    1
 -2       318       458       352      2157      2158      2154
 -1       749    8    0    1
 -2       319       320       459      1753      2159      2160
 -1       750    8    0    1
 -2       319       459       458      2160      2161      2156
 -1       751    8    0    1
 -2       320       321       460      1754      2162      2163
 -1       752    8    0    1
 -2       320       460       459      2163      2164      2159
 -1       753    8    0    1
 -2       293       294       461      1728      2165      2166
 -1       754    8    0    1
 -2       313       196       195      2152      1373      2167
 -1       755    8    0    1
 -2       313       195       312      2167      2168      1746
 -1       756    8    0    1
 -2       322       338       457      1804      2169      2170
 -1       757    8    0    1
 -2       439       295       351      2108      1841      2171
 -1       758    8    0    1
 -2       182       181       324      1332      1842      2172
 -1       759    8    0    1
 -2       182       324       339      2172      2173      1805
 -1       760    8    0    1
 -2       297       443       440      2120      2174      2110
 -1       761    8    0    1
 -2       321       441       460      2114      2175      2162
 -1       762    8    0    1
 -2       198       316       199      2153      2176      1382
 -1       763    8    0    1
 -2       200       352       353      1848      2177      1849
 -1       764    8    0    1
 -2       292       228       380      1932      1930      2178
 -1       765    8    0    1
 -2       425       279       427      2073      2071      2179
 -1       766    8    0    1
 -2       449       304       450      2133      2136      2180
 -1       767    8    0    1
 -2       291       292       380      1662      2178      2181
 -1       768    8    0    1
 -2       294       439       461      2109      2182      2165
 -1       769    8    0    1
 -2       441       293       461      2113      2166      2183
 -1       770    8    0    1
 -2       448       303       449      2131      2134      2184
 -1       771    8    0    1
 -2       456       311       457      2148      2151      2185
 -1       772    8    0    1
 -2       455       310       456      2146      2149      2186
 -1       773    8    0    1
 -2       453       308       462      2141      2187      2188
 -1       774    8    0    1
 -2       308       454       462      2145      2189      2187
 -1       775    8    0    1
 -2       451       306       452      2137      2140      2190
 -1       776    8    0    1
 -2       450       305       451      2135      2138      2191
 -1       777    8    0    1
 -2       447       302       448      2129      2132      2192
 -1       778    8    0    1
 -2       300       446       463      2128      2193      2194
 -1       779    8    0    1
 -2       300       463       445      2194      2195      2124
 -1       780    8    0    1
 -2       312       195       322      2168      1755      2196
 -1       781    8    0    1
 -2       199       316       317      2176      1750      2197
 -1       782    8    0    1
 -2       199       317       352      2197      2155      1847
 -1       783    8    0    1
 -2       446       301       447      2127      2130      2198
 -1       784    8    0    1
 -2       291       380       437      2181      2199      2101
 -1       785    8    0    1
 -2       454       309       455      2144      2147      2200
 -1       786    8    0    1
 -2       326       327       464      1770      2201      2202
 -1       787    8    0    1
 -2       325       326       465      1767      2203      2204
 -1       788    8    0    1
 -2       326       464       465      2202      2205      2203
 -1       789    8    0    1
 -2       328       329       466      1776      2206      2207
 -1       790    8    0    1
 -2       329       330       467      1779      2208      2209
 -1       791    8    0    1
 -2       329       467       466      2209      2210      2206
 -1       792    8    0    1
 -2       330       331       468      1782      2211      2212
 -1       793    8    0    1
 -2       330       468       467      2212      2213      2208
 -1       794    8    0    1
 -2       331       332       469      1785      2214      2215
 -1       795    8    0    1
 -2       331       469       468      2215      2216      2211
 -1       796    8    0    1
 -2       332       333       470      1788      2217      2218
 -1       797    8    0    1
 -2       332       470       469      2218      2219      2214
 -1       798    8    0    1
 -2       333       334       471      1791      2220      2221
 -1       799    8    0    1
 -2       333       471       470      2221      2222      2217
 -1       800    8    0    1
 -2       334       335       472      1794      2223      2224
 -1       801    8    0    1
 -2       334       472       471      2224      2225      2220
 -1       802    8    0    1
 -2       335       336       473      1797      2226      2227
 -1       803    8    0    1
 -2       472       335       473      2223      2227      2228
 -1       804    8    0    1
 -2       336       337       473      1802      2229      2226
 -1       805    8    0    1
 -2       440       443       474      2174      2230      2231
 -1       806    8    0    1
 -2       439       351       475      2171      2232      2233
 -1       807    8    0    1
 -2       340       339       476      1809      2234      2235
 -1       808    8    0    1
 -2       338       194       350      1803      1838      2236
 -1       809    8    0    1
 -2       341       340       477      1812      2237      2238
 -1       810    8    0    1
 -2       340       476       477      2235      2239      2237
 -1       811    8    0    1
 -2       342       341       478      1815      2240      2241
 -1       812    8    0    1
 -2       341       477       478      2238      2242      2240
 -1       813    8    0    1
 -2       343       342       479      1818      2243      2244
 -1       814    8    0    1
 -2       342       478       479      2241      2245      2243
 -1       815    8    0    1
 -2       344       343       480      1821      2246      2247
 -1       816    8    0    1
 -2       343       479       480      2244      2248      2246
 -1       817    8    0    1
 -2       345       344       481      1824      2249      2250
 -1       818    8    0    1
 -2       344       480       481      2247      2251      2249
 -1       819    8    0    1
 -2       346       345       482      1827      2252      2253
 -1       820    8    0    1
 -2       345       481       482      2250      2254      2252
 -1       821    8    0    1
 -2       347       346       483      1830      2255      2256
 -1       822    8    0    1
 -2       346       482       483      2253      2257      2255
 -1       823    8    0    1
 -2       348       347       484      1833      2258      2259
 -1       824    8    0    1
 -2       347       483       484      2256      2260      2258
 -1       825    8    0    1
 -2       349       348       485      1836      2261      2262
 -1       826    8    0    1
 -2       348       484       485      2259      2263      2261
 -1       827    8    0    1
 -2       350       349       486      1839      2264      2265
 -1       828    8    0    1
 -2       339       324       487      2173      2266      2267
 -1       829    8    0    1
 -2       476       339       487      2234      2267      2268
 -1       830    8    0    1
 -2       324       323       487      1762      2269      2266
 -1       831    8    0    1
 -2       425       427       424      2179      2270      2066
 -1       832    8    0    1
 -2       355       354       488      1856      2271      2272
 -1       833    8    0    1
 -2       356       355       489      1859      2273      2274
 -1       834    8    0    1
 -2       355       488       489      2272      2275      2273
 -1       835    8    0    1
 -2       357       356       490      1862      2276      2277
 -1       836    8    0    1
 -2       356       489       490      2274      2278      2276
 -1       837    8    0    1
 -2       358       357       491      1865      2279      2280
 -1       838    8    0    1
 -2       357       490       491      2277      2281      2279
 -1       839    8    0    1
 -2       359       358       492      1868      2282      2283
 -1       840    8    0    1
 -2       358       491       492      2280      2284      2282
 -1       841    8    0    1
 -2       360       359       493      1871      2285      2286
 -1       842    8    0    1
 -2       359       492       493      2283      2287      2285
 -1       843    8    0    1
 -2       361       360       494      1874      2288      2289
 -1       844    8    0    1
 -2       360       493       494      2286      2290      2288
 -1       845    8    0    1
 -2       362       361       495      1877      2291      2292
 -1       846    8    0    1
 -2       361       494       495      2289      2293      2291
 -1       847    8    0    1
 -2       363       362       496      1880      2294      2295
 -1       848    8    0    1
 -2       362       495       496      2292      2296      2294
 -1       849    8    0    1
 -2       364       363       497      1883      2297      2298
 -1       850    8    0    1
 -2       363       496       497      2295      2299      2297
 -1       851    8    0    1
 -2       365       364       498      1886      2300      2301
 -1       852    8    0    1
 -2       364       497       498      2298      2302      2300
 -1       853    8    0    1
 -2       366       365       499      1889      2303      2304
 -1       854    8    0    1
 -2       365       498       499      2301      2305      2303
 -1       855    8    0    1
 -2       367       366       500      1892      2306      2307
 -1       856    8    0    1
 -2       366       499       500      2304      2308      2306
 -1       857    8    0    1
 -2       368       367       501      1895      2309      2310
 -1       858    8    0    1
 -2       367       500       501      2307      2311      2309
 -1       859    8    0    1
 -2       369       368       502      1898      2312      2313
 -1       860    8    0    1
 -2       368       501       502      2310      2314      2312
 -1       861    8    0    1
 -2       370       369       503      1901      2315      2316
 -1       862    8    0    1
 -2       369       502       503      2313      2317      2315
 -1       863    8    0    1
 -2       371       370       504      1904      2318      2319
 -1       864    8    0    1
 -2       370       503       504      2316      2320      2318
 -1       865    8    0    1
 -2       372       371       505      1907      2321      2322
 -1       866    8    0    1
 -2       371       504       505      2319      2323      2321
 -1       867    8    0    1
 -2       373       372       506      1910      2324      2325
 -1       868    8    0    1
 -2       372       505       506      2322      2326      2324
 -1       869    8    0    1
 -2       374       373       507      1913      2327      2328
 -1       870    8    0    1
 -2       373       506       507      2325      2329      2327
 -1       871    8    0    1
 -2       375       374       508      1916      2330      2331
 -1       872    8    0    1
 -2       374       507       508      2328      2332      2330
 -1       873    8    0    1
 -2       376       375       509      1919      2333      2334
 -1       874    8    0    1
 -2       375       508       509      2331      2335      2333
 -1       875    8    0    1
 -2       377       376       510      1922      2336      2337
 -1       876    8    0    1
 -2       376       509       510      2334      2338      2336
 -1       877    8    0    1
 -2       378       377       511      1925      2339      2340
 -1       878    8    0    1
 -2       377       510       511      2337      2341      2339
 -1       879    8    0    1
 -2       379       378       512      1928      2342      2343
 -1       880    8    0    1
 -2       378       511       512      2340      2344      2342
 -1       881    8    0    1
 -2       380       379       513      1931      2345      2346
 -1       882    8    0    1
 -2       437       380       513      2199      2346      2347
 -1       883    8    0    1
 -2       379       512       513      2343      2348      2345
 -1       884    8    0    1
 -2       383       384       514      1943      2349      2350
 -1       885    8    0    1
 -2       382       383       515      1940      2351      2352
 -1       886    8    0    1
 -2       383       514       515      2350      2353      2351
 -1       887    8    0    1
 -2       381       382       516      1937      2354      2355
 -1       888    8    0    1
 -2       382       515       516      2352      2356      2354
 -1       889    8    0    1
 -2       384       385       517      1946      2357      2358
 -1       890    8    0    1
 -2       384       517       514      2358      2359      2349
 -1       891    8    0    1
 -2       385       386       518      1949      2360      2361
 -1       892    8    0    1
 -2       385       518       517      2361      2362      2357
 -1       893    8    0    1
 -2       386       387       519      1952      2363      2364
 -1       894    8    0    1
 -2       386       519       518      2364      2365      2360
 -1       895    8    0    1
 -2       387       388       520      1955      2366      2367
 -1       896    8    0    1
 -2       387       520       519      2367      2368      2363
 -1       897    8    0    1
 -2       388       389       521      1958      2369      2370
 -1       898    8    0    1
 -2       388       521       520      2370      2371      2366
 -1       899    8    0    1
 -2       389       390       522      1961      2372      2373
 -1       900    8    0    1
 -2       389       522       521      2373      2374      2369
 -1       901    8    0    1
 -2       390       391       523      1964      2375      2376
 -1       902    8    0    1
 -2       390       523       522      2376      2377      2372
 -1       903    8    0    1
 -2       391       392       524      1967      2378      2379
 -1       904    8    0    1
 -2       391       524       523      2379      2380      2375
 -1       905    8    0    1
 -2       392       393       525      1970      2381      2382
 -1       906    8    0    1
 -2       392       525       524      2382      2383      2378
 -1       907    8    0    1
 -2       393       394       526      1973      2384      2385
 -1       908    8    0    1
 -2       393       526       525      2385      2386      2381
 -1       909    8    0    1
 -2       394       395       527      1976      2387      2388
 -1       910    8    0    1
 -2       394       527       526      2388      2389      2384
 -1       911    8    0    1
 -2       395       396       528      1979      2390      2391
 -1       912    8    0    1
 -2       395       528       527      2391      2392      2387
 -1       913    8    0    1
 -2       396       397       529      1982      2393      2394
 -1       914    8    0    1
 -2       396       529       528      2394      2395      2390
 -1       915    8    0    1
 -2       397       398       530      1985      2396      2397
 -1       916    8    0    1
 -2       397       530       529      2397      2398      2393
 -1       917    8    0    1
 -2       398       399       531      1988      2399      2400
 -1       918    8    0    1
 -2       398       531       530      2400      2401      2396
 -1       919    8    0    1
 -2       399       400       532      1991      2402      2403
 -1       920    8    0    1
 -2       399       532       531      2403      2404      2399
 -1       921    8    0    1
 -2       400       401       533      1994      2405      2406
 -1       922    8    0    1
 -2       400       533       532      2406      2407      2402
 -1       923    8    0    1
 -2       401       402       534      1997      2408      2409
 -1       924    8    0    1
 -2       401       534       533      2409      2410      2405
 -1       925    8    0    1
 -2       402       403       535      2000      2411      2412
 -1       926    8    0    1
 -2       402       535       534      2412      2413      2408
 -1       927    8    0    1
 -2       403       404       536      2003      2414      2415
 -1       928    8    0    1
 -2       403       536       535      2415      2416      2411
 -1       929    8    0    1
 -2       404       405       537      2006      2417      2418
 -1       930    8    0    1
 -2       404       537       536      2418      2419      2414
 -1       931    8    0    1
 -2       405       406       538      2009      2420      2421
 -1       932    8    0    1
 -2       405       538       537      2421      2422      2417
 -1       933    8    0    1
 -2       406       407       539      2012      2423      2424
 -1       934    8    0    1
 -2       406       539       538      2424      2425      2420
 -1       935    8    0    1
 -2       407       408       540      2015      2426      2427
 -1       936    8    0    1
 -2       407       540       539      2427      2428      2423
 -1       937    8    0    1
 -2       408       409       541      2018      2429      2430
 -1       938    8    0    1
 -2       408       541       540      2430      2431      2426
 -1       939    8    0    1
 -2       409       410       542      2021      2432      2433
 -1       940    8    0    1
 -2       409       542       541      2433      2434      2429
 -1       941    8    0    1
 -2       410       411       543      2024      2435      2436
 -1       942    8    0    1
 -2       410       543       542      2436      2437      2432
 -1       943    8    0    1
 -2       411       412       544      2027      2438      2439
 -1       944    8    0    1
 -2       411       544       543      2439      2440      2435
 -1       945    8    0    1
 -2       412       413       545      2030      2441      2442
 -1       946    8    0    1
 -2       412       545       544      2442      2443      2438
 -1       947    8    0    1
 -2       413       414       546      2033      2444      2445
 -1       948    8    0    1
 -2       413       546       545      2445      2446      2441
 -1       949    8    0    1
 -2       414       415       547      2036      2447      2448
 -1       950    8    0    1
 -2       414       547       546      2448      2449      2444
 -1       951    8    0    1
 -2       415       416       548      2039      2450      2451
 -1       952    8    0    1
 -2       415       548       547      2451      2452      2447
 -1       953    8    0    1
 -2       416       417       549      2042      2453      2454
 -1       954    8    0    1
 -2       416       549       548      2454      2455      2450
 -1       955    8    0    1
 -2       417       418       550      2045      2456      2457
 -1       956    8    0    1
 -2       417       550       549      2457      2458      2453
 -1       957    8    0    1
 -2       418       419       551      2048      2459      2460
 -1       958    8    0    1
 -2       418       551       550      2460      2461      2456
 -1       959    8    0    1
 -2       419       420       552      2051      2462      2463
 -1       960    8    0    1
 -2       419       552       551      2463      2464      2459
 -1       961    8    0    1
 -2       420       421       553      2054      2465      2466
 -1       962    8    0    1
 -2       420       553       552      2466      2467      2462
 -1       963    8    0    1
 -2       421       422       554      2057      2468      2469
 -1       964    8    0    1
 -2       421       554       553      2469      2470      2465
 -1       965    8    0    1
 -2       422       423       555      2060      2471      2472
 -1       966    8    0    1
 -2       422       555       554      2472      2473      2468
 -1       967    8    0    1
 -2       423       424       556      2063      2474      2475
 -1       968    8    0    1
 -2       423       556       555      2475      2476      2471
 -1       969    8    0    1
 -2       428       429       557      2079      2477      2478
 -1       970    8    0    1
 -2       426       428       558      2076      2479      2480
 -1       971    8    0    1
 -2       428       557       558      2478      2481      2479
 -1       972    8    0    1
 -2       427       426       559      2072      2482      2483
 -1       973    8    0    1
 -2       426       558       559      2480      2484      2482
 -1       974    8    0    1
 -2       449       450       560      2180      2485      2486
 -1       975    8    0    1
 -2       429       430       561      2082      2487      2488
 -1       976    8    0    1
 -2       429       561       557      2488      2489      2477
 -1       977    8    0    1
 -2       430       431       562      2085      2490      2491
 -1       978    8    0    1
 -2       430       562       561      2491      2492      2487
 -1       979    8    0    1
 -2       431       432       563      2088      2493      2494
 -1       980    8    0    1
 -2       431       563       562      2494      2495      2490
 -1       981    8    0    1
 -2       432       433       564      2091      2496      2497
 -1       982    8    0    1
 -2       432       564       563      2497      2498      2493
 -1       983    8    0    1
 -2       433       434       565      2094      2499      2500
 -1       984    8    0    1
 -2       433       565       564      2500      2501      2496
 -1       985    8    0    1
 -2       434       435       566      2097      2502      2503
 -1       986    8    0    1
 -2       434       566       565      2503      2504      2499
 -1       987    8    0    1
 -2       435       436       567      2100      2505      2506
 -1       988    8    0    1
 -2       435       567       566      2506      2507      2502
 -1       989    8    0    1
 -2       436       437       568      2103      2508      2509
 -1       990    8    0    1
 -2       567       436       568      2505      2509      2510
 -1       991    8    0    1
 -2       437       513       568      2347      2511      2508
 -1       992    8    0    1
 -2       454       455       569      2200      2512      2513
 -1       993    8    0    1
 -2       460       441       570      2175      2514      2515
 -1       994    8    0    1
 -2       351       440       571      2112      2516      2517
 -1       995    8    0    1
 -2       451       452       572      2190      2518      2519
 -1       996    8    0    1
 -2       354       353       573      1853      2520      2521
 -1       997    8    0    1
 -2       461       439       574      2182      2522      2523
 -1       998    8    0    1
 -2       446       447       575      2198      2524      2525
 -1       999    8    0    1
 -2       327       328       576      1773      2526      2527
 -1      1000    8    0    1
 -2       464       327       576      2201      2527      2528
 -1      1001    8    0    1
 -2       328       466       576      2207      2529      2526
 -1      1002    8    0    1
 -2       424       427       556      2270      2530      2474
 -1      1003    8    0    1
 -2       443       444       577      2123      2531      2532
 -1      1004    8    0    1
 -2       447       448       578      2192      2533      2534
 -1      1005    8    0    1
 -2       450       451       579      2191      2535      2536
 -1      1006    8    0    1
 -2       452       453       580      2143      2537      2538
 -1      1007    8    0    1
 -2       459       460       581      2164      2539      2540
 -1      1008    8    0    1
 -2       448       449       582      2184      2541      2542
 -1      1009    8    0    1
 -2       441       461       583      2183      2543      2544
 -1      1010    8    0    1
 -2       444       445       584      2126      2545      2546
 -1      1011    8    0    1
 -2       444       584       577      2546      2547      2531
 -1      1012    8    0    1
 -2       442       325       585      2118      2548      2549
 -1      1013    8    0    1
 -2       325       465       585      2204      2550      2548
 -1      1014    8    0    1
 -2       474       443       577      2230      2532      2551
 -1      1015    8    0    1
 -2       473       337       586      2229      2552      2553
 -1      1016    8    0    1
 -2       337       438       586      2106      2554      2552
 -1      1017    8    0    1
 -2       475       351       571      2232      2517      2555
 -1      1018    8    0    1
 -2       439       475       574      2233      2556      2522
 -1      1019    8    0    1
 -2       350       486       569      2265      2557      2558
 -1      1020    8    0    1
 -2       349       485       486      2262      2559      2264
 -1      1021    8    0    1
 -2       440       474       571      2231      2560      2516
 -1      1022    8    0    1
 -2       353       352       458      2177      2158      2561
 -1      1023    8    0    1
 -2       488       354       573      2271      2521      2562
 -1      1024    8    0    1
 -2       454       569       587      2513      2563      2564
 -1      1025    8    0    1
 -2       462       454       587      2189      2564      2565
 -1      1026    8    0    1
 -2       569       486       587      2557      2566      2563
 -1      1027    8    0    1
 -2       427       559       556      2483      2567      2530
 -1      1028    8    0    1
 -2       449       560       582      2486      2568      2541
 -1      1029    8    0    1
 -2       560       450       579      2485      2536      2569
 -1      1030    8    0    1
 -2       569       455       350      2512      2570      2558
 -1      1031    8    0    1
 -2       570       441       583      2514      2544      2571
 -1      1032    8    0    1
 -2       460       570       581      2515      2572      2539
 -1      1033    8    0    1
 -2       438       381       588      2107      2573      2574
 -1      1034    8    0    1
 -2       586       438       588      2554      2574      2575
 -1      1035    8    0    1
 -2       381       516       588      2355      2576      2573
 -1      1036    8    0    1
 -2       584       445       589      2545      2577      2578
 -1      1037    8    0    1
 -2       445       463       589      2195      2579      2577
 -1      1038    8    0    1
 -2       583       461       574      2543      2523      2580
 -1      1039    8    0    1
 -2       451       572       579      2519      2581      2535
 -1      1040    8    0    1
 -2       580       453       590      2537      2582      2583
 -1      1041    8    0    1
 -2       453       462       590      2188      2584      2582
 -1      1042    8    0    1
 -2       575       447       578      2524      2534      2585
 -1      1043    8    0    1
 -2       446       575       463      2525      2586      2193
 -1      1044    8    0    1
 -2       572       452       580      2518      2538      2587
 -1      1045    8    0    1
 -2       456       457       338      2185      2169      2588
 -1      1046    8    0    1
 -2       353       458       459      2561      2161      2589
 -1      1047    8    0    1
 -2       578       448       582      2533      2542      2590
 -1      1048    8    0    1
 -2       323       442       591      2117      2591      2592
 -1      1049    8    0    1
 -2       487       323       591      2269      2592      2593
 -1      1050    8    0    1
 -2       442       585       591      2549      2594      2591
 -1      1051    8    0    1
 -2       353       459       573      2589      2595      2520
 -1      1052    8    0    1
 -2       474       577       592      2551      2596      2597
 -1      1053    8    0    1
 -2       467       468       593      2213      2598      2599
 -1      1054    8    0    1
 -2       466       467       594      2210      2600      2601
 -1      1055    8    0    1
 -2       467       593       594      2599      2602      2600
 -1      1056    8    0    1
 -2       469       470       595      2219      2603      2604
 -1      1057    8    0    1
 -2       470       471       596      2222      2605      2606
 -1      1058    8    0    1
 -2       470       596       595      2606      2607      2603
 -1      1059    8    0    1
 -2       472       473       597      2228      2608      2609
 -1      1060    8    0    1
 -2       473       586       597      2553      2610      2608
 -1      1061    8    0    1
 -2       556       559       598      2567      2611      2612
 -1      1062    8    0    1
 -2       556       598       555      2612      2613      2476
 -1      1063    8    0    1
 -2       486       485       599      2559      2614      2615
 -1      1064    8    0    1
 -2       486       599       587      2615      2616      2566
 -1      1065    8    0    1
 -2       477       476       600      2239      2617      2618
 -1      1066    8    0    1
 -2       478       477       601      2242      2619      2620
 -1      1067    8    0    1
 -2       477       600       601      2618      2621      2619
 -1      1068    8    0    1
 -2       479       478       602      2245      2622      2623
 -1      1069    8    0    1
 -2       478       601       602      2620      2624      2622
 -1      1070    8    0    1
 -2       480       479       603      2248      2625      2626
 -1      1071    8    0    1
 -2       479       602       603      2623      2627      2625
 -1      1072    8    0    1
 -2       481       480       604      2251      2628      2629
 -1      1073    8    0    1
 -2       480       603       604      2626      2630      2628
 -1      1074    8    0    1
 -2       482       481       605      2254      2631      2632
 -1      1075    8    0    1
 -2       481       604       605      2629      2633      2631
 -1      1076    8    0    1
 -2       483       482       606      2257      2634      2635
 -1      1077    8    0    1
 -2       482       605       606      2632      2636      2634
 -1      1078    8    0    1
 -2       484       483       607      2260      2637      2638
 -1      1079    8    0    1
 -2       483       606       607      2635      2639      2637
 -1      1080    8    0    1
 -2       485       484       608      2263      2640      2641
 -1      1081    8    0    1
 -2       484       607       608      2638      2642      2640
 -1      1082    8    0    1
 -2       571       474       609      2560      2643      2644
 -1      1083    8    0    1
 -2       476       487       610      2268      2645      2646
 -1      1084    8    0    1
 -2       600       476       610      2617      2646      2647
 -1      1085    8    0    1
 -2       487       591       610      2593      2648      2645
 -1      1086    8    0    1
 -2       558       557       611      2481      2649      2650
 -1      1087    8    0    1
 -2       489       488       612      2275      2651      2652
 -1      1088    8    0    1
 -2       490       489       613      2278      2653      2654
 -1      1089    8    0    1
 -2       491       490       614      2281      2655      2656
 -1      1090    8    0    1
 -2       490       613       614      2654      2657      2655
 -1      1091    8    0    1
 -2       492       491       615      2284      2658      2659
 -1      1092    8    0    1
 -2       491       614       615      2656      2660      2658
 -1      1093    8    0    1
 -2       493       492       616      2287      2661      2662
 -1      1094    8    0    1
 -2       492       615       616      2659      2663      2661
 -1      1095    8    0    1
 -2       494       493       617      2290      2664      2665
 -1      1096    8    0    1
 -2       493       616       617      2662      2666      2664
 -1      1097    8    0    1
 -2       495       494       618      2293      2667      2668
 -1      1098    8    0    1
 -2       494       617       618      2665      2669      2667
 -1      1099    8    0    1
 -2       496       495       619      2296      2670      2671
 -1      1100    8    0    1
 -2       495       618       619      2668      2672      2670
 -1      1101    8    0    1
 -2       497       496       620      2299      2673      2674
 -1      1102    8    0    1
 -2       496       619       620      2671      2675      2673
 -1      1103    8    0    1
 -2       498       497       621      2302      2676      2677
 -1      1104    8    0    1
 -2       497       620       621      2674      2678      2676
 -1      1105    8    0    1
 -2       499       498       622      2305      2679      2680
 -1      1106    8    0    1
 -2       498       621       622      2677      2681      2679
 -1      1107    8    0    1
 -2       500       499       623      2308      2682      2683
 -1      1108    8    0    1
 -2       499       622       623      2680      2684      2682
 -1      1109    8    0    1
 -2       501       500       624      2311      2685      2686
 -1      1110    8    0    1
 -2       500       623       624      2683      2687      2685
 -1      1111    8    0    1
 -2       502       501       625      2314      2688      2689
 -1      1112    8    0    1
 -2       501       624       625      2686      2690      2688
 -1      1113    8    0    1
 -2       503       502       626      2317      2691      2692
 -1      1114    8    0    1
 -2       502       625       626      2689      2693      2691
 -1      1115    8    0    1
 -2       504       503       627      2320      2694      2695
 -1      1116    8    0    1
 -2       503       626       627      2692      2696      2694
 -1      1117    8    0    1
 -2       505       504       628      2323      2697      2698
 -1      1118    8    0    1
 -2       504       627       628      2695      2699      2697
 -1      1119    8    0    1
 -2       506       505       629      2326      2700      2701
 -1      1120    8    0    1
 -2       505       628       629      2698      2702      2700
 -1      1121    8    0    1
 -2       507       506       630      2329      2703      2704
 -1      1122    8    0    1
 -2       506       629       630      2701      2705      2703
 -1      1123    8    0    1
 -2       508       507       631      2332      2706      2707
 -1      1124    8    0    1
 -2       507       630       631      2704      2708      2706
 -1      1125    8    0    1
 -2       509       508       632      2335      2709      2710
 -1      1126    8    0    1
 -2       508       631       632      2707      2711      2709
 -1      1127    8    0    1
 -2       510       509       633      2338      2712      2713
 -1      1128    8    0    1
 -2       509       632       633      2710      2714      2712
 -1      1129    8    0    1
 -2       511       510       634      2341      2715      2716
 -1      1130    8    0    1
 -2       510       633       634      2713      2717      2715
 -1      1131    8    0    1
 -2       512       511       635      2344      2718      2719
 -1      1132    8    0    1
 -2       511       634       635      2716      2720      2718
 -1      1133    8    0    1
 -2       513       512       636      2348      2721      2722
 -1      1134    8    0    1
 -2       568       513       636      2511      2722      2723
 -1      1135    8    0    1
 -2       512       635       636      2719      2724      2721
 -1      1136    8    0    1
 -2       515       514       637      2353      2725      2726
 -1      1137    8    0    1
 -2       514       517       638      2359      2727      2728
 -1      1138    8    0    1
 -2       514       638       637      2728      2729      2725
 -1      1139    8    0    1
 -2       516       515       639      2356      2730      2731
 -1      1140    8    0    1
 -2       515       637       639      2726      2732      2730
 -1      1141    8    0    1
 -2       518       519       640      2365      2733      2734
 -1      1142    8    0    1
 -2       519       520       641      2368      2735      2736
 -1      1143    8    0    1
 -2       519       641       640      2736      2737      2733
 -1      1144    8    0    1
 -2       520       521       642      2371      2738      2739
 -1      1145    8    0    1
 -2       520       642       641      2739      2740      2735
 -1      1146    8    0    1
 -2       521       522       643      2374      2741      2742
 -1      1147    8    0    1
 -2       521       643       642      2742      2743      2738
 -1      1148    8    0    1
 -2       522       523       644      2377      2744      2745
 -1      1149    8    0    1
 -2       522       644       643      2745      2746      2741
 -1      1150    8    0    1
 -2       523       524       645      2380      2747      2748
 -1      1151    8    0    1
 -2       523       645       644      2748      2749      2744
 -1      1152    8    0    1
 -2       524       525       646      2383      2750      2751
 -1      1153    8    0    1
 -2       524       646       645      2751      2752      2747
 -1      1154    8    0    1
 -2       525       526       647      2386      2753      2754
 -1      1155    8    0    1
 -2       525       647       646      2754      2755      2750
 -1      1156    8    0    1
 -2       526       527       648      2389      2756      2757
 -1      1157    8    0    1
 -2       526       648       647      2757      2758      2753
 -1      1158    8    0    1
 -2       527       528       649      2392      2759      2760
 -1      1159    8    0    1
 -2       527       649       648      2760      2761      2756
 -1      1160    8    0    1
 -2       528       529       650      2395      2762      2763
 -1      1161    8    0    1
 -2       528       650       649      2763      2764      2759
 -1      1162    8    0    1
 -2       529       530       651      2398      2765      2766
 -1      1163    8    0    1
 -2       529       651       650      2766      2767      2762
 -1      1164    8    0    1
 -2       530       531       652      2401      2768      2769
 -1      1165    8    0    1
 -2       530       652       651      2769      2770      2765
 -1      1166    8    0    1
 -2       531       532       653      2404      2771      2772
 -1      1167    8    0    1
 -2       531       653       652      2772      2773      2768
 -1      1168    8    0    1
 -2       532       533       654      2407      2774      2775
 -1      1169    8    0    1
 -2       532       654       653      2775      2776      2771
 -1      1170    8    0    1
 -2       533       534       655      2410      2777      2778
 -1      1171    8    0    1
 -2       533       655       654      2778      2779      2774
 -1      1172    8    0    1
 -2       534       535       656      2413      2780      2781
 -1      1173    8    0    1
 -2       534       656       655      2781      2782      2777
 -1      1174    8    0    1
 -2       535       536       657      2416      2783      2784
 -1      1175    8    0    1
 -2       535       657       656      2784      2785      2780
 -1      1176    8    0    1
 -2       536       537       658      2419      2786      2787
 -1      1177    8    0    1
 -2       536       658       657      2787      2788      2783
 -1      1178    8    0    1
 -2       537       538       659      2422      2789      2790
 -1      1179    8    0    1
 -2       537       659       658      2790      2791      2786
 -1      1180    8    0    1
 -2       538       539       660      2425      2792      2793
 -1      1181    8    0    1
 -2       538       660       659      2793      2794      2789
 -1      1182    8    0    1
 -2       539       540       661      2428      2795      2796
 -1      1183    8    0    1
 -2       539       661       660      2796      2797      2792
 -1      1184    8    0    1
 -2       540       541       662      2431      2798      2799
 -1      1185    8    0    1
 -2       540       662       661      2799      2800      2795
 -1      1186    8    0    1
 -2       541       542       663      2434      2801      2802
 -1      1187    8    0    1
 -2       541       663       662      2802      2803      2798
 -1      1188    8    0    1
 -2       542       543       664      2437      2804      2805
 -1      1189    8    0    1
 -2       542       664       663      2805      2806      2801
 -1      1190    8    0    1
 -2       543       544       665      2440      2807      2808
 -1      1191    8    0    1
 -2       543       665       664      2808      2809      2804
 -1      1192    8    0    1
 -2       544       545       666      2443      2810      2811
 -1      1193    8    0    1
 -2       544       666       665      2811      2812      2807
 -1      1194    8    0    1
 -2       545       546       667      2446      2813      2814
 -1      1195    8    0    1
 -2       545       667       666      2814      2815      2810
 -1      1196    8    0    1
 -2       546       547       668      2449      2816      2817
 -1      1197    8    0    1
 -2       546       668       667      2817      2818      2813
 -1      1198    8    0    1
 -2       547       548       669      2452      2819      2820
 -1      1199    8    0    1
 -2       547       669       668      2820      2821      2816
 -1      1200    8    0    1
 -2       548       549       670      2455      2822      2823
 -1      1201    8    0    1
 -2       548       670       669      2823      2824      2819
 -1      1202    8    0    1
 -2       549       550       671      2458      2825      2826
 -1      1203    8    0    1
 -2       549       671       670      2826      2827      2822
 -1      1204    8    0    1
 -2       550       551       672      2461      2828      2829
 -1      1205    8    0    1
 -2       550       672       671      2829      2830      2825
 -1      1206    8    0    1
 -2       551       552       673      2464      2831      2832
 -1      1207    8    0    1
 -2       551       673       672      2832      2833      2828
 -1      1208    8    0    1
 -2       552       553       674      2467      2834      2835
 -1      1209    8    0    1
 -2       552       674       673      2835      2836      2831
 -1      1210    8    0    1
 -2       553       554       675      2470      2837      2838
 -1      1211    8    0    1
 -2       553       675       674      2838      2839      2834
 -1      1212    8    0    1
 -2       554       555       676      2473      2840      2841
 -1      1213    8    0    1
 -2       675       554       676      2837      2841      2842
 -1      1214    8    0    1
 -2       555       598       676      2613      2843      2840
 -1      1215    8    0    1
 -2       561       562       677      2492      2844      2845
 -1      1216    8    0    1
 -2       559       558       598      2484      2846      2611
 -1      1217    8    0    1
 -2       557       561       678      2489      2847      2848
 -1      1218    8    0    1
 -2       611       557       678      2649      2848      2849
 -1      1219    8    0    1
 -2       561       677       678      2845      2850      2847
 -1      1220    8    0    1
 -2       563       564       679      2498      2851      2852
 -1      1221    8    0    1
 -2       564       565       680      2501      2853      2854
 -1      1222    8    0    1
 -2       564       680       679      2854      2855      2851
 -1      1223    8    0    1
 -2       565       566       681      2504      2856      2857
 -1      1224    8    0    1
 -2       565       681       680      2857      2858      2853
 -1      1225    8    0    1
 -2       566       567       682      2507      2859      2860
 -1      1226    8    0    1
 -2       566       682       681      2860      2861      2856
 -1      1227    8    0    1
 -2       475       571       683      2555      2862      2863
 -1      1228    8    0    1
 -2       574       475       684      2556      2864      2865
 -1      1229    8    0    1
 -2       560       579       685      2569      2866      2867
 -1      1230    8    0    1
 -2       570       583       686      2571      2868      2869
 -1      1231    8    0    1
 -2       579       572       687      2581      2870      2871
 -1      1232    8    0    1
 -2       579       687       685      2871      2872      2866
 -1      1233    8    0    1
 -2       572       580       688      2587      2873      2874
 -1      1234    8    0    1
 -2       463       575       689      2586      2875      2876
 -1      1235    8    0    1
 -2       312       322       457      2196      2170      2150
 -1      1236    8    0    1
 -2       468       469       690      2216      2877      2878
 -1      1237    8    0    1
 -2       593       468       690      2598      2878      2879
 -1      1238    8    0    1
 -2       469       595       690      2604      2880      2877
 -1      1239    8    0    1
 -2       517       518       691      2362      2881      2882
 -1      1240    8    0    1
 -2       638       517       691      2727      2882      2883
 -1      1241    8    0    1
 -2       518       640       691      2734      2884      2881
 -1      1242    8    0    1
 -2       583       574       692      2580      2885      2886
 -1      1243    8    0    1
 -2       583       692       686      2886      2887      2868
 -1      1244    8    0    1
 -2       465       464       693      2205      2888      2889
 -1      1245    8    0    1
 -2       350       455       456      2570      2186      2890
 -1      1246    8    0    1
 -2       582       560       694      2568      2891      2892
 -1      1247    8    0    1
 -2       560       685       694      2867      2893      2891
 -1      1248    8    0    1
 -2       575       578       695      2585      2894      2895
 -1      1249    8    0    1
 -2       578       582       696      2590      2896      2897
 -1      1250    8    0    1
 -2       562       563       697      2495      2898      2899
 -1      1251    8    0    1
 -2       563       679       697      2852      2900      2898
 -1      1252    8    0    1
 -2       488       573       698      2562      2901      2902
 -1      1253    8    0    1
 -2       577       584       699      2547      2903      2904
 -1      1254    8    0    1
 -2       466       594       700      2601      2905      2906
 -1      1255    8    0    1
 -2       466       700       576      2906      2907      2529
 -1      1256    8    0    1
 -2       472       597       471      2609      2908      2225
 -1      1257    8    0    1
 -2       589       463       689      2579      2876      2909
 -1      1258    8    0    1
 -2       599       485       608      2614      2641      2910
 -1      1259    8    0    1
 -2       338       350       456      2236      2890      2588
 -1      1260    8    0    1
 -2       571       609       683      2644      2911      2862
 -1      1261    8    0    1
 -2       609       474       592      2643      2597      2912
 -1      1262    8    0    1
 -2       612       488       698      2651      2902      2913
 -1      1263    8    0    1
 -2       489       612       613      2652      2914      2653
 -1      1264    8    0    1
 -2       692       574       684      2885      2865      2915
 -1      1265    8    0    1
 -2       677       562       697      2844      2899      2916
 -1      1266    8    0    1
 -2       684       475       683      2864      2863      2917
 -1      1267    8    0    1
 -2       598       558       611      2846      2650      2918
 -1      1268    8    0    1
 -2       584       589       701      2578      2919      2920
 -1      1269    8    0    1
 -2       584       701       699      2920      2921      2903
 -1      1270    8    0    1
 -2       567       568       702      2510      2922      2923
 -1      1271    8    0    1
 -2       682       567       702      2859      2923      2924
 -1      1272    8    0    1
 -2       568       636       702      2723      2925      2922
 -1      1273    8    0    1
 -2       516       639       703      2731      2926      2927
 -1      1274    8    0    1
 -2       689       575       695      2875      2895      2928
 -1      1275    8    0    1
 -2       588       516       703      2576      2927      2929
 -1      1276    8    0    1
 -2       465       693       704      2889      2930      2931
 -1      1277    8    0    1
 -2       465       704       585      2931      2932      2550
 -1      1278    8    0    1
 -2       590       462       587      2584      2565      2933
 -1      1279    8    0    1
 -2       570       686       698      2869      2934      2935
 -1      1280    8    0    1
 -2       471       597       596      2908      2936      2605
 -1      1281    8    0    1
 -2       688       580       705      2873      2937      2938
 -1      1282    8    0    1
 -2       580       590       705      2583      2939      2937
 -1      1283    8    0    1
 -2       464       576       706      2528      2940      2941
 -1      1284    8    0    1
 -2       693       464       706      2888      2941      2942
 -1      1285    8    0    1
 -2       576       700       706      2907      2943      2940
 -1      1286    8    0    1
 -2       696       582       694      2896      2892      2944
 -1      1287    8    0    1
 -2       695       578       696      2894      2897      2945
 -1      1288    8    0    1
 -2       577       699       592      2904      2946      2596
 -1      1289    8    0    1
 -2       581       570       698      2572      2935      2947
 -1      1290    8    0    1
 -2       595       596       707      2607      2948      2949
 -1      1291    8    0    1
 -2       597       586       588      2610      2575      2950
 -1      1292    8    0    1
 -2       589       689       708      2909      2951      2952
 -1      1293    8    0    1
 -2       589       708       701      2952      2953      2919
 -1      1294    8    0    1
 -2       680       681       709      2858      2954      2955
 -1      1295    8    0    1
 -2       602       601       710      2624      2956      2957
 -1      1296    8    0    1
 -2       603       602       711      2627      2958      2959
 -1      1297    8    0    1
 -2       602       710       711      2957      2960      2958
 -1      1298    8    0    1
 -2       604       603       712      2630      2961      2962
 -1      1299    8    0    1
 -2       603       711       712      2959      2963      2961
 -1      1300    8    0    1
 -2       605       604       713      2633      2964      2965
 -1      1301    8    0    1
 -2       604       712       713      2962      2966      2964
 -1      1302    8    0    1
 -2       606       605       714      2636      2967      2968
 -1      1303    8    0    1
 -2       605       713       714      2965      2969      2967
 -1      1304    8    0    1
 -2       607       606       715      2639      2970      2971
 -1      1305    8    0    1
 -2       606       714       715      2968      2972      2970
 -1      1306    8    0    1
 -2       608       607       716      2642      2973      2974
 -1      1307    8    0    1
 -2       607       715       716      2971      2975      2973
 -1      1308    8    0    1
 -2       686       692       717      2887      2976      2977
 -1      1309    8    0    1
 -2       615       614       718      2660      2978      2979
 -1      1310    8    0    1
 -2       616       615       719      2663      2980      2981
 -1      1311    8    0    1
 -2       615       718       719      2979      2982      2980
 -1      1312    8    0    1
 -2       617       616       720      2666      2983      2984
 -1      1313    8    0    1
 -2       616       719       720      2981      2985      2983
 -1      1314    8    0    1
 -2       618       617       721      2669      2986      2987
 -1      1315    8    0    1
 -2       617       720       721      2984      2988      2986
 -1      1316    8    0    1
 -2       619       618       722      2672      2989      2990
 -1      1317    8    0    1
 -2       618       721       722      2987      2991      2989
 -1      1318    8    0    1
 -2       620       619       723      2675      2992      2993
 -1      1319    8    0    1
 -2       619       722       723      2990      2994      2992
 -1      1320    8    0    1
 -2       621       620       724      2678      2995      2996
 -1      1321    8    0    1
 -2       620       723       724      2993      2997      2995
 -1      1322    8    0    1
 -2       622       621       725      2681      2998      2999
 -1      1323    8    0    1
 -2       621       724       725      2996      3000      2998
 -1      1324    8    0    1
 -2       623       622       726      2684      3001      3002
 -1      1325    8    0    1
 -2       622       725       726      2999      3003      3001
 -1      1326    8    0    1
 -2       624       623       727      2687      3004      3005
 -1      1327    8    0    1
 -2       623       726       727      3002      3006      3004
 -1      1328    8    0    1
 -2       625       624       728      2690      3007      3008
 -1      1329    8    0    1
 -2       624       727       728      3005      3009      3007
 -1      1330    8    0    1
 -2       626       625       729      2693      3010      3011
 -1      1331    8    0    1
 -2       625       728       729      3008      3012      3010
 -1      1332    8    0    1
 -2       627       626       730      2696      3013      3014
 -1      1333    8    0    1
 -2       626       729       730      3011      3015      3013
 -1      1334    8    0    1
 -2       628       627       731      2699      3016      3017
 -1      1335    8    0    1
 -2       627       730       731      3014      3018      3016
 -1      1336    8    0    1
 -2       629       628       732      2702      3019      3020
 -1      1337    8    0    1
 -2       628       731       732      3017      3021      3019
 -1      1338    8    0    1
 -2       630       629       733      2705      3022      3023
 -1      1339    8    0    1
 -2       629       732       733      3020      3024      3022
 -1      1340    8    0    1
 -2       631       630       734      2708      3025      3026
 -1      1341    8    0    1
 -2       630       733       734      3023      3027      3025
 -1      1342    8    0    1
 -2       632       631       735      2711      3028      3029
 -1      1343    8    0    1
 -2       631       734       735      3026      3030      3028
 -1      1344    8    0    1
 -2       633       632       736      2714      3031      3032
 -1      1345    8    0    1
 -2       632       735       736      3029      3033      3031
 -1      1346    8    0    1
 -2       634       633       737      2717      3034      3035
 -1      1347    8    0    1
 -2       633       736       737      3032      3036      3034
 -1      1348    8    0    1
 -2       635       634       738      2720      3037      3038
 -1      1349    8    0    1
 -2       634       737       738      3035      3039      3037
 -1      1350    8    0    1
 -2       637       638       739      2729      3040      3041
 -1      1351    8    0    1
 -2       639       637       740      2732      3042      3043
 -1      1352    8    0    1
 -2       637       739       740      3041      3044      3042
 -1      1353    8    0    1
 -2       641       642       741      2740      3045      3046
 -1      1354    8    0    1
 -2       640       641       742      2737      3047      3048
 -1      1355    8    0    1
 -2       641       741       742      3046      3049      3047
 -1      1356    8    0    1
 -2       643       644       743      2746      3050      3051
 -1      1357    8    0    1
 -2       644       645       744      2749      3052      3053
 -1      1358    8    0    1
 -2       644       744       743      3053      3054      3050
 -1      1359    8    0    1
 -2       645       646       745      2752      3055      3056
 -1      1360    8    0    1
 -2       645       745       744      3056      3057      3052
 -1      1361    8    0    1
 -2       646       647       746      2755      3058      3059
 -1      1362    8    0    1
 -2       646       746       745      3059      3060      3055
 -1      1363    8    0    1
 -2       647       648       747      2758      3061      3062
 -1      1364    8    0    1
 -2       647       747       746      3062      3063      3058
 -1      1365    8    0    1
 -2       648       649       748      2761      3064      3065
 -1      1366    8    0    1
 -2       648       748       747      3065      3066      3061
 -1      1367    8    0    1
 -2       649       650       749      2764      3067      3068
 -1      1368    8    0    1
 -2       649       749       748      3068      3069      3064
 -1      1369    8    0    1
 -2       650       651       750      2767      3070      3071
 -1      1370    8    0    1
 -2       650       750       749      3071      3072      3067
 -1      1371    8    0    1
 -2       651       652       751      2770      3073      3074
 -1      1372    8    0    1
 -2       651       751       750      3074      3075      3070
 -1      1373    8    0    1
 -2       652       653       752      2773      3076      3077
 -1      1374    8    0    1
 -2       652       752       751      3077      3078      3073
 -1      1375    8    0    1
 -2       653       654       753      2776      3079      3080
 -1      1376    8    0    1
 -2       653       753       752      3080      3081      3076
 -1      1377    8    0    1
 -2       654       655       754      2779      3082      3083
 -1      1378    8    0    1
 -2       654       754       753      3083      3084      3079
 -1      1379    8    0    1
 -2       655       656       755      2782      3085      3086
 -1      1380    8    0    1
 -2       655       755       754      3086      3087      3082
 -1      1381    8    0    1
 -2       656       657       756      2785      3088      3089
 -1      1382    8    0    1
 -2       656       756       755      3089      3090      3085
 -1      1383    8    0    1
 -2       657       658       757      2788      3091      3092
 -1      1384    8    0    1
 -2       657       757       756      3092      3093      3088
 -1      1385    8    0    1
 -2       658       659       758      2791      3094      3095
 -1      1386    8    0    1
 -2       658       758       757      3095      3096      3091
 -1      1387    8    0    1
 -2       659       660       759      2794      3097      3098
 -1      1388    8    0    1
 -2       659       759       758      3098      3099      3094
 -1      1389    8    0    1
 -2       660       661       760      2797      3100      3101
 -1      1390    8    0    1
 -2       660       760       759      3101      3102      3097
 -1      1391    8    0    1
 -2       661       662       761      2800      3103      3104
 -1      1392    8    0    1
 -2       661       761       760      3104      3105      3100
 -1      1393    8    0    1
 -2       662       663       762      2803      3106      3107
 -1      1394    8    0    1
 -2       662       762       761      3107      3108      3103
 -1      1395    8    0    1
 -2       663       664       763      2806      3109      3110
 -1      1396    8    0    1
 -2       663       763       762      3110      3111      3106
 -1      1397    8    0    1
 -2       664       665       764      2809      3112      3113
 -1      1398    8    0    1
 -2       664       764       763      3113      3114      3109
 -1      1399    8    0    1
 -2       665       666       765      2812      3115      3116
 -1      1400    8    0    1
 -2       665       765       764      3116      3117      3112
 -1      1401    8    0    1
 -2       666       667       766      2815      3118      3119
 -1      1402    8    0    1
 -2       666       766       765      3119      3120      3115
 -1      1403    8    0    1
 -2       667       668       767      2818      3121      3122
 -1      1404    8    0    1
 -2       667       767       766      3122      3123      3118
 -1      1405    8    0    1
 -2       668       669       768      2821      3124      3125
 -1      1406    8    0    1
 -2       668       768       767      3125      3126      3121
 -1      1407    8    0    1
 -2       669       670       769      2824      3127      3128
 -1      1408    8    0    1
 -2       669       769       768      3128      3129      3124
 -1      1409    8    0    1
 -2       670       671       770      2827      3130      3131
 -1      1410    8    0    1
 -2       670       770       769      3131      3132      3127
 -1      1411    8    0    1
 -2       671       672       771      2830      3133      3134
 -1      1412    8    0    1
 -2       671       771       770      3134      3135      3130
 -1      1413    8    0    1
 -2       672       673       772      2833      3136      3137
 -1      1414    8    0    1
 -2       672       772       771      3137      3138      3133
 -1      1415    8    0    1
 -2       673       674       773      2836      3139      3140
 -1      1416    8    0    1
 -2       673       773       772      3140      3141      3136
 -1      1417    8    0    1
 -2       674       675       774      2839      3142      3143
 -1      1418    8    0    1
 -2       674       774       773      3143      3144      3139
 -1      1419    8    0    1
 -2       587       599       590      2616      3145      2933
 -1      1420    8    0    1
 -2       613       612       775      2914      3146      3147
 -1      1421    8    0    1
 -2       681       682       776      2861      3148      3149
 -1      1422    8    0    1
 -2       681       776       709      3149      3150      2954
 -1      1423    8    0    1
 -2       679       680       777      2855      3151      3152
 -1      1424    8    0    1
 -2       680       709       777      2955      3153      3151
 -1      1425    8    0    1
 -2       598       611       778      2918      3154      3155
 -1      1426    8    0    1
 -2       598       778       676      3155      3156      2843
 -1      1427    8    0    1
 -2       609       592       779      2912      3157      3158
 -1      1428    8    0    1
 -2       689       695       780      2928      3159      3160
 -1      1429    8    0    1
 -2       677       697       781      2916      3161      3162
 -1      1430    8    0    1
 -2       687       572       782      2870      3163      3164
 -1      1431    8    0    1
 -2       572       688       782      2874      3165      3163
 -1      1432    8    0    1
 -2       588       703       597      2929      3166      2950
 -1      1433    8    0    1
 -2       698       686       612      2934      3167      2913
 -1      1434    8    0    1
 -2       596       597       703      2936      3166      3168
 -1      1435    8    0    1
 -2       642       643       783      2743      3169      3170
 -1      1436    8    0    1
 -2       741       642       783      3045      3170      3171
 -1      1437    8    0    1
 -2       643       743       783      3051      3172      3169
 -1      1438    8    0    1
 -2       614       613       784      2657      3173      3174
 -1      1439    8    0    1
 -2       614       784       718      3174      3175      2978
 -1      1440    8    0    1
 -2       685       687       785      2872      3176      3177
 -1      1441    8    0    1
 -2       692       684       786      2915      3178      3179
 -1      1442    8    0    1
 -2       599       608       705      2910      3180      3181
 -1      1443    8    0    1
 -2       573       459       581      2595      2540      3182
 -1      1444    8    0    1
 -2       596       703       707      3168      3183      2948
 -1      1445    8    0    1
 -2       697       679       787      2900      3184      3185
 -1      1446    8    0    1
 -2       781       697       787      3161      3185      3186
 -1      1447    8    0    1
 -2       679       777       787      3152      3187      3184
 -1      1448    8    0    1
 -2       601       600       788      2621      3188      3189
 -1      1449    8    0    1
 -2       601       788       710      3189      3190      2956
 -1      1450    8    0    1
 -2       694       685       789      2893      3191      3192
 -1      1451    8    0    1
 -2       685       785       789      3177      3193      3191
 -1      1452    8    0    1
 -2       683       609       790      2911      3194      3195
 -1      1453    8    0    1
 -2       591       585       791      2594      3196      3197
 -1      1454    8    0    1
 -2       610       591       791      2648      3197      3198
 -1      1455    8    0    1
 -2       585       704       791      2932      3199      3196
 -1      1456    8    0    1
 -2       592       699       792      2946      3200      3201
 -1      1457    8    0    1
 -2       695       696       793      2945      3202      3203
 -1      1458    8    0    1
 -2       594       593       794      2602      3204      3205
 -1      1459    8    0    1
 -2       684       683       795      2917      3206      3207
 -1      1460    8    0    1
 -2       698       573       581      2901      3182      2947
 -1      1461    8    0    1
 -2       696       694       796      2944      3208      3209
 -1      1462    8    0    1
 -2       612       686       775      3167      3210      3146
 -1      1463    8    0    1
 -2       590       599       705      3145      3181      2939
 -1      1464    8    0    1
 -2       687       782       797      3164      3211      3212
 -1      1465    8    0    1
 -2       638       691       798      2883      3213      3214
 -1      1466    8    0    1
 -2       638       798       739      3214      3215      3040
 -1      1467    8    0    1
 -2       708       689       780      2951      3160      3216
 -1      1468    8    0    1
 -2       611       678       799      2849      3217      3218
 -1      1469    8    0    1
 -2       611       799       778      3218      3219      3154
 -1      1470    8    0    1
 -2       608       716       705      2974      3220      3180
 -1      1471    8    0    1
 -2       717       692       786      2976      3179      3221
 -1      1472    8    0    1
 -2       600       610       791      2647      3198      3222
 -1      1473    8    0    1
 -2       592       792       779      3201      3223      3157
 -1      1474    8    0    1
 -2       636       635       702      2724      3224      2925
 -1      1475    8    0    1
 -2       784       613       775      3173      3147      3225
 -1      1476    8    0    1
 -2       640       742       800      3048      3226      3227
 -1      1477    8    0    1
 -2       640       800       691      3227      3228      2884
 -1      1478    8    0    1
 -2       776       682       738      3148      3229      3230
 -1      1479    8    0    1
 -2       675       676       801      2842      3231      3232
 -1      1480    8    0    1
 -2       774       675       801      3142      3232      3233
 -1      1481    8    0    1
 -2       676       778       801      3156      3234      3231
 -1      1482    8    0    1
 -2       609       779       790      3158      3235      3194
 -1      1483    8    0    1
 -2       788       600       791      3188      3222      3236
 -1      1484    8    0    1
 -2       678       677       802      2850      3237      3238
 -1      1485    8    0    1
 -2       799       678       802      3217      3238      3239
 -1      1486    8    0    1
 -2       677       781       802      3162      3240      3237
 -1      1487    8    0    1
 -2       703       639       803      2926      3241      3242
 -1      1488    8    0    1
 -2       780       695       804      3159      3243      3244
 -1      1489    8    0    1
 -2       695       793       804      3203      3245      3243
 -1      1490    8    0    1
 -2       703       803       707      3242      3246      3183
 -1      1491    8    0    1
 -2       704       693       805      2930      3247      3248
 -1      1492    8    0    1
 -2       782       688       806      3165      3249      3250
 -1      1493    8    0    1
 -2       795       683       807      3206      3251      3252
 -1      1494    8    0    1
 -2       683       790       807      3195      3253      3251
 -1      1495    8    0    1
 -2       593       690       808      2879      3254      3255
 -1      1496    8    0    1
 -2       593       808       794      3255      3256      3204
 -1      1497    8    0    1
 -2       786       684       795      3178      3207      3257
 -1      1498    8    0    1
 -2       687       797       785      3212      3258      3176
 -1      1499    8    0    1
 -2       595       707       809      2949      3259      3260
 -1      1500    8    0    1
 -2       595       809       690      3260      3261      2880
 -1      1501    8    0    1
 -2       797       782       806      3211      3250      3262
 -1      1502    8    0    1
 -2       796       694       789      3208      3192      3263
 -1      1503    8    0    1
 -2       693       706       810      2942      3264      3265
 -1      1504    8    0    1
 -2       693       810       805      3265      3266      3247
 -1      1505    8    0    1
 -2       792       699       811      3200      3267      3268
 -1      1506    8    0    1
 -2       699       701       811      2921      3269      3267
 -1      1507    8    0    1
 -2       700       594       812      2905      3270      3271
 -1      1508    8    0    1
 -2       594       794       812      3205      3272      3270
 -1      1509    8    0    1
 -2       682       702       738      2924      3273      3229
 -1      1510    8    0    1
 -2       793       696       813      3202      3274      3275
 -1      1511    8    0    1
 -2       696       796       813      3209      3276      3274
 -1      1512    8    0    1
 -2       688       705       806      2938      3277      3249
 -1      1513    8    0    1
 -2       803       639       740      3241      3043      3278
 -1      1514    8    0    1
 -2       710       788       814      3190      3279      3280
 -1      1515    8    0    1
 -2       712       711       815      2963      3281      3282
 -1      1516    8    0    1
 -2       713       712       816      2966      3283      3284
 -1      1517    8    0    1
 -2       712       815       816      3282      3285      3283
 -1      1518    8    0    1
 -2       714       713       817      2969      3286      3287
 -1      1519    8    0    1
 -2       713       816       817      3284      3288      3286
 -1      1520    8    0    1
 -2       715       714       818      2972      3289      3290
 -1      1521    8    0    1
 -2       714       817       818      3287      3291      3289
 -1      1522    8    0    1
 -2       716       715       819      2975      3292      3293
 -1      1523    8    0    1
 -2       715       818       819      3290      3294      3292
 -1      1524    8    0    1
 -2       635       738       702      3038      3273      3224
 -1      1525    8    0    1
 -2       718       784       820      3175      3295      3296
 -1      1526    8    0    1
 -2       720       719       821      2985      3297      3298
 -1      1527    8    0    1
 -2       721       720       822      2988      3299      3300
 -1      1528    8    0    1
 -2       720       821       822      3298      3301      3299
 -1      1529    8    0    1
 -2       722       721       823      2991      3302      3303
 -1      1530    8    0    1
 -2       721       822       823      3300      3304      3302
 -1      1531    8    0    1
 -2       723       722       824      2994      3305      3306
 -1      1532    8    0    1
 -2       722       823       824      3303      3307      3305
 -1      1533    8    0    1
 -2       724       723       825      2997      3308      3309
 -1      1534    8    0    1
 -2       723       824       825      3306      3310      3308
 -1      1535    8    0    1
 -2       725       724       826      3000      3311      3312
 -1      1536    8    0    1
 -2       724       825       826      3309      3313      3311
 -1      1537    8    0    1
 -2       726       725       827      3003      3314      3315
 -1      1538    8    0    1
 -2       725       826       827      3312      3316      3314
 -1      1539    8    0    1
 -2       727       726       828      3006      3317      3318
 -1      1540    8    0    1
 -2       726       827       828      3315      3319      3317
 -1      1541    8    0    1
 -2       728       727       829      3009      3320      3321
 -1      1542    8    0    1
 -2       727       828       829      3318      3322      3320
 -1      1543    8    0    1
 -2       729       728       830      3012      3323      3324
 -1      1544    8    0    1
 -2       728       829       830      3321      3325      3323
 -1      1545    8    0    1
 -2       730       729       831      3015      3326      3327
 -1      1546    8    0    1
 -2       729       830       831      3324      3328      3326
 -1      1547    8    0    1
 -2       731       730       832      3018      3329      3330
 -1      1548    8    0    1
 -2       730       831       832      3327      3331      3329
 -1      1549    8    0    1
 -2       732       731       833      3021      3332      3333
 -1      1550    8    0    1
 -2       731       832       833      3330      3334      3332
 -1      1551    8    0    1
 -2       733       732       834      3024      3335      3336
 -1      1552    8    0    1
 -2       732       833       834      3333      3337      3335
 -1      1553    8    0    1
 -2       734       733       835      3027      3338      3339
 -1      1554    8    0    1
 -2       733       834       835      3336      3340      3338
 -1      1555    8    0    1
 -2       735       734       836      3030      3341      3342
 -1      1556    8    0    1
 -2       734       835       836      3339      3343      3341
 -1      1557    8    0    1
 -2       736       735       837      3033      3344      3345
 -1      1558    8    0    1
 -2       735       836       837      3342      3346      3344
 -1      1559    8    0    1
 -2       737       736       838      3036      3347      3348
 -1      1560    8    0    1
 -2       736       837       838      3345      3349      3347
 -1      1561    8    0    1
 -2       738       737       839      3039      3350      3351
 -1      1562    8    0    1
 -2       776       738       839      3230      3351      3352
 -1      1563    8    0    1
 -2       737       838       839      3348      3353      3350
 -1      1564    8    0    1
 -2       708       780       840      3216      3354      3355
 -1      1565    8    0    1
 -2       744       745       841      3057      3356      3357
 -1      1566    8    0    1
 -2       743       744       842      3054      3358      3359
 -1      1567    8    0    1
 -2       744       841       842      3357      3360      3358
 -1      1568    8    0    1
 -2       746       747       843      3063      3361      3362
 -1      1569    8    0    1
 -2       747       748       844      3066      3363      3364
 -1      1570    8    0    1
 -2       747       844       843      3364      3365      3361
 -1      1571    8    0    1
 -2       748       749       845      3069      3366      3367
 -1      1572    8    0    1
 -2       748       845       844      3367      3368      3363
 -1      1573    8    0    1
 -2       749       750       846      3072      3369      3370
 -1      1574    8    0    1
 -2       749       846       845      3370      3371      3366
 -1      1575    8    0    1
 -2       750       751       847      3075      3372      3373
 -1      1576    8    0    1
 -2       750       847       846      3373      3374      3369
 -1      1577    8    0    1
 -2       751       752       848      3078      3375      3376
 -1      1578    8    0    1
 -2       751       848       847      3376      3377      3372
 -1      1579    8    0    1
 -2       752       753       849      3081      3378      3379
 -1      1580    8    0    1
 -2       752       849       848      3379      3380      3375
 -1      1581    8    0    1
 -2       753       754       850      3084      3381      3382
 -1      1582    8    0    1
 -2       753       850       849      3382      3383      3378
 -1      1583    8    0    1
 -2       754       755       851      3087      3384      3385
 -1      1584    8    0    1
 -2       754       851       850      3385      3386      3381
 -1      1585    8    0    1
 -2       755       756       852      3090      3387      3388
 -1      1586    8    0    1
 -2       755       852       851      3388      3389      3384
 -1      1587    8    0    1
 -2       756       757       853      3093      3390      3391
 -1      1588    8    0    1
 -2       756       853       852      3391      3392      3387
 -1      1589    8    0    1
 -2       757       758       854      3096      3393      3394
 -1      1590    8    0    1
 -2       757       854       853      3394      3395      3390
 -1      1591    8    0    1
 -2       758       759       855      3099      3396      3397
 -1      1592    8    0    1
 -2       758       855       854      3397      3398      3393
 -1      1593    8    0    1
 -2       759       760       856      3102      3399      3400
 -1      1594    8    0    1
 -2       759       856       855      3400      3401      3396
 -1      1595    8    0    1
 -2       760       761       857      3105      3402      3403
 -1      1596    8    0    1
 -2       760       857       856      3403      3404      3399
 -1      1597    8    0    1
 -2       761       762       858      3108      3405      3406
 -1      1598    8    0    1
 -2       761       858       857      3406      3407      3402
 -1      1599    8    0    1
 -2       762       763       859      3111      3408      3409
 -1      1600    8    0    1
 -2       762       859       858      3409      3410      3405
 -1      1601    8    0    1
 -2       763       764       860      3114      3411      3412
 -1      1602    8    0    1
 -2       763       860       859      3412      3413      3408
 -1      1603    8    0    1
 -2       764       765       861      3117      3414      3415
 -1      1604    8    0    1
 -2       764       861       860      3415      3416      3411
 -1      1605    8    0    1
 -2       765       766       862      3120      3417      3418
 -1      1606    8    0    1
 -2       765       862       861      3418      3419      3414
 -1      1607    8    0    1
 -2       766       767       863      3123      3420      3421
 -1      1608    8    0    1
 -2       766       863       862      3421      3422      3417
 -1      1609    8    0    1
 -2       767       768       864      3126      3423      3424
 -1      1610    8    0    1
 -2       767       864       863      3424      3425      3420
 -1      1611    8    0    1
 -2       768       769       865      3129      3426      3427
 -1      1612    8    0    1
 -2       768       865       864      3427      3428      3423
 -1      1613    8    0    1
 -2       769       770       866      3132      3429      3430
 -1      1614    8    0    1
 -2       769       866       865      3430      3431      3426
 -1      1615    8    0    1
 -2       770       771       867      3135      3432      3433
 -1      1616    8    0    1
 -2       770       867       866      3433      3434      3429
 -1      1617    8    0    1
 -2       771       772       868      3138      3435      3436
 -1      1618    8    0    1
 -2       771       868       867      3436      3437      3432
 -1      1619    8    0    1
 -2       772       773       869      3141      3438      3439
 -1      1620    8    0    1
 -2       772       869       868      3439      3440      3435
 -1      1621    8    0    1
 -2       773       774       870      3144      3441      3442
 -1      1622    8    0    1
 -2       773       870       869      3442      3443      3438
 -1      1623    8    0    1
 -2       709       776       871      3150      3444      3445
 -1      1624    8    0    1
 -2       776       839       871      3352      3446      3444
 -1      1625    8    0    1
 -2       790       779       872      3235      3447      3448
 -1      1626    8    0    1
 -2       784       775       873      3225      3449      3450
 -1      1627    8    0    1
 -2       777       709       874      3153      3451      3452
 -1      1628    8    0    1
 -2       709       871       874      3445      3453      3451
 -1      1629    8    0    1
 -2       803       740       875      3278      3454      3455
 -1      1630    8    0    1
 -2       745       746       876      3060      3456      3457
 -1      1631    8    0    1
 -2       841       745       876      3356      3457      3458
 -1      1632    8    0    1
 -2       746       843       876      3362      3459      3456
 -1      1633    8    0    1
 -2       796       789       877      3263      3460      3461
 -1      1634    8    0    1
 -2       742       741       878      3049      3462      3463
 -1      1635    8    0    1
 -2       701       708       879      2953      3464      3465
 -1      1636    8    0    1
 -2       706       700       880      2943      3466      3467
 -1      1637    8    0    1
 -2       706       880       810      3467      3468      3264
 -1      1638    8    0    1
 -2       740       739       881      3044      3469      3470
 -1      1639    8    0    1
 -2       740       881       875      3470      3471      3454
 -1      1640    8    0    1
 -2       786       795       882      3257      3472      3473
 -1      1641    8    0    1
 -2       791       704       788      3199      3474      3236
 -1      1642    8    0    1
 -2       719       718       883      2982      3475      3476
 -1      1643    8    0    1
 -2       718       820       883      3296      3477      3475
 -1      1644    8    0    1
 -2       789       785       884      3193      3478      3479
 -1      1645    8    0    1
 -2       789       884       877      3479      3480      3460
 -1      1646    8    0    1
 -2       779       792       885      3223      3481      3482
 -1      1647    8    0    1
 -2       711       710       886      2960      3483      3484
 -1      1648    8    0    1
 -2       710       814       886      3280      3485      3483
 -1      1649    8    0    1
 -2       707       803       887      3246      3486      3487
 -1      1650    8    0    1
 -2       809       707       887      3259      3487      3488
 -1      1651    8    0    1
 -2       803       875       887      3455      3489      3486
 -1      1652    8    0    1
 -2       797       806       888      3262      3490      3491
 -1      1653    8    0    1
 -2       785       797       889      3258      3492      3493
 -1      1654    8    0    1
 -2       797       888       889      3491      3494      3492
 -1      1655    8    0    1
 -2       814       788       805      3279      3495      3496
 -1      1656    8    0    1
 -2       716       819       888      3293      3497      3498
 -1      1657    8    0    1
 -2       686       717       775      2977      3499      3210
 -1      1658    8    0    1
 -2       821       719       883      3297      3476      3500
 -1      1659    8    0    1
 -2       790       872       890      3448      3501      3502
 -1      1660    8    0    1
 -2       790       890       807      3502      3503      3253
 -1      1661    8    0    1
 -2       708       840       879      3355      3504      3464
 -1      1662    8    0    1
 -2       779       885       872      3482      3505      3447
 -1      1663    8    0    1
 -2       796       877       891      3461      3506      3507
 -1      1664    8    0    1
 -2       796       891       813      3507      3508      3276
 -1      1665    8    0    1
 -2       801       778       892      3234      3509      3510
 -1      1666    8    0    1
 -2       778       799       892      3219      3511      3509
 -1      1667    8    0    1
 -2       800       742       893      3226      3512      3513
 -1      1668    8    0    1
 -2       742       878       893      3463      3514      3512
 -1      1669    8    0    1
 -2       793       813       894      3275      3515      3516
 -1      1670    8    0    1
 -2       793       894       804      3516      3517      3245
 -1      1671    8    0    1
 -2       743       842       895      3359      3518      3519
 -1      1672    8    0    1
 -2       743       895       783      3519      3520      3172
 -1      1673    8    0    1
 -2       814       805       896      3496      3521      3522
 -1      1674    8    0    1
 -2       805       810       896      3266      3523      3521
 -1      1675    8    0    1
 -2       870       774       801      3441      3233      3524
 -1      1676    8    0    1
 -2       798       691       800      3213      3228      3525
 -1      1677    8    0    1
 -2       880       700       812      3466      3271      3526
 -1      1678    8    0    1
 -2       741       783       897      3171      3527      3528
 -1      1679    8    0    1
 -2       878       741       897      3462      3528      3529
 -1      1680    8    0    1
 -2       783       895       897      3520      3530      3527
 -1      1681    8    0    1
 -2       802       781       898      3240      3531      3532
 -1      1682    8    0    1
 -2       784       873       820      3450      3533      3295
 -1      1683    8    0    1
 -2       777       874       899      3452      3534      3535
 -1      1684    8    0    1
 -2       777       899       787      3535      3536      3187
 -1      1685    8    0    1
 -2       786       882       900      3473      3537      3538
 -1      1686    8    0    1
 -2       780       804       901      3244      3539      3540
 -1      1687    8    0    1
 -2       780       901       840      3540      3541      3354
 -1      1688    8    0    1
 -2       792       811       902      3268      3542      3543
 -1      1689    8    0    1
 -2       792       902       885      3543      3544      3481
 -1      1690    8    0    1
 -2       739       798       903      3215      3545      3546
 -1      1691    8    0    1
 -2       739       903       881      3546      3547      3469
 -1      1692    8    0    1
 -2       795       807       904      3252      3548      3549
 -1      1693    8    0    1
 -2       795       904       882      3549      3550      3472
 -1      1694    8    0    1
 -2       701       879       811      3465      3551      3269
 -1      1695    8    0    1
 -2       808       690       809      3254      3261      3552
 -1      1696    8    0    1
 -2       717       786       905      3221      3553      3554
 -1      1697    8    0    1
 -2       788       704       805      3474      3248      3495
 -1      1698    8    0    1
 -2       786       900       905      3538      3555      3553
 -1      1699    8    0    1
 -2       812       794       906      3272      3556      3557
 -1      1700    8    0    1
 -2       794       808       907      3256      3558      3559
 -1      1701    8    0    1
 -2       794       907       906      3559      3560      3556
 -1      1702    8    0    1
 -2       884       785       889      3478      3493      3561
 -1      1703    8    0    1
 -2       711       886       815      3484      3562      3281
 -1      1704    8    0    1
 -2       781       787       908      3186      3563      3564
 -1      1705    8    0    1
 -2       898       781       908      3531      3564      3565
 -1      1706    8    0    1
 -2       787       899       908      3536      3566      3563
 -1      1707    8    0    1
 -2       775       717       905      3499      3554      3567
 -1      1708    8    0    1
 -2       775       905       873      3567      3568      3449
 -1      1709    8    0    1
 -2       716       888       806      3498      3490      3569
 -1      1710    8    0    1
 -2       822       821       909      3301      3570      3571
 -1      1711    8    0    1
 -2       817       816       910      3288      3572      3573
 -1      1712    8    0    1
 -2       818       817       911      3291      3574      3575
 -1      1713    8    0    1
 -2       817       910       911      3573      3576      3574
 -1      1714    8    0    1
 -2       819       818       912      3294      3577      3578
 -1      1715    8    0    1
 -2       818       911       912      3575      3579      3577
 -1      1716    8    0    1
 -2       842       841       913      3360      3580      3581
 -1      1717    8    0    1
 -2       888       819       914      3497      3582      3583
 -1      1718    8    0    1
 -2       889       888       914      3494      3583      3584
 -1      1719    8    0    1
 -2       819       912       914      3578      3585      3582
 -1      1720    8    0    1
 -2       823       822       915      3304      3586      3587
 -1      1721    8    0    1
 -2       822       909       915      3571      3588      3586
 -1      1722    8    0    1
 -2       824       823       916      3307      3589      3590
 -1      1723    8    0    1
 -2       823       915       916      3587      3591      3589
 -1      1724    8    0    1
 -2       825       824       917      3310      3592      3593
 -1      1725    8    0    1
 -2       824       916       917      3590      3594      3592
 -1      1726    8    0    1
 -2       826       825       918      3313      3595      3596
 -1      1727    8    0    1
 -2       825       917       918      3593      3597      3595
 -1      1728    8    0    1
 -2       827       826       919      3316      3598      3599
 -1      1729    8    0    1
 -2       826       918       919      3596      3600      3598
 -1      1730    8    0    1
 -2       828       827       920      3319      3601      3602
 -1      1731    8    0    1
 -2       827       919       920      3599      3603      3601
 -1      1732    8    0    1
 -2       829       828       921      3322      3604      3605
 -1      1733    8    0    1
 -2       828       920       921      3602      3606      3604
 -1      1734    8    0    1
 -2       830       829       922      3325      3607      3608
 -1      1735    8    0    1
 -2       829       921       922      3605      3609      3607
 -1      1736    8    0    1
 -2       831       830       923      3328      3610      3611
 -1      1737    8    0    1
 -2       830       922       923      3608      3612      3610
 -1      1738    8    0    1
 -2       832       831       924      3331      3613      3614
 -1      1739    8    0    1
 -2       831       923       924      3611      3615      3613
 -1      1740    8    0    1
 -2       833       832       925      3334      3616      3617
 -1      1741    8    0    1
 -2       832       924       925      3614      3618      3616
 -1      1742    8    0    1
 -2       834       833       926      3337      3619      3620
 -1      1743    8    0    1
 -2       833       925       926      3617      3621      3619
 -1      1744    8    0    1
 -2       835       834       927      3340      3622      3623
 -1      1745    8    0    1
 -2       834       926       927      3620      3624      3622
 -1      1746    8    0    1
 -2       836       835       928      3343      3625      3626
 -1      1747    8    0    1
 -2       835       927       928      3623      3627      3625
 -1      1748    8    0    1
 -2       837       836       929      3346      3628      3629
 -1      1749    8    0    1
 -2       836       928       929      3626      3630      3628
 -1      1750    8    0    1
 -2       838       837       930      3349      3631      3632
 -1      1751    8    0    1
 -2       837       929       930      3629      3633      3631
 -1      1752    8    0    1
 -2       839       838       931      3353      3634      3635
 -1      1753    8    0    1
 -2       871       839       931      3446      3635      3636
 -1      1754    8    0    1
 -2       838       930       931      3632      3637      3634
 -1      1755    8    0    1
 -2       844       845       932      3368      3638      3639
 -1      1756    8    0    1
 -2       843       844       933      3365      3640      3641
 -1      1757    8    0    1
 -2       844       932       933      3639      3642      3640
 -1      1758    8    0    1
 -2       846       847       934      3374      3643      3644
 -1      1759    8    0    1
 -2       847       848       935      3377      3645      3646
 -1      1760    8    0    1
 -2       847       935       934      3646      3647      3643
 -1      1761    8    0    1
 -2       848       849       936      3380      3648      3649
 -1      1762    8    0    1
 -2       848       936       935      3649      3650      3645
 -1      1763    8    0    1
 -2       849       850       937      3383      3651      3652
 -1      1764    8    0    1
 -2       849       937       936      3652      3653      3648
 -1      1765    8    0    1
 -2       850       851       938      3386      3654      3655
 -1      1766    8    0    1
 -2       850       938       937      3655      3656      3651
 -1      1767    8    0    1
 -2       851       852       939      3389      3657      3658
 -1      1768    8    0    1
 -2       851       939       938      3658      3659      3654
 -1      1769    8    0    1
 -2       852       853       940      3392      3660      3661
 -1      1770    8    0    1
 -2       852       940       939      3661      3662      3657
 -1      1771    8    0    1
 -2       853       854       941      3395      3663      3664
 -1      1772    8    0    1
 -2       853       941       940      3664      3665      3660
 -1      1773    8    0    1
 -2       854       855       942      3398      3666      3667
 -1      1774    8    0    1
 -2       854       942       941      3667      3668      3663
 -1      1775    8    0    1
 -2       855       856       943      3401      3669      3670
 -1      1776    8    0    1
 -2       855       943       942      3670      3671      3666
 -1      1777    8    0    1
 -2       856       857       944      3404      3672      3673
 -1      1778    8    0    1
 -2       856       944       943      3673      3674      3669
 -1      1779    8    0    1
 -2       857       858       945      3407      3675      3676
 -1      1780    8    0    1
 -2       857       945       944      3676      3677      3672
 -1      1781    8    0    1
 -2       858       859       946      3410      3678      3679
 -1      1782    8    0    1
 -2       858       946       945      3679      3680      3675
 -1      1783    8    0    1
 -2       859       860       947      3413      3681      3682
 -1      1784    8    0    1
 -2       859       947       946      3682      3683      3678
 -1      1785    8    0    1
 -2       860       861       948      3416      3684      3685
 -1      1786    8    0    1
 -2       860       948       947      3685      3686      3681
 -1      1787    8    0    1
 -2       861       862       949      3419      3687      3688
 -1      1788    8    0    1
 -2       861       949       948      3688      3689      3684
 -1      1789    8    0    1
 -2       862       863       950      3422      3690      3691
 -1      1790    8    0    1
 -2       862       950       949      3691      3692      3687
 -1      1791    8    0    1
 -2       863       864       951      3425      3693      3694
 -1      1792    8    0    1
 -2       863       951       950      3694      3695      3690
 -1      1793    8    0    1
 -2       864       865       952      3428      3696      3697
 -1      1794    8    0    1
 -2       864       952       951      3697      3698      3693
 -1      1795    8    0    1
 -2       865       866       953      3431      3699      3700
 -1      1796    8    0    1
 -2       865       953       952      3700      3701      3696
 -1      1797    8    0    1
 -2       866       867       954      3434      3702      3703
 -1      1798    8    0    1
 -2       866       954       953      3703      3704      3699
 -1      1799    8    0    1
 -2       867       868       955      3437      3705      3706
 -1      1800    8    0    1
 -2       867       955       954      3706      3707      3702
 -1      1801    8    0    1
 -2       868       869       956      3440      3708      3709
 -1      1802    8    0    1
 -2       868       956       955      3709      3710      3705
 -1      1803    8    0    1
 -2       869       870       957      3443      3711      3712
 -1      1804    8    0    1
 -2       869       957       956      3712      3713      3708
 -1      1805    8    0    1
 -2       798       800       958      3525      3714      3715
 -1      1806    8    0    1
 -2       903       798       958      3545      3715      3716
 -1      1807    8    0    1
 -2       800       893       958      3513      3717      3714
 -1      1808    8    0    1
 -2       886       814       896      3485      3522      3718
 -1      1809    8    0    1
 -2       879       840       959      3504      3719      3720
 -1      1810    8    0    1
 -2       900       882       960      3537      3721      3722
 -1      1811    8    0    1
 -2       802       898       961      3532      3723      3724
 -1      1812    8    0    1
 -2       802       961       799      3724      3725      3239
 -1      1813    8    0    1
 -2       705       716       806      3220      3569      3277
 -1      1814    8    0    1
 -2       877       884       962      3480      3726      3727
 -1      1815    8    0    1
 -2       812       906       963      3557      3728      3729
 -1      1816    8    0    1
 -2       812       963       880      3729      3730      3526
 -1      1817    8    0    1
 -2       810       880       964      3468      3731      3732
 -1      1818    8    0    1
 -2       896       810       964      3523      3732      3733
 -1      1819    8    0    1
 -2       880       963       964      3730      3734      3731
 -1      1820    8    0    1
 -2       872       885       965      3505      3735      3736
 -1      1821    8    0    1
 -2       874       871       966      3453      3737      3738
 -1      1822    8    0    1
 -2       871       931       966      3636      3739      3737
 -1      1823    8    0    1
 -2       873       905       900      3568      3555      3740
 -1      1824    8    0    1
 -2       811       879       967      3551      3741      3742
 -1      1825    8    0    1
 -2       879       959       967      3720      3743      3741
 -1      1826    8    0    1
 -2       875       881       968      3471      3744      3745
 -1      1827    8    0    1
 -2       808       809       969      3552      3746      3747
 -1      1828    8    0    1
 -2       907       808       969      3558      3747      3748
 -1      1829    8    0    1
 -2       809       887       969      3488      3749      3746
 -1      1830    8    0    1
 -2       884       889       970      3561      3750      3751
 -1      1831    8    0    1
 -2       962       884       970      3726      3751      3752
 -1      1832    8    0    1
 -2       889       914       970      3584      3753      3750
 -1      1833    8    0    1
 -2       845       846       971      3371      3754      3755
 -1      1834    8    0    1
 -2       932       845       971      3638      3755      3756
 -1      1835    8    0    1
 -2       846       934       971      3644      3757      3754
 -1      1836    8    0    1
 -2       883       820       972      3477      3758      3759
 -1      1837    8    0    1
 -2       816       815       973      3285      3760      3761
 -1      1838    8    0    1
 -2       816       973       910      3761      3762      3572
 -1      1839    8    0    1
 -2       815       886       974      3562      3763      3764
 -1      1840    8    0    1
 -2       815       974       973      3764      3765      3760
 -1      1841    8    0    1
 -2       870       801       892      3524      3510      3766
 -1      1842    8    0    1
 -2       821       883       975      3500      3767      3768
 -1      1843    8    0    1
 -2       909       821       975      3570      3768      3769
 -1      1844    8    0    1
 -2       883       972       975      3759      3770      3767
 -1      1845    8    0    1
 -2       873       900       976      3740      3771      3772
 -1      1846    8    0    1
 -2       900       960       976      3722      3773      3771
 -1      1847    8    0    1
 -2       842       913       977      3581      3774      3775
 -1      1848    8    0    1
 -2       842       977       895      3775      3776      3518
 -1      1849    8    0    1
 -2       913       841       978      3580      3777      3778
 -1      1850    8    0    1
 -2       841       876       978      3458      3779      3777
 -1      1851    8    0    1
 -2       890       872       979      3501      3780      3781
 -1      1852    8    0    1
 -2       872       965       979      3736      3782      3780
 -1      1853    8    0    1
 -2       891       877       980      3506      3783      3784
 -1      1854    8    0    1
 -2       877       962       980      3727      3785      3783
 -1      1855    8    0    1
 -2       892       799       961      3511      3725      3786
 -1      1856    8    0    1
 -2       893       878       981      3514      3787      3788
 -1      1857    8    0    1
 -2       894       813       982      3515      3789      3790
 -1      1858    8    0    1
 -2       813       891       982      3508      3791      3789
 -1      1859    8    0    1
 -2       972       820       976      3758      3792      3793
 -1      1860    8    0    1
 -2       961       898       983      3723      3794      3795
 -1      1861    8    0    1
 -2       901       804       984      3539      3796      3797
 -1      1862    8    0    1
 -2       820       873       976      3533      3772      3792
 -1      1863    8    0    1
 -2       899       874       985      3534      3798      3799
 -1      1864    8    0    1
 -2       874       966       985      3738      3800      3798
 -1      1865    8    0    1
 -2       840       901       933      3541      3801      3802
 -1      1866    8    0    1
 -2       963       906       986      3728      3803      3804
 -1      1867    8    0    1
 -2       902       811       967      3542      3742      3805
 -1      1868    8    0    1
 -2       886       896       974      3718      3806      3763
 -1      1869    8    0    1
 -2       960       882       904      3721      3550      3807
 -1      1870    8    0    1
 -2       904       807       987      3548      3808      3809
 -1      1871    8    0    1
 -2       807       890       987      3503      3810      3808
 -1      1872    8    0    1
 -2       804       894       984      3517      3811      3796
 -1      1873    8    0    1
 -2       876       843       988      3459      3812      3813
 -1      1874    8    0    1
 -2       978       876       988      3779      3813      3814
 -1      1875    8    0    1
 -2       843       933       988      3641      3815      3812
 -1      1876    8    0    1
 -2       968       881       989      3744      3816      3817
 -1      1877    8    0    1
 -2       881       903       989      3547      3818      3816
 -1      1878    8    0    1
 -2       906       907       990      3560      3819      3820
 -1      1879    8    0    1
 -2       906       990       986      3820      3821      3803
 -1      1880    8    0    1
 -2       870       892       991      3766      3822      3823
 -1      1881    8    0    1
 -2       957       870       991      3711      3823      3824
 -1      1882    8    0    1
 -2       892       961       991      3786      3825      3822
 -1      1883    8    0    1
 -2       878       897       992      3529      3826      3827
 -1      1884    8    0    1
 -2       878       992       981      3827      3828      3787
 -1      1885    8    0    1
 -2       898       908       993      3565      3829      3830
 -1      1886    8    0    1
 -2       898       993       983      3830      3831      3794
 -1      1887    8    0    1
 -2       885       902       994      3544      3832      3833
 -1      1888    8    0    1
 -2       885       994       965      3833      3834      3735
 -1      1889    8    0    1
 -2       976       960       995      3773      3835      3836
 -1      1890    8    0    1
 -2       976       995       972      3836      3837      3793
 -1      1891    8    0    1
 -2       911       910       996      3576      3838      3839
 -1      1892    8    0    1
 -2       912       911       997      3579      3840      3841
 -1      1893    8    0    1
 -2       911       996       997      3839      3842      3840
 -1      1894    8    0    1
 -2       936       937       998      3653      3843      3844
 -1      1895    8    0    1
 -2       916       915       999      3591      3845      3846
 -1      1896    8    0    1
 -2       917       916      1000      3594      3847      3848
 -1      1897    8    0    1
 -2       916       999      1000      3846      3849      3847
 -1      1898    8    0    1
 -2       918       917      1001      3597      3850      3851
 -1      1899    8    0    1
 -2       917      1000      1001      3848      3852      3850
 -1      1900    8    0    1
 -2       919       918      1002      3600      3853      3854
 -1      1901    8    0    1
 -2       918      1001      1002      3851      3855      3853
 -1      1902    8    0    1
 -2       920       919      1003      3603      3856      3857
 -1      1903    8    0    1
 -2       919      1002      1003      3854      3858      3856
 -1      1904    8    0    1
 -2       921       920      1004      3606      3859      3860
 -1      1905    8    0    1
 -2       920      1003      1004      3857      3861      3859
 -1      1906    8    0    1
 -2       922       921      1005      3609      3862      3863
 -1      1907    8    0    1
 -2       921      1004      1005      3860      3864      3862
 -1      1908    8    0    1
 -2       923       922      1006      3612      3865      3866
 -1      1909    8    0    1
 -2       922      1005      1006      3863      3867      3865
 -1      1910    8    0    1
 -2       924       923      1007      3615      3868      3869
 -1      1911    8    0    1
 -2       923      1006      1007      3866      3870      3868
 -1      1912    8    0    1
 -2       925       924      1008      3618      3871      3872
 -1      1913    8    0    1
 -2       924      1007      1008      3869      3873      3871
 -1      1914    8    0    1
 -2       926       925      1009      3621      3874      3875
 -1      1915    8    0    1
 -2       925      1008      1009      3872      3876      3874
 -1      1916    8    0    1
 -2       927       926      1010      3624      3877      3878
 -1      1917    8    0    1
 -2       926      1009      1010      3875      3879      3877
 -1      1918    8    0    1
 -2       928       927      1011      3627      3880      3881
 -1      1919    8    0    1
 -2       927      1010      1011      3878      3882      3880
 -1      1920    8    0    1
 -2       929       928      1012      3630      3883      3884
 -1      1921    8    0    1
 -2       928      1011      1012      3881      3885      3883
 -1      1922    8    0    1
 -2       930       929      1013      3633      3886      3887
 -1      1923    8    0    1
 -2       929      1012      1013      3884      3888      3886
 -1      1924    8    0    1
 -2       931       930      1014      3637      3889      3890
 -1      1925    8    0    1
 -2       966       931      1014      3739      3890      3891
 -1      1926    8    0    1
 -2       930      1013      1014      3887      3892      3889
 -1      1927    8    0    1
 -2       933       932       959      3642      3893      3894
 -1      1928    8    0    1
 -2       935       936       994      3650      3895      3896
 -1      1929    8    0    1
 -2       934       935       994      3647      3896      3897
 -1      1930    8    0    1
 -2       937       938      1015      3656      3898      3899
 -1      1931    8    0    1
 -2       937      1015       998      3899      3900      3843
 -1      1932    8    0    1
 -2       938       939      1016      3659      3901      3902
 -1      1933    8    0    1
 -2       938      1016      1015      3902      3903      3898
 -1      1934    8    0    1
 -2       939       940      1017      3662      3904      3905
 -1      1935    8    0    1
 -2       939      1017      1016      3905      3906      3901
 -1      1936    8    0    1
 -2       940       941      1018      3665      3907      3908
 -1      1937    8    0    1
 -2       940      1018      1017      3908      3909      3904
 -1      1938    8    0    1
 -2       941       942      1019      3668      3910      3911
 -1      1939    8    0    1
 -2       941      1019      1018      3911      3912      3907
 -1      1940    8    0    1
 -2       942       943      1020      3671      3913      3914
 -1      1941    8    0    1
 -2       942      1020      1019      3914      3915      3910
 -1      1942    8    0    1
 -2       943       944      1021      3674      3916      3917
 -1      1943    8    0    1
 -2       943      1021      1020      3917      3918      3913
 -1      1944    8    0    1
 -2       944       945      1022      3677      3919      3920
 -1      1945    8    0    1
 -2       944      1022      1021      3920      3921      3916
 -1      1946    8    0    1
 -2       945       946      1023      3680      3922      3923
 -1      1947    8    0    1
 -2       945      1023      1022      3923      3924      3919
 -1      1948    8    0    1
 -2       946       947      1024      3683      3925      3926
 -1      1949    8    0    1
 -2       946      1024      1023      3926      3927      3922
 -1      1950    8    0    1
 -2       947       948      1025      3686      3928      3929
 -1      1951    8    0    1
 -2       947      1025      1024      3929      3930      3925
 -1      1952    8    0    1
 -2       948       949      1026      3689      3931      3932
 -1      1953    8    0    1
 -2       948      1026      1025      3932      3933      3928
 -1      1954    8    0    1
 -2       949       950      1027      3692      3934      3935
 -1      1955    8    0    1
 -2       949      1027      1026      3935      3936      3931
 -1      1956    8    0    1
 -2       950       951      1028      3695      3937      3938
 -1      1957    8    0    1
 -2       950      1028      1027      3938      3939      3934
 -1      1958    8    0    1
 -2       951       952      1029      3698      3940      3941
 -1      1959    8    0    1
 -2       951      1029      1028      3941      3942      3937
 -1      1960    8    0    1
 -2       952       953      1030      3701      3943      3944
 -1      1961    8    0    1
 -2       952      1030      1029      3944      3945      3940
 -1      1962    8    0    1
 -2       953       954      1031      3704      3946      3947
 -1      1963    8    0    1
 -2       953      1031      1030      3947      3948      3943
 -1      1964    8    0    1
 -2       954       955      1032      3707      3949      3950
 -1      1965    8    0    1
 -2       954      1032      1031      3950      3951      3946
 -1      1966    8    0    1
 -2       955       956      1033      3710      3952      3953
 -1      1967    8    0    1
 -2       955      1033      1032      3953      3954      3949
 -1      1968    8    0    1
 -2       956       957      1034      3713      3955      3956
 -1      1969    8    0    1
 -2       956      1034      1033      3956      3957      3952
 -1      1970    8    0    1
 -2       961       983       991      3795      3958      3825
 -1      1971    8    0    1
 -2       897       895      1035      3530      3959      3960
 -1      1972    8    0    1
 -2       895       977      1035      3776      3961      3959
 -1      1973    8    0    1
 -2       959       840       933      3719      3802      3894
 -1      1974    8    0    1
 -2       933       901       988      3801      3962      3815
 -1      1975    8    0    1
 -2       893       981      1036      3788      3963      3964
 -1      1976    8    0    1
 -2       893      1036       958      3964      3965      3717
 -1      1977    8    0    1
 -2       963       986      1037      3804      3966      3967
 -1      1978    8    0    1
 -2       963      1037       964      3967      3968      3734
 -1      1979    8    0    1
 -2       914       912      1038      3585      3969      3970
 -1      1980    8    0    1
 -2       970       914      1038      3753      3970      3971
 -1      1981    8    0    1
 -2       912       997      1038      3841      3972      3969
 -1      1982    8    0    1
 -2       875       968       969      3745      3973      3974
 -1      1983    8    0    1
 -2       907       969       968      3748      3973      3975
 -1      1984    8    0    1
 -2       910       973      1039      3762      3976      3977
 -1      1985    8    0    1
 -2       910      1039       996      3977      3978      3838
 -1      1986    8    0    1
 -2       908       899      1040      3566      3979      3980
 -1      1987    8    0    1
 -2       993       908      1040      3829      3980      3981
 -1      1988    8    0    1
 -2       899       985      1040      3799      3982      3979
 -1      1989    8    0    1
 -2       960       904      1041      3807      3983      3984
 -1      1990    8    0    1
 -2       887       875       969      3489      3974      3749
 -1      1991    8    0    1
 -2       915       909      1042      3588      3985      3986
 -1      1992    8    0    1
 -2       915      1042       999      3986      3987      3845
 -1      1993    8    0    1
 -2       973       974      1043      3765      3988      3989
 -1      1994    8    0    1
 -2       973      1043      1039      3989      3990      3976
 -1      1995    8    0    1
 -2       974       896      1044      3806      3991      3992
 -1      1996    8    0    1
 -2      1043       974      1044      3988      3992      3993
 -1      1997    8    0    1
 -2       896       964      1044      3733      3994      3991
 -1      1998    8    0    1
 -2       907       968       990      3975      3995      3819
 -1      1999    8    0    1
 -2      1042       909      1045      3985      3996      3997
 -1      2000    8    0    1
 -2       909       975      1045      3769      3998      3996
 -1      2001    8    0    1
 -2       977       913      1046      3774      3999      4000
 -1      2002    8    0    1
 -2       989       903      1047      3818      4001      4002
 -1      2003    8    0    1
 -2       903       958      1047      3716      4003      4001
 -1      2004    8    0    1
 -2       980       962      1048      3785      4004      4005
 -1      2005    8    0    1
 -2       988       901       984      3962      3797      4006
 -1      2006    8    0    1
 -2       966      1014      1049      3891      4007      4008
 -1      2007    8    0    1
 -2       966      1049       985      4008      4009      3800
 -1      2008    8    0    1
 -2       983       993      1050      3831      4010      4011
 -1      2009    8    0    1
 -2       962       970      1051      3752      4012      4013
 -1      2010    8    0    1
 -2      1048       962      1051      4004      4013      4014
 -1      2011    8    0    1
 -2       970      1038      1051      3971      4015      4012
 -1      2012    8    0    1
 -2       960      1041       995      3984      4016      3835
 -1      2013    8    0    1
 -2       968       989       990      3817      4017      3995
 -1      2014    8    0    1
 -2       934       994       902      3897      3832      4018
 -1      2015    8    0    1
 -2      1034       957      1050      3955      4019      4020
 -1      2016    8    0    1
 -2       992       897      1035      3826      3960      4021
 -1      2017    8    0    1
 -2      1036       981      1052      3963      4022      4023
 -1      2018    8    0    1
 -2       902       967       934      3805      4024      4018
 -1      2019    8    0    1
 -2       959       932       971      3893      3756      4025
 -1      2020    8    0    1
 -2       967       959       971      3743      4025      4026
 -1      2021    8    0    1
 -2       904       987      1041      3809      4027      3983
 -1      2022    8    0    1
 -2       971       934       967      3757      4024      4026
 -1      2023    8    0    1
 -2       986       990      1053      3821      4028      4029
 -1      2024    8    0    1
 -2       984       894      1054      3811      4030      4031
 -1      2025    8    0    1
 -2       975       972      1055      3770      4032      4033
 -1      2026    8    0    1
 -2       975      1055      1045      4033      4034      3998
 -1      2027    8    0    1
 -2       981       992      1056      3828      4035      4036
 -1      2028    8    0    1
 -2       981      1056      1052      4036      4037      4022
 -1      2029    8    0    1
 -2       986      1053      1057      4029      4038      4039
 -1      2030    8    0    1
 -2       986      1057      1037      4039      4040      3966
 -1      2031    8    0    1
 -2       988       984       978      4006      4041      3814
 -1      2032    8    0    1
 -2       978       984      1054      4041      4031      4042
 -1      2033    8    0    1
 -2      1054       894       982      4030      3790      4043
 -1      2034    8    0    1
 -2      1055       972       995      4032      3837      4044
 -1      2035    8    0    1
 -2      1046       913      1054      3999      4045      4046
 -1      2036    8    0    1
 -2      1015      1016      1058      3903      4047      4048
 -1      2037    8    0    1
 -2      1050       993      1059      4010      4049      4050
 -1      2038    8    0    1
 -2       993      1040      1059      3981      4051      4049
 -1      2039    8    0    1
 -2      1001      1000      1060      3852      4052      4053
 -1      2040    8    0    1
 -2      1002      1001      1061      3855      4054      4055
 -1      2041    8    0    1
 -2      1001      1060      1061      4053      4056      4054
 -1      2042    8    0    1
 -2      1003      1002      1062      3858      4057      4058
 -1      2043    8    0    1
 -2      1002      1061      1062      4055      4059      4057
 -1      2044    8    0    1
 -2      1004      1003      1063      3861      4060      4061
 -1      2045    8    0    1
 -2      1003      1062      1063      4058      4062      4060
 -1      2046    8    0    1
 -2      1005      1004      1064      3864      4063      4064
 -1      2047    8    0    1
 -2      1004      1063      1064      4061      4065      4063
 -1      2048    8    0    1
 -2      1006      1005      1065      3867      4066      4067
 -1      2049    8    0    1
 -2      1005      1064      1065      4064      4068      4066
 -1      2050    8    0    1
 -2      1007      1006      1066      3870      4069      4070
 -1      2051    8    0    1
 -2      1006      1065      1066      4067      4071      4069
 -1      2052    8    0    1
 -2      1008      1007      1067      3873      4072      4073
 -1      2053    8    0    1
 -2      1007      1066      1067      4070      4074      4072
 -1      2054    8    0    1
 -2      1009      1008      1068      3876      4075      4076
 -1      2055    8    0    1
 -2      1008      1067      1068      4073      4077      4075
 -1      2056    8    0    1
 -2      1010      1009      1069      3879      4078      4079
 -1      2057    8    0    1
 -2      1009      1068      1069      4076      4080      4078
 -1      2058    8    0    1
 -2      1011      1010      1070      3882      4081      4082
 -1      2059    8    0    1
 -2      1010      1069      1070      4079      4083      4081
 -1      2060    8    0    1
 -2      1012      1011      1071      3885      4084      4085
 -1      2061    8    0    1
 -2      1011      1070      1071      4082      4086      4084
 -1      2062    8    0    1
 -2      1013      1012      1072      3888      4087      4088
 -1      2063    8    0    1
 -2      1012      1071      1072      4085      4089      4087
 -1      2064    8    0    1
 -2      1014      1013      1073      3892      4090      4091
 -1      2065    8    0    1
 -2      1049      1014      1073      4007      4091      4092
 -1      2066    8    0    1
 -2      1013      1072      1073      4088      4093      4090
 -1      2067    8    0    1
 -2       994       936       998      3895      3844      4094
 -1      2068    8    0    1
 -2       982       891      1074      3791      4095      4096
 -1      2069    8    0    1
 -2      1055       995      1075      4044      4097      4098
 -1      2070    8    0    1
 -2       995      1041      1075      4016      4099      4097
 -1      2071    8    0    1
 -2       913       978      1054      3778      4042      4045
 -1      2072    8    0    1
 -2      1050       957       983      4019      4100      4011
 -1      2073    8    0    1
 -2      1016      1017      1076      3906      4101      4102
 -1      2074    8    0    1
 -2      1016      1076      1058      4102      4103      4047
 -1      2075    8    0    1
 -2      1017      1018      1077      3909      4104      4105
 -1      2076    8    0    1
 -2      1017      1077      1076      4105      4106      4101
 -1      2077    8    0    1
 -2      1018      1019      1078      3912      4107      4108
 -1      2078    8    0    1
 -2      1018      1078      1077      4108      4109      4104
 -1      2079    8    0    1
 -2      1019      1020      1079      3915      4110      4111
 -1      2080    8    0    1
 -2      1019      1079      1078      4111      4112      4107
 -1      2081    8    0    1
 -2      1020      1021      1080      3918      4113      4114
 -1      2082    8    0    1
 -2      1020      1080      1079      4114      4115      4110
 -1      2083    8    0    1
 -2      1021      1022      1081      3921      4116      4117
 -1      2084    8    0    1
 -2      1021      1081      1080      4117      4118      4113
 -1      2085    8    0    1
 -2      1022      1023      1082      3924      4119      4120
 -1      2086    8    0    1
 -2      1022      1082      1081      4120      4121      4116
 -1      2087    8    0    1
 -2      1023      1024      1083      3927      4122      4123
 -1      2088    8    0    1
 -2      1023      1083      1082      4123      4124      4119
 -1      2089    8    0    1
 -2      1024      1025      1084      3930      4125      4126
 -1      2090    8    0    1
 -2      1024      1084      1083      4126      4127      4122
 -1      2091    8    0    1
 -2      1025      1026      1085      3933      4128      4129
 -1      2092    8    0    1
 -2      1025      1085      1084      4129      4130      4125
 -1      2093    8    0    1
 -2      1026      1027      1086      3936      4131      4132
 -1      2094    8    0    1
 -2      1026      1086      1085      4132      4133      4128
 -1      2095    8    0    1
 -2      1027      1028      1087      3939      4134      4135
 -1      2096    8    0    1
 -2      1027      1087      1086      4135      4136      4131
 -1      2097    8    0    1
 -2      1028      1029      1088      3942      4137      4138
 -1      2098    8    0    1
 -2      1028      1088      1087      4138      4139      4134
 -1      2099    8    0    1
 -2      1029      1030      1089      3945      4140      4141
 -1      2100    8    0    1
 -2      1029      1089      1088      4141      4142      4137
 -1      2101    8    0    1
 -2      1030      1031      1090      3948      4143      4144
 -1      2102    8    0    1
 -2      1030      1090      1089      4144      4145      4140
 -1      2103    8    0    1
 -2      1031      1032      1091      3951      4146      4147
 -1      2104    8    0    1
 -2      1031      1091      1090      4147      4148      4143
 -1      2105    8    0    1
 -2      1032      1033      1092      3954      4149      4150
 -1      2106    8    0    1
 -2      1032      1092      1091      4150      4151      4146
 -1      2107    8    0    1
 -2      1033      1034      1093      3957      4152      4153
 -1      2108    8    0    1
 -2      1033      1093      1092      4153      4154      4149
 -1      2109    8    0    1
 -2       991       983       957      3958      4100      3824
 -1      2110    8    0    1
 -2       992      1035      1094      4021      4155      4156
 -1      2111    8    0    1
 -2       992      1094      1056      4156      4157      4035
 -1      2112    8    0    1
 -2       980      1048      1094      4005      4158      4159
 -1      2113    8    0    1
 -2       964      1037      1044      3968      4160      3994
 -1      2114    8    0    1
 -2       891       980      1074      3784      4161      4095
 -1      2115    8    0    1
 -2       890       979      1095      3781      4162      4163
 -1      2116    8    0    1
 -2       987       890      1095      3810      4163      4164
 -1      2117    8    0    1
 -2      1000       999      1096      3849      4165      4166
 -1      2118    8    0    1
 -2      1000      1096      1060      4166      4167      4052
 -1      2119    8    0    1
 -2       958      1036      1047      3965      4168      4003
 -1      2120    8    0    1
 -2      1039      1043      1097      3990      4169      4170
 -1      2121    8    0    1
 -2       999      1042      1098      3987      4171      4172
 -1      2122    8    0    1
 -2       999      1098      1096      4172      4173      4165
 -1      2123    8    0    1
 -2      1036      1052      1099      4023      4174      4175
 -1      2124    8    0    1
 -2      1036      1099      1047      4175      4176      4168
 -1      2125    8    0    1
 -2       997       996      1100      3842      4177      4178
 -1      2126    8    0    1
 -2       996      1039      1101      3978      4179      4180
 -1      2127    8    0    1
 -2      1039      1097      1101      4170      4181      4179
 -1      2128    8    0    1
 -2      1074       980      1094      4161      4159      4182
 -1      2129    8    0    1
 -2      1034      1050      1102      4020      4183      4184
 -1      2130    8    0    1
 -2      1093      1034      1102      4152      4184      4185
 -1      2131    8    0    1
 -2      1050      1059      1102      4050      4186      4183
 -1      2132    8    0    1
 -2       990       989      1103      4017      4187      4188
 -1      2133    8    0    1
 -2      1053       990      1103      4028      4188      4189
 -1      2134    8    0    1
 -2       989      1047      1103      4002      4190      4187
 -1      2135    8    0    1
 -2      1041       987      1104      4027      4191      4192
 -1      2136    8    0    1
 -2       987      1095      1104      4164      4193      4191
 -1      2137    8    0    1
 -2      1041      1104      1075      4192      4194      4099
 -1      2138    8    0    1
 -2      1053      1103      1105      4189      4195      4196
 -1      2139    8    0    1
 -2       979       965       998      3782      4197      4198
 -1      2140    8    0    1
 -2      1053      1105      1057      4196      4199      4038
 -1      2141    8    0    1
 -2       998      1015      1095      3900      4200      4201
 -1      2142    8    0    1
 -2      1055      1075      1106      4098      4202      4203
 -1      2143    8    0    1
 -2      1048      1051      1107      4014      4204      4205
 -1      2144    8    0    1
 -2      1046      1054       982      4046      4043      4206
 -1      2145    8    0    1
 -2      1094      1048      1108      4158      4207      4208
 -1      2146    8    0    1
 -2      1056      1094      1108      4157      4208      4209
 -1      2147    8    0    1
 -2      1048      1107      1108      4205      4210      4207
 -1      2148    8    0    1
 -2      1035       977      1074      3961      4211      4212
 -1      2149    8    0    1
 -2       985      1049      1040      4009      4213      3982
 -1      2150    8    0    1
 -2       979       998      1095      4198      4201      4162
 -1      2151    8    0    1
 -2      1035      1074      1094      4212      4182      4155
 -1      2152    8    0    1
 -2      1095      1015      1058      4200      4048      4214
 -1      2153    8    0    1
 -2      1055      1106      1045      4203      4215      4034
 -1      2154    8    0    1
 -2      1046       982      1074      4206      4096      4216
 -1      2155    8    0    1
 -2      1074       977      1046      4211      4000      4216
 -1      2156    8    0    1
 -2      1038       997      1109      3972      4217      4218
 -1      2157    8    0    1
 -2      1051      1038      1109      4015      4218      4219
 -1      2158    8    0    1
 -2       997      1100      1109      4178      4220      4217
 -1      2159    8    0    1
 -2      1098      1042      1110      4171      4221      4222
 -1      2160    8    0    1
 -2      1042      1045      1110      3997      4223      4221
 -1      2161    8    0    1
 -2      1052      1056      1111      4037      4224      4225
 -1      2162    8    0    1
 -2      1056      1108      1111      4209      4226      4224
 -1      2163    8    0    1
 -2      1099      1052      1111      4174      4225      4227
 -1      2164    8    0    1
 -2      1100       996      1101      4177      4180      4228
 -1      2165    8    0    1
 -2      1095      1058      1104      4214      4229      4193
 -1      2166    8    0    1
 -2      1045      1106      1110      4215      4230      4223
 -1      2167    8    0    1
 -2      1105      1103      1099      4195      4231      4232
 -1      2168    8    0    1
 -2      1061      1060      1082      4056      4233      4234
 -1      2169    8    0    1
 -2      1062      1061      1083      4059      4235      4236
 -1      2170    8    0    1
 -2      1063      1062      1084      4062      4237      4238
 -1      2171    8    0    1
 -2      1064      1063      1085      4065      4239      4240
 -1      2172    8    0    1
 -2      1065      1064      1086      4068      4241      4242
 -1      2173    8    0    1
 -2      1066      1065      1087      4071      4243      4244
 -1      2174    8    0    1
 -2      1067      1066      1088      4074      4245      4246
 -1      2175    8    0    1
 -2      1068      1067      1089      4077      4247      4248
 -1      2176    8    0    1
 -2      1069      1068      1090      4080      4249      4250
 -1      2177    8    0    1
 -2      1070      1069      1091      4083      4251      4252
 -1      2178    8    0    1
 -2      1071      1070      1092      4086      4253      4254
 -1      2179    8    0    1
 -2      1072      1071      1093      4089      4255      4256
 -1      2180    8    0    1
 -2      1060      1096      1081      4167      4257      4258
 -1      2181    8    0    1
 -2      1090      1068      1089      4249      4248      4145
 -1      2182    8    0    1
 -2      1093      1071      1092      4255      4254      4154
 -1      2183    8    0    1
 -2      1089      1067      1088      4247      4246      4142
 -1      2184    8    0    1
 -2      1077      1078      1106      4109      4259      4260
 -1      2185    8    0    1
 -2      1078      1079      1110      4112      4261      4262
 -1      2186    8    0    1
 -2      1079      1080      1098      4115      4263      4264
 -1      2187    8    0    1
 -2      1080      1081      1096      4118      4257      4265
 -1      2188    8    0    1
 -2      1081      1082      1060      4121      4233      4258
 -1      2189    8    0    1
 -2      1082      1083      1061      4124      4235      4234
 -1      2190    8    0    1
 -2      1083      1084      1062      4127      4237      4236
 -1      2191    8    0    1
 -2      1084      1085      1063      4130      4239      4238
 -1      2192    8    0    1
 -2      1085      1086      1064      4133      4241      4240
 -1      2193    8    0    1
 -2      1086      1087      1065      4136      4243      4242
 -1      2194    8    0    1
 -2      1087      1088      1066      4139      4245      4244
 -1      2195    8    0    1
 -2      1077      1106      1075      4260      4202      4266
 -1      2196    8    0    1
 -2      1090      1091      1069      4148      4251      4250
 -1      2197    8    0    1
 -2      1091      1092      1070      4151      4253      4252
 -1      2198    8    0    1
 -2      1098      1080      1096      4263      4265      4173
 -1      2199    8    0    1
 -2      1103      1047      1099      4190      4176      4231
 -1      2200    8    0    1
 -2      1037      1057      1043      4040      4267      4268
 -1      2201    8    0    1
 -2      1040      1049      1059      4213      4269      4051
 -1      2202    8    0    1
 -2      1037      1043      1044      4268      3993      4160
 -1      2203    8    0    1
 -2      1106      1078      1110      4259      4262      4230
 -1      2204    8    0    1
 -2      1079      1098      1110      4264      4222      4261
 -1      2205    8    0    1
 -2      1043      1057      1097      4267      4270      4169
 -1      2206    8    0    1
 -2      1058      1076      1104      4103      4271      4229
 -1      2207    8    0    1
 -2      1100      1101      1112      4228      4272      4273
 -1      2208    8    0    1
 -2      1099      1111      1105      4227      4274      4232
 -1      2209    8    0    1
 -2      1107      1051      1109      4204      4219      4275
 -1      2210    8    0    1
 -2      1104      1076      1075      4271      4276      4194
 -1      2211    8    0    1
 -2      1075      1076      1077      4276      4106      4266
 -1      2212    8    0    1
 -2      1057      1105      1097      4199      4277      4270
 -1      2213    8    0    1
 -2      1097      1105      1101      4277      4278      4181
 -1      2214    8    0    1
 -2      1108      1107      1113      4210      4279      4280
 -1      2215    8    0    1
 -2      1111      1108      1113      4226      4280      4281
 -1      2216    8    0    1
 -2      1107      1109      1113      4275      4282      4279
 -1      2217    8    0    1
 -2      1059      1049      1114      4269      4283      4284
 -1      2218    8    0    1
 -2      1102      1059      1114      4186      4284      4285
 -1      2219    8    0    1
 -2      1049      1073      1114      4092      4286      4283
 -1      2220    8    0    1
 -2       998       965       994      4197      3834      4094
 -1      2221    8    0    1
 -2      1100      1112      1113      4273      4287      4288
 -1      2222    8    0    1
 -2      1109      1100      1113      4220      4288      4282
 -1      2223    8    0    1
 -2      1072      1093      1114      4256      4289      4290
 -1      2224    8    0    1
 -2      1073      1072      1114      4093      4290      4286
 -1      2225    8    0    1
 -2      1101      1105      1112      4278      4291      4272
 -1      2226    8    0    1
 -2      1111      1113      1112      4281      4287      4292
 -1      2227    8    0    1
 -2      1114      1093      1102      4289      4185      4285
 -1      2228    8    0    1
 -2      1105      1111      1112      4274      4292      4291
 -3
    1PSTEP                         1           1           1          
  100CL  101 1.000000000        4292                     0    1           1
 -4  DISP        4    1
 -5  D1          1    2    1    0
 -5  D2          1    2    2    0
 -5  D3          1    2    3    0
 -5  ALL         1    2    0    0    1ALL
 -1         1 6.35462E-03-2.72801E-03-1.14712E-14
 -1         2 8.71419E-03-1.25497E-03-1.44276E-14
 -1         3 1.34790E-02-6.76819E-03-7.24119E-14
 -1         4 1.73334E-02-8.19693E-03-7.89701E-14
 -1         5 0.00000E+00 0.00000E+00 0.00000E+00
 -1         6 0.00000E+00 0.00000E+00 0.00000E+00
 -1         7 0.00000E+00 0.00000E+00 0.00000E+00
 -1         8 0.00000E+00 0.00000E+00 0.00000E+00
 -1         9 0.00000E+00 0.00000E+00 0.00000E+00
 -1        10 0.00000E+00 0.00000E+00 0.00000E+00
 -1        11 0.00000E+00 0.00000E+00 0.00000E+00
 -1        12 0.00000E+00 0.00000E+00 0.00000E+00
 -1        13 0.00000E+00 0.00000E+00 0.00000E+00
 -1        14 0.00000E+00 0.00000E+00 0.00000E+00
 -1        15 0.00000E+00 0.00000E+00 0.00000E+00
 -1        16 0.00000E+00 0.00000E+00 0.00000E+00
 -1        17 0.00000E+00 0.00000E+00 0.00000E+00
 -1        18 0.00000E+00 0.00000E+00 0.00000E+00
 -1        19 0.00000E+00 0.00000E+00 0.00000E+00
 -1        20 0.00000E+00 0.00000E+00 0.00000E+00
 -1        21 0.00000E+00 0.00000E+00 0.00000E+00
 -1        22 0.00000E+00 0.00000E+00 0.00000E+00
 -1        23 4.10886E-04-2.59277E-04 1.11131E-18
 -1        24 7.03237E-04-3.97596E-04-9.39055E-17
 -1        25 9.74381E-04-4.92667E-04-2.79768E-16
 -1        26 1.24078E-03-5.58622E-04-5.51696E-16
 -1        27 1.50752E-03-6.04396E-04-9.05624E-16
 -1        28 1.77757E-03-6.35152E-04-1.33802E-15
 -1        29 2.05339E-03-6.54468E-04-1.84783E-15
 -1        30 2.35251E-03-6.65527E-04-2.46497E-15
 -1        31 2.65117E-03-6.70422E-04-3.12647E-15
 -1        32 2.97086E-03-6.74409E-04-3.85337E-15
 -1        33 3.32376E-03-6.86265E-04-4.64473E-15
 -1        34 3.72850E-03-7.24355E-04-5.49688E-15
 -1        35 4.20934E-03-8.26062E-04-6.41230E-15
 -1        36 4.78463E-03-1.05894E-03-7.39732E-15
 -1        37 5.36481E-03-1.45341E-03-8.35242E-15
 -1        38 5.92046E-03-2.04494E-03-9.38186E-15
 -1        39 6.28626E-03-2.61278E-03-1.03667E-14
 -1        40 6.50196E-03-2.95160E-03-1.14377E-14
 -1        41 6.66789E-03-2.90822E-03-1.24460E-14
 -1        42 6.95371E-03-2.59212E-03-1.35825E-14
 -1        43 7.43737E-03-2.17691E-03-1.49183E-14
 -1        44 8.12343E-03-1.87406E-03-1.66133E-14
 -1        45 8.72488E-03-1.82935E-03-1.82544E-14
 -1        46 9.23166E-03-1.93728E-03-1.99336E-14
 -1        47 9.65786E-03-2.12278E-03-2.16463E-14
 -1        48 1.00287E-02-2.34269E-03-2.33970E-14
 -1        49 1.03647E-02-2.57601E-03-2.51909E-14
 -1        50 1.06798E-02-2.81346E-03-2.70433E-14
 -1        51 1.09975E-02-3.06317E-03-2.90219E-14
 -1        52 1.12928E-02-3.30006E-03-3.09493E-14
 -1        53 1.15840E-02-3.53576E-03-3.29154E-14
 -1        54 1.18729E-02-3.77038E-03-3.49187E-14
 -1        55 1.21604E-02-4.00413E-03-3.69723E-14
 -1        56 1.24471E-02-4.23722E-03-3.90690E-14
 -1        57 1.27333E-02-4.46981E-03-4.12125E-14
 -1        58 1.30193E-02-4.70205E-03-4.34071E-14
 -1        59 1.33194E-02-4.94561E-03-4.57577E-14
 -1        60 1.36052E-02-5.17739E-03-4.80310E-14
 -1        61 1.38909E-02-5.40904E-03-5.03368E-14
 -1        62 1.41765E-02-5.64059E-03-5.26652E-14
 -1        63 1.44622E-02-5.87206E-03-5.49985E-14
 -1        64 1.47479E-02-6.10349E-03-5.73454E-14
 -1        65 1.50336E-02-6.33487E-03-5.97094E-14
 -1        66 1.53335E-02-6.57779E-03-6.22182E-14
 -1        67 1.56192E-02-6.80912E-03-6.46243E-14
 -1        68 1.59049E-02-7.04043E-03-6.70336E-14
 -1        69 1.61906E-02-7.27174E-03-6.94202E-14
 -1        70 1.64763E-02-7.50304E-03-7.17868E-14
 -1        71 1.67620E-02-7.73433E-03-7.41593E-14
 -1        72 1.70477E-02-7.96563E-03-7.65552E-14
 -1        73 4.14120E-04 2.61177E-04 6.11626E-17
 -1        74 7.04073E-04 4.03217E-04 7.27262E-17
 -1        75 9.75617E-04 4.99777E-04 3.07744E-17
 -1        76 1.24123E-03 5.69080E-04-6.97447E-17
 -1        77 1.50557E-03 6.19710E-04-2.33571E-16
 -1        78 1.77051E-03 6.57145E-04-4.62670E-16
 -1        79 2.03650E-03 6.85199E-04-7.58342E-16
 -1        80 2.30312E-03 7.06549E-04-1.12170E-15
 -1        81 2.56930E-03 7.22923E-04-1.54982E-15
 -1        82 2.83346E-03 7.35093E-04-2.04639E-15
 -1        83 3.09359E-03 7.42767E-04-2.61263E-15
 -1        84 3.34754E-03 7.44450E-04-3.24635E-15
 -1        85 3.59333E-03 7.37372E-04-3.94748E-15
 -1        86 3.82959E-03 7.17599E-04-4.71381E-15
 -1        87 4.05605E-03 6.80416E-04-5.55080E-15
 -1        88 4.27390E-03 6.21019E-04-6.46403E-15
 -1        89 4.48583E-03 5.35411E-04-7.44926E-15
 -1        90 4.69572E-03 4.21269E-04-8.50987E-15
 -1        91 4.90793E-03 2.78501E-04-9.64518E-15
 -1        92 5.12648E-03 1.09296E-04-1.08604E-14
 -1        93 5.35437E-03-8.23579E-05-1.21532E-14
 -1        94 5.59311E-03-2.91496E-04-1.35171E-14
 -1        95 5.84282E-03-5.13043E-04-1.49522E-14
 -1        96 6.10250E-03-7.42503E-04-1.64576E-14
 -1        97 6.37051E-03-9.76337E-04-1.80252E-14
 -1        98 6.64495E-03-1.21206E-03-1.96547E-14
 -1        99 6.92406E-03-1.44810E-03-2.13589E-14
 -1       100 7.20632E-03-1.68362E-03-2.31188E-14
 -1       101 7.49057E-03-1.91829E-03-2.49332E-14
 -1       102 7.77596E-03-2.15204E-03-2.68074E-14
 -1       103 8.06195E-03-2.38499E-03-2.87276E-14
 -1       104 8.34819E-03-2.61729E-03-3.06883E-14
 -1       105 8.63446E-03-2.84913E-03-3.26909E-14
 -1       106 8.92068E-03-3.08064E-03-3.47474E-14
 -1       107 9.20681E-03-3.31195E-03-3.68584E-14
 -1       108 9.49283E-03-3.54314E-03-3.90197E-14
 -1       109 9.77876E-03-3.77427E-03-4.12123E-14
 -1       110 1.00646E-02-4.00539E-03-4.34437E-14
 -1       111 1.03504E-02-4.23650E-03-4.57182E-14
 -1       112 1.06362E-02-4.46763E-03-4.80123E-14
 -1       113 1.09219E-02-4.69878E-03-5.03433E-14
 -1       114 1.12076E-02-4.92995E-03-5.27110E-14
 -1       115 1.14933E-02-5.16114E-03-5.51136E-14
 -1       116 1.17790E-02-5.39235E-03-5.75536E-14
 -1       117 1.20647E-02-5.62357E-03-6.00090E-14
 -1       118 1.23504E-02-5.85480E-03-6.24713E-14
 -1       119 1.26361E-02-6.08604E-03-6.49704E-14
 -1       120 1.29218E-02-6.31727E-03-6.74914E-14
 -1       121 1.32075E-02-6.54851E-03-7.00186E-14
 -1       122 1.37063E-02-6.85247E-03-7.28812E-14
 -1       123 1.39337E-02-6.93676E-03-7.33644E-14
 -1       124 1.41611E-02-7.02105E-03-7.38593E-14
 -1       125 1.43885E-02-7.10534E-03-7.43471E-14
 -1       126 1.46159E-02-7.18964E-03-7.48193E-14
 -1       127 1.48394E-02-7.27251E-03-7.52770E-14
 -1       128 1.50668E-02-7.35681E-03-7.57203E-14
 -1       129 1.52942E-02-7.44112E-03-7.61508E-14
 -1       130 1.55216E-02-7.52542E-03-7.65790E-14
 -1       131 1.57490E-02-7.60973E-03-7.69641E-14
 -1       132 1.59765E-02-7.69403E-03-7.73192E-14
 -1       133 1.62000E-02-7.77690E-03-7.76392E-14
 -1       134 1.64275E-02-7.86120E-03-7.79426E-14
 -1       135 1.66549E-02-7.94550E-03-7.82372E-14
 -1       136 1.68824E-02-8.02979E-03-7.84932E-14
 -1       137 1.71098E-02-8.11408E-03-7.87396E-14
 -1       138 8.54765E-03-1.06178E-03-1.42689E-14
 -1       139 8.27663E-03-8.67186E-04-1.39478E-14
 -1       140 7.91708E-03-6.79657E-04-1.34951E-14
 -1       141 7.50453E-03-5.14396E-04-1.29718E-14
 -1       142 6.99601E-03-3.54398E-04-1.23224E-14
 -1       143 6.48230E-03-2.34020E-04-1.16843E-14
 -1       144 5.96781E-03-1.49437E-04-1.10608E-14
 -1       145 5.43036E-03-9.94368E-05-1.04184E-14
 -1       146 4.93054E-03-9.24582E-05-9.84522E-15
 -1       147 4.47535E-03-1.28252E-04-9.33469E-15
 -1       148 4.09410E-03-2.01058E-04-8.92722E-15
 -1       149 3.79537E-03-3.06293E-04-8.62685E-15
 -1       150 3.58002E-03-4.43627E-04-8.43004E-15
 -1       151 3.45622E-03-6.16325E-04-8.34237E-15
 -1       152 3.43912E-03-8.05860E-04-8.37256E-15
 -1       153 3.54134E-03-1.05357E-03-8.53887E-15
 -1       154 3.73717E-03-1.30696E-03-8.79349E-15
 -1       155 4.03754E-03-1.59688E-03-9.14474E-15
 -1       156 4.47373E-03-1.94064E-03-9.61618E-15
 -1       157 5.01607E-03-2.28834E-03-1.01692E-14
 -1       158 5.66547E-03-2.58137E-03-1.08028E-14
 -1       159 7.04715E-03-2.68622E-03-1.21569E-14
 -1       160 7.69175E-03-2.47711E-03-1.28550E-14
 -1       161 8.17607E-03-2.21104E-03-1.34448E-14
 -1       162 8.51421E-03-1.94739E-03-1.39143E-14
 -1       163 8.71448E-03-1.70223E-03-1.42476E-14
 -1       164 8.77983E-03-1.47807E-03-1.44259E-14
 -1       165 2.40899E-04-1.24152E-04-2.92226E-17
 -1       166 2.25739E-04-9.31102E-05-3.79810E-17
 -1       167 2.19755E-04-7.13512E-05-4.17791E-17
 -1       168 2.16637E-04-5.39902E-05-4.30903E-17
 -1       169 2.14889E-04-3.93354E-05-4.24296E-17
 -1       170 2.13904E-04-2.58432E-05-4.10743E-17
 -1       171 2.13461E-04-1.30837E-05-3.92210E-17
 -1       172 2.13416E-04-5.43332E-07-3.71983E-17
 -1       173 2.13691E-04 1.21847E-05-3.46572E-17
 -1       174 2.14276E-04 2.54610E-05-3.13910E-17
 -1       175 2.15241E-04 3.94257E-05-2.72643E-17
 -1       176 2.16881E-04 5.50925E-05-2.14808E-17
 -1       177 2.19812E-04 7.31516E-05-1.38439E-17
 -1       178 2.25642E-04 9.54971E-05-2.80876E-18
 -1       179 2.39608E-04 1.27193E-04 1.31798E-17
 -1       180 2.98054E-04 1.85164E-04 3.16756E-17
 -1       181 4.69354E-04-2.61005E-04-7.50742E-17
 -1       182 7.68467E-04-3.77355E-04-2.26869E-16
 -1       183 1.05391E-03-4.57517E-04-4.61196E-16
 -1       184 1.33385E-03-5.12879E-04-7.75733E-16
 -1       185 1.61247E-03-5.50160E-04-1.16849E-15
 -1       186 1.89269E-03-5.73724E-04-1.63772E-15
 -1       187 2.19137E-03-5.87032E-04-2.20957E-15
 -1       188 2.48291E-03-5.91513E-04-2.82805E-15
 -1       189 2.78493E-03-5.91090E-04-3.51501E-15
 -1       190 3.10230E-03-5.91181E-04-4.26630E-15
 -1       191 3.44167E-03-6.03281E-04-5.07928E-15
 -1       192 3.81160E-03-6.52300E-04-5.95523E-15
 -1       193 4.22199E-03-7.88337E-04-6.89695E-15
 -1       194 4.63543E-03-1.05555E-03-7.80451E-15
 -1       195 5.67998E-03-2.22280E-03-9.84496E-15
 -1       196 6.14688E-03-2.74974E-03-1.08636E-14
 -1       197 6.56341E-03-2.90224E-03-1.18159E-14
 -1       198 7.00574E-03-2.68028E-03-1.28976E-14
 -1       199 7.49655E-03-2.22802E-03-1.41841E-14
 -1       200 8.06612E-03-1.81903E-03-1.58399E-14
 -1       201 8.55846E-03-1.70543E-03-1.74584E-14
 -1       202 8.99653E-03-1.78134E-03-1.91114E-14
 -1       203 9.38787E-03-1.95609E-03-2.08018E-14
 -1       204 9.74363E-03-2.17461E-03-2.25333E-14
 -1       205 1.00744E-02-2.40976E-03-2.43079E-14
 -1       206 1.03885E-02-2.64968E-03-2.61278E-14
 -1       207 1.07069E-02-2.90168E-03-2.80823E-14
 -1       208 1.10033E-02-3.14025E-03-2.99854E-14
 -1       209 1.12955E-02-3.37716E-03-3.19279E-14
 -1       210 1.15852E-02-3.61264E-03-3.39071E-14
 -1       211 1.18734E-02-3.84698E-03-3.59357E-14
 -1       212 1.21606E-02-4.08047E-03-3.80125E-14
 -1       213 1.24472E-02-4.31333E-03-4.01306E-14
 -1       214 1.27334E-02-4.54575E-03-4.22943E-14
 -1       215 1.30337E-02-4.78945E-03-4.46135E-14
 -1       216 1.33196E-02-5.02132E-03-4.68635E-14
 -1       217 1.36054E-02-5.25303E-03-4.91444E-14
 -1       218 1.38911E-02-5.48462E-03-5.14593E-14
 -1       219 1.41768E-02-5.71612E-03-5.37874E-14
 -1       220 1.44625E-02-5.94756E-03-5.61304E-14
 -1       221 1.47482E-02-6.17896E-03-5.84881E-14
 -1       222 1.50482E-02-6.42189E-03-6.09852E-14
 -1       223 1.53339E-02-6.65323E-03-6.33857E-14
 -1       224 1.56196E-02-6.88455E-03-6.57955E-14
 -1       225 1.59053E-02-7.11585E-03-6.81925E-14
 -1       226 1.61910E-02-7.34715E-03-7.05841E-14
 -1       227 1.64767E-02-7.57845E-03-7.29823E-14
 -1       228 1.67624E-02-7.80975E-03-7.53929E-14
 -1       229 1.69361E-02-7.96191E-03-7.70607E-14
 -1       230 6.05377E-04 3.30443E-04 2.56244E-17
 -1       231 8.95010E-04 4.32136E-04-3.12013E-17
 -1       232 1.17440E-03 5.04446E-04-1.44612E-16
 -1       233 1.44908E-03 5.56834E-04-3.19697E-16
 -1       234 1.72176E-03 5.95307E-04-5.59716E-16
 -1       235 1.99366E-03 6.24031E-04-8.65319E-16
 -1       236 2.26501E-03 6.45940E-04-1.23667E-15
 -1       237 2.53539E-03 6.62975E-04-1.67385E-15
 -1       238 2.80387E-03 6.76103E-04-2.17798E-15
 -1       239 3.06919E-03 6.85202E-04-2.75063E-15
 -1       240 3.32991E-03 6.88908E-04-3.39114E-15
 -1       241 3.58471E-03 6.84506E-04-4.09796E-15
 -1       242 3.83265E-03 6.68002E-04-4.87225E-15
 -1       243 4.07355E-03 6.34483E-04-5.71732E-15
 -1       244 4.30823E-03 5.78817E-04-6.63458E-15
 -1       245 4.53853E-03 4.96609E-04-7.62334E-15
 -1       246 4.76716E-03 3.85163E-04-8.68821E-15
 -1       247 4.99722E-03 2.44146E-04-9.82947E-15
 -1       248 5.23163E-03 7.56888E-05-1.10472E-14
 -1       249 5.47261E-03-1.16099E-04-1.23430E-14
 -1       250 5.72139E-03-3.26008E-04-1.37114E-14
 -1       251 5.97821E-03-5.48683E-04-1.51492E-14
 -1       252 6.24249E-03-7.79377E-04-1.66539E-14
 -1       253 6.51315E-03-1.01437E-03-1.82229E-14
 -1       254 6.78888E-03-1.25108E-03-1.98566E-14
 -1       255 7.06838E-03-1.48790E-03-2.15589E-14
 -1       256 7.35055E-03-1.72399E-03-2.33199E-14
 -1       257 7.63447E-03-1.95905E-03-2.51343E-14
 -1       258 7.91948E-03-2.19306E-03-2.70030E-14
 -1       259 8.20510E-03-2.42616E-03-2.89196E-14
 -1       260 8.49103E-03-2.65854E-03-3.08772E-14
 -1       261 8.77708E-03-2.89042E-03-3.28852E-14
 -1       262 9.06314E-03-3.12194E-03-3.49389E-14
 -1       263 9.34916E-03-3.35325E-03-3.70409E-14
 -1       264 9.63512E-03-3.58443E-03-3.91874E-14
 -1       265 9.92102E-03-3.81555E-03-4.13712E-14
 -1       266 1.02069E-02-4.04665E-03-4.35953E-14
 -1       267 1.04927E-02-4.27775E-03-4.58647E-14
 -1       268 1.07784E-02-4.50887E-03-4.81651E-14
 -1       269 1.10642E-02-4.74002E-03-5.04974E-14
 -1       270 1.13499E-02-4.97118E-03-5.28620E-14
 -1       271 1.16356E-02-5.20237E-03-5.52611E-14
 -1       272 1.19213E-02-5.43357E-03-5.76929E-14
 -1       273 1.22070E-02-5.66479E-03-6.01402E-14
 -1       274 1.24927E-02-5.89602E-03-6.26040E-14
 -1       275 1.27784E-02-6.12726E-03-6.50954E-14
 -1       276 1.30641E-02-6.35850E-03-6.76104E-14
 -1       277 1.33498E-02-6.58974E-03-7.01342E-14
 -1       278 1.35726E-02-6.69436E-03-7.09378E-14
 -1       279 1.38000E-02-6.77865E-03-7.14236E-14
 -1       280 1.40274E-02-6.86294E-03-7.19137E-14
 -1       281 1.42547E-02-6.94723E-03-7.23973E-14
 -1       282 1.44783E-02-7.03010E-03-7.28583E-14
 -1       283 1.47057E-02-7.11440E-03-7.33122E-14
 -1       284 1.49331E-02-7.19869E-03-7.37522E-14
 -1       285 1.51605E-02-7.28299E-03-7.41822E-14
 -1       286 1.53879E-02-7.36729E-03-7.45837E-14
 -1       287 1.56153E-02-7.45159E-03-7.49600E-14
 -1       288 1.58389E-02-7.53446E-03-7.53008E-14
 -1       289 1.60663E-02-7.61875E-03-7.56230E-14
 -1       290 1.62938E-02-7.70305E-03-7.59284E-14
 -1       291 1.65212E-02-7.78734E-03-7.62187E-14
 -1       292 1.67287E-02-7.87463E-03-7.66432E-14
 -1       293 8.65745E-03-1.28541E-03-1.50035E-14
 -1       294 8.37359E-03-1.16782E-03-1.47433E-14
 -1       295 7.97640E-03-9.84875E-04-1.42319E-14
 -1       296 7.52730E-03-7.63877E-04-1.36096E-14
 -1       297 6.99467E-03-5.44506E-04-1.29732E-14
 -1       298 6.54586E-03-2.97080E-04-1.21327E-14
 -1       299 6.10221E-03-1.28924E-04-1.13874E-14
 -1       300 5.66320E-03-2.29965E-05-1.06272E-14
 -1       301 5.24952E-03-2.97375E-05-9.94198E-15
 -1       302 4.84387E-03-1.05812E-04-9.29170E-15
 -1       303 4.43321E-03-2.34791E-04-8.79108E-15
 -1       304 4.04824E-03-3.65616E-04-8.44260E-15
 -1       305 3.73254E-03-4.92547E-04-8.16989E-15
 -1       306 3.50390E-03-6.07778E-04-7.98721E-15
 -1       307 3.40648E-03-7.06979E-04-7.97883E-15
 -1       308 3.46084E-03-8.03390E-04-7.97469E-15
 -1       309 3.67814E-03-9.93052E-04-8.30327E-15
 -1       310 4.01844E-03-1.22034E-03-8.63287E-15
 -1       311 4.50941E-03-1.52959E-03-9.04998E-15
 -1       312 5.04132E-03-1.98227E-03-9.66781E-15
 -1       313 5.60813E-03-2.43838E-03-1.03468E-14
 -1       314 6.16007E-03-2.77791E-03-1.11029E-14
 -1       315 6.65201E-03-2.83179E-03-1.19116E-14
 -1       316 7.17686E-03-2.61117E-03-1.27641E-14
 -1       317 7.71997E-03-2.24876E-03-1.35276E-14
 -1       318 8.19570E-03-1.92226E-03-1.41716E-14
 -1       319 8.55729E-03-1.67833E-03-1.46612E-14
 -1       320 8.76478E-03-1.51214E-03-1.49679E-14
 -1       321 8.80078E-03-1.39349E-03-1.51552E-14
 -1       322 5.16594E-03-1.57987E-03-8.83993E-15
 -1       323 4.55965E-04-1.61737E-04-1.38022E-16
 -1       324 4.75394E-04-2.09854E-04-1.25540E-16
 -1       325 4.39696E-04-9.24575E-05-1.43762E-16
 -1       326 4.36281E-04-6.44537E-05-1.41356E-16
 -1       327 4.34530E-04-3.85163E-05-1.37172E-16
 -1       328 4.33979E-04-1.34728E-05-1.31639E-16
 -1       329 4.34350E-04 1.15714E-05-1.24856E-16
 -1       330 4.35521E-04 3.73594E-05-1.16189E-16
 -1       331 4.37528E-04 6.41400E-05-1.05489E-16
 -1       332 4.40830E-04 9.37151E-05-9.19099E-17
 -1       333 4.46368E-04 1.26980E-04-7.45728E-17
 -1       334 4.56405E-04 1.66282E-04-5.17910E-17
 -1       335 4.76414E-04 2.16191E-04-2.14096E-17
 -1       336 5.32656E-04 2.69265E-04-1.99900E-18
 -1       337 8.25580E-04 3.72769E-04-6.87011E-17
 -1       338 4.53513E-03-1.18612E-03-8.33846E-15
 -1       339 8.65748E-04-3.51160E-04-3.69025E-16
 -1       340 1.15351E-03-4.16875E-04-6.47211E-16
 -1       341 1.43828E-03-4.62174E-04-1.00196E-15
 -1       342 1.72175E-03-4.91901E-04-1.43207E-15
 -1       343 2.01948E-03-5.10205E-04-1.96242E-15
 -1       344 2.30412E-03-5.18246E-04-2.53971E-15
 -1       345 2.59036E-03-5.19913E-04-3.18611E-15
 -1       346 2.87812E-03-5.19132E-04-3.89913E-15
 -1       347 3.16662E-03-5.23161E-04-4.67449E-15
 -1       348 3.45464E-03-5.46620E-04-5.51095E-15
 -1       349 3.74304E-03-6.18633E-04-6.40950E-15
 -1       350 4.01112E-03-7.69898E-04-7.27319E-15
 -1       351 7.62799E-03-1.01692E-03-1.44962E-14
 -1       352 8.06444E-03-1.84275E-03-1.48922E-14
 -1       353 8.53159E-03-1.60307E-03-1.64894E-14
 -1       354 8.85877E-03-1.63239E-03-1.81110E-14
 -1       355 9.16673E-03-1.78114E-03-1.97699E-14
 -1       356 9.46903E-03-1.98700E-03-2.14713E-14
 -1       357 9.76858E-03-2.21713E-03-2.32196E-14
 -1       358 1.00655E-02-2.45583E-03-2.50088E-14
 -1       359 1.03745E-02-2.70827E-03-2.69340E-14
 -1       360 1.06664E-02-2.94774E-03-2.88081E-14
 -1       361 1.09566E-02-3.18559E-03-3.07215E-14
 -1       362 1.12453E-02-3.42185E-03-3.26748E-14
 -1       363 1.15331E-02-3.65680E-03-3.46721E-14
 -1       364 1.18202E-02-3.89074E-03-3.67183E-14
 -1       365 1.21069E-02-4.12393E-03-3.88041E-14
 -1       366 1.23932E-02-4.35659E-03-4.09381E-14
 -1       367 1.26936E-02-4.60046E-03-4.32219E-14
 -1       368 1.29796E-02-4.83245E-03-4.54401E-14
 -1       369 1.32654E-02-5.06424E-03-4.76925E-14
 -1       370 1.35513E-02-5.29589E-03-4.99833E-14
 -1       371 1.38370E-02-5.52744E-03-5.23012E-14
 -1       372 1.41228E-02-5.75891E-03-5.46351E-14
 -1       373 1.44085E-02-5.99033E-03-5.69852E-14
 -1       374 1.47085E-02-6.23328E-03-5.94732E-14
 -1       375 1.49942E-02-6.46462E-03-6.18653E-14
 -1       376 1.52799E-02-6.69595E-03-6.42745E-14
 -1       377 1.55656E-02-6.92726E-03-6.66785E-14
 -1       378 1.58513E-02-7.15856E-03-6.90875E-14
 -1       379 1.61370E-02-7.38986E-03-7.15024E-14
 -1       380 1.64227E-02-7.62116E-03-7.39305E-14
 -1       381 1.27333E-03 4.61526E-04-3.23455E-16
 -1       382 1.55447E-03 5.06156E-04-5.51086E-16
 -1       383 1.83369E-03 5.39144E-04-8.43299E-16
 -1       384 2.11178E-03 5.64012E-04-1.19986E-15
 -1       385 2.38895E-03 5.83282E-04-1.62173E-15
 -1       386 2.66498E-03 5.98531E-04-2.10886E-15
 -1       387 2.93927E-03 6.10320E-04-2.66327E-15
 -1       388 3.21098E-03 6.18023E-04-3.28531E-15
 -1       389 3.47908E-03 6.19650E-04-3.97411E-15
 -1       390 3.74262E-03 6.11761E-04-4.73041E-15
 -1       391 4.00100E-03 5.89630E-04-5.55469E-15
 -1       392 4.25424E-03 5.47777E-04-6.45038E-15
 -1       393 4.50324E-03 4.80880E-04-7.41643E-15
 -1       394 4.74975E-03 3.84909E-04-8.45647E-15
 -1       395 4.99614E-03 2.58118E-04-9.57251E-15
 -1       396 5.24484E-03 1.01522E-04-1.07666E-14
 -1       397 5.49786E-03-8.13486E-05-1.20370E-14
 -1       398 5.75643E-03-2.85291E-04-1.33800E-14
 -1       399 6.02087E-03-5.04534E-04-1.47955E-14
 -1       400 6.29083E-03-7.33704E-04-1.62768E-14
 -1       401 6.56548E-03-9.68438E-04-1.78233E-14
 -1       402 6.84384E-03-1.20560E-03-1.94332E-14
 -1       403 7.12495E-03-1.44318E-03-2.11091E-14
 -1       404 7.40798E-03-1.68011E-03-2.28482E-14
 -1       405 7.69229E-03-1.91592E-03-2.46417E-14
 -1       406 7.97740E-03-2.15054E-03-2.64881E-14
 -1       407 8.26298E-03-2.38409E-03-2.83851E-14
 -1       408 8.54880E-03-2.61681E-03-3.03264E-14
 -1       409 8.83473E-03-2.84889E-03-3.23130E-14
 -1       410 9.12068E-03-3.08054E-03-3.43457E-14
 -1       411 9.40662E-03-3.31192E-03-3.64220E-14
 -1       412 9.69253E-03-3.54313E-03-3.85422E-14
 -1       413 9.97839E-03-3.77425E-03-4.07022E-14
 -1       414 1.02642E-02-4.00535E-03-4.29021E-14
 -1       415 1.05500E-02-4.23644E-03-4.51500E-14
 -1       416 1.08358E-02-4.46754E-03-4.74398E-14
 -1       417 1.11215E-02-4.69867E-03-4.97567E-14
 -1       418 1.14072E-02-4.92982E-03-5.21089E-14
 -1       419 1.16930E-02-5.16100E-03-5.44922E-14
 -1       420 1.19787E-02-5.39220E-03-5.69049E-14
 -1       421 1.22644E-02-5.62341E-03-5.93423E-14
 -1       422 1.25501E-02-5.85463E-03-6.17964E-14
 -1       423 1.28358E-02-6.08587E-03-6.42712E-14
 -1       424 1.31215E-02-6.31711E-03-6.67724E-14
 -1       425 1.33471E-02-6.50574E-03-6.88546E-14
 -1       426 1.38936E-02-6.70483E-03-6.99699E-14
 -1       427 1.36662E-02-6.62054E-03-6.94812E-14
 -1       428 1.41171E-02-6.78769E-03-7.04399E-14
 -1       429 1.43445E-02-6.87198E-03-7.08957E-14
 -1       430 1.45719E-02-6.95627E-03-7.13426E-14
 -1       431 1.47993E-02-7.04057E-03-7.17799E-14
 -1       432 1.50267E-02-7.12486E-03-7.21995E-14
 -1       433 1.52542E-02-7.20915E-03-7.25922E-14
 -1       434 1.54777E-02-7.29202E-03-7.29516E-14
 -1       435 1.57052E-02-7.37631E-03-7.32939E-14
 -1       436 1.59326E-02-7.46060E-03-7.36168E-14
 -1       437 1.61601E-02-7.54489E-03-7.39281E-14
 -1       438 1.05034E-03 4.24337E-04-1.74248E-16
 -1       439 8.11697E-03-1.21654E-03-1.51322E-14
 -1       440 7.17866E-03-7.93670E-04-1.38323E-14
 -1       441 8.76045E-03-1.39886E-03-1.57517E-14
 -1       442 4.45623E-04-1.24023E-04-1.43057E-16
 -1       443 6.57053E-03-4.27320E-04-1.26808E-14
 -1       444 6.22557E-03-2.19404E-04-1.19125E-14
 -1       445 5.87725E-03-6.12170E-05-1.11328E-14
 -1       446 5.41242E-03 1.56822E-05-1.00737E-14
 -1       447 5.08690E-03-3.13884E-05-9.40123E-15
 -1       448 4.66182E-03-1.76017E-04-8.67015E-15
 -1       449 4.25371E-03-3.42013E-04-8.22606E-15
 -1       450 3.90811E-03-4.74487E-04-7.93027E-15
 -1       451 3.61312E-03-5.79566E-04-7.68691E-15
 -1       452 3.41937E-03-6.51212E-04-7.54867E-15
 -1       453 3.39576E-03-6.93246E-04-7.53530E-15
 -1       454 3.59639E-03-7.95669E-04-7.77154E-15
 -1       455 3.90594E-03-9.36137E-04-8.04345E-15
 -1       456 4.34352E-03-1.17352E-03-8.42749E-15
 -1       457 4.96951E-03-1.64622E-03-9.10166E-15
 -1       458 8.41935E-03-1.64447E-03-1.53983E-14
 -1       459 8.67821E-03-1.52575E-03-1.57113E-14
 -1       460 8.81653E-03-1.46021E-03-1.58977E-14
 -1       461 8.53163E-03-1.34477E-03-1.55988E-14
 -1       462 3.46078E-03-6.83256E-04-7.33151E-15
 -1       463 5.62442E-03 8.61772E-06-1.05615E-14
 -1       464 6.63307E-04-7.57280E-05-2.93487E-16
 -1       465 6.67665E-04-1.14733E-04-2.99402E-16
 -1       466 6.61429E-04-1.90476E-06-2.72480E-16
 -1       467 6.62924E-04 3.53885E-05-2.57471E-16
 -1       468 6.65772E-04 7.35806E-05-2.39195E-16
 -1       469 6.70389E-04 1.14978E-04-2.16403E-16
 -1       470 6.77688E-04 1.60231E-04-1.88516E-16
 -1       471 6.89661E-04 2.11205E-04-1.53764E-16
 -1       472 7.10579E-04 2.70710E-04-1.10080E-16
 -1       473 7.64439E-04 3.19638E-04-9.28518E-17
 -1       474 6.79282E-03-6.50214E-04-1.35442E-14
 -1       475 7.86281E-03-1.23490E-03-1.55767E-14
 -1       476 9.77978E-04-3.21459E-04-5.21508E-16
 -1       477 1.26411E-03-3.73394E-04-8.39745E-16
 -1       478 1.54898E-03-4.09517E-04-1.23163E-15
 -1       479 1.84624E-03-4.34089E-04-1.72132E-15
 -1       480 2.12697E-03-4.47923E-04-2.25956E-15
 -1       481 2.40404E-03-4.55420E-04-2.86606E-15
 -1       482 2.67485E-03-4.60160E-04-3.54026E-15
 -1       483 2.93485E-03-4.67501E-04-4.27898E-15
 -1       484 3.17714E-03-4.86343E-04-5.07877E-15
 -1       485 3.39248E-03-5.31708E-04-5.93762E-15
 -1       486 3.64436E-03-6.33697E-04-6.81727E-15
 -1       487 7.13789E-04-2.47004E-04-2.99684E-16
 -1       488 9.03263E-03-1.65076E-03-1.87617E-14
 -1       489 9.26153E-03-1.83409E-03-2.04297E-14
 -1       490 9.51311E-03-2.04920E-03-2.21461E-14
 -1       491 9.78021E-03-2.27911E-03-2.39079E-14
 -1       492 1.00706E-02-2.52678E-03-2.58048E-14
 -1       493 1.03523E-02-2.76413E-03-2.76530E-14
 -1       494 1.06366E-02-3.00111E-03-2.95399E-14
 -1       495 1.09221E-02-3.23712E-03-3.14666E-14
 -1       496 1.12081E-02-3.47209E-03-3.34361E-14
 -1       497 1.14942E-02-3.70615E-03-3.54510E-14
 -1       498 1.17804E-02-3.93950E-03-3.75085E-14
 -1       499 1.20664E-02-4.17229E-03-3.96126E-14
 -1       500 1.23667E-02-4.41629E-03-4.18656E-14
 -1       501 1.26527E-02-4.64837E-03-4.40528E-14
 -1       502 1.29385E-02-4.88023E-03-4.62791E-14
 -1       503 1.32244E-02-5.11193E-03-4.85367E-14
 -1       504 1.35101E-02-5.34353E-03-5.08362E-14
 -1       505 1.37959E-02-5.57503E-03-5.31620E-14
 -1       506 1.40816E-02-5.80648E-03-5.55043E-14
 -1       507 1.43817E-02-6.04944E-03-5.79816E-14
 -1       508 1.46674E-02-6.28080E-03-6.03658E-14
 -1       509 1.49531E-02-6.51214E-03-6.27696E-14
 -1       510 1.52388E-02-6.74346E-03-6.51781E-14
 -1       511 1.55245E-02-6.97476E-03-6.75918E-14
 -1       512 1.58102E-02-7.20606E-03-7.00176E-14
 -1       513 1.59852E-02-7.37548E-03-7.19639E-14
 -1       514 1.95461E-03 4.79056E-04-1.14717E-15
 -1       515 1.67046E-03 4.51472E-04-8.03956E-16
 -1       516 1.38557E-03 4.14542E-04-5.24855E-16
 -1       517 2.23834E-03 5.00124E-04-1.55419E-15
 -1       518 2.52179E-03 5.16740E-04-2.02555E-15
 -1       519 2.80483E-03 5.30110E-04-2.56268E-15
 -1       520 3.08702E-03 5.40409E-04-3.16670E-15
 -1       521 3.36759E-03 5.46544E-04-3.83778E-15
 -1       522 3.64550E-03 5.45911E-04-4.57515E-15
 -1       523 3.91970E-03 5.34300E-04-5.38079E-15
 -1       524 4.18943E-03 5.06135E-04-6.25394E-15
 -1       525 4.45468E-03 4.55221E-04-7.19705E-15
 -1       526 4.71649E-03 3.75987E-04-8.21389E-15
 -1       527 4.97683E-03 2.64898E-04-9.30565E-15
 -1       528 5.23817E-03 1.21490E-04-1.04749E-14
 -1       529 5.50272E-03-5.14688E-05-1.17209E-14
 -1       530 5.77184E-03-2.48763E-04-1.30389E-14
 -1       531 6.04583E-03-4.64066E-04-1.44307E-14
 -1       532 6.32415E-03-6.91240E-04-1.58917E-14
 -1       533 6.60582E-03-9.25207E-04-1.74170E-14
 -1       534 6.88975E-03-1.16229E-03-1.90060E-14
 -1       535 7.17505E-03-1.40012E-03-2.06565E-14
 -1       536 7.46105E-03-1.63741E-03-2.23716E-14
 -1       537 7.74734E-03-1.87358E-03-2.41450E-14
 -1       538 8.03368E-03-2.10852E-03-2.59697E-14
 -1       539 8.31997E-03-2.34233E-03-2.78445E-14
 -1       540 8.60616E-03-2.57522E-03-2.97679E-14
 -1       541 8.89225E-03-2.80743E-03-3.17394E-14
 -1       542 9.17825E-03-3.03916E-03-3.37529E-14
 -1       543 9.46418E-03-3.27058E-03-3.58090E-14
 -1       544 9.75004E-03-3.50182E-03-3.79031E-14
 -1       545 1.00359E-02-3.73295E-03-4.00394E-14
 -1       546 1.03217E-02-3.96403E-03-4.22174E-14
 -1       547 1.06074E-02-4.19511E-03-4.44415E-14
 -1       548 1.08932E-02-4.42621E-03-4.67097E-14
 -1       549 1.11789E-02-4.65732E-03-4.90179E-14
 -1       550 1.14646E-02-4.88846E-03-5.13562E-14
 -1       551 1.17503E-02-5.11963E-03-5.37247E-14
 -1       552 1.20361E-02-5.35082E-03-5.61253E-14
 -1       553 1.23218E-02-5.58202E-03-5.85476E-14
 -1       554 1.26075E-02-5.81325E-03-6.09951E-14
 -1       555 1.28932E-02-6.04448E-03-6.34599E-14
 -1       556 1.31789E-02-6.27572E-03-6.59475E-14
 -1       557 1.39834E-02-6.62957E-03-6.84914E-14
 -1       558 1.37599E-02-6.54672E-03-6.80295E-14
 -1       559 1.35325E-02-6.46243E-03-6.75459E-14
 -1       560 4.03755E-03-4.15574E-04-7.62700E-15
 -1       561 1.42108E-02-6.71386E-03-6.89424E-14
 -1       562 1.44382E-02-6.79815E-03-6.93827E-14
 -1       563 1.46656E-02-6.88243E-03-6.98110E-14
 -1       564 1.48930E-02-6.96672E-03-7.02166E-14
 -1       565 1.51166E-02-7.04958E-03-7.05942E-14
 -1       566 1.53440E-02-7.13387E-03-7.09518E-14
 -1       567 1.55715E-02-7.21816E-03-7.12954E-14
 -1       568 1.57783E-02-7.29682E-03-7.16315E-14
 -1       569 3.75104E-03-7.38384E-04-7.39398E-15
 -1       570 8.85228E-03-1.48112E-03-1.67323E-14
 -1       571 7.37384E-03-1.00099E-03-1.47349E-14
 -1       572 3.46475E-03-5.88472E-04-7.04078E-15
 -1       573 8.81431E-03-1.53749E-03-1.71573E-14
 -1       574 8.34626E-03-1.38618E-03-1.61381E-14
 -1       575 5.22403E-03 2.65825E-05-9.52516E-15
 -1       576 6.61434E-04-3.85793E-05-2.84529E-16
 -1       577 6.28592E-03-3.24677E-04-1.23936E-14
 -1       578 4.85100E-03-6.68725E-05-8.68104E-15
 -1       579 3.73259E-03-5.26116E-04-7.37635E-15
 -1       580 3.36646E-03-6.27559E-04-7.08302E-15
 -1       581 8.80081E-03-1.49988E-03-1.65735E-14
 -1       582 4.39452E-03-2.60662E-04-7.97210E-15
 -1       583 8.69535E-03-1.45371E-03-1.64822E-14
 -1       584 5.98561E-03-1.42531E-04-1.15945E-14
 -1       585 6.75443E-04-1.57205E-04-3.01313E-16
 -1       586 9.91695E-04 3.72244E-04-2.01878E-16
 -1       587 3.55111E-03-6.55897E-04-7.07701E-15
 -1       588 1.18838E-03 3.98115E-04-3.44231E-16
 -1       589 5.75113E-03-4.42637E-05-1.10058E-14
 -1       590 3.36956E-03-6.12840E-04-6.88172E-15
 -1       591 6.91780E-04-1.98840E-04-3.03197E-16
 -1       592 6.49617E-03-5.17197E-04-1.32351E-14
 -1       593 8.99216E-04 6.91884E-05-4.29673E-16
 -1       594 8.95803E-04 2.01379E-05-4.56087E-16
 -1       595 9.12860E-04 1.75088E-04-3.59132E-16
 -1       596 9.25417E-04 2.34661E-04-3.12281E-16
 -1       597 9.37819E-04 3.22537E-04-2.22478E-16
 -1       598 1.32468E-02-6.23119E-03-6.50497E-14
 -1       599 3.36142E-03-5.43609E-04-6.18511E-15
 -1       600 1.09681E-03-2.87782E-04-6.84057E-16
 -1       601 1.38048E-03-3.28161E-04-1.03879E-15
 -1       602 1.67717E-03-3.58159E-04-1.48760E-15
 -1       603 1.95668E-03-3.77810E-04-1.98733E-15
 -1       604 2.23090E-03-3.91860E-04-2.55461E-15
 -1       605 2.49644E-03-4.03905E-04-3.18973E-15
 -1       606 2.74809E-03-4.18670E-04-3.89102E-15
 -1       607 2.97802E-03-4.42749E-04-4.65487E-15
 -1       608 3.17461E-03-4.85065E-04-5.47672E-15
 -1       609 7.02808E-03-8.68501E-04-1.45609E-14
 -1       610 8.93127E-04-2.46452E-04-4.74969E-16
 -1       611 1.36242E-02-6.38788E-03-6.60974E-14
 -1       612 9.08812E-03-1.71712E-03-1.94192E-14
 -1       613 9.28105E-03-1.90810E-03-2.10855E-14
 -1       614 9.51307E-03-2.12105E-03-2.28128E-14
 -1       615 9.77978E-03-2.35723E-03-2.46807E-14
 -1       616 1.00473E-02-2.58805E-03-2.65020E-14
 -1       617 1.03228E-02-2.82126E-03-2.83651E-14
 -1       618 1.06029E-02-3.05518E-03-3.02643E-14
 -1       619 1.08856E-02-3.28904E-03-3.22084E-14
 -1       620 1.11699E-02-3.52255E-03-3.41950E-14
 -1       621 1.14549E-02-3.75563E-03-3.62235E-14
 -1       622 1.17403E-02-3.98832E-03-3.82945E-14
 -1       623 1.20403E-02-4.23229E-03-4.05190E-14
 -1       624 1.23260E-02-4.46438E-03-4.26818E-14
 -1       625 1.26118E-02-4.69627E-03-4.48798E-14
 -1       626 1.28976E-02-4.92800E-03-4.71140E-14
 -1       627 1.31833E-02-5.15962E-03-4.93847E-14
 -1       628 1.34691E-02-5.39116E-03-5.16919E-14
 -1       629 1.37548E-02-5.62262E-03-5.40237E-14
 -1       630 1.40549E-02-5.86560E-03-5.64893E-14
 -1       631 1.43406E-02-6.09698E-03-5.88657E-14
 -1       632 1.46263E-02-6.32832E-03-6.12620E-14
 -1       633 1.49120E-02-6.55965E-03-6.36737E-14
 -1       634 1.51977E-02-6.79096E-03-6.60901E-14
 -1       635 1.54835E-02-7.02226E-03-6.85234E-14
 -1       636 1.56309E-02-7.15954E-03-7.00716E-14
 -1       637 1.79514E-03 3.92633E-04-1.07857E-15
 -1       638 2.08380E-03 4.14660E-04-1.47153E-15
 -1       639 1.50714E-03 3.63348E-04-7.49370E-16
 -1       640 2.66378E-03 4.45369E-04-2.44882E-15
 -1       641 2.95516E-03 4.56651E-04-3.03551E-15
 -1       642 3.24696E-03 4.65436E-04-3.68905E-15
 -1       643 3.53821E-03 4.70255E-04-4.40887E-15
 -1       644 3.82747E-03 4.67871E-04-5.19446E-15
 -1       645 4.11316E-03 4.53085E-04-6.04661E-15
 -1       646 4.39415E-03 4.19072E-04-6.96760E-15
 -1       647 4.67046E-03 3.58503E-04-7.96066E-15
 -1       648 4.94362E-03 2.65410E-04-9.02822E-15
 -1       649 5.21635E-03 1.37087E-04-1.01725E-14
 -1       650 5.49151E-03-2.49286E-05-1.13930E-14
 -1       651 5.77107E-03-2.15384E-04-1.26889E-14
 -1       652 6.05550E-03-4.27023E-04-1.40577E-14
 -1       653 6.34394E-03-6.52510E-04-1.54981E-14
 -1       654 6.63488E-03-8.85777E-04-1.70029E-14
 -1       655 6.92679E-03-1.12253E-03-1.85695E-14
 -1       656 7.21853E-03-1.36012E-03-2.01994E-14
 -1       657 7.50942E-03-1.59716E-03-2.18914E-14
 -1       658 7.79922E-03-1.83308E-03-2.36410E-14
 -1       659 8.08794E-03-2.06779E-03-2.54468E-14
 -1       660 8.37575E-03-2.30142E-03-2.73030E-14
 -1       661 8.66286E-03-2.53418E-03-2.92064E-14
 -1       662 8.94946E-03-2.76629E-03-3.11593E-14
 -1       663 9.23571E-03-2.99795E-03-3.31566E-14
 -1       664 9.52173E-03-3.22933E-03-3.51948E-14
 -1       665 9.80761E-03-3.46053E-03-3.72677E-14
 -1       666 1.00934E-02-3.69164E-03-3.93822E-14
 -1       667 1.03792E-02-3.92271E-03-4.15366E-14
 -1       668 1.06649E-02-4.15378E-03-4.37374E-14
 -1       669 1.09506E-02-4.38486E-03-4.59872E-14
 -1       670 1.12363E-02-4.61596E-03-4.82777E-14
 -1       671 1.15220E-02-4.84709E-03-5.06042E-14
 -1       672 1.18077E-02-5.07825E-03-5.29618E-14
 -1       673 1.20935E-02-5.30944E-03-5.53459E-14
 -1       674 1.23792E-02-5.54064E-03-5.77580E-14
 -1       675 1.26649E-02-5.77186E-03-6.01954E-14
 -1       676 1.29558E-02-6.00152E-03-6.26125E-14
 -1       677 1.40771E-02-6.55573E-03-6.70011E-14
 -1       678 1.38506E-02-6.47181E-03-6.65589E-14
 -1       679 1.45319E-02-6.72429E-03-6.78537E-14
 -1       680 1.47554E-02-6.80715E-03-6.82390E-14
 -1       681 1.49829E-02-6.89143E-03-6.86164E-14
 -1       682 1.52103E-02-6.97572E-03-6.89790E-14
 -1       683 7.61070E-03-1.19776E-03-1.58689E-14
 -1       684 8.17913E-03-1.42603E-03-1.68243E-14
 -1       685 3.78555E-03-4.38875E-04-6.90052E-15
 -1       686 8.84420E-03-1.55924E-03-1.76882E-14
 -1       687 3.51369E-03-5.10474E-04-6.58251E-15
 -1       688 3.32890E-03-5.59311E-04-6.48645E-15
 -1       689 5.40613E-03 4.68248E-05-9.99584E-15
 -1       690 9.04675E-04 1.20430E-04-3.97689E-16
 -1       691 2.37330E-03 4.31681E-04-1.92760E-15
 -1       692 8.59791E-03-1.52468E-03-1.73305E-14
 -1       693 8.99648E-04-1.22575E-04-5.06302E-16
 -1       694 4.08380E-03-3.24443E-04-7.22291E-15
 -1       695 4.98221E-03 2.84960E-05-8.81048E-15
 -1       696 4.50699E-03-1.24756E-04-7.77453E-15
 -1       697 1.43045E-02-6.64001E-03-6.74385E-14
 -1       698 8.93045E-03-1.55327E-03-1.77063E-14
 -1       699 6.06314E-03-2.35159E-04-1.20626E-14
 -1       700 8.94417E-04-2.74700E-05-4.77611E-16
 -1       701 5.84347E-03-1.18726E-04-1.14565E-14
 -1       702 1.54206E-02-7.06763E-03-6.95283E-14
 -1       703 1.21992E-03 3.24201E-04-4.83561E-16
 -1       704 9.07970E-04-1.73310E-04-5.12675E-16
 -1       705 3.28587E-03-5.47605E-04-6.29230E-15
 -1       706 8.95458E-04-7.45241E-05-4.94437E-16
 -1       707 1.16371E-03 2.40737E-04-5.29504E-16
 -1       708 5.51997E-03 2.01814E-05-1.04200E-14
 -1       709 1.46217E-02-6.64900E-03-6.62927E-14
 -1       710 1.50791E-03-2.82483E-04-1.25407E-15
 -1       711 1.78756E-03-3.06265E-04-1.71274E-15
 -1       712 2.06298E-03-3.25383E-04-2.23996E-15
 -1       713 2.33100E-03-3.43235E-04-2.83327E-15
 -1       714 2.58741E-03-3.64085E-04-3.49368E-15
 -1       715 2.82646E-03-3.93358E-04-4.21889E-15
 -1       716 3.04039E-03-4.37425E-04-5.00315E-15
 -1       717 8.80345E-03-1.63683E-03-1.84940E-14
 -1       718 9.47142E-03-2.19286E-03-2.34988E-14
 -1       719 9.72471E-03-2.41174E-03-2.52912E-14
 -1       720 9.99036E-03-2.63722E-03-2.71292E-14
 -1       721 1.02639E-02-2.86632E-03-2.90033E-14
 -1       722 1.05424E-02-3.09724E-03-3.09196E-14
 -1       723 1.08239E-02-3.32901E-03-3.28774E-14
 -1       724 1.11072E-02-3.56108E-03-3.48782E-14
 -1       725 1.13916E-02-3.79320E-03-3.69160E-14
 -1       726 1.16908E-02-4.03685E-03-3.91102E-14
 -1       727 1.19762E-02-4.26878E-03-4.12432E-14
 -1       728 1.22617E-02-4.50059E-03-4.34132E-14
 -1       729 1.25474E-02-4.73230E-03-4.56210E-14
 -1       730 1.28331E-02-4.96391E-03-4.78656E-14
 -1       731 1.31188E-02-5.19545E-03-5.01491E-14
 -1       732 1.34045E-02-5.42692E-03-5.24639E-14
 -1       733 1.37045E-02-5.66991E-03-5.49142E-14
 -1       734 1.39903E-02-5.90130E-03-5.72787E-14
 -1       735 1.42760E-02-6.13265E-03-5.96681E-14
 -1       736 1.45617E-02-6.36398E-03-6.20765E-14
 -1       737 1.48474E-02-6.59529E-03-6.44969E-14
 -1       738 1.51332E-02-6.82660E-03-6.69293E-14
 -1       739 1.92676E-03 3.28995E-04-1.37491E-15
 -1       740 1.63566E-03 3.07324E-04-9.96853E-16
 -1       741 3.11488E-03 3.77360E-04-3.52753E-15
 -1       742 2.81398E-03 3.68247E-04-2.89192E-15
 -1       743 3.72116E-03 3.89501E-04-4.99737E-15
 -1       744 4.02284E-03 3.86774E-04-5.82788E-15
 -1       745 4.32036E-03 3.70116E-04-6.72705E-15
 -1       746 4.61214E-03 3.30600E-04-7.69772E-15
 -1       747 4.89858E-03 2.59070E-04-8.74071E-15
 -1       748 5.18238E-03 1.49206E-04-9.85900E-15
 -1       749 5.46749E-03 1.11436E-07-1.10553E-14
 -1       750 5.75712E-03-1.83239E-04-1.23277E-14
 -1       751 6.05239E-03-3.92127E-04-1.36741E-14
 -1       752 6.35221E-03-6.17158E-04-1.50917E-14
 -1       753 6.65426E-03-8.50605E-04-1.65778E-14
 -1       754 6.95619E-03-1.08731E-03-1.81251E-14
 -1       755 7.25628E-03-1.32438E-03-1.97337E-14
 -1       756 7.55369E-03-1.56056E-03-2.14061E-14
 -1       757 7.84829E-03-1.79548E-03-2.31358E-14
 -1       758 8.14037E-03-2.02922E-03-2.49194E-14
 -1       759 8.43040E-03-2.26202E-03-2.67561E-14
 -1       760 8.71889E-03-2.49413E-03-2.86418E-14
 -1       761 9.00631E-03-2.72577E-03-3.05762E-14
 -1       762 9.29300E-03-2.95711E-03-3.25557E-14
 -1       763 9.57924E-03-3.18827E-03-3.45771E-14
 -1       764 9.86520E-03-3.41933E-03-3.66361E-14
 -1       765 1.01510E-02-3.65036E-03-3.87281E-14
 -1       766 1.04367E-02-3.88138E-03-4.08629E-14
 -1       767 1.07224E-02-4.11242E-03-4.30406E-14
 -1       768 1.10081E-02-4.34349E-03-4.52674E-14
 -1       769 1.12938E-02-4.57458E-03-4.75404E-14
 -1       770 1.15795E-02-4.80571E-03-4.98519E-14
 -1       771 1.18652E-02-5.03686E-03-5.21929E-14
 -1       772 1.21509E-02-5.26804E-03-5.45669E-14
 -1       773 1.24366E-02-5.49924E-03-5.69675E-14
 -1       774 1.27223E-02-5.73046E-03-5.93938E-14
 -1       775 9.03839E-03-1.78475E-03-1.99735E-14
 -1       776 1.48492E-02-6.73328E-03-6.66679E-14
 -1       777 1.43982E-02-6.56615E-03-6.59102E-14
 -1       778 1.33333E-02-6.15821E-03-6.36583E-14
 -1       779 6.71629E-03-7.13565E-04-1.42268E-14
 -1       780 5.14948E-03 8.29801E-05-9.25234E-15
 -1       781 1.39433E-02-6.39760E-03-6.50734E-14
 -1       782 3.35758E-03-5.40933E-04-6.41460E-15
 -1       783 3.41776E-03 3.85019E-04-4.23030E-15
 -1       784 9.23698E-03-1.98508E-03-2.17559E-14
 -1       785 3.54308E-03-4.09872E-04-6.13842E-15
 -1       786 8.50760E-03-1.59964E-03-1.82845E-14
 -1       787 1.41707E-02-6.48187E-03-6.55045E-14
 -1       788 1.22664E-03-2.51357E-04-8.64204E-16
 -1       789 3.78524E-03-3.32751E-04-6.44108E-15
 -1       790 7.29324E-03-1.07855E-03-1.57869E-14
 -1       791 8.99073E-04-2.08839E-04-4.95640E-16
 -1       792 6.25771E-03-3.99584E-04-1.28851E-14
 -1       793 4.63222E-03 1.89465E-05-7.82866E-15
 -1       794 1.13708E-03 5.16735E-05-6.77511E-16
 -1       795 7.96282E-03-1.41213E-03-1.72837E-14
 -1       796 4.14394E-03-1.87306E-04-6.92837E-15
 -1       797 3.34872E-03-4.78071E-04-6.00731E-15
 -1       798 2.22002E-03 3.45219E-04-1.81648E-15
 -1       799 1.35597E-02-6.24212E-03-6.41161E-14
 -1       800 2.51568E-03 3.57819E-04-2.32142E-15
 -1       801 1.30278E-02-5.94433E-03-6.15196E-14
 -1       802 1.37515E-02-6.31986E-03-6.45990E-14
 -1       803 1.34680E-03 2.78217E-04-6.81929E-16
 -1       804 4.80528E-03 1.05757E-04-8.23069E-15
 -1       805 1.14279E-03-1.75922E-04-7.73666E-16
 -1       806 3.23011E-03-4.99496E-04-5.85835E-15
 -1       807 7.66541E-03-1.31217E-03-1.71924E-14
 -1       808 1.14304E-03 1.11469E-04-6.36376E-16
 -1       809 1.15160E-03 1.74430E-04-5.87458E-16
 -1       810 1.13531E-03-1.18584E-04-7.59866E-16
 -1       811 6.03626E-03-2.61747E-04-1.22515E-14
 -1       812 1.13345E-03-6.17131E-06-7.11653E-16
 -1       813 4.29031E-03-3.02495E-05-6.97847E-15
 -1       814 1.35312E-03-2.10289E-04-1.04417E-15
 -1       815 1.91070E-03-2.56255E-04-1.95139E-15
 -1       816 2.18400E-03-2.76917E-04-2.50506E-15
 -1       817 2.44988E-03-3.00551E-04-3.12460E-15
 -1       818 2.70520E-03-3.31464E-04-3.80961E-15
 -1       819 2.94677E-03-3.74334E-04-4.55730E-15
 -1       820 9.15430E-03-2.04551E-03-2.23752E-14
 -1       821 9.66236E-03-2.46617E-03-2.59414E-14
 -1       822 9.93146E-03-2.68842E-03-2.77943E-14
 -1       823 1.02066E-02-2.91482E-03-2.96851E-14
 -1       824 1.04856E-02-3.14367E-03-3.16166E-14
 -1       825 1.07672E-02-3.37391E-03-3.35884E-14
 -1       826 1.10505E-02-3.60490E-03-3.55986E-14
 -1       827 1.13490E-02-3.84784E-03-3.77605E-14
 -1       828 1.16338E-02-4.07938E-03-3.98668E-14
 -1       829 1.19191E-02-4.31097E-03-4.20108E-14
 -1       830 1.22045E-02-4.54254E-03-4.41926E-14
 -1       831 1.24901E-02-4.77409E-03-4.64137E-14
 -1       832 1.27757E-02-5.00559E-03-4.86757E-14
 -1       833 1.30614E-02-5.23705E-03-5.09705E-14
 -1       834 1.33614E-02-5.48003E-03-5.34060E-14
 -1       835 1.36471E-02-5.71142E-03-5.57540E-14
 -1       836 1.39328E-02-5.94277E-03-5.81358E-14
 -1       837 1.42185E-02-6.17410E-03-6.05346E-14
 -1       838 1.45043E-02-6.40542E-03-6.29562E-14
 -1       839 1.46767E-02-6.56935E-03-6.48087E-14
 -1       840 5.29702E-03 7.98792E-05-9.78957E-15
 -1       841 4.22945E-03 3.04781E-04-6.47786E-15
 -1       842 3.91425E-03 3.05350E-04-5.59929E-15
 -1       843 4.84126E-03 2.42904E-04-8.44287E-15
 -1       844 5.13754E-03 1.57202E-04-9.53633E-15
 -1       845 5.43275E-03 2.51918E-05-1.07068E-14
 -1       846 5.73226E-03-1.49826E-04-1.19560E-14
 -1       847 6.03873E-03-3.57194E-04-1.32795E-14
 -1       848 6.35117E-03-5.84032E-04-1.46749E-14
 -1       849 6.66618E-03-8.19587E-04-1.61411E-14
 -1       850 6.98004E-03-1.05726E-03-1.76712E-14
 -1       851 7.29018E-03-1.29391E-03-1.92607E-14
 -1       852 7.59543E-03-1.52866E-03-2.09114E-14
 -1       853 7.89576E-03-1.76172E-03-2.26230E-14
 -1       854 8.19181E-03-1.99357E-03-2.43880E-14
 -1       855 8.48446E-03-2.22472E-03-2.62055E-14
 -1       856 8.77461E-03-2.45552E-03-2.80732E-14
 -1       857 9.06300E-03-2.68618E-03-2.99879E-14
 -1       858 9.35024E-03-2.91683E-03-3.19520E-14
 -1       859 9.63675E-03-3.14753E-03-3.39565E-14
 -1       860 9.92282E-03-3.37830E-03-3.59991E-14
 -1       861 1.02086E-02-3.60915E-03-3.80767E-14
 -1       862 1.04943E-02-3.84007E-03-4.01921E-14
 -1       863 1.07800E-02-4.07105E-03-4.23486E-14
 -1       864 1.10656E-02-4.30209E-03-4.45532E-14
 -1       865 1.13513E-02-4.53318E-03-4.68041E-14
 -1       866 1.16369E-02-4.76430E-03-4.91005E-14
 -1       867 1.19226E-02-4.99545E-03-5.14304E-14
 -1       868 1.22083E-02-5.22664E-03-5.37883E-14
 -1       869 1.24940E-02-5.45784E-03-5.61783E-14
 -1       870 1.27797E-02-5.68906E-03-5.85922E-14
 -1       871 1.44493E-02-6.48508E-03-6.44321E-14
 -1       872 6.97239E-03-9.16063E-04-1.54159E-14
 -1       873 8.91232E-03-1.83670E-03-2.04896E-14
 -1       874 1.42257E-02-6.40223E-03-6.40460E-14
 -1       875 1.47839E-03 2.26168E-04-9.03710E-16
 -1       876 4.53910E-03 2.88148E-04-7.42408E-15
 -1       877 3.77942E-03-1.88855E-04-6.00900E-15
 -1       878 2.97036E-03 2.84588E-04-3.35529E-15
 -1       879 5.65032E-03-4.58502E-05-1.09794E-14
 -1       880 1.13258E-03-6.25495E-05-7.39087E-16
 -1       881 1.76923E-03 2.45779E-04-1.26641E-15
 -1       882 8.33695E-03-1.61957E-03-1.88870E-14
 -1       883 9.40208E-03-2.25066E-03-2.41335E-14
 -1       884 3.56708E-03-2.75989E-04-5.72655E-15
 -1       885 6.44886E-03-5.65185E-04-1.38085E-14
 -1       886 1.63289E-03-2.34991E-04-1.46426E-15
 -1       887 1.31411E-03 2.00586E-04-7.37352E-16
 -1       888 3.17380E-03-4.41195E-04-5.40747E-15
 -1       889 3.31260E-03-3.95949E-04-5.53884E-15
 -1       890 7.34224E-03-1.16156E-03-1.68054E-14
 -1       891 3.91810E-03-4.36911E-05-6.05006E-15
 -1       892 1.32542E-02-6.02824E-03-6.19831E-14
 -1       893 2.66361E-03 2.77713E-04-2.73600E-15
 -1       894 4.48645E-03 7.83059E-05-7.35467E-15
 -1       895 3.59722E-03 2.99263E-04-4.78831E-15
 -1       896 1.34378E-03-1.47389E-04-1.02791E-15
 -1       897 3.28185E-03 2.91717E-04-4.03895E-15
 -1       898 1.36145E-02-6.16407E-03-6.27359E-14
 -1       899 1.39983E-02-6.31796E-03-6.36391E-14
 -1       900 8.71087E-03-1.75562E-03-1.98091E-14
 -1       901 4.96346E-03 1.47273E-04-8.72411E-15
 -1       902 6.22937E-03-4.20256E-04-1.31461E-14
 -1       903 2.06355E-03 2.59860E-04-1.69219E-15
 -1       904 8.06809E-03-1.54557E-03-1.87924E-14
 -1       905 8.81241E-03-1.74374E-03-1.96009E-14
 -1       906 1.37861E-03 2.31128E-05-9.82860E-16
 -1       907 1.38498E-03 9.01729E-05-9.33335E-16
 -1       908 1.38064E-02-6.24102E-03-6.31925E-14
 -1       909 9.59392E-03-2.51412E-03-2.65856E-14
 -1       910 2.31848E-03-2.28650E-04-2.76694E-15
 -1       911 2.58956E-03-2.57224E-04-3.41090E-15
 -1       912 2.85597E-03-2.94512E-04-4.11869E-15
 -1       913 4.11501E-03 2.19555E-04-6.21803E-15
 -1       914 3.08636E-03-3.41404E-04-4.80537E-15
 -1       915 9.86825E-03-2.73530E-03-2.84524E-14
 -1       916 1.01463E-02-2.96052E-03-3.03583E-14
 -1       917 1.04269E-02-3.18831E-03-3.23062E-14
 -1       918 1.07094E-02-3.41770E-03-3.42938E-14
 -1       919 1.10072E-02-3.65957E-03-3.64193E-14
 -1       920 1.12916E-02-3.89048E-03-3.84975E-14
 -1       921 1.15766E-02-4.12167E-03-4.06163E-14
 -1       922 1.18618E-02-4.35301E-03-4.27707E-14
 -1       923 1.21472E-02-4.58441E-03-4.49616E-14
 -1       924 1.24327E-02-4.81582E-03-4.72001E-14
 -1       925 1.27184E-02-5.04723E-03-4.94775E-14
 -1       926 1.30183E-02-5.29019E-03-5.18964E-14
 -1       927 1.33040E-02-5.52156E-03-5.42303E-14
 -1       928 1.35897E-02-5.75291E-03-5.65944E-14
 -1       929 1.38754E-02-5.98424E-03-5.89902E-14
 -1       930 1.41611E-02-6.21555E-03-6.14068E-14
 -1       931 1.43052E-02-6.35032E-03-6.29175E-14
 -1       932 5.38797E-03 5.03535E-05-1.03466E-14
 -1       933 5.08059E-03 1.57350E-04-9.20196E-15
 -1       934 6.01647E-03-3.19050E-04-1.28730E-14
 -1       935 6.34304E-03-5.51034E-04-1.42482E-14
 -1       936 6.67347E-03-7.92233E-04-1.56930E-14
 -1       937 7.00135E-03-1.03279E-03-1.72046E-14
 -1       938 7.32317E-03-1.26954E-03-1.87781E-14
 -1       939 7.63721E-03-1.50239E-03-2.04104E-14
 -1       940 7.94371E-03-1.73260E-03-2.21019E-14
 -1       941 8.24384E-03-1.96148E-03-2.38499E-14
 -1       942 8.53907E-03-2.18999E-03-2.56497E-14
 -1       943 8.83075E-03-2.41866E-03-2.74982E-14
 -1       944 9.12001E-03-2.64773E-03-2.93974E-14
 -1       945 9.40770E-03-2.87726E-03-3.13426E-14
 -1       946 9.69441E-03-3.10720E-03-3.33332E-14
 -1       947 9.98054E-03-3.33749E-03-3.53574E-14
 -1       948 1.02664E-02-3.56804E-03-3.74204E-14
 -1       949 1.05520E-02-3.79879E-03-3.95183E-14
 -1       950 1.08376E-02-4.02968E-03-4.16552E-14
 -1       951 1.11232E-02-4.26067E-03-4.38415E-14
 -1       952 1.14088E-02-4.49174E-03-4.60708E-14
 -1       953 1.16944E-02-4.72286E-03-4.83454E-14
 -1       954 1.19801E-02-4.95402E-03-5.06605E-14
 -1       955 1.22657E-02-5.18521E-03-5.30104E-14
 -1       956 1.25514E-02-5.41642E-03-5.53863E-14
 -1       957 1.28371E-02-5.64764E-03-5.77849E-14
 -1       958 2.36151E-03 2.69971E-04-2.18209E-15
 -1       959 5.45613E-03 2.45049E-05-1.04829E-14
 -1       960 8.60818E-03-1.80126E-03-2.05158E-14
 -1       961 1.34226E-02-6.08634E-03-6.22577E-14
 -1       962 3.46813E-03-1.59889E-04-5.20270E-15
 -1       963 1.37485E-03-4.18846E-05-1.02430E-15
 -1       964 1.35753E-03-9.52086E-05-1.02971E-15
 -1       965 6.68634E-03-7.55892E-04-1.49891E-14
 -1       966 1.40816E-02-6.26748E-03-6.25325E-14
 -1       967 5.80632E-03-1.53283E-04-1.17276E-14
 -1       968 1.61321E-03 1.67680E-04-1.14792E-15
 -1       969 1.34877E-03 1.45625E-04-8.36005E-16
 -1       970 3.27035E-03-2.67258E-04-5.01179E-15
 -1       971 5.69788E-03-1.12381E-04-1.15717E-14
 -1       972 9.06155E-03-2.09265E-03-2.29839E-14
 -1       973 2.04297E-03-2.05811E-04-2.18886E-15
 -1       974 1.76432E-03-1.85592E-04-1.67658E-15
 -1       975 9.32458E-03-2.29903E-03-2.47577E-14
 -1       976 8.82414E-03-1.89584E-03-2.12106E-14
 -1       977 3.78236E-03 2.08641E-04-5.36092E-15
 -1       978 4.44533E-03 2.24989E-04-7.14132E-15
 -1       979 7.03743E-03-9.99701E-04-1.63554E-14
 -1       980 3.59113E-03-3.09590E-05-5.23851E-15
 -1       981 2.81427E-03 1.90676E-04-3.17036E-15
 -1       982 4.11961E-03 6.27382E-05-6.39736E-15
 -1       983 1.32856E-02-5.93056E-03-6.04114E-14
 -1       984 4.63435E-03 1.75426E-04-7.71071E-15
 -1       985 1.38542E-02-6.18321E-03-6.21225E-14
 -1       986 1.62272E-03-1.46710E-05-1.34573E-15
 -1       987 7.75403E-03-1.41632E-03-1.83901E-14
 -1       988 4.76780E-03 2.10536E-04-8.13501E-15
 -1       989 1.90611E-03 1.78299E-04-1.55748E-15
 -1       990 1.62986E-03 5.84147E-05-1.28820E-15
 -1       991 1.31299E-02-5.86699E-03-6.00141E-14
 -1       992 3.12983E-03 1.93731E-04-3.83730E-15
 -1       993 1.34775E-02-6.00749E-03-6.08678E-14
 -1       994 6.46899E-03-6.10584E-04-1.42936E-14
 -1       995 8.85433E-03-1.99384E-03-2.22661E-14
 -1       996 2.47000E-03-1.75250E-04-3.02420E-15
 -1       997 2.75386E-03-2.04662E-04-3.69054E-15
 -1       998 7.02450E-03-1.01438E-03-1.67280E-14
 -1       999 9.80400E-03-2.77853E-03-2.91034E-14
 -1      1000 1.00850E-02-3.00377E-03-3.10271E-14
 -1      1001 1.03675E-02-3.23136E-03-3.29903E-14
 -1      1002 1.06651E-02-3.47195E-03-3.50913E-14
 -1      1003 1.09493E-02-3.70204E-03-3.71371E-14
 -1      1004 1.12340E-02-3.93271E-03-3.92309E-14
 -1      1005 1.15191E-02-4.16371E-03-4.13608E-14
 -1      1006 1.18044E-02-4.39490E-03-4.35224E-14
 -1      1007 1.20898E-02-4.62618E-03-4.57287E-14
 -1      1008 1.23754E-02-4.85750E-03-4.79816E-14
 -1      1009 1.26752E-02-5.10040E-03-5.03856E-14
 -1      1010 1.29609E-02-5.33174E-03-5.27055E-14
 -1      1011 1.32466E-02-5.56307E-03-5.50581E-14
 -1      1012 1.35323E-02-5.79439E-03-5.74414E-14
 -1      1013 1.38180E-02-6.02569E-03-5.98484E-14
 -1      1014 1.39498E-02-6.14659E-03-6.11874E-14
 -1      1015 7.35961E-03-1.25209E-03-1.82838E-14
 -1      1016 7.68287E-03-1.48255E-03-1.99016E-14
 -1      1017 7.99525E-03-1.70872E-03-2.15761E-14
 -1      1018 8.29882E-03-1.93332E-03-2.33024E-14
 -1      1019 8.59588E-03-2.15802E-03-2.50863E-14
 -1      1020 8.88844E-03-2.38366E-03-2.69193E-14
 -1      1021 9.17806E-03-2.61048E-03-2.88005E-14
 -1      1022 9.46582E-03-2.83841E-03-3.07272E-14
 -1      1023 9.75247E-03-3.06729E-03-3.27021E-14
 -1      1024 1.00385E-02-3.29689E-03-3.47131E-14
 -1      1025 1.03242E-02-3.52702E-03-3.67570E-14
 -1      1026 1.06098E-02-3.75753E-03-3.88410E-14
 -1      1027 1.08953E-02-3.98829E-03-4.09639E-14
 -1      1028 1.11808E-02-4.21922E-03-4.31283E-14
 -1      1029 1.14663E-02-4.45027E-03-4.53362E-14
 -1      1030 1.17519E-02-4.68139E-03-4.75913E-14
 -1      1031 1.20375E-02-4.91255E-03-4.98885E-14
 -1      1032 1.23232E-02-5.14375E-03-5.22242E-14
 -1      1033 1.26088E-02-5.37498E-03-5.45869E-14
 -1      1034 1.28945E-02-5.60621E-03-5.69770E-14
 -1      1035 3.45287E-03 1.99337E-04-4.56827E-15
 -1      1036 2.50582E-03 1.88318E-04-2.56854E-15
 -1      1037 1.60173E-03-7.43572E-05-1.36090E-15
 -1      1038 3.00808E-03-2.34817E-04-4.32782E-15
 -1      1039 2.18714E-03-1.51759E-04-2.42277E-15
 -1      1040 1.36658E-02-6.09535E-03-6.14994E-14
 -1      1041 8.34612E-03-1.74161E-03-2.05009E-14
 -1      1042 9.52469E-03-2.55678E-03-2.72212E-14
 -1      1043 1.90427E-03-1.32627E-04-1.88740E-15
 -1      1044 1.63031E-03-1.13408E-04-1.42809E-15
 -1      1045 9.24733E-03-2.33998E-03-2.53783E-14
 -1      1046 3.96911E-03 1.13724E-04-5.94703E-15
 -1      1047 2.20342E-03 1.84722E-04-2.03101E-15
 -1      1048 3.25719E-03-6.53433E-05-4.53070E-15
 -1      1049 1.37224E-02-6.06233E-03-6.07791E-14
 -1      1050 1.31466E-02-5.77358E-03-5.85630E-14
 -1      1051 3.13393E-03-1.56964E-04-4.43577E-15
 -1      1052 2.64966E-03 9.99013E-05-2.97431E-15
 -1      1053 1.87671E-03 1.76942E-05-1.70069E-15
 -1      1054 4.28840E-03 1.63393E-04-6.73640E-15
 -1      1055 8.97161E-03-2.12981E-03-2.35874E-14
 -1      1056 2.96365E-03 9.61843E-05-3.62285E-15
 -1      1057 1.85159E-03-4.84315E-05-1.72725E-15
 -1      1058 7.73811E-03-1.46997E-03-1.93808E-14
 -1      1059 1.33349E-02-5.86143E-03-5.91931E-14
 -1      1060 1.00241E-02-3.04526E-03-3.16888E-14
 -1      1061 1.03222E-02-3.28464E-03-3.37688E-14
 -1      1062 1.06066E-02-3.51392E-03-3.57876E-14
 -1      1063 1.08913E-02-3.74401E-03-3.78522E-14
 -1      1064 1.11763E-02-3.97462E-03-3.99576E-14
 -1      1065 1.14615E-02-4.20554E-03-4.20932E-14
 -1      1066 1.17469E-02-4.43665E-03-4.42695E-14
 -1      1067 1.20324E-02-4.66786E-03-4.64939E-14
 -1      1068 1.23322E-02-4.91068E-03-4.88775E-14
 -1      1069 1.26178E-02-5.14197E-03-5.11794E-14
 -1      1070 1.29035E-02-5.37326E-03-5.35190E-14
 -1      1071 1.31891E-02-5.60456E-03-5.58932E-14
 -1      1072 1.34748E-02-5.83585E-03-5.82872E-14
 -1      1073 1.35986E-02-5.94909E-03-5.95298E-14
 -1      1074 3.78034E-03 6.58370E-05-5.53900E-15
 -1      1075 8.47470E-03-1.86938E-03-2.17738E-14
 -1      1076 8.05461E-03-1.69041E-03-2.10381E-14
 -1      1077 8.35992E-03-1.90903E-03-2.27489E-14
 -1      1078 8.65707E-03-2.12857E-03-2.45144E-14
 -1      1079 8.94916E-03-2.35027E-03-2.63324E-14
 -1      1080 9.23807E-03-2.57417E-03-2.81954E-14
 -1      1081 9.52517E-03-2.80010E-03-3.01083E-14
 -1      1082 9.81128E-03-3.02764E-03-3.20638E-14
 -1      1083 1.00969E-02-3.25640E-03-3.40588E-14
 -1      1084 1.03823E-02-3.48603E-03-3.60893E-14
 -1      1085 1.06676E-02-3.71624E-03-3.81575E-14
 -1      1086 1.09530E-02-3.94685E-03-4.02644E-14
 -1      1087 1.12384E-02-4.17772E-03-4.24113E-14
 -1      1088 1.15239E-02-4.40874E-03-4.45985E-14
 -1      1089 1.18094E-02-4.63987E-03-4.68325E-14
 -1      1090 1.20950E-02-4.87105E-03-4.91123E-14
 -1      1091 1.23806E-02-5.10227E-03-5.14349E-14
 -1      1092 1.26663E-02-5.33351E-03-5.37853E-14
 -1      1093 1.29519E-02-5.56476E-03-5.61640E-14
 -1      1094 3.28774E-03 9.50703E-05-4.33642E-15
 -1      1095 7.46454E-03-1.27383E-03-1.78936E-14
 -1      1096 9.74057E-03-2.81924E-03-2.97480E-14
 -1      1097 2.05356E-03-7.36137E-05-2.09426E-15
 -1      1098 9.45744E-03-2.59596E-03-2.78476E-14
 -1      1099 2.34382E-03 1.03419E-04-2.39040E-15
 -1      1100 2.63774E-03-1.11313E-04-3.27519E-15
 -1      1101 2.34369E-03-9.04314E-05-2.65220E-15
 -1      1102 1.31434E-02-5.71309E-03-5.76729E-14
 -1      1103 2.03879E-03 9.69360E-05-1.87087E-15
 -1      1104 8.00758E-03-1.60640E-03-2.00157E-14
 -1      1105 2.17705E-03 1.59144E-05-2.20735E-15
 -1      1106 8.75721E-03-2.08257E-03-2.35990E-14
 -1      1107 2.94500E-03-6.75236E-05-3.84878E-15
 -1      1108 2.95846E-03 1.39847E-05-3.73965E-15
 -1      1109 2.88249E-03-1.33446E-04-3.83450E-15
 -1      1110 9.17431E-03-2.37643E-03-2.59939E-14
 -1      1111 2.64550E-03 2.43057E-05-3.07864E-15
 -1      1112 2.50989E-03-1.89854E-05-2.87567E-15
 -1      1113 2.76813E-03-5.27922E-05-3.45012E-15
 -1      1114 1.33710E-02-5.83109E-03-5.86052E-14
 -1      1115 0.00000E+00 0.00000E+00 0.00000E+00
 -1      1116 0.00000E+00 0.00000E+00 0.00000E+00
 -1      1117 0.00000E+00 0.00000E+00 0.00000E+00
 -1      1118 0.00000E+00 0.00000E+00 0.00000E+00
 -1      1119 0.00000E+00 0.00000E+00 0.00000E+00
 -1      1120 0.00000E+00 0.00000E+00 0.00000E+00
 -1      1121 0.00000E+00 0.00000E+00 0.00000E+00
 -1      1122 0.00000E+00 0.00000E+00 0.00000E+00
 -1      1123 0.00000E+00 0.00000E+00 0.00000E+00
 -1      1124 0.00000E+00 0.00000E+00 0.00000E+00
 -1      1125 0.00000E+00 0.00000E+00 0.00000E+00
 -1      1126 0.00000E+00 0.00000E+00 0.00000E+00
 -1      1127 0.00000E+00 0.00000E+00 0.00000E+00
 -1      1128 0.00000E+00 0.00000E+00 0.00000E+00
 -1      1129 0.00000E+00 0.00000E+00 0.00000E+00
 -1      1130 0.00000E+00 0.00000E+00 0.00000E+00
 -1      1131 0.00000E+00 0.00000E+00 0.00000E+00
 -1      1132 2.11364E-04-1.47770E-04-9.48677E-19
 -1      1133 5.51376E-04-3.35240E-04-5.93601E-17
 -1      1134 8.33988E-04-4.54578E-04-1.97122E-16
 -1      1135 1.10513E-03-5.33707E-04-4.26119E-16
 -1      1136 1.37322E-03-5.87805E-04-7.39656E-16
 -1      1137 1.64250E-03-6.24493E-04-1.13299E-15
 -1      1138 1.91607E-03-6.48136E-04-1.60375E-15
 -1      1139 2.20401E-03-6.61876E-04-2.16537E-15
 -1      1140 2.50369E-03-6.67618E-04-2.80574E-15
 -1      1141 2.81351E-03-6.68449E-04-3.50017E-15
 -1      1142 3.15011E-03-6.69797E-04-4.26026E-15
 -1      1143 3.52820E-03-6.83099E-04-5.08159E-15
 -1      1144 3.96860E-03-7.34500E-04-5.96508E-15
 -1      1145 4.49456E-03-8.79209E-04-6.91724E-15
 -1      1146 5.07857E-03-1.18733E-03-7.89063E-15
 -1      1147 5.66319E-03-1.70552E-03-8.88374E-15
 -1      1148 6.13620E-03-2.35359E-03-9.89128E-15
 -1      1149 6.41540E-03-2.87816E-03-1.09174E-14
 -1      1150 6.57476E-03-3.02670E-03-1.19587E-14
 -1      1151 6.78075E-03-2.80034E-03-1.30302E-14
 -1      1152 7.16810E-03-2.36481E-03-1.42639E-14
 -1      1153 7.77261E-03-1.95024E-03-1.57775E-14
 -1      1154 8.42696E-03-1.78226E-03-1.74422E-14
 -1      1155 8.97991E-03-1.83673E-03-1.90993E-14
 -1      1156 9.44364E-03-2.00371E-03-2.07958E-14
 -1      1157 9.84092E-03-2.21937E-03-2.25264E-14
 -1      1158 1.01944E-02-2.45311E-03-2.42938E-14
 -1      1159 1.05204E-02-2.69207E-03-2.61216E-14
 -1      1160 1.08375E-02-2.93738E-03-2.80402E-14
 -1      1161 1.11443E-02-3.18142E-03-2.99939E-14
 -1      1162 1.14379E-02-3.41799E-03-3.19405E-14
 -1      1163 1.17281E-02-3.65324E-03-3.39260E-14
 -1      1164 1.20164E-02-3.88744E-03-3.59526E-14
 -1      1165 1.23036E-02-4.12083E-03-3.80251E-14
 -1      1166 1.25901E-02-4.35364E-03-4.01423E-14
 -1      1167 1.28762E-02-4.58603E-03-4.23149E-14
 -1      1168 1.31693E-02-4.82391E-03-4.45896E-14
 -1      1169 1.34623E-02-5.06156E-03-4.68996E-14
 -1      1170 1.37480E-02-5.29326E-03-4.91888E-14
 -1      1171 1.40337E-02-5.52485E-03-5.15113E-14
 -1      1172 1.43194E-02-5.75635E-03-5.38357E-14
 -1      1173 1.46050E-02-5.98779E-03-5.61672E-14
 -1      1174 1.48907E-02-6.21919E-03-5.85255E-14
 -1      1175 1.51835E-02-6.45634E-03-6.09662E-14
 -1      1176 1.54764E-02-6.69346E-03-6.34254E-14
 -1      1177 1.57620E-02-6.92478E-03-6.58340E-14
 -1      1178 1.60477E-02-7.15609E-03-6.82319E-14
 -1      1179 1.63334E-02-7.38739E-03-7.06060E-14
 -1      1180 1.66191E-02-7.61869E-03-7.29695E-14
 -1      1181 1.69049E-02-7.84998E-03-7.53542E-14
 -1      1182 1.71906E-02-8.08128E-03-7.77586E-14
 -1      1183 2.28535E-04 1.60579E-04 3.03441E-17
 -1      1184 5.54374E-04 3.41690E-04 6.13387E-17
 -1      1185 8.35620E-04 4.60621E-04 4.55365E-17
 -1      1186 1.10593E-03 5.42119E-04-2.68476E-17
 -1      1187 1.37207E-03 6.00269E-04-1.60652E-16
 -1      1188 1.63732E-03 6.42796E-04-3.57448E-16
 -1      1189 1.90306E-03 6.74435E-04-6.20042E-16
 -1      1190 2.16946E-03 6.98397E-04-9.49449E-16
 -1      1191 2.43586E-03 7.16873E-04-1.34600E-15
 -1      1192 2.70098E-03 7.31135E-04-1.80781E-15
 -1      1193 2.96305E-03 7.41458E-04-2.33914E-15
 -1      1194 3.22003E-03 7.46969E-04-2.93943E-15
 -1      1195 3.46987E-03 7.45509E-04-3.60749E-15
 -1      1196 3.71092E-03 7.33625E-04-4.34215E-15
 -1      1197 3.94237E-03 7.06798E-04-5.14224E-15
 -1      1198 4.16466E-03 6.60002E-04-6.01793E-15
 -1      1199 4.37972E-03 5.88549E-04-6.96817E-15
 -1      1200 4.59082E-03 4.89054E-04-7.99146E-15
 -1      1201 4.80205E-03 3.60215E-04-9.08902E-15
 -1      1202 5.01761E-03 2.03153E-04-1.02649E-14
 -1      1203 5.24098E-03 2.11626E-05-1.15187E-14
 -1      1204 5.47439E-03-1.81003E-04-1.28453E-14
 -1      1205 5.71866E-03-3.98066E-04-1.42429E-14
 -1      1206 5.97334E-03-6.25052E-04-1.57125E-14
 -1      1207 6.23713E-03-8.57854E-04-1.72527E-14
 -1      1208 6.50826E-03-1.09345E-03-1.88511E-14
 -1      1209 6.78493E-03-1.32985E-03-2.05135E-14
 -1      1210 7.06551E-03-1.56592E-03-2.22456E-14
 -1      1211 7.34868E-03-1.80115E-03-2.40320E-14
 -1      1212 7.63342E-03-2.03540E-03-2.58758E-14
 -1      1213 7.91906E-03-2.26873E-03-2.77724E-14
 -1      1214 8.20513E-03-2.50132E-03-2.97175E-14
 -1      1215 8.49136E-03-2.73335E-03-3.16972E-14
 -1      1216 8.77759E-03-2.96498E-03-3.37247E-14
 -1      1217 9.06375E-03-3.19636E-03-3.58061E-14
 -1      1218 9.34982E-03-3.42758E-03-3.79452E-14
 -1      1219 9.63579E-03-3.65873E-03-4.01236E-14
 -1      1220 9.92168E-03-3.88984E-03-4.23380E-14
 -1      1221 1.02075E-02-4.12094E-03-4.45888E-14
 -1      1222 1.04933E-02-4.35206E-03-4.68697E-14
 -1      1223 1.07790E-02-4.58320E-03-4.91826E-14
 -1      1224 1.10647E-02-4.81436E-03-5.15341E-14
 -1      1225 1.13504E-02-5.04554E-03-5.39165E-14
 -1      1226 1.16361E-02-5.27674E-03-5.63338E-14
 -1      1227 1.19218E-02-5.50796E-03-5.87812E-14
 -1      1228 1.22075E-02-5.73918E-03-6.12391E-14
 -1      1229 1.24932E-02-5.97042E-03-6.37250E-14
 -1      1230 1.27790E-02-6.20165E-03-6.62406E-14
 -1      1231 1.30647E-02-6.43289E-03-6.87573E-14
 -1      1232 1.33432E-02-6.65835E-03-7.12186E-14
 -1      1233 1.35926E-02-6.81033E-03-7.26455E-14
 -1      1234 1.38200E-02-6.89461E-03-7.31222E-14
 -1      1235 1.40474E-02-6.97890E-03-7.36120E-14
 -1      1236 1.42748E-02-7.06319E-03-7.41033E-14
 -1      1237 1.45022E-02-7.14749E-03-7.45860E-14
 -1      1238 1.47276E-02-7.23107E-03-7.50454E-14
 -1      1239 1.49531E-02-7.31466E-03-7.54984E-14
 -1      1240 1.51805E-02-7.39896E-03-7.59323E-14
 -1      1241 1.54079E-02-7.48327E-03-7.63637E-14
 -1      1242 1.56353E-02-7.56757E-03-7.67689E-14
 -1      1243 1.58627E-02-7.65188E-03-7.71340E-14
 -1      1244 1.60882E-02-7.73547E-03-7.74750E-14
 -1      1245 1.63138E-02-7.81905E-03-7.77857E-14
 -1      1246 1.65412E-02-7.90335E-03-7.80886E-14
 -1      1247 1.67687E-02-7.98764E-03-7.83700E-14
 -1      1248 1.69961E-02-8.07193E-03-7.86144E-14
 -1      1249 1.72216E-02-8.15551E-03-7.88525E-14
 -1      1250 8.69004E-03-1.17625E-03-1.43749E-14
 -1      1251 8.44825E-03-1.00414E-03-1.41390E-14
 -1      1252 8.10118E-03-8.18288E-04-1.37480E-14
 -1      1253 7.68595E-03-6.29175E-04-1.32609E-14
 -1      1254 7.20959E-03-4.40553E-04-1.26828E-14
 -1      1255 6.69905E-03-2.69327E-04-1.20417E-14
 -1      1256 6.20321E-03-1.44875E-04-1.14085E-14
 -1      1257 5.70291E-03-7.24797E-05-1.07693E-14
 -1      1258 5.20838E-03-5.62956E-05-1.01541E-14
 -1      1259 4.74273E-03-9.76295E-05-9.60337E-15
 -1      1260 4.31876E-03-1.80832E-04-9.13588E-15
 -1      1261 3.95772E-03-2.90651E-04-8.77328E-15
 -1      1262 3.67088E-03-4.17765E-04-8.51761E-15
 -1      1263 3.47128E-03-5.60496E-04-8.36950E-15
 -1      1264 3.38344E-03-7.15433E-04-8.34260E-15
 -1      1265 3.42148E-03-8.99833E-04-8.44158E-15
 -1      1266 3.58957E-03-1.12331E-03-8.66509E-15
 -1      1267 3.86493E-03-1.38387E-03-8.97781E-15
 -1      1268 4.26195E-03-1.71519E-03-9.39490E-15
 -1      1269 4.77159E-03-2.10486E-03-9.91313E-15
 -1      1270 5.36833E-03-2.48402E-03-1.05142E-14
 -1      1271 6.02224E-03-2.74584E-03-1.11716E-14
 -1      1272 6.69129E-03-2.79953E-03-1.18489E-14
 -1      1273 7.34623E-03-2.62801E-03-1.25377E-14
 -1      1274 7.91405E-03-2.32771E-03-1.31782E-14
 -1      1275 8.34710E-03-2.02282E-03-1.37051E-14
 -1      1276 8.64720E-03-1.75967E-03-1.40997E-14
 -1      1277 8.80551E-03-1.54217E-03-1.43538E-14
 -1      1278 8.81719E-03-1.35123E-03-1.44511E-14
 -1      1279 1.66755E-04-1.09786E-04-1.28207E-17
 -1      1280 1.12808E-04-5.63218E-05-2.39202E-17
 -1      1281 1.17848E-04-6.70057E-05-2.05863E-17
 -1      1282 1.08647E-04-4.27247E-05-2.87991E-17
 -1      1283 1.10539E-04-4.88647E-05-2.74710E-17
 -1      1284 2.26892E-04-1.06182E-04-6.47946E-17
 -1      1285 1.06964E-04-3.28790E-05-3.07642E-17
 -1      1286 1.07870E-04-3.75625E-05-3.02628E-17
 -1      1287 2.19507E-04-8.09369E-05-7.28042E-17
 -1      1288 1.06050E-04-2.47768E-05-3.17400E-17
 -1      1289 1.06548E-04-2.87057E-05-3.16587E-17
 -1      1290 2.16000E-04-6.19176E-05-7.64634E-17
 -1      1291 1.05533E-04-1.77807E-05-3.13063E-17
 -1      1292 1.05811E-04-2.12116E-05-3.15367E-17
 -1      1293 2.14040E-04-4.62275E-05-7.72359E-17
 -1      1294 1.05250E-04-1.12266E-05-3.05474E-17
 -1      1295 1.05396E-04-1.44683E-05-3.08998E-17
 -1      1296 2.12910E-04-3.23425E-05-7.60839E-17
 -1      1297 1.05139E-04-4.94193E-06-2.93548E-17
 -1      1298 1.05189E-04-8.07600E-06-2.96800E-17
 -1      1299 2.12321E-04-1.93501E-05-7.39019E-17
 -1      1300 1.05156E-04 1.30233E-06-2.79589E-17
 -1      1301 1.05133E-04-1.83387E-06-2.83925E-17
 -1      1302 2.12128E-04-6.79557E-06-7.10152E-17
 -1      1303 1.05280E-04 7.69107E-06-2.61157E-17
 -1      1304 1.05194E-04 4.46227E-06-2.66307E-17
 -1      1305 2.12237E-04 5.76421E-06-6.73018E-17
 -1      1306 1.05513E-04 1.43906E-05-2.37711E-17
 -1      1307 1.05356E-04 1.09832E-05-2.45030E-17
 -1      1308 2.12602E-04 1.86940E-05-6.25991E-17
 -1      1309 1.05894E-04 2.14582E-05-2.07896E-17
 -1      1310 1.05635E-04 1.78366E-05-2.17111E-17
 -1      1311 2.13241E-04 3.22229E-05-5.66902E-17
 -1      1312 1.06557E-04 2.93986E-05-1.68187E-17
 -1      1313 1.06098E-04 2.52828E-05-1.81739E-17
 -1      1314 2.14282E-04 4.68708E-05-4.91686E-17
 -1      1315 1.07790E-04 3.85710E-05-1.18585E-17
 -1      1316 1.06920E-04 3.37387E-05-1.37694E-17
 -1      1317 2.16069E-04 6.34350E-05-3.96682E-17
 -1      1318 1.10361E-04 5.00748E-05-4.70273E-18
 -1      1319 1.08509E-04 4.38588E-05-7.72494E-18
 -1      1320 2.19377E-04 8.30895E-05-2.72270E-17
 -1      1321 1.17060E-04 6.74122E-05 5.20417E-18
 -1      1322 1.12295E-04 5.75295E-05 4.33681E-19
 -1      1323 2.26537E-04 1.08954E-04-1.07472E-17
 -1      1324 1.57723E-04 1.09715E-04 1.94343E-17
 -1      1325 1.35819E-04 8.58986E-05 1.13570E-17
 -1      1326 2.56344E-04 1.51683E-04 8.23994E-18
 -1      1327 3.35435E-04 2.20397E-04 3.28920E-17
 -1      1328 4.21813E-04-2.59881E-04-6.02681E-17
 -1      1329 5.75238E-04-3.33912E-04-1.08718E-16
 -1      1330 7.22900E-04-3.93397E-04-1.81523E-16
 -1      1331 8.66709E-04-4.41487E-04-2.76377E-16
 -1      1332 6.13392E-04-3.27329E-04-1.63864E-16
 -1      1333 1.00758E-03-4.81225E-04-3.91641E-16
 -1      1334 1.14652E-03-5.13751E-04-5.27952E-16
 -1      1335 9.07966E-04-4.25525E-04-3.56228E-16
 -1      1336 1.28442E-03-5.40854E-04-6.84863E-16
 -1      1337 1.42185E-03-5.63029E-04-8.62049E-16
 -1      1338 1.19256E-03-4.91869E-04-6.30491E-16
 -1      1339 1.55939E-03-5.81227E-04-1.05836E-15
 -1      1340 1.69741E-03-5.95826E-04-1.27390E-15
 -1      1341 1.47292E-03-5.36680E-04-9.84049E-16
 -1      1342 1.83632E-03-6.07296E-04-1.50860E-15
 -1      1343 1.97649E-03-6.16028E-04-1.76240E-15
 -1      1344 1.75302E-03-5.65752E-04-1.41452E-15
 -1      1345 2.12544E-03-6.22463E-04-2.04895E-15
 -1      1346 2.27671E-03-6.26626E-04-2.35573E-15
 -1      1347 2.04302E-03-5.82932E-04-1.93386E-15
 -1      1348 2.42347E-03-6.28497E-04-2.66665E-15
 -1      1349 2.57350E-03-6.28974E-04-2.99509E-15
 -1      1350 2.33890E-03-5.89998E-04-2.53003E-15
 -1      1351 2.72751E-03-6.28072E-04-3.34012E-15
 -1      1352 2.88647E-03-6.26778E-04-3.70137E-15
 -1      1353 2.63652E-03-5.89420E-04-3.18243E-15
 -1      1354 3.05137E-03-6.25435E-04-4.07890E-15
 -1      1355 3.22367E-03-6.25776E-04-4.47286E-15
 -1      1356 2.94713E-03-5.84701E-04-3.90127E-15
 -1      1357 3.40463E-03-6.29277E-04-4.88136E-15
 -1      1358 3.59622E-03-6.39224E-04-5.30507E-15
 -1      1359 3.27610E-03-5.82593E-04-4.68370E-15
 -1      1360 3.79990E-03-6.59822E-04-5.74562E-15
 -1      1361 4.01785E-03-6.97729E-04-6.20218E-15
 -1      1362 3.63015E-03-5.98958E-04-5.52852E-15
 -1      1363 4.25131E-03-7.61938E-04-6.67557E-15
 -1      1364 4.50158E-03-8.65350E-04-7.16739E-15
 -1      1365 4.01787E-03-6.69844E-04-6.43776E-15
 -1      1366 4.74113E-03-1.00247E-03-7.62552E-15
 -1      1367 4.99160E-03-1.19570E-03-8.10110E-15
 -1      1368 4.42878E-03-8.52902E-04-7.36443E-15
 -1      1369 5.80247E-03-2.13467E-03-9.64184E-15
 -1      1370 6.00935E-03-2.45566E-03-1.01337E-14
 -1      1371 6.19540E-03-2.74316E-03-1.06454E-14
 -1      1372 6.36486E-03-2.93816E-03-1.11776E-14
 -1      1373 5.93078E-03-2.55211E-03-1.03731E-14
 -1      1374 6.50378E-03-3.01211E-03-1.16583E-14
 -1      1375 6.64616E-03-2.98347E-03-1.21538E-14
 -1      1376 6.35945E-03-2.94098E-03-1.13612E-14
 -1      1377 6.80713E-03-2.85248E-03-1.26992E-14
 -1      1378 6.98763E-03-2.66123E-03-1.32582E-14
 -1      1379 6.77222E-03-2.88578E-03-1.23744E-14
 -1      1380 7.21247E-03-2.40848E-03-1.39048E-14
 -1      1381 7.45394E-03-2.17087E-03-1.45666E-14
 -1      1382 7.23322E-03-2.46276E-03-1.35535E-14
 -1      1383 7.76384E-03-1.94063E-03-1.53953E-14
 -1      1384 8.06958E-03-1.79067E-03-1.62368E-14
 -1      1385 7.77429E-03-1.94827E-03-1.50190E-14
 -1      1386 8.34924E-03-1.72613E-03-1.70476E-14
 -1      1387 8.61308E-03-1.72003E-03-1.78653E-14
 -1      1388 8.31309E-03-1.68361E-03-1.66561E-14
 -1      1389 8.85919E-03-1.75890E-03-1.86940E-14
 -1      1390 9.08869E-03-1.82859E-03-1.95318E-14
 -1      1391 8.77670E-03-1.68815E-03-1.82904E-14
 -1      1392 9.30283E-03-1.91865E-03-2.03789E-14
 -1      1393 9.50356E-03-2.02207E-03-2.12345E-14
 -1      1394 9.18877E-03-1.83640E-03-1.99631E-14
 -1      1395 9.69298E-03-2.13347E-03-2.20993E-14
 -1      1396 9.87286E-03-2.24968E-03-2.29748E-14
 -1      1397 9.56159E-03-2.04825E-03-2.16728E-14
 -1      1398 1.00451E-02-2.36851E-03-2.38615E-14
 -1      1399 1.02110E-02-2.48856E-03-2.47578E-14
 -1      1400 9.90544E-03-2.28378E-03-2.34256E-14
 -1      1401 1.03719E-02-2.60915E-03-2.56694E-14
 -1      1402 1.05288E-02-2.72963E-03-2.65951E-14
 -1      1403 1.02289E-02-2.52586E-03-2.52221E-14
 -1      1404 1.06903E-02-2.85593E-03-2.75732E-14
 -1      1405 1.08490E-02-2.98170E-03-2.85628E-14
 -1      1406 1.05461E-02-2.77412E-03-2.71093E-14
 -1      1407 1.09983E-02-3.10108E-03-2.95150E-14
 -1      1408 1.11462E-02-3.21994E-03-3.04784E-14
 -1      1409 1.08540E-02-3.02046E-03-2.90391E-14
 -1      1410 1.12928E-02-3.33842E-03-3.14507E-14
 -1      1411 1.14387E-02-3.45646E-03-3.24312E-14
 -1      1412 1.11487E-02-3.25864E-03-3.09613E-14
 -1      1413 1.15838E-02-3.57420E-03-3.34242E-14
 -1      1414 1.17284E-02-3.69159E-03-3.44288E-14
 -1      1415 1.14400E-02-3.49500E-03-3.29253E-14
 -1      1416 1.18726E-02-3.80875E-03-3.54432E-14
 -1      1417 1.20165E-02-3.92566E-03-3.64668E-14
 -1      1418 1.17290E-02-3.72996E-03-3.49301E-14
 -1      1419 1.21601E-02-4.04238E-03-3.75028E-14
 -1      1420 1.23036E-02-4.15894E-03-3.85495E-14
 -1      1421 1.20168E-02-3.96387E-03-3.69816E-14
 -1      1422 1.24469E-02-4.27535E-03-3.96098E-14
 -1      1423 1.25901E-02-4.39165E-03-4.06809E-14
 -1      1424 1.23038E-02-4.19702E-03-3.90768E-14
 -1      1425 1.27332E-02-4.50785E-03-4.17652E-14
 -1      1426 1.28763E-02-4.62396E-03-4.28627E-14
 -1      1427 1.25902E-02-4.42964E-03-4.12185E-14
 -1      1428 1.30264E-02-4.74581E-03-4.40244E-14
 -1      1429 1.31765E-02-4.86758E-03-4.51953E-14
 -1      1430 1.28835E-02-4.66768E-03-4.34599E-14
 -1      1431 1.33194E-02-4.98351E-03-4.63205E-14
 -1      1432 1.34623E-02-5.09939E-03-4.74556E-14
 -1      1433 1.31766E-02-4.90544E-03-4.57448E-14
 -1      1434 1.36052E-02-5.21524E-03-4.85990E-14
 -1      1435 1.37481E-02-5.33106E-03-4.97505E-14
 -1      1436 1.34625E-02-5.13722E-03-4.80096E-14
 -1      1437 1.38910E-02-5.44685E-03-5.09058E-14
 -1      1438 1.40338E-02-5.56262E-03-5.20700E-14
 -1      1439 1.37482E-02-5.36885E-03-5.03075E-14
 -1      1440 1.41767E-02-5.67837E-03-5.32326E-14
 -1      1441 1.43195E-02-5.79411E-03-5.43945E-14
 -1      1442 1.40340E-02-5.60039E-03-5.26257E-14
 -1      1443 1.44624E-02-5.90983E-03-5.55658E-14
 -1      1444 1.46052E-02-6.02554E-03-5.67381E-14
 -1      1445 1.43197E-02-5.83186E-03-5.49606E-14
 -1      1446 1.47481E-02-6.14124E-03-5.79168E-14
 -1      1447 1.48909E-02-6.25692E-03-5.91024E-14
 -1      1448 1.46054E-02-6.06328E-03-5.73113E-14
 -1      1449 1.50409E-02-6.37839E-03-6.03520E-14
 -1      1450 1.51909E-02-6.49985E-03-6.16093E-14
 -1      1451 1.48982E-02-6.30044E-03-5.97380E-14
 -1      1452 1.53337E-02-6.61551E-03-6.28073E-14
 -1      1453 1.54766E-02-6.73118E-03-6.40083E-14
 -1      1454 1.51911E-02-6.53757E-03-6.21894E-14
 -1      1455 1.56194E-02-6.84684E-03-6.52099E-14
 -1      1456 1.57623E-02-6.96249E-03-6.64108E-14
 -1      1457 1.54768E-02-6.76889E-03-6.45892E-14
 -1      1458 1.59051E-02-7.07815E-03-6.76118E-14
 -1      1459 1.60480E-02-7.19380E-03-6.88101E-14
 -1      1460 1.57625E-02-7.00020E-03-6.69926E-14
 -1      1461 1.61908E-02-7.30945E-03-7.00034E-14
 -1      1462 1.63337E-02-7.42510E-03-7.11894E-14
 -1      1463 1.60482E-02-7.23151E-03-6.93916E-14
 -1      1464 1.64765E-02-7.54074E-03-7.23794E-14
 -1      1465 1.66194E-02-7.65639E-03-7.35749E-14
 -1      1466 1.63339E-02-7.46280E-03-7.17848E-14
 -1      1467 1.67622E-02-7.77204E-03-7.47727E-14
 -1      1468 1.69051E-02-7.88769E-03-7.59764E-14
 -1      1469 1.66196E-02-7.69410E-03-7.41862E-14
 -1      1470 1.69919E-02-7.96377E-03-7.68099E-14
 -1      1471 1.71348E-02-8.07942E-03-7.80192E-14
 -1      1472 1.70230E-02-8.03799E-03-7.78990E-14
 -1      1473 1.68493E-02-7.88583E-03-7.62259E-14
 -1      1474 6.43932E-04 3.71403E-04 3.47487E-17
 -1      1475 4.93535E-04 3.03184E-04 4.00748E-17
 -1      1476 4.45443E-04 2.65341E-04 2.17518E-17
 -1      1477 9.30120E-04 4.71434E-04-1.63715E-17
 -1      1478 7.88958E-04 4.25861E-04 1.59242E-17
 -1      1479 7.45799E-04 3.90014E-04-9.87979E-18
 -1      1480 1.20558E-03 5.41392E-04-1.25334E-16
 -1      1481 1.06864E-03 5.09358E-04-6.31006E-17
 -1      1482 1.03233E-03 4.75702E-04-9.61010E-17
 -1      1483 1.47651E-03 5.91878E-04-2.96123E-16
 -1      1484 1.34131E-03 5.68667E-04-2.02854E-16
 -1      1485 1.31061E-03 5.36393E-04-2.41330E-16
 -1      1486 1.74588E-03 6.29000E-04-5.30839E-16
 -1      1487 1.61124E-03 6.11863E-04-4.05180E-16
 -1      1488 1.58489E-03 5.80435E-04-4.49456E-16
 -1      1489 2.01490E-03 6.56792E-04-8.31380E-16
 -1      1490 1.88038E-03 6.43898E-04-6.72680E-16
 -1      1491 1.85741E-03 6.12978E-04-7.22119E-16
 -1      1492 2.28367E-03 6.78061E-04-1.19864E-15
 -1      1493 2.14933E-03 6.68141E-04-1.00687E-15
 -1      1494 2.12908E-03 6.37565E-04-1.06072E-15
 -1      1495 2.55153E-03 6.94653E-04-1.63201E-15
 -1      1496 2.41777E-03 6.86902E-04-1.40691E-15
 -1      1497 2.39989E-03 6.56633E-04-1.46518E-15
 -1      1498 2.81731E-03 7.07458E-04-2.13276E-15
 -1      1499 2.68477E-03 7.01558E-04-1.87408E-15
 -1      1500 2.66921E-03 6.71666E-04-1.93603E-15
 -1      1501 3.07946E-03 7.16288E-04-2.70130E-15
 -1      1502 2.94894E-03 7.12475E-04-2.40830E-15
 -1      1503 2.93597E-03 6.83125E-04-2.47466E-15
 -1      1504 3.33631E-03 7.19705E-04-3.33936E-15
 -1      1505 3.20866E-03 7.18857E-04-3.01170E-15
 -1      1506 3.19887E-03 6.90293E-04-3.08098E-15
 -1      1507 3.58632E-03 7.14920E-04-4.04321E-15
 -1      1508 3.46226E-03 7.18593E-04-3.68290E-15
 -1      1509 3.45656E-03 6.91115E-04-3.75504E-15
 -1      1510 3.82847E-03 6.97867E-04-4.81506E-15
 -1      1511 3.70842E-03 7.08231E-04-4.42048E-15
 -1      1512 3.70793E-03 6.82150E-04-4.49617E-15
 -1      1513 4.06260E-03 6.63578E-04-5.65441E-15
 -1      1514 3.94652E-03 6.83186E-04-5.22566E-15
 -1      1515 3.95243E-03 6.58766E-04-5.30480E-15
 -1      1516 4.28972E-03 6.06905E-04-6.57029E-15
 -1      1517 4.17695E-03 6.38297E-04-6.10320E-15
 -1      1518 4.19039E-03 6.15685E-04-6.18598E-15
 -1      1519 4.51200E-03 5.23485E-04-7.55953E-15
 -1      1520 4.40130E-03 5.68688E-04-7.05577E-15
 -1      1521 4.42311E-03 5.47857E-04-7.13951E-15
 -1      1522 4.73253E-03 4.10705E-04-8.62205E-15
 -1      1523 4.62226E-03 4.70767E-04-8.08139E-15
 -1      1524 4.65285E-03 4.51500E-04-8.16784E-15
 -1      1525 4.95483E-03 2.68340E-04-9.76064E-15
 -1      1526 4.84323E-03 3.43070E-04-9.18163E-15
 -1      1527 4.88249E-03 3.24989E-04-9.27092E-15
 -1      1528 5.18218E-03 9.86362E-05-1.09778E-14
 -1      1529 5.06768E-03 1.86633E-04-1.03591E-14
 -1      1530 5.11499E-03 1.69273E-04-1.04506E-14
 -1      1531 5.41707E-03-9.42068E-05-1.22692E-14
 -1      1532 5.29855E-03 4.76745E-06-1.16142E-14
 -1      1533 5.35288E-03-1.23370E-05-1.17065E-14
 -1      1534 5.66089E-03-3.04927E-04-1.36346E-14
 -1      1535 5.53781E-03-1.97679E-04-1.29429E-14
 -1      1536 5.59789E-03-2.14913E-04-1.30373E-14
 -1      1537 5.91388E-03-5.28160E-04-1.50689E-14
 -1      1538 5.78625E-03-4.15285E-04-1.43436E-14
 -1      1539 5.85073E-03-4.32912E-04-1.44400E-14
 -1      1540 6.17537E-03-7.59184E-04-1.65738E-14
 -1      1541 6.04362E-03-6.42936E-04-1.58129E-14
 -1      1542 6.11124E-03-6.61092E-04-1.59103E-14
 -1      1543 6.44412E-03-9.94328E-04-1.81453E-14
 -1      1544 6.30893E-03-8.76405E-04-1.73516E-14
 -1      1545 6.37861E-03-8.95121E-04-1.74486E-14
 -1      1546 6.71864E-03-1.23105E-03-1.97769E-14
 -1      1547 6.58076E-03-1.11259E-03-1.89528E-14
 -1      1548 6.65167E-03-1.13182E-03-1.90507E-14
 -1      1549 6.99744E-03-1.46781E-03-2.14744E-14
 -1      1550 6.85759E-03-1.34948E-03-2.06177E-14
 -1      1551 6.92914E-03-1.36914E-03-2.07173E-14
 -1      1552 7.27924E-03-1.70381E-03-2.32332E-14
 -1      1553 7.13804E-03-1.58592E-03-2.23468E-14
 -1      1554 7.20984E-03-1.60592E-03-2.24472E-14
 -1      1555 7.56302E-03-1.93876E-03-2.50492E-14
 -1      1556 7.42094E-03-1.82142E-03-2.41336E-14
 -1      1557 7.49277E-03-1.84166E-03-2.42329E-14
 -1      1558 7.84801E-03-2.17267E-03-2.69158E-14
 -1      1559 7.70540E-03-2.05584E-03-2.59774E-14
 -1      1560 7.77714E-03-2.07625E-03-2.60745E-14
 -1      1561 8.13367E-03-2.40569E-03-2.88363E-14
 -1      1562 7.99078E-03-2.28928E-03-2.78690E-14
 -1      1563 8.06239E-03-2.30980E-03-2.79664E-14
 -1      1564 8.41966E-03-2.63802E-03-3.07988E-14
 -1      1565 8.27664E-03-2.52193E-03-2.98125E-14
 -1      1566 8.34812E-03-2.54252E-03-2.99060E-14
 -1      1567 8.70578E-03-2.86985E-03-3.28016E-14
 -1      1568 8.56272E-03-2.75399E-03-3.17946E-14
 -1      1569 8.63408E-03-2.77461E-03-3.18891E-14
 -1      1570 8.99190E-03-3.10135E-03-3.48569E-14
 -1      1571 8.84884E-03-2.98563E-03-3.38228E-14
 -1      1572 8.92012E-03-3.00627E-03-3.39182E-14
 -1      1573 9.27796E-03-3.33263E-03-3.69616E-14
 -1      1574 9.13494E-03-3.21701E-03-3.59026E-14
 -1      1575 9.20615E-03-3.23766E-03-3.59953E-14
 -1      1576 9.56395E-03-3.56380E-03-3.91129E-14
 -1      1577 9.42096E-03-3.44823E-03-3.80322E-14
 -1      1578 9.49214E-03-3.46887E-03-3.81197E-14
 -1      1579 9.84986E-03-3.79492E-03-4.13066E-14
 -1      1580 9.70691E-03-3.67937E-03-4.02045E-14
 -1      1581 9.77806E-03-3.70001E-03-4.02859E-14
 -1      1582 1.01357E-02-4.02602E-03-4.35358E-14
 -1      1583 9.99280E-03-3.91047E-03-4.24164E-14
 -1      1584 1.00639E-02-3.93110E-03-4.24923E-14
 -1      1585 1.04215E-02-4.25712E-03-4.58006E-14
 -1      1586 1.02786E-02-4.14157E-03-4.46633E-14
 -1      1587 1.03498E-02-4.16220E-03-4.47385E-14
 -1      1588 1.07073E-02-4.48825E-03-4.80973E-14
 -1      1589 1.05644E-02-4.37268E-03-4.69463E-14
 -1      1590 1.06355E-02-4.39331E-03-4.70214E-14
 -1      1591 1.09930E-02-4.71939E-03-5.04327E-14
 -1      1592 1.08501E-02-4.60382E-03-4.92612E-14
 -1      1593 1.09213E-02-4.62444E-03-4.93369E-14
 -1      1594 1.12787E-02-4.95056E-03-5.27969E-14
 -1      1595 1.11359E-02-4.83498E-03-5.16102E-14
 -1      1596 1.12070E-02-4.85559E-03-5.16868E-14
 -1      1597 1.15644E-02-5.18175E-03-5.51964E-14
 -1      1598 1.14216E-02-5.06615E-03-5.39923E-14
 -1      1599 1.14927E-02-5.08677E-03-5.40663E-14
 -1      1600 1.18501E-02-5.41296E-03-5.76252E-14
 -1      1601 1.17073E-02-5.29735E-03-5.64085E-14
 -1      1602 1.17784E-02-5.31797E-03-5.64806E-14
 -1      1603 1.21359E-02-5.64418E-03-6.00784E-14
 -1      1604 1.19930E-02-5.52857E-03-5.88517E-14
 -1      1605 1.20642E-02-5.54918E-03-5.89204E-14
 -1      1606 1.24216E-02-5.87541E-03-6.25451E-14
 -1      1607 1.22787E-02-5.75979E-03-6.13087E-14
 -1      1608 1.23499E-02-5.78041E-03-6.13771E-14
 -1      1609 1.27073E-02-6.10665E-03-6.50458E-14
 -1      1610 1.25644E-02-5.99103E-03-6.37901E-14
 -1      1611 1.26356E-02-6.01164E-03-6.38571E-14
 -1      1612 1.29930E-02-6.33789E-03-6.75567E-14
 -1      1613 1.28501E-02-6.22227E-03-6.62986E-14
 -1      1614 1.29213E-02-6.24288E-03-6.63585E-14
 -1      1615 1.32787E-02-6.56912E-03-7.00757E-14
 -1      1616 1.31358E-02-6.45351E-03-6.88177E-14
 -1      1617 1.32070E-02-6.47412E-03-6.88761E-14
 -1      1618 1.34569E-02-6.70049E-03-7.14495E-14
 -1      1619 1.37532E-02-6.81556E-03-7.21533E-14
 -1      1620 1.36395E-02-6.77342E-03-7.19120E-14
 -1      1621 1.39805E-02-6.89985E-03-7.26394E-14
 -1      1622 1.38668E-02-6.85771E-03-7.23948E-14
 -1      1623 1.36863E-02-6.73651E-03-7.11802E-14
 -1      1624 1.42079E-02-6.98414E-03-7.31295E-14
 -1      1625 1.40942E-02-6.94200E-03-7.28845E-14
 -1      1626 1.39137E-02-6.82080E-03-7.16671E-14
 -1      1627 1.44353E-02-7.06844E-03-7.36065E-14
 -1      1628 1.43216E-02-7.02629E-03-7.33717E-14
 -1      1629 1.41410E-02-6.90509E-03-7.21549E-14
 -1      1630 1.46588E-02-7.15130E-03-7.40627E-14
 -1      1631 1.45471E-02-7.10987E-03-7.38357E-14
 -1      1632 1.43665E-02-6.98867E-03-7.26253E-14
 -1      1633 1.48862E-02-7.23560E-03-7.45125E-14
 -1      1634 1.47725E-02-7.19345E-03-7.42884E-14
 -1      1635 1.45920E-02-7.07225E-03-7.30820E-14
 -1      1636 1.51136E-02-7.31990E-03-7.49473E-14
 -1      1637 1.49999E-02-7.27775E-03-7.47306E-14
 -1      1638 1.48194E-02-7.15654E-03-7.35256E-14
 -1      1639 1.53410E-02-7.40420E-03-7.53712E-14
 -1      1640 1.52273E-02-7.36205E-03-7.51615E-14
 -1      1641 1.50468E-02-7.24084E-03-7.39590E-14
 -1      1642 1.55685E-02-7.48851E-03-7.57651E-14
 -1      1643 1.54547E-02-7.44636E-03-7.55738E-14
 -1      1644 1.52742E-02-7.32514E-03-7.43778E-14
 -1      1645 1.57959E-02-7.57281E-03-7.61293E-14
 -1      1646 1.56822E-02-7.53066E-03-7.59473E-14
 -1      1647 1.55016E-02-7.40944E-03-7.47632E-14
 -1      1648 1.60195E-02-7.65568E-03-7.64601E-14
 -1      1649 1.59077E-02-7.61424E-03-7.63011E-14
 -1      1650 1.57271E-02-7.49302E-03-7.51199E-14
 -1      1651 1.62469E-02-7.73998E-03-7.67790E-14
 -1      1652 1.61332E-02-7.69783E-03-7.66215E-14
 -1      1653 1.59526E-02-7.57660E-03-7.54553E-14
 -1      1654 1.64744E-02-7.82427E-03-7.70820E-14
 -1      1655 1.63606E-02-7.78212E-03-7.69329E-14
 -1      1656 1.61801E-02-7.66090E-03-7.57735E-14
 -1      1657 1.67018E-02-7.90856E-03-7.73595E-14
 -1      1658 1.65881E-02-7.86642E-03-7.72246E-14
 -1      1659 1.64075E-02-7.74519E-03-7.60756E-14
 -1      1660 1.69193E-02-7.99435E-03-7.76959E-14
 -1      1661 1.68055E-02-7.95221E-03-7.75669E-14
 -1      1662 1.66250E-02-7.83098E-03-7.64350E-14
 -1      1663 1.68324E-02-7.91827E-03-7.68562E-14
 -1      1664 8.64849E-03-1.22186E-03-1.46439E-14
 -1      1665 8.74410E-03-1.27407E-03-1.47227E-14
 -1      1666 8.33684E-03-1.08690E-03-1.43570E-14
 -1      1667 8.49652E-03-1.15583E-03-1.45201E-14
 -1      1668 7.92243E-03-8.95120E-04-1.38736E-14
 -1      1669 8.12488E-03-9.85496E-04-1.41027E-14
 -1      1670 7.46775E-03-6.74612E-04-1.33088E-14
 -1      1671 7.68193E-03-7.75570E-04-1.35697E-14
 -1      1672 6.93584E-03-4.48071E-04-1.26751E-14
 -1      1673 7.17143E-03-5.63883E-04-1.29985E-14
 -1      1674 6.47851E-03-2.26609E-04-1.19439E-14
 -1      1675 6.69524E-03-3.16818E-04-1.22637E-14
 -1      1676 6.03422E-03-8.06546E-05-1.12593E-14
 -1      1677 6.23440E-03-1.39409E-04-1.15715E-14
 -1      1678 5.59136E-03-3.57808E-06-1.05557E-14
 -1      1679 5.78788E-03-2.38997E-05-1.08755E-14
 -1      1680 5.16116E-03-3.20509E-05-9.92289E-15
 -1      1681 5.35570E-03-1.08685E-05-1.02075E-14
 -1      1682 4.74311E-03-1.27583E-04-9.33823E-15
 -1      1683 4.93678E-03-7.47552E-05-9.58882E-15
 -1      1684 4.32704E-03-2.62059E-04-8.87737E-15
 -1      1685 4.51186E-03-1.97064E-04-9.07830E-15
 -1      1686 3.94770E-03-3.94622E-04-8.54518E-15
 -1      1687 4.11178E-03-3.31160E-04-8.69369E-15
 -1      1688 3.64320E-03-5.22387E-04-8.30392E-15
 -1      1689 3.77449E-03-4.65166E-04-8.40179E-15
 -1      1690 3.43390E-03-6.40339E-04-8.16532E-15
 -1      1691 3.51734E-03-5.89260E-04-8.20908E-15
 -1      1692 3.36133E-03-7.45644E-04-8.17528E-15
 -1      1693 3.37738E-03-6.97278E-04-8.16086E-15
 -1      1694 3.44715E-03-8.68501E-04-8.25983E-15
 -1      1695 3.38367E-03-8.04429E-04-8.17923E-15
 -1      1696 3.68148E-03-1.06744E-03-8.55968E-15
 -1      1697 3.55875E-03-9.78438E-04-8.43330E-15
 -1      1698 4.03807E-03-1.32110E-03-8.90805E-15
 -1      1699 3.85815E-03-1.19273E-03-8.73436E-15
 -1      1700 4.54021E-03-1.67140E-03-9.35662E-15
 -1      1701 4.29958E-03-1.48678E-03-9.12463E-15
 -1      1702 5.08335E-03-2.13422E-03-9.94579E-15
 -1      1703 4.81990E-03-1.92043E-03-9.67210E-15
 -1      1704 5.66521E-03-2.57539E-03-1.06087E-14
 -1      1705 5.39595E-03-2.38058E-03-1.02916E-14
 -1      1706 6.23445E-03-2.85413E-03-1.13210E-14
 -1      1707 5.98528E-03-2.75802E-03-1.09875E-14
 -1      1708 6.77919E-03-2.83517E-03-1.20663E-14
 -1      1709 6.52409E-03-2.87963E-03-1.17220E-14
 -1      1710 7.34665E-03-2.55275E-03-1.28326E-14
 -1      1711 7.07946E-03-2.71051E-03-1.24833E-14
 -1      1712 7.89235E-03-2.18036E-03-1.35024E-14
 -1      1713 7.65327E-03-2.35160E-03-1.32056E-14
 -1      1714 8.34159E-03-1.86094E-03-1.40532E-14
 -1      1715 8.14775E-03-1.99913E-03-1.38186E-14
 -1      1716 8.66535E-03-1.62524E-03-1.44555E-14
 -1      1717 8.53337E-03-1.72417E-03-1.42890E-14
 -1      1718 8.83001E-03-1.46238E-03-1.46934E-14
 -1      1719 8.77485E-03-1.52996E-03-1.46045E-14
 -1      1720 8.82107E-03-1.33796E-03-1.47921E-14
 -1      1721 8.84826E-03-1.39112E-03-1.47908E-14
 -1      1722 5.28614E-03-1.47104E-03-8.62334E-15
 -1      1723 5.54652E-03-1.78905E-03-9.13611E-15
 -1      1724 7.73741E-03-9.19324E-04-1.39329E-14
 -1      1725 8.79561E-03-1.34341E-03-1.50833E-14
 -1      1726 1.35281E-02-6.72110E-03-7.15103E-14
 -1      1727 1.34612E-02-6.64205E-03-7.05371E-14
 -1      1728 8.56341E-03-1.25901E-03-1.48838E-14
 -1      1729 8.19323E-03-1.12585E-03-1.44987E-14
 -1      1730 7.21805E-03-6.79464E-04-1.33110E-14
 -1      1731 6.72898E-03-4.11481E-04-1.25789E-14
 -1      1732 6.28917E-03-1.76375E-04-1.17916E-14
 -1      1733 5.86470E-03-2.39942E-05-1.10363E-14
 -1      1734 5.48353E-03 2.13330E-05-1.03115E-14
 -1      1735 5.08557E-03-4.17869E-05-9.63850E-15
 -1      1736 4.68553E-03-1.77292E-04-9.05892E-15
 -1      1737 4.27293E-03-3.34623E-04-8.62908E-15
 -1      1738 3.89328E-03-4.77543E-04-8.31164E-15
 -1      1739 3.58866E-03-5.96258E-04-8.07986E-15
 -1      1740 3.39952E-03-6.80707E-04-7.98282E-15
 -1      1741 3.36433E-03-7.52353E-04-7.97915E-15
 -1      1742 3.50932E-03-8.48077E-04-8.14518E-15
 -1      1743 3.81220E-03-1.03898E-03-8.48296E-15
 -1      1744 4.25782E-03-1.30451E-03-8.86282E-15
 -1      1745 4.79668E-03-1.71085E-03-9.38189E-15
 -1      1746 5.36393E-03-2.22343E-03-1.00339E-14
 -1      1747 5.92024E-03-2.68583E-03-1.07526E-14
 -1      1748 6.39748E-03-2.91402E-03-1.15344E-14
 -1      1749 6.88412E-03-2.79776E-03-1.23602E-14
 -1      1750 7.40931E-03-2.43190E-03-1.31629E-14
 -1      1751 7.94229E-03-2.03316E-03-1.38619E-14
 -1      1752 8.39196E-03-1.72798E-03-1.44224E-14
 -1      1753 8.70725E-03-1.53185E-03-1.48135E-14
 -1      1754 8.84841E-03-1.41523E-03-1.50602E-14
 -1      1755 5.43831E-03-1.87524E-03-9.35940E-15
 -1      1756 2.85615E-04-1.74949E-04-4.92228E-17
 -1      1757 4.90228E-03-1.24002E-03-8.33550E-15
 -1      1758 3.32631E-04-1.14547E-04-1.13299E-16
 -1      1759 3.36949E-04-1.30680E-04-1.09681E-16
 -1      1760 3.43060E-04-1.49704E-04-1.04436E-16
 -1      1761 3.52677E-04-1.71805E-04-9.62907E-17
 -1      1762 4.59365E-04-1.84915E-04-1.59202E-16
 -1      1763 3.24071E-04-6.42432E-05-1.17134E-16
 -1      1764 3.25425E-04-7.51620E-05-1.17636E-16
 -1      1765 3.22298E-04-4.35934E-05-1.15142E-16
 -1      1766 3.23064E-04-5.36536E-05-1.16430E-16
 -1      1767 4.35540E-04-7.81831E-05-1.71317E-16
 -1      1768 3.21444E-04-2.42824E-05-1.11605E-16
 -1      1769 3.21783E-04-3.38071E-05-1.13597E-16
 -1      1770 4.33243E-04-5.13435E-05-1.67862E-16
 -1      1771 3.21261E-04-5.47174E-06-1.06821E-16
 -1      1772 3.21283E-04-1.48419E-05-1.09369E-16
 -1      1773 4.32238E-04-2.59550E-05-1.62441E-16
 -1      1774 3.21601E-04 1.34832E-05-1.00926E-16
 -1      1775 3.21369E-04 3.96738E-06-1.04138E-16
 -1      1776 4.32194E-04-9.86220E-07-1.55312E-16
 -1      1777 3.22410E-04 3.31316E-05-9.35531E-17
 -1      1778 3.21938E-04 2.32050E-05-9.75646E-17
 -1      1779 4.32921E-04 2.43726E-05-1.46422E-16
 -1      1780 3.23744E-04 5.36685E-05-8.41612E-17
 -1      1781 3.22985E-04 4.32357E-05-8.91892E-17
 -1      1782 4.34362E-04 5.06095E-05-1.35119E-16
 -1      1783 3.25949E-04 7.65339E-05-7.24518E-17
 -1      1784 3.24685E-04 6.48368E-05-7.89164E-17
 -1      1785 4.36702E-04 7.87053E-05-1.21417E-16
 -1      1786 3.29744E-04 1.02608E-04-5.75305E-17
 -1      1787 3.27541E-04 8.91432E-05-6.56213E-17
 -1      1788 4.40531E-04 1.10010E-04-1.04138E-16
 -1      1789 3.36917E-04 1.34306E-04-3.78387E-17
 -1      1790 3.32700E-04 1.17675E-04-4.86536E-17
 -1      1791 4.47156E-04 1.46118E-04-8.21148E-17
 -1      1792 3.52653E-04 1.76922E-04-1.18178E-17
 -1      1793 3.43127E-04 1.53999E-04-2.59260E-17
 -1      1794 4.59736E-04 1.90483E-04-5.36273E-17
 -1      1795 4.08188E-04 2.33096E-04 9.25638E-18
 -1      1796 3.78520E-04 2.02037E-04-3.41524E-18
 -1      1797 4.96427E-04 2.43211E-04-2.68340E-17
 -1      1798 5.59257E-04 3.01788E-04-2.64274E-18
 -1      1799 3.40786E-04-1.89039E-04-7.62059E-17
 -1      1800 8.54776E-04 4.06388E-04-6.61905E-17
 -1      1801 7.08119E-04 3.58583E-04-2.77149E-17
 -1      1802 6.74280E-04 3.27967E-04-4.33410E-17
 -1      1803 4.60759E-03-1.06198E-03-8.09376E-15
 -1      1804 4.86027E-03-1.32705E-03-8.61125E-15
 -1      1805 8.09692E-04-3.68558E-04-3.19785E-16
 -1      1806 9.55741E-04-4.08351E-04-4.37733E-16
 -1      1807 1.09953E-03-4.41463E-04-5.75684E-16
 -1      1808 1.24238E-03-4.68599E-04-7.33449E-16
 -1      1809 1.00732E-03-3.90150E-04-5.21461E-16
 -1      1810 1.38421E-03-4.91047E-04-9.10174E-16
 -1      1811 1.52571E-03-5.09113E-04-1.10618E-15
 -1      1812 1.29481E-03-4.44587E-04-8.37167E-16
 -1      1813 1.66702E-03-5.23600E-04-1.32137E-15
 -1      1814 1.80859E-03-5.34760E-04-1.55513E-15
 -1      1815 1.57975E-03-4.80936E-04-1.22896E-15
 -1      1816 1.95762E-03-5.43422E-04-1.81987E-15
 -1      1817 2.10759E-03-5.49230E-04-2.10506E-15
 -1      1818 1.87096E-03-5.03841E-04-1.70796E-15
 -1      1819 2.25119E-03-5.52428E-04-2.39514E-15
 -1      1820 2.39628E-03-5.53616E-04-2.70221E-15
 -1      1821 2.16271E-03-5.15409E-04-2.26192E-15
 -1      1822 2.54240E-03-5.53117E-04-3.02701E-15
 -1      1823 2.69073E-03-5.51243E-04-3.36828E-15
 -1      1824 2.44867E-03-5.18242E-04-2.87356E-15
 -1      1825 2.84027E-03-5.48669E-04-3.72591E-15
 -1      1826 2.99287E-03-5.45868E-04-4.09983E-15
 -1      1827 2.73607E-03-5.15452E-04-3.55317E-15
 -1      1828 3.14673E-03-5.44484E-04-4.48904E-15
 -1      1829 3.30459E-03-5.45527E-04-4.89365E-15
 -1      1830 3.02414E-03-5.11581E-04-4.29710E-15
 -1      1831 3.46387E-03-5.52680E-04-5.31430E-15
 -1      1832 3.62822E-03-5.68521E-04-5.75059E-15
 -1      1833 3.31111E-03-5.15996E-04-5.10308E-15
 -1      1834 3.79532E-03-6.00050E-04-6.20233E-15
 -1      1835 3.96963E-03-6.54511E-04-6.67084E-15
 -1      1836 3.59574E-03-5.48422E-04-5.97069E-15
 -1      1837 4.13380E-03-7.30995E-04-7.10655E-15
 -1      1838 4.30743E-03-8.47443E-04-7.55728E-15
 -1      1839 3.86939E-03-6.41130E-04-6.85331E-15
 -1      1840 7.54189E-03-9.41781E-04-1.40668E-14
 -1      1841 7.77334E-03-1.05477E-03-1.43790E-14
 -1      1842 4.60153E-04-2.33897E-04-1.26608E-16
 -1      1843 6.16440E-03-2.83576E-03-1.10142E-14
 -1      1844 6.39490E-03-2.94046E-03-1.14850E-14
 -1      1845 6.58358E-03-2.94364E-03-1.18937E-14
 -1      1846 6.83429E-03-2.83883E-03-1.24230E-14
 -1      1847 7.76176E-03-1.98692E-03-1.45533E-14
 -1      1848 8.03607E-03-1.77303E-03-1.53746E-14
 -1      1849 8.31038E-03-1.64395E-03-1.61753E-14
 -1      1850 8.52158E-03-1.60112E-03-1.69801E-14
 -1      1851 8.72011E-03-1.61624E-03-1.77963E-14
 -1      1852 8.90697E-03-1.66843E-03-1.86193E-14
 -1      1853 8.70209E-03-1.55389E-03-1.73041E-14
 -1      1854 9.08563E-03-1.74720E-03-1.94533E-14
 -1      1855 9.25959E-03-1.84410E-03-2.02966E-14
 -1      1856 9.01546E-03-1.66817E-03-1.89462E-14
 -1      1857 9.42741E-03-1.95159E-03-2.11502E-14
 -1      1858 9.59269E-03-2.06645E-03-2.20137E-14
 -1      1859 9.31720E-03-1.86232E-03-2.06279E-14
 -1      1860 9.75322E-03-2.18484E-03-2.28881E-14
 -1      1861 9.91187E-03-2.30553E-03-2.37742E-14
 -1      1862 9.61687E-03-2.09046E-03-2.23519E-14
 -1      1863 1.00670E-02-2.42695E-03-2.46697E-14
 -1      1864 1.02206E-02-2.54858E-03-2.55768E-14
 -1      1865 9.91507E-03-2.33059E-03-2.41187E-14
 -1      1866 1.03793E-02-2.67603E-03-2.65417E-14
 -1      1867 1.05367E-02-2.80294E-03-2.75177E-14
 -1      1868 1.02185E-02-2.57927E-03-2.59747E-14
 -1      1869 1.06849E-02-2.92329E-03-2.84552E-14
 -1      1870 1.08323E-02-3.04301E-03-2.94042E-14
 -1      1871 1.05194E-02-2.82680E-03-2.78741E-14
 -1      1872 1.09787E-02-3.16225E-03-3.03649E-14
 -1      1873 1.11245E-02-3.28094E-03-3.13332E-14
 -1      1874 1.08108E-02-3.06620E-03-2.97682E-14
 -1      1875 1.12696E-02-3.39922E-03-3.23134E-14
 -1      1876 1.14143E-02-3.51708E-03-3.33036E-14
 -1      1877 1.11005E-02-3.30360E-03-3.17045E-14
 -1      1878 1.15586E-02-3.63462E-03-3.43044E-14
 -1      1879 1.17027E-02-3.75185E-03-3.53177E-14
 -1      1880 1.13889E-02-3.53935E-03-3.36807E-14
 -1      1881 1.18464E-02-3.86885E-03-3.63425E-14
 -1      1882 1.19900E-02-3.98562E-03-3.73752E-14
 -1      1883 1.16765E-02-3.77385E-03-3.57035E-14
 -1      1884 1.21335E-02-4.10222E-03-3.84227E-14
 -1      1885 1.22768E-02-4.21867E-03-3.94816E-14
 -1      1886 1.19634E-02-4.00742E-03-3.77708E-14
 -1      1887 1.24200E-02-4.33500E-03-4.05447E-14
 -1      1888 1.25632E-02-4.45121E-03-4.16256E-14
 -1      1889 1.22500E-02-4.24034E-03-3.98788E-14
 -1      1890 1.27134E-02-4.57315E-03-4.27732E-14
 -1      1891 1.28636E-02-4.69500E-03-4.39276E-14
 -1      1892 1.25434E-02-4.47860E-03-4.20861E-14
 -1      1893 1.30066E-02-4.81098E-03-4.50389E-14
 -1      1894 1.31495E-02-4.92691E-03-4.61601E-14
 -1      1895 1.28366E-02-4.71651E-03-4.43375E-14
 -1      1896 1.32925E-02-5.04281E-03-4.72909E-14
 -1      1897 1.34354E-02-5.15866E-03-4.84293E-14
 -1      1898 1.31225E-02-4.94839E-03-4.65755E-14
 -1      1899 1.35783E-02-5.27448E-03-4.95741E-14
 -1      1900 1.37212E-02-5.39027E-03-5.07268E-14
 -1      1901 1.34083E-02-5.18010E-03-4.88433E-14
 -1      1902 1.38640E-02-5.50604E-03-5.18855E-14
 -1      1903 1.40069E-02-5.62179E-03-5.30482E-14
 -1      1904 1.36941E-02-5.41169E-03-5.11456E-14
 -1      1905 1.41498E-02-5.73753E-03-5.42171E-14
 -1      1906 1.42926E-02-5.85325E-03-5.53885E-14
 -1      1907 1.39799E-02-5.64319E-03-5.34715E-14
 -1      1908 1.44355E-02-5.96896E-03-5.65625E-14
 -1      1909 1.45784E-02-6.08465E-03-5.77406E-14
 -1      1910 1.42656E-02-5.87463E-03-5.58150E-14
 -1      1911 1.47284E-02-6.20613E-03-5.89849E-14
 -1      1912 1.48783E-02-6.32759E-03-6.02370E-14
 -1      1913 1.45585E-02-6.11181E-03-5.82317E-14
 -1      1914 1.50212E-02-6.44326E-03-6.14320E-14
 -1      1915 1.51641E-02-6.55893E-03-6.26309E-14
 -1      1916 1.48513E-02-6.34896E-03-6.06734E-14
 -1      1917 1.53069E-02-6.67459E-03-6.38296E-14
 -1      1918 1.54498E-02-6.79025E-03-6.50308E-14
 -1      1919 1.51370E-02-6.58029E-03-6.30700E-14
 -1      1920 1.55926E-02-6.90591E-03-6.62333E-14
 -1      1921 1.57355E-02-7.02156E-03-6.74369E-14
 -1      1922 1.54228E-02-6.81161E-03-6.54749E-14
 -1      1923 1.58783E-02-7.13721E-03-6.86406E-14
 -1      1924 1.60212E-02-7.25286E-03-6.98423E-14
 -1      1925 1.57085E-02-7.04292E-03-6.78826E-14
 -1      1926 1.61640E-02-7.36851E-03-7.10430E-14
 -1      1927 1.63069E-02-7.48416E-03-7.22471E-14
 -1      1928 1.59942E-02-7.27421E-03-7.02951E-14
 -1      1929 1.64497E-02-7.59980E-03-7.34566E-14
 -1      1930 1.65926E-02-7.71545E-03-7.46659E-14
 -1      1931 1.62799E-02-7.50551E-03-7.27176E-14
 -1      1932 1.67456E-02-7.84219E-03-7.60145E-14
 -1      1933 1.36010E-03 5.12840E-04-3.41822E-16
 -1      1934 1.21997E-03 4.87132E-04-2.48337E-16
 -1      1935 1.63788E-03 5.53752E-04-5.75847E-16
 -1      1936 1.49931E-03 5.34950E-04-4.50703E-16
 -1      1937 1.41277E-03 4.88372E-04-4.47247E-16
 -1      1938 1.91376E-03 5.84085E-04-8.74233E-16
 -1      1939 1.77602E-03 5.70057E-04-7.16983E-16
 -1      1940 1.69338E-03 5.26198E-04-7.07212E-16
 -1      1941 2.18848E-03 6.07144E-04-1.23834E-15
 -1      1942 2.05128E-03 5.96391E-04-1.04802E-15
 -1      1943 1.97225E-03 5.54368E-04-1.03135E-15
 -1      1944 2.46208E-03 6.25205E-04-1.66780E-15
 -1      1945 2.32548E-03 6.16716E-04-1.44489E-15
 -1      1946 2.24996E-03 5.75947E-04-1.42064E-15
 -1      1947 2.73408E-03 6.39572E-04-2.16431E-15
 -1      1948 2.59837E-03 6.32821E-04-1.90765E-15
 -1      1949 2.52656E-03 5.93022E-04-1.87560E-15
 -1      1950 3.00363E-03 6.50483E-04-2.72732E-15
 -1      1951 2.86927E-03 6.45495E-04-2.43767E-15
 -1      1952 2.80171E-03 6.06705E-04-2.39657E-15
 -1      1953 3.26966E-03 6.56937E-04-3.35844E-15
 -1      1954 3.13720E-03 6.54378E-04-3.03413E-15
 -1      1955 3.07471E-03 6.17004E-04-2.98488E-15
 -1      1956 3.53109E-03 6.56528E-04-4.05661E-15
 -1      1957 3.40105E-03 6.57781E-04-3.69938E-15
 -1      1958 3.34463E-03 6.22625E-04-3.64009E-15
 -1      1959 3.78704E-03 6.45433E-04-4.82241E-15
 -1      1960 3.65981E-03 6.52581E-04-4.43097E-15
 -1      1961 3.61052E-03 6.20815E-04-4.36287E-15
 -1      1962 4.03715E-03 6.18677E-04-5.65673E-15
 -1      1963 3.91282E-03 6.34324E-04-5.23113E-15
 -1      1964 3.87157E-03 6.07366E-04-5.15333E-15
 -1      1965 4.28183E-03 5.70773E-04-6.56278E-15
 -1      1966 4.16008E-03 5.97677E-04-6.10105E-15
 -1      1967 4.12748E-03 5.76961E-04-6.01322E-15
 -1      1968 4.52238E-03 4.96705E-04-7.54253E-15
 -1      1969 4.40245E-03 5.37253E-04-7.04341E-15
 -1      1970 4.37869E-03 5.23920E-04-6.94453E-15
 -1      1971 4.76092E-03 3.93017E-04-8.59497E-15
 -1      1972 4.64167E-03 4.48684E-04-8.05917E-15
 -1      1973 4.62651E-03 4.43289E-04-7.94778E-15
 -1      1974 5.00001E-03 2.58665E-04-9.72494E-15
 -1      1975 4.88016E-03 3.29639E-04-9.15074E-15
 -1      1976 4.87301E-03 3.31994E-04-9.02716E-15
 -1      1977 5.24220E-03 9.53015E-05-1.09302E-14
 -1      1978 5.12051E-03 1.80427E-04-1.03174E-14
 -1      1979 5.12061E-03 1.89639E-04-1.01823E-14
 -1      1980 5.48950E-03-9.31140E-05-1.22114E-14
 -1      1981 5.36507E-03 3.93759E-06-1.15619E-14
 -1      1982 5.37156E-03 1.86317E-05-1.14138E-14
 -1      1983 5.74312E-03-3.01221E-04-1.35668E-14
 -1      1984 5.61546E-03-1.95038E-04-1.28797E-14
 -1      1985 5.62746E-03-1.76411E-04-1.27200E-14
 -1      1986 6.00341E-03-5.23319E-04-1.49907E-14
 -1      1987 5.87245E-03-4.10841E-04-1.42701E-14
 -1      1988 5.88907E-03-3.89726E-04-1.40981E-14
 -1      1989 6.26998E-03-7.54251E-04-1.64840E-14
 -1      1990 6.13598E-03-6.37948E-04-1.57296E-14
 -1      1991 6.15635E-03-6.15516E-04-1.55458E-14
 -1      1992 6.54199E-03-9.89923E-04-1.80426E-14
 -1      1993 6.40540E-03-8.71694E-04-1.72541E-14
 -1      1994 6.42868E-03-8.48774E-04-1.70601E-14
 -1      1995 6.81839E-03-1.22746E-03-1.96650E-14
 -1      1996 6.67974E-03-1.10859E-03-1.88462E-14
 -1      1997 6.70517E-03-1.08570E-03-1.86394E-14
 -1      1998 7.09813E-03-1.46508E-03-2.13509E-14
 -1      1999 6.95793E-03-1.34634E-03-2.04996E-14
 -1      2000 6.98484E-03-1.32375E-03-2.02809E-14
 -1      2001 7.38026E-03-1.70186E-03-2.30986E-14
 -1      2002 7.23897E-03-1.58361E-03-2.22184E-14
 -1      2003 7.26683E-03-1.56143E-03-2.19871E-14
 -1      2004 7.66402E-03-1.93745E-03-2.49023E-14
 -1      2005 7.52199E-03-1.81982E-03-2.39934E-14
 -1      2006 7.55042E-03-1.79803E-03-2.37529E-14
 -1      2007 7.94882E-03-2.17184E-03-2.67582E-14
 -1      2008 7.80633E-03-2.05479E-03-2.58243E-14
 -1      2009 7.83505E-03-2.03336E-03-2.55724E-14
 -1      2010 8.23424E-03-2.40520E-03-2.86649E-14
 -1      2011 8.09148E-03-2.28864E-03-2.77057E-14
 -1      2012 8.12033E-03-2.26748E-03-2.74437E-14
 -1      2013 8.52001E-03-2.63775E-03-3.06157E-14
 -1      2014 8.37710E-03-2.52157E-03-2.96333E-14
 -1      2015 8.40598E-03-2.50061E-03-2.93626E-14
 -1      2016 8.80593E-03-2.86972E-03-3.26112E-14
 -1      2017 8.66296E-03-2.75380E-03-3.16079E-14
 -1      2018 8.69182E-03-2.73298E-03-3.13251E-14
 -1      2019 9.09190E-03-3.10129E-03-3.46562E-14
 -1      2020 8.94892E-03-2.98555E-03-3.36279E-14
 -1      2021 8.97773E-03-2.96481E-03-3.33360E-14
 -1      2022 9.37787E-03-3.33262E-03-3.67422E-14
 -1      2023 9.23489E-03-3.21698E-03-3.56933E-14
 -1      2024 9.26367E-03-3.19630E-03-3.53917E-14
 -1      2025 9.66380E-03-3.56380E-03-3.88736E-14
 -1      2026 9.52084E-03-3.44822E-03-3.78036E-14
 -1      2027 9.54958E-03-3.42757E-03-3.74882E-14
 -1      2028 9.94968E-03-3.79491E-03-4.10494E-14
 -1      2029 9.80674E-03-3.67936E-03-3.99556E-14
 -1      2030 9.83546E-03-3.65872E-03-3.96288E-14
 -1      2031 1.02355E-02-4.02600E-03-4.32632E-14
 -1      2032 1.00926E-02-3.91046E-03-4.21505E-14
 -1      2033 1.01213E-02-3.88981E-03-4.18112E-14
 -1      2034 1.05213E-02-4.25709E-03-4.55179E-14
 -1      2035 1.03784E-02-4.14155E-03-4.43872E-14
 -1      2036 1.04071E-02-4.12089E-03-4.40348E-14
 -1      2037 1.08071E-02-4.48821E-03-4.78109E-14
 -1      2038 1.06642E-02-4.37265E-03-4.66605E-14
 -1      2039 1.06929E-02-4.35199E-03-4.63007E-14
 -1      2040 1.10928E-02-4.71934E-03-5.01389E-14
 -1      2041 1.09500E-02-4.60377E-03-4.89700E-14
 -1      2042 1.09786E-02-4.58310E-03-4.86039E-14
 -1      2043 1.13786E-02-4.95050E-03-5.24955E-14
 -1      2044 1.12357E-02-4.83492E-03-5.13139E-14
 -1      2045 1.12644E-02-4.81424E-03-5.09398E-14
 -1      2046 1.16643E-02-5.18168E-03-5.48856E-14
 -1      2047 1.15214E-02-5.06609E-03-5.36864E-14
 -1      2048 1.15501E-02-5.04541E-03-5.33068E-14
 -1      2049 1.19500E-02-5.41288E-03-5.73012E-14
 -1      2050 1.18071E-02-5.29728E-03-5.60896E-14
 -1      2051 1.18358E-02-5.27659E-03-5.57016E-14
 -1      2052 1.22357E-02-5.64410E-03-5.97461E-14
 -1      2053 1.20928E-02-5.52849E-03-5.85220E-14
 -1      2054 1.21215E-02-5.50780E-03-5.81260E-14
 -1      2055 1.25214E-02-5.87533E-03-6.22081E-14
 -1      2056 1.23786E-02-5.75971E-03-6.09752E-14
 -1      2057 1.24072E-02-5.73902E-03-6.05750E-14
 -1      2058 1.28071E-02-6.10656E-03-6.46940E-14
 -1      2059 1.26643E-02-5.99094E-03-6.34478E-14
 -1      2060 1.26930E-02-5.97025E-03-6.30416E-14
 -1      2061 1.30928E-02-6.33780E-03-6.71988E-14
 -1      2062 1.29500E-02-6.22218E-03-6.59455E-14
 -1      2063 1.29787E-02-6.20149E-03-6.55316E-14
 -1      2064 1.33485E-02-6.54774E-03-6.94972E-14
 -1      2065 1.32056E-02-6.43212E-03-6.82374E-14
 -1      2066 1.32343E-02-6.41142E-03-6.78225E-14
 -1      2067 1.34598E-02-6.60005E-03-6.99000E-14
 -1      2068 1.40742E-02-6.82603E-03-7.11831E-14
 -1      2069 1.39605E-02-6.78389E-03-7.09413E-14
 -1      2070 1.38468E-02-6.74174E-03-7.06999E-14
 -1      2071 1.37331E-02-6.69960E-03-7.04552E-14
 -1      2072 1.37799E-02-6.66269E-03-6.97288E-14
 -1      2073 1.35735E-02-6.64219E-03-7.01396E-14
 -1      2074 1.42977E-02-6.90890E-03-7.16438E-14
 -1      2075 1.41859E-02-6.86746E-03-7.14144E-14
 -1      2076 1.40054E-02-6.74626E-03-7.02041E-14
 -1      2077 1.45251E-02-6.99319E-03-7.21017E-14
 -1      2078 1.44114E-02-6.95104E-03-7.18766E-14
 -1      2079 1.42308E-02-6.82984E-03-7.06678E-14
 -1      2080 1.47525E-02-7.07748E-03-7.25463E-14
 -1      2081 1.46388E-02-7.03534E-03-7.23263E-14
 -1      2082 1.44582E-02-6.91413E-03-7.11232E-14
 -1      2083 1.49799E-02-7.16178E-03-7.29747E-14
 -1      2084 1.48662E-02-7.11963E-03-7.27600E-14
 -1      2085 1.46856E-02-6.99842E-03-7.15615E-14
 -1      2086 1.52073E-02-7.24607E-03-7.33849E-14
 -1      2087 1.50936E-02-7.20392E-03-7.31824E-14
 -1      2088 1.49130E-02-7.08271E-03-7.19863E-14
 -1      2089 1.54347E-02-7.33037E-03-7.37662E-14
 -1      2090 1.53210E-02-7.28822E-03-7.35810E-14
 -1      2091 1.51405E-02-7.16700E-03-7.23898E-14
 -1      2092 1.56583E-02-7.41323E-03-7.41192E-14
 -1      2093 1.55465E-02-7.37180E-03-7.39441E-14
 -1      2094 1.53659E-02-7.25058E-03-7.27679E-14
 -1      2095 1.58858E-02-7.49753E-03-7.44547E-14
 -1      2096 1.57720E-02-7.45538E-03-7.42903E-14
 -1      2097 1.55915E-02-7.33416E-03-7.31192E-14
 -1      2098 1.61132E-02-7.58182E-03-7.47728E-14
 -1      2099 1.59995E-02-7.53968E-03-7.46142E-14
 -1      2100 1.58189E-02-7.41845E-03-7.34551E-14
 -1      2101 1.63407E-02-7.66611E-03-7.50772E-14
 -1      2102 1.62269E-02-7.62397E-03-7.49264E-14
 -1      2103 1.60463E-02-7.50274E-03-7.37742E-14
 -1      2104 1.10952E-03 4.68349E-04-1.77958E-16
 -1      2105 9.66961E-04 4.33671E-04-1.13123E-16
 -1      2106 9.34604E-04 4.04132E-04-1.32313E-16
 -1      2107 1.15966E-03 4.47753E-04-2.60439E-16
 -1      2108 8.04158E-03-1.16182E-03-1.46923E-14
 -1      2109 8.25389E-03-1.23972E-03-1.49531E-14
 -1      2110 7.04163E-03-6.92691E-04-1.34215E-14
 -1      2111 7.29273E-03-8.20016E-04-1.37411E-14
 -1      2112 7.37486E-03-9.38126E-04-1.41787E-14
 -1      2113 8.75712E-03-1.36439E-03-1.53852E-14
 -1      2114 8.83105E-03-1.38288E-03-1.54600E-14
 -1      2115 3.27174E-04-8.71432E-05-1.17189E-16
 -1      2116 3.29538E-04-1.00070E-04-1.15657E-16
 -1      2117 4.46740E-04-1.42266E-04-1.68688E-16
 -1      2118 4.39677E-04-1.07814E-04-1.72063E-16
 -1      2119 6.51044E-03-3.48835E-04-1.24369E-14
 -1      2120 6.71527E-03-4.92086E-04-1.28537E-14
 -1      2121 6.14292E-03-1.34245E-04-1.16825E-14
 -1      2122 6.32414E-03-2.35095E-04-1.20577E-14
 -1      2123 6.36031E-03-3.03754E-04-1.23230E-14
 -1      2124 5.78152E-03 6.65621E-06-1.09097E-14
 -1      2125 5.95504E-03-5.17359E-05-1.12921E-14
 -1      2126 6.02572E-03-1.01353E-04-1.15498E-14
 -1      2127 5.37702E-03 2.90980E-05-1.00366E-14
 -1      2128 5.54178E-03 4.10199E-05-1.03769E-14
 -1      2129 5.02945E-03-5.74150E-05-9.37146E-15
 -1      2130 5.20258E-03-1.39458E-06-9.69442E-15
 -1      2131 4.61293E-03-2.27669E-04-8.75076E-15
 -1      2132 4.80032E-03-1.44538E-04-8.99720E-15
 -1      2133 4.19541E-03-4.00732E-04-8.34844E-15
 -1      2134 4.38496E-03-3.22354E-04-8.52066E-15
 -1      2135 3.83174E-03-5.36967E-04-8.05820E-15
 -1      2136 4.00046E-03-4.74885E-04-8.19384E-15
 -1      2137 3.53707E-03-6.34496E-04-7.84154E-15
 -1      2138 3.66578E-03-5.94674E-04-7.93228E-15
 -1      2139 3.36836E-03-6.91776E-04-7.76548E-15
 -1      2140 3.42538E-03-6.71607E-04-7.77019E-15
 -1      2141 3.37742E-03-7.24509E-04-7.75863E-15
 -1      2142 3.35119E-03-7.12745E-04-7.76134E-15
 -1      2143 3.35219E-03-6.82629E-04-7.54687E-15
 -1      2144 3.60438E-03-8.31276E-04-8.04718E-15
 -1      2145 3.48044E-03-7.70635E-04-7.88308E-15
 -1      2146 3.95453E-03-9.96478E-04-8.35382E-15
 -1      2147 3.76840E-03-9.05468E-04-8.19052E-15
 -1      2148 4.44515E-03-1.27582E-03-8.75870E-15
 -1      2149 4.19133E-03-1.12592E-03-8.55427E-15
 -1      2150 5.04609E-03-1.77806E-03-9.40873E-15
 -1      2151 4.77937E-03-1.53338E-03-9.10308E-15
 -1      2152 5.94298E-03-2.65627E-03-1.06348E-14
 -1      2153 7.04074E-03-2.67674E-03-1.28545E-14
 -1      2154 8.09002E-03-1.81356E-03-1.45424E-14
 -1      2155 7.86631E-03-1.97934E-03-1.42144E-14
 -1      2156 8.48144E-03-1.58842E-03-1.50339E-14
 -1      2157 8.29572E-03-1.69200E-03-1.47888E-14
 -1      2158 8.24312E-03-1.67753E-03-1.51531E-14
 -1      2159 8.75167E-03-1.46649E-03-1.53390E-14
 -1      2160 8.63206E-03-1.51770E-03-1.51875E-14
 -1      2161 8.57192E-03-1.52125E-03-1.55594E-14
 -1      2162 8.86098E-03-1.41100E-03-1.55282E-14
 -1      2163 8.82868E-03-1.42992E-03-1.54329E-14
 -1      2164 8.79369E-03-1.44509E-03-1.58080E-14
 -1      2165 8.48016E-03-1.30567E-03-1.51831E-14
 -1      2166 8.63188E-03-1.33870E-03-1.53131E-14
 -1      2167 5.68229E-03-2.35634E-03-1.01259E-14
 -1      2168 5.43325E-03-2.09849E-03-9.78761E-15
 -1      2169 4.76175E-03-1.34897E-03-8.73700E-15
 -1      2170 5.09983E-03-1.57177E-03-8.99699E-15
 -1      2171 7.87184E-03-1.16208E-03-1.48270E-14
 -1      2172 6.09565E-04-2.94187E-04-1.98938E-16
 -1      2173 6.65495E-04-2.87814E-04-2.55587E-16
 -1      2174 6.83368E-03-6.16274E-04-1.32716E-14
 -1      2175 8.86064E-03-1.41472E-03-1.58322E-14
 -1      2176 7.30757E-03-2.42062E-03-1.34828E-14
 -1      2177 8.30897E-03-1.62950E-03-1.56942E-14
 -1      2178 1.65757E-02-7.74789E-03-7.52859E-14
 -1      2179 1.35066E-02-6.56314E-03-6.91719E-14
 -1      2180 4.10052E-03-4.49335E-04-8.08879E-15
 -1      2181 1.64720E-02-7.70425E-03-7.50681E-14
 -1      2182 8.35718E-03-1.32095E-03-1.53792E-14
 -1      2183 8.69903E-03-1.38830E-03-1.56877E-14
 -1      2184 4.49903E-03-2.79267E-04-8.46275E-15
 -1      2185 4.66045E-03-1.34306E-03-8.78333E-15
 -1      2186 4.10728E-03-9.86299E-04-8.25367E-15
 -1      2187 3.42287E-03-7.15303E-04-7.66028E-15
 -1      2188 3.38284E-03-6.77323E-04-7.44245E-15
 -1      2189 3.48750E-03-7.00683E-04-7.56067E-15
 -1      2190 3.47348E-03-6.51906E-04-7.62243E-15
 -1      2191 3.74976E-03-5.74430E-04-7.81524E-15
 -1      2192 4.91634E-03-9.31006E-05-9.05192E-15
 -1      2193 5.54165E-03 5.22826E-05-1.03437E-14
 -1      2194 5.65323E-03 3.76841E-05-1.06245E-14
 -1      2195 5.73894E-03 1.31166E-05-1.08732E-14
 -1      2196 5.16320E-03-1.73716E-03-9.27836E-15
 -1      2197 7.54023E-03-2.20757E-03-1.38723E-14
 -1      2198 5.27976E-03 2.52115E-05-9.75912E-15
 -1      2199 1.62914E-02-7.58302E-03-7.39335E-14
 -1      2200 3.71053E-03-8.10386E-04-7.92097E-15
 -1      2201 5.45930E-04-5.58611E-05-2.35814E-16
 -1      2202 5.47034E-04-7.18872E-05-2.38836E-16
 -1      2203 5.48639E-04-8.84851E-05-2.41208E-16
 -1      2204 5.50800E-04-1.05740E-04-2.42753E-16
 -1      2205 6.62906E-04-9.51341E-05-3.23933E-16
 -1      2206 5.45174E-04 6.40144E-06-2.17410E-16
 -1      2207 5.44903E-04-9.12804E-06-2.22966E-16
 -1      2208 5.46487E-04 3.81449E-05-2.04467E-16
 -1      2209 5.45707E-04 2.21474E-05-2.11325E-16
 -1      2210 6.59972E-04 1.66726E-05-2.90417E-16
 -1      2211 5.48809E-04 7.08904E-05-1.88570E-16
 -1      2212 5.47513E-04 5.42951E-05-1.97040E-16
 -1      2213 6.62058E-04 5.44140E-05-2.72758E-16
 -1      2214 5.52561E-04 1.06742E-04-1.68959E-16
 -1      2215 5.50478E-04 8.84549E-05-1.79313E-16
 -1      2216 6.65544E-04 9.42062E-05-2.51061E-16
 -1      2217 5.58641E-04 1.46555E-04-1.44402E-16
 -1      2218 5.55242E-04 1.26086E-04-1.57440E-16
 -1      2219 6.71040E-04 1.37551E-04-2.24349E-16
 -1      2220 5.69119E-04 1.92567E-04-1.13773E-16
 -1      2221 5.63171E-04 1.68665E-04-1.30064E-16
 -1      2222 6.79866E-04 1.85727E-04-1.91470E-16
 -1      2223 5.88668E-04 2.48501E-04-7.45389E-17
 -1      2224 5.77466E-04 2.19096E-04-9.55589E-17
 -1      2225 6.94955E-04 2.41176E-04-1.50840E-16
 -1      2226 6.42939E-04 3.00424E-04-5.46709E-17
 -1      2227 6.15136E-04 2.72860E-04-6.62854E-17
 -1      2228 7.32360E-04 2.96773E-04-1.18449E-16
 -1      2229 7.89577E-04 3.48826E-04-9.71852E-17
 -1      2230 6.64661E-03-5.42230E-04-1.31332E-14
 -1      2231 6.93602E-03-7.36203E-04-1.37084E-14
 -1      2232 7.73466E-03-1.17009E-03-1.50471E-14
 -1      2233 7.97876E-03-1.26552E-03-1.53704E-14
 -1      2234 9.17681E-04-3.39465E-04-4.67413E-16
 -1      2235 1.06228E-03-3.71297E-04-6.06963E-16
 -1      2236 4.25401E-03-8.87500E-04-7.81464E-15
 -1      2237 1.20607E-03-3.97998E-04-7.65365E-16
 -1      2238 1.34950E-03-4.19981E-04-9.42524E-16
 -1      2239 1.11902E-03-3.51739E-04-6.94553E-16
 -1      2240 1.49228E-03-4.38043E-04-1.13810E-15
 -1      2241 1.63477E-03-4.52433E-04-1.35257E-15
 -1      2242 1.40550E-03-3.95076E-04-1.04887E-15
 -1      2243 1.78390E-03-4.64280E-04-1.59731E-15
 -1      2244 1.93286E-03-4.73000E-04-1.86141E-15
 -1      2245 1.69730E-03-4.24586E-04-1.48790E-15
 -1      2246 2.07428E-03-4.78931E-04-2.13084E-15
 -1      2247 2.21559E-03-4.82676E-04-2.41818E-15
 -1      2248 1.98682E-03-4.42459E-04-2.00206E-15
 -1      2249 2.35623E-03-4.84788E-04-2.72296E-15
 -1      2250 2.49662E-03-4.85315E-04-3.04471E-15
 -1      2251 2.26612E-03-4.51600E-04-2.57395E-15
 -1      2252 2.63569E-03-4.85123E-04-3.38272E-15
 -1      2253 2.77409E-03-4.84170E-04-3.73724E-15
 -1      2254 2.54023E-03-4.55514E-04-3.21429E-15
 -1      2255 2.90999E-03-4.84092E-04-4.10741E-15
 -1      2256 3.04438E-03-4.84724E-04-4.49334E-15
 -1      2257 2.80527E-03-4.58180E-04-3.91989E-15
 -1      2258 3.17447E-03-4.89161E-04-4.89444E-15
 -1      2259 3.30198E-03-4.97352E-04-5.31140E-15
 -1      2260 3.05480E-03-4.65967E-04-4.68867E-15
 -1      2261 3.42335E-03-5.14775E-04-5.74280E-15
 -1      2262 3.54184E-03-5.41999E-04-6.18937E-15
 -1      2263 3.27978E-03-4.89756E-04-5.51755E-15
 -1      2264 3.69002E-03-5.90561E-04-6.63099E-15
 -1      2265 3.80070E-03-6.52320E-04-7.06034E-15
 -1      2266 5.89935E-04-2.33891E-04-2.30041E-16
 -1      2267 7.83312E-04-2.99176E-04-3.59738E-16
 -1      2268 8.42296E-04-2.87543E-04-4.27718E-16
 -1      2269 5.79953E-04-2.06204E-04-2.37522E-16
 -1      2270 1.33939E-02-6.46882E-03-6.81347E-14
 -1      2271 8.96915E-03-1.60429E-03-1.84492E-14
 -1      2272 9.09733E-03-1.68876E-03-1.92766E-14
 -1      2273 9.22667E-03-1.78569E-03-2.01140E-14
 -1      2274 9.36088E-03-1.89313E-03-2.09633E-14
 -1      2275 9.15202E-03-1.71905E-03-1.96037E-14
 -1      2276 9.49667E-03-2.00554E-03-2.18236E-14
 -1      2277 9.63610E-03-2.12253E-03-2.26938E-14
 -1      2278 9.38824E-03-1.92819E-03-2.12962E-14
 -1      2279 9.77641E-03-2.24108E-03-2.35750E-14
 -1      2280 9.91881E-03-2.36123E-03-2.44683E-14
 -1      2281 9.64594E-03-2.15662E-03-2.30335E-14
 -1      2282 1.00686E-02-2.48753E-03-2.54164E-14
 -1      2283 1.02195E-02-2.61407E-03-2.63780E-14
 -1      2284 9.92421E-03-2.39888E-03-2.48609E-14
 -1      2285 1.03632E-02-2.73420E-03-2.73039E-14
 -1      2286 1.05072E-02-2.85403E-03-2.82375E-14
 -1      2287 1.02105E-02-2.64342E-03-2.67331E-14
 -1      2288 1.06511E-02-2.97338E-03-2.91832E-14
 -1      2289 1.07951E-02-3.09232E-03-3.01401E-14
 -1      2290 1.04937E-02-2.88163E-03-2.86017E-14
 -1      2291 1.09389E-02-3.21083E-03-3.11048E-14
 -1      2292 1.10827E-02-3.32895E-03-3.20809E-14
 -1      2293 1.07788E-02-3.11867E-03-3.05083E-14
 -1      2294 1.12264E-02-3.44672E-03-3.30685E-14
 -1      2295 1.13700E-02-3.56417E-03-3.40672E-14
 -1      2296 1.10647E-02-3.35443E-03-3.24579E-14
 -1      2297 1.15134E-02-3.68137E-03-3.50754E-14
 -1      2298 1.16568E-02-3.79832E-03-3.60962E-14
 -1      2299 1.13509E-02-3.58908E-03-3.44509E-14
 -1      2300 1.18001E-02-3.91508E-03-3.71277E-14
 -1      2301 1.19433E-02-4.03167E-03-3.81710E-14
 -1      2302 1.16371E-02-3.82285E-03-3.64882E-14
 -1      2303 1.20865E-02-4.14811E-03-3.92241E-14
 -1      2304 1.22296E-02-4.26443E-03-4.02836E-14
 -1      2305 1.19233E-02-4.05594E-03-3.85681E-14
 -1      2306 1.23799E-02-4.38646E-03-4.14119E-14
 -1      2307 1.25301E-02-4.50838E-03-4.25546E-14
 -1      2308 1.22165E-02-4.29434E-03-4.07443E-14
 -1      2309 1.26731E-02-4.62443E-03-4.36532E-14
 -1      2310 1.28161E-02-4.74042E-03-4.47579E-14
 -1      2311 1.25097E-02-4.53237E-03-4.29685E-14
 -1      2312 1.29590E-02-4.85636E-03-4.58704E-14
 -1      2313 1.31019E-02-4.97225E-03-4.69962E-14
 -1      2314 1.27956E-02-4.76433E-03-4.51742E-14
 -1      2315 1.32449E-02-5.08810E-03-4.81308E-14
 -1      2316 1.33878E-02-5.20392E-03-4.92696E-14
 -1      2317 1.30814E-02-4.99611E-03-4.74174E-14
 -1      2318 1.35307E-02-5.31972E-03-5.04188E-14
 -1      2319 1.36736E-02-5.43549E-03-5.15748E-14
 -1      2320 1.33672E-02-5.22775E-03-4.96955E-14
 -1      2321 1.38164E-02-5.55125E-03-5.27363E-14
 -1      2322 1.39593E-02-5.66698E-03-5.39051E-14
 -1      2323 1.36530E-02-5.45930E-03-5.20052E-14
 -1      2324 1.41022E-02-5.78270E-03-5.50755E-14
 -1      2325 1.42451E-02-5.89841E-03-5.62492E-14
 -1      2326 1.39388E-02-5.69077E-03-5.43364E-14
 -1      2327 1.43951E-02-6.01989E-03-5.74912E-14
 -1      2328 1.45451E-02-6.14137E-03-5.87368E-14
 -1      2329 1.42317E-02-5.92797E-03-5.67478E-14
 -1      2330 1.46879E-02-6.25705E-03-5.99262E-14
 -1      2331 1.48308E-02-6.37272E-03-6.11221E-14
 -1      2332 1.45245E-02-6.16513E-03-5.91801E-14
 -1      2333 1.49736E-02-6.48839E-03-6.23198E-14
 -1      2334 1.51165E-02-6.60405E-03-6.35203E-14
 -1      2335 1.48102E-02-6.39648E-03-6.15695E-14
 -1      2336 1.52594E-02-6.71971E-03-6.47251E-14
 -1      2337 1.54022E-02-6.83536E-03-6.59286E-14
 -1      2338 1.50960E-02-6.62780E-03-6.39736E-14
 -1      2339 1.55451E-02-6.95101E-03-6.71340E-14
 -1      2340 1.56879E-02-7.06666E-03-6.83436E-14
 -1      2341 1.53817E-02-6.85911E-03-6.63851E-14
 -1      2342 1.58308E-02-7.18231E-03-6.95574E-14
 -1      2343 1.59736E-02-7.29796E-03-7.07679E-14
 -1      2344 1.56674E-02-7.09041E-03-6.88101E-14
 -1      2345 1.60611E-02-7.38267E-03-7.17344E-14
 -1      2346 1.62039E-02-7.49832E-03-7.29572E-14
 -1      2347 1.60726E-02-7.46018E-03-7.29480E-14
 -1      2348 1.58977E-02-7.29077E-03-7.09964E-14
 -1      2349 2.03295E-03 5.23620E-04-1.19353E-15
 -1      2350 1.89232E-03 5.11540E-04-1.01068E-15
 -1      2351 1.75139E-03 4.97599E-04-8.44011E-16
 -1      2352 1.61016E-03 4.81587E-04-6.93401E-16
 -1      2353 1.81165E-03 4.68117E-04-9.85946E-16
 -1      2354 1.46852E-03 4.62863E-04-5.58405E-16
 -1      2355 1.32634E-03 4.41164E-04-4.39386E-16
 -1      2356 1.52673E-03 4.36505E-04-6.75051E-16
 -1      2357 2.31362E-03 5.43721E-04-1.60812E-15
 -1      2358 2.17342E-03 5.34296E-04-1.39279E-15
 -1      2359 2.09582E-03 4.91943E-04-1.36080E-15
 -1      2360 2.59346E-03 5.59789E-04-2.08793E-15
 -1      2361 2.45370E-03 5.52193E-04-1.83961E-15
 -1      2362 2.37955E-03 5.10510E-04-1.80029E-15
 -1      2363 2.87220E-03 5.72747E-04-2.63391E-15
 -1      2364 2.73305E-03 5.66648E-04-2.35268E-15
 -1      2365 2.66292E-03 5.25509E-04-2.30495E-15
 -1      2366 3.14922E-03 5.82384E-04-3.24677E-15
 -1      2367 3.01102E-03 5.78044E-04-2.93218E-15
 -1      2368 2.94567E-03 5.37685E-04-2.87574E-15
 -1      2369 3.42366E-03 5.87132E-04-3.92653E-15
 -1      2370 3.28686E-03 5.85520E-04-3.57793E-15
 -1      2371 3.22722E-03 5.46627E-04-3.51290E-15
 -1      2372 3.69455E-03 5.83889E-04-4.67337E-15
 -1      2373 3.55963E-03 5.86755E-04-4.29145E-15
 -1      2374 3.50667E-03 5.50499E-04-4.21733E-15
 -1      2375 3.96107E-03 5.68050E-04-5.48846E-15
 -1      2376 3.82840E-03 5.77872E-04-5.07211E-15
 -1      2377 3.78295E-03 5.45840E-04-4.98825E-15
 -1      2378 4.22285E-03 5.33915E-04-6.37240E-15
 -1      2379 4.09252E-03 5.53638E-04-5.92187E-15
 -1      2380 4.05507E-03 5.27602E-04-5.82725E-15
 -1      2381 4.48033E-03 4.75568E-04-7.32940E-15
 -1      2382 4.35200E-03 5.08107E-04-6.84191E-15
 -1      2383 4.32258E-03 4.89638E-04-6.73645E-15
 -1      2384 4.73488E-03 3.88105E-04-8.35722E-15
 -1      2385 4.60777E-03 4.35703E-04-7.83404E-15
 -1      2386 4.58595E-03 4.25745E-04-7.71696E-15
 -1      2387 4.98866E-03 2.68878E-04-9.46323E-15
 -1      2388 4.86163E-03 3.32514E-04-8.90042E-15
 -1      2389 4.84675E-03 3.31083E-04-8.77185E-15
 -1      2390 5.24405E-03 1.18229E-04-1.06438E-14
 -1      2391 5.11593E-03 1.97342E-04-1.00440E-14
 -1      2392 5.10729E-03 2.03517E-04-9.90267E-15
 -1      2393 5.50309E-03-6.05737E-05-1.19011E-14
 -1      2394 5.37296E-03 3.20554E-05-1.12628E-14
 -1      2395 5.37004E-03 4.42680E-05-1.11094E-14
 -1      2396 5.76703E-03-2.62199E-04-1.32304E-14
 -1      2397 5.63438E-03-1.58904E-04-1.25568E-14
 -1      2398 5.63684E-03-1.42430E-04-1.23910E-14
 -1      2399 6.03616E-03-4.80486E-04-1.46328E-14
 -1      2400 5.90096E-03-3.69631E-04-1.39235E-14
 -1      2401 5.90851E-03-3.50493E-04-1.37457E-14
 -1      2402 6.31005E-03-7.09599E-04-1.61042E-14
 -1      2403 6.17258E-03-5.94006E-04-1.53597E-14
 -1      2404 6.18486E-03-5.73414E-04-1.51723E-14
 -1      2405 6.58784E-03-9.44762E-04-1.76392E-14
 -1      2406 6.44855E-03-8.26661E-04-1.68635E-14
 -1      2407 6.46505E-03-8.05408E-04-1.66648E-14
 -1      2408 6.86857E-03-1.18254E-03-1.92387E-14
 -1      2409 6.72793E-03-1.06348E-03-1.84306E-14
 -1      2410 6.74800E-03-1.04203E-03-1.82218E-14
 -1      2411 7.15136E-03-1.42076E-03-2.09012E-14
 -1      2412 7.00979E-03-1.30168E-03-2.00630E-14
 -1      2413 7.03269E-03-1.28026E-03-1.98411E-14
 -1      2414 7.43551E-03-1.65823E-03-2.26259E-14
 -1      2415 7.29333E-03-1.53963E-03-2.17554E-14
 -1      2416 7.31836E-03-1.51832E-03-2.15244E-14
 -1      2417 7.72051E-03-1.89446E-03-2.44085E-14
 -1      2418 7.57795E-03-1.77651E-03-2.35104E-14
 -1      2419 7.60448E-03-1.75536E-03-2.32668E-14
 -1      2420 8.00600E-03-2.12939E-03-2.62432E-14
 -1      2421 7.86322E-03-2.01209E-03-2.53187E-14
 -1      2422 7.89075E-03-1.99107E-03-2.50647E-14
 -1      2423 8.29175E-03-2.36317E-03-2.81285E-14
 -1      2424 8.14886E-03-2.24642E-03-2.71799E-14
 -1      2425 8.17701E-03-2.22552E-03-2.69148E-14
 -1      2426 8.57764E-03-2.59602E-03-3.00608E-14
 -1      2427 8.43469E-03-2.47970E-03-2.90890E-14
 -1      2428 8.46320E-03-2.45889E-03-2.88139E-14
 -1      2429 8.86357E-03-2.82819E-03-3.20381E-14
 -1      2430 8.72061E-03-2.71218E-03-3.10437E-14
 -1      2431 8.74930E-03-2.69143E-03-3.07609E-14
 -1      2432 9.14950E-03-3.05989E-03-3.40604E-14
 -1      2433 9.00654E-03-2.94409E-03-3.30424E-14
 -1      2434 9.03531E-03-2.92338E-03-3.27509E-14
 -1      2435 9.43540E-03-3.29128E-03-3.61254E-14
 -1      2436 9.29245E-03-3.17561E-03-3.50888E-14
 -1      2437 9.32125E-03-3.15494E-03-3.47847E-14
 -1      2438 9.72127E-03-3.52249E-03-3.82329E-14
 -1      2439 9.57834E-03-3.40690E-03-3.71738E-14
 -1      2440 9.60713E-03-3.38624E-03-3.68602E-14
 -1      2441 1.00071E-02-3.75362E-03-4.03825E-14
 -1      2442 9.86420E-03-3.63806E-03-3.93027E-14
 -1      2443 9.89296E-03-3.61741E-03-3.89774E-14
 -1      2444 1.02929E-02-3.98470E-03-4.25735E-14
 -1      2445 1.01500E-02-3.86916E-03-4.14731E-14
 -1      2446 1.01788E-02-3.84851E-03-4.11366E-14
 -1      2447 1.05787E-02-4.21578E-03-4.48100E-14
 -1      2448 1.04358E-02-4.10024E-03-4.36861E-14
 -1      2449 1.04645E-02-4.07958E-03-4.33381E-14
 -1      2450 1.08645E-02-4.44688E-03-4.70849E-14
 -1      2451 1.07216E-02-4.33133E-03-4.59426E-14
 -1      2452 1.07503E-02-4.31066E-03-4.55858E-14
 -1      2453 1.11502E-02-4.67800E-03-4.93983E-14
 -1      2454 1.10073E-02-4.56243E-03-4.82369E-14
 -1      2455 1.10360E-02-4.54176E-03-4.78715E-14
 -1      2456 1.14359E-02-4.90914E-03-5.17425E-14
 -1      2457 1.12931E-02-4.79357E-03-5.05662E-14
 -1      2458 1.13218E-02-4.77289E-03-5.01937E-14
 -1      2459 1.17217E-02-5.14031E-03-5.41188E-14
 -1      2460 1.15788E-02-5.02472E-03-5.29270E-14
 -1      2461 1.16075E-02-5.00404E-03-5.25468E-14
 -1      2462 1.20074E-02-5.37150E-03-5.65176E-14
 -1      2463 1.18645E-02-5.25591E-03-5.53162E-14
 -1      2464 1.18932E-02-5.23522E-03-5.49292E-14
 -1      2465 1.22931E-02-5.60272E-03-5.89522E-14
 -1      2466 1.21502E-02-5.48711E-03-5.77324E-14
 -1      2467 1.21789E-02-5.46642E-03-5.73397E-14
 -1      2468 1.25788E-02-5.83394E-03-6.14030E-14
 -1      2469 1.24359E-02-5.71833E-03-6.01734E-14
 -1      2470 1.24646E-02-5.69763E-03-5.97757E-14
 -1      2471 1.28645E-02-6.06517E-03-6.38765E-14
 -1      2472 1.27217E-02-5.94955E-03-6.26377E-14
 -1      2473 1.27503E-02-5.92886E-03-6.22337E-14
 -1      2474 1.31502E-02-6.29641E-03-6.63693E-14
 -1      2475 1.30074E-02-6.18079E-03-6.51195E-14
 -1      2476 1.30361E-02-6.16010E-03-6.47115E-14
 -1      2477 1.41640E-02-6.75078E-03-6.96929E-14
 -1      2478 1.40503E-02-6.70863E-03-6.94607E-14
 -1      2479 1.39385E-02-6.66720E-03-6.92322E-14
 -1      2480 1.38267E-02-6.62577E-03-6.89995E-14
 -1      2481 1.38716E-02-6.58814E-03-6.82631E-14
 -1      2482 1.37131E-02-6.58363E-03-6.87581E-14
 -1      2483 1.35994E-02-6.54149E-03-6.85172E-14
 -1      2484 1.36462E-02-6.50457E-03-6.77917E-14
 -1      2485 3.99835E-03-4.86518E-04-7.79060E-15
 -1      2486 4.16953E-03-4.17693E-04-7.93645E-15
 -1      2487 1.43914E-02-6.83507E-03-7.01438E-14
 -1      2488 1.42777E-02-6.79292E-03-6.99199E-14
 -1      2489 1.40971E-02-6.67172E-03-6.87204E-14
 -1      2490 1.46188E-02-6.91935E-03-7.05788E-14
 -1      2491 1.45051E-02-6.87721E-03-7.03650E-14
 -1      2492 1.43245E-02-6.75600E-03-6.91682E-14
 -1      2493 1.48462E-02-7.00364E-03-7.09999E-14
 -1      2494 1.47325E-02-6.96150E-03-7.07931E-14
 -1      2495 1.45519E-02-6.84029E-03-6.96025E-14
 -1      2496 1.50736E-02-7.08793E-03-7.13997E-14
 -1      2497 1.49599E-02-7.04579E-03-7.12010E-14
 -1      2498 1.47793E-02-6.92458E-03-7.00178E-14
 -1      2499 1.52972E-02-7.17080E-03-7.17695E-14
 -1      2500 1.51854E-02-7.12937E-03-7.15897E-14
 -1      2501 1.50048E-02-7.00815E-03-7.04088E-14
 -1      2502 1.55246E-02-7.25509E-03-7.21231E-14
 -1      2503 1.54109E-02-7.21294E-03-7.19481E-14
 -1      2504 1.52303E-02-7.09172E-03-7.07774E-14
 -1      2505 1.57520E-02-7.33938E-03-7.24591E-14
 -1      2506 1.56383E-02-7.29723E-03-7.22932E-14
 -1      2507 1.54577E-02-7.17601E-03-7.11309E-14
 -1      2508 1.59692E-02-7.42085E-03-7.27842E-14
 -1      2509 1.58555E-02-7.37871E-03-7.26210E-14
 -1      2510 1.56749E-02-7.25749E-03-7.14709E-14
 -1      2511 1.58817E-02-7.33615E-03-7.18037E-14
 -1      2512 3.80946E-03-7.73475E-04-7.73160E-15
 -1      2513 3.65054E-03-7.24250E-04-7.59782E-15
 -1      2514 8.84807E-03-1.43949E-03-1.62502E-14
 -1      2515 8.87772E-03-1.43896E-03-1.63224E-14
 -1      2516 7.24770E-03-9.27350E-04-1.42984E-14
 -1      2517 7.46737E-03-1.04279E-03-1.46326E-14
 -1      2518 3.41661E-03-6.43023E-04-7.30000E-15
 -1      2519 3.51934E-03-6.26980E-04-7.36900E-15
 -1      2520 8.70288E-03-1.51220E-03-1.68312E-14
 -1      2521 8.83668E-03-1.54476E-03-1.76410E-14
 -1      2522 8.24582E-03-1.34456E-03-1.56443E-14
 -1      2523 8.45742E-03-1.39420E-03-1.58820E-14
 -1      2524 5.19898E-03 2.11007E-05-9.48877E-15
 -1      2525 5.33710E-03 5.05431E-05-9.82295E-15
 -1      2526 5.44913E-04-2.46215E-05-2.27723E-16
 -1      2527 5.45238E-04-4.01287E-05-2.32087E-16
 -1      2528 6.60025E-04-5.71321E-05-3.16031E-16
 -1      2529 6.59207E-04-2.02787E-05-3.04810E-16
 -1      2530 1.34226E-02-6.44813E-03-6.77186E-14
 -1      2531 6.22556E-03-2.53172E-04-1.21832E-14
 -1      2532 6.37980E-03-3.64282E-04-1.25646E-14
 -1      2533 4.81132E-03-1.21184E-04-8.69655E-15
 -1      2534 5.00213E-03-3.90641E-05-9.05786E-15
 -1      2535 3.67088E-03-5.93210E-04-7.54002E-15
 -1      2536 3.82443E-03-5.48434E-04-7.66013E-15
 -1      2537 3.34176E-03-6.57329E-04-7.31439E-15
 -1      2538 3.35645E-03-6.57909E-04-7.32092E-15
 -1      2539 8.83865E-03-1.44476E-03-1.62398E-14
 -1      2540 8.76536E-03-1.45770E-03-1.61459E-14
 -1      2541 4.37110E-03-3.28664E-04-8.11612E-15
 -1      2542 4.56222E-03-2.36100E-04-8.33368E-15
 -1      2543 8.64867E-03-1.42460E-03-1.60506E-14
 -1      2544 8.76422E-03-1.43073E-03-1.61273E-14
 -1      2545 5.92073E-03-6.87059E-05-1.13916E-14
 -1      2546 6.06803E-03-1.53370E-04-1.17836E-14
 -1      2547 6.11007E-03-2.07936E-04-1.20172E-14
 -1      2548 5.53683E-04-1.23963E-04-2.43322E-16
 -1      2549 5.57368E-04-1.43332E-04-2.42712E-16
 -1      2550 6.68557E-04-1.35820E-04-3.28025E-16
 -1      2551 6.50159E-03-4.76393E-04-1.29852E-14
 -1      2552 9.03737E-04 3.77160E-04-1.46503E-16
 -1      2553 8.74524E-04 3.50668E-04-1.58754E-16
 -1      2554 1.01750E-03 4.01173E-04-2.05944E-16
 -1      2555 7.60856E-03-1.15061E-03-1.51686E-14
 -1      2556 8.11831E-03-1.34659E-03-1.58699E-14
 -1      2557 3.68124E-03-6.42305E-04-7.11895E-15
 -1      2558 3.86935E-03-7.07238E-04-7.35246E-15
 -1      2559 3.50033E-03-5.47802E-04-6.38646E-15
 -1      2560 7.05497E-03-8.43269E-04-1.41516E-14
 -1      2561 8.46936E-03-1.55677E-03-1.59473E-14
 -1      2562 8.93896E-03-1.55261E-03-1.79650E-14
 -1      2563 3.62009E-03-6.56480E-04-7.24880E-15
 -1      2564 3.54929E-03-6.81805E-04-7.43406E-15
 -1      2565 3.47412E-03-6.43866E-04-7.21686E-15
 -1      2566 3.57754E-03-6.12743E-04-6.96209E-15
 -1      2567 1.33557E-02-6.36907E-03-6.67530E-14
 -1      2568 4.24248E-03-3.64050E-04-7.81355E-15
 -1      2569 3.88908E-03-5.08754E-04-7.51240E-15
 -1      2570 3.96844E-03-7.87354E-04-7.67560E-15
 -1      2571 8.82636E-03-1.46794E-03-1.66186E-14
 -1      2572 8.88279E-03-1.45871E-03-1.66631E-14
 -1      2573 1.22842E-03 4.32487E-04-3.53220E-16
 -1      2574 1.11551E-03 4.15044E-04-2.72528E-16
 -1      2575 1.08739E-03 3.89142E-04-2.86040E-16
 -1      2576 1.28495E-03 4.09743E-04-4.48236E-16
 -1      2577 5.79927E-03-2.00891E-05-1.10982E-14
 -1      2578 5.85101E-03-6.28065E-05-1.13241E-14
 -1      2579 5.69063E-03 1.59285E-05-1.08090E-14
 -1      2580 8.56214E-03-1.44436E-03-1.63217E-14
 -1      2581 3.57247E-03-5.95784E-04-7.21710E-15
 -1      2582 3.35073E-03-6.45505E-04-7.21535E-15
 -1      2583 3.32940E-03-6.19814E-04-6.99187E-15
 -1      2584 3.37795E-03-6.28667E-04-7.11557E-15
 -1      2585 5.06730E-03 2.83784E-06-9.11830E-15
 -1      2586 5.43368E-03 6.12047E-05-1.00601E-14
 -1      2587 3.37235E-03-6.26215E-04-7.07055E-15
 -1      2588 4.45164E-03-1.12057E-03-8.40578E-15
 -1      2589 8.60544E-03-1.50866E-03-1.61045E-14
 -1      2590 4.66209E-03-1.64610E-04-8.34035E-15
 -1      2591 5.64306E-04-1.61648E-04-2.43105E-16
 -1      2592 5.70273E-04-1.84319E-04-2.39853E-16
 -1      2593 6.98490E-04-2.23141E-04-3.28269E-16
 -1      2594 6.80163E-04-1.78057E-04-3.29408E-16
 -1      2595 8.75803E-03-1.47012E-03-1.64355E-14
 -1      2596 6.36679E-03-4.13213E-04-1.28368E-14
 -1      2597 6.60419E-03-5.81640E-04-1.34117E-14
 -1      2598 7.79795E-04 7.33134E-05-3.50360E-16
 -1      2599 7.78072E-04 5.13184E-05-3.62571E-16
 -1      2600 7.76710E-04 2.94186E-05-3.73643E-16
 -1      2601 7.75764E-04 7.93589E-06-3.83875E-16
 -1      2602 8.95272E-04 4.46013E-05-4.66763E-16
 -1      2603 7.92272E-04 1.70513E-04-2.86907E-16
 -1      2604 7.88101E-04 1.44684E-04-3.05338E-16
 -1      2605 8.04251E-04 2.26516E-04-2.44732E-16
 -1      2606 7.97616E-04 1.97731E-04-2.67025E-16
 -1      2607 9.15955E-04 2.05186E-04-3.56540E-16
 -1      2608 8.46751E-04 3.25121E-04-1.69230E-16
 -1      2609 8.20523E-04 3.00412E-04-1.78351E-16
 -1      2610 9.61092E-04 3.49506E-04-2.30420E-16
 -1      2611 1.33896E-02-6.34681E-03-6.62991E-14
 -1      2612 1.32128E-02-6.25345E-03-6.55048E-14
 -1      2613 1.30700E-02-6.13783E-03-6.42622E-14
 -1      2614 3.36197E-03-5.19396E-04-6.07743E-15
 -1      2615 3.46803E-03-5.56347E-04-6.51287E-15
 -1      2616 3.43287E-03-5.67895E-04-6.63828E-15
 -1      2617 1.03443E-03-3.06848E-04-6.25368E-16
 -1      2618 1.17745E-03-3.31642E-04-7.84271E-16
 -1      2619 1.32018E-03-3.52636E-04-9.61620E-16
 -1      2620 1.46274E-03-3.70037E-04-1.15669E-15
 -1      2621 1.23683E-03-3.10946E-04-8.76090E-16
 -1      2622 1.61180E-03-3.85065E-04-1.38083E-15
 -1      2623 1.76030E-03-3.97003E-04-1.62479E-15
 -1      2624 1.52784E-03-3.45677E-04-1.27607E-15
 -1      2625 1.90080E-03-4.06104E-04-1.87497E-15
 -1      2626 2.04042E-03-4.13111E-04-2.14226E-15
 -1      2627 1.81650E-03-3.69509E-04-1.75021E-15
 -1      2628 2.17862E-03-4.18698E-04-2.42703E-15
 -1      2629 2.31535E-03-4.22879E-04-2.72925E-15
 -1      2630 2.09376E-03-3.85258E-04-2.28302E-15
 -1      2631 2.44976E-03-4.26603E-04-3.04792E-15
 -1      2632 2.58169E-03-4.29729E-04-3.38314E-15
 -1      2633 2.36378E-03-3.96848E-04-2.88353E-15
 -1      2634 2.70980E-03-4.33799E-04-3.73422E-15
 -1      2635 2.83378E-03-4.38404E-04-4.10148E-15
 -1      2636 2.62204E-03-4.08278E-04-3.55076E-15
 -1      2637 2.95168E-03-4.46207E-04-4.48391E-15
 -1      2638 3.06291E-03-4.56086E-04-4.88196E-15
 -1      2639 2.86155E-03-4.25113E-04-4.28170E-15
 -1      2640 3.16496E-03-4.72353E-04-5.29448E-15
 -1      2641 3.25739E-03-4.93167E-04-5.72167E-15
 -1      2642 3.07188E-03-4.54843E-04-5.07351E-15
 -1      2643 6.88575E-03-7.72940E-04-1.40701E-14
 -1      2644 7.16711E-03-9.50459E-04-1.46687E-14
 -1      2645 8.00099E-04-2.49840E-04-4.08582E-16
 -1      2646 9.31502E-04-2.84315E-04-5.23588E-16
 -1      2647 9.92342E-04-2.69207E-04-5.99388E-16
 -1      2648 7.89190E-04-2.24427E-04-4.10099E-16
 -1      2649 1.38038E-02-6.50873E-03-6.72920E-14
 -1      2650 1.36920E-02-6.46730E-03-6.70622E-14
 -1      2651 9.08455E-03-1.66409E-03-1.91036E-14
 -1      2652 9.18224E-03-1.75934E-03-1.99355E-14
 -1      2653 9.28527E-03-1.85972E-03-2.07724E-14
 -1      2654 9.39973E-03-1.96764E-03-2.16272E-14
 -1      2655 9.52025E-03-2.07844E-03-2.24949E-14
 -1      2656 9.64670E-03-2.19290E-03-2.33721E-14
 -1      2657 9.39825E-03-2.00691E-03-2.19568E-14
 -1      2658 9.78350E-03-2.31437E-03-2.43055E-14
 -1      2659 9.92424E-03-2.43757E-03-2.52513E-14
 -1      2660 9.64601E-03-2.23435E-03-2.37527E-14
 -1      2661 1.00604E-02-2.55524E-03-2.61636E-14
 -1      2662 1.01987E-02-2.67339E-03-2.70865E-14
 -1      2663 9.91288E-03-2.46993E-03-2.55960E-14
 -1      2664 1.03381E-02-2.79147E-03-2.80197E-14
 -1      2665 1.04787E-02-2.90958E-03-2.89618E-14
 -1      2666 1.01844E-02-2.70314E-03-2.74393E-14
 -1      2667 1.06199E-02-3.02747E-03-2.99138E-14
 -1      2668 1.07617E-02-3.14521E-03-3.08765E-14
 -1      2669 1.04623E-02-2.93740E-03-2.93216E-14
 -1      2670 1.09038E-02-3.26272E-03-3.18498E-14
 -1      2671 1.10463E-02-3.38003E-03-3.28350E-14
 -1      2672 1.07438E-02-3.17169E-03-3.12443E-14
 -1      2673 1.11889E-02-3.49713E-03-3.38298E-14
 -1      2674 1.13316E-02-3.61405E-03-3.48346E-14
 -1      2675 1.10274E-02-3.40559E-03-3.32098E-14
 -1      2676 1.14745E-02-3.73080E-03-3.58501E-14
 -1      2677 1.16173E-02-3.84740E-03-3.68783E-14
 -1      2678 1.13122E-02-3.63900E-03-3.52175E-14
 -1      2679 1.17603E-02-3.96387E-03-3.79175E-14
 -1      2680 1.19032E-02-4.08022E-03-3.89659E-14
 -1      2681 1.15975E-02-3.87195E-03-3.72676E-14
 -1      2682 1.20533E-02-4.20228E-03-4.00775E-14
 -1      2683 1.22034E-02-4.32425E-03-4.12031E-14
 -1      2684 1.18902E-02-4.11031E-03-3.94147E-14
 -1      2685 1.23463E-02-4.44034E-03-4.22843E-14
 -1      2686 1.24893E-02-4.55636E-03-4.33787E-14
 -1      2687 1.21831E-02-4.34835E-03-4.16069E-14
 -1      2688 1.26322E-02-4.67233E-03-4.44816E-14
 -1      2689 1.27751E-02-4.78825E-03-4.55885E-14
 -1      2690 1.24689E-02-4.58034E-03-4.37877E-14
 -1      2691 1.29180E-02-4.90413E-03-4.67094E-14
 -1      2692 1.30609E-02-5.01997E-03-4.78394E-14
 -1      2693 1.27546E-02-4.81216E-03-4.60060E-14
 -1      2694 1.32038E-02-5.13579E-03-4.89757E-14
 -1      2695 1.33467E-02-5.25158E-03-5.01196E-14
 -1      2696 1.30404E-02-5.04383E-03-4.82590E-14
 -1      2697 1.34896E-02-5.36735E-03-5.12737E-14
 -1      2698 1.36325E-02-5.48310E-03-5.24345E-14
 -1      2699 1.33262E-02-5.27541E-03-5.05459E-14
 -1      2700 1.37754E-02-5.59883E-03-5.35999E-14
 -1      2701 1.39182E-02-5.71455E-03-5.47674E-14
 -1      2702 1.36119E-02-5.50690E-03-5.28639E-14
 -1      2703 1.40682E-02-5.83605E-03-5.60025E-14
 -1      2704 1.42183E-02-5.95753E-03-5.72461E-14
 -1      2705 1.39048E-02-5.74412E-03-5.52612E-14
 -1      2706 1.43611E-02-6.07322E-03-5.84315E-14
 -1      2707 1.45040E-02-6.18889E-03-5.96227E-14
 -1      2708 1.41977E-02-5.98130E-03-5.76815E-14
 -1      2709 1.46468E-02-6.30457E-03-6.08186E-14
 -1      2710 1.47897E-02-6.42023E-03-6.20169E-14
 -1      2711 1.44834E-02-6.21266E-03-6.00662E-14
 -1      2712 1.49326E-02-6.53590E-03-6.32220E-14
 -1      2713 1.50754E-02-6.65155E-03-6.44278E-14
 -1      2714 1.47692E-02-6.44399E-03-6.24699E-14
 -1      2715 1.52183E-02-6.76721E-03-6.56365E-14
 -1      2716 1.53611E-02-6.88286E-03-6.68472E-14
 -1      2717 1.50549E-02-6.67531E-03-6.48856E-14
 -1      2718 1.55040E-02-6.99851E-03-6.80591E-14
 -1      2719 1.56469E-02-7.11416E-03-6.92798E-14
 -1      2720 1.53406E-02-6.90661E-03-6.73105E-14
 -1      2721 1.57206E-02-7.18280E-03-7.00547E-14
 -1      2722 1.58080E-02-7.26751E-03-7.10258E-14
 -1      2723 1.57046E-02-7.22818E-03-7.08568E-14
 -1      2724 1.55572E-02-7.09090E-03-6.93016E-14
 -1      2725 1.87408E-03 4.37545E-04-1.13302E-15
 -1      2726 1.73072E-03 4.24388E-04-9.57147E-16
 -1      2727 2.16081E-03 4.59106E-04-1.53297E-15
 -1      2728 2.01746E-03 4.49050E-04-1.32491E-15
 -1      2729 1.93845E-03 4.05914E-04-1.28552E-15
 -1      2730 1.58729E-03 4.09112E-04-7.97282E-16
 -1      2731 1.44376E-03 3.91469E-04-6.53069E-16
 -1      2732 1.64976E-03 3.80684E-04-9.24892E-16
 -1      2733 2.73483E-03 4.89906E-04-2.52675E-15
 -1      2734 2.59128E-03 4.83313E-04-2.25365E-15
 -1      2735 3.02197E-03 5.01255E-04-3.12182E-15
 -1      2736 2.87847E-03 4.95899E-04-2.81577E-15
 -1      2737 2.80919E-03 4.52994E-04-2.75301E-15
 -1      2738 3.30851E-03 5.09523E-04-3.78411E-15
 -1      2739 3.16541E-03 5.05865E-04-3.44501E-15
 -1      2740 3.10110E-03 4.63505E-04-3.37317E-15
 -1      2741 3.59341E-03 5.12631E-04-4.51249E-15
 -1      2742 3.45128E-03 5.11921E-04-4.13993E-15
 -1      2743 3.39302E-03 4.71191E-04-4.05992E-15
 -1      2744 3.87538E-03 5.06736E-04-5.30748E-15
 -1      2745 3.73486E-03 5.11128E-04-4.90162E-15
 -1      2746 3.68370E-03 4.73729E-04-4.81210E-15
 -1      2747 4.15320E-03 4.86271E-04-6.17032E-15
 -1      2748 4.01486E-03 4.98743E-04-5.73055E-15
 -1      2749 3.97152E-03 4.66840E-04-5.63089E-15
 -1      2750 4.42630E-03 4.44522E-04-7.10422E-15
 -1      2751 4.29029E-03 4.68508E-04-6.62839E-15
 -1      2752 4.25499E-03 4.44305E-04-6.51795E-15
 -1      2753 4.69524E-03 3.74894E-04-8.10981E-15
 -1      2754 4.56113E-03 4.13569E-04-7.59761E-15
 -1      2755 4.53341E-03 3.98687E-04-7.47591E-15
 -1      2756 4.96186E-03 2.72601E-04-9.19050E-15
 -1      2757 4.82859E-03 3.28018E-04-8.64060E-15
 -1      2758 4.80757E-03 3.22913E-04-8.50711E-15
 -1      2759 5.22882E-03 1.36145E-04-1.03463E-14
 -1      2760 5.09503E-03 2.08579E-04-9.75884E-15
 -1      2761 5.07975E-03 2.12329E-04-9.61225E-15
 -1      2762 5.49867E-03-3.21747E-05-1.15787E-14
 -1      2763 5.36318E-03 5.56736E-05-1.09532E-14
 -1      2764 5.35304E-03 6.63015E-05-1.07942E-14
 -1      2765 5.77305E-03-2.26986E-04-1.28849E-14
 -1      2766 5.63521E-03-1.26701E-04-1.22226E-14
 -1      2767 5.63006E-03-1.11532E-04-1.20519E-14
 -1      2768 6.05226E-03-4.41396E-04-1.42655E-14
 -1      2769 5.91207E-03-3.32196E-04-1.35661E-14
 -1      2770 5.91206E-03-3.14514E-04-1.33835E-14
 -1      2771 6.33559E-03-6.68606E-04-1.57141E-14
 -1      2772 6.19351E-03-5.53791E-04-1.49815E-14
 -1      2773 6.19877E-03-5.34965E-04-1.47879E-14
 -1      2774 6.62176E-03-9.03006E-04-1.72284E-14
 -1      2775 6.47844E-03-7.85192E-04-1.64627E-14
 -1      2776 6.48884E-03-7.65936E-04-1.62593E-14
 -1      2777 6.90950E-03-1.14059E-03-1.88062E-14
 -1      2778 6.76554E-03-1.02158E-03-1.80101E-14
 -1      2779 6.78062E-03-1.00215E-03-1.77954E-14
 -1      2780 7.19779E-03-1.37884E-03-2.04474E-14
 -1      2781 7.05366E-03-1.25973E-03-1.96182E-14
 -1      2782 7.07270E-03-1.24017E-03-1.93945E-14
 -1      2783 7.48602E-03-1.61643E-03-2.21474E-14
 -1      2784 7.34197E-03-1.49776E-03-2.12900E-14
 -1      2785 7.36417E-03-1.47804E-03-2.10543E-14
 -1      2786 7.77387E-03-1.85279E-03-2.39081E-14
 -1      2787 7.63003E-03-1.73477E-03-2.30211E-14
 -1      2788 7.65457E-03-1.71486E-03-2.27743E-14
 -1      2789 8.06123E-03-2.08783E-03-2.57224E-14
 -1      2790 7.91763E-03-1.97047E-03-2.48092E-14
 -1      2791 7.94383E-03-1.95036E-03-2.45517E-14
 -1      2792 8.34815E-03-2.32169E-03-2.75882E-14
 -1      2793 8.20475E-03-2.20490E-03-2.66489E-14
 -1      2794 8.23207E-03-2.18463E-03-2.63827E-14
 -1      2795 8.63469E-03-2.55461E-03-2.95007E-14
 -1      2796 8.49147E-03-2.43826E-03-2.85386E-14
 -1      2797 8.51948E-03-2.41786E-03-2.82622E-14
 -1      2798 8.92096E-03-2.78683E-03-3.14608E-14
 -1      2799 8.77786E-03-2.67079E-03-3.04751E-14
 -1      2800 8.80629E-03-2.65030E-03-3.01888E-14
 -1      2801 9.20704E-03-3.01856E-03-3.34659E-14
 -1      2802 9.06402E-03-2.90274E-03-3.24590E-14
 -1      2803 9.09267E-03-2.88218E-03-3.21636E-14
 -1      2804 9.49298E-03-3.24997E-03-3.55109E-14
 -1      2805 9.35002E-03-3.13429E-03-3.44824E-14
 -1      2806 9.37877E-03-3.11369E-03-3.41805E-14
 -1      2807 9.77883E-03-3.48119E-03-3.75954E-14
 -1      2808 9.63592E-03-3.36559E-03-3.65488E-14
 -1      2809 9.66471E-03-3.34497E-03-3.62366E-14
 -1      2810 1.00646E-02-3.71231E-03-3.97207E-14
 -1      2811 9.92174E-03-3.59676E-03-3.86527E-14
 -1      2812 9.95053E-03-3.57611E-03-3.83303E-14
 -1      2813 1.03504E-02-3.94338E-03-4.18918E-14
 -1      2814 1.02075E-02-3.82785E-03-4.08020E-14
 -1      2815 1.02363E-02-3.80719E-03-4.04679E-14
 -1      2816 1.06361E-02-4.17445E-03-4.41047E-14
 -1      2817 1.04933E-02-4.05892E-03-4.29920E-14
 -1      2818 1.05220E-02-4.03825E-03-4.26480E-14
 -1      2819 1.09219E-02-4.40554E-03-4.63616E-14
 -1      2820 1.07790E-02-4.28999E-03-4.52287E-14
 -1      2821 1.08078E-02-4.26932E-03-4.48720E-14
 -1      2822 1.12076E-02-4.63664E-03-4.86581E-14
 -1      2823 1.10647E-02-4.52109E-03-4.75051E-14
 -1      2824 1.10935E-02-4.50041E-03-4.71404E-14
 -1      2825 1.14933E-02-4.86778E-03-5.09886E-14
 -1      2826 1.13505E-02-4.75221E-03-4.98188E-14
 -1      2827 1.13792E-02-4.73152E-03-4.94457E-14
 -1      2828 1.17790E-02-5.09894E-03-5.33518E-14
 -1      2829 1.16362E-02-4.98336E-03-5.21672E-14
 -1      2830 1.16649E-02-4.96267E-03-5.17861E-14
 -1      2831 1.20648E-02-5.33013E-03-5.57402E-14
 -1      2832 1.19219E-02-5.21453E-03-5.45428E-14
 -1      2833 1.19506E-02-5.19384E-03-5.41558E-14
 -1      2834 1.23505E-02-5.56133E-03-5.81597E-14
 -1      2835 1.22076E-02-5.44573E-03-5.69464E-14
 -1      2836 1.22363E-02-5.42503E-03-5.65542E-14
 -1      2837 1.26362E-02-5.79255E-03-6.05997E-14
 -1      2838 1.24933E-02-5.67694E-03-5.93768E-14
 -1      2839 1.25220E-02-5.65624E-03-5.89791E-14
 -1      2840 1.29245E-02-6.02300E-03-6.30441E-14
 -1      2841 1.27817E-02-5.90738E-03-6.18080E-14
 -1      2842 1.28104E-02-5.88668E-03-6.14056E-14
 -1      2843 1.31013E-02-6.11635E-03-6.38326E-14
 -1      2844 1.42576E-02-6.67694E-03-6.81943E-14
 -1      2845 1.41439E-02-6.63480E-03-6.79732E-14
 -1      2846 1.35033E-02-6.38895E-03-6.65402E-14
 -1      2847 1.40307E-02-6.59283E-03-6.77517E-14
 -1      2848 1.39170E-02-6.55069E-03-6.75218E-14
 -1      2849 1.37374E-02-6.42985E-03-6.63288E-14
 -1      2850 1.39639E-02-6.51377E-03-6.67819E-14
 -1      2851 1.47124E-02-6.84551E-03-6.90343E-14
 -1      2852 1.45987E-02-6.80336E-03-6.88323E-14
 -1      2853 1.49360E-02-6.92836E-03-6.94164E-14
 -1      2854 1.48242E-02-6.88693E-03-6.92275E-14
 -1      2855 1.46437E-02-6.76572E-03-6.80517E-14
 -1      2856 1.51634E-02-7.01265E-03-6.97878E-14
 -1      2857 1.50497E-02-6.97051E-03-6.96048E-14
 -1      2858 1.48692E-02-6.84929E-03-6.84334E-14
 -1      2859 1.53909E-02-7.09694E-03-7.01416E-14
 -1      2860 1.52772E-02-7.05479E-03-6.99657E-14
 -1      2861 1.50966E-02-6.93357E-03-6.88049E-14
 -1      2862 7.47977E-03-1.12647E-03-1.53128E-14
 -1      2863 7.71963E-03-1.24144E-03-1.57390E-14
 -1      2864 8.02813E-03-1.36245E-03-1.62104E-14
 -1      2865 8.26452E-03-1.43105E-03-1.64947E-14
 -1      2866 3.77136E-03-5.13813E-04-7.14995E-15
 -1      2867 3.91910E-03-4.62030E-04-7.27248E-15
 -1      2868 8.79844E-03-1.51158E-03-1.70917E-14
 -1      2869 8.87906E-03-1.50909E-03-1.72189E-14
 -1      2870 3.48040E-03-5.73053E-04-6.82063E-15
 -1      2871 3.61559E-03-5.53768E-04-6.98476E-15
 -1      2872 3.63949E-03-5.03438E-04-6.75358E-15
 -1      2873 3.32388E-03-5.99647E-04-6.79149E-15
 -1      2874 3.36938E-03-5.94413E-04-6.77173E-15
 -1      2875 5.33965E-03 6.80124E-05-9.78460E-15
 -1      2876 5.51562E-03 5.83839E-05-1.03030E-14
 -1      2877 7.84716E-04 1.20035E-04-3.21723E-16
 -1      2878 7.82004E-04 9.62568E-05-3.36672E-16
 -1      2879 8.99580E-04 9.48197E-05-4.36635E-16
 -1      2880 9.06106E-04 1.47884E-04-4.00260E-16
 -1      2881 2.44770E-03 4.76056E-04-1.99696E-15
 -1      2882 2.30425E-03 4.68058E-04-1.75703E-15
 -1      2883 2.22779E-03 4.25129E-04-1.71007E-15
 -1      2884 2.51801E-03 4.40366E-04-2.19903E-15
 -1      2885 8.49553E-03-1.48017E-03-1.67410E-14
 -1      2886 8.66790E-03-1.50058E-03-1.69171E-14
 -1      2887 8.75831E-03-1.55035E-03-1.75182E-14
 -1      2888 7.78444E-04-9.83843E-05-4.19220E-16
 -1      2889 7.80975E-04-1.20649E-04-4.22961E-16
 -1      2890 4.17412E-03-8.77191E-04-7.85944E-15
 -1      2891 4.08862E-03-3.95774E-04-7.44003E-15
 -1      2892 4.25782E-03-3.16336E-04-7.60862E-15
 -1      2893 3.94359E-03-4.06742E-04-7.07644E-15
 -1      2894 4.95356E-03-4.48722E-06-8.76743E-15
 -1      2895 5.12185E-03 4.47021E-05-9.18669E-15
 -1      2896 4.49268E-03-2.00187E-04-7.89275E-15
 -1      2897 4.70263E-03-9.88036E-05-8.23891E-15
 -1      2898 1.44850E-02-6.76122E-03-6.86223E-14
 -1      2899 1.43713E-02-6.71908E-03-6.84104E-14
 -1      2900 1.44182E-02-6.68215E-03-6.76491E-14
 -1      2901 8.90954E-03-1.50952E-03-1.74408E-14
 -1      2902 8.99359E-03-1.57729E-03-1.82429E-14
 -1      2903 6.00810E-03-1.68461E-04-1.18549E-14
 -1      2904 6.14349E-03-2.61506E-04-1.22552E-14
 -1      2905 8.92875E-04-3.75863E-06-4.91496E-16
 -1      2906 7.75236E-04-1.33141E-05-3.92874E-16
 -1      2907 7.75172E-04-3.44099E-05-4.00992E-16
 -1      2908 8.08415E-04 2.66948E-04-2.06351E-16
 -1      2909 5.57572E-03 3.95357E-05-1.05179E-14
 -1      2910 3.24991E-03-5.00188E-04-5.84074E-15
 -1      2911 7.30555E-03-1.05374E-03-1.52262E-14
 -1      2912 6.73487E-03-6.94477E-04-1.39112E-14
 -1      2913 9.02239E-03-1.61317E-03-1.85684E-14
 -1      2914 9.18950E-03-1.80053E-03-2.02592E-14
 -1      2915 8.41314E-03-1.49926E-03-1.70895E-14
 -1      2916 1.41908E-02-6.59787E-03-6.72211E-14
 -1      2917 7.89969E-03-1.34075E-03-1.63583E-14
 -1      2918 1.34355E-02-6.30953E-03-6.55780E-14
 -1      2919 5.79096E-03-5.75049E-05-1.12557E-14
 -1      2920 5.89491E-03-1.08471E-04-1.15533E-14
 -1      2921 5.93649E-03-1.54925E-04-1.17819E-14
 -1      2922 1.55995E-02-7.18222E-03-7.05855E-14
 -1      2923 1.54960E-02-7.14289E-03-7.04145E-14
 -1      2924 1.53155E-02-7.02167E-03-6.92582E-14
 -1      2925 1.55257E-02-7.11358E-03-6.98077E-14
 -1      2926 1.36161E-03 3.46873E-04-6.27712E-16
 -1      2927 1.30017E-03 3.70880E-04-5.24767E-16
 -1      2928 5.20963E-03 7.14802E-05-9.41399E-15
 -1      2929 1.20048E-03 3.62983E-04-4.33057E-16
 -1      2930 9.01033E-04-1.47972E-04-5.35420E-16
 -1      2931 7.84455E-04-1.43681E-04-4.25414E-16
 -1      2932 7.88936E-04-1.67775E-04-4.26525E-16
 -1      2933 3.41107E-03-6.11810E-04-6.99162E-15
 -1      2934 8.93124E-03-1.54329E-03-1.77072E-14
 -1      2935 8.91804E-03-1.49943E-03-1.72275E-14
 -1      2936 9.26463E-04 2.78811E-04-2.88045E-16
 -1      2937 3.30470E-03-5.89032E-04-6.69406E-15
 -1      2938 3.28001E-03-5.58732E-04-6.40164E-15
 -1      2939 3.30051E-03-5.73450E-04-6.59609E-15
 -1      2940 7.75635E-04-5.54649E-05-4.08134E-16
 -1      2941 7.76688E-04-7.67677E-05-4.14247E-16
 -1      2942 8.95042E-04-9.86022E-05-5.26299E-16
 -1      2943 8.92607E-04-5.10829E-05-5.11378E-16
 -1      2944 4.32415E-03-2.35500E-04-7.51420E-15
 -1      2945 4.77409E-03-3.42987E-05-8.30224E-15
 -1      2946 6.25169E-03-3.56779E-04-1.26648E-14
 -1      2947 8.89759E-03-1.48699E-03-1.71470E-14
 -1      2948 1.04184E-03 2.40837E-04-4.33017E-16
 -1      2949 1.03515E-03 2.08408E-04-4.61003E-16
 -1      2950 1.06038E-03 3.63731E-04-2.97763E-16
 -1      2951 5.47089E-03 5.98337E-05-1.02318E-14
 -1      2952 5.62690E-03 1.41517E-05-1.07363E-14
 -1      2953 5.67411E-03-1.85492E-05-1.09546E-14
 -1      2954 1.48023E-02-6.77021E-03-6.74569E-14
 -1      2955 1.46886E-02-6.72807E-03-6.72656E-14
 -1      2956 1.44221E-03-3.06529E-04-1.16854E-15
 -1      2957 1.59034E-03-3.20977E-04-1.39149E-15
 -1      2958 1.73065E-03-3.32700E-04-1.62186E-15
 -1      2959 1.87006E-03-3.42582E-04-1.86945E-15
 -1      2960 1.64670E-03-2.95797E-04-1.49682E-15
 -1      2961 2.00809E-03-3.51271E-04-2.13431E-15
 -1      2962 2.14448E-03-3.58854E-04-2.41600E-15
 -1      2963 1.92466E-03-3.16513E-04-1.98878E-15
 -1      2964 2.27863E-03-3.66210E-04-2.71440E-15
 -1      2965 2.41007E-03-3.73322E-04-3.02957E-15
 -1      2966 2.19657E-03-3.34072E-04-2.54854E-15
 -1      2967 2.53801E-03-3.81495E-04-3.36143E-15
 -1      2968 2.66165E-03-3.90501E-04-3.70908E-15
 -1      2969 2.45860E-03-3.52329E-04-3.17450E-15
 -1      2970 2.77998E-03-4.02378E-04-4.07258E-15
 -1      2971 2.89166E-03-4.16483E-04-4.45130E-15
 -1      2972 2.70546E-03-3.76248E-04-3.86561E-15
 -1      2973 2.99559E-03-4.36075E-04-4.84491E-15
 -1      2974 3.08958E-03-4.58954E-04-5.25325E-15
 -1      2975 2.92995E-03-4.12355E-04-4.61882E-15
 -1      2976 8.72061E-03-1.58842E-03-1.79190E-14
 -1      2977 8.84377E-03-1.59762E-03-1.81011E-14
 -1      2978 9.49874E-03-2.15447E-03-2.31719E-14
 -1      2979 9.62808E-03-2.27066E-03-2.41002E-14
 -1      2980 9.75565E-03-2.38286E-03-2.49980E-14
 -1      2981 9.88682E-03-2.49688E-03-2.59074E-14
 -1      2982 9.59813E-03-2.29946E-03-2.44031E-14
 -1      2983 1.00206E-02-2.61162E-03-2.68247E-14
 -1      2984 1.01566E-02-2.72724E-03-2.77555E-14
 -1      2985 9.85720E-03-2.52264E-03-2.62145E-14
 -1      2986 1.02942E-02-2.84316E-03-2.86960E-14
 -1      2987 1.04332E-02-2.95946E-03-2.96455E-14
 -1      2988 1.01267E-02-2.75063E-03-2.80704E-14
 -1      2989 1.05730E-02-3.07584E-03-3.06046E-14
 -1      2990 1.07137E-02-3.19233E-03-3.15755E-14
 -1      2991 1.04028E-02-2.98110E-03-2.99682E-14
 -1      2992 1.08549E-02-3.30881E-03-3.25564E-14
 -1      2993 1.09966E-02-3.42528E-03-3.35478E-14
 -1      2994 1.06828E-02-3.21273E-03-3.19051E-14
 -1      2995 1.11386E-02-3.54169E-03-3.45494E-14
 -1      2996 1.12808E-02-3.65805E-03-3.55605E-14
 -1      2997 1.09653E-02-3.44483E-03-3.38838E-14
 -1      2998 1.14232E-02-3.77434E-03-3.65841E-14
 -1      2999 1.15658E-02-3.89058E-03-3.76186E-14
 -1      3000 1.12492E-02-3.67702E-03-3.59031E-14
 -1      3001 1.17156E-02-4.01255E-03-3.87170E-14
 -1      3002 1.18654E-02-4.13447E-03-3.98268E-14
 -1      3003 1.15411E-02-3.91497E-03-3.80204E-14
 -1      3004 1.20082E-02-4.25052E-03-4.08931E-14
 -1      3005 1.21510E-02-4.36652E-03-4.19697E-14
 -1      3006 1.18334E-02-4.15279E-03-4.01828E-14
 -1      3007 1.22938E-02-4.48248E-03-4.30580E-14
 -1      3008 1.24367E-02-4.59840E-03-4.41563E-14
 -1      3009 1.21189E-02-4.38468E-03-4.23326E-14
 -1      3010 1.25796E-02-4.71428E-03-4.52633E-14
 -1      3011 1.27224E-02-4.83014E-03-4.63789E-14
 -1      3012 1.24045E-02-4.61645E-03-4.45224E-14
 -1      3013 1.28653E-02-4.94596E-03-4.75035E-14
 -1      3014 1.30082E-02-5.06176E-03-4.86369E-14
 -1      3015 1.26902E-02-4.84811E-03-4.67506E-14
 -1      3016 1.31510E-02-5.17754E-03-4.97787E-14
 -1      3017 1.32939E-02-5.29330E-03-5.09282E-14
 -1      3018 1.29759E-02-5.07969E-03-4.90141E-14
 -1      3019 1.34368E-02-5.40904E-03-5.20867E-14
 -1      3020 1.35797E-02-5.52477E-03-5.32493E-14
 -1      3021 1.32616E-02-5.31119E-03-5.13115E-14
 -1      3022 1.37297E-02-5.64627E-03-5.44757E-14
 -1      3023 1.38797E-02-5.76776E-03-5.57101E-14
 -1      3024 1.35545E-02-5.54843E-03-5.36946E-14
 -1      3025 1.40226E-02-5.88345E-03-5.68914E-14
 -1      3026 1.41654E-02-5.99914E-03-5.80789E-14
 -1      3027 1.38474E-02-5.78561E-03-5.61015E-14
 -1      3028 1.43083E-02-6.11482E-03-5.92741E-14
 -1      3029 1.44511E-02-6.23049E-03-6.04698E-14
 -1      3030 1.41331E-02-6.01698E-03-5.84783E-14
 -1      3031 1.45940E-02-6.34615E-03-6.16724E-14
 -1      3032 1.47369E-02-6.46182E-03-6.28808E-14
 -1      3033 1.44188E-02-6.24832E-03-6.08760E-14
 -1      3034 1.48797E-02-6.57747E-03-6.40871E-14
 -1      3035 1.50226E-02-6.69313E-03-6.52994E-14
 -1      3036 1.47046E-02-6.47964E-03-6.32906E-14
 -1      3037 1.51654E-02-6.80878E-03-6.65155E-14
 -1      3038 1.53083E-02-6.92443E-03-6.77320E-14
 -1      3039 1.49903E-02-6.71095E-03-6.57163E-14
 -1      3040 2.00460E-03 3.73030E-04-1.44383E-15
 -1      3041 1.85916E-03 3.62846E-04-1.24319E-15
 -1      3042 1.71404E-03 3.51065E-04-1.05825E-15
 -1      3043 1.56923E-03 3.37460E-04-8.89574E-16
 -1      3044 1.77979E-03 3.20200E-04-1.19746E-15
 -1      3045 3.18275E-03 4.24218E-04-3.62946E-15
 -1      3046 3.03414E-03 4.19590E-04-3.29845E-15
 -1      3047 2.88575E-03 4.14528E-04-2.98443E-15
 -1      3048 2.73783E-03 4.09071E-04-2.68743E-15
 -1      3049 2.96438E-03 3.74545E-04-3.22144E-15
 -1      3050 3.77725E-03 4.33784E-04-5.11516E-15
 -1      3051 3.62911E-03 4.33519E-04-4.71917E-15
 -1      3052 4.07116E-03 4.26315E-04-5.95766E-15
 -1      3053 3.92472E-03 4.31698E-04-5.52832E-15
 -1      3054 3.87382E-03 3.93162E-04-5.42243E-15
 -1      3055 4.36027E-03 4.02044E-04-6.86925E-15
 -1      3056 4.21638E-03 4.16845E-04-6.40456E-15
 -1      3057 4.17387E-03 3.85602E-04-6.28901E-15
 -1      3058 4.64380E-03 3.52569E-04-7.85159E-15
 -1      3059 4.50264E-03 3.81034E-04-7.35130E-15
 -1      3060 4.46847E-03 3.59821E-04-7.22411E-15
 -1      3061 4.92289E-03 2.70199E-04-8.90671E-15
 -1      3062 4.78365E-03 3.15909E-04-8.36940E-15
 -1      3063 4.75685E-03 3.06191E-04-8.23010E-15
 -1      3064 5.20046E-03 1.50496E-04-1.00388E-14
 -1      3065 5.06152E-03 2.15103E-04-9.46369E-15
 -1      3066 5.04072E-03 2.16352E-04-9.31151E-15
 -1      3067 5.48010E-03-5.99736E-06-1.12470E-14
 -1      3068 5.33972E-03 7.65724E-05-1.06336E-14
 -1      3069 5.32383E-03 8.63612E-05-1.04696E-14
 -1      3070 5.76447E-03-1.93938E-04-1.25294E-14
 -1      3071 5.62155E-03-9.65612E-05-1.18788E-14
 -1      3072 5.61028E-03-8.15627E-05-1.17036E-14
 -1      3073 6.05426E-03-4.05188E-04-1.38868E-14
 -1      3074 5.90870E-03-2.97240E-04-1.31990E-14
 -1      3075 5.90247E-03-2.79995E-04-1.30119E-14
 -1      3076 6.34843E-03-6.31332E-04-1.53152E-14
 -1      3077 6.20094E-03-5.16910E-04-1.45927E-14
 -1      3078 6.20031E-03-4.99270E-04-1.43938E-14
 -1      3079 6.64497E-03-8.65454E-04-1.68084E-14
 -1      3080 6.49658E-03-7.47751E-04-1.60534E-14
 -1      3081 6.50184E-03-7.30418E-04-1.58452E-14
 -1      3082 6.94192E-03-1.10284E-03-1.83657E-14
 -1      3083 6.79354E-03-9.83949E-04-1.75792E-14
 -1      3084 6.80444E-03-9.66873E-04-1.73613E-14
 -1      3085 7.23782E-03-1.34072E-03-1.99849E-14
 -1      3086 7.09010E-03-1.22181E-03-1.91674E-14
 -1      3087 7.10594E-03-1.20467E-03-1.89384E-14
 -1      3088 7.53194E-03-1.57777E-03-2.16651E-14
 -1      3089 7.38516E-03-1.45938E-03-2.08175E-14
 -1      3090 7.40502E-03-1.44185E-03-2.05781E-14
 -1      3091 7.82408E-03-1.81353E-03-2.34030E-14
 -1      3092 7.67827E-03-1.69581E-03-2.25269E-14
 -1      3093 7.70119E-03-1.67771E-03-2.22783E-14
 -1      3094 8.11441E-03-2.04802E-03-2.51975E-14
 -1      3095 7.96947E-03-1.93092E-03-2.42944E-14
 -1      3096 7.99459E-03-1.91222E-03-2.40349E-14
 -1      3097 8.40327E-03-2.28141E-03-2.70430E-14
 -1      3098 8.25902E-03-2.16483E-03-2.61134E-14
 -1      3099 8.28563E-03-2.14558E-03-2.58453E-14
 -1      3100 8.69102E-03-2.51397E-03-2.89380E-14
 -1      3101 8.54727E-03-2.39778E-03-2.79848E-14
 -1      3102 8.57486E-03-2.37808E-03-2.77058E-14
 -1      3103 8.97798E-03-2.74593E-03-3.08796E-14
 -1      3104 8.83458E-03-2.63001E-03-2.99033E-14
 -1      3105 8.86277E-03-2.60997E-03-2.96154E-14
 -1      3106 9.26441E-03-2.97749E-03-3.28673E-14
 -1      3107 9.12125E-03-2.86175E-03-3.18679E-14
 -1      3108 9.14978E-03-2.84147E-03-3.15716E-14
 -1      3109 9.55052E-03-3.20878E-03-3.48941E-14
 -1      3110 9.40750E-03-3.09316E-03-3.38759E-14
 -1      3111 9.43620E-03-3.07271E-03-3.35703E-14
 -1      3112 9.83642E-03-3.43993E-03-3.69609E-14
 -1      3113 9.69349E-03-3.32437E-03-3.59227E-14
 -1      3114 9.72227E-03-3.30382E-03-3.56101E-14
 -1      3115 1.01222E-02-3.67100E-03-3.90664E-14
 -1      3116 9.97933E-03-3.55547E-03-3.80093E-14
 -1      3117 1.00081E-02-3.53486E-03-3.76873E-14
 -1      3118 1.04079E-02-3.90205E-03-4.12145E-14
 -1      3119 1.02651E-02-3.78653E-03-4.01338E-14
 -1      3120 1.02939E-02-3.76588E-03-3.98039E-14
 -1      3121 1.06937E-02-4.13310E-03-4.34055E-14
 -1      3122 1.05508E-02-4.01758E-03-4.23049E-14
 -1      3123 1.05796E-02-3.99690E-03-4.19620E-14
 -1      3124 1.09794E-02-4.36418E-03-4.56431E-14
 -1      3125 1.08365E-02-4.24864E-03-4.45188E-14
 -1      3126 1.08653E-02-4.22795E-03-4.41659E-14
 -1      3127 1.12650E-02-4.59528E-03-4.79207E-14
 -1      3128 1.11222E-02-4.47972E-03-4.67764E-14
 -1      3129 1.11509E-02-4.45903E-03-4.64142E-14
 -1      3130 1.15507E-02-4.82640E-03-5.02348E-14
 -1      3131 1.14079E-02-4.71084E-03-4.90733E-14
 -1      3132 1.14366E-02-4.69014E-03-4.87016E-14
 -1      3133 1.18364E-02-5.05756E-03-5.25851E-14
 -1      3134 1.16936E-02-4.94198E-03-5.14061E-14
 -1      3135 1.17223E-02-4.92128E-03-5.10276E-14
 -1      3136 1.21222E-02-5.28874E-03-5.49622E-14
 -1      3137 1.19793E-02-5.17315E-03-5.37700E-14
 -1      3138 1.20080E-02-5.15245E-03-5.33831E-14
 -1      3139 1.24079E-02-5.51994E-03-5.73678E-14
 -1      3140 1.22650E-02-5.40434E-03-5.61613E-14
 -1      3141 1.22937E-02-5.38364E-03-5.57700E-14
 -1      3142 1.26936E-02-5.75116E-03-5.98013E-14
 -1      3143 1.25507E-02-5.63555E-03-5.85828E-14
 -1      3144 1.25794E-02-5.61485E-03-5.81829E-14
 -1      3145 3.34391E-03-5.62802E-04-6.54462E-15
 -1      3146 9.08409E-03-1.74430E-03-1.97111E-14
 -1      3147 9.17086E-03-1.83874E-03-2.05408E-14
 -1      3148 1.50297E-02-6.85450E-03-6.78256E-14
 -1      3149 1.49160E-02-6.81235E-03-6.76431E-14
 -1      3150 1.47354E-02-6.69114E-03-6.64840E-14
 -1      3151 1.45768E-02-6.68665E-03-6.70738E-14
 -1      3152 1.44650E-02-6.64522E-03-6.68804E-14
 -1      3153 1.45099E-02-6.60757E-03-6.61037E-14
 -1      3154 1.34787E-02-6.27304E-03-6.48756E-14
 -1      3155 1.32900E-02-6.19470E-03-6.43571E-14
 -1      3156 1.31445E-02-6.07986E-03-6.31408E-14
 -1      3157 6.58783E-03-6.17351E-04-1.37500E-14
 -1      3158 6.84273E-03-7.93131E-04-1.44168E-14
 -1      3159 5.08821E-03 7.84933E-05-9.05253E-15
 -1      3160 5.28382E-03 8.53701E-05-9.64403E-15
 -1      3161 1.41239E-02-6.51880E-03-6.62558E-14
 -1      3162 1.40102E-02-6.47666E-03-6.60372E-14
 -1      3163 3.39429E-03-5.84481E-04-6.73477E-15
 -1      3164 3.41428E-03-5.46231E-04-6.51025E-15
 -1      3165 3.32224E-03-5.61384E-04-6.46157E-15
 -1      3166 1.07561E-03 3.28421E-04-3.59494E-16
 -1      3167 8.98375E-03-1.62604E-03-1.85572E-14
 -1      3168 1.06926E-03 2.80907E-04-4.13122E-16
 -1      3169 3.48044E-03 4.31486E-04-4.33975E-15
 -1      3170 3.33164E-03 4.28270E-04-3.97638E-15
 -1      3171 3.26681E-03 3.83511E-04-3.88981E-15
 -1      3172 3.57061E-03 3.90651E-04-4.62369E-15
 -1      3173 9.27075E-03-1.94292E-03-2.14353E-14
 -1      3174 9.38134E-03-2.04739E-03-2.22977E-14
 -1      3175 9.35535E-03-2.08498E-03-2.26352E-14
 -1      3176 3.53023E-03-4.78477E-04-6.37230E-15
 -1      3177 3.66350E-03-4.46762E-04-6.52817E-15
 -1      3178 8.35791E-03-1.53097E-03-1.75630E-14
 -1      3179 8.56029E-03-1.57367E-03-1.78188E-14
 -1      3180 3.21569E-03-5.08044E-04-5.89370E-15
 -1      3181 3.28520E-03-5.36936E-04-6.25496E-15
 -1      3182 8.82530E-03-1.47962E-03-1.68718E-14
 -1      3183 1.18864E-03 2.82904E-04-5.28250E-16
 -1      3184 1.43513E-02-6.60308E-03-6.66767E-14
 -1      3185 1.42376E-02-6.56094E-03-6.64674E-14
 -1      3186 1.40570E-02-6.43973E-03-6.52897E-14
 -1      3187 1.42845E-02-6.52401E-03-6.57076E-14
 -1      3188 1.15928E-03-2.71247E-04-7.96929E-16
 -1      3189 1.30083E-03-2.90236E-04-9.73979E-16
 -1      3190 1.36563E-03-2.68838E-04-1.07364E-15
 -1      3191 3.79899E-03-4.04465E-04-6.68514E-15
 -1      3192 3.94137E-03-3.49675E-04-6.84232E-15
 -1      3193 3.66339E-03-3.89829E-04-6.30462E-15
 -1      3194 7.14772E-03-9.88062E-04-1.51883E-14
 -1      3195 7.43113E-03-1.15066E-03-1.58452E-14
 -1      3196 7.83999E-04-1.83963E-04-4.18760E-16
 -1      3197 7.92544E-04-2.06737E-04-4.19993E-16
 -1      3198 8.93114E-04-2.28364E-04-5.10849E-16
 -1      3199 9.00842E-04-1.91584E-04-5.29701E-16
 -1      3200 6.14559E-03-3.05087E-04-1.24959E-14
 -1      3201 6.34931E-03-4.48502E-04-1.30840E-14
 -1      3202 4.60118E-03-4.57975E-05-7.82284E-15
 -1      3203 4.82186E-03 2.96294E-05-8.33120E-15
 -1      3204 1.01571E-03 6.21614E-05-5.68854E-16
 -1      3205 1.01369E-03 3.50296E-05-5.85225E-16
 -1      3206 7.78847E-03-1.32659E-03-1.65845E-14
 -1      3207 8.06512E-03-1.43665E-03-1.70696E-14
 -1      3208 4.13979E-03-2.67311E-04-7.09431E-15
 -1      3209 4.33934E-03-1.66663E-04-7.36261E-15
 -1      3210 8.94494E-03-1.66218E-03-1.88319E-14
 -1      3211 3.34182E-03-5.22240E-04-6.22211E-15
 -1      3212 3.42015E-03-5.11403E-04-6.30386E-15
 -1      3213 2.29661E-03 3.89794E-04-1.89272E-15
 -1      3214 2.15043E-03 3.81944E-04-1.66009E-15
 -1      3215 2.07231E-03 3.38865E-04-1.60725E-15
 -1      3216 5.33927E-03 8.24862E-05-9.84756E-15
 -1      3217 1.37052E-02-6.35696E-03-6.53371E-14
 -1      3218 1.35919E-02-6.31500E-03-6.51091E-14
 -1      3219 1.34465E-02-6.20016E-03-6.38908E-14
 -1      3220 3.16135E-03-4.86760E-04-5.64499E-15
 -1      3221 8.67780E-03-1.62924E-03-1.84033E-14
 -1      3222 9.94378E-04-2.48509E-04-6.11341E-16
 -1      3223 6.46565E-03-5.48513E-04-1.35698E-14
 -1      3224 1.54520E-02-7.04494E-03-6.90274E-14
 -1      3225 9.14082E-03-1.87955E-03-2.08727E-14
 -1      3226 2.66437E-03 3.64558E-04-2.61809E-15
 -1      3227 2.59028E-03 4.03202E-04-2.40618E-15
 -1      3228 2.44325E-03 3.96824E-04-2.14103E-15
 -1      3229 1.51717E-02-6.90116E-03-6.79563E-14
 -1      3230 1.49912E-02-6.77994E-03-6.68051E-14
 -1      3231 1.29918E-02-5.97292E-03-6.20702E-14
 -1      3232 1.28463E-02-5.85809E-03-6.08613E-14
 -1      3233 1.28750E-02-5.83739E-03-6.04590E-14
 -1      3234 1.31805E-02-6.05127E-03-6.25879E-14
 -1      3235 6.98788E-03-9.03833E-04-1.50166E-14
 -1      3236 1.06034E-03-2.32963E-04-6.92426E-16
 -1      3237 1.39143E-02-6.43779E-03-6.58011E-14
 -1      3238 1.38011E-02-6.39583E-03-6.55786E-14
 -1      3239 1.36556E-02-6.28099E-03-6.43625E-14
 -1      3240 1.38474E-02-6.35873E-03-6.48392E-14
 -1      3241 1.42481E-03 3.21657E-04-7.36404E-16
 -1      3242 1.28075E-03 3.03402E-04-5.98995E-16
 -1      3243 4.91228E-03 7.64791E-05-8.54274E-15
 -1      3244 4.98542E-03 1.08407E-04-8.75431E-15
 -1      3245 4.73786E-03 7.48720E-05-8.04890E-15
 -1      3246 1.25308E-03 2.60833E-04-6.22915E-16
 -1      3247 1.01840E-03-1.49094E-04-6.57772E-16
 -1      3248 1.02299E-03-1.76712E-04-6.61648E-16
 -1      3249 3.26487E-03-5.34795E-04-6.18115E-15
 -1      3250 3.27521E-03-5.28476E-04-6.14645E-15
 -1      3251 7.62356E-03-1.26900E-03-1.65443E-14
 -1      3252 7.80535E-03-1.37399E-03-1.72551E-14
 -1      3253 7.47583E-03-1.20835E-03-1.65004E-14
 -1      3254 1.02137E-03 1.18070E-04-5.31218E-16
 -1      3255 1.01827E-03 8.97802E-05-5.50978E-16
 -1      3256 1.13792E-03 8.15781E-05-6.79646E-16
 -1      3257 8.25033E-03-1.52808E-03-1.77969E-14
 -1      3258 3.43427E-03-4.62689E-04-6.08778E-15
 -1      3259 1.15506E-03 2.08000E-04-5.79818E-16
 -1      3260 1.02964E-03 1.77326E-04-4.86427E-16
 -1      3261 1.02515E-03 1.47303E-04-5.09860E-16
 -1      3262 3.26631E-03-5.00742E-04-5.94742E-15
 -1      3263 3.97602E-03-2.75740E-04-6.70057E-15
 -1      3264 1.01276E-03-9.59368E-05-6.44734E-16
 -1      3265 1.01501E-03-1.22255E-04-6.52066E-16
 -1      3266 1.13641E-03-1.47419E-04-7.91495E-16
 -1      3267 6.03418E-03-2.34994E-04-1.21830E-14
 -1      3268 6.13093E-03-3.17123E-04-1.25899E-14
 -1      3269 5.93032E-03-1.72354E-04-1.18746E-14
 -1      3270 1.01219E-03 8.35195E-06-5.99984E-16
 -1      3271 1.01128E-03-1.79550E-05-6.13360E-16
 -1      3272 1.13313E-03 2.26368E-05-7.17959E-16
 -1      3273 1.52769E-02-6.94711E-03-6.82306E-14
 -1      3274 4.42010E-03-8.08787E-05-7.39111E-15
 -1      3275 4.47421E-03-4.51898E-06-7.41468E-15
 -1      3276 4.23962E-03-1.09466E-04-6.97366E-15
 -1      3277 3.23749E-03-5.25592E-04-6.08710E-15
 -1      3278 1.48936E-03 2.95088E-04-8.51017E-16
 -1      3279 1.28756E-03-2.31986E-04-9.76961E-16
 -1      3280 1.42797E-03-2.46571E-04-1.17050E-15
 -1      3281 1.84680E-03-2.81601E-04-1.85320E-15
 -1      3282 1.98449E-03-2.91351E-04-2.11486E-15
 -1      3283 2.12060E-03-3.01010E-04-2.39312E-15
 -1      3284 2.25464E-03-3.10700E-04-2.68785E-15
 -1      3285 2.04646E-03-2.66730E-04-2.24059E-15
 -1      3286 2.38624E-03-3.21402E-04-2.99923E-15
 -1      3287 2.51464E-03-3.33162E-04-3.32675E-15
 -1      3288 2.31601E-03-2.88301E-04-2.82641E-15
 -1      3289 2.63955E-03-3.47364E-04-3.67020E-15
 -1      3290 2.75976E-03-3.63861E-04-4.02983E-15
 -1      3291 2.57611E-03-3.15179E-04-3.47723E-15
 -1      3292 2.87529E-03-3.84575E-04-4.40453E-15
 -1      3293 2.98426E-03-4.09000E-04-4.79383E-15
 -1      3294 2.82329E-03-3.52330E-04-4.19218E-15
 -1      3295 9.20259E-03-2.01569E-03-2.20813E-14
 -1      3296 9.31908E-03-2.11721E-03-2.29505E-14
 -1      3297 9.69589E-03-2.43873E-03-2.56285E-14
 -1      3298 9.82792E-03-2.55013E-03-2.65426E-14
 -1      3299 9.96223E-03-2.66261E-03-2.74698E-14
 -1      3300 1.00984E-02-2.77620E-03-2.84079E-14
 -1      3301 9.79676E-03-2.57607E-03-2.68725E-14
 -1      3302 1.02359E-02-2.89040E-03-2.93563E-14
 -1      3303 1.03747E-02-3.00521E-03-3.03138E-14
 -1      3304 1.00688E-02-2.80078E-03-2.87435E-14
 -1      3305 1.05144E-02-3.12034E-03-3.12805E-14
 -1      3306 1.06548E-02-3.23578E-03-3.22579E-14
 -1      3307 1.03458E-02-3.02870E-03-3.06561E-14
 -1      3308 1.07957E-02-3.35138E-03-3.32452E-14
 -1      3309 1.09372E-02-3.46713E-03-3.42428E-14
 -1      3310 1.06262E-02-3.25845E-03-3.26079E-14
 -1      3311 1.10789E-02-3.58294E-03-3.52512E-14
 -1      3312 1.12209E-02-3.69881E-03-3.62699E-14
 -1      3313 1.09087E-02-3.48920E-03-3.46011E-14
 -1      3314 1.13703E-02-3.82050E-03-3.73539E-14
 -1      3315 1.15198E-02-3.94220E-03-3.84501E-14
 -1      3316 1.11996E-02-3.72625E-03-3.66877E-14
 -1      3317 1.16623E-02-4.05810E-03-3.95018E-14
 -1      3318 1.18049E-02-4.17399E-03-4.05639E-14
 -1      3319 1.14913E-02-3.96354E-03-3.88227E-14
 -1      3320 1.19476E-02-4.28986E-03-4.16373E-14
 -1      3321 1.20903E-02-4.40572E-03-4.27208E-14
 -1      3322 1.17764E-02-4.19514E-03-4.09444E-14
 -1      3323 1.22331E-02-4.52157E-03-4.38146E-14
 -1      3324 1.23759E-02-4.63739E-03-4.49182E-14
 -1      3325 1.20617E-02-4.42674E-03-4.31080E-14
 -1      3326 1.25187E-02-4.75319E-03-4.60285E-14
 -1      3327 1.26615E-02-4.86898E-03-4.71502E-14
 -1      3328 1.23473E-02-4.65831E-03-4.53088E-14
 -1      3329 1.28044E-02-4.98475E-03-4.82815E-14
 -1      3330 1.29472E-02-5.10051E-03-4.94217E-14
 -1      3331 1.26329E-02-4.88984E-03-4.75484E-14
 -1      3332 1.30901E-02-5.21625E-03-5.05681E-14
 -1      3333 1.32329E-02-5.33198E-03-5.17228E-14
 -1      3334 1.29186E-02-5.12132E-03-4.98268E-14
 -1      3335 1.33829E-02-5.45348E-03-5.29422E-14
 -1      3336 1.35329E-02-5.57497E-03-5.41672E-14
 -1      3337 1.32114E-02-5.35854E-03-5.21902E-14
 -1      3338 1.36758E-02-5.69067E-03-5.53446E-14
 -1      3339 1.38187E-02-5.80636E-03-5.65266E-14
 -1      3340 1.35042E-02-5.59573E-03-5.45854E-14
 -1      3341 1.39615E-02-5.92204E-03-5.77123E-14
 -1      3342 1.41044E-02-6.03771E-03-5.89076E-14
 -1      3343 1.37900E-02-5.82710E-03-5.69486E-14
 -1      3344 1.42473E-02-6.15338E-03-6.01083E-14
 -1      3345 1.43901E-02-6.26904E-03-6.13132E-14
 -1      3346 1.40757E-02-6.05844E-03-5.93398E-14
 -1      3347 1.45330E-02-6.38470E-03-6.25203E-14
 -1      3348 1.46758E-02-6.50036E-03-6.37318E-14
 -1      3349 1.43614E-02-6.28976E-03-6.17491E-14
 -1      3350 1.47621E-02-6.58232E-03-6.46540E-14
 -1      3351 1.49049E-02-6.69797E-03-6.58740E-14
 -1      3352 1.47629E-02-6.65132E-03-6.57372E-14
 -1      3353 1.45905E-02-6.48739E-03-6.38834E-14
 -1      3354 5.23395E-03 1.02989E-04-9.54217E-15
 -1      3355 5.40768E-03 6.80942E-05-1.01271E-14
 -1      3356 4.27965E-03 3.44906E-04-6.62339E-15
 -1      3357 4.12709E-03 3.50291E-04-6.16975E-15
 -1      3358 3.97319E-03 3.51867E-04-5.73418E-15
 -1      3359 3.81846E-03 3.51065E-04-5.31469E-15
 -1      3360 4.07500E-03 3.10518E-04-6.04901E-15
 -1      3361 4.87277E-03 2.60001E-04-8.61306E-15
 -1      3362 4.72693E-03 2.93675E-04-8.08888E-15
 -1      3363 5.16129E-03 1.61682E-04-9.72119E-15
 -1      3364 5.01716E-03 2.16291E-04-9.15790E-15
 -1      3365 4.99089E-03 2.13726E-04-9.00133E-15
 -1      3366 5.45014E-03 1.99579E-05-1.09047E-14
 -1      3367 5.30519E-03 9.60859E-05-1.03030E-14
 -1      3368 5.28437E-03 1.05193E-04-1.01337E-14
 -1      3369 5.74391E-03-1.60621E-04-1.21639E-14
 -1      3370 5.59611E-03-6.61375E-05-1.15249E-14
 -1      3371 5.57980E-03-5.00852E-05-1.13435E-14
 -1      3372 6.04448E-03-3.69996E-04-1.34983E-14
 -1      3373 5.89333E-03-2.62526E-04-1.28226E-14
 -1      3374 5.88193E-03-2.44268E-04-1.26296E-14
 -1      3375 6.35066E-03-5.96960E-04-1.49055E-14
 -1      3376 6.19707E-03-4.82004E-04-1.41928E-14
 -1      3377 6.19160E-03-4.64504E-04-1.39895E-14
 -1      3378 6.65936E-03-8.32266E-04-1.63781E-14
 -1      3379 6.50495E-03-7.14039E-04-1.56334E-14
 -1      3380 6.50617E-03-6.98224E-04-1.54193E-14
 -1      3381 6.96749E-03-1.07012E-03-1.79162E-14
 -1      3382 6.81372E-03-9.51127E-04-1.71393E-14
 -1      3383 6.82157E-03-9.36505E-04-1.69153E-14
 -1      3384 7.27283E-03-1.30752E-03-1.95157E-14
 -1      3385 7.12065E-03-1.18896E-03-1.87085E-14
 -1      3386 7.13439E-03-1.17465E-03-1.84755E-14
 -1      3387 7.57434E-03-1.54342E-03-2.11761E-14
 -1      3388 7.42412E-03-1.42565E-03-2.03395E-14
 -1      3389 7.44263E-03-1.41085E-03-2.00968E-14
 -1      3390 7.87193E-03-1.77775E-03-2.28937E-14
 -1      3391 7.72363E-03-1.66074E-03-2.20271E-14
 -1      3392 7.74572E-03-1.64499E-03-2.17755E-14
 -1      3393 8.16607E-03-2.01081E-03-2.46687E-14
 -1      3394 8.01940E-03-1.89440E-03-2.37745E-14
 -1      3395 8.04404E-03-1.87754E-03-2.35129E-14
 -1      3396 8.45745E-03-2.24298E-03-2.64951E-14
 -1      3397 8.31207E-03-2.12698E-03-2.55768E-14
 -1      3398 8.33842E-03-2.10909E-03-2.53046E-14
 -1      3399 8.74679E-03-2.47458E-03-2.83706E-14
 -1      3400 8.60234E-03-2.35883E-03-2.74265E-14
 -1      3401 8.62979E-03-2.34008E-03-2.71473E-14
 -1      3402 9.03470E-03-2.70583E-03-3.02954E-14
 -1      3403 8.89089E-03-2.59023E-03-2.93273E-14
 -1      3404 8.91901E-03-2.57082E-03-2.90374E-14
 -1      3405 9.32166E-03-2.93689E-03-3.22652E-14
 -1      3406 9.17827E-03-2.82137E-03-3.12742E-14
 -1      3407 9.20677E-03-2.80149E-03-3.09762E-14
 -1      3408 9.60802E-03-3.16786E-03-3.42750E-14
 -1      3409 9.46490E-03-3.05238E-03-3.32648E-14
 -1      3410 9.49360E-03-3.03217E-03-3.29589E-14
 -1      3411 9.89403E-03-3.39880E-03-3.63263E-14
 -1      3412 9.75106E-03-3.28333E-03-3.52965E-14
 -1      3413 9.77985E-03-3.26291E-03-3.49810E-14
 -1      3414 1.01798E-02-3.62975E-03-3.84127E-14
 -1      3415 1.00369E-02-3.51427E-03-3.73641E-14
 -1      3416 1.00658E-02-3.49372E-03-3.70422E-14
 -1      3417 1.04655E-02-3.86073E-03-4.05411E-14
 -1      3418 1.03227E-02-3.74523E-03-3.94731E-14
 -1      3419 1.03515E-02-3.72460E-03-3.91391E-14
 -1      3420 1.07512E-02-4.09174E-03-4.27116E-14
 -1      3421 1.06084E-02-3.97623E-03-4.16191E-14
 -1      3422 1.06372E-02-3.95556E-03-4.12786E-14
 -1      3423 1.10369E-02-4.32279E-03-4.49253E-14
 -1      3424 1.08940E-02-4.20726E-03-4.38114E-14
 -1      3425 1.09228E-02-4.18657E-03-4.34588E-14
 -1      3426 1.13225E-02-4.55388E-03-4.71856E-14
 -1      3427 1.11797E-02-4.43833E-03-4.60520E-14
 -1      3428 1.12085E-02-4.41763E-03-4.56872E-14
 -1      3429 1.16082E-02-4.78501E-03-4.94850E-14
 -1      3430 1.14654E-02-4.66944E-03-4.83306E-14
 -1      3431 1.14941E-02-4.64873E-03-4.79588E-14
 -1      3432 1.18939E-02-5.01616E-03-5.18207E-14
 -1      3433 1.17510E-02-4.90058E-03-5.06495E-14
 -1      3434 1.17798E-02-4.87987E-03-5.02708E-14
 -1      3435 1.21796E-02-5.24734E-03-5.41847E-14
 -1      3436 1.20367E-02-5.13175E-03-5.29982E-14
 -1      3437 1.20654E-02-5.11104E-03-5.26138E-14
 -1      3438 1.24653E-02-5.47854E-03-5.65763E-14
 -1      3439 1.23224E-02-5.36294E-03-5.53773E-14
 -1      3440 1.23511E-02-5.34223E-03-5.49862E-14
 -1      3441 1.27510E-02-5.70976E-03-5.90001E-14
 -1      3442 1.26081E-02-5.59415E-03-5.77846E-14
 -1      3443 1.26368E-02-5.57344E-03-5.73857E-14
 -1      3444 1.46492E-02-6.60918E-03-6.55497E-14
 -1      3445 1.45355E-02-6.56704E-03-6.53616E-14
 -1      3446 1.45630E-02-6.52721E-03-6.46195E-14
 -1      3447 6.83338E-03-8.19873E-04-1.48370E-14
 -1      3448 7.11277E-03-1.00055E-03-1.56199E-14
 -1      3449 8.98880E-03-1.81222E-03-2.02479E-14
 -1      3450 9.08570E-03-1.90933E-03-2.11347E-14
 -1      3451 1.44237E-02-6.52561E-03-6.51705E-14
 -1      3452 1.43119E-02-6.48419E-03-6.49756E-14
 -1      3453 1.43375E-02-6.44365E-03-6.42385E-14
 -1      3454 1.55519E-03 2.67128E-04-9.71255E-16
 -1      3455 1.41046E-03 2.54054E-04-8.09560E-16
 -1      3456 4.57973E-03 3.18037E-04-7.58215E-15
 -1      3457 4.43056E-03 3.34771E-04-7.09396E-15
 -1      3458 4.38791E-03 3.04882E-04-6.96098E-15
 -1      3459 4.69332E-03 2.77040E-04-7.94419E-15
 -1      3460 3.79831E-03-2.69873E-04-6.24097E-15
 -1      3461 3.96721E-03-2.00300E-04-6.47678E-15
 -1      3462 3.04465E-03 3.32825E-04-3.46232E-15
 -1      3463 2.89185E-03 3.28560E-04-3.14017E-15
 -1      3464 5.58522E-03 8.61156E-06-1.07215E-14
 -1      3465 5.73642E-03-6.27770E-05-1.12408E-14
 -1      3466 1.01101E-03-4.40033E-05-6.25246E-16
 -1      3467 1.01146E-03-6.99149E-05-6.35803E-16
 -1      3468 1.13153E-03-9.07541E-05-7.73958E-16
 -1      3469 1.84685E-03 2.87970E-04-1.34212E-15
 -1      3470 1.70066E-03 2.78360E-04-1.14883E-15
 -1      3471 1.62199E-03 2.37667E-04-1.09738E-15
 -1      3472 8.15722E-03-1.52973E-03-1.80927E-14
 -1      3473 8.42273E-03-1.61977E-03-1.86018E-14
 -1      3474 1.06400E-03-2.12944E-04-7.02129E-16
 -1      3475 9.44085E-03-2.22164E-03-2.38308E-14
 -1      3476 9.56661E-03-2.32927E-03-2.47240E-14
 -1      3477 9.27913E-03-2.14607E-03-2.32623E-14
 -1      3478 3.56315E-03-3.54936E-04-5.94763E-15
 -1      3479 3.68067E-03-3.16193E-04-6.09519E-15
 -1      3480 3.67801E-03-2.42227E-04-5.88359E-15
 -1      3481 6.34143E-03-4.78378E-04-1.33676E-14
 -1      3482 6.56090E-03-6.34026E-04-1.40417E-14
 -1      3483 1.56819E-03-2.59539E-04-1.38088E-15
 -1      3484 1.70793E-03-2.71051E-04-1.60841E-15
 -1      3485 1.49141E-03-2.23708E-04-1.26826E-15
 -1      3486 1.32808E-03 2.39862E-04-7.31199E-16
 -1      3487 1.23657E-03 2.22704E-04-6.49667E-16
 -1      3488 1.23074E-03 1.88346E-04-6.80798E-16
 -1      3489 1.39439E-03 2.14328E-04-8.38563E-16
 -1      3490 3.19088E-03-4.76010E-04-5.64482E-15
 -1      3491 3.24963E-03-4.68336E-04-5.71730E-15
 -1      3492 3.32764E-03-4.48102E-04-5.78538E-15
 -1      3493 3.42101E-03-4.16449E-04-5.84953E-15
 -1      3494 3.22996E-03-4.30368E-04-5.48924E-15
 -1      3495 1.18157E-03-2.13348E-04-8.43333E-16
 -1      3496 1.24588E-03-1.93782E-04-9.27657E-16
 -1      3497 3.05645E-03-4.09133E-04-4.98833E-15
 -1      3498 3.09015E-03-4.42985E-04-5.21972E-15
 -1      3499 8.93366E-03-1.70766E-03-1.92416E-14
 -1      3500 9.53240E-03-2.35674E-03-2.50426E-14
 -1      3501 7.15126E-03-1.04468E-03-1.61223E-14
 -1      3502 7.30543E-03-1.12640E-03-1.63128E-14
 -1      3503 7.49253E-03-1.24290E-03-1.70173E-14
 -1      3504 5.47068E-03 4.29503E-05-1.03966E-14
 -1      3505 6.69463E-03-7.38457E-04-1.46218E-14
 -1      3506 3.86199E-03-1.19799E-04-6.04814E-15
 -1      3507 4.04791E-03-1.19733E-04-6.50329E-15
 -1      3508 4.11067E-03-4.11933E-05-6.52268E-15
 -1      3509 1.32937E-02-6.09322E-03-6.28228E-14
 -1      3510 1.31410E-02-5.98628E-03-6.17571E-14
 -1      3511 1.34069E-02-6.13518E-03-6.30540E-14
 -1      3512 2.73990E-03 3.24233E-04-2.83534E-15
 -1      3513 2.58896E-03 3.19684E-04-2.54596E-15
 -1      3514 2.81665E-03 2.82213E-04-3.05679E-15
 -1      3515 4.40471E-03 2.96666E-05-7.18395E-15
 -1      3516 4.57258E-03 5.25700E-05-7.60974E-15
 -1      3517 4.65645E-03 1.00869E-04-7.80445E-15
 -1      3518 3.75788E-03 3.05577E-04-5.20394E-15
 -1      3519 3.66316E-03 3.48552E-04-4.91145E-15
 -1      3520 3.50792E-03 3.45128E-04-4.52532E-15
 -1      3521 1.24091E-03-1.63275E-04-9.20718E-16
 -1      3522 1.34590E-03-1.79107E-04-1.06016E-15
 -1      3523 1.23747E-03-1.33239E-04-9.12085E-16
 -1      3524 1.29037E-02-5.81669E-03-6.00546E-14
 -1      3525 2.36707E-03 3.53079E-04-2.08011E-15
 -1      3526 1.13079E-03-3.45365E-05-7.49319E-16
 -1      3527 3.35284E-03 3.41180E-04-4.15485E-15
 -1      3528 3.19843E-03 3.37035E-04-3.80025E-15
 -1      3529 3.12638E-03 2.89431E-04-3.70769E-15
 -1      3530 3.44064E-03 2.97422E-04-4.42380E-15
 -1      3531 1.37789E-02-6.28083E-03-6.39040E-14
 -1      3532 1.36830E-02-6.24197E-03-6.36680E-14
 -1      3533 9.03504E-03-1.93898E-03-2.14398E-14
 -1      3534 1.41120E-02-6.36010E-03-6.38446E-14
 -1      3535 1.41982E-02-6.44205E-03-6.47761E-14
 -1      3536 1.40845E-02-6.39992E-03-6.45681E-14
 -1      3537 8.53505E-03-1.69726E-03-1.93629E-14
 -1      3538 8.61579E-03-1.68275E-03-1.90570E-14
 -1      3539 4.89639E-03 1.42223E-04-8.49712E-15
 -1      3540 5.06440E-03 1.26192E-04-9.01212E-15
 -1      3541 5.13276E-03 1.30638E-04-9.27065E-15
 -1      3542 6.12333E-03-3.31656E-04-1.27193E-14
 -1      3543 6.22959E-03-4.02994E-04-1.30411E-14
 -1      3544 6.32663E-03-4.85323E-04-1.34988E-14
 -1      3545 2.14133E-03 3.03265E-04-1.77539E-15
 -1      3546 1.99374E-03 2.96198E-04-1.55076E-15
 -1      3547 1.91495E-03 2.54313E-04-1.49147E-15
 -1      3548 7.86956E-03-1.43941E-03-1.80020E-14
 -1      3549 8.00947E-03-1.48736E-03-1.80493E-14
 -1      3550 8.20139E-03-1.59160E-03-1.88574E-14
 -1      3551 5.83036E-03-1.27963E-04-1.16285E-14
 -1      3552 1.14502E-03 1.43126E-04-6.33906E-16
 -1      3553 8.67513E-03-1.67886E-03-1.89529E-14
 -1      3554 8.81641E-03-1.69287E-03-1.90586E-14
 -1      3555 8.77019E-03-1.75406E-03-1.97213E-14
 -1      3556 1.25571E-03 3.88157E-05-8.44919E-16
 -1      3557 1.25353E-03 7.64131E-06-8.65126E-16
 -1      3558 1.26185E-03 1.02631E-04-7.98867E-16
 -1      3559 1.25850E-03 7.04164E-05-8.22950E-16
 -1      3560 1.37987E-03 5.65561E-05-9.80471E-16
 -1      3561 3.43585E-03-3.52766E-04-5.65116E-15
 -1      3562 1.77066E-03-2.46328E-04-1.72082E-15
 -1      3563 1.39886E-02-6.36144E-03-6.43454E-14
 -1      3564 1.38749E-02-6.31931E-03-6.41322E-14
 -1      3565 1.37104E-02-6.20255E-03-6.29652E-14
 -1      3566 1.39023E-02-6.27949E-03-6.34164E-14
 -1      3567 8.94323E-03-1.76633E-03-1.98028E-14
 -1      3568 8.86919E-03-1.79169E-03-2.00586E-14
 -1      3569 3.12631E-03-4.67133E-04-5.43739E-15
 -1      3570 9.62937E-03-2.49051E-03-2.62733E-14
 -1      3571 9.76421E-03-2.60066E-03-2.71982E-14
 -1      3572 2.24748E-03-2.53460E-04-2.65649E-15
 -1      3573 2.38181E-03-2.65852E-04-2.96390E-15
 -1      3574 2.51442E-03-2.80141E-04-3.28711E-15
 -1      3575 2.64455E-03-2.96487E-04-3.62647E-15
 -1      3576 2.45259E-03-2.42859E-04-3.09948E-15
 -1      3577 2.77274E-03-3.15850E-04-3.98207E-15
 -1      3578 2.89789E-03-3.38277E-04-4.35225E-15
 -1      3579 2.72069E-03-2.76353E-04-3.77420E-15
 -1      3580 4.17918E-03 2.69066E-04-6.36755E-15
 -1      3581 4.01716E-03 2.66035E-04-5.92527E-15
 -1      3582 3.00642E-03-3.63653E-04-4.69724E-15
 -1      3583 3.12765E-03-3.98299E-04-5.11827E-15
 -1      3584 3.19559E-03-3.74869E-04-5.18109E-15
 -1      3585 2.96836E-03-3.20406E-04-4.47148E-15
 -1      3586 9.90060E-03-2.71201E-03-2.81329E-14
 -1      3587 1.00382E-02-2.82450E-03-2.90781E-14
 -1      3588 9.73108E-03-2.62389E-03-2.75228E-14
 -1      3589 1.01769E-02-2.93772E-03-3.00335E-14
 -1      3590 1.03163E-02-3.05164E-03-3.09979E-14
 -1      3591 1.00072E-02-2.84730E-03-2.94097E-14
 -1      3592 1.04565E-02-3.16600E-03-3.19723E-14
 -1      3593 1.05973E-02-3.28077E-03-3.29559E-14
 -1      3594 1.02865E-02-3.07399E-03-3.13376E-14
 -1      3595 1.07384E-02-3.39580E-03-3.39503E-14
 -1      3596 1.08800E-02-3.51106E-03-3.49564E-14
 -1      3597 1.05680E-02-3.30272E-03-3.33038E-14
 -1      3598 1.10289E-02-3.63223E-03-3.60240E-14
 -1      3599 1.11781E-02-3.75354E-03-3.71042E-14
 -1      3600 1.08582E-02-3.53844E-03-3.53627E-14
 -1      3601 1.13203E-02-3.86915E-03-3.81448E-14
 -1      3602 1.14627E-02-3.98482E-03-3.91930E-14
 -1      3603 1.11493E-02-3.77491E-03-3.74667E-14
 -1      3604 1.16052E-02-4.10052E-03-4.02522E-14
 -1      3605 1.17478E-02-4.21624E-03-4.13218E-14
 -1      3606 1.14340E-02-4.00600E-03-3.95637E-14
 -1      3607 1.18904E-02-4.33198E-03-4.24036E-14
 -1      3608 1.20331E-02-4.44773E-03-4.34923E-14
 -1      3609 1.17191E-02-4.23730E-03-4.17014E-14
 -1      3610 1.21759E-02-4.56347E-03-4.45930E-14
 -1      3611 1.23186E-02-4.67922E-03-4.56998E-14
 -1      3612 1.20045E-02-4.46869E-03-4.38759E-14
 -1      3613 1.24614E-02-4.79496E-03-4.68163E-14
 -1      3614 1.26042E-02-4.91069E-03-4.79470E-14
 -1      3615 1.22899E-02-4.70011E-03-4.60884E-14
 -1      3616 1.27470E-02-5.02641E-03-4.90850E-14
 -1      3617 1.28899E-02-5.14213E-03-5.02293E-14
 -1      3618 1.25755E-02-4.93152E-03-4.83422E-14
 -1      3619 1.30398E-02-5.26362E-03-5.14406E-14
 -1      3620 1.31898E-02-5.38511E-03-5.26589E-14
 -1      3621 1.28683E-02-5.16871E-03-5.06899E-14
 -1      3622 1.33327E-02-5.50080E-03-5.38258E-14
 -1      3623 1.34755E-02-5.61648E-03-5.50023E-14
 -1      3624 1.31611E-02-5.40588E-03-5.30686E-14
 -1      3625 1.36184E-02-5.73216E-03-5.61858E-14
 -1      3626 1.37612E-02-5.84784E-03-5.73736E-14
 -1      3627 1.34468E-02-5.63724E-03-5.54187E-14
 -1      3628 1.39041E-02-5.96350E-03-5.85675E-14
 -1      3629 1.40470E-02-6.07917E-03-5.97702E-14
 -1      3630 1.37325E-02-5.86857E-03-5.77988E-14
 -1      3631 1.41898E-02-6.19483E-03-6.09782E-14
 -1      3632 1.43327E-02-6.31048E-03-6.21886E-14
 -1      3633 1.40182E-02-6.09990E-03-6.02019E-14
 -1      3634 1.44047E-02-6.37787E-03-6.29400E-14
 -1      3635 1.44909E-02-6.45983E-03-6.38632E-14
 -1      3636 1.43772E-02-6.41770E-03-6.36726E-14
 -1      3637 1.42331E-02-6.28293E-03-6.21656E-14
 -1      3638 5.41054E-03 4.70302E-05-1.05512E-14
 -1      3639 5.26081E-03 1.14070E-04-9.96238E-15
 -1      3640 5.11178E-03 1.67801E-04-9.39228E-15
 -1      3641 4.96140E-03 2.08667E-04-8.84136E-15
 -1      3642 5.23481E-03 1.21316E-04-9.78715E-15
 -1      3643 6.02490E-03-3.32972E-04-1.30988E-14
 -1      3644 5.86792E-03-2.24957E-04-1.24330E-14
 -1      3645 6.34436E-03-5.63872E-04-1.44843E-14
 -1      3646 6.18394E-03-4.46808E-04-1.37825E-14
 -1      3647 6.17463E-03-4.27886E-04-1.35722E-14
 -1      3648 6.66730E-03-8.03106E-04-1.59370E-14
 -1      3649 6.50583E-03-6.83107E-04-1.52030E-14
 -1      3650 6.50421E-03-6.68165E-04-1.49830E-14
 -1      3651 6.98871E-03-1.04299E-03-1.74563E-14
 -1      3652 6.82854E-03-9.23278E-04-1.66888E-14
 -1      3653 6.83485E-03-9.11040E-04-1.64596E-14
 -1      3654 7.30520E-03-1.28021E-03-1.90391E-14
 -1      3655 7.14778E-03-1.16198E-03-1.82397E-14
 -1      3656 7.16103E-03-1.15087E-03-1.80022E-14
 -1      3657 7.61529E-03-1.51441E-03-2.06791E-14
 -1      3658 7.46111E-03-1.39762E-03-1.98513E-14
 -1      3659 7.47980E-03-1.38602E-03-1.96047E-14
 -1      3660 7.91906E-03-1.74635E-03-2.23775E-14
 -1      3661 7.76795E-03-1.63057E-03-2.15218E-14
 -1      3662 7.79053E-03-1.61759E-03-2.12643E-14
 -1      3663 8.21741E-03-1.97696E-03-2.41334E-14
 -1      3664 8.06886E-03-1.86174E-03-2.32482E-14
 -1      3665 8.09405E-03-1.84708E-03-2.29834E-14
 -1      3666 8.51153E-03-2.20697E-03-2.59432E-14
 -1      3667 8.36493E-03-2.09198E-03-2.50322E-14
 -1      3668 8.39178E-03-2.07572E-03-2.47577E-14
 -1      3669 8.80256E-03-2.43683E-03-2.78005E-14
 -1      3670 8.65737E-03-2.32188E-03-2.68659E-14
 -1      3671 8.68520E-03-2.30427E-03-2.65826E-14
 -1      3672 9.09145E-03-2.66679E-03-2.97066E-14
 -1      3673 8.94722E-03-2.55178E-03-2.87475E-14
 -1      3674 8.97562E-03-2.53313E-03-2.84563E-14
 -1      3675 9.37895E-03-2.89694E-03-3.16590E-14
 -1      3676 9.23534E-03-2.78183E-03-3.06764E-14
 -1      3677 9.26403E-03-2.76243E-03-3.03758E-14
 -1      3678 9.66558E-03-3.12731E-03-3.36525E-14
 -1      3679 9.52235E-03-3.01210E-03-3.26512E-14
 -1      3680 9.55118E-03-2.99217E-03-3.23418E-14
 -1      3681 9.95168E-03-3.35786E-03-3.56869E-14
 -1      3682 9.80868E-03-3.24256E-03-3.46653E-14
 -1      3683 9.83755E-03-3.22230E-03-3.43488E-14
 -1      3684 1.02375E-02-3.58858E-03-3.77564E-14
 -1      3685 1.00946E-02-3.47320E-03-3.67175E-14
 -1      3686 1.01235E-02-3.45273E-03-3.63917E-14
 -1      3687 1.05232E-02-3.81942E-03-3.98668E-14
 -1      3688 1.03804E-02-3.70399E-03-3.88050E-14
 -1      3689 1.04092E-02-3.68339E-03-3.84726E-14
 -1      3690 1.08088E-02-4.05037E-03-4.20168E-14
 -1      3691 1.06660E-02-3.93488E-03-4.09369E-14
 -1      3692 1.06948E-02-3.91421E-03-4.05932E-14
 -1      3693 1.10944E-02-4.28138E-03-4.42100E-14
 -1      3694 1.09516E-02-4.16587E-03-4.31079E-14
 -1      3695 1.09804E-02-4.14516E-03-4.27552E-14
 -1      3696 1.13800E-02-4.51246E-03-4.64517E-14
 -1      3697 1.12372E-02-4.39692E-03-4.53247E-14
 -1      3698 1.12660E-02-4.37620E-03-4.49633E-14
 -1      3699 1.16657E-02-4.74358E-03-4.87338E-14
 -1      3700 1.15228E-02-4.62802E-03-4.75886E-14
 -1      3701 1.15516E-02-4.60729E-03-4.72163E-14
 -1      3702 1.19513E-02-4.97474E-03-5.10555E-14
 -1      3703 1.18085E-02-4.85916E-03-4.98898E-14
 -1      3704 1.18372E-02-4.83843E-03-4.95102E-14
 -1      3705 1.22370E-02-5.20592E-03-5.34061E-14
 -1      3706 1.20942E-02-5.09033E-03-5.22267E-14
 -1      3707 1.21229E-02-5.06961E-03-5.18399E-14
 -1      3708 1.25227E-02-5.43713E-03-5.57863E-14
 -1      3709 1.23798E-02-5.32152E-03-5.45942E-14
 -1      3710 1.24085E-02-5.30081E-03-5.41987E-14
 -1      3711 1.28084E-02-5.66835E-03-5.81974E-14
 -1      3712 1.26655E-02-5.55274E-03-5.69883E-14
 -1      3713 1.26942E-02-5.53203E-03-5.65899E-14
 -1      3714 2.43888E-03 3.14809E-04-2.27256E-15
 -1      3715 2.28971E-03 3.09393E-04-2.01595E-15
 -1      3716 2.21142E-03 2.66186E-04-1.94887E-15
 -1      3717 2.51179E-03 2.74945E-04-2.47082E-15
 -1      3718 1.48579E-03-1.90861E-04-1.25953E-15
 -1      3719 5.38003E-03 7.01926E-05-1.01567E-14
 -1      3720 5.54837E-03 3.16425E-06-1.07549E-14
 -1      3721 8.47627E-03-1.71538E-03-1.97114E-14
 -1      3722 8.66143E-03-1.78331E-03-2.01806E-14
 -1      3723 1.35185E-02-6.12521E-03-6.24998E-14
 -1      3724 1.35871E-02-6.20310E-03-6.34300E-14
 -1      3725 1.34912E-02-6.16423E-03-6.31888E-14
 -1      3726 3.52494E-03-2.23307E-04-5.47889E-15
 -1      3727 3.62588E-03-1.81581E-04-5.61445E-15
 -1      3728 1.37469E-03-9.63464E-06-1.02674E-15
 -1      3729 1.25201E-03-2.30054E-05-8.83543E-16
 -1      3730 1.25128E-03-5.32852E-05-8.99806E-16
 -1      3731 1.24293E-03-7.85298E-05-9.01433E-16
 -1      3732 1.24401E-03-1.08336E-04-9.13982E-16
 -1      3733 1.34840E-03-1.21708E-04-1.05239E-15
 -1      3734 1.36407E-03-6.89253E-05-1.05050E-15
 -1      3735 6.56015E-03-6.60324E-04-1.44155E-14
 -1      3736 6.81254E-03-8.32994E-04-1.52222E-14
 -1      3737 1.42654E-02-6.37627E-03-6.34839E-14
 -1      3738 1.41537E-02-6.33485E-03-6.32892E-14
 -1      3739 1.41934E-02-6.30890E-03-6.27284E-14
 -1      3740 8.82060E-03-1.79921E-03-2.01644E-14
 -1      3741 5.72486E-03-8.44934E-05-1.13737E-14
 -1      3742 5.90781E-03-1.93275E-04-1.20131E-14
 -1      3743 5.62469E-03-4.46456E-05-1.11174E-14
 -1      3744 1.68964E-03 2.06697E-04-1.22877E-15
 -1      3745 1.54403E-03 1.98491E-04-1.04344E-15
 -1      3746 1.24804E-03 1.62064E-04-7.26714E-16
 -1      3747 1.24363E-03 1.28758E-04-7.54279E-16
 -1      3748 1.36506E-03 1.18426E-04-9.05526E-16
 -1      3749 1.32948E-03 1.73851E-04-8.07175E-16
 -1      3750 3.29617E-03-3.40312E-04-5.29003E-15
 -1      3751 3.41604E-03-2.80855E-04-5.37972E-15
 -1      3752 3.37101E-03-2.22185E-04-5.12487E-15
 -1      3753 3.17261E-03-3.14107E-04-4.92609E-15
 -1      3754 5.71341E-03-1.23975E-04-1.17866E-14
 -1      3755 5.56086E-03-3.29690E-05-1.11589E-14
 -1      3756 5.54024E-03-1.48041E-05-1.09720E-14
 -1      3757 5.85226E-03-2.03794E-04-1.22345E-14
 -1      3758 9.11094E-03-2.07077E-03-2.26964E-14
 -1      3759 9.23660E-03-2.17182E-03-2.35715E-14
 -1      3760 1.97394E-03-2.31642E-04-2.09107E-15
 -1      3761 2.11135E-03-2.42121E-04-2.36555E-15
 -1      3762 2.17952E-03-2.17205E-04-2.48973E-15
 -1      3763 1.69610E-03-2.11109E-04-1.59170E-15
 -1      3764 1.83540E-03-2.21354E-04-1.83316E-15
 -1      3765 1.90237E-03-1.95959E-04-1.94519E-15
 -1      3766 1.30169E-02-5.85864E-03-6.02888E-14
 -1      3767 9.36531E-03-2.27565E-03-2.44610E-14
 -1      3768 9.49623E-03-2.38215E-03-2.53620E-14
 -1      3769 9.45950E-03-2.40560E-03-2.56774E-14
 -1      3770 9.19382E-03-2.19489E-03-2.38801E-14
 -1      3771 8.76931E-03-1.82740E-03-2.05225E-14
 -1      3772 8.87252E-03-1.86961E-03-2.08665E-14
 -1      3773 8.72104E-03-1.85204E-03-2.08802E-14
 -1      3774 3.95231E-03 2.16993E-04-5.79877E-15
 -1      3775 3.85436E-03 2.61491E-04-5.49952E-15
 -1      3776 3.69181E-03 2.56674E-04-5.08985E-15
 -1      3777 4.34002E-03 2.69733E-04-6.82668E-15
 -1      3778 4.28518E-03 2.28504E-04-6.68981E-15
 -1      3779 4.49895E-03 2.65746E-04-7.30319E-15
 -1      3780 6.99583E-03-9.59319E-04-1.59051E-14
 -1      3781 7.17758E-03-1.08114E-03-1.66009E-14
 -1      3782 6.85564E-03-8.77993E-04-1.56844E-14
 -1      3783 3.69723E-03-1.11922E-04-5.63643E-15
 -1      3784 3.75752E-03-4.09666E-05-5.65383E-15
 -1      3785 3.53719E-03-9.91286E-05-5.23896E-15
 -1      3786 1.33384E-02-6.05729E-03-6.21259E-14
 -1      3787 2.89407E-03 2.38330E-04-3.28352E-15
 -1      3788 2.73901E-03 2.35818E-04-2.97085E-15
 -1      3789 4.21593E-03 1.71391E-05-6.70368E-15
 -1      3790 4.31028E-03 7.21414E-05-6.88483E-15
 -1      3791 4.02957E-03 1.02342E-05-6.24086E-15
 -1      3792 8.99667E-03-1.97196E-03-2.18073E-14
 -1      3793 8.94393E-03-1.99378E-03-2.21074E-14
 -1      3794 1.34500E-02-6.04732E-03-6.15726E-14
 -1      3795 1.33541E-02-6.00845E-03-6.13355E-14
 -1      3796 4.72800E-03 1.47853E-04-7.99073E-15
 -1      3797 4.80449E-03 1.73239E-04-8.22900E-15
 -1      3798 1.40400E-02-6.29272E-03-6.30879E-14
 -1      3799 1.39263E-02-6.25059E-03-6.28824E-14
 -1      3800 1.39679E-02-6.22534E-03-6.23329E-14
 -1      3801 5.02878E-03 1.66954E-04-8.98450E-15
 -1      3802 5.19014E-03 1.28384E-04-9.52085E-15
 -1      3803 1.49886E-03 5.29485E-06-1.17850E-15
 -1      3804 1.49647E-03-2.90866E-05-1.20239E-15
 -1      3805 6.00390E-03-2.68610E-04-1.24488E-14
 -1      3806 1.55240E-03-1.67156E-04-1.35539E-15
 -1      3807 8.34760E-03-1.68378E-03-1.96649E-14
 -1      3808 7.70367E-03-1.36936E-03-1.78058E-14
 -1      3809 7.90665E-03-1.48751E-03-1.86097E-14
 -1      3810 7.54713E-03-1.29599E-03-1.76078E-14
 -1      3811 4.57497E-03 1.38320E-04-7.55221E-15
 -1      3812 4.80977E-03 2.37306E-04-8.31026E-15
 -1      3813 4.65552E-03 2.55917E-04-7.79788E-15
 -1      3814 4.61190E-03 2.28457E-04-7.64850E-15
 -1      3815 4.92805E-03 1.99039E-04-8.67939E-15
 -1      3816 1.83626E-03 2.13535E-04-1.42962E-15
 -1      3817 1.75789E-03 1.74139E-04-1.36527E-15
 -1      3818 1.98387E-03 2.19168E-04-1.64625E-15
 -1      3819 1.50559E-03 7.57726E-05-1.12444E-15
 -1      3820 1.50195E-03 4.02170E-05-1.15274E-15
 -1      3821 1.62456E-03 2.15904E-05-1.33921E-15
 -1      3822 1.31920E-02-5.94761E-03-6.10026E-14
 -1      3823 1.29548E-02-5.77802E-03-5.93089E-14
 -1      3824 1.29835E-02-5.75731E-03-5.89045E-14
 -1      3825 1.32762E-02-5.97666E-03-6.11385E-14
 -1      3826 3.20892E-03 2.44134E-04-3.95825E-15
 -1      3827 3.05077E-03 2.41002E-04-3.61255E-15
 -1      3828 2.97186E-03 1.92560E-04-3.51485E-15
 -1      3829 1.36419E-02-6.12425E-03-6.20295E-14
 -1      3830 1.35460E-02-6.08579E-03-6.18017E-14
 -1      3831 1.33815E-02-5.96903E-03-6.06423E-14
 -1      3832 6.34215E-03-5.11397E-04-1.37363E-14
 -1      3833 6.44921E-03-5.84978E-04-1.40742E-14
 -1      3834 6.56888E-03-6.80038E-04-1.46589E-14
 -1      3835 8.73274E-03-1.89862E-03-2.14011E-14
 -1      3836 8.83983E-03-1.94653E-03-2.17528E-14
 -1      3837 8.96085E-03-2.04458E-03-2.26392E-14
 -1      3838 2.39043E-03-2.03761E-04-2.91579E-15
 -1      3839 2.52871E-03-2.17965E-04-3.23434E-15
 -1      3840 2.66687E-03-2.34154E-04-3.56938E-15
 -1      3841 2.80450E-03-2.52598E-04-3.91974E-15
 -1      3842 2.61023E-03-1.90647E-04-3.36763E-15
 -1      3843 7.00898E-03-1.02200E-03-1.69860E-14
 -1      3844 6.84112E-03-9.00303E-04-1.62288E-14
 -1      3845 9.83642E-03-2.75716E-03-2.87869E-14
 -1      3846 9.97583E-03-2.86935E-03-2.97402E-14
 -1      3847 1.01159E-02-2.98227E-03-3.07035E-14
 -1      3848 1.02564E-02-3.09584E-03-3.16750E-14
 -1      3849 9.94452E-03-2.89071E-03-3.00677E-14
 -1      3850 1.03973E-02-3.20989E-03-3.26582E-14
 -1      3851 1.05386E-02-3.32435E-03-3.36497E-14
 -1      3852 1.02262E-02-3.11724E-03-3.20124E-14
 -1      3853 1.06873E-02-3.44485E-03-3.47026E-14
 -1      3854 1.08362E-02-3.56562E-03-3.57684E-14
 -1      3855 1.05162E-02-3.35141E-03-3.40457E-14
 -1      3856 1.09783E-02-3.68082E-03-3.67935E-14
 -1      3857 1.11205E-02-3.79616E-03-3.78297E-14
 -1      3858 1.08072E-02-3.58684E-03-3.61214E-14
 -1      3859 1.12629E-02-3.91159E-03-3.88766E-14
 -1      3860 1.14053E-02-4.02711E-03-3.99329E-14
 -1      3861 1.10916E-02-3.81728E-03-3.81915E-14
 -1      3862 1.15478E-02-4.14269E-03-4.09995E-14
 -1      3863 1.16904E-02-4.25831E-03-4.20760E-14
 -1      3864 1.13765E-02-4.04815E-03-4.03020E-14
 -1      3865 1.18331E-02-4.37395E-03-4.31603E-14
 -1      3866 1.19758E-02-4.48962E-03-4.42555E-14
 -1      3867 1.16617E-02-4.27927E-03-4.24486E-14
 -1      3868 1.21185E-02-4.60529E-03-4.53612E-14
 -1      3869 1.22613E-02-4.72098E-03-4.64755E-14
 -1      3870 1.19471E-02-4.51051E-03-4.46328E-14
 -1      3871 1.24040E-02-4.83666E-03-4.75993E-14
 -1      3872 1.25468E-02-4.95235E-03-4.87348E-14
 -1      3873 1.22326E-02-4.74183E-03-4.68605E-14
 -1      3874 1.26968E-02-5.07382E-03-4.99405E-14
 -1      3875 1.28468E-02-5.19529E-03-5.11512E-14
 -1      3876 1.25253E-02-4.97895E-03-4.91891E-14
 -1      3877 1.29896E-02-5.31097E-03-5.23085E-14
 -1      3878 1.31324E-02-5.42664E-03-5.34760E-14
 -1      3879 1.28181E-02-5.21607E-03-5.15500E-14
 -1      3880 1.32753E-02-5.54232E-03-5.46532E-14
 -1      3881 1.34181E-02-5.65798E-03-5.58374E-14
 -1      3882 1.31037E-02-5.44740E-03-5.38867E-14
 -1      3883 1.35610E-02-5.77365E-03-5.70257E-14
 -1      3884 1.37038E-02-5.88931E-03-5.82205E-14
 -1      3885 1.33894E-02-5.67873E-03-5.62536E-14
 -1      3886 1.38467E-02-6.00497E-03-5.94233E-14
 -1      3887 1.39895E-02-6.12062E-03-6.06341E-14
 -1      3888 1.36751E-02-5.91004E-03-5.86471E-14
 -1      3889 1.40554E-02-6.18107E-03-6.13035E-14
 -1      3890 1.41275E-02-6.24845E-03-6.20540E-14
 -1      3891 1.40157E-02-6.20703E-03-6.18607E-14
 -1      3892 1.38839E-02-6.08614E-03-6.05187E-14
 -1      3893 5.42092E-03 4.80014E-05-1.04391E-14
 -1      3894 5.26627E-03 1.08484E-04-9.85326E-15
 -1      3895 6.56896E-03-7.00368E-04-1.50094E-14
 -1      3896 6.39829E-03-5.76156E-04-1.42941E-14
 -1      3897 6.22837E-03-4.52885E-04-1.35959E-14
 -1      3898 7.33846E-03-1.25973E-03-1.85511E-14
 -1      3899 7.17508E-03-1.14165E-03-1.77600E-14
 -1      3900 7.19013E-03-1.13425E-03-1.75178E-14
 -1      3901 7.65797E-03-1.49167E-03-2.01742E-14
 -1      3902 7.49953E-03-1.37622E-03-1.93555E-14
 -1      3903 7.52064E-03-1.36834E-03-1.91033E-14
 -1      3904 7.96809E-03-1.72009E-03-2.18542E-14
 -1      3905 7.81415E-03-1.60613E-03-2.10073E-14
 -1      3906 7.83913E-03-1.59631E-03-2.07474E-14
 -1      3907 8.27043E-03-1.94699E-03-2.35907E-14
 -1      3908 8.12013E-03-1.83359E-03-2.27164E-14
 -1      3909 8.14737E-03-1.82135E-03-2.24470E-14
 -1      3910 8.56692E-03-2.17372E-03-2.53840E-14
 -1      3911 8.41930E-03-2.06029E-03-2.44809E-14
 -1      3912 8.44774E-03-2.04576E-03-2.42031E-14
 -1      3913 8.85928E-03-2.40096E-03-2.72239E-14
 -1      3914 8.71352E-03-2.28723E-03-2.62969E-14
 -1      3915 8.74250E-03-2.27080E-03-2.60105E-14
 -1      3916 9.14886E-03-2.62897E-03-2.91126E-14
 -1      3917 9.00434E-03-2.51485E-03-2.81621E-14
 -1      3918 9.03352E-03-2.49696E-03-2.78667E-14
 -1      3919 9.43667E-03-2.85775E-03-3.10472E-14
 -1      3920 9.29294E-03-2.74326E-03-3.00748E-14
 -1      3921 9.32213E-03-2.72432E-03-2.97707E-14
 -1      3922 9.72340E-03-3.08719E-03-3.30251E-14
 -1      3923 9.58014E-03-2.97239E-03-3.20312E-14
 -1      3924 9.60928E-03-2.95274E-03-3.17195E-14
 -1      3925 1.00095E-02-3.31715E-03-3.50438E-14
 -1      3926 9.86651E-03-3.20211E-03-3.40304E-14
 -1      3927 9.89557E-03-3.18200E-03-3.37102E-14
 -1      3928 1.02953E-02-3.54751E-03-3.70975E-14
 -1      3929 1.01524E-02-3.43229E-03-3.60660E-14
 -1      3930 1.01814E-02-3.41188E-03-3.57383E-14
 -1      3931 1.05809E-02-3.77815E-03-3.91888E-14
 -1      3932 1.04381E-02-3.66280E-03-3.81380E-14
 -1      3933 1.04670E-02-3.64222E-03-3.78038E-14
 -1      3934 1.08664E-02-4.00898E-03-4.13215E-14
 -1      3935 1.07237E-02-3.89354E-03-4.02504E-14
 -1      3936 1.07525E-02-3.87287E-03-3.99068E-14
 -1      3937 1.11520E-02-4.23995E-03-4.34959E-14
 -1      3938 1.10092E-02-4.12445E-03-4.24032E-14
 -1      3939 1.10380E-02-4.10373E-03-4.20500E-14
 -1      3940 1.14376E-02-4.47100E-03-4.57162E-14
 -1      3941 1.12948E-02-4.35547E-03-4.46008E-14
 -1      3942 1.13236E-02-4.33473E-03-4.42375E-14
 -1      3943 1.17232E-02-4.70213E-03-4.79819E-14
 -1      3944 1.15804E-02-4.58656E-03-4.68437E-14
 -1      3945 1.16091E-02-4.56581E-03-4.64706E-14
 -1      3946 1.20088E-02-4.93329E-03-5.02854E-14
 -1      3947 1.18660E-02-4.81770E-03-4.91288E-14
 -1      3948 1.18947E-02-4.79696E-03-4.87457E-14
 -1      3949 1.22944E-02-5.16448E-03-5.26235E-14
 -1      3950 1.21516E-02-5.04888E-03-5.14513E-14
 -1      3951 1.21803E-02-5.02815E-03-5.10606E-14
 -1      3952 1.25801E-02-5.39570E-03-5.49915E-14
 -1      3953 1.24373E-02-5.28009E-03-5.38035E-14
 -1      3954 1.24660E-02-5.25936E-03-5.34076E-14
 -1      3955 1.28658E-02-5.62693E-03-5.73905E-14
 -1      3956 1.27229E-02-5.51131E-03-5.61873E-14
 -1      3957 1.27517E-02-5.49059E-03-5.57845E-14
 -1      3958 1.32077E-02-5.89877E-03-6.02172E-14
 -1      3959 3.52963E-03 2.52004E-04-4.69634E-15
 -1      3960 3.36869E-03 2.47773E-04-4.31918E-15
 -1      3961 3.61959E-03 2.05167E-04-4.97341E-15
 -1      3962 4.86928E-03 1.87354E-04-8.44954E-15
 -1      3963 2.65931E-03 1.90019E-04-2.88085E-15
 -1      3964 2.58537E-03 2.33367E-04-2.67332E-15
 -1      3965 2.43318E-03 2.30651E-04-2.39189E-15
 -1      3966 1.61034E-03-4.49739E-05-1.37538E-15
 -1      3967 1.48651E-03-5.76817E-05-1.20837E-15
 -1      3968 1.47735E-03-8.57392E-05-1.21256E-15
 -1      3969 2.92682E-03-2.70253E-04-4.24094E-15
 -1      3970 3.04829E-03-2.93303E-04-4.58079E-15
 -1      3971 3.13709E-03-2.55662E-04-4.68008E-15
 -1      3972 2.87899E-03-2.21933E-04-4.01987E-15
 -1      3973 1.47893E-03 1.57581E-04-1.00655E-15
 -1      3974 1.41140E-03 1.85549E-04-8.91648E-16
 -1      3975 1.49678E-03 1.27939E-04-1.06099E-15
 -1      3976 2.11197E-03-1.79965E-04-2.32664E-15
 -1      3977 2.25140E-03-1.91176E-04-2.61289E-15
 -1      3978 2.32711E-03-1.63645E-04-2.73489E-15
 -1      3979 1.38321E-02-6.20666E-03-6.25684E-14
 -1      3980 1.37361E-02-6.16819E-03-6.23449E-14
 -1      3981 1.35717E-02-6.05142E-03-6.11856E-14
 -1      3982 1.37600E-02-6.13928E-03-6.18141E-14
 -1      3983 8.20836E-03-1.64767E-03-1.96558E-14
 -1      3984 8.47704E-03-1.77721E-03-2.05279E-14
 -1      3985 9.55974E-03-2.53593E-03-2.69124E-14
 -1      3986 9.69766E-03-2.64599E-03-2.78452E-14
 -1      3987 9.66444E-03-2.66711E-03-2.81652E-14
 -1      3988 1.83165E-03-1.60081E-04-1.80289E-15
 -1      3989 1.97194E-03-1.69684E-04-2.05642E-15
 -1      3990 2.04426E-03-1.42233E-04-2.16694E-15
 -1      3991 1.48437E-03-1.32038E-04-1.24359E-15
 -1      3992 1.69531E-03-1.49571E-04-1.57167E-15
 -1      3993 1.76573E-03-1.23060E-04-1.67054E-15
 -1      3994 1.49202E-03-1.04473E-04-1.24282E-15
 -1      3995 1.61981E-03 1.13129E-04-1.24079E-15
 -1      3996 9.42262E-03-2.42736E-03-2.59918E-14
 -1      3997 9.38632E-03-2.44781E-03-2.63066E-14
 -1      3998 9.28655E-03-2.32044E-03-2.50841E-14
 -1      3999 4.05112E-03 1.71773E-04-6.10139E-15
 -1      4000 3.88005E-03 1.63458E-04-5.66937E-15
 -1      4001 2.13252E-03 2.23760E-04-1.87881E-15
 -1      4002 2.05333E-03 1.82488E-04-1.80631E-15
 -1      4003 2.28225E-03 2.27541E-04-2.12745E-15
 -1      4004 3.36652E-03-1.14910E-04-4.87849E-15
 -1      4005 3.42481E-03-5.22864E-05-4.89567E-15
 -1      4006 4.70860E-03 2.03909E-04-7.94156E-15
 -1      4007 1.38361E-02-6.10446E-03-6.09876E-14
 -1      4008 1.39020E-02-6.16490E-03-6.16598E-14
 -1      4009 1.37883E-02-6.12277E-03-6.14544E-14
 -1      4010 1.33120E-02-5.89053E-03-5.97168E-14
 -1      4011 1.32161E-02-5.85207E-03-5.94886E-14
 -1      4012 3.20624E-03-2.15909E-04-4.73716E-15
 -1      4013 3.29939E-03-1.64085E-04-4.82817E-15
 -1      4014 3.19754E-03-1.15229E-04-4.50186E-15
 -1      4015 3.07021E-03-2.01287E-04-4.39969E-15
 -1      4016 8.60670E-03-1.87294E-03-2.13934E-14
 -1      4017 1.76556E-03 1.16063E-04-1.44493E-15
 -1      4018 6.11085E-03-3.61348E-04-1.30377E-14
 -1      4019 1.29918E-02-5.71061E-03-5.81837E-14
 -1      4020 1.30205E-02-5.68989E-03-5.77743E-14
 -1      4021 3.29201E-03 1.97045E-04-4.21219E-15
 -1      4022 2.73298E-03 1.44853E-04-3.09327E-15
 -1      4023 2.57797E-03 1.45179E-04-2.78847E-15
 -1      4024 5.90904E-03-2.28240E-04-1.23176E-14
 -1      4025 5.57653E-03-2.87590E-05-1.10426E-14
 -1      4026 5.74694E-03-1.23669E-04-1.16740E-14
 -1      4027 8.05502E-03-1.58783E-03-1.94511E-14
 -1      4028 1.75181E-03 3.91888E-05-1.50829E-15
 -1      4029 1.74757E-03 8.75540E-07-1.54020E-15
 -1      4030 4.39532E-03 1.24647E-04-7.06236E-15
 -1      4031 4.46829E-03 1.77147E-04-7.23273E-15
 -1      4032 9.01727E-03-2.11300E-03-2.33028E-14
 -1      4033 9.15133E-03-2.21558E-03-2.41875E-14
 -1      4034 9.11019E-03-2.23460E-03-2.44923E-14
 -1      4035 3.04921E-03 1.44772E-04-3.75055E-15
 -1      4036 2.89003E-03 1.44547E-04-3.41410E-15
 -1      4037 2.80596E-03 9.78218E-05-3.31004E-15
 -1      4038 1.86261E-03-1.59008E-05-1.73607E-15
 -1      4039 1.73567E-03-3.10291E-05-1.55137E-15
 -1      4040 1.72443E-03-6.21696E-05-1.56061E-15
 -1      4041 4.54440E-03 2.06169E-04-7.44337E-15
 -1      4042 4.37497E-03 2.01821E-04-6.95638E-15
 -1      4043 4.21501E-03 1.18543E-04-6.58485E-15
 -1      4044 8.91296E-03-2.06244E-03-2.29389E-14
 -1      4045 4.20616E-03 1.95090E-04-6.49360E-15
 -1      4046 4.13574E-03 1.42251E-04-6.35271E-15
 -1      4047 7.70705E-03-1.47611E-03-1.96593E-14
 -1      4048 7.54434E-03-1.36248E-03-1.88489E-14
 -1      4049 1.34062E-02-5.93446E-03-6.00319E-14
 -1      4050 1.32408E-02-5.81750E-03-5.88822E-14
 -1      4051 1.35004E-02-5.97839E-03-6.03458E-14
 -1      4052 1.00546E-02-3.02462E-03-3.13671E-14
 -1      4053 1.01961E-02-3.13827E-03-3.23480E-14
 -1      4054 1.03449E-02-3.25804E-03-3.33882E-14
 -1      4055 1.04938E-02-3.37822E-03-3.44399E-14
 -1      4056 1.01732E-02-3.16469E-03-3.27321E-14
 -1      4057 1.06359E-02-3.49295E-03-3.54508E-14
 -1      4058 1.07780E-02-3.60791E-03-3.64734E-14
 -1      4059 1.04644E-02-3.39911E-03-3.47832E-14
 -1      4060 1.09203E-02-3.72304E-03-3.75074E-14
 -1      4061 1.10627E-02-3.83830E-03-3.85510E-14
 -1      4062 1.07489E-02-3.62884E-03-3.68231E-14
 -1      4063 1.12052E-02-3.95367E-03-3.96039E-14
 -1      4064 1.13477E-02-4.06912E-03-4.06664E-14
 -1      4065 1.10338E-02-3.85924E-03-3.89075E-14
 -1      4066 1.14903E-02-4.18463E-03-4.17393E-14
 -1      4067 1.16330E-02-4.30018E-03-4.28198E-14
 -1      4068 1.13189E-02-4.09003E-03-4.10309E-14
 -1      4069 1.17756E-02-4.41577E-03-4.39094E-14
 -1      4070 1.19184E-02-4.53139E-03-4.50106E-14
 -1      4071 1.16042E-02-4.32106E-03-4.31881E-14
 -1      4072 1.20611E-02-4.64702E-03-4.61263E-14
 -1      4073 1.22039E-02-4.76266E-03-4.72473E-14
 -1      4074 1.18896E-02-4.55223E-03-4.53887E-14
 -1      4075 1.23538E-02-4.88409E-03-4.84386E-14
 -1      4076 1.25037E-02-5.00553E-03-4.96426E-14
 -1      4077 1.21823E-02-4.78926E-03-4.76935E-14
 -1      4078 1.26465E-02-5.12119E-03-5.07935E-14
 -1      4079 1.27894E-02-5.23685E-03-5.19510E-14
 -1      4080 1.24750E-02-5.02632E-03-5.00350E-14
 -1      4081 1.29322E-02-5.35250E-03-5.31191E-14
 -1      4082 1.30750E-02-5.46816E-03-5.42990E-14
 -1      4083 1.27606E-02-5.25761E-03-5.23540E-14
 -1      4084 1.32179E-02-5.58382E-03-5.54825E-14
 -1      4085 1.33607E-02-5.69947E-03-5.66717E-14
 -1      4086 1.30463E-02-5.48891E-03-5.47083E-14
 -1      4087 1.35035E-02-5.81512E-03-5.78686E-14
 -1      4088 1.36464E-02-5.93077E-03-5.90703E-14
 -1      4089 1.33320E-02-5.72021E-03-5.70902E-14
 -1      4090 1.37083E-02-5.98739E-03-5.96942E-14
 -1      4091 1.37742E-02-6.04784E-03-6.03602E-14
 -1      4092 1.36605E-02-6.00571E-03-6.01574E-14
 -1      4093 1.35367E-02-5.89247E-03-5.89096E-14
 -1      4094 6.74406E-03-8.13481E-04-1.55092E-14
 -1      4095 3.85698E-03 1.13179E-05-5.81073E-15
 -1      4096 3.95389E-03 6.34604E-05-5.97723E-15
 -1      4097 8.66595E-03-1.93685E-03-2.20383E-14
 -1      4098 8.72756E-03-2.00285E-03-2.26922E-14
 -1      4099 8.40968E-03-1.80691E-03-2.11505E-14
 -1      4100 1.30613E-02-5.78910E-03-5.91017E-14
 -1      4101 8.02274E-03-1.69949E-03-2.13232E-14
 -1      4102 7.86643E-03-1.58814E-03-2.04840E-14
 -1      4103 7.89656E-03-1.58169E-03-2.02192E-14
 -1      4104 8.32794E-03-1.92114E-03-2.30415E-14
 -1      4105 8.17647E-03-1.81028E-03-2.21758E-14
 -1      4106 8.20779E-03-1.80054E-03-2.19020E-14
 -1      4107 8.62561E-03-2.14327E-03-2.48167E-14
 -1      4108 8.47754E-03-2.03201E-03-2.39224E-14
 -1      4109 8.50901E-03-2.01912E-03-2.36400E-14
 -1      4110 8.91828E-03-2.36692E-03-2.66403E-14
 -1      4111 8.77243E-03-2.25485E-03-2.57229E-14
 -1      4112 8.80351E-03-2.23943E-03-2.54326E-14
 -1      4113 9.20777E-03-2.59228E-03-2.85126E-14
 -1      4114 9.06332E-03-2.47937E-03-2.75707E-14
 -1      4115 9.09389E-03-2.46206E-03-2.72723E-14
 -1      4116 9.49533E-03-2.81922E-03-3.04298E-14
 -1      4117 9.35173E-03-2.70555E-03-2.94644E-14
 -1      4118 9.38180E-03-2.68694E-03-2.91582E-14
 -1      4119 9.78180E-03-3.04743E-03-3.23909E-14
 -1      4120 9.63866E-03-2.93318E-03-3.14052E-14
 -1      4121 9.66834E-03-2.91369E-03-3.10891E-14
 -1      4122 1.00677E-02-3.27662E-03-3.43927E-14
 -1      4123 9.92478E-03-3.16192E-03-3.33871E-14
 -1      4124 9.95415E-03-3.14187E-03-3.30631E-14
 -1      4125 1.03532E-02-3.50651E-03-3.64325E-14
 -1      4126 1.02105E-02-3.39149E-03-3.54089E-14
 -1      4127 1.02396E-02-3.37110E-03-3.50757E-14
 -1      4128 1.06387E-02-3.73688E-03-3.85085E-14
 -1      4129 1.04960E-02-3.62164E-03-3.74661E-14
 -1      4130 1.05250E-02-3.60105E-03-3.71268E-14
 -1      4131 1.09241E-02-3.96757E-03-4.06248E-14
 -1      4132 1.07814E-02-3.85219E-03-3.95611E-14
 -1      4133 1.08103E-02-3.83149E-03-3.92149E-14
 -1      4134 1.12096E-02-4.19847E-03-4.27811E-14
 -1      4135 1.10669E-02-4.08300E-03-4.16977E-14
 -1      4136 1.10957E-02-4.06225E-03-4.13428E-14
 -1      4137 1.14951E-02-4.42951E-03-4.49800E-14
 -1      4138 1.13523E-02-4.31397E-03-4.38746E-14
 -1      4139 1.13811E-02-4.29321E-03-4.35127E-14
 -1      4140 1.17807E-02-4.66063E-03-4.72263E-14
 -1      4141 1.16379E-02-4.54506E-03-4.60967E-14
 -1      4142 1.16666E-02-4.52429E-03-4.57239E-14
 -1      4143 1.20662E-02-4.89180E-03-4.95112E-14
 -1      4144 1.19234E-02-4.77621E-03-4.83632E-14
 -1      4145 1.19522E-02-4.75545E-03-4.79808E-14
 -1      4146 1.23519E-02-5.12301E-03-5.18363E-14
 -1      4147 1.22091E-02-5.00741E-03-5.06696E-14
 -1      4148 1.22378E-02-4.98665E-03-5.02787E-14
 -1      4149 1.26375E-02-5.35424E-03-5.41920E-14
 -1      4150 1.24947E-02-5.23863E-03-5.30115E-14
 -1      4151 1.25234E-02-5.21789E-03-5.26133E-14
 -1      4152 1.29232E-02-5.58549E-03-5.65758E-14
 -1      4153 1.27804E-02-5.46986E-03-5.53797E-14
 -1      4154 1.28091E-02-5.44913E-03-5.49765E-14
 -1      4155 3.37479E-03 1.47831E-04-4.47017E-15
 -1      4156 3.21087E-03 1.45649E-04-4.10240E-15
 -1      4157 3.12571E-03 9.48825E-05-3.98988E-15
 -1      4158 3.27930E-03 1.42047E-05-4.45432E-15
 -1      4159 3.44316E-03 3.26123E-05-4.79605E-15
 -1      4160 1.61433E-03-9.41302E-05-1.41541E-15
 -1      4161 3.69217E-03 1.64494E-05-5.40556E-15
 -1      4162 7.24657E-03-1.13971E-03-1.71358E-14
 -1      4163 7.39864E-03-1.22032E-03-1.73651E-14
 -1      4164 7.60315E-03-1.34840E-03-1.81601E-14
 -1      4165 9.77231E-03-2.79909E-03-2.94353E-14
 -1      4166 9.91332E-03-2.91154E-03-3.03962E-14
 -1      4167 9.88239E-03-2.93194E-03-3.07221E-14
 -1      4168 2.35351E-03 1.87285E-04-2.31129E-15
 -1      4169 1.97644E-03-1.04368E-04-2.01213E-15
 -1      4170 2.11934E-03-1.13107E-04-2.27724E-15
 -1      4171 9.49105E-03-2.57674E-03-2.75453E-14
 -1      4172 9.63153E-03-2.68746E-03-2.84857E-14
 -1      4173 9.59918E-03-2.70724E-03-2.88034E-14
 -1      4174 2.49562E-03 1.01896E-04-2.69407E-15
 -1      4175 2.42475E-03 1.45413E-04-2.50025E-15
 -1      4176 2.27315E-03 1.45146E-04-2.22790E-15
 -1      4177 2.55101E-03-1.46025E-04-3.16962E-15
 -1      4178 2.69640E-03-1.59766E-04-3.49914E-15
 -1      4179 2.26273E-03-1.22854E-04-2.55830E-15
 -1      4180 2.40646E-03-1.33800E-04-2.85594E-15
 -1      4181 2.19709E-03-8.20419E-05-2.38576E-15
 -1      4182 3.53330E-03 7.85603E-05-4.93647E-15
 -1      4183 1.31450E-02-5.74334E-03-5.81227E-14
 -1      4184 1.30190E-02-5.65965E-03-5.73332E-14
 -1      4185 1.30477E-02-5.63893E-03-5.69220E-14
 -1      4186 1.32392E-02-5.78726E-03-5.84360E-14
 -1      4187 1.97144E-03 1.38740E-04-1.73254E-15
 -1      4188 1.83168E-03 7.74407E-05-1.58799E-15
 -1      4189 1.95618E-03 5.62640E-05-1.80793E-15
 -1      4190 2.12024E-03 1.40246E-04-1.97279E-15
 -1      4191 7.88021E-03-1.51412E-03-1.92126E-14
 -1      4192 8.17402E-03-1.67859E-03-2.02765E-14
 -1      4193 7.73706E-03-1.44564E-03-1.89593E-14
 -1      4194 8.24328E-03-1.74205E-03-2.09047E-14
 -1      4195 2.10731E-03 5.70495E-05-2.05738E-15
 -1      4196 2.02517E-03 1.70170E-05-1.96657E-15
 -1      4197 6.85286E-03-8.86413E-04-1.58683E-14
 -1      4198 7.02544E-03-1.00659E-03-1.65623E-14
 -1      4199 2.01129E-03-1.81014E-05-1.98298E-15
 -1      4200 7.40583E-03-1.26247E-03-1.81087E-14
 -1      4201 7.23553E-03-1.14458E-03-1.73277E-14
 -1      4202 8.61666E-03-1.97623E-03-2.26947E-14
 -1      4203 8.86453E-03-2.10828E-03-2.36120E-14
 -1      4204 3.04152E-03-1.13761E-04-4.15557E-15
 -1      4205 3.09998E-03-6.93399E-05-4.20119E-15
 -1      4206 4.05019E-03 8.96962E-05-6.18785E-15
 -1      4207 3.10865E-03-2.60910E-05-4.14481E-15
 -1      4208 3.12420E-03 5.20353E-05-4.05215E-15
 -1      4209 2.96274E-03 5.46591E-05-3.70174E-15
 -1      4210 2.95314E-03-2.82237E-05-3.81399E-15
 -1      4211 3.78962E-03 1.40530E-04-5.47036E-15
 -1      4212 3.61924E-03 1.34617E-04-5.06229E-15
 -1      4213 1.36941E-02-6.07884E-03-6.11426E-14
 -1      4214 7.60036E-03-1.37394E-03-1.86488E-14
 -1      4215 9.00520E-03-2.21303E-03-2.44990E-14
 -1      4216 3.88016E-03 9.05789E-05-5.75810E-15
 -1      4217 2.81620E-03-1.72943E-04-3.78163E-15
 -1      4218 2.94728E-03-1.86678E-04-4.09591E-15
 -1      4219 3.00720E-03-1.47887E-04-4.14721E-15
 -1      4220 2.75892E-03-1.23813E-04-3.56826E-15
 -1      4221 9.35071E-03-2.46718E-03-2.66156E-14
 -1      4222 9.31620E-03-2.48584E-03-2.69260E-14
 -1      4223 9.21065E-03-2.35888E-03-2.56998E-14
 -1      4224 2.80421E-03 5.81720E-05-3.36618E-15
 -1      4225 2.64814E-03 6.17860E-05-3.04661E-15
 -1      4226 2.80090E-03 1.84362E-05-3.42016E-15
 -1      4227 2.49429E-03 6.52724E-05-2.74334E-15
 -1      4228 2.48918E-03-1.01347E-04-2.97521E-15
 -1      4229 7.87006E-03-1.54051E-03-1.97155E-14
 -1      4230 8.96703E-03-2.22913E-03-2.47974E-14
 -1      4231 2.18982E-03 1.00520E-04-2.14298E-15
 -1      4232 2.25944E-03 5.83584E-05-2.32034E-15
 -1      4233 9.91752E-03-3.03675E-03-3.18887E-14
 -1      4234 1.00671E-02-3.15641E-03-3.29287E-14
 -1      4235 1.02095E-02-3.27071E-03-3.39267E-14
 -1      4236 1.03520E-02-3.38529E-03-3.49343E-14
 -1      4237 1.04945E-02-3.50009E-03-3.59537E-14
 -1      4238 1.06370E-02-3.61507E-03-3.69813E-14
 -1      4239 1.07795E-02-3.73020E-03-3.80192E-14
 -1      4240 1.09221E-02-3.84545E-03-3.90653E-14
 -1      4241 1.10647E-02-3.96078E-03-4.01225E-14
 -1      4242 1.12073E-02-4.07619E-03-4.11902E-14
 -1      4243 1.13500E-02-4.19166E-03-4.22668E-14
 -1      4244 1.14927E-02-4.30717E-03-4.33533E-14
 -1      4245 1.16354E-02-4.42271E-03-4.44500E-14
 -1      4246 1.17781E-02-4.53828E-03-4.55588E-14
 -1      4247 1.19209E-02-4.65387E-03-4.66807E-14
 -1      4248 1.20708E-02-4.77526E-03-4.78671E-14
 -1      4249 1.22136E-02-4.89087E-03-4.90068E-14
 -1      4250 1.23564E-02-5.00650E-03-5.01593E-14
 -1      4251 1.24992E-02-5.12212E-03-5.13181E-14
 -1      4252 1.26420E-02-5.23776E-03-5.24860E-14
 -1      4253 1.27849E-02-5.35339E-03-5.36631E-14
 -1      4254 1.29277E-02-5.46903E-03-5.48460E-14
 -1      4255 1.30705E-02-5.58466E-03-5.60356E-14
 -1      4256 1.32134E-02-5.70030E-03-5.72319E-14
 -1      4257 9.63254E-03-2.81012E-03-2.99420E-14
 -1      4258 9.77505E-03-2.92320E-03-3.09112E-14
 -1      4259 8.70460E-03-2.10597E-03-2.40735E-14
 -1      4260 8.55758E-03-1.99833E-03-2.31906E-14
 -1      4261 9.06043E-03-2.36432E-03-2.61798E-14
 -1      4262 8.91625E-03-2.25491E-03-2.52678E-14
 -1      4263 9.34707E-03-2.58574E-03-2.80390E-14
 -1      4264 9.20392E-03-2.47460E-03-2.71037E-14
 -1      4265 9.48987E-03-2.69760E-03-2.89851E-14
 -1      4266 8.41259E-03-1.88959E-03-2.22794E-14
 -1      4267 1.87608E-03-9.10748E-05-1.82853E-15
 -1      4268 1.75169E-03-1.02839E-04-1.63445E-15
 -1      4269 1.35287E-02-5.96187E-03-5.99915E-14
 -1      4270 1.95127E-03-6.09247E-05-1.92740E-15
 -1      4271 8.02874E-03-1.64881E-03-2.05414E-14
 -1      4272 2.42507E-03-5.67398E-05-2.78445E-15
 -1      4273 2.57438E-03-6.57993E-05-3.09237E-15
 -1      4274 2.40838E-03 1.96542E-05-2.64551E-15
 -1      4275 2.91404E-03-1.03061E-04-3.86084E-15
 -1      4276 8.26187E-03-1.78350E-03-2.14249E-14
 -1      4277 2.11348E-03-3.05163E-05-2.17396E-15
 -1      4278 2.26038E-03-3.71766E-05-2.44664E-15
 -1      4279 2.85623E-03-6.15355E-05-3.66519E-15
 -1      4280 2.86317E-03-2.16466E-05-3.61342E-15
 -1      4281 2.70751E-03-1.46122E-05-3.28105E-15
 -1      4282 2.82633E-03-9.44042E-05-3.65875E-15
 -1      4283 1.35467E-02-5.94671E-03-5.96937E-14
 -1      4284 1.33530E-02-5.84626E-03-5.89010E-14
 -1      4285 1.32572E-02-5.77209E-03-5.81442E-14
 -1      4286 1.34848E-02-5.89009E-03-5.90706E-14
 -1      4287 2.63828E-03-3.62706E-05-3.17495E-15
 -1      4288 2.70198E-03-8.43038E-05-3.38217E-15
 -1      4289 1.31615E-02-5.69792E-03-5.73861E-14
 -1      4290 1.34229E-02-5.83347E-03-5.84492E-14
 -1      4291 2.34222E-03-1.06300E-06-2.55012E-15
 -1      4292 2.57710E-03 1.58544E-06-2.99596E-15
 -3
    1PSTEP                         2           1           1          
  100CL  101 1.000000000        4292                     0    1           1
 -4  STRESS      6    1
 -5  SXX         1    4    1    1
 -5  SYY         1    4    2    2
 -5  SZZ         1    4    3    3
 -5  SXY         1    4    1    2
 -5  SYZ         1    4    2    3
 -5  SZX         1    4    3    1
 -1         1 9.77975E+01 1.82784E+00 9.01247E+00 2.06316E-01-1.56819E-14 5.48779E-13
 -1         2-7.92562E-01-2.81611E+01-3.48772E+00 3.67224E-01 1.22788E-12 2.72525E-14
 -1         3 1.99998E+01 1.38223E-05-3.23535E-06 1.33706E-05-4.28448E-13-3.86877E-13
 -1         4 1.99998E+01 1.99171E-05-8.67354E-06-2.26577E-05 6.31665E-14 1.79863E-13
 -1         5 3.27794E+01 6.14550E+00 2.73949E+00 6.22134E+00-2.97332E-14 2.03054E-12
 -1         6 3.56716E+01 1.22311E+01 5.09840E+00-8.61991E+00-1.22902E-13 1.22642E-12
 -1         7 2.08509E+01 6.10759E+00-1.22439E-01-4.69521E+00-1.93456E-14-6.02990E-14
 -1         8 1.97140E+01 5.94642E+00 5.39481E-02-3.23182E+00-1.61954E-14-3.96939E-13
 -1         9 1.91714E+01 5.78131E+00 5.01160E-02-2.47839E+00-1.04378E-14-5.40911E-13
 -1        10 1.89110E+01 5.69605E+00 5.03905E-02-1.90685E+00-2.05218E-15-5.93192E-13
 -1        11 1.87675E+01 5.64893E+00 4.81412E-02-1.42412E+00-9.77517E-16-6.00781E-13
 -1        12 1.86875E+01 5.62244E+00 4.58884E-02-1.00051E+00 3.09605E-15-5.74556E-13
 -1        13 1.86451E+01 5.60853E+00 4.46571E-02-5.99170E-01 2.09555E-15-5.27890E-13
 -1        14 1.86304E+01 5.60364E+00 4.46342E-02-2.10564E-01 1.10987E-14-4.95928E-13
 -1        15 1.86362E+01 5.60554E+00 4.56347E-02 1.78600E-01 1.09040E-14-4.55109E-13
 -1        16 1.86599E+01 5.61333E+00 4.73587E-02 5.79244E-01 1.44453E-14-4.05612E-13
 -1        17 1.87035E+01 5.62777E+00 4.94961E-02 1.00163E+00 1.67396E-14-3.31897E-13
 -1        18 1.87760E+01 5.65213E+00 5.14850E-02 1.44929E+00 1.87940E-14-2.36678E-13
 -1        19 1.89060E+01 5.69558E+00 5.23144E-02 1.95507E+00 2.60382E-14-9.96004E-14
 -1        20 1.91543E+01 5.77810E+00 4.97019E-02 2.54354E+00 2.89543E-14 1.01360E-13
 -1        21 1.96843E+01 5.95462E+00 4.65253E-02 3.29284E+00 3.17732E-14 4.36570E-13
 -1        22 2.12232E+01 6.38718E+00 1.40425E-01 4.51251E+00 2.56739E-15 1.00543E-12
 -1        23 2.30297E+01-1.38096E+00-9.39557E-01-7.03356E-01-8.20212E-14 8.07535E-13
 -1        24 1.94182E+01-1.00241E-01-3.09297E-01 6.32304E-02-2.54198E-14 4.73998E-13
 -1        25 1.87807E+01-5.81514E-02-6.96708E-02 5.98643E-02-1.05120E-14 1.36191E-13
 -1        26 1.86504E+01-2.54349E-02-9.24482E-03 3.19276E-02-2.57173E-16-1.26441E-13
 -1        27 1.87795E+01-1.74485E-02-3.90924E-03 2.17480E-02-3.86778E-15-2.49030E-13
 -1        28 1.90926E+01-1.52937E-02-8.29359E-03 1.64883E-02-4.10674E-15-3.27498E-13
 -1        29 1.95919E+01-1.88779E-02-1.68901E-02 1.36748E-02-2.78803E-15-4.36585E-13
 -1        30 2.03888E+01-2.46152E-02-3.26214E-02 1.96241E-02-1.83349E-14-5.41742E-13
 -1        31 2.15643E+01-3.62108E-02-6.04500E-02 3.31693E-02 1.57313E-14-5.45047E-13
 -1        32 2.34037E+01-5.07857E-02-1.05494E-01 6.65195E-02-1.68017E-14-5.20143E-13
 -1        33 2.62987E+01-6.26303E-02-1.59538E-01 1.36389E-01 1.70970E-14-3.44759E-13
 -1        34 3.07216E+01-5.29259E-02-1.63687E-01 2.63520E-01-1.91353E-14-2.26333E-13
 -1        35 3.68716E+01 1.51518E-02 5.03297E-02 4.31516E-01 3.68585E-15-1.43344E-13
 -1        36 4.33919E+01 1.10477E-01 6.23185E-01 3.72489E-01-3.48515E-14 2.21975E-14
 -1        37 4.57768E+01 1.82932E-01 1.11035E+00-3.23733E-01-2.71658E-15 1.02335E-13
 -1        38 3.86930E+01 8.92063E-02 1.55463E-01-1.61048E+00 3.55081E-14 7.39409E-14
 -1        39 2.40393E+01-1.74400E-01-2.57310E+00-2.06398E+00-8.07202E-14-2.59348E-13
 -1        40 1.42092E+01-1.24249E-01-4.52910E+00-2.48361E-01-7.78960E-14-1.57609E-12
 -1        41 1.92019E+01-1.71989E-01-3.56181E+00 1.73232E+00 3.07254E-14-2.26652E-12
 -1        42 3.33751E+01 4.49100E-02-8.12919E-01 1.89090E+00 5.87724E-15-2.40974E-12
 -1        43 4.49096E+01 1.07079E-01 1.06797E+00 7.65908E-01-9.22526E-15-2.15136E-12
 -1        44 4.50620E+01 1.02458E-01 8.17289E-01-2.55883E-01 6.36383E-14-1.26358E-12
 -1        45 3.87462E+01 2.35096E-02 1.32889E-01-3.64904E-01-3.72124E-14-7.10002E-13
 -1        46 3.23082E+01-3.74189E-02-1.55396E-01-2.41181E-01 6.71425E-15-7.15011E-13
 -1        47 2.75882E+01-5.03363E-02-1.77472E-01-1.28804E-01 3.96384E-15-8.79186E-13
 -1        48 2.45356E+01-4.22429E-02-1.23880E-01-6.23318E-02 7.88449E-14-7.55011E-13
 -1        49 2.26690E+01-3.00855E-02-7.33170E-02-2.83666E-02-1.13144E-13-1.49410E-12
 -1        50 2.15541E+01-2.02545E-02-4.13050E-02-1.32066E-02 1.02440E-13-1.85963E-12
 -1        51 2.08782E+01-1.20413E-02-2.12958E-02-4.06754E-03 4.44068E-15-1.62023E-12
 -1        52 2.05070E+01-7.73360E-03-1.17891E-02-1.30429E-03-4.18365E-14-1.42469E-12
 -1        53 2.02907E+01-4.74383E-03-6.49528E-03-4.73170E-05 4.90162E-14-1.06013E-12
 -1        54 2.01651E+01-2.89635E-03-3.57782E-03 3.99075E-04 8.72935E-14-7.44707E-13
 -1        55 2.00925E+01-1.76073E-03-1.96652E-03 4.90774E-04-2.43650E-14-4.47647E-13
 -1        56 2.00506E+01-1.06791E-03-1.07595E-03 4.46278E-04 8.37262E-14-7.13206E-13
 -1        57 2.00265E+01-6.45994E-04-5.85447E-04 3.60946E-04-1.32116E-13-1.21053E-12
 -1        58 2.00127E+01-4.00611E-04-3.21220E-04 2.57917E-04 5.64871E-14-1.19271E-12
 -1        59 2.00046E+01-2.30477E-04-1.61534E-04 2.10685E-04-6.22042E-14-1.09279E-12
 -1        60 2.00004E+01-1.43318E-04-8.64699E-05 1.48566E-04-1.95164E-15-1.04322E-12
 -1        61 1.99982E+01-8.81601E-05-4.52533E-05 1.08398E-04-1.33048E-13-7.08422E-13
 -1        62 1.99971E+01-5.46645E-05-2.30427E-05 7.95100E-05 2.20210E-13-3.15299E-13
 -1        63 1.99967E+01-3.40520E-05-1.11335E-05 5.89940E-05-6.36967E-14-9.25307E-14
 -1        64 1.99967E+01-2.10897E-05-4.73801E-06 4.44723E-05 2.81082E-14-4.45597E-13
 -1        65 1.99970E+01-1.33468E-05-1.20648E-06 3.36343E-05-2.96764E-14-7.80672E-13
 -1        66 1.99974E+01-7.65237E-06 6.10088E-07 2.72119E-05 9.99203E-14-6.15335E-13
 -1        67 1.99978E+01-4.05230E-06 1.87876E-06 2.19671E-05-1.20890E-13-3.25310E-13
 -1        68 1.99983E+01-1.44370E-06 2.91566E-06 1.86434E-05-2.60780E-14 1.89869E-13
 -1        69 1.99988E+01 7.68172E-07 4.60766E-06 1.63854E-05 2.53008E-13 1.00275E-12
 -1        70 1.99992E+01 2.96970E-06 8.10495E-06 1.45195E-05-9.69506E-14 1.95089E-12
 -1        71 1.99996E+01 6.09816E-06 1.40774E-05 1.20184E-05-8.08605E-14 1.19202E-12
 -1        72 1.99998E+01 1.43320E-06 1.10277E-05-6.92630E-07 2.02807E-13 4.99575E-13
 -1        73 2.10739E+01-4.05122E-01-9.81031E-01-3.13400E-01 5.87377E-15 2.01668E-12
 -1        74 1.93798E+01-6.61389E-02-2.90265E-01-5.49552E-02 3.32026E-15 1.75695E-12
 -1        75 1.87446E+01-2.05177E-02-6.29188E-02-2.23288E-02 2.22142E-15 1.54232E-12
 -1        76 1.85403E+01-9.33724E-03-7.78518E-03-1.77707E-02 4.43341E-15 1.36858E-12
 -1        77 1.85309E+01-3.65006E-03 2.80970E-03-1.48575E-02 1.66485E-15 1.27798E-12
 -1        78 1.85940E+01-1.44091E-04 5.28370E-03-1.27214E-02 4.34373E-15 1.17775E-12
 -1        79 1.86567E+01 2.26557E-03 7.33393E-03-1.09468E-02-7.16061E-16 1.09772E-12
 -1        80 1.86667E+01 4.00405E-03 9.73252E-03-8.93373E-03 1.01904E-14 1.04537E-12
 -1        81 1.85822E+01 5.11999E-03 1.20831E-02-6.14813E-03-2.84837E-14 1.01421E-12
 -1        82 1.83702E+01 5.45077E-03 1.37228E-02-2.14941E-03 2.06755E-14 9.86270E-13
 -1        83 1.80098E+01 4.74090E-03 1.38000E-02 3.28322E-03 8.72593E-15 8.91599E-13
 -1        84 1.75002E+01 2.78916E-03 1.14056E-02 9.92412E-03 4.79559E-15 8.58132E-13
 -1        85 1.68689E+01-3.69736E-04 5.93151E-03 1.68884E-02 1.78101E-14 8.58169E-13
 -1        86 1.61771E+01-4.31284E-03-2.43174E-03 2.26181E-02-1.95535E-14 1.00271E-12
 -1        87 1.55166E+01-8.21486E-03-1.23325E-02 2.52403E-02 4.27564E-14 8.36430E-13
 -1        88 1.49956E+01-1.10544E-02-2.13792E-02 2.33004E-02-6.33352E-14 6.88375E-13
 -1        89 1.47122E+01-1.19960E-02-2.69086E-02 1.65643E-02 5.00294E-15 7.74575E-13
 -1        90 1.47274E+01-1.07572E-02-2.71372E-02 6.38248E-03 3.42248E-14 8.08677E-13
 -1        91 1.50454E+01-7.73624E-03-2.20324E-02-4.72196E-03-1.11566E-14 6.76609E-13
 -1        92 1.56133E+01-3.82042E-03-1.33286E-02-1.40743E-02-1.85617E-14 7.05456E-13
 -1        93 1.63386E+01-2.88445E-06-3.67906E-03-1.98777E-02 7.32557E-15 7.05805E-13
 -1        94 1.71170E+01 2.96913E-03 4.49814E-03-2.16910E-02-2.01106E-14 7.55764E-13
 -1        95 1.78579E+01 4.76046E-03 9.81941E-03-2.02291E-02 2.60635E-14 4.31970E-13
 -1        96 1.85000E+01 5.41398E-03 1.20797E-02-1.67764E-02-1.30201E-14 2.81570E-13
 -1        97 1.90140E+01 5.20446E-03 1.19034E-02-1.26090E-02-2.38170E-14 5.73817E-13
 -1        98 1.93974E+01 4.47841E-03 1.02369E-02-8.65463E-03 3.87605E-14 7.19877E-13
 -1        99 1.96650E+01 3.54204E-03 7.95898E-03-5.41114E-03-5.24541E-14 3.88743E-13
 -1       100 1.98396E+01 2.61043E-03 5.68853E-03-3.02599E-03-2.11152E-14 1.71660E-13
 -1       101 1.99451E+01 1.80404E-03 3.76073E-03-1.43062E-03 2.93536E-15 1.51704E-13
 -1       102 2.00029E+01 1.16938E-03 2.29165E-03-4.60466E-04 3.81890E-14-2.03662E-13
 -1       103 2.00300E+01 7.05812E-04 1.26403E-03 6.54249E-05-5.75395E-14-3.46766E-13
 -1       104 2.00387E+01 3.88638E-04 5.98806E-04 3.03566E-04 1.12742E-14 7.82835E-14
 -1       105 2.00375E+01 1.85008E-04 2.01528E-04 3.72094E-04 7.26800E-15 7.09444E-14
 -1       106 2.00317E+01 6.31235E-05-1.32137E-05 3.51721E-04 5.40486E-14-5.65228E-14
 -1       107 2.00245E+01-3.55627E-06-1.12515E-04 2.92959E-04-1.88614E-14-3.46203E-13
 -1       108 2.00176E+01-3.51882E-05-1.44318E-04 2.24632E-04-7.61537E-14-3.09934E-13
 -1       109 2.00117E+01-4.60306E-05-1.40389E-04 1.61319E-04 6.26978E-14-8.48067E-14
 -1       110 2.00072E+01-4.55718E-05-1.20354E-04 1.08979E-04-9.17546E-14 9.66316E-14
 -1       111 2.00038E+01-3.97629E-05-9.54532E-05 6.88072E-05 1.66168E-15 3.93297E-13
 -1       112 2.00015E+01-3.20969E-05-7.15154E-05 3.96668E-05 5.71495E-14 2.56109E-13
 -1       113 2.00000E+01-2.44515E-05-5.10966E-05 1.95209E-05-5.03926E-14 7.43182E-14
 -1       114 1.99992E+01-1.76963E-05-3.49017E-05 6.19280E-06-1.65959E-14 3.46235E-13
 -1       115 1.99988E+01-1.21061E-05-2.26748E-05-2.27439E-06-1.73297E-14 2.25940E-13
 -1       116 1.99987E+01-7.62972E-06-1.37139E-05-7.47978E-06 7.06918E-14-2.40620E-13
 -1       117 1.99988E+01-4.05378E-06-7.11105E-06-1.06504E-05-4.56258E-14-3.71186E-13
 -1       118 1.99991E+01-1.06698E-06-1.74005E-06-1.26828E-05 1.95892E-14-1.09100E-12
 -1       119 1.99994E+01 1.55771E-06 3.74863E-06-1.40015E-05 8.95254E-14-1.34125E-12
 -1       120 1.99996E+01 3.84361E-06 9.82272E-06-1.37823E-05-8.09596E-14-7.72835E-13
 -1       121 1.99998E+01-2.47136E-06 7.42439E-06-6.69347E-06 1.80965E-13-7.71988E-13
 -1       122 1.99998E+01-2.78353E-05 6.04574E-06-5.17727E-06-6.46900E-13 6.00687E-14
 -1       123 1.99998E+01-1.85041E-04 6.90591E-06-1.07346E-05-5.90195E-13 9.59077E-14
 -1       124 1.99998E+01-4.20581E-04 1.16230E-06-1.17469E-05-1.21689E-13-8.54750E-15
 -1       125 1.99998E+01-6.67729E-04-2.17487E-06-9.97209E-06-1.68464E-13-6.30746E-14
 -1       126 1.99998E+01-8.95010E-04-3.30974E-06-7.95608E-06 4.60508E-13-2.41312E-13
 -1       127 1.99998E+01-1.08699E-03-3.73749E-06-6.29291E-06 1.84006E-13 5.89123E-14
 -1       128 1.99998E+01-1.24311E-03-4.17297E-06-4.75635E-06 3.28586E-13 2.18107E-13
 -1       129 1.99998E+01-1.35305E-03-5.04831E-06-3.10233E-06-3.21828E-13-1.88366E-13
 -1       130 1.99998E+01-1.40642E-03-6.30581E-06-9.77018E-07-4.99614E-13 1.41433E-13
 -1       131 1.99998E+01-1.38990E-03-7.61237E-06 1.87864E-06-3.19366E-14-1.40584E-13
 -1       132 1.99998E+01-1.29089E-03-8.33609E-06 5.65077E-06-3.91401E-13-2.98910E-14
 -1       133 1.99998E+01-1.10710E-03-7.80529E-06 9.58724E-06-2.03816E-13 1.92378E-13
 -1       134 1.99998E+01-8.40408E-04-4.87289E-06 1.36058E-05-8.13625E-13-8.29994E-14
 -1       135 1.99998E+01-5.23147E-04 1.58001E-06 1.60268E-05-7.70195E-13 5.34625E-14
 -1       136 1.99998E+01-2.17180E-04 9.98477E-06 1.13068E-05 8.08245E-14-1.44546E-13
 -1       137 1.99998E+01-1.45061E-05 1.07517E-05-5.31729E-06 2.19146E-13 1.60096E-13
 -1       138-1.28454E+00-1.97382E+01-2.88928E+00-3.52161E+00 1.07958E-12 1.15519E-13
 -1       139-7.83393E-01-5.73579E+00-1.94148E+00-1.54765E+00 8.72857E-13 4.12947E-13
 -1       140 5.34781E+00 7.36444E+00-6.68949E-01 6.44262E+00 1.28730E-12 1.10978E-12
 -1       141 1.97978E+01 1.32892E+01 7.53053E-01 1.59800E+01 1.12921E-12 1.20487E-12
 -1       142 4.14437E+01 1.16645E+01 2.12977E+00 2.13273E+01 6.14037E-13 1.15580E-12
 -1       143 6.18424E+01 5.44252E+00 3.14162E+00 1.71002E+01 1.26316E-13 3.39062E-13
 -1       144 7.27169E+01 1.25839E+00 3.61923E+00 4.57076E+00-3.89792E-14-9.11882E-13
 -1       145 6.97608E+01 2.44052E+00 3.49797E+00-9.91620E+00 3.15052E-13-1.94064E-12
 -1       146 5.37764E+01 8.15479E+00 2.78223E+00-1.98194E+01 1.07042E-12-2.58205E-12
 -1       147 3.20792E+01 1.29462E+01 1.59400E+00-1.98451E+01 1.80017E-12-2.72538E-12
 -1       148 1.31778E+01 1.17909E+01 1.95947E-01-1.23756E+01 2.22039E-12-2.17520E-12
 -1       149 2.02022E+00 2.92130E+00-1.19031E+00-2.74751E+00 2.02505E-12-1.28048E-12
 -1       150-1.42785E+00-1.09949E+01-2.35064E+00 3.23425E+00 1.21086E-12-4.84918E-13
 -1       151-9.97780E-01-2.38737E+01-3.16491E+00 2.89984E+00-1.75027E-13 3.52843E-15
 -1       152-1.03202E+00-2.90618E+01-3.57038E+00-2.31964E+00-1.54558E-12-1.87170E-13
 -1       153-2.80794E+00-2.48712E+01-3.69919E+00-6.89663E+00-2.50999E-12-7.86336E-13
 -1       154-4.19508E+00-1.39900E+01-3.53393E+00-6.90406E+00-2.68113E-12-1.47912E-12
 -1       155 1.08221E-01-1.50402E+00-2.81814E+00 2.48009E-03-2.17804E-12-1.79667E-12
 -1       156 1.69912E+01 7.46497E+00-9.23404E-01 1.15752E+01-1.45461E-12-1.94622E-12
 -1       157 4.77229E+01 8.97367E+00 2.69404E+00 2.02393E+01-8.71081E-13-1.85341E-12
 -1       158 8.23906E+01 4.63908E+00 7.00621E+00 1.59317E+01-2.79846E-13-9.48353E-13
 -1       159 8.13400E+01 4.87523E+00 6.92334E+00-1.66210E+01-3.90687E-13 1.53622E-12
 -1       160 4.41395E+01 9.09674E+00 2.31535E+00-1.94455E+01-7.11986E-13 1.75371E-12
 -1       161 1.34371E+01 6.71418E+00-1.27713E+00-9.74775E+00-1.01552E-12 1.18117E-12
 -1       162-1.47315E+00-3.57368E+00-3.06012E+00 1.76185E+00-1.33749E-12 1.05704E-12
 -1       163-4.33227E+00-1.72049E+01-3.69094E+00 7.74081E+00-4.62130E-13 3.80113E-13
 -1       164-2.20478E+00-2.72502E+01-3.77041E+00 6.07560E+00 6.35839E-13-3.51131E-13
 -1       165 2.10628E+01 3.68989E+00-5.64870E-02-3.56418E+00-2.23221E-13-2.00187E-13
 -1       166 2.00341E+01 4.21661E+00-4.52671E-02-2.75647E+00-1.71047E-13-3.93723E-13
 -1       167 1.95310E+01 4.49630E+00-3.08604E-02-2.14585E+00-1.00544E-13-4.81965E-13
 -1       168 1.92600E+01 4.64291E+00-2.30818E-02-1.63574E+00-4.89951E-14-5.04791E-13
 -1       169 1.91060E+01 4.72703E+00-1.91319E-02-1.19752E+00-5.53138E-15-4.87055E-13
 -1       170 1.90188E+01 4.77481E+00-1.70670E-02-7.90424E-01 3.96456E-14-4.61665E-13
 -1       171 1.89799E+01 4.79512E+00-1.61207E-02-4.03098E-01 9.54912E-14-4.26225E-13
 -1       172 1.89766E+01 4.79406E+00-1.59233E-02-2.05982E-02 1.36219E-13-3.95460E-13
 -1       173 1.90018E+01 4.77506E+00-1.63626E-02 3.68745E-01 1.72580E-13-3.60341E-13
 -1       174 1.90544E+01 4.73871E+00-1.75182E-02 7.74823E-01 1.96923E-13-3.13412E-13
 -1       175 1.91398E+01 4.68298E+00-1.97667E-02 1.20019E+00 2.22486E-13-2.34823E-13
 -1       176 1.92832E+01 4.59604E+00-2.41207E-02 1.67249E+00 2.56970E-13-1.22189E-13
 -1       177 1.95363E+01 4.45264E+00-3.27698E-02 2.20531E+00 2.79421E-13 3.21878E-14
 -1       178 2.00303E+01 4.18018E+00-4.72797E-02 2.83152E+00 2.69429E-13 2.71300E-13
 -1       179 2.11589E+01 3.46164E+00-6.00815E-02 3.52274E+00 2.07083E-13 6.37358E-13
 -1       180 2.24484E+01 1.14161E+00-3.36582E-01 3.00426E+00 1.16877E-13 1.08069E-12
 -1       181 2.20227E+01 8.56552E-01 1.13986E-03-1.92363E+00-2.03476E-13 8.06785E-14
 -1       182 2.05366E+01 1.94063E-01-9.29625E-03-7.21167E-01-1.84599E-13 1.02782E-15
 -1       183 1.98179E+01 1.11442E-01 1.45915E-02-2.23872E-01-1.42868E-13-5.87924E-14
 -1       184 1.95645E+01 6.52486E-02 1.15674E-02 3.07308E-02-9.37622E-14-1.44693E-13
 -1       185 1.95705E+01 5.38109E-02 7.62444E-03 2.02230E-01-6.11674E-14-2.03577E-13
 -1       186 1.97720E+01 6.23494E-02 6.31744E-03 3.62174E-01-6.56866E-14-2.23547E-13
 -1       187 2.01845E+01 9.32087E-02 6.79060E-03 5.74731E-01-2.42887E-14-2.43864E-13
 -1       188 2.08073E+01 1.48944E-01 7.91893E-03 8.78575E-01-2.30497E-14-2.17557E-13
 -1       189 2.17300E+01 2.39523E-01 7.98079E-03 1.34885E+00-2.31325E-15-2.49133E-13
 -1       190 2.30577E+01 3.66474E-01 5.01378E-03 2.06216E+00 8.77579E-14-1.62626E-13
 -1       191 2.48993E+01 4.92239E-01 1.42390E-03 3.04761E+00 9.60863E-14-1.34356E-13
 -1       192 2.73150E+01 4.52759E-01 1.41141E-02 4.11391E+00 9.11326E-14 2.93064E-14
 -1       193 3.02682E+01-2.21706E-01 7.12353E-02 4.47765E+00 1.08753E-13 1.52947E-13
 -1       194 3.34122E+01-1.84620E+00 1.42494E-01 2.76703E+00 1.48638E-13 3.18117E-13
 -1       195 3.99497E+01-1.31085E+00-2.12100E-01-7.07161E+00-2.96374E-13 2.96846E-14
 -1       196 4.23547E+01 3.40275E+00 3.06899E-02-4.66694E+00-8.01470E-13-3.63404E-13
 -1       197 4.28383E+01 4.52305E+00 1.43270E-01 2.14207E+00-4.88221E-13-5.63855E-13
 -1       198 4.03917E+01 4.48746E-01-2.87329E-01 7.09276E+00-1.74333E-13-9.34183E-13
 -1       199 3.86605E+01-3.18585E+00-9.52483E-02 4.99692E+00 2.01492E-13-9.76868E-13
 -1       200 3.59524E+01-1.90414E+00 2.01284E-01-1.37574E+00 4.28650E-13-8.06461E-13
 -1       201 3.23535E+01-2.78930E-01 9.43121E-02-3.91165E+00 2.63591E-13-7.44484E-13
 -1       202 2.89551E+01 3.26467E-01 7.47123E-03-3.77833E+00 2.74650E-15-5.71838E-13
 -1       203 2.61344E+01 3.87940E-01-1.18329E-02-2.80038E+00-8.28339E-14-6.34806E-13
 -1       204 2.40334E+01 2.93983E-01-5.19582E-03-1.85301E+00-1.06647E-13-9.35261E-13
 -1       205 2.25795E+01 1.92573E-01 1.78064E-03-1.16078E+00-3.13669E-13-1.17805E-12
 -1       206 2.16179E+01 1.18774E-01 4.05779E-03-7.07368E-01-1.00104E-13-9.79476E-13
 -1       207 2.09802E+01 6.92531E-02 4.29949E-03-4.14472E-01 2.52907E-13-1.12428E-12
 -1       208 2.06040E+01 4.07797E-02 3.02949E-03-2.46832E-01 1.26383E-13-9.16345E-13
 -1       209 2.03697E+01 2.39280E-02 2.06843E-03-1.46493E-01 1.86213E-13-8.20594E-13
 -1       210 2.02252E+01 1.39836E-02 1.34483E-03-8.67015E-02 9.86801E-14-8.27945E-13
 -1       211 2.01365E+01 8.15317E-03 8.54661E-04-5.12178E-02 2.10710E-13-6.13305E-13
 -1       212 2.00822E+01 4.74586E-03 5.36849E-04-3.02111E-02-2.38415E-13-4.65857E-13
 -1       213 2.00489E+01 2.75990E-03 3.34494E-04-1.77892E-02-1.69925E-13-7.78241E-13
 -1       214 2.00285E+01 1.60883E-03 2.05414E-04-1.04525E-02 1.17957E-13-5.02126E-13
 -1       215 2.00156E+01 9.13264E-04 1.30930E-04-5.93761E-03-2.17137E-14-6.92451E-13
 -1       216 2.00083E+01 5.32893E-04 7.87944E-05-3.41555E-03-1.77103E-14-6.85113E-13
 -1       217 2.00038E+01 3.12906E-04 4.92353E-05-1.91382E-03 1.18091E-13-4.94672E-13
 -1       218 2.00012E+01 1.84728E-04 3.08940E-05-1.01029E-03 1.30022E-13-3.70936E-13
 -1       219 1.99996E+01 1.09423E-04 1.95044E-05-4.64181E-04 6.19279E-14-6.07616E-13
 -1       220 1.99988E+01 6.46132E-05 1.23188E-05-1.32980E-04-1.06747E-13-5.76840E-13
 -1       221 1.99985E+01 3.76116E-05 7.82022E-06 6.65941E-05-2.12552E-13-7.79946E-13
 -1       222 1.99984E+01 2.01730E-05 4.93848E-06 1.89755E-04 2.22221E-13-8.25919E-13
 -1       223 1.99985E+01 9.60478E-06 2.93780E-06 2.54498E-04 1.59784E-13-7.19034E-13
 -1       224 1.99987E+01 2.13061E-06 1.62945E-06 2.84654E-04 2.92423E-13-1.45136E-13
 -1       225 1.99990E+01-4.22125E-06 7.14346E-07 2.89211E-04 4.55998E-13-5.80738E-14
 -1       226 1.99992E+01-1.16274E-05 2.61389E-07 2.69910E-04 3.55755E-13-1.91950E-13
 -1       227 1.99995E+01-2.21604E-05 4.48615E-07 2.22307E-04-2.09702E-13 1.44107E-13
 -1       228 1.99997E+01-3.79216E-05 6.99963E-07 1.38215E-04-4.68237E-13-1.95584E-14
 -1       229 1.99998E+01-5.58931E-05 2.14777E-06 6.98804E-05-2.21796E-13-2.88670E-13
 -1       230 2.09985E+01 2.76706E-01-5.08415E-02 1.15773E+00 1.39038E-13 9.58914E-13
 -1       231 1.99106E+01 1.28530E-01 9.84238E-03 4.44895E-01 1.24024E-13 8.38121E-13
 -1       232 1.93983E+01 5.28494E-02 1.31329E-02 1.55988E-01 9.69177E-14 7.13003E-13
 -1       233 1.91635E+01 1.69773E-02 7.01544E-03 2.92494E-02 6.20996E-14 6.45275E-13
 -1       234 1.90646E+01 1.03694E-03 3.18640E-03-1.54111E-02 6.14623E-14 6.08571E-13
 -1       235 1.90167E+01-9.86663E-03 1.27799E-03-1.13537E-02 5.12555E-14 5.35855E-13
 -1       236 1.89626E+01-1.86029E-02 4.06749E-04 2.75893E-02 3.81195E-14 4.91964E-13
 -1       237 1.88613E+01-2.57163E-02 2.74312E-05 9.37708E-02 8.54622E-15 4.58034E-13
 -1       238 1.86831E+01-3.05341E-02-8.82941E-05 1.79890E-01 3.19939E-14 4.12148E-13
 -1       239 1.84103E+01-3.15588E-02-4.78299E-05 2.75662E-01 3.02551E-14 3.92348E-13
 -1       240 1.80403E+01-2.69360E-02 6.68628E-05 3.65887E-01 2.10613E-14 3.73758E-13
 -1       241 1.75911E+01-1.52896E-02 1.79460E-04 4.30602E-01 1.34866E-14 3.74593E-13
 -1       242 1.71030E+01 3.16372E-03 2.39957E-04 4.48245E-01-5.39713E-14 3.98891E-13
 -1       243 1.66372E+01 2.57094E-02 2.55220E-04 4.01896E-01 8.32978E-14 4.75588E-13
 -1       244 1.62658E+01 4.71878E-02 2.90514E-04 2.86851E-01 3.21247E-14 4.70101E-13
 -1       245 1.60559E+01 6.15001E-02 4.26239E-04 1.15831E-01-1.46588E-14 3.21294E-13
 -1       246 1.60506E+01 6.41419E-02 6.83967E-04-8.19712E-02-5.83366E-15 3.31831E-13
 -1       247 1.62567E+01 5.43691E-02 9.84604E-04-2.69097E-01 2.39409E-14 4.32412E-13
 -1       248 1.66425E+01 3.55645E-02 1.18305E-03-4.12006E-01-1.05341E-14 3.71381E-13
 -1       249 1.71484E+01 1.35434E-02 1.15739E-03-4.91290E-01-8.04803E-15 3.63384E-13
 -1       250 1.77044E+01-6.04201E-03 8.83396E-04-5.05301E-01-8.15145E-15 3.33666E-13
 -1       251 1.82468E+01-1.96553E-02 4.42484E-04-4.66752E-01 1.40352E-13 2.26213E-13
 -1       252 1.87297E+01-2.63992E-02-3.31427E-05-3.95440E-01 8.81879E-15 2.72991E-13
 -1       253 1.91284E+01-2.73561E-02-4.25343E-04-3.11101E-01-1.11501E-13 2.54011E-13
 -1       254 1.94364E+01-2.45040E-02-6.71454E-04-2.28903E-01 4.49075E-14 3.00771E-13
 -1       255 1.96604E+01-1.98137E-02-7.64904E-04-1.57964E-01 7.89410E-14 3.45491E-13
 -1       256 1.98139E+01-1.47673E-02-7.38021E-04-1.02029E-01 9.12135E-14 2.33949E-13
 -1       257 1.99127E+01-1.02461E-02-6.37268E-04-6.10918E-02 1.75820E-14 8.86778E-14
 -1       258 1.99719E+01-6.63185E-03-5.05460E-04-3.30870E-02 2.09797E-13 8.65525E-14
 -1       259 2.00040E+01-3.97797E-03-3.73344E-04-1.51788E-02-6.85742E-15-9.66151E-14
 -1       260 2.00189E+01-2.16450E-03-2.58419E-04-4.56681E-03-1.01274E-13-2.08302E-13
 -1       261 2.00235E+01-1.00749E-03-1.67628E-04 1.11762E-03 3.08738E-14-1.73911E-13
 -1       262 2.00226E+01-3.22545E-04-1.01109E-04 3.68852E-03 3.25971E-14 6.92029E-14
 -1       263 2.00191E+01 4.56841E-05-5.54760E-05 4.43379E-03 6.67818E-14 1.68676E-13
 -1       264 2.00148E+01 2.15027E-04-2.61140E-05 4.20983E-03 5.61786E-14 6.30890E-14
 -1       265 2.00106E+01 2.68236E-04-8.51216E-06 3.55064E-03-1.87624E-13 5.04606E-14
 -1       266 2.00071E+01 2.59769E-04 1.11720E-06 2.76589E-03-2.36766E-13 2.05636E-13
 -1       267 2.00044E+01 2.23280E-04 5.66380E-06 2.01849E-03 1.16897E-14 2.52228E-13
 -1       268 2.00023E+01 1.78153E-04 7.17964E-06 1.38115E-03 1.24953E-13 8.54101E-14
 -1       269 2.00009E+01 1.34541E-04 7.03455E-06 8.74806E-04 6.68655E-15 2.34070E-13
 -1       270 2.00000E+01 9.69628E-05 6.08913E-06 4.93550E-04-2.23891E-15 2.72199E-14
 -1       271 1.99995E+01 6.66824E-05 4.85021E-06 2.19774E-04-1.27664E-13 1.47666E-14
 -1       272 1.99993E+01 4.32139E-05 3.58921E-06 3.29656E-05 3.29287E-13 1.94844E-14
 -1       273 1.99993E+01 2.52197E-05 2.44873E-06-8.55616E-05 1.33003E-13-2.52641E-13
 -1       274 1.99993E+01 1.09088E-05 1.55345E-06-1.50276E-04 2.24917E-13-4.33498E-13
 -1       275 1.99995E+01-1.98528E-06 1.14454E-06-1.69958E-04 5.28005E-14-3.89273E-13
 -1       276 1.99996E+01-1.66663E-05 1.23739E-06-1.46778E-04-2.17859E-13-2.75553E-13
 -1       277 1.99997E+01-3.30703E-05 1.35656E-06-8.20451E-05 6.32824E-14-3.11685E-13
 -1       278 1.99998E+01-1.11334E-04-9.85486E-08-1.27007E-04-1.22821E-13 2.53735E-13
 -1       279 1.99998E+01-2.34853E-04-3.59036E-07-1.71022E-04-1.30921E-14 2.11287E-13
 -1       280 1.99998E+01-3.76441E-04-2.84402E-07-1.80527E-04-1.18836E-13 1.24594E-13
 -1       281 1.99998E+01-5.15281E-04 9.61915E-09-1.67957E-04 1.69181E-13 1.48038E-13
 -1       282 1.99998E+01-6.41072E-04 2.80347E-07-1.45737E-04 7.69415E-14-2.97898E-13
 -1       283 1.99998E+01-7.50982E-04 5.15861E-07-1.17525E-04 1.64116E-13-1.21161E-13
 -1       284 1.99998E+01-8.37012E-04 6.92721E-07-8.35156E-05-1.35330E-13-4.21780E-13
 -1       285 1.99998E+01-8.92727E-04 8.18205E-07-4.14242E-05 9.66439E-14-1.64476E-13
 -1       286 1.99998E+01-9.10065E-04 8.78360E-07 1.06553E-05-1.08325E-13-8.93880E-14
 -1       287 1.99998E+01-8.80799E-04 8.25666E-07 7.19933E-05-1.87277E-13-6.01244E-14
 -1       288 1.99998E+01-8.01354E-04 6.32557E-07 1.36273E-04-2.83648E-13 4.62335E-14
 -1       289 1.99998E+01-6.70194E-04 3.31279E-07 1.95123E-04-3.54433E-13-4.84740E-13
 -1       290 1.99998E+01-5.00151E-04-5.29070E-08 2.31642E-04-3.51761E-13 5.41629E-14
 -1       291 1.99998E+01-3.13890E-04-4.35308E-07 2.25107E-04-2.71042E-13 2.80682E-13
 -1       292 1.99998E+01-1.76144E-04 2.38529E-07 1.64142E-04-1.39679E-13 7.72689E-14
 -1       293-6.34722E-01-1.11533E+01-8.37018E-01 3.30498E+00 2.01145E-13-1.50713E-14
 -1       294 4.27081E+00-7.70254E+00-5.77174E-01 5.72697E+00 2.74808E-13 1.34795E-13
 -1       295 1.19135E+01-3.60561E+00-3.48054E-01 7.55802E+00 3.36065E-13 4.90025E-13
 -1       296 2.16968E+01 1.03115E+00 1.11968E-02 9.17716E+00 4.30461E-13 2.20018E-13
 -1       297 3.34845E+01 3.10740E+00 2.84285E-01 7.85232E+00 3.36897E-13 1.04361E-13
 -1       298 4.37690E+01 6.53196E+00 7.70304E-01 7.69489E+00 4.20690E-13-5.75651E-14
 -1       299 5.04794E+01 7.48553E+00 9.95215E-01 4.05144E+00 5.59580E-13-3.79613E-13
 -1       300 4.84314E+01 8.53625E+00 6.82495E-01-5.30274E-01 5.46646E-13-5.79297E-13
 -1       301 4.75632E+01 7.16858E+00 8.36383E-01-5.17194E+00 6.12344E-13-9.48380E-13
 -1       302 3.90179E+01 5.03474E+00 4.78056E-01-7.04159E+00 7.12940E-13-8.79907E-13
 -1       303 2.90761E+01 2.27721E+00 2.25475E-01-8.86489E+00 7.50927E-13-1.00889E-12
 -1       304 1.75186E+01-6.59878E-01-1.44919E-01-8.48345E+00 8.49043E-13-1.09940E-12
 -1       305 8.29513E+00-5.34797E+00-5.35718E-01-6.35333E+00 5.31408E-13-8.98205E-13
 -1       306 1.95917E+00-9.50986E+00-7.61699E-01-4.47380E+00 8.71248E-14-7.84747E-13
 -1       307-1.56169E+00-1.26476E+01-9.87847E-01-2.37632E+00-3.94282E-13-6.71102E-13
 -1       308-1.26144E+00-1.03789E+01-7.09063E-01 4.89401E-02-5.25129E-13-6.32661E-13
 -1       309 1.85411E+00-1.09718E+01-1.13509E+00 1.34082E+00-1.00017E-12-6.68729E-13
 -1       310 9.63980E+00-7.91025E+00-1.05107E+00 3.63441E+00-1.08574E-12-6.16854E-13
 -1       311 2.38605E+01-5.45622E+00-5.90519E-01 4.80195E+00-8.20399E-13-5.87086E-13
 -1       312 3.92177E+01-1.93463E+00 2.62344E-01 3.35397E+00-6.42625E-13-7.27918E-13
 -1       313 5.35658E+01 2.73647E+00 1.66875E+00 9.41616E-01-6.90462E-13-6.15286E-13
 -1       314 5.77724E+01 6.42047E+00 2.12923E+00-8.86375E-01-7.80875E-13-2.26208E-13
 -1       315 6.02224E+01 6.54286E+00 2.55098E+00 1.49435E-01-4.35374E-13-3.22242E-14
 -1       316 5.14179E+01 1.83070E+00 1.29037E+00-9.40786E-02-3.61655E-13 2.59293E-13
 -1       317 3.70432E+01-2.44620E+00 1.27912E-01-3.86802E+00-2.36700E-13 7.06046E-13
 -1       318 2.03407E+01-5.66706E+00-7.88229E-01-4.76723E+00-2.93210E-13 3.28237E-13
 -1       319 7.59324E+00-8.79243E+00-1.11982E+00-3.03927E+00 1.55376E-13 4.84057E-13
 -1       320 3.65273E-01-1.17830E+01-1.15841E+00-5.90941E-01 1.35836E-13 3.59615E-13
 -1       321-2.03429E+00-1.18586E+01-9.20844E-01 1.20909E+00 1.20763E-13 2.32148E-13
 -1       322 3.78332E+01-3.43341E+00 1.30761E-01-2.50898E+00-4.18762E-14 2.98694E-13
 -1       323 2.01679E+01 3.03221E+00-2.18416E-02-2.03024E+00-1.60918E-13-3.30513E-13
 -1       324 2.08151E+01 2.21893E+00-1.72155E-02-2.30188E+00-2.26065E-13-2.29794E-13
 -1       325 1.95440E+01 3.75419E+00-1.52859E-02-1.28254E+00-4.15204E-14-3.78335E-13
 -1       326 1.94001E+01 3.91106E+00-1.33267E-02-9.16094E-01 1.79571E-14-3.67008E-13
 -1       327 1.93267E+01 3.99093E+00-1.23534E-02-5.61767E-01 8.52915E-14-3.20584E-13
 -1       328 1.93057E+01 4.01399E+00-1.20119E-02-2.09677E-01 1.42154E-13-3.08001E-13
 -1       329 1.93249E+01 3.99194E+00-1.21403E-02 1.48914E-01 1.90262E-13-2.90036E-13
 -1       330 1.93780E+01 3.92923E+00-1.27014E-02 5.19993E-01 2.12173E-13-2.62220E-13
 -1       331 1.94650E+01 3.82419E+00-1.38037E-02 9.00505E-01 2.49380E-13-2.09947E-13
 -1       332 1.96028E+01 3.65696E+00-1.57768E-02 1.30441E+00 2.76095E-13-1.10693E-13
 -1       333 1.98233E+01 3.39006E+00-1.91700E-02 1.71962E+00 3.02533E-13 4.60829E-15
 -1       334 2.01940E+01 2.93672E+00-2.33869E-02 2.10985E+00 3.11530E-13 1.47771E-13
 -1       335 2.07824E+01 2.09842E+00-2.96098E-02 2.29579E+00 2.64395E-13 3.89458E-13
 -1       336 2.11204E+01 1.18184E+00-2.42342E-02 1.90473E+00 2.17796E-13 6.11776E-13
 -1       337 2.04091E+01 4.86426E-01 7.63278E-03 9.23670E-01 1.77141E-13 5.10115E-13
 -1       338 2.83745E+01-5.37683E+00-1.40716E-02 3.64234E+00-7.15678E-14 1.60925E-13
 -1       339 2.05528E+01 7.06022E-01 1.31963E-02-9.34335E-01-1.72682E-13-1.74483E-13
 -1       340 2.01734E+01 3.93249E-01 8.07823E-03-3.19917E-01-1.47669E-13-1.66529E-13
 -1       341 1.99793E+01 2.72789E-01 5.59699E-03 6.89088E-02-8.14135E-14-1.70326E-13
 -1       342 1.99274E+01 2.49854E-01 4.35152E-03 3.69573E-01-8.40639E-14-2.06255E-13
 -1       343 1.99891E+01 3.06124E-01 4.87599E-03 6.82995E-01-6.78363E-14-1.90839E-13
 -1       344 2.01270E+01 4.40820E-01 6.45459E-03 1.05483E+00-3.89029E-14-2.22978E-13
 -1       345 2.03099E+01 6.70529E-01 8.87534E-03 1.57197E+00-6.85216E-16-2.06041E-13
 -1       346 2.04873E+01 1.00520E+00 1.15734E-02 2.31070E+00 9.27140E-14-1.83836E-13
 -1       347 2.05829E+01 1.39606E+00 1.51144E-02 3.32869E+00 1.39919E-13-1.13529E-13
 -1       348 2.05398E+01 1.59916E+00 2.89587E-02 4.59939E+00 2.45590E-13-3.91926E-14
 -1       349 2.05161E+01 9.09911E-01 7.70480E-02 5.84749E+00 2.23911E-13 1.39198E-13
 -1       350 2.12264E+01-1.59697E+00 1.64464E-01 6.46509E+00 2.53353E-13 2.30024E-13
 -1       351 2.25357E+01-4.66742E+00 3.41579E-02 8.05701E+00-2.86826E-13-1.61857E-13
 -1       352 3.02780E+01-6.24753E+00-9.75966E-02-2.46199E+00 2.55046E-13-1.50838E-13
 -1       353 2.35674E+01-2.40684E+00 1.53005E-01-6.02510E+00 3.22777E-13-9.53126E-14
 -1       354 2.20573E+01 6.07840E-01 8.31651E-02-5.83870E+00 3.62037E-14-4.89133E-13
 -1       355 2.16562E+01 1.43235E+00 3.09234E-02-4.62847E+00-7.64278E-14-5.24642E-13
 -1       356 2.14329E+01 1.30152E+00 1.65320E-02-3.29939E+00-2.95030E-13-6.15270E-13
 -1       357 2.11717E+01 9.46020E-01 1.27557E-02-2.21535E+00-4.21497E-13-6.37125E-13
 -1       358 2.08954E+01 6.26382E-01 9.77222E-03-1.43393E+00-2.25870E-13-6.55595E-13
 -1       359 2.06405E+01 3.86509E-01 6.97628E-03-8.87781E-01 3.53118E-14-6.13467E-13
 -1       360 2.04498E+01 2.38488E-01 4.52220E-03-5.54296E-01 1.56362E-13-8.82134E-13
 -1       361 2.03080E+01 1.45208E-01 2.84463E-03-3.43076E-01 1.15939E-13-1.06009E-12
 -1       362 2.02074E+01 8.77587E-02 1.75021E-03-2.11203E-01 1.33227E-13-1.23440E-12
 -1       363 2.01380E+01 5.27957E-02 1.06111E-03-1.29607E-01 2.81138E-13-1.03877E-12
 -1       364 2.00910E+01 3.16749E-02 6.38671E-04-7.94046E-02 2.73792E-13-8.58398E-13
 -1       365 2.00595E+01 1.89783E-02 3.82896E-04-4.86166E-02-2.15217E-13-4.05541E-13
 -1       366 2.00384E+01 1.13804E-02 2.26394E-04-2.97518E-02-1.23788E-14-1.65423E-13
 -1       367 2.00240E+01 6.65809E-03 1.36865E-04-1.77565E-02-1.26122E-13-3.79391E-13
 -1       368 2.00150E+01 4.01493E-03 7.96466E-05-1.08213E-02 2.67279E-14-5.26921E-13
 -1       369 2.00091E+01 2.43536E-03 4.81635E-05-6.53744E-03 3.20513E-13-2.38514E-13
 -1       370 2.00053E+01 1.48708E-03 2.91229E-05-3.87238E-03-6.78060E-14-2.34702E-13
 -1       371 2.00028E+01 9.14042E-04 1.77068E-05-2.20339E-03-9.99403E-15-3.16921E-13
 -1       372 2.00012E+01 5.64111E-04 1.07592E-05-1.15179E-03-1.82467E-13-3.42370E-13
 -1       373 2.00003E+01 3.47702E-04 6.50654E-06-4.87642E-04-2.26267E-13-3.38446E-13
 -1       374 1.99997E+01 2.05635E-04 3.98287E-06-5.35662E-05-4.82446E-14-4.42325E-13
 -1       375 1.99994E+01 1.19032E-04 2.19314E-06 1.98238E-04 2.48561E-13-3.22418E-13
 -1       376 1.99993E+01 6.05072E-05 1.13080E-06 3.45168E-04 4.93692E-13-2.55458E-13
 -1       377 1.99994E+01 1.69498E-05 3.13737E-07 4.18506E-04 4.72481E-13-3.16773E-13
 -1       378 1.99994E+01-2.13537E-05-3.87938E-07 4.34944E-04 2.85301E-13-5.05684E-13
 -1       379 1.99995E+01-6.37346E-05-1.25468E-06 4.02231E-04 1.12066E-13-7.06090E-13
 -1       380 1.99997E+01-1.14882E-04-1.36442E-06 3.19295E-04-1.58437E-13-3.65815E-13
 -1       381 1.98530E+01 2.01662E-01 6.41697E-03 3.06478E-01 1.21041E-13 3.75346E-13
 -1       382 1.96374E+01 7.54273E-02 2.69409E-03 1.15539E-01 9.51349E-14 3.41710E-13
 -1       383 1.95073E+01-8.79944E-05 6.18633E-04 4.85058E-02 1.11597E-13 3.01245E-13
 -1       384 1.94190E+01-5.53478E-02-5.38771E-04 6.52407E-02 7.03231E-14 2.72226E-13
 -1       385 1.93354E+01-9.83844E-02-1.21668E-03 1.44703E-01 2.86009E-14 2.41145E-13
 -1       386 1.92274E+01-1.29780E-01-1.58970E-03 2.71510E-01 3.40154E-14 1.99838E-13
 -1       387 1.90735E+01-1.45062E-01-1.67088E-03 4.28568E-01 4.52324E-14 2.23275E-13
 -1       388 1.88603E+01-1.36741E-01-1.41688E-03 5.92151E-01 5.31547E-14 1.59949E-13
 -1       389 1.85862E+01-9.74682E-02-8.01771E-04 7.29845E-01 6.60875E-16 1.82529E-13
 -1       390 1.82649E+01-2.47083E-02 1.32778E-04 8.03030E-01-5.45074E-14 1.76353E-13
 -1       391 1.79283E+01 7.43482E-02 1.24910E-03 7.75208E-01-1.20925E-13 1.74999E-13
 -1       392 1.76242E+01 1.80569E-01 2.33237E-03 6.25055E-01 6.93794E-14 2.37923E-13
 -1       393 1.74076E+01 2.66510E-01 3.14616E-03 3.59233E-01 6.09892E-14 1.94727E-13
 -1       394 1.73248E+01 3.06318E-01 3.50166E-03 1.72042E-02 1.96156E-14 1.22161E-13
 -1       395 1.73974E+01 2.87416E-01 3.32039E-03-3.37561E-01 6.40988E-14 4.68362E-14
 -1       396 1.76147E+01 2.16735E-01 2.64787E-03-6.38007E-01-2.45344E-15-3.00091E-15
 -1       397 1.79379E+01 1.17144E-01 1.64231E-03-8.35676E-01-6.78559E-14 6.31084E-14
 -1       398 1.83140E+01 1.65722E-02 5.32195E-04-9.13463E-01 4.50206E-14 7.75452E-14
 -1       399 1.86926E+01-6.30954E-02-4.54976E-04-8.84379E-01 1.50652E-13 6.75885E-14
 -1       400 1.90360E+01-1.11702E-01-1.16592E-03-7.80127E-01-3.54288E-14 7.21243E-14
 -1       401 1.93235E+01-1.30082E-01-1.54498E-03-6.37221E-01-8.27720E-14 1.19121E-13
 -1       402 1.95490E+01-1.25687E-01-1.63002E-03-4.86701E-01-5.95454E-14 1.94552E-13
 -1       403 1.97160E+01-1.07885E-01-1.50258E-03-3.49473E-01 9.74105E-14 1.85591E-13
 -1       404 1.98334E+01-8.47922E-02-1.25761E-03-2.36200E-01 1.56306E-13 9.27472E-14
 -1       405 1.99118E+01-6.19598E-02-9.74184E-04-1.49681E-01 1.03513E-13 1.75815E-13
 -1       406 1.99613E+01-4.23841E-02-7.05349E-04-8.78493E-02-7.96956E-15 2.82972E-14
 -1       407 1.99905E+01-2.71416E-02-4.79149E-04-4.63341E-02 2.24844E-13 2.99135E-13
 -1       408 2.00060E+01-1.61341E-02-3.04680E-04-2.02080E-02 4.44602E-14 2.40499E-13
 -1       409 2.00130E+01-8.69317E-03-1.79394E-04-4.97383E-03-9.00880E-14 2.03288E-13
 -1       410 2.00148E+01-3.97950E-03-9.50858E-05 3.01481E-03-3.94284E-14 2.89827E-13
 -1       411 2.00138E+01-1.20320E-03-4.19693E-05 6.47975E-03 1.05649E-13 1.20396E-13
 -1       412 2.00116E+01 2.82076E-04-1.09494E-05 7.32212E-03 9.45546E-14 1.55491E-13
 -1       413 2.00091E+01 9.59301E-04 5.38726E-06 6.79253E-03-1.35105E-13 2.95997E-13
 -1       414 2.00066E+01 1.16517E-03 1.25742E-05 5.66492E-03-1.76754E-13 9.91455E-14
 -1       415 2.00045E+01 1.12064E-03 1.44651E-05 4.38525E-03-2.98533E-14-2.06217E-13
 -1       416 2.00029E+01 9.62308E-04 1.35838E-05 3.18636E-03 1.72059E-13-4.85900E-13
 -1       417 2.00016E+01 7.69012E-04 1.14823E-05 2.17039E-03-6.41401E-14-4.69778E-13
 -1       418 2.00007E+01 5.82186E-04 9.04677E-06 1.36483E-03 9.15088E-14-3.00828E-13
 -1       419 2.00002E+01 4.20261E-04 6.73004E-06 7.58561E-04-1.42070E-13-2.81858E-13
 -1       420 1.99998E+01 2.88270E-04 4.72751E-06 3.23978E-04 5.41507E-14-3.01089E-13
 -1       421 1.99996E+01 1.83932E-04 3.06537E-06 2.98557E-05 2.63487E-13-7.96732E-14
 -1       422 1.99996E+01 1.01400E-04 1.70040E-06-1.51768E-04 1.45029E-13 2.20552E-14
 -1       423 1.99996E+01 3.30047E-05 5.48130E-07-2.42601E-04 1.00225E-13 1.36088E-13
 -1       424 1.99997E+01-2.89542E-05-7.36845E-07-2.56873E-04-2.03157E-13 3.39098E-13
 -1       425 1.99997E+01-7.61298E-05-6.87704E-07-2.13135E-04-1.17508E-14 2.19157E-13
 -1       426 1.99998E+01-2.35868E-04-8.65650E-08-2.63656E-04-3.65953E-13-1.52612E-14
 -1       427 1.99998E+01-1.71340E-04-3.54764E-07-2.73834E-04-1.62961E-13 3.85982E-14
 -1       428 1.99998E+01-2.91605E-04 2.52969E-07-2.38437E-04-3.76527E-13-2.59530E-13
 -1       429 1.99998E+01-3.45120E-04 4.86031E-07-2.03550E-04-8.75367E-14 6.83962E-14
 -1       430 1.99999E+01-3.95708E-04 6.34885E-07-1.60431E-04-2.55638E-14-3.32288E-13
 -1       431 1.99999E+01-4.41134E-04 7.71229E-07-1.06036E-04-3.41896E-13-5.02751E-13
 -1       432 1.99999E+01-4.76530E-04 8.96634E-07-3.61901E-05-4.38407E-13-1.73530E-13
 -1       433 1.99999E+01-4.94725E-04 9.70742E-07 5.06634E-05-3.85886E-13-1.57721E-13
 -1       434 1.99999E+01-4.88324E-04 9.09829E-07 1.48443E-04-4.86446E-13-2.38977E-13
 -1       435 1.99999E+01-4.51130E-04 7.35542E-07 2.48467E-04-3.79902E-13 2.59085E-13
 -1       436 1.99999E+01-3.81683E-04 3.72290E-07 3.29265E-04 3.90958E-14-1.78228E-13
 -1       437 1.99998E+01-2.83444E-04-3.07818E-07 3.66019E-04 1.29157E-13 2.17231E-13
 -1       438 2.00618E+01 3.15550E-01 1.02305E-02 5.47888E-01 1.75423E-13 4.46293E-13
 -1       439 1.30454E+01-4.94897E+00 3.69493E-02 9.04309E+00-2.25514E-13 2.21698E-15
 -1       440 2.93833E+01-2.83222E+00-4.08586E-02 5.27632E+00-1.30111E-13-1.60719E-13
 -1       441 3.09974E-01-4.47595E+00-4.45645E-02 2.72917E+00-2.09589E-13 1.16546E-13
 -1       442 1.97848E+01 3.48434E+00-1.84827E-02-1.66344E+00-9.33399E-14-3.76721E-13
 -1       443 3.57110E+01 2.81226E+00 3.09134E-03 1.60132E+00 2.55240E-13-1.42719E-13
 -1       444 3.80288E+01 6.68351E+00-1.32306E-02 4.86932E-01 5.06262E-13-2.20032E-13
 -1       445 3.84059E+01 9.18270E+00-5.34169E-02-8.94938E-02 6.11816E-13-2.35763E-13
 -1       446 3.93926E+01 8.54731E+00 2.53234E-02-1.38002E-01 4.64156E-13-1.65257E-13
 -1       447 3.75258E+01 5.34030E+00 2.21347E-02-7.55541E-01 4.05412E-13-1.23068E-13
 -1       448 3.33883E+01-4.95391E-02-1.57859E-02-3.15472E+00 1.79123E-13-1.25011E-13
 -1       449 2.64862E+01-3.41017E+00-5.28593E-03-6.85645E+00 1.05013E-13-3.64014E-13
 -1       450 1.77896E+01-4.95860E+00-2.99386E-02-8.61877E+00 2.84772E-14-6.88095E-13
 -1       451 9.11065E+00-5.42562E+00-5.29067E-02-8.26566E+00-8.21287E-14-8.21912E-13
 -1       452 2.31656E+00-4.79613E+00-4.80670E-02-5.32414E+00-1.12244E-13-9.38111E-13
 -1       453 5.04916E-01-3.98250E+00 4.76632E-03-1.30185E+00-5.75373E-14-7.13068E-13
 -1       454 4.39063E+00-5.06119E+00-7.45856E-02 3.97061E+00-1.31284E-13-4.66904E-13
 -1       455 1.22503E+01-6.01007E+00-1.22256E-01 5.96841E+00-1.77053E-13-1.84304E-13
 -1       456 2.29663E+01-6.68916E+00-1.66138E-01 5.12915E+00-2.63067E-13-1.80758E-15
 -1       457 3.50885E+01-5.36808E+00-1.57104E-01 2.03707E-01-2.55393E-13-8.70137E-14
 -1       458 2.06038E+01-6.11229E+00-7.18101E-03-5.77406E+00 3.52690E-13 2.61419E-13
 -1       459 1.05529E+01-4.84176E+00 4.96997E-03-5.97805E+00 1.61510E-13 3.89827E-13
 -1       460 3.18241E+00-3.89270E+00 1.48086E-02-3.05737E+00-8.07410E-14 1.66311E-13
 -1       461 4.47911E+00-4.32393E+00 1.26368E-02 6.82695E+00-1.15269E-13 5.55112E-16
 -1       462 3.81570E+00-1.43200E+00 1.53783E-01 2.19579E+00 9.49067E-14-6.00298E-13
 -1       463 3.45144E+01 9.39942E+00-1.57449E-01 2.83884E-01 5.16392E-13-1.12567E-13
 -1       464 1.96414E+01 3.19560E+00-5.23366E-03-6.53369E-01 5.27392E-14-3.06443E-13
 -1       465 1.97476E+01 3.03449E+00-5.84915E-03-9.30654E-01-1.07871E-14-3.23223E-13
 -1       466 1.96108E+01 3.25810E+00-4.92750E-03-5.70841E-02 1.47142E-13-2.66455E-13
 -1       467 1.96589E+01 3.19324E+00-5.05781E-03 2.63612E-01 1.84410E-13-2.54919E-13
 -1       468 1.97378E+01 3.07281E+00-5.41046E-03 5.89598E-01 2.07234E-13-2.21693E-13
 -1       469 1.98529E+01 2.88221E+00-5.96118E-03 9.21993E-01 2.50031E-13-1.38846E-13
 -1       470 2.00158E+01 2.59465E+00-6.60796E-03 1.23406E+00 2.67878E-13-4.41058E-14
 -1       471 2.02459E+01 2.16269E+00-5.89759E-03 1.48038E+00 2.74321E-13 6.69564E-14
 -1       472 2.05008E+01 1.52651E+00-3.42781E-03 1.53851E+00 2.37386E-13 2.07253E-13
 -1       473 2.05571E+01 9.77478E-01 3.06960E-03 1.29571E+00 2.06134E-13 3.52254E-13
 -1       474 3.16888E+01-1.32879E+00-7.42535E-02 1.22609E+00-1.14884E-13-2.55726E-13
 -1       475 1.99811E+01-4.65164E+00 9.26794E-02 8.10778E+00-3.68983E-13-1.73292E-13
 -1       476 2.03938E+01 1.05985E+00 2.96301E-03-8.10061E-01-1.24739E-13-2.33984E-13
 -1       477 2.02238E+01 6.89830E-01 2.37283E-03-2.69842E-01-1.00757E-13-1.98741E-13
 -1       478 2.00658E+01 5.41049E-01 1.79583E-03 1.35124E-01-8.16159E-14-1.76599E-13
 -1       479 1.99184E+01 5.44545E-01 1.80913E-03 4.89460E-01-9.11185E-14-1.53391E-13
 -1       480 1.97554E+01 6.83553E-01 2.20732E-03 8.25443E-01-5.89492E-14-1.31176E-13
 -1       481 1.95006E+01 9.63405E-01 3.12319E-03 1.21423E+00-3.65850E-14-1.44273E-13
 -1       482 1.90404E+01 1.39848E+00 4.63740E-03 1.70079E+00 3.02976E-14-1.31261E-13
 -1       483 1.82044E+01 1.96663E+00 8.72119E-03 2.31733E+00 1.02540E-13-1.55957E-13
 -1       484 1.67692E+01 2.51405E+00 2.34175E-02 3.08014E+00 2.07730E-13-1.78725E-13
 -1       485 1.44934E+01 2.50098E+00 7.19517E-02 3.98269E+00 3.21274E-13-1.79291E-13
 -1       486 1.39485E+01 6.41572E-01 1.63764E-01 5.62705E+00 2.50890E-13-6.35741E-14
 -1       487 2.04283E+01 1.81223E+00-5.06446E-03-1.43148E+00-1.66652E-13-2.55802E-13
 -1       488 1.56036E+01 2.27657E+00 8.27208E-02-4.48885E+00-1.44667E-14-2.41258E-13
 -1       489 1.75219E+01 2.41133E+00 2.73297E-02-3.36028E+00-2.46924E-13-1.28754E-13
 -1       490 1.87669E+01 1.91477E+00 1.13680E-02-2.41789E+00-3.33462E-13 1.53808E-14
 -1       491 1.94726E+01 1.35251E+00 6.33001E-03-1.67969E+00-4.10961E-13 1.64543E-13
 -1       492 1.98449E+01 8.80213E-01 4.05638E-03-1.11286E+00-1.73992E-13-9.68765E-14
 -1       493 2.00032E+01 5.65582E-01 2.73363E-03-7.36044E-01 6.97987E-14-1.66613E-13
 -1       494 2.00631E+01 3.56199E-01 1.72797E-03-4.79031E-01-3.10033E-14-1.87261E-13
 -1       495 2.00765E+01 2.21632E-01 1.06610E-03-3.08486E-01 1.21589E-13-2.52554E-13
 -1       496 2.00705E+01 1.36834E-01 6.47471E-04-1.97261E-01 2.61975E-13-3.38452E-13
 -1       497 2.00580E+01 8.40654E-02 3.89323E-04-1.25600E-01 3.11908E-13-4.31049E-13
 -1       498 2.00448E+01 5.15032E-02 2.33459E-04-7.97974E-02 9.42076E-14-4.65340E-13
 -1       499 2.00332E+01 3.15260E-02 1.35828E-04-5.06337E-02 1.10016E-13-3.84442E-13
 -1       500 2.00235E+01 1.88469E-02 8.25853E-05-3.14157E-02-1.84007E-13-2.79739E-13
 -1       501 2.00165E+01 1.15985E-02 4.74034E-05-1.99292E-02 8.46195E-14 9.91660E-15
 -1       502 2.00113E+01 7.17096E-03 2.83705E-05-1.25908E-02 2.86618E-13 1.73631E-13
 -1       503 2.00076E+01 4.46405E-03 1.69908E-05-7.88414E-03 3.04246E-13 4.41480E-14
 -1       504 2.00049E+01 2.79919E-03 1.02346E-05-4.84688E-03-1.46838E-13 1.41509E-13
 -1       505 2.00030E+01 1.76603E-03 6.15031E-06-2.87511E-03-1.34286E-13 7.18571E-14
 -1       506 2.00017E+01 1.11727E-03 3.59528E-06-1.58957E-03-4.40676E-13-2.35075E-13
 -1       507 2.00008E+01 6.86974E-04 2.30835E-06-7.19141E-04-4.74051E-14 4.12426E-14
 -1       508 2.00003E+01 4.23858E-04 1.22665E-06-1.90009E-04 1.18995E-13 2.96193E-13
 -1       509 2.00000E+01 2.47552E-04 6.68194E-07 1.43779E-04 2.00604E-13 1.39055E-13
 -1       510 1.99998E+01 1.23168E-04 2.62132E-07 3.41941E-04 3.10351E-13-9.41278E-14
 -1       511 1.99997E+01 2.65242E-05-4.86105E-08 4.41297E-04 5.33799E-13-2.97470E-13
 -1       512 1.99997E+01-6.19172E-05-2.14622E-07 4.63675E-04 1.04598E-13-3.72928E-13
 -1       513 1.99998E+01-1.56789E-04-4.25695E-07 4.35955E-04 2.33029E-13 8.18521E-14
 -1       514 1.98689E+01-3.49188E-02-6.73837E-05 1.19713E-01 1.00547E-13 1.40138E-13
 -1       515 1.99579E+01 1.13000E-01 6.48461E-04 1.77439E-01 1.40788E-13 1.33018E-13
 -1       516 2.00927E+01 3.22695E-01 9.04384E-04 3.62911E-01 1.28211E-13 1.69037E-13
 -1       517 1.98099E+01-1.48177E-01-4.61556E-04 1.58237E-01 8.37710E-14 9.88166E-14
 -1       518 1.97614E+01-2.35528E-01-6.98358E-04 2.72936E-01 6.60010E-14 1.04897E-13
 -1       519 1.97034E+01-2.93067E-01-8.08158E-04 4.45155E-01 1.53802E-15 7.20413E-14
 -1       520 1.96161E+01-3.07860E-01-7.72366E-04 6.50662E-01 4.33539E-14 1.47621E-13
 -1       521 1.94828E+01-2.62723E-01-5.61655E-04 8.54217E-01 1.44961E-14 2.01553E-13
 -1       522 1.92948E+01-1.44553E-01-1.75615E-04 1.00790E+00-4.91012E-14 2.23519E-13
 -1       523 1.90590E+01 4.42608E-02 3.35419E-04 1.05667E+00-8.39730E-14 2.19043E-13
 -1       524 1.88041E+01 2.76038E-01 8.59941E-04 9.53222E-01 1.40972E-14 6.60337E-14
 -1       525 1.85791E+01 4.97280E-01 1.30097E-03 6.79257E-01 1.16698E-13 2.75283E-14
 -1       526 1.84409E+01 6.43847E-01 1.56165E-03 2.63234E-01 2.93933E-14 5.46154E-14
 -1       527 1.84305E+01 6.68226E-01 1.60387E-03-2.19478E-01 6.83032E-14-1.04718E-14
 -1       528 1.85544E+01 5.63286E-01 1.43829E-03-6.69861E-01 4.81817E-14 9.47988E-14
 -1       529 1.87806E+01 3.65994E-01 1.07888E-03-1.00186E+00 1.03507E-14 7.92470E-14
 -1       530 1.90552E+01 1.37961E-01 5.84360E-04-1.17136E+00-7.49942E-15-5.42289E-14
 -1       531 1.93248E+01-6.27396E-02 7.31411E-05-1.18267E+00-1.93868E-14-6.25947E-14
 -1       532 1.95536E+01-2.01308E-01-3.54510E-04-1.07460E+00 1.82010E-14 1.50624E-13
 -1       533 1.97270E+01-2.70157E-01-6.23955E-04-8.98529E-01-8.66607E-14 3.02659E-13
 -1       534 1.98469E+01-2.80993E-01-7.41081E-04-7.00738E-01-7.75216E-14 1.18204E-13
 -1       535 1.99236E+01-2.53683E-01-7.27212E-04-5.13809E-01-5.40925E-14 6.20812E-14
 -1       536 1.99693E+01-2.07639E-01-6.33741E-04-3.55495E-01 1.23904E-13 2.01240E-13
 -1       537 1.99946E+01-1.57383E-01-5.05978E-04-2.31838E-01 8.51843E-14 1.61278E-13
 -1       538 2.00074E+01-1.11650E-01-3.75629E-04-1.41443E-01 1.17671E-13 1.94912E-13
 -1       539 2.00129E+01-7.44062E-02-2.61223E-04-7.91795E-02-1.96822E-14 2.01817E-13
 -1       540 2.00144E+01-4.64375E-02-1.70291E-04-3.87493E-02 1.95313E-13 3.62416E-13
 -1       541 2.00138E+01-2.67963E-02-1.03391E-04-1.41597E-02-7.31175E-14 3.74063E-13
 -1       542 2.00122E+01-1.38299E-02-5.73368E-05-4.05818E-04-1.04762E-13 2.33818E-13
 -1       543 2.00102E+01-5.80087E-03-2.76132E-05 6.34890E-03 3.71867E-14 3.48434E-13
 -1       544 2.00082E+01-1.19332E-03-9.73193E-06 8.85834E-03 1.13268E-13 2.78813E-13
 -1       545 2.00063E+01 1.18039E-03 1.07232E-07 8.99017E-03 9.99201E-14 1.89432E-14
 -1       546 2.00047E+01 2.18271E-03 4.81845E-06 7.94346E-03-1.30695E-15-1.79177E-13
 -1       547 2.00034E+01 2.40251E-03 6.47589E-06 6.44329E-03 3.70197E-14-2.71882E-13
 -1       548 2.00023E+01 2.21977E-03 6.46616E-06 4.89624E-03 2.37563E-13-2.90243E-13
 -1       549 2.00015E+01 1.86559E-03 5.66161E-06 3.50584E-03-1.84698E-14-1.60856E-13
 -1       550 2.00008E+01 1.47084E-03 4.57486E-06 2.35338E-03-3.28958E-14-2.14646E-13
 -1       551 2.00004E+01 1.10224E-03 3.48009E-06 1.45180E-03-5.62276E-14-1.24302E-13
 -1       552 2.00001E+01 7.87434E-04 2.49803E-06 7.79959E-04-2.14013E-13-2.59843E-13
 -1       553 1.99999E+01 5.31345E-04 1.69939E-06 3.03550E-04 1.64298E-14-4.92244E-13
 -1       554 1.99998E+01 3.27402E-04 1.00029E-06-1.28864E-05 5.62202E-14-3.24196E-13
 -1       555 1.99998E+01 1.62568E-04 4.15968E-07-2.00800E-04 1.25230E-13-9.63576E-14
 -1       556 1.99997E+01 2.35104E-05 3.12652E-07-2.85281E-04-6.31228E-14-1.68817E-14
 -1       557 1.99999E+01 6.05454E-07 1.90999E-07-2.42429E-04-1.84205E-13 2.38070E-13
 -1       558 1.99999E+01-1.03622E-05 1.08435E-07-2.69729E-04-4.94521E-13 8.44233E-15
 -1       559 1.99998E+01-2.27350E-05 1.37187E-07-2.90480E-04-2.13107E-13-1.67812E-13
 -1       560 2.38538E+01-5.25018E+00 3.13475E-02-7.07421E+00-2.10568E-13-2.49849E-13
 -1       561 1.99999E+01 1.10005E-06 2.60614E-07-2.08810E-04 2.12238E-14-2.19687E-13
 -1       562 1.99999E+01-1.60846E-05 3.21099E-07-1.66272E-04-3.37762E-13-9.01520E-13
 -1       563 1.99999E+01-5.06654E-05 3.82626E-07-1.06933E-04-4.82875E-13 3.86272E-14
 -1       564 2.00000E+01-9.70134E-05 4.40502E-07-2.41470E-05-1.69773E-13-5.16119E-15
 -1       565 2.00000E+01-1.44466E-04 4.52631E-07 8.07752E-05 7.70825E-14-2.71534E-13
 -1       566 2.00000E+01-1.82619E-04 3.26431E-07 2.02892E-04-4.69798E-14 9.09091E-14
 -1       567 2.00000E+01-1.99170E-04 2.56344E-07 3.22239E-04-4.47234E-14 1.03123E-13
 -1       568 1.99999E+01-1.91978E-04 4.46881E-08 4.02505E-04 2.06937E-13 1.96860E-13
 -1       569 1.24893E+01-1.80722E+00 1.97771E-01 6.19626E+00 1.52822E-13-1.00725E-13
 -1       570 4.34242E+00 3.28208E-01 2.17106E-01-5.49738E-01-3.55363E-13 2.25570E-13
 -1       571 2.66397E+01-4.81968E+00-3.88360E-03 5.39379E+00-2.48856E-13-1.86729E-13
 -1       572 9.22754E+00-2.06791E+00 1.89136E-01-7.42049E+00-1.76109E-13-7.63556E-13
 -1       573 1.46120E+01-7.17854E-03 1.98018E-01-5.93917E+00-1.80578E-13-3.48541E-14
 -1       574 1.12440E+01-2.67353E+00 1.58533E-01 8.28455E+00-3.12861E-13-1.72244E-13
 -1       575 3.29359E+01 6.44732E+00-1.94774E-01 1.56515E+00 2.89477E-13 8.36622E-14
 -1       576 1.96010E+01 3.26287E+00-4.97052E-03-3.62804E-01 1.07336E-13-2.80319E-13
 -1       577 3.27904E+01 3.95623E+00-1.48813E-01-1.38097E+00 2.93245E-13-4.18041E-13
 -1       578 3.24569E+01 1.43961E+00-1.21427E-01 8.83971E-01 1.03875E-13 1.66797E-13
 -1       579 1.62972E+01-4.70179E+00 9.59556E-02-8.75963E+00-2.56628E-13-5.96960E-13
 -1       580 4.18283E+00-5.98268E-01 2.17779E-01-3.46060E+00-3.86496E-15-7.87606E-13
 -1       581 9.94167E+00-1.06192E+00 2.08782E-01-5.33303E+00-1.75283E-13 1.20320E-14
 -1       582 2.97530E+01-3.69033E+00-5.31618E-02-3.24639E+00-1.21850E-13 1.13833E-13
 -1       583 4.87592E+00-6.51813E-01 1.99862E-01 4.65499E+00-2.71141E-13 1.84186E-13
 -1       584 3.25871E+01 7.16573E+00-2.01546E-01-1.37759E+00 5.55375E-13-4.10394E-13
 -1       585 1.99300E+01 2.75135E+00-6.67412E-03-1.18534E+00-5.65978E-14-3.37390E-13
 -1       586 2.02887E+01 6.30939E-01 5.90061E-03 8.07825E-01 1.84957E-13 2.83581E-13
 -1       587 8.91332E+00 1.68125E-02 2.20612E-01 4.53567E+00 2.11491E-13-3.53564E-13
 -1       588 2.01611E+01 4.61642E-01 3.39546E-03 5.48096E-01 1.38634E-13 2.15203E-13
 -1       589 3.04324E+01 8.07592E+00-1.92417E-01-7.98313E-01 3.92936E-13-1.05992E-15
 -1       590 5.35968E+00 9.67158E-01 2.18964E-01-7.32967E-02 9.47401E-14-5.96745E-13
 -1       591 2.01558E+01 2.36288E+00-6.07999E-03-1.35287E+00-1.27661E-13-3.10884E-13
 -1       592 3.02750E+01 5.38499E-01-9.43885E-02-1.28923E+00 4.27332E-14-2.67539E-13
 -1       593 1.99634E+01 2.41698E+00-1.59505E-03 3.05783E-01 1.75072E-13-2.10999E-13
 -1       594 1.98904E+01 2.53368E+00-1.50249E-03 3.26938E-02 1.35401E-13-2.40955E-13
 -1       595 2.01607E+01 1.98063E+00-1.78964E-03 8.19999E-01 2.06313E-13-8.66610E-14
 -1       596 2.02789E+01 1.62441E+00-1.99203E-03 9.96037E-01 2.22507E-13 1.02366E-14
 -1       597 2.03885E+01 9.93535E-01 3.38516E-03 1.01937E+00 1.89287E-13 1.48948E-13
 -1       598 1.99998E+01 1.94801E-04 2.45613E-07-2.31200E-04-6.59442E-14-2.89148E-13
 -1       599 1.12587E+01 2.74068E+00 1.42507E-01 2.75521E+00 2.85465E-13-3.88595E-13
 -1       600 2.02513E+01 1.28043E+00-4.09560E-04-6.21156E-01-6.82380E-14-1.95189E-13
 -1       601 2.01390E+01 9.37457E-01 5.92080E-04-1.89545E-01-5.76075E-14-1.66970E-13
 -1       602 1.99438E+01 8.02525E-01 4.47689E-04 1.62256E-01-5.79382E-14-1.33162E-13
 -1       603 1.96699E+01 8.54103E-01 4.09164E-04 4.32473E-01-5.29068E-14-1.16196E-13
 -1       604 1.92525E+01 1.07030E+00 5.38928E-04 6.62067E-01-5.28735E-14-1.37804E-13
 -1       605 1.85849E+01 1.45421E+00 9.50121E-04 8.57629E-01-1.50774E-14-7.08027E-14
 -1       606 1.75012E+01 1.99159E+00 3.18328E-03 1.00115E+00 2.37094E-14-1.63727E-13
 -1       607 1.57586E+01 2.60233E+00 1.53065E-02 1.04614E+00 6.52809E-14-2.24722E-13
 -1       608 1.29882E+01 3.04175E+00 5.36995E-02 9.33459E-01 1.96315E-13-3.53639E-13
 -1       609 2.86439E+01-3.49030E+00-3.10230E-02 1.90270E+00-1.79817E-13-1.97054E-13
 -1       610 2.02489E+01 1.74513E+00 9.21066E-04-9.80853E-01-1.05348E-13-2.50239E-13
 -1       611 1.99999E+01 3.01470E-04-7.79686E-07-2.14530E-04-9.53835E-14 3.14947E-13
 -1       612 1.33879E+01 3.12032E+00 6.59094E-02-1.90066E+00 7.85435E-14 5.17017E-14
 -1       613 1.59514E+01 2.69615E+00 1.84361E-02-1.45252E+00-2.06719E-13 9.51583E-15
 -1       614 1.76685E+01 2.04104E+00 5.34444E-03-1.18764E+00-3.11896E-13 2.05777E-13
 -1       615 1.87419E+01 1.41163E+00 1.79446E-03-9.05163E-01-4.81513E-13 2.23962E-13
 -1       616 1.93278E+01 9.50430E-01 1.20932E-03-6.65812E-01-1.19655E-13 2.17021E-13
 -1       617 1.96572E+01 6.22616E-01 7.62119E-04-4.72587E-01 4.28952E-14 1.59304E-13
 -1       618 1.98369E+01 4.00624E-01 4.85118E-04-3.27226E-01-1.21026E-15 2.85590E-13
 -1       619 1.99313E+01 2.54678E-01 3.01599E-04-2.22661E-01 6.72036E-14 1.75400E-13
 -1       620 1.99786E+01 1.60591E-01 1.85143E-04-1.49743E-01 1.41788E-13 7.83301E-14
 -1       621 2.00006E+01 1.00746E-01 1.14233E-04-9.99510E-02 1.46268E-13 3.07437E-15
 -1       622 2.00094E+01 6.30241E-02 6.64874E-05-6.63702E-02 1.77505E-13-9.02780E-14
 -1       623 2.00117E+01 3.85069E-02 4.06677E-05-4.30860E-02 2.05238E-13 2.79429E-13
 -1       624 2.00109E+01 2.41656E-02 2.37296E-05-2.85047E-02 1.83497E-14 3.62533E-13
 -1       625 2.00091E+01 1.52226E-02 1.40344E-05-1.87847E-02 9.86608E-14 4.20259E-13
 -1       626 2.00071E+01 9.64905E-03 8.44939E-06-1.23043E-02 1.77073E-13 3.18608E-15
 -1       627 2.00053E+01 6.15973E-03 5.11042E-06-7.96816E-03 2.21132E-13 1.33358E-14
 -1       628 2.00037E+01 3.95862E-03 3.07898E-06-5.05566E-03-5.83183E-14 2.57581E-13
 -1       629 2.00026E+01 2.55552E-03 1.71135E-06-3.09342E-03-4.10008E-13 9.36654E-14
 -1       630 2.00016E+01 1.61313E-03 1.24112E-06-1.72013E-03-5.65909E-14 3.87469E-13
 -1       631 2.00010E+01 1.03163E-03 5.92967E-07-8.54298E-04 1.08516E-13 5.34381E-13
 -1       632 2.00006E+01 6.41670E-04 3.19349E-07-2.82225E-04-1.06079E-13 1.55111E-13
 -1       633 2.00003E+01 3.71950E-04 1.40766E-07 8.40844E-05 2.46505E-13-4.07195E-14
 -1       634 2.00001E+01 1.74426E-04 5.10634E-09 3.02380E-04 5.61744E-13 1.56022E-13
 -1       635 1.99999E+01 1.59532E-05 7.89952E-08 4.09210E-04 9.59694E-14-3.97848E-14
 -1       636 1.99999E+01-7.94623E-05-5.02869E-07 4.19904E-04 4.25386E-13 3.51190E-13
 -1       637 2.02201E+01 9.57681E-02 4.67775E-05 1.88401E-01 1.25436E-13 9.01809E-16
 -1       638 2.02047E+01-1.20188E-01-1.28066E-04 1.55683E-01 9.98086E-14-2.56172E-14
 -1       639 2.02633E+01 3.77701E-01 4.31185E-04 3.35160E-01 1.28432E-13-5.44248E-15
 -1       640 2.02465E+01-4.23281E-01-2.84963E-04 3.64913E-01 4.69591E-14 1.79270E-14
 -1       641 2.02759E+01-4.98623E-01-2.84876E-04 5.74993E-01-1.87106E-14 3.67668E-14
 -1       642 2.02803E+01-4.91499E-01-2.17755E-04 8.21515E-01-4.92731E-15 6.76551E-14
 -1       643 2.02317E+01-3.71216E-01-6.55014E-05 1.05864E+00-6.02820E-14 1.32451E-13
 -1       644 2.01097E+01-1.20577E-01 1.47489E-04 1.22045E+00-3.79245E-14 8.83469E-14
 -1       645 1.99161E+01 2.42429E-01 3.59792E-04 1.23115E+00 4.41534E-14-1.35181E-14
 -1       646 1.96876E+01 6.49085E-01 5.17472E-04 1.03051E+00 6.50905E-14-3.53316E-15
 -1       647 1.94925E+01 9.88069E-01 5.97005E-04 6.10154E-01 1.43381E-14 7.83415E-15
 -1       648 1.94030E+01 1.14736E+00 6.08364E-04 3.69843E-02 3.30557E-14 7.73597E-14
 -1       649 1.94564E+01 1.07024E+00 5.69867E-04-5.60739E-01 9.25027E-14 4.23375E-14
 -1       650 1.96319E+01 7.87868E-01 4.94679E-04-1.04491E+00 3.27027E-14-5.44926E-14
 -1       651 1.98630E+01 4.00768E-01 3.50180E-04-1.32662E+00-7.28104E-15-3.37510E-14
 -1       652 2.00767E+01 2.43465E-02 1.74376E-04-1.39180E+00-8.00901E-14-2.74043E-14
 -1       653 2.02248E+01-2.59300E-01-2.44428E-05-1.28654E+00-9.26167E-14 1.10144E-13
 -1       654 2.02949E+01-4.20514E-01-1.60115E-04-1.08216E+00-1.94747E-13 1.29380E-13
 -1       655 2.03006E+01-4.71415E-01-2.60984E-04-8.44030E-01 7.66121E-14 1.32613E-13
 -1       656 2.02659E+01-4.44631E-01-2.77719E-04-6.17494E-01 9.64465E-14 4.44701E-14
 -1       657 2.02134E+01-3.75579E-01-2.49140E-04-4.26311E-01-3.99109E-15-8.64253E-14
 -1       658 2.01592E+01-2.92302E-01-2.02099E-04-2.77904E-01 6.54549E-14-6.40567E-14
 -1       659 2.01121E+01-2.12638E-01-1.50937E-04-1.69999E-01 5.84113E-14 6.87947E-14
 -1       660 2.00752E+01-1.45517E-01-1.05283E-04-9.58749E-02 3.56401E-14 1.28608E-13
 -1       661 2.00485E+01-9.36808E-02-6.88519E-05-4.76887E-02 8.59456E-14 3.29980E-14
 -1       662 2.00302E+01-5.63062E-02-4.21555E-05-1.82009E-02-2.70068E-14 6.25071E-14
 -1       663 2.00183E+01-3.09399E-02-2.37860E-05-1.48465E-03 4.89276E-14 5.23934E-14
 -1       664 2.00109E+01-1.47176E-02-1.18928E-05 6.94939E-03 2.76735E-14-1.02998E-13
 -1       665 2.00064E+01-5.00771E-03-4.67956E-06 1.03071E-02-5.99377E-14 1.15040E-14
 -1       666 2.00038E+01 3.26265E-04-6.44686E-07 1.07656E-02 1.97869E-13 2.07738E-13
 -1       667 2.00023E+01 2.88262E-03 1.35813E-06 9.73402E-03 1.83396E-13 1.71677E-14
 -1       668 2.00014E+01 3.78382E-03 2.14060E-06 8.07760E-03 5.03182E-14 8.05240E-14
 -1       669 2.00009E+01 3.77597E-03 2.24535E-06 6.29423E-03 1.26991E-13 8.83227E-15
 -1       670 2.00005E+01 3.32889E-03 2.01573E-06 4.64447E-03 1.73198E-15 5.28697E-14
 -1       671 2.00003E+01 2.72093E-03 1.65502E-06 3.24302E-03 3.01578E-14-3.30015E-14
 -1       672 2.00002E+01 2.10430E-03 1.27355E-06 2.12024E-03 4.64403E-14 3.37523E-15
 -1       673 2.00000E+01 1.55202E-03 9.10898E-07 1.26196E-03 3.20268E-14-2.02290E-13
 -1       674 2.00000E+01 1.08955E-03 7.42369E-07 6.34201E-04-1.02629E-13-2.88707E-13
 -1       675 1.99999E+01 7.17899E-04 5.22838E-07 2.00776E-04 1.25736E-13-4.35782E-13
 -1       676 1.99999E+01 4.35727E-04 1.88829E-07-7.36676E-05-1.39664E-13-3.82319E-13
 -1       677 1.99999E+01 4.05752E-04-1.53812E-07-1.91426E-04-1.34446E-13-5.64987E-13
 -1       678 1.99999E+01 3.71171E-04-1.82411E-07-2.01797E-04-4.05382E-13 9.06595E-14
 -1       679 2.00000E+01 3.43084E-04 1.84293E-07-1.20392E-04 2.07148E-13 1.12541E-13
 -1       680 2.00001E+01 2.58521E-04 2.23753E-07-3.88856E-05 1.35189E-13 2.62957E-14
 -1       681 2.00001E+01 1.56053E-04 2.32119E-07 7.90383E-05 3.32223E-15-5.08875E-13
 -1       682 2.00001E+01 5.78227E-05 1.47559E-07 2.17380E-04 1.51173E-13 4.63791E-13
 -1       683 2.39552E+01-4.46602E+00 3.59658E-02 5.54881E+00-4.09322E-13-1.41342E-13
 -1       684 1.67839E+01-2.46094E+00 8.78737E-02 7.39521E+00-3.38968E-13-2.48190E-13
 -1       685 2.11977E+01-4.36815E+00 6.57084E-02-6.94536E+00-3.47604E-13-1.95953E-13
 -1       686 8.04380E+00 2.22269E+00 1.83317E-01 1.67060E+00-3.21428E-13 2.14703E-13
 -1       687 1.53322E+01-2.16352E+00 1.18036E-01-7.32204E+00-2.70714E-13-4.35426E-13
 -1       688 9.10408E+00 8.13164E-01 1.75084E-01-4.42967E+00-7.28584E-14-7.14130E-13
 -1       689 2.93743E+01 7.54579E+00-1.69968E-01 1.10294E+00 3.14485E-13 3.60371E-14
 -1       690 2.00545E+01 2.23681E+00-1.69660E-03 5.76848E-01 2.11485E-13-1.49869E-13
 -1       691 2.02168E+01-2.92402E-01-2.26176E-04 2.19318E-01 5.33937E-14-2.15806E-14
 -1       692 1.03709E+01 3.29543E-01 1.45497E-01 5.71450E+00-3.57093E-13-5.99104E-14
 -1       693 1.98863E+01 2.45087E+00-1.62759E-03-6.45913E-01 2.20442E-14-2.55929E-13
 -1       694 2.62653E+01-4.80651E+00-1.85817E-03-4.46736E+00-2.98796E-13 5.38597E-14
 -1       695 2.94321E+01 3.34758E+00-1.21786E-01 2.31425E+00 9.81090E-14 1.88207E-13
 -1       696 2.95252E+01-2.10896E+00-6.42683E-02 8.85543E-02-1.21565E-13 2.30729E-13
 -1       697 2.00000E+01 3.96190E-04 7.05151E-08-1.68798E-04 1.10001E-13-6.81168E-13
 -1       698 9.89027E+00 2.03482E+00 1.89468E-01-3.13983E+00-3.14930E-13 9.38902E-14
 -1       699 2.93123E+01 4.67381E+00-1.37803E-01-2.09868E+00 2.92565E-13-2.30198E-13
 -1       700 1.98440E+01 2.58645E+00-1.47849E-03-2.23683E-01 1.02650E-13-2.42032E-13
 -1       701 2.77976E+01 5.97124E+00-1.17099E-01-1.65232E+00 2.39878E-13-2.31358E-13
 -1       702 2.00000E+01-2.75560E-05-6.49404E-08 3.32953E-04 1.80059E-13 4.37734E-13
 -1       703 2.03233E+01 7.74301E-01 1.60943E-03 6.14469E-01 1.39874E-13 6.21413E-15
 -1       704 2.00068E+01 2.21453E+00-6.20314E-04-8.00334E-01-2.60305E-14-3.07710E-13
 -1       705 8.96122E+00 2.18826E+00 1.59139E-01-1.82423E+00 1.15256E-13-5.65728E-13
 -1       706 1.98374E+01 2.56510E+00-1.53915E-03-4.51598E-01 5.95342E-14-2.28187E-13
 -1       707 2.03343E+01 1.20707E+00-7.04454E-04 6.24181E-01 1.61511E-13-2.70815E-14
 -1       708 2.69460E+01 6.83882E+00-1.09236E-01 1.21218E-02 3.06061E-13-1.86931E-13
 -1       709 2.00002E+01 5.98352E-04-3.43417E-08-1.05431E-04 5.33757E-14-4.91384E-14
 -1       710 2.00001E+01 1.09973E+00-1.17970E-04-1.63675E-01-3.74134E-14-2.00161E-13
 -1       711 1.97609E+01 9.95364E-01 3.85185E-05 4.19470E-02-5.63931E-14-1.87132E-13
 -1       712 1.93742E+01 1.06105E+00-3.98416E-05 1.50530E-01-4.29795E-14-1.62543E-13
 -1       713 1.87762E+01 1.28154E+00-3.53873E-06 1.40748E-01 9.64245E-15-1.80053E-13
 -1       714 1.78640E+01 1.62872E+00 6.97527E-04-3.77437E-02-6.64982E-14-1.88353E-13
 -1       715 1.64879E+01 2.03309E+00 5.17804E-03-4.78500E-01-3.61408E-15-1.90528E-13
 -1       716 1.45242E+01 2.35764E+00 2.29419E-02-1.29675E+00 2.58305E-14-3.20820E-13
 -1       717 1.13338E+01 2.08219E+00 7.16319E-02 3.07298E+00-2.80355E-13 9.54445E-15
 -1       718 1.76323E+01 1.74209E+00 1.90030E-03-6.49510E-02-3.73437E-13 2.00483E-13
 -1       719 1.85752E+01 1.25412E+00 2.89471E-04-1.94292E-01-1.29346E-13 4.72577E-13
 -1       720 1.91611E+01 8.68552E-01 9.03262E-05-2.18037E-01-1.70414E-13 5.30224E-13
 -1       721 1.95177E+01 5.85406E-01 5.90095E-05-1.96132E-01-8.37247E-14 3.14501E-13
 -1       722 1.97301E+01 3.87152E-01 4.34214E-05-1.59398E-01 1.63102E-13 5.69985E-14
 -1       723 1.98539E+01 2.52678E-01 3.17095E-05-1.22407E-01 6.72187E-14 4.80636E-13
 -1       724 1.99246E+01 1.63452E-01 2.47561E-05-9.07996E-02 9.66468E-14 4.38161E-13
 -1       725 1.99638E+01 1.05121E-01 1.62305E-05-6.58096E-02 2.14216E-16 4.18460E-13
 -1       726 1.99855E+01 6.59945E-02 8.26640E-06-4.62294E-02 3.84321E-13 2.92667E-13
 -1       727 1.99958E+01 4.24214E-02 6.97000E-06-3.26737E-02 2.70804E-13 3.61569E-13
 -1       728 2.00007E+01 2.73377E-02 3.95444E-06-2.28563E-02-3.37521E-14 2.71282E-13
 -1       729 2.00026E+01 1.77088E-02 2.60476E-06-1.58322E-02-9.21828E-14 2.58504E-13
 -1       730 2.00031E+01 1.15444E-02 1.72601E-06-1.08326E-02 2.08602E-13 2.43363E-13
 -1       731 2.00028E+01 7.57404E-03 1.17540E-06-7.28713E-03 2.17326E-13 2.37716E-14
 -1       732 2.00024E+01 4.99296E-03 6.01533E-07-4.77976E-03-3.53136E-13-2.76031E-14
 -1       733 2.00018E+01 3.22951E-03 5.82184E-07-2.94661E-03 1.49377E-14 2.17333E-13
 -1       734 2.00014E+01 2.12440E-03 2.44111E-07-1.74090E-03 2.36855E-13 1.93312E-13
 -1       735 2.00009E+01 1.37617E-03 1.30672E-07-9.09661E-04-4.85845E-14 2.35059E-13
 -1       736 2.00006E+01 8.59757E-04 1.52216E-07-3.49478E-04-1.50432E-13 5.13665E-13
 -1       737 2.00004E+01 4.92596E-04 2.44552E-07 1.36130E-05 5.40437E-13 4.52069E-13
 -1       738 2.00002E+01 2.12291E-04 3.80417E-07 2.32599E-04 4.60450E-13 5.46370E-13
 -1       739 2.04664E+01 2.02492E-02-3.81226E-05 1.41043E-01 1.09674E-13-3.45823E-14
 -1       740 2.04200E+01 3.58296E-01-3.27999E-05 2.48590E-01 1.17354E-13-6.86346E-14
 -1       741 2.09345E+01-7.36192E-01-5.74250E-05 6.35813E-01-6.00509E-14 8.51327E-14
 -1       742 2.07888E+01-6.54211E-01-1.16608E-04 3.87618E-01-2.22037E-14 5.31879E-14
 -1       743 2.10860E+01-4.39482E-01 1.70181E-04 1.21586E+00-1.66878E-14 6.74385E-14
 -1       744 2.10073E+01 8.43973E-03 2.22965E-04 1.39545E+00 3.44418E-14 2.69401E-14
 -1       745 2.08147E+01 6.12144E-01 4.28314E-04 1.35975E+00-3.17124E-15 9.14080E-14
 -1       746 2.05714E+01 1.22718E+00 4.17537E-04 1.03037E+00 1.37211E-14 1.59270E-13
 -1       747 2.03869E+01 1.65046E+00 3.96520E-04 4.25318E-01 3.39487E-15 1.70273E-13
 -1       748 2.03555E+01 1.71949E+00 4.68916E-04-3.16247E-01 8.54846E-14 6.19418E-14
 -1       749 2.04922E+01 1.40739E+00 2.19958E-04-9.86140E-01 4.81223E-14 1.34370E-13
 -1       750 2.07191E+01 8.45614E-01-1.94549E-05-1.41476E+00-4.18624E-14 2.10642E-13
 -1       751 2.09238E+01 2.34153E-01 2.08218E-05-1.54797E+00-9.56934E-14 2.26210E-13
 -1       752 2.10255E+01-2.61515E-01-4.98105E-06-1.43855E+00-1.08104E-13 1.64839E-13
 -1       753 2.10044E+01-5.65409E-01 4.03457E-05-1.19161E+00-1.02474E-13 2.08350E-13
 -1       754 2.08888E+01-6.85522E-01-1.02651E-04-9.03335E-01 3.33297E-14 1.42005E-13
 -1       755 2.07238E+01-6.70621E-01-1.18697E-04-6.36810E-01 1.65736E-14 1.01699E-13
 -1       756 2.05500E+01-5.79020E-01-1.00544E-04-4.21031E-01 9.20542E-14 1.43463E-13
 -1       757 2.03938E+01-4.57990E-01-8.08379E-05-2.61232E-01 1.62059E-15 1.25503E-13
 -1       758 2.02673E+01-3.38039E-01-5.76604E-05-1.50588E-01-6.80989E-14 1.59182E-13
 -1       759 2.01725E+01-2.34871E-01-3.72122E-05-7.82336E-02 3.18619E-14 2.12548E-13
 -1       760 2.01058E+01-1.53926E-01-2.18087E-05-3.35040E-02 1.24109E-13 1.33896E-13
 -1       761 2.00614E+01-9.46896E-02-1.20775E-05-7.59363E-03-1.91310E-14 1.58807E-13
 -1       762 2.00333E+01-5.38373E-02-6.16523E-06 6.11180E-03-3.14848E-14 2.38222E-13
 -1       763 2.00165E+01-2.72092E-02-2.71893E-06 1.22751E-02 1.35350E-13 1.76552E-14
 -1       764 2.00071E+01-1.08706E-02-8.21140E-07 1.40306E-02-2.47262E-14-1.22716E-13
 -1       765 2.00021E+01-1.56546E-03 1.31822E-07 1.34015E-02 4.95766E-14-2.91559E-13
 -1       766 1.99999E+01 3.18291E-03 5.46140E-07 1.16428E-02 2.42854E-13-2.77897E-13
 -1       767 1.99990E+01 5.14315E-03 6.65652E-07 9.49628E-03 1.07171E-13-1.90187E-13
 -1       768 1.99989E+01 5.51293E-03 6.35799E-07 7.37306E-03 9.92487E-14-8.22139E-14
 -1       769 1.99990E+01 5.06324E-03 5.40916E-07 5.47740E-03 1.53749E-13 3.72598E-15
 -1       770 1.99993E+01 4.26409E-03 4.28500E-07 3.88983E-03-2.06081E-14-3.57742E-13
 -1       771 1.99995E+01 3.38335E-03 3.17336E-07 2.62088E-03-2.33426E-13-3.07487E-13
 -1       772 1.99997E+01 2.55912E-03 2.11901E-07 1.64501E-03 4.79640E-14 6.35180E-14
 -1       773 1.99998E+01 1.85024E-03 2.84323E-07 9.22316E-04 7.97214E-14-1.92678E-13
 -1       774 1.99999E+01 1.26163E-03-1.73119E-06 4.04188E-04-5.36927E-14-2.19795E-13
 -1       775 1.37165E+01 2.78108E+00 2.53586E-02 6.89817E-01-1.13427E-13-7.73383E-15
 -1       776 2.00002E+01 4.18140E-04-6.29903E-07 2.43258E-05 1.57815E-13 2.39298E-13
 -1       777 2.00001E+01 7.50573E-04-7.34877E-08-1.81060E-04 2.18362E-13-1.54483E-13
 -1       778 1.99999E+01 6.85943E-04 3.97383E-08-8.36982E-05-1.58392E-13-1.60784E-14
 -1       779 2.80502E+01-1.60827E+00-3.70856E-02-5.71629E-01-1.01038E-13-3.08916E-13
 -1       780 2.66753E+01 4.98569E+00-9.16474E-02 1.80437E+00 1.38802E-13 6.86747E-14
 -1       781 1.99999E+01 8.84400E-04-2.02904E-08-1.84133E-04-8.51469E-14-5.20784E-13
 -1       782 1.11660E+01 1.65144E-02 1.27014E-01-5.67019E+00-1.22333E-13-7.24427E-13
 -1       783 2.10494E+01-6.81534E-01 2.72005E-05 9.31589E-01-7.37792E-14 1.19714E-13
 -1       784 1.61530E+01 2.27709E+00 7.64816E-03 2.58665E-01-9.15873E-14 4.25911E-14
 -1       785 1.96559E+01-2.60936E+00 4.60870E-02-5.88945E+00-2.89872E-13-2.25462E-13
 -1       786 1.50523E+01 4.92042E-02 5.75981E-02 5.32688E+00-2.24471E-13-1.72288E-13
 -1       787 2.00000E+01 8.52876E-04-3.51764E-07-2.03699E-04 2.97817E-13 2.77754E-13
 -1       788 2.01208E+01 1.39754E+00-6.70282E-04-4.58798E-01-5.50329E-14-2.55858E-13
 -1       789 2.34909E+01-3.92924E+00 2.25810E-02-4.73272E+00-3.02590E-13-7.82634E-14
 -1       790 2.58710E+01-3.68475E+00-1.51226E-02 2.53535E+00-4.20080E-13-1.47150E-14
 -1       791 2.01192E+01 2.01382E+00 2.10205E-04-9.03567E-01-4.96084E-14-2.76859E-13
 -1       792 2.78255E+01 1.87591E+00-6.54769E-02-2.13718E+00 5.19255E-14-3.37485E-13
 -1       793 2.73948E+01 3.18871E-01-4.64845E-02 1.78389E+00-2.97574E-14 1.38947E-13
 -1       794 2.01424E+01 1.84926E+00-3.66600E-04 5.71724E-02 1.18706E-13-1.89719E-13
 -1       795 2.07484E+01-2.74785E+00 3.99840E-02 5.47633E+00-2.58320E-13-1.70370E-13
 -1       796 2.69848E+01-3.55529E+00-7.02205E-04-1.68337E+00-1.02730E-13 1.26817E-13
 -1       797 1.49090E+01-4.41109E-01 7.37165E-02-5.66950E+00-2.02172E-13-4.31847E-13
 -1       798 2.05407E+01-2.56252E-01-7.19300E-05 1.31849E-01 8.55611E-14 2.85881E-15
 -1       799 1.99999E+01 8.39039E-04 9.21612E-08-1.12857E-04-3.47093E-13-1.33639E-13
 -1       800 2.06502E+01-4.83901E-01-9.39962E-05 2.15779E-01 4.13103E-14 4.65646E-14
 -1       801 1.99999E+01 9.80608E-04 6.08101E-07 1.08956E-04-8.46710E-14-1.58092E-13
 -1       802 1.99999E+01 8.85949E-04 2.93652E-07-1.51356E-04-3.42294E-13-1.21869E-15
 -1       803 2.03808E+01 7.96604E-01 5.59483E-04 4.61720E-01 1.48921E-13-2.37130E-14
 -1       804 2.57153E+01 2.18234E+00-2.69544E-02 2.16975E+00 8.59382E-15 5.65229E-14
 -1       805 2.00218E+01 1.81477E+00-5.54552E-04-5.30685E-01-1.79650E-14-2.46240E-13
 -1       806 1.19426E+01 1.70447E+00 8.41274E-02-3.37214E+00-1.69535E-14-5.59813E-13
 -1       807 2.33126E+01-3.04542E+00 7.02242E-03 3.39860E+00-3.66755E-13-6.14348E-14
 -1       808 2.02218E+01 1.69047E+00-4.79446E-04 2.78755E-01 1.42532E-13-1.57859E-13
 -1       809 2.02898E+01 1.47862E+00-5.00361E-04 4.81359E-01 1.57159E-13-1.46043E-13
 -1       810 1.99829E+01 1.96032E+00-4.45509E-04-4.60173E-01 1.78998E-14-2.01491E-13
 -1       811 2.67631E+01 3.45699E+00-5.69621E-02-2.18200E+00 1.91258E-13-3.45115E-13
 -1       812 2.00637E+01 1.95566E+00-3.12077E-04-1.55110E-01 9.26401E-14-2.28101E-13
 -1       813 2.66422E+01-1.81970E+00-1.22914E-02 6.22551E-01-7.43437E-14 6.62131E-14
 -1       814 2.00255E+01 1.43944E+00 1.07845E-03-3.84170E-01 4.94049E-15-2.44641E-13
 -1       815 1.96309E+01 1.03912E+00-7.49644E-05-2.08821E-01-3.10967E-14-1.93708E-13
 -1       816 1.92134E+01 1.05788E+00-9.49111E-05-3.23249E-01-4.41322E-14-1.57384E-13
 -1       817 1.86065E+01 1.16544E+00 9.15821E-05-6.40255E-01-4.57445E-14-2.02483E-13
 -1       818 1.77671E+01 1.28107E+00 1.18373E-03-1.24957E+00-3.93669E-14-2.10659E-13
 -1       819 1.66831E+01 1.24890E+00 7.18110E-03-2.27934E+00-1.34721E-13-2.82657E-13
 -1       820 1.72149E+01 1.51187E+00 1.22832E-03 1.22269E+00 5.64942E-14 1.59826E-13
 -1       821 1.88257E+01 9.28701E-01 2.50321E-05 2.82553E-01-2.06297E-13 1.61731E-13
 -1       822 1.92654E+01 6.69366E-01-4.18936E-05 1.03227E-01-9.61330E-14 8.77005E-14
 -1       823 1.95502E+01 4.67461E-01-4.15426E-05 1.51050E-02-5.19188E-14 4.10196E-13
 -1       824 1.97304E+01 3.19378E-01-2.58751E-05-2.34279E-02 1.17468E-13 3.83800E-13
 -1       825 1.98420E+01 2.14942E-01-1.29650E-05-3.64678E-02-6.66314E-14 1.60664E-13
 -1       826 1.99098E+01 1.43169E-01-6.39797E-06-3.72803E-02 1.53382E-13 1.92484E-13
 -1       827 1.99516E+01 9.29424E-02-9.81504E-06-3.27387E-02 1.80859E-13 4.47948E-13
 -1       828 1.99744E+01 6.15298E-02-1.81223E-06-2.68588E-02 2.95903E-13 5.04713E-13
 -1       829 1.99873E+01 4.07595E-02-1.98801E-06-2.10348E-02-3.13202E-14 2.12298E-13
 -1       830 1.99944E+01 2.70992E-02-1.09879E-06-1.59468E-02-1.88145E-13 1.01922E-13
 -1       831 1.99982E+01 1.81076E-02-5.82291E-07-1.17671E-02-3.29641E-14-5.96008E-14
 -1       832 2.00000E+01 1.21636E-02-2.05468E-07-8.46435E-03 1.87978E-13 6.21375E-15
 -1       833 2.00008E+01 8.20322E-03-2.42646E-07-5.92181E-03-9.57591E-14 1.38390E-14
 -1       834 2.00011E+01 5.43520E-03-4.73933E-08-3.93068E-03 3.22484E-14 4.23345E-13
 -1       835 2.00011E+01 3.66467E-03-6.21500E-08-2.54424E-03 6.61990E-14 3.57752E-13
 -1       836 2.00009E+01 2.44561E-03-6.47840E-08-1.54017E-03 2.28072E-13 3.00096E-13
 -1       837 2.00007E+01 1.59598E-03 6.77715E-08-8.30719E-04 8.75290E-14 5.26564E-13
 -1       838 2.00005E+01 9.94443E-04 6.24950E-07-3.46288E-04 3.18886E-13 9.26391E-13
 -1       839 2.00004E+01 6.92148E-04 3.32940E-07-1.22949E-04 2.81139E-13 6.82237E-13
 -1       840 2.46903E+01 5.06500E+00-4.81937E-02 6.69074E-01 1.37541E-13-3.79465E-15
 -1       841 2.19959E+01 2.80363E-01 2.72316E-04 1.56450E+00-1.81170E-14 1.24186E-13
 -1       842 2.20535E+01-4.55993E-01-1.29110E-04 1.34535E+00 2.87485E-14 8.01616E-14
 -1       843 2.14824E+01 2.05156E+00-9.18973E-05 9.42514E-01 1.05138E-14 8.19636E-14
 -1       844 2.13249E+01 2.46390E+00 7.65292E-04 9.28169E-02 7.33966E-14 3.93086E-14
 -1       845 2.13977E+01 2.25276E+00 7.92559E-04-8.08563E-01 4.45710E-14 8.42627E-14
 -1       846 2.16357E+01 1.52754E+00-1.06356E-03-1.45069E+00-4.46542E-14 5.16858E-14
 -1       847 2.18743E+01 6.07369E-01-1.40783E-03-1.68522E+00-1.03715E-13 1.22885E-13
 -1       848 2.19610E+01-1.91335E-01-6.71500E-04-1.56126E+00-1.44992E-13 2.64663E-13
 -1       849 2.18547E+01-7.03252E-01 3.98438E-04-1.23627E+00-8.08355E-14 2.22137E-13
 -1       850 2.16006E+01-9.25352E-01-1.28045E-04-8.69743E-01-3.29839E-14 1.43496E-13
 -1       851 2.12786E+01-9.29944E-01-1.01965E-04-5.50578E-01 8.55121E-14 1.31367E-13
 -1       852 2.09565E+01-8.11066E-01-5.04412E-05-3.13808E-01 3.61794E-14 1.64250E-13
 -1       853 2.06762E+01-6.44135E-01-4.84263E-05-1.56610E-01-5.64793E-14 2.57623E-13
 -1       854 2.04541E+01-4.76590E-01-3.80581E-05-6.14704E-02-2.11312E-14 2.72061E-13
 -1       855 2.02902E+01-3.32135E-01-2.26337E-05-8.92944E-03-2.84890E-14 1.58545E-13
 -1       856 2.01761E+01-2.18709E-01-8.26913E-06 1.68330E-02 5.69173E-14 1.91598E-13
 -1       857 2.01006E+01-1.35586E-01-2.00556E-06 2.69981E-02 2.17054E-14 2.62160E-13
 -1       858 2.00532E+01-7.80761E-02 2.59338E-07 2.87874E-02-8.70074E-14 1.71942E-13
 -1       859 2.00249E+01-4.03679E-02 9.10316E-07 2.65327E-02 2.12085E-13 1.08201E-13
 -1       860 2.00091E+01-1.70039E-02 9.57644E-07 2.26641E-02 9.27305E-14 8.98328E-14
 -1       861 2.00011E+01-3.48757E-03 7.57819E-07 1.84558E-02 1.50900E-13 3.70227E-14
 -1       862 1.99975E+01 3.59898E-03 5.39089E-07 1.45191E-02 7.08766E-14-1.27594E-14
 -1       863 1.99964E+01 6.70343E-03 3.62857E-07 1.11039E-02 1.68634E-13 1.01832E-13
 -1       864 1.99965E+01 7.49357E-03 2.33821E-07 8.27300E-03 2.47123E-14 6.95524E-14
 -1       865 1.99972E+01 7.05411E-03 1.42536E-07 5.99955E-03 1.22799E-13-2.68560E-14
 -1       866 1.99979E+01 6.05615E-03 8.03455E-08 4.21814E-03 3.63194E-13-3.55457E-14
 -1       867 1.99986E+01 4.89066E-03 4.25764E-08 2.85212E-03-1.53485E-13-5.05683E-14
 -1       868 1.99991E+01 3.76700E-03 3.89532E-09 1.82646E-03-3.63642E-13-2.49176E-13
 -1       869 1.99995E+01 2.78168E-03-1.70218E-08 1.07346E-03 2.38558E-14-2.07321E-13
 -1       870 1.99997E+01 1.95711E-03 2.69710E-07 5.31082E-04 2.92994E-14-1.14319E-13
 -1       871 2.00003E+01 9.62936E-04-2.39654E-07-2.55913E-04 2.01951E-13-1.48041E-13
 -1       872 2.60242E+01-2.43516E+00-1.89070E-02 2.49005E-01-2.34225E-13-3.12471E-13
 -1       873 1.56102E+01 1.70017E+00 1.44202E-02 2.29533E+00-1.98765E-13-1.54837E-13
 -1       874 2.00002E+01 1.19294E-03-1.37225E-07-3.10102E-04 1.82791E-13-1.61904E-13
 -1       875 2.04622E+01 7.39218E-01-1.26070E-04 2.73437E-01 1.33854E-13-8.62028E-14
 -1       876 2.17665E+01 1.20949E+00 3.52203E-04 1.46358E+00-5.63234E-14 9.25177E-14
 -1       877 2.45287E+01-3.20206E+00 6.21094E-03-2.36627E+00-1.75878E-13-6.80627E-14
 -1       878 2.13792E+01-9.25081E-01-1.37303E-04 3.14455E-01-2.24468E-14 6.43747E-14
 -1       879 2.54524E+01 5.40449E+00-5.98947E-02-1.02628E+00 1.96324E-13-2.05416E-13
 -1       880 2.00037E+01 1.99834E+00-4.50705E-04-3.32592E-01 7.97424E-14-2.12726E-13
 -1       881 2.05749E+01 2.79406E-01-8.84855E-05 1.11280E-01 1.21668E-13-9.21416E-14
 -1       882 1.85495E+01-8.63365E-01 1.08367E-02 4.44156E+00-2.71881E-13-4.78888E-14
 -1       883 1.81661E+01 1.22977E+00 3.82753E-04 6.21679E-01-1.82311E-13 3.81603E-13
 -1       884 2.25640E+01-2.87200E+00 1.70765E-02-3.83531E+00-1.96982E-13-6.34444E-14
 -1       885 2.63292E+01-5.12073E-02-2.22078E-02-1.68758E+00-5.95487E-14-2.59956E-13
 -1       886 1.98973E+01 1.15023E+00-1.56611E-04-2.43401E-01 4.59717E-15-2.17854E-13
 -1       887 2.03883E+01 1.08950E+00 7.01653E-04 3.74496E-01 1.32976E-13-1.30035E-13
 -1       888 1.49448E+01 9.41230E-01 3.06260E-02-3.78777E+00-9.76390E-14-4.42681E-13
 -1       889 1.80803E+01-1.02000E+00 2.85157E-02-4.88038E+00-1.67304E-13-2.22065E-13
 -1       890 2.44306E+01-2.72296E+00 3.95564E-03 1.42413E+00-3.59904E-13-1.57132E-13
 -1       891 2.50761E+01-2.48115E+00-6.86691E-03-3.96891E-01-6.03383E-14 5.04438E-14
 -1       892 1.99998E+01 1.23545E-03 1.96730E-07 4.44080E-05-2.13038E-13-1.13668E-15
 -1       893 2.11033E+01-7.15404E-01-6.91490E-05 1.20951E-01 1.61178E-14 7.47878E-14
 -1       894 2.57664E+01 2.65280E-03-1.60202E-02 1.75511E+00-8.48306E-14 7.15899E-14
 -1       895 2.19246E+01-8.77108E-01 2.70471E-04 9.80507E-01-1.38626E-14 4.66197E-14
 -1       896 2.00270E+01 1.55371E+00 2.52468E-05-4.08420E-01 1.65569E-14-2.12949E-13
 -1       897 2.16733E+01-1.00661E+00 1.24742E-04 6.09188E-01-8.58379E-14 3.38324E-14
 -1       898 1.99998E+01 1.45442E-03-1.51114E-08-1.31378E-04 2.10293E-14-9.10563E-14
 -1       899 2.00000E+01 1.35049E-03-4.64894E-07-2.85442E-04 3.81134E-14 1.45912E-13
 -1       900 1.61558E+01 8.97197E-01 1.60512E-02 3.44427E+00-2.12593E-13-2.34250E-13
 -1       901 2.40349E+01 3.23601E+00-1.48351E-02 1.60799E+00 2.55800E-14-9.94105E-15
 -1       902 2.56479E+01 1.24315E+00-2.22810E-02-2.07852E+00 1.03864E-13-3.47489E-13
 -1       903 2.07049E+01-1.03245E-01-3.83388E-05 2.76910E-02 7.23546E-14-4.05763E-14
 -1       904 2.09991E+01-1.79417E+00 1.52494E-04 3.51592E+00-1.36966E-13-2.29971E-13
 -1       905 1.45529E+01 1.66434E+00 4.12986E-02 2.96865E+00-1.04458E-13-9.77976E-14
 -1       906 2.02699E+01 1.36459E+00-1.11245E-05-1.55649E-01 7.59653E-14-1.93775E-13
 -1       907 2.03661E+01 1.21812E+00 4.43693E-04 2.50082E-02 1.13223E-13-1.69061E-13
 -1       908 1.99999E+01 1.43632E-03-8.88002E-08-2.20864E-04 2.92875E-13-1.15175E-13
 -1       909 1.92069E+01 5.80204E-01 6.78559E-05 5.08496E-01-2.19302E-13 6.31941E-14
 -1       910 1.93640E+01 7.71441E-01 1.81633E-04-8.71463E-01-5.93023E-14-1.29695E-13
 -1       911 1.89834E+01 6.42968E-01 6.29286E-04-1.44207E+00-6.91882E-14-1.48571E-13
 -1       912 1.86055E+01 3.62990E-01 2.15651E-03-2.33344E+00-1.31010E-13-1.85429E-13
 -1       913 2.31701E+01-4.08179E-01-2.32942E-03 1.47462E+00-3.31238E-14 2.91219E-14
 -1       914 1.82512E+01-9.58277E-02 6.88444E-03-3.43882E+00-1.85793E-13-2.11252E-13
 -1       915 1.94731E+01 4.44088E-01-3.35899E-06 2.73898E-01-5.85060E-15-4.25750E-14
 -1       916 1.96588E+01 3.25755E-01-2.88680E-06 1.37579E-01 1.23882E-13-1.17262E-14
 -1       917 1.97838E+01 2.32355E-01-4.37009E-06 6.12983E-02 7.65385E-14 2.07667E-13
 -1       918 1.98658E+01 1.62614E-01-4.00922E-06 2.06053E-02 5.79150E-14 4.17432E-13
 -1       919 1.99202E+01 1.10509E-01-1.27315E-05-3.11803E-04 2.33983E-13 1.00517E-13
 -1       920 1.99524E+01 7.60781E-02-3.46924E-06-8.81002E-03 2.61282E-13 1.62314E-13
 -1       921 1.99722E+01 5.22433E-02-4.18734E-06-1.14476E-02 9.00408E-16 1.28377E-13
 -1       922 1.99843E+01 3.59110E-02-2.91760E-06-1.12018E-02-1.73593E-13-2.98219E-14
 -1       923 1.99915E+01 2.47498E-02-1.97352E-06-9.70147E-03-2.67612E-13 3.71422E-13
 -1       924 1.99957E+01 1.71108E-02-1.17374E-06-7.81585E-03-5.22555E-15 2.89595E-13
 -1       925 1.99981E+01 1.18529E-02-9.13452E-07-5.97229E-03 6.43058E-14 3.85871E-14
 -1       926 1.99995E+01 8.06568E-03-6.21190E-07-4.29493E-03 2.85476E-13 1.02235E-13
 -1       927 2.00001E+01 5.57548E-03-3.32455E-07-2.99956E-03 9.90009E-14 2.20211E-13
 -1       928 2.00004E+01 3.82036E-03-2.71035E-07-1.98893E-03 1.46671E-13 4.65258E-13
 -1       929 2.00005E+01 2.57556E-03-3.58058E-08-1.23125E-03 1.61587E-13 2.24331E-13
 -1       930 2.00005E+01 1.68571E-03 3.53456E-07-6.86574E-04 1.41200E-13 3.51767E-13
 -1       931 2.00004E+01 1.30151E-03-2.19135E-07-4.40064E-04-8.26779E-14 1.67460E-15
 -1       932 2.24567E+01 3.28315E+00-1.15116E-02-4.44721E-01 6.73000E-14-6.83134E-15
 -1       933 2.24909E+01 3.16894E+00-8.61781E-04 7.18988E-01 5.75191E-14 2.55064E-14
 -1       934 2.29560E+01 1.22484E+00-2.71405E-03-1.85257E+00-3.25174E-15-2.44896E-13
 -1       935 2.30767E+01-1.16329E-02 2.57834E-03-1.69141E+00-1.49953E-13-3.50245E-13
 -1       936 2.28606E+01-8.65434E-01 1.01150E-05-1.21328E+00-1.06050E-13-2.00822E-13
 -1       937 2.24424E+01-1.21087E+00 1.28959E-04-7.31084E-01 2.84186E-14-6.90192E-14
 -1       938 2.19121E+01-1.23206E+00-2.26494E-04-3.31727E-01-1.33289E-14 5.10808E-15
 -1       939 2.14032E+01-1.06904E+00 6.08745E-05-7.54018E-02-2.57328E-14 1.95685E-13
 -1       940 2.09733E+01-8.39487E-01 3.17544E-05 6.18900E-02-1.04445E-13 3.50368E-13
 -1       941 2.06421E+01-6.13242E-01-6.30147E-06 1.17879E-01-8.13235E-14 3.39235E-13
 -1       942 2.04034E+01-4.22285E-01-2.28031E-05 1.27122E-01 8.35979E-14 2.53654E-13
 -1       943 2.02406E+01-2.75018E-01 2.47044E-06 1.14003E-01-2.67157E-14 2.46699E-13
 -1       944 2.01348E+01-1.68734E-01 7.06164E-06 9.29115E-02 5.74978E-14 4.08189E-13
 -1       945 2.00692E+01-9.61299E-02 5.47355E-06 7.14556E-02-1.15225E-13 3.82824E-13
 -1       946 2.00307E+01-4.89959E-02 3.30687E-06 5.29327E-02 1.29602E-13 3.16376E-13
 -1       947 2.00095E+01-2.00079E-02 2.02608E-06 3.82467E-02 1.03434E-13 3.24035E-13
 -1       948 1.99989E+01-3.33469E-03 1.04080E-06 2.71739E-02 1.72494E-13 3.12367E-13
 -1       949 1.99945E+01 5.35760E-03 4.51569E-07 1.90816E-02 3.11657E-13 8.69553E-14
 -1       950 1.99934E+01 9.12643E-03 1.35610E-07 1.32778E-02 1.06526E-13-1.17641E-13
 -1       951 1.99939E+01 1.00361E-02-4.06563E-09 9.15838E-03 1.45070E-13 4.20365E-14
 -1       952 1.99950E+01 9.42320E-03-8.06734E-08 6.24876E-03 2.27771E-13 6.83241E-14
 -1       953 1.99963E+01 8.11620E-03-9.10505E-08 4.19662E-03 3.25051E-13-3.99103E-14
 -1       954 1.99974E+01 6.59832E-03-9.66031E-08 2.74974E-03 8.81783E-14 2.49048E-13
 -1       955 1.99983E+01 5.13173E-03-7.01401E-08 1.73129E-03-1.27535E-13 2.31260E-13
 -1       956 1.99990E+01 3.83943E-03-1.00025E-07 1.01852E-03-1.73644E-13 2.68873E-13
 -1       957 1.99994E+01 2.76794E-03-2.52917E-07 5.20330E-04 1.17320E-13 2.45128E-13
 -1       958 2.08764E+01-4.33296E-01-2.78700E-05 2.86458E-02 1.44330E-14 3.69240E-14
 -1       959 2.33562E+01 4.12124E+00-1.63197E-02-5.08714E-01 9.25527E-14-1.56159E-13
 -1       960 1.83751E+01 5.07047E-02 5.09319E-03 3.08087E+00-8.27116E-14 2.06606E-14
 -1       961 1.99998E+01 1.40595E-03-3.85627E-07-3.00797E-05-1.25286E-13 8.74465E-14
 -1       962 2.29707E+01-2.42183E+00 2.07417E-03-2.32201E+00-7.85758E-14-1.68915E-13
 -1       963 2.01609E+01 1.47287E+00 9.32716E-05-3.03078E-01 6.57530E-14-2.22896E-13
 -1       964 2.00742E+01 1.55101E+00 7.95428E-04-3.75802E-01 2.94783E-14-1.38718E-13
 -1       965 2.48655E+01-1.15518E+00-1.42717E-02-1.03383E+00-1.94238E-13-2.01063E-13
 -1       966 2.00002E+01 1.61088E-03-1.22231E-07-4.68688E-04-3.46690E-13-4.37462E-14
 -1       967 2.42764E+01 3.38707E+00-2.13122E-02-1.70922E+00 1.07447E-13-3.01969E-13
 -1       968 2.05443E+01 6.37683E-01-5.95129E-04 6.24258E-02 1.22931E-13-1.42942E-13
 -1       969 2.03873E+01 1.16705E+00 4.69561E-04 2.08111E-01 1.11488E-13-1.59256E-13
 -1       970 2.08330E+01-1.63104E+00 1.24485E-03-3.44368E+00-1.93820E-13-1.28593E-13
 -1       971 2.26663E+01 2.52722E+00-4.38771E-03-1.43524E+00 4.13150E-14-2.75656E-14
 -1       972 1.83885E+01 7.62018E-01-8.99597E-04 1.51807E+00-1.64365E-14-1.11066E-13
 -1       973 1.96751E+01 8.82444E-01-4.90581E-05-5.44008E-01-2.01627E-14-1.26779E-13
 -1       974 1.98964E+01 1.05354E+00 4.65782E-05-3.95766E-01 2.75040E-14-1.86643E-13
 -1       975 1.88412E+01 7.10935E-01 4.42429E-04 8.98608E-01-2.26403E-13-4.12895E-14
 -1       976 1.76697E+01 7.60407E-01 6.51641E-03 2.44924E+00 1.13670E-13 2.09884E-14
 -1       977 2.29225E+01-1.08769E+00-2.09170E-03 9.69452E-01-1.82053E-14-1.22515E-14
 -1       978 2.31241E+01 7.48141E-01-2.84558E-03 1.75314E+00-4.46661E-15 4.46074E-14
 -1       979 2.42515E+01-1.90707E+00 9.38114E-03-1.54356E-01-4.02016E-13-1.96927E-13
 -1       980 2.37674E+01-2.29304E+00-4.62907E-03-8.41657E-01-3.46553E-15 2.37768E-14
 -1       981 2.15537E+01-9.78878E-01-1.20657E-04-9.30924E-02 1.82069E-14-1.08800E-14
 -1       982 2.49881E+01-1.44376E+00-2.17785E-03 8.84724E-01-4.44017E-14 2.46878E-14
 -1       983 1.99997E+01 2.12207E-03-4.72478E-07 2.33488E-05 2.76128E-13 1.49051E-14
 -1       984 2.39649E+01 1.44136E+00-1.02830E-02 1.91124E+00-2.35150E-14 2.07715E-14
 -1       985 2.00000E+01 1.83077E-03 5.32710E-07-3.88765E-04-2.83184E-13-2.59003E-13
 -1       986 2.03324E+01 9.66735E-01 2.35075E-04-3.47577E-01 1.86352E-14-2.14036E-13
 -1       987 2.25911E+01-2.21861E+00-1.88863E-04 2.21813E+00-2.44682E-13-5.86313E-14
 -1       988 2.28307E+01 2.12047E+00-1.17969E-03 1.53402E+00-2.61790E-14-3.99917E-15
 -1       989 2.07159E+01 1.62295E-01-5.35926E-05-7.76371E-02 6.63463E-14-8.22017E-14
 -1       990 2.04772E+01 8.08938E-01 2.09872E-04-2.03399E-01 5.03287E-14-1.43745E-13
 -1       991 1.99997E+01 2.03602E-03 1.54782E-06 1.81990E-04 1.92427E-13 2.05476E-13
 -1       992 2.20046E+01-1.24067E+00-1.42072E-04 1.16395E-01-4.82959E-14 3.56455E-14
 -1       993 1.99997E+01 2.15697E-03 1.70486E-07-1.66575E-04 1.48795E-13 3.85877E-14
 -1       994 2.46170E+01-3.58134E-01-4.18504E-03-1.59185E+00-1.64017E-13-2.55658E-13
 -1       995 1.87579E+01 3.51491E-01 3.59593E-06 1.97846E+00 3.19319E-15-1.91623E-13
 -1       996 1.98812E+01 2.27643E-01 6.00682E-04-1.30177E+00-4.58932E-14-1.79187E-13
 -1       997 1.99141E+01-1.82750E-01 1.15127E-03-1.94118E+00-1.05848E-13-1.48328E-13
 -1       998 2.34256E+01-1.61989E+00 1.25520E-03-4.33658E-01-2.48613E-13-1.61975E-13
 -1       999 1.96856E+01 2.44414E-01 5.11366E-05 3.25188E-01 4.52651E-16 1.47088E-13
 -1      1000 1.97815E+01 1.94695E-01 2.21402E-05 1.84741E-01 9.85844E-14-2.00014E-14
 -1      1001 1.98524E+01 1.48487E-01 9.96665E-06 9.95560E-02 1.50674E-13-1.34040E-13
 -1      1002 1.99044E+01 1.08605E-01-1.36963E-05 4.78134E-02 1.46828E-13-5.96870E-14
 -1      1003 1.99379E+01 7.93724E-02-8.33536E-06 2.05390E-02 3.29826E-13-6.28482E-14
 -1      1004 1.99603E+01 5.74546E-02-9.75821E-06 6.00271E-03 1.36821E-13-2.58678E-13
 -1      1005 1.99751E+01 4.13941E-02-7.86725E-06-1.10781E-03-1.22867E-13-2.25623E-13
 -1      1006 1.99847E+01 2.97561E-02-5.96307E-06-4.05783E-03 1.92595E-13 2.44200E-13
 -1      1007 1.99908E+01 2.13624E-02-4.19436E-06-4.80596E-03-1.63815E-13 4.58865E-13
 -1      1008 1.99947E+01 1.53073E-02-3.00693E-06-4.48310E-03-3.35940E-14 2.49394E-13
 -1      1009 1.99972E+01 1.07527E-02-2.36464E-06-3.68857E-03 9.40931E-15 1.35666E-13
 -1      1010 1.99986E+01 7.64189E-03-1.47643E-06-2.83862E-03 2.34732E-13-5.16468E-14
 -1      1011 1.99995E+01 5.37844E-03-1.16231E-06-2.05440E-03 2.53104E-13-7.29840E-14
 -1      1012 2.00000E+01 3.72835E-03-6.48441E-07-1.40121E-03 2.52879E-13 1.58742E-13
 -1      1013 2.00002E+01 2.53141E-03-2.58054E-07-8.95453E-04 4.91886E-14 6.18908E-14
 -1      1014 2.00002E+01 2.03952E-03 1.11379E-07-6.57258E-04-1.31635E-13-5.39069E-14
 -1      1015 2.26015E+01-1.59221E+00 3.55298E-04 6.02889E-02-1.06119E-13 5.14321E-14
 -1      1016 2.18466E+01-1.35333E+00 7.96733E-04 3.34290E-01-7.81432E-14 3.43770E-14
 -1      1017 2.12346E+01-1.02945E+00 3.82847E-04 4.24424E-01-1.30000E-13 4.53245E-14
 -1      1018 2.07864E+01-7.29331E-01 1.50788E-04 4.06939E-01-7.18993E-14-2.92647E-14
 -1      1019 2.04748E+01-4.84512E-01 5.02603E-05 3.40896E-01 4.41968E-14-1.54722E-14
 -1      1020 2.02718E+01-3.05079E-01 1.21721E-04 2.64253E-01 8.21166E-14 1.99885E-13
 -1      1021 2.01443E+01-1.79996E-01 8.00190E-05 1.93415E-01 2.06391E-14 2.37830E-14
 -1      1022 2.00684E+01-9.75452E-02 4.87732E-05 1.35749E-01-6.84203E-14 1.39433E-13
 -1      1023 2.00256E+01-4.57599E-02 2.82565E-05 9.22948E-02 2.67303E-14 1.57865E-13
 -1      1024 2.00032E+01-1.49858E-02 1.51451E-05 6.12005E-02 2.53875E-13 2.55319E-14
 -1      1025 1.99929E+01 2.01693E-03 7.30729E-06 3.97778E-02 1.65919E-13-1.72144E-13
 -1      1026 1.99893E+01 1.03580E-02 2.89136E-06 2.54447E-02 3.49654E-13-2.83451E-13
 -1      1027 1.99891E+01 1.35030E-02 6.02052E-07 1.60679E-02 2.01195E-13-1.22736E-13
 -1      1028 1.99906E+01 1.37209E-02-4.82262E-07 1.00365E-02-1.68337E-13 6.43526E-14
 -1      1029 1.99926E+01 1.24448E-02-8.39839E-07 6.20274E-03 2.57550E-13-1.19494E-14
 -1      1030 1.99945E+01 1.05436E-02-8.96399E-07 3.78578E-03 3.55270E-13-1.03425E-13
 -1      1031 1.99962E+01 8.51466E-03-9.25848E-07 2.26371E-03 9.42769E-14 1.19179E-13
 -1      1032 1.99975E+01 6.62007E-03-7.60406E-07 1.30621E-03-9.11270E-14 2.09048E-13
 -1      1033 1.99985E+01 4.97752E-03-4.82006E-07 7.01619E-04-2.59359E-13 1.89019E-13
 -1      1034 1.99991E+01 3.62434E-03-1.14396E-06 3.25410E-04 1.59246E-13 8.76979E-14
 -1      1035 2.24907E+01-1.33038E+00-6.86593E-04 4.75663E-01-8.95057E-14 1.41842E-14
 -1      1036 2.11899E+01-6.34708E-01 8.38427E-05-1.74647E-01-2.71145E-14-6.34889E-14
 -1      1037 2.01864E+01 1.10578E+00 1.50364E-04-4.10492E-01-5.17095E-15-1.47112E-13
 -1      1038 2.01766E+01-7.55391E-01 2.15668E-03-2.65354E+00-1.25255E-13-1.49370E-13
 -1      1039 1.99541E+01 5.22520E-01 1.54020E-04-8.56343E-01-9.31351E-15-2.11687E-13
 -1      1040 1.99999E+01 2.02075E-03 4.18364E-07-2.98719E-04 1.31739E-13-1.07718E-13
 -1      1041 2.02721E+01-9.07348E-01 1.89983E-03 2.58424E+00-8.78555E-14-2.17138E-13
 -1      1042 1.95644E+01 2.84956E-01 7.87197E-05 5.50169E-01-1.64930E-13 1.33188E-13
 -1      1043 2.00421E+01 8.00266E-01-3.99716E-04-5.79005E-01 1.94519E-15-2.24640E-13
 -1      1044 2.00942E+01 1.11989E+00-4.58365E-04-4.31814E-01 2.27106E-14-1.61799E-13
 -1      1045 1.94226E+01 2.91417E-01 6.45825E-05 9.00071E-01-3.38737E-14 7.35098E-14
 -1      1046 2.41255E+01-1.35762E+00 2.22200E-03 8.71339E-01-6.64163E-14-7.76198E-14
 -1      1047 2.09170E+01-2.52957E-01 4.98223E-05-1.60593E-01 3.25288E-16-6.09057E-14
 -1      1048 2.25512E+01-1.87213E+00 7.46903E-04-1.45482E+00-1.13823E-13-8.28384E-14
 -1      1049 1.99999E+01 2.32033E-03-1.70656E-07-5.25078E-04-1.98275E-13-7.23353E-13
 -1      1050 1.99994E+01 3.02185E-03-2.73293E-07 1.97213E-05 3.89416E-13-2.05272E-13
 -1      1051 2.15721E+01-1.50229E+00 2.25646E-03-2.23236E+00-1.50129E-13-1.86433E-13
 -1      1052 2.14265E+01-8.37189E-01-1.65252E-03-5.00119E-01-2.89184E-14-7.41186E-14
 -1      1053 2.05376E+01 4.66474E-01-7.78549E-04-4.32842E-01 2.38996E-14-1.34365E-13
 -1      1054 2.40972E+01-2.04074E-01 7.14984E-04 1.61925E+00-1.06694E-14-3.16888E-14
 -1      1055 1.93079E+01 2.02502E-01 8.15047E-04 1.42280E+00-2.32431E-14-1.78906E-13
 -1      1056 2.19530E+01-1.26610E+00-1.19882E-04-4.72610E-01-7.64955E-14 6.75726E-14
 -1      1057 2.03402E+01 6.61081E-01 5.78184E-04-5.24037E-01-2.06709E-14-1.43224E-13
 -1      1058 2.21853E+01-1.65871E+00-3.02627E-03 9.81782E-01 1.73697E-14-2.20802E-13
 -1      1059 1.99996E+01 2.90587E-03 2.79833E-08-2.42512E-04 2.19177E-13-4.63840E-14
 -1      1060 1.98860E+01 9.08635E-02-1.41126E-04 1.83865E-01 4.24351E-14-1.79258E-13
 -1      1061 1.99153E+01 7.95364E-02-9.13018E-05 1.03482E-01 1.80459E-13-3.62694E-13
 -1      1062 1.99386E+01 6.57076E-02-4.83521E-05 5.69797E-02 3.82299E-13-3.12228E-13
 -1      1063 1.99566E+01 5.23893E-02-2.54228E-05 2.93011E-02 2.03677E-13-3.14805E-13
 -1      1064 1.99700E+01 4.08343E-02-1.19406E-05 1.34915E-02 1.96953E-14-1.88109E-13
 -1      1065 1.99797E+01 3.13356E-02-4.60141E-06 4.91425E-03 6.96626E-15-2.53212E-13
 -1      1066 1.99865E+01 2.37624E-02-9.24476E-07 5.97231E-04 1.55903E-13-4.47823E-13
 -1      1067 1.99913E+01 1.78293E-02-4.21298E-07-1.31138E-03-1.16317E-13-2.86383E-13
 -1      1068 1.99947E+01 1.30528E-02 3.34818E-07-1.94301E-03-1.17036E-13-3.27740E-13
 -1      1069 1.99969E+01 9.59100E-03 1.43716E-06-1.89951E-03 2.80352E-13-5.91535E-14
 -1      1070 1.99983E+01 6.95369E-03 1.23925E-06-1.59920E-03 2.72030E-13-5.50648E-14
 -1      1071 1.99992E+01 4.96107E-03 8.45737E-07-1.23054E-03 2.68154E-13-1.65723E-13
 -1      1072 1.99997E+01 3.45769E-03 3.25889E-06-8.85831E-04 3.03098E-13-2.79601E-13
 -1      1073 1.99998E+01 2.84870E-03 1.56657E-06-6.79862E-04 1.36972E-13-2.82085E-13
 -1      1074 2.39734E+01-1.84202E+00-7.84182E-04 2.16866E-01-1.28090E-14-1.20865E-14
 -1      1075 2.03647E+01-6.82803E-01 1.12705E-03 1.80424E+00-5.19135E-15-2.79859E-14
 -1      1076 2.13842E+01-1.19688E+00-3.33035E-04 9.67308E-01-6.29888E-14-2.45742E-13
 -1      1077 2.08303E+01-7.99381E-01-4.63206E-04 8.19851E-01-7.90110E-14-2.37300E-13
 -1      1078 2.04599E+01-4.97924E-01-5.13497E-04 6.41821E-01-2.95693E-14-2.89652E-13
 -1      1079 2.02357E+01-2.90490E-01-1.15473E-04 4.72151E-01 4.06242E-15-2.98420E-13
 -1      1080 2.01058E+01-1.54010E-01 1.22801E-04 3.28529E-01 9.99121E-14-5.46035E-14
 -1      1081 2.00351E+01-7.09233E-02 8.85485E-05 2.20425E-01-1.42026E-13 1.13347E-13
 -1      1082 1.99995E+01-2.25714E-02 3.81602E-05 1.43224E-01-3.89519E-14 6.96394E-14
 -1      1083 1.99839E+01 3.61907E-03 2.31880E-05 9.03663E-02 2.25059E-13-6.54892E-14
 -1      1084 1.99791E+01 1.62050E-02 1.28961E-05 5.54253E-02 4.08240E-13-1.92288E-13
 -1      1085 1.99797E+01 2.08921E-02 5.58378E-06 3.30445E-02 2.93692E-13-1.95577E-13
 -1      1086 1.99826E+01 2.12174E-02 1.61654E-06 1.91166E-02 9.86964E-14-8.62930E-14
 -1      1087 1.99862E+01 1.93420E-02-2.50641E-07 1.06875E-02 4.75903E-15-7.28595E-15
 -1      1088 1.99896E+01 1.65438E-02-6.78941E-07 5.72899E-03-1.59102E-14-2.14423E-13
 -1      1089 1.99926E+01 1.35462E-02-2.05334E-08 2.89368E-03 2.02598E-13 1.77677E-13
 -1      1090 1.99949E+01 1.07206E-02-5.42372E-07 1.32839E-03 2.03184E-13 3.26816E-13
 -1      1091 1.99967E+01 8.24402E-03-7.42375E-07 5.02160E-04-5.65850E-14 3.83979E-14
 -1      1092 1.99980E+01 6.17624E-03-3.31604E-07 8.62580E-05 3.32491E-14-6.02305E-14
 -1      1093 1.99989E+01 4.50478E-03 9.37254E-07-1.16411E-04 2.54404E-14-2.94008E-13
 -1      1094 2.26320E+01-1.61894E+00-1.30690E-04-2.61180E-01-5.96832E-14 6.67019E-14
 -1      1095 2.32631E+01-2.14047E+00-4.69010E-04 9.70450E-01-2.09474E-13-1.40150E-13
 -1      1096 1.98566E+01 9.16388E-02-2.05100E-04 3.05633E-01 2.33929E-14-3.23497E-14
 -1      1097 2.03330E+01 4.23105E-01 3.45717E-04-7.05270E-01-6.08809E-15-1.42947E-13
 -1      1098 1.98352E+01 6.87533E-02-2.38669E-04 4.90378E-01 6.19730E-16-3.81508E-14
 -1      1099 2.10623E+01-4.01368E-01 5.45653E-05-4.32449E-01-1.21582E-14-9.41716E-14
 -1      1100 2.06590E+01-4.35886E-01-6.44167E-05-1.43285E+00-4.53017E-14-1.82129E-13
 -1      1101 2.04370E+01 2.52681E-02 2.50995E-04-1.01966E+00-1.66251E-14-1.28214E-13
 -1      1102 1.99993E+01 3.65453E-03 5.22970E-06-1.96458E-04-4.25772E-14-4.17582E-13
 -1      1103 2.07874E+01 6.55749E-02 4.01639E-04-3.31548E-01 1.64565E-14-1.33563E-13
 -1      1104 2.16220E+01-1.50183E+00 2.32336E-03 1.67742E+00 4.88520E-14 5.83687E-14
 -1      1105 2.07451E+01-1.13242E-02 3.00869E-04-6.26205E-01-4.05248E-15-1.03901E-13
 -1      1106 2.00819E+01-3.14917E-01-8.06631E-04 1.22987E+00 4.04906E-14-2.93854E-14
 -1      1107 2.15953E+01-1.22116E+00-2.58283E-03-1.45429E+00-9.77603E-14-1.51877E-13
 -1      1108 2.19155E+01-1.30902E+00 9.95967E-04-9.50711E-01-7.70705E-14-1.00587E-13
 -1      1109 2.09983E+01-9.02868E-01 1.40135E-03-1.82979E+00-1.02273E-13-1.68404E-13
 -1      1110 1.98393E+01 1.88358E-04 7.06044E-05 7.60459E-01-7.99708E-16-9.25564E-14
 -1      1111 2.13262E+01-7.88189E-01 3.31333E-06-8.41572E-01-9.84676E-14-7.43363E-14
 -1      1112 2.09944E+01-4.87034E-01-5.54252E-04-9.58602E-01-9.11832E-14-1.10533E-13
 -1      1113 2.12750E+01-8.88255E-01-1.20555E-03-1.27732E+00-9.34324E-14-1.52110E-13
 -1      1114 1.99995E+01 3.28011E-03-4.21701E-06-4.87566E-04-2.11881E-14-5.56763E-13
 -1      1115 2.79439E+01 9.07862E+00 2.31799E+00-6.67197E+00-3.83027E-14 5.66686E-13
 -1      1116 2.05822E+01 6.23871E+00 2.13408E-01-3.86707E+00-1.55154E-14-1.90889E-13
 -1      1117 1.94732E+01 5.86531E+00 7.77684E-02-2.84198E+00-9.57567E-15-4.58316E-13
 -1      1118 1.90514E+01 5.73367E+00 6.08313E-02-2.18845E+00-3.53190E-15-5.55377E-13
 -1      1119 1.88450E+01 5.67044E+00 5.63958E-02-1.66293E+00-2.07820E-15-5.89902E-13
 -1      1120 1.87318E+01 5.63543E+00 5.29297E-02-1.21074E+00 1.00787E-15-5.80140E-13
 -1      1121 1.86701E+01 5.61625E+00 5.07615E-02-7.99035E-01 1.92034E-15-5.44007E-13
 -1      1122 1.86411E+01 5.60730E+00 4.98550E-02-4.04686E-01 2.40845E-15-4.99951E-13
 -1      1123 1.86365E+01 5.60603E+00 5.02715E-02-1.63059E-02 4.19077E-15-4.68475E-13
 -1      1124 1.86512E+01 5.61089E+00 5.17435E-02 3.78186E-01 5.88418E-15-4.21972E-13
 -1      1125 1.86850E+01 5.62170E+00 5.39470E-02 7.89287E-01 7.00395E-15-3.61837E-13
 -1      1126 1.87440E+01 5.64020E+00 5.66472E-02 1.22395E+00 8.40994E-15-2.74786E-13
 -1      1127 1.88465E+01 5.67168E+00 5.90728E-02 1.69997E+00 1.02106E-14-1.57669E-13
 -1      1128 1.90399E+01 5.73037E+00 6.12946E-02 2.24576E+00 1.20529E-14 9.40220E-15
 -1      1129 1.94458E+01 5.85482E+00 7.02177E-02 2.91060E+00 1.46966E-14 2.78728E-13
 -1      1130 2.04733E+01 6.18824E+00 1.54176E-01 3.86524E+00 1.13243E-14 7.24240E-13
 -1      1131 2.52367E+01 8.00022E+00 1.43056E+00 5.83901E+00 9.99201E-15 1.49569E-12
 -1      1132 2.87705E+01 3.60045E+00 1.25748E+00-4.19947E+00-1.36613E-13 1.01952E-12
 -1      1133 2.02521E+01-1.78935E-01-6.17223E-01-1.07222E-01-4.61436E-14 7.03299E-13
 -1      1134 1.89074E+01-9.84599E-02-2.37593E-01 6.22377E-02-1.83152E-14 2.93356E-13
 -1      1135 1.86310E+01-5.21418E-02-6.36367E-02 3.97790E-02-1.06148E-14 3.43475E-15
 -1      1136 1.86652E+01-3.17052E-02-2.32296E-02 2.61981E-02-8.32971E-15-2.10488E-13
 -1      1137 1.88965E+01-2.48650E-02-1.93577E-02 1.92637E-02-5.63872E-15-2.76990E-13
 -1      1138 1.92980E+01-2.65100E-02-2.68108E-02 1.64032E-02-7.71865E-15-4.10359E-13
 -1      1139 1.99253E+01-3.35656E-02-4.37722E-02 1.77624E-02-1.76434E-14-5.01897E-13
 -1      1140 2.08792E+01-5.01968E-02-7.52375E-02 2.86112E-02 8.29285E-15-5.86965E-13
 -1      1141 2.23314E+01-7.46592E-02-1.26628E-01 5.32296E-02 3.34715E-15-4.98990E-13
 -1      1142 2.46272E+01-1.05609E-01-1.95994E-01 1.05409E-01-6.36644E-15-4.88359E-13
 -1      1143 2.82292E+01-1.29851E-01-2.43367E-01 2.02888E-01 2.33667E-15-2.74197E-13
 -1      1144 3.35836E+01-1.07393E-01-1.30905E-01 3.47834E-01-1.21335E-14-1.85740E-13
 -1      1145 4.03840E+01 4.73113E-02 3.75146E-01 4.18906E-01-1.68407E-14-7.31359E-14
 -1      1146 4.55838E+01 3.66400E-01 1.14279E+00 4.24874E-02-1.56472E-14 6.70020E-14
 -1      1147 4.37791E+01 5.81077E-01 1.12094E+00-9.72865E-01 3.63633E-14 1.12133E-13
 -1      1148 3.17691E+01 2.07620E-01-1.03809E+00-1.89459E+00 6.86950E-15-6.66134E-15
 -1      1149 1.73246E+01-6.16567E-01-4.13578E+00-1.30417E+00-7.81875E-14-9.41136E-13
 -1      1150 1.47662E+01-8.47961E-01-4.73690E+00 8.11033E-01-2.45359E-14-2.03204E-12
 -1      1151 2.59076E+01-1.36601E-01-2.29959E+00 1.90705E+00 3.86496E-14-2.40741E-12
 -1      1152 4.01732E+01 4.90644E-01 4.80468E-01 1.39844E+00 2.69229E-14-2.36722E-12
 -1      1153 4.62219E+01 2.97667E-01 1.24679E+00 2.86984E-01-1.07900E-15-1.80761E-12
 -1      1154 4.22574E+01 2.83394E-02 5.24489E-01-2.88609E-01 1.59681E-14-8.36248E-13
 -1      1155 3.54236E+01-8.58698E-02-6.16358E-02-3.00849E-01-4.24704E-15-7.78599E-13
 -1      1156 2.97438E+01-9.93822E-02-2.25851E-01-1.97415E-01-1.09756E-14-8.62033E-13
 -1      1157 2.58871E+01-7.91119E-02-1.96719E-01-1.10314E-01 9.37531E-15-8.01664E-13
 -1      1158 2.34803E+01-5.51625E-02-1.30086E-01-5.70864E-02 1.69960E-14-9.03819E-13
 -1      1159 2.20345E+01-3.65709E-02-7.77450E-02-2.83684E-02-6.13962E-15-1.93914E-12
 -1      1160 2.11678E+01-2.09782E-02-4.30205E-02-1.48550E-02 3.03321E-14-1.70036E-12
 -1      1161 2.06641E+01-1.39646E-02-2.44086E-02-5.87136E-03-4.16570E-14-1.62843E-12
 -1      1162 2.03816E+01-8.57113E-03-1.38972E-02-2.50242E-03 2.28120E-14-1.20431E-12
 -1      1163 2.02176E+01-5.23392E-03-7.92520E-03-9.02025E-04 5.77916E-14-9.31114E-13
 -1      1164 2.01227E+01-3.18291E-03-4.52009E-03-1.89473E-04 6.79657E-14-5.87937E-13
 -1      1165 2.00679E+01-1.93092E-03-2.57688E-03 9.72617E-05-4.39519E-15-5.33020E-13
 -1      1166 2.00364E+01-1.17153E-03-1.46836E-03 1.87327E-04-1.09135E-14-9.12490E-13
 -1      1167 2.00183E+01-7.27154E-04-8.43701E-04 1.93946E-04 4.04989E-15-1.36158E-12
 -1      1168 2.00078E+01-3.98200E-04-4.60978E-04 1.46105E-04-8.68836E-15-1.21110E-12
 -1      1169 2.00021E+01-2.57842E-04-2.62969E-04 1.34400E-04 4.46182E-14-1.04054E-12
 -1      1170 1.99990E+01-1.59292E-04-1.51641E-04 1.05286E-04 2.62149E-14-8.96865E-13
 -1      1171 1.99975E+01-9.89279E-05-8.74548E-05 8.08665E-05-5.89917E-14-6.37608E-13
 -1      1172 1.99968E+01-6.18402E-05-5.05009E-05 6.19475E-05 2.13468E-14-5.63174E-14
 -1      1173 1.99967E+01-3.88333E-05-2.90389E-05 4.77590E-05-1.86046E-14-1.53150E-13
 -1      1174 1.99968E+01-2.51937E-05-1.66650E-05 3.74838E-05 5.01700E-14-6.95360E-13
 -1      1175 1.99972E+01-1.36759E-05-8.48488E-06 2.92579E-05 3.18766E-14-7.72732E-13
 -1      1176 1.99976E+01-8.22919E-06-3.45280E-06 2.40906E-05-3.89801E-14-3.40336E-13
 -1      1177 1.99981E+01-3.95214E-06-1.49858E-07 2.04731E-05-3.91628E-14-1.05651E-13
 -1      1178 1.99985E+01-4.67276E-07 3.05945E-06 1.79139E-05 8.81615E-14 3.97777E-13
 -1      1179 1.99990E+01 2.92260E-06 7.47986E-06 1.60050E-05 1.28545E-13 1.70269E-12
 -1      1180 1.99994E+01 6.77788E-06 1.43502E-05 1.37697E-05-4.15799E-14 1.60718E-12
 -1      1181 1.99997E+01 9.98985E-06 2.05068E-05 8.29503E-06 2.72493E-14 8.42512E-13
 -1      1182 1.99998E+01 1.21137E-05 5.25399E-06-1.09945E-05 1.57578E-13 4.00475E-13
 -1      1183 2.78100E+01 5.25701E-01 3.73905E-01 1.96523E+00-2.91156E-14 2.08306E-12
 -1      1184 2.01256E+01-6.62625E-02-5.73409E-01 1.28375E-01 1.17614E-15 1.91200E-12
 -1      1185 1.89604E+01-4.10689E-02-1.92207E-01 1.81039E-02-2.50668E-16 1.66177E-12
 -1      1186 1.85856E+01-2.10802E-02-4.87291E-02-4.65263E-04-1.30668E-15 1.46817E-12
 -1      1187 1.85050E+01-1.10542E-02-1.07238E-02-6.63376E-03 2.97874E-15 1.33819E-12
 -1      1188 1.85475E+01-3.77671E-03 5.80163E-05-8.62411E-03 4.45846E-15 1.24533E-12
 -1      1189 1.86218E+01 1.56507E-03 5.69351E-03-9.47810E-03 9.70076E-16 1.15371E-12
 -1      1190 1.86676E+01 5.89911E-03 1.07968E-02-9.64225E-03 4.47114E-15 1.06811E-12
 -1      1191 1.86388E+01 9.41128E-03 1.57052E-02-9.00649E-03-1.11474E-14 1.04382E-12
 -1      1192 1.84979E+01 1.18445E-02 1.97994E-02-7.21491E-03-6.54121E-15 1.02651E-12
 -1      1193 1.82171E+01 1.26332E-02 2.20160E-02-3.87293E-03 1.72876E-14 9.39935E-13
 -1      1194 1.77840E+01 1.11064E-02 2.10307E-02 1.23269E-03 1.24834E-14 8.67540E-13
 -1      1195 1.72104E+01 6.81870E-03 1.56635E-02 7.85844E-03 1.75287E-14 8.58692E-13
 -1      1196 1.65398E+01-4.88139E-05 5.54432E-03 1.50780E-02-2.23084E-14 9.46968E-13
 -1      1197 1.58492E+01-8.40884E-03-8.22660E-03 2.12902E-02 1.49529E-14 9.86090E-13
 -1      1198 1.52411E+01-1.63611E-02-2.28827E-02 2.46104E-02 2.99175E-15 7.31165E-13
 -1      1199 1.48228E+01-2.17754E-02-3.46406E-02 2.36011E-02-2.41697E-14 7.58574E-13
 -1      1200 1.46779E+01-2.31591E-02-4.01193E-02 1.80066E-02 1.53226E-14 8.08956E-13
 -1      1201 1.48416E+01-2.03201E-02-3.78368E-02 9.03329E-03 2.32397E-14 7.68927E-13
 -1      1202 1.52895E+01-1.44031E-02-2.88721E-02-1.06808E-03-1.94614E-14 6.88252E-13
 -1      1203 1.59465E+01-7.29224E-03-1.62746E-02-9.90918E-03 1.85355E-15 6.89147E-13
 -1      1204 1.67108E+01-7.89286E-04-3.63428E-03-1.58374E-02 1.31297E-15 7.55167E-13
 -1      1205 1.74818E+01 3.96689E-03 6.30382E-03-1.83374E-02 8.49527E-16 6.40335E-13
 -1      1206 1.81817E+01 6.64009E-03 1.23121E-02-1.78841E-02 2.06473E-14 3.26853E-13
 -1      1207 1.87646E+01 7.49632E-03 1.45541E-02-1.54818E-02-3.21210E-14 4.04775E-13
 -1      1208 1.92153E+01 7.08749E-03 1.40107E-02-1.21948E-02-2.18082E-14 7.14975E-13
 -1      1209 1.95407E+01 5.98956E-03 1.18761E-02-8.85138E-03 3.98462E-14 5.39864E-13
 -1      1210 1.97604E+01 4.65634E-03 9.16002E-03-5.94759E-03-2.04178E-14 3.28002E-13
 -1      1211 1.98987E+01 3.37792E-03 6.53063E-03-3.68662E-03 4.77174E-15 1.68786E-13
 -1      1212 1.99787E+01 2.30070E-03 4.32936E-03-2.07376E-03-1.26673E-14-2.20716E-14
 -1      1213 2.00197E+01 1.47027E-03 2.66107E-03-1.01090E-03 7.87833E-14-3.84268E-13
 -1      1214 2.00364E+01 8.73610E-04 1.49305E-03-3.65488E-04-4.79633E-14-1.17026E-13
 -1      1215 2.00394E+01 4.70837E-04 7.31801E-04-1.05680E-05-9.53884E-15 1.71547E-13
 -1      1216 2.00353E+01 2.15267E-04 2.71000E-04 1.57334E-04 2.07690E-14-4.27763E-14
 -1      1217 2.00284E+01 6.40538E-05 1.59411E-05 2.14184E-04 1.48922E-14-1.08312E-13
 -1      1218 2.00212E+01-1.74902E-05-1.07544E-04 2.11375E-04-3.57944E-14-3.14204E-13
 -1      1219 2.00147E+01-5.51978E-05-1.52668E-04 1.81179E-04 2.46188E-14-2.77548E-13
 -1      1220 2.00094E+01-6.71055E-05-1.55030E-04 1.42321E-04 4.01130E-14-3.92441E-14
 -1      1221 2.00054E+01-6.51122E-05-1.36973E-04 1.04620E-04-4.68019E-14 1.70989E-13
 -1      1222 2.00025E+01-5.66361E-05-1.11594E-04 7.24353E-05-1.04366E-14 4.87057E-13
 -1      1223 2.00007E+01-4.60105E-05-8.59371E-05 4.70197E-05 6.43471E-14 8.11929E-14
 -1      1224 1.99995E+01-3.55473E-05-6.33050E-05 2.80281E-05-7.81015E-14 2.64224E-13
 -1      1225 1.99989E+01-2.62901E-05-4.48108E-05 1.44157E-05-7.71817E-14 3.28153E-13
 -1      1226 1.99987E+01-1.85226E-05-3.03636E-05 4.93919E-06 4.92783E-14-2.20257E-14
 -1      1227 1.99987E+01-1.20891E-05-1.92331E-05-1.58774E-06-2.81683E-14-3.02888E-13
 -1      1228 1.99989E+01-6.55824E-06-1.02728E-05-6.19646E-06 2.18711E-14-5.98011E-13
 -1      1229 1.99992E+01-1.28968E-06-1.93779E-06-9.66823E-06 9.32733E-14-1.33869E-12
 -1      1230 1.99995E+01 4.37648E-06 7.24515E-06-1.21379E-05-2.04504E-14-1.07820E-12
 -1      1231 1.99997E+01 9.33043E-06 1.51443E-05-1.16147E-05 5.74974E-14-7.12744E-13
 -1      1232 1.99998E+01-9.69390E-07 1.63815E-06 1.20273E-06 1.66250E-14-6.41244E-13
 -1      1233 1.99998E+01 2.40955E-06 9.82148E-07 2.22342E-07-5.78403E-13-7.10249E-14
 -1      1234 1.99998E+01-8.62676E-05 1.29631E-05-6.25264E-06-6.12228E-13 3.48199E-14
 -1      1235 1.99998E+01-2.95603E-04 6.06568E-06-1.14086E-05-4.82157E-13 1.35851E-14
 -1      1236 1.99998E+01-5.44878E-04-8.48580E-07-1.09147E-05-7.05620E-14-6.10003E-14
 -1      1237 1.99998E+01-7.86257E-04-4.20338E-06-9.08367E-06 2.54707E-13-1.06256E-13
 -1      1238 1.99998E+01-9.97711E-04-5.56717E-06-7.17413E-06 2.36201E-13-1.83387E-13
 -1      1239 1.99998E+01-1.17309E-03-6.35864E-06-5.61028E-06 2.60482E-13 1.26936E-13
 -1      1240 1.99998E+01-1.30789E-03-7.58096E-06-3.95467E-06 1.17053E-13-1.06824E-13
 -1      1241 1.99998E+01-1.39188E-03-9.38934E-06-2.00627E-06-5.85277E-13-1.07267E-13
 -1      1242 1.99998E+01-1.41283E-03-1.14731E-05 5.41469E-07-1.72300E-13 1.58798E-13
 -1      1243 1.99998E+01-1.35684E-03-1.30558E-05 3.84097E-06-2.39632E-13-2.46013E-13
 -1      1244 1.99998E+01-1.21502E-03-1.31345E-05 7.76780E-06-1.66275E-13 1.46587E-13
 -1      1245 1.99998E+01-9.86463E-04-1.03455E-05 1.16998E-05-4.12395E-13 8.68310E-14
 -1      1246 1.99998E+01-6.85953E-04-3.20959E-06 1.47901E-05-9.32279E-13 2.62359E-14
 -1      1247 1.99998E+01-3.61600E-04 8.02343E-06 1.38387E-05-1.19760E-13 2.05128E-14
 -1      1248 1.99998E+01-9.19274E-05 1.67604E-05 1.97987E-06 1.70846E-14-3.35609E-14
 -1      1249 1.99998E+01 1.19266E-05 3.55644E-06-1.30364E-05 1.49834E-13-2.68554E-14
 -1      1250-1.11609E+00-2.57738E+01-3.71661E+00-1.99830E+00 1.27109E-12 8.85611E-14
 -1      1251-1.41683E+00-1.37351E+01-2.78610E+00-3.22501E+00 8.83515E-13 2.22711E-13
 -1      1252 1.67380E+00 7.83826E-01-1.47970E+00 1.90787E+00 1.06004E-12 7.44294E-13
 -1      1253 1.22546E+01 1.11562E+01 2.03204E-01 1.13661E+01 1.35492E-12 1.32916E-12
 -1      1254 3.09444E+01 1.34855E+01 1.81211E+00 1.92533E+01 8.37552E-13 1.17484E-12
 -1      1255 5.31558E+01 9.06448E+00 3.18945E+00 2.02437E+01 4.28879E-13 8.65308E-13
 -1      1256 6.98978E+01 3.50590E+00 4.16243E+00 1.14431E+01 1.96301E-14-2.25597E-13
 -1      1257 7.37080E+01 2.25015E+00 4.34649E+00-2.80310E+00 1.14249E-13-1.52134E-12
 -1      1258 6.43202E+01 5.63341E+00 3.95074E+00-1.58291E+01 6.54921E-13-2.31415E-12
 -1      1259 4.39616E+01 1.14803E+01 2.73696E+00-2.07297E+01 1.50668E-12-2.79088E-12
 -1      1260 2.27700E+01 1.33950E+01 1.23836E+00-1.66181E+01 2.09499E-12-2.52154E-12
 -1      1261 7.14657E+00 7.90545E+00-4.56275E-01-7.43160E+00 2.19713E-12-1.77258E-12
 -1      1262-2.05366E-01-4.37143E+00-1.99865E+00 8.57682E-01 1.65579E-12-8.87401E-13
 -1      1263-1.45634E+00-1.86394E+01-3.14292E+00 3.66990E+00 5.54223E-13-2.77556E-13
 -1      1264-9.81436E-01-2.85618E+01-3.94667E+00 4.98437E-01-8.76410E-13-6.91565E-14
 -1      1265-2.13414E+00-2.87381E+01-4.14729E+00-4.98776E+00-2.10207E-12-4.97997E-13
 -1      1266-3.98892E+00-2.09650E+01-4.18140E+00-7.82139E+00-2.74236E-12-1.18733E-12
 -1      1267-2.93593E+00-8.39995E+00-3.58324E+00-4.39049E+00-2.46625E-12-1.71929E-12
 -1      1268 7.31626E+00 3.13526E+00-2.14741E+00 5.32775E+00-1.79190E-12-1.83409E-12
 -1      1269 3.17916E+01 8.90975E+00 9.19074E-01 1.63657E+01-1.20037E-12-2.02860E-12
 -1      1270 6.73255E+01 7.49534E+00 5.67590E+00 1.96351E+01-5.79314E-13-1.50857E-12
 -1      1271 9.48159E+01 3.89204E+00 9.49508E+00 8.78887E+00-1.11133E-13-2.25819E-13
 -1      1272 9.50149E+01 3.47016E+00 9.50177E+00-9.03311E+00-1.87059E-13 1.18505E-12
 -1      1273 6.46307E+01 7.80360E+00 5.35378E+00-1.95090E+01-5.67435E-13 1.74438E-12
 -1      1274 2.81482E+01 8.73436E+00 5.99193E-01-1.50067E+01-8.57092E-13 1.43796E-12
 -1      1275 4.76059E+00 1.71178E+00-2.44407E+00-3.41512E+00-1.26477E-12 1.25855E-12
 -1      1276-3.69520E+00-1.11342E+01-3.77519E+00 5.73524E+00-1.01252E-12 7.43627E-13
 -1      1277-3.51698E+00-2.38500E+01-4.23323E+00 7.75494E+00 2.45359E-13 3.38618E-14
 -1      1278-1.51010E+00-2.96756E+01-4.14747E+00 3.42400E+00 9.38277E-13-1.20799E-13
 -1      1279 2.22809E+01 1.84000E+00-7.23623E-01-2.77125E+00-5.40401E-14 3.63209E-13
 -1      1280 2.04034E+01 4.69249E+00-4.75505E-02-3.26434E+00-1.06984E-13-3.18509E-13
 -1      1281 2.09066E+01 4.81022E+00-1.10972E-01-4.12214E+00-1.50768E-13-1.72626E-13
 -1      1282 1.95689E+01 5.00133E+00-1.95842E-02-2.60517E+00-8.96574E-14-5.02817E-13
 -1      1283 1.98732E+01 5.09933E+00 1.99322E-03-2.99786E+00-1.10391E-13-4.30996E-13
 -1      1284 2.05726E+01 3.95659E+00-2.50014E-02-3.02613E+00-1.84231E-13-2.77167E-13
 -1      1285 1.92018E+01 5.09517E+00-4.07909E-03-2.02413E+00-4.95298E-14-5.75602E-13
 -1      1286 1.93618E+01 5.15372E+00 1.16699E-02-2.31491E+00-6.81122E-14-5.45584E-13
 -1      1287 1.97878E+01 4.38234E+00-2.29583E-02-2.43909E+00-1.32257E-13-4.32245E-13
 -1      1288 1.90015E+01 5.14350E+00 2.41437E-03-1.52944E+00-2.38559E-14-5.90096E-13
 -1      1289 1.90919E+01 5.17668E+00 1.30565E-02-1.77293E+00-2.84286E-14-5.87107E-13
 -1      1290 1.93999E+01 4.57978E+00-1.87431E-02-1.88658E+00-6.64148E-14-4.93348E-13
 -1      1291 1.88886E+01 5.17251E+00 5.54105E-03-1.09901E+00 3.50414E-15-5.65355E-13
 -1      1292 1.89398E+01 5.19130E+00 1.22494E-02-1.31183E+00-7.53911E-15-5.75566E-13
 -1      1293 1.91865E+01 4.69095E+00-1.54068E-02-1.41434E+00-3.47109E-14-4.89577E-13
 -1      1294 1.88267E+01 5.18974E+00 7.46923E-03-6.94758E-01 2.54840E-14-5.29224E-13
 -1      1295 1.88536E+01 5.19956E+00 1.09757E-02-8.95936E-01 2.09364E-14-5.53793E-13
 -1      1296 1.90651E+01 4.75555E+00-1.34988E-02-9.92710E-01 1.76428E-14-4.74978E-13
 -1      1297 1.88019E+01 5.19793E+00 8.99354E-03-3.06685E-01 6.24587E-14-4.94420E-13
 -1      1298 1.88109E+01 5.20127E+00 9.86796E-03-5.01300E-01 4.93633E-14-5.10451E-13
 -1      1299 1.90017E+01 4.78877E+00-1.26095E-02-5.96269E-01 6.13212E-14-4.40203E-13
 -1      1300 1.88048E+01 5.19884E+00 1.03230E-02 7.92734E-02 8.19583E-14-4.57301E-13
 -1      1301 1.88002E+01 5.19723E+00 9.08282E-03-1.15551E-01 7.54176E-14-4.80119E-13
 -1      1302 1.89804E+01 4.79793E+00-1.23580E-02-2.11928E-01 1.10520E-13-4.09464E-13
 -1      1303 1.88305E+01 5.19389E+00 1.15199E-02 4.74413E-01 1.03527E-13-4.12692E-13
 -1      1304 1.88142E+01 5.18791E+00 8.49064E-03 2.73805E-01 9.50834E-14-4.40424E-13
 -1      1305 1.89913E+01 4.78773E+00-1.25521E-02 1.73542E-01 1.45664E-13-3.74097E-13
 -1      1306 1.88799E+01 5.18395E+00 1.25274E-02 8.88824E-01 1.18954E-13-3.51948E-13
 -1      1307 1.88506E+01 5.17316E+00 7.79338E-03 6.77149E-01 1.11631E-13-3.89952E-13
 -1      1308 1.90302E+01 4.76025E+00-1.31694E-02 5.70830E-01 1.76257E-13-3.34191E-13
 -1      1309 1.89607E+01 5.17030E+00 1.32413E-02 1.32570E+00 1.34337E-13-2.63949E-13
 -1      1310 1.89132E+01 5.15220E+00 6.44540E-03 1.10087E+00 1.27709E-13-3.15546E-13
 -1      1311 1.90998E+01 4.71481E+00-1.42652E-02 9.86106E-01 1.99823E-13-2.72601E-13
 -1      1312 1.91004E+01 5.15287E+00 1.30907E-02 1.81542E+00 1.59935E-13-1.33435E-13
 -1      1313 1.90176E+01 5.12149E+00 3.33816E-03 1.56018E+00 1.43975E-13-2.06482E-13
 -1      1314 1.92146E+01 4.64496E+00-1.64371E-02 1.43409E+00 2.22513E-13-1.72657E-13
 -1      1315 1.93558E+01 5.13139E+00 1.05287E-02 2.37731E+00 1.73965E-13 4.78437E-14
 -1      1316 1.92024E+01 5.07375E+00-3.94480E-03 2.07766E+00 1.63074E-13-5.96120E-14
 -1      1317 1.94142E+01 4.53402E+00-2.01536E-02 1.93504E+00 2.57017E-13-4.18623E-14
 -1      1318 1.98719E+01 5.09983E+00 6.18206E-03 3.06807E+00 1.71349E-13 3.39034E-13
 -1      1319 1.95580E+01 4.98432E+00-2.00450E-02 2.67878E+00 1.58179E-13 1.69285E-13
 -1      1320 1.97888E+01 4.34030E+00-2.49011E-02 2.51006E+00 2.59471E-13 1.58595E-13
 -1      1321 2.11257E+01 4.90778E+00 8.22724E-03 4.04182E+00 1.14408E-13 7.98736E-13
 -1      1322 2.03541E+01 4.73511E+00-4.78900E-02 3.40165E+00 1.24567E-13 5.21264E-13
 -1      1323 2.05836E+01 3.91340E+00-2.28107E-02 3.16402E+00 2.31613E-13 4.61645E-13
 -1      1324 2.72238E+01 3.20531E+00 9.27706E-01 4.57573E+00 2.89907E-14 1.52756E-12
 -1      1325 2.20445E+01 3.52301E+00-1.82056E-01 3.87506E+00 4.39371E-14 1.04300E-12
 -1      1326 2.21394E+01 2.56038E+00-3.23494E-02 3.44470E+00 1.73942E-13 8.70304E-13
 -1      1327 2.14572E+01 3.58749E-01-7.63662E-01 1.17732E+00 6.89726E-14 1.53416E-12
 -1      1328 2.20312E+01 1.30632E-01-3.99998E-01-1.26500E+00-1.29396E-13 4.26909E-13
 -1      1329 2.07311E+01 3.06364E-01-1.63451E-01-7.87870E-01-1.16289E-13 2.76168E-13
 -1      1330 2.01517E+01 1.55080E-01-7.27273E-02-3.81130E-01-1.03292E-13 2.25940E-13
 -1      1331 1.97087E+01 9.38801E-02-1.38531E-02-3.08311E-01-9.44245E-14 7.43884E-14
 -1      1332 2.10400E+01 3.70416E-01-1.04095E-01-1.23509E+00-2.06807E-13 4.61055E-14
 -1      1333 1.93795E+01 6.85840E-02 3.76935E-03-1.05735E-01-8.13811E-14 3.92950E-14
 -1      1334 1.92637E+01 4.69808E-02 1.44381E-02-8.56595E-02-7.07663E-14-8.52131E-14
 -1      1335 2.00342E+01 1.38884E-01-3.60575E-02-4.52344E-01-1.66180E-13-2.14915E-14
 -1      1336 1.91464E+01 3.91965E-02 1.40153E-02 1.92793E-02-5.05724E-14-1.39163E-13
 -1      1337 1.91893E+01 2.94704E-02 1.26844E-02 3.28481E-02-4.52199E-14-2.05794E-13
 -1      1338 1.96253E+01 6.65786E-02-1.00292E-02-9.07186E-02-1.27598E-13-1.02782E-13
 -1      1339 1.92013E+01 2.93607E-02 9.64674E-03 1.03399E-01-2.85436E-14-2.20508E-13
 -1      1340 1.93480E+01 2.60701E-02 8.59699E-03 1.15325E-01-3.47669E-14-2.60925E-13
 -1      1341 1.95223E+01 4.44556E-02-6.09321E-03 1.18149E-01-6.71173E-14-1.79982E-13
 -1      1342 1.94569E+01 3.10163E-02 5.59566E-03 1.81827E-01-3.52097E-14-2.76159E-13
 -1      1343 1.97042E+01 3.14078E-02 6.37481E-03 1.96071E-01-3.55211E-14-3.29305E-13
 -1      1344 1.96330E+01 4.47207E-02-6.48931E-03 2.81884E-01-6.99172E-14-2.16660E-13
 -1      1345 1.99194E+01 4.20185E-02 2.40511E-03 2.84162E-01-9.40914E-15-3.24012E-13
 -1      1346 2.03212E+01 4.77055E-02 4.31796E-03 3.07879E-01-2.88632E-14-3.73281E-13
 -1      1347 1.99349E+01 6.32738E-02-8.32263E-03 4.65340E-01-4.47047E-14-2.48161E-13
 -1      1348 2.06449E+01 6.52273E-02-2.18322E-03 4.36082E-01-1.17163E-14-3.49068E-13
 -1      1349 2.12387E+01 7.60056E-02 6.06933E-04 4.71488E-01 8.21478E-15-3.82860E-13
 -1      1350 2.04425E+01 1.00960E-01-1.21361E-02 7.21631E-01-3.12146E-14-2.27431E-13
 -1      1351 2.17204E+01 1.03447E-01-1.13710E-02 6.71395E-01 1.01308E-14-3.75186E-13
 -1      1352 2.26436E+01 1.18458E-01-8.47325E-03 7.30108E-01-5.00468E-15-3.60517E-13
 -1      1353 2.11958E+01 1.66500E-01-1.89091E-02 1.10504E+00-4.34201E-15-2.58486E-13
 -1      1354 2.33442E+01 1.59856E-01-2.86728E-02 1.03466E+00 3.12042E-14-3.42566E-13
 -1      1355 2.47737E+01 1.71719E-01-2.31392E-02 1.12801E+00 5.91922E-14-2.62179E-13
 -1      1356 2.22981E+01 2.64026E-01-2.98204E-02 1.69354E+00 2.86576E-14-2.07666E-13
 -1      1357 2.57589E+01 2.23313E-01-5.07516E-02 1.54995E+00 5.50497E-14-2.24570E-13
 -1      1358 2.78847E+01 2.07078E-01-2.81996E-02 1.68321E+00 2.31620E-14-1.88127E-13
 -1      1359 2.38670E+01 3.78775E-01-4.10162E-02 2.54365E+00 1.05117E-13-1.59858E-13
 -1      1360 2.91923E+01 2.36967E-01-4.68057E-02 2.13930E+00 3.83760E-14-8.35998E-14
 -1      1361 3.20338E+01 1.32265E-01 3.15212E-02 2.27476E+00 3.94925E-14-4.88776E-14
 -1      1362 2.60092E+01 4.19781E-01-3.42842E-02 3.58901E+00 8.67995E-14-6.90836E-14
 -1      1363 3.36325E+01 1.82432E-02 6.33635E-02 2.42371E+00 6.98920E-14 1.75970E-14
 -1      1364 3.65189E+01-2.68886E-01 2.16351E-01 2.36362E+00 3.09336E-14 8.04218E-14
 -1      1365 2.87543E+01 1.11787E-01 2.77027E-02 4.37675E+00 9.07018E-14 8.14522E-14
 -1      1366 3.80973E+01-6.38680E-01 3.16782E-01 1.54614E+00 5.65936E-14 1.92735E-13
 -1      1367 3.90846E+01-9.83655E-01 3.74025E-01 1.03926E+00 2.93793E-14 2.21212E-13
 -1      1368 3.19038E+01-9.89624E-01 1.46849E-01 3.79040E+00 1.35905E-13 2.20090E-13
 -1      1369 3.87891E+01-8.77450E-01-9.06246E-02-4.10198E+00-8.39329E-14 4.10783E-15
 -1      1370 3.26781E+01-1.05814E-01-1.12158E+00-4.45958E+00-1.80522E-13-1.45661E-13
 -1      1371 3.30907E+01 1.04936E+00-1.21213E+00-3.45746E+00-4.64351E-13-3.45501E-13
 -1      1372 2.91486E+01 1.89453E+00-1.85187E+00-2.31843E+00-4.66960E-13-9.25579E-13
 -1      1373 4.10910E+01 1.12387E+00-9.22351E-02-6.40050E+00-5.50893E-13-1.74638E-13
 -1      1374 2.92825E+01 2.04382E+00-1.89448E+00 8.81080E-01-3.30513E-13-1.04650E-12
 -1      1375 3.13199E+01 1.82844E+00-1.50923E+00 2.08397E+00-2.45137E-13-1.36074E-12
 -1      1376 4.27152E+01 4.15398E+00 6.77025E-02-1.45549E+00-6.67910E-13-4.69819E-13
 -1      1377 3.08464E+01 5.71334E-01-1.58163E+00 4.41471E+00-9.09273E-14-1.56275E-12
 -1      1378 3.67661E+01-2.39315E-01-5.36066E-01 4.40546E+00-4.99600E-14-1.64269E-12
 -1      1379 4.20194E+01 2.85662E+00 8.45830E-02 4.76211E+00-3.34621E-13-7.92477E-13
 -1      1380 3.63712E+01-9.03414E-01-3.56944E-01 3.42137E+00 6.55864E-14-1.66223E-12
 -1      1381 4.11849E+01-1.30355E+00 4.07948E-01 2.53472E+00 1.07166E-13-1.52439E-12
 -1      1382 4.01600E+01-1.11387E+00 1.59161E-01 6.27501E+00 2.20379E-14-9.99256E-13
 -1      1383 4.01698E+01-9.38611E-01 4.50717E-01-1.23061E-01 1.75471E-13-1.44718E-12
 -1      1384 4.02397E+01-5.93860E-01 4.86153E-01-8.95821E-01 2.56559E-13-1.05710E-12
 -1      1385 3.73912E+01-2.32941E+00 1.35612E-01 1.55846E+00 2.92245E-13-9.01043E-13
 -1      1386 3.83150E+01-3.40601E-01 2.84064E-01-1.98504E+00 1.88960E-13-9.54764E-13
 -1      1387 3.55526E+01 2.32718E-02 1.24064E-01-2.11848E+00 9.26342E-14-7.22589E-13
 -1      1388 3.42233E+01-1.00325E+00 1.94467E-01-2.87019E+00 3.68483E-13-7.48729E-13
 -1      1389 3.37158E+01 4.08385E-02 3.74781E-02-2.04525E+00-1.46716E-14-6.46483E-13
 -1      1390 3.07342E+01 1.92403E-01-5.55475E-02-1.95347E+00 1.09897E-14-6.12482E-13
 -1      1391 3.06661E+01 8.55812E-03 5.01534E-02-3.93417E+00 1.03063E-13-6.29795E-13
 -1      1392 2.92365E+01 1.47216E-01-4.91004E-02-1.53220E+00-5.32317E-14-6.42097E-13
 -1      1393 2.69624E+01 1.77751E-01-7.88302E-02-1.41217E+00-5.85938E-14-7.11500E-13
 -1      1394 2.74771E+01 3.13107E-01-3.16547E-02-3.30588E+00-2.87001E-14-6.21531E-13
 -1      1395 2.58687E+01 1.36708E-01-4.65014E-02-1.01259E+00-4.01883E-14-8.88789E-13
 -1      1396 2.43576E+01 1.24890E-01-5.30620E-02-9.19864E-01-4.14876E-14-8.73732E-13
 -1      1397 2.49891E+01 2.97651E-01-4.50122E-02-2.32113E+00-7.91242E-14-7.46965E-13
 -1      1398 2.36122E+01 9.87560E-02-2.55064E-02-6.31502E-01-8.68229E-14-9.91596E-13
 -1      1399 2.26712E+01 7.91739E-02-2.79280E-02-5.70066E-01-2.29863E-13-1.23397E-12
 -1      1400 2.32201E+01 2.09210E-01-3.36532E-02-1.49826E+00-1.80536E-13-1.08105E-12
 -1      1401 2.21848E+01 6.49186E-02-1.03748E-02-3.82921E-01-1.09879E-13-1.31567E-12
 -1      1402 2.16150E+01 4.76092E-02-1.36528E-02-3.44607E-01 6.31491E-14-1.37957E-12
 -1      1403 2.20336E+01 1.31146E-01-2.10411E-02-9.27359E-01-2.78607E-13-1.09615E-12
 -1      1404 2.12926E+01 3.93845E-02-3.24412E-03-2.24561E-01 1.63955E-13-1.43661E-12
 -1      1405 2.09454E+01 2.72044E-02-5.54410E-03-2.00371E-01 6.56116E-14-1.29859E-12
 -1      1406 2.12533E+01 7.96441E-02-1.11486E-02-5.56529E-01 1.96499E-13-1.05497E-12
 -1      1407 2.07584E+01 2.43398E-02 4.30782E-05-1.32260E-01 6.99818E-14-1.32048E-12
 -1      1408 2.05653E+01 1.63127E-02-2.20706E-03-1.18881E-01 3.89510E-14-1.19012E-12
 -1      1409 2.07625E+01 4.42094E-02-7.25228E-03-3.27836E-01 1.21000E-13-1.02739E-12
 -1      1410 2.04489E+01 1.45553E-02 6.84101E-04-7.82206E-02 7.58287E-14-1.11165E-12
 -1      1411 2.03359E+01 9.55493E-03-8.34765E-04-7.02123E-02 1.08880E-13-9.42067E-13
 -1      1412 2.04675E+01 2.56878E-02-4.28740E-03-1.94952E-01 1.31769E-13-8.77398E-13
 -1      1413 2.02645E+01 8.73716E-03 7.54035E-04-4.61074E-02 8.44626E-14-9.79452E-13
 -1      1414 2.01985E+01 5.57021E-03-2.47053E-04-4.13609E-02 4.40602E-14-8.08030E-13
 -1      1415 2.02852E+01 1.47435E-02-2.60470E-03-1.15555E-01 1.60713E-13-7.91779E-13
 -1      1416 2.01548E+01 5.22805E-03 6.28755E-04-2.71253E-02 1.73826E-13-6.41649E-13
 -1      1417 2.01164E+01 3.23895E-03-1.06134E-05-2.43188E-02 9.41868E-14-4.98558E-13
 -1      1418 2.01732E+01 8.42815E-03-1.59353E-03-6.83319E-02 1.65058E-13-7.32314E-13
 -1      1419 2.00898E+01 3.12271E-03 4.71336E-04-1.59320E-02-1.21546E-13-4.49650E-13
 -1      1420 2.00675E+01 1.87947E-03 7.15579E-05-1.42741E-02-1.06363E-13-5.44788E-13
 -1      1421 2.01046E+01 4.80243E-03-9.77123E-04-4.03378E-02-1.21539E-15-5.20832E-13
 -1      1422 2.00512E+01 1.86492E-03 3.35352E-04-9.33977E-03 8.90615E-15-7.67214E-13
 -1      1423 2.00383E+01 1.08624E-03 8.68486E-05-8.35946E-03-1.57000E-13-8.93260E-13
 -1      1424 2.00626E+01 2.72764E-03-6.00299E-04-2.37753E-02-1.98278E-13-6.47739E-13
 -1      1425 2.00284E+01 1.12828E-03 2.35791E-04-5.46287E-03-8.02146E-15-9.11333E-13
 -1      1426 2.00210E+01 6.19122E-04 7.12319E-05-4.87397E-03 1.09489E-13-8.28189E-13
 -1      1427 2.00369E+01 1.53185E-03-3.73439E-04-1.39855E-02-7.79120E-14-6.48819E-13
 -1      1428 2.00147E+01 6.60669E-04 1.57573E-04-3.10948E-03-3.09740E-14-8.62799E-13
 -1      1429 2.00103E+01 3.35976E-04 5.97689E-05-2.74415E-03-6.30192E-14-8.57077E-13
 -1      1430 2.00209E+01 9.09030E-04-2.10030E-04-8.11812E-03 9.50349E-15-5.66356E-13
 -1      1431 2.00068E+01 4.01285E-04 1.06204E-04-1.76607E-03-1.28179E-14-7.58527E-13
 -1      1432 2.00045E+01 2.06225E-04 4.86610E-05-1.56690E-03-2.28832E-14-8.03107E-13
 -1      1433 2.00113E+01 4.69446E-04-1.40607E-04-4.62940E-03 2.45207E-14-6.91002E-13
 -1      1434 2.00023E+01 2.38724E-04 6.83792E-05-9.84097E-04 6.44613E-14-7.66247E-13
 -1      1435 2.00011E+01 1.20002E-04 3.57634E-05-8.63426E-04 6.67962E-14-5.90485E-13
 -1      1436 2.00056E+01 2.69360E-04-8.71246E-05-2.63666E-03 3.37287E-14-6.10511E-13
 -1      1437 1.99998E+01 1.46334E-04 4.52007E-05-5.15894E-04-5.80492E-14-5.85524E-13
 -1      1438 1.99992E+01 6.97012E-05 2.58352E-05-4.42642E-04 2.18503E-13-3.75845E-13
 -1      1439 2.00022E+01 1.51374E-04-5.51914E-05-1.44430E-03 7.79056E-14-4.93849E-13
 -1      1440 1.99985E+01 9.06128E-05 2.99591E-05-2.34452E-04 1.47571E-13-4.61547E-13
 -1      1441 1.99982E+01 4.02250E-05 1.85317E-05-1.89590E-04-3.68541E-14-3.43584E-13
 -1      1442 2.00002E+01 8.47406E-05-3.52883E-05-7.26132E-04 1.47693E-13-4.28575E-13
 -1      1443 1.99978E+01 5.66092E-05 1.99158E-05-6.46814E-05-8.73436E-14-3.50430E-13
 -1      1444 1.99978E+01 2.25559E-05 1.31730E-05-3.70105E-05-1.09160E-13-4.54214E-13
 -1      1445 1.99991E+01 4.68693E-05-2.27343E-05-2.91521E-04-3.82572E-14-5.14300E-13
 -1      1446 1.99977E+01 3.63545E-05 1.35762E-05 3.70467E-05-7.62575E-14-6.60860E-13
 -1      1447 1.99977E+01 1.14567E-05 9.36678E-06 5.47123E-05-1.21168E-13-7.78875E-13
 -1      1448 1.99986E+01 2.43908E-05-1.48639E-05-2.84184E-05-1.89300E-13-6.51618E-13
 -1      1449 1.99977E+01 2.25207E-05 9.19085E-06 9.87574E-05 7.72729E-14-8.21207E-13
 -1      1450 1.99979E+01 4.22275E-06 6.51082E-06 1.10078E-04 1.41134E-13-7.81130E-13
 -1      1451 1.99984E+01 1.39493E-05-9.14093E-06 1.31384E-04 8.24976E-14-7.98782E-13
 -1      1452 1.99980E+01 1.36371E-05 5.89226E-06 1.32408E-04 9.95554E-14-6.70585E-13
 -1      1453 1.99982E+01 1.21996E-06 4.88316E-06 1.38114E-04-2.92973E-14-4.71487E-13
 -1      1454 1.99984E+01 4.18326E-06-5.81336E-06 2.24433E-04 1.90361E-13-8.16561E-13
 -1      1455 1.99983E+01 7.28895E-06 3.74846E-06 1.47821E-04 1.51862E-13-2.68266E-13
 -1      1456 1.99985E+01-1.82256E-06 3.57910E-06 1.50551E-04 1.97663E-13 8.44549E-14
 -1      1457 1.99986E+01-1.37996E-07-3.36013E-06 2.71282E-04 2.34440E-13-4.33684E-13
 -1      1458 1.99986E+01 2.75588E-06 2.45627E-06 1.50446E-04 1.96944E-13 7.71436E-14
 -1      1459 1.99989E+01-4.58747E-06 2.85031E-06 1.50763E-04 3.21751E-13 4.10564E-13
 -1      1460 1.99988E+01-3.99832E-06-1.56886E-06 2.88476E-04 3.59877E-13-1.38328E-14
 -1      1461 1.99990E+01-1.69770E-06 1.96195E-06 1.41378E-04 3.50960E-13 4.43093E-13
 -1      1462 1.99992E+01-7.89086E-06 3.06841E-06 1.39128E-04 7.73490E-14 8.71279E-13
 -1      1463 1.99991E+01-8.38824E-06 9.45262E-08 2.81179E-04 4.53865E-13-1.36145E-13
 -1      1464 1.99993E+01-7.31170E-06 2.66529E-06 1.18528E-04-1.57779E-13 9.44750E-13
 -1      1465 1.99995E+01-1.25045E-05 4.30857E-06 1.12760E-04-1.88247E-13 7.17393E-13
 -1      1466 1.99994E+01-1.48903E-05 2.18780E-06 2.48024E-04 6.13215E-14-6.14277E-14
 -1      1467 1.99996E+01-1.43036E-05 4.65979E-06 7.75450E-05-2.54070E-13 5.57342E-13
 -1      1468 1.99997E+01-2.10946E-05 2.20989E-06 6.51548E-05-1.17249E-13 2.24942E-13
 -1      1469 1.99996E+01-2.58210E-05 4.51160E-06 1.83132E-04-4.28201E-13 1.82382E-13
 -1      1470 1.99998E+01-2.46080E-05 4.32276E-06 3.52906E-05 2.91261E-14-3.04282E-14
 -1      1471 1.99998E+01-2.19568E-05-5.75655E-06 2.15524E-05-7.76032E-14-2.60464E-14
 -1      1472 1.99998E+01-4.30736E-05 5.79294E-06 3.34793E-05 3.07314E-15 2.73669E-14
 -1      1473 1.99997E+01-4.01386E-05 5.40107E-06 1.04111E-04-3.19511E-13-2.90402E-13
 -1      1474 2.03001E+01 7.52582E-02-1.51535E-01 4.79610E-01 7.85344E-14 1.35048E-12
 -1      1475 2.15638E+01 2.15706E-01-2.29291E-01 7.16593E-01 6.75848E-14 1.45890E-12
 -1      1476 2.17595E+01 8.80704E-01-8.54998E-02 2.05639E+00 1.28737E-13 1.04419E-12
 -1      1477 1.93747E+01 3.32736E-02-2.06198E-02 1.84210E-01 6.98278E-14 1.18141E-12
 -1      1478 1.97943E+01 1.13164E-01-6.19591E-02 2.37350E-01 6.19262E-14 1.27122E-12
 -1      1479 2.03387E+01 1.84821E-01-5.53712E-02 7.83457E-01 1.29473E-13 9.11205E-13
 -1      1480 1.89885E+01 1.51837E-02 6.24485E-03 5.62139E-02 5.07892E-14 1.03186E-12
 -1      1481 1.91312E+01 4.96262E-02 1.59281E-03 8.25965E-02 4.44358E-14 1.11122E-12
 -1      1482 1.95880E+01 6.45181E-02-1.50089E-02 2.99735E-01 1.06557E-13 7.91152E-13
 -1      1483 1.88560E+01 6.16400E-03 7.50346E-03 2.50396E-03 3.28028E-14 9.54608E-13
 -1      1484 1.88843E+01 2.23424E-02 1.13549E-02 1.56201E-02 3.33353E-14 9.93601E-13
 -1      1485 1.92391E+01 1.73161E-02-6.29884E-03 9.11258E-02 7.85465E-14 6.80161E-13
 -1      1486 1.88325E+01 1.36438E-04 5.43031E-03-1.54295E-02 3.92898E-14 8.82436E-13
 -1      1487 1.88163E+01 8.58555E-03 8.34784E-03-1.03737E-02 3.19605E-14 9.19853E-13
 -1      1488 1.90901E+01 1.16267E-03-3.45910E-03 5.93273E-03 5.72793E-14 6.33596E-13
 -1      1489 1.88358E+01-4.10716E-03 4.32589E-03-1.02093E-02 2.64063E-14 7.99193E-13
 -1      1490 1.88153E+01-3.30509E-04 5.13643E-03-1.08192E-02 2.73658E-14 8.40003E-13
 -1      1491 1.90308E+01-7.74623E-03-1.24696E-03-1.43937E-02 6.05557E-14 5.97222E-13
 -1      1492 1.88102E+01-7.42634E-03 4.06561E-03 1.20992E-02 2.63012E-14 7.55055E-13
 -1      1493 1.88130E+01-7.20191E-03 3.28617E-03 6.81010E-03 2.16441E-14 7.89261E-13
 -1      1494 1.89899E+01-1.41687E-02 8.88967E-04 6.81955E-03 4.63225E-14 5.32380E-13
 -1      1495 1.87143E+01-9.99253E-03 4.18164E-03 4.80463E-02-3.51824E-15 7.14508E-13
 -1      1496 1.87613E+01-1.29308E-02 2.30538E-03 3.86512E-02 7.26242E-15 7.44757E-13
 -1      1497 1.89199E+01-1.93089E-02 2.97072E-03 5.90916E-02 1.58771E-14 4.74479E-13
 -1      1498 1.85169E+01-1.15327E-02 4.29988E-03 9.40901E-02 2.33279E-14 6.83016E-13
 -1      1499 1.86242E+01-1.74120E-02 1.75752E-03 8.12818E-02-2.95554E-16 7.04908E-13
 -1      1500 1.87861E+01-2.29577E-02 4.84309E-03 1.35091E-01 1.87480E-14 4.50957E-13
 -1      1501 1.81992E+01-1.14783E-02 4.06890E-03 1.44946E-01 2.59567E-14 6.44984E-13
 -1      1502 1.83764E+01-1.99276E-02 1.35960E-03 1.29973E-01 2.62648E-14 6.79791E-13
 -1      1503 1.85645E+01-2.41706E-02 6.25195E-03 2.26183E-01 3.47192E-14 3.90836E-13
 -1      1504 1.77602E+01-9.16425E-03 3.13146E-03 1.92609E-01 3.51455E-15 6.06555E-13
 -1      1505 1.80070E+01-1.93969E-02 8.99750E-04 1.77586E-01 9.07607E-15 6.24613E-13
 -1      1506 1.82441E+01-2.16259E-02 6.82251E-03 3.19752E-01 3.65298E-14 3.85844E-13
 -1      1507 1.72228E+01-4.16256E-03 1.22187E-03 2.26475E-01 2.38374E-14 6.27918E-13
 -1      1508 1.75254E+01-1.48016E-02 2.08805E-04 2.14408E-01 1.75737E-14 6.27135E-13
 -1      1509 1.78319E+01-1.41662E-02 6.12854E-03 3.98244E-01 1.52322E-14 3.90149E-13
 -1      1510 1.66378E+01 3.29566E-03-1.65013E-03 2.35094E-01-2.52760E-14 6.97624E-13
 -1      1511 1.69667E+01-5.80544E-03-7.90737E-04 2.29418E-01-2.48299E-14 6.36245E-13
 -1      1512 1.73565E+01-1.55830E-03 3.87892E-03 4.40739E-01-3.09383E-14 4.03106E-13
 -1      1513 1.60809E+01 1.20119E-02-5.03690E-03 2.09581E-01 7.13743E-14 6.49496E-13
 -1      1514 1.63927E+01 6.63680E-03-2.00429E-03 2.13175E-01 3.53864E-14 7.16781E-13
 -1      1515 1.68691E+01 1.47849E-02 1.64536E-04 4.27640E-01 3.73768E-15 4.44578E-13
 -1      1516 1.56408E+01 1.99063E-02-8.06463E-03 1.47703E-01-2.85509E-14 5.49673E-13
 -1      1517 1.58853E+01 2.00739E-02-3.13014E-03 1.61658E-01 3.88660E-14 6.09450E-13
 -1      1518 1.64381E+01 3.16071E-02-4.37120E-03 3.47682E-01 8.58484E-14 4.98591E-13
 -1      1519 1.53987E+01 2.46613E-02-9.71356E-03 5.66182E-02-1.68572E-15 5.31145E-13
 -1      1520 1.55306E+01 3.11078E-02-3.74013E-03 7.93564E-02-4.02040E-14 5.00251E-13
 -1      1521 1.61360E+01 4.45440E-02-8.60887E-03 2.04547E-01-1.23877E-14 3.98256E-13
 -1      1522 1.54055E+01 2.47121E-02-9.29105E-03-4.78050E-02 2.97522E-14 5.54059E-13
 -1      1523 1.53968E+01 3.66461E-02-3.47926E-03-2.04022E-02 7.29364E-15 5.37263E-13
 -1      1524 1.60206E+01 4.97139E-02-1.13432E-02 1.92052E-02-8.37871E-15 3.41123E-13
 -1      1525 1.56665E+01 2.00218E-02-6.81845E-03-1.45552E-01-3.32460E-15 5.60066E-13
 -1      1526 1.55153E+01 3.52465E-02-2.28351E-03-1.18881E-01 2.46725E-14 5.89902E-13
 -1      1527 1.61191E+01 4.54323E-02-1.18167E-02-1.74642E-01 2.07820E-14 3.68046E-13
 -1      1528 1.61401E+01 1.21173E-02-3.05788E-03-2.19046E-01-4.93420E-15 5.25519E-13
 -1      1529 1.58707E+01 2.77386E-02-4.59265E-04-1.97939E-01-1.14353E-14 5.16111E-13
 -1      1530 1.64190E+01 3.30340E-02-1.00667E-02-3.40954E-01 1.60462E-17 4.37333E-13
 -1      1531 1.67514E+01 3.34700E-03 8.53879E-04-2.58499E-01 9.20021E-15 5.28234E-13
 -1      1532 1.64065E+01 1.67324E-02 1.44628E-03-2.45745E-01-4.53197E-17 5.33041E-13
 -1      1533 1.68731E+01 1.62732E-02-6.85145E-03-4.52842E-01-2.43252E-15 3.44388E-13
 -1      1534 1.74144E+01-4.13983E-03 3.91920E-03-2.63619E-01-5.91179E-15 5.29913E-13
 -1      1535 1.70425E+01 5.37743E-03 2.90160E-03-2.59510E-01 3.64164E-15 5.09252E-13
 -1      1536 1.74141E+01-3.35288E-04-3.23252E-03-4.99668E-01-9.64972E-15 3.52100E-13
 -1      1537 1.80527E+01-9.09820E-03 5.62942E-03-2.41590E-01 9.21500E-14 3.52343E-13
 -1      1538 1.76967E+01-3.85149E-03 3.60916E-03-2.44463E-01 6.82275E-14 4.97947E-13
 -1      1539 1.79727E+01-1.32463E-02-1.10767E-04-4.87116E-01 7.62045E-14 2.90477E-13
 -1      1540 1.86129E+01-1.13192E-02 6.00527E-03-2.03084E-01-1.13408E-15 2.58869E-13
 -1      1541 1.83023E+01-9.76156E-03 3.56997E-03-2.10364E-01 1.68891E-14 3.30609E-13
 -1      1542 1.84926E+01-2.08217E-02 2.03079E-03-4.31704E-01 6.62478E-14 2.79470E-13
 -1      1543 1.90682E+01-1.13243E-02 5.41224E-03-1.58490E-01-5.91070E-14 3.93846E-13
 -1      1544 1.88176E+01-1.23655E-02 2.99918E-03-1.67645E-01-6.84186E-14 2.41722E-13
 -1      1545 1.89378E+01-2.32581E-02 3.12878E-03-3.53417E-01-4.40464E-14 2.20262E-13
 -1      1546 1.94136E+01-9.93108E-03 4.31497E-03-1.15618E-01 4.61577E-14 5.16968E-13
 -1      1547 1.92250E+01-1.24172E-02 2.18408E-03-1.24729E-01-2.76168E-15 4.55931E-13
 -1      1548 1.92929E+01-2.18837E-02 3.38630E-03-2.69825E-01-7.03318E-14 3.23467E-13
 -1      1549 1.96597E+01-7.91335E-03 3.10511E-03-7.90271E-02-8.47716E-15 3.70603E-13
 -1      1550 1.95267E+01-1.09067E-02 1.36752E-03-8.69516E-02 7.81142E-14 5.07970E-13
 -1      1551 1.95587E+01-1.83488E-02 3.10353E-03-1.93092E-01 1.22444E-13 3.22787E-13
 -1      1552 1.98242E+01-5.83253E-03 2.02858E-03-5.04662E-02 2.73106E-14 1.88799E-13
 -1      1553 1.97365E+01-8.71220E-03 6.96742E-04-5.67297E-02 3.27522E-14 2.80239E-13
 -1      1554 1.97461E+01-1.40688E-02 2.55688E-03-1.29616E-01 8.44596E-14 3.19872E-13
 -1      1555 1.99270E+01-4.00949E-03 1.19292E-03-2.97720E-02 2.22646E-14 1.25137E-13
 -1      1556 1.98731E+01-6.44937E-03 2.24682E-04-3.43565E-02-1.16551E-14 1.08919E-13
 -1      1557 1.98705E+01-9.99052E-03 1.94521E-03-8.12162E-02 3.94281E-15 1.55610E-13
 -1      1558 1.99860E+01-2.57301E-03 6.09857E-04-1.57647E-02 7.36546E-14-5.33543E-14
 -1      1559 1.99559E+01-4.46363E-03-5.99904E-05-1.88986E-02 9.23593E-14 8.74324E-14
 -1      1560 1.99477E+01-6.59838E-03 1.38479E-03-4.68154E-02 1.35682E-13 9.06596E-14
 -1      1561 2.00161E+01-1.52921E-03 2.40906E-04-6.91644E-03-5.75832E-14-2.38421E-13
 -1      1562 2.00014E+01-2.89263E-03-1.99462E-04-8.91852E-03 3.30829E-14-1.88252E-13
 -1      1563 1.99918E+01-4.03625E-03 9.27266E-04-2.39339E-02 1.17711E-13-6.79757E-14
 -1      1564 2.00283E+01-8.21997E-04 3.10803E-05-1.75514E-03-3.84691E-15-8.03326E-14
 -1      1565 2.00230E+01-1.74359E-03-2.42178E-04-2.94047E-03-8.64944E-14-2.27121E-13
 -1      1566 2.00140E+01-2.24737E-03 5.82926E-04-9.73909E-03-6.80537E-14-1.45778E-13
 -1      1567 2.00302E+01-3.74309E-04-7.19589E-05 9.44366E-04 2.56575E-14-4.90806E-14
 -1      1568 2.00301E+01-9.57731E-04-2.29528E-04 3.09962E-04 1.23022E-14-3.06234E-14
 -1      1569 2.00228E+01-1.08567E-03 3.40178E-04-1.64114E-03-2.30150E-14-2.08151E-13
 -1      1570 2.00270E+01-1.11532E-04-1.09814E-04 2.10825E-03 4.51475E-14-5.00562E-14
 -1      1571 2.00294E+01-4.53795E-04-1.91304E-04 1.82176E-03 1.77814E-14 1.03362E-14
 -1      1572 2.00240E+01-3.86576E-04 1.78855E-04 2.45115E-03 2.23365E-14-5.33254E-14
 -1      1573 2.00217E+01 2.81045E-05-1.11916E-04 2.38638E-03 1.23856E-15-6.76880E-14
 -1      1574 2.00250E+01-1.52576E-04-1.46161E-04 2.30397E-03 6.68936E-14 3.23218E-14
 -1      1575 2.00213E+01-3.61758E-06 7.78852E-05 4.08614E-03 5.47413E-14 1.20638E-13
 -1      1576 2.00162E+01 9.09456E-05-9.72229E-05 2.20576E-03-3.92475E-14-7.08345E-14
 -1      1577 2.00194E+01 1.20077E-05-1.04161E-04 2.23193E-03 1.52149E-14-1.10950E-13
 -1      1578 2.00171E+01 1.77939E-04 1.89558E-05 4.33279E-03 4.75801E-14 1.86110E-13
 -1      1579 2.00112E+01 1.09286E-04-7.68895E-05 1.82915E-03-5.68641E-14-2.20531E-14
 -1      1580 2.00140E+01 9.00197E-05-6.96112E-05 1.90432E-03-9.38056E-14-1.79602E-13
 -1      1581 2.00127E+01 2.40385E-04-1.22759E-05 3.88340E-03-6.61794E-14-1.08299E-14
 -1      1582 2.00072E+01 1.04244E-04-5.68117E-05 1.40634E-03-1.38338E-13 1.28235E-13
 -1      1583 2.00094E+01 1.16765E-04-4.34402E-05 1.49594E-03-2.32529E-14 3.93388E-14
 -1      1584 2.00088E+01 2.38663E-04-2.62617E-05 3.15754E-03-1.77958E-13 1.27424E-13
 -1      1585 2.00041E+01 8.87949E-05-3.96288E-05 1.01415E-03 4.65531E-14 2.71715E-13
 -1      1586 2.00058E+01 1.15674E-04-2.48642E-05 1.09990E-03-7.31801E-14 2.47799E-13
 -1      1587 2.00057E+01 2.07095E-04-3.01920E-05 2.38990E-03-1.53866E-13 2.93375E-13
 -1      1588 2.00019E+01 7.03570E-05-2.61313E-05 6.85130E-04 9.78551E-14 1.60505E-13
 -1      1589 2.00031E+01 1.01409E-04-1.24339E-05 7.58817E-04 7.80770E-14 2.78691E-13
 -1      1590 2.00032E+01 1.65628E-04-2.87636E-05 1.69723E-03 1.13847E-13 1.24259E-13
 -1      1591 2.00005E+01 5.27782E-05-1.61681E-05 4.26879E-04 4.15115E-15 1.63390E-13
 -1      1592 2.00012E+01 8.25671E-05-4.61309E-06 4.86049E-04 4.98353E-14 1.93614E-13
 -1      1593 2.00015E+01 1.24821E-04-2.48859E-05 1.12568E-03 2.58585E-14 1.36474E-13
 -1      1594 1.99996E+01 3.77331E-05-9.18640E-06 2.34376E-04 2.05188E-14 1.73393E-13
 -1      1595 2.00001E+01 6.37684E-05-5.16655E-08 2.79602E-04-7.87214E-14 1.17452E-13
 -1      1596 2.00004E+01 8.94697E-05-2.02506E-05 6.82390E-04-2.16217E-14 1.92410E-13
 -1      1597 1.99992E+01 2.56513E-05-4.52450E-06 9.74213E-05-1.48004E-14 1.06650E-13
 -1      1598 1.99994E+01 4.71517E-05 2.32275E-06 1.30606E-04-7.14685E-14 1.77113E-13
 -1      1599 1.99997E+01 6.10399E-05-1.57563E-05 3.55394E-04-1.01814E-13 3.47837E-14
 -1      1600 1.99990E+01 1.62989E-05-1.55093E-06 4.86657E-06 1.60064E-13-1.17552E-13
 -1      1601 1.99991E+01 3.33767E-05 3.30550E-06 2.82511E-05 1.85530E-13 1.28592E-13
 -1      1602 1.99994E+01 3.92227E-05-1.18023E-05 1.25518E-04 2.03358E-13 6.65847E-14
 -1      1603 1.99991E+01 9.12878E-06 3.07542E-07-5.31518E-05 2.05476E-14-3.31440E-13
 -1      1604 1.99990E+01 2.22651E-05 3.46692E-06-3.75332E-05 9.55927E-14-1.82084E-13
 -1      1605 1.99992E+01 2.28499E-05-8.48254E-06-2.68937E-05 1.98868E-13-8.49689E-14
 -1      1606 1.99992E+01 3.44190E-06 1.63156E-06-8.41069E-05 1.42052E-13-7.32586E-13
 -1      1607 1.99991E+01 1.31460E-05 3.24408E-06-7.47222E-05 1.31497E-13-4.31282E-13
 -1      1608 1.99993E+01 1.03719E-05-5.67894E-06-1.18470E-04 1.62500E-13-3.78915E-13
 -1      1609 1.99994E+01-1.58779E-06 3.10971E-06-9.22792E-05 3.05510E-14-8.14683E-13
 -1      1610 1.99993E+01 4.93443E-06 3.07905E-06-8.84168E-05 1.21321E-14-7.98450E-13
 -1      1611 1.99994E+01-1.34453E-07-3.09244E-06-1.60951E-04 1.72040E-13-4.55104E-13
 -1      1612 1.99996E+01-6.85211E-06 4.86619E-06-7.83435E-05-2.29555E-13-5.63778E-13
 -1      1613 1.99995E+01-3.79410E-06 3.27300E-06-8.04741E-05-1.36862E-13-7.63048E-13
 -1      1614 1.99995E+01-1.04490E-05-3.14109E-07-1.59859E-04-1.15594E-13-2.76837E-13
 -1      1615 1.99998E+01-1.37732E-05 3.53643E-06-4.19743E-05 5.26068E-15-5.03396E-13
 -1      1616 1.99997E+01-1.38453E-05 3.53281E-06-5.01123E-05 2.64408E-14-4.90985E-13
 -1      1617 1.99997E+01-2.44839E-05 2.07762E-06-1.16091E-04 2.61552E-14-3.10306E-13
 -1      1618 1.99998E+01-1.70330E-05 4.12815E-06-1.06564E-05-1.84788E-13-3.39797E-13
 -1      1619 1.99998E+01-1.52826E-04 1.82077E-06-6.98931E-05-3.29174E-13 9.72719E-14
 -1      1620 1.99998E+01-7.71084E-05 1.30230E-06-6.00487E-05-4.16995E-13 9.00863E-14
 -1      1621 1.99998E+01-3.27675E-04-1.53914E-07-9.13249E-05-1.43359E-13 1.33351E-13
 -1      1622 1.99998E+01-2.18799E-04 8.53946E-07-8.86210E-05-3.08970E-13 1.56752E-13
 -1      1623 1.99998E+01-1.68677E-04 1.93172E-06-1.50754E-04-4.79718E-14 1.70369E-13
 -1      1624 1.99998E+01-5.18681E-04-1.04484E-06-9.43405E-05-1.28391E-13 8.25264E-15
 -1      1625 1.99998E+01-4.02109E-04-4.22072E-08-9.53692E-05-1.06115E-13 1.34306E-13
 -1      1626 1.99998E+01-3.03935E-04 2.71178E-07-1.78121E-04-1.06520E-13 2.78283E-13
 -1      1627 1.99998E+01-7.00706E-04-1.02258E-06-8.67457E-05 3.69264E-13 1.85624E-14
 -1      1628 1.99998E+01-5.91952E-04-2.82037E-07-8.90140E-05-2.74368E-14 9.27339E-14
 -1      1629 1.99998E+01-4.46958E-04-6.68372E-07-1.75005E-04-3.02873E-14 4.35817E-14
 -1      1630 1.99998E+01-8.58992E-04-7.33697E-07-7.46670E-05 2.35927E-13-2.00091E-15
 -1      1631 1.99998E+01-7.66556E-04-1.69220E-07-7.73341E-05 2.46008E-13-2.36292E-13
 -1      1632 1.99998E+01-5.81370E-04-1.12656E-06-1.57240E-04 1.24706E-13-2.23507E-13
 -1      1633 1.99998E+01-9.91617E-04-4.40431E-07-5.96215E-05 2.31825E-13 8.14548E-14
 -1      1634 1.99998E+01-9.16498E-04-6.02290E-08-6.26973E-05 1.87254E-13 1.88665E-14
 -1      1635 1.99998E+01-7.00469E-04-1.24972E-06-1.31976E-04 1.47654E-13-9.24376E-14
 -1      1636 1.99998E+01-1.08893E-03-2.63921E-07-4.15309E-05-1.82194E-13-3.30130E-13
 -1      1637 1.99998E+01-1.03648E-03-4.47315E-08-4.52207E-05-1.58022E-14-7.64856E-14
 -1      1638 1.99998E+01-7.99674E-04-1.48926E-06-1.00918E-04-4.98576E-14-2.82509E-13
 -1      1639 1.99998E+01-1.14268E-03-2.35219E-07-1.91030E-05-1.55148E-13 2.93549E-14
 -1      1640 1.99998E+01-1.11792E-03-1.99957E-07-2.37586E-05-1.69180E-13-1.62218E-13
 -1      1641 1.99998E+01-8.72102E-04-1.92455E-06-6.29616E-05-6.26441E-14-4.07514E-13
 -1      1642 1.99998E+01-1.14255E-03-3.32843E-07 8.62729E-06-1.94619E-13-4.57815E-14
 -1      1643 1.99998E+01-1.15160E-03-5.03371E-07 2.82986E-06-2.60267E-13 9.24163E-14
 -1      1644 1.99998E+01-9.10390E-04-2.53087E-06-1.58843E-05 1.53301E-13-4.69025E-14
 -1      1645 1.99998E+01-1.07869E-03-5.06149E-07 4.11252E-05-3.23855E-13-9.65662E-14
 -1      1646 1.99998E+01-1.12706E-03-9.19611E-07 3.43935E-05-2.38789E-13-1.30277E-13
 -1      1647 1.99998E+01-9.05936E-04-3.14453E-06 4.09941E-05-2.82653E-13-8.22486E-14
 -1      1648 1.99998E+01-9.48762E-04-6.63341E-07 7.48878E-05-2.04791E-13 1.42655E-13
 -1      1649 1.99998E+01-1.03677E-03-1.29219E-06 6.81650E-05-2.30350E-13-1.21966E-14
 -1      1650 1.99998E+01-8.51888E-04-3.52364E-06 1.04229E-04-1.86918E-13-5.47711E-14
 -1      1651 1.99998E+01-7.53440E-04-5.42060E-07 1.05291E-04-6.21743E-13-3.03286E-13
 -1      1652 1.99998E+01-8.79547E-04-1.47758E-06 9.95400E-05-3.42722E-13-1.05194E-13
 -1      1653 1.99998E+01-7.45414E-04-3.32239E-06 1.66464E-04-2.93332E-13-6.29998E-14
 -1      1654 1.99998E+01-5.15596E-04 2.38798E-07 1.22989E-04-6.24275E-13 9.43569E-14
 -1      1655 1.99998E+01-6.63512E-04-1.08616E-06 1.20542E-04-6.99796E-13-8.83113E-14
 -1      1656 1.99998E+01-5.90861E-04-2.20074E-06 2.15103E-04-4.16911E-13-3.83544E-13
 -1      1657 1.99998E+01-2.76035E-04 1.78234E-06 1.15347E-04-1.02344E-13 1.47347E-13
 -1      1658 1.99998E+01-4.16526E-04 5.69277E-07 1.20472E-04-5.47120E-13 1.76457E-13
 -1      1659 1.99998E+01-4.06067E-04 2.38114E-08 2.32177E-04-3.31057E-13 2.40133E-13
 -1      1660 1.99998E+01-1.05152E-04 2.27907E-06 7.46144E-05 2.17964E-14 1.29809E-13
 -1      1661 1.99998E+01-2.04268E-04 3.69699E-06 8.74125E-05-1.05439E-13-1.60197E-13
 -1      1662 1.99998E+01-2.42069E-04 2.59076E-06 1.95285E-04-1.56065E-13 1.34372E-13
 -1      1663 1.99998E+01-1.12403E-04 2.29641E-06 1.15808E-04-1.87760E-13-3.01020E-14
 -1      1664-3.69287E-01-1.49020E+01-1.49509E+00 2.00310E-01 6.50813E-13 5.98410E-14
 -1      1665-6.21379E-01-1.86686E+01-1.85930E+00 1.55597E+00 6.80678E-13 1.75138E-14
 -1      1666 2.51087E+00-6.59758E+00-9.38140E-01 2.19622E+00 5.75984E-13 3.20466E-13
 -1      1667 1.34075E+00-1.28045E+01-1.54452E+00 1.21333E+00 6.46261E-13 1.61628E-13
 -1      1668 9.09419E+00 1.93795E+00-2.92500E-01 6.71975E+00 7.95142E-13 7.58948E-13
 -1      1669 5.30395E+00-4.13931E+00-1.11440E+00 3.33075E+00 6.40821E-13 4.34985E-13
 -1      1670 2.03535E+01 7.29611E+00 3.58210E-01 1.21056E+01 8.08686E-13 6.66356E-13
 -1      1671 1.30980E+01 4.15034E+00-5.17940E-01 8.15010E+00 8.72191E-13 6.85674E-13
 -1      1672 3.67056E+01 7.37388E+00 1.04478E+00 1.39809E+01 4.59743E-13 6.15508E-13
 -1      1673 2.68429E+01 7.27266E+00 2.24748E-01 1.21183E+01 6.61360E-13 5.90417E-13
 -1      1674 5.17693E+01 6.22766E+00 1.73785E+00 1.24715E+01 2.76126E-13 1.21014E-13
 -1      1675 4.22516E+01 8.25264E+00 1.04273E+00 1.44553E+01 4.90108E-13 5.55112E-13
 -1      1676 6.03019E+01 4.06103E+00 1.83291E+00 4.61612E+00 2.72615E-13-5.98632E-13
 -1      1677 5.55588E+01 5.71572E+00 1.63523E+00 1.01306E+01 3.25795E-13-4.61853E-14
 -1      1678 5.80425E+01 4.89389E+00 1.56595E+00-4.63546E+00 4.26992E-13-1.29013E-12
 -1      1679 5.93566E+01 4.54426E+00 1.66276E+00 1.48018E+00 2.89324E-13-8.41063E-13
 -1      1680 5.00297E+01 6.78435E+00 1.31707E+00-1.21214E+01 7.99250E-13-1.75260E-12
 -1      1681 5.72273E+01 4.71418E+00 1.72720E+00-7.71885E+00 5.00572E-13-1.45739E-12
 -1      1682 3.54400E+01 7.96082E+00 6.32815E-01-1.33508E+01 1.20182E-12-1.76148E-12
 -1      1683 4.52282E+01 6.67660E+00 1.35336E+00-1.30734E+01 9.42246E-13-1.65845E-12
 -1      1684 2.10555E+01 6.44154E+00-4.82025E-02-1.09450E+01 1.42264E-12-1.60716E-12
 -1      1685 2.99071E+01 7.58343E+00 7.63276E-01-1.38243E+01 1.28120E-12-1.81055E-12
 -1      1686 9.49496E+00 1.22083E+00-7.71480E-01-5.99869E+00 1.40621E-12-1.21159E-12
 -1      1687 1.53272E+01 5.57459E+00 7.65772E-02-9.99550E+00 1.52389E-12-1.57507E-12
 -1      1688 3.18005E+00-7.52455E+00-1.37046E+00-1.78576E+00 8.48654E-13-6.93612E-13
 -1      1689 5.70017E+00-1.16396E+00-6.37367E-01-4.38776E+00 1.24922E-12-1.05516E-12
 -1      1690 3.73367E-01-1.57760E+01-1.75333E+00-7.44609E-01-2.04281E-14-4.04482E-13
 -1      1691 9.75066E-01-1.00573E+01-1.24028E+00-8.10585E-01 6.30163E-13-6.08749E-13
 -1      1692-1.03001E+00-1.99142E+01-1.93138E+00-1.99362E+00-9.20208E-13-4.11893E-13
 -1      1693-8.09419E-01-1.76433E+01-1.73068E+00-4.68108E-02-2.85882E-13-3.31485E-13
 -1      1694-1.39228E+00-1.69179E+01-1.76433E+00-2.95479E+00-1.45384E-12-6.40266E-13
 -1      1695-1.03420E+00-1.86862E+01-1.77178E+00-1.39433E+00-1.02576E-12-4.43590E-13
 -1      1696-2.98611E-01-1.20437E+01-1.91220E+00-2.56791E+00-1.84874E-12-1.02254E-12
 -1      1697-5.27793E-01-1.68727E+01-2.13751E+00-2.73299E+00-1.71640E-12-7.53189E-13
 -1      1698 5.65303E+00-4.42162E+00-1.55778E+00 1.67683E+00-1.64935E-12-1.17617E-12
 -1      1699 2.44589E+00-1.02493E+01-2.19682E+00-1.27684E+00-1.84164E-12-1.06487E-12
 -1      1700 2.08828E+01 1.01941E+00-5.15469E-01 7.67259E+00-1.14553E-12-1.22058E-12
 -1      1701 1.21808E+01-3.31719E+00-1.66663E+00 3.17235E+00-1.45750E-12-1.16529E-12
 -1      1702 4.23972E+01 4.02403E+00 1.37308E+00 1.17492E+01-8.08797E-13-1.27298E-12
 -1      1703 2.80837E+01 2.71598E+00-4.54463E-01 8.45421E+00-1.03917E-12-1.34603E-12
 -1      1704 6.55614E+01 3.63671E+00 3.67191E+00 8.63021E+00-5.08017E-13-7.93587E-13
 -1      1705 5.01747E+01 4.92167E+00 1.68291E+00 1.05280E+01-7.43849E-13-1.24190E-12
 -1      1706 7.51313E+01 3.78970E+00 4.67764E+00 4.27142E-01-4.09561E-13 9.31477E-14
 -1      1707 6.87651E+01 4.62307E+00 3.82305E+00 6.49856E+00-5.47118E-13-5.37570E-13
 -1      1708 6.98270E+01 4.71059E+00 4.05056E+00-7.22650E+00-3.61156E-13 6.79901E-13
 -1      1709 7.69408E+01 3.65422E+00 4.97134E+00-5.33630E-01-2.31593E-13 3.03424E-13
 -1      1710 4.80074E+01 4.22344E+00 1.31314E+00-9.62009E+00-5.05262E-13 1.01141E-12
 -1      1711 6.45886E+01 3.36848E+00 3.57826E+00-8.59286E+00-4.16778E-13 9.05054E-13
 -1      1712 2.51296E+01 1.86350E+00-8.18210E-01-7.68443E+00-5.69766E-13 8.99059E-13
 -1      1713 3.95258E+01 3.88390E+00 1.11480E+00-1.15725E+01-4.48197E-13 1.21902E-12
 -1      1714 9.10606E+00-4.20518E+00-1.98078E+00-2.20094E+00-7.77600E-13 6.31273E-13
 -1      1715 1.72117E+01 1.01863E+00-7.37074E-01-6.96080E+00-6.91447E-13 7.21867E-13
 -1      1716 1.24000E+00-1.22151E+01-2.32056E+00 2.10637E+00-1.72862E-13 4.06175E-13
 -1      1717 3.95407E+00-5.83167E+00-1.66358E+00-5.35209E-01-5.92415E-13 7.16205E-13
 -1      1718-9.85650E-01-1.85853E+01-2.21169E+00 2.88696E+00 3.62377E-13-6.93889E-15
 -1      1719-1.06864E+00-1.41083E+01-2.00297E+00 3.32755E+00-1.28675E-13 4.06578E-13
 -1      1720-1.08585E+00-1.91650E+01-1.84035E+00 1.11766E+00 6.62831E-13 1.57763E-13
 -1      1721-1.55095E+00-1.88206E+01-1.95085E+00 3.15067E+00 3.52440E-13-9.04832E-15
 -1      1722 4.09532E+01-1.34061E+00 4.49194E-01-1.25697E+00-2.74086E-14 2.36672E-13
 -1      1723 3.79932E+01-1.26174E+00 2.98374E-03-2.18800E+00-4.77604E-14 1.71918E-13
 -1      1724 1.67179E+01-1.33322E+00-1.82948E-01 8.30833E+00 4.10671E-13 4.67348E-13
 -1      1725-1.82705E+00-1.25979E+01-1.29835E+00 2.28980E+00 1.93401E-13 1.12244E-13
 -1      1726 1.99998E+01-3.68714E-05 4.34113E-06-4.33684E-05-3.08901E-13-1.84388E-13
 -1      1727 1.99998E+01-6.78523E-05 2.68110E-06-1.03438E-04-3.99395E-14-7.04875E-15
 -1      1728 1.33488E+00-1.01675E+01-1.04327E+00 4.45961E+00 2.63345E-13 1.11022E-15
 -1      1729 7.76510E+00-6.22726E+00-6.92206E-01 6.50861E+00 3.27183E-13 3.02106E-13
 -1      1730 2.83552E+01 2.52523E+00 4.56714E-01 8.92965E+00 4.05120E-13 1.53433E-13
 -1      1731 3.90875E+01 5.39485E+00 8.41893E-01 7.78333E+00 3.75949E-13 1.50768E-13
 -1      1732 4.85572E+01 7.72682E+00 1.47342E+00 6.15585E+00 4.88082E-13-2.29372E-13
 -1      1733 5.09894E+01 8.68007E+00 1.42964E+00 1.73800E+00 5.64437E-13-5.06373E-13
 -1      1734 4.96196E+01 8.46438E+00 1.35202E+00-2.95307E+00 5.58054E-13-8.38440E-13
 -1      1735 4.42627E+01 6.82093E+00 1.13924E+00-6.27465E+00 6.94181E-13-9.55236E-13
 -1      1736 3.48641E+01 4.16869E+00 7.22797E-01-8.14390E+00 7.57727E-13-9.95648E-13
 -1      1737 2.36688E+01 1.14744E+00 2.33686E-01-8.91707E+00 8.44325E-13-1.08957E-12
 -1      1738 1.27520E+01-3.14536E+00-4.11247E-01-7.38065E+00 7.15761E-13-1.03079E-12
 -1      1739 4.77611E+00-8.08266E+00-9.07527E-01-5.28977E+00 3.09752E-13-8.29753E-13
 -1      1740-3.02604E-01-1.19308E+01-1.24507E+00-3.37073E+00-1.39555E-13-7.54175E-13
 -1      1741-2.01226E+00-1.25997E+01-1.27955E+00-1.26961E+00-5.15143E-13-6.96831E-13
 -1      1742-2.91935E-01-1.17966E+01-1.35038E+00 5.09237E-01-7.81042E-13-6.55920E-13
 -1      1743 5.09031E+00-1.01502E+01-1.45908E+00 2.28168E+00-1.12277E-12-6.95832E-13
 -1      1744 1.64261E+01-6.89450E+00-9.77156E-01 4.34006E+00-9.88321E-13-5.97744E-13
 -1      1745 3.16572E+01-3.60469E+00-9.23636E-02 4.32038E+00-7.13429E-13-6.98996E-13
 -1      1746 4.73427E+01 6.36103E-01 1.25537E+00 2.21715E+00-6.89226E-13-7.59837E-13
 -1      1747 5.79050E+01 5.58963E+00 2.77379E+00-1.38786E-01-7.94143E-13-3.99680E-13
 -1      1748 6.11874E+01 7.86892E+00 3.33149E+00-3.76503E-01-6.02518E-13-1.10120E-13
 -1      1749 5.81680E+01 5.46356E+00 2.89631E+00-2.73415E-01-4.33098E-13 1.23457E-13
 -1      1750 4.57545E+01 4.66250E-01 1.31209E+00-2.06310E+00-2.66676E-13 5.31131E-13
 -1      1751 2.89837E+01-3.73775E+00-1.64928E-01-4.70023E+00-3.39506E-13 5.51559E-13
 -1      1752 1.34737E+01-7.57828E+00-1.17892E+00-3.86533E+00-1.32339E-13 4.11338E-13
 -1      1753 3.25980E+00-1.11724E+01-1.56350E+00-1.58594E+00 1.71418E-13 4.62422E-13
 -1      1754-1.50546E+00-1.29268E+01-1.50564E+00 4.92401E-01 9.91152E-14 2.51299E-13
 -1      1755 3.90936E+01-2.49787E+00 2.64718E-02-5.09271E+00-1.26510E-13 1.49714E-13
 -1      1756 2.28858E+01 1.98128E+00-2.38263E-02-2.69356E+00-1.59078E-13 2.65565E-13
 -1      1757 3.56069E+01-2.38962E+00 2.00005E-01 3.51223E-01 2.52853E-14 3.63713E-13
 -1      1758 1.98463E+01 3.74300E+00-3.54197E-02-2.09734E+00-1.27554E-13-3.70357E-13
 -1      1759 2.00904E+01 3.58082E+00-4.19302E-02-2.38197E+00-1.69762E-13-3.32193E-13
 -1      1760 2.04145E+01 3.19085E+00-4.53687E-02-2.52883E+00-1.91365E-13-2.66204E-13
 -1      1761 2.06397E+01 2.81312E+00-1.41291E-01-2.79968E+00-2.26104E-13-1.83367E-13
 -1      1762 2.04767E+01 2.71376E+00-2.00702E-03-2.15627E+00-1.91596E-13-2.74947E-13
 -1      1763 1.93188E+01 4.23462E+00-2.02777E-02-1.24279E+00-2.42553E-14-3.97869E-13
 -1      1764 1.94050E+01 4.19413E+00-1.67833E-02-1.45799E+00-5.03699E-14-4.04579E-13
 -1      1765 1.92059E+01 4.33921E+00-1.65065E-02-8.55161E-01 3.00207E-14-3.78093E-13
 -1      1766 1.92550E+01 4.31661E+00-1.42374E-02-1.05564E+00 6.03272E-15-3.90759E-13
 -1      1767 1.94774E+01 3.84691E+00-8.30053E-03-1.09839E+00-1.31993E-14-3.73025E-13
 -1      1768 1.91519E+01 4.39086E+00-1.42058E-02-4.83702E-01 8.89867E-14-3.38021E-13
 -1      1769 1.91733E+01 4.38098E+00-1.34322E-02-6.74990E-01 6.01210E-14-3.57518E-13
 -1      1770 1.93675E+01 3.96118E+00-8.39857E-03-7.38554E-01 5.06944E-14-3.48959E-13
 -1      1771 1.91414E+01 4.40288E+00-1.29313E-02-1.15973E-01 1.41558E-13-3.18148E-13
 -1      1772 1.91420E+01 4.40269E+00-1.34586E-02-3.05255E-01 1.16173E-13-3.31672E-13
 -1      1773 1.93194E+01 4.01032E+00-8.69230E-03-3.85833E-01 1.09162E-13-3.13518E-13
 -1      1774 1.91648E+01 4.38291E+00-1.24707E-02 2.58242E-01 1.84890E-13-2.92799E-13
 -1      1775 1.91488E+01 4.39095E+00-1.40149E-02 6.53725E-02 1.64717E-13-3.11164E-13
 -1      1776 1.93180E+01 4.00972E+00-9.06702E-03-3.08318E-02 1.62154E-13-3.04659E-13
 -1      1777 1.92183E+01 4.33337E+00-1.28095E-02 6.46908E-01 2.07239E-13-2.52357E-13
 -1      1778 1.91869E+01 4.34972E+00-1.51172E-02 4.45770E-01 1.97218E-13-2.80878E-13
 -1      1779 1.93541E+01 3.96741E+00-9.44130E-03 3.33794E-01 1.97639E-13-2.78774E-13
 -1      1780 1.93051E+01 4.25227E+00-1.41277E-02 1.04970E+00 2.39674E-13-1.91774E-13
 -1      1781 1.92555E+01 4.27803E+00-1.70662E-02 8.39391E-01 2.23563E-13-2.32554E-13
 -1      1782 1.94248E+01 3.88496E+00-9.65178E-03 7.09438E-01 2.25259E-13-2.32314E-13
 -1      1783 1.94458E+01 4.12249E+00-1.73911E-02 1.48735E+00 2.68212E-13-8.97962E-14
 -1      1784 1.93653E+01 4.16500E+00-2.04923E-02 1.25461E+00 2.48891E-13-1.43840E-13
 -1      1785 1.95381E+01 3.75274E+00-9.77255E-03 1.10151E+00 2.57182E-13-1.60566E-13
 -1      1786 1.96797E+01 3.90813E+00-2.54839E-02 1.95954E+00 2.94176E-13 3.69635E-14
 -1      1787 1.95451E+01 3.98385E+00-2.68351E-02 1.69932E+00 2.80513E-13-4.08944E-14
 -1      1788 1.97196E+01 3.54423E+00-9.30313E-03 1.51105E+00 2.81856E-13-5.40488E-14
 -1      1789 2.00968E+01 3.51331E+00-4.45298E-02 2.46079E+00 2.91177E-13 2.21094E-13
 -1      1790 1.98568E+01 3.67343E+00-3.78920E-02 2.16381E+00 2.91474E-13 1.11505E-13
 -1      1791 2.00194E+01 3.20413E+00-6.53596E-03 1.91499E+00 3.01215E-13 8.08815E-14
 -1      1792 2.09421E+01 2.66481E+00-6.22869E-02 2.84287E+00 2.40866E-13 5.21014E-13
 -1      1793 2.04331E+01 3.09454E+00-4.96598E-02 2.59954E+00 2.62237E-13 3.42185E-13
 -1      1794 2.05190E+01 2.59761E+00-8.22334E-04 2.22605E+00 2.81567E-13 2.69215E-13
 -1      1795 2.17574E+01 1.20872E+00-1.23547E-01 2.31858E+00 1.74097E-13 8.54983E-13
 -1      1796 2.13028E+01 2.26938E+00 3.27375E-03 2.72987E+00 2.08070E-13 6.41182E-13
 -1      1797 2.09837E+01 1.68271E+00-1.39287E-02 2.13484E+00 2.49996E-13 5.05540E-13
 -1      1798 2.09903E+01 7.75550E-01-6.07340E-02 1.51480E+00 1.79301E-13 7.92061E-13
 -1      1799 2.18457E+01 2.45428E+00 9.07306E-02-3.00633E+00-2.07613E-13-1.81383E-14
 -1      1800 2.01505E+01 2.94223E-01-5.41456E-03 6.61290E-01 1.55750E-13 6.76875E-13
 -1      1801 2.06809E+01 4.34054E-01-1.45645E-02 1.02850E+00 1.56666E-13 7.33476E-13
 -1      1802 2.07760E+01 8.41526E-01 5.47128E-03 1.40273E+00 1.95587E-13 5.65712E-13
 -1      1803 3.13323E+01-3.48008E+00 2.31632E-01 3.19463E+00 9.51184E-14 2.13676E-13
 -1      1804 3.35234E+01-4.63705E+00 4.27278E-03 8.57879E-01-1.08080E-13 2.04135E-13
 -1      1805 2.06150E+01 5.16461E-01 3.29528E-02-8.55840E-01-1.73854E-13-8.82254E-14
 -1      1806 2.02141E+01 3.75743E-01 1.04143E-02-5.52144E-01-1.45307E-13-1.20062E-13
 -1      1807 2.00392E+01 2.88201E-01 2.80306E-02-2.92448E-01-1.47953E-13-1.22315E-13
 -1      1808 1.98945E+01 2.20374E-01 1.44795E-02-1.32698E-01-1.24940E-13-1.53511E-13
 -1      1809 2.03110E+01 5.25195E-01-6.61591E-03-6.09392E-01-1.61079E-13-1.73387E-13
 -1      1810 1.98005E+01 1.86425E-01 1.74600E-02 3.66755E-02-9.08639E-14-1.52208E-13
 -1      1811 1.97950E+01 1.64698E-01 1.33816E-02 1.44956E-01-6.62942E-14-1.86438E-13
 -1      1812 2.00350E+01 3.18079E-01-6.42567E-03-1.19575E-01-1.20271E-13-1.69249E-13
 -1      1813 1.97686E+01 1.58414E-01 9.81406E-03 2.77041E-01-7.30843E-14-1.93928E-13
 -1      1814 1.98694E+01 1.65171E-01 1.44433E-02 3.75250E-01-6.57408E-14-2.00436E-13
 -1      1815 1.99222E+01 2.50022E-01-5.15971E-03 2.20948E-01-7.88952E-14-1.90523E-13
 -1      1816 1.98967E+01 1.81341E-01 5.33135E-03 5.14417E-01-6.52070E-14-1.94541E-13
 -1      1817 2.01086E+01 2.17436E-01 1.85229E-02 6.40089E-01-3.92256E-14-2.21878E-13
 -1      1818 1.99327E+01 2.68483E-01-3.58413E-03 5.24253E-01-8.32654E-14-1.91624E-13
 -1      1819 2.01695E+01 2.56425E-01 2.29728E-03 8.08401E-01-3.36450E-14-2.32636E-13
 -1      1820 2.04931E+01 3.22388E-01 2.48956E-02 9.80024E-01-3.43076E-14-2.24454E-13
 -1      1821 2.00384E+01 3.65299E-01-9.69474E-04 8.64154E-01-5.71535E-14-2.16751E-13
 -1      1822 2.05710E+01 3.89278E-01-1.60188E-03 1.21863E+00-1.99025E-14-2.30696E-13
 -1      1823 2.10505E+01 4.94271E-01 3.33053E-02 1.47694E+00 5.00121E-15-2.25707E-13
 -1      1824 2.02050E+01 5.48580E-01 2.76783E-03 1.30489E+00-9.52103E-15-2.37052E-13
 -1      1825 2.11185E+01 5.92513E-01-7.99031E-03 1.82375E+00 4.14425E-14-2.18841E-13
 -1      1826 2.18041E+01 7.33679E-01 4.13796E-02 2.20452E+00 9.73076E-14-1.64833E-13
 -1      1827 2.03973E+01 8.33436E-01 8.54865E-03 1.92910E+00 3.75542E-14-1.94271E-13
 -1      1828 2.18252E+01 8.48822E-01-1.66813E-02 2.69186E+00 1.02297E-13-1.43134E-13
 -1      1829 2.27668E+01 9.82796E-01 4.77556E-02 3.20202E+00 1.25275E-13-1.18667E-13
 -1      1830 2.05569E+01 1.20377E+00 1.79347E-02 2.80505E+00 1.11345E-13-1.55179E-13
 -1      1831 2.27229E+01 1.03922E+00-1.45215E-02 3.82428E+00 1.68078E-13-8.21973E-14
 -1      1832 2.39427E+01 1.00405E+00 5.79576E-02 4.36076E+00 1.66159E-13-9.92956E-15
 -1      1833 2.06111E+01 1.51637E+00 3.37771E-02 3.95353E+00 1.92356E-13-8.55947E-14
 -1      1834 2.39543E+01 7.68148E-01 3.64460E-02 4.98715E+00 1.49887E-13 7.57623E-14
 -1      1835 2.54192E+01 1.94657E-01 9.27024E-02 5.18400E+00 1.39833E-13 1.44092E-13
 -1      1836 2.05603E+01 1.28627E+00 5.32328E-02 5.23945E+00 2.41977E-13 3.65680E-14
 -1      1837 2.58818E+01-6.83537E-01 1.61216E-01 5.41359E+00 1.62634E-13 2.12150E-13
 -1      1838 2.73636E+01-2.09060E+00 1.15632E-01 4.76189E+00 1.88849E-13 2.29948E-13
 -1      1839 2.07711E+01-2.96940E-01 7.23967E-02 6.16386E+00 2.06848E-13 2.19852E-13
 -1      1840 2.22283E+01-2.04390E+00 5.89590E-02 8.55179E+00 5.37348E-14 3.45834E-14
 -1      1841 1.72708E+01-4.18944E+00-2.43226E-01 7.87726E+00-3.41949E-14 1.53849E-13
 -1      1842 2.15633E+01 1.74616E+00 7.95371E-02-2.28742E+00-2.16986E-13-7.81736E-14
 -1      1843 4.97072E+01 4.57460E+00 8.87417E-01-2.30432E+00-7.45293E-13-2.82663E-13
 -1      1844 4.97104E+01 5.55049E+00 9.06397E-01 3.24519E-01-5.50671E-13-3.52302E-13
 -1      1845 5.08730E+01 5.50410E+00 1.13432E+00 1.57567E+00-4.26881E-13-3.09253E-13
 -1      1846 4.90289E+01 3.12420E+00 7.61738E-01 3.18119E+00-3.41838E-13-4.69624E-13
 -1      1847 3.57981E+01-4.33609E+00 2.16145E-01 8.95443E-01 1.53710E-13-5.10092E-13
 -1      1848 3.36744E+01-3.96248E+00 2.23270E-01-1.91331E+00 3.73063E-13-4.90427E-13
 -1      1849 2.98416E+01-2.56967E+00 1.12840E-01-3.77289E+00 3.56853E-13-4.86007E-13
 -1      1850 2.81699E+01-1.06688E+00 1.91476E-01-4.88239E+00 2.75363E-13-4.64274E-13
 -1      1851 2.72248E+01-5.45463E-02 8.36749E-02-4.89904E+00 1.80307E-13-6.13067E-13
 -1      1852 2.55902E+01 5.85388E-01 5.48189E-02-4.80965E+00 3.37612E-14-5.49342E-13
 -1      1853 2.26822E+01-8.31334E-01 8.71954E-02-6.02481E+00 1.67935E-13-2.85633E-13
 -1      1854 2.53311E+01 8.30742E-01 5.08395E-02-4.22262E+00-4.38241E-14-6.07066E-13
 -1      1855 2.39402E+01 9.16265E-01-8.14510E-03-3.71967E+00-7.72221E-14-6.55184E-13
 -1      1856 2.18573E+01 1.03475E+00 4.58281E-02-5.25555E+00-3.90278E-14-4.93303E-13
 -1      1857 2.38262E+01 8.69723E-01 4.19362E-02-3.07554E+00-1.54187E-13-6.94490E-13
 -1      1858 2.27678E+01 7.70013E-01-1.33694E-02-2.57555E+00-2.12786E-13-7.59218E-13
 -1      1859 2.15661E+01 1.37229E+00 2.43017E-02-3.95598E+00-1.48255E-13-5.98130E-13
 -1      1860 2.26490E+01 6.60655E-01 3.77100E-02-2.05927E+00-2.27787E-13-8.67768E-13
 -1      1861 2.19045E+01 5.40263E-01-5.71857E-03-1.68368E+00-3.12425E-13-9.16236E-13
 -1      1862 2.13049E+01 1.11835E+00 1.16655E-02-2.74346E+00-3.74419E-13-6.35011E-13
 -1      1863 2.17783E+01 4.44993E-01 3.10088E-02-1.31776E+00-2.50791E-13-8.81903E-13
 -1      1864 2.12784E+01 3.49710E-01-1.17398E-03-1.06567E+00-2.11666E-13-7.91943E-13
 -1      1865 2.10225E+01 7.77079E-01 5.44621E-03-1.81273E+00-3.10113E-13-5.82827E-13
 -1      1866 2.11571E+01 2.78509E-01 2.25104E-02-8.11426E-01-2.94703E-14-7.87385E-13
 -1      1867 2.08249E+01 2.13046E-01 1.21155E-03-6.46016E-01 2.18265E-13-9.38256E-13
 -1      1868 2.07535E+01 4.99101E-01 3.20390E-03-1.15139E+00-8.94475E-14-6.36974E-13
 -1      1869 2.07369E+01 1.71569E-01 1.56067E-02-4.93848E-01 2.00758E-13-1.00664E-12
 -1      1870 2.05377E+01 1.30693E-01 1.93144E-03-3.97046E-01 1.37119E-13-8.95704E-13
 -1      1871 2.05305E+01 3.05370E-01 2.12303E-04-7.15032E-01 9.57472E-14-6.96083E-13
 -1      1872 2.04704E+01 1.04310E-01 1.00922E-02-3.01173E-01 1.24293E-13-9.61527E-13
 -1      1873 2.03461E+01 7.91619E-02 1.64042E-03-2.42260E-01 1.53475E-13-9.16535E-13
 -1      1874 2.03668E+01 1.86754E-01-5.03799E-04-4.44780E-01 1.09350E-13-1.00482E-12
 -1      1875 2.02980E+01 6.30256E-02 6.40052E-03-1.82807E-01 2.01833E-13-1.00293E-12
 -1      1876 2.02210E+01 4.76398E-02 1.23104E-03-1.47209E-01 8.39086E-14-9.68423E-13
 -1      1877 2.02488E+01 1.12941E-01-7.16112E-04-2.74673E-01 1.49335E-13-1.09291E-12
 -1      1878 2.01877E+01 3.78897E-02 3.98997E-03-1.10645E-01 2.16368E-13-9.77363E-13
 -1      1879 2.01403E+01 2.85626E-02 8.73411E-04-8.92361E-02 2.48160E-13-8.63760E-13
 -1      1880 2.01665E+01 6.78743E-02-6.86324E-04-1.68875E-01 1.76725E-13-1.10590E-12
 -1      1881 2.01176E+01 2.27089E-02 2.46164E-03-6.68658E-02 2.85710E-13-8.09311E-13
 -1      1882 2.00885E+01 1.70881E-02 6.02091E-04-5.40257E-02 4.59013E-14-5.99187E-13
 -1      1883 2.01103E+01 4.06340E-02-5.67629E-04-1.03564E-01 3.17623E-13-9.88766E-13
 -1      1884 2.00733E+01 1.35884E-02 1.50919E-03-4.03796E-02-2.87938E-13-5.10228E-13
 -1      1885 2.00554E+01 1.02129E-02 4.07459E-04-3.26881E-02-2.32868E-13-5.58294E-13
 -1      1886 2.00724E+01 2.42713E-02-4.34983E-04-6.34350E-02-3.24823E-14-5.87154E-13
 -1      1887 2.00452E+01 8.14264E-03 9.25670E-04-2.43744E-02-8.81576E-14-4.48883E-13
 -1      1888 2.00342E+01 6.08743E-03 2.58923E-04-1.97578E-02 5.57937E-14-3.96782E-13
 -1      1889 2.00471E+01 1.44785E-02-3.20633E-04-3.88404E-02-6.23142E-14-1.72486E-13
 -1      1890 2.00272E+01 4.78988E-03 5.57397E-04-1.44782E-02-3.62827E-14-4.98666E-13
 -1      1891 2.00203E+01 3.54726E-03 1.70380E-04-1.16180E-02-6.52998E-14-5.82176E-13
 -1      1892 2.00300E+01 8.62665E-03-1.98015E-04-2.35361E-02-1.49811E-13-3.46481E-13
 -1      1893 2.00159E+01 2.86850E-03 3.38846E-04-8.60350E-03 7.55339E-14-7.19633E-13
 -1      1894 2.00119E+01 2.15081E-03 1.19992E-04-6.97577E-03 1.45532E-15-6.89574E-13
 -1      1895 2.00187E+01 5.03715E-03-1.59635E-04-1.41657E-02-2.64583E-15-4.15267E-13
 -1      1896 2.00091E+01 1.72601E-03 2.03737E-04-5.11617E-03 1.03045E-13-5.98230E-13
 -1      1897 2.00067E+01 1.30566E-03 8.15397E-05-4.13097E-03 1.90392E-13-4.05683E-13
 -1      1898 2.00116E+01 3.03528E-03-1.10214E-04-8.60294E-03 8.56203E-14-3.98786E-13
 -1      1899 2.00048E+01 1.05003E-03 1.24452E-04-2.97997E-03 5.18011E-14-3.68018E-13
 -1      1900 2.00033E+01 7.97109E-04 5.51092E-05-2.37833E-03 6.92645E-14-3.22065E-13
 -1      1901 2.00069E+01 1.83631E-03-7.62648E-05-5.15742E-03 1.45620E-13-2.41683E-13
 -1      1902 2.00021E+01 6.43237E-04 7.62964E-05-1.66131E-03 4.13763E-14-3.64287E-13
 -1      1903 2.00013E+01 4.89711E-04 3.74933E-05-1.29158E-03 2.12312E-14-4.52185E-13
 -1      1904 2.00038E+01 1.11790E-03-5.27314E-05-3.00845E-03-2.36398E-14-2.73254E-13
 -1      1905 2.00005E+01 3.96059E-04 4.68434E-05-8.42250E-04-5.86035E-14-4.75612E-13
 -1      1906 2.00001E+01 3.01520E-04 2.55178E-05-6.13979E-04-1.51159E-13-4.02954E-13
 -1      1907 2.00019E+01 6.84115E-04-3.64102E-05-1.65916E-03-8.59903E-14-3.23760E-13
 -1      1908 1.99996E+01 2.44855E-04 2.89982E-05-3.31961E-04-1.32167E-13-5.16155E-13
 -1      1909 1.99994E+01 1.83926E-04 1.71247E-05-1.90695E-04-2.74970E-13-5.08337E-13
 -1      1910 2.00007E+01 4.18420E-04-2.52368E-05-8.07973E-04-2.50553E-13-2.95247E-13
 -1      1911 1.99991E+01 1.46808E-04 1.75487E-05-7.66380E-06-6.71399E-14-6.08443E-13
 -1      1912 1.99991E+01 1.06956E-04 1.15006E-05 8.12249E-05 1.12815E-13-6.22813E-13
 -1      1913 1.99999E+01 2.54948E-04-1.62940E-05-2.62666E-04-1.01829E-13-3.51427E-13
 -1      1914 1.99989E+01 8.59042E-05 1.01431E-05 1.86125E-04 2.43226E-13-5.94290E-13
 -1      1915 1.99990E+01 6.08853E-05 7.84482E-06 2.34709E-04 2.48447E-13-5.52058E-13
 -1      1916 1.99995E+01 1.46094E-04-1.14591E-05 7.72579E-05 1.19598E-13-4.29522E-13
 -1      1917 1.99989E+01 4.54160E-05 5.35926E-06 2.95436E-04 4.22661E-13-4.43248E-13
 -1      1918 1.99990E+01 2.84466E-05 5.02045E-06 3.20171E-04 4.22666E-13-2.00963E-13
 -1      1919 1.99994E+01 7.98564E-05-7.49702E-06 2.75207E-04 3.31541E-13-2.95226E-13
 -1      1920 1.99990E+01 1.67024E-05 2.34290E-06 3.49584E-04 2.68814E-13-2.32791E-13
 -1      1921 1.99992E+01 3.16631E-06 2.65827E-06 3.56683E-04 4.34678E-13-2.38865E-13
 -1      1922 1.99993E+01 3.28978E-05-4.71996E-06 3.84531E-04 4.56014E-13-2.38898E-13
 -1      1923 1.99992E+01-7.44960E-06 3.25371E-07 3.61737E-04 3.81325E-13-4.38185E-13
 -1      1924 1.99993E+01-2.06479E-05 6.82522E-07 3.53078E-04 3.50180E-13-3.35205E-13
 -1      1925 1.99994E+01-4.90763E-06-2.69928E-06 4.29001E-04 3.74713E-13-4.50345E-13
 -1      1926 1.99994E+01-3.34542E-05-9.93477E-07 3.36295E-04 2.41148E-13-4.87550E-13
 -1      1927 1.99995E+01-4.88732E-05-8.50761E-07 3.10012E-04 7.81889E-14-3.34084E-13
 -1      1928 1.99995E+01-4.16377E-05-8.80915E-07 4.20480E-04 2.21552E-13-5.18634E-13
 -1      1929 1.99996E+01-6.39095E-05-1.00482E-06 2.69478E-04-1.91932E-13-1.76265E-13
 -1      1930 1.99997E+01-8.33859E-05-1.99624E-06 2.24190E-04-3.86265E-13-9.31362E-14
 -1      1931 1.99996E+01-8.77628E-05 7.29350E-07 3.62201E-04 4.50639E-14-6.22752E-13
 -1      1932 1.99997E+01-1.03184E-04 2.39201E-07 1.55321E-04-2.84658E-13 4.52900E-14
 -1      1933 1.95204E+01 9.59929E-02 8.15560E-03 1.55712E-01 8.68333E-14 5.11985E-13
 -1      1934 1.96484E+01 1.46070E-01 1.66428E-02 2.40159E-01 1.08197E-13 5.34576E-13
 -1      1935 1.93549E+01 3.18136E-02 3.83350E-03 4.55420E-02 7.21897E-14 4.76460E-13
 -1      1936 1.94157E+01 6.19652E-02 1.13207E-02 7.76299E-02 7.47141E-14 4.92191E-13
 -1      1937 1.97205E+01 1.24704E-01-4.16939E-03 2.03066E-01 1.04990E-13 3.66639E-13
 -1      1938 1.92605E+01-1.03383E-02 5.04081E-04 1.76584E-02 8.04509E-14 4.19013E-13
 -1      1939 1.92924E+01 1.04248E-02 5.34942E-03 1.90916E-02 8.83057E-14 4.51402E-13
 -1      1940 1.95572E+01 3.27456E-02-3.11718E-03 7.78558E-02 1.07183E-13 3.22417E-13
 -1      1941 1.91857E+01-4.21248E-02-1.86649E-03 4.82744E-02 5.84502E-14 3.79966E-13
 -1      1942 1.92182E+01-2.62116E-02 1.80923E-03 2.77822E-02 5.99905E-14 4.04426E-13
 -1      1943 1.94577E+01-2.92024E-02-1.50106E-03 5.38381E-02 8.73605E-14 2.90116E-13
 -1      1944 1.90909E+01-6.69950E-02-3.55698E-03 1.23303E-01 1.31227E-14 3.59425E-13
 -1      1945 1.91452E+01-5.45866E-02-2.32963E-04 8.58179E-02 3.00487E-14 3.68830E-13
 -1      1946 1.93789E+01-7.56226E-02 6.29718E-05 1.02615E-01 5.54520E-14 2.62977E-13
 -1      1947 1.89469E+01-8.42929E-02-4.56820E-03 2.31348E-01 3.30953E-14 3.18448E-13
 -1      1948 1.90378E+01-7.60496E-02-1.43409E-03 1.81474E-01 2.54523E-14 3.40664E-13
 -1      1949 1.92883E+01-1.10719E-01 1.43785E-03 2.06386E-01 3.39138E-14 2.17863E-13
 -1      1950 1.87343E+01-9.05736E-02-4.71811E-03 3.58479E-01 2.47972E-14 2.94415E-13
 -1      1951 1.88704E+01-8.85122E-02-2.07471E-03 3.02500E-01 4.86380E-14 3.10914E-13
 -1      1952 1.91608E+01-1.32556E-01 2.52673E-03 3.49184E-01 4.32503E-14 2.07536E-13
 -1      1953 1.84458E+01-8.09682E-02-3.80823E-03 4.84895E-01 4.47576E-14 2.35173E-13
 -1      1954 1.86276E+01-8.76648E-02-2.22654E-03 4.31926E-01 3.97989E-14 2.69687E-13
 -1      1955 1.89785E+01-1.35347E-01 3.18093E-03 5.10771E-01 4.83745E-14 2.03779E-13
 -1      1956 1.80891E+01-5.13912E-02-1.79736E-03 5.84138E-01 8.35313E-15 2.53256E-13
 -1      1957 1.83077E+01-6.86947E-02-1.85077E-03 5.46049E-01 2.52001E-14 2.77741E-13
 -1      1958 1.87334E+01-1.12003E-01 3.16476E-03 6.63092E-01 2.04715E-14 1.62187E-13
 -1      1959 1.76910E+01-1.58135E-03 1.05080E-03 6.26136E-01-5.55798E-14 2.64524E-13
 -1      1960 1.79265E+01-2.89698E-02-8.60189E-04 6.15704E-01-2.53494E-14 2.40716E-13
 -1      1961 1.84311E+01-5.79141E-02 2.21458E-03 7.70394E-01-1.62843E-14 1.75171E-13
 -1      1962 1.72966E+01 6.21223E-02 4.12823E-03 5.84682E-01-3.21583E-14 3.15884E-13
 -1      1963 1.75201E+01 2.88302E-02 7.98097E-04 6.11919E-01-8.80652E-14 2.88094E-13
 -1      1964 1.80943E+01 2.44984E-02 2.05415E-04 7.94587E-01-9.11057E-14 2.03239E-13
 -1      1965 1.69641E+01 1.26229E-01 6.63339E-03 4.47760E-01 6.95104E-14 3.76250E-13
 -1      1966 1.71420E+01 9.47348E-02 3.02801E-03 5.15453E-01 7.55971E-14 3.85515E-13
 -1      1967 1.77642E+01 1.22494E-01-2.63702E-03 7.06071E-01-2.96462E-14 1.92920E-13
 -1      1968 1.67529E+01 1.73432E-01 7.89400E-03 2.26274E-01-2.62550E-15 2.61439E-13
 -1      1969 1.68543E+01 1.52700E-01 5.46971E-03 3.26898E-01 3.06920E-14 3.36129E-13
 -1      1970 1.74944E+01 2.13883E-01-5.60543E-03 4.96994E-01 7.93328E-14 2.08891E-13
 -1      1971 1.67069E+01 1.89318E-01 7.67645E-03-4.45481E-02-5.06279E-15 2.42206E-13
 -1      1972 1.67117E+01 1.85863E-01 7.49418E-03 7.17700E-02-1.69829E-15 2.49278E-13
 -1      1973 1.73383E+01 2.73512E-01-7.70007E-03 1.90470E-01 1.79266E-14 1.74352E-13
 -1      1974 1.68410E+01 1.69053E-01 6.27184E-03-3.14093E-01 5.59774E-14 2.25575E-13
 -1      1975 1.67454E+01 1.83822E-01 8.39468E-03-2.04115E-01 2.22600E-14 1.94018E-13
 -1      1976 1.73320E+01 2.83362E-01-8.10724E-03-1.61269E-01 5.83934E-14 1.02443E-13
 -1      1977 1.71355E+01 1.19761E-01 4.28915E-03-5.32709E-01-2.27127E-14 2.12747E-13
 -1      1978 1.69533E+01 1.47672E-01 7.71910E-03-4.48673E-01 1.38071E-14 2.33927E-13
 -1      1979 1.74814E+01 2.40819E-01-6.68323E-03-4.91807E-01 2.95276E-14 1.79124E-14
 -1      1980 1.75431E+01 5.69283E-02 2.32833E-03-6.67524E-01-5.49563E-14 2.21352E-13
 -1      1981 1.73010E+01 8.94026E-02 5.54101E-03-6.20628E-01-4.94129E-14 2.22677E-13
 -1      1982 1.77600E+01 1.59862E-01-4.04923E-03-7.42456E-01-4.00702E-14 1.85238E-14
 -1      1983 1.80038E+01-2.69108E-03 7.60600E-04-7.10121E-01 1.98934E-14 1.81405E-13
 -1      1984 1.77344E+01 2.60622E-02 2.45411E-03-7.01175E-01 1.10263E-14 2.28033E-13
 -1      1985 1.81193E+01 6.44336E-02-1.18109E-03-8.80177E-01-1.97606E-14 1.09915E-13
 -1      1986 1.84610E+01-4.72721E-02-3.00816E-04-6.73917E-01 1.31200E-13 9.06684E-14
 -1      1987 1.81947E+01-2.74066E-02-7.12188E-04-6.95449E-01 6.98619E-14 1.86012E-13
 -1      1988 1.85052E+01-2.17935E-02 1.12041E-03-9.03316E-01 1.15878E-13 6.95110E-14
 -1      1989 1.88729E+01-7.23844E-02-9.11382E-04-5.84782E-01-3.45652E-14 2.04906E-13
 -1      1990 1.86328E+01-6.27166E-02-3.25143E-03-6.25326E-01 4.34778E-14 1.49542E-13
 -1      1991 1.88721E+01-8.34108E-02 2.50062E-03-8.34919E-01 6.28545E-14 9.50323E-14
 -1      1992 1.92164E+01-7.98059E-02-1.18415E-03-4.70679E-01-7.12392E-14 1.79071E-13
 -1      1993 1.90156E+01-7.87517E-02-4.79899E-03-5.18878E-01-2.62121E-14 1.98040E-13
 -1      1994 1.91907E+01-1.15758E-01 3.01816E-03-7.09703E-01-8.18681E-14 5.03553E-14
 -1      1995 1.94844E+01-7.46358E-02-1.23279E-03-3.54442E-01-3.79538E-14 1.73376E-13
 -1      1996 1.93273E+01-7.92880E-02-5.34577E-03-4.01586E-01-9.90573E-14 2.28490E-13
 -1      1997 1.94479E+01-1.22661E-01 2.92802E-03-5.61781E-01-5.03443E-14 2.17485E-13
 -1      1998 1.96815E+01-6.25696E-02-1.14405E-03-2.50813E-01 1.03352E-13 2.54457E-13
 -1      1999 1.95658E+01-7.00082E-02-5.11344E-03-2.91655E-01 9.16801E-14 2.22383E-13
 -1      2000 1.96433E+01-1.12116E-01 2.51311E-03-4.17206E-01 2.80635E-15 1.84294E-13
 -1      2001 1.98187E+01-4.82418E-02-9.82041E-04-1.66793E-01 1.34351E-13 1.77000E-13
 -1      2002 1.97383E+01-5.62451E-02-4.40631E-03-1.99145E-01 1.28025E-13 2.39804E-13
 -1      2003 1.97838E+01-9.25158E-02 1.98833E-03-2.91681E-01 1.43284E-13 1.71567E-13
 -1      2004 1.99087E+01-3.46538E-02-7.91854E-04-1.03646E-01 6.20229E-14 9.67729E-14
 -1      2005 1.98563E+01-4.18766E-02-3.50236E-03-1.27458E-01 1.08821E-13 2.36139E-13
 -1      2006 1.98798E+01-7.04522E-02 1.48089E-03-1.91795E-01 1.07325E-13 1.29490E-13
 -1      2007 1.99643E+01-2.33125E-02-6.03861E-04-5.92358E-02 1.14542E-13 1.01342E-13
 -1      2008 1.99323E+01-2.91505E-02-2.60074E-03-7.56415E-02 1.07395E-14 9.69415E-14
 -1      2009 1.99419E+01-5.00614E-02 1.04966E-03-1.17782E-01 4.02460E-14 6.48831E-14
 -1      2010 1.99958E+01-1.46602E-02-4.36527E-04-2.99306E-02 8.95593E-14 1.61647E-13
 -1      2011 1.99780E+01-1.90072E-02-1.81537E-03-4.05179E-02 2.02864E-13 2.02482E-13
 -1      2012 1.99797E+01-3.33197E-02 7.11036E-04-6.63242E-02 1.00803E-13 1.09377E-13
 -1      2013 2.00116E+01-8.52008E-03-2.98700E-04-1.18660E-02-7.12622E-14 3.14419E-14
 -1      2014 2.00030E+01-1.15416E-02-1.19202E-03-1.82186E-02 4.20142E-14 9.40462E-14
 -1      2015 2.00008E+01-2.07046E-02 4.59645E-04-3.27147E-02 1.68530E-13 2.86315E-13
 -1      2016 2.00178E+01-4.43804E-03-1.92241E-04-1.62206E-03-1.52387E-14-1.96969E-14
 -1      2017 2.00147E+01-6.40694E-03-7.32125E-04-5.09036E-03-9.32793E-14-2.49964E-14
 -1      2018 2.00111E+01-1.18477E-02 2.81296E-04-1.22127E-02-2.65434E-14 1.93027E-13
 -1      2019 2.00185E+01-1.89807E-03-1.14610E-04 3.51352E-03-2.23015E-14 1.29603E-13
 -1      2020 2.00185E+01-3.09643E-03-4.13736E-04 1.88694E-03 9.57569E-15 3.92510E-14
 -1      2021 2.00148E+01-6.02116E-03 1.59902E-04-7.38027E-04-7.60080E-14 2.49611E-13
 -1      2022 2.00164E+01-4.34860E-04-6.10684E-05 5.52745E-03 6.17106E-14 1.25350E-13
 -1      2023 2.00179E+01-1.10576E-03-2.06419E-04 4.99607E-03 7.95636E-14 1.69130E-13
 -1      2024 2.00148E+01-2.43839E-03 8.07332E-05 4.89113E-03 6.71086E-14 1.96160E-13
 -1      2025 2.00132E+01 3.22382E-04-2.62521E-05 5.78281E-03 8.75481E-14 1.31397E-13
 -1      2026 2.00153E+01-9.32729E-06-8.00619E-05 5.84535E-03 7.72237E-14 1.82624E-13
 -1      2027 2.00130E+01-4.06319E-04 3.16044E-05 6.97926E-03 3.76991E-14 1.06872E-13
 -1      2028 2.00099E+01 6.45395E-04-5.13211E-06 5.15949E-03-1.85379E-13 1.82105E-13
 -1      2029 2.00119E+01 5.17857E-04-9.11708E-06 5.49968E-03-5.58167E-15 1.40506E-13
 -1      2030 2.00104E+01 6.19445E-04 3.05003E-06 7.09423E-03 4.81768E-14 2.48364E-13
 -1      2031 2.00070E+01 7.20537E-04 6.51466E-06 4.19015E-03-2.43769E-13 1.75226E-13
 -1      2032 2.00087E+01 7.06278E-04 2.61049E-05 4.62170E-03-1.88162E-13 1.41921E-13
 -1      2033 2.00078E+01 1.03344E-03-1.19594E-05 6.24113E-03-1.68970E-13 2.06316E-13
 -1      2034 2.00045E+01 6.68215E-04 1.19684E-05 3.17281E-03-4.72601E-15-2.74612E-15
 -1      2035 2.00059E+01 7.09583E-04 3.97290E-05 3.59538E-03-1.76283E-13 2.85487E-14
 -1      2036 2.00055E+01 1.10360E-03-1.84494E-05 5.02420E-03-1.35882E-13-5.80879E-14
 -1      2037 2.00027E+01 5.61608E-04 1.36209E-05 2.25596E-03 1.14138E-13-1.54065E-13
 -1      2038 2.00037E+01 6.24294E-04 4.12927E-05 2.62279E-03 7.60352E-14-1.95086E-13
 -1      2039 2.00036E+01 1.00132E-03-1.98849E-05 3.77864E-03 9.43652E-14-3.77140E-13
 -1      2040 2.00013E+01 4.42063E-04 1.31184E-05 1.49847E-03-3.63227E-14-7.93787E-14
 -1      2041 2.00021E+01 5.07226E-04 3.68747E-05 1.79399E-03-9.32973E-16-1.01815E-13
 -1      2042 2.00022E+01 8.29564E-04-1.85653E-05 2.66903E-03 1.84026E-14-4.25390E-13
 -1      2043 2.00004E+01 3.30586E-04 1.15268E-05 9.09529E-04 5.83393E-14-1.12754E-13
 -1      2044 2.00009E+01 3.89104E-04 3.01144E-05 1.13484E-03 5.98254E-14-1.88052E-14
 -1      2045 2.00011E+01 6.45566E-04-1.59509E-05 1.75831E-03 2.97679E-15-3.98826E-13
 -1      2046 1.99999E+01 2.35851E-04 9.48483E-06 4.73935E-04-1.87002E-13-1.61957E-13
 -1      2047 2.00001E+01 2.84393E-04 2.30253E-05 6.37704E-04-4.08138E-14-1.33496E-13
 -1      2048 2.00004E+01 4.77617E-04-1.29196E-05 1.05347E-03 1.06795E-14-2.55986E-13
 -1      2049 1.99996E+01 1.59463E-04 7.33124E-06 1.67241E-04 2.86895E-13-2.28276E-13
 -1      2050 1.99997E+01 1.97941E-04 1.65994E-05 2.80437E-04-7.79152E-15-1.62743E-13
 -1      2051 2.00000E+01 3.36610E-04-9.95753E-06 5.34449E-04-8.72194E-14-2.27550E-13
 -1      2052 1.99995E+01 9.92571E-05 5.20616E-06-3.55971E-05 2.10926E-13-2.64199E-13
 -1      2053 1.99995E+01 1.29252E-04 1.12114E-05 3.73403E-05 3.07553E-13-1.36522E-13
 -1      2054 1.99997E+01 2.23601E-04-7.29567E-06 1.71437E-04 1.32077E-13-1.75710E-13
 -1      2055 1.99995E+01 5.12284E-05 3.17265E-06-1.55712E-04 1.73742E-13-2.31084E-13
 -1      2056 1.99994E+01 7.51156E-05 6.92298E-06-1.14884E-04 1.41635E-13-2.29216E-13
 -1      2057 1.99996E+01 1.34441E-04-5.03165E-06-6.53458E-05 1.74727E-13-1.58155E-14
 -1      2058 1.99995E+01 1.02792E-05 1.29562E-06-2.08235E-04 1.08783E-13-1.77831E-13
 -1      2059 1.99995E+01 3.09396E-05 3.70703E-06-1.94365E-04 1.57927E-13-1.61607E-13
 -1      2060 1.99996E+01 6.25804E-05-3.15060E-06-2.00816E-04 1.69449E-13 4.46878E-14
 -1      2061 1.99996E+01-2.92505E-05 3.70699E-08-2.00761E-04-2.81748E-13 8.59990E-14
 -1      2062 1.99996E+01-9.42863E-06 1.61644E-06-2.12643E-04-1.06636E-13 4.33565E-15
 -1      2063 1.99996E+01-3.08218E-07-1.58249E-06-2.53628E-04-5.80814E-14 2.21632E-13
 -1      2064 1.99997E+01-6.08476E-05-5.34610E-07-1.43566E-04 1.81459E-14-6.83201E-14
 -1      2065 1.99997E+01-4.22010E-05 8.46214E-07-1.77564E-04-8.82676E-14-5.95016E-14
 -1      2066 1.99997E+01-5.04855E-05-6.64627E-07-2.36589E-04-1.33912E-13 2.67362E-13
 -1      2067 1.99997E+01-9.25156E-05-6.52080E-07-1.69862E-04-6.22762E-14 3.69881E-13
 -1      2068 1.99998E+01-3.74871E-04-5.67854E-07-2.15319E-04-6.74105E-14 3.44713E-14
 -1      2069 1.99998E+01-3.06394E-04 3.38385E-07-2.21784E-04-2.65522E-13-5.58030E-15
 -1      2070 1.99998E+01-2.74922E-04-1.29519E-07-2.24519E-04-1.49366E-13 8.03862E-14
 -1      2071 1.99998E+01-2.06380E-04-1.29565E-06-2.21320E-04-1.09335E-13 2.03960E-13
 -1      2072 1.99998E+01-2.03144E-04 5.31583E-07-2.68340E-04-3.31198E-13-8.94852E-15
 -1      2073 1.99998E+01-1.51699E-04 4.10721E-07-1.93439E-04 4.31472E-14 2.04278E-13
 -1      2074 1.99998E+01-4.65338E-04-2.17225E-07-1.91599E-04-2.13084E-13-4.26841E-13
 -1      2075 1.99998E+01-4.02553E-04 1.18856E-06-2.03619E-04-1.38936E-13-1.72181E-14
 -1      2076 1.99998E+01-2.63845E-04-7.81182E-08-2.51526E-04-3.90187E-13-1.07714E-13
 -1      2077 1.99998E+01-5.46514E-04 3.86422E-07-1.59778E-04 9.28424E-15-7.20444E-14
 -1      2078 1.99998E+01-4.91868E-04 1.43717E-06-1.75302E-04-6.08727E-14-1.26181E-13
 -1      2079 1.99998E+01-3.18861E-04 1.51716E-07-2.21349E-04-1.82270E-13-2.00523E-13
 -1      2080 1.99998E+01-6.14018E-04 1.13952E-06-1.20841E-04-9.65360E-15-4.29565E-13
 -1      2081 1.99998E+01-5.71692E-04 1.43331E-06-1.39780E-04 4.14272E-14-2.35731E-13
 -1      2082 1.99998E+01-3.71475E-04 1.98913E-07-1.82419E-04-1.25432E-13-1.15425E-13
 -1      2083 1.99998E+01-6.63677E-04 1.95634E-06-7.21193E-05-1.57748E-13-3.90536E-13
 -1      2084 1.99998E+01-6.37042E-04 1.32963E-06-9.57866E-05-1.41675E-13-4.47641E-13
 -1      2085 1.99999E+01-4.20338E-04 4.34119E-08-1.33871E-04-1.35545E-13-5.16484E-13
 -1      2086 1.99999E+01-6.89223E-04 2.68121E-06-1.06687E-05-1.44816E-13-2.39081E-13
 -1      2087 1.99998E+01-6.82096E-04 1.25379E-06-4.01384E-05-1.54432E-13-1.08122E-13
 -1      2088 1.99999E+01-4.61953E-04-3.04482E-07-7.19272E-05-4.12827E-13-2.32844E-13
 -1      2089 1.99999E+01-6.83307E-04 3.08682E-06 6.37260E-05-1.52292E-13-6.43947E-14
 -1      2090 1.99999E+01-6.99275E-04 1.23621E-06 2.89196E-05-2.38109E-13-1.27621E-13
 -1      2091 1.99999E+01-4.90092E-04-7.72465E-07 6.45718E-06-4.16639E-13-3.01426E-13
 -1      2092 1.99999E+01-6.40675E-04 2.93419E-06 1.44659E-04-4.17196E-13-8.71989E-14
 -1      2093 1.99999E+01-6.80991E-04 1.24662E-06 1.08222E-04-3.24271E-13-1.49434E-14
 -1      2094 1.99999E+01-4.96933E-04-1.23437E-06 9.91564E-05-4.00268E-13-1.21752E-13
 -1      2095 1.99999E+01-5.57814E-04 2.14508E-06 2.23529E-04-2.50265E-13 2.92103E-15
 -1      2096 1.99999E+01-6.22492E-04 1.21093E-06 1.90100E-04-4.06588E-13 2.03297E-13
 -1      2097 1.99999E+01-4.75570E-04-1.59431E-06 1.98804E-04-4.59308E-13-6.95727E-14
 -1      2098 1.99998E+01-4.40108E-04 5.90718E-07 2.80895E-04-3.82592E-14 4.00939E-15
 -1      2099 1.99998E+01-5.22576E-04 1.05228E-06 2.60113E-04-1.56300E-13-3.80260E-13
 -1      2100 1.99999E+01-4.21423E-04-1.56542E-06 2.90242E-04-1.49119E-13-3.18167E-14
 -1      2101 1.99998E+01-2.99879E-04-1.80210E-06 2.95497E-04 1.36172E-14 1.88801E-13
 -1      2102 1.99998E+01-3.90241E-04 9.49274E-07 2.96331E-04-4.28926E-14 1.37193E-13
 -1      2103 1.99998E+01-3.35864E-04-1.24009E-06 3.48873E-04 8.28969E-14 5.05781E-14
 -1      2104 1.97489E+01 1.69065E-01 1.16855E-02 3.36738E-01 1.44856E-13 5.79474E-13
 -1      2105 2.00084E+01 2.48643E-01 1.65761E-02 5.09270E-01 1.44185E-13 6.38621E-13
 -1      2106 2.02034E+01 4.05770E-01-5.31185E-05 7.36443E-01 1.69746E-13 4.85207E-13
 -1      2107 1.99265E+01 2.46524E-01-3.25788E-03 4.23651E-01 1.55440E-13 4.06713E-13
 -1      2108 1.27014E+01-4.25585E+00-4.54818E-02 8.43108E+00 3.94129E-14 2.03941E-13
 -1      2109 8.63939E+00-6.09817E+00-2.73482E-01 7.34367E+00-8.88178E-15 7.09710E-14
 -1      2110 3.09677E+01 7.54030E-02 3.93802E-02 6.55674E+00 1.29174E-13-5.83422E-14
 -1      2111 2.58229E+01-1.34998E+00-1.21459E-01 7.15623E+00 9.75886E-14 4.77396E-14
 -1      2112 2.62652E+01-3.65324E+00 1.15580E-01 6.71094E+00-1.84519E-13-1.39860E-13
 -1      2113-3.49779E-02-7.58281E+00-3.45901E-01 3.25951E+00-1.42109E-14-2.68674E-14
 -1      2114-7.04400E-01-7.86752E+00-3.74853E-01 1.71196E+00-8.31973E-15 1.27509E-13
 -1      2115 1.95147E+01 4.05432E+00-2.60567E-02-1.65370E+00-6.69126E-14-4.03719E-13
 -1      2116 1.96598E+01 3.97787E+00-2.36415E-02-1.90257E+00-9.96746E-14-3.91888E-13
 -1      2117 1.99870E+01 3.29601E+00-7.14961E-03-1.84686E+00-1.28527E-13-3.56860E-13
 -1      2118 1.96715E+01 3.64154E+00-8.35287E-03-1.47166E+00-6.44398E-14-3.80021E-13
 -1      2119 3.93342E+01 4.66762E+00 3.38922E-01 4.56567E+00 3.82236E-13-8.05467E-14
 -1      2120 3.44048E+01 2.75190E+00-2.97394E-02 4.53796E+00 3.05235E-13-1.93179E-14
 -1      2121 4.34819E+01 7.04628E+00 2.98036E-01 2.44004E+00 5.12201E-13-3.04035E-13
 -1      2122 4.05469E+01 6.12982E+00 1.15392E-01 3.68163E+00 4.36762E-13-1.56541E-13
 -1      2123 3.73293E+01 5.13144E+00 2.39922E-01 1.04159E+00 3.94407E-13-1.53599E-13
 -1      2124 4.29067E+01 8.71666E+00 1.20117E-01-6.05455E-02 5.86364E-13-2.60278E-13
 -1      2125 4.42580E+01 8.23084E+00 3.91652E-01 1.54474E+00 6.11733E-13-2.85827E-13
 -1      2126 3.90517E+01 8.41229E+00 3.03344E-01 2.67499E-01 5.99631E-13-2.38143E-13
 -1      2127 4.34560E+01 7.61444E+00 3.48186E-01-2.25446E+00 4.98823E-13-5.35239E-13
 -1      2128 4.35177E+01 8.45848E+00 2.40776E-01-5.39936E-01 4.82614E-13-3.92408E-13
 -1      2129 3.80419E+01 4.86820E+00 4.98778E-02-3.66630E+00 5.32852E-13-5.22582E-13
 -1      2130 4.21263E+01 6.24986E+00 3.66374E-01-3.13523E+00 5.23553E-13-5.20695E-13
 -1      2131 3.12833E+01 7.39027E-01-3.45961E-02-5.81080E+00 4.32432E-13-5.57332E-13
 -1      2132 3.57550E+01 2.49266E+00 1.72482E-01-5.16929E+00 4.59549E-13-5.08260E-13
 -1      2133 2.20474E+01-2.30405E+00-1.94533E-01-7.63406E+00 4.39149E-13-7.31859E-13
 -1      2134 2.74470E+01-5.93851E-01 6.69968E-02-7.81286E+00 4.52915E-13-6.50480E-13
 -1      2135 1.29691E+01-5.10837E+00-3.51133E-01-7.49196E+00 2.66898E-13-7.81625E-13
 -1      2136 1.77282E+01-2.82028E+00-1.87489E-02-8.54516E+00 4.24549E-13-8.82683E-13
 -1      2137 5.48766E+00-7.20483E+00-3.97495E-01-6.24252E+00-3.66374E-15-7.87315E-13
 -1      2138 8.96646E+00-5.31548E+00-1.68066E-01-7.44905E+00 2.49134E-13-8.51416E-13
 -1      2139 4.78874E-01-8.38412E+00-4.39453E-01-3.65821E+00-2.49800E-13-7.48734E-13
 -1      2140 2.31283E+00-6.90753E+00-2.62657E-01-5.13036E+00-1.42109E-14-8.55704E-13
 -1      2141-2.63053E-01-6.91660E+00-2.57461E-01-4.70849E-01-2.48565E-13-6.73961E-13
 -1      2142-5.30031E-01-8.16431E+00-4.42365E-01-2.14007E+00-2.26763E-13-6.96110E-13
 -1      2143 1.08907E+00-4.85960E+00-1.98776E-01-3.31916E+00-1.03251E-13-8.18179E-13
 -1      2144 3.46029E+00-8.04844E+00-5.00866E-01 2.88564E+00-5.62217E-13-5.35960E-13
 -1      2145 1.49647E+00-7.43524E+00-3.40982E-01 1.96052E+00-3.57825E-13-5.51115E-13
 -1      2146 1.13714E+01-6.91559E+00-4.10180E-01 4.95851E+00-6.13287E-13-3.80695E-13
 -1      2147 6.88331E+00-8.19286E+00-6.39032E-01 3.69413E+00-5.68767E-13-4.29046E-13
 -1      2148 2.35057E+01-5.96539E+00-2.73683E-01 4.92639E+00-5.62217E-13-3.03924E-13
 -1      2149 1.63115E+01-7.21683E+00-6.65282E-01 4.37436E+00-6.09846E-13-3.40061E-13
 -1      2150 3.67447E+01-3.89714E+00 1.06999E-02 1.28525E+00-4.14835E-13-3.89244E-13
 -1      2151 2.94279E+01-5.50717E+00-5.22567E-01 2.26575E+00-4.90830E-13-3.02425E-13
 -1      2152 4.80378E+01 3.40279E+00 7.72441E-01-2.18983E+00-7.09099E-13-4.28657E-13
 -1      2153 4.46983E+01 9.39945E-01 1.09166E-01 4.07343E+00-2.72560E-13-3.61822E-13
 -1      2154 2.53286E+01-6.52013E+00-6.08925E-01-3.11951E+00 3.39728E-14 1.45217E-13
 -1      2155 3.27975E+01-5.24940E+00-2.81622E-01-2.53660E+00-5.61773E-14 2.16493E-13
 -1      2156 1.40765E+01-7.42496E+00-6.34877E-01-4.47653E+00 2.78444E-13 3.63043E-13
 -1      2157 2.05430E+01-6.23069E+00-3.48467E-01-5.16076E+00 6.35048E-14 3.05034E-13
 -1      2158 2.55710E+01-5.99612E+00 4.95849E-02-4.37063E+00 2.86438E-13 5.97196E-14
 -1      2159 5.38153E+00-7.76968E+00-4.84842E-01-3.37528E+00 1.50713E-13 3.33955E-13
 -1      2160 9.59034E+00-6.65326E+00-3.10227E-01-4.74752E+00 1.75304E-13 3.97446E-13
 -1      2161 1.54272E+01-5.67205E+00-1.07460E-01-5.81328E+00 2.48357E-13 3.56909E-13
 -1      2162 4.85777E-01-7.35212E+00-3.41966E-01-7.91270E-01-1.24900E-16 1.63980E-13
 -1      2163 2.25962E+00-7.48325E+00-3.68170E-01-2.18715E+00 3.90243E-14 2.11442E-13
 -1      2164 6.60131E+00-4.81207E+00-1.69702E-01-4.45986E+00 1.04361E-14 2.75946E-13
 -1      2165 4.52646E+00-5.82604E+00-1.62195E-01 6.45941E+00 5.17919E-14-9.65894E-15
 -1      2166 1.98014E+00-7.44896E+00-3.71632E-01 4.92309E+00 2.14273E-14-6.27276E-15
 -1      2167 4.64783E+01 2.07654E-01 6.37087E-01-3.04856E+00-5.13201E-13-2.50133E-13
 -1      2168 4.02468E+01-1.91290E+00-7.39440E-02-2.34885E+00-4.86444E-13-2.99982E-13
 -1      2169 3.14914E+01-5.40758E+00-1.18135E-01 2.08129E+00-2.21434E-13 3.18634E-14
 -1      2170 3.72206E+01-4.39138E+00 2.72937E-01-1.22628E+00-1.17004E-13 5.63993E-14
 -1      2171 1.78622E+01-4.97040E+00 1.59196E-02 8.63389E+00-2.32370E-13-9.21277E-14
 -1      2172 2.08110E+01 1.11786E+00-1.91995E-02-1.56081E+00-2.01721E-13-1.22818E-13
 -1      2173 2.06976E+01 1.34913E+00-1.95731E-02-1.60189E+00-2.04062E-13-1.94350E-13
 -1      2174 3.30638E+01 3.00189E-02 1.08960E-01 3.51825E+00 7.73201E-14-1.33449E-13
 -1      2175 1.25461E+00-4.64336E+00-1.82287E-01-1.55817E-01-1.00815E-13 2.39253E-13
 -1      2176 4.30399E+01-1.85783E+00 8.84950E-02 2.98396E+00-2.80331E-14-4.56635E-13
 -1      2177 2.64927E+01-4.36906E+00-4.37959E-03-4.42653E+00 3.41116E-13-1.68719E-13
 -1      2178 1.99997E+01-1.42397E-04-3.66731E-08 2.43163E-04-1.85316E-13 2.16527E-14
 -1      2179 1.99998E+01-1.26311E-04-6.93899E-07-2.46596E-04-2.87476E-14 1.93217E-13
 -1      2180 2.23441E+01-4.12652E+00 5.96446E-02-7.83481E+00 7.47180E-14-5.67490E-13
 -1      2181 1.99997E+01-2.08837E-04 4.95193E-07 2.74549E-04-1.32334E-13 7.66349E-15
 -1      2182 8.61753E+00-4.91890E+00-5.60272E-02 8.02408E+00-1.86351E-13 2.49800E-14
 -1      2183 2.17227E+00-4.72043E+00-1.53209E-01 4.84634E+00-1.95316E-13 8.99281E-15
 -1      2184 3.04431E+01-1.60069E+00 1.47818E-01-5.15896E+00 1.60122E-13-2.91711E-13
 -1      2185 2.92865E+01-6.21401E+00-1.59853E-01 2.72259E+00-3.21965E-13-3.86913E-14
 -1      2186 1.75033E+01-6.56242E+00-2.27282E-01 5.66879E+00-2.46025E-13-1.18829E-13
 -1      2187 1.52183E+00-5.56293E+00-2.06425E-01 1.17470E+00-1.80966E-13-6.19893E-13
 -1      2188 2.15397E+00-2.80488E+00 4.52896E-02 5.80005E-01 1.21222E-14-6.59472E-13
 -1      2189 3.97928E+00-3.30304E+00-7.91856E-03 2.95956E+00 1.11300E-14-5.49227E-13
 -1      2190 5.48078E+00-5.50709E+00-1.78267E-01-6.83818E+00-1.12910E-13-9.13103E-13
 -1      2191 1.33869E+01-5.41419E+00-1.00990E-01-8.46491E+00-1.13243E-14-7.44974E-13
 -1      2192 3.59885E+01 2.83860E+00 1.84993E-01-1.92546E+00 3.01398E-13-1.33893E-13
 -1      2193 3.69743E+01 9.10185E+00-4.05621E-02 1.08655E-01 5.05262E-13-9.44522E-14
 -1      2194 4.08734E+01 9.02665E+00 2.03668E-01-5.14902E-02 5.42122E-13-2.41668E-13
 -1      2195 3.65541E+01 9.32651E+00-5.84712E-02 1.12303E-01 5.38902E-13-1.96509E-13
 -1      2196 3.82333E+01-3.72771E+00 6.08549E-02-5.32097E-01-2.65121E-13-2.00395E-13
 -1      2197 3.80415E+01-3.97942E+00-2.37313E-01 1.80759E+00 3.28626E-14-1.67311E-13
 -1      2198 3.90145E+01 7.35132E+00 2.82438E-01-4.61929E-01 4.50417E-13-1.73861E-13
 -1      2199 1.99997E+01-1.97471E-04-8.55312E-07 3.49632E-04-5.20785E-15-4.98797E-14
 -1      2200 7.91760E+00-5.95073E+00-2.77537E-01 4.93282E+00-1.94900E-13-3.52052E-13
 -1      2201 1.94827E+01 3.58761E+00-1.06512E-02-6.10304E-01 7.16700E-14-3.13988E-13
 -1      2202 1.95187E+01 3.54625E+00-1.09235E-02-7.81341E-01 3.63345E-14-3.41570E-13
 -1      2203 1.95710E+01 3.46464E+00-1.28242E-02-9.27168E-01 7.79764E-15-3.49743E-13
 -1      2204 1.96424E+01 3.38403E+00-1.29960E-02-1.10195E+00-2.68170E-14-3.54751E-13
 -1      2205 1.97013E+01 3.13317E+00 1.30731E-03-7.92259E-01 2.25199E-14-3.16541E-13
 -1      2206 1.94684E+01 3.62173E+00-8.71463E-03 4.42486E-02 1.71023E-13-2.80689E-13
 -1      2207 1.94556E+01 3.63119E+00-1.01434E-02-1.31046E-01 1.44980E-13-2.91900E-13
 -1      2208 1.95189E+01 3.55760E+00-8.93277E-03 3.90054E-01 2.03108E-13-2.64692E-13
 -1      2209 1.94891E+01 3.58783E+00-1.04766E-02 2.08502E-01 1.86966E-13-2.74709E-13
 -1      2210 1.96386E+01 3.23579E+00-1.23701E-03 1.02620E-01 1.62079E-13-2.60291E-13
 -1      2211 1.96009E+01 3.44322E+00-1.00851E-02 7.42627E-01 2.31296E-13-2.17769E-13
 -1      2212 1.95551E+01 3.49545E+00-1.13070E-02 5.57121E-01 2.07721E-13-2.51772E-13
 -1      2213 1.97025E+01 3.14395E+00-1.17143E-03 4.26198E-01 1.94198E-13-2.39731E-13
 -1      2214 1.97249E+01 3.26029E+00-1.27235E-02 1.10916E+00 2.67413E-13-1.25195E-13
 -1      2215 1.96565E+01 3.34602E+00-1.27595E-02 9.14257E-01 2.45462E-13-1.78475E-13
 -1      2216 1.98003E+01 2.99189E+00-5.16521E-04 7.55930E-01 2.23761E-13-1.80609E-13
 -1      2217 1.99101E+01 2.97421E+00-1.82173E-02 1.46914E+00 2.89241E-13-1.81738E-14
 -1      2218 1.98083E+01 3.11494E+00-1.49773E-02 1.27373E+00 2.70421E-13-8.28877E-14
 -1      2219 1.99417E+01 2.75975E+00 1.30597E-03 1.07930E+00 2.55008E-13-9.25223E-14
 -1      2220 2.01879E+01 2.51461E+00-2.89522E-02 1.77459E+00 2.99741E-13 1.02125E-13
 -1      2221 2.00346E+01 2.75872E+00-1.77931E-02 1.60692E+00 2.87466E-13 3.81813E-14
 -1      2222 2.01403E+01 2.41200E+00 5.28187E-03 1.36239E+00 2.65538E-13 1.52534E-14
 -1      2223 2.06071E+01 1.78170E+00-2.68028E-02 1.88308E+00 2.46449E-13 2.97170E-13
 -1      2224 2.03850E+01 2.20870E+00-1.06214E-02 1.84419E+00 2.69586E-13 1.74586E-13
 -1      2225 2.04117E+01 1.88619E+00 1.40542E-02 1.52579E+00 2.54442E-13 1.34811E-13
 -1      2226 2.08172E+01 1.05850E+00-1.80023E-02 1.58465E+00 2.15064E-13 4.76395E-13
 -1      2227 2.07021E+01 1.52567E+00 9.64447E-04 1.78493E+00 2.32609E-13 3.70010E-13
 -1      2228 2.05265E+01 1.26304E+00 7.96813E-06 1.41774E+00 2.24340E-13 2.81104E-13
 -1      2229 2.04739E+01 7.32354E-01-2.40719E-03 1.11001E+00 1.92497E-13 4.37424E-13
 -1      2230 3.33473E+01 5.22161E-01-1.55691E-01 1.54581E+00 6.56628E-14-2.02394E-13
 -1      2231 3.07147E+01-1.86509E+00 6.97469E-03 3.14084E+00-1.06953E-13-2.23738E-13
 -1      2232 2.09481E+01-4.78604E+00-1.43259E-02 8.13532E+00-3.15609E-13-1.70024E-13
 -1      2233 1.67953E+01-4.67450E+00 1.14692E-01 8.47646E+00-2.93626E-13-9.73388E-14
 -1      2234 2.04752E+01 9.10697E-01 1.29189E-02-8.89836E-01-1.44855E-13-1.98806E-13
 -1      2235 2.02859E+01 7.02767E-01-1.85750E-03-5.55819E-01-1.30663E-13-1.95640E-13
 -1      2236 2.44393E+01-3.65386E+00 5.18016E-02 5.15959E+00 1.27176E-13 1.55972E-13
 -1      2237 2.02187E+01 5.66524E-01 1.50892E-02-3.07521E-01-1.22507E-13-1.72017E-13
 -1      2238 2.01109E+01 4.71696E-01 3.77487E-03-9.43578E-02-8.85143E-14-1.83762E-13
 -1      2239 2.02942E+01 8.61542E-01-1.83917E-03-5.29948E-01-1.23269E-13-2.19687E-13
 -1      2240 2.00376E+01 4.20007E-01 8.86554E-03 9.35731E-02-7.79253E-14-1.80417E-13
 -1      2241 2.00062E+01 3.95015E-01 6.38704E-03 2.57318E-01-7.83859E-14-2.02076E-13
 -1      2242 2.01282E+01 6.08450E-01-2.41796E-03-6.27251E-02-8.94343E-14-1.85495E-13
 -1      2243 1.99313E+01 3.98811E-01 2.82535E-03 4.24267E-01-9.84245E-14-1.99889E-13
 -1      2244 1.99612E+01 4.32887E-01 9.20848E-03 5.90519E-01-7.66383E-14-1.84369E-13
 -1      2245 1.99820E+01 5.38019E-01-6.60040E-04 3.13524E-01-8.89228E-14-1.64583E-13
 -1      2246 1.98716E+01 4.87093E-01-2.53812E-03 7.52971E-01-6.14608E-14-1.71762E-13
 -1      2247 1.99451E+01 5.76077E-01 1.21696E-02 9.42341E-01-5.00511E-14-1.84661E-13
 -1      2248 1.98381E+01 6.13654E-01 3.22902E-03 6.56133E-01-7.55848E-14-1.40694E-13
 -1      2249 1.98024E+01 6.83469E-01-8.60017E-03 1.13749E+00-2.87209E-14-1.74592E-13
 -1      2250 1.99019E+01 8.36496E-01 1.55099E-02 1.39181E+00-5.08708E-15-1.75006E-13
 -1      2251 1.96465E+01 8.28408E-01 9.60689E-03 1.01622E+00-5.21592E-14-1.34755E-13
 -1      2252 1.96479E+01 1.00444E+00-1.63481E-02 1.64608E+00 3.21011E-15-1.65729E-13
 -1      2253 1.97465E+01 1.22430E+00 1.84525E-02 1.99702E+00 5.94108E-14-1.59598E-13
 -1      2254 1.93168E+01 1.19488E+00 1.98986E-02 1.45207E+00-3.50024E-15-1.64140E-13
 -1      2255 1.92961E+01 1.44461E+00-2.54050E-02 2.33479E+00 8.58723E-14-1.76544E-13
 -1      2256 1.93535E+01 1.70067E+00 2.20087E-02 2.80039E+00 1.28505E-13-1.36582E-13
 -1      2257 1.87135E+01 1.71148E+00 3.67679E-02 2.00241E+00 6.73723E-14-1.37465E-13
 -1      2258 1.85992E+01 1.90803E+00-2.91504E-02 3.24339E+00 1.83995E-13-1.37608E-13
 -1      2259 1.85915E+01 2.06481E+00 3.91152E-02 3.80030E+00 2.41226E-13-1.15748E-13
 -1      2260 1.76421E+01 2.29251E+00 6.49227E-02 2.69185E+00 1.48375E-13-1.61461E-13
 -1      2261 1.74498E+01 2.05277E+00 7.03687E-03 4.38177E+00 2.92214E-13-7.22339E-14
 -1      2262 1.74141E+01 1.69451E+00 9.74218E-02 4.93546E+00 3.06626E-13-1.58970E-14
 -1      2263 1.58323E+01 2.58464E+00 9.55316E-02 3.52064E+00 2.67078E-13-1.74850E-13
 -1      2264 1.72171E+01 8.37668E-01 1.06623E-01 5.71950E+00 2.56038E-13 7.27751E-14
 -1      2265 1.74915E+01-5.92117E-01 1.34057E-01 6.00032E+00 2.35173E-13 1.20681E-13
 -1      2266 2.05970E+01 1.98721E+00-1.32661E-02-1.82543E+00-1.88089E-13-2.49890E-13
 -1      2267 2.04785E+01 1.26233E+00-4.66008E-03-1.19431E+00-1.68917E-13-2.19425E-13
 -1      2268 2.04151E+01 1.44532E+00 3.02626E-03-1.12093E+00-1.45277E-13-2.37702E-13
 -1      2269 2.03191E+01 2.40589E+00-8.91237E-03-1.74753E+00-1.59054E-13-2.85575E-13
 -1      2270 1.99997E+01-8.64325E-05 1.75939E-06-2.66602E-04-8.09086E-14 1.67141E-13
 -1      2271 1.87541E+01 1.36581E+00 8.97836E-02-5.16367E+00-3.56278E-14-3.52385E-13
 -1      2272 1.85898E+01 1.86632E+00 2.78051E-02-4.60466E+00-4.93008E-14-3.24213E-13
 -1      2273 1.95484E+01 1.92008E+00 4.53413E-02-3.95824E+00-1.90689E-13-2.87289E-13
 -1      2274 1.94169E+01 1.82220E+00-1.90315E-02-3.35683E+00-3.20049E-13-4.37249E-13
 -1      2275 1.67225E+01 2.38662E+00 8.97896E-02-3.91504E+00-1.01173E-13-1.13305E-13
 -1      2276 2.00774E+01 1.62989E+00 2.93562E-02-2.83620E+00-3.23366E-13-3.26322E-13
 -1      2277 1.99265E+01 1.39278E+00-2.05523E-02-2.33010E+00-4.20247E-13-3.34056E-13
 -1      2278 1.82641E+01 2.20468E+00 5.60738E-02-2.87903E+00-2.75234E-13-1.39364E-13
 -1      2279 2.03148E+01 1.17522E+00 2.31782E-02-1.93931E+00-4.28272E-13-2.04871E-13
 -1      2280 2.01579E+01 9.57703E-01-1.48064E-02-1.56360E+00-3.37374E-13-2.31487E-13
 -1      2281 1.91928E+01 1.65718E+00 3.27180E-02-2.04143E+00-3.38674E-13 9.69888E-14
 -1      2282 2.03694E+01 7.76929E-01 1.81404E-02-1.27004E+00-1.96319E-13-3.85963E-13
 -1      2283 2.02278E+01 6.11239E-01-8.89062E-03-1.00211E+00-3.16878E-14-3.87115E-13
 -1      2284 1.97000E+01 1.12709E+00 1.87875E-02-1.38840E+00-3.57731E-13 7.48269E-14
 -1      2285 2.03275E+01 4.94596E-01 1.36602E-02-8.13447E-01 2.77061E-14-4.20423E-13
 -1      2286 2.02198E+01 3.87118E-01-4.84714E-03-6.45297E-01 1.50190E-13-5.22784E-13
 -1      2287 1.99414E+01 7.27725E-01 9.64724E-03-9.19080E-01-3.41979E-14-2.04732E-13
 -1      2288 2.02619E+01 3.10784E-01 9.53927E-03-5.18737E-01 7.37717E-14-6.26436E-13
 -1      2289 2.01825E+01 2.41022E-01-2.73071E-03-4.10636E-01 4.59559E-14-6.85439E-13
 -1      2290 2.00400E+01 4.62398E-01 4.91810E-03-6.03484E-01 3.18261E-14-1.65171E-13
 -1      2291 2.01969E+01 1.92680E-01 6.39824E-03-3.27733E-01 1.53407E-13-7.16956E-13
 -1      2292 2.01407E+01 1.48556E-01-1.51426E-03-2.59293E-01 9.42833E-14-7.70395E-13
 -1      2293 2.00717E+01 2.89132E-01 2.35990E-03-3.90992E-01 7.49834E-14-1.99195E-13
 -1      2294 2.01425E+01 1.18488E-01 4.18564E-03-2.05802E-01 2.31069E-13-8.44434E-13
 -1      2295 2.01038E+01 9.09899E-02-8.22223E-04-1.62929E-01 2.85158E-13-7.01322E-13
 -1      2296 2.00733E+01 1.78943E-01 1.02888E-03-2.51029E-01 1.52483E-13-2.63387E-13
 -1      2297 2.01006E+01 7.24872E-02 2.69080E-03-1.28774E-01 3.13918E-13-7.39416E-13
 -1      2298 2.00744E+01 5.55164E-02-4.34315E-04-1.02096E-01 3.05807E-13-6.82054E-13
 -1      2299 2.00633E+01 1.10020E-01 3.71849E-04-1.60228E-01 2.72319E-13-3.79552E-13
 -1      2300 2.00697E+01 4.42106E-02 1.71019E-03-8.04366E-02 1.63184E-13-6.67531E-13
 -1      2301 2.00522E+01 3.38057E-02-2.19758E-04-6.39018E-02-1.62933E-14-4.11512E-13
 -1      2302 2.00503E+01 6.73700E-02 6.95478E-05-1.01926E-01 2.28284E-13-4.47701E-13
 -1      2303 2.00476E+01 2.69364E-02 1.07966E-03-5.02190E-02 4.93946E-14-3.88502E-13
 -1      2304 2.00360E+01 2.05447E-02-1.26499E-04-3.99749E-02 1.53264E-13-1.86771E-13
 -1      2305 2.00381E+01 4.11733E-02-5.27548E-05-6.47381E-02 5.10549E-14-4.03344E-13
 -1      2306 2.00318E+01 1.61813E-02 6.69909E-04-3.09610E-02-1.47204E-13-2.72202E-13
 -1      2307 2.00239E+01 1.22119E-02-5.95313E-05-2.44177E-02-1.66613E-13-3.43913E-13
 -1      2308 2.00277E+01 2.49678E-02-5.67467E-05-4.07012E-02 5.24829E-15-3.65945E-13
 -1      2309 2.00208E+01 9.80765E-03 4.20208E-04-1.91131E-02 6.24171E-14-2.29031E-13
 -1      2310 2.00159E+01 7.49884E-03-1.32059E-05-1.52656E-02 8.12590E-14-1.97367E-13
 -1      2311 2.00195E+01 1.50183E-02-9.85701E-05-2.54882E-02-5.81074E-14-1.76039E-13
 -1      2312 2.00135E+01 6.01542E-03 2.59876E-04-1.18854E-02 1.05279E-13-1.77824E-13
 -1      2313 2.00103E+01 4.62096E-03 2.14931E-06-9.48776E-03 3.36981E-13 1.20912E-14
 -1      2314 2.00135E+01 9.23573E-03-8.50303E-05-1.61398E-02 1.02301E-13 1.25253E-13
 -1      2315 2.00086E+01 3.71882E-03 1.63003E-04-7.33155E-03 3.38264E-13-1.13819E-14
 -1      2316 2.00065E+01 2.86654E-03 7.70321E-06-5.82539E-03 2.46337E-14-6.55494E-14
 -1      2317 2.00091E+01 5.71004E-03-6.83993E-05-1.01611E-02 3.56510E-13 1.31118E-13
 -1      2318 2.00052E+01 2.31576E-03 1.02676E-04-4.44132E-03-1.86645E-13-3.49422E-14
 -1      2319 2.00039E+01 1.79102E-03 9.13789E-06-3.48868E-03-4.37594E-14-8.19241E-14
 -1      2320 2.00060E+01 3.55457E-03-5.28266E-05-6.31690E-03 1.18615E-14 9.86271E-14
 -1      2321 2.00030E+01 1.45169E-03 6.49117E-05-2.59469E-03-4.06013E-14-1.46231E-13
 -1      2322 2.00022E+01 1.12499E-03 8.53089E-06-1.98848E-03-9.25134E-14-1.63795E-13
 -1      2323 2.00038E+01 2.22772E-03-3.97241E-05-3.82979E-03-9.83942E-14 1.02363E-13
 -1      2324 2.00016E+01 9.14542E-04 4.14467E-05-1.40882E-03-3.02731E-13-3.30587E-13
 -1      2325 2.00010E+01 7.05740E-04 6.43397E-06-1.02111E-03-3.47483E-13-2.54873E-13
 -1      2326 2.00023E+01 1.40211E-03-2.94218E-05-2.21230E-03-2.89467E-13-6.37629E-14
 -1      2327 2.00006E+01 5.66131E-04 2.61068E-05-6.29451E-04-9.28067E-14-2.58723E-13
 -1      2328 2.00003E+01 4.28863E-04 5.08606E-06-3.74458E-04-6.51390E-14-1.86079E-13
 -1      2329 2.00012E+01 8.78403E-04-1.95794E-05-1.14047E-03-2.51107E-13-1.15711E-13
 -1      2330 2.00000E+01 3.47252E-04 1.62986E-05-1.39153E-04 5.49589E-14-6.50671E-14
 -1      2331 1.99999E+01 2.60907E-04 4.31693E-06 1.12539E-05 2.52029E-13 4.82189E-14
 -1      2332 2.00005E+01 5.36136E-04-1.50565E-05-4.45938E-04 4.10817E-14 2.04084E-13
 -1      2333 1.99997E+01 2.04569E-04 9.77360E-06 1.59397E-04 2.17100E-13-7.22652E-14
 -1      2334 1.99997E+01 1.46477E-04 3.08434E-06 2.48816E-04 3.44094E-13-7.51868E-14
 -1      2335 2.00001E+01 3.22964E-04-1.04677E-05-1.70053E-05 1.49368E-13 1.92203E-13
 -1      2336 1.99996E+01 1.06573E-04 5.77266E-06 3.35869E-04 3.29296E-13-2.20239E-13
 -1      2337 1.99996E+01 6.38015E-05 1.79136E-06 3.82441E-04 4.77467E-13-1.95001E-13
 -1      2338 1.99999E+01 1.76940E-04-7.15511E-06 2.47320E-04 2.08435E-13-8.54138E-15
 -1      2339 1.99996E+01 3.23673E-05 3.16181E-06 4.24955E-04 4.89232E-13-2.81028E-13
 -1      2340 1.99996E+01-3.30075E-06 4.93015E-07 4.38658E-04 3.20143E-13-4.05432E-13
 -1      2341 1.99998E+01 6.96861E-05-4.70451E-06 3.95076E-04 4.82113E-13-1.60008E-13
 -1      2342 1.99996E+01-3.41229E-05 9.13885E-07 4.45772E-04 1.92936E-13-4.40000E-13
 -1      2343 1.99996E+01-6.67601E-05-6.42721E-07 4.30131E-04 7.01612E-14-5.52420E-13
 -1      2344 1.99997E+01-1.86954E-05-2.36075E-06 4.55632E-04 2.97750E-13-3.97465E-13
 -1      2345 1.99997E+01-1.06236E-04-1.28107E-06 4.20459E-04 1.38213E-13-3.27800E-13
 -1      2346 1.99997E+01-1.43177E-04-1.99405E-06 3.78060E-04 1.34689E-13-3.09202E-13
 -1      2347 1.99998E+01-2.17712E-04 1.64951E-06 4.01839E-04 1.57971E-13 2.34859E-13
 -1      2348 1.99997E+01-1.07600E-04 4.74806E-07 4.50032E-04 1.50498E-13-1.69552E-13
 -1      2349 1.96435E+01-5.39509E-02-2.62175E-03 9.26033E-02 7.75463E-14 2.22309E-13
 -1      2350 1.96969E+01-4.81250E-03 5.40999E-03 8.81885E-02 1.04556E-13 2.33139E-13
 -1      2351 1.97348E+01 4.57982E-02-1.42298E-03 1.11613E-01 1.25662E-13 2.23898E-13
 -1      2352 1.98118E+01 1.12165E-01 9.21423E-03 1.53401E-01 1.19440E-13 2.40882E-13
 -1      2353 1.99024E+01 3.49112E-02-3.11179E-03 1.43885E-01 1.29687E-13 1.26668E-13
 -1      2354 1.98695E+01 1.86065E-01-6.53739E-05 2.34950E-01 1.14682E-13 2.49077E-13
 -1      2355 1.99855E+01 2.81981E-01 1.09880E-02 3.45211E-01 1.24955E-13 2.77466E-13
 -1      2356 2.00082E+01 2.10976E-01-4.13758E-03 2.61775E-01 1.31396E-13 1.47863E-13
 -1      2357 1.95699E+01-1.31033E-01-3.72242E-03 1.52725E-01 4.99454E-14 1.64341E-13
 -1      2358 1.96193E+01-9.26609E-02 3.04397E-03 1.13764E-01 6.63762E-14 1.92921E-13
 -1      2359 1.98334E+01-9.35919E-02-2.00691E-03 1.35327E-01 9.09114E-14 1.17926E-13
 -1      2360 1.94902E+01-1.89136E-01-4.50112E-03 2.74253E-01 4.29898E-14 1.31918E-13
 -1      2361 1.95502E+01-1.60787E-01 1.45027E-03 2.09231E-01 4.84382E-14 1.52744E-13
 -1      2362 1.97840E+01-1.92176E-01-8.06895E-04 2.12685E-01 7.46069E-14 1.03401E-13
 -1      2363 1.93837E+01-2.23267E-01-4.63237E-03 4.39219E-01 1.92524E-14 1.51516E-13
 -1      2364 1.94646E+01-2.08389E-01 1.84489E-04 3.57383E-01 1.57384E-14 1.38364E-13
 -1      2365 1.97344E+01-2.63135E-01 3.89067E-04 3.56998E-01 4.16020E-14 8.64618E-14
 -1      2366 1.92342E+01-2.22641E-01-3.76608E-03 6.23493E-01 5.57613E-14 1.97147E-13
 -1      2367 1.93419E+01-2.27358E-01-9.96049E-04 5.37483E-01 4.91536E-14 2.03678E-13
 -1      2368 1.96646E+01-2.98046E-01 1.52592E-03 5.47118E-01 1.25210E-14 8.97417E-14
 -1      2369 1.90329E+01-1.74913E-01-1.68250E-03 7.93078E-01-5.62679E-15 1.99950E-13
 -1      2370 1.91670E+01-2.05505E-01-2.12927E-03 7.20128E-01 4.33677E-14 1.99745E-13
 -1      2371 1.95560E+01-2.82006E-01 2.43863E-03 7.53517E-01 4.12918E-14 2.03226E-13
 -1      2372 1.87822E+01-7.30503E-02 1.48721E-03 9.04642E-01-3.15798E-14 2.13087E-13
 -1      2373 1.89351E+01-1.32032E-01-3.01086E-03 8.65410E-01-6.49128E-15 2.08778E-13
 -1      2374 1.93953E+01-2.00235E-01 2.78227E-03 9.34579E-01-1.51376E-14 1.91350E-13
 -1      2375 1.85007E+01 7.63813E-02 5.09278E-03 9.12620E-01-1.11824E-13 1.94721E-13
 -1      2376 1.86572E+01-5.43210E-03-3.20262E-03 9.26885E-01-8.01291E-14 2.20996E-13
 -1      2377 1.91806E+01-4.78544E-02 2.11038E-03 1.03838E+00-7.55969E-14 2.31992E-13
 -1      2378 1.82256E+01 2.47617E-01 8.02476E-03 7.83290E-01 2.86490E-14 1.47662E-13
 -1      2379 1.83639E+01 1.58825E-01-2.20494E-03 8.62946E-01-5.47062E-14 1.34825E-13
 -1      2380 1.89295E+01 1.59790E-01 1.37444E-04 1.01283E+00-3.73400E-14 1.43278E-13
 -1      2381 1.80071E+01 3.98422E-01 9.16981E-03 5.11752E-01 1.16781E-13 1.02597E-13
 -1      2382 1.81038E+01 3.25996E-01 2.15258E-04 6.53677E-01 9.86568E-14 1.20042E-13
 -1      2383 1.86819E+01 3.82464E-01-2.83174E-03 8.24061E-01 7.09050E-14 4.19373E-14
 -1      2384 1.78957E+01 4.83953E-01 8.03318E-03 1.32768E-01 1.40417E-14 5.71034E-14
 -1      2385 1.79317E+01 4.50221E-01 3.63091E-03 3.15894E-01 6.02218E-14 1.21175E-13
 -1      2386 1.84933E+01 5.62670E-01-5.72167E-03 4.76543E-01 8.15415E-14 4.58197E-14
 -1      2387 1.79231E+01 4.76628E-01 5.12620E-03-2.84097E-01 7.92161E-14 1.17777E-14
 -1      2388 1.78894E+01 4.92549E-01 6.92131E-03-9.41236E-02 6.32602E-14 1.99706E-14
 -1      2389 1.84155E+01 6.46288E-01-7.16642E-03 2.27333E-02 3.16316E-14 1.58399E-14
 -1      2390 1.80885E+01 3.79969E-01 1.69756E-03-6.56518E-01 1.84869E-14 4.51932E-14
 -1      2391 1.79895E+01 4.39526E-01 8.75795E-03-4.96048E-01 4.78315E-14 6.30183E-14
 -1      2392 1.84741E+01 6.06995E-01-6.37678E-03-4.48553E-01 6.55130E-14 3.69811E-14
 -1      2393 1.83585E+01 2.26673E-01-1.01975E-03-9.18383E-01-5.12616E-14 4.48525E-14
 -1      2394 1.82099E+01 3.10082E-01 8.34336E-03-8.13445E-01-6.71121E-15 2.38502E-14
 -1      2395 1.86553E+01 4.59164E-01-3.78088E-03-8.42966E-01 2.63056E-14 9.79685E-14
 -1      2396 1.86807E+01 6.21797E-02-2.40620E-03-1.03996E+00 1.48157E-14 5.68035E-15
 -1      2397 1.85049E+01 1.45592E-01 5.87987E-03-9.99369E-01-1.22108E-14 7.81818E-15
 -1      2398 1.89135E+01 2.50428E-01-6.95432E-04-1.09453E+00 6.84522E-15 3.12280E-14
 -1      2399 1.90035E+01-7.47636E-02-2.54466E-03-1.03018E+00 6.94025E-14 6.83871E-15
 -1      2400 1.88230E+01-9.62147E-03 2.36447E-03-1.04650E+00 3.30353E-14 2.17664E-15
 -1      2401 1.91922E+01 3.91731E-02 1.68047E-03-1.18366E+00-1.34194E-14-7.57262E-14
 -1      2402 1.92897E+01-1.63699E-01-1.93649E-03-9.24044E-01 1.73058E-14 1.10323E-13
 -1      2403 1.91223E+01-1.24882E-01-1.03880E-03-9.80039E-01 8.60798E-14 1.16570E-13
 -1      2404 1.94453E+01-1.28816E-01 2.82144E-03-1.13294E+00-9.76023E-15 4.11702E-14
 -1      2405 1.95211E+01-2.02936E-01-1.09788E-03-7.65082E-01-1.16147E-13 1.63339E-13
 -1      2406 1.93777E+01-1.89257E-01-3.52643E-03-8.41237E-01-5.34571E-14 1.21762E-13
 -1      2407 1.96478E+01-2.32120E-01 2.91582E-03-9.88495E-01-2.88235E-14 2.51454E-13
 -1      2408 1.96948E+01-2.02957E-01-3.77793E-04-5.91602E-01-9.31154E-14 1.80636E-13
 -1      2409 1.95798E+01-2.07901E-01-4.83792E-03-6.71529E-01-1.11307E-13 1.09014E-13
 -1      2410 1.97942E+01-2.72308E-01 2.41555E-03-7.99737E-01-5.56385E-14 1.90919E-13
 -1      2411 1.98176E+01-1.78567E-01 9.57277E-05-4.30141E-01 7.30991E-15 1.48624E-13
 -1      2412 1.97305E+01-1.94254E-01-5.11454E-03-5.02901E-01-3.46606E-14 1.45568E-13
 -1      2413 1.98913E+01-2.64707E-01 1.74100E-03-6.06274E-01-8.53709E-14 7.50534E-14
 -1      2414 1.98999E+01-1.43288E-01 3.29232E-04-2.94832E-01 1.34719E-13 1.46960E-13
 -1      2415 1.98373E+01-1.63032E-01-4.68529E-03-3.54892E-01 1.12804E-13 1.59564E-13
 -1      2416 1.99512E+01-2.28684E-01 1.14066E-03-4.33175E-01 4.59429E-14 1.38351E-13
 -1      2417 1.99523E+01-1.06770E-01 3.91725E-04-1.90094E-01 4.45421E-14 1.75736E-13
 -1      2418 1.99096E+01-1.26074E-01-3.89322E-03-2.36028E-01 8.34116E-14 1.22030E-13
 -1      2419 1.99855E+01-1.81087E-01 6.99558E-04-2.92136E-01 1.02393E-13 2.22301E-13
 -1      2420 1.99838E+01-7.45298E-02 3.58493E-04-1.14221E-01 6.26458E-14 1.01182E-13
 -1      2421 1.99561E+01-9.10048E-02-3.00113E-03-1.47130E-01 1.36802E-13 1.51212E-13
 -1      2422 2.00035E+01-1.33521E-01 4.11853E-04-1.85289E-01 1.14709E-13 7.28949E-14
 -1      2423 2.00014E+01-4.88344E-02 2.86032E-04-6.24936E-02 1.18503E-13 1.97723E-13
 -1      2424 1.99846E+01-6.16504E-02-2.17149E-03-8.46722E-02 8.92981E-15 1.02348E-13
 -1      2425 2.00120E+01-9.23501E-02 2.37830E-04-1.09231E-01 4.37164E-14 2.36792E-13
 -1      2426 2.00100E+01-2.98796E-02 2.08387E-04-2.93224E-02 1.37636E-13 3.27762E-13
 -1      2427 2.00006E+01-3.91498E-02-1.48224E-03-4.33530E-02 2.73620E-13 3.19103E-13
 -1      2428 2.00149E+01-5.99737E-02 1.36688E-04-5.81632E-02 8.21844E-14 2.53785E-13
 -1      2429 2.00133E+01-1.67868E-02 1.41823E-04-9.48033E-03-1.27484E-13 3.26454E-13
 -1      2430 2.00087E+01-2.30772E-02-9.53877E-04-1.77231E-02-2.86555E-14 3.28822E-13
 -1      2431 2.00149E+01-3.63323E-02 7.81612E-05-2.58955E-02 9.45579E-14 3.47607E-13
 -1      2432 2.00134E+01-8.28990E-03 9.14065E-05 1.34635E-03-6.28171E-14 2.68294E-13
 -1      2433 2.00118E+01-1.22992E-02-5.74322E-04-3.02775E-03-8.41468E-14 2.58332E-13
 -1      2434 2.00135E+01-2.01425E-02 4.32850E-05-6.91465E-03-1.02712E-13 3.36902E-13
 -1      2435 2.00120E+01-3.13193E-03 5.63532E-05 6.42862E-03 9.70305E-14 2.85549E-13
 -1      2436 2.00120E+01-5.51521E-03-3.17076E-04 4.48530E-03 1.11611E-14 3.29941E-13
 -1      2437 2.00115E+01-9.72240E-03 2.14774E-05 3.19976E-03-6.07001E-14 2.01998E-13
 -1      2438 2.00099E+01-2.49802E-04 3.35662E-05 8.08842E-03 6.56161E-14 2.27546E-13
 -1      2439 2.00108E+01-1.54365E-03-1.52534E-04 7.56674E-03 9.18159E-14 2.10000E-13
 -1      2440 2.00094E+01-3.45507E-03 7.30345E-06 7.73522E-03 8.26153E-14 4.21587E-13
 -1      2441 2.00077E+01 1.17153E-03 1.95819E-05 7.88102E-03-4.79666E-14 2.36337E-13
 -1      2442 2.00089E+01 5.64846E-04-5.38995E-05 8.11322E-03 1.04144E-13 1.10596E-13
 -1      2443 2.00073E+01 3.73744E-06-1.93861E-06 8.99270E-03 1.40225E-13 9.98127E-14
 -1      2444 2.00057E+01 1.71360E-03 1.14362E-05 6.79021E-03-1.17431E-13-3.52792E-14
 -1      2445 2.00069E+01 1.51216E-03 4.51705E-07 7.35998E-03-1.21055E-13 7.28043E-14
 -1      2446 2.00055E+01 1.67333E-03-7.67887E-06 8.49629E-03 5.59531E-14-5.75876E-14
 -1      2447 2.00040E+01 1.76706E-03 6.91301E-06 5.39963E-03-3.19519E-14-2.71565E-13
 -1      2448 2.00050E+01 1.78455E-03 2.66645E-05 6.06466E-03-5.30448E-14-1.76077E-13
 -1      2449 2.00040E+01 2.27505E-03-1.08196E-05 7.20039E-03-7.11759E-16-2.05161E-13
 -1      2450 2.00026E+01 1.57977E-03 4.49783E-06 4.02769E-03 2.70123E-13-4.42300E-13
 -1      2451 2.00035E+01 1.69992E-03 3.60775E-05 4.65954E-03 1.22153E-13-2.76183E-13
 -1      2452 2.00028E+01 2.29009E-03-1.20486E-05 5.66503E-03 1.37777E-13-2.40093E-13
 -1      2453 2.00016E+01 1.29952E-03 3.22524E-06 2.82637E-03-7.41925E-14-4.51607E-13
 -1      2454 2.00022E+01 1.45439E-03 3.62360E-05 3.36699E-03 1.08123E-13-4.26946E-13
 -1      2455 2.00018E+01 2.02170E-03-1.19394E-05 4.19113E-03 1.47160E-13-2.98892E-13
 -1      2456 2.00008E+01 1.00777E-03 2.51340E-06 1.84954E-03 6.06227E-15-3.47497E-13
 -1      2457 2.00013E+01 1.16097E-03 3.19008E-05 2.28155E-03-6.39286E-14-3.93024E-13
 -1      2458 2.00011E+01 1.64925E-03-1.09680E-05 2.91830E-03-8.94123E-14-1.38813E-13
 -1      2459 2.00003E+01 7.44182E-04 2.02461E-06 1.09779E-03-6.55280E-14-2.55745E-13
 -1      2460 2.00006E+01 8.78895E-04 2.59026E-05 1.42520E-03 8.16923E-14-3.09123E-13
 -1      2461 2.00006E+01 1.27050E-03-9.51300E-06 1.89185E-03 3.11649E-14-2.19676E-13
 -1      2462 2.00000E+01 5.23333E-04 1.56824E-06 5.46585E-04-1.70145E-13-2.72801E-13
 -1      2463 2.00002E+01 6.34327E-04 1.98012E-05 7.82867E-04-2.17298E-13-2.47115E-13
 -1      2464 2.00002E+01 9.31972E-04-7.85735E-06 1.10658E-03-1.34870E-13-1.64720E-13
 -1      2465 1.99998E+01 3.45647E-04 1.04387E-06 1.63081E-04 1.51462E-13-2.56909E-13
 -1      2466 1.99999E+01 4.34078E-04 1.43806E-05 3.24149E-04-2.04779E-15-4.07175E-13
 -1      2467 2.00000E+01 6.49636E-04-6.19492E-06 5.34049E-04-1.40386E-13-3.68747E-13
 -1      2468 1.99997E+01 2.04236E-04 3.32959E-07-8.45923E-05 9.61509E-14-7.77645E-14
 -1      2469 1.99997E+01 2.74473E-04 9.91998E-06 1.59057E-05 1.78583E-13-1.44812E-13
 -1      2470 1.99998E+01 4.22114E-04-4.78869E-06 1.39174E-04 4.48754E-14-3.58118E-13
 -1      2471 1.99997E+01 8.88996E-05-5.73105E-07-2.22530E-04 1.26389E-13 8.78732E-14
 -1      2472 1.99997E+01 1.46714E-04 6.55551E-06-1.70975E-04 1.29091E-13-1.43138E-14
 -1      2473 1.99998E+01 2.39429E-04-3.69848E-06-1.11999E-04 7.60828E-14-2.83055E-13
 -1      2474 1.99997E+01-9.56280E-06-1.66236E-06-2.70183E-04-9.19172E-14 5.02910E-14
 -1      2475 1.99997E+01 4.04728E-05 4.15885E-06-2.59110E-04-2.81389E-14 6.53494E-14
 -1      2476 1.99997E+01 8.90729E-05-2.64362E-06-2.46743E-04 7.18349E-14 4.54910E-14
 -1      2477 1.99999E+01-1.72884E-04-5.57982E-07-2.23120E-04-9.32949E-15 1.83904E-13
 -1      2478 1.99998E+01-1.45901E-04 7.44267E-07-2.39902E-04-2.56884E-13-6.20967E-14
 -1      2479 1.99998E+01-1.52427E-04-6.78157E-07-2.54098E-04-4.21202E-13-3.77610E-14
 -1      2480 1.99998E+01-1.25132E-04 3.52616E-07-2.66560E-04-4.67162E-13 1.09263E-14
 -1      2481 1.99999E+01-2.30505E-06 1.30177E-06-2.56337E-04-4.63378E-13 1.31365E-13
 -1      2482 1.99998E+01-1.32812E-04-9.62770E-07-2.75846E-04-3.71947E-13-5.41690E-14
 -1      2483 1.99998E+01-1.03869E-04-1.39509E-06-2.79557E-04-2.09933E-13-1.34808E-13
 -1      2484 1.99998E+01-1.81173E-05-6.94930E-07-2.81781E-04-3.81330E-13-6.77282E-14
 -1      2485 2.10066E+01-5.04745E+00 2.09086E-02-7.74892E+00-1.00864E-13-4.68806E-13
 -1      2486 2.48407E+01-4.47089E+00-7.57971E-02-7.00938E+00-4.90163E-14-2.83135E-13
 -1      2487 1.99999E+01-1.97588E-04 2.99611E-08-1.84738E-04 9.63686E-15-2.39979E-13
 -1      2488 1.99999E+01-1.72576E-04 5.92087E-07-2.05636E-04-3.33886E-14 4.88464E-14
 -1      2489 1.99999E+01 4.14683E-06 1.48429E-06-2.25775E-04 1.55054E-15 8.01098E-14
 -1      2490 1.99999E+01-2.28152E-04 8.37981E-07-1.35987E-04-3.69022E-13-6.60374E-13
 -1      2491 1.99999E+01-2.06700E-04 1.75272E-07-1.62815E-04-1.95978E-13-5.11287E-13
 -1      2492 1.99999E+01-4.18448E-06 1.58394E-06-1.88141E-04-1.94723E-13-5.65946E-13
 -1      2493 1.99999E+01-2.62282E-04 1.67839E-06-7.09932E-05-4.68971E-13 1.28251E-14
 -1      2494 1.99999E+01-2.46686E-04-1.69675E-07-1.06059E-04-4.55541E-13-1.75860E-13
 -1      2495 1.99999E+01-3.05878E-05 1.44409E-06-1.37582E-04-4.68173E-13-5.12883E-13
 -1      2496 1.99999E+01-2.93901E-04 2.30078E-06 1.41527E-05-3.80086E-13-1.91113E-13
 -1      2497 1.99999E+01-2.87202E-04-2.82843E-07-3.00534E-05-3.37178E-13-1.46202E-13
 -1      2498 2.00000E+01-7.21779E-05 1.00320E-06-6.67096E-05-2.41784E-13 4.74353E-14
 -1      2499 2.00000E+01-3.14192E-04 2.42649E-06 1.15607E-04-1.70377E-13-3.01354E-13
 -1      2500 1.99999E+01-3.19412E-04-1.06749E-07 6.54302E-05-2.33873E-13-1.35505E-13
 -1      2501 2.00000E+01-1.20516E-04 4.00524E-07 2.72920E-05-1.21806E-13-9.37288E-14
 -1      2502 1.99999E+01-3.15084E-04 1.98168E-06 2.26535E-04-2.39670E-13 2.51019E-13
 -1      2503 2.00000E+01-3.34267E-04 3.22625E-07 1.74775E-04-2.59838E-13-1.26522E-13
 -1      2504 2.00000E+01-1.64882E-04-4.12955E-07 1.41451E-04 1.09332E-13-2.50979E-13
 -1      2505 1.99999E+01-2.89367E-04 1.12691E-06 3.25681E-04-2.27972E-14-1.01385E-13
 -1      2506 1.99999E+01-3.22770E-04 8.87604E-07 2.84074E-04-2.33637E-13 1.24789E-13
 -1      2507 2.00000E+01-1.93574E-04-1.18638E-06 2.63498E-04-6.83383E-14 2.04885E-13
 -1      2508 1.99998E+01-2.39125E-04-3.93630E-07 3.82684E-04 6.76692E-14 2.05098E-13
 -1      2509 1.99999E+01-2.84403E-04 1.26895E-06 3.64868E-04 9.10598E-14 1.30720E-14
 -1      2510 1.99999E+01-1.97850E-04-1.23944E-06 3.63717E-04 1.87773E-13 1.57299E-13
 -1      2511 1.99998E+01-1.75495E-04-1.69198E-06 4.20515E-04 9.73967E-14 2.75230E-13
 -1      2512 1.23535E+01-3.77085E+00 7.21668E-02 6.08582E+00-1.31006E-14-1.32339E-13
 -1      2513 8.43467E+00-3.27853E+00 7.00266E-02 5.03020E+00 2.29261E-14-2.93543E-13
 -1      2514 2.31080E+00-1.92895E+00 1.03842E-01 1.19292E+00-2.74475E-13 2.39198E-13
 -1      2515 3.70133E+00-1.74020E+00 1.16380E-01-1.88139E+00-2.26874E-13 1.95732E-13
 -1      2516 2.76436E+01-3.98175E+00-1.28590E-01 5.47630E+00-2.13718E-13-1.99840E-13
 -1      2517 2.47089E+01-4.63359E+00 4.09465E-02 6.56392E+00-2.53936E-13-1.79926E-13
 -1      2518 5.92409E+00-3.17120E+00 1.33628E-01-6.35345E+00-1.49963E-13-8.66751E-13
 -1      2519 9.11808E+00-3.75058E+00 7.57244E-02-8.01539E+00-1.53821E-13-7.89341E-13
 -1      2520 1.89226E+01-1.36668E+00 1.25547E-01-6.03486E+00 6.07292E-14 2.08444E-14
 -1      2521 1.83146E+01 4.48196E-01 1.44498E-01-5.85145E+00-1.03084E-13-2.35090E-13
 -1      2522 1.18836E+01-3.90640E+00 2.28116E-02 8.72074E+00-2.67397E-13-7.24421E-14
 -1      2523 8.07511E+00-3.33785E+00 1.47721E-01 7.46108E+00-2.05558E-13-6.59195E-14
 -1      2524 3.50837E+01 5.87932E+00-1.31335E-01 5.84294E-01 3.20355E-13 1.72917E-14
 -1      2525 3.60054E+01 7.39214E+00-1.27619E-01 5.17023E-01 3.74589E-13-3.08364E-14
 -1      2526 1.94532E+01 3.63443E+00-9.29178E-03-2.88235E-01 1.27516E-13-2.99586E-13
 -1      2527 1.94615E+01 3.62136E+00-1.02323E-02-4.59589E-01 9.86355E-14-3.01357E-13
 -1      2528 1.96264E+01 3.24281E+00 9.75042E-05-5.08680E-01 7.97053E-14-2.86268E-13
 -1      2529 1.96101E+01 3.27148E+00-7.70668E-04-2.10642E-01 1.21800E-13-2.79427E-13
 -1      2530 1.99998E+01-6.99206E-05-7.84834E-07-2.85710E-04-1.18349E-13-8.44855E-14
 -1      2531 3.51516E+01 5.15458E+00-1.51112E-01-3.15281E-01 4.05342E-13-2.96124E-13
 -1      2532 3.41747E+01 3.44317E+00-9.25142E-02-8.86525E-02 2.46303E-13-2.65732E-13
 -1      2533 3.30634E+01 7.99418E-01-3.80092E-02-9.18063E-01 1.23040E-13 8.42659E-14
 -1      2534 3.46019E+01 3.17053E+00-1.62666E-01-3.05232E-02 2.44776E-13 6.30607E-14
 -1      2535 1.27897E+01-4.88377E+00 4.96699E-02-8.44580E+00-1.87794E-13-6.62359E-13
 -1      2536 1.69045E+01-4.89620E+00 4.54041E-03-8.75216E+00-1.05582E-13-6.26426E-13
 -1      2537 2.38735E+00-2.16219E+00 1.51566E-01-2.27013E+00-3.82333E-14-7.06268E-13
 -1      2538 3.17720E+00-2.61918E+00 9.19253E-02-4.49171E+00-3.77198E-14-8.70248E-13
 -1      2539 6.68415E+00-2.44794E+00 1.10410E-01-4.08827E+00-1.36807E-13 9.22595E-14
 -1      2540 1.03406E+01-3.06256E+00 8.95957E-02-5.55118E+00 2.77556E-15 2.36478E-13
 -1      2541 2.83628E+01-3.49063E+00 2.18377E-02-4.91597E+00-2.13718E-14-1.32311E-13
 -1      2542 3.11162E+01-2.10893E+00-1.80139E-01-3.28543E+00 3.98362E-14 1.62925E-14
 -1      2543 4.50750E+00-2.45851E+00 7.43153E-02 5.81096E+00-1.65756E-13 1.17684E-13
 -1      2544 2.76608E+00-2.39631E+00 1.22769E-01 3.56510E+00-3.10391E-13 1.58928E-13
 -1      2545 3.51779E+01 8.08947E+00-2.26730E-01-6.01598E-01 5.86586E-13-4.14085E-13
 -1      2546 3.52502E+01 6.85168E+00-1.58891E-01-5.87344E-01 5.57498E-13-3.52190E-13
 -1      2547 3.29642E+01 5.74260E+00-6.36701E-02-1.37939E+00 4.33487E-13-4.30489E-13
 -1      2548 1.97366E+01 3.24060E+00-1.52025E-02-1.24082E+00-4.37426E-14-3.61183E-13
 -1      2549 1.98518E+01 3.09947E+00-1.70351E-02-1.41874E+00-7.36123E-14-3.63948E-13
 -1      2550 1.98477E+01 2.91693E+00 2.31784E-03-1.05954E+00-3.55421E-14-3.30170E-13
 -1      2551 3.25341E+01 1.35844E+00-5.82994E-02-1.15711E-01 9.10660E-14-3.07365E-13
 -1      2552 2.03561E+01 5.75280E-01 8.97121E-03 8.76194E-01 1.73896E-13 3.97943E-13
 -1      2553 2.04166E+01 8.18498E-01 7.04858E-03 1.05204E+00 1.94889E-13 3.21820E-13
 -1      2554 2.01825E+01 4.69171E-01 7.07733E-03 6.74343E-01 1.74770E-13 3.73366E-13
 -1      2555 2.34893E+01-4.79856E+00 9.49942E-02 6.78691E+00-2.81941E-13-1.73750E-13
 -1      2556 1.57244E+01-3.76513E+00 1.35626E-01 8.36638E+00-3.19522E-13-1.41609E-13
 -1      2557 1.33755E+01-6.65785E-01 1.95226E-01 5.92131E+00 1.80300E-13-8.10185E-14
 -1      2558 1.69906E+01-1.73866E+00 1.70942E-01 6.39859E+00 1.87933E-13 9.21763E-14
 -1      2559 1.42221E+01 1.63089E+00 1.23771E-01 4.81452E+00 3.05159E-13-1.25039E-13
 -1      2560 2.94615E+01-3.14261E+00 2.98841E-02 3.30230E+00-2.16445E-13-2.26152E-13
 -1      2561 2.23588E+01-4.05025E+00 1.85135E-01-5.84184E+00 3.49276E-13 8.33084E-14
 -1      2562 1.50474E+01 1.18247E+00 1.14761E-01-5.23802E+00-1.59248E-13-1.78496E-13
 -1      2563 1.06774E+01-1.02321E+00 1.77983E-01 5.26695E+00 2.05669E-13-2.33008E-13
 -1      2564 6.91479E+00-2.42570E+00 1.09740E-01 4.24701E+00 7.67719E-14-3.77587E-13
 -1      2565 6.37049E+00-6.77066E-01 2.03706E-01 3.39189E+00 1.40221E-13-4.66238E-13
 -1      2566 1.13474E+01 3.72433E-01 1.63144E-01 5.08289E+00 2.24348E-13-2.19297E-13
 -1      2567 1.99998E+01 1.04078E-05 3.40811E-06-2.88181E-04-7.85151E-14-1.04197E-13
 -1      2568 2.70458E+01-4.46099E+00 5.24227E-02-5.29575E+00-1.57013E-13-8.45712E-14
 -1      2569 2.02166E+01-5.03677E+00 8.97976E-02-7.99494E+00-2.20546E-13-4.56873E-13
 -1      2570 1.71599E+01-3.50059E+00 1.19510E-01 6.12008E+00 9.06775E-14 1.57097E-14
 -1      2571 4.53867E+00-2.91759E-01 1.87704E-01 2.06699E+00-3.14297E-13 1.77192E-13
 -1      2572 6.94554E+00-5.46057E-01 1.86459E-01-3.05953E+00-2.98456E-13 1.10412E-13
 -1      2573 2.00180E+01 3.31685E-01 7.10279E-03 4.24531E-01 1.33427E-13 2.94500E-13
 -1      2574 2.01178E+01 4.07196E-01 1.14646E-02 5.56274E-01 1.58052E-13 3.30485E-13
 -1      2575 2.02072E+01 5.34819E-01-3.04657E-03 6.73868E-01 1.63631E-13 2.43365E-13
 -1      2576 2.01088E+01 3.84277E-01-5.55973E-03 4.52387E-01 1.31072E-13 2.01124E-13
 -1      2577 3.42862E+01 8.54995E+00-1.16393E-01-4.66123E-01 4.53138E-13-1.81050E-13
 -1      2578 3.17207E+01 7.72475E+00-1.07196E-01-1.06515E+00 4.57717E-13-1.91271E-13
 -1      2579 3.22588E+01 8.67333E+00-2.41045E-01-3.35681E-01 4.44200E-13-1.26447E-13
 -1      2580 7.93950E+00-1.74365E+00 1.69215E-01 6.60112E+00-2.64955E-13-2.83107E-14
 -1      2581 1.26561E+01-3.61535E+00 1.08312E-01-8.16737E+00-2.37782E-13-6.82787E-13
 -1      2582 3.18971E+00-1.43265E+00 1.39308E-01-7.09436E-01 4.12864E-15-6.43152E-13
 -1      2583 4.75918E+00 6.66963E-02 1.81607E-01-1.65130E+00 2.60729E-14-6.76459E-13
 -1      2584 4.53234E+00-2.23241E-01 1.90979E-01 1.04533E+00 9.05109E-14-5.95801E-13
 -1      2585 3.29405E+01 4.02012E+00-7.42177E-02 1.29948E+00 2.00145E-13 1.00281E-13
 -1      2586 3.39632E+01 8.12444E+00-1.15782E-01 9.80730E-01 4.05287E-13-2.10526E-14
 -1      2587 6.50716E+00-1.47729E+00 1.55766E-01-5.54328E+00-9.07330E-14-8.11906E-13
 -1      2588 2.56896E+01-5.92003E+00-5.13108E-02 4.29579E+00-1.62481E-13 1.31853E-13
 -1      2589 1.72660E+01-3.49454E+00 8.46759E-02-6.08022E+00 2.58321E-13 1.84935E-13
 -1      2590 3.15448E+01-1.18049E+00-2.00488E-02-1.17256E+00-9.45424E-16 1.63120E-13
 -1      2591 1.99777E+01 2.90346E+00-1.58438E-02-1.51764E+00-1.02347E-13-3.47418E-13
 -1      2592 2.01451E+01 2.66886E+00-2.17622E-02-1.67837E+00-1.42418E-13-3.29136E-13
 -1      2593 2.02972E+01 2.12109E+00 2.87724E-03-1.39712E+00-1.55661E-13-2.85059E-13
 -1      2594 2.00555E+01 2.58463E+00 3.63910E-03-1.27046E+00-8.82430E-14-3.24615E-13
 -1      2595 1.28477E+01-2.34827E+00 1.35900E-01-5.96893E+00 2.22600E-14 2.04475E-13
 -1      2596 3.13044E+01 2.07163E+00-2.14005E-01-1.25402E+00 1.85241E-13-3.49817E-13
 -1      2597 3.11137E+01-1.65102E-01-4.07758E-03-1.80775E-01-1.64868E-14-2.66454E-13
 -1      2598 1.98484E+01 2.73834E+00-5.38165E-03 4.44787E-01 1.88797E-13-2.16217E-13
 -1      2599 1.98082E+01 2.79859E+00-5.99880E-03 2.87553E-01 1.77851E-13-2.38544E-13
 -1      2600 1.97743E+01 2.85837E+00-4.45530E-03 1.45751E-01 1.58362E-13-2.49541E-13
 -1      2601 1.97465E+01 2.88909E+00-6.19018E-03-9.17479E-03 1.44323E-13-2.53018E-13
 -1      2602 1.99313E+01 2.48734E+00 2.73168E-03 1.68775E-01 1.54152E-13-2.28800E-13
 -1      2603 2.00757E+01 2.27217E+00-1.08572E-02 1.01978E+00 2.41202E-13-6.60726E-14
 -1      2604 2.00090E+01 2.42302E+00-5.86184E-03 8.74805E-01 2.32851E-13-1.16638E-13
 -1      2605 2.02360E+01 1.86892E+00-1.69260E-02 1.22704E+00 2.48428E-13 3.83138E-14
 -1      2606 2.01571E+01 2.09935E+00-4.04989E-03 1.11745E+00 2.47794E-13-1.49065E-14
 -1      2607 2.02287E+01 1.82686E+00 6.89487E-03 9.09716E-01 2.13490E-13-3.43410E-14
 -1      2608 2.04677E+01 9.90616E-01 2.15653E-03 1.15757E+00 2.00132E-13 2.41910E-13
 -1      2609 2.04244E+01 1.24884E+00-7.32859E-03 1.26904E+00 2.20070E-13 1.75462E-13
 -1      2610 2.03372E+01 8.17369E-01 5.60149E-03 9.09626E-01 1.94876E-13 2.17401E-13
 -1      2611 1.99998E+01 8.77362E-05-9.53524E-07-2.66334E-04-3.61983E-14-1.72077E-13
 -1      2612 1.99998E+01 9.80239E-05-1.88742E-06-2.56767E-04-3.86503E-14-2.70421E-14
 -1      2613 1.99998E+01 1.94578E-04 6.30031E-06-2.10481E-04-4.33186E-14-1.92136E-13
 -1      2614 1.27670E+01 2.53993E+00 5.42260E-02 3.29476E+00 2.83128E-13-2.78777E-13
 -1      2615 1.25105E+01 1.68566E+00 1.63632E-01 4.12702E+00 2.69000E-13-2.46830E-13
 -1      2616 1.00996E+01 1.48732E+00 1.84958E-01 3.63343E+00 2.34188E-13-3.90660E-13
 -1      2617 2.03251E+01 1.18334E+00 4.61622E-03-7.18755E-01-9.32388E-14-2.22125E-13
 -1      2618 2.02332E+01 9.73501E-01-4.41236E-03-4.44967E-01-8.52081E-14-2.07398E-13
 -1      2619 2.01885E+01 8.28281E-01 5.87643E-03-2.35032E-01-6.78870E-14-1.90294E-13
 -1      2620 2.01012E+01 7.29665E-01-1.83082E-03-2.62994E-02-6.37753E-14-1.74071E-13
 -1      2621 2.01948E+01 1.11002E+00 2.40301E-03-4.00148E-01-7.13180E-14-1.78541E-13
 -1      2622 2.00085E+01 6.78888E-01 2.09107E-03 1.45979E-01-7.69705E-14-1.46649E-13
 -1      2623 1.99278E+01 6.69236E-01-6.35633E-05 3.25839E-01-7.27239E-14-1.35074E-13
 -1      2624 2.00439E+01 8.68471E-01 2.46465E-03-1.00948E-02-5.85820E-14-1.40696E-13
 -1      2625 1.97896E+01 6.99558E-01-2.55873E-03 4.61643E-01-7.37114E-14-1.08902E-13
 -1      2626 1.97038E+01 7.67037E-01 2.54086E-04 6.25773E-01-5.16197E-14-1.14833E-13
 -1      2627 1.98177E+01 8.31568E-01 5.25423E-03 2.99431E-01-6.13464E-14-1.22503E-13
 -1      2628 1.94881E+01 8.69477E-01-8.09006E-03 7.49656E-01-5.41254E-14-1.13761E-13
 -1      2629 1.93563E+01 1.01460E+00-1.09534E-03 9.29632E-01-6.19981E-14-1.22770E-13
 -1      2630 1.94889E+01 9.70874E-01 1.08522E-02 5.48495E-01-4.53444E-14-1.33328E-13
 -1      2631 1.90096E+01 1.19408E+00-1.49112E-02 1.04961E+00-3.52843E-14-1.21099E-13
 -1      2632 1.87723E+01 1.41926E+00-4.75178E-03 1.26123E+00 1.09366E-14-1.13620E-13
 -1      2633 1.89736E+01 1.28008E+00 2.01157E-02 7.61098E-01-4.61898E-14-1.03303E-13
 -1      2634 1.82112E+01 1.67268E+00-2.30657E-02 1.37694E+00 2.78828E-14-1.28053E-13
 -1      2635 1.77798E+01 1.96191E+00-9.48870E-03 1.62491E+00 6.43947E-14-1.60715E-13
 -1      2636 1.81412E+01 1.75521E+00 3.52750E-02 9.31979E-01 1.04467E-14-1.06679E-13
 -1      2637 1.68816E+01 2.25215E+00-2.89287E-02 1.72816E+00 8.35521E-14-1.87193E-13
 -1      2638 1.61489E+01 2.53146E+00-3.65612E-03 2.00257E+00 1.24531E-13-2.19720E-13
 -1      2639 1.67956E+01 2.34906E+00 6.21998E-02 1.02919E+00 4.26157E-14-1.93445E-13
 -1      2640 1.47497E+01 2.73529E+00-1.03586E-02 2.11852E+00 1.98113E-13-2.78944E-13
 -1      2641 1.36290E+01 2.74634E+00 5.96096E-02 2.38720E+00 2.59464E-13-3.27863E-13
 -1      2642 1.46196E+01 2.89464E+00 1.05424E-01 1.00182E+00 1.19299E-13-2.69741E-13
 -1      2643 2.98111E+01-2.70107E+00-1.91727E-01 1.69633E+00-1.55024E-13-2.66592E-13
 -1      2644 2.78453E+01-3.91964E+00 6.87056E-02 3.51911E+00-1.62443E-13-1.75568E-13
 -1      2645 2.03248E+01 1.77404E+00-6.94078E-03-1.19490E+00-1.36747E-13-2.56836E-13
 -1      2646 2.03137E+01 1.40753E+00-1.72023E-03-8.99488E-01-1.19306E-13-2.51681E-13
 -1      2647 2.02501E+01 1.51533E+00 1.15975E-03-7.99267E-01-9.08686E-14-2.24401E-13
 -1      2648 2.02074E+01 2.04941E+00-1.52925E-03-1.17111E+00-1.14910E-13-2.69077E-13
 -1      2649 1.99999E+01 1.48668E-04-2.30852E-06-2.30023E-04-2.24339E-13 3.15954E-13
 -1      2650 1.99999E+01 1.47970E-04 3.96634E-07-2.40132E-04-2.59752E-13 9.41548E-14
 -1      2651 1.44466E+01 2.62928E+00 7.02843E-02-3.09135E+00 6.66214E-14-6.60513E-14
 -1      2652 1.53434E+01 2.69054E+00-6.91722E-03-2.69164E+00-5.85799E-14 7.20604E-15
 -1      2653 1.66599E+01 2.53737E+00 1.47526E-02-2.34934E+00-1.89350E-13 8.40474E-15
 -1      2654 1.72754E+01 2.26422E+00-2.55828E-02-1.98513E+00-2.66068E-13 7.88172E-14
 -1      2655 1.81636E+01 1.96962E+00 5.56905E-04-1.76939E+00-3.74096E-13 1.78486E-13
 -1      2656 1.85189E+01 1.66769E+00-2.17459E-02-1.45960E+00-3.58517E-13 1.99030E-13
 -1      2657 1.69633E+01 2.42388E+00 6.27659E-02-1.32258E+00-2.75599E-13 8.85598E-14
 -1      2658 1.90771E+01 1.38142E+00 1.07841E-03-1.27156E+00-4.86002E-13 1.71087E-13
 -1      2659 1.92621E+01 1.12371E+00-1.54460E-02-1.02228E+00-3.45238E-13 7.42801E-14
 -1      2660 1.83062E+01 1.75669E+00 3.63023E-02-1.04645E+00-3.79915E-13 1.83713E-13
 -1      2661 1.95732E+01 9.19477E-01 3.04562E-03-8.80796E-01-1.58991E-13 6.54409E-14
 -1      2662 1.96476E+01 7.41515E-01-9.99174E-03-7.07492E-01-1.49656E-14 2.04502E-15
 -1      2663 1.90896E+01 1.20025E+00 2.12399E-02-7.84230E-01-3.00275E-13 2.20338E-13
 -1      2664 1.98249E+01 6.00202E-01 3.66121E-03-6.00308E-01 3.77458E-14 9.26877E-14
 -1      2665 1.98499E+01 4.77782E-01-6.43304E-03-4.79148E-01-1.19587E-15 6.40907E-14
 -1      2666 1.95230E+01 7.96731E-01 1.21480E-02-5.67246E-01 7.82035E-15 1.30997E-13
 -1      2667 1.99486E+01 3.84066E-01 3.22931E-03-4.01594E-01-5.93887E-14 7.07981E-14
 -1      2668 1.99509E+01 3.03245E-01-4.03893E-03-3.19463E-01 2.72033E-14 1.86807E-14
 -1      2669 1.97634E+01 5.17103E-01 6.82605E-03-3.98117E-01 2.40816E-14 1.59625E-13
 -1      2670 2.00042E+01 2.42714E-01 2.53779E-03-2.65179E-01 1.07119E-13-8.04026E-14
 -1      2671 1.99977E+01 1.90551E-01-2.49520E-03-2.10680E-01 1.34876E-13-1.06328E-13
 -1      2672 1.98925E+01 3.30491E-01 3.73352E-03-2.73486E-01 8.30992E-15 2.74407E-13
 -1      2673 2.00254E+01 1.52124E-01 1.86896E-03-1.73586E-01 1.93913E-13-1.49150E-13
 -1      2674 2.00166E+01 1.18960E-01-1.51908E-03-1.37951E-01 2.25514E-13-1.54079E-13
 -1      2675 1.99591E+01 2.09036E-01 1.97801E-03-1.85109E-01 7.10348E-14 5.69289E-14
 -1      2676 2.00302E+01 9.48433E-02 1.32116E-03-1.13023E-01 2.30527E-13-2.75989E-13
 -1      2677 2.00218E+01 7.39819E-02-9.10015E-04-8.99495E-02 1.19564E-13-3.14816E-13
 -1      2678 1.99915E+01 1.31309E-01 1.00694E-03-1.24065E-01 1.49814E-13 5.00748E-14
 -1      2679 2.00279E+01 5.89513E-02 9.03957E-04-7.33728E-02 8.06751E-14-2.70762E-13
 -1      2680 2.00208E+01 4.58831E-02-5.64172E-04-5.85044E-02 7.29259E-14-2.48582E-13
 -1      2681 2.00057E+01 8.21688E-02 4.91080E-04-8.26408E-02 1.42714E-13-1.46084E-14
 -1      2682 2.00230E+01 3.61552E-02 6.03990E-04-4.70477E-02 5.78887E-14-7.56533E-14
 -1      2683 2.00173E+01 2.78252E-02-3.30174E-04-3.71957E-02 3.29437E-14-2.41023E-14
 -1      2684 2.00108E+01 5.08449E-02 2.44889E-04-5.43463E-02 2.06424E-13 9.16695E-14
 -1      2685 2.00177E+01 2.22760E-02 4.05989E-04-3.01622E-02-1.01447E-13 9.42228E-14
 -1      2686 2.00136E+01 1.73683E-02-1.78806E-04-2.41610E-02 1.82843E-14 2.00425E-13
 -1      2687 2.00112E+01 3.13219E-02 6.44755E-05-3.55658E-02 1.18603E-13 2.34192E-13
 -1      2688 2.00132E+01 1.39192E-02 2.68575E-04-1.95028E-02 8.47902E-14 2.44012E-13
 -1      2689 2.00102E+01 1.08798E-02-1.00992E-04-1.56382E-02 1.98874E-13 2.96353E-13
 -1      2690 2.00098E+01 1.96368E-02 6.32589E-08-2.34853E-02 4.63405E-14 3.56742E-13
 -1      2691 2.00095E+01 8.74943E-03 1.78079E-04-1.25562E-02 2.71404E-13 1.12235E-13
 -1      2692 2.00073E+01 6.86012E-03-5.61760E-05-1.00535E-02 3.46999E-13 1.65105E-14
 -1      2693 2.00079E+01 1.23741E-02-2.55028E-05-1.54389E-02 1.33260E-13 2.18889E-13
 -1      2694 2.00066E+01 5.53882E-03 1.18191E-04-8.00581E-03 2.54673E-13-2.25158E-14
 -1      2695 2.00051E+01 4.35722E-03-3.04749E-05-6.37571E-03-3.08026E-15 6.21656E-14
 -1      2696 2.00060E+01 7.84828E-03-3.27832E-05-1.00661E-02 2.50925E-13-6.85951E-14
 -1      2697 2.00044E+01 3.53135E-03 7.85729E-05-5.00908E-03-9.18043E-14 1.68344E-13
 -1      2698 2.00034E+01 2.78546E-03-1.60794E-05-3.94149E-03-1.31914E-13 1.59955E-13
 -1      2699 2.00044E+01 5.01240E-03-3.16787E-05-6.46510E-03 5.84183E-14 2.00192E-13
 -1      2700 2.00029E+01 2.26471E-03 5.25709E-05-3.02667E-03-2.95096E-13 8.94004E-14
 -1      2701 2.00022E+01 1.78500E-03-9.37053E-06-2.32371E-03-4.04227E-13-2.70269E-15
 -1      2702 2.00031E+01 3.21976E-03-2.72165E-05-4.04368E-03-2.34757E-13 1.11776E-13
 -1      2703 2.00017E+01 1.43568E-03 3.47354E-05-1.68392E-03-2.69852E-13 4.92335E-14
 -1      2704 2.00013E+01 1.11667E-03-4.76901E-06-1.20651E-03-9.96249E-14 1.95900E-13
 -1      2705 2.00020E+01 2.05993E-03-1.94807E-05-2.38463E-03-2.78417E-13 2.77109E-13
 -1      2706 2.00010E+01 9.07775E-04 2.30906E-05-8.08029E-04 3.58292E-14 3.02622E-13
 -1      2707 2.00007E+01 7.07023E-04-1.56111E-06-5.13600E-04 5.51721E-14 3.59538E-13
 -1      2708 2.00013E+01 1.30097E-03-1.69258E-05-1.27320E-03 4.92446E-14 3.87861E-13
 -1      2709 2.00005E+01 5.65522E-04 1.49905E-05-2.50889E-04-1.53817E-14 1.73520E-13
 -1      2710 2.00003E+01 4.30454E-04-4.72650E-07-6.35395E-05 5.25039E-14 1.58339E-13
 -1      2711 2.00008E+01 8.21258E-04-1.26349E-05-5.58188E-04-6.91762E-15 3.50531E-13
 -1      2712 2.00002E+01 3.32819E-04 9.81361E-06 1.03593E-04 2.34461E-13 7.58070E-15
 -1      2713 2.00000E+01 2.37161E-04-1.93644E-07 2.16556E-04 3.13204E-13-1.65604E-14
 -1      2714 2.00004E+01 4.95980E-04-9.19596E-06-9.18523E-05 3.51420E-14-9.46910E-14
 -1      2715 2.00000E+01 1.65397E-04 6.40065E-06 3.15033E-04 4.04507E-13 2.84264E-14
 -1      2716 1.99999E+01 9.22486E-05-3.17316E-07 3.73768E-04 5.98346E-13 5.23582E-17
 -1      2717 2.00001E+01 2.65450E-04-6.60477E-06 1.98552E-04 4.54128E-13 1.03840E-13
 -1      2718 1.99998E+01 3.22101E-05 3.66318E-06 4.20848E-04 3.61764E-13-2.50186E-13
 -1      2719 1.99998E+01-2.80282E-05 2.58431E-08 4.37163E-04 1.03698E-13-2.05239E-13
 -1      2720 2.00000E+01 9.01507E-05-4.36807E-06 3.61059E-04 3.07201E-13 8.27878E-14
 -1      2721 1.99998E+01-6.83693E-05-2.90569E-07 4.43022E-04 1.97255E-13-2.87567E-14
 -1      2722 1.99998E+01-1.19563E-04-1.08701E-07 4.26595E-04 2.66161E-13 2.70812E-13
 -1      2723 1.99999E+01-1.35145E-04 8.88208E-07 4.10200E-04 3.04294E-13 3.29403E-13
 -1      2724 1.99999E+01-3.09733E-05-1.34563E-06 4.14587E-04 2.92110E-13 1.08828E-13
 -1      2725 2.00446E+01 1.89331E-02-3.39253E-03 1.53351E-01 1.11006E-13 5.38796E-14
 -1      2726 2.01003E+01 1.21062E-01 7.43672E-03 1.88401E-01 1.36990E-13 6.23937E-14
 -1      2727 2.00065E+01-1.43978E-01-3.52234E-03 1.56826E-01 9.46175E-14 4.57507E-14
 -1      2728 2.00457E+01-6.41333E-02 5.70641E-03 1.41917E-01 9.78516E-14 5.51518E-14
 -1      2729 2.02028E+01-1.59875E-02-2.96146E-03 1.67598E-01 1.10669E-13-2.80391E-14
 -1      2730 2.01114E+01 2.31267E-01-3.54943E-03 2.54758E-01 1.35873E-13 6.31910E-14
 -1      2731 2.01921E+01 3.68016E-01 9.01934E-03 3.53740E-01 1.33757E-13 8.49831E-14
 -1      2732 2.02310E+01 2.32184E-01-2.88746E-03 2.56021E-01 1.27681E-13 3.95560E-15
 -1      2733 1.99723E+01-3.64691E-01-4.07763E-03 4.05879E-01 2.60952E-14 5.50790E-14
 -1      2734 2.00082E+01-3.21421E-01 3.28973E-03 3.20727E-01 6.71107E-14 7.80809E-14
 -1      2735 1.99431E+01-4.06435E-01-3.70018E-03 6.13898E-01 1.15760E-15 7.19381E-14
 -1      2736 1.99913E+01-3.91575E-01 1.90168E-03 5.10515E-01-1.71055E-14 6.51539E-14
 -1      2737 2.02592E+01-4.61691E-01-4.11460E-04 4.67610E-01 1.58017E-15 4.99843E-14
 -1      2738 1.98795E+01-3.74857E-01-2.28877E-03 8.38777E-01-7.66059E-15 1.55521E-13
 -1      2739 1.99467E+01-4.00784E-01 1.27255E-05 7.34888E-01 7.97973E-15 9.88019E-14
 -1      2740 2.02797E+01-4.94207E-01 1.18756E-03 6.97437E-01-8.28813E-15 2.48204E-14
 -1      2741 1.97637E+01-2.48114E-01 3.97729E-04 1.03336E+00-6.72100E-14 1.68206E-13
 -1      2742 1.98524E+01-3.25228E-01-2.36516E-03 9.53423E-01-1.32841E-14 1.44586E-13
 -1      2743 2.02612E+01-4.28739E-01 2.87084E-03 9.41757E-01-1.59141E-14 1.06653E-13
 -1      2744 1.95888E+01-2.02194E-02 4.06076E-03 1.13701E+00-5.66381E-14 1.67642E-13
 -1      2745 1.96946E+01-1.48651E-01-4.75995E-03 1.10972E+00-7.74407E-14 1.70155E-13
 -1      2746 2.01781E+01-2.42018E-01 3.94624E-03 1.14462E+00-7.21300E-14 1.04856E-13
 -1      2747 1.93690E+01 2.82987E-01 7.60761E-03 1.08835E+00 2.11312E-14 4.03926E-14
 -1      2748 1.94790E+01 1.21283E-01-6.21200E-03 1.13914E+00-2.34192E-14 1.18514E-13
 -1      2749 2.00194E+01 6.45718E-02 3.50596E-03 1.23440E+00 6.84069E-15 4.15270E-14
 -1      2750 1.91454E+01 5.96790E-01 9.42375E-03 8.48970E-01 7.80971E-14 2.00025E-14
 -1      2751 1.92393E+01 4.39735E-01-5.61449E-03 9.88655E-01 5.16646E-14-8.14886E-15
 -1      2752 1.98032E+01 4.46912E-01 1.01177E-03 1.14151E+00 6.71785E-14-2.96090E-14
 -1      2753 1.89784E+01 8.31648E-01 8.26633E-03 4.30190E-01 1.97800E-14 4.67778E-14
 -1      2754 1.90345E+01 7.26531E-01-2.45876E-03 6.44781E-01 5.12237E-14 2.28836E-14
 -1      2755 1.95837E+01 8.15483E-01-2.88071E-03 8.29839E-01 3.10653E-14 2.17244E-14
 -1      2756 1.89242E+01 9.09801E-01 4.31813E-03-9.60633E-02 6.72663E-14 4.72035E-14
 -1      2757 1.89273E+01 8.92401E-01 2.38199E-03 1.53887E-01 3.85582E-14 7.98352E-14
 -1      2758 1.94351E+01 1.06101E+00-6.09174E-03 3.28167E-01 1.59526E-14 4.54637E-14
 -1      2759 1.90064E+01 8.04728E-01-6.63082E-04-6.16619E-01 5.91877E-14 4.94261E-14
 -1      2760 1.89540E+01 8.80471E-01 6.86501E-03-3.83962E-01 6.05719E-14 2.91901E-14
 -1      2761 1.94161E+01 1.10152E+00-6.60318E-03-2.64229E-01 7.04791E-14 6.94221E-14
 -1      2762 1.92013E+01 5.56008E-01-4.46770E-03-1.02111E+00 1.38867E-14-9.23036E-16
 -1      2763 1.91051E+01 6.96905E-01 8.95993E-03-8.51194E-01 4.74096E-14 6.90827E-16
 -1      2764 1.95357E+01 9.24761E-01-4.02038E-03-8.10994E-01 7.41113E-14-2.06670E-14
 -1      2765 1.94510E+01 2.46922E-01-5.86324E-03-1.24453E+00 9.88657E-17-3.91624E-14
 -1      2766 1.93315E+01 4.07212E-01 7.96536E-03-1.15980E+00 2.95848E-14 1.67474E-14
 -1      2767 1.97468E+01 5.94329E-01-1.09599E-04-1.19627E+00-5.64639E-15-6.38622E-14
 -1      2768 1.96926E+01-3.71708E-02-4.98295E-03-1.28247E+00-5.32006E-14-5.53212E-14
 -1      2769 1.95714E+01 1.00790E-01 4.79913E-03-1.27947E+00-3.01078E-14-4.51383E-14
 -1      2770 1.99756E+01 2.15804E-01 3.00250E-03-1.36854E+00-2.69989E-14-1.08299E-14
 -1      2771 1.98830E+01-2.41165E-01-2.90560E-03-1.17685E+00-7.53060E-14 1.62652E-13
 -1      2772 1.97759E+01-1.48963E-01 1.06766E-03-1.23440E+00-8.00451E-14 5.89297E-14
 -1      2773 2.01589E+01-1.13258E-01 4.15082E-03-1.34531E+00-1.00942E-13 2.57063E-14
 -1      2774 2.00075E+01-3.49381E-01-7.07245E-04-9.88098E-01-1.44037E-13 2.70176E-13
 -1      2775 1.99223E+01-3.06381E-01-1.91623E-03-1.07927E+00-1.05658E-13 1.74361E-13
 -1      2776 2.02671E+01-3.36450E-01 3.60577E-03-1.18713E+00-1.34497E-13 1.40591E-13
 -1      2777 2.00727E+01-3.75304E-01 9.24175E-04-7.71448E-01 4.60167E-14 2.05619E-13
 -1      2778 2.00103E+01-3.71833E-01-3.64699E-03-8.72615E-01 1.28466E-14 2.88286E-13
 -1      2779 2.03024E+01-4.43920E-01 2.26378E-03-9.63329E-01-7.11327E-14 1.05831E-13
 -1      2780 2.00953E+01-3.45491E-01 1.82477E-03-5.65589E-01-1.96064E-14 2.67936E-14
 -1      2781 2.00526E+01-3.67041E-01-4.21649E-03-6.60481E-01 2.74025E-14 1.61981E-13
 -1      2782 2.02852E+01-4.57274E-01 9.05785E-04-7.29518E-01 1.21984E-13 1.31175E-13
 -1      2783 2.00927E+01-2.86936E-01 2.09604E-03-3.91283E-01 6.33041E-14 6.25595E-14
 -1      2784 2.00650E+01-3.20054E-01-3.99062E-03-4.71270E-01-1.69094E-14 8.79522E-15
 -1      2785 2.02396E+01-4.10204E-01-5.59733E-05-5.20069E-01 2.27089E-14-4.16108E-14
 -1      2786 2.00784E+01-2.20286E-01 1.95803E-03-2.55390E-01 1.22919E-13 1.09166E-13
 -1      2787 2.00614E+01-2.55302E-01-3.36281E-03-3.17698E-01 1.08272E-13 1.07544E-13
 -1      2788 2.01853E+01-3.34444E-01-5.66744E-04-3.50244E-01 1.59091E-14-8.80791E-14
 -1      2789 2.00611E+01-1.58269E-01 1.62097E-03-1.56209E-01 2.86304E-14 1.30495E-13
 -1      2790 2.00512E+01-1.89592E-01-2.61560E-03-2.01708E-01 1.08526E-13 1.12157E-13
 -1      2791 2.01344E+01-2.53069E-01-7.29972E-04-2.22336E-01 1.16031E-13 1.05787E-14
 -1      2792 2.00452E+01-1.06948E-01 1.23201E-03-8.79159E-02-1.48732E-14 2.04628E-13
 -1      2793 2.00397E+01-1.32191E-01-1.91200E-03-1.19263E-01 2.93135E-14 2.50820E-13
 -1      2794 2.00925E+01-1.79610E-01-6.87709E-04-1.31664E-01-6.94092E-15 8.03086E-14
 -1      2795 2.00322E+01-6.78712E-02 8.74721E-04-4.34972E-02 1.20455E-13 1.83365E-13
 -1      2796 2.00296E+01-8.67022E-02-1.32498E-03-6.38821E-02 4.09816E-14 1.57461E-13
 -1      2797 2.00609E+01-1.20007E-01-5.55401E-04-7.08454E-02 8.70441E-14 1.03768E-13
 -1      2798 2.00225E+01-4.00527E-02 5.84838E-04-1.63640E-02-1.37453E-14 2.32073E-13
 -1      2799 2.00215E+01-5.32243E-02-8.72410E-04-2.87957E-02 8.28342E-14 2.36522E-13
 -1      2800 2.00387E+01-7.52755E-02-4.05514E-04-3.22935E-02 2.60217E-14 8.23768E-15
 -1      2801 2.00156E+01-2.14139E-02 3.68903E-04-1.05855E-03-4.78930E-14 1.87892E-13
 -1      2802 2.00155E+01-3.00917E-02-5.43744E-04-8.04209E-03-2.04987E-14 2.50216E-13
 -1      2803 2.00239E+01-4.38032E-02-2.74256E-04-9.41259E-03 9.72428E-16 2.68009E-14
 -1      2804 2.00107E+01-9.66615E-03 2.18491E-04 6.58338E-03-2.26381E-14 2.97969E-14
 -1      2805 2.00112E+01-1.50373E-02-3.16902E-04 3.12864E-03-6.29798E-14 4.05301E-14
 -1      2806 2.00144E+01-2.29366E-02-1.74087E-04 3.00166E-03 5.90571E-14 2.19425E-15
 -1      2807 2.00074E+01-2.76338E-03 1.19723E-04 9.54664E-03 5.63109E-14 1.50681E-13
 -1      2808 2.00081E+01-5.84871E-03-1.67743E-04 8.24122E-03 3.62117E-14 1.67857E-13
 -1      2809 2.00085E+01-9.92420E-03-1.04581E-04 8.78637E-03-3.71198E-14-7.31748E-14
 -1      2810 2.00051E+01 9.26066E-04 5.85180E-05 9.85911E-03 1.98552E-13 1.11773E-13
 -1      2811 2.00059E+01-6.67534E-04-7.46133E-05 9.76487E-03 2.15357E-13 2.22920E-13
 -1      2812 2.00050E+01-2.37500E-03-5.98968E-05 1.06213E-02 8.12441E-14 1.12644E-13
 -1      2813 2.00035E+01 2.60562E-03 2.29529E-05 8.82931E-03 1.23109E-13-1.09966E-13
 -1      2814 2.00043E+01 1.92903E-03-2.00140E-05 9.34150E-03 9.28492E-14 8.80085E-15
 -1      2815 2.00030E+01 1.58489E-03-3.30653E-05 1.02890E-02 1.71631E-13 7.98188E-14
 -1      2816 2.00024E+01 3.10960E-03 3.92256E-06 7.25566E-03 2.28918E-14-7.31920E-14
 -1      2817 2.00030E+01 2.95788E-03 9.26743E-06 8.00658E-03 4.93582E-14-8.95411E-14
 -1      2818 2.00018E+01 3.32093E-03-1.79884E-05 8.91792E-03 1.41104E-13 7.24939E-14
 -1      2819 2.00016E+01 2.98534E-03-5.03770E-06 5.59255E-03 1.76517E-13-1.63640E-14
 -1      2820 2.00021E+01 3.10512E-03 2.27015E-05 6.37434E-03 1.01223E-13-7.30563E-14
 -1      2821 2.00011E+01 3.77087E-03-1.00771E-05 7.18330E-03 5.63435E-14 4.67142E-14
 -1      2822 2.00010E+01 2.57233E-03-8.25709E-06 4.07333E-03 7.45403E-15 5.56579E-14
 -1      2823 2.00014E+01 2.80905E-03 2.67818E-05 4.78064E-03 8.32155E-14-5.98255E-14
 -1      2824 2.00007E+01 3.54480E-03-6.20930E-06 5.45972E-03 8.81814E-14 4.42220E-14
 -1      2825 2.00006E+01 2.06793E-03-8.48514E-06 2.79672E-03 4.05689E-16-3.99539E-14
 -1      2826 2.00009E+01 2.33361E-03 2.57742E-05 3.38631E-03 5.17035E-15 6.13534E-14
 -1      2827 2.00004E+01 3.01797E-03-4.42607E-06 3.93168E-03-2.76325E-14 2.30602E-14
 -1      2828 2.00003E+01 1.57700E-03-7.37832E-06 1.78473E-03-6.02087E-14 9.03476E-15
 -1      2829 2.00005E+01 1.82642E-03 2.23577E-05 2.24841E-03-4.35993E-15-9.30402E-14
 -1      2830 2.00002E+01 2.40626E-03-3.59657E-06 2.66963E-03 6.26544E-14-1.06228E-13
 -1      2831 2.00001E+01 1.14707E-03-5.89673E-06 1.01991E-03-1.76640E-14-2.24510E-13
 -1      2832 2.00002E+01 1.36112E-03 1.81262E-05 1.36721E-03-4.85442E-14-7.68658E-14
 -1      2833 2.00001E+01 1.82249E-03-3.12862E-06 1.68038E-03 2.86465E-14-6.37228E-14
 -1      2834 1.99999E+01 7.91969E-04-4.34026E-06 4.68149E-04-7.38097E-14-3.97393E-13
 -1      2835 2.00000E+01 9.66693E-04 1.39796E-05 7.15768E-04-1.73837E-13-2.72457E-13
 -1      2836 2.00000E+01 1.31603E-03-2.71372E-06 9.39000E-04-6.59661E-14-2.63466E-13
 -1      2837 1.99998E+01 5.07522E-04-3.08749E-06 9.18634E-05 8.19451E-14-4.61708E-13
 -1      2838 1.99999E+01 6.46449E-04 1.03071E-05 2.57409E-04 4.92015E-14-4.67533E-13
 -1      2839 1.99999E+01 8.99454E-04-2.48361E-06 4.10056E-04-2.90435E-15-3.20857E-13
 -1      2840 1.99998E+01 2.87037E-04-2.41026E-06-1.38338E-04 4.75944E-16-3.33653E-13
 -1      2841 1.99998E+01 4.00228E-04 7.78050E-06-3.85460E-05-1.67375E-14-4.75553E-13
 -1      2842 1.99999E+01 5.68598E-04-4.70769E-06 5.64562E-05-9.84762E-15-5.00123E-13
 -1      2843 1.99998E+01 3.04983E-04-4.48755E-06-1.59639E-04-1.65712E-13-3.05021E-13
 -1      2844 1.99999E+01 1.93128E-04-5.67070E-07-1.80008E-04-2.04720E-13-8.11024E-13
 -1      2845 1.99999E+01 2.00746E-04-7.21943E-07-1.98427E-04 8.25972E-15-5.24396E-13
 -1      2846 1.99998E+01 9.96909E-05-4.57033E-07-2.53301E-04-1.82289E-13-1.95601E-13
 -1      2847 1.99999E+01 1.84529E-04-1.40289E-06-2.06841E-04-2.12265E-13-8.85502E-14
 -1      2848 1.99999E+01 1.84651E-04 1.26759E-07-2.20502E-04-2.23382E-13 2.15644E-13
 -1      2849 1.99999E+01 3.45821E-04 3.75359E-06-2.06776E-04-2.31270E-13 3.20476E-13
 -1      2850 1.99999E+01 3.98092E-04 3.22883E-06-1.96538E-04-2.43970E-13-2.34548E-13
 -1      2851 2.00000E+01 1.22601E-04 1.22306E-06-7.27106E-05-8.41101E-15 5.32058E-14
 -1      2852 2.00000E+01 1.42490E-04-1.94677E-06-1.11809E-04-1.27378E-13 1.27019E-13
 -1      2853 2.00000E+01 5.75201E-05 1.84460E-06 2.08641E-05 4.73831E-14-1.81362E-13
 -1      2854 2.00000E+01 7.75148E-05-1.98458E-06-3.00460E-05 2.93547E-14 3.86997E-14
 -1      2855 2.00000E+01 3.07154E-04 2.46917E-06-8.13159E-05 2.53871E-13 1.57280E-14
 -1      2856 2.00001E+01-1.23505E-05 1.78997E-06 1.41204E-04 4.41041E-14-2.86265E-13
 -1      2857 2.00001E+01 3.97937E-06-1.46138E-06 8.05344E-05 8.68776E-14-3.72498E-13
 -1      2858 2.00001E+01 2.11509E-04 1.48333E-06 1.84847E-05-2.88142E-14-1.62791E-13
 -1      2859 2.00000E+01-7.16082E-05 1.14257E-06 2.70953E-04 1.06667E-13 3.77271E-13
 -1      2860 2.00001E+01-6.22101E-05-3.45744E-07 2.10144E-04 1.93805E-14 2.89332E-13
 -1      2861 2.00001E+01 1.08763E-04 2.03703E-07 1.48080E-04 8.35234E-14 1.11591E-15
 -1      2862 2.49327E+01-4.82974E+00-1.12744E-01 5.60677E+00-3.00815E-13-1.72022E-13
 -1      2863 2.22357E+01-4.36360E+00 1.59902E-01 6.69332E+00-3.98098E-13-2.13568E-13
 -1      2864 1.79533E+01-3.71322E+00-5.15937E-02 7.80613E+00-3.36384E-13-2.19852E-13
 -1      2865 1.43784E+01-2.39793E+00 2.22309E-01 7.73445E+00-3.32831E-13-2.13371E-13
 -1      2866 1.89577E+01-4.40751E+00 1.22965E-01-7.76916E+00-2.86188E-13-4.08736E-13
 -1      2867 2.22204E+01-4.90934E+00-3.22901E-02-7.07724E+00-2.69201E-13-2.33129E-13
 -1      2868 6.35586E+00 8.05933E-01 1.60259E-01 3.20428E+00-3.14200E-13 1.58207E-13
 -1      2869 6.17701E+00 1.35536E+00 1.98447E-01 5.39578E-01-3.00442E-13 2.00839E-13
 -1      2870 1.23971E+01-2.02511E+00 1.66959E-01-7.35235E+00-1.92013E-13-5.82007E-13
 -1      2871 1.56343E+01-3.48187E+00 6.46701E-02-8.11968E+00-2.62346E-13-5.08760E-13
 -1      2872 1.83382E+01-3.33070E+00 1.20541E-01-7.20130E+00-3.23061E-13-3.32144E-13
 -1      2873 6.73770E+00 1.90910E-01 2.15215E-01-3.97016E+00-4.26048E-14-7.53231E-13
 -1      2874 8.98728E+00-5.88576E-01 1.66790E-01-5.88547E+00-1.26330E-13-7.41518E-13
 -1      2875 3.11095E+01 7.21256E+00-1.53082E-01 1.37075E+00 2.92377E-13 6.44346E-14
 -1      2876 3.18473E+01 8.33315E+00-2.04401E-01 5.41903E-01 3.78642E-13-6.43860E-14
 -1      2877 1.99479E+01 2.54975E+00-7.34627E-03 7.44964E-01 2.36656E-13-1.47260E-13
 -1      2878 1.98951E+01 2.64786E+00-5.96988E-03 5.86394E-01 2.10690E-13-1.86252E-13
 -1      2879 2.00140E+01 2.34045E+00 3.12160E-03 4.41765E-01 1.86271E-13-1.83049E-13
 -1      2880 2.01144E+01 2.12606E+00 4.37393E-03 7.00160E-01 2.09779E-13-1.21132E-13
 -1      2881 1.99873E+01-2.72383E-01-3.87090E-03 2.46535E-01 6.50036E-14 6.93145E-14
 -1      2882 2.00199E+01-2.09538E-01 4.44254E-03 1.91775E-01 8.26518E-14 6.46664E-14
 -1      2883 2.02032E+01-2.09256E-01-2.48924E-03 1.83679E-01 7.88267E-14-1.41594E-14
 -1      2884 2.02265E+01-3.59832E-01-1.64596E-03 2.88896E-01 5.67355E-14-1.55652E-14
 -1      2885 1.04538E+01-1.23815E+00 4.71365E-02 7.02478E+00-3.54466E-13-1.72640E-13
 -1      2886 7.80859E+00-2.39623E-02 2.19779E-01 5.14300E+00-2.99608E-13 3.63598E-14
 -1      2887 9.14389E+00 1.22417E+00 1.85965E-01 3.75162E+00-3.76137E-13 5.30687E-14
 -1      2888 1.97639E+01 2.81492E+00-5.88547E-03-6.53687E-01 4.01684E-14-2.89727E-13
 -1      2889 1.98099E+01 2.73031E+00-8.56076E-03-7.82064E-01 6.85338E-15-2.94468E-13
 -1      2890 2.19328E+01-4.07481E+00 3.67009E-02 5.92718E+00 5.22915E-14 1.09177E-13
 -1      2891 2.52673E+01-4.86453E+00 9.60927E-02-5.63608E+00-2.56878E-13-8.87693E-14
 -1      2892 2.75999E+01-4.46337E+00-1.61881E-01-3.96998E+00-1.99452E-13 8.18096E-14
 -1      2893 2.38234E+01-4.61414E+00 6.40621E-02-5.78689E+00-3.41782E-13-6.92189E-14
 -1      2894 3.10053E+01 2.66652E+00-4.29999E-02 1.73360E+00 9.36751E-14 1.72404E-13
 -1      2895 3.09890E+01 4.64402E+00-2.49551E-01 1.81366E+00 2.25153E-13 1.13715E-13
 -1      2896 2.99333E+01-2.64550E+00 6.11180E-02-1.39094E+00-1.18286E-13 2.11720E-13
 -1      2897 3.06278E+01-6.36189E-01-2.37510E-01 3.53955E-01-2.00534E-14 1.84658E-13
 -1      2898 1.99999E+01 1.71401E-04 3.12038E-07-1.38777E-04-1.82744E-13-2.82988E-13
 -1      2899 1.99999E+01 1.86447E-04-1.50556E-06-1.65600E-04-7.95723E-15-9.23813E-13
 -1      2900 2.00000E+01 3.77500E-04 3.07168E-06-1.46061E-04 1.42965E-13-1.39796E-13
 -1      2901 1.21146E+01 8.70643E-01 1.67884E-01-4.54890E+00-2.85966E-13-8.35443E-14
 -1      2902 1.27167E+01 2.23326E+00 1.10252E-01-3.81981E+00-1.41998E-13-1.04375E-13
 -1      2903 3.07736E+01 5.82158E+00-2.19650E-01-1.65632E+00 4.06952E-13-2.41474E-13
 -1      2904 3.10210E+01 4.45504E+00-1.15658E-01-1.83979E+00 2.96069E-13-3.13721E-13
 -1      2905 1.98719E+01 2.57247E+00 3.05321E-03-9.65660E-02 1.21854E-13-2.37124E-13
 -1      2906 1.97278E+01 2.91723E+00-4.32887E-03-1.42825E-01 1.26910E-13-2.54667E-13
 -1      2907 1.97175E+01 2.91682E+00-6.61451E-03-2.89729E-01 1.00977E-13-2.67006E-13
 -1      2908 2.03491E+01 1.57212E+00 2.10059E-03 1.27033E+00 2.30711E-13 1.13097E-13
 -1      2909 3.00709E+01 7.89871E+00-1.47362E-01 1.64734E-01 3.80418E-13-1.89484E-14
 -1      2910 1.21140E+01 2.87771E+00 9.65998E-02 1.83408E+00 2.52895E-13-3.72924E-13
 -1      2911 2.64597E+01-4.09234E+00 3.07490E-02 3.76956E+00-2.62498E-13-9.16767E-14
 -1      2912 2.96679E+01-1.53050E+00-2.68160E-02 2.51137E-01-1.10219E-13-2.73309E-13
 -1      2913 1.18018E+01 2.69555E+00 1.57382E-01-2.53845E+00-5.96537E-14 1.25261E-13
 -1      2914 1.48946E+01 2.96315E+00 1.11148E-01-1.67684E+00-1.03626E-13 2.42653E-14
 -1      2915 1.36098E+01-1.08068E+00 1.46718E-01 6.70760E+00-3.64736E-13-1.45065E-13
 -1      2916 1.99999E+01 4.09871E-04 3.18298E-06-1.80994E-04-4.79681E-14-7.17229E-13
 -1      2917 2.04979E+01-3.53449E+00 9.82184E-02 6.59932E+00-3.60878E-13-2.22161E-13
 -1      2918 1.99999E+01 2.60670E-04 3.71503E-06-2.19540E-04-5.38762E-14-1.08272E-13
 -1      2919 2.89724E+01 6.96509E+00-1.96513E-01-1.22037E+00 3.10141E-13-5.15039E-14
 -1      2920 3.01325E+01 6.49907E+00-1.52406E-01-1.53769E+00 3.86746E-13-1.95510E-13
 -1      2921 2.86201E+01 5.40075E+00-8.42924E-02-1.82342E+00 2.96221E-13-2.28730E-13
 -1      2922 2.00000E+01-1.12592E-04 5.86505E-07 3.67032E-04 2.63962E-13 1.88329E-13
 -1      2923 2.00000E+01-1.13607E-04 5.00508E-07 3.26501E-04 1.18763E-13 2.56090E-13
 -1      2924 2.00001E+01 1.15521E-05-1.72361E-06 2.78007E-04 1.84005E-13 5.12639E-13
 -1      2925 2.00000E+01-5.65464E-05-6.73179E-07 3.74796E-04 3.44996E-13 3.54384E-13
 -1      2926 2.02804E+01 5.70376E-01-2.25431E-03 4.67556E-01 1.39899E-13 4.53424E-15
 -1      2927 2.02157E+01 5.42439E-01 8.30654E-04 4.90247E-01 1.34650E-13 8.82833E-14
 -1      2928 2.94985E+01 5.56060E+00-1.29938E-01 1.79992E+00 2.11151E-13 1.03945E-13
 -1      2929 2.02446E+01 6.37369E-01 6.38522E-03 5.89486E-01 1.37461E-13 1.10040E-13
 -1      2930 1.99538E+01 2.35966E+00 7.69796E-03-7.26097E-01-3.88914E-15-2.70668E-13
 -1      2931 1.98756E+01 2.61660E+00-6.46910E-03-8.71268E-01-1.54348E-14-3.02327E-13
 -1      2932 1.99577E+01 2.46959E+00-9.40564E-03-9.82954E-01-4.20148E-14-3.16565E-13
 -1      2933 6.94097E+00 3.57045E-01 2.00547E-01 2.24142E+00 1.36155E-13-5.09176E-13
 -1      2934 8.79607E+00 2.08017E+00 1.81561E-01-7.15497E-01-2.59547E-13 2.16632E-13
 -1      2935 7.15291E+00 1.23494E+00 2.03707E-01-1.80390E+00-3.48756E-13 1.90598E-13
 -1      2936 2.03478E+01 1.34342E+00 8.43138E-03 1.02674E+00 2.01733E-13 8.41011E-14
 -1      2937 6.71165E+00 8.65346E-01 1.97913E-01-2.68840E+00 4.44991E-14-6.82121E-13
 -1      2938 8.99128E+00 1.38768E+00 1.40713E-01-3.10881E+00 7.23033E-15-6.27526E-13
 -1      2939 7.05291E+00 1.64290E+00 1.68086E-01-9.69068E-01 1.20159E-13-5.72431E-13
 -1      2940 1.97196E+01 2.90784E+00-4.86164E-03-4.10211E-01 8.46641E-14-2.49537E-13
 -1      2941 1.97337E+01 2.87077E+00-7.31013E-03-5.48035E-01 5.32635E-14-2.67789E-13
 -1      2942 1.98691E+01 2.52602E+00 5.29024E-03-5.50388E-01 3.92503E-14-2.47653E-13
 -1      2943 1.98463E+01 2.59024E+00 3.92397E-03-3.39081E-01 7.62456E-14-2.39117E-13
 -1      2944 2.82259E+01-3.49851E+00 1.33206E-02-2.20754E+00-1.74853E-13 1.79481E-13
 -1      2945 2.97037E+01 6.00895E-01-6.94770E-02 1.28256E+00-5.65242E-14 2.02491E-13
 -1      2946 2.99341E+01 2.70097E+00-9.12931E-02-1.75132E+00 1.65021E-13-2.46830E-13
 -1      2947 9.79530E+00 4.76822E-01 1.82228E-01-4.30983E+00-2.95708E-13 3.13638E-15
 -1      2948 2.02886E+01 1.39686E+00-9.97067E-03 8.01064E-01 1.89802E-13-1.37523E-14
 -1      2949 2.02574E+01 1.58398E+00-5.92330E-04 7.24783E-01 1.75393E-13-5.35732E-14
 -1      2950 2.02834E+01 7.20062E-01 7.14573E-03 7.74901E-01 1.60476E-13 1.85026E-13
 -1      2951 2.81198E+01 7.28048E+00-1.16575E-01 5.54133E-01 3.33039E-13-8.47378E-14
 -1      2952 2.86753E+01 7.42227E+00-1.57209E-01-4.31202E-01 3.59379E-13-1.05664E-13
 -1      2953 2.74849E+01 6.44853E+00-1.00275E-01-8.25492E-01 2.56684E-13-2.79761E-13
 -1      2954 2.00002E+01 3.76898E-04 1.83528E-06-1.41360E-05 1.55488E-14-3.43509E-13
 -1      2955 2.00001E+01 4.23001E-04-3.70806E-06-6.82457E-05 6.46390E-14 4.18890E-14
 -1      2956 2.00691E+01 1.02718E+00 1.35027E-03-1.77370E-01-5.27657E-14-1.72505E-13
 -1      2957 1.99625E+01 9.39018E-01-5.62734E-03-4.24364E-03-3.95651E-14-1.66892E-13
 -1      2958 1.98476E+01 9.06392E-01-3.48807E-04 1.02741E-01-6.03497E-14-1.70715E-13
 -1      2959 1.97010E+01 9.11403E-01-6.59406E-03 2.31029E-01-6.50937E-14-1.68539E-13
 -1      2960 1.98946E+01 1.05248E+00 6.20731E-03-5.67908E-02-4.24841E-14-1.88598E-13
 -1      2961 1.95098E+01 9.62128E-01-3.34450E-03 2.95994E-01-5.30291E-14-1.53963E-13
 -1      2962 1.92888E+01 1.04810E+00-9.75789E-03 3.95187E-01-4.00884E-14-1.69621E-13
 -1      2963 1.95927E+01 1.03689E+00 9.82135E-03 1.00615E-01-5.94922E-14-1.72695E-13
 -1      2964 1.89900E+01 1.17896E+00-6.85284E-03 4.11405E-01-1.76112E-14-1.60766E-13
 -1      2965 1.86386E+01 1.34066E+00-1.60221E-02 4.79663E-01-4.71281E-15-1.19586E-13
 -1      2966 1.91188E+01 1.18642E+00 1.58446E-02 1.51286E-01-1.46814E-14-1.66225E-13
 -1      2967 1.81819E+01 1.54499E+00-1.04625E-02 4.28431E-01-3.54959E-14-1.10877E-13
 -1      2968 1.76124E+01 1.76628E+00-2.56131E-02 4.48647E-01-2.39526E-14-1.79652E-13
 -1      2969 1.83920E+01 1.48012E+00 2.53783E-02 6.01519E-02-1.78338E-14-1.84517E-13
 -1      2970 1.69234E+01 2.01744E+00-1.24935E-02 2.94087E-01 1.03689E-14-1.92672E-13
 -1      2971 1.60112E+01 2.25069E+00-3.29958E-02 2.29304E-01 3.61395E-14-2.06416E-13
 -1      2972 1.72909E+01 1.86968E+00 4.09489E-02-2.43747E-01-4.44120E-14-2.07177E-13
 -1      2973 1.49944E+01 2.46125E+00-3.67796E-03-7.45247E-02 4.25545E-14-2.50673E-13
 -1      2974 1.37259E+01 2.62416E+00 6.01041E-03-3.11117E-01 9.72902E-14-2.91808E-13
 -1      2975 1.56378E+01 2.23187E+00 6.77661E-02-8.74177E-01 9.68323E-15-2.36847E-13
 -1      2976 1.06822E+01 1.14713E+00 4.88242E-02 4.37325E+00-3.28931E-13-1.33227E-15
 -1      2977 9.81719E+00 2.13253E+00 1.40919E-01 2.43649E+00-3.36422E-13 1.28453E-13
 -1      2978 1.75739E+01 1.85874E+00-2.09732E-02-5.92677E-01-3.33974E-13 2.16160E-13
 -1      2979 1.81371E+01 1.56935E+00-1.53479E-02-5.10737E-01-4.36623E-13 2.72300E-13
 -1      2980 1.86140E+01 1.31516E+00-1.28854E-02-5.32409E-01-2.91597E-13 3.39854E-13
 -1      2981 1.89209E+01 1.09410E+00-1.13610E-02-4.44390E-01-1.49872E-13 4.45803E-13
 -1      2982 1.81875E+01 1.52742E+00 2.99349E-02-1.36750E-01-2.62425E-13 2.77956E-13
 -1      2983 1.92197E+01 9.02400E-01-6.26085E-03-4.32355E-01-1.45382E-13 4.07261E-13
 -1      2984 1.93909E+01 7.38081E-01-7.93310E-03-3.53911E-01-2.98826E-14 3.06063E-13
 -1      2985 1.89194E+01 1.07902E+00 1.82805E-02-2.08941E-01-1.64418E-13 5.27297E-13
 -1      2986 1.95741E+01 6.01922E-01-2.74184E-03-3.29401E-01-5.16607E-14 1.97804E-13
 -1      2987 1.96665E+01 4.86927E-01-5.32945E-03-2.66748E-01 3.28167E-14 3.09602E-13
 -1      2988 1.93702E+01 7.37521E-01 1.11981E-02-2.08092E-01-1.32113E-13 4.46559E-13
 -1      2989 1.97766E+01 3.94075E-01-9.47449E-04-2.40868E-01 1.00350E-13 2.49017E-13
 -1      2990 1.98245E+01 3.16319E-01-3.49690E-03-1.93975E-01 6.86066E-14 2.61344E-13
 -1      2991 1.96420E+01 4.92433E-01 6.74016E-03-1.77895E-01 7.36179E-14 9.69762E-14
 -1      2992 1.98893E+01 2.54702E-01-1.16140E-04-1.71421E-01 5.80744E-14 3.32534E-13
 -1      2993 1.99128E+01 2.03335E-01-2.24786E-03-1.37759E-01 6.11818E-14 3.44628E-13
 -1      2994 1.98024E+01 3.23430E-01 3.97675E-03-1.40682E-01 1.04568E-13 2.13509E-13
 -1      2995 1.99501E+01 1.63197E-01 2.15547E-04-1.19833E-01 1.38530E-13 2.79985E-13
 -1      2996 1.99606E+01 1.29821E-01-1.41496E-03-9.63223E-02 1.02546E-13 3.42454E-13
 -1      2997 1.98951E+01 2.10026E-01 2.29954E-03-1.06285E-01 9.23142E-14 4.78586E-13
 -1      2998 1.99816E+01 1.03969E-01 2.93152E-04-8.27865E-02 6.40542E-14 3.07950E-13
 -1      2999 1.99855E+01 8.25075E-02-8.98518E-04-6.66351E-02 9.29704E-14 1.98501E-13
 -1      3000 1.99474E+01 1.35416E-01 1.31390E-03-7.80243E-02 5.62280E-14 4.81227E-13
 -1      3001 1.99973E+01 6.53166E-02 2.81632E-04-5.62486E-02 3.52934E-13 7.55408E-14
 -1      3002 1.99980E+01 5.12384E-02-5.48620E-04-4.49228E-02 3.83248E-13 3.28985E-13
 -1      3003 1.99764E+01 8.60433E-02 7.29611E-04-5.57597E-02 1.85385E-13 3.02629E-13
 -1      3004 2.00039E+01 4.10928E-02 2.43035E-04-3.79783E-02 2.48800E-13 3.57996E-13
 -1      3005 2.00031E+01 3.26359E-02-3.21754E-04-3.07211E-02 1.80534E-13 3.89507E-13
 -1      3006 1.99915E+01 5.45003E-02 3.70598E-04-3.92699E-02 3.27091E-13 2.68966E-13
 -1      3007 2.00060E+01 2.62143E-02 1.93861E-04-2.57702E-02-1.69164E-14 3.93141E-13
 -1      3008 2.00048E+01 2.08520E-02-1.93695E-04-2.08827E-02-3.81206E-14 4.10132E-13
 -1      3009 1.99986E+01 3.49892E-02 1.81298E-04-2.76235E-02 1.13806E-13 3.56310E-13
 -1      3010 2.00060E+01 1.67990E-02 1.46328E-04-1.73902E-02-3.80503E-15 3.26391E-13
 -1      3011 2.00048E+01 1.34007E-02-1.15365E-04-1.40930E-02 1.00579E-14 1.41463E-13
 -1      3012 2.00018E+01 2.25576E-02 8.13993E-05-1.92427E-02-7.07681E-14 2.14031E-13
 -1      3013 2.00052E+01 1.08342E-02 1.07992E-04-1.16365E-02 1.35428E-13 1.51639E-13
 -1      3014 2.00042E+01 8.67097E-03-6.81377E-05-9.40652E-03 2.70162E-13 1.08458E-13
 -1      3015 2.00028E+01 1.46248E-02 2.93899E-05-1.32596E-02 5.84914E-14 3.36904E-13
 -1      3016 2.00042E+01 7.03536E-03 7.85080E-05-7.68153E-03 1.75156E-13 1.22623E-13
 -1      3017 2.00033E+01 5.64783E-03-3.99181E-05-6.16924E-03 6.32532E-14 1.70065E-13
 -1      3018 2.00029E+01 9.54246E-03 3.86480E-06-9.00791E-03 2.65353E-13 9.41805E-14
 -1      3019 2.00032E+01 4.59573E-03 5.63973E-05-4.96020E-03-2.37052E-13 1.23188E-13
 -1      3020 2.00025E+01 3.69285E-03-2.48994E-05-3.93149E-03-3.42050E-13 6.02968E-14
 -1      3021 2.00026E+01 6.26362E-03-7.05273E-06-5.99754E-03-1.19514E-13-3.44158E-14
 -1      3022 2.00023E+01 2.97677E-03 3.97912E-05-3.04886E-03-2.54476E-13 1.75755E-13
 -1      3023 2.00017E+01 2.36740E-03-1.45928E-05-2.32663E-03-4.05090E-14 3.92755E-13
 -1      3024 2.00021E+01 4.09372E-03-8.33063E-06-3.83588E-03-1.37612E-13 1.31219E-13
 -1      3025 2.00016E+01 1.92897E-03 2.82582E-05-1.75385E-03 1.04616E-13 3.20963E-13
 -1      3026 2.00012E+01 1.54315E-03-7.58313E-06-1.29225E-03 1.96539E-13 3.51456E-13
 -1      3027 2.00015E+01 2.65970E-03-1.14116E-05-2.32573E-03 1.35189E-13 2.08279E-13
 -1      3028 2.00010E+01 1.24601E-03 1.96010E-05-8.98442E-04 3.86761E-14 4.31790E-13
 -1      3029 2.00008E+01 9.84999E-04-4.27666E-06-5.91638E-04-1.45083E-13 3.18534E-13
 -1      3030 2.00011E+01 1.73617E-03-1.00863E-05-1.31193E-03 1.56852E-13 1.31552E-13
 -1      3031 2.00006E+01 7.80903E-04 1.35941E-05-3.27574E-04-1.54657E-13 2.21028E-13
 -1      3032 2.00005E+01 5.99331E-04-2.27963E-06-1.29504E-04 5.56219E-14 1.94708E-13
 -1      3033 2.00008E+01 1.10706E-03-8.21809E-06-6.19729E-04-2.06142E-13 3.31554E-13
 -1      3034 2.00003E+01 4.53674E-04 9.23336E-06 4.15705E-05 3.40987E-13 2.23131E-13
 -1      3035 2.00002E+01 3.20267E-04-1.51030E-06 1.61786E-04 5.44043E-13 2.35917E-13
 -1      3036 2.00005E+01 6.68250E-04-6.60106E-06-1.61171E-04 2.51388E-13 4.86061E-13
 -1      3037 2.00001E+01 2.10027E-04 6.80984E-06 2.60930E-04 4.91308E-13 2.98523E-13
 -1      3038 2.00001E+01 1.05749E-04-6.71658E-07 3.23318E-04 2.44463E-13 3.17121E-13
 -1      3039 2.00003E+01 3.40748E-04-6.52103E-06 1.30379E-04 4.86808E-13 4.15740E-13
 -1      3040 2.03356E+01-6.06680E-02-3.55623E-03 1.47529E-01 1.01579E-13-3.68673E-14
 -1      3041 2.03532E+01 7.28633E-02 6.52532E-03 1.69651E-01 1.18476E-13-2.04008E-14
 -1      3042 2.03194E+01 2.14838E-01-4.13851E-03 2.17782E-01 1.22074E-13-1.95220E-14
 -1      3043 2.03509E+01 3.83832E-01 6.68753E-03 2.96569E-01 1.15253E-13-3.03741E-14
 -1      3044 2.04340E+01 1.85506E-01-2.67910E-03 1.90356E-01 1.16249E-13-5.52349E-14
 -1      3045 2.06051E+01-6.16890E-01-3.62157E-03 7.29097E-01-2.30113E-14 5.83032E-14
 -1      3046 2.06086E+01-6.11606E-01 3.18187E-03 6.06935E-01-2.88332E-14 4.22361E-14
 -1      3047 2.05307E+01-5.83314E-01-4.02665E-03 4.81229E-01-2.70426E-14 2.42866E-14
 -1      3048 2.05241E+01-5.28849E-01 4.79039E-03 3.79381E-01 3.85210E-15 3.48971E-14
 -1      3049 2.08560E+01-6.97726E-01-1.24684E-03 5.08730E-01-4.61809E-14 5.48581E-14
 -1      3050 2.05986E+01-2.65758E-01 1.58152E-03 1.21844E+00-2.47513E-14 7.82908E-14
 -1      3051 2.06519E+01-4.16999E-01-3.53024E-03 1.13317E+00-6.88893E-14 1.31861E-13
 -1      3052 2.04670E+01 1.50590E-01 6.19887E-03 1.31188E+00 4.60449E-14 1.03124E-15
 -1      3053 2.05464E+01-7.92590E-02-7.64745E-03 1.30100E+00 1.69793E-14 5.34768E-14
 -1      3054 2.10589E+01-2.09276E-01 6.41219E-03 1.31278E+00 1.45885E-14 5.40379E-14
 -1      3055 2.02614E+01 6.61819E-01 1.01244E-02 1.19104E+00 4.20403E-14 5.89780E-14
 -1      3056 2.03513E+01 3.95863E-01-1.00323E-02 1.28774E+00 3.84238E-14 2.02594E-14
 -1      3057 2.09235E+01 3.16860E-01 5.90069E-03 1.38998E+00 1.82306E-14 6.35378E-14
 -1      3058 2.00441E+01 1.13424E+00 1.05843E-02 8.14065E-01 1.33627E-14 1.13551E-13
 -1      3059 2.01187E+01 9.07780E-01-8.75746E-03 1.02519E+00 2.79793E-14 1.01287E-13
 -1      3060 2.06991E+01 9.22886E-01 2.07269E-03 1.20973E+00 5.12828E-16 9.16624E-14
 -1      3061 1.99035E+01 1.40948E+00 6.40566E-03 2.25673E-01 4.78534E-15 1.14851E-13
 -1      3062 1.99368E+01 1.30205E+00-3.31644E-03 5.17440E-01 3.17636E-14 8.24542E-14
 -1      3063 2.04754E+01 1.43599E+00-3.56467E-03 7.38749E-01 1.18486E-14 1.93143E-13
 -1      3064 1.99061E+01 1.38408E+00-7.64452E-04-4.39911E-01 1.15213E-13 6.87991E-14
 -1      3065 1.98853E+01 1.43689E+00 3.99873E-03-1.35150E-01 4.00335E-14 6.99091E-14
 -1      3066 2.03618E+01 1.67873E+00-6.64760E-03 5.63077E-02 2.86811E-14 1.11655E-13
 -1      3067 2.00534E+01 1.07071E+00-7.22045E-03-1.01157E+00 3.46083E-14 5.77993E-14
 -1      3068 1.99856E+01 1.26100E+00 9.24758E-03-7.67273E-01 9.50105E-14 7.03079E-14
 -1      3069 2.04179E+01 1.55944E+00-4.82245E-03-6.59663E-01 1.01270E-13 6.19333E-14
 -1      3070 2.02774E+01 5.91489E-01-9.96240E-03-1.36335E+00-3.90124E-14 8.61279E-14
 -1      3071 2.01863E+01 8.47097E-01 1.00017E-02-1.22513E+00 1.73805E-14 1.16821E-13
 -1      3072 2.06092E+01 1.12798E+00 1.35738E-04-1.21437E+00-8.27898E-15 1.94839E-13
 -1      3073 2.04870E+01 1.03189E-01-8.53085E-03-1.46232E+00-1.12023E-13 1.16392E-13
 -1      3074 2.03998E+01 3.44631E-01 6.94179E-03-1.43531E+00-7.48332E-14 1.34957E-13
 -1      3075 2.08332E+01 5.46037E-01 4.87363E-03-1.49470E+00-8.30760E-14 1.77439E-13
 -1      3076 2.06160E+01-2.75714E-01-4.81026E-03-1.35723E+00-1.07802E-13 9.01953E-14
 -1      3077 2.05525E+01-1.01241E-01 2.38197E-03-1.41537E+00-1.03391E-13 4.62477E-14
 -1      3078 2.09886E+01-6.63867E-03 6.64071E-03-1.50206E+00-8.84704E-14 1.93738E-13
 -1      3079 2.06458E+01-4.97993E-01-8.81533E-04-1.13449E+00-1.40268E-13 1.28402E-13
 -1      3080 2.06127E+01-4.05432E-01-1.39062E-03-1.24000E+00-6.93540E-14 1.10781E-13
 -1      3081 2.10250E+01-4.08721E-01 5.34008E-03-1.31865E+00-1.19127E-13 1.92442E-13
 -1      3082 2.05952E+01-5.76302E-01 1.89998E-03-8.73676E-01 4.17941E-14 6.66157E-14
 -1      3083 2.05889E+01-5.53584E-01-3.47536E-03-9.93648E-01-8.23919E-14 1.15129E-13
 -1      3084 2.09505E+01-6.23866E-01 2.66277E-03-1.04742E+00-4.01050E-14 2.06974E-13
 -1      3085 2.04980E+01-5.51759E-01 3.36892E-03-6.28568E-01 6.24619E-14 6.50079E-14
 -1      3086 2.05095E+01-5.75603E-01-4.03520E-03-7.40891E-01 7.10367E-14 7.10597E-14
 -1      3087 2.08047E+01-6.79027E-01 9.39328E-05-7.68093E-01 6.29156E-14 9.01755E-14
 -1      3088 2.03859E+01-4.70387E-01 3.73155E-03-4.25626E-01 2.45434E-14 1.59837E-14
 -1      3089 2.04061E+01-5.17676E-01-3.63006E-03-5.19345E-01 9.23623E-14 3.12606E-14
 -1      3090 2.06319E+01-6.27165E-01-1.54491E-03-5.26394E-01 4.01165E-14 1.39438E-13
 -1      3091 2.02807E+01-3.68729E-01 3.40760E-03-2.71488E-01 6.36592E-15-1.58249E-14
 -1      3092 2.03026E+01-4.22320E-01-2.85703E-03-3.43626E-01 2.38315E-14-4.90194E-15
 -1      3093 2.04657E+01-5.21267E-01-2.26452E-03-3.38790E-01 6.64198E-14 1.47691E-13
 -1      3094 2.01933E+01-2.70083E-01 2.77898E-03-1.61897E-01 1.92990E-14 9.29450E-14
 -1      3095 2.02128E+01-3.19723E-01-2.06325E-03-2.14023E-01 3.12456E-15 1.22463E-14
 -1      3096 2.03246E+01-4.00573E-01-2.31887E-03-2.04035E-01-4.12102E-14 1.13222E-13
 -1      3097 2.01266E+01-1.86229E-01 2.09289E-03-8.82642E-02 3.54680E-14 5.25217E-14
 -1      3098 2.01422E+01-2.27194E-01-1.40117E-03-1.23908E-01 5.39705E-14 8.63963E-14
 -1      3099 2.02149E+01-2.88533E-01-2.00874E-03-1.13033E-01-1.13238E-14 1.91993E-13
 -1      3100 2.00791E+01-1.20994E-01 1.47956E-03-4.14415E-02 1.18676E-13 7.19782E-14
 -1      3101 2.00906E+01-1.52169E-01-9.06089E-04-6.45340E-02 9.14499E-14 1.37753E-13
 -1      3102 2.01354E+01-1.95942E-01-1.56728E-03-5.49154E-02 2.60027E-14 1.89433E-13
 -1      3103 2.00471E+01-7.36106E-02 9.88930E-04-1.34500E-02-3.52319E-14 1.11389E-13
 -1      3104 2.00550E+01-9.58425E-02-5.60106E-04-2.75429E-02 2.93252E-14 5.37886E-14
 -1      3105 2.00810E+01-1.25376E-01-1.13266E-03-1.99211E-02 6.71404E-14 1.05256E-13
 -1      3106 2.00267E+01-4.11840E-02 6.25923E-04 1.97409E-03 1.82934E-14 1.12053E-13
 -1      3107 2.00318E+01-5.61435E-02-3.29473E-04-5.99213E-03-3.36468E-14 1.20296E-13
 -1      3108 2.00456E+01-7.49588E-02-7.68662E-04-3.46327E-04-2.93714E-14 1.89219E-13
 -1      3109 2.00142E+01-2.02361E-02 3.73316E-04 9.41728E-03 9.26926E-14 7.57624E-15
 -1      3110 2.00175E+01-2.97335E-02-1.81226E-04 5.41752E-03 9.35259E-14 4.65733E-14
 -1      3111 2.00238E+01-4.09502E-02-4.92947E-04 9.42936E-03 5.44971E-14 1.49572E-13
 -1      3112 2.00070E+01-7.52966E-03 2.06736E-04 1.20657E-02-1.15284E-13-2.78338E-14
 -1      3113 2.00090E+01-1.31741E-02-8.90570E-05 1.04958E-02 2.20850E-15-4.80129E-14
 -1      3114 2.00112E+01-1.92866E-02-2.99054E-04 1.32850E-02 7.09273E-14-7.81739E-15
 -1      3115 2.00031E+01-4.11815E-04 1.02532E-04 1.20354E-02 1.00432E-13-8.08981E-14
 -1      3116 2.00043E+01-3.48522E-03-3.38802E-05 1.18533E-02-2.12908E-14-8.58148E-14
 -1      3117 2.00043E+01-6.35086E-03-1.70862E-04 1.37828E-02-2.40917E-14-2.20761E-13
 -1      3118 2.00011E+01 3.11896E-03 4.10573E-05 1.06707E-02 2.32598E-13-1.95247E-13
 -1      3119 2.00018E+01 1.66887E-03-2.53871E-06 1.12020E-02 1.92708E-13-1.00298E-13
 -1      3120 2.00008E+01 7.43589E-04-9.07996E-05 1.25494E-02 1.64108E-13-3.08116E-13
 -1      3121 2.00002E+01 4.48104E-03 7.40392E-06 8.78476E-03 8.54676E-14-8.44997E-14
 -1      3122 2.00007E+01 3.99368E-03 1.37853E-05 9.61457E-03 1.62731E-13-8.66335E-14
 -1      3123 1.99994E+01 4.13548E-03-4.36279E-05 1.05742E-02 1.37770E-13-2.25167E-13
 -1      3124 1.99999E+01 4.62683E-03-9.03194E-06 6.83819E-03 1.19772E-13-1.09709E-13
 -1      3125 2.00001E+01 4.66529E-03 2.09044E-05 7.72707E-03 1.22288E-13-9.54150E-14
 -1      3126 1.99989E+01 5.31962E-03-1.76341E-05 8.42758E-03 1.15182E-13-1.33358E-13
 -1      3127 1.99998E+01 4.16341E-03-1.54123E-05 5.06751E-03 8.78058E-14-5.82494E-14
 -1      3128 2.00000E+01 4.45347E-03 2.26086E-05 5.88964E-03 1.09890E-13-3.01551E-14
 -1      3129 1.99990E+01 5.28818E-03-4.52343E-06 6.41289E-03 1.05652E-13 4.53209E-14
 -1      3130 1.99998E+01 3.45621E-03-1.63489E-05 3.57276E-03-1.24720E-14-2.41200E-13
 -1      3131 1.99999E+01 3.83581E-03 2.13378E-05 4.27238E-03 7.21296E-15-1.64139E-13
 -1      3132 1.99992E+01 4.66664E-03 1.22538E-06 4.66982E-03 1.20240E-13-1.73303E-13
 -1      3133 1.99998E+01 2.70972E-03-1.46733E-05 2.37577E-03 3.52895E-14-8.45372E-14
 -1      3134 1.99999E+01 3.09047E-03 1.86254E-05 2.93783E-03-5.19087E-14-1.46329E-13
 -1      3135 1.99994E+01 3.82691E-03 3.08182E-06 3.24216E-03-1.75234E-13-3.41376E-13
 -1      3136 1.99999E+01 2.02614E-03-1.20690E-05 1.45742E-03 4.88247E-14-3.68973E-14
 -1      3137 1.99999E+01 2.36589E-03 1.54103E-05 1.88855E-03 7.19242E-14 1.18906E-13
 -1      3138 1.99996E+01 2.97361E-03 3.08860E-06 2.12133E-03-7.33300E-14-1.26903E-13
 -1      3139 1.99999E+01 1.44689E-03-8.75702E-06 7.81121E-04-1.19510E-14-2.18538E-13
 -1      3140 1.99999E+01 1.72997E-03 1.22446E-05 1.09734E-03 1.92453E-14-1.67034E-13
 -1      3141 1.99998E+01 2.20585E-03 2.38435E-06 1.27352E-03 1.09837E-13-3.09556E-14
 -1      3142 1.99999E+01 9.77105E-04-3.79785E-06 3.07908E-04 9.16418E-14-2.24230E-13
 -1      3143 1.99999E+01 1.19954E-03 8.66593E-06 5.22479E-04-3.97093E-14-2.72836E-13
 -1      3144 1.99998E+01 1.56219E-03 1.63703E-06 6.55107E-04-2.65299E-14-3.17877E-13
 -1      3145 8.33042E+00 1.96437E+00 1.79503E-01 1.39699E+00 2.04886E-13-5.00544E-13
 -1      3146 1.34514E+01 2.91044E+00 1.83784E-02-5.12623E-01-2.41820E-14-8.70831E-15
 -1      3147 1.46757E+01 2.71444E+00-1.59167E-02-4.45733E-01-1.68440E-13-5.32734E-14
 -1      3148 2.00002E+01 2.40304E-04 1.28933E-06 1.19685E-04 1.85210E-13 3.86472E-13
 -1      3149 2.00002E+01 2.83406E-04-2.98499E-06 5.43935E-05 8.64038E-14-1.74926E-13
 -1      3150 2.00002E+01 5.17658E-04 3.68210E-06-4.37628E-05 1.36379E-13 5.50712E-15
 -1      3151 2.00001E+01 5.02479E-04 1.02211E-06-1.10878E-04 2.18300E-13-6.88029E-14
 -1      3152 2.00001E+01 5.40369E-04-3.77599E-06-1.46289E-04 3.02222E-13-2.12952E-14
 -1      3153 2.00002E+01 6.86171E-04 4.64813E-06-1.46040E-04 7.38800E-14-1.09634E-13
 -1      3154 1.99999E+01 4.80817E-04-4.46880E-06-1.55619E-04-1.19847E-13 1.42983E-13
 -1      3155 1.99999E+01 4.25083E-04-1.57847E-06-1.53954E-04-9.22171E-14-1.39984E-13
 -1      3156 1.99999E+01 5.79201E-04 6.02813E-06-7.12453E-05-1.57632E-13-9.73247E-14
 -1      3157 2.89257E+01-7.61878E-01-1.65203E-01-8.28975E-01-5.44426E-14-2.74197E-13
 -1      3158 2.84850E+01-2.30217E+00 5.01488E-02 5.49404E-01-1.37231E-13-2.81615E-13
 -1      3159 2.80448E+01 4.38722E+00-7.00385E-02 2.04222E+00 1.38542E-13 8.09804E-14
 -1      3160 2.79609E+01 6.10943E+00-1.72663E-01 1.42781E+00 2.42181E-13 4.30281E-14
 -1      3161 1.99999E+01 6.36217E-04-1.13361E-06-1.78786E-04-7.52867E-14-7.31941E-13
 -1      3162 1.99999E+01 6.37500E-04-2.90645E-06-1.84923E-04-2.34553E-13-5.57045E-13
 -1      3163 1.02783E+01-1.00530E+00 1.53891E-01-6.47136E+00-1.32006E-13-7.16427E-13
 -1      3164 1.32891E+01-1.07101E+00 1.50976E-01-6.49591E+00-1.84047E-13-5.63785E-13
 -1      3165 1.00782E+01 3.90209E-01 1.32528E-01-5.10049E+00-9.59788E-14-7.50150E-13
 -1      3166 2.03243E+01 8.73939E-01-7.70354E-03 8.00678E-01 1.56319E-13 7.69441E-14
 -1      3167 1.06161E+01 2.75237E+00 8.49069E-02-2.75192E-01-6.31162E-14 1.31548E-13
 -1      3168 2.03218E+01 1.19088E+00 4.35938E-03 8.10360E-01 1.73290E-13 1.29311E-14
 -1      3169 2.06388E+01-5.22294E-01-1.87819E-03 9.95870E-01-6.76825E-14 1.38752E-13
 -1      3170 2.06636E+01-5.87811E-01 3.84275E-04 8.75580E-01-2.98175E-14 9.24230E-14
 -1      3171 2.09920E+01-7.08893E-01 1.30806E-03 7.82410E-01-5.72715E-14 1.00030E-13
 -1      3172 2.10746E+01-5.57195E-01 4.31347E-03 1.07592E+00-5.64529E-14 1.04310E-13
 -1      3173 1.59466E+01 2.43550E+00-2.14152E-02-5.34511E-01-1.31933E-13-2.27336E-14
 -1      3174 1.68235E+01 2.14628E+00-1.87956E-02-5.03694E-01-1.73186E-13 1.40216E-13
 -1      3175 1.70242E+01 2.05646E+00 5.00027E-02 8.57416E-02-2.17769E-13 1.12745E-13
 -1      3176 1.76354E+01-2.31383E+00 1.14852E-01-6.56541E+00-2.94875E-13-3.15893E-13
 -1      3177 2.01877E+01-3.53779E+00-1.51529E-02-6.43772E+00-3.25399E-13-1.98494E-13
 -1      3178 1.55235E+01-1.30571E+00-5.40528E-02 6.39899E+00-3.13014E-13-2.17576E-13
 -1      3179 1.29892E+01 2.99256E-01 1.72234E-01 5.46252E+00-2.94598E-13-1.07796E-13
 -1      3180 1.09599E+01 2.66772E+00 9.16429E-02-3.84321E-01 1.65394E-13-4.35652E-13
 -1      3181 9.96321E+00 2.40275E+00 1.56043E-01 5.42336E-01 2.13267E-13-4.90191E-13
 -1      3182 1.24182E+01-4.35441E-01 2.37516E-01-5.60916E+00-1.26135E-13-2.29816E-14
 -1      3183 2.03394E+01 1.00042E+00 4.22417E-03 6.27668E-01 1.53718E-13-6.89127E-15
 -1      3184 2.00000E+01 5.94589E-04 3.21619E-08-1.63514E-04 3.21030E-13 2.45716E-13
 -1      3185 2.00000E+01 6.17959E-04-3.22892E-06-1.82254E-04 1.66927E-13-1.34135E-13
 -1      3186 2.00000E+01 8.83223E-04 4.72684E-06-1.95234E-04 5.18335E-14-2.50512E-13
 -1      3187 2.00001E+01 8.15145E-04 4.84227E-06-1.94968E-04 3.26129E-13 8.48885E-14
 -1      3188 2.01893E+01 1.35292E+00 4.09064E-03-5.39188E-01-6.27270E-14-2.12680E-13
 -1      3189 2.01209E+01 1.16016E+00-5.48100E-03-3.25042E-01-6.57158E-14-2.04674E-13
 -1      3190 2.00683E+01 1.25254E+00 3.96442E-03-3.05847E-01-4.91504E-14-2.22716E-13
 -1      3191 2.24661E+01-4.00233E+00 9.73992E-02-5.72805E+00-3.37390E-13-1.06237E-13
 -1      3192 2.45225E+01-4.49979E+00-9.74303E-02-4.70505E+00-3.07879E-13-3.88717E-14
 -1      3193 2.16863E+01-3.24922E+00 8.22540E-02-5.29610E+00-3.05672E-13-1.55477E-13
 -1      3194 2.70201E+01-3.78760E+00-1.16414E-01 2.35009E+00-3.11470E-13-4.92124E-14
 -1      3195 2.50259E+01-3.93900E+00 4.61439E-02 3.94928E+00-4.15530E-13-5.79710E-14
 -1      3196 2.00245E+01 2.36860E+00-6.96047E-03-1.04832E+00-5.29438E-14-3.01876E-13
 -1      3197 2.01245E+01 2.17859E+00-8.45833E-03-1.11794E+00-8.91071E-14-2.85446E-13
 -1      3198 2.01870E+01 1.89862E+00 6.24705E-03-9.44062E-01-7.64286E-14-2.58536E-13
 -1      3199 2.00792E+01 2.13153E+00 9.38966E-03-8.51793E-01-3.62070E-14-3.03175E-13
 -1      3200 2.84802E+01 3.18999E+00-1.42263E-01-2.09658E+00 1.84103E-13-3.05242E-13
 -1      3201 2.91037E+01 1.39830E+00-2.48555E-02-1.79357E+00 3.57075E-14-2.92204E-13
 -1      3202 2.84973E+01-6.98857E-01-2.04056E-02 1.04054E+00-8.72774E-14 1.41061E-13
 -1      3203 2.83248E+01 1.64824E+00-1.20639E-01 2.01329E+00 2.21073E-14 1.84450E-13
 -1      3204 2.00511E+01 2.12706E+00-2.82391E-03 1.78708E-01 1.54519E-13-2.01709E-13
 -1      3205 2.00122E+01 2.18435E+00-4.05015E-03 4.81485E-02 1.20270E-13-2.20808E-13
 -1      3206 2.20377E+01-3.67201E+00-4.39721E-02 5.55582E+00-3.68556E-13-1.79533E-13
 -1      3207 1.90619E+01-2.50324E+00 1.49035E-01 6.36963E+00-3.02407E-13-2.65735E-13
 -1      3208 2.68922E+01-4.02081E+00 8.67807E-02-2.98477E+00-2.05767E-13 1.21757E-13
 -1      3209 2.80319E+01-2.97653E+00-1.03629E-01-8.85723E-01-9.26741E-14 2.06883E-13
 -1      3210 1.12593E+01 2.59498E+00 1.24062E-01 1.09505E+00-1.83443E-13 9.59510E-14
 -1      3211 1.30877E+01-1.68580E-01 1.17760E-01-5.64059E+00-1.75124E-13-5.66311E-13
 -1      3212 1.49883E+01-1.37494E+00 3.34743E-02-6.48341E+00-2.33029E-13-4.27602E-13
 -1      3213 2.03787E+01-2.83986E-01-3.50675E-03 1.74809E-01 5.96449E-14-2.46329E-14
 -1      3214 2.03821E+01-1.74695E-01 6.09935E-03 1.48314E-01 9.50100E-14-2.16827E-14
 -1      3215 2.04930E+01-1.22297E-01-3.36476E-03 1.32340E-01 9.53083E-14-1.83568E-14
 -1      3216 2.68811E+01 5.95755E+00-9.66501E-02 9.85151E-01 2.19269E-13-2.59966E-14
 -1      3217 1.99999E+01 5.94697E-04-3.14624E-06-1.60436E-04-4.12244E-13-5.81431E-14
 -1      3218 1.99999E+01 5.58650E-04-2.17245E-06-1.61202E-04-1.91522E-13 1.00671E-13
 -1      3219 1.99999E+01 7.79724E-04 6.83586E-06-9.59095E-05-2.04476E-13-6.65496E-14
 -1      3220 1.20357E+01 2.35046E+00 9.85752E-02-1.52545E+00 7.19876E-14-4.26121E-13
 -1      3221 1.32338E+01 1.07019E+00 1.00275E-01 4.27367E+00-2.09017E-13-8.69860E-14
 -1      3222 2.01796E+01 1.63659E+00-5.86584E-03-7.67102E-01-5.98471E-14-2.43605E-13
 -1      3223 2.80592E+01 1.33926E-01-3.57613E-02-1.42672E+00-6.90142E-14-3.15303E-13
 -1      3224 2.00000E+01 3.84002E-06 2.54220E-06 3.67932E-04 1.52212E-13 3.04862E-13
 -1      3225 1.51218E+01 2.58229E+00 8.05607E-02 4.63828E-01-1.31257E-13 8.45027E-15
 -1      3226 2.07104E+01-5.72936E-01-2.80762E-03 2.98020E-01 2.14552E-14 6.18471E-14
 -1      3227 2.04476E+01-4.62295E-01-3.79310E-03 2.89827E-01 5.20838E-14 1.39912E-14
 -1      3228 2.04418E+01-3.76065E-01 5.62234E-03 2.21576E-01 4.17393E-14-5.11857E-15
 -1      3229 2.00001E+01 1.41298E-04-4.93819E-08 2.23454E-04 3.06043E-13 4.41974E-13
 -1      3230 2.00002E+01 3.23634E-04 2.85497E-06 1.25068E-04 3.05808E-13 5.50889E-13
 -1      3231 1.99999E+01 7.00255E-04-2.53857E-07 2.40800E-05-9.48493E-14-1.50509E-13
 -1      3232 1.99999E+01 8.72121E-04 7.04118E-06 1.63897E-04 6.88413E-14-1.93710E-13
 -1      3233 1.99999E+01 1.11459E-03-5.35509E-06 2.53626E-04-6.94285E-14-1.55553E-13
 -1      3234 1.99999E+01 8.21733E-04-6.98157E-06 6.19439E-06-1.28681E-13-9.18551E-14
 -1      3235 2.71543E+01-2.77689E+00-2.64547E-03 1.00328E+00-2.16296E-13-1.43531E-13
 -1      3236 2.01219E+01 1.68917E+00-2.16925E-03-6.75533E-01-5.28018E-14-2.60477E-13
 -1      3237 1.99999E+01 6.39277E-04-2.00462E-06-1.73466E-04-3.06118E-13-2.08979E-13
 -1      3238 1.99999E+01 6.19401E-04-2.50406E-06-1.73677E-04-4.22411E-13 5.83757E-15
 -1      3239 1.99999E+01 8.77576E-04 6.22059E-06-1.31316E-04-4.09687E-13-9.51212E-14
 -1      3240 1.99999E+01 8.99103E-04 5.76817E-06-1.68137E-04-1.83753E-13-2.51501E-13
 -1      3241 2.03202E+01 5.73712E-01-4.20380E-03 3.96630E-01 1.32944E-13-1.01431E-14
 -1      3242 2.03518E+01 7.91732E-01 2.09430E-03 5.40487E-01 1.45642E-13-8.23170E-15
 -1      3243 2.74539E+01 2.67992E+00-7.54811E-02 2.23891E+00 5.04215E-14 1.06345E-13
 -1      3244 2.61826E+01 3.58552E+00-4.07228E-02 2.04049E+00 6.90697E-14 4.80692E-14
 -1      3245 2.65955E+01 1.26721E+00-3.04369E-02 1.95226E+00-6.39072E-15 1.05527E-13
 -1      3246 2.03583E+01 1.01151E+00 2.92549E-03 5.46284E-01 1.57821E-13-1.92769E-14
 -1      3247 1.99589E+01 2.12161E+00-2.58633E-03-5.93105E-01 3.76950E-16-2.33723E-13
 -1      3248 2.00051E+01 1.99644E+00-7.85972E-03-6.62075E-01-2.79805E-14-2.82387E-13
 -1      3249 1.06946E+01 1.28369E+00 1.69264E-01-3.86398E+00-3.00940E-14-6.27581E-13
 -1      3250 1.14446E+01 8.56610E-01 7.64726E-02-4.47557E+00-6.43374E-14-6.67993E-13
 -1      3251 2.36913E+01-3.69604E+00 3.63267E-02 4.37846E+00-4.07251E-13-4.27852E-14
 -1      3252 2.20528E+01-2.93007E+00-1.05208E-03 4.44883E+00-3.45230E-13-9.01727E-14
 -1      3253 2.45139E+01-3.31517E+00 3.87490E-03 2.95331E+00-4.21651E-13-2.00443E-14
 -1      3254 2.01333E+01 1.95539E+00-4.22625E-03 4.24540E-01 1.81079E-13-1.42446E-13
 -1      3255 2.00921E+01 2.04682E+00-3.05095E-03 2.95470E-01 1.55860E-13-1.75279E-13
 -1      3256 2.01868E+01 1.78070E+00 3.42791E-03 1.68030E-01 1.26542E-13-1.81036E-13
 -1      3257 1.79305E+01-1.41385E+00 7.29147E-02 5.57215E+00-2.78791E-13-1.55442E-13
 -1      3258 1.73567E+01-1.53954E+00 8.79329E-02-5.86425E+00-2.27915E-13-3.15296E-13
 -1      3259 2.03173E+01 1.35312E+00 2.86830E-03 5.55491E-01 1.59974E-13-8.81554E-14
 -1      3260 2.02160E+01 1.71764E+00-6.20958E-03 6.45832E-01 1.82888E-13-1.25010E-13
 -1      3261 2.01762E+01 1.84971E+00-2.00784E-03 5.32275E-01 1.82008E-13-1.49881E-13
 -1      3262 1.33573E+01 6.67350E-01 1.06955E-01-4.54705E+00-1.32110E-13-5.33802E-13
 -1      3263 2.54252E+01-3.85077E+00 3.54227E-02-3.28129E+00-2.17472E-13 1.32117E-14
 -1      3264 1.99143E+01 2.25491E+00-1.92955E-03-4.59542E-01 5.02116E-14-2.14086E-13
 -1      3265 1.99265E+01 2.19216E+00-6.79061E-03-5.48661E-01 1.93187E-14-2.29665E-13
 -1      3266 2.00071E+01 1.90295E+00 4.75644E-03-4.97146E-01-8.38388E-15-2.19492E-13
 -1      3267 2.80472E+01 3.98320E+00-8.79877E-02-2.13745E+00 2.54310E-13-3.28029E-13
 -1      3268 2.72969E+01 2.68759E+00-5.27909E-02-2.07964E+00 1.35322E-13-3.40193E-13
 -1      3269 2.72583E+01 4.70722E+00-9.48404E-02-1.93405E+00 2.32425E-13-3.17656E-13
 -1      3270 1.99778E+01 2.23952E+00-1.93847E-03-6.35965E-02 1.14518E-13-2.24271E-13
 -1      3271 1.99473E+01 2.26256E+00-5.02576E-03-1.85569E-01 9.47153E-14-2.22506E-13
 -1      3272 2.01073E+01 1.91423E+00 3.77281E-03-5.00584E-02 1.01161E-13-2.12038E-13
 -1      3273 2.00001E+01 9.44691E-05-1.67252E-06 2.86393E-04 3.02275E-13 5.84789E-13
 -1      3274 2.80196E+01-1.97779E+00-2.60122E-02 3.31643E-01-9.45756E-14 1.12972E-13
 -1      3275 2.70680E+01-7.46760E-01-7.05771E-03 1.25941E+00-6.30954E-14 9.05716E-14
 -1      3276 2.68039E+01-2.66834E+00-2.39558E-02-5.39004E-01-6.33295E-14 7.65568E-14
 -1      3277 1.05378E+01 1.89694E+00 1.22769E-01-2.68631E+00 5.50705E-14-5.60885E-13
 -1      3278 2.03952E+01 5.71786E-01-1.15264E-03 3.49043E-01 1.33836E-13-3.66142E-14
 -1      3279 2.00634E+01 1.42432E+00-2.14129E-03-4.19211E-01-1.97093E-14-2.67414E-13
 -1      3280 2.00002E+01 1.25644E+00-7.00453E-03-2.74973E-01-1.26932E-14-2.33491E-13
 -1      3281 1.96899E+01 1.02811E+00 6.70988E-04-8.01799E-02-3.49778E-14-1.86683E-13
 -1      3282 1.94810E+01 1.02772E+00-1.19630E-02-3.82546E-02-3.41477E-14-1.76217E-13
 -1      3283 1.92820E+01 1.07271E+00 9.27578E-05-8.05508E-02-4.39246E-14-1.56574E-13
 -1      3284 1.89624E+01 1.13772E+00-1.73578E-02-1.05700E-01-2.08993E-14-1.69600E-13
 -1      3285 1.94499E+01 1.05872E+00 1.03913E-02-2.58961E-01-3.71633E-14-1.77395E-13
 -1      3286 1.86719E+01 1.24246E+00 6.81333E-04-2.39702E-01-9.29682E-15-2.05487E-13
 -1      3287 1.81863E+01 1.34919E+00-2.57491E-02-3.61387E-01-4.70080E-14-2.12037E-13
 -1      3288 1.89500E+01 1.12675E+00 1.43076E-02-4.71449E-01-4.10613E-14-1.71713E-13
 -1      3289 1.77859E+01 1.48378E+00 3.62805E-03-6.27831E-01-6.72110E-14-2.14418E-13
 -1      3290 1.70563E+01 1.58553E+00-3.61051E-02-8.97658E-01-2.60894E-14-2.13943E-13
 -1      3291 1.82426E+01 1.24485E+00 1.96115E-02-9.29689E-01-5.35965E-14-2.01751E-13
 -1      3292 1.65358E+01 1.68513E+00 1.31561E-02-1.35709E+00-6.51091E-14-2.36473E-13
 -1      3293 1.54862E+01 1.69628E+00-3.24375E-02-1.85483E+00-6.09877E-14-3.11704E-13
 -1      3294 1.72930E+01 1.29662E+00 2.84484E-02-1.74166E+00-7.45411E-14-2.55836E-13
 -1      3295 1.65998E+01 1.82821E+00-3.49090E-02 7.83871E-01-1.19627E-14 5.86319E-14
 -1      3296 1.73740E+01 1.64482E+00-3.08305E-03 5.58565E-01-1.15728E-13 1.56494E-13
 -1      3297 1.86646E+01 1.06443E+00-1.60863E-02 6.07741E-02-1.66166E-13 3.50175E-13
 -1      3298 1.89737E+01 9.03000E-01-4.09392E-03 2.35114E-02-1.80387E-13 3.23270E-13
 -1      3299 1.91913E+01 7.53704E-01-9.47790E-03-4.73240E-02-1.55706E-13 3.15956E-13
 -1      3300 1.93787E+01 6.28476E-01-3.48335E-03-5.19665E-02-1.31074E-13 2.39332E-13
 -1      3301 1.90804E+01 8.11761E-01 1.23634E-02 1.87950E-01-1.31805E-13 5.45459E-14
 -1      3302 1.95208E+01 5.18232E-01-5.37030E-03-8.45766E-02-9.94078E-14 3.05876E-13
 -1      3303 1.96319E+01 4.26888E-01-2.70678E-03-7.55661E-02 5.24127E-14 2.08779E-13
 -1      3304 1.94304E+01 5.76618E-01 8.17053E-03 5.64794E-02-9.85800E-14 2.24487E-13
 -1      3305 1.97225E+01 3.49106E-01-2.92279E-03-8.80085E-02 1.89056E-13 2.37952E-13
 -1      3306 1.97870E+01 2.85082E-01-1.97943E-03-7.50012E-02 1.56602E-13 3.58542E-13
 -1      3307 1.96547E+01 3.98591E-01 5.27156E-03-5.54380E-03 5.09600E-14 3.99288E-13
 -1      3308 1.98436E+01 2.31861E-01-1.52172E-03-7.75368E-02 2.96101E-14 3.34490E-13
 -1      3309 1.98801E+01 1.88210E-01-1.38149E-03-6.48826E-02-1.26986E-14 2.49994E-13
 -1      3310 1.97951E+01 2.70346E-01 3.32475E-03-3.06081E-02 4.75239E-14 2.68596E-13
 -1      3311 1.99147E+01 1.52490E-01-7.69618E-04-6.30258E-02 8.12304E-14 2.70175E-13
 -1      3312 1.99349E+01 1.23317E-01-9.33434E-04-5.23113E-02 6.89508E-14 2.02475E-13
 -1      3313 1.98812E+01 1.81073E-01 2.06855E-03-3.71696E-02 1.39415E-14 1.74321E-13
 -1      3314 1.99564E+01 9.87316E-02-3.47358E-04-4.86567E-02 1.07154E-13 3.74781E-13
 -1      3315 1.99674E+01 7.88418E-02-6.13162E-04-3.99083E-02 2.78566E-13 3.85053E-13
 -1      3316 1.99340E+01 1.19009E-01 1.21186E-03-3.51132E-02 1.72134E-13 2.75820E-13
 -1      3317 1.99793E+01 6.37843E-02-1.22536E-04-3.63162E-02 3.14009E-13 4.36297E-13
 -1      3318 1.99844E+01 5.14804E-02-4.00025E-04-2.99945E-02 3.39409E-13 4.34721E-13
 -1      3319 1.99647E+01 7.79342E-02 7.23232E-04-2.98032E-02 2.48827E-13 4.59184E-13
 -1      3320 1.99913E+01 4.17275E-02-1.06217E-05-2.67501E-02 8.12303E-14 2.82596E-13
 -1      3321 1.99936E+01 3.36879E-02-2.59972E-04-2.20712E-02-1.72531E-14 2.10860E-13
 -1      3322 1.99818E+01 5.14989E-02 4.11776E-04-2.39127E-02 1.21720E-13 3.64533E-13
 -1      3323 1.99974E+01 2.73780E-02 3.20028E-05-1.93709E-02-3.84710E-14 1.24740E-13
 -1      3324 1.99983E+01 2.21473E-02-1.66633E-04-1.59554E-02-1.29349E-13 2.15868E-13
 -1      3325 1.99914E+01 3.41198E-02 2.30583E-04-1.84489E-02-8.78023E-14 1.65297E-13
 -1      3326 2.00004E+01 1.80575E-02 4.58989E-05-1.38036E-02-2.26338E-14 1.59599E-13
 -1      3327 2.00005E+01 1.46448E-02-1.06384E-04-1.13324E-02 1.27996E-13 1.26580E-13
 -1      3328 1.99966E+01 2.27004E-02 1.24883E-04-1.38156E-02-1.54350E-13 8.46226E-14
 -1      3329 2.00016E+01 1.19812E-02 4.61829E-05-9.66668E-03 1.70943E-13 4.86547E-14
 -1      3330 2.00014E+01 9.74152E-03-6.76721E-05-7.89054E-03 2.51281E-13 9.23550E-14
 -1      3331 1.99992E+01 1.51808E-02 6.44270E-05-1.00793E-02 6.09484E-14-1.18742E-13
 -1      3332 2.00019E+01 7.99168E-03 4.02054E-05-6.62799E-03 9.86474E-14 1.14977E-14
 -1      3333 2.00016E+01 6.50593E-03-4.47006E-05-5.35723E-03-2.13585E-13-2.84407E-14
 -1      3334 2.00005E+01 1.02039E-02 3.13814E-05-7.16430E-03 4.04127E-14 1.11641E-13
 -1      3335 2.00018E+01 5.29308E-03 3.26793E-05-4.37255E-03-1.79217E-13 1.66373E-13
 -1      3336 2.00014E+01 4.26835E-03-2.84861E-05-3.43887E-03 5.08526E-14 3.45618E-13
 -1      3337 2.00010E+01 6.82226E-03 1.50317E-05-4.90157E-03-3.76142E-14 1.94186E-13
 -1      3338 2.00015E+01 3.50928E-03 2.61137E-05-2.76478E-03 8.78308E-14 3.07995E-13
 -1      3339 2.00012E+01 2.85010E-03-1.74145E-05-2.14146E-03 1.39344E-13 3.56410E-13
 -1      3340 2.00011E+01 4.54830E-03 3.21570E-06-3.21956E-03 1.12099E-13 4.18168E-13
 -1      3341 2.00012E+01 2.33161E-03 1.98625E-05-1.65546E-03 2.56960E-13 2.48756E-13
 -1      3342 2.00009E+01 1.87929E-03-1.11304E-05-1.22330E-03 2.25914E-13 2.31908E-13
 -1      3343 2.00010E+01 3.04972E-03-1.18622E-06-2.02800E-03 9.10936E-14 2.49821E-13
 -1      3344 2.00009E+01 1.52113E-03 1.48022E-05-8.81743E-04 2.05853E-14 3.32670E-13
 -1      3345 2.00007E+01 1.20562E-03-6.80565E-06-5.88406E-04-7.32514E-14 5.70202E-13
 -1      3346 2.00008E+01 2.01499E-03-2.84296E-06-1.17449E-03 1.71409E-13 4.12684E-13
 -1      3347 2.00006E+01 9.50605E-04 1.06219E-05-3.54330E-04 2.53841E-15 8.13147E-13
 -1      3348 2.00005E+01 7.30559E-04-1.32016E-06-1.66407E-04 4.08365E-13 7.76995E-13
 -1      3349 2.00006E+01 1.28910E-03-3.63173E-06-5.79232E-04 1.55753E-13 7.26871E-13
 -1      3350 2.00004E+01 6.11032E-04 7.46680E-06-6.21666E-05 4.21409E-13 7.70243E-13
 -1      3351 2.00003E+01 4.39128E-04 1.50866E-07 5.62703E-05 4.14955E-13 6.99455E-13
 -1      3352 2.00003E+01 5.42751E-04-6.42877E-06-4.44453E-05 1.83271E-13 4.62335E-13
 -1      3353 2.00004E+01 8.33467E-04-7.56634E-06-2.27627E-04 3.04884E-13 7.91732E-13
 -1      3354 2.57041E+01 5.14127E+00-4.32092E-02 1.21951E+00 1.24442E-13 7.96854E-14
 -1      3355 2.57727E+01 5.85553E+00-1.06336E-01 3.43355E-01 2.01464E-13-6.57963E-14
 -1      3356 2.14116E+01 4.81769E-01 8.92806E-03 1.46112E+00-1.57323E-14 1.19250E-13
 -1      3357 2.14824E+01 1.09793E-01-1.21308E-02 1.46890E+00-1.25551E-15 6.33384E-14
 -1      3358 2.15303E+01-2.03384E-01 2.22961E-03 1.37200E+00 3.48663E-14 6.78331E-14
 -1      3359 2.15587E+01-4.63861E-01-5.65045E-03 1.27412E+00 2.62151E-14 6.89958E-14
 -1      3360 2.20462E+01-7.74462E-02 1.03094E-02 1.46606E+00 7.77389E-15 9.10556E-14
 -1      3361 2.09465E+01 1.87754E+00 1.09784E-02 6.77204E-01-1.70142E-14 1.43459E-13
 -1      3362 2.10121E+01 1.60041E+00-1.16275E-02 9.79764E-01 2.06866E-16 1.28155E-13
 -1      3363 2.08425E+01 2.08796E+00 2.19849E-03-1.14862E-01 7.33819E-14 7.81357E-14
 -1      3364 2.08542E+01 2.04286E+00-1.58221E-03 2.60795E-01 3.23344E-14 8.76623E-14
 -1      3365 2.14032E+01 2.25344E+00-5.21590E-03 5.28661E-01 4.41444E-14 1.67260E-14
 -1      3366 2.09339E+01 1.79728E+00-8.58532E-03-8.93455E-01 3.74802E-14 1.00535E-13
 -1      3367 2.08854E+01 2.00425E+00 8.71751E-03-5.56522E-01 5.94396E-14 4.95795E-14
 -1      3368 2.13597E+01 2.35842E+00-4.16218E-03-3.63966E-01 6.86018E-14 7.88369E-14
 -1      3369 2.11576E+01 1.14165E+00-1.51694E-02-1.42202E+00-5.73698E-14 1.38174E-13
 -1      3370 2.10765E+01 1.50510E+00 1.22462E-02-1.21327E+00-1.29642E-14 1.25441E-13
 -1      3371 2.15254E+01 1.89193E+00-3.36831E-04-1.14760E+00-5.44145E-15 6.96078E-14
 -1      3372 2.13779E+01 3.83335E-01-1.39815E-02-1.60465E+00-8.84810E-14 1.20143E-13
 -1      3373 2.13037E+01 7.65693E-01 9.32514E-03-1.54852E+00-8.69131E-14 1.47208E-13
 -1      3374 2.17747E+01 1.07704E+00 5.82189E-03-1.58853E+00-7.76145E-14 5.27462E-14
 -1      3375 2.14793E+01-2.48343E-01-7.97350E-03-1.49110E+00-1.17256E-13 2.05287E-13
 -1      3376 2.14436E+01 4.65110E-02 3.37369E-03-1.55576E+00-9.80936E-14 1.96666E-13
 -1      3377 2.19397E+01 2.17833E-01 8.56549E-03-1.63595E+00-1.19722E-13 1.94039E-13
 -1      3378 2.14239E+01-6.39939E-01-1.21264E-03-1.21097E+00-1.33896E-13 2.58793E-13
 -1      3379 2.14366E+01-4.73387E-01-1.78698E-03-1.33922E+00-9.93285E-14 2.27025E-13
 -1      3380 2.19242E+01-4.39716E-01 8.44659E-03-1.40349E+00-7.80276E-14 2.56116E-13
 -1      3381 2.12468E+01-8.00564E-01 3.08463E-03-8.87551E-01-1.74786E-14 2.24248E-13
 -1      3382 2.12988E+01-7.46945E-01-4.46106E-03-1.03187E+00-6.49762E-14 2.12834E-13
 -1      3383 2.17319E+01-8.12140E-01 3.76805E-03-1.05211E+00-7.83545E-14 1.73915E-13
 -1      3384 2.10075E+01-7.90647E-01 5.23544E-03-5.96963E-01 5.96563E-14 1.52450E-13
 -1      3385 2.10814E+01-8.14379E-01-4.84091E-03-7.26775E-01 6.59199E-14 1.48946E-13
 -1      3386 2.14342E+01-9.30737E-01-9.36876E-04-7.06541E-01 2.68279E-14 1.31063E-13
 -1      3387 2.07610E+01-6.84820E-01 5.58833E-03-3.71343E-01 1.47330E-14 1.66013E-13
 -1      3388 2.08398E+01-7.48250E-01-3.79894E-03-4.74234E-01-8.37492E-16 1.07951E-13
 -1      3389 2.11065E+01-8.75655E-01-3.52733E-03-4.28338E-01 1.12337E-13 1.48606E-13
 -1      3390 2.05424E+01-5.42291E-01 4.91068E-03-2.12550E-01-2.94595E-14 2.55824E-13
 -1      3391 2.06142E+01-6.17749E-01-2.49443E-03-2.87346E-01 4.78230E-14 2.05591E-13
 -1      3392 2.08037E+01-7.33175E-01-4.50533E-03-2.32071E-01-3.40509E-14 2.10224E-13
 -1      3393 2.03668E+01-4.00623E-01 3.86467E-03-1.08953E-01-4.44227E-14 2.41857E-13
 -1      3394 2.04258E+01-4.71710E-01-1.40446E-03-1.59869E-01-1.47910E-14 2.56427E-13
 -1      3395 2.05535E+01-5.65317E-01-4.38003E-03-1.06839E-01-3.56116E-14 2.84659E-13
 -1      3396 2.02360E+01-2.78777E-01 2.82162E-03-4.57368E-02 1.25399E-14 2.46605E-13
 -1      3397 2.02807E+01-3.37960E-01-6.60124E-04-7.84930E-02-5.94398E-14 2.02844E-13
 -1      3398 2.03626E+01-4.08292E-01-3.68425E-03-3.37979E-02-1.97930E-14 1.40215E-13
 -1      3399 2.01442E+01-1.83172E-01 1.94316E-03-9.81965E-03 7.08315E-14 1.46869E-13
 -1      3400 2.01760E+01-2.28526E-01-2.23165E-04-2.97245E-02 1.39969E-14 2.38679E-13
 -1      3401 2.02260E+01-2.78306E-01-2.82415E-03 4.78220E-03-7.63983E-16 1.14486E-13
 -1      3402 2.00832E+01-1.13150E-01 1.26922E-03 8.73954E-03-1.71330E-14 2.28716E-13
 -1      3403 2.01045E+01-1.45734E-01-1.95976E-06-2.55796E-03 9.43855E-14 2.15847E-13
 -1      3404 2.01333E+01-1.79140E-01-2.02290E-03 2.23713E-02 6.53204E-14 2.57709E-13
 -1      3405 2.00446E+01-6.47646E-02 7.87223E-04 1.68602E-02-7.87595E-14 2.48332E-13
 -1      3406 2.00582E+01-8.68929E-02 8.86847E-05 1.10595E-02-4.76702E-14 2.24489E-13
 -1      3407 2.00735E+01-1.08133E-01-1.36969E-03 2.81207E-02-5.19918E-14 1.80987E-13
 -1      3408 2.00215E+01-3.31158E-02 4.61019E-04 1.90652E-02 1.65487E-13 1.78968E-14
 -1      3409 2.00298E+01-4.73399E-02 1.10834E-04 1.66118E-02 8.13594E-14 2.14287E-13
 -1      3410 2.00369E+01-6.00304E-02-8.81260E-04 2.77587E-02 7.94606E-14 1.40864E-13
 -1      3411 2.00086E+01-1.35892E-02 2.50633E-04 1.81678E-02 6.38261E-14-2.15297E-14
 -1      3412 2.00132E+01-2.21927E-02 1.02631E-04 1.76401E-02 1.26022E-13-2.30285E-14
 -1      3413 2.00158E+01-2.91606E-02-5.38724E-04 2.46282E-02 1.41188E-13 6.92406E-14
 -1      3414 2.00018E+01-2.37255E-03 1.21260E-04 1.58446E-02 5.75028E-14-1.31262E-13
 -1      3415 2.00043E+01-7.18560E-03 8.44701E-05 1.63373E-02 7.04386E-14-1.15496E-13
 -1      3416 2.00044E+01-1.05065E-02-3.11100E-04 2.05557E-02 1.52738E-13 7.10449E-14
 -1      3417 1.99988E+01 3.43494E-03 4.59501E-05 1.30507E-02 1.46803E-13-4.42853E-14
 -1      3418 2.00000E+01 1.04923E-03 6.57636E-05 1.40086E-02 4.46951E-14-1.65256E-13
 -1      3419 1.99989E+01-7.49021E-05-1.67219E-04 1.64682E-02 9.13398E-14-1.21151E-13
 -1      3420 1.99977E+01 5.90959E-03 5.17406E-06 1.02976E-02 1.84310E-13-3.86768E-14
 -1      3421 1.99982E+01 4.99218E-03 4.99821E-05 1.13959E-02 2.23839E-13-4.94193E-14
 -1      3422 1.99968E+01 5.09533E-03-8.08410E-05 1.27873E-02 1.24807E-13 1.30703E-13
 -1      3423 1.99977E+01 6.46315E-03-1.44957E-05 7.83297E-03 5.76480E-14 2.02001E-14
 -1      3424 1.99978E+01 6.37179E-03 3.77545E-05 8.89411E-03 1.09408E-13-1.50896E-14
 -1      3425 1.99964E+01 7.08249E-03-3.19957E-05 9.66427E-03 7.74954E-14 1.58546E-13
 -1      3426 1.99981E+01 6.01003E-03-2.19242E-05 5.75241E-03 1.89660E-13 2.27106E-14
 -1      3427 1.99980E+01 6.33502E-03 2.86092E-05 6.68983E-03 1.13193E-13-2.61445E-14
 -1      3428 1.99968E+01 7.27691E-03-6.47219E-06 7.11438E-03 7.10109E-14-4.16654E-14
 -1      3429 1.99986E+01 5.11243E-03-2.27428E-05 4.06767E-03 1.46050E-13-2.13087E-13
 -1      3430 1.99985E+01 5.60619E-03 2.18253E-05 4.84916E-03 2.22296E-13-9.32600E-14
 -1      3431 1.99976E+01 6.56555E-03 5.26110E-06 5.09003E-03 2.22715E-13-8.18951E-14
 -1      3432 1.99990E+01 4.09473E-03-2.03747E-05 2.74813E-03-2.65193E-13-2.32781E-13
 -1      3433 1.99989E+01 4.61761E-03 1.67467E-05 3.37199E-03-9.33306E-14-3.16754E-13
 -1      3434 1.99983E+01 5.48515E-03 9.38825E-06 3.51950E-03 1.39087E-13-4.65531E-14
 -1      3435 1.99994E+01 3.12780E-03-1.68011E-05 1.74484E-03-2.07229E-13-1.15185E-13
 -1      3436 1.99993E+01 3.60892E-03 1.28678E-05 2.22497E-03-3.77680E-13-3.40952E-13
 -1      3437 1.99988E+01 4.33915E-03 9.64424E-06 2.32662E-03-2.77509E-13-8.07358E-14
 -1      3438 1.99996E+01 2.28753E-03-1.29902E-05 1.00408E-03 7.35982E-14-1.24309E-13
 -1      3439 1.99996E+01 2.69810E-03 9.89600E-06 1.36089E-03-1.88299E-14-9.73328E-14
 -1      3440 1.99993E+01 3.28228E-03 8.17944E-06 1.43992E-03-1.98395E-13-2.52723E-13
 -1      3441 1.99998E+01 1.59791E-03-3.23934E-06 4.73630E-04-9.03720E-14-1.47353E-13
 -1      3442 1.99998E+01 1.92767E-03 7.38745E-06 7.31061E-04 8.62790E-15-2.07799E-13
 -1      3443 1.99996E+01 2.37674E-03 5.33215E-06 7.97173E-04 4.40928E-14-1.55757E-13
 -1      3444 2.00003E+01 6.84498E-04 9.66230E-07-1.16596E-04 1.50287E-13-1.25407E-13
 -1      3445 2.00002E+01 7.69051E-04-6.18009E-06-1.75141E-04 1.17163E-13-1.55137E-13
 -1      3446 2.00004E+01 8.43856E-04 6.55711E-06-1.94842E-04 2.00257E-13 2.09078E-13
 -1      3447 2.68836E+01-2.19398E+00-9.96969E-02-8.25750E-02-1.91262E-13-2.99170E-13
 -1      3448 2.60583E+01-2.97059E+00 1.88567E-02 1.33809E+00-3.34770E-13-2.11229E-13
 -1      3449 1.45613E+01 2.18137E+00-1.08378E-03 1.59774E+00-1.34465E-13-4.91968E-15
 -1      3450 1.57956E+01 2.02549E+00 2.35476E-03 1.23385E+00-1.35808E-13 2.10647E-14
 -1      3451 2.00002E+01 8.88748E-04-1.40455E-07-2.09411E-04 4.84398E-14-4.51141E-14
 -1      3452 2.00001E+01 9.60259E-04-5.42730E-06-2.40104E-04 1.71260E-13-2.63412E-13
 -1      3453 2.00002E+01 1.09417E-03 6.65769E-06-2.87387E-04 1.27559E-13-6.82396E-14
 -1      3454 2.04390E+01 5.39489E-01-3.67445E-03 2.60134E-01 1.26423E-13-9.14387E-14
 -1      3455 2.04239E+01 7.76077E-01 2.96338E-03 3.69157E-01 1.41575E-13-7.29593E-14
 -1      3456 2.11809E+01 1.25957E+00 1.33912E-02 1.24224E+00-1.17047E-14 1.02646E-13
 -1      3457 2.12692E+01 8.65592E-01-1.50270E-02 1.39972E+00-2.37707E-14 8.01315E-14
 -1      3458 2.19033E+01 7.55616E-01 9.16566E-03 1.53243E+00-2.43711E-14 1.08476E-13
 -1      3459 2.16360E+01 1.63640E+00 2.40664E-03 1.22364E+00-4.39751E-14 1.00043E-13
 -1      3460 2.41400E+01-3.47459E+00 5.51553E-02-3.49402E+00-2.38817E-13-3.84358E-14
 -1      3461 2.55601E+01-3.49077E+00-5.70497E-02-2.08031E+00-1.41549E-13 4.35164E-14
 -1      3462 2.11558E+01-8.39239E-01-4.69064E-03 4.74295E-01-5.83929E-14 6.66429E-14
 -1      3463 2.10933E+01-7.76650E-01 6.47286E-03 3.55830E-01-2.23390E-14 6.39085E-14
 -1      3464 2.61866E+01 6.16868E+00-6.92770E-02-5.05692E-01 2.37338E-13-1.65563E-13
 -1      3465 2.66592E+01 5.67550E+00-8.84072E-02-1.34845E+00 1.97897E-13-2.72431E-13
 -1      3466 1.99267E+01 2.28673E+00-1.65512E-03-2.81050E-01 9.07226E-14-2.25058E-13
 -1      3467 1.99127E+01 2.27127E+00-5.96603E-03-3.88165E-01 6.20593E-14-2.20422E-13
 -1      3468 1.99977E+01 1.99360E+00 4.46477E-03-3.98609E-01 4.77092E-14-2.04567E-13
 -1      3469 2.05210E+01 1.40356E-01-3.21803E-03 1.25118E-01 1.09586E-13-6.97498E-14
 -1      3470 2.05058E+01 3.31514E-01 5.45859E-03 1.83955E-01 1.09525E-13-1.00334E-13
 -1      3471 2.05121E+01 5.05791E-01-1.58216E-03 1.88192E-01 1.34051E-13-8.32268E-14
 -1      3472 1.94722E+01-1.83772E+00-1.54063E-02 4.98153E+00-2.46214E-13-1.01280E-13
 -1      3473 1.69662E+01-4.01555E-01 6.30308E-02 4.90534E+00-2.91926E-13-1.50435E-13
 -1      3474 2.00694E+01 1.78784E+00-3.04217E-03-6.37837E-01-3.90732E-14-2.93633E-13
 -1      3475 1.78428E+01 1.44011E+00-2.56853E-02 3.04446E-01-2.67728E-13 2.79831E-13
 -1      3476 1.83407E+01 1.25272E+00-3.98104E-03 1.99886E-01-1.51102E-13 4.30150E-13
 -1      3477 1.77613E+01 1.40178E+00 2.67692E-02 9.09017E-01-1.00481E-13 3.36080E-13
 -1      3478 2.12914E+01-2.68437E+00 7.76215E-02-4.80859E+00-2.49314E-13-1.78587E-13
 -1      3479 2.28375E+01-3.45407E+00-5.38348E-02-4.29034E+00-2.46953E-13-7.64501E-14
 -1      3480 2.36188E+01-3.04619E+00 3.07532E-02-3.07626E+00-1.89442E-13-6.61962E-14
 -1      3481 2.69759E+01 7.94572E-01-9.07004E-02-1.87360E+00-2.27353E-14-2.93899E-13
 -1      3482 2.72664E+01-6.33364E-01 2.90046E-02-1.21067E+00-9.80813E-14-2.76317E-13
 -1      3483 1.99462E+01 1.13624E+00 1.59700E-03-2.02634E-01-2.05012E-14-2.14958E-13
 -1      3484 1.98120E+01 1.05910E+00-8.77284E-03-1.05842E-01-1.83212E-14-1.96935E-13
 -1      3485 1.99707E+01 1.28492E+00 9.86729E-04-3.08535E-01 1.94013E-15-2.27906E-13
 -1      3486 2.03823E+01 9.44068E-01-1.15991E-03 4.20342E-01 1.44451E-13-8.43380E-14
 -1      3487 2.03554E+01 1.14661E+00-2.41021E-03 4.96964E-01 1.47486E-13-8.74042E-14
 -1      3488 2.03403E+01 1.28495E+00 1.13513E-03 4.29585E-01 1.46420E-13-1.37446E-13
 -1      3489 2.04238E+01 9.16446E-01 5.87699E-04 3.23955E-01 1.32032E-13-9.91413E-14
 -1      3490 1.33850E+01 1.30155E+00 3.32511E-02-3.56234E+00-7.07871E-14-4.97581E-13
 -1      3491 1.47944E+01 2.21051E-01 1.04766E-02-4.72711E+00-1.48534E-13-4.68264E-13
 -1      3492 1.66191E+01-6.73290E-01 8.96359E-02-5.22409E+00-1.72369E-13-3.19956E-13
 -1      3493 1.86468E+01-1.92113E+00-4.52178E-02-5.41295E+00-2.21611E-13-2.43451E-13
 -1      3494 1.65547E+01 9.19980E-03 7.33262E-02-4.37350E+00-1.32956E-13-3.44575E-13
 -1      3495 2.00747E+01 1.62223E+00 3.43587E-03-5.02200E-01-2.97302E-14-2.78079E-13
 -1      3496 2.00296E+01 1.63477E+00 4.27017E-03-4.61897E-01-7.62953E-16-2.46311E-13
 -1      3497 1.59014E+01 1.12142E+00 3.45732E-02-3.00192E+00-1.29005E-13-3.44315E-13
 -1      3498 1.46696E+01 1.69330E+00 4.70911E-02-2.49868E+00-3.10463E-14-4.06480E-13
 -1      3499 1.25219E+01 2.48500E+00 2.95540E-02 1.75868E+00-1.82437E-13 3.41394E-15
 -1      3500 1.85478E+01 1.09853E+00 1.82173E-02 4.43243E-01-1.85072E-13 2.99049E-13
 -1      3501 2.52281E+01-2.53303E+00 1.61861E-02 8.24895E-01-3.05971E-13-2.97635E-13
 -1      3502 2.51492E+01-3.19213E+00-3.56224E-03 1.97056E+00-3.95037E-13-1.29865E-13
 -1      3503 2.38715E+01-2.92336E+00-1.46618E-02 2.42615E+00-3.09385E-13-1.09392E-13
 -1      3504 2.50934E+01 5.28234E+00-5.41922E-02-1.33365E-01 1.60691E-13-8.00896E-14
 -1      3505 2.63281E+01-1.30161E+00-6.20769E-03-7.70569E-01-1.33373E-13-2.41031E-13
 -1      3506 2.48660E+01-2.87326E+00-3.29779E-03-1.40354E+00-1.06112E-13-5.02593E-15
 -1      3507 2.60495E+01-2.93939E+00 2.33506E-02-9.82418E-01-6.81781E-14 6.90524E-14
 -1      3508 2.57941E+01-2.17440E+00-2.27458E-02 9.94048E-02-6.76729E-14 7.43476E-14
 -1      3509 1.99999E+01 9.58544E-04-6.15643E-07-1.28904E-05-2.06226E-13-5.33308E-14
 -1      3510 1.99999E+01 1.12249E-03 6.88733E-06 7.97349E-05-1.74260E-13-1.60638E-13
 -1      3511 1.99999E+01 1.03053E-03-5.07650E-06-3.68309E-05-1.95333E-13 5.73637E-15
 -1      3512 2.09467E+01-6.94357E-01-3.87850E-03 2.52675E-01 3.59085E-15 9.42747E-14
 -1      3513 2.08876E+01-5.85544E-01 6.94036E-03 1.73832E-01 2.39741E-14 6.62149E-14
 -1      3514 2.12267E+01-8.26732E-01-4.66735E-03 2.13100E-01 1.96140E-15 8.56141E-14
 -1      3515 2.62124E+01-8.99988E-01-2.32430E-02 1.19053E+00-8.09196E-14 8.07410E-14
 -1      3516 2.65839E+01 9.02081E-02-4.47598E-02 1.74126E+00-6.03788E-14 1.08959E-13
 -1      3517 2.58014E+01 1.13375E+00-3.48232E-03 1.99748E+00-4.39995E-14 8.85628E-14
 -1      3518 2.20000E+01-6.61365E-01 6.53386E-03 1.16538E+00 1.54447E-14 5.50731E-14
 -1      3519 2.15021E+01-6.52971E-01-2.49251E-03 1.09952E+00-2.50014E-15 5.57707E-14
 -1      3520 2.14852E+01-7.80316E-01 6.11354E-04 9.54840E-01-5.01339E-14 1.03647E-13
 -1      3521 2.00093E+01 1.68414E+00-5.03570E-03-4.61944E-01-1.19262E-14-2.29962E-13
 -1      3522 2.00293E+01 1.51225E+00 5.37975E-03-4.02663E-01 1.55220E-15-2.36792E-13
 -1      3523 2.00074E+01 1.76049E+00 1.56469E-03-4.36706E-01 9.34933E-15-1.95034E-13
 -1      3524 1.99998E+01 1.44544E-03-9.47924E-07 3.12323E-04-9.45299E-14-1.93719E-13
 -1      3525 2.05849E+01-3.74475E-01-3.45092E-03 1.69918E-01 5.36070E-14 3.50551E-14
 -1      3526 2.00390E+01 1.98997E+00 4.42230E-03-2.45697E-01 8.79807E-14-2.19912E-13
 -1      3527 2.13585E+01-8.48715E-01-4.64296E-03 7.70808E-01-6.55514E-14 6.02235E-14
 -1      3528 2.13092E+01-8.62674E-01 4.67510E-03 6.25402E-01-6.04734E-14 6.85019E-14
 -1      3529 2.15163E+01-9.70525E-01-2.41498E-03 4.57473E-01-6.01428E-14 6.28679E-14
 -1      3530 2.17984E+01-9.42358E-01 2.04158E-03 7.92363E-01-5.65753E-14 2.40022E-14
 -1      3531 1.99999E+01 1.16223E-03-2.49494E-06-1.60534E-04 4.69946E-14-2.26968E-13
 -1      3532 1.99999E+01 1.16150E-03-3.54190E-06-1.38224E-04-1.35945E-13-3.32035E-14
 -1      3533 1.65320E+01 1.65204E+00 4.21546E-02 1.73101E+00-3.85976E-14-2.31197E-14
 -1      3534 2.00001E+01 1.29006E-03 6.33889E-06-3.01994E-04 1.24352E-13-6.71104E-14
 -1      3535 2.00001E+01 1.04471E-03-1.23195E-06-2.36418E-04 8.61153E-14-8.19183E-15
 -1      3536 2.00000E+01 1.09092E-03-4.75698E-06-2.40065E-04 1.80198E-13 1.91618E-13
 -1      3537 1.74305E+01 4.90371E-02 5.58204E-02 3.95002E+00-2.20352E-13-1.50068E-13
 -1      3538 1.55991E+01 4.82892E-01 2.14264E-02 4.32426E+00-2.06564E-13-1.61454E-13
 -1      3539 2.48862E+01 2.78220E+00-9.72520E-03 1.84902E+00 3.79627E-14 1.21786E-14
 -1      3540 2.53063E+01 3.96656E+00-7.09432E-02 1.69929E+00 8.65662E-14 2.40172E-14
 -1      3541 2.43749E+01 4.16652E+00-1.81612E-02 1.19510E+00 9.68808E-14 1.38257E-14
 -1      3542 2.61705E+01 2.31476E+00-4.77218E-02-2.12070E+00 1.25164E-13-3.31358E-13
 -1      3543 2.67188E+01 1.54006E+00-3.42898E-02-2.09580E+00 6.71199E-14-3.53953E-13
 -1      3544 2.59790E+01 6.02354E-01-2.35716E-02-1.81894E+00 5.98913E-15-3.42536E-13
 -1      3545 2.06241E+01-1.88798E-01-2.85289E-03 7.82813E-02 8.67701E-14-1.73170E-14
 -1      3546 2.05955E+01-2.79194E-02 6.18854E-03 8.92829E-02 9.62707E-14-3.82155E-14
 -1      3547 2.06289E+01 8.37843E-02-3.44851E-03 6.57869E-02 9.35933E-14-6.11244E-14
 -1      3548 2.20818E+01-2.39550E+00-3.32716E-04 3.44649E+00-2.59241E-13-1.71502E-13
 -1      3549 2.09953E+01-2.21101E+00 4.80659E-02 4.39008E+00-1.83722E-13-1.87580E-13
 -1      3550 1.97648E+01-1.39171E+00-2.16649E-02 4.01821E+00-1.89857E-13-1.36627E-13
 -1      3551 2.61581E+01 4.50185E+00-5.78689E-02-1.64839E+00 2.02435E-13-2.93387E-13
 -1      3552 2.02610E+01 1.59528E+00 3.23548E-03 3.81177E-01 1.50391E-13-1.42287E-13
 -1      3553 1.46427E+01 8.66450E-01 1.64494E-02 4.09006E+00-1.27531E-13-1.37265E-13
 -1      3554 1.30649E+01 1.91364E+00 8.62155E-02 3.01557E+00-1.86909E-13-3.40214E-14
 -1      3555 1.52427E+01 1.27084E+00-4.65257E-03 3.21008E+00-1.86077E-13-1.78545E-13
 -1      3556 2.02066E+01 1.60256E+00-1.02190E-03-5.13604E-02 1.01211E-13-1.73742E-13
 -1      3557 2.01601E+01 1.65253E+00-4.02142E-03-1.51970E-01 8.18586E-14-2.21983E-13
 -1      3558 2.02897E+01 1.44927E+00-2.10055E-03 1.48667E-01 1.30700E-13-1.73784E-13
 -1      3559 2.02498E+01 1.52848E+00-2.36439E-03 4.39726E-02 1.17703E-13-1.74163E-13
 -1      3560 2.03197E+01 1.30106E+00 2.96713E-03-6.56539E-02 9.25546E-14-1.68728E-13
 -1      3561 2.03917E+01-1.98559E+00 4.03247E-02-4.47481E+00-1.87860E-13-1.61837E-13
 -1      3562 1.97814E+01 1.10705E+00 8.63764E-03-2.19244E-01-1.45709E-14-2.02630E-13
 -1      3563 2.00000E+01 1.13871E-03-1.93265E-06-2.14828E-04 2.73274E-13 2.95223E-14
 -1      3564 1.99999E+01 1.15087E-03-3.93780E-06-1.97868E-04 1.13600E-13-2.67864E-13
 -1      3565 1.99999E+01 1.46330E-03 7.12536E-06-1.77079E-04 1.44540E-13-1.31755E-13
 -1      3566 2.00000E+01 1.41097E-03 6.66220E-06-2.54723E-04 2.26580E-13-3.38827E-14
 -1      3567 1.40663E+01 2.18636E+00 3.30148E-02 1.87655E+00-9.68258E-14 1.29619E-14
 -1      3568 1.51590E+01 1.69985E+00 5.79793E-02 2.63122E+00-1.59775E-13-1.43420E-13
 -1      3569 1.32721E+01 2.07586E+00 3.68415E-02-2.27813E+00 1.07908E-14-4.41723E-13
 -1      3570 1.89927E+01 7.28497E-01-1.36962E-02 4.06787E-01-2.59837E-13 8.88956E-14
 -1      3571 1.92282E+01 6.35553E-01 1.43638E-03 3.01541E-01-1.20238E-13 6.37637E-14
 -1      3572 1.92855E+01 9.38405E-01 6.92356E-03-5.94457E-01-5.07583E-14-1.49405E-13
 -1      3573 1.89577E+01 9.28865E-01-1.92452E-02-7.69098E-01-5.82605E-14-1.51204E-13
 -1      3574 1.87928E+01 9.38475E-01 1.21907E-02-1.03764E+00-6.60398E-14-1.69881E-13
 -1      3575 1.83416E+01 9.08870E-01-2.49200E-02-1.36280E+00-4.41134E-14-1.63155E-13
 -1      3576 1.91885E+01 7.14757E-01 5.51562E-03-1.14437E+00-7.12061E-14-1.38764E-13
 -1      3577 1.81828E+01 8.70478E-01 2.05732E-02-1.78867E+00-7.65429E-14-1.93314E-13
 -1      3578 1.76068E+01 7.41649E-01-2.65167E-02-2.32392E+00-1.33210E-13-2.25063E-13
 -1      3579 1.87983E+01 5.12132E-01 3.35031E-03-1.87061E+00-8.73468E-14-1.58990E-13
 -1      3580 2.25839E+01-3.34967E-02 3.25377E-03 1.52266E+00-2.11452E-14 7.90832E-14
 -1      3581 2.25940E+01-4.58731E-01-1.04826E-02 1.39845E+00-2.31815E-14 6.20847E-14
 -1      3582 1.74852E+01 6.29094E-01 3.62791E-02-2.85072E+00-1.51133E-13-2.33470E-13
 -1      3583 1.66325E+01 3.87985E-01 2.28697E-03-3.64461E+00-1.41170E-13-3.06045E-13
 -1      3584 1.80529E+01-5.98389E-01-3.25018E-02-4.14360E+00-1.80214E-13-2.12308E-13
 -1      3585 1.84078E+01 1.21830E-01-5.42527E-03-2.86881E+00-1.57558E-13-1.91973E-13
 -1      3586 1.93533E+01 5.40542E-01-8.81714E-03 1.95906E-01-1.99119E-15 6.41376E-14
 -1      3587 1.95057E+01 4.61680E-01 1.61189E-04 1.41441E-01-1.16892E-14 2.30353E-13
 -1      3588 1.93584E+01 5.19254E-01 6.49709E-03 3.86048E-01-7.39367E-14 5.27898E-16
 -1      3589 1.95942E+01 3.86828E-01-5.47077E-03 8.10210E-02 3.64294E-14 2.35127E-13
 -1      3590 1.96903E+01 3.25599E-01-3.52572E-04 5.50169E-02 8.52320E-14 2.40283E-13
 -1      3591 1.95791E+01 3.89941E-01 4.76511E-03 2.02586E-01 2.82096E-14-8.35336E-14
 -1      3592 1.97506E+01 2.70130E-01-3.29945E-03 2.18391E-02 2.09736E-14 2.98420E-13
 -1      3593 1.98100E+01 2.25099E-01-4.87313E-04 1.10721E-02 5.51619E-15 2.56804E-13
 -1      3594 1.97303E+01 2.82458E-01 3.33709E-03 9.75756E-02 1.07366E-13 1.10812E-13
 -1      3595 1.98499E+01 1.85484E-01-1.96672E-03-6.16902E-03 1.25317E-14 3.63328E-13
 -1      3596 1.98859E+01 1.53593E-01-4.26445E-04-9.21723E-03 1.53477E-13 4.36428E-13
 -1      3597 1.98307E+01 1.99817E-01 2.25893E-03 3.98879E-02 8.96215E-14 3.54057E-13
 -1      3598 1.99127E+01 1.24931E-01-1.12275E-03-1.77037E-02 2.20749E-13 2.39917E-13
 -1      3599 1.99347E+01 1.01991E-01-3.49311E-04-1.70735E-02 1.74364E-13 2.81604E-13
 -1      3600 1.98969E+01 1.37704E-01 1.38865E-03 9.50523E-03 1.28072E-13 2.90580E-13
 -1      3601 1.99506E+01 8.35621E-02-6.13954E-04-2.02069E-02 1.89366E-13 3.48141E-13
 -1      3602 1.99626E+01 6.87874E-02-2.88113E-04-1.81521E-02 2.79178E-13 2.87697E-13
 -1      3603 1.99386E+01 9.42453E-02 9.26629E-04-4.86041E-03 2.42494E-13 6.03628E-14
 -1      3604 1.99725E+01 5.64405E-02-3.10753E-04-1.88322E-02 1.05398E-13 2.79524E-13
 -1      3605 1.99793E+01 4.64040E-02-2.14845E-04-1.64338E-02 2.50034E-15 1.36962E-13
 -1      3606 1.99638E+01 6.46922E-02 5.70730E-04-1.02814E-02 1.59771E-13 1.20063E-13
 -1      3607 1.99854E+01 3.81459E-02-1.51058E-04-1.59493E-02-7.34212E-14 9.82492E-14
 -1      3608 1.99890E+01 3.13894E-02-1.53490E-04-1.36882E-02-1.85693E-13-4.29714E-15
 -1      3609 1.99791E+01 4.43948E-02 3.48176E-04-1.13954E-02-1.00242E-13 4.16081E-14
 -1      3610 1.99927E+01 2.58689E-02-6.38253E-05-1.27406E-02-2.71892E-13 1.99915E-13
 -1      3611 1.99946E+01 2.13189E-02-1.08103E-04-1.08008E-02-1.86352E-13 1.57038E-13
 -1      3612 1.99884E+01 3.05162E-02 2.08858E-04-1.04762E-02-2.21829E-13 1.06410E-13
 -1      3613 1.99968E+01 1.76188E-02-1.83579E-05-9.75503E-03-7.94118E-14 6.30966E-14
 -1      3614 1.99977E+01 1.45430E-02-7.52017E-05-8.17836E-03 1.26290E-13 7.59597E-14
 -1      3615 1.99939E+01 2.10366E-02 1.23056E-04-8.75983E-03-1.26473E-13 3.64556E-13
 -1      3616 1.99990E+01 1.20450E-02 2.52785E-06-7.20798E-03 1.61089E-13 4.66341E-15
 -1      3617 1.99994E+01 9.95021E-03-5.31364E-05-5.97010E-03-1.97422E-14 1.41683E-14
 -1      3618 1.99970E+01 1.45455E-02 7.18448E-05-6.88589E-03 7.35633E-14 1.06484E-13
 -1      3619 2.00001E+01 8.17619E-03 1.15766E-05-5.10399E-03 7.56679E-14 2.99506E-14
 -1      3620 2.00002E+01 6.69019E-03-3.64884E-05-4.12441E-03 2.01127E-13 2.65060E-13
 -1      3621 1.99989E+01 9.98507E-03 4.10122E-05-5.12069E-03 1.25189E-13 1.11016E-13
 -1      3622 2.00006E+01 5.54948E-03 1.47915E-05-3.47253E-03 8.04605E-14 3.01271E-13
 -1      3623 2.00006E+01 4.57315E-03-2.46549E-05-2.77803E-03 8.20627E-14 2.79012E-13
 -1      3624 1.99998E+01 6.83857E-03 2.15176E-05-3.63444E-03 2.72073E-13 1.26686E-13
 -1      3625 2.00008E+01 3.78113E-03 1.43173E-05-2.27430E-03 9.97231E-14 3.46136E-13
 -1      3626 2.00007E+01 3.09726E-03-1.69940E-05-1.76782E-03 1.99905E-13 3.87497E-13
 -1      3627 2.00003E+01 4.70439E-03 1.08813E-05-2.48228E-03 4.95683E-14 3.31208E-13
 -1      3628 2.00007E+01 2.54257E-03 1.22655E-05-1.39304E-03 1.33127E-13 3.75262E-13
 -1      3629 2.00006E+01 2.05928E-03-1.12843E-05-1.03225E-03 1.40333E-13 3.94797E-13
 -1      3630 2.00005E+01 3.19995E-03 5.18813E-06-1.60003E-03 1.51822E-13 4.08717E-13
 -1      3631 2.00006E+01 1.66359E-03 9.84913E-06-7.61585E-04 7.83415E-14 4.77894E-13
 -1      3632 2.00005E+01 1.32491E-03-4.04153E-06-5.16475E-04 3.08939E-13 6.05895E-13
 -1      3633 2.00005E+01 2.12768E-03 1.01354E-06-9.48968E-04 1.19501E-13 2.33637E-13
 -1      3634 2.00005E+01 1.16796E-03 7.22940E-06-4.01304E-04 1.79178E-13 3.74304E-13
 -1      3635 2.00004E+01 9.91622E-04 5.74792E-07-2.83190E-04 1.43080E-13 2.00572E-13
 -1      3636 2.00003E+01 1.11888E-03-7.97048E-06-3.41107E-04 1.17754E-13-2.52357E-16
 -1      3637 2.00004E+01 1.48323E-03-6.67872E-06-5.56098E-04 5.47990E-14 1.83027E-13
 -1      3638 2.19163E+01 2.75268E+00-6.67028E-03-6.18428E-01 7.04859E-14 5.22991E-14
 -1      3639 2.18883E+01 2.89163E+00 2.98321E-03-1.80363E-01 7.52627E-14 2.75543E-14
 -1      3640 2.19093E+01 2.82882E+00 3.17985E-03 4.00030E-01 6.04490E-14 1.50291E-14
 -1      3641 2.19715E+01 2.55834E+00-1.63238E-02 8.18951E-01 6.72273E-14 1.63375E-14
 -1      3642 2.24834E+01 3.28501E+00-6.13539E-04 1.32549E-01 6.39929E-14 3.26876E-14
 -1      3643 2.23926E+01 8.58751E-01-2.17618E-02-1.73906E+00-7.29884E-14-9.68951E-16
 -1      3644 2.23071E+01 1.43058E+00 1.07965E-02-1.63519E+00-3.73317E-14-6.52755E-14
 -1      3645 2.24936E+01-1.36131E-01-1.25876E-02-1.61505E+00-1.70176E-13 4.33273E-14
 -1      3646 2.24676E+01 3.33933E-01 2.96390E-03-1.68630E+00-1.30813E-13-3.24291E-14
 -1      3647 2.30481E+01 6.19069E-01 4.97431E-03-1.78945E+00-5.93145E-14-3.43818E-13
 -1      3648 2.23506E+01-7.82698E-01-2.98783E-03-1.22276E+00-6.35236E-14 4.86194E-14
 -1      3649 2.24153E+01-5.10364E-01-1.96498E-03-1.39292E+00-1.22988E-13 5.59832E-14
 -1      3650 2.29951E+01-4.70156E-01 6.53501E-03-1.45596E+00-1.33965E-13-3.07082E-13
 -1      3651 2.20249E+01-1.05738E+00 5.13939E-03-8.02618E-01-2.43844E-14-4.54378E-15
 -1      3652 2.21434E+01-9.58490E-01-5.46420E-03-9.86586E-01-1.44193E-14 2.33804E-14
 -1      3653 2.26559E+01-1.01507E+00 6.88539E-03-9.77008E-01-1.99576E-14-1.01045E-13
 -1      3654 2.16064E+01-1.06456E+00 8.16013E-03-4.47222E-01 2.89676E-14 1.50986E-14
 -1      3655 2.17535E+01-1.09013E+00-6.98119E-03-5.99701E-01 4.97933E-15 5.84602E-16
 -1      3656 2.21644E+01-1.22886E+00-3.12700E-03-5.23390E-01 1.24060E-14-1.24419E-14
 -1      3657 2.11926E+01-9.24565E-01 8.23857E-03-2.01287E-01 3.22056E-14 1.66887E-13
 -1      3658 2.13422E+01-1.01018E+00-4.45476E-03-3.10451E-01 4.32169E-14 1.09784E-13
 -1      3659 2.16373E+01-1.15971E+00-6.60605E-03-1.97394E-01-4.47317E-15 6.27706E-14
 -1      3660 2.08363E+01-7.29799E-01 6.78501E-03-5.32010E-02-1.07514E-13 2.86281E-13
 -1      3661 2.09687E+01-8.32863E-01-2.14203E-03-1.22787E-01-2.88148E-14 2.69653E-13
 -1      3662 2.11667E+01-9.63730E-01-7.61312E-03-2.31074E-03-9.08686E-14 3.11740E-13
 -1      3663 2.05572E+01-5.36656E-01 4.99167E-03 2.36841E-02-4.13650E-14 3.14337E-13
 -1      3664 2.06638E+01-6.32989E-01-5.04322E-04-1.63143E-02-6.46144E-14 2.84372E-13
 -1      3665 2.07887E+01-7.34268E-01-6.99055E-03 9.25023E-02-8.08166E-14 3.20895E-13
 -1      3666 2.03535E+01-3.71988E-01 3.40749E-03 5.59110E-02 7.47221E-15 2.33618E-13
 -1      3667 2.04333E+01-4.51319E-01 4.14067E-04 3.54024E-02-9.00733E-15 3.01770E-13
 -1      3668 2.05077E+01-5.23897E-01-5.71773E-03 1.23791E-01 1.19386E-14 3.05505E-13
 -1      3669 2.02129E+01-2.43805E-01 2.20575E-03 6.32924E-02 4.42905E-14 2.42796E-13
 -1      3670 2.02693E+01-3.04036E-01 7.93347E-04 5.45186E-02 3.24583E-17 2.71207E-13
 -1      3671 2.03110E+01-3.52985E-01-4.24137E-03 1.21074E-01 3.36948E-14 2.01912E-13
 -1      3672 2.01206E+01-1.50507E-01 1.34989E-03 5.86155E-02 1.29839E-14 3.32270E-13
 -1      3673 2.01584E+01-1.93470E-01 8.44207E-04 5.63002E-02 5.41877E-14 3.41796E-13
 -1      3674 2.01801E+01-2.24818E-01-2.96596E-03 1.03545E-01 8.85243E-15 2.61466E-13
 -1      3675 2.00630E+01-8.62991E-02 7.79765E-04 4.93232E-02-9.74677E-14 2.80773E-13
 -1      3676 2.00870E+01-1.15336E-01 7.34578E-04 5.01966E-02-2.94957E-14 2.76417E-13
 -1      3677 2.00970E+01-1.34323E-01-1.97145E-03 8.20746E-02-1.85890E-14 3.88332E-13
 -1      3678 2.00289E+01-4.43557E-02 4.20119E-04 3.92861E-02 1.48696E-13 2.64214E-13
 -1      3679 2.00434E+01-6.29836E-02 5.71931E-04 4.14862E-02 4.19413E-14 2.44334E-13
 -1      3680 2.00469E+01-7.37266E-02-1.25321E-03 6.20233E-02 3.78278E-14 3.78664E-13
 -1      3681 2.00099E+01-1.84307E-02 2.03931E-04 3.02257E-02 9.20885E-14 2.69720E-13
 -1      3682 2.00181E+01-2.97103E-02 4.14312E-04 3.27741E-02 1.46715E-13 2.91400E-13
 -1      3683 2.00183E+01-3.51813E-02-7.59690E-04 4.54211E-02 8.57175E-14 3.56413E-13
 -1      3684 2.00003E+01-3.45541E-03 8.01479E-05 2.27124E-02 2.02814E-13 3.20210E-13
 -1      3685 2.00046E+01-9.79549E-03 2.84808E-04 2.51427E-02 1.45322E-13 2.67857E-13
 -1      3686 2.00032E+01-1.20439E-02-4.36403E-04 3.25683E-02 8.47961E-14 2.54163E-13
 -1      3687 1.99961E+01 4.38638E-03 1.36786E-05 1.67681E-02 1.46991E-13 9.06910E-15
 -1      3688 1.99981E+01 1.21117E-03 1.88053E-04 1.88910E-02 2.27107E-13 1.48684E-13
 -1      3689 1.99962E+01 8.24831E-04-2.33708E-04 2.30178E-02 3.05361E-13 2.51715E-13
 -1      3690 1.99949E+01 7.81225E-03-1.86440E-05 1.21940E-02 1.54831E-13-5.05084E-15
 -1      3691 1.99956E+01 6.55993E-03 1.20366E-04 1.39600E-02 1.66670E-13-2.62540E-15
 -1      3692 1.99937E+01 7.16257E-03-1.12289E-04 1.60985E-02 1.70423E-13-6.37752E-15
 -1      3693 1.99952E+01 8.66867E-03-3.15062E-05 8.73404E-03 5.93134E-14 3.50761E-14
 -1      3694 1.99952E+01 8.50825E-03 7.52925E-05 1.01584E-02 1.31702E-13 4.93112E-14
 -1      3695 1.99935E+01 9.55957E-03-4.34298E-05 1.11598E-02 1.20182E-13-4.31751E-14
 -1      3696 1.99960E+01 8.15596E-03-3.38756E-05 6.14682E-03 1.58986E-13 5.92297E-15
 -1      3697 1.99958E+01 8.55526E-03 4.64063E-05 7.27015E-03 1.54464E-13-1.01323E-14
 -1      3698 1.99944E+01 9.73605E-03-7.18896E-06 7.66227E-03 1.85067E-13 8.49114E-14
 -1      3699 1.99970E+01 7.01839E-03-3.11189E-05 4.22890E-03 3.47296E-13-4.80762E-14
 -1      3700 1.99967E+01 7.65327E-03 2.84580E-05 5.09903E-03 1.76972E-13 1.80895E-15
 -1      3701 1.99957E+01 8.78732E-03 9.69599E-06 5.19371E-03 2.88829E-13 3.06911E-14
 -1      3702 1.99980E+01 5.69071E-03-2.62744E-05 2.81908E-03-6.66958E-15 1.91445E-13
 -1      3703 1.99977E+01 6.37585E-03 1.75925E-05 3.48173E-03 2.95179E-13 1.77187E-13
 -1      3704 1.99969E+01 7.37723E-03 1.57722E-05 3.45268E-03 1.58953E-13-9.67169E-15
 -1      3705 1.99987E+01 4.40764E-03-2.10191E-05 1.79308E-03-2.25295E-13-3.01161E-14
 -1      3706 1.99984E+01 5.04649E-03 1.11091E-05 2.28897E-03-1.90221E-13 1.36369E-13
 -1      3707 1.99979E+01 5.88306E-03 1.62201E-05 2.22598E-03-9.26206E-15 2.45803E-13
 -1      3708 1.99992E+01 3.27915E-03-1.60469E-05 1.05650E-03-1.11305E-13-1.26518E-13
 -1      3709 1.99990E+01 3.82951E-03 7.25320E-06 1.42013E-03-2.69061E-13-1.27715E-13
 -1      3710 1.99987E+01 4.50000E-03 1.40286E-05 1.36428E-03-1.52121E-13 2.36946E-13
 -1      3711 1.99995E+01 2.34051E-03-1.14182E-05 5.38533E-04 1.26024E-13-3.39058E-14
 -1      3712 1.99994E+01 2.79273E-03 5.31446E-06 7.96581E-04 7.49646E-14-8.66407E-14
 -1      3713 1.99992E+01 3.31064E-03 1.00678E-05 7.64273E-04-6.37191E-14 2.29103E-13
 -1      3714 2.07649E+01-4.67913E-01-3.09897E-03 1.20370E-01 1.32664E-14 5.69073E-14
 -1      3715 2.07193E+01-3.30968E-01 6.65881E-03 8.56201E-02 4.87654E-14 3.50409E-14
 -1      3716 2.07766E+01-2.73912E-01-4.61310E-03 2.45883E-02 4.67976E-14-2.39758E-15
 -1      3717 2.09743E+01-5.80914E-01-5.17808E-03 7.06177E-02 1.02775E-14 3.83602E-14
 -1      3718 1.99629E+01 1.32811E+00-6.49805E-03-3.40176E-01 2.26249E-14-2.28736E-13
 -1      3719 2.40251E+01 4.65289E+00-1.44606E-02 5.74001E-02 1.31759E-13-1.09180E-13
 -1      3720 2.43629E+01 4.68658E+00-5.31901E-02-7.69074E-01 1.36537E-13-1.86488E-13
 -1      3721 1.84309E+01-3.75348E-01 9.34542E-03 3.74801E+00-1.67256E-13 2.80991E-14
 -1      3722 1.73035E+01 4.30030E-01-7.01388E-04 3.27369E+00-1.16211E-13-1.71223E-13
 -1      3723 1.99998E+01 1.45022E-03 7.49223E-06-8.08637E-05-6.07539E-14 3.56853E-14
 -1      3724 1.99999E+01 1.14006E-03-3.17659E-06-9.51499E-05-1.72658E-13 4.02831E-14
 -1      3725 1.99998E+01 1.11741E-03-1.86876E-06-6.90542E-05-2.38113E-13-4.85137E-14
 -1      3726 2.28599E+01-2.56089E+00 5.64806E-02-2.99866E+00-1.30790E-13-1.04443E-13
 -1      3727 2.36059E+01-2.83815E+00-3.53968E-02-2.35891E+00-1.27105E-13-1.49471E-13
 -1      3728 2.02195E+01 1.42878E+00 3.50818E-03-2.32046E-01 6.11932E-14-2.17721E-13
 -1      3729 2.01163E+01 1.71036E+00 4.82330E-05-2.31487E-01 8.51603E-14-2.30885E-13
 -1      3730 2.00734E+01 1.72681E+00-5.03284E-03-3.13255E-01 8.21796E-14-2.18371E-13
 -1      3731 2.00446E+01 1.77087E+00 8.37910E-04-3.57075E-01 6.09074E-14-1.81411E-13
 -1      3732 2.00178E+01 1.74624E+00-5.59976E-03-4.14298E-01 2.00665E-14-1.81476E-13
 -1      3733 2.00446E+01 1.56340E+00 1.35175E-03-3.93191E-01 2.01487E-14-1.67908E-13
 -1      3734 2.01210E+01 1.52235E+00 4.11222E-03-3.42038E-01 5.08701E-14-1.78460E-13
 -1      3735 2.55481E+01-6.69472E-01-3.94282E-02-1.35661E+00-1.02577E-13-2.29656E-13
 -1      3736 2.55138E+01-1.70919E+00 7.56350E-03-4.49035E-01-1.80052E-13-2.21297E-13
 -1      3737 2.00003E+01 1.28158E-03-2.36120E-08-3.65543E-04 7.96971E-15 2.31214E-14
 -1      3738 2.00002E+01 1.39041E-03-6.18315E-06-3.82372E-04-7.64772E-14-1.10115E-14
 -1      3739 2.00003E+01 1.47422E-03 7.62405E-06-4.60056E-04-2.05727E-13-2.70481E-14
 -1      3740 1.58546E+01 1.29913E+00 1.15196E-02 2.84282E+00-2.74761E-13-2.45159E-13
 -1      3741 2.48387E+01 4.40523E+00-3.60789E-02-1.36866E+00 1.37310E-13-2.70065E-13
 -1      3742 2.55244E+01 3.48040E+00-2.63695E-02-1.97337E+00 1.27273E-13-3.58600E-13
 -1      3743 2.38307E+01 3.78014E+00-2.05199E-02-1.08819E+00 8.69478E-14-2.15395E-13
 -1      3744 2.05595E+01 4.51576E-01-2.54876E-03 8.42806E-02 1.30961E-13-1.00027E-13
 -1      3745 2.05084E+01 6.95474E-01 3.15846E-03 1.69335E-01 1.29961E-13-1.09992E-13
 -1      3746 2.03328E+01 1.31955E+00-2.30527E-03 3.40625E-01 1.29352E-13-1.42380E-13
 -1      3747 2.03046E+01 1.42496E+00-7.35757E-04 2.45265E-01 1.30564E-13-1.64853E-13
 -1      3748 2.03823E+01 1.19888E+00 3.69468E-03 1.17839E-01 1.19480E-13-1.64849E-13
 -1      3749 2.03897E+01 1.13327E+00 2.22075E-03 2.91900E-01 1.17869E-13-1.35807E-13
 -1      3750 1.95947E+01-1.29522E+00 4.26618E-02-4.14243E+00-1.81194E-13-1.75499E-13
 -1      3751 2.15233E+01-2.33685E+00-5.30711E-02-3.67561E+00-1.93865E-13-8.31054E-14
 -1      3752 2.19413E+01-2.07394E+00 2.28107E-03-2.92094E+00-1.37756E-13-1.57198E-13
 -1      3753 1.96297E+01-8.30728E-01 4.58410E-02-3.47342E+00-1.98818E-13-1.76928E-13
 -1      3754 2.21306E+01 1.96512E+00-2.03743E-02-1.42272E+00 1.09231E-14 9.69190E-15
 -1      3755 2.20302E+01 2.43384E+00 8.30097E-03-1.11309E+00 5.76841E-14 5.14597E-14
 -1      3756 2.25623E+01 2.95203E+00-3.71447E-03-9.45129E-01 4.37311E-14-1.55952E-15
 -1      3757 2.28443E+01 1.84304E+00-1.53741E-03-1.64132E+00 2.39526E-14-1.20910E-13
 -1      3758 1.77597E+01 1.08053E+00-2.72338E-02 1.39519E+00 1.56030E-14 6.44480E-14
 -1      3759 1.82590E+01 1.02760E+00 7.90569E-03 1.06492E+00-1.25718E-13 1.46468E-13
 -1      3760 1.96494E+01 9.77552E-01 3.88807E-03-3.74519E-01-2.23126E-14-1.55961E-13
 -1      3761 1.94229E+01 9.41426E-01-1.43850E-02-4.43567E-01-3.26089E-14-1.52298E-13
 -1      3762 1.95357E+01 8.33850E-01 6.13476E-03-6.98870E-01-4.94020E-14-1.32529E-13
 -1      3763 1.98971E+01 1.11649E+00 4.04374E-03-3.15188E-01 1.84067E-14-2.04882E-13
 -1      3764 1.97447E+01 1.02328E+00-1.22836E-02-3.09323E-01-8.20307E-15-1.91521E-13
 -1      3765 1.97992E+01 9.75181E-01 5.85718E-03-4.64832E-01 5.24374E-15-1.38009E-13
 -1      3766 1.99998E+01 1.58731E-03-3.80739E-06 2.69847E-04-8.37684E-14-7.03471E-14
 -1      3767 1.84712E+01 9.30258E-01-2.01102E-02 7.76670E-01-2.22004E-13 1.62018E-13
 -1      3768 1.88239E+01 8.37669E-01 4.09335E-03 5.84969E-01-2.32617E-13 6.53275E-14
 -1      3769 1.90488E+01 6.54911E-01 8.61189E-03 6.95685E-01-2.31616E-13-2.17204E-14
 -1      3770 1.86377E+01 7.58673E-01 1.16115E-02 1.19774E+00-1.53650E-13-6.28203E-14
 -1      3771 1.70055E+01 8.07926E-01 2.06797E-02 2.93812E+00-6.45436E-14-1.26966E-13
 -1      3772 1.66306E+01 1.15480E+00-2.12505E-02 2.41075E+00-3.78256E-14-1.43765E-13
 -1      3773 1.80649E+01 4.15306E-01 2.01292E-02 2.72596E+00-1.99350E-14 3.66751E-14
 -1      3774 2.30719E+01-7.44274E-01 1.02543E-02 1.22474E+00-4.48814E-14 1.32441E-14
 -1      3775 2.24884E+01-7.67645E-01-3.69361E-03 1.15705E+00-1.46818E-14 4.35008E-14
 -1      3776 2.24242E+01-9.83661E-01 9.77992E-04 9.70484E-01-1.07134E-14 6.53636E-15
 -1      3777 2.25290E+01 4.63740E-01-1.93383E-02 1.64157E+00-2.14895E-14 1.03043E-13
 -1      3778 2.31829E+01 1.82160E-01 1.34155E-02 1.62793E+00-8.00136E-15 4.18166E-14
 -1      3779 2.24484E+01 1.03233E+00 1.09417E-02 1.60933E+00-4.53552E-14 6.30469E-14
 -1      3780 2.50801E+01-2.19469E+00-2.04524E-02 6.35196E-02-2.97003E-13-2.78295E-13
 -1      3781 2.43176E+01-2.30575E+00-8.68541E-03 6.17956E-01-4.05850E-13-2.06716E-13
 -1      3782 2.45858E+01-1.55711E+00 5.35583E-04-6.04312E-01-2.99448E-13-1.95906E-13
 -1      3783 2.42071E+01-2.67747E+00 2.48862E-02-1.54465E+00-8.57491E-14-4.67053E-14
 -1      3784 2.43289E+01-2.40420E+00-3.21802E-02-6.32252E-01-2.62069E-14 3.16980E-14
 -1      3785 2.34124E+01-2.39046E+00-8.06896E-03-1.57999E+00-3.82645E-14-7.05354E-14
 -1      3786 1.99998E+01 1.34220E-03 8.81441E-06 9.21923E-06-2.02387E-13 2.80118E-14
 -1      3787 2.14690E+01-9.63803E-01-4.29664E-03 1.07365E-01-1.05271E-15 3.37502E-14
 -1      3788 2.13432E+01-8.29540E-01 8.83679E-03 2.16021E-02 8.38067E-15 3.66524E-14
 -1      3789 2.58186E+01-1.60415E+00 4.67057E-03 7.57639E-01-6.30236E-14 6.10378E-14
 -1      3790 2.53910E+01-7.21856E-01 5.39432E-03 1.32170E+00-6.18650E-14 4.33863E-14
 -1      3791 2.50474E+01-1.99402E+00-1.32494E-02 2.31099E-01-5.70234E-14 4.82765E-14
 -1      3792 1.74112E+01 1.17418E+00 1.26690E-02 1.83120E+00 1.23908E-13 3.46210E-14
 -1      3793 1.80564E+01 7.80967E-01 1.38284E-02 1.96725E+00 9.10296E-14-4.07673E-14
 -1      3794 1.99998E+01 1.77604E-03-4.35366E-06-5.79228E-05 1.65976E-13-1.58214E-14
 -1      3795 1.99997E+01 1.74984E-03-4.97066E-06 9.44515E-07 7.84466E-14 1.66092E-13
 -1      3796 2.47957E+01 1.73613E+00-5.06682E-02 1.99969E+00-2.27986E-14 4.09267E-14
 -1      3797 2.40445E+01 2.36579E+00 4.78049E-03 1.78778E+00-1.86830E-14 4.93008E-15
 -1      3798 2.00001E+01 1.50527E-03-1.33696E-06-3.55031E-04-5.37363E-14-2.10380E-13
 -1      3799 2.00000E+01 1.57782E-03-5.24840E-06-3.33792E-04-9.35026E-14-2.39572E-14
 -1      3800 2.00001E+01 1.73678E-03 5.93036E-06-4.33501E-04-3.94987E-13-1.74269E-13
 -1      3801 2.32691E+01 3.27357E+00 1.07043E-02 1.13331E+00 2.72490E-14 2.07852E-14
 -1      3802 2.35498E+01 3.97661E+00-4.40912E-02 6.87117E-01 1.05655E-13 7.99274E-16
 -1      3803 2.03061E+01 1.16352E+00 1.02175E-03-2.53140E-01 4.74381E-14-2.10491E-13
 -1      3804 2.02382E+01 1.21278E+00-3.98569E-03-3.22101E-01 3.39036E-14-2.21971E-13
 -1      3805 2.50141E+01 2.34783E+00-2.14373E-02-1.94143E+00 1.13430E-13-3.28277E-13
 -1      3806 1.99837E+01 1.29005E+00 3.80160E-03-3.93597E-01 3.51489E-14-2.07109E-13
 -1      3807 1.96556E+01-8.42004E-01 2.41157E-02 3.35918E+00-1.11724E-13-5.16726E-14
 -1      3808 2.29857E+01-2.57859E+00 2.52885E-02 2.77388E+00-2.69503E-13-1.02454E-13
 -1      3809 2.17570E+01-2.07095E+00-3.48097E-02 2.88049E+00-1.58496E-13-1.54914E-13
 -1      3810 2.35103E+01-2.45016E+00 1.50471E-02 1.82350E+00-3.19827E-13-4.97501E-14
 -1      3811 2.48579E+01 7.95297E-01-8.83999E-03 1.84987E+00-5.08239E-14 3.64965E-14
 -1      3812 2.21632E+01 2.14166E+00 1.53011E-02 1.23537E+00 3.54708E-15 7.08083E-14
 -1      3813 2.22655E+01 1.60164E+00-2.17618E-02 1.48316E+00-5.99265E-14 7.51127E-14
 -1      3814 2.30037E+01 1.44688E+00 6.26535E-03 1.66971E+00-3.04345E-14 6.16694E-15
 -1      3815 2.26801E+01 2.66349E+00 7.56828E-04 1.14857E+00 2.31493E-14-4.50161E-16
 -1      3816 2.06542E+01 2.33900E-01 5.84293E-03 2.30236E-02 9.41765E-14-7.62294E-14
 -1      3817 2.06217E+01 3.93937E-01-3.54732E-03-1.14355E-02 9.49750E-14-1.03520E-13
 -1      3818 2.07104E+01 2.52240E-02-1.62537E-03-2.62558E-02 6.01818E-14-5.35603E-14
 -1      3819 2.04187E+01 1.01003E+00-1.67299E-03-9.10246E-02 8.30585E-14-1.55706E-13
 -1      3820 2.03654E+01 1.08284E+00-2.86643E-03-1.76322E-01 6.27892E-14-1.67711E-13
 -1      3821 2.04057E+01 8.95893E-01 2.16738E-03-2.76780E-01 3.14548E-14-1.69792E-13
 -1      3822 1.99998E+01 1.61318E-03-5.39321E-06 1.14536E-04-1.00683E-13 4.81730E-14
 -1      3823 1.99997E+01 2.02544E-03 7.14344E-06 3.57782E-04 9.46374E-14 1.67790E-14
 -1      3824 1.99996E+01 2.40110E-03 2.97881E-06 3.40111E-04 1.94130E-13 2.31111E-13
 -1      3825 1.99997E+01 1.69873E-03-6.21348E-06 7.56232E-05 6.80681E-14 1.87014E-13
 -1      3826 2.18377E+01-1.13515E+00-5.98402E-03 3.60803E-01-8.89282E-14 2.88377E-14
 -1      3827 2.17050E+01-1.06376E+00 9.06774E-03 2.22401E-01-3.22911E-14 4.71182E-14
 -1      3828 2.17552E+01-1.12025E+00-7.84956E-03 4.74490E-03-8.95692E-15 2.02445E-14
 -1      3829 1.99998E+01 1.78868E-03-1.98732E-06-1.96580E-04 1.42015E-13-3.17393E-14
 -1      3830 1.99998E+01 1.79311E-03-4.58493E-06-1.42571E-04 8.36203E-14-5.29079E-14
 -1      3831 1.99997E+01 2.16250E-03 1.02005E-05-7.09724E-05 2.96188E-13-6.44801E-14
 -1      3832 2.51045E+01 4.47541E-01-1.45302E-02-1.82761E+00-1.93855E-15-2.80638E-13
 -1      3833 2.54633E+01-1.93245E-01-3.03132E-03-1.64255E+00-1.19166E-13-1.93348E-13
 -1      3834 2.47704E+01-7.54032E-01 1.90546E-03-1.30171E+00-2.01513E-13-1.79806E-13
 -1      3835 1.86008E+01 2.18273E-01 1.14545E-02 2.49738E+00-2.60850E-14-6.22297E-14
 -1      3836 1.81960E+01 5.31451E-01-1.48740E-02 2.18577E+00 3.04661E-14-2.80735E-14
 -1      3837 1.85947E+01 5.68694E-01 7.99289E-03 1.72213E+00-2.50411E-14-1.83150E-13
 -1      3838 1.96337E+01 5.28279E-01 1.36116E-02-1.08938E+00-5.49448E-14-1.61876E-13
 -1      3839 1.94242E+01 4.04000E-01-1.24154E-02-1.37712E+00-5.98272E-14-1.69480E-13
 -1      3840 1.94687E+01 2.64870E-01 2.03144E-02-1.69854E+00-8.59222E-14-1.71034E-13
 -1      3841 1.92691E+01 6.14661E-02-7.41512E-03-2.13759E+00-1.20581E-13-1.87849E-13
 -1      3842 1.98738E+01 1.94384E-02-6.72588E-03-1.61217E+00-6.63895E-14-1.69992E-13
 -1      3843 2.29446E+01-1.38753E+00 6.41542E-03-5.95776E-01-1.07178E-13-1.00372E-13
 -1      3844 2.31454E+01-1.22631E+00 1.03993E-04-8.39993E-01-1.56620E-13-1.99994E-13
 -1      3845 1.95695E+01 3.30646E-01-6.68184E-03 3.04049E-01-1.03902E-14 1.04504E-14
 -1      3846 1.96712E+01 2.92644E-01 2.20640E-03 2.30391E-01 9.32468E-14 4.32318E-15
 -1      3847 1.97132E+01 2.51359E-01-4.44217E-03 1.64288E-01 1.25484E-13-3.97799E-14
 -1      3848 1.97816E+01 2.18039E-01 1.09649E-03 1.22223E-01 1.17729E-13 5.71992E-14
 -1      3849 1.97392E+01 2.21759E-01 2.00332E-03 2.52005E-01 6.66683E-14 6.92592E-14
 -1      3850 1.98134E+01 1.84774E-01-2.89500E-03 8.25379E-02 1.48136E-13 5.42849E-14
 -1      3851 1.98582E+01 1.58316E-01 5.61771E-04 5.95041E-02 8.76401E-14 3.59124E-14
 -1      3852 1.98214E+01 1.73361E-01 1.62908E-03 1.40277E-01 1.63716E-13-5.28837E-14
 -1      3853 1.98822E+01 1.32010E-01-1.81538E-03 3.55365E-02 3.38809E-14 5.07466E-14
 -1      3854 1.99117E+01 1.11126E-01 2.33590E-04 2.33211E-02 1.53399E-13-4.96889E-15
 -1      3855 1.98817E+01 1.29410E-01 1.08239E-03 7.24345E-02 1.04578E-13-1.09365E-13
 -1      3856 1.99272E+01 9.28766E-02-1.10176E-03 1.09415E-02 2.84474E-13-2.75080E-14
 -1      3857 1.99446E+01 7.84853E-02 2.58253E-05 5.59208E-03 2.86634E-13 2.41693E-14
 -1      3858 1.99234E+01 9.48905E-02 8.46059E-04 3.35175E-02 2.11105E-13-5.57943E-14
 -1      3859 1.99552E+01 6.55917E-02-6.38724E-04-9.02811E-04 2.13162E-13 1.86110E-14
 -1      3860 1.99659E+01 5.52207E-02-4.21375E-05-2.90434E-03 1.14975E-13-4.76677E-14
 -1      3861 1.99507E+01 6.89622E-02 5.68939E-04 1.28724E-02 2.76408E-13-1.73834E-13
 -1      3862 1.99730E+01 4.61619E-02-3.67086E-04-5.98134E-03-8.12071E-14-8.45598E-15
 -1      3863 1.99794E+01 3.88150E-02-6.17639E-05-6.27369E-03-1.97651E-13-4.19630E-14
 -1      3864 1.99687E+01 4.97821E-02 3.76254E-04 2.22036E-03 1.32697E-14-3.53451E-13
 -1      3865 1.99841E+01 3.24844E-02-2.02976E-04-7.45850E-03-7.59912E-15 1.44008E-13
 -1      3866 1.99879E+01 2.73036E-02-6.24662E-05-6.95678E-03-7.12346E-14 3.54690E-13
 -1      3867 1.99805E+01 3.58046E-02 2.44582E-04-2.70437E-03 2.81820E-14 2.96652E-14
 -1      3868 1.99909E+01 2.28849E-02-1.06287E-04-7.15799E-03-2.13179E-13 5.05068E-13
 -1      3869 1.99931E+01 1.92325E-02-5.47628E-05-6.36080E-03-1.14480E-13 4.89914E-13
 -1      3870 1.99881E+01 2.57043E-02 1.56720E-04-4.49168E-03 4.33473E-14 3.54609E-13
 -1      3871 1.99951E+01 1.61358E-02-5.25582E-05-6.09926E-03-8.12089E-14 2.94851E-13
 -1      3872 1.99963E+01 1.35533E-02-4.48675E-05-5.26128E-03 3.40147E-15 1.27399E-13
 -1      3873 1.99930E+01 1.84315E-02 1.00199E-04-4.67070E-03-1.54196E-13 4.19769E-13
 -1      3874 1.99976E+01 1.12774E-02-2.20758E-05-4.80024E-03 2.66399E-14 8.33618E-14
 -1      3875 1.99983E+01 9.37535E-03-3.50548E-05-4.01257E-03 1.06629E-13 1.69464E-13
 -1      3876 1.99961E+01 1.30747E-02 6.11581E-05-4.09411E-03 2.67211E-14 7.77355E-14
 -1      3877 1.99990E+01 7.86051E-03-5.35725E-06-3.55751E-03 2.35339E-13 5.56192E-14
 -1      3878 1.99993E+01 6.57272E-03-2.70622E-05-2.93200E-03 2.37075E-13 7.49286E-14
 -1      3879 1.99980E+01 9.23502E-03 3.82780E-05-3.26114E-03 7.77880E-14 1.66459E-13
 -1      3880 1.99998E+01 5.49498E-03 2.68384E-06-2.52408E-03 1.53273E-13 1.06751E-13
 -1      3881 1.99999E+01 4.56754E-03-2.04294E-05-2.02996E-03 1.99479E-13 2.36884E-13
 -1      3882 1.99991E+01 6.53009E-03 2.30274E-05-2.44045E-03 3.02552E-13-1.49406E-13
 -1      3883 2.00002E+01 3.79553E-03 5.53869E-06-1.69576E-03 1.77104E-13 2.68266E-13
 -1      3884 2.00002E+01 3.12658E-03-1.45066E-05-1.32149E-03 2.05788E-13 2.43796E-13
 -1      3885 1.99998E+01 4.56471E-03 1.36069E-05-1.72050E-03 2.79259E-13 4.44599E-14
 -1      3886 2.00004E+01 2.57058E-03 6.82349E-06-1.06190E-03 9.95423E-14 1.03785E-13
 -1      3887 2.00003E+01 2.09210E-03-6.68917E-06-7.92910E-04 6.18250E-14 1.59229E-13
 -1      3888 2.00001E+01 3.13261E-03 7.27187E-06-1.14114E-03 1.00037E-13 2.80320E-13
 -1      3889 2.00003E+01 1.88440E-03 7.86730E-06-6.80868E-04 2.78740E-14 1.29627E-13
 -1      3890 2.00003E+01 1.66395E-03-8.74813E-07-5.51849E-04-1.82060E-13-1.71289E-14
 -1      3891 2.00002E+01 1.81329E-03-6.20447E-06-5.54955E-04-2.87209E-13-1.26631E-13
 -1      3892 2.00002E+01 2.27783E-03-3.80977E-06-7.67588E-04 3.71278E-14-1.34105E-14
 -1      3893 2.29046E+01 3.65938E+00-2.53116E-02-4.72061E-01 8.33708E-14-8.43997E-14
 -1      3894 2.29245E+01 3.67888E+00-1.11748E-03 1.59044E-01 8.00974E-14-4.68644E-14
 -1      3895 2.37031E+01-6.66603E-01-6.41382E-03-1.36250E+00-1.84186E-13-3.26128E-13
 -1      3896 2.38169E+01-1.49330E-01-6.70161E-03-1.63733E+00-1.32093E-13-4.16192E-13
 -1      3897 2.38148E+01 5.03301E-01-4.86330E-03-1.76724E+00-2.99691E-14-3.44712E-13
 -1      3898 2.22743E+01-1.38505E+00 1.32549E-02-1.44514E-01-5.43438E-14 7.73493E-14
 -1      3899 2.25183E+01-1.42254E+00-9.46729E-03-3.27864E-01-2.00826E-14 2.06142E-14
 -1      3900 2.29852E+01-1.60132E+00-8.24572E-03-1.77418E-01-1.70965E-13-3.37660E-14
 -1      3901 2.16447E+01-1.18730E+00 1.24635E-02 1.18232E-01-5.26801E-14 2.17732E-13
 -1      3902 2.18832E+01-1.30881E+00-5.22753E-03 6.09280E-03-7.73689E-14 1.18549E-13
 -1      3903 2.21860E+01-1.48864E+00-1.14310E-02 2.06494E-01-9.33115E-14 1.48794E-14
 -1      3904 2.11215E+01-9.18382E-01 9.39948E-03 2.34038E-01-1.96864E-13 2.08111E-13
 -1      3905 2.13270E+01-1.05965E+00-1.41676E-03 1.79946E-01-1.57560E-13 1.84471E-13
 -1      3906 2.15058E+01-1.20632E+00-1.18217E-02 3.86244E-01-8.32325E-14 3.34654E-14
 -1      3907 2.07267E+01-6.60867E-01 6.29410E-03 2.56048E-01-9.42232E-14 1.70839E-13
 -1      3908 2.08884E+01-7.87908E-01 1.05867E-03 2.39369E-01-3.62499E-14 1.65067E-13
 -1      3909 2.09816E+01-8.91669E-01-1.05416E-02 4.18008E-01-7.88586E-14 2.21362E-14
 -1      3910 2.04479E+01-4.48287E-01 3.78809E-03 2.29903E-01 9.57814E-14 1.69957E-13
 -1      3911 2.05665E+01-5.49096E-01 2.08296E-03 2.33732E-01-3.68418E-14 1.67739E-13
 -1      3912 2.06083E+01-6.15969E-01-8.39721E-03 3.75243E-01-3.86254E-14-9.76426E-14
 -1      3913 2.02617E+01-2.87760E-01 2.15872E-03 1.86463E-01-1.17639E-14 2.13032E-13
 -1      3914 2.03442E+01-3.62074E-01 2.33382E-03 1.98840E-01 8.24535E-14 1.87182E-13
 -1      3915 2.03584E+01-4.00660E-01-5.62944E-03 3.02307E-01 6.15329E-14 1.30120E-13
 -1      3916 2.01429E+01-1.73722E-01 1.11949E-03 1.41586E-01 1.00303E-14 1.73257E-13
 -1      3917 2.01974E+01-2.25346E-01 2.08396E-03 1.55953E-01-3.67117E-14 8.57151E-14
 -1      3918 2.01981E+01-2.46200E-01-3.72728E-03 2.28196E-01 6.74884E-14 7.32502E-14
 -1      3919 2.00707E+01-9.69810E-02 5.08143E-04 1.02726E-01-9.73703E-14 2.31084E-13
 -1      3920 2.01051E+01-1.31040E-01 1.65939E-03 1.15842E-01 5.07930E-14 2.78526E-13
 -1      3921 2.01002E+01-1.40995E-01-2.36147E-03 1.63845E-01-1.16941E-14 2.94793E-14
 -1      3922 2.00292E+01-4.78238E-02 1.75877E-04 7.21586E-02 9.37035E-14 2.13518E-13
 -1      3923 2.00498E+01-6.92051E-02 1.21915E-03 8.28542E-02-5.44789E-14 2.53835E-13
 -1      3924 2.00433E+01-7.29533E-02-1.43696E-03 1.13374E-01-5.94332E-14 1.26100E-13
 -1      3925 2.00068E+01-1.79980E-02 1.17786E-05 4.95127E-02 1.44578E-13 1.40459E-13
 -1      3926 2.00185E+01-3.06712E-02 8.47582E-04 5.76706E-02 1.60909E-13 1.46411E-13
 -1      3927 2.00123E+01-3.10864E-02-8.32708E-04 7.62353E-02 1.75058E-13 1.14047E-13
 -1      3928 1.99961E+01-1.10667E-03-5.93082E-05 3.34008E-02 1.24430E-13-6.01712E-14
 -1      3929 2.00021E+01-8.05137E-03 5.63093E-04 3.93687E-02 1.62849E-13 3.66574E-14
 -1      3930 1.99969E+01-6.85077E-03-4.57721E-04 5.01115E-02 2.26032E-13-1.89931E-14
 -1      3931 1.99919E+01 7.49688E-03-8.19523E-05 2.22574E-02 3.96789E-13-1.26826E-13
 -1      3932 1.99946E+01 4.15697E-03 3.59227E-04 2.65085E-02 2.96167E-13-3.68370E-14
 -1      3933 1.99905E+01 6.02191E-03-2.32031E-04 3.23476E-02 1.99732E-13-2.60438E-13
 -1      3934 1.99912E+01 1.10403E-02-8.13787E-05 1.46983E-02 9.55661E-14-1.72661E-13
 -1      3935 1.99921E+01 9.85599E-03 2.20669E-04 1.76780E-02 2.52117E-13-9.59808E-14
 -1      3936 1.99890E+01 1.18751E-02-1.01613E-04 2.05789E-02 2.97950E-13-1.75312E-13
 -1      3937 1.99922E+01 1.16773E-02-7.11427E-05 9.63336E-03 8.30961E-16 6.67055E-14
 -1      3938 1.99921E+01 1.16967E-02 1.30501E-04 1.17047E-02-9.35774E-14-9.69752E-14
 -1      3939 1.99898E+01 1.36124E-02-3.03549E-05 1.29362E-02-4.14405E-14-5.61089E-14
 -1      3940 1.99937E+01 1.07894E-02-5.81705E-05 6.26175E-03 1.92315E-13 5.85523E-14
 -1      3941 1.99933E+01 1.14118E-02 7.41316E-05 7.69788E-03 1.58281E-13 2.20649E-14
 -1      3942 1.99916E+01 1.31081E-02 5.43062E-06 8.04558E-03 6.46465E-14 9.00268E-14
 -1      3943 1.99953E+01 9.22794E-03-4.55508E-05 4.02232E-03 3.63492E-13-8.36193E-15
 -1      3944 1.99948E+01 1.00891E-02 4.01786E-05 5.01924E-03 2.32884E-13 2.08020E-14
 -1      3945 1.99936E+01 1.15271E-02 2.09716E-05 4.94770E-03 2.99750E-13-4.80955E-14
 -1      3946 1.99967E+01 7.48499E-03-3.46632E-05 2.53198E-03 5.62407E-14 1.25592E-13
 -1      3947 1.99962E+01 8.38048E-03 2.06420E-05 3.22570E-03 2.57937E-13 4.50235E-14
 -1      3948 1.99954E+01 9.56108E-03 2.48988E-05 2.99580E-03 2.68349E-13 3.43725E-14
 -1      3949 1.99979E+01 5.82607E-03-2.57249E-05 1.53804E-03-6.00449E-14 2.81562E-13
 -1      3950 1.99975E+01 6.64928E-03 9.86442E-06 2.02169E-03 2.67574E-14 2.68628E-13
 -1      3951 1.99969E+01 7.59434E-03 2.34534E-05 1.76717E-03-1.05400E-14 1.54726E-13
 -1      3952 1.99987E+01 4.37363E-03-1.86680E-05 8.73813E-04-1.47609E-13 3.61867E-13
 -1      3953 1.99984E+01 5.08004E-03 4.39851E-06 1.21058E-03-1.50417E-13 3.22753E-13
 -1      3954 1.99980E+01 5.81987E-03 1.96517E-05 9.92969E-04-1.70024E-13 2.28718E-13
 -1      3955 1.99993E+01 3.17899E-03-1.09842E-05 4.36345E-04 1.41139E-13 2.83391E-13
 -1      3956 1.99991E+01 3.74783E-03 2.50041E-06 6.63865E-04 2.80412E-14 3.97583E-13
 -1      3957 1.99988E+01 4.31120E-03 1.34783E-05 5.05854E-04-7.19258E-14 1.16259E-13
 -1      3958 1.99997E+01 2.09354E-03 4.25182E-06 1.04153E-04 2.90141E-13 1.80802E-13
 -1      3959 2.22056E+01-1.11095E+00-7.02392E-03 7.28572E-01-5.98564E-14 1.52521E-14
 -1      3960 2.20913E+01-1.15332E+00 6.42152E-03 5.45522E-01-9.84978E-14-3.03577E-17
 -1      3961 2.27141E+01-1.20079E+00 6.69645E-03 7.23912E-01-4.52570E-14-2.54663E-15
 -1      3962 2.34048E+01 2.59780E+00-3.56571E-02 1.54810E+00-9.79121E-15-1.02085E-14
 -1      3963 2.13488E+01-8.16395E-01-7.77241E-03-1.38639E-01-7.52404E-15-5.02552E-14
 -1      3964 2.11508E+01-6.84556E-01-2.41731E-03-3.02542E-02 1.13394E-15-1.50708E-14
 -1      3965 2.10465E+01-5.19175E-01 7.62476E-03-6.60532E-02 2.41292E-15-1.44285E-14
 -1      3966 2.02579E+01 1.04448E+00 1.74921E-03-3.82951E-01 3.33951E-15-1.88918E-13
 -1      3967 2.01767E+01 1.28974E+00 1.27965E-03-3.58577E-01 3.31437E-14-1.87332E-13
 -1      3968 2.01214E+01 1.32253E+00-3.56009E-03-3.88562E-01 1.72951E-14-1.31753E-13
 -1      3969 1.94380E+01-1.65569E-01 2.94164E-02-2.50944E+00-1.34992E-13-1.79961E-13
 -1      3970 1.92626E+01-4.40451E-01 8.40670E-03-3.04491E+00-1.66954E-13-1.86253E-13
 -1      3971 2.03896E+01-1.22105E+00-3.62153E-02-3.03866E+00-1.59031E-13-1.33198E-13
 -1      3972 1.99892E+01-4.89252E-01-1.90850E-02-2.28996E+00-1.19147E-13-1.37639E-13
 -1      3973 2.04609E+01 8.99961E-01-1.13220E-03 1.33842E-01 1.24299E-13-1.69896E-13
 -1      3974 2.04255E+01 9.50466E-01-1.46081E-03 2.42764E-01 1.17711E-13-1.22212E-13
 -1      3975 2.04591E+01 9.25201E-01-2.24496E-04 4.73284E-02 1.16963E-13-1.69229E-13
 -1      3976 1.98200E+01 7.23203E-01 8.29925E-03-7.01190E-01-2.63013E-14-1.72896E-13
 -1      3977 1.96473E+01 6.19951E-01-1.18252E-02-8.69775E-01-4.15855E-14-1.61296E-13
 -1      3978 1.99116E+01 3.74463E-01-1.73808E-03-1.07045E+00-2.90274E-14-1.94124E-13
 -1      3979 1.99999E+01 1.67752E-03-2.37975E-06-2.92632E-04 1.63140E-13-2.68764E-14
 -1      3980 1.99999E+01 1.71268E-03-6.18781E-06-2.54779E-04 2.26383E-13-5.55615E-14
 -1      3981 1.99998E+01 2.10841E-03 9.37386E-06-2.37321E-04 5.31176E-14 3.73615E-14
 -1      3982 1.99999E+01 1.93424E-03 1.72300E-06-3.41150E-04 2.65178E-14-2.52281E-13
 -1      3983 2.06229E+01-1.30090E+00 1.61462E-02 3.04307E+00-1.11531E-13-1.86355E-13
 -1      3984 1.92826E+01-4.85805E-01-2.71324E-02 2.84977E+00-1.24150E-13-6.13745E-14
 -1      3985 1.93721E+01 4.12682E-01-9.66433E-03 5.35405E-01-1.70510E-13 1.39537E-13
 -1      3986 1.95184E+01 3.76922E-01 4.16142E-03 4.10843E-01-1.08591E-13 1.01930E-13
 -1      3987 1.96310E+01 2.67311E-01 2.10344E-03 4.33044E-01-1.11253E-13 1.53360E-13
 -1      3988 1.99662E+01 9.44461E-01 4.05487E-03-4.90270E-01 2.06425E-14-2.00243E-13
 -1      3989 1.98461E+01 8.22448E-01-9.66875E-03-5.65911E-01-4.97530E-15-1.80801E-13
 -1      3990 2.00003E+01 6.63586E-01 1.32044E-03-7.10546E-01-6.72625E-15-2.22619E-13
 -1      3991 2.00549E+01 1.33920E+00-8.44141E-04-4.09242E-01 2.62482E-14-1.87486E-13
 -1      3992 1.99862E+01 1.07722E+00-5.81207E-03-4.18391E-01 2.60589E-14-1.86567E-13
 -1      3993 2.00699E+01 9.60055E-01 2.93238E-04-4.98725E-01 1.40341E-14-1.93778E-13
 -1      3994 2.00917E+01 1.33930E+00 3.92515E-03-4.03222E-01 2.85374E-14-1.34244E-13
 -1      3995 2.05240E+01 7.32394E-01 3.67886E-03-6.70115E-02 8.28719E-14-1.48548E-13
 -1      3996 1.93187E+01 4.52444E-01 7.02156E-03 7.02724E-01-1.35181E-13 5.96269E-14
 -1      3997 1.95007E+01 2.88750E-01 1.27281E-03 7.17595E-01-7.60975E-14 7.05629E-14
 -1      3998 1.91142E+01 4.71284E-01-1.43480E-02 9.08418E-01-1.40055E-13 5.22152E-15
 -1      3999 2.36482E+01-8.64222E-01-2.05808E-03 1.18365E+00-3.88521E-14-3.78946E-14
 -1      4000 2.34975E+01-1.23935E+00-1.19431E-02 9.16785E-01-3.75188E-14-4.62800E-14
 -1      4001 2.08222E+01-1.65588E-01 6.34442E-03-6.03386E-02 3.72838E-14-5.62899E-14
 -1      4002 2.07974E+01-5.13194E-02-6.09747E-03-1.22401E-01 4.27141E-14-5.61167E-14
 -1      4003 2.09003E+01-3.50173E-01-1.57854E-03-6.85250E-02 6.05120E-15-2.06070E-14
 -1      4004 2.28095E+01-2.10104E+00 2.72139E-02-1.87430E+00-9.55334E-14-1.17828E-13
 -1      4005 2.31343E+01-2.08061E+00-3.24476E-03-1.15459E+00-5.37693E-14-1.64482E-14
 -1      4006 2.34156E+01 1.84782E+00 1.49034E-02 1.71342E+00-1.67366E-14-6.37923E-15
 -1      4007 2.00001E+01 2.19719E-03 6.60123E-06-5.96147E-04-1.29968E-13-3.22469E-13
 -1      4008 2.00001E+01 1.96146E-03-7.66174E-07-5.01714E-04-3.16286E-13-3.46414E-13
 -1      4009 2.00000E+01 2.07403E-03 3.18994E-07-4.50173E-04-2.40770E-13-5.04449E-13
 -1      4010 1.99996E+01 2.57391E-03-4.29638E-06-7.81500E-05 3.19941E-13-8.74004E-14
 -1      4011 1.99995E+01 2.55905E-03-3.27795E-06 2.80732E-05 3.28822E-13-1.23134E-13
 -1      4012 2.12742E+01-1.51550E+00 3.07328E-02-2.80566E+00-1.60138E-13-1.70620E-13
 -1      4013 2.21784E+01-1.99565E+00-2.50489E-02-2.29613E+00-1.20674E-13-1.67614E-13
 -1      4014 2.20548E+01-1.71710E+00-8.46150E-03-1.87298E+00-1.43019E-13-1.54602E-13
 -1      4015 2.09323E+01-1.13048E+00 1.87104E-02-2.45920E+00-1.24264E-13-1.71448E-13
 -1      4016 1.94710E+01-2.56530E-01 2.59466E-03 2.30496E+00-6.32650E-14-1.21679E-13
 -1      4017 2.06059E+01 4.80206E-01 2.89133E-04-1.43434E-01 5.96752E-14-1.28108E-13
 -1      4018 2.42731E+01 1.28236E+00-3.21748E-03-1.98840E+00 7.38021E-14-3.16200E-13
 -1      4019 1.99994E+01 2.92481E-03 5.04942E-06 2.74965E-04 2.41361E-13 1.22276E-13
 -1      4020 1.99993E+01 3.32870E-03 2.39755E-06 1.65641E-04 2.86262E-13-4.12902E-14
 -1      4021 2.22297E+01-1.29243E+00-5.79147E-03 2.89075E-01-7.53522E-14 3.55627E-14
 -1      4022 2.15047E+01-9.20443E-01-1.36317E-03-3.01638E-01 3.87998E-15-5.76239E-14
 -1      4023 2.13299E+01-7.22016E-01 8.29494E-03-3.29884E-01-2.84359E-14-7.39151E-14
 -1      4024 2.35674E+01 2.23896E+00-1.95880E-02-1.78763E+00 7.36924E-14-2.53453E-13
 -1      4025 2.30223E+01 3.34923E+00-2.29755E-03-1.01171E+00 6.61381E-14-7.97999E-14
 -1      4026 2.34650E+01 2.91935E+00-1.37042E-02-1.57227E+00 8.58558E-14-1.65627E-13
 -1      4027 2.14392E+01-1.55891E+00 1.75468E-02 2.45114E+00-1.01605E-13-1.86614E-13
 -1      4028 2.05144E+01 6.38902E-01 2.76011E-03-3.16987E-01 3.57350E-14-1.36091E-13
 -1      4029 2.04281E+01 7.14067E-01-2.69304E-03-3.86955E-01 2.24059E-14-1.76528E-13
 -1      4030 2.48896E+01-1.43016E-01-2.21387E-02 1.67048E+00-4.69061E-14 1.37720E-14
 -1      4031 2.40721E+01 6.38512E-01 1.26182E-02 1.78864E+00 1.40166E-15 7.62324E-15
 -1      4032 1.88419E+01 4.41220E-01-1.63391E-02 1.48474E+00-5.70273E-14-1.78880E-13
 -1      4033 1.90819E+01 4.76673E-01 1.03582E-02 1.15901E+00-1.16167E-13-9.33562E-14
 -1      4034 1.93776E+01 2.60282E-01 7.01455E-03 1.14678E+00-2.71387E-14 1.38600E-14
 -1      4035 2.19911E+01-1.26822E+00-3.24048E-03-1.81277E-01-5.54288E-14 5.73694E-14
 -1      4036 2.17754E+01-1.09850E+00 1.13652E-02-2.68635E-01-1.84552E-14 1.23802E-14
 -1      4037 2.16641E+01-1.05924E+00-8.19987E-03-4.94031E-01-5.48160E-14-1.14665E-14
 -1      4038 2.04369E+01 5.64864E-01-6.41636E-04-4.78177E-01 5.13681E-16-1.42762E-13
 -1      4039 2.03452E+01 8.14468E-01 3.17042E-03-4.33595E-01 2.63507E-15-1.81602E-13
 -1      4040 2.02549E+01 8.78427E-01-3.42183E-03-4.64153E-01-2.19139E-14-1.43564E-13
 -1      4041 2.35119E+01 1.01637E+00-3.49050E-02 1.81089E+00-4.64581E-17 5.50614E-14
 -1      4042 2.36146E+01 3.19362E-01 8.76862E-03 1.68818E+00 1.52511E-14 2.39479E-14
 -1      4043 2.45362E+01-8.07976E-01-6.74977E-03 1.26225E+00-3.07653E-14-1.10881E-14
 -1      4044 1.90878E+01 2.92996E-01 1.82804E-02 1.68873E+00-2.46553E-14-2.85738E-13
 -1      4045 2.35996E+01-3.52229E-01-2.20328E-02 1.53018E+00-1.27346E-14 2.42861E-16
 -1      4046 2.41556E+01-7.71551E-01 1.55374E-02 1.25466E+00-4.93735E-14-8.16968E-14
 -1      4047 2.20585E+01-1.47631E+00 1.74553E-02 6.44006E-01-2.44977E-14-1.88323E-13
 -1      4048 2.24283E+01-1.64639E+00-5.65704E-04 5.19902E-01-3.14334E-14-1.27997E-13
 -1      4049 1.99996E+01 2.50999E-03-8.77805E-06-1.99080E-04 2.20819E-13 1.41420E-13
 -1      4050 1.99995E+01 2.97851E-03 6.43125E-06-1.12069E-04 2.96047E-13-1.25686E-13
 -1      4051 1.99997E+01 2.46148E-03 2.04050E-06-2.76705E-04 1.83232E-13-3.61613E-14
 -1      4052 1.98282E+01 1.35666E-01-3.75611E-03 1.84550E-01 5.63792E-14-5.46674E-14
 -1      4053 1.98709E+01 1.25308E-01 2.16664E-03 1.40146E-01 1.15620E-13-1.28759E-13
 -1      4054 1.98802E+01 1.08937E-01-2.57620E-03 1.01795E-01 1.28031E-13-2.47042E-13
 -1      4055 1.99110E+01 9.73427E-02 1.23353E-03 7.45825E-02 1.92287E-13-1.72608E-13
 -1      4056 1.99015E+01 8.52778E-02 2.07428E-06 1.41013E-01 1.16649E-13-3.11772E-13
 -1      4057 1.99190E+01 8.39111E-02-1.68432E-03 5.27995E-02 2.48582E-13-1.77612E-13
 -1      4058 1.99388E+01 7.43294E-02 6.23715E-04 3.80923E-02 2.93042E-13-1.58188E-13
 -1      4059 1.99285E+01 7.31737E-02 4.46038E-04 7.85859E-02 2.57370E-13-3.49550E-13
 -1      4060 1.99457E+01 6.38181E-02-1.05531E-03 2.52286E-02 2.81017E-13-1.33814E-13
 -1      4061 1.99588E+01 5.59006E-02 3.15154E-04 1.72408E-02 1.32470E-13-2.78105E-13
 -1      4062 1.99491E+01 5.95485E-02 4.76444E-04 4.20645E-02 3.34504E-13-2.79665E-13
 -1      4063 1.99642E+01 4.78547E-02-6.51850E-04 9.98369E-03 4.71911E-14-2.71323E-13
 -1      4064 1.99727E+01 4.16217E-02 1.45186E-04 5.94502E-03 2.33800E-15-2.03261E-13
 -1      4065 1.99645E+01 4.70311E-02 4.19023E-04 2.07280E-02 8.82065E-14-3.39666E-13
 -1      4066 1.99768E+01 3.55802E-02-3.91248E-04 2.07745E-03-2.73092E-14-2.01294E-13
 -1      4067 1.99822E+01 3.07833E-02 5.28875E-05 2.84058E-04 1.17267E-13-3.82455E-14
 -1      4068 1.99758E+01 3.64121E-02 3.35815E-04 8.80200E-03 9.10473E-15-1.27897E-13
 -1      4069 1.99853E+01 2.62960E-02-2.27431E-04-1.60633E-03 1.83027E-13-1.27211E-13
 -1      4070 1.99887E+01 2.26514E-02 5.92786E-06-2.18563E-03 4.13168E-14-1.41313E-13
 -1      4071 1.99838E+01 2.77931E-02 2.55112E-04 2.52402E-03 9.20133E-14-4.23523E-13
 -1      4072 1.99909E+01 1.93310E-02-1.28324E-04-2.97291E-03-1.45715E-13 6.48257E-14
 -1      4073 1.99930E+01 1.65880E-02-1.36239E-05-2.94297E-03-4.33172E-14 9.24560E-14
 -1      4074 1.99894E+01 2.09751E-02 1.87161E-04-4.83864E-04 4.80652E-14-3.70794E-13
 -1      4075 1.99946E+01 1.40271E-02-6.85229E-05-3.14780E-03 3.45095E-15-8.40113E-14
 -1      4076 1.99959E+01 1.18822E-02-2.20288E-05-2.83631E-03 3.20286E-14-8.82764E-14
 -1      4077 1.99934E+01 1.55567E-02 1.32801E-04-1.69633E-03-1.81316E-13-4.02145E-13
 -1      4078 1.99970E+01 1.00989E-02-3.30004E-05-2.75415E-03 1.19465E-13 4.50594E-14
 -1      4079 1.99977E+01 8.57834E-03-2.41313E-05-2.37720E-03 1.68261E-13-2.27231E-14
 -1      4080 1.99960E+01 1.14163E-02 9.56102E-05-1.94890E-03 1.30580E-13-1.39853E-13
 -1      4081 1.99984E+01 7.26624E-03-1.31470E-05-2.19265E-03 2.23049E-13-1.10653E-13
 -1      4082 1.99989E+01 6.12775E-03-2.13812E-05-1.82891E-03 2.33422E-13-1.08125E-13
 -1      4083 1.99977E+01 8.33183E-03 6.49196E-05-1.75908E-03 2.52907E-13-4.86000E-14
 -1      4084 1.99993E+01 5.16006E-03-3.54929E-06-1.62514E-03 3.25891E-13-1.55090E-13
 -1      4085 1.99996E+01 4.31196E-03-1.68715E-05-1.31347E-03 3.25730E-13-2.63857E-14
 -1      4086 1.99988E+01 5.99549E-03 4.28826E-05-1.41496E-03 2.77756E-13-5.48092E-14
 -1      4087 1.99998E+01 3.59395E-03 7.57121E-07-1.12669E-03 2.33680E-13-9.79628E-14
 -1      4088 1.99999E+01 2.97890E-03-5.36167E-06-8.87509E-04 7.49992E-14-7.70649E-14
 -1      4089 1.99995E+01 4.23002E-03 2.31387E-05-1.05276E-03 2.58525E-13-1.62038E-13
 -1      4090 2.00000E+01 2.70851E-03 5.11874E-06-7.94806E-04 1.61247E-13-1.67916E-13
 -1      4091 2.00000E+01 2.43450E-03-2.64009E-06-6.73169E-04 4.49577E-14-1.10442E-13
 -1      4092 1.99999E+01 2.56631E-03-6.90369E-06-5.97239E-04-4.09173E-14-4.75400E-13
 -1      4093 1.99998E+01 3.16319E-03 1.11000E-05-7.77168E-04 1.97953E-13-3.28081E-13
 -1      4094 2.40517E+01-1.09246E+00 6.30033E-04-9.87442E-01-2.35641E-13-2.34465E-13
 -1      4095 2.45582E+01-2.10047E+00 2.09514E-02-7.78012E-02-5.57930E-14 1.65753E-15
 -1      4096 2.44559E+01-1.66424E+00-8.55258E-03 5.32463E-01-4.19671E-14-2.80381E-14
 -1      4097 1.95270E+01-2.14632E-01-1.87565E-02 1.94526E+00 3.77129E-15-1.40511E-13
 -1      4098 1.97879E+01-2.25320E-01-9.02530E-04 1.64312E+00-3.44556E-14-1.42491E-13
 -1      4099 2.03584E+01-7.50267E-01 2.29031E-02 2.17421E+00-3.17419E-14-1.58247E-13
 -1      4100 1.99995E+01 2.44734E-03-1.94797E-06 2.54826E-04 2.05139E-13 1.76751E-13
 -1      4101 2.13377E+01-1.09130E+00 1.38240E-02 6.78810E-01-4.67432E-14-1.24302E-13
 -1      4102 2.16240E+01-1.28707E+00-9.93943E-04 6.53194E-01-7.24501E-14-1.81755E-13
 -1      4103 2.17316E+01-1.42254E+00-1.28421E-02 9.76713E-01-4.75981E-14-2.28122E-13
 -1      4104 2.08188E+01-7.49389E-01 7.90532E-03 6.04885E-01-1.01623E-13-1.49328E-13
 -1      4105 2.10402E+01-9.12812E-01 4.08686E-03 6.32160E-01-3.41769E-14-1.32168E-13
 -1      4106 2.10631E+01-1.02281E+00-1.93834E-02 9.00216E-01-4.29726E-14-2.72659E-13
 -1      4107 2.04736E+01-4.81282E-01 4.37919E-03 4.82986E-01-4.31512E-17-2.03871E-13
 -1      4108 2.06322E+01-6.05406E-01 5.53946E-03 5.30541E-01-5.65554E-14-1.83415E-13
 -1      4109 2.05944E+01-6.72268E-01-2.06036E-02 7.29527E-01-5.64644E-14-2.22132E-13
 -1      4110 2.02559E+01-2.95876E-01 9.38635E-04 3.62824E-01 2.33841E-14-2.27386E-14
 -1      4111 2.03652E+01-3.80422E-01 5.24613E-03 4.08643E-01-3.59134E-14-1.53832E-13
 -1      4112 2.03211E+01-4.07743E-01-1.12909E-02 5.53638E-01-3.32426E-14-3.40820E-13
 -1      4113 2.01256E+01-1.67753E-01-1.14135E-04 2.57850E-01 1.05260E-13 3.49946E-14
 -1      4114 2.01968E+01-2.22629E-01 4.64273E-03 2.97635E-01 1.45153E-13 5.03121E-14
 -1      4115 2.01535E+01-2.27533E-01-6.32997E-03 3.96545E-01 9.72140E-14-2.13405E-13
 -1      4116 2.00517E+01-8.58933E-02-5.47121E-04 1.76256E-01-1.50453E-13 1.55134E-13
 -1      4117 2.00955E+01-1.20003E-01 3.44192E-03 2.07555E-01-1.48652E-14 9.67957E-14
 -1      4118 2.00611E+01-1.15172E-01-3.38134E-03 2.71472E-01 3.18940E-15 2.06982E-14
 -1      4119 2.00122E+01-3.59691E-02-6.53205E-04 1.16787E-01-1.88916E-15 9.20104E-14
 -1      4120 2.00380E+01-5.61152E-02 2.41123E-03 1.39809E-01-7.00638E-14 1.74626E-13
 -1      4121 2.00126E+01-4.79368E-02-1.68731E-03 1.79507E-01-1.41275E-13 1.72371E-13
 -1      4122 1.99932E+01-7.30565E-03-5.91027E-04 7.52609E-02 3.06474E-13-5.26760E-15
 -1      4123 2.00075E+01-1.83552E-02 1.61241E-03 9.14040E-02 1.57019E-13 8.08740E-14
 -1      4124 1.99897E+01-9.47660E-03-6.19207E-04 1.15123E-01 8.25622E-14-2.86804E-14
 -1      4125 1.99857E+01 7.85156E-03-4.69036E-04 4.73560E-02 2.76082E-13-1.32974E-13
 -1      4126 1.99929E+01 2.42491E-03 1.04047E-03 5.83122E-02 3.40454E-13-8.64411E-14
 -1      4127 1.99809E+01 1.01567E-02-1.55562E-04 7.17595E-02 3.44530E-13-1.50990E-13
 -1      4128 1.99842E+01 1.47056E-02-3.49066E-04 2.91528E-02 2.96141E-13-2.45592E-13
 -1      4129 1.99874E+01 1.26228E-02 6.46799E-04 3.63838E-02 2.51399E-13-1.88538E-13
 -1      4130 1.99794E+01 1.88638E-02 4.51215E-05 4.34846E-02 3.43644E-13-1.52869E-13
 -1      4131 1.99857E+01 1.67156E-02-2.49111E-04 1.75792E-02 2.24232E-13-7.39043E-14
 -1      4132 1.99866E+01 1.65125E-02 3.86660E-04 2.22457E-02 2.42018E-13-2.20687E-13
 -1      4133 1.99814E+01 2.13530E-02 1.21769E-04 2.56011E-02 1.92402E-13-2.25984E-13
 -1      4134 1.99883E+01 1.60927E-02-1.72672E-04 1.03848E-02-1.30272E-13-4.20199E-14
 -1      4135 1.99880E+01 1.68554E-02 2.21123E-04 1.33440E-02 9.75220E-14-6.45580E-14
 -1      4136 1.99847E+01 2.05297E-02 1.38335E-04 1.46053E-02 7.34408E-14 4.11689E-14
 -1      4137 1.99910E+01 1.42027E-02-1.16835E-04 6.00130E-03 1.75627E-13-1.57335E-13
 -1      4138 1.99903E+01 1.53799E-02 1.19644E-04 7.85380E-03-3.39021E-14-6.88871E-14
 -1      4139 1.99882E+01 1.81388E-02 1.28019E-04 8.03026E-03 2.31969E-15-1.41248E-13
 -1      4140 1.99935E+01 1.18491E-02-7.87481E-05 3.37908E-03 3.16583E-13-7.89693E-15
 -1      4141 1.99927E+01 1.31249E-02 5.88688E-05 4.52609E-03 3.21082E-13 5.53826E-14
 -1      4142 1.99914E+01 1.51940E-02 1.09148E-04 4.20832E-03 9.52772E-14-1.04687E-13
 -1      4143 1.99955E+01 9.49241E-03-5.10546E-05 1.82911E-03 1.56917E-13 1.66012E-13
 -1      4144 1.99948E+01 1.06993E-02 2.59158E-05 2.54087E-03 3.30388E-13 6.57844E-14
 -1      4145 1.99940E+01 1.22483E-02 8.81025E-05 2.05508E-03 2.52931E-13 3.07448E-13
 -1      4146 1.99971E+01 7.35227E-03-3.32344E-05 9.29972E-04-1.25599E-13 5.36400E-14
 -1      4147 1.99965E+01 8.40935E-03 7.93062E-06 1.37151E-03-3.84711E-14 5.04166E-14
 -1      4148 1.99960E+01 9.55814E-03 6.55367E-05 8.86854E-04 5.12785E-14 2.03174E-13
 -1      4149 1.99982E+01 5.52700E-03-2.08637E-05 4.12856E-04-1.78015E-13 2.12392E-14
 -1      4150 1.99977E+01 6.40954E-03-1.82466E-07 6.88223E-04-2.92836E-14 6.63145E-14
 -1      4151 1.99975E+01 7.26132E-03 4.74350E-05 2.80496E-04 3.03777E-14 2.82647E-14
 -1      4152 1.99990E+01 4.03446E-03-1.18091E-05 1.22833E-04 8.99291E-14-3.19420E-13
 -1      4153 1.99987E+01 4.74381E-03-2.60307E-06 2.88550E-04-1.35890E-13-1.55915E-13
 -1      4154 1.99985E+01 5.37246E-03 3.19682E-05-1.65217E-05-1.58528E-15-1.41802E-13
 -1      4155 2.25613E+01-1.49141E+00-6.70754E-03 9.63015E-02-8.33578E-14 6.01601E-14
 -1      4156 2.23405E+01-1.39617E+00 1.39602E-02-6.07124E-02-7.18958E-14 8.05632E-14
 -1      4157 2.22526E+01-1.45769E+00-1.34022E-02-3.83868E-01-8.25909E-14 9.76933E-14
 -1      4158 2.26220E+01-1.76507E+00-7.85335E-03-8.37903E-01-5.82295E-14-2.09488E-14
 -1      4159 2.32010E+01-1.91967E+00 1.25923E-02-5.42414E-01-1.40307E-14 9.53816E-15
 -1      4160 2.01485E+01 1.11391E+00 2.30810E-03-4.23733E-01 1.20149E-14-1.46324E-13
 -1      4161 2.38802E+01-2.10585E+00-1.02462E-02-3.49620E-01-1.44338E-14 2.06970E-14
 -1      4162 2.37847E+01-2.02363E+00 1.14851E-02 4.07070E-01-3.12656E-13-1.65785E-13
 -1      4163 2.38195E+01-2.41872E+00 8.71625E-04 1.20030E+00-3.26211E-13-1.61958E-13
 -1      4164 2.28830E+01-2.20311E+00-2.37944E-02 1.59505E+00-2.79145E-13-8.75732E-14
 -1      4165 1.97634E+01 1.58309E-01-5.16982E-03 3.15207E-01 3.51289E-14 1.08479E-13
 -1      4166 1.98217E+01 1.51946E-01 3.50540E-03 2.43081E-01 6.27520E-14 2.77424E-14
 -1      4167 1.98704E+01 9.05721E-02-8.52748E-04 2.41136E-01 9.77744E-15-7.89506E-14
 -1      4168 2.10333E+01-4.51373E-01-6.68002E-03-1.70932E-01-1.96099E-14-6.08686E-14
 -1      4169 2.01900E+01 6.22493E-01 4.02973E-03-6.43358E-01-5.60915E-15-1.84910E-13
 -1      4170 2.01405E+01 4.56408E-01-6.24812E-03-7.79316E-01 6.51063E-17-1.85152E-13
 -1      4171 1.96905E+01 1.64277E-01-6.56519E-03 5.18929E-01-9.81156E-14-1.29771E-14
 -1      4172 1.97650E+01 1.70179E-01 5.77046E-03 4.05042E-01-4.89523E-14 5.40634E-14
 -1      4173 1.98411E+01 7.79170E-02-2.57226E-03 3.92923E-01 2.45435E-14-3.59906E-14
 -1      4174 2.12262E+01-6.16512E-01-4.26581E-03-4.63333E-01-2.13586E-14-8.83416E-14
 -1      4175 2.11349E+01-5.22241E-01 5.56624E-04-3.07374E-01-2.56451E-14-7.67228E-14
 -1      4176 2.10056E+01-3.15469E-01 7.05526E-03-2.90431E-01-4.77342E-15-8.27467E-14
 -1      4177 2.02929E+01-8.38001E-02 1.47372E-02-1.37885E+00-4.65796E-14-1.60968E-13
 -1      4178 2.03048E+01-3.16877E-01 5.41371E-04-1.68333E+00-6.80548E-14-1.54040E-13
 -1      4179 2.02100E+01 2.94677E-01 1.15788E-02-9.44039E-01-8.37389E-15-1.74140E-13
 -1      4180 2.01607E+01 1.12122E-01-4.72228E-03-1.15998E+00-3.04813E-14-1.59523E-13
 -1      4181 2.03741E+01 2.15562E-01-5.00946E-03-8.57604E-01-1.39503E-14-1.22505E-13
 -1      4182 2.32526E+01-1.75229E+00-6.11962E-03-3.93531E-02-9.07933E-15 3.58641E-14
 -1      4183 1.99993E+01 3.32326E-03-6.46189E-06-8.23610E-05 1.92604E-13-3.49128E-13
 -1      4184 1.99992E+01 3.65241E-03 1.70979E-06 7.00540E-05 8.58596E-14-3.38076E-13
 -1      4185 1.99991E+01 4.06139E-03 3.80391E-06-1.58788E-04 6.22222E-15-3.59303E-13
 -1      4186 1.99994E+01 3.28145E-03 7.94252E-06-2.22332E-04 3.14213E-14-2.48369E-13
 -1      4187 2.07648E+01 1.20762E-01 5.07644E-03-2.00938E-01 3.65060E-14-1.21984E-13
 -1      4188 2.06167E+01 4.29700E-01-3.85721E-03-2.69201E-01 3.44964E-14-1.43829E-13
 -1      4189 2.06671E+01 2.67678E-01 1.42267E-03-3.86136E-01 2.67139E-14-1.30194E-13
 -1      4190 2.08606E+01-9.85195E-02 5.27555E-04-2.50332E-01 8.67806E-15-8.18421E-14
 -1      4191 2.20876E+01-1.83090E+00 7.85877E-03 1.95061E+00-1.06308E-13-6.09842E-15
 -1      4192 2.09247E+01-1.26556E+00-2.71612E-02 2.14344E+00 1.07119E-16-1.39939E-13
 -1      4193 2.24401E+01-1.82261E+00 1.08946E-02 1.36806E+00-5.29000E-14-1.32484E-14
 -1      4194 2.09639E+01-1.08814E+00-3.63227E-03 1.74551E+00 4.72054E-14-9.06539E-15
 -1      4195 2.07800E+01 3.56477E-02 4.87872E-03-4.73673E-01 6.68831E-15-1.14524E-13
 -1      4196 2.06323E+01 2.29715E-01-1.78790E-03-5.28683E-01 1.11531E-14-1.08001E-13
 -1      4197 2.41170E+01-1.46217E+00-1.63419E-02-6.89070E-01-2.71046E-13-2.12892E-13
 -1      4198 2.38491E+01-1.70669E+00 2.41140E-02-2.90698E-01-3.31456E-13-1.41262E-13
 -1      4199 2.05312E+01 3.25592E-01-1.25656E-03-5.78059E-01-1.48909E-14-1.17627E-13
 -1      4200 2.29661E+01-1.82417E+00 1.49688E-02 4.78029E-01-1.66851E-13-4.56993E-14
 -1      4201 2.33883E+01-1.89022E+00-6.41330E-03 2.39468E-01-2.22060E-13-1.09726E-13
 -1      4202 2.02004E+01-4.99277E-01-6.76706E-03 1.49987E+00-1.81344E-14-1.90180E-14
 -1      4203 1.96555E+01-8.00408E-02-1.67907E-02 1.33262E+00 2.14872E-14-8.54113E-14
 -1      4204 2.16133E+01-1.33088E+00 1.49050E-02-1.82410E+00-1.29392E-13-1.67041E-13
 -1      4205 2.20423E+01-1.54518E+00-3.63261E-03-1.46188E+00-1.25871E-13-1.20736E-13
 -1      4206 2.45426E+01-1.40477E+00-3.10897E-03 8.66496E-01-6.25559E-14-2.98260E-14
 -1      4207 2.22195E+01-1.58726E+00-2.20201E-03-1.18903E+00-1.02295E-13-9.46237E-14
 -1      4208 2.23035E+01-1.47354E+00 5.94114E-03-6.13549E-01-6.96227E-14-1.16472E-14
 -1      4209 2.19559E+01-1.27979E+00 8.16743E-03-6.99084E-01-6.53248E-14-1.48319E-16
 -1      4210 2.17419E+01-1.26250E+00-5.03792E-03-1.20394E+00-9.90799E-14-1.46699E-13
 -1      4211 2.34470E+01-1.44727E+00-7.43811E-03 6.10588E-01-2.73739E-15-2.74722E-14
 -1      4212 2.32211E+01-1.56798E+00 5.52147E-03 3.55938E-01-2.82916E-14 1.14318E-14
 -1      4213 1.99999E+01 2.16831E-03-4.02731E-06-4.06306E-04-2.32997E-14-4.55184E-13
 -1      4214 2.26826E+01-1.88463E+00-3.24179E-03 9.96942E-01-6.69553E-14-1.44845E-13
 -1      4215 1.97385E+01 1.63868E-02 8.02094E-03 1.07949E+00 3.05099E-14 2.96214E-14
 -1      4216 2.40532E+01-1.60103E+00 1.71324E-03 5.41826E-01-4.72879E-14-4.52949E-14
 -1      4217 2.04967E+01-5.32679E-01 1.75015E-02-1.90073E+00-9.87872E-14-1.32460E-13
 -1      4218 2.06255E+01-8.20220E-01 1.07914E-02-2.22822E+00-1.15291E-13-1.47604E-13
 -1      4219 2.12255E+01-1.22271E+00-1.98325E-02-2.02551E+00-1.34426E-13-1.62433E-13
 -1      4220 2.07872E+01-6.89739E-01-1.58882E-02-1.62883E+00-6.41815E-14-1.82633E-13
 -1      4221 1.97116E+01 1.62179E-01 9.57065E-03 6.51241E-01-1.25933E-13-3.72892E-14
 -1      4222 1.98249E+01 2.81234E-02-5.98397E-03 6.18526E-01-2.21485E-14-5.78649E-14
 -1      4223 1.96202E+01 1.30903E-01-7.53335E-03 8.25046E-01-1.64112E-14-4.01675E-14
 -1      4224 2.16531E+01-1.03422E+00 3.69777E-03-6.74589E-01-9.19818E-14-4.23912E-15
 -1      4225 2.13921E+01-8.13751E-01 2.08271E-03-6.70830E-01-6.49305E-14-5.05537E-14
 -1      4226 2.15901E+01-1.06406E+00-1.12786E-02-9.04951E-01-8.63131E-14-8.70563E-14
 -1      4227 2.11994E+01-5.87103E-01 3.26360E-03-6.25767E-01-5.17695E-14-7.23633E-14
 -1      4228 2.05186E+01-2.12069E-01-9.17386E-03-1.22158E+00-3.32611E-14-1.47360E-13
 -1      4229 2.19022E+01-1.59715E+00-6.25185E-03 1.33337E+00 1.12462E-14-2.78828E-14
 -1      4230 1.99197E+01-1.53892E-01-1.03775E-02 9.88685E-01 3.72859E-14-8.85186E-14
 -1      4231 2.09059E+01-1.79368E-01-7.71139E-03-3.85554E-01 2.90536E-15-1.01477E-13
 -1      4232 2.09075E+01-2.10911E-01-1.05867E-04-5.39668E-01-1.71360E-14-1.03392E-13
 -1      4233 1.99445E+01 2.87045E-02-1.09086E-03 1.67301E-01-7.93921E-16-1.10164E-13
 -1      4234 1.99583E+01 3.29943E-02 1.73804E-03 1.26847E-01 9.27066E-14-1.73923E-13
 -1      4235 1.99494E+01 3.78016E-02-1.06963E-03 9.96350E-02 1.69615E-13-1.81475E-13
 -1      4236 1.99610E+01 3.75307E-02 8.75490E-04 7.58284E-02 3.10616E-13-1.88055E-13
 -1      4237 1.99581E+01 3.84358E-02-8.48621E-04 5.79506E-02 5.02934E-13-2.30373E-13
 -1      4238 1.99673E+01 3.61203E-02 4.28523E-04 4.36276E-02 3.37755E-13-2.84092E-13
 -1      4239 1.99673E+01 3.50162E-02-6.26980E-04 3.22891E-02 2.43766E-13-2.76531E-13
 -1      4240 1.99743E+01 3.19902E-02 1.84074E-04 2.39734E-02 1.32772E-13-2.33561E-13
 -1      4241 1.99756E+01 3.00131E-02-4.42745E-04 1.69965E-02-1.76346E-14-1.47534E-13
 -1      4242 1.99806E+01 2.69499E-02 5.49859E-05 1.23841E-02-3.70879E-14-1.02693E-13
 -1      4243 1.99823E+01 2.47282E-02-3.03000E-04 8.21804E-03 3.31034E-14-9.84330E-14
 -1      4244 1.99859E+01 2.19396E-02-8.11077E-06 5.81609E-03 1.08119E-13-1.71467E-13
 -1      4245 1.99876E+01 1.97983E-02-2.02671E-04 3.40649E-03 5.34097E-14-1.39720E-13
 -1      4246 1.99901E+01 1.73998E-02-3.56416E-05 2.27723E-03-6.53882E-14-2.23523E-13
 -1      4247 1.99916E+01 1.54930E-02-1.32831E-04 9.27022E-04-3.44936E-14-9.34348E-14
 -1      4248 1.99934E+01 1.34078E-02-4.34509E-05 4.76219E-04-6.75526E-14-6.25035E-14
 -1      4249 1.99946E+01 1.17935E-02-8.60756E-05-2.39757E-04 1.28398E-15 9.06429E-14
 -1      4250 1.99957E+01 1.01999E-02-4.24882E-05-3.05121E-04 2.60607E-13 1.20579E-13
 -1      4251 1.99966E+01 8.87809E-03-5.30798E-05-6.66036E-04 2.06000E-13-1.64845E-14
 -1      4252 1.99974E+01 7.61359E-03-3.52123E-05-5.76170E-04 1.80742E-13-9.68178E-14
 -1      4253 1.99980E+01 6.55345E-03-3.21845E-05-7.42923E-04 2.00783E-13-1.33119E-13
 -1      4254 1.99985E+01 5.56935E-03-2.63491E-05-5.99749E-04 1.08505E-13-1.94399E-13
 -1      4255 1.99990E+01 4.73882E-03-1.61580E-05-6.62894E-04 7.04929E-14-2.73233E-13
 -1      4256 1.99992E+01 3.99284E-03-1.14974E-05-5.26917E-04 1.72416E-13-2.33779E-13
 -1      4257 1.99513E+01 3.11636E-03-7.72090E-04 2.68269E-01-4.70390E-14-3.90739E-14
 -1      4258 1.99642E+01 1.63592E-02 3.14851E-03 2.07741E-01-3.75145E-14-2.10255E-14
 -1      4259 2.03185E+01-4.07008E-01 8.71206E-03 9.26706E-01-1.05579E-14-1.32736E-13
 -1      4260 2.05194E+01-5.56556E-01 1.52358E-02 1.02691E+00-4.30307E-14-6.88382E-14
 -1      4261 2.00617E+01-1.55221E-01 2.47316E-03 6.25062E-01 4.00373E-14-1.60920E-13
 -1      4262 2.01789E+01-2.39507E-01 1.13415E-02 7.19164E-01 1.01855E-14-1.82110E-13
 -1      4263 1.99824E+01-5.17926E-02 1.26529E-04 4.16167E-01 3.97251E-14-3.94296E-14
 -1      4264 2.00519E+01-9.91889E-02 8.38767E-03 4.93602E-01 5.27865E-14-1.17718E-13
 -1      4265 1.99895E+01-2.24521E-02 5.23416E-03 3.25532E-01 1.55905E-14-1.97255E-14
 -1      4266 2.06626E+01-7.34757E-01 1.14840E-02 1.27526E+00-4.83966E-14-6.45710E-14
 -1      4267 2.01926E+01 7.26434E-01-1.74078E-03-5.60222E-01-1.61809E-14-1.76412E-13
 -1      4268 2.01263E+01 9.47407E-01 1.62817E-03-4.92004E-01-7.67656E-15-1.79683E-13
 -1      4269 1.99997E+01 2.62945E-03 2.70936E-06-3.91056E-04 4.22692E-14-4.77030E-13
 -1      4270 2.03416E+01 5.52479E-01 5.09903E-03-6.16680E-01-9.02197E-15-1.45329E-13
 -1      4271 2.15429E+01-1.31344E+00 1.93111E-02 1.31084E+00-1.71256E-14-6.70128E-14
 -1      4272 2.07359E+01-2.19369E-01 9.45926E-03-9.94110E-01-5.01692E-14-1.30220E-13
 -1      4273 2.08389E+01-4.63440E-01 1.70177E-04-1.18608E+00-6.80068E-14-1.62488E-13
 -1      4274 2.10038E+01-3.97521E-01-3.76013E-03-7.32502E-01-4.94971E-14-1.01622E-13
 -1      4275 2.13216E+01-1.06396E+00 5.41043E-03-1.64916E+00-9.27800E-14-1.62281E-13
 -1      4276 2.09233E+01-9.75990E-01-5.18210E-04 1.39307E+00-1.35373E-15-9.86431E-14
 -1      4277 2.05501E+01 2.07478E-01 2.80303E-03-6.74846E-01-7.89256E-15-1.16629E-13
 -1      4278 2.06075E+01-8.73277E-04-6.33575E-04-8.19832E-01-5.81531E-15-1.12669E-13
 -1      4279 2.14142E+01-1.07418E+00-1.35724E-02-1.36481E+00-8.89144E-14-1.38397E-13
 -1      4280 2.16024E+01-1.09642E+00 3.48570E-03-1.12827E+00-1.03536E-13-1.20938E-13
 -1      4281 2.13075E+01-8.25891E-01 3.09006E-03-1.04612E+00-1.07539E-13-1.38356E-13
 -1      4282 2.11529E+01-8.84040E-01 6.49886E-03-1.54066E+00-8.10309E-14-1.72603E-13
 -1      4283 1.99997E+01 2.80091E-03 7.97281E-07-5.10555E-04-1.71136E-13-7.35487E-13
 -1      4284 1.99995E+01 3.08032E-03-9.01615E-06-3.58702E-04 3.53550E-14-3.03823E-13
 -1      4285 1.99994E+01 3.47689E-03 6.35647E-06-3.46510E-04-5.86358E-14-3.11975E-13
 -1      4286 1.99997E+01 3.07188E-03-4.69496E-07-5.86605E-04 5.96389E-14-4.98713E-13
 -1      4287 2.11092E+01-6.99188E-01-1.14123E-02-1.11517E+00-8.93234E-14-1.29089E-13
 -1      4288 2.09885E+01-6.50658E-01 9.71374E-03-1.36125E+00-5.71289E-14-1.76293E-13
 -1      4289 1.99992E+01 3.90743E-03 9.97429E-06-3.23114E-04 1.50218E-14-3.09397E-13
 -1      4290 1.99996E+01 3.36296E-03-1.14004E-05-6.95513E-04 2.54081E-13-5.09108E-13
 -1      4291 2.08595E+01-2.44712E-01 6.44309E-05-7.85326E-01-4.29065E-14-1.15742E-13
 -1      4292 2.11518E+01-6.30031E-01 5.72716E-05-9.04303E-01-9.78969E-14-8.92670E-14
 -3
    1PSTEP                         3           1           1          
  100CL  101 1.000000000        4292                     0    1           1
 -4  TOSTRAIN    6    1
 -5  EXX         1    4    1    1
 -5  EYY         1    4    2    2
 -5  EZZ         1    4    3    3
 -5  EXY         1    4    1    2
 -5  EYZ         1    4    2    3
 -5  EZX         1    4    3    1
 -1         1 4.50216E-04-1.43882E-04-9.94053E-05 1.27719E-06-9.69853E-20 3.39727E-18
 -1         2 4.14385E-05-1.27986E-04 2.47542E-05 2.27329E-06 7.60106E-18 1.68507E-19
 -1         3 9.52372E-05-2.85711E-05-2.85712E-05 8.27702E-11-2.65229E-18-2.39495E-18
 -1         4 9.52372E-05-2.85711E-05-2.85712E-05-1.40262E-10 3.91031E-19 1.11344E-18
 -1         5 1.43400E-04-2.14770E-05-4.25618E-05 3.85131E-05-1.84441E-19 1.25697E-17
 -1         6 1.45108E-04 2.57523E-10-4.41543E-05-5.33613E-05-7.59789E-19 7.59280E-18
 -1         7 9.07400E-05-5.28372E-07-3.90952E-05-2.90656E-05-1.19855E-19-3.73409E-19
 -1         8 8.53045E-05 7.62788E-08-3.64009E-05-2.00065E-05-1.00188E-19-2.45727E-18
 -1         9 8.29618E-05 7.07385E-08-3.54081E-05-1.53424E-05-6.46127E-20-3.34849E-18
 -1        10 8.18433E-05 3.63144E-08-3.49130E-05-1.18043E-05-1.27121E-20-3.67214E-18
 -1        11 8.12306E-05 2.00979E-08-3.46514E-05-8.81595E-06-6.05165E-21-3.71912E-18
 -1        12 8.08904E-05 1.15716E-08-3.45100E-05-6.19364E-06 1.91707E-20-3.55677E-18
 -1        13 8.07104E-05 7.58971E-09-3.44354E-05-3.70915E-06 1.29727E-20-3.26788E-18
 -1        14 8.06470E-05 5.44041E-09-3.44075E-05-1.30349E-06 6.87073E-20-3.07003E-18
 -1        15 8.06709E-05 4.63538E-09-3.44138E-05 1.10562E-06 6.75012E-20-2.81733E-18
 -1        16 8.07697E-05 5.56990E-09-3.44505E-05 3.58580E-06 8.94248E-20-2.51094E-18
 -1        17 8.09541E-05 8.84367E-09-3.45233E-05 6.20060E-06 1.03626E-19-2.05460E-18
 -1        18 8.12616E-05 1.84624E-08-3.46522E-05 8.97177E-06 1.16345E-19-1.46516E-18
 -1        19 8.18173E-05 3.84921E-08-3.48960E-05 1.21028E-05 1.61221E-19-6.16566E-19
 -1        20 8.28857E-05 8.04388E-08-3.53811E-05 1.57457E-05 1.79187E-19 6.27476E-19
 -1        21 8.51615E-05 1.68476E-07-3.64054E-05 2.03842E-05 1.96750E-19 2.70257E-18
 -1        22 9.17377E-05-1.04322E-07-3.87747E-05 2.79346E-05 1.54584E-20 6.22406E-18
 -1        23 1.12980E-04-3.81333E-05-3.54008E-05-4.35411E-06-5.07796E-19 4.99887E-18
 -1        24 9.30525E-05-2.77757E-05-2.90699E-05 3.91426E-07-1.57336E-19 2.93421E-18
 -1        25 8.96144E-05-2.70069E-05-2.70782E-05 3.70588E-07-6.50511E-20 8.43089E-19
 -1        26 8.88612E-05-2.67514E-05-2.66512E-05 1.97647E-07-1.59067E-21-7.82751E-19
 -1        27 8.94567E-05-2.69054E-05-2.68215E-05 1.34630E-07-2.39469E-20-1.54163E-18
 -1        28 9.09510E-05-2.73362E-05-2.72928E-05 1.02071E-07-2.54267E-20-2.02735E-18
 -1        29 9.33459E-05-2.80542E-05-2.80419E-05 8.46536E-08-1.72550E-20-2.70264E-18
 -1        30 9.71715E-05-2.91975E-05-2.92471E-05 1.21482E-07-1.13505E-19-3.35364E-18
 -1        31 1.02825E-04-3.08923E-05-3.10423E-05 2.05334E-07 9.73856E-20-3.37409E-18
 -1        32 1.11669E-04-3.35250E-05-3.38636E-05 4.11787E-07-1.04003E-19-3.21984E-18
 -1        33 1.25549E-04-3.76399E-05-3.82398E-05 8.44311E-07 1.05839E-19-2.13415E-18
 -1        34 1.46603E-04-4.39062E-05-4.45919E-05 1.63131E-06-1.18446E-19-1.40110E-18
 -1        35 1.75486E-04-5.26735E-05-5.24557E-05 2.67129E-06 2.28203E-20-8.87585E-19
 -1        36 2.05580E-04-6.23527E-05-5.91788E-05 2.30589E-06-2.15755E-19 1.37484E-19
 -1        37 2.16137E-04-6.61105E-05-6.03693E-05-2.00406E-06-1.68083E-20 6.33581E-19
 -1        38 1.83903E-04-5.50730E-05-5.46629E-05-9.96963E-06 2.19805E-19 4.56974E-19
 -1        39 1.18398E-04-3.14965E-05-4.63456E-05-1.27770E-05-5.00173E-19-1.60597E-18
 -1        40 7.43105E-05-1.44204E-05-4.16885E-05-1.53748E-06-4.81856E-19-9.75676E-18
 -1        41 9.67716E-05-2.31620E-05-4.41466E-05 1.07239E-05 1.90529E-19-1.40298E-17
 -1        42 1.60026E-04-4.63036E-05-5.16140E-05 1.17056E-05 3.63827E-20-1.49175E-17
 -1        43 2.12177E-04-6.51723E-05-5.92240E-05 4.74134E-06-5.70688E-20-1.33177E-17
 -1        44 2.13267E-04-6.50539E-05-6.06288E-05-1.58404E-06 3.93966E-19-7.82212E-18
 -1        45 1.84282E-04-5.54296E-05-5.47525E-05-2.25893E-06-2.30360E-19-4.39515E-18
 -1        46 1.54124E-04-4.61107E-05-4.68410E-05-1.49303E-06 4.15741E-20-4.42649E-18
 -1        47 1.31698E-04-3.93979E-05-4.01849E-05-7.97356E-07 2.45209E-20-5.44245E-18
 -1        48 1.17073E-04-3.50750E-05-3.55804E-05-3.85864E-07 4.88090E-19-4.67385E-18
 -1        49 1.08095E-04-3.24228E-05-3.26904E-05-1.75603E-07-7.00407E-19-9.24923E-18
 -1        50 1.02727E-04-3.08290E-05-3.09593E-05-8.17554E-08 6.34156E-19-1.15120E-17
 -1        51 9.94678E-05-2.98530E-05-2.99103E-05-2.51800E-08 2.74893E-20-1.00300E-17
 -1        52 9.76801E-05-2.93157E-05-2.93408E-05-8.07417E-09-2.58988E-19-8.81953E-18
 -1        53 9.66382E-05-2.90000E-05-2.90108E-05-2.92915E-10 3.03434E-19-6.56268E-18
 -1        54 9.60337E-05-2.88160E-05-2.88202E-05 2.47046E-09 5.40389E-19-4.61009E-18
 -1        55 9.56839E-05-2.87092E-05-2.87104E-05 3.03812E-09-1.50831E-19-2.77115E-18
 -1        56 9.54820E-05-2.86472E-05-2.86473E-05 2.76267E-09 5.18305E-19-4.41508E-18
 -1        57 9.53659E-05-2.86115E-05-2.86111E-05 2.23443E-09-8.17864E-19-7.49375E-18
 -1        58 9.52995E-05-2.85910E-05-2.85905E-05 1.59663E-09 3.49682E-19-7.38342E-18
 -1        59 9.52605E-05-2.85789E-05-2.85784E-05 1.30424E-09-3.85074E-19-6.76489E-18
 -1        60 9.52404E-05-2.85726E-05-2.85722E-05 9.19695E-10-1.20815E-20-6.45803E-18
 -1        61 9.52297E-05-2.85692E-05-2.85689E-05 6.71035E-10-8.23628E-19-4.38547E-18
 -1        62 9.52245E-05-2.85675E-05-2.85673E-05 4.92205E-10 1.36321E-18-1.95185E-18
 -1        63 9.52226E-05-2.85669E-05-2.85668E-05 3.65201E-10-3.94313E-19-5.72809E-19
 -1        64 9.52226E-05-2.85669E-05-2.85668E-05 2.75305E-10 1.74003E-19-2.75846E-18
 -1        65 9.52238E-05-2.85672E-05-2.85671E-05 2.08212E-10-1.83711E-19-4.83273E-18
 -1        66 9.52257E-05-2.85677E-05-2.85677E-05 1.68455E-10 6.18554E-19-3.80921E-18
 -1        67 9.52278E-05-2.85684E-05-2.85683E-05 1.35987E-10-7.48367E-19-2.01382E-18
 -1        68 9.52300E-05-2.85690E-05-2.85690E-05 1.15412E-10-1.61435E-19 1.17538E-18
 -1        69 9.52323E-05-2.85697E-05-2.85697E-05 1.01433E-10 1.56624E-18 6.20748E-18
 -1        70 9.52343E-05-2.85703E-05-2.85703E-05 8.98823E-11-6.00170E-19 1.20769E-17
 -1        71 9.52360E-05-2.85708E-05-2.85708E-05 7.43997E-11-5.00565E-19 7.37917E-18
 -1        72 9.52370E-05-2.85711E-05-2.85711E-05-4.28771E-12 1.25547E-18 3.09260E-18
 -1        73 1.02332E-04-3.06333E-05-3.41985E-05-1.94009E-06 3.63165E-20 1.24842E-17
 -1        74 9.27939E-05-2.75857E-05-2.89732E-05-3.40199E-07 2.05405E-20 1.08764E-17
 -1        75 8.93792E-05-2.67858E-05-2.70483E-05-1.38226E-07 1.37477E-20 9.54766E-18
 -1        76 8.83116E-05-2.65195E-05-2.65099E-05-1.10009E-07 2.74434E-20 8.47217E-18
 -1        77 8.82436E-05-2.64941E-05-2.64541E-05-9.19749E-08 1.03056E-20 7.91131E-18
 -1        78 8.85355E-05-2.65711E-05-2.65375E-05-7.87518E-08 2.68893E-20 7.29082E-18
 -1        79 8.88277E-05-2.66521E-05-2.66207E-05-6.77657E-08-4.43322E-21 6.79541E-18
 -1        80 8.88694E-05-2.66615E-05-2.66261E-05-5.53040E-08 6.30822E-20 6.47137E-18
 -1        81 8.84622E-05-2.65389E-05-2.64958E-05-3.80599E-08-1.76327E-19 6.27846E-18
 -1        82 8.74496E-05-2.62368E-05-2.61855E-05-1.33058E-08 1.27991E-19 6.10548E-18
 -1        83 8.57345E-05-2.57254E-05-2.56694E-05 2.03247E-08 5.40161E-20 5.51942E-18
 -1        84 8.33142E-05-2.50033E-05-2.49500E-05 6.14350E-08 2.96865E-20 5.31224E-18
 -1        85 8.03202E-05-2.41087E-05-2.40697E-05 1.04547E-07 1.10252E-19 5.31245E-18
 -1        86 7.70432E-05-2.31271E-05-2.31155E-05 1.40017E-07-1.21046E-19 6.20728E-18
 -1        87 7.39181E-05-2.21881E-05-2.22136E-05 1.56250E-07 2.64682E-19 5.17791E-18
 -1        88 7.14538E-05-2.14443E-05-2.15083E-05 1.44241E-07-3.92076E-19 4.26136E-18
 -1        89 7.01138E-05-2.10361E-05-2.11285E-05 1.02541E-07 3.09725E-20 4.79498E-18
 -1        90 7.01846E-05-2.10516E-05-2.11530E-05 3.95106E-08 2.11867E-19 5.00610E-18
 -1        91 7.16872E-05-2.14988E-05-2.15873E-05-2.92312E-08-6.90688E-20 4.18855E-18
 -1        92 7.43733E-05-2.23038E-05-2.23627E-05-8.71264E-08-1.14906E-19 4.36711E-18
 -1        93 7.78079E-05-2.33356E-05-2.33583E-05-1.23053E-07 4.53493E-20 4.36922E-18
 -1        94 8.14987E-05-2.44451E-05-2.44356E-05-1.34278E-07-1.24494E-19 4.67853E-18
 -1        95 8.50169E-05-2.55027E-05-2.54714E-05-1.25228E-07 1.61345E-19 2.67408E-18
 -1        96 8.80702E-05-2.64200E-05-2.63788E-05-1.03854E-07-8.05999E-20 1.74307E-18
 -1        97 9.05184E-05-2.71551E-05-2.71136E-05-7.80558E-08-1.47438E-19 3.55220E-18
 -1        98 9.23477E-05-2.77039E-05-2.76683E-05-5.35763E-08 2.39946E-19 4.45638E-18
 -1        99 9.36267E-05-2.80874E-05-2.80601E-05-3.34975E-08-3.24716E-19 2.40650E-18
 -1       100 9.44624E-05-2.83380E-05-2.83189E-05-1.87323E-08-1.30713E-19 1.06266E-18
 -1       101 9.49688E-05-2.84898E-05-2.84777E-05-8.85621E-09 1.81710E-20 9.39120E-19
 -1       102 9.52472E-05-2.85733E-05-2.85664E-05-2.85050E-09 2.36408E-19-1.26076E-18
 -1       103 9.53783E-05-2.86128E-05-2.86093E-05 4.05011E-10-3.56197E-19-2.14665E-18
 -1       104 9.54211E-05-2.86258E-05-2.86245E-05 1.87922E-09 6.97922E-20 4.84612E-19
 -1       105 9.54162E-05-2.86244E-05-2.86243E-05 2.30344E-09 4.49924E-20 4.39180E-19
 -1       106 9.53891E-05-2.86164E-05-2.86169E-05 2.17732E-09 3.34587E-19-3.49902E-19
 -1       107 9.53551E-05-2.86063E-05-2.86070E-05 1.81355E-09-1.16761E-19-2.14316E-18
 -1       108 9.53222E-05-2.85965E-05-2.85972E-05 1.39058E-09-4.71428E-19-1.91864E-18
 -1       109 9.52943E-05-2.85882E-05-2.85888E-05 9.98639E-10 3.88129E-19-5.24994E-19
 -1       110 9.52724E-05-2.85817E-05-2.85822E-05 6.74635E-10-5.68005E-19 5.98196E-19
 -1       111 9.52564E-05-2.85769E-05-2.85772E-05 4.25949E-10 1.02866E-20 2.43469E-18
 -1       112 9.52453E-05-2.85736E-05-2.85738E-05 2.45556E-10 3.53783E-19 1.58544E-18
 -1       113 9.52383E-05-2.85715E-05-2.85717E-05 1.20844E-10-3.11954E-19 4.60065E-19
 -1       114 9.52343E-05-2.85703E-05-2.85704E-05 3.83364E-11-1.02737E-19 2.14336E-18
 -1       115 9.52324E-05-2.85697E-05-2.85698E-05-1.40796E-11-1.07279E-19 1.39868E-18
 -1       116 9.52320E-05-2.85696E-05-2.85696E-05-4.63034E-11 4.37616E-19-1.48955E-18
 -1       117 9.52326E-05-2.85698E-05-2.85698E-05-6.59312E-11-2.82445E-19-2.29782E-18
 -1       118 9.52337E-05-2.85701E-05-2.85701E-05-7.85126E-11 1.21266E-19-6.75383E-18
 -1       119 9.52350E-05-2.85705E-05-2.85705E-05-8.66760E-11 5.54205E-19-8.30299E-18
 -1       120 9.52363E-05-2.85709E-05-2.85708E-05-8.53190E-11-5.01178E-19-4.78422E-18
 -1       121 9.52370E-05-2.85711E-05-2.85711E-05-4.14358E-11 1.12026E-18-4.77897E-18
 -1       122 9.52372E-05-2.85713E-05-2.85711E-05-3.20498E-11-4.00462E-18 3.71854E-19
 -1       123 9.52374E-05-2.85720E-05-2.85709E-05-6.64520E-11-3.65359E-18 5.93715E-19
 -1       124 9.52377E-05-2.85731E-05-2.85705E-05-7.27192E-11-7.53312E-19-5.29131E-20
 -1       125 9.52381E-05-2.85743E-05-2.85702E-05-6.17320E-11-1.04288E-18-3.90462E-19
 -1       126 9.52384E-05-2.85754E-05-2.85699E-05-4.92519E-11 2.85076E-18-1.49384E-18
 -1       127 9.52387E-05-2.85763E-05-2.85696E-05-3.89561E-11 1.13909E-18 3.64695E-19
 -1       128 9.52389E-05-2.85771E-05-2.85694E-05-2.94441E-11 2.03410E-18 1.35019E-18
 -1       129 9.52391E-05-2.85776E-05-2.85692E-05-1.92049E-11-1.99227E-18-1.16608E-18
 -1       130 9.52391E-05-2.85778E-05-2.85692E-05-6.04821E-12-3.09285E-18 8.75538E-19
 -1       131 9.52391E-05-2.85777E-05-2.85692E-05 1.16297E-11-1.97703E-19-8.70283E-19
 -1       132 9.52390E-05-2.85773E-05-2.85693E-05 3.49810E-11-2.42296E-18-1.85039E-19
 -1       133 9.52387E-05-2.85764E-05-2.85696E-05 5.93496E-11-1.26172E-18 1.19091E-18
 -1       134 9.52383E-05-2.85751E-05-2.85700E-05 8.42267E-11-5.03672E-18-5.13806E-19
 -1       135 9.52379E-05-2.85736E-05-2.85704E-05 9.92136E-11-4.76788E-18 3.30958E-19
 -1       136 9.52374E-05-2.85722E-05-2.85708E-05 6.99946E-11 5.00342E-19-8.94806E-19
 -1       137 9.52372E-05-2.85712E-05-2.85711E-05-3.29166E-11 1.35662E-18 9.91070E-19
 -1       138 2.62081E-05-8.80288E-05 1.62740E-05-2.18004E-05 6.68182E-18 7.15266E-19
 -1       139 7.23709E-06-2.34206E-05 6.79686E-08-9.58071E-06 5.40534E-18 2.55783E-18
 -1       140 1.59008E-05 2.83847E-05-2.13458E-05 3.98829E-05 7.96973E-18 6.86859E-18
 -1       141 7.42148E-05 3.39237E-05-4.36812E-05 9.89238E-05 6.99014E-18 7.45770E-18
 -1       142 1.77645E-04-6.70258E-06-6.57271E-05 1.32026E-04 3.80085E-18 7.15531E-18
 -1       143 2.82224E-04-6.69175E-05-8.11612E-05 1.05858E-04 7.82023E-19 2.09937E-18
 -1       144 3.39303E-04-1.03059E-04-8.84445E-05 2.82952E-05-2.41510E-19-5.64516E-18
 -1       145 3.23711E-04-9.30339E-05-8.64878E-05-6.13860E-05 1.95021E-18-1.20128E-17
 -1       146 2.40454E-04-4.19657E-05-7.52244E-05-1.22692E-04 6.62549E-18-1.59844E-17
 -1       147 1.31986E-04 1.35441E-05-5.67315E-05-1.22851E-04 1.11440E-17-1.68737E-17
 -1       148 4.56272E-05 3.70420E-05-3.47365E-05-7.66109E-05 1.37452E-17-1.34657E-17
 -1       149 7.14726E-06 1.27253E-05-1.27274E-05-1.70084E-05 1.25357E-17-7.92738E-18
 -1       150 1.22657E-05-4.69587E-05 6.55320E-06 2.00216E-05 7.49497E-18-3.00188E-18
 -1       151 3.38752E-05-1.07737E-04 2.04597E-05 1.79514E-05-1.08208E-18 2.18243E-20
 -1       152 4.17030E-05-1.31814E-04 2.59893E-05-1.43597E-05-9.56819E-18-1.15882E-18
 -1       153 2.74437E-05-1.09138E-04 2.19264E-05-4.26934E-05-1.55373E-17-4.86785E-18
 -1       154 5.05770E-06-5.55778E-05 9.15052E-06-4.27394E-05-1.65985E-17-9.15643E-18
 -1       155 6.68985E-06-3.29066E-06-1.14257E-05 1.53529E-08-1.34831E-17-1.11232E-17
 -1       156 7.15653E-05 1.25935E-05-3.93345E-05 7.16557E-05-9.00608E-18-1.20516E-17
 -1       157 2.10584E-04-2.92925E-05-6.81664E-05 1.25291E-04-5.39179E-18-1.14748E-17
 -1       158 3.75700E-04-1.05619E-04-9.09653E-05 9.86247E-05-1.73239E-18-5.86909E-18
 -1       159 3.70478E-04-1.02875E-04-9.01964E-05-1.02892E-04-2.41828E-18 9.51387E-18
 -1       160 1.93885E-04-2.30462E-05-6.50262E-05-1.20377E-04-4.41050E-18 1.08556E-17
 -1       161 5.62192E-05 1.46009E-05-3.48692E-05-6.03432E-05-6.28837E-18 7.31582E-18
 -1       162 2.46187E-06-1.05414E-05-7.36223E-06 1.09067E-05-8.28186E-18 6.54333E-18
 -1       163 9.22133E-06-7.04663E-05 1.31915E-05 4.79193E-05-2.85958E-18 2.35316E-18
 -1       164 3.38162E-05-1.21227E-04 2.41242E-05 3.76109E-05 3.93595E-18-2.17370E-18
 -1       165 9.51087E-05-1.24382E-05-3.56300E-05-2.20640E-05-1.38180E-18-1.23932E-18
 -1       166 8.94413E-05-8.47638E-06-3.48594E-05-1.70639E-05-1.05888E-18-2.43730E-18
 -1       167 8.66258E-05-6.44647E-06-3.44717E-05-1.32838E-05-6.22420E-19-2.98361E-18
 -1       168 8.51143E-05-5.37215E-06-3.42569E-05-1.01260E-05-3.03297E-19-3.12492E-18
 -1       169 8.42552E-05-4.75723E-06-3.41382E-05-7.41321E-06-3.42420E-20-3.01507E-18
 -1       170 8.37688E-05-4.40812E-06-3.40721E-05-4.89310E-06 2.45426E-19-2.85792E-18
 -1       171 8.35533E-05-4.25717E-06-3.40411E-05-2.49537E-06 5.91136E-19-2.63854E-18
 -1       172 8.35390E-05-4.25787E-06-3.40339E-05-1.27512E-07 8.43257E-19-2.44808E-18
 -1       173 8.36868E-05-4.38372E-06-3.40449E-05 2.28271E-06 1.06835E-18-2.23068E-18
 -1       174 8.39905E-05-4.63020E-06-3.40735E-05 4.79652E-06 1.21905E-18-1.94014E-18
 -1       175 8.44802E-05-5.01445E-06-3.41267E-05 7.42972E-06 1.37729E-18-1.45369E-18
 -1       176 8.52935E-05-5.62706E-06-3.42281E-05 1.03535E-05 1.59077E-18-7.56434E-19
 -1       177 8.67160E-05-6.65916E-06-3.44260E-05 1.36519E-05 1.72975E-18 1.99265E-19
 -1       178 8.94784E-05-8.64159E-06-3.48116E-05 1.75284E-05 1.66786E-18 1.67949E-18
 -1       179 9.58974E-05-1.36572E-05-3.54583E-05 2.18074E-05 1.28194E-18 3.94569E-18
 -1       180 1.05747E-04-2.61521E-05-3.53028E-05 1.85978E-05 7.23545E-19 6.69008E-18
 -1       181 1.03645E-04-2.73838E-05-3.26792E-05-1.19082E-05-1.25970E-18 4.99458E-19
 -1       182 9.75294E-05-2.84006E-05-2.96595E-05-4.46437E-06-1.14270E-18 6.35275E-21
 -1       183 9.41910E-05-2.78015E-05-2.84010E-05-1.38588E-06-8.84428E-19-3.63959E-19
 -1       184 9.30547E-05-2.76552E-05-2.79875E-05 1.90239E-07-5.80446E-19-8.95721E-19
 -1       185 9.31049E-05-2.77124E-05-2.79984E-05 1.25190E-06-3.78655E-19-1.26024E-18
 -1       186 9.40542E-05-2.79578E-05-2.83047E-05 2.24203E-06-4.06634E-19-1.38386E-18
 -1       187 9.59739E-05-2.84009E-05-2.89359E-05 3.55786E-06-1.50358E-19-1.50964E-18
 -1       188 9.88585E-05-2.90268E-05-2.98998E-05 5.43880E-06-1.42689E-19-1.34678E-18
 -1       189 1.03123E-04-2.99137E-05-3.13471E-05 8.35000E-06-1.43334E-20-1.54225E-18
 -1       190 1.09268E-04-3.12016E-05-3.34392E-05 1.27657E-05 5.43272E-19-1.00674E-18
 -1       191 1.17863E-04-3.32285E-05-3.62669E-05 1.88661E-05 5.94796E-19-8.31733E-19
 -1       192 1.29404E-04-3.68855E-05-3.96010E-05 2.54671E-05 5.64157E-19 1.81411E-19
 -1       193 1.44349E-04-4.43978E-05-4.25844E-05 2.77188E-05 6.73272E-19 9.46798E-19
 -1       194 1.61540E-04-5.67267E-05-4.44158E-05 1.71293E-05 9.20301E-19 1.96928E-18
 -1       195 1.92412E-04-6.30101E-05-5.62084E-05-4.37766E-05-1.83467E-18 1.83806E-19
 -1       196 1.96784E-04-4.43470E-05-6.52217E-05-2.88906E-05-4.96171E-18-2.24998E-18
 -1       197 1.97326E-04-3.98639E-05-6.69768E-05 1.32605E-05-3.02264E-18-3.49068E-18
 -1       198 1.92111E-04-5.51551E-05-5.97117E-05 4.39076E-05-1.07870E-18-5.78333E-18
 -1       199 1.88785E-04-7.02639E-05-5.11316E-05 3.09333E-05 1.24734E-18-6.04742E-18
 -1       200 1.73635E-04-6.07155E-05-4.76819E-05-8.51651E-06 2.65344E-18-4.99245E-18
 -1       201 1.54328E-04-4.76822E-05-4.53717E-05-2.42150E-05 1.63180E-18-4.60868E-18
 -1       202 1.37405E-04-3.98205E-05-4.17953E-05-2.33897E-05 1.69969E-20-3.54002E-18
 -1       203 1.23912E-04-3.54706E-05-3.79453E-05-1.73357E-05-5.12766E-19-3.92982E-18
 -1       204 1.14032E-04-3.29261E-05-3.47781E-05-1.14710E-05-6.60176E-19-5.78970E-18
 -1       205 1.07244E-04-3.13419E-05-3.25230E-05-7.18579E-06-1.94175E-18-7.29268E-18
 -1       206 1.02767E-04-3.03229E-05-3.10330E-05-4.37895E-06-6.19681E-19-6.06342E-18
 -1       207 9.98009E-05-2.96482E-05-3.00502E-05-2.56578E-06 1.56562E-18-6.95984E-18
 -1       208 9.80516E-05-2.92444E-05-2.94781E-05-1.52801E-06 7.82379E-19-5.67261E-18
 -1       209 9.69615E-05-2.89886E-05-2.91239E-05-9.06863E-07 1.15275E-18-5.07987E-18
 -1       210 9.62888E-05-2.88285E-05-2.89068E-05-5.36723E-07 6.10877E-19-5.12538E-18
 -1       211 9.58754E-05-2.87289E-05-2.87741E-05-3.17063E-07 1.30439E-18-3.79665E-18
 -1       212 9.56219E-05-2.86670E-05-2.86931E-05-1.87021E-07-1.47590E-18-2.88388E-18
 -1       213 9.54666E-05-2.86286E-05-2.86437E-05-1.10123E-07-1.05192E-18-4.81768E-18
 -1       214 9.53714E-05-2.86048E-05-2.86135E-05-6.47057E-08 7.30208E-19-3.10840E-18
 -1       215 9.53111E-05-2.85896E-05-2.85945E-05-3.67567E-08-1.34418E-19-4.28660E-18
 -1       216 9.52766E-05-2.85808E-05-2.85836E-05-2.11439E-08-1.09635E-19-4.24118E-18
 -1       217 9.52557E-05-2.85754E-05-2.85771E-05-1.18475E-08 7.31042E-19-3.06226E-18
 -1       218 9.52433E-05-2.85722E-05-2.85732E-05-6.25420E-09 8.04897E-19-2.29627E-18
 -1       219 9.52362E-05-2.85704E-05-2.85710E-05-2.87350E-09 3.83363E-19-3.76144E-18
 -1       220 9.52325E-05-2.85695E-05-2.85698E-05-8.23211E-10-6.60814E-19-3.57091E-18
 -1       221 9.52308E-05-2.85691E-05-2.85693E-05 4.12249E-10-1.31580E-18-4.82824E-18
 -1       222 9.52305E-05-2.85691E-05-2.85692E-05 1.17467E-09 1.37565E-18-5.11283E-18
 -1       223 9.52310E-05-2.85693E-05-2.85693E-05 1.57546E-09 9.89138E-19-4.45116E-18
 -1       224 9.52320E-05-2.85696E-05-2.85696E-05 1.76214E-09 1.81024E-18-8.98460E-19
 -1       225 9.52332E-05-2.85700E-05-2.85699E-05 1.79035E-09 2.82284E-18-3.59505E-19
 -1       226 9.52345E-05-2.85704E-05-2.85703E-05 1.67087E-09 2.20229E-18-1.18826E-18
 -1       227 9.52356E-05-2.85708E-05-2.85706E-05 1.37619E-09-1.29815E-18 8.92089E-19
 -1       228 9.52365E-05-2.85711E-05-2.85709E-05 8.55614E-10-2.89861E-18-1.21076E-19
 -1       229 9.52370E-05-2.85714E-05-2.85710E-05 4.32593E-10-1.37302E-18-1.78701E-18
 -1       230 9.96702E-05-2.86076E-05-3.06353E-05 7.16688E-06 8.60731E-19 5.93612E-18
 -1       231 9.46146E-05-2.78457E-05-2.85804E-05 2.75411E-06 7.67736E-19 5.18839E-18
 -1       232 9.22785E-05-2.74789E-05-2.77248E-05 9.65642E-07 5.99964E-19 4.41382E-18
 -1       233 9.12206E-05-2.73057E-05-2.73673E-05 1.81068E-07 3.84426E-19 3.99456E-18
 -1       234 9.07779E-05-2.72348E-05-2.72215E-05-9.54022E-08 3.80480E-19 3.76735E-18
 -1       235 9.05680E-05-2.72155E-05-2.71465E-05-7.02845E-08 3.17296E-19 3.31720E-18
 -1       236 9.03243E-05-2.71786E-05-2.70610E-05 1.70791E-07 2.35978E-19 3.04549E-18
 -1       237 8.98525E-05-2.70673E-05-2.69079E-05 5.80486E-07 5.29065E-20 2.83545E-18
 -1       238 8.90110E-05-2.68355E-05-2.66470E-05 1.11361E-06 1.98059E-19 2.55139E-18
 -1       239 8.77130E-05-2.64506E-05-2.62555E-05 1.70648E-06 1.87294E-19 2.42882E-18
 -1       240 8.59448E-05-2.59003E-05-2.57331E-05 2.26502E-06 1.30381E-19 2.31374E-18
 -1       241 8.37886E-05-2.52032E-05-2.51074E-05 2.66563E-06 8.34894E-20 2.31891E-18
 -1       242 8.14379E-05-2.44181E-05-2.44362E-05 2.77485E-06-3.34108E-19 2.46932E-18
 -1       243 7.91875E-05-2.36453E-05-2.38029E-05 2.48793E-06 5.15651E-19 2.94411E-18
 -1       244 7.73886E-05-2.30126E-05-2.33029E-05 1.77574E-06 1.98866E-19 2.91015E-18
 -1       245 7.63682E-05-2.26448E-05-2.30228E-05 7.17047E-07-9.07417E-20 1.98897E-18
 -1       246 7.63390E-05-2.26250E-05-2.30179E-05-5.07441E-07-3.61131E-20 2.05419E-18
 -1       247 7.73340E-05-2.29664E-05-2.32969E-05-1.66584E-06 1.48204E-19 2.67684E-18
 -1       248 7.91977E-05-2.36074E-05-2.38202E-05-2.55052E-06-6.52100E-20 2.29902E-18
 -1       249 8.16383E-05-2.44349E-05-2.45116E-05-3.04132E-06-4.98207E-20 2.24952E-18
 -1       250 8.43139E-05-2.53220E-05-2.52791E-05-3.12805E-06-5.04613E-20 2.06555E-18
 -1       251 8.69168E-05-2.61610E-05-2.60366E-05-2.88942E-06 8.68844E-19 1.40037E-18
 -1       252 8.92269E-05-2.68824E-05-2.67192E-05-2.44796E-06 5.45931E-20 1.68995E-18
 -1       253 9.11274E-05-2.74560E-05-2.72893E-05-1.92586E-06-6.90243E-19 1.57245E-18
 -1       254 9.25905E-05-2.78821E-05-2.77345E-05-1.41702E-06 2.77999E-19 1.86192E-18
 -1       255 9.36503E-05-2.81795E-05-2.80616E-05-9.77874E-07 4.88682E-19 2.13876E-18
 -1       256 9.43738E-05-2.83748E-05-2.82879E-05-6.31606E-07 5.64655E-19 1.44826E-18
 -1       257 9.48378E-05-2.84946E-05-2.84351E-05-3.78187E-07 1.08840E-19 5.48958E-19
 -1       258 9.51143E-05-2.85621E-05-2.85242E-05-2.04824E-07 1.29875E-18 5.35801E-19
 -1       259 9.52636E-05-2.85956E-05-2.85733E-05-9.39638E-08-4.24507E-20-5.98093E-19
 -1       260 9.53317E-05-2.86084E-05-2.85966E-05-2.82707E-08-6.26935E-19-1.28949E-18
 -1       261 9.53519E-05-2.86096E-05-2.86044E-05 6.91860E-09 1.91123E-19-1.07659E-18
 -1       262 9.53463E-05-2.86051E-05-2.86037E-05 2.28337E-08 2.01791E-19 4.28399E-19
 -1       263 9.53289E-05-2.85984E-05-2.85990E-05 2.74473E-08 4.13411E-19 1.04419E-18
 -1       264 9.53082E-05-2.85915E-05-2.85930E-05 2.60609E-08 3.47773E-19 3.90551E-19
 -1       265 9.52884E-05-2.85853E-05-2.85870E-05 2.19802E-08-1.16148E-18 3.12375E-19
 -1       266 9.52716E-05-2.85804E-05-2.85820E-05 1.71222E-08-1.46569E-18 1.27298E-18
 -1       267 9.52585E-05-2.85766E-05-2.85779E-05 1.24954E-08 7.23646E-20 1.56141E-18
 -1       268 9.52489E-05-2.85739E-05-2.85750E-05 8.54996E-09 7.73517E-19 5.28729E-19
 -1       269 9.52423E-05-2.85721E-05-2.85729E-05 5.41547E-09 4.13929E-20 1.44900E-18
 -1       270 9.52381E-05-2.85710E-05-2.85716E-05 3.05531E-09-1.38599E-20 1.68504E-19
 -1       271 9.52357E-05-2.85704E-05-2.85708E-05 1.36051E-09-7.90302E-19 9.14122E-20
 -1       272 9.52347E-05-2.85702E-05-2.85705E-05 2.04073E-10 2.03844E-18 1.20618E-19
 -1       273 9.52345E-05-2.85702E-05-2.85704E-05-5.29667E-10 8.23351E-19-1.56397E-18
 -1       274 9.52349E-05-2.85704E-05-2.85705E-05-9.30283E-10 1.39234E-18-2.68356E-18
 -1       275 9.52356E-05-2.85707E-05-2.85707E-05-1.05212E-09 3.26860E-19-2.40978E-18
 -1       276 9.52363E-05-2.85710E-05-2.85709E-05-9.08627E-10-1.34865E-18-1.70580E-18
 -1       277 9.52369E-05-2.85712E-05-2.85710E-05-5.07898E-10 3.91748E-19-1.92948E-18
 -1       278 9.52372E-05-2.85716E-05-2.85709E-05-7.86236E-10-7.60320E-19 1.57074E-18
 -1       279 9.52374E-05-2.85722E-05-2.85708E-05-1.05871E-09-8.10463E-20 1.30797E-18
 -1       280 9.52377E-05-2.85729E-05-2.85706E-05-1.11755E-09-7.35651E-19 7.71299E-19
 -1       281 9.52379E-05-2.85736E-05-2.85704E-05-1.03973E-09 1.04731E-18 9.16425E-19
 -1       282 9.52381E-05-2.85742E-05-2.85702E-05-9.02181E-10 4.76305E-19-1.84413E-18
 -1       283 9.52383E-05-2.85747E-05-2.85701E-05-7.27534E-10 1.01596E-18-7.50047E-19
 -1       284 9.52384E-05-2.85752E-05-2.85700E-05-5.17001E-10-8.37757E-19-2.61102E-18
 -1       285 9.52385E-05-2.85754E-05-2.85699E-05-2.56435E-10 5.98272E-19-1.01818E-18
 -1       286 9.52386E-05-2.85755E-05-2.85699E-05 6.59616E-11-6.70584E-19-5.53354E-19
 -1       287 9.52385E-05-2.85754E-05-2.85699E-05 4.45673E-10-1.15933E-18-3.72198E-19
 -1       288 9.52384E-05-2.85750E-05-2.85700E-05 8.43594E-10-1.75592E-18 2.86208E-19
 -1       289 9.52382E-05-2.85744E-05-2.85702E-05 1.20790E-09-2.19411E-18-3.00077E-18
 -1       290 9.52379E-05-2.85735E-05-2.85704E-05 1.43398E-09-2.17757E-18 3.35294E-19
 -1       291 9.52375E-05-2.85726E-05-2.85707E-05 1.39352E-09-1.67788E-18 1.73756E-18
 -1       292 9.52372E-05-2.85719E-05-2.85708E-05 1.01611E-09-8.64679E-19 4.78332E-19
 -1       293 1.41066E-05-5.10086E-05 1.28543E-05 2.04594E-05 1.24482E-18-9.29619E-20
 -1       294 3.21653E-05-4.19554E-05 2.15403E-06 3.54527E-05 1.70148E-18 8.34592E-19
 -1       295 6.23790E-05-3.36916E-05-1.35258E-05 4.67878E-05 2.08052E-18 3.03312E-18
 -1       296 1.01829E-04-2.61011E-05-3.24152E-05 5.68110E-05 2.66519E-18 1.36203E-18
 -1       297 1.54605E-04-3.34440E-05-5.09205E-05 4.86096E-05 2.08555E-18 6.46710E-19
 -1       298 1.97992E-04-3.25230E-05-6.81904E-05 4.76350E-05 2.60426E-18-3.56177E-19
 -1       299 2.28263E-04-3.78899E-05-7.80680E-05 2.50804E-05 3.46394E-18-2.35009E-18
 -1       300 2.17456E-04-2.95138E-05-7.81323E-05-3.28265E-06 3.38464E-18-3.58597E-18
 -1       301 2.15056E-04-3.50062E-05-7.42054E-05-3.20168E-05 3.79090E-18-5.87142E-18
 -1       302 1.77924E-04-3.24478E-05-6.06559E-05-4.35908E-05 4.41354E-18-5.44706E-18
 -1       303 1.34883E-04-3.10156E-05-4.37168E-05-5.48779E-05 4.64883E-18-6.24602E-18
 -1       304 8.45715E-05-2.79618E-05-2.47739E-05-5.25166E-05 5.25647E-18-6.80612E-18
 -1       305 4.79059E-05-3.65514E-05-6.76126E-06-3.93301E-05 3.28903E-18-5.56029E-18
 -1       306 2.40030E-05-4.69957E-05 7.15957E-06-2.76950E-05 5.39984E-19-4.85805E-18
 -1       307 1.20426E-05-5.65843E-05 1.55949E-05-1.47105E-05-2.44062E-18-4.15523E-18
 -1       308 9.83305E-06-4.66081E-05 1.32525E-05 3.02962E-07-3.25065E-18-3.91647E-18
 -1       309 2.61247E-05-5.32740E-05 7.62013E-06 8.30034E-06-6.19139E-18-4.13971E-18
 -1       310 5.87057E-05-4.99375E-05-7.47588E-06 2.24988E-05-6.72184E-18-3.81885E-18
 -1       311 1.22260E-04-5.92249E-05-2.91039E-05 2.97263E-05-5.07966E-18-3.63504E-18
 -1       312 1.89140E-04-6.56125E-05-5.20122E-05 2.07627E-05-3.97788E-18-4.50537E-18
 -1       313 2.48782E-04-6.58757E-05-7.24854E-05 5.82905E-06-4.27476E-18-3.80953E-18
 -1       314 2.62893E-04-5.50001E-05-8.15649E-05-5.48709E-06-4.83402E-18-1.40015E-18
 -1       315 2.73782E-04-5.85198E-05-8.32314E-05 9.25072E-07-2.69547E-18-1.99476E-19
 -1       316 2.40388E-04-6.65799E-05-6.99248E-05-5.82391E-07-2.23881E-18 1.60555E-18
 -1       317 1.79708E-04-6.47501E-05-4.88152E-05-2.39449E-05-1.46494E-18 4.37111E-18
 -1       318 1.06083E-04-5.49182E-05-2.47159E-05-2.95114E-05-1.81604E-18 2.03224E-18
 -1       319 5.03187E-05-5.11165E-05-3.61935E-06-1.88146E-05 9.62865E-19 2.99670E-18
 -1       320 2.02271E-05-5.49765E-05 1.07948E-05-3.65821E-06 8.40045E-19 2.22632E-18
 -1       321 8.56923E-06-5.22478E-05 1.54620E-05 7.48484E-06 7.47518E-19 1.43657E-18
 -1       322 1.84876E-04-7.05837E-05-4.85199E-05-1.55318E-05-2.59404E-19 1.84911E-18
 -1       323 9.17373E-05-1.43411E-05-3.32471E-05-1.25681E-05-9.96157E-19-2.04603E-18
 -1       324 9.59744E-05-1.91450E-05-3.29878E-05-1.42497E-05-1.39944E-18-1.42253E-18
 -1       325 8.77253E-05-1.00210E-05-3.33559E-05-7.93954E-06-2.57031E-19-2.34208E-18
 -1       326 8.68133E-05-9.07131E-06-3.33651E-05-5.67106E-06 1.11163E-19-2.27196E-18
 -1       327 8.63482E-05-8.58749E-06-3.33697E-05-3.47760E-06 5.27995E-19-1.98457E-18
 -1       328 8.62149E-05-8.44821E-06-3.33711E-05-1.29800E-06 8.80000E-19-1.90668E-18
 -1       329 8.63379E-05-8.58043E-06-3.33676E-05 9.21846E-07 1.17781E-18-1.79547E-18
 -1       330 8.66810E-05-8.95407E-06-3.33565E-05 3.21901E-06 1.31345E-18-1.62327E-18
 -1       331 8.72471E-05-9.57698E-06-3.33360E-05 5.57455E-06 1.54378E-18-1.29968E-18
 -1       332 8.81450E-05-1.05674E-05-3.33034E-05 8.07489E-06 1.70916E-18-6.85230E-19
 -1       333 8.95810E-05-1.21484E-05-3.32532E-05 1.06453E-05 1.87283E-18 2.85245E-20
 -1       334 9.19998E-05-1.48307E-05-3.31552E-05 1.30610E-05 1.92852E-18 9.14769E-19
 -1       335 9.60082E-05-1.96543E-05-3.28278E-05 1.42120E-05 1.63673E-18 2.41091E-18
 -1       336 9.89197E-05-2.45096E-05-3.19758E-05 1.17912E-05 1.34828E-18 3.78718E-18
 -1       337 9.64805E-05-2.68505E-05-2.98144E-05 5.71795E-06 1.09658E-18 3.15784E-18
 -1       338 1.42818E-04-6.61189E-05-3.29209E-05 2.25478E-05-4.43739E-19 9.96164E-19
 -1       339 9.68428E-05-2.60179E-05-3.03068E-05-5.78398E-06-1.06898E-18-1.08013E-18
 -1       340 9.54906E-05-2.69581E-05-2.93425E-05-1.98044E-06-9.14139E-19-1.03090E-18
 -1       341 9.47418E-05-2.72508E-05-2.89049E-05 4.26579E-07-5.03992E-19-1.05440E-18
 -1       342 9.45292E-05-2.72842E-05-2.88039E-05 2.28783E-06-5.20397E-19-1.27681E-18
 -1       343 9.47419E-05-2.71051E-05-2.89700E-05 4.22806E-06-4.19936E-19-1.18138E-18
 -1       344 9.52038E-05-2.66629E-05-2.93518E-05 6.52991E-06-2.40827E-19-1.38034E-18
 -1       345 9.57432E-05-2.58338E-05-2.99298E-05 9.73124E-06-4.23516E-21-1.27549E-18
 -1       346 9.61062E-05-2.44975E-05-3.06485E-05 1.43043E-05 5.73948E-19-1.13804E-18
 -1       347 9.59980E-05-2.27779E-05-3.13266E-05 2.06062E-05 8.66161E-19-7.02804E-19
 -1       348 9.54828E-05-2.17689E-05-3.14892E-05 2.84724E-05 1.52032E-18-2.42632E-19
 -1       349 9.62856E-05-2.50858E-05-3.02416E-05 3.61987E-05 1.38613E-18 8.61671E-19
 -1       350 1.03125E-04-3.81630E-05-2.72589E-05 4.00220E-05 1.56849E-18 1.42402E-18
 -1       351 1.13932E-04-5.44684E-05-2.53634E-05 4.98767E-05-1.77580E-18-1.00204E-18
 -1       352 1.53246E-04-7.28651E-05-3.47941E-05-1.52409E-05 1.57898E-18-9.33483E-19
 -1       353 1.15445E-04-4.53474E-05-2.95008E-05-3.72982E-05 1.99810E-18-5.90170E-19
 -1       354 1.04048E-04-2.87348E-05-3.19827E-05-3.61444E-05 2.24159E-19-3.02794E-18
 -1       355 1.01034E-04-2.41609E-05-3.28364E-05-2.86524E-05-4.73127E-19-3.24777E-18
 -1       356 1.00179E-04-2.44444E-05-3.23991E-05-2.04248E-05-1.82639E-18-3.80882E-18
 -1       357 9.94480E-05-2.57587E-05-3.15360E-05-1.37140E-05-2.60927E-18-3.94410E-18
 -1       358 9.85932E-05-2.68818E-05-3.06989E-05-8.87669E-06-1.39825E-18-4.05844E-18
 -1       359 9.77258E-05-2.76558E-05-3.00053E-05-5.49579E-06 2.18597E-19-3.79765E-18
 -1       360 9.70327E-05-2.80848E-05-2.95331E-05-3.43136E-06 9.67956E-19-5.46083E-18
 -1       361 9.64932E-05-2.83240E-05-2.92053E-05-2.12380E-06 7.17716E-19-6.56247E-18
 -1       362 9.60980E-05-2.84524E-05-2.89848E-05-1.30745E-06 8.24739E-19-7.64155E-18
 -1       363 9.58185E-05-2.85187E-05-2.88390E-05-8.02331E-07 1.74038E-18-6.43049E-18
 -1       364 9.56253E-05-2.85515E-05-2.87436E-05-4.91552E-07 1.69490E-18-5.31389E-18
 -1       365 9.54936E-05-2.85666E-05-2.86817E-05-3.00960E-07-1.33229E-18-2.51049E-18
 -1       366 9.54046E-05-2.85725E-05-2.86415E-05-1.84178E-07-7.66307E-20-1.02405E-18
 -1       367 9.53427E-05-2.85742E-05-2.86146E-05-1.09921E-07-7.80757E-19-2.34861E-18
 -1       368 9.53039E-05-2.85739E-05-2.85983E-05-6.69889E-08 1.65458E-19-3.26189E-18
 -1       369 9.52781E-05-2.85730E-05-2.85877E-05-4.04699E-08 1.98413E-18-1.47651E-18
 -1       370 9.52611E-05-2.85719E-05-2.85810E-05-2.39719E-08-4.19752E-19-1.45292E-18
 -1       371 9.52501E-05-2.85711E-05-2.85767E-05-1.36400E-08-6.18678E-20-1.96189E-18
 -1       372 9.52432E-05-2.85705E-05-2.85739E-05-7.13012E-09-1.12955E-18-2.11944E-18
 -1       373 9.52389E-05-2.85702E-05-2.85723E-05-3.01873E-09-1.40070E-18-2.09514E-18
 -1       374 9.52364E-05-2.85700E-05-2.85713E-05-3.31600E-10-2.98657E-19-2.73820E-18
 -1       375 9.52352E-05-2.85701E-05-2.85708E-05 1.22719E-09 1.53871E-18-1.99592E-18
 -1       376 9.52349E-05-2.85702E-05-2.85706E-05 2.13675E-09 3.05619E-18-1.58141E-18
 -1       377 9.52350E-05-2.85704E-05-2.85705E-05 2.59075E-09 2.92488E-18-1.96097E-18
 -1       378 9.52354E-05-2.85707E-05-2.85706E-05 2.69251E-09 1.76615E-18-3.13042E-18
 -1       379 9.52360E-05-2.85711E-05-2.85707E-05 2.49000E-09 6.93741E-19-4.37104E-18
 -1       380 9.52366E-05-2.85715E-05-2.85708E-05 1.97659E-09-9.80798E-19-2.26457E-18
 -1       381 9.42410E-05-2.74103E-05-2.86190E-05 1.89724E-06 7.49305E-19 2.32357E-18
 -1       382 9.33998E-05-2.76981E-05-2.81483E-05 7.15244E-07 5.88929E-19 2.11535E-18
 -1       383 9.28910E-05-2.78688E-05-2.78645E-05 3.00274E-07 6.90839E-19 1.86485E-18
 -1       384 9.25514E-05-2.80043E-05-2.76650E-05 4.03871E-07 4.35333E-19 1.68521E-18
 -1       385 9.22155E-05-2.80887E-05-2.74872E-05 8.95783E-07 1.77053E-19 1.49280E-18
 -1       386 9.17468E-05-2.80835E-05-2.72899E-05 1.68078E-06 2.10571E-19 1.23709E-18
 -1       387 9.10358E-05-2.79362E-05-2.70486E-05 2.65304E-06 2.80009E-19 1.38218E-18
 -1       388 9.00085E-05-2.75925E-05-2.67547E-05 3.66569E-06 3.29052E-19 9.90159E-19
 -1       389 8.86462E-05-2.70147E-05-2.64163E-05 4.51809E-06 4.09124E-21 1.12994E-18
 -1       390 8.70109E-05-2.62106E-05-2.60568E-05 4.97114E-06-3.37427E-19 1.09171E-18
 -1       391 8.52647E-05-2.52595E-05-2.57121E-05 4.79891E-06-7.48585E-19 1.08333E-18
 -1       392 8.36636E-05-2.43209E-05-2.54243E-05 3.86939E-06 4.29493E-19 1.47286E-18
 -1       393 8.25083E-05-2.36035E-05-2.52338E-05 2.22382E-06 3.77551E-19 1.20545E-18
 -1       394 8.20563E-05-2.32960E-05-2.51706E-05 1.06502E-07 1.21432E-19 7.56236E-19
 -1       395 8.24292E-05-2.34895E-05-2.52482E-05-2.08966E-06 3.96800E-19 2.89938E-19
 -1       396 8.35661E-05-2.41356E-05-2.54609E-05-3.94956E-06-1.51895E-20-1.85776E-20
 -1       397 8.52487E-05-2.50700E-05-2.57850E-05-5.17323E-06-4.20060E-19 3.90670E-19
 -1       398 8.71853E-05-2.60848E-05-2.61841E-05-5.65477E-06 2.78698E-19 4.80041E-19
 -1       399 8.91031E-05-2.70035E-05-2.66157E-05-5.47473E-06 9.32606E-19 4.18404E-19
 -1       400 9.08089E-05-2.77245E-05-2.70403E-05-4.82936E-06-2.19322E-19 4.46483E-19
 -1       401 9.22049E-05-2.82223E-05-2.74266E-05-3.94470E-06-5.12399E-19 7.37415E-19
 -1       402 9.32722E-05-2.85233E-05-2.77553E-05-3.01291E-06-3.68615E-19 1.20437E-18
 -1       403 9.40418E-05-2.86773E-05-2.80187E-05-2.16340E-06 6.03016E-19 1.14890E-18
 -1       404 9.45677E-05-2.87354E-05-2.82183E-05-1.46219E-06 9.67608E-19 5.74149E-19
 -1       405 9.49082E-05-2.87391E-05-2.83616E-05-9.26594E-07 6.40797E-19 1.08838E-18
 -1       406 9.51156E-05-2.87170E-05-2.84590E-05-5.43829E-07-4.93359E-20 1.75173E-19
 -1       407 9.52323E-05-2.86864E-05-2.85214E-05-2.86830E-07 1.39189E-18 1.85179E-18
 -1       408 9.52903E-05-2.86564E-05-2.85585E-05-1.25097E-07 2.75230E-19 1.48880E-18
 -1       409 9.53125E-05-2.86311E-05-2.85784E-05-3.07904E-08-5.57688E-19 1.25845E-18
 -1       410 9.53143E-05-2.86113E-05-2.85873E-05 1.86631E-08-2.44081E-19 1.79417E-18
 -1       411 9.53058E-05-2.85969E-05-2.85897E-05 4.01128E-08 6.54020E-19 7.45309E-19
 -1       412 9.52932E-05-2.85867E-05-2.85885E-05 4.53274E-08 5.85338E-19 9.62564E-19
 -1       413 9.52800E-05-2.85798E-05-2.85857E-05 4.20490E-08-8.36366E-19 1.83236E-18
 -1       414 9.52680E-05-2.85754E-05-2.85825E-05 3.50685E-08-1.09419E-18 6.13758E-19
 -1       415 9.52581E-05-2.85726E-05-2.85795E-05 2.71468E-08-1.84806E-19-1.27658E-18
 -1       416 9.52504E-05-2.85710E-05-2.85769E-05 1.97251E-08 1.06513E-18-3.00795E-18
 -1       417 9.52447E-05-2.85701E-05-2.85748E-05 1.34357E-08-3.97058E-19-2.90815E-18
 -1       418 9.52408E-05-2.85697E-05-2.85733E-05 8.44893E-09 5.66483E-19-1.86227E-18
 -1       419 9.52383E-05-2.85697E-05-2.85722E-05 4.69586E-09-8.79482E-19-1.74483E-18
 -1       420 9.52368E-05-2.85698E-05-2.85716E-05 2.00558E-09 3.35219E-19-1.86388E-18
 -1       421 9.52361E-05-2.85700E-05-2.85712E-05 1.84821E-10 1.63111E-18-4.93215E-19
 -1       422 9.52360E-05-2.85704E-05-2.85710E-05-9.39515E-10 8.97801E-19 1.36532E-19
 -1       423 9.52361E-05-2.85707E-05-2.85709E-05-1.50181E-09 6.20438E-19 8.42451E-19
 -1       424 9.52365E-05-2.85711E-05-2.85709E-05-1.59017E-09-1.25764E-18 2.09918E-18
 -1       425 9.52368E-05-2.85714E-05-2.85709E-05-1.31941E-09-7.27433E-20 1.35669E-18
 -1       426 9.52376E-05-2.85723E-05-2.85708E-05-1.63216E-09-2.26542E-18-9.44744E-20
 -1       427 9.52374E-05-2.85719E-05-2.85709E-05-1.69516E-09-1.00881E-18 2.38941E-19
 -1       428 9.52377E-05-2.85726E-05-2.85708E-05-1.47604E-09-2.33088E-18-1.60661E-18
 -1       429 9.52378E-05-2.85728E-05-2.85707E-05-1.26007E-09-5.41894E-19 4.23405E-19
 -1       430 9.52379E-05-2.85731E-05-2.85706E-05-9.93142E-10-1.58252E-19-2.05702E-18
 -1       431 9.52381E-05-2.85733E-05-2.85706E-05-6.56415E-10-2.11650E-18-3.11227E-18
 -1       432 9.52382E-05-2.85735E-05-2.85706E-05-2.24034E-10-2.71395E-18-1.07423E-18
 -1       433 9.52383E-05-2.85736E-05-2.85706E-05 3.13631E-10-2.38882E-18-9.76370E-19
 -1       434 9.52383E-05-2.85736E-05-2.85706E-05 9.18933E-10-3.01133E-18-1.47938E-18
 -1       435 9.52382E-05-2.85734E-05-2.85706E-05 1.53813E-09-2.35177E-18 1.60386E-18
 -1       436 9.52380E-05-2.85730E-05-2.85707E-05 2.03830E-09 2.42022E-19-1.10332E-18
 -1       437 9.52375E-05-2.85725E-05-2.85707E-05 2.26583E-09 7.99540E-19 1.34476E-18
 -1       438 9.50671E-05-2.71717E-05-2.90618E-05 3.39169E-06 1.08596E-18 2.76276E-18
 -1       439 6.91383E-05-4.22556E-05-1.13904E-05 5.59810E-05-1.39570E-18 1.37643E-20
 -1       440 1.44025E-04-5.54046E-05-3.81247E-05 3.26629E-05-8.05422E-19-9.94946E-19
 -1       441 7.93394E-06-2.16932E-05 5.73918E-06 1.68949E-05-1.29750E-18 7.21884E-19
 -1       442 8.92623E-05-1.16455E-05-3.33297E-05-1.02975E-05-5.77818E-19-2.33208E-18
 -1       443 1.66031E-04-3.76285E-05-5.50186E-05 9.91293E-06 1.58003E-18-8.83138E-19
 -1       444 1.71561E-04-2.24817E-05-6.39378E-05 3.01434E-06 3.13370E-18-1.36235E-18
 -1       445 1.69843E-04-1.10621E-05-6.82381E-05-5.54009E-07 3.78783E-18-1.45949E-18
 -1       446 1.75337E-04-1.56098E-05-6.83650E-05-8.54299E-07 2.87345E-18-1.02311E-18
 -1       447 1.71034E-04-2.82099E-05-6.11319E-05-4.67716E-06 2.50997E-18-7.61694E-19
 -1       448 1.59085E-04-4.79109E-05-4.77019E-05-1.95292E-05 1.10882E-18-7.73976E-19
 -1       449 1.31004E-04-5.40688E-05-3.29909E-05-4.24447E-05 6.49992E-19-2.25353E-18
 -1       450 9.18387E-05-4.89833E-05-1.84725E-05-5.33543E-05 1.75971E-19-4.25952E-18
 -1       451 5.12105E-05-3.87759E-05-5.51628E-06-5.11684E-05-5.08114E-19-5.08802E-18
 -1       452 1.79515E-05-2.60794E-05 3.31335E-06-3.29590E-05-6.94991E-19-5.80758E-18
 -1       453 8.08683E-06-1.96924E-05 4.99067E-06-8.05910E-06-3.56144E-19-4.41389E-18
 -1       454 2.82446E-05-3.02667E-05 6.02773E-07 2.45800E-05-8.12516E-19-2.89008E-18
 -1       455 6.70954E-05-4.59452E-05-9.49685E-06 3.69473E-05-1.09627E-18-1.14058E-18
 -1       456 1.19157E-04-6.44248E-05-2.40442E-05 3.17519E-05-1.62927E-18-1.12232E-20
 -1       457 1.74981E-04-7.54643E-05-4.32058E-05 1.26105E-06-1.58088E-18-5.39031E-19
 -1       458 1.06856E-04-5.85299E-05-2.07364E-05-3.57442E-05 2.18344E-18 1.61836E-18
 -1       459 5.71614E-05-3.81386E-05-8.13506E-06-3.70070E-05 9.99711E-19 2.41309E-18
 -1       460 2.06942E-05-2.31041E-05 1.08521E-06-1.89266E-05-5.00014E-19 1.02957E-18
 -1       461 2.74881E-05-2.70069E-05-1.61518E-07 4.22621E-05-7.13837E-19 3.28225E-21
 -1       462 1.99960E-05-1.24897E-05-2.67298E-06 1.35930E-05 5.87550E-19-3.71657E-18
 -1       463 1.51152E-04-4.32226E-06-6.34838E-05 1.75737E-06 3.19713E-18-6.96830E-19
 -1       464 8.89730E-05-1.28346E-05-3.26492E-05-4.04466E-06 3.26481E-19-1.89703E-18
 -1       465 8.97097E-05-1.37526E-05-3.25737E-05-5.76119E-06-6.67775E-20-2.00090E-18
 -1       466 8.87373E-05-1.24936E-05-3.26933E-05-3.53378E-07 9.10876E-19-1.64948E-18
 -1       467 8.90592E-05-1.28710E-05-3.26700E-05 1.63188E-06 1.14159E-18-1.57807E-18
 -1       468 8.96074E-05-1.35567E-05-3.26123E-05 3.64989E-06 1.28287E-18-1.37238E-18
 -1       469 9.04286E-05-1.46279E-05-3.25071E-05 5.70757E-06 1.54781E-18-8.59523E-19
 -1       470 9.16159E-05-1.62290E-05-3.23320E-05 7.63942E-06 1.65829E-18-2.73031E-19
 -1       471 9.33280E-05-1.86158E-05-3.20404E-05 9.16427E-06 1.69818E-18 4.14495E-19
 -1       472 9.54470E-05-2.20129E-05-3.14839E-05 9.52408E-06 1.46954E-18 1.28299E-18
 -1       473 9.64903E-05-2.47171E-05-3.07491E-05 8.02108E-06 1.27608E-18 2.18062E-18
 -1       474 1.52903E-04-5.14912E-05-4.37250E-05 7.59008E-06-7.11263E-19-1.58284E-18
 -1       475 1.01661E-04-5.08276E-05-2.14579E-05 5.01910E-05-2.28408E-18-1.07281E-18
 -1       476 9.55953E-05-2.40914E-05-3.06340E-05-5.01466E-06-7.72195E-19-1.44847E-18
 -1       477 9.53151E-05-2.56097E-05-2.98654E-05-1.67045E-06-6.23734E-19-1.23030E-18
 -1       478 9.47758E-05-2.60915E-05-2.94298E-05 8.36481E-07-5.05242E-19-1.09323E-18
 -1       479 9.40689E-05-2.58643E-05-2.92241E-05 3.02999E-06-5.64066E-19-9.49560E-19
 -1       480 9.30938E-05-2.49702E-05-2.91880E-05 5.10989E-06-3.64924E-19-8.12041E-19
 -1       481 9.14794E-05-2.32749E-05-2.92195E-05 7.51663E-06-2.26477E-19-8.93114E-19
 -1       482 8.86640E-05-2.05477E-05-2.91763E-05 1.05287E-05 1.87559E-19-8.12566E-19
 -1       483 8.38655E-05-1.66538E-05-2.87742E-05 1.43454E-05 6.34771E-19-9.65440E-19
 -1       484 7.62284E-05-1.20178E-05-2.74360E-05 1.90675E-05 1.28594E-18-1.10639E-18
 -1       485 6.53405E-05-8.89819E-06-2.39350E-05 2.46548E-05 1.98885E-18-1.10990E-18
 -1       486 6.52709E-05-1.71052E-05-2.00631E-05 3.48341E-05 1.55311E-18-3.93394E-19
 -1       487 9.46959E-05-2.05464E-05-3.17963E-05-8.86153E-06-1.03166E-18-1.58354E-18
 -1       488 7.09322E-05-1.15682E-05-2.51491E-05-2.77881E-05-8.95473E-20-1.49353E-18
 -1       489 7.99539E-05-1.35878E-05-2.83459E-05-2.08017E-05-1.52857E-18-7.97053E-19
 -1       490 8.66146E-05-1.77082E-05-2.94911E-05-1.49679E-05-2.06429E-18 9.52162E-20
 -1       491 9.07857E-05-2.13866E-05-2.97201E-05-1.03981E-05-2.54405E-18 1.01860E-18
 -1       492 9.32364E-05-2.41642E-05-2.95880E-05-6.88912E-06-1.07710E-18-5.99711E-19
 -1       493 9.44416E-05-2.58867E-05-2.93710E-05-4.55646E-06 4.32088E-19-1.03142E-18
 -1       494 9.50271E-05-2.69678E-05-2.91621E-05-2.96543E-06-1.91925E-19-1.15923E-18
 -1       495 9.52844E-05-2.76269E-05-2.89923E-05-1.90968E-06 7.52694E-19-1.56343E-18
 -1       496 9.53773E-05-2.80215E-05-2.88645E-05-1.22114E-06 1.62175E-18-2.09518E-18
 -1       497 9.53934E-05-2.82545E-05-2.87725E-05-7.77525E-07 1.93086E-18-2.66840E-18
 -1       498 9.53774E-05-2.83905E-05-2.87079E-05-4.93984E-07 5.83190E-19-2.88068E-18
 -1       499 9.53510E-05-2.84689E-05-2.86633E-05-3.13447E-07 6.81050E-19-2.37988E-18
 -1       500 9.53232E-05-2.85154E-05-2.86316E-05-1.94478E-07-1.13909E-18-1.73172E-18
 -1       501 9.53002E-05-2.85399E-05-2.86114E-05-1.23371E-07 5.23835E-19 6.13885E-20
 -1       502 9.52818E-05-2.85535E-05-2.85977E-05-7.79430E-08 1.77430E-18 1.07486E-18
 -1       503 9.52677E-05-2.85610E-05-2.85885E-05-4.88066E-08 1.88343E-18 2.73297E-19
 -1       504 9.52573E-05-2.85651E-05-2.85823E-05-3.00045E-08-9.08995E-19 8.76006E-19
 -1       505 9.52499E-05-2.85673E-05-2.85782E-05-1.77983E-08-8.31295E-19 4.44830E-19
 -1       506 9.52447E-05-2.85686E-05-2.85755E-05-9.84022E-09-2.72799E-18-1.45523E-18
 -1       507 9.52411E-05-2.85694E-05-2.85736E-05-4.45182E-09-2.93460E-19 2.55311E-19
 -1       508 9.52390E-05-2.85699E-05-2.85725E-05-1.17625E-09 7.36638E-19 1.83358E-18
 -1       509 9.52377E-05-2.85702E-05-2.85718E-05 8.90061E-10 1.24183E-18 8.60819E-19
 -1       510 9.52370E-05-2.85706E-05-2.85713E-05 2.11678E-09 1.92122E-18-5.82696E-19
 -1       511 9.52368E-05-2.85709E-05-2.85711E-05 2.73184E-09 3.30447E-18-1.84148E-18
 -1       512 9.52368E-05-2.85713E-05-2.85709E-05 2.87037E-09 6.47513E-19-2.30860E-18
 -1       513 9.52372E-05-2.85718E-05-2.85709E-05 2.69877E-09 1.44256E-18 5.06704E-19
 -1       514 9.46638E-05-2.85503E-05-2.83346E-05 7.41082E-07 6.22435E-19 8.67519E-19
 -1       515 9.48754E-05-2.79742E-05-2.86697E-05 1.09843E-06 8.71547E-19 8.23447E-19
 -1       516 9.52171E-05-2.71685E-05-2.91605E-05 2.24659E-06 7.93689E-19 1.04642E-18
 -1       517 9.45451E-05-2.90048E-05-2.80903E-05 9.79562E-07 5.18583E-19 6.11722E-19
 -1       518 9.44394E-05-2.93511E-05-2.78974E-05 1.68961E-06 4.08577E-19 6.49361E-19
 -1       519 9.42453E-05-2.95421E-05-2.77328E-05 2.75572E-06 9.52106E-21 4.45970E-19
 -1       520 9.38508E-05-2.94879E-05-2.75869E-05 4.02791E-06 2.68381E-19 9.13843E-19
 -1       521 9.31514E-05-2.90828E-05-2.74599E-05 5.28801E-06 8.97377E-20 1.24771E-18
 -1       522 9.20869E-05-2.82521E-05-2.73584E-05 6.23936E-06-3.03960E-19 1.38369E-18
 -1       523 9.06937E-05-2.70169E-05-2.72888E-05 6.54131E-06-5.19832E-19 1.35598E-18
 -1       524 8.91475E-05-2.55497E-05-2.72532E-05 5.90090E-06 8.72684E-20 4.08780E-19
 -1       525 8.77598E-05-2.41755E-05-2.72458E-05 4.20492E-06 7.22417E-19 1.70413E-19
 -1       526 8.68918E-05-2.32804E-05-2.72565E-05 1.62955E-06 1.81961E-19 3.38095E-19
 -1       527 8.68076E-05-2.31496E-05-2.72763E-05-1.35868E-06 4.22830E-19-6.48253E-20
 -1       528 8.75473E-05-2.38260E-05-2.73041E-05-4.14676E-06 2.98268E-19 5.86849E-19
 -1       529 8.89070E-05-2.50881E-05-2.73471E-05-6.20200E-06 6.40759E-20 4.90577E-19
 -1       530 9.05410E-05-2.65656E-05-2.74160E-05-7.25128E-06-4.64251E-20-3.35703E-19
 -1       531 9.21126E-05-2.79058E-05-2.75169E-05-7.32131E-06-1.20013E-19-3.87491E-19
 -1       532 9.34004E-05-2.88918E-05-2.76478E-05-6.65231E-06 1.12673E-19 9.32436E-19
 -1       533 9.43249E-05-2.94670E-05-2.77984E-05-5.56232E-06-5.36471E-19 1.87360E-18
 -1       534 9.49115E-05-2.96897E-05-2.79548E-05-4.33790E-06-4.79896E-19 7.31741E-19
 -1       535 9.52376E-05-2.96692E-05-2.81033E-05-3.18072E-06-3.34857E-19 3.84313E-19
 -1       536 9.53892E-05-2.95154E-05-2.82339E-05-2.20068E-06 7.67027E-19 1.24577E-18
 -1       537 9.54378E-05-2.93124E-05-2.83413E-05-1.43519E-06 5.27331E-19 9.98388E-19
 -1       538 9.54333E-05-2.91131E-05-2.84243E-05-8.75597E-07 7.28443E-19 1.20660E-18
 -1       539 9.54062E-05-2.89438E-05-2.84848E-05-4.90159E-07-1.21842E-19 1.24934E-18
 -1       540 9.53733E-05-2.88129E-05-2.85265E-05-2.39877E-07 1.20908E-18 2.24353E-18
 -1       541 9.53422E-05-2.87186E-05-2.85533E-05-8.76553E-08-4.52632E-19 2.31563E-18
 -1       542 9.53160E-05-2.86546E-05-2.85694E-05-2.51221E-09-6.48524E-19 1.44745E-18
 -1       543 9.52950E-05-2.86136E-05-2.85779E-05 3.93027E-08 2.30204E-19 2.15697E-18
 -1       544 9.52789E-05-2.85888E-05-2.85815E-05 5.48373E-08 7.01183E-19 1.72599E-18
 -1       545 9.52666E-05-2.85749E-05-2.85822E-05 5.56534E-08 6.18553E-19 1.17267E-19
 -1       546 9.52575E-05-2.85678E-05-2.85813E-05 4.91738E-08-8.09067E-21-1.10919E-18
 -1       547 9.52507E-05-2.85648E-05-2.85797E-05 3.98870E-08 2.29170E-19-1.68308E-18
 -1       548 9.52458E-05-2.85641E-05-2.85778E-05 3.03100E-08 1.47063E-18-1.79674E-18
 -1       549 9.52424E-05-2.85646E-05-2.85762E-05 2.17028E-08-1.14337E-19-9.95775E-19
 -1       550 9.52400E-05-2.85656E-05-2.85747E-05 1.45686E-08-2.03641E-19-1.32876E-18
 -1       551 9.52384E-05-2.85667E-05-2.85735E-05 8.98733E-09-3.48076E-19-7.69489E-19
 -1       552 9.52374E-05-2.85678E-05-2.85727E-05 4.82832E-09-1.32484E-18-1.60855E-18
 -1       553 9.52369E-05-2.85688E-05-2.85720E-05 1.87912E-09 1.01709E-19-3.04722E-18
 -1       554 9.52367E-05-2.85696E-05-2.85716E-05-7.97730E-11 3.48030E-19-2.00693E-18
 -1       555 9.52367E-05-2.85703E-05-2.85713E-05-1.24305E-09 7.75234E-19-5.96499E-19
 -1       556 9.52369E-05-2.85710E-05-2.85711E-05-1.76602E-09-3.90760E-19-1.04506E-19
 -1       557 9.52375E-05-2.85712E-05-2.85712E-05-1.50075E-09-1.14032E-18 1.47376E-18
 -1       558 9.52374E-05-2.85713E-05-2.85712E-05-1.66975E-09-3.06132E-18 5.22621E-20
 -1       559 9.52372E-05-2.85713E-05-2.85711E-05-1.79821E-09-1.31923E-18-1.03884E-18
 -1       560 1.21045E-04-5.91224E-05-2.64273E-05-4.37927E-05-1.30342E-18-1.54666E-18
 -1       561 9.52375E-05-2.85713E-05-2.85713E-05-1.29263E-09 1.31385E-19-1.35997E-18
 -1       562 9.52377E-05-2.85714E-05-2.85713E-05-1.02930E-09-2.09091E-18-5.58084E-18
 -1       563 9.52379E-05-2.85716E-05-2.85713E-05-6.61964E-10-2.98922E-18 2.39121E-19
 -1       564 9.52381E-05-2.85718E-05-2.85712E-05-1.49481E-10-1.05097E-18-3.19502E-20
 -1       565 9.52383E-05-2.85721E-05-2.85712E-05 5.00037E-10 4.77177E-19-1.68092E-18
 -1       566 9.52384E-05-2.85723E-05-2.85712E-05 1.25600E-09-2.90827E-19 5.62771E-19
 -1       567 9.52382E-05-2.85723E-05-2.85711E-05 1.99481E-09-2.76859E-19 6.38379E-19
 -1       568 9.52378E-05-2.85722E-05-2.85710E-05 2.49169E-09 1.28104E-18 1.21866E-18
 -1       569 6.17720E-05-2.67302E-05-1.43183E-05 3.83578E-05 9.46189E-19-6.23416E-19
 -1       570 1.98992E-05-4.95071E-06-5.63849E-06-3.40314E-06-2.19989E-18 1.39665E-18
 -1       571 1.33746E-04-6.10020E-05-3.11899E-05 3.33901E-05-1.54059E-18-1.15594E-18
 -1       572 4.66246E-05-2.32996E-05-9.32740E-06-4.59364E-05-1.09029E-18-4.72671E-18
 -1       573 6.93083E-05-2.11914E-05-1.99211E-05-3.67663E-05-1.11795E-18-2.15676E-19
 -1       574 5.71355E-05-2.90204E-05-1.14886E-05 5.12853E-05-1.93695E-18-1.06631E-18
 -1       575 1.47905E-04-1.60716E-05-5.71892E-05 9.68905E-06 1.79200E-18 5.17855E-19
 -1       576 8.86839E-05-1.24568E-05-3.26863E-05-2.24593E-06 6.64463E-19-1.73531E-18
 -1       577 1.50705E-04-2.77916E-05-5.32038E-05-8.54889E-06 1.81524E-18-2.58790E-18
 -1       578 1.52674E-04-3.93383E-05-4.90018E-05 5.47220E-06 6.43004E-19 1.03259E-18
 -1       579 8.41855E-05-4.58083E-05-1.61079E-05-5.42263E-05-1.58866E-18-3.69547E-18
 -1       580 2.04618E-05-9.13549E-06-4.08377E-06-2.14228E-05-2.39287E-20-4.87573E-18
 -1       581 4.85600E-05-1.95574E-05-1.16912E-05-3.30140E-05-1.08500E-18 7.44330E-20
 -1       582 1.47029E-04-6.00014E-05-3.74856E-05-2.00967E-05-7.54349E-19 7.04626E-19
 -1       583 2.38643E-05-1.03550E-05-5.08271E-06 2.88166E-05-1.67858E-18 1.13989E-18
 -1       584 1.45228E-04-1.21426E-05-5.77495E-05-8.52796E-06 3.43811E-18-2.54044E-18
 -1       585 9.09839E-05-1.53603E-05-3.24338E-05-7.33780E-06-3.50367E-19-2.08861E-18
 -1       586 9.57030E-05-2.59878E-05-2.98571E-05 5.00082E-06 1.14497E-18 1.75550E-18
 -1       587 4.21052E-05-1.29684E-05-1.17068E-05 2.80780E-05 1.30920E-18-2.18863E-18
 -1       588 9.53407E-05-2.66081E-05-2.94448E-05 3.39298E-06 8.58213E-19 1.33221E-18
 -1       589 1.33654E-04-4.74326E-06-5.59282E-05-4.94194E-06 2.43231E-18-6.57112E-21
 -1       590 2.38278E-05-3.36398E-06-7.99566E-06-4.53742E-07 5.86487E-19-3.69391E-18
 -1       591 9.26134E-05-1.75336E-05-3.21986E-05-8.37488E-06-7.90284E-19-1.92453E-18
 -1       592 1.43532E-04-4.05508E-05-4.44687E-05-7.98096E-06 2.64433E-19-1.65621E-18
 -1       593 9.16132E-05-1.70074E-05-3.19795E-05 1.89294E-06 1.08378E-18-1.30619E-18
 -1       594 9.10990E-05-1.63476E-05-3.20416E-05 2.02390E-07 8.38194E-19-1.49163E-18
 -1       595 9.31764E-05-1.93668E-05-3.16390E-05 5.07618E-06 1.27718E-18-5.36473E-19
 -1       596 9.42486E-05-2.12318E-05-3.13000E-05 6.16594E-06 1.37742E-18 6.33701E-20
 -1       597 9.56641E-05-2.44002E-05-3.05297E-05 6.31037E-06 1.17177E-18 9.22059E-19
 -1       598 9.52371E-05-2.85703E-05-2.85715E-05-1.43124E-09-4.08226E-19-1.78996E-18
 -1       599 4.94939E-05-3.23658E-06-1.93205E-05 1.70561E-05 1.76718E-18-2.40541E-18
 -1       600 9.46061E-05-2.28326E-05-3.07616E-05-3.84525E-06-4.22425E-19-1.20831E-18
 -1       601 9.45599E-05-2.43068E-05-3.01064E-05-1.17337E-06-3.56618E-19-1.03363E-18
 -1       602 9.38233E-05-2.46702E-05-2.96355E-05 1.00444E-06-3.58665E-19-8.24338E-19
 -1       603 9.24456E-05-2.40333E-05-2.93181E-05 2.67721E-06-3.27519E-19-7.19311E-19
 -1       604 9.01489E-05-2.24077E-05-2.90300E-05 4.09851E-06-3.27313E-19-8.53075E-19
 -1       605 8.64207E-05-1.96264E-05-2.86228E-05 5.30913E-06-9.33339E-20-4.38306E-19
 -1       606 8.04893E-05-1.55225E-05-2.78317E-05 6.19757E-06 1.46768E-19-1.01354E-18
 -1       607 7.13015E-05-1.01421E-05-2.61570E-05 6.47612E-06 4.04118E-19-1.39113E-18
 -1       608 5.74265E-05-4.14674E-06-2.26442E-05 5.77856E-06 1.21531E-18-2.18916E-18
 -1       609 1.41430E-04-5.74961E-05-3.60815E-05 1.17786E-05-1.11313E-18-1.21991E-18
 -1       610 9.39291E-05-2.06182E-05-3.14157E-05-6.07195E-06-6.52153E-19-1.54910E-18
 -1       611 9.52371E-05-2.85698E-05-2.85717E-05-1.32804E-09-5.90469E-19 1.94967E-18
 -1       612 5.92000E-05-4.36099E-06-2.32693E-05-1.17660E-05 4.86233E-19 3.20046E-19
 -1       613 7.20812E-05-9.97528E-06-2.65516E-05-8.99180E-06-1.27970E-18 5.89052E-20
 -1       614 8.12124E-05-1.55291E-05-2.81311E-05-7.35203E-06-1.93078E-18 1.27386E-18
 -1       615 8.72278E-05-2.00546E-05-2.87822E-05-5.60339E-06-2.98080E-18 1.38643E-18
 -1       616 9.06775E-05-2.30870E-05-2.89631E-05-4.12169E-06-7.40718E-19 1.34346E-18
 -1       617 9.27153E-05-2.51180E-05-2.89676E-05-2.92554E-06 2.65542E-19 9.86165E-19
 -1       618 9.38883E-05-2.64313E-05-2.89084E-05-2.02568E-06-7.49265E-21 1.76794E-18
 -1       619 9.45468E-05-2.72610E-05-2.88357E-05-1.37838E-06 4.16022E-19 1.08581E-18
 -1       620 9.49067E-05-2.77765E-05-2.87694E-05-9.26979E-07 8.77737E-19 4.84900E-19
 -1       621 9.50968E-05-2.80927E-05-2.87157E-05-6.18744E-07 9.05469E-19 1.90318E-20
 -1       622 9.51925E-05-2.82848E-05-2.86745E-05-4.10863E-07 1.09884E-18-5.58864E-19
 -1       623 9.52386E-05-2.84048E-05-2.86429E-05-2.66723E-07 1.27052E-18 1.72980E-18
 -1       624 9.52555E-05-2.84720E-05-2.86214E-05-1.76458E-07 1.13593E-19 2.24425E-18
 -1       625 9.52596E-05-2.85120E-05-2.86061E-05-1.16286E-07 6.10757E-19 2.60161E-18
 -1       626 9.52580E-05-2.85356E-05-2.85953E-05-7.61695E-08 1.09616E-18 1.97234E-20
 -1       627 9.52543E-05-2.85496E-05-2.85877E-05-4.93267E-08 1.36891E-18 8.25547E-20
 -1       628 9.52503E-05-2.85579E-05-2.85824E-05-3.12969E-08-3.61018E-19 1.59455E-18
 -1       629 9.52467E-05-2.85629E-05-2.85787E-05-1.91498E-08-2.53814E-18 5.79834E-19
 -1       630 9.52436E-05-2.85661E-05-2.85761E-05-1.06484E-08-3.50324E-19 2.39862E-18
 -1       631 9.52415E-05-2.85680E-05-2.85744E-05-5.28851E-09 6.71767E-19 3.30808E-18
 -1       632 9.52399E-05-2.85692E-05-2.85732E-05-1.74711E-09-6.56681E-19 9.60213E-19
 -1       633 9.52388E-05-2.85700E-05-2.85723E-05 5.20522E-10 1.52598E-18-2.52073E-19
 -1       634 9.52382E-05-2.85707E-05-2.85718E-05 1.87188E-09 3.47746E-18 9.65848E-19
 -1       635 9.52378E-05-2.85713E-05-2.85714E-05 2.53321E-09 5.94096E-19-2.46287E-19
 -1       636 9.52378E-05-2.85717E-05-2.85712E-05 2.59941E-09 2.63334E-18 2.17403E-18
 -1       637 9.61492E-05-2.84298E-05-2.90224E-05 1.16629E-06 7.76511E-19 5.58254E-21
 -1       638 9.63848E-05-2.94360E-05-2.86928E-05 9.63751E-07 6.17863E-19-1.58583E-19
 -1       639 9.59517E-05-2.71496E-05-2.94851E-05 2.07480E-06 7.95054E-19-3.36911E-20
 -1       640 9.70169E-05-3.09388E-05-2.83202E-05 2.25899E-06 2.90699E-19 1.10977E-19
 -1       641 9.72647E-05-3.13396E-05-2.82546E-05 3.55948E-06-1.15828E-19 2.27604E-19
 -1       642 9.72751E-05-3.13120E-05-2.82707E-05 5.08557E-06-3.05024E-20 4.18817E-19
 -1       643 9.68717E-05-3.06700E-05-2.83724E-05 6.55346E-06-3.73174E-19 8.19935E-19
 -1       644 9.59325E-05-2.93025E-05-2.85552E-05 7.55518E-06-2.34771E-19 5.46910E-19
 -1       645 9.44919E-05-2.72977E-05-2.87962E-05 7.62138E-06 2.73332E-19-8.36825E-20
 -1       646 9.28226E-05-2.50350E-05-2.90500E-05 6.37935E-06 4.02941E-19-2.18718E-20
 -1       647 9.14088E-05-2.31421E-05-2.92551E-05 3.77715E-06 8.87597E-20 4.84971E-20
 -1       648 9.07551E-05-2.22558E-05-2.93547E-05 2.28950E-07 2.04631E-19 4.78893E-19
 -1       649 9.11199E-05-2.26993E-05-2.93211E-05-3.47124E-06 5.72636E-19 2.62090E-19
 -1       650 9.23588E-05-2.42945E-05-2.91687E-05-6.46847E-06 2.02446E-19-3.37335E-19
 -1       651 9.40128E-05-2.64678E-05-2.89466E-05-8.21241E-06-4.50728E-20-2.08935E-19
 -1       652 9.55684E-05-2.85653E-05-2.87150E-05-8.61588E-06-4.95796E-19-1.69645E-19
 -1       653 9.66789E-05-3.01273E-05-2.85222E-05-7.96430E-06-5.73341E-19 6.81843E-19
 -1       654 9.72434E-05-3.09949E-05-2.83928E-05-6.69909E-06-1.20557E-18 8.00925E-19
 -1       655 9.73434E-05-3.12453E-05-2.83287E-05-5.22495E-06 4.74266E-19 8.20936E-19
 -1       656 9.71397E-05-3.10681E-05-2.83174E-05-3.82258E-06 5.97050E-19 2.75291E-19
 -1       657 9.67911E-05-3.06644E-05-2.83409E-05-2.63907E-06-2.47066E-20-5.35013E-19
 -1       658 9.64142E-05-3.01905E-05-2.83823E-05-1.72036E-06 4.05197E-19-3.96541E-19
 -1       659 9.60759E-05-2.97439E-05-2.84285E-05-1.05237E-06 3.61594E-19 4.25872E-19
 -1       660 9.58044E-05-2.93717E-05-2.84715E-05-5.93512E-07 2.20630E-19 7.96142E-19
 -1       661 9.56030E-05-2.90867E-05-2.85072E-05-2.95216E-07 5.32044E-19 2.04273E-19
 -1       662 9.54625E-05-2.88827E-05-2.85344E-05-1.12672E-07-1.67185E-19 3.86949E-19
 -1       663 9.53696E-05-2.87449E-05-2.85535E-05-9.19070E-09 3.02885E-19 3.24340E-19
 -1       664 9.53111E-05-2.86571E-05-2.85660E-05 4.30200E-08 1.71312E-19-6.37609E-19
 -1       665 9.52759E-05-2.86045E-05-2.85735E-05 6.38056E-08-3.71043E-19 7.12151E-20
 -1       666 9.52557E-05-2.85753E-05-2.85773E-05 6.66442E-08 1.22490E-18 1.28600E-18
 -1       667 9.52448E-05-2.85609E-05-2.85788E-05 6.02582E-08 1.13531E-18 1.06277E-19
 -1       668 9.52393E-05-2.85554E-05-2.85788E-05 5.00042E-08 3.11494E-19 4.98482E-19
 -1       669 9.52368E-05-2.85547E-05-2.85780E-05 3.89643E-08 7.86132E-19 5.46760E-20
 -1       670 9.52359E-05-2.85563E-05-2.85769E-05 2.87515E-08 1.07218E-20 3.27288E-19
 -1       671 9.52357E-05-2.85589E-05-2.85758E-05 2.00759E-08 1.86691E-19-2.04295E-19
 -1       672 9.52358E-05-2.85616E-05-2.85747E-05 1.31253E-08 2.87488E-19 2.08943E-20
 -1       673 9.52361E-05-2.85641E-05-2.85737E-05 7.81215E-09 1.98261E-19-1.25227E-18
 -1       674 9.52364E-05-2.85662E-05-2.85729E-05 3.92601E-09-6.35321E-19-1.78724E-18
 -1       675 9.52366E-05-2.85679E-05-2.85723E-05 1.24290E-09 7.78367E-19-2.69770E-18
 -1       676 9.52368E-05-2.85692E-05-2.85719E-05-4.56037E-10-8.64588E-19-2.36674E-18
 -1       677 9.52371E-05-2.85694E-05-2.85719E-05-1.18502E-09-8.32282E-19-3.49754E-18
 -1       678 9.52371E-05-2.85695E-05-2.85718E-05-1.24922E-09-2.50951E-18 5.61225E-19
 -1       679 9.52377E-05-2.85698E-05-2.85719E-05-7.45286E-10 1.28235E-18 6.96681E-19
 -1       680 9.52381E-05-2.85703E-05-2.85719E-05-2.40720E-10 8.36887E-19 1.62783E-19
 -1       681 9.52384E-05-2.85709E-05-2.85718E-05 4.89285E-10 2.05662E-20-3.15018E-18
 -1       682 9.52385E-05-2.85713E-05-2.85717E-05 1.34569E-09 9.35831E-19 2.87109E-18
 -1       683 1.20401E-04-5.55399E-05-2.76704E-05 3.43498E-05-2.53393E-18-8.74959E-19
 -1       684 8.33136E-05-3.58213E-05-2.00430E-05 4.57799E-05-2.09844E-18-1.53644E-18
 -1       685 1.07088E-04-5.11770E-05-2.37293E-05-4.29951E-05-2.15178E-18-1.21302E-18
 -1       686 3.48666E-05-1.16878E-06-1.37935E-05 1.03418E-05-1.98979E-18 1.32910E-18
 -1       687 7.59326E-05-3.23742E-05-1.82503E-05-4.53269E-05-1.67583E-18-2.69542E-18
 -1       688 4.19410E-05-9.38373E-06-1.33337E-05-2.74218E-05-4.50992E-19-4.42077E-18
 -1       689 1.29341E-04-5.78820E-06-5.35524E-05 6.82771E-06 1.94659E-18 2.23008E-19
 -1       690 9.23047E-05-1.79954E-05-3.18528E-05 3.57096E-06 1.30919E-18-9.27758E-19
 -1       691 9.66885E-05-3.02732E-05-2.84645E-05 1.35768E-06 3.30533E-19-1.33594E-19
 -1       692 4.87064E-05-1.34541E-05-1.45935E-05 3.53755E-05-2.21057E-18-3.70895E-19
 -1       693 9.11977E-05-1.67359E-05-3.19180E-05-3.99851E-06 1.36464E-19-1.58432E-18
 -1       694 1.31942E-04-6.04074E-05-3.06643E-05-2.76551E-05-1.84973E-18 3.33413E-19
 -1       695 1.35544E-04-2.59310E-05-4.74080E-05 1.43263E-05 6.07270E-19 1.16512E-18
 -1       696 1.43701E-04-5.21297E-05-3.94721E-05 5.48193E-07-7.52552E-19 1.42831E-18
 -1       697 9.52373E-05-2.85695E-05-2.85719E-05-1.04494E-09 6.80957E-19-4.21676E-18
 -1       698 4.39190E-05-4.70998E-06-1.61336E-05-1.94371E-05-1.94953E-18 5.81118E-19
 -1       699 1.33102E-04-1.94216E-05-4.92078E-05-1.29918E-05 1.81112E-18-1.42504E-18
 -1       700 9.08025E-05-1.60300E-05-3.20506E-05-1.38470E-06 6.35453E-19-1.49829E-18
 -1       701 1.24007E-04-1.11092E-05-4.87989E-05-1.02286E-05 1.48493E-18-1.43227E-18
 -1       702 9.52383E-05-2.85716E-05-2.85714E-05 2.06113E-09 1.11465E-18 2.70978E-18
 -1       703 9.56690E-05-2.53484E-05-3.01317E-05 3.80386E-06 8.65885E-19 3.84681E-20
 -1       704 9.21076E-05-1.80349E-05-3.17477E-05-4.95445E-06-1.61140E-19-1.90487E-18
 -1       705 3.93190E-05-2.60881E-06-1.51700E-05-1.12928E-05 7.13478E-19-3.50216E-18
 -1       706 9.08017E-05-1.61222E-05-3.20109E-05-2.79560E-06 3.68545E-19-1.41259E-18
 -1       707 9.51067E-05-2.33001E-05-3.07768E-05 3.86398E-06 9.99830E-19-1.67647E-19
 -1       708 1.18700E-04-5.77237E-06-4.87841E-05 7.50400E-08 1.89457E-18-1.15718E-18
 -1       709 9.52382E-05-2.85689E-05-2.85726E-05-6.52666E-10 3.30421E-19-3.04190E-19
 -1       710 9.36679E-05-2.33346E-05-3.01432E-05-1.01322E-06-2.31606E-19-1.23909E-18
 -1       711 9.26774E-05-2.34901E-05-2.96516E-05 2.59672E-07-3.49100E-19-1.15844E-18
 -1       712 9.07424E-05-2.26248E-05-2.91934E-05 9.31855E-07-2.66065E-19-1.00622E-18
 -1       713 8.75795E-05-2.07205E-05-2.86539E-05 8.71300E-07 5.96915E-20-1.11461E-18
 -1       714 8.27388E-05-1.77652E-05-2.78434E-05-2.33652E-07-4.11658E-19-1.16600E-18
 -1       715 7.56019E-05-1.38801E-05-2.64339E-05-2.96214E-06-2.23686E-20-1.17946E-18
 -1       716 6.57621E-05-9.55481E-06-2.40077E-05-8.02747E-06 1.59902E-19-1.98602E-18
 -1       717 5.08936E-05-6.37828E-06-1.88246E-05 1.90232E-05-1.73554E-18 5.90011E-20
 -1       718 8.14718E-05-1.68960E-05-2.76686E-05-4.02078E-07-2.31176E-18 1.24109E-18
 -1       719 8.66611E-05-2.05644E-05-2.83262E-05-1.20276E-06-8.00716E-19 2.92548E-18
 -1       720 9.00024E-05-2.32372E-05-2.86134E-05-1.34975E-06-1.05495E-18 3.28234E-18
 -1       721 9.21049E-05-2.50948E-05-2.87184E-05-1.21415E-06-5.18296E-19 1.94691E-18
 -1       722 9.33995E-05-2.63423E-05-2.87387E-05-9.86752E-07 1.00968E-18 3.52848E-19
 -1       723 9.41816E-05-2.71596E-05-2.87236E-05-7.57756E-07 4.16116E-19 2.97537E-18
 -1       724 9.46454E-05-2.76854E-05-2.86971E-05-5.62093E-07 5.98290E-19 2.71243E-18
 -1       725 9.49155E-05-2.80192E-05-2.86698E-05-4.07393E-07 1.32605E-21 2.59047E-18
 -1       726 9.50748E-05-2.82365E-05-2.86450E-05-2.86182E-07 2.37913E-18 1.81175E-18
 -1       727 9.51577E-05-2.83635E-05-2.86261E-05-2.02266E-07 1.67640E-18 2.23828E-18
 -1       728 9.52023E-05-2.84422E-05-2.86114E-05-1.41491E-07-2.08942E-19 1.67936E-18
 -1       729 9.52252E-05-2.84908E-05-2.86004E-05-9.80089E-08-5.70656E-19 1.60026E-18
 -1       730 9.52362E-05-2.85208E-05-2.85923E-05-6.70589E-08 1.29135E-18 1.50653E-18
 -1       731 9.52408E-05-2.85394E-05-2.85863E-05-4.51108E-08 1.34535E-18 1.47157E-19
 -1       732 9.52422E-05-2.85510E-05-2.85819E-05-2.95890E-08-2.18608E-18-1.70876E-19
 -1       733 9.52422E-05-2.85587E-05-2.85786E-05-1.82409E-08 9.24713E-20 1.34539E-18
 -1       734 9.52415E-05-2.85632E-05-2.85764E-05-1.07770E-08 1.46624E-18 1.19669E-18
 -1       735 9.52406E-05-2.85662E-05-2.85748E-05-5.63123E-09-3.00761E-19 1.45513E-18
 -1       736 9.52399E-05-2.85682E-05-2.85736E-05-2.16344E-09-9.31249E-19 3.17983E-18
 -1       737 9.52392E-05-2.85696E-05-2.85727E-05 8.42710E-11 3.34556E-18 2.79852E-18
 -1       738 9.52387E-05-2.85707E-05-2.85720E-05 1.43990E-09 2.85041E-18 3.38229E-18
 -1       739 9.74303E-05-2.91413E-05-2.92669E-05 8.73125E-07 6.78935E-19-2.14080E-19
 -1       740 9.67261E-05-2.74652E-05-2.96834E-05 1.53889E-06 7.26480E-19-4.24880E-19
 -1       741 1.00740E-04-3.34120E-05-2.88549E-05 3.93599E-06-3.71744E-19 5.27012E-19
 -1       742 9.99289E-05-3.28134E-05-2.87642E-05 2.39954E-06-1.37451E-19 3.29258E-19
 -1       743 1.01037E-04-3.22159E-05-2.94942E-05 7.52676E-06-1.03306E-19 4.17477E-19
 -1       744 1.00022E-04-2.99705E-05-3.00214E-05 8.63849E-06 2.13212E-19 1.66771E-19
 -1       745 9.82426E-05-2.68210E-05-3.06078E-05 8.41751E-06-1.96317E-20 5.65859E-19
 -1       746 9.62053E-05-2.35446E-05-3.11388E-05 6.37848E-06 8.49403E-20 9.85962E-19
 -1       747 9.47220E-05-2.12653E-05-3.14800E-05 2.63292E-06 2.10162E-20 1.05407E-18
 -1       748 9.44738E-05-2.08919E-05-3.15334E-05-1.95772E-06 5.29191E-19 3.83449E-19
 -1       749 9.55712E-05-2.25731E-05-3.12841E-05-6.10467E-06 2.97900E-19 8.31818E-19
 -1       750 9.74542E-05-2.55719E-05-3.08068E-05-8.75804E-06-2.59147E-19 1.30397E-18
 -1       751 9.93028E-05-2.87762E-05-3.02256E-05-9.58267E-06-5.92387E-19 1.40035E-18
 -1       752 1.00495E-04-3.12818E-05-2.96629E-05-8.90529E-06-6.69218E-19 1.02043E-18
 -1       753 1.00829E-04-3.26988E-05-2.91984E-05-7.37666E-06-6.34364E-19 1.28979E-18
 -1       754 1.00450E-04-3.31054E-05-2.88623E-05-5.59207E-06 2.06326E-19 8.79077E-19
 -1       755 9.96428E-05-3.27987E-05-2.86479E-05-3.94215E-06 1.02599E-19 6.29563E-19
 -1       756 9.86843E-05-3.21142E-05-2.85304E-05-2.60638E-06 5.69859E-19 8.88102E-19
 -1       757 9.77676E-05-3.13148E-05-2.84801E-05-1.61715E-06 1.00320E-20 7.76925E-19
 -1       758 9.69940E-05-3.05629E-05-2.84707E-05-9.32214E-07-4.21565E-19 9.85410E-19
 -1       759 9.63953E-05-2.99363E-05-2.84826E-05-4.84303E-07 1.97240E-19 1.31578E-18
 -1       760 9.59620E-05-2.94556E-05-2.85028E-05-2.07406E-07 7.68291E-19 8.28882E-19
 -1       761 9.56658E-05-2.91101E-05-2.85240E-05-4.70082E-08-1.18430E-19 9.83088E-19
 -1       762 9.54738E-05-2.88754E-05-2.85422E-05 3.78349E-08-1.94906E-19 1.47471E-18
 -1       763 9.53557E-05-2.87246E-05-2.85562E-05 7.59889E-08 8.37878E-19 1.09294E-19
 -1       764 9.52873E-05-2.86333E-05-2.85660E-05 8.68559E-08-1.53067E-19-7.59671E-19
 -1       765 9.52505E-05-2.85819E-05-2.85722E-05 8.29619E-08 3.06903E-19-1.80489E-18
 -1       766 9.52328E-05-2.85561E-05-2.85758E-05 7.20743E-08 1.50338E-18-1.72032E-18
 -1       767 9.52260E-05-2.85455E-05-2.85773E-05 5.87865E-08 6.63437E-19-1.17735E-18
 -1       768 9.52248E-05-2.85436E-05-2.85777E-05 4.56427E-08 6.14396E-19-5.08943E-19
 -1       769 9.52263E-05-2.85459E-05-2.85773E-05 3.39077E-08 9.51779E-19 2.30656E-20
 -1       770 9.52286E-05-2.85501E-05-2.85765E-05 2.40799E-08-1.27574E-19-2.21460E-18
 -1       771 9.52310E-05-2.85546E-05-2.85756E-05 1.62245E-08-1.44502E-18-1.90349E-18
 -1       772 9.52330E-05-2.85588E-05-2.85746E-05 1.01834E-08 2.96920E-19 3.93207E-19
 -1       773 9.52345E-05-2.85623E-05-2.85738E-05 5.70958E-09 4.93514E-19-1.19277E-18
 -1       774 9.52356E-05-2.85652E-05-2.85730E-05 2.50211E-09-3.32384E-19-1.36064E-18
 -1       775 6.13073E-05-6.38793E-06-2.34472E-05 4.27030E-06-7.02182E-19-4.78805E-20
 -1       776 9.52387E-05-2.85698E-05-2.85724E-05 1.50588E-10 9.76948E-19 1.48137E-18
 -1       777 9.52375E-05-2.85680E-05-2.85727E-05-1.12085E-09 1.35176E-18-9.56325E-19
 -1       778 9.52366E-05-2.85680E-05-2.85722E-05-5.18131E-10-9.80524E-19-9.95329E-20
 -1       779 1.35923E-04-4.76772E-05-3.79508E-05-3.53865E-06-6.25474E-19-1.91236E-18
 -1       780 1.20034E-04-1.42352E-05-4.56663E-05 1.11699E-05 8.59302E-19 4.25134E-19
 -1       781 9.52365E-05-2.85671E-05-2.85726E-05-1.13987E-09-5.27100E-19-3.22390E-18
 -1       782 5.29662E-05-1.60542E-05-1.53701E-05-3.51012E-05-7.57314E-19-4.48459E-18
 -1       783 1.01209E-04-3.33160E-05-2.90968E-05 5.76698E-06-4.56728E-19 7.41087E-19
 -1       784 7.36550E-05-1.22433E-05-2.62922E-05 1.60126E-06-5.66970E-19 2.63661E-19
 -1       785 9.72615E-05-4.05713E-05-2.41328E-05-3.64585E-05-1.79441E-18-1.39570E-18
 -1       786 7.15249E-05-2.13512E-05-2.12993E-05 3.29759E-05-1.38956E-18-1.06659E-18
 -1       787 9.52369E-05-2.85674E-05-2.85727E-05-1.26099E-09 1.84363E-18 1.71943E-18
 -1       788 9.38178E-05-2.20881E-05-3.07437E-05-2.84018E-06-3.40680E-19-1.58389E-18
 -1       789 1.17442E-04-5.23013E-05-2.78376E-05-2.92978E-05-1.87318E-18-4.84490E-19
 -1       790 1.28481E-04-5.44833E-05-3.17666E-05 1.56950E-05-2.60050E-18-9.11123E-20
 -1       791 9.29288E-05-1.91525E-05-3.16177E-05-5.59351E-06-3.07099E-19-1.71389E-18
 -1       792 1.29916E-04-3.07242E-05-4.27423E-05-1.32301E-05 3.21436E-19-2.08923E-18
 -1       793 1.30062E-04-3.75506E-05-3.98123E-05 1.10431E-05-1.84230E-19 8.60160E-19
 -1       794 9.32749E-05-1.99683E-05-3.14184E-05 3.53925E-07 7.34844E-19-1.17445E-18
 -1       795 1.02670E-04-4.27827E-05-2.55246E-05 3.39011E-05-1.59914E-18-1.05464E-18
 -1       796 1.33579E-04-5.54786E-05-3.34740E-05-1.04208E-05-6.35953E-19 7.85054E-19
 -1       797 7.15201E-05-2.35044E-05-2.03174E-05-3.50969E-05-1.25153E-18-2.67330E-18
 -1       798 9.81792E-05-3.05640E-05-2.89782E-05 8.16205E-07 5.29664E-19 1.76972E-20
 -1       799 9.52363E-05-2.85673E-05-2.85725E-05-6.98638E-10-2.14867E-18-8.27286E-19
 -1       800 9.90258E-05-3.18045E-05-2.88095E-05 1.33578E-06 2.55730E-19 2.88257E-19
 -1       801 9.52361E-05-2.85666E-05-2.85726E-05 6.74488E-10-5.24154E-19-9.78664E-19
 -1       802 9.52363E-05-2.85671E-05-2.85725E-05-9.36967E-10-2.11896E-18-7.54425E-21
 -1       803 9.59128E-05-2.53229E-05-3.02508E-05 2.85827E-06 9.21889E-19-1.46794E-19
 -1       804 1.19374E-04-2.63055E-05-3.99821E-05 1.34318E-05 5.32043E-20 3.49901E-19
 -1       805 9.27502E-05-1.99600E-05-3.11977E-05-3.28519E-06-1.11212E-19-1.52434E-18
 -1       806 5.43144E-05-9.06453E-06-1.90952E-05-2.08752E-05-1.04926E-19-3.46561E-18
 -1       807 1.15353E-04-4.78157E-05-2.89196E-05 2.10390E-05-2.27038E-18-3.80314E-19
 -1       808 9.38802E-05-2.08378E-05-3.13056E-05 1.72563E-06 8.82340E-19-9.77222E-19
 -1       809 9.45066E-05-2.19437E-05-3.11001E-05 2.97984E-06 9.72890E-19-9.04077E-19
 -1       810 9.23568E-05-1.92115E-05-3.13495E-05-2.84869E-06 1.10808E-19-1.24732E-18
 -1       811 1.22586E-04-2.16898E-05-4.34429E-05-1.35076E-05 1.18394E-18-2.13643E-18
 -1       812 9.27482E-05-1.93493E-05-3.14577E-05-9.60205E-07 5.73487E-19-1.41205E-18
 -1       813 1.29485E-04-4.67080E-05-3.55193E-05 3.85388E-06-4.60225E-19 4.09881E-19
 -1       814 9.33016E-05-2.17549E-05-3.06590E-05-2.37819E-06 3.05839E-20-1.51445E-18
 -1       815 9.19960E-05-2.30958E-05-2.95289E-05-1.29270E-06-1.92504E-19-1.19915E-18
 -1       816 8.99814E-05-2.24101E-05-2.89595E-05-2.00106E-06-2.73199E-19-9.74282E-19
 -1       817 8.69372E-05-2.10311E-05-2.82451E-05-3.96348E-06-2.83181E-19-1.25347E-18
 -1       818 8.27734E-05-1.92829E-05-2.72060E-05-7.73546E-06-2.43697E-19-1.30408E-18
 -1       819 7.76488E-05-1.78961E-05-2.55829E-05-1.41102E-05-8.33997E-19-1.74978E-18
 -1       820 7.98143E-05-1.73951E-05-2.67467E-05 7.56903E-06 3.49725E-19 9.89397E-19
 -1       821 8.83194E-05-2.24715E-05-2.82204E-05 1.74914E-06-1.27708E-18 1.00119E-18
 -1       822 9.07837E-05-2.43345E-05-2.84784E-05 6.39027E-07-5.95109E-19 5.42908E-19
 -1       823 9.24285E-05-2.57028E-05-2.85969E-05 9.35069E-08-3.21402E-19 2.53931E-18
 -1       824 9.34982E-05-2.66654E-05-2.86427E-05-1.45030E-07 7.27180E-19 2.37590E-18
 -1       825 9.41788E-05-2.73222E-05-2.86529E-05-2.25753E-07-4.12480E-19 9.94584E-19
 -1       826 9.46042E-05-2.77608E-05-2.86472E-05-2.30783E-07 9.49506E-19 1.19157E-18
 -1       827 9.48747E-05-2.80596E-05-2.86351E-05-2.02668E-07 1.11960E-18 2.77301E-18
 -1       828 9.50281E-05-2.82418E-05-2.86227E-05-1.66269E-07 1.83178E-18 3.12442E-18
 -1       829 9.51194E-05-2.83592E-05-2.86115E-05-1.30216E-07-1.93887E-19 1.31423E-18
 -1       830 9.51728E-05-2.84344E-05-2.86022E-05-9.87182E-08-1.16471E-18 6.30946E-19
 -1       831 9.52035E-05-2.84826E-05-2.85947E-05-7.28439E-08-2.04063E-19-3.68958E-19
 -1       832 9.52208E-05-2.85135E-05-2.85888E-05-5.23984E-08 1.16367E-18 3.84661E-20
 -1       833 9.52303E-05-2.85335E-05-2.85843E-05-3.66588E-08-5.92794E-19 8.56702E-20
 -1       834 9.52355E-05-2.85471E-05-2.85807E-05-2.43328E-08 1.99633E-19 2.62071E-18
 -1       835 9.52379E-05-2.85555E-05-2.85782E-05-1.57501E-08 4.09803E-19 2.21466E-18
 -1       836 9.52390E-05-2.85611E-05-2.85762E-05-9.53441E-09 1.41188E-18 1.85774E-18
 -1       837 9.52393E-05-2.85649E-05-2.85747E-05-5.14255E-09 5.41846E-19 3.25968E-18
 -1       838 9.52392E-05-2.85675E-05-2.85736E-05-2.14369E-09 1.97406E-18 5.73480E-18
 -1       839 9.52389E-05-2.85687E-05-2.85730E-05-7.61112E-10 1.74038E-18 4.22337E-18
 -1       840 1.10406E-04-1.10839E-05-4.27371E-05 4.14189E-06 8.51453E-19-2.34911E-20
 -1       841 1.04342E-04-3.00881E-05-3.18219E-05 9.68498E-06-1.12154E-19 7.68774E-19
 -1       842 1.05668E-04-3.36762E-05-3.08541E-05 8.32833E-06 1.77967E-19 4.96239E-19
 -1       843 9.93666E-05-2.09197E-05-3.36204E-05 5.83461E-06 6.50830E-20 5.07395E-19
 -1       844 9.80261E-05-1.87323E-05-3.39803E-05 5.74580E-07 4.54358E-19 2.43339E-19
 -1       845 9.86743E-05-1.98418E-05-3.37826E-05-5.00539E-06 2.75914E-19 5.21628E-19
 -1       846 1.00847E-04-2.36326E-05-3.30954E-05-8.98046E-06-2.76434E-19 3.19960E-19
 -1       847 1.03298E-04-2.83547E-05-3.21233E-05-1.04323E-05-6.42043E-19 7.60714E-19
 -1       848 1.04850E-04-3.22829E-05-3.11026E-05-9.66492E-06-8.97570E-19 1.63839E-18
 -1       849 1.05074E-04-3.45704E-05-3.02144E-05-7.65313E-06-5.00411E-19 1.37513E-18
 -1       850 1.04182E-04-3.52643E-05-2.95367E-05-5.38412E-06-2.04186E-19 8.88310E-19
 -1       851 1.02655E-04-3.48261E-05-2.90699E-05-3.40834E-06 5.29360E-19 8.13225E-19
 -1       852 1.00952E-04-3.38001E-05-2.87795E-05-1.94262E-06 2.23968E-19 1.01678E-18
 -1       853 9.93783E-05-3.26047E-05-2.86175E-05-9.69493E-07-3.49634E-19 1.59481E-18
 -1       854 9.80815E-05-3.14896E-05-2.85395E-05-3.80531E-07-1.30812E-19 1.68419E-18
 -1       855 9.70947E-05-3.05676E-05-2.85117E-05-5.52775E-08-1.76360E-19 9.81470E-19
 -1       856 9.63892E-05-2.98645E-05-2.85106E-05 1.04204E-07 3.52345E-19 1.18608E-18
 -1       857 9.59110E-05-2.93608E-05-2.85215E-05 1.67131E-07 1.34367E-19 1.62290E-18
 -1       858 9.56029E-05-2.90192E-05-2.85359E-05 1.78208E-07-5.38617E-19 1.06440E-18
 -1       859 9.54144E-05-2.87993E-05-2.85494E-05 1.64250E-07 1.31290E-18 6.69813E-19
 -1       860 9.53059E-05-2.86654E-05-2.85602E-05 1.40302E-07 5.74046E-19 5.56108E-19
 -1       861 9.52481E-05-2.85895E-05-2.85680E-05 1.14250E-07 9.34143E-19 2.29188E-19
 -1       862 9.52211E-05-2.85507E-05-2.85730E-05 8.98804E-08 4.38760E-19-7.89869E-20
 -1       863 9.52114E-05-2.85344E-05-2.85759E-05 6.87383E-08 1.04393E-18 6.30386E-19
 -1       864 9.52109E-05-2.85308E-05-2.85772E-05 5.12138E-08 1.52981E-19 4.30562E-19
 -1       865 9.52145E-05-2.85338E-05-2.85775E-05 3.71401E-08 7.60185E-19-1.66251E-19
 -1       866 9.52194E-05-2.85396E-05-2.85771E-05 2.61123E-08 2.24834E-18-2.20045E-19
 -1       867 9.52243E-05-2.85461E-05-2.85764E-05 1.76560E-08-9.50145E-19-3.13042E-19
 -1       868 9.52284E-05-2.85522E-05-2.85755E-05 1.13067E-08-2.25112E-18-1.54252E-18
 -1       869 9.52315E-05-2.85574E-05-2.85746E-05 6.64524E-09 1.47679E-19-1.28342E-18
 -1       870 9.52339E-05-2.85617E-05-2.85738E-05 3.28765E-09 1.81377E-19-7.07689E-19
 -1       871 9.52382E-05-2.85673E-05-2.85732E-05-1.58423E-09 1.25017E-18-9.16445E-19
 -1       872 1.27430E-04-4.87464E-05-3.37886E-05 1.54146E-06-1.44997E-18-1.93434E-18
 -1       873 7.18849E-05-1.42249E-05-2.46604E-05 1.42092E-05-1.23046E-18-9.58497E-19
 -1       874 9.52372E-05-2.85660E-05-2.85734E-05-1.91968E-09 1.13156E-18-1.00227E-18
 -1       875 9.63833E-05-2.57115E-05-3.02884E-05 1.69271E-06 8.28618E-19-5.33637E-19
 -1       876 1.01922E-04-2.53360E-05-3.28211E-05 9.06027E-06-3.48668E-19 5.72729E-19
 -1       877 1.21369E-04-5.02978E-05-3.04371E-05-1.46484E-05-1.08875E-18-4.21333E-19
 -1       878 1.03128E-04-3.49467E-05-2.92209E-05 1.94663E-06-1.38956E-19 3.98510E-19
 -1       879 1.13567E-04-1.05393E-05-4.43665E-05-6.35317E-06 1.21531E-18-1.27161E-18
 -1       880 9.24017E-05-1.90602E-05-3.14337E-05-2.05890E-06 4.93643E-19-1.31688E-18
 -1       881 9.75767E-05-2.80621E-05-2.97923E-05 6.88878E-07 7.53182E-19-5.70401E-19
 -1       882 8.95487E-05-3.06260E-05-2.52143E-05 2.74954E-05-1.68307E-18-2.96448E-19
 -1       883 8.47479E-05-2.00961E-05-2.77066E-05 3.84849E-06-1.12859E-18 2.36231E-18
 -1       884 1.11526E-04-4.59349E-05-2.80501E-05-2.37424E-05-1.21941E-18-3.92758E-19
 -1       885 1.25482E-04-3.78253E-05-3.76458E-05-1.04469E-05-3.68625E-19-1.60926E-18
 -1       886 9.31060E-05-2.29472E-05-3.00686E-05-1.50677E-06 2.84594E-20-1.34862E-18
 -1       887 9.55296E-05-2.39390E-05-3.06792E-05 2.31831E-06 8.23186E-19-8.04978E-19
 -1       888 6.97773E-05-1.69114E-05-2.25485E-05-2.34481E-05-6.04424E-19-2.74041E-18
 -1       889 8.75131E-05-3.07269E-05-2.42361E-05-3.02119E-05-1.03571E-18-1.37469E-18
 -1       890 1.20221E-04-4.78730E-05-3.09921E-05 8.81606E-06-2.22797E-18-9.72725E-19
 -1       891 1.22964E-04-4.76282E-05-3.23112E-05-2.45694E-06-3.73527E-19 3.12275E-19
 -1       892 9.52355E-05-2.85653E-05-2.85730E-05 2.74906E-10-1.31881E-18-7.03656E-21
 -1       893 1.01514E-04-3.35542E-05-2.91259E-05 7.48743E-07 9.97769E-20 4.62972E-19
 -1       894 1.22716E-04-3.67737E-05-3.68893E-05 1.08650E-05-5.25144E-19 4.43174E-19
 -1       895 1.05655E-04-3.54979E-05-3.00666E-05 6.06981E-06-8.58154E-20 2.88598E-19
 -1       896 9.31471E-05-2.12114E-05-3.08295E-05-2.52832E-06 1.02495E-19-1.31826E-18
 -1       897 1.04644E-04-3.57554E-05-2.95232E-05 3.77116E-06-5.31377E-19 2.09439E-19
 -1       898 9.52353E-05-2.85643E-05-2.85733E-05-8.13294E-10 1.30182E-19-5.63682E-19
 -1       899 9.52362E-05-2.85650E-05-2.85734E-05-1.76702E-09 2.35940E-19 9.03263E-19
 -1       900 7.56276E-05-1.88302E-05-2.42849E-05 2.13217E-05-1.31605E-18-1.45012E-18
 -1       901 1.09850E-04-1.89047E-05-3.90290E-05 9.95422E-06 1.58357E-19-6.15373E-20
 -1       902 1.20389E-04-3.06883E-05-3.85219E-05-1.28670E-05 6.42967E-19-2.15112E-18
 -1       903 9.87424E-05-3.00700E-05-2.94311E-05 1.71420E-07 4.47909E-19-2.51187E-19
 -1       904 1.02559E-04-3.85426E-05-2.74349E-05 2.17652E-05-8.47889E-19-1.42364E-18
 -1       905 6.68629E-05-1.29234E-05-2.29708E-05 1.83774E-05-6.46647E-19-6.05437E-19
 -1       906 9.45741E-05-2.24590E-05-3.09065E-05-9.63540E-07 4.70261E-19-1.19956E-18
 -1       907 9.52404E-05-2.32944E-05-3.08324E-05 1.54812E-07 7.00905E-19-1.04657E-18
 -1       908 9.52356E-05-2.85645E-05-2.85734E-05-1.36725E-09 1.81304E-18-7.12989E-19
 -1       909 9.06325E-05-2.46756E-05-2.82670E-05 3.14783E-06-1.35759E-18 3.91201E-19
 -1       910 9.11074E-05-2.39897E-05-2.87641E-05-5.39477E-06-3.67110E-19-8.02876E-19
 -1       911 8.94775E-05-2.40582E-05-2.80346E-05-8.92711E-06-4.28308E-19-9.19723E-19
 -1       912 8.80758E-05-2.48538E-05-2.70875E-05-1.44451E-05-8.11021E-19-1.14790E-18
 -1       913 1.10920E-04-3.50405E-05-3.25281E-05 9.12857E-06-2.05052E-19 1.80278E-19
 -1       914 8.70375E-05-2.65393E-05-2.59034E-05-2.12879E-05-1.15015E-18-1.30775E-18
 -1       915 9.20947E-05-2.57040E-05-2.84532E-05 1.69556E-06-3.62177E-20-2.63560E-19
 -1       916 9.31478E-05-2.65327E-05-2.85493E-05 8.51678E-07 7.66886E-19-7.25912E-20
 -1       917 9.38766E-05-2.71561E-05-2.85945E-05 3.79466E-07 4.73810E-19 1.28556E-18
 -1       918 9.43667E-05-2.76054E-05-2.86120E-05 1.27557E-07 3.58522E-19 2.58410E-18
 -1       919 9.47005E-05-2.79312E-05-2.86154E-05-1.93021E-09 1.44847E-18 6.22246E-19
 -1       920 9.49027E-05-2.81411E-05-2.86121E-05-5.45382E-08 1.61746E-18 1.00480E-18
 -1       921 9.50312E-05-2.82830E-05-2.86064E-05-7.08662E-08 5.57394E-21 7.94715E-19
 -1       922 9.51120E-05-2.83780E-05-2.86003E-05-6.93442E-08-1.07462E-18-1.84612E-19
 -1       923 9.51621E-05-2.84414E-05-2.85946E-05-6.00567E-08-1.65665E-18 2.29928E-18
 -1       924 9.51931E-05-2.84838E-05-2.85897E-05-4.83838E-08-3.23487E-20 1.79273E-18
 -1       925 9.52121E-05-2.85123E-05-2.85856E-05-3.69713E-08 3.98084E-19 2.38873E-19
 -1       926 9.52240E-05-2.85322E-05-2.85822E-05-2.65876E-08 1.76723E-18 6.32883E-19
 -1       927 9.52307E-05-2.85451E-05-2.85796E-05-1.85687E-08 6.12862E-19 1.36321E-18
 -1       928 9.52346E-05-2.85538E-05-2.85775E-05-1.23124E-08 9.07966E-19 2.88017E-18
 -1       929 9.52368E-05-2.85599E-05-2.85758E-05-7.62202E-09 1.00030E-18 1.38872E-18
 -1       930 9.52379E-05-2.85641E-05-2.85745E-05-4.25022E-09 8.74095E-19 2.17760E-18
 -1       931 9.52381E-05-2.85658E-05-2.85738E-05-2.72421E-09-5.11816E-19 1.03666E-20
 -1       932 1.02263E-04-1.64305E-05-3.68260E-05-2.75303E-06 4.16620E-19-4.22904E-20
 -1       933 1.02574E-04-1.70384E-05-3.66610E-05 4.45088E-06 3.56070E-19 1.57896E-19
 -1       934 1.07568E-04-2.69578E-05-3.45569E-05-1.14683E-05-2.01311E-20-1.51603E-18
 -1       935 1.09902E-04-3.30258E-05-3.29378E-05-1.04706E-05-9.28284E-19-2.16818E-18
 -1       936 1.10096E-04-3.67792E-05-3.14216E-05-7.51078E-06-6.56499E-19-1.24319E-18
 -1       937 1.08598E-04-3.78268E-05-3.03301E-05-4.52576E-06 1.75924E-19-4.27259E-19
 -1       938 1.06104E-04-3.71696E-05-2.95439E-05-2.05355E-06-8.25130E-20 3.16210E-20
 -1       939 1.03447E-04-3.56667E-05-2.90485E-05-4.66773E-07-1.59298E-19 1.21138E-18
 -1       940 1.01072E-04-3.39595E-05-2.87625E-05 3.83129E-07-6.46562E-19 2.16895E-18
 -1       941 9.91716E-05-3.24088E-05-2.86126E-05 7.29725E-07-5.03431E-19 2.10003E-18
 -1       942 9.77625E-05-3.11586E-05-2.85446E-05 7.86948E-07 5.17510E-19 1.57024E-18
 -1       943 9.67768E-05-3.02248E-05-2.85223E-05 7.05731E-07-1.65383E-19 1.52719E-18
 -1       944 9.61210E-05-2.95675E-05-2.85229E-05 5.75166E-07 3.55939E-19 2.52689E-18
 -1       945 9.57051E-05-2.91281E-05-2.85330E-05 4.42344E-07-7.13295E-19 2.36986E-18
 -1       946 9.54543E-05-2.88486E-05-2.85453E-05 3.27679E-07 8.02295E-19 1.95852E-18
 -1       947 9.53120E-05-2.86803E-05-2.85564E-05 2.36765E-07 6.40303E-19 2.00593E-18
 -1       948 9.52377E-05-2.85858E-05-2.85651E-05 1.68219E-07 1.06782E-18 1.93370E-18
 -1       949 9.52041E-05-2.85380E-05-2.85712E-05 1.18124E-07 1.92930E-18 5.38294E-19
 -1       950 9.51934E-05-2.85185E-05-2.85750E-05 8.21961E-08 6.59446E-19-7.28254E-19
 -1       951 9.51945E-05-2.85149E-05-2.85770E-05 5.66947E-08 8.98054E-19 2.60226E-19
 -1       952 9.52009E-05-2.85194E-05-2.85778E-05 3.86828E-08 1.41001E-18 4.22959E-19
 -1       953 9.52088E-05-2.85275E-05-2.85777E-05 2.59791E-08 2.01222E-18-2.47064E-19
 -1       954 9.52164E-05-2.85363E-05-2.85772E-05 1.70222E-08 5.45865E-19 1.54172E-18
 -1       955 9.52228E-05-2.85446E-05-2.85764E-05 1.07175E-08-7.89503E-19 1.43161E-18
 -1       956 9.52278E-05-2.85517E-05-2.85755E-05 6.30510E-09-1.07494E-18 1.66445E-18
 -1       957 9.52314E-05-2.85574E-05-2.85746E-05 3.22109E-09 7.26266E-19 1.51746E-18
 -1       958 1.00031E-04-3.18867E-05-2.92046E-05 1.77331E-07 8.93472E-20 2.28577E-19
 -1       959 1.05356E-04-1.37178E-05-3.93312E-05-3.14918E-06 5.72948E-19-9.66695E-19
 -1       960 8.74207E-05-2.60159E-05-2.62983E-05 1.90721E-05-5.12025E-19 1.27900E-19
 -1       961 9.52352E-05-2.85645E-05-2.85732E-05-1.86208E-10-7.75579E-19 5.41336E-19
 -1       962 1.12841E-04-4.43508E-05-2.93457E-05-1.43743E-05-4.86422E-19-1.04566E-18
 -1       963 9.39001E-05-2.17878E-05-3.09049E-05-1.87620E-06 4.07042E-19-1.37983E-18
 -1       964 9.33744E-05-2.12927E-05-3.08893E-05-2.32640E-06 1.82485E-19-8.58728E-19
 -1       965 1.20078E-04-4.10026E-05-3.39398E-05-6.39988E-06-1.20243E-18-1.24468E-18
 -1       966 9.52367E-05-2.85640E-05-2.85740E-05-2.90140E-09-2.14618E-18-2.70810E-19
 -1       967 1.10794E-04-1.85213E-05-3.96208E-05-1.05809E-05 6.65149E-19-1.86933E-18
 -1       968 9.69198E-05-2.63115E-05-3.02628E-05 3.86445E-07 7.61003E-19-8.84877E-19
 -1       969 9.54145E-05-2.35680E-05-3.07897E-05 1.28831E-06 6.90164E-19-9.85872E-19
 -1       970 1.01533E-04-3.75301E-05-2.74255E-05-2.13180E-05-1.19984E-18-7.96047E-19
 -1       971 1.04331E-04-2.03398E-05-3.60116E-05-8.88480E-06 2.55757E-19-1.70644E-19
 -1       972 8.64768E-05-2.26393E-05-2.73621E-05 9.39759E-06-1.01749E-19-6.87555E-19
 -1       973 9.24305E-05-2.39051E-05-2.93682E-05-3.36767E-06-1.24817E-19-7.84824E-19
 -1       974 9.32397E-05-2.34067E-05-2.99283E-05-2.44998E-06 1.70263E-19-1.15541E-18
 -1       975 8.87039E-05-2.35313E-05-2.79296E-05 5.56281E-06-1.40154E-18-2.55602E-19
 -1       976 8.30457E-05-2.16307E-05-2.62977E-05 1.51620E-05 7.03667E-19 1.29929E-19
 -1       977 1.10712E-04-3.79229E-05-3.12025E-05 6.00137E-06-1.12701E-19-7.58442E-20
 -1       978 1.09050E-04-2.94678E-05-3.41168E-05 1.08528E-05-2.76520E-20 2.76142E-19
 -1       979 1.18195E-04-4.37397E-05-3.18760E-05-9.55535E-07-2.48867E-18-1.21907E-18
 -1       980 1.16461E-04-4.48661E-05-3.06997E-05-5.21026E-06-2.14474E-20 1.47190E-19
 -1       981 1.04035E-04-3.54521E-05-2.93931E-05-5.76286E-07 1.12710E-19-6.73519E-20
 -1       982 1.21057E-04-4.25692E-05-3.36452E-05 5.47686E-06-2.74868E-19 1.52829E-19
 -1       983 9.52335E-05-2.85609E-05-2.85740E-05 1.44540E-10 1.70936E-18 9.22696E-20
 -1       984 1.12074E-04-2.73573E-05-3.63437E-05 1.18315E-05-1.45566E-19 1.28586E-19
 -1       985 9.52354E-05-2.85627E-05-2.85740E-05-2.40664E-09-1.75305E-18-1.60335E-18
 -1       986 9.54397E-05-2.44432E-05-3.04263E-05-2.15167E-06 1.15361E-19-1.32498E-18
 -1       987 1.10746E-04-4.28375E-05-2.91044E-05 1.37313E-05-1.51470E-18-3.62949E-19
 -1       988 1.05690E-04-2.25161E-05-3.56502E-05 9.49632E-06-1.62058E-19-2.47542E-20
 -1       989 9.84153E-05-2.88212E-05-2.98262E-05-4.80610E-07 4.10715E-19-5.08868E-19
 -1       990 9.63546E-05-2.54014E-05-3.04078E-05-1.25914E-06 3.11558E-19-8.89849E-19
 -1       991 9.52336E-05-2.85613E-05-2.85739E-05 1.12660E-09 1.19121E-18 1.27199E-18
 -1       992 1.06557E-04-3.73429E-05-2.96635E-05 7.20543E-07-2.98976E-19 2.20662E-19
 -1       993 9.52338E-05-2.85608E-05-2.85741E-05-1.03118E-09 9.21113E-19 2.38876E-19
 -1       994 1.17741E-04-3.68666E-05-3.46755E-05-9.85432E-06-1.01535E-18-1.58265E-18
 -1       995 8.88211E-05-2.51232E-05-2.72991E-05 1.22476E-05 1.97659E-20-1.18624E-18
 -1       996 9.43462E-05-2.73185E-05-2.87240E-05-8.05858E-06-2.84101E-19-1.10925E-18
 -1       997 9.50885E-05-2.93206E-05-2.81822E-05-1.20168E-05-6.55248E-19-9.18218E-19
 -1       998 1.13863E-04-4.11807E-05-3.11450E-05-2.68455E-06-1.53903E-18-1.00270E-18
 -1       999 9.33916E-05-2.69585E-05-2.84712E-05 2.01307E-06 2.80215E-21 9.10547E-19
 -1      1000 9.39197E-05-2.73323E-05-2.85374E-05 1.14364E-06 6.10284E-19-1.23818E-19
 -1      1001 9.43233E-05-2.76536E-05-2.85727E-05 6.16299E-07 9.32742E-19-8.29772E-19
 -1      1002 9.46278E-05-2.79177E-05-2.85901E-05 2.95988E-07 9.08936E-19-3.69491E-19
 -1      1003 9.48291E-05-2.81048E-05-2.85962E-05 1.27146E-07 2.04178E-18-3.89060E-19
 -1      1004 9.49672E-05-2.82412E-05-2.85969E-05 3.71596E-08 8.46985E-19-1.60134E-18
 -1      1005 9.50604E-05-2.83387E-05-2.85950E-05-6.85789E-09-7.60603E-19-1.39671E-18
 -1      1006 9.51225E-05-2.84078E-05-2.85920E-05-2.51199E-08 1.19226E-18 1.51171E-18
 -1      1007 9.51637E-05-2.84565E-05-2.85888E-05-2.97512E-08-1.01409E-18 2.84059E-18
 -1      1008 9.51909E-05-2.84909E-05-2.85857E-05-2.77525E-08-2.07963E-19 1.54387E-18
 -1      1009 9.52094E-05-2.85162E-05-2.85828E-05-2.28340E-08 5.82481E-20 8.39836E-19
 -1      1010 9.52207E-05-2.85331E-05-2.85804E-05-1.75724E-08 1.45310E-18-3.19719E-19
 -1      1011 9.52280E-05-2.85451E-05-2.85784E-05-1.27177E-08 1.56684E-18-4.51805E-19
 -1      1012 9.52326E-05-2.85536E-05-2.85767E-05-8.67417E-09 1.56544E-18 9.82690E-19
 -1      1013 9.52354E-05-2.85596E-05-2.85753E-05-5.54328E-09 3.04501E-19 3.83134E-19
 -1      1014 9.52361E-05-2.85620E-05-2.85746E-05-4.06874E-09-8.14884E-19-3.33710E-19
 -1      1015 1.09900E-04-3.98703E-05-3.00115E-05 3.73217E-07-6.56930E-19 3.18391E-19
 -1      1016 1.05964E-04-3.76550E-05-2.92723E-05 2.06941E-06-4.83743E-19 2.12809E-19
 -1      1017 1.02587E-04-3.52378E-05-2.88626E-05 2.62738E-06-8.04764E-19 2.80581E-19
 -1      1018 1.00025E-04-3.31681E-05-2.86523E-05 2.51914E-06-4.45091E-19-1.81163E-19
 -1      1019 9.81912E-05-3.15570E-05-2.85573E-05 2.11031E-06 2.73599E-19-9.57803E-20
 -1      1020 9.69681E-05-3.04127E-05-2.85233E-05 1.63585E-06 5.08341E-19 1.23738E-18
 -1      1021 9.61824E-05-2.96349E-05-2.85201E-05 1.19733E-06 1.27766E-19 1.47228E-19
 -1      1022 9.57033E-05-2.91338E-05-2.85296E-05 8.40350E-07-4.23555E-19 8.63154E-19
 -1      1023 9.54255E-05-2.88260E-05-2.85425E-05 5.71349E-07 1.65473E-19 9.77260E-19
 -1      1024 9.52748E-05-2.86474E-05-2.85546E-05 3.78860E-07 1.57161E-18 1.58054E-19
 -1      1025 9.52013E-05-2.85517E-05-2.85641E-05 2.46243E-07 1.02712E-18-1.06565E-18
 -1      1026 9.51722E-05-2.85068E-05-2.85709E-05 1.57515E-07 2.16452E-18-1.75470E-18
 -1      1027 9.51671E-05-2.84916E-05-2.85752E-05 9.94677E-08 1.24549E-18-7.59792E-19
 -1      1028 9.51737E-05-2.84927E-05-2.85776E-05 6.21310E-08-1.04208E-18 3.98373E-19
 -1      1029 9.51849E-05-2.85016E-05-2.85786E-05 3.83979E-08 1.59436E-18-7.39722E-20
 -1      1030 9.51969E-05-2.85134E-05-2.85787E-05 2.34358E-08 2.19929E-18-6.40253E-19
 -1      1031 9.52078E-05-2.85254E-05-2.85782E-05 1.40135E-08 5.83619E-19 7.37774E-19
 -1      1032 9.52167E-05-2.85363E-05-2.85773E-05 8.08608E-09-5.64119E-19 1.29410E-18
 -1      1033 9.52237E-05-2.85455E-05-2.85764E-05 4.34335E-09-1.60556E-18 1.17012E-18
 -1      1034 9.52288E-05-2.85529E-05-2.85754E-05 2.01444E-09 9.85806E-19 5.42892E-19
 -1      1035 1.09000E-04-3.84637E-05-3.02323E-05 2.94458E-06-5.54084E-19 8.78069E-20
 -1      1036 1.01811E-04-3.32938E-05-2.93642E-05-1.08115E-06-1.67852E-19-3.93027E-19
 -1      1037 9.45459E-05-2.35723E-05-3.04167E-05-2.54114E-06-3.20106E-20-9.10696E-19
 -1      1038 9.71551E-05-3.24239E-05-2.77343E-05-1.64267E-05-7.75391E-19-9.24673E-19
 -1      1039 9.42729E-05-2.60179E-05-2.92516E-05-5.30117E-06-5.76549E-20-1.31044E-18
 -1      1040 9.52345E-05-2.85616E-05-2.85741E-05-1.84921E-09 8.15524E-19-6.66824E-19
 -1      1041 9.78274E-05-3.32836E-05-2.76549E-05 1.59977E-05-5.43865E-19-1.34418E-18
 -1      1042 9.27565E-05-2.65923E-05-2.83558E-05 3.40581E-06-1.02099E-18 8.24499E-19
 -1      1043 9.42957E-05-2.48202E-05-2.97767E-05-3.58432E-06 1.20413E-20-1.39063E-18
 -1      1044 9.40874E-05-2.33725E-05-3.03080E-05-2.67314E-06 1.40590E-19-1.00162E-18
 -1      1045 9.20722E-05-2.63590E-05-2.81626E-05 5.57187E-06-2.09693E-19 4.55061E-19
 -1      1046 1.16819E-04-4.09330E-05-3.25149E-05 5.39400E-06-4.11149E-19-4.80503E-19
 -1      1047 9.99662E-05-3.10861E-05-2.95199E-05-9.94149E-07 2.01390E-21-3.77036E-19
 -1      1048 1.10060E-04-4.11320E-05-2.95380E-05-9.00602E-06-7.04621E-19-5.12808E-19
 -1      1049 9.52344E-05-2.85603E-05-2.85746E-05-3.25049E-09-1.22741E-18-4.47790E-18
 -1      1050 9.52310E-05-2.85562E-05-2.85749E-05 1.22084E-10 2.41067E-18-1.27073E-18
 -1      1051 1.04867E-04-3.79743E-05-2.86604E-05-1.38194E-05-9.29369E-19-1.15411E-18
 -1      1052 1.03229E-04-3.45936E-05-2.94212E-05-3.09598E-06-1.79018E-19-4.58828E-19
 -1      1053 9.71330E-05-2.71171E-05-3.00096E-05-2.67950E-06 1.47950E-19-8.31782E-19
 -1      1054 1.15039E-04-3.53973E-05-3.41296E-05 1.00239E-05-6.60495E-20-1.96171E-19
 -1      1055 9.16519E-05-2.66196E-05-2.78681E-05 8.80784E-06-1.43886E-19-1.10751E-18
 -1      1056 1.06347E-04-3.73902E-05-2.95532E-05-2.92568E-06-4.73543E-19 4.18305E-19
 -1      1057 9.59131E-05-2.59103E-05-2.99991E-05-3.24404E-06-1.27963E-19-8.86624E-19
 -1      1058 1.08018E-04-3.95876E-05-2.93381E-05 6.07770E-06 1.07531E-19-1.36687E-18
 -1      1059 9.52318E-05-2.85570E-05-2.85749E-05-1.50127E-09 1.35681E-18-2.87139E-19
 -1      1060 9.45657E-05-2.79757E-05-2.85391E-05 1.13821E-06 2.62693E-19-1.10969E-18
 -1      1061 9.47212E-05-2.80715E-05-2.85645E-05 6.40603E-07 1.11713E-18-2.24525E-18
 -1      1062 9.48518E-05-2.81707E-05-2.85778E-05 3.52731E-07 2.36661E-18-1.93284E-18
 -1      1063 9.49567E-05-2.82599E-05-2.85844E-05 1.81388E-07 1.26086E-18-1.94880E-18
 -1      1064 9.50370E-05-2.83341E-05-2.85870E-05 8.35188E-08 1.21923E-19-1.16448E-18
 -1      1065 9.50966E-05-2.83932E-05-2.85872E-05 3.04216E-08 4.31245E-20-1.56750E-18
 -1      1066 9.51401E-05-2.84391E-05-2.85862E-05 3.69715E-09 9.65114E-19-2.77224E-18
 -1      1067 9.51713E-05-2.84741E-05-2.85845E-05-8.11810E-09-7.20058E-19-1.77285E-18
 -1      1068 9.51943E-05-2.85017E-05-2.85825E-05-1.20281E-08-7.24507E-19-2.02887E-18
 -1      1069 9.52095E-05-2.85213E-05-2.85807E-05-1.17588E-08 1.73551E-18-3.66188E-19
 -1      1070 9.52200E-05-2.85359E-05-2.85789E-05-9.89980E-09 1.68399E-18-3.40878E-19
 -1      1071 9.52270E-05-2.85466E-05-2.85773E-05-7.61762E-09 1.66000E-18-1.02591E-18
 -1      1072 9.52318E-05-2.85546E-05-2.85759E-05-5.48371E-09 1.87632E-18-1.73087E-18
 -1      1073 9.52332E-05-2.85576E-05-2.85753E-05-4.20867E-09 8.47923E-19-1.74624E-18
 -1      1074 1.16791E-04-4.30180E-05-3.16199E-05 1.34250E-06-7.92927E-20-7.48218E-20
 -1      1075 9.79484E-05-3.23454E-05-2.81116E-05 1.11691E-05-3.21363E-20-1.73246E-19
 -1      1076 1.03540E-04-3.62478E-05-2.88406E-05 5.98810E-06-3.89930E-19-1.52126E-18
 -1      1077 1.00335E-04-3.35635E-05-2.86178E-05 5.07527E-06-4.89114E-19-1.46900E-18
 -1      1078 9.81402E-05-3.15988E-05-2.85196E-05 3.97318E-06-1.83048E-19-1.79309E-18
 -1      1079 9.67757E-05-3.02913E-05-2.84937E-05 2.92284E-06 2.51471E-20-1.84736E-18
 -1      1080 9.59617E-05-2.94561E-05-2.85020E-05 2.03375E-06 6.18503E-19-3.38021E-19
 -1      1081 9.55066E-05-2.89595E-05-2.85199E-05 1.36454E-06-8.79209E-19 7.01670E-19
 -1      1082 9.52678E-05-2.86782E-05-2.85383E-05 8.86625E-07-2.41131E-19 4.31101E-19
 -1      1083 9.51561E-05-2.85312E-05-2.85535E-05 5.59411E-07 1.39322E-18-4.05409E-19
 -1      1084 9.51156E-05-2.84645E-05-2.85647E-05 3.43109E-07 2.52720E-18-1.19035E-18
 -1      1085 9.51117E-05-2.84430E-05-2.85723E-05 2.04561E-07 1.81809E-18-1.21071E-18
 -1      1086 9.51251E-05-2.84456E-05-2.85769E-05 1.18341E-07 6.10978E-19-5.34195E-19
 -1      1087 9.51448E-05-2.84596E-05-2.85794E-05 6.61609E-08 2.94607E-20-4.51035E-20
 -1      1088 9.51652E-05-2.84779E-05-2.85803E-05 3.54652E-08-9.84920E-20-1.32738E-18
 -1      1089 9.51835E-05-2.84963E-05-2.85802E-05 1.79132E-08 1.25418E-18 1.09990E-18
 -1      1090 9.51987E-05-2.85131E-05-2.85795E-05 8.22339E-09 1.25780E-18 2.02315E-18
 -1      1091 9.52107E-05-2.85275E-05-2.85785E-05 3.10861E-09-3.50288E-19 2.37701E-19
 -1      1092 9.52197E-05-2.85392E-05-2.85774E-05 5.33978E-10 2.05828E-19-3.72856E-19
 -1      1093 9.52263E-05-2.85484E-05-2.85763E-05-7.20640E-10 1.57488E-19-1.82005E-18
 -1      1094 1.10084E-04-4.00405E-05-3.00193E-05-1.61683E-06-3.69468E-19 4.12917E-19
 -1      1095 1.13835E-04-4.34251E-05-3.01775E-05 6.00754E-06-1.29674E-18-8.67597E-19
 -1      1096 9.44247E-05-2.79299E-05-2.84985E-05 1.89201E-06 1.44813E-19-2.00260E-19
 -1      1097 9.62191E-05-2.70329E-05-2.96500E-05-4.36596E-06-3.76882E-20-8.84911E-19
 -1      1098 9.43555E-05-2.80083E-05-2.84354E-05 3.03567E-06 3.83574E-21-2.36172E-19
 -1      1099 1.00870E-04-3.20004E-05-2.95154E-05-2.67707E-06-7.52646E-20-5.82967E-19
 -1      1100 9.89992E-05-3.15885E-05-2.88905E-05-8.87002E-06-2.80439E-19-1.12747E-18
 -1      1101 9.72827E-05-2.90758E-05-2.92307E-05-6.31217E-06-1.02918E-19-7.93707E-19
 -1      1102 9.52294E-05-2.85530E-05-2.85756E-05-1.21617E-09-2.63573E-19-2.58503E-18
 -1      1103 9.88933E-05-2.93846E-05-2.97880E-05-2.05244E-06 1.01874E-19-8.26821E-19
 -1      1104 1.05104E-04-3.80435E-05-2.87321E-05 1.03840E-05 3.02416E-19 3.61332E-19
 -1      1105 9.88021E-05-2.96903E-05-2.96183E-05-3.87651E-06-2.50866E-20-6.43198E-19
 -1      1106 9.60789E-05-3.01868E-05-2.82423E-05 7.61349E-06 2.50656E-19-1.81911E-19
 -1      1107 1.04583E-04-3.66617E-05-2.91182E-05-9.00274E-06-6.05184E-19-9.40191E-19
 -1      1108 1.06228E-04-3.75427E-05-2.94331E-05-5.88536E-06-4.77103E-19-6.22682E-19
 -1      1109 1.01280E-04-3.42989E-05-2.87010E-05-1.13273E-05-6.33115E-19-1.04250E-18
 -1      1110 9.44723E-05-2.83410E-05-2.83417E-05 4.70760E-06-4.94944E-21-5.72968E-19
 -1      1111 1.02679E-04-3.42193E-05-2.93400E-05-5.20973E-06-6.09561E-19-4.60178E-19
 -1      1112 1.00670E-04-3.23104E-05-2.92988E-05-5.93420E-06-5.64468E-19-6.84250E-19
 -1      1113 1.02580E-04-3.46209E-05-2.91297E-05-7.90720E-06-5.78390E-19-9.41635E-19
 -1      1114 9.52312E-05-2.85551E-05-2.85755E-05-3.01826E-09-1.31164E-19-3.44663E-18
 -1      1115 1.16785E-04 2.57523E-10-4.18512E-05-4.13027E-05-2.36746E-19 3.50841E-18
 -1      1116 8.87934E-05 7.24331E-11-3.72994E-05-2.39390E-05-9.59265E-20-1.18172E-18
 -1      1117 8.42396E-05 4.16268E-11-3.58276E-05-1.75932E-05-5.92923E-20-2.83718E-18
 -1      1118 8.24430E-05 3.17528E-11-3.51175E-05-1.35475E-05-2.19434E-20-3.43805E-18
 -1      1119 8.15571E-05 2.66366E-11-3.47536E-05-1.02943E-05-1.28643E-20-3.65178E-18
 -1      1120 8.10729E-05 2.36614E-11-3.45583E-05-7.49508E-06 6.23363E-21-3.59135E-18
 -1      1121 8.08093E-05 2.19776E-11-3.44530E-05-4.94640E-06 1.18982E-20-3.36766E-18
 -1      1122 8.06856E-05 2.12479E-11-3.44032E-05-2.50520E-06 1.49091E-20-3.09492E-18
 -1      1123 8.06647E-05 2.12624E-11-3.43927E-05-1.00941E-07 2.59437E-20-2.90009E-18
 -1      1124 8.07258E-05 2.18902E-11-3.44138E-05 2.34115E-06 3.64208E-20-2.61222E-18
 -1      1125 8.08682E-05 2.31014E-11-3.44670E-05 4.88606E-06 4.33641E-20-2.23995E-18
 -1      1126 8.11189E-05 2.49767E-11-3.45648E-05 7.57686E-06 5.20528E-20-1.70106E-18
 -1      1127 8.15584E-05 2.79036E-11-3.47447E-05 1.05237E-05 6.32231E-20-9.76047E-19
 -1      1128 8.23925E-05 3.27615E-11-3.50943E-05 1.39024E-05 7.46183E-20 5.82137E-20
 -1      1129 8.41348E-05 4.21422E-11-3.58094E-05 1.80180E-05 9.10031E-20 1.72546E-18
 -1      1130 8.84311E-05 6.70013E-11-3.73537E-05 2.39277E-05 6.98802E-20 4.48340E-18
 -1      1131 1.06702E-04 1.64251E-10-4.06692E-05 3.61463E-05 6.14099E-20 9.25923E-18
 -1      1132 1.30063E-04-2.57522E-05-4.02563E-05-2.59967E-05-8.45339E-19 6.31124E-18
 -1      1133 9.75762E-05-2.89020E-05-3.16152E-05-6.63754E-07-2.85582E-19 4.35364E-18
 -1      1134 9.05151E-05-2.71400E-05-2.80013E-05 3.85281E-07-1.13397E-19 1.81605E-18
 -1      1135 8.88843E-05-2.67731E-05-2.68442E-05 2.46251E-07-6.57079E-20 2.11494E-20
 -1      1136 8.89606E-05-2.67824E-05-2.67299E-05 1.62179E-07-5.15697E-20-1.30305E-18
 -1      1137 9.00465E-05-2.70857E-05-2.70516E-05 1.19251E-07-3.49070E-20-1.71469E-18
 -1      1138 9.19712E-05-2.76565E-05-2.76583E-05 1.01544E-07-4.77796E-20-2.54028E-18
 -1      1139 9.49931E-05-2.85621E-05-2.86253E-05 1.09958E-07-1.09221E-19-3.10694E-18
 -1      1140 9.96038E-05-2.99589E-05-3.01140E-05 1.77117E-07 5.13348E-20-3.63356E-18
 -1      1141 1.06628E-04-3.20767E-05-3.23984E-05 3.29517E-07 2.07258E-20-3.08897E-18
 -1      1142 1.17703E-04-3.54046E-05-3.59641E-05 6.52534E-07-3.94201E-20-3.02317E-18
 -1      1143 1.34958E-04-4.05982E-05-4.13009E-05 1.25597E-06 1.44657E-20-1.69724E-18
 -1      1144 1.60262E-04-4.83009E-05-4.84465E-05 2.15326E-06-7.51146E-20-1.14985E-18
 -1      1145 1.91701E-04-5.80021E-05-5.59726E-05 2.59323E-06-1.04225E-19-4.52951E-19
 -1      1146 2.14910E-04-6.50076E-05-6.02013E-05 2.63017E-07-9.68794E-20 4.14729E-19
 -1      1147 2.06041E-04-6.13759E-05-5.80339E-05-6.02250E-06 2.25112E-19 6.94567E-19
 -1      1148 1.52468E-04-4.29128E-05-5.06243E-05-1.17284E-05 4.23516E-20-4.31987E-20
 -1      1149 8.92873E-05-2.17773E-05-4.35629E-05-8.07346E-06-4.83973E-19-5.82632E-18
 -1      1150 7.82937E-05-1.83655E-05-4.24399E-05 5.02068E-06-1.52466E-19-1.25789E-17
 -1      1151 1.26850E-04-3.43763E-05-4.77662E-05 1.18055E-05 2.39393E-19-1.49027E-17
 -1      1152 1.89914E-04-5.57403E-05-5.58033E-05 8.65701E-06 1.66654E-19-1.46537E-17
 -1      1153 2.17898E-04-6.63949E-05-6.05194E-05 1.77657E-06-6.67038E-21-1.11897E-17
 -1      1154 2.00436E-04-6.09821E-05-5.79107E-05-1.78663E-06 9.88117E-20-5.17643E-18
 -1      1155 1.68895E-04-5.09261E-05-5.07760E-05-1.86240E-06-2.62911E-20-4.82025E-18
 -1      1156 1.42102E-04-4.26417E-05-4.34246E-05-1.22209E-06-6.79413E-20-5.33631E-18
 -1      1157 1.23666E-04-3.70773E-05-3.78053E-05-6.82895E-07 5.80350E-20-4.96277E-18
 -1      1158 1.12076E-04-3.36201E-05-3.40840E-05-3.53392E-07 1.05207E-19-5.59497E-18
 -1      1159 1.05090E-04-3.15409E-05-3.17958E-05-1.75614E-07-3.80040E-20-1.20042E-17
 -1      1160 1.00890E-04-3.02781E-05-3.04146E-05-9.19596E-08 1.87772E-19-1.05260E-17
 -1      1161 9.84555E-05-2.95518E-05-2.96165E-05-3.63465E-08-2.57876E-19-1.00807E-17
 -1      1162 9.70874E-05-2.91375E-05-2.91705E-05-1.54912E-08 1.41219E-19-7.45528E-18
 -1      1163 9.62931E-05-2.88959E-05-2.89126E-05-5.58396E-09 3.57757E-19-5.76404E-18
 -1      1164 9.58334E-05-2.87554E-05-2.87637E-05-1.17293E-09 4.20740E-19-3.63961E-18
 -1      1165 9.55678E-05-2.86739E-05-2.86779E-05 6.02096E-10-2.72082E-20-3.29964E-18
 -1      1166 9.54150E-05-2.86268E-05-2.86287E-05 1.15964E-09-6.75597E-20-5.64875E-18
 -1      1167 9.53274E-05-2.85998E-05-2.86005E-05 1.20062E-09 2.50707E-20-8.42884E-18
 -1      1168 9.52767E-05-2.85839E-05-2.85843E-05 9.04460E-10-5.37852E-20-7.49730E-18
 -1      1169 9.52486E-05-2.85752E-05-2.85752E-05 8.32000E-10 2.76208E-19-6.44141E-18
 -1      1170 9.52339E-05-2.85706E-05-2.85705E-05 6.51768E-10 1.62283E-19-5.55202E-18
 -1      1171 9.52264E-05-2.85682E-05-2.85681E-05 5.00602E-10-3.65187E-19-3.94710E-18
 -1      1172 9.52231E-05-2.85671E-05-2.85670E-05 3.83485E-10 1.32147E-19-3.48632E-19
 -1      1173 9.52223E-05-2.85668E-05-2.85668E-05 2.95651E-10-1.15171E-19-9.48072E-19
 -1      1174 9.52230E-05-2.85670E-05-2.85669E-05 2.32043E-10 3.10576E-19-4.30461E-18
 -1      1175 9.52246E-05-2.85674E-05-2.85674E-05 1.81120E-10 1.97331E-19-4.78358E-18
 -1      1176 9.52267E-05-2.85680E-05-2.85680E-05 1.49132E-10-2.41305E-19-2.10684E-18
 -1      1177 9.52289E-05-2.85687E-05-2.85687E-05 1.26738E-10-2.42436E-19-6.54027E-19
 -1      1178 9.52311E-05-2.85693E-05-2.85693E-05 1.10895E-10 5.45762E-19 2.46243E-18
 -1      1179 9.52333E-05-2.85700E-05-2.85700E-05 9.90784E-11 7.95754E-19 1.05405E-17
 -1      1180 9.52352E-05-2.85706E-05-2.85705E-05 8.52412E-11-2.57400E-19 9.94922E-18
 -1      1181 9.52366E-05-2.85710E-05-2.85709E-05 5.13502E-11 1.68686E-19 5.21555E-18
 -1      1182 9.52372E-05-2.85711E-05-2.85712E-05-6.80611E-11 9.75481E-19 2.47913E-18
 -1      1183 1.31143E-04-3.77594E-05-3.86991E-05 1.21657E-05-1.80286E-19 1.28948E-17
 -1      1184 9.67501E-05-2.82473E-05-3.13867E-05 7.94703E-07 7.25272E-21 1.18360E-17
 -1      1185 9.06210E-05-2.70073E-05-2.79429E-05 1.12072E-07-1.56833E-21 1.02871E-17
 -1      1186 8.86024E-05-2.65816E-05-2.67527E-05-2.88020E-09-8.08983E-21 9.08861E-18
 -1      1187 8.81500E-05-2.64730E-05-2.64709E-05-4.10661E-08 1.84387E-20 8.28404E-18
 -1      1188 8.83269E-05-2.65145E-05-2.64908E-05-5.33873E-08 2.75985E-20 7.70919E-18
 -1      1189 8.86647E-05-2.66032E-05-2.65777E-05-5.86739E-08 6.00543E-21 7.14202E-18
 -1      1190 8.88693E-05-2.66553E-05-2.66250E-05-5.96901E-08 2.76779E-20 6.61210E-18
 -1      1191 8.87203E-05-2.66045E-05-2.65655E-05-5.57545E-08-6.90092E-20 6.46175E-18
 -1      1192 8.80401E-05-2.63975E-05-2.63482E-05-4.46638E-08-4.04921E-20 6.35462E-18
 -1      1193 8.66985E-05-2.59957E-05-2.59376E-05-2.39753E-08 1.07018E-19 5.81865E-18
 -1      1194 8.46399E-05-2.53829E-05-2.53215E-05 7.63092E-09 7.72769E-20 5.37045E-18
 -1      1195 8.19224E-05-2.45763E-05-2.45215E-05 4.86475E-08 1.08510E-19 5.31570E-18
 -1      1196 7.87529E-05-2.36364E-05-2.36018E-05 9.33402E-08-1.38100E-19 5.86221E-18
 -1      1197 7.54960E-05-2.26700E-05-2.26688E-05 1.31797E-07 9.25656E-20 6.10435E-18
 -1      1198 7.26329E-05-2.18183E-05-2.18586E-05 1.52350E-07 1.85197E-20 4.52632E-18
 -1      1199 7.06654E-05-2.12297E-05-2.13093E-05 1.46102E-07-1.49624E-19 4.69592E-18
 -1      1200 6.99854E-05-2.10215E-05-2.11265E-05 1.11470E-07 9.48611E-20 5.00782E-18
 -1      1201 7.07575E-05-2.12450E-05-2.13535E-05 5.59204E-08 1.43863E-19 4.76003E-18
 -1      1202 7.28690E-05-2.18695E-05-2.19591E-05-6.61192E-09-1.20479E-19 4.26060E-18
 -1      1203 7.59695E-05-2.27922E-05-2.28478E-05-6.13425E-08 1.14738E-20 4.26613E-18
 -1      1204 7.95816E-05-2.38712E-05-2.38888E-05-9.80412E-08 8.12808E-21 4.67485E-18
 -1      1205 8.32321E-05-2.49641E-05-2.49497E-05-1.13517E-07 5.25880E-21 3.96401E-18
 -1      1206 8.65524E-05-2.59598E-05-2.59247E-05-1.10711E-07 1.27817E-19 2.02335E-18
 -1      1207 8.93239E-05-2.67917E-05-2.67480E-05-9.58398E-08-1.98843E-19 2.50576E-18
 -1      1208 9.14712E-05-2.74367E-05-2.73938E-05-7.54919E-08-1.35002E-19 4.42604E-18
 -1      1209 9.30253E-05-2.79037E-05-2.78672E-05-5.47943E-08 2.46668E-19 3.34201E-18
 -1      1210 9.40776E-05-2.82201E-05-2.81922E-05-3.68184E-08-1.26397E-19 2.03049E-18
 -1      1211 9.47418E-05-2.84200E-05-2.84005E-05-2.28220E-08 2.95390E-20 1.04486E-18
 -1      1212 9.51272E-05-2.85362E-05-2.85237E-05-1.28375E-08-7.84163E-20-1.36633E-19
 -1      1213 9.53259E-05-2.85963E-05-2.85890E-05-6.25797E-09 4.87707E-19-2.37880E-18
 -1      1214 9.54082E-05-2.86214E-05-2.86176E-05-2.26255E-09-2.96916E-19-7.24445E-19
 -1      1215 9.54238E-05-2.86264E-05-2.86248E-05-6.54212E-11-5.90501E-20 1.06196E-18
 -1      1216 9.54054E-05-2.86212E-05-2.86209E-05 9.73970E-10 1.28570E-19-2.64805E-19
 -1      1217 9.53734E-05-2.86118E-05-2.86121E-05 1.32590E-09 9.21896E-20-6.70504E-19
 -1      1218 9.53390E-05-2.86016E-05-2.86021E-05 1.30851E-09-2.21584E-19-1.94507E-18
 -1      1219 9.53082E-05-2.85924E-05-2.85930E-05 1.12158E-09 1.52402E-19-1.71816E-18
 -1      1220 9.52830E-05-2.85849E-05-2.85855E-05 8.81034E-10 2.48318E-19-2.42940E-19
 -1      1221 9.52640E-05-2.85792E-05-2.85797E-05 6.47649E-10-2.89726E-19 1.05850E-18
 -1      1222 9.52505E-05-2.85752E-05-2.85755E-05 4.48409E-10-6.46074E-20 3.01512E-18
 -1      1223 9.52415E-05-2.85725E-05-2.85727E-05 2.91074E-10 3.98339E-19 5.02623E-19
 -1      1224 9.52360E-05-2.85708E-05-2.85710E-05 1.73507E-10-4.83485E-19 1.63567E-18
 -1      1225 9.52331E-05-2.85700E-05-2.85701E-05 8.92401E-11-4.77791E-19 2.03143E-18
 -1      1226 9.52320E-05-2.85696E-05-2.85697E-05 3.05760E-11 3.05056E-19-1.36349E-19
 -1      1227 9.52322E-05-2.85697E-05-2.85697E-05-9.82888E-12-1.74375E-19-1.87502E-18
 -1      1228 9.52331E-05-2.85699E-05-2.85699E-05-3.83591E-11 1.35393E-19-3.70197E-18
 -1      1229 9.52343E-05-2.85703E-05-2.85703E-05-5.98510E-11 5.77406E-19-8.28715E-18
 -1      1230 9.52356E-05-2.85707E-05-2.85707E-05-7.51392E-11-1.26597E-19-6.67456E-18
 -1      1231 9.52367E-05-2.85710E-05-2.85710E-05-7.19006E-11 3.55936E-19-4.41223E-18
 -1      1232 9.52372E-05-2.85712E-05-2.85711E-05 7.44545E-12 1.02917E-19-3.96961E-18
 -1      1233 9.52371E-05-2.85711E-05-2.85711E-05 1.37640E-12-3.58059E-18-4.39678E-19
 -1      1234 9.52373E-05-2.85716E-05-2.85710E-05-3.87068E-11-3.78998E-18 2.15552E-19
 -1      1235 9.52376E-05-2.85726E-05-2.85707E-05-7.06247E-11-2.98478E-18 8.40981E-20
 -1      1236 9.52379E-05-2.85737E-05-2.85704E-05-6.75670E-11-4.36812E-19-3.77621E-19
 -1      1237 9.52383E-05-2.85749E-05-2.85700E-05-5.62322E-11 1.57676E-18-6.57777E-19
 -1      1238 9.52386E-05-2.85759E-05-2.85697E-05-4.44113E-11 1.46220E-18-1.13525E-18
 -1      1239 9.52388E-05-2.85767E-05-2.85695E-05-3.47303E-11 1.61251E-18 7.85792E-19
 -1      1240 9.52390E-05-2.85774E-05-2.85693E-05-2.44813E-11 7.24616E-19-6.61289E-19
 -1      1241 9.52391E-05-2.85777E-05-2.85692E-05-1.24197E-11-3.62315E-18-6.64036E-19
 -1      1242 9.52391E-05-2.85778E-05-2.85692E-05 3.35195E-12-1.06662E-18 9.83033E-19
 -1      1243 9.52391E-05-2.85776E-05-2.85693E-05 2.37774E-11-1.48344E-18-1.52294E-18
 -1      1244 9.52389E-05-2.85769E-05-2.85695E-05 4.80864E-11-1.02932E-18 9.07445E-19
 -1      1245 9.52385E-05-2.85758E-05-2.85698E-05 7.24274E-11-2.55292E-18 5.37525E-19
 -1      1246 9.52381E-05-2.85744E-05-2.85702E-05 9.15578E-11-5.77125E-18 1.62413E-19
 -1      1247 9.52377E-05-2.85729E-05-2.85706E-05 8.56682E-11-7.41369E-19 1.26984E-19
 -1      1248 9.52373E-05-2.85716E-05-2.85709E-05 1.22564E-11 1.05762E-19-2.07758E-19
 -1      1249 9.52372E-05-2.85711E-05-2.85712E-05-8.07015E-11 9.27547E-19-1.66248E-19
 -1      1250 3.68144E-05-1.15828E-04 2.07159E-05-1.23704E-05 7.86724E-18 5.48242E-19
 -1      1251 1.68549E-05-5.94009E-05 8.37841E-06-1.99643E-05 5.47183E-18 1.37939E-18
 -1      1252 8.96461E-06 3.45522E-06-1.05571E-05 1.18106E-05 6.55942E-18 4.60786E-18
 -1      1253 4.21276E-05 3.53281E-05-3.24765E-05 7.03617E-05 8.38901E-18 8.22469E-18
 -1      1254 1.25501E-04 1.74215E-05-5.48422E-05 1.19187E-04 5.18384E-18 7.27262E-18
 -1      1255 2.35617E-04-3.73291E-05-7.36983E-05 1.25318E-04 2.65545E-18 5.35833E-18
 -1      1256 3.21892E-04-8.91055E-05-8.50413E-05 7.08383E-05 1.21443E-19-1.39676E-18
 -1      1257 3.41567E-04-1.00791E-04-8.78141E-05-1.73526E-05 7.07114E-19-9.41816E-18
 -1      1258 2.92595E-04-7.07041E-05-8.11206E-05-9.79898E-05 4.05348E-18-1.43250E-17
 -1      1259 1.89030E-04-1.20441E-05-6.61695E-05-1.28327E-04 9.32583E-18-1.72778E-17
 -1      1260 8.75239E-05 2.94882E-05-4.57675E-05-1.02874E-04 1.29681E-17-1.56125E-17
 -1      1261 2.33896E-05 2.80874E-05-2.36756E-05-4.60051E-05 1.36033E-17-1.09725E-17
 -1      1262 8.12218E-06-1.76677E-05-2.97911E-06 5.30946E-06 1.02491E-17-5.49301E-18
 -1      1263 2.41826E-05-8.21885E-05 1.37419E-05 2.27184E-05 3.43302E-18-1.71821E-18
 -1      1264 4.17671E-05-1.28968E-04 2.34109E-05 3.08556E-06-5.42525E-18-4.28228E-19
 -1      1265 3.68165E-05-1.27875E-04 2.43542E-05-3.08766E-05-1.30125E-17-3.08288E-18
 -1      1266 1.69285E-05-8.81613E-05 1.57370E-05-4.84181E-05-1.69762E-17-7.35013E-18
 -1      1267 3.13825E-06-3.06867E-05-8.68961E-07-2.71792E-05-1.52686E-17-1.06430E-17
 -1      1268 3.34281E-05 7.54574E-06-2.51565E-05 3.29813E-05-1.10910E-17-1.13553E-17
 -1      1269 1.37347E-04-4.30209E-06-5.37682E-05 1.01311E-04-7.43017E-18-1.25632E-17
 -1      1270 3.01781E-04-6.85956E-05-7.98588E-05 1.21550E-04-3.58888E-18-9.33600E-18
 -1      1271 4.32380E-04-1.30482E-04-9.57966E-05 5.44073E-05-6.87897E-19-1.39676E-18
 -1      1272 4.33921E-04-1.32785E-04-9.54464E-05-5.59193E-05-1.15779E-18 7.33700E-18
 -1      1273 2.88969E-04-6.28178E-05-7.79833E-05-1.20770E-04-3.51265E-18 1.07997E-17
 -1      1274 1.20706E-04 5.24432E-07-4.98361E-05-9.28985E-05-5.30920E-18 8.90740E-18
 -1      1275 2.37156E-05 4.84204E-06-2.08847E-05-2.11412E-05-7.82997E-18 7.79101E-18
 -1      1276 3.70289E-06-4.23478E-05 3.20767E-06 3.55039E-05-6.26804E-18 4.60362E-18
 -1      1277 2.33714E-05-1.02500E-04 1.89374E-05 4.80068E-05 1.52042E-18 2.09641E-19
 -1      1278 4.11277E-05-1.33230E-04 2.48011E-05 2.11962E-05 5.80779E-18-7.48089E-19
 -1      1279 1.04505E-04-2.20342E-05-3.79043E-05-1.71554E-05-3.34790E-19 2.24845E-18
 -1      1280 9.05232E-05-6.73450E-06-3.60776E-05-2.02078E-05-6.62221E-19-1.97173E-18
 -1      1281 9.28421E-05-6.80225E-06-3.72668E-05-2.55180E-05-9.33430E-19-1.06853E-18
 -1      1282 8.60683E-05-4.11169E-06-3.51935E-05-1.61273E-05-5.55045E-19-3.11266E-18
 -1      1283 8.73466E-05-4.11057E-06-3.56655E-05-1.85582E-05-6.83344E-19-2.66807E-18
 -1      1284 9.23484E-05-1.05129E-05-3.51608E-05-1.87332E-05-1.14042E-18-1.71582E-18
 -1      1285 8.41640E-05-3.16256E-06-3.47293E-05-1.25304E-05-3.06613E-19-3.56323E-18
 -1      1286 8.48198E-05-3.13482E-06-3.49666E-05-1.43304E-05-4.21637E-19-3.37744E-18
 -1      1287 8.80000E-05-7.36721E-06-3.46381E-05-1.50992E-05-8.18737E-19-2.67578E-18
 -1      1288 8.31322E-05-2.65564E-06-3.44814E-05-9.46798E-06-1.47688E-19-3.65298E-18
 -1      1289 8.34997E-05-2.64189E-06-3.46072E-05-1.09753E-05-1.75984E-19-3.63449E-18
 -1      1290 8.58645E-05-5.87884E-06-3.43459E-05-1.16788E-05-4.11142E-19-3.05411E-18
 -1      1291 8.25485E-05-2.36062E-06-3.43466E-05-6.80338E-06 2.16920E-20-3.49978E-18
 -1      1292 8.27557E-05-2.35382E-06-3.44146E-05-8.12087E-06-4.66662E-20-3.56302E-18
 -1      1293 8.46848E-05-5.04936E-06-3.41840E-05-8.75542E-06-2.14872E-19-3.03074E-18
 -1      1294 8.22262E-05-2.19286E-06-3.42736E-05-4.30088E-06 1.57758E-19-3.27614E-18
 -1      1295 8.23352E-05-2.18953E-06-3.43093E-05-5.54627E-06 1.29599E-19-3.42823E-18
 -1      1296 8.40117E-05-4.57108E-06-3.40938E-05-6.14535E-06 1.09218E-19-2.94029E-18
 -1      1297 8.20945E-05-2.12066E-06-3.42427E-05-1.89853E-06 3.86650E-19-3.06070E-18
 -1      1298 8.21312E-05-2.11884E-06-3.42561E-05-3.10328E-06 3.05580E-19-3.15991E-18
 -1      1299 8.36611E-05-4.32358E-06-3.40464E-05-3.69119E-06 3.79608E-19-2.72509E-18
 -1      1300 8.21049E-05-2.12233E-06-3.42417E-05 4.90740E-07 5.07360E-19-2.83090E-18
 -1      1301 8.20871E-05-2.12165E-06-3.42388E-05-7.15316E-07 4.66872E-19-2.97219E-18
 -1      1302 8.35461E-05-4.24986E-06-3.40278E-05-1.31193E-06 6.84173E-19-2.53481E-18
 -1      1303 8.22328E-05-2.18438E-06-3.42657E-05 2.93684E-06 6.40880E-19-2.55478E-18
 -1      1304 8.21680E-05-2.18522E-06-3.42483E-05 1.69498E-06 5.88613E-19-2.72641E-18
 -1      1305 8.36129E-05-4.31371E-06-3.40298E-05 1.07431E-06 9.01729E-19-2.31584E-18
 -1      1306 8.24807E-05-2.30371E-06-3.43173E-05 5.50224E-06 7.36386E-19-2.17870E-18
 -1      1307 8.23636E-05-2.30652E-06-3.42826E-05 4.19188E-06 6.91050E-19-2.41399E-18
 -1      1308 8.38384E-05-4.49932E-06-3.40491E-05 3.53371E-06 1.09111E-18-2.06880E-18
 -1      1309 8.28840E-05-2.48518E-06-3.44098E-05 8.20673E-06 8.31614E-19-1.63398E-18
 -1      1310 8.26932E-05-2.49371E-06-3.43484E-05 6.81493E-06 7.90583E-19-1.95339E-18
 -1      1311 8.42361E-05-4.81350E-06-3.40887E-05 6.10446E-06 1.23700E-18-1.68758E-18
 -1      1312 8.35745E-05-2.76758E-06-3.45852E-05 1.12383E-05 9.90076E-19-8.26029E-19
 -1      1313 8.32387E-05-2.78470E-06-3.44685E-05 9.65824E-06 8.91264E-19-1.27823E-18
 -1      1314 8.48859E-05-5.30707E-06-3.41634E-05 8.87772E-06 1.37746E-18-1.06880E-18
 -1      1315 8.48250E-05-3.23106E-06-3.49316E-05 1.47167E-05 1.07692E-18 2.96091E-19
 -1      1316 8.41973E-05-3.26561E-06-3.46990E-05 1.28617E-05 1.00953E-18-3.68989E-19
 -1      1317 8.60004E-05-6.11527E-06-3.43078E-05 1.19788E-05 1.59106E-18-2.59139E-19
 -1      1318 8.73340E-05-4.11239E-06-3.56445E-05 1.89928E-05 1.06070E-18 2.09874E-18
 -1      1319 8.60415E-05-4.17653E-06-3.51559E-05 1.65829E-05 9.79170E-19 1.04797E-18
 -1      1320 8.80675E-05-7.56604E-06-3.45887E-05 1.55385E-05 1.60623E-18 9.81738E-19
 -1      1321 9.35757E-05-6.82092E-06-3.71515E-05 2.50208E-05 7.08014E-19 4.94471E-18
 -1      1322 9.02284E-05-6.46078E-06-3.60698E-05 2.10579E-05 7.71012E-19 3.22682E-18
 -1      1323 9.24592E-05-1.07373E-05-3.51044E-05 1.95868E-05 1.43376E-18 2.85768E-18
 -1      1324 1.23733E-04-2.49531E-05-3.90525E-05 2.83259E-05 1.79359E-19 9.45628E-18
 -1      1325 1.00201E-04-1.44558E-05-3.73920E-05 2.39884E-05 2.71792E-19 6.45661E-18
 -1      1326 1.01814E-04-1.93892E-05-3.54394E-05 2.13243E-05 1.07683E-18 5.38755E-18
 -1      1327 1.02756E-04-2.78539E-05-3.48022E-05 7.28817E-06 4.26905E-19 9.49736E-18
 -1      1328 1.05295E-04-3.02796E-05-3.35645E-05-7.83095E-06-8.00976E-19 2.64274E-18
 -1      1329 9.85151E-05-2.79234E-05-3.08318E-05-4.87729E-06-7.19766E-19 1.70952E-18
 -1      1330 9.58429E-05-2.79458E-05-2.93560E-05-2.35937E-06-6.39457E-19 1.39868E-18
 -1      1331 9.37366E-05-2.76884E-05-2.83554E-05-1.90859E-06-5.84506E-19 4.60495E-19
 -1      1332 9.98102E-05-2.81446E-05-3.10820E-05-7.64578E-06-1.28029E-18 2.85397E-19
 -1      1333 9.21801E-05-2.73638E-05-2.77651E-05-6.54553E-07-5.03799E-19 2.43284E-19
 -1      1334 9.16440E-05-2.73164E-05-2.75179E-05-5.30273E-07-4.38095E-19-5.27569E-19
 -1      1335 9.52538E-05-2.79074E-05-2.89903E-05-2.80022E-06-1.02870E-18-1.33011E-19
 -1      1336 9.10975E-05-2.71854E-05-2.73413E-05 1.19348E-07-3.13068E-19-8.61485E-19
 -1      1337 9.13172E-05-2.72910E-05-2.73949E-05 2.03345E-07-2.79938E-19-1.27396E-18
 -1      1338 9.33731E-05-2.77048E-05-2.81790E-05-5.61592E-07-7.89898E-19-6.36281E-19
 -1      1339 9.13790E-05-2.73044E-05-2.74264E-05 6.40090E-07-1.76699E-19-1.36507E-18
 -1      1340 9.20840E-05-2.75282E-05-2.76364E-05 7.13916E-07-2.15226E-19-1.61525E-18
 -1      1341 9.29084E-05-2.76686E-05-2.79815E-05 7.31398E-07-4.15490E-19-1.11417E-18
 -1      1342 9.25995E-05-2.76558E-05-2.78132E-05 1.12559E-06-2.17969E-19-1.70955E-18
 -1      1343 9.37758E-05-2.80085E-05-2.81634E-05 1.21377E-06-2.19888E-19-2.03855E-18
 -1      1344 9.34358E-05-2.78249E-05-2.81419E-05 1.74500E-06-4.32834E-19-1.34123E-18
 -1      1345 9.47906E-05-2.82596E-05-2.85048E-05 1.75910E-06-5.82468E-20-2.00579E-18
 -1      1346 9.66935E-05-2.88093E-05-2.90779E-05 1.90592E-06-1.78681E-19-2.31077E-18
 -1      1347 9.48495E-05-2.81652E-05-2.86084E-05 2.88068E-06-2.76742E-19-1.53624E-18
 -1      1348 9.82190E-05-2.91790E-05-2.95963E-05 2.69955E-06-7.25338E-20-2.16090E-18
 -1      1349 1.01027E-04-2.99799E-05-3.04467E-05 2.91874E-06 5.08551E-20-2.37010E-18
 -1      1350 9.72186E-05-2.87055E-05-2.94057E-05 4.46724E-06-1.93216E-19-1.40791E-18
 -1      1351 1.03299E-04-3.05203E-05-3.12311E-05 4.15625E-06 6.27069E-20-2.32262E-18
 -1      1352 1.07669E-04-3.17718E-05-3.25575E-05 4.51972E-06-3.09696E-20-2.23180E-18
 -1      1353 1.00722E-04-2.94599E-05-3.06076E-05 6.84073E-06-2.68668E-20-1.60015E-18
 -1      1354 1.10976E-04-3.25467E-05-3.37138E-05 6.40504E-06 1.93176E-19-2.12065E-18
 -1      1355 1.17758E-04-3.45402E-05-3.57464E-05 6.98292E-06 3.66448E-19-1.62313E-18
 -1      1356 1.05847E-04-3.05545E-05-3.23736E-05 1.04838E-05 1.77374E-19-1.28555E-18
 -1      1357 1.22415E-04-3.56625E-05-3.73591E-05 9.59495E-06 3.40772E-19-1.38998E-18
 -1      1358 1.32529E-04-3.88089E-05-4.02654E-05 1.04199E-05 1.43374E-19-1.16456E-18
 -1      1359 1.13170E-04-3.22334E-05-3.48322E-05 1.57464E-05 6.50733E-19-9.89599E-19
 -1      1360 1.38739E-04-4.05081E-05-4.22647E-05 1.32433E-05 2.37571E-19-5.17537E-19
 -1      1361 1.52308E-04-4.51777E-05-4.58014E-05 1.40819E-05 2.44483E-19-3.02603E-19
 -1      1362 1.23302E-04-3.51080E-05-3.79189E-05 2.22177E-05 5.37323E-19-4.27619E-19
 -1      1363 1.60038E-04-4.80500E-05-4.77707E-05 1.50039E-05 4.32701E-19 1.09267E-19
 -1      1364 1.73974E-04-5.37593E-05-5.07555E-05 1.46319E-05 1.91641E-19 4.97844E-19
 -1      1365 1.36726E-04-4.05848E-05-4.11054E-05 2.70942E-05 5.61503E-19 5.04196E-19
 -1      1366 1.81875E-04-5.79185E-05-5.20038E-05 9.57132E-06 3.50407E-19 1.19299E-18
 -1      1367 1.86988E-04-6.10536E-05-5.26489E-05 6.43352E-06 1.81900E-19 1.36965E-18
 -1      1368 1.53127E-04-5.04992E-05-4.34638E-05 2.34644E-05 8.41421E-19 1.36246E-18
 -1      1369 1.86093E-04-5.94619E-05-5.45911E-05-2.53932E-05-5.19443E-19 2.45640E-20
 -1      1370 1.57364E-04-4.55847E-05-5.18728E-05-2.76069E-05-1.11766E-18-9.02514E-19
 -1      1371 1.57807E-04-4.05438E-05-5.45435E-05-2.14033E-05-2.87568E-18-2.13918E-18
 -1      1372 1.38742E-04-2.99738E-05-5.31658E-05-1.43522E-05-2.89008E-18-5.72991E-18
 -1      1373 1.94198E-04-5.32179E-05-6.07462E-05-3.96222E-05-3.41015E-18-1.08166E-18
 -1      1374 1.39227E-04-2.93933E-05-5.37733E-05 5.45431E-06-2.04643E-18-6.47843E-18
 -1      1375 1.48687E-04-3.38799E-05-5.45416E-05 1.29008E-05-1.51873E-18-8.42332E-18
 -1      1376 1.97375E-04-4.13376E-05-6.66336E-05-9.01015E-06-4.13352E-18-2.90861E-18
 -1      1377 1.48331E-04-3.90862E-05-5.24141E-05 2.73292E-05-5.62853E-19-9.67396E-18
 -1      1378 1.76184E-04-5.28968E-05-5.47338E-05 2.72719E-05-3.09379E-19-1.01699E-17
 -1      1379 1.95890E-04-4.65455E-05-6.37057E-05 2.94797E-05-2.07015E-18-4.90623E-18
 -1      1380 1.74997E-04-5.57509E-05-5.23679E-05 2.11799E-05 4.05835E-19-1.02906E-17
 -1      1381 1.97398E-04-6.56257E-05-5.50307E-05 1.56911E-05 6.63372E-19-9.43679E-18
 -1      1382 1.92602E-04-6.29030E-05-5.50223E-05 3.88453E-05 1.36796E-19-6.18609E-18
 -1      1383 1.91982E-04-6.24989E-05-5.38983E-05-7.61806E-07 1.08600E-18-8.95886E-18
 -1      1384 1.91771E-04-6.10076E-05-5.43218E-05-5.54556E-06 1.58829E-18-6.54393E-18
 -1      1385 1.81187E-04-6.47022E-05-4.94425E-05 9.64762E-06 1.80905E-18-5.57808E-18
 -1      1386 1.82533E-04-5.67634E-05-5.28964E-05-1.22883E-05 1.16981E-18-5.91038E-18
 -1      1387 1.69088E-04-5.08558E-05-5.02319E-05-1.31144E-05 5.73441E-19-4.47297E-18
 -1      1388 1.64123E-04-5.39456E-05-4.65312E-05-1.77678E-05 2.28106E-18-4.63500E-18
 -1      1389 1.60440E-04-4.80245E-05-4.80453E-05-1.26611E-05-9.08236E-20-4.00202E-18
 -1      1390 1.46158E-04-4.29104E-05-4.44453E-05-1.20929E-05 6.80323E-20-3.79195E-18
 -1      1391 1.45945E-04-4.38396E-05-4.35821E-05-2.43544E-05 6.37975E-19-3.89868E-18
 -1      1392 1.39081E-04-4.09953E-05-4.22106E-05-9.48503E-06-3.29509E-19-3.97513E-18
 -1      1393 1.28251E-04-3.75587E-05-3.91470E-05-8.74201E-06-3.62742E-19-4.40457E-18
 -1      1394 1.30441E-04-3.77167E-05-3.98510E-05-2.04650E-05-1.77672E-19-3.84765E-18
 -1      1395 1.23055E-04-3.62378E-05-3.73720E-05-6.26843E-06-2.48789E-19-5.50201E-18
 -1      1396 1.15886E-04-3.41261E-05-3.52277E-05-5.69440E-06-2.56810E-19-5.40889E-18
 -1      1397 1.18635E-04-3.42171E-05-3.63383E-05-1.43689E-05-4.89823E-19-4.62403E-18
 -1      1398 1.12334E-04-3.32250E-05-3.39943E-05-3.90930E-06-5.37469E-19-6.13845E-18
 -1      1399 1.07885E-04-3.19706E-05-3.26336E-05-3.52898E-06-1.42295E-18-7.63891E-18
 -1      1400 1.10321E-04-3.21273E-05-3.36307E-05-9.27492E-06-1.11758E-18-6.69222E-18
 -1      1401 1.05564E-04-3.13687E-05-3.18348E-05-2.37047E-06-6.80194E-19-8.14463E-18
 -1      1402 1.02880E-04-3.06323E-05-3.10116E-05-2.13328E-06 3.90926E-19-8.54022E-18
 -1      1403 1.04765E-04-3.08220E-05-3.17641E-05-5.74079E-06-1.72469E-18-6.78569E-18
 -1      1404 1.01342E-04-3.02258E-05-3.04897E-05-1.39014E-06 1.01497E-18-8.89331E-18
 -1      1405 9.97089E-05-2.97845E-05-2.99872E-05-1.24039E-06 4.06166E-19-8.03890E-18
 -1      1406 1.01108E-04-2.99667E-05-3.05288E-05-3.44518E-06 1.21644E-18-6.53075E-18
 -1      1407 9.88145E-05-2.95390E-05-2.96894E-05-8.18751E-07 4.33221E-19-8.17443E-18
 -1      1408 9.79097E-05-2.92981E-05-2.94128E-05-7.35927E-07 2.41126E-19-7.36743E-18
 -1      1409 9.88164E-05-2.94399E-05-2.97585E-05-2.02946E-06 7.49055E-19-6.36005E-18
 -1      1410 9.73539E-05-2.91444E-05-2.92302E-05-4.84223E-07 4.69415E-19-6.88164E-18
 -1      1411 9.68251E-05-2.90046E-05-2.90689E-05-4.34648E-07 6.74020E-19-5.83184E-18
 -1      1412 9.74337E-05-2.91108E-05-2.92964E-05-1.20685E-06 8.15706E-19-5.43151E-18
 -1      1413 9.64839E-05-2.89087E-05-2.89581E-05-2.85427E-07 5.22863E-19-6.06328E-18
 -1      1414 9.61758E-05-2.88281E-05-2.88642E-05-2.56044E-07 2.72755E-19-5.00209E-18
 -1      1415 9.65790E-05-2.89050E-05-2.90124E-05-7.15338E-07 9.94883E-19-4.90149E-18
 -1      1416 9.59671E-05-2.87686E-05-2.87971E-05-1.67919E-07 1.07607E-18-3.97211E-18
 -1      1417 9.57880E-05-2.87223E-05-2.87425E-05-1.50545E-07 5.83061E-19-3.08631E-18
 -1      1418 9.60532E-05-2.87765E-05-2.88385E-05-4.23007E-07 1.02179E-18-4.53337E-18
 -1      1419 9.56606E-05-2.86855E-05-2.87019E-05-9.86266E-08-7.52427E-19-2.78355E-18
 -1      1420 9.55567E-05-2.86590E-05-2.86702E-05-8.83633E-08-6.58435E-19-3.37250E-18
 -1      1421 9.57306E-05-2.86966E-05-2.87323E-05-2.49710E-07-7.52569E-21-3.22420E-18
 -1      1422 9.54790E-05-2.86362E-05-2.86457E-05-5.78176E-08 5.51332E-20-4.74942E-18
 -1      1423 9.54190E-05-2.86212E-05-2.86273E-05-5.17491E-08-9.71907E-19-5.52971E-18
 -1      1424 9.55331E-05-2.86470E-05-2.86676E-05-1.47181E-07-1.22744E-18-4.00981E-18
 -1      1425 9.53716E-05-2.86070E-05-2.86125E-05-3.38178E-08-4.96567E-20-5.64158E-18
 -1      1426 9.53370E-05-2.85986E-05-2.86019E-05-3.01722E-08 6.77790E-19-5.12689E-18
 -1      1427 9.54122E-05-2.86163E-05-2.86281E-05-8.65771E-08-4.82312E-19-4.01650E-18
 -1      1428 9.53070E-05-2.85895E-05-2.85926E-05-1.92491E-08-1.91744E-19-5.34114E-18
 -1      1429 9.52867E-05-2.85847E-05-2.85864E-05-1.69876E-08-3.90119E-19-5.30571E-18
 -1      1430 9.53368E-05-2.85967E-05-2.86036E-05-5.02551E-08 5.88312E-20-3.50601E-18
 -1      1431 9.52696E-05-2.85794E-05-2.85812E-05-1.09328E-08-7.93487E-20-4.69564E-18
 -1      1432 9.52590E-05-2.85769E-05-2.85779E-05-9.69988E-09-1.41658E-19-4.97161E-18
 -1      1433 9.52913E-05-2.85851E-05-2.85889E-05-2.86582E-08 1.51794E-19-4.27763E-18
 -1      1434 9.52487E-05-2.85737E-05-2.85748E-05-6.09203E-09 3.99046E-19-4.74343E-18
 -1      1435 9.52430E-05-2.85724E-05-2.85730E-05-5.34502E-09 4.13500E-19-3.65538E-18
 -1      1436 9.52645E-05-2.85780E-05-2.85802E-05-1.63222E-08 2.08796E-19-3.77936E-18
 -1      1437 9.52369E-05-2.85705E-05-2.85711E-05-3.19363E-09-3.59352E-19-3.62467E-18
 -1      1438 9.52341E-05-2.85700E-05-2.85702E-05-2.74017E-09 1.35264E-18-2.32666E-18
 -1      1439 9.52485E-05-2.85738E-05-2.85751E-05-8.94091E-09 4.82273E-19-3.05716E-18
 -1      1440 9.52306E-05-2.85688E-05-2.85692E-05-1.45137E-09 9.13533E-19-2.85720E-18
 -1      1441 9.52295E-05-2.85687E-05-2.85688E-05-1.17365E-09-2.28144E-19-2.12695E-18
 -1      1442 9.52391E-05-2.85713E-05-2.85720E-05-4.49510E-09 9.14291E-19-2.65309E-18
 -1      1443 9.52277E-05-2.85681E-05-2.85683E-05-4.00409E-10-5.40699E-19-2.16933E-18
 -1      1444 9.52276E-05-2.85682E-05-2.85683E-05-2.29113E-10-6.75753E-19-2.81180E-18
 -1      1445 9.52339E-05-2.85699E-05-2.85704E-05-1.80466E-09-2.36830E-19-3.18376E-18
 -1      1446 9.52268E-05-2.85679E-05-2.85681E-05 2.29337E-10-4.72070E-19-4.09104E-18
 -1      1447 9.52273E-05-2.85682E-05-2.85682E-05 3.38695E-10-7.50086E-19-4.82161E-18
 -1      1448 9.52314E-05-2.85693E-05-2.85695E-05-1.75923E-10-1.17186E-18-4.03383E-18
 -1      1449 9.52272E-05-2.85681E-05-2.85682E-05 6.11356E-10 4.78356E-19-5.08366E-18
 -1      1450 9.52281E-05-2.85684E-05-2.85684E-05 6.81436E-10 8.73685E-19-4.83557E-18
 -1      1451 9.52305E-05-2.85691E-05-2.85692E-05 8.13331E-10 5.10700E-19-4.94484E-18
 -1      1452 9.52284E-05-2.85685E-05-2.85685E-05 8.19668E-10 6.16296E-19-4.15124E-18
 -1      1453 9.52294E-05-2.85688E-05-2.85688E-05 8.54992E-10-1.81364E-19-2.91873E-18
 -1      1454 9.52306E-05-2.85692E-05-2.85692E-05 1.38935E-09 1.17842E-18-5.05490E-18
 -1      1455 9.52299E-05-2.85690E-05-2.85690E-05 9.15083E-10 9.40099E-19-1.66069E-18
 -1      1456 9.52310E-05-2.85693E-05-2.85693E-05 9.31983E-10 1.22363E-18 5.22816E-19
 -1      1457 9.52314E-05-2.85694E-05-2.85694E-05 1.67937E-09 1.45130E-18-2.68471E-18
 -1      1458 9.52316E-05-2.85695E-05-2.85695E-05 9.31334E-10 1.21917E-18 4.77556E-19
 -1      1459 9.52327E-05-2.85698E-05-2.85698E-05 9.33296E-10 1.99179E-18 2.54159E-18
 -1      1460 9.52325E-05-2.85698E-05-2.85698E-05 1.78580E-09 2.22781E-18-8.56317E-20
 -1      1461 9.52334E-05-2.85700E-05-2.85700E-05 8.75200E-10 2.17261E-18 2.74296E-18
 -1      1462 9.52344E-05-2.85703E-05-2.85703E-05 8.61267E-10 4.78827E-19 5.39363E-18
 -1      1463 9.52338E-05-2.85702E-05-2.85701E-05 1.74063E-09 2.80964E-18-8.42802E-19
 -1      1464 9.52350E-05-2.85705E-05-2.85705E-05 7.33747E-10-9.76724E-19 5.84845E-18
 -1      1465 9.52358E-05-2.85708E-05-2.85707E-05 6.98041E-10-1.16534E-18 4.44100E-18
 -1      1466 9.52351E-05-2.85706E-05-2.85705E-05 1.53539E-09 3.79609E-19-3.80267E-19
 -1      1467 9.52363E-05-2.85709E-05-2.85708E-05 4.80040E-10-1.57282E-18 3.45021E-18
 -1      1468 9.52367E-05-2.85711E-05-2.85710E-05 4.03339E-10-7.25826E-19 1.39250E-18
 -1      1469 9.52361E-05-2.85710E-05-2.85708E-05 1.13368E-09-2.65077E-18 1.12903E-18
 -1      1470 9.52370E-05-2.85712E-05-2.85710E-05 2.18466E-10 1.80305E-19-1.88365E-19
 -1      1471 9.52371E-05-2.85712E-05-2.85711E-05 1.33420E-10-4.80401E-19-1.61240E-19
 -1      1472 9.52371E-05-2.85713E-05-2.85710E-05 2.07253E-10 1.90242E-20 1.69414E-19
 -1      1473 9.52368E-05-2.85712E-05-2.85709E-05 6.44499E-10-1.97793E-18-1.79772E-18
 -1      1474 9.67760E-05-2.84252E-05-2.98292E-05 2.96902E-06 4.86118E-19 8.36011E-18
 -1      1475 1.02704E-04-2.94506E-05-3.22054E-05 4.43605E-06 4.18328E-19 9.03128E-18
 -1      1476 1.02481E-04-2.67690E-05-3.27503E-05 1.27301E-05 7.96899E-19 6.46413E-18
 -1      1477 9.22425E-05-2.74903E-05-2.78239E-05 1.14035E-06 4.32252E-19 7.31344E-18
 -1      1478 9.41857E-05-2.76503E-05-2.87343E-05 1.46931E-06 3.83322E-19 7.86942E-18
 -1      1479 9.66660E-05-2.80961E-05-2.95830E-05 4.84997E-06 8.01505E-19 5.64080E-18
 -1      1480 9.03910E-05-2.70631E-05-2.71184E-05 3.47991E-07 3.14401E-19 6.38766E-18
 -1      1481 9.10279E-05-2.70963E-05-2.73936E-05 5.11312E-07 2.75084E-19 6.87902E-18
 -1      1482 9.32055E-05-2.76542E-05-2.81465E-05 1.85550E-06 6.59627E-19 4.89762E-18
 -1      1483 8.97708E-05-2.69185E-05-2.69102E-05 1.55007E-08 2.03063E-19 5.90947E-18
 -1      1484 8.98773E-05-2.68875E-05-2.69555E-05 9.66957E-08 2.06360E-19 6.15086E-18
 -1      1485 9.15990E-05-2.73930E-05-2.75391E-05 5.64112E-07 4.86243E-19 4.21052E-18
 -1      1486 8.96707E-05-2.69107E-05-2.68779E-05-9.55158E-08 2.43222E-19 5.46273E-18
 -1      1487 8.95773E-05-2.68515E-05-2.68530E-05-6.42179E-08 1.97852E-19 5.69434E-18
 -1      1488 9.09085E-05-2.72611E-05-2.72897E-05 3.67264E-08 3.54586E-19 3.92226E-18
 -1      1489 8.96939E-05-2.69340E-05-2.68818E-05-6.32005E-08 1.63468E-19 4.94739E-18
 -1      1490 8.95898E-05-2.68879E-05-2.68541E-05-6.69761E-08 1.69408E-19 5.20001E-18
 -1      1491 9.06356E-05-2.72219E-05-2.71817E-05-8.91041E-08 3.74868E-19 3.69709E-18
 -1      1492 8.95773E-05-2.69129E-05-2.68418E-05 7.48995E-08 1.62818E-19 4.67415E-18
 -1      1493 8.95912E-05-2.69147E-05-2.68498E-05 4.21578E-08 1.33987E-19 4.88590E-18
 -1      1494 9.04470E-05-2.71971E-05-2.71039E-05 4.22163E-08 2.86757E-19 3.29568E-18
 -1      1495 8.91241E-05-2.67883E-05-2.67005E-05 2.97429E-07-2.17805E-20 4.42314E-18
 -1      1496 8.93549E-05-2.68668E-05-2.67725E-05 2.39269E-07 4.49589E-20 4.61040E-18
 -1      1497 9.01183E-05-2.71247E-05-2.69868E-05 3.65805E-07 9.82889E-20 2.93725E-18
 -1      1498 8.81860E-05-2.65138E-05-2.64157E-05 5.82463E-07 1.44413E-19 4.22820E-18
 -1      1499 8.87092E-05-2.66915E-05-2.65728E-05 5.03173E-07-1.82641E-21 4.36372E-18
 -1      1500 8.94836E-05-2.69536E-05-2.67815E-05 8.36279E-07 1.16063E-19 2.79164E-18
 -1      1501 8.66734E-05-2.60593E-05-2.59631E-05 8.97283E-07 1.60681E-19 3.99276E-18
 -1      1502 8.75333E-05-2.63489E-05-2.62171E-05 8.04594E-07 1.62591E-19 4.20823E-18
 -1      1503 8.84278E-05-2.66447E-05-2.64564E-05 1.40018E-06 2.14928E-19 2.41946E-18
 -1      1504 8.45810E-05-2.54198E-05-2.53437E-05 1.19234E-06 2.17549E-20 3.75486E-18
 -1      1505 8.57740E-05-2.58179E-05-2.56923E-05 1.09934E-06 5.61821E-20 3.86665E-18
 -1      1506 8.68980E-05-2.61758E-05-2.59997E-05 1.97942E-06 2.26143E-19 2.38857E-18
 -1      1507 8.20175E-05-2.46256E-05-2.45922E-05 1.40199E-06 1.47565E-19 3.88711E-18
 -1      1508 8.34750E-05-2.51070E-05-2.50141E-05 1.32729E-06 1.08791E-19 3.88227E-18
 -1      1509 8.49254E-05-2.55504E-05-2.54248E-05 2.46532E-06 9.42953E-20 2.41520E-18
 -1      1510 7.92251E-05-2.37502E-05-2.37808E-05 1.45535E-06-1.56470E-19 4.31862E-18
 -1      1511 8.08030E-05-2.42646E-05-2.42335E-05 1.42020E-06-1.53709E-19 3.93865E-18
 -1      1512 8.26466E-05-2.48079E-05-2.47743E-05 2.72839E-06-1.91523E-19 2.49542E-18
 -1      1513 7.65657E-05-2.29083E-05-2.30138E-05 1.29741E-06 4.41839E-19 4.02068E-18
 -1      1514 7.80538E-05-2.33837E-05-2.34372E-05 1.31966E-06 2.19059E-19 4.43721E-18
 -1      1515 8.03076E-05-2.40285E-05-2.41190E-05 2.64729E-06 2.31379E-20 2.75214E-18
 -1      1516 7.44631E-05-2.22377E-05-2.24108E-05 9.14354E-07-1.76749E-19 3.40273E-18
 -1      1517 7.56203E-05-2.25933E-05-2.27369E-05 1.00074E-06 2.40604E-19 3.77278E-18
 -1      1518 7.82379E-05-2.33263E-05-2.35490E-05 2.15232E-06 5.31440E-19 3.08651E-18
 -1      1519 7.33056E-05-2.18668E-05-2.20796E-05 3.50493E-07-1.04357E-20 3.28804E-18
 -1      1520 7.39159E-05-2.20330E-05-2.22488E-05 4.91254E-07-2.48875E-19 3.09679E-18
 -1      1521 7.67866E-05-2.28270E-05-2.31560E-05 1.26625E-06-7.66796E-20 2.46540E-18
 -1      1522 7.33373E-05-2.18769E-05-2.20874E-05-2.95935E-07 1.84180E-19 3.42989E-18
 -1      1523 7.32706E-05-2.18159E-05-2.20643E-05-1.26299E-07 4.51541E-20 3.32591E-18
 -1      1524 7.62339E-05-2.26337E-05-2.30116E-05 1.18889E-07-5.18742E-20 2.11172E-18
 -1      1525 7.45835E-05-2.22756E-05-2.24418E-05-9.01036E-07-2.05869E-20 3.46710E-18
 -1      1526 7.38351E-05-2.19936E-05-2.22259E-05-7.35932E-07 1.52731E-19 3.65178E-18
 -1      1527 7.67095E-05-2.27940E-05-2.31484E-05-1.08112E-06 1.28650E-19 2.27838E-18
 -1      1528 7.68447E-05-2.29952E-05-2.30892E-05-1.35600E-06-3.05428E-20 3.25320E-18
 -1      1529 7.55356E-05-2.25396E-05-2.27142E-05-1.22534E-06-7.07918E-20 3.19501E-18
 -1      1530 7.81529E-05-2.32840E-05-2.35508E-05-2.11066E-06 9.26442E-23 2.70730E-18
 -1      1531 7.97627E-05-2.39159E-05-2.39313E-05-1.60023E-06 5.69539E-20 3.26997E-18
 -1      1532 7.81001E-05-2.33602E-05-2.34548E-05-1.52128E-06-2.82069E-22 3.29979E-18
 -1      1533 8.03348E-05-2.40172E-05-2.41604E-05-2.80331E-06-1.50580E-20 2.13192E-18
 -1      1534 8.29258E-05-2.49030E-05-2.48531E-05-1.63193E-06-3.65967E-20 3.28040E-18
 -1      1535 8.11430E-05-2.43250E-05-2.43403E-05-1.60649E-06 2.25439E-20 3.15250E-18
 -1      1536 8.29296E-05-2.48743E-05-2.48923E-05-3.09318E-06-5.97373E-20 2.17967E-18
 -1      1537 8.59700E-05-2.58409E-05-2.57497E-05-1.49556E-06 5.70452E-19 2.18116E-18
 -1      1538 8.42701E-05-2.53044E-05-2.52582E-05-1.51334E-06 4.22361E-19 3.08251E-18
 -1      1539 8.56035E-05-2.57382E-05-2.56569E-05-3.01548E-06 4.71742E-19 1.79818E-18
 -1      1540 8.86407E-05-2.66524E-05-2.65452E-05-1.25718E-06-7.02111E-21 1.60254E-18
 -1      1541 8.71628E-05-2.61978E-05-2.61153E-05-1.30225E-06 1.04549E-19 2.04662E-18
 -1      1542 8.80868E-05-2.65200E-05-2.63786E-05-2.67245E-06 4.10106E-19 1.73005E-18
 -1      1543 9.08093E-05-2.73019E-05-2.71983E-05-9.81128E-07-3.65898E-19 2.43811E-18
 -1      1544 8.96208E-05-2.69454E-05-2.68503E-05-1.03780E-06-4.23543E-19 1.49639E-18
 -1      1545 9.02086E-05-2.71692E-05-2.70058E-05-2.18782E-06-2.72669E-19 1.36353E-18
 -1      1546 9.24539E-05-2.77872E-05-2.76990E-05-7.15729E-07 2.85738E-19 3.20028E-18
 -1      1547 9.15624E-05-2.75266E-05-2.74362E-05-7.72134E-07-1.70962E-20 2.82244E-18
 -1      1548 9.18973E-05-2.76703E-05-2.75139E-05-1.67035E-06-4.35387E-19 2.00242E-18
 -1      1549 9.36244E-05-2.81274E-05-2.80592E-05-4.89215E-07-5.24763E-20 2.29421E-18
 -1      1550 9.29981E-05-2.79492E-05-2.78733E-05-5.38272E-07 4.83565E-19 3.14458E-18
 -1      1551 9.31586E-05-2.80329E-05-2.79001E-05-1.19533E-06 7.57987E-19 1.99820E-18
 -1      1552 9.44065E-05-2.83510E-05-2.83023E-05-3.12410E-07 1.69066E-19 1.16876E-18
 -1      1553 9.39947E-05-2.82374E-05-2.81792E-05-3.51184E-07 2.02754E-19 1.73481E-18
 -1      1554 9.40457E-05-2.82794E-05-2.81765E-05-8.02383E-07 5.22846E-19 1.98016E-18
 -1      1555 9.48944E-05-2.84879E-05-2.84557E-05-1.84303E-07 1.37828E-19 7.74655E-19
 -1      1556 9.46428E-05-2.84212E-05-2.83799E-05-2.12683E-07-7.21500E-20 6.74259E-19
 -1      1557 9.46330E-05-2.84368E-05-2.83629E-05-5.02767E-07 2.44068E-20 9.63299E-19
 -1      1558 9.51744E-05-2.85646E-05-2.85449E-05-9.75911E-08 4.55957E-19-3.30288E-19
 -1      1559 9.50344E-05-2.85296E-05-2.85023E-05-1.16991E-07 5.71748E-19 5.41248E-19
 -1      1560 9.49965E-05-2.85301E-05-2.84807E-05-2.89810E-07 8.39935E-19 5.61226E-19
 -1      1561 9.53167E-05-2.86021E-05-2.85911E-05-4.28161E-08-3.56467E-19-1.47594E-18
 -1      1562 9.52493E-05-2.85870E-05-2.85703E-05-5.52099E-08 2.04799E-19-1.16537E-18
 -1      1563 9.52034E-05-2.85802E-05-2.85495E-05-1.48162E-07 7.28687E-19-4.20802E-19
 -1      1564 9.53738E-05-2.86158E-05-2.86105E-05-1.08652E-08-2.38141E-20-4.97297E-19
 -1      1565 9.53503E-05-2.86122E-05-2.86029E-05-1.82029E-08-5.35441E-19-1.40599E-18
 -1      1566 9.53073E-05-2.86030E-05-2.85855E-05-6.02896E-08-4.21285E-19-9.02431E-19
 -1      1567 9.53825E-05-2.86162E-05-2.86144E-05 5.84608E-09 1.58832E-19-3.03832E-19
 -1      1568 9.53831E-05-2.86187E-05-2.86141E-05 1.91881E-09 7.61560E-20-1.89574E-19
 -1      1569 9.53478E-05-2.86097E-05-2.86009E-05-1.01594E-08-1.42474E-19-1.28855E-18
 -1      1570 9.53669E-05-2.86104E-05-2.86103E-05 1.30511E-08 2.79484E-19-3.09872E-19
 -1      1571 9.53789E-05-2.86153E-05-2.86137E-05 1.12776E-08 1.10075E-19 6.39861E-20
 -1      1572 9.53526E-05-2.86078E-05-2.86043E-05 1.51738E-08 1.38274E-19-3.30110E-19
 -1      1573 9.53417E-05-2.86022E-05-2.86030E-05 1.47728E-08 7.66727E-21-4.19021E-19
 -1      1574 9.53575E-05-2.86077E-05-2.86076E-05 1.42627E-08 4.14103E-19 2.00088E-19
 -1      1575 9.53394E-05-2.86020E-05-2.86015E-05 2.52952E-08 3.38875E-19 7.46806E-19
 -1      1576 9.53151E-05-2.85940E-05-2.85951E-05 1.36547E-08-2.42961E-19-4.38499E-19
 -1      1577 9.53307E-05-2.85990E-05-2.85997E-05 1.38167E-08 9.41874E-20-6.86831E-19
 -1      1578 9.53193E-05-2.85950E-05-2.85960E-05 2.68220E-08 2.94544E-19 1.15211E-18
 -1      1579 9.52914E-05-2.85868E-05-2.85880E-05 1.13233E-08-3.52016E-19-1.36519E-19
 -1      1580 9.53048E-05-2.85909E-05-2.85919E-05 1.17887E-08-5.80701E-19-1.11182E-18
 -1      1581 9.52984E-05-2.85885E-05-2.85900E-05 2.40401E-08-4.09682E-19-6.70420E-20
 -1      1582 9.52722E-05-2.85811E-05-2.85821E-05 8.70588E-09-8.56379E-19 7.93837E-19
 -1      1583 9.52828E-05-2.85842E-05-2.85852E-05 9.26056E-09-1.43947E-19 2.43526E-19
 -1      1584 9.52798E-05-2.85829E-05-2.85845E-05 1.95467E-08-1.10165E-18 7.88815E-19
 -1      1585 9.52576E-05-2.85768E-05-2.85776E-05 6.27806E-09 2.88186E-19 1.68204E-18
 -1      1586 9.52654E-05-2.85791E-05-2.85799E-05 6.80894E-09-4.53020E-19 1.53399E-18
 -1      1587 9.52648E-05-2.85785E-05-2.85799E-05 1.47946E-08-9.52504E-19 1.81613E-18
 -1      1588 9.52473E-05-2.85738E-05-2.85744E-05 4.24128E-09 6.05770E-19 9.93605E-19
 -1      1589 9.52527E-05-2.85753E-05-2.85760E-05 4.69744E-09 4.83334E-19 1.72523E-18
 -1      1590 9.52534E-05-2.85752E-05-2.85764E-05 1.05066E-08 7.04767E-19 7.69223E-19
 -1      1591 9.52404E-05-2.85719E-05-2.85723E-05 2.64258E-09 2.56976E-20 1.01146E-18
 -1      1592 9.52439E-05-2.85728E-05-2.85733E-05 3.00887E-09 3.08505E-19 1.19856E-18
 -1      1593 9.52453E-05-2.85730E-05-2.85739E-05 6.96848E-09 1.60076E-19 8.44838E-19
 -1      1594 9.52363E-05-2.85707E-05-2.85710E-05 1.45090E-09 1.27021E-19 1.07338E-18
 -1      1595 9.52383E-05-2.85712E-05-2.85716E-05 1.73087E-09-4.87323E-19 7.27084E-19
 -1      1596 9.52399E-05-2.85715E-05-2.85722E-05 4.22432E-09-1.33849E-19 1.19111E-18
 -1      1597 9.52341E-05-2.85701E-05-2.85703E-05 6.03085E-10-9.16216E-20 6.60212E-19
 -1      1598 9.52351E-05-2.85703E-05-2.85706E-05 8.08516E-10-4.42424E-19 1.09642E-18
 -1      1599 9.52367E-05-2.85707E-05-2.85712E-05 2.20006E-09-6.30280E-19 2.15328E-19
 -1      1600 9.52334E-05-2.85699E-05-2.85701E-05 3.01264E-11 9.90872E-19-7.27704E-19
 -1      1601 9.52336E-05-2.85699E-05-2.85701E-05 1.74888E-10 1.14852E-18 7.96047E-19
 -1      1602 9.52350E-05-2.85703E-05-2.85706E-05 7.77019E-10 1.25888E-18 4.12191E-19
 -1      1603 9.52336E-05-2.85700E-05-2.85701E-05-3.29035E-10 1.27199E-19-2.05177E-18
 -1      1604 9.52333E-05-2.85699E-05-2.85700E-05-2.32348E-10 5.91764E-19-1.12719E-18
 -1      1605 9.52345E-05-2.85702E-05-2.85704E-05-1.66485E-10 1.23109E-18-5.25998E-19
 -1      1606 9.52343E-05-2.85703E-05-2.85703E-05-5.20662E-10 8.79371E-19-4.53506E-18
 -1      1607 9.52338E-05-2.85701E-05-2.85702E-05-4.62566E-10 8.14030E-19-2.66984E-18
 -1      1608 9.52346E-05-2.85703E-05-2.85704E-05-7.33387E-10 1.00595E-18-2.34567E-18
 -1      1609 9.52353E-05-2.85706E-05-2.85706E-05-5.71252E-10 1.89125E-19-5.04328E-18
 -1      1610 9.52347E-05-2.85704E-05-2.85704E-05-5.47342E-10 7.51032E-20-4.94278E-18
 -1      1611 9.52352E-05-2.85706E-05-2.85706E-05-9.96364E-10 1.06501E-18-2.81731E-18
 -1      1612 9.52363E-05-2.85709E-05-2.85708E-05-4.84984E-10-1.42105E-18-3.49006E-18
 -1      1613 9.52357E-05-2.85707E-05-2.85707E-05-4.98173E-10-8.47241E-19-4.72363E-18
 -1      1614 9.52359E-05-2.85708E-05-2.85708E-05-9.89602E-10-7.15585E-19-1.71375E-18
 -1      1615 9.52369E-05-2.85711E-05-2.85710E-05-2.59841E-10 3.25661E-20-3.11626E-18
 -1      1616 9.52366E-05-2.85710E-05-2.85709E-05-3.10219E-10 1.63681E-19-3.03943E-18
 -1      1617 9.52366E-05-2.85711E-05-2.85709E-05-7.18661E-10 1.61913E-19-1.92094E-18
 -1      1618 9.52371E-05-2.85712E-05-2.85711E-05-6.59683E-11-1.14393E-18-2.10350E-18
 -1      1619 9.52373E-05-2.85719E-05-2.85709E-05-4.32672E-10-2.03775E-18 6.02160E-19
 -1      1620 9.52372E-05-2.85715E-05-2.85710E-05-3.71730E-10-2.58140E-18 5.57677E-19
 -1      1621 9.52376E-05-2.85727E-05-2.85707E-05-5.65345E-10-8.87461E-19 8.25506E-19
 -1      1622 9.52374E-05-2.85722E-05-2.85708E-05-5.48606E-10-1.91267E-18 9.70370E-19
 -1      1623 9.52373E-05-2.85719E-05-2.85709E-05-9.33242E-10-2.96968E-19 1.05466E-18
 -1      1624 9.52379E-05-2.85736E-05-2.85704E-05-5.84013E-10-7.94801E-19 5.10878E-20
 -1      1625 9.52377E-05-2.85731E-05-2.85706E-05-5.90381E-10-6.56905E-19 8.31418E-19
 -1      1626 9.52376E-05-2.85726E-05-2.85707E-05-1.10265E-09-6.59407E-19 1.72270E-18
 -1      1627 9.52382E-05-2.85745E-05-2.85702E-05-5.36997E-10 2.28592E-18 1.14910E-19
 -1      1628 9.52380E-05-2.85740E-05-2.85703E-05-5.51039E-10-1.69847E-19 5.74067E-19
 -1      1629 9.52378E-05-2.85733E-05-2.85705E-05-1.08337E-09-1.87493E-19 2.69791E-19
 -1      1630 9.52384E-05-2.85752E-05-2.85699E-05-4.62224E-10 1.46050E-18-1.23866E-20
 -1      1631 9.52383E-05-2.85748E-05-2.85701E-05-4.78735E-10 1.52291E-18-1.46276E-18
 -1      1632 9.52380E-05-2.85739E-05-2.85703E-05-9.73388E-10 7.71990E-19-1.38361E-18
 -1      1633 9.52386E-05-2.85759E-05-2.85697E-05-3.69085E-10 1.43511E-18 5.04244E-19
 -1      1634 9.52385E-05-2.85755E-05-2.85698E-05-3.88126E-10 1.15919E-18 1.16793E-19
 -1      1635 9.52382E-05-2.85745E-05-2.85702E-05-8.16992E-10 9.14052E-19-5.72233E-19
 -1      1636 9.52387E-05-2.85763E-05-2.85696E-05-2.57096E-10-1.12787E-18-2.04366E-18
 -1      1637 9.52387E-05-2.85761E-05-2.85697E-05-2.79938E-10-9.78229E-20-4.73482E-19
 -1      1638 9.52383E-05-2.85750E-05-2.85700E-05-6.24729E-10-3.08642E-19-1.74886E-18
 -1      1639 9.52388E-05-2.85766E-05-2.85695E-05-1.18257E-10-9.60440E-19 1.81721E-19
 -1      1640 9.52388E-05-2.85765E-05-2.85696E-05-1.47077E-10-1.04730E-18-1.00420E-18
 -1      1641 9.52385E-05-2.85753E-05-2.85699E-05-3.89762E-10-3.87797E-19-2.52271E-18
 -1      1642 9.52388E-05-2.85766E-05-2.85695E-05 5.34070E-11-1.20478E-18-2.83410E-19
 -1      1643 9.52388E-05-2.85766E-05-2.85695E-05 1.75182E-11-1.61118E-18 5.72101E-19
 -1      1644 9.52385E-05-2.85755E-05-2.85699E-05-9.83313E-11 9.49006E-19-2.90349E-19
 -1      1645 9.52387E-05-2.85763E-05-2.85696E-05 2.54585E-10-2.00482E-18-5.97791E-19
 -1      1646 9.52388E-05-2.85765E-05-2.85696E-05 2.12912E-10-1.47822E-18-8.06474E-19
 -1      1647 9.52385E-05-2.85755E-05-2.85699E-05 2.53773E-10-1.74976E-18-5.09158E-19
 -1      1648 9.52386E-05-2.85757E-05-2.85698E-05 4.63591E-10-1.26776E-18 8.83105E-19
 -1      1649 9.52387E-05-2.85761E-05-2.85697E-05 4.21974E-10-1.42597E-18-7.55028E-20
 -1      1650 9.52385E-05-2.85752E-05-2.85700E-05 6.45225E-10-1.15711E-18-3.39059E-19
 -1      1651 9.52383E-05-2.85747E-05-2.85701E-05 6.51799E-10-3.84889E-18-1.87749E-18
 -1      1652 9.52385E-05-2.85753E-05-2.85699E-05 6.16200E-10-2.12161E-18-6.51200E-19
 -1      1653 9.52383E-05-2.85747E-05-2.85701E-05 1.03049E-09-1.81586E-18-3.89999E-19
 -1      1654 9.52379E-05-2.85736E-05-2.85704E-05 7.61359E-10-3.86456E-18 5.84114E-19
 -1      1655 9.52381E-05-2.85743E-05-2.85702E-05 7.46210E-10-4.33207E-18-5.46689E-19
 -1      1656 9.52381E-05-2.85740E-05-2.85703E-05 1.33159E-09-2.58088E-18-2.37432E-18
 -1      1657 9.52375E-05-2.85724E-05-2.85707E-05 7.14052E-10-6.33558E-19 9.12148E-19
 -1      1658 9.52377E-05-2.85731E-05-2.85705E-05 7.45780E-10-3.38694E-18 1.09235E-18
 -1      1659 9.52377E-05-2.85731E-05-2.85706E-05 1.43728E-09-2.04940E-18 1.48654E-18
 -1      1660 9.52372E-05-2.85716E-05-2.85710E-05 4.61899E-10 1.34930E-19 8.03582E-19
 -1      1661 9.52374E-05-2.85721E-05-2.85708E-05 5.41125E-10-6.52721E-19-9.91697E-19
 -1      1662 9.52374E-05-2.85723E-05-2.85708E-05 1.20891E-09-9.66117E-19 8.31828E-19
 -1      1663 9.52371E-05-2.85716E-05-2.85709E-05 7.16906E-10-1.16232E-18-1.86346E-19
 -1      1664 2.16659E-05-6.82986E-05 1.46967E-05 1.24001E-06 4.02679E-18 3.70153E-19
 -1      1665 2.63666E-05-8.53543E-05 1.87033E-05 9.63217E-06 4.21357E-18 1.08420E-19
 -1      1666 2.27219E-05-3.36638E-05 1.37083E-06 1.35957E-05 3.56601E-18 1.98417E-18
 -1      1667 2.68831E-05-6.06827E-05 9.02195E-06 7.51111E-06 4.00138E-18 1.00056E-18
 -1      1668 4.09550E-05-3.34552E-06-1.71531E-05 4.15984E-05 4.92296E-18 4.69849E-18
 -1      1669 3.27622E-05-2.56961E-05-6.97043E-06 2.06189E-05 3.96750E-18 2.69314E-18
 -1      1670 8.59866E-05 5.15523E-06-3.77937E-05 7.49393E-05 5.00681E-18 4.12674E-18
 -1      1671 5.71821E-05 1.79209E-06-2.71068E-05 5.04530E-05 5.40068E-18 4.24364E-18
 -1      1672 1.62762E-04-1.88155E-05-5.79956E-05 8.65487E-05 2.84603E-18 3.81165E-18
 -1      1673 1.17113E-04-4.03632E-06-4.76663E-05 7.50181E-05 4.09371E-18 3.65495E-18
 -1      1674 2.35141E-04-4.67833E-05-7.45773E-05 7.72044E-05 1.70942E-18 7.48777E-19
 -1      1675 1.87919E-04-2.25508E-05-6.71835E-05 8.94852E-05 3.03428E-18 3.43726E-18
 -1      1676 2.78732E-04-6.94257E-05-8.32188E-05 2.85760E-05 1.68792E-18-3.70619E-18
 -1      1677 2.54064E-04-5.44881E-05-7.97482E-05 6.27132E-05 2.01679E-18-2.86297E-19
 -1      1678 2.67165E-04-6.18507E-05-8.24523E-05-2.86957E-05 2.64401E-18-7.98625E-18
 -1      1679 2.73783E-04-6.55312E-05-8.33691E-05 9.16301E-06 1.79126E-18-5.20650E-18
 -1      1680 2.26663E-04-4.10460E-05-7.48911E-05-7.50373E-05 4.94757E-18-1.08496E-17
 -1      1681 2.63309E-04-6.17722E-05-8.02630E-05-4.77834E-05 3.09887E-18-9.02132E-18
 -1      1682 1.56485E-04-1.36240E-05-5.89878E-05-8.26480E-05 7.44034E-18-1.09081E-17
 -1      1683 2.03901E-04-3.47518E-05-6.77052E-05-8.09307E-05 5.83267E-18-1.02660E-17
 -1      1684 9.11309E-05 6.63599E-07-3.95110E-05-6.77550E-05 8.80745E-18-9.94925E-18
 -1      1685 1.30491E-04-7.70330E-06-4.99233E-05-8.55787E-05 7.92992E-18-1.12096E-17
 -1      1686 4.45721E-05-6.64863E-06-1.89820E-05-3.71347E-05 8.70580E-18-7.50048E-18
 -1      1687 6.49138E-05 4.54022E-06-2.94951E-05-6.18769E-05 9.43425E-18-9.74935E-18
 -1      1688 2.78503E-05-3.84163E-05-3.19584E-07-1.10547E-05 5.25245E-18-4.29361E-18
 -1      1689 2.97170E-05-1.27753E-05-9.51538E-06-2.71623E-05 7.73256E-18-6.53147E-18
 -1      1690 2.68199E-05-7.31526E-05 1.36546E-05-4.60949E-06-1.25361E-19-2.50404E-18
 -1      1691 2.07826E-05-4.75131E-05 7.06855E-06-5.01791E-06 3.90143E-18-3.76824E-18
 -1      1692 2.63032E-05-9.05992E-05 2.07233E-05-1.23414E-05-5.69651E-18-2.55020E-18
 -1      1693 2.38227E-05-8.03870E-05 1.81197E-05-2.89781E-07-1.76945E-18-2.05257E-18
 -1      1694 2.00590E-05-7.60521E-05 1.77558E-05-1.82915E-05-9.00015E-18-3.96348E-18
 -1      1695 2.43009E-05-8.49732E-05 1.97349E-05-8.63155E-06-6.35005E-18-2.74608E-18
 -1      1696 1.85151E-05-5.41928E-05 8.52622E-06-1.58966E-05-1.14460E-17-6.33030E-18
 -1      1697 2.46441E-05-7.65386E-05 1.46792E-05-1.69185E-05-1.06248E-17-4.66260E-18
 -1      1698 3.54612E-05-2.69057E-05-9.17718E-06 1.03804E-05-1.02101E-17-7.28194E-18
 -1      1699 2.94272E-05-4.91620E-05 6.86693E-07-7.90424E-06-1.14011E-17-6.59161E-18
 -1      1700 9.87221E-05-2.42419E-05-3.37435E-05 4.74970E-05-7.09475E-18-7.55892E-18
 -1      1701 6.51235E-05-3.08164E-05-2.05986E-05 1.96384E-05-9.02259E-18-7.21672E-18
 -1      1702 1.94181E-04-4.33669E-05-5.97776E-05 7.27334E-05-5.00596E-18-7.88249E-18
 -1      1703 1.30501E-04-2.65371E-05-4.61636E-05 5.23356E-05-6.43660E-18-8.33480E-18
 -1      1704 3.01756E-04-8.15871E-05-8.13692E-05 5.34251E-05-3.14509E-18-4.91449E-18
 -1      1705 2.29492E-04-5.06458E-05-7.06952E-05 6.51735E-05-4.60532E-18-7.68767E-18
 -1      1706 3.45672E-04-9.59667E-05-9.04699E-05 2.64421E-06-2.53559E-18 5.76618E-19
 -1      1707 3.15387E-04-8.16827E-05-8.66352E-05 4.02292E-05-3.38644E-18-3.32630E-18
 -1      1708 3.19993E-04-8.31079E-05-8.71938E-05-4.47355E-05-2.23617E-18 4.20975E-18
 -1      1709 3.54063E-04-9.96163E-05-9.14627E-05-3.30343E-06-1.43530E-18 1.87914E-18
 -1      1710 2.20697E-04-5.03463E-05-6.83624E-05-5.95530E-05-3.12852E-18 6.26127E-18
 -1      1711 2.97641E-04-8.13409E-05-8.00422E-05-5.31939E-05-2.58001E-18 5.60566E-18
 -1      1712 1.18172E-04-2.58568E-05-4.24579E-05-4.75703E-05-3.52874E-18 5.56670E-18
 -1      1713 1.81077E-04-3.95633E-05-5.67054E-05-7.16392E-05-2.77573E-18 7.54876E-18
 -1      1714 5.21993E-05-3.02036E-05-1.64335E-05-1.36249E-05-4.81454E-18 3.90736E-18
 -1      1715 8.15581E-05-1.86845E-05-2.95532E-05-4.30907E-05-4.27921E-18 4.46895E-18
 -1      1716 2.66700E-05-5.66234E-05 4.62840E-06 1.30394E-05-1.07065E-18 2.51399E-18
 -1      1717 2.95364E-05-3.10420E-05-5.23949E-06-3.31320E-06-3.66935E-18 4.43337E-18
 -1      1718 2.50164E-05-8.39339E-05 1.74267E-05 1.78717E-05 2.24252E-18-4.29869E-20
 -1      1719 1.79273E-05-6.27943E-05 1.21434E-05 2.05991E-05-7.96211E-19 2.51691E-18
 -1      1720 2.48369E-05-8.70816E-05 2.01662E-05 6.91885E-06 4.10260E-18 9.76205E-19
 -1      1721 2.22880E-05-8.46191E-05 1.98124E-05 1.95042E-05 2.18185E-18-5.63277E-20
 -1      1722 1.96289E-04-6.55302E-05-5.44505E-05-7.78124E-06-1.69724E-19 1.46516E-18
 -1      1723 1.82718E-04-6.02885E-05-5.24593E-05-1.35447E-05-2.95614E-19 1.06387E-18
 -1      1724 8.17749E-05-2.99700E-05-2.28493E-05 5.14325E-05 2.54195E-18 2.89304E-18
 -1      1725 1.11516E-05-5.55253E-05 1.44245E-05 1.41750E-05 1.19686E-18 6.94991E-19
 -1      1726 9.52371E-05-2.85713E-05-2.85710E-05-2.68471E-10-1.91225E-18-1.14145E-18
 -1      1727 9.52370E-05-2.85714E-05-2.85710E-05-6.40331E-10-2.47245E-19-4.36351E-20
 -1      1728 2.23720E-05-4.88333E-05 7.65006E-06 2.76071E-05 1.62969E-18 6.98802E-21
 -1      1729 4.68616E-05-3.97578E-05-5.49312E-06 4.02914E-05 2.02610E-18 1.87004E-18
 -1      1730 1.30765E-04-2.91350E-05-4.19401E-05 5.52788E-05 2.50806E-18 9.49524E-19
 -1      1731 1.77221E-04-3.13523E-05-5.95373E-05 4.81825E-05 2.32743E-18 9.34277E-19
 -1      1732 2.18082E-04-3.46780E-05-7.33895E-05 3.81077E-05 3.02137E-18-1.42132E-18
 -1      1733 2.28364E-04-3.35507E-05-7.84342E-05 1.07590E-05 3.49528E-18-3.13455E-18
 -1      1734 2.22260E-04-3.25101E-05-7.65389E-05-1.82809E-05 3.45505E-18-5.18977E-18
 -1      1735 1.99403E-04-3.23793E-05-6.75516E-05-3.88431E-05 4.29742E-18-5.91314E-18
 -1      1736 1.59032E-04-3.09875E-05-5.23192E-05-5.04146E-05 4.69087E-18-6.16386E-18
 -1      1737 1.10735E-04-2.86823E-05-3.43389E-05-5.52009E-05 5.22619E-18-6.74577E-18
 -1      1738 6.58049E-05-3.26076E-05-1.56821E-05-4.56898E-05 4.43083E-18-6.38112E-18
 -1      1739 3.55865E-05-4.40154E-05 4.02080E-07-3.27462E-05 1.91684E-18-5.13649E-18
 -1      1740 1.73816E-05-5.46022E-05 1.15473E-05-2.08664E-05-8.64397E-19-4.66842E-18
 -1      1741 1.02454E-05-5.52962E-05 1.47812E-05-7.85951E-06-3.18881E-18-4.31394E-18
 -1      1742 1.73913E-05-5.38282E-05 1.08390E-05 3.15242E-06-4.83529E-18-4.06068E-18
 -1      1743 4.08242E-05-5.35216E-05 2.80341E-07 1.41247E-05-6.95160E-18-4.30753E-18
 -1      1744 8.94648E-05-5.49009E-05-1.82697E-05 2.68670E-05-6.11897E-18-3.70069E-18
 -1      1745 1.56030E-04-6.22579E-05-4.05149E-05 2.67452E-05-4.41728E-18-4.32749E-18
 -1      1746 2.22740E-04-6.63968E-05-6.25633E-05 1.37252E-05-4.26672E-18-4.70273E-18
 -1      1747 2.63790E-04-6.00666E-05-7.74981E-05-8.59154E-07-4.91618E-18-2.47418E-18
 -1      1748 2.75368E-04-5.46988E-05-8.27876E-05-2.33073E-06-3.73033E-18-6.81014E-19
 -1      1749 2.65048E-04-6.12177E-05-7.71103E-05-1.69257E-06-2.68128E-18 7.62330E-19
 -1      1750 2.15338E-04-6.50177E-05-5.97816E-05-1.27716E-05-1.65002E-18 3.28988E-18
 -1      1751 1.43593E-04-5.89685E-05-3.68510E-05-2.90967E-05-2.10318E-18 3.41524E-18
 -1      1752 7.66707E-05-5.36510E-05-1.40359E-05-2.39282E-05-8.19081E-19 2.54618E-18
 -1      1753 3.37169E-05-5.56250E-05 3.85843E-06-9.81771E-06 1.06218E-18 2.86255E-18
 -1      1754 1.34490E-05-5.72548E-05 1.34478E-05 3.04820E-06 6.12828E-19 1.55558E-18
 -1      1755 1.89691E-04-6.77805E-05-5.21536E-05-3.15263E-05-7.83294E-19 9.26866E-19
 -1      1756 1.06184E-04-2.32253E-05-3.56379E-05-1.66744E-05-9.84742E-19 1.64367E-18
 -1      1757 1.72685E-04-6.25318E-05-4.65008E-05 2.17423E-06 1.56489E-19 2.25156E-18
 -1      1758 8.92097E-05-1.04775E-05-3.38677E-05-1.29835E-05-7.89620E-19-2.29268E-18
 -1      1759 9.06129E-05-1.15891E-05-3.40157E-05-1.47455E-05-1.05092E-18-2.05644E-18
 -1      1760 9.27182E-05-1.39042E-05-3.39379E-05-1.56547E-05-1.18464E-18-1.64793E-18
 -1      1761 9.44675E-05-1.58877E-05-3.41769E-05-1.73313E-05-1.39967E-18-1.13524E-18
 -1      1762 9.36343E-05-1.63269E-05-3.31388E-05-1.33483E-05-1.18606E-18-1.70206E-18
 -1      1763 8.59739E-05-7.40446E-06-3.37443E-05-7.69346E-06-1.50156E-19-2.46299E-18
 -1      1764 8.64371E-05-7.72537E-06-3.37929E-05-9.02564E-06-3.11814E-19-2.50456E-18
 -1      1765 8.52814E-05-6.75054E-06-3.37145E-05-5.29385E-06 1.85843E-19-2.34058E-18
 -1      1766 8.55444E-05-6.93153E-06-3.37416E-05-6.53492E-06 3.73456E-20-2.41897E-18
 -1      1767 8.72656E-05-9.49433E-06-3.33599E-05-6.79955E-06-8.17097E-20-2.30920E-18
 -1      1768 8.49473E-05-6.43077E-06-3.37002E-05-2.99434E-06 5.50870E-19-2.09254E-18
 -1      1769 8.50620E-05-6.50940E-06-3.37129E-05-4.17851E-06 3.72177E-19-2.21322E-18
 -1      1770 8.65793E-05-8.79309E-06-3.33667E-05-4.57200E-06 3.13823E-19-2.16023E-18
 -1      1771 8.48783E-05-6.36032E-06-3.36963E-05-7.17930E-07 8.76313E-19-1.96950E-18
 -1      1772 8.48821E-05-6.36130E-06-3.36994E-05-1.88967E-06 7.19165E-19-2.05323E-18
 -1      1773 8.62805E-05-8.48996E-06-3.33696E-05-2.38849E-06 6.75764E-19-1.94082E-18
 -1      1774 8.50173E-05-6.48941E-06-3.36989E-05 1.59864E-06 1.14456E-18-1.81256E-18
 -1      1775 8.49321E-05-6.42617E-06-3.36950E-05 4.04687E-07 1.01968E-18-1.92625E-18
 -1      1776 8.62754E-05-8.49034E-06-3.33685E-05-1.90864E-07 1.00381E-18-1.88599E-18
 -1      1777 8.53437E-05-6.80140E-06-3.37063E-05 4.00467E-06 1.28291E-18-1.56223E-18
 -1      1778 8.51739E-05-6.67533E-06-3.36957E-05 2.75953E-06 1.22087E-18-1.73877E-18
 -1      1779 8.65079E-05-8.74274E-06-3.33613E-05 2.06634E-06 1.22348E-18-1.72575E-18
 -1      1780 8.58748E-05-7.30967E-06-3.37207E-05 6.49812E-06 1.48369E-18-1.18717E-18
 -1      1781 8.56057E-05-7.11190E-06-3.37006E-05 5.19623E-06 1.38397E-18-1.43961E-18
 -1      1782 8.69627E-05-9.23608E-06-3.33456E-05 4.39176E-06 1.39446E-18-1.43814E-18
 -1      1783 8.67345E-05-8.12392E-06-3.37517E-05 9.20743E-06 1.66036E-18-5.55879E-19
 -1      1784 8.62952E-05-7.80216E-06-3.37123E-05 7.76665E-06 1.54075E-18-8.90430E-19
 -1      1785 8.76915E-05-1.00275E-05-3.33192E-05 6.81890E-06 1.59208E-18-9.93993E-19
 -1      1786 8.81661E-05-9.46728E-06-3.38182E-05 1.21305E-05 1.82109E-18 2.28778E-19
 -1      1787 8.74189E-05-8.91246E-06-3.37405E-05 1.05196E-05 1.73651E-18-2.53183E-19
 -1      1788 8.88529E-05-1.12803E-05-3.32783E-05 9.35415E-06 1.74483E-18-3.34578E-19
 -1      1789 9.07437E-05-1.19161E-05-3.39408E-05 1.52334E-05 1.80251E-18 1.36867E-18
 -1      1790 8.93624E-05-1.08201E-05-3.37950E-05 1.33950E-05 1.80437E-18 6.90252E-19
 -1      1791 9.07627E-05-1.33321E-05-3.32077E-05 1.18547E-05 1.86467E-18 5.00716E-19
 -1      1792 9.60065E-05-1.71388E-05-3.40208E-05 1.75987E-05 1.49106E-18 3.22518E-18
 -1      1793 9.29506E-05-1.43833E-05-3.38474E-05 1.60924E-05 1.62335E-18 2.11824E-18
 -1      1794 9.39997E-05-1.69421E-05-3.30276E-05 1.37803E-05 1.74303E-18 1.66654E-18
 -1      1795 1.02057E-04-2.51498E-05-3.33971E-05 1.43531E-05 1.07774E-18 5.29300E-18
 -1      1796 9.81954E-05-1.96307E-05-3.36590E-05 1.68992E-05 1.28805E-18 3.96930E-18
 -1      1797 9.75382E-05-2.19438E-05-3.24469E-05 1.32157E-05 1.54758E-18 3.12952E-18
 -1      1798 9.89326E-05-2.62063E-05-3.13833E-05 9.37730E-06 1.11001E-18 4.90324E-18
 -1      1799 1.00392E-04-1.96507E-05-3.42823E-05-1.86106E-05-1.28521E-18-1.12232E-19
 -1      1800 9.55424E-05-2.73777E-05-2.92326E-05 4.09370E-06 9.64148E-19 4.19019E-18
 -1      1801 9.78814E-05-2.74565E-05-3.02336E-05 6.36692E-06 9.69826E-19 4.54055E-18
 -1      1802 9.77232E-05-2.56805E-05-3.08561E-05 8.68359E-06 1.21078E-18 3.50202E-18
 -1      1803 1.53842E-04-6.16632E-05-3.86859E-05 1.97763E-05 5.88476E-19 1.32269E-18
 -1      1804 1.66253E-04-6.99778E-05-4.12458E-05 5.31068E-06-6.69368E-19 1.26377E-18
 -1      1805 9.73818E-05-2.70377E-05-3.00309E-05-5.29806E-06-1.07616E-18-5.46149E-19
 -1      1806 9.57062E-05-2.71030E-05-2.93645E-05-3.41803E-06-8.99523E-19-7.43245E-19
 -1      1807 9.49732E-05-2.72951E-05-2.89057E-05-1.81039E-06-9.15894E-19-7.57208E-19
 -1      1808 9.44004E-05-2.73921E-05-2.86667E-05-8.21463E-07-7.73447E-19-9.50305E-19
 -1      1809 9.59782E-05-2.65053E-05-2.97975E-05-3.77243E-06-9.97170E-19-1.07335E-18
 -1      1810 9.39969E-05-2.74237E-05-2.84696E-05 2.27039E-07-5.62489E-19-9.42238E-19
 -1      1811 9.40075E-05-2.75134E-05-2.84501E-05 8.97346E-07-4.10394E-19-1.15414E-18
 -1      1812 9.49593E-05-2.70975E-05-2.91064E-05-7.40228E-07-7.44535E-19-1.04774E-18
 -1      1813 9.38961E-05-2.75006E-05-2.84205E-05 1.71501E-06-4.52428E-19-1.20051E-18
 -1      1814 9.43595E-05-2.76189E-05-2.85520E-05 2.32297E-06-4.06970E-19-1.24080E-18
 -1      1815 9.45177E-05-2.72623E-05-2.88420E-05 1.36777E-06-4.88401E-19-1.17943E-18
 -1      1816 9.44793E-05-2.75679E-05-2.86575E-05 3.18448E-06-4.03667E-19-1.20430E-18
 -1      1817 9.54180E-05-2.77176E-05-2.89489E-05 3.96246E-06-2.42837E-19-1.37353E-18
 -1      1818 9.45391E-05-2.71916E-05-2.88759E-05 3.24538E-06-5.15449E-19-1.18624E-18
 -1      1819 9.56755E-05-2.75957E-05-2.91689E-05 5.00439E-06-2.08271E-19-1.44012E-18
 -1      1820 9.70899E-05-2.77762E-05-2.96178E-05 6.06681E-06-2.12380E-19-1.38948E-18
 -1      1821 9.49006E-05-2.68854E-05-2.91528E-05 5.34952E-06-3.53805E-19-1.34179E-18
 -1      1822 9.74032E-05-2.75311E-05-2.99509E-05 7.54389E-06-1.23204E-19-1.42811E-18
 -1      1823 9.94868E-05-2.77660E-05-3.06196E-05 9.14297E-06 3.09564E-20-1.39723E-18
 -1      1824 9.54268E-05-2.62560E-05-2.96348E-05 8.07789E-06-5.89350E-20-1.46747E-18
 -1      1825 9.97293E-05-2.73364E-05-3.10538E-05 1.12899E-05 2.56558E-19-1.35473E-18
 -1      1826 1.02722E-04-2.77142E-05-3.19998E-05 1.36470E-05 6.02399E-19-1.02040E-18
 -1      1827 9.59272E-05-2.51825E-05-3.02889E-05 1.19421E-05 2.32491E-19-1.20263E-18
 -1      1828 1.02741E-04-2.71130E-05-3.24709E-05 1.66639E-05 6.33289E-19-8.86071E-19
 -1      1829 1.06941E-04-2.79122E-05-3.37005E-05 1.98220E-05 7.75512E-19-7.34629E-19
 -1      1830 9.61446E-05-2.36603E-05-3.10013E-05 1.73646E-05 6.89273E-19-9.60633E-19
 -1      1831 1.06740E-04-2.74919E-05-3.40150E-05 2.36741E-05 1.04047E-18-5.08845E-19
 -1      1832 1.12496E-04-2.95055E-05-3.53622E-05 2.69952E-05 1.02861E-18-6.14364E-20
 -1      1833 9.59337E-05-2.22719E-05-3.14498E-05 2.44742E-05 1.19076E-18-5.29871E-19
 -1      1834 1.12919E-04-3.06146E-05-3.51442E-05 3.08728E-05 9.27845E-19 4.69018E-19
 -1      1835 1.20633E-04-3.55186E-05-3.61498E-05 3.20914E-05 8.65615E-19 8.92038E-19
 -1      1836 9.59927E-05-2.33228E-05-3.09559E-05 3.24347E-05 1.49795E-18 2.26370E-19
 -1      1837 1.23993E-04-4.04592E-05-3.52298E-05 3.35127E-05 1.00670E-18 1.31335E-18
 -1      1838 1.33124E-04-4.92113E-05-3.55537E-05 2.94784E-05 1.16912E-18 1.42349E-18
 -1      1839 9.92308E-05-3.11904E-05-2.89041E-05 3.81572E-05 1.28050E-18 1.36108E-18
 -1      1840 1.08685E-04-4.15718E-05-2.85541E-05 5.29396E-05 3.32460E-19 2.14299E-19
 -1      1841 8.85744E-05-4.42748E-05-1.98459E-05 4.87640E-05-2.11335E-19 9.52277E-19
 -1      1842 1.00074E-04-2.26033E-05-3.29205E-05-1.41602E-05-1.34326E-18-4.83868E-19
 -1      1843 2.28898E-04-5.04942E-05-7.33196E-05-1.42649E-05-4.61464E-18-1.74976E-18
 -1      1844 2.27492E-04-4.58789E-05-7.46280E-05 2.00893E-06-3.41015E-18-2.18090E-18
 -1      1845 2.32769E-04-4.80861E-05-7.51371E-05 9.75413E-06-2.64020E-18-1.91429E-18
 -1      1846 2.27919E-04-5.62523E-05-7.08771E-05 1.96931E-05-2.11589E-18-2.90659E-18
 -1      1847 1.76353E-04-7.20970E-05-4.39165E-05 5.54322E-06 9.51642E-19-3.15753E-18
 -1      1848 1.65696E-04-6.72941E-05-4.13823E-05-1.18443E-05 2.30965E-18-3.03587E-18
 -1      1849 1.45613E-04-5.50286E-05-3.84226E-05-2.33560E-05 2.20906E-18-3.00866E-18
 -1      1850 1.35393E-04-4.55967E-05-3.78069E-05-3.02243E-05 1.70465E-18-2.87408E-18
 -1      1851 1.29600E-04-3.92718E-05-3.84161E-05-3.03274E-05 1.11628E-18-3.79514E-18
 -1      1852 1.20944E-04-3.38482E-05-3.71327E-05-2.97740E-05 2.09058E-19-3.40063E-18
 -1      1853 1.09074E-04-3.64865E-05-3.08004E-05-3.72964E-05 1.03952E-18-1.76829E-18
 -1      1854 1.19365E-04-3.23041E-05-3.71320E-05-2.61400E-05-2.71296E-19-3.75799E-18
 -1      1855 1.12704E-04-2.98255E-05-3.55480E-05-2.30265E-05-4.78051E-19-4.05588E-18
 -1      1856 1.02539E-04-2.63628E-05-3.24847E-05-3.25344E-05-2.41616E-19-3.05377E-18
 -1      1857 1.12156E-04-2.99558E-05-3.50802E-05-1.90391E-05-9.54500E-19-4.29923E-18
 -1      1858 1.07337E-04-2.88396E-05-3.36891E-05-1.59439E-05-1.31727E-18-4.69992E-18
 -1      1859 1.00700E-04-2.43087E-05-3.26533E-05-2.44894E-05-9.17770E-19-3.70271E-18
 -1      1860 1.06855E-04-2.92636E-05-3.31199E-05-1.27479E-05-1.41010E-18-5.37190E-18
 -1      1861 1.03543E-04-2.87112E-05-3.20911E-05-1.04228E-05-1.93405E-18-5.67193E-18
 -1      1862 9.98376E-05-2.51268E-05-3.19777E-05-1.69833E-05-2.31783E-18-3.93102E-18
 -1      1863 1.03026E-04-2.90372E-05-3.16000E-05-8.15757E-06-1.55252E-18-5.45940E-18
 -1      1864 1.00828E-04-2.87308E-05-3.09029E-05-6.59701E-06-1.31032E-18-4.90250E-18
 -1      1865 9.89894E-05-2.63396E-05-3.11164E-05-1.12217E-05-1.91975E-18-3.60797E-18
 -1      1866 1.00318E-04-2.89303E-05-3.05151E-05-5.02311E-06-1.82436E-19-4.87429E-18
 -1      1867 9.88600E-05-2.87371E-05-3.00484E-05-3.99915E-06 1.35116E-18-5.80825E-18
 -1      1868 9.81088E-05-2.72758E-05-3.03457E-05-7.12765E-06-5.53708E-19-3.94317E-18
 -1      1869 9.84800E-05-2.88295E-05-2.97950E-05-3.05716E-06 1.24279E-18-6.23156E-18
 -1      1870 9.76093E-05-2.87200E-05-2.95171E-05-2.45791E-06 8.48830E-19-5.54483E-18
 -1      1871 9.73276E-05-2.78754E-05-2.97645E-05-4.42639E-06 5.92725E-19-4.30908E-18
 -1      1872 9.73146E-05-2.87611E-05-2.93444E-05-1.86440E-06 7.69427E-19-5.95231E-18
 -1      1873 9.67706E-05-2.86912E-05-2.91711E-05-1.49971E-06 9.50083E-19-5.67379E-18
 -1      1874 9.67187E-05-2.82054E-05-2.93646E-05-2.75340E-06 6.76932E-19-6.22030E-18
 -1      1875 9.65580E-05-2.87062E-05-2.90567E-05-1.13166E-06 1.24944E-18-6.20859E-18
 -1      1876 9.62207E-05-2.86621E-05-2.89494E-05-9.11292E-07 5.19435E-19-5.99500E-18
 -1      1877 9.62627E-05-2.83881E-05-2.90917E-05-1.70036E-06 9.24459E-19-6.76562E-18
 -1      1878 9.60722E-05-2.86649E-05-2.88747E-05-6.84947E-07 1.33942E-18-6.05034E-18
 -1      1879 9.58641E-05-2.86371E-05-2.88085E-05-5.52414E-07 1.53623E-18-5.34708E-18
 -1      1880 9.59349E-05-2.84851E-05-2.89095E-05-1.04541E-06 1.09402E-18-6.84607E-18
 -1      1881 9.57623E-05-2.86349E-05-2.87602E-05-4.13931E-07 1.76868E-18-5.01002E-18
 -1      1882 9.56342E-05-2.86173E-05-2.87194E-05-3.34445E-07 2.84151E-19-3.70926E-18
 -1      1883 9.57059E-05-2.85346E-05-2.87897E-05-6.41110E-07 1.96624E-18-6.12093E-18
 -1      1884 9.55654E-05-2.86135E-05-2.86883E-05-2.49969E-07-1.78248E-18-3.15855E-18
 -1      1885 9.54867E-05-2.86025E-05-2.86632E-05-2.02355E-07-1.44156E-18-3.45611E-18
 -1      1886 9.55487E-05-2.85586E-05-2.87116E-05-3.92693E-07-2.01081E-19-3.63476E-18
 -1      1887 9.54406E-05-2.85986E-05-2.86433E-05-1.50889E-07-5.45737E-19-2.77880E-18
 -1      1888 9.53921E-05-2.85917E-05-2.86278E-05-1.22310E-07 3.45390E-19-2.45627E-18
 -1      1889 9.54421E-05-2.85693E-05-2.86609E-05-2.40440E-07-3.85755E-19-1.06777E-18
 -1      1890 9.53600E-05-2.85883E-05-2.86145E-05-8.96267E-08-2.24607E-19-3.08698E-18
 -1      1891 9.53294E-05-2.85838E-05-2.86047E-05-7.19208E-08-4.04237E-19-3.60394E-18
 -1      1892 9.53689E-05-2.85729E-05-2.86275E-05-1.45700E-07-9.27399E-19-2.14488E-18
 -1      1893 9.53094E-05-2.85810E-05-2.85967E-05-5.32598E-08 4.67591E-19-4.45487E-18
 -1      1894 9.52918E-05-2.85784E-05-2.85910E-05-4.31833E-08 9.00908E-21-4.26879E-18
 -1      1895 9.53203E-05-2.85740E-05-2.86061E-05-8.76924E-08-1.63789E-20-2.57070E-18
 -1      1896 9.52786E-05-2.85765E-05-2.85859E-05-3.16715E-08 6.37900E-19-3.70333E-18
 -1      1897 9.52678E-05-2.85748E-05-2.85824E-05-2.55726E-08 1.17862E-18-2.51137E-18
 -1      1898 9.52890E-05-2.85733E-05-2.85928E-05-5.32563E-08 5.30030E-19-2.46867E-18
 -1      1899 9.52592E-05-2.85734E-05-2.85792E-05-1.84474E-08 3.20674E-19-2.27820E-18
 -1      1900 9.52528E-05-2.85725E-05-2.85771E-05-1.47230E-08 4.28780E-19-1.99373E-18
 -1      1901 9.52683E-05-2.85724E-05-2.85842E-05-3.19269E-08 9.01456E-19-1.49613E-18
 -1      1902 9.52472E-05-2.85715E-05-2.85750E-05-1.02843E-08 2.56139E-19-2.25511E-18
 -1      1903 9.52435E-05-2.85710E-05-2.85738E-05-7.99551E-09 1.31431E-19-2.79924E-18
 -1      1904 9.52547E-05-2.85715E-05-2.85787E-05-1.86237E-08-1.46341E-19-1.69158E-18
 -1      1905 9.52400E-05-2.85704E-05-2.85725E-05-5.21393E-09-3.62784E-19-2.94427E-18
 -1      1906 9.52380E-05-2.85702E-05-2.85719E-05-3.80082E-09-9.35746E-19-2.49448E-18
 -1      1907 9.52461E-05-2.85708E-05-2.85752E-05-1.02710E-08-5.32321E-19-2.00423E-18
 -1      1908 9.52359E-05-2.85698E-05-2.85711E-05-2.05499E-09-8.18180E-19-3.19524E-18
 -1      1909 9.52350E-05-2.85697E-05-2.85708E-05-1.18049E-09-1.70219E-18-3.14685E-18
 -1      1910 9.52406E-05-2.85703E-05-2.85731E-05-5.00174E-09-1.55104E-18-1.82772E-18
 -1      1911 9.52337E-05-2.85695E-05-2.85703E-05-4.74426E-11-4.15628E-19-3.76655E-18
 -1      1912 9.52335E-05-2.85696E-05-2.85702E-05 5.02821E-10 6.98379E-19-3.85551E-18
 -1      1913 9.52374E-05-2.85701E-05-2.85718E-05-1.62603E-09-6.30368E-19-2.17550E-18
 -1      1914 9.52330E-05-2.85695E-05-2.85700E-05 1.15220E-09 1.50568E-18-3.67894E-18
 -1      1915 9.52332E-05-2.85697E-05-2.85700E-05 1.45296E-09 1.53801E-18-3.41750E-18
 -1      1916 9.52357E-05-2.85700E-05-2.85710E-05 4.78263E-10 7.40369E-19-2.65895E-18
 -1      1917 9.52330E-05-2.85697E-05-2.85700E-05 1.82889E-09 2.61647E-18-2.74392E-18
 -1      1918 9.52335E-05-2.85699E-05-2.85701E-05 1.98201E-09 2.61650E-18-1.24406E-18
 -1      1919 9.52350E-05-2.85701E-05-2.85707E-05 1.70366E-09 2.05240E-18-1.82759E-18
 -1      1920 9.52335E-05-2.85700E-05-2.85701E-05 2.16409E-09 1.66409E-18-1.44109E-18
 -1      1921 9.52341E-05-2.85702E-05-2.85702E-05 2.20804E-09 2.69087E-18-1.47869E-18
 -1      1922 9.52349E-05-2.85703E-05-2.85705E-05 2.38043E-09 2.82295E-18-1.47889E-18
 -1      1923 9.52343E-05-2.85703E-05-2.85703E-05 2.23932E-09 2.36058E-18-2.71257E-18
 -1      1924 9.52349E-05-2.85706E-05-2.85704E-05 2.18572E-09 2.16778E-18-2.07508E-18
 -1      1925 9.52352E-05-2.85706E-05-2.85706E-05 2.65572E-09 2.31965E-18-2.78785E-18
 -1      1926 9.52352E-05-2.85707E-05-2.85705E-05 2.08182E-09 1.49282E-18-3.01817E-18
 -1      1927 9.52358E-05-2.85710E-05-2.85707E-05 1.91912E-09 4.84027E-19-2.06814E-18
 -1      1928 9.52357E-05-2.85709E-05-2.85706E-05 2.60297E-09 1.37151E-18-3.21059E-18
 -1      1929 9.52361E-05-2.85711E-05-2.85707E-05 1.66820E-09-1.18815E-18-1.09117E-18
 -1      1930 9.52366E-05-2.85713E-05-2.85708E-05 1.38784E-09-2.39116E-18-5.76557E-19
 -1      1931 9.52363E-05-2.85713E-05-2.85707E-05 2.24220E-09 2.78967E-19-3.85513E-18
 -1      1932 9.52369E-05-2.85715E-05-2.85709E-05 9.61510E-10-1.76217E-18 2.80367E-19
 -1      1933 9.28054E-05-2.74408E-05-2.79845E-05 9.63933E-07 5.37542E-19 3.16943E-18
 -1      1934 9.33315E-05-2.73974E-05-2.81986E-05 1.48670E-06 6.69798E-19 3.30927E-18
 -1      1935 9.21150E-05-2.75038E-05-2.76770E-05 2.81927E-07 4.46886E-19 2.94951E-18
 -1      1936 9.23512E-05-2.74579E-05-2.77714E-05 4.80566E-07 4.62516E-19 3.04690E-18
 -1      1937 9.37349E-05-2.75723E-05-2.83701E-05 1.25707E-06 6.49936E-19 2.26967E-18
 -1      1938 9.17309E-05-2.75650E-05-2.74979E-05 1.09314E-07 4.98029E-19 2.59389E-18
 -1      1939 9.18459E-05-2.75185E-05-2.75499E-05 1.18186E-07 5.46654E-19 2.79439E-18
 -1      1940 9.30874E-05-2.77785E-05-2.80005E-05 4.81965E-07 6.63516E-19 1.99591E-18
 -1      1941 9.14233E-05-2.76061E-05-2.73569E-05 2.98842E-07 3.61834E-19 2.35217E-18
 -1      1942 9.15499E-05-2.75819E-05-2.74085E-05 1.71985E-07 3.71369E-19 2.50359E-18
 -1      1943 9.26997E-05-2.79337E-05-2.77622E-05 3.33284E-07 5.40802E-19 1.79596E-18
 -1      1944 9.10098E-05-2.75866E-05-2.71939E-05 7.63301E-07 8.12358E-20 2.22501E-18
 -1      1945 9.12457E-05-2.76098E-05-2.72734E-05 5.31253E-07 1.86016E-19 2.28323E-18
 -1      1946 9.23885E-05-2.80444E-05-2.75758E-05 6.35237E-07 3.43274E-19 1.62796E-18
 -1      1947 9.03502E-05-2.74619E-05-2.69683E-05 1.43215E-06 2.04874E-19 1.97135E-18
 -1      1948 9.07668E-05-2.75569E-05-2.70950E-05 1.12341E-06 1.57561E-19 2.10887E-18
 -1      1949 9.20053E-05-2.80841E-05-2.73897E-05 1.27763E-06 2.09943E-19 1.34867E-18
 -1      1950 8.93473E-05-2.71879E-05-2.66564E-05 2.21916E-06 1.53507E-19 1.82257E-18
 -1      1951 8.99883E-05-2.73762E-05-2.68411E-05 1.87262E-06 3.01092E-19 1.92471E-18
 -1      1952 9.14277E-05-2.80074E-05-2.71712E-05 2.16162E-06 2.67739E-19 1.28475E-18
 -1      1953 8.79581E-05-2.67312E-05-2.62536E-05 3.00173E-06 2.77072E-19 1.45583E-18
 -1      1954 8.88311E-05-2.70251E-05-2.64962E-05 2.67383E-06 2.46376E-19 1.66949E-18
 -1      1955 9.05627E-05-2.77612E-05-2.69037E-05 3.16192E-06 2.99461E-19 1.26149E-18
 -1      1956 8.62148E-05-2.60838E-05-2.57768E-05 3.61609E-06 5.17095E-20 1.56777E-18
 -1      1957 8.72801E-05-2.64783E-05-2.60645E-05 3.38030E-06 1.56000E-19 1.71935E-18
 -1      1958 8.93623E-05-2.72999E-05-2.65870E-05 4.10486E-06 1.26727E-19 1.00401E-18
 -1      1959 8.42437E-05-2.52819E-05-2.52656E-05 3.87608E-06-3.44066E-19 1.63753E-18
 -1      1960 8.54071E-05-2.57461E-05-2.55720E-05 3.81150E-06-1.56925E-19 1.49015E-18
 -1      1961 8.78465E-05-2.66090E-05-2.62368E-05 4.76910E-06-1.00808E-19 1.08439E-18
 -1      1962 8.22700E-05-2.44195E-05-2.47785E-05 3.61946E-06-1.99078E-19 1.95547E-18
 -1      1963 8.33868E-05-2.48926E-05-2.50661E-05 3.78807E-06-5.45167E-19 1.78344E-18
 -1      1964 8.61281E-05-2.57326E-05-2.58830E-05 4.91887E-06-5.63987E-19 1.25815E-18
 -1      1965 8.05917E-05-2.36428E-05-2.43832E-05 2.77185E-06 4.30303E-19 2.32917E-18
 -1      1966 8.14891E-05-2.40418E-05-2.46095E-05 3.19090E-06 4.67981E-19 2.38652E-18
 -1      1967 8.44203E-05-2.47904E-05-2.55650E-05 4.37091E-06-1.83523E-19 1.19427E-18
 -1      1968 7.95166E-05-2.31181E-05-2.41428E-05 1.40074E-06-1.62558E-20 1.61843E-18
 -1      1969 8.00326E-05-2.33582E-05-2.42696E-05 2.02365E-06 1.89993E-19 2.08080E-18
 -1      1970 8.30093E-05-2.39655E-05-2.53243E-05 3.07663E-06 4.91110E-19 1.29314E-18
 -1      1971 7.92753E-05-2.29765E-05-2.41009E-05-2.75774E-07-3.13402E-20 1.49937E-18
 -1      1972 7.93031E-05-2.29994E-05-2.41036E-05 4.44290E-07-1.05184E-20 1.54315E-18
 -1      1973 8.21837E-05-2.34556E-05-2.51964E-05 1.17910E-06 1.10978E-19 1.07932E-18
 -1      1974 7.99448E-05-2.32625E-05-2.42702E-05-1.94438E-06 3.46529E-19 1.39642E-18
 -1      1975 7.94654E-05-2.30587E-05-2.41446E-05-1.26357E-06 1.37795E-19 1.20106E-18
 -1      1976 8.21401E-05-2.33991E-05-2.52034E-05-9.98333E-07 3.61485E-19 6.34171E-19
 -1      1977 8.14206E-05-2.39152E-05-2.46300E-05-3.29773E-06-1.40601E-19 1.31700E-18
 -1      1978 8.05079E-05-2.35268E-05-2.43932E-05-2.77750E-06 8.54709E-20 1.44812E-18
 -1      1979 8.29101E-05-2.38171E-05-2.53492E-05-3.04452E-06 1.82787E-19 1.10887E-19
 -1      1980 8.34541E-05-2.47939E-05-2.51319E-05-4.13229E-06-3.40204E-19 1.37027E-18
 -1      1981 8.22503E-05-2.42980E-05-2.48171E-05-3.84199E-06-3.05890E-19 1.37848E-18
 -1      1982 8.43488E-05-2.46044E-05-2.56191E-05-4.59615E-06-2.48055E-19 1.14670E-19
 -1      1983 8.57350E-05-2.57336E-05-2.57122E-05-4.39598E-06 1.23149E-19 1.12299E-18
 -1      1984 8.44086E-05-2.52142E-05-2.53603E-05-4.34061E-06 6.82589E-20 1.41164E-18
 -1      1985 8.61921E-05-2.55762E-05-2.59824E-05-5.44871E-06-1.22327E-19 6.80426E-19
 -1      1986 8.79773E-05-2.65975E-05-2.63067E-05-4.17186E-06 8.12194E-19 5.61280E-19
 -1      1987 8.66816E-05-2.61219E-05-2.59567E-05-4.30516E-06 4.32479E-19 1.15150E-18
 -1      1988 8.81494E-05-2.65413E-05-2.63995E-05-5.59195E-06 7.17339E-19 4.30308E-19
 -1      1989 8.99758E-05-2.73047E-05-2.68623E-05-3.62008E-06-2.13975E-19 1.26846E-18
 -1      1990 8.88217E-05-2.69122E-05-2.65441E-05-3.87107E-06 2.69148E-19 9.25733E-19
 -1      1991 8.99826E-05-2.73609E-05-2.68291E-05-5.16855E-06 3.89097E-19 5.88296E-19
 -1      1992 9.16223E-05-2.78303E-05-2.73436E-05-2.91373E-06-4.41003E-19 1.10853E-18
 -1      1993 9.06697E-05-2.75333E-05-2.70755E-05-3.21210E-06-1.62265E-19 1.22596E-18
 -1      1994 9.15451E-05-2.79708E-05-2.72355E-05-4.39340E-06-5.06804E-19 3.11723E-19
 -1      1995 9.28912E-05-2.81885E-05-2.77341E-05-2.19416E-06-2.34954E-19 1.07328E-18
 -1      1996 9.21555E-05-2.79803E-05-2.75226E-05-2.48601E-06-6.13212E-19 1.41446E-18
 -1      1997 9.27800E-05-2.83710E-05-2.75935E-05-3.47769E-06-3.11655E-19 1.34634E-18
 -1      1998 9.38126E-05-2.84128E-05-2.80325E-05-1.55265E-06 6.39796E-19 1.57521E-18
 -1      1999 9.32780E-05-2.82773E-05-2.78755E-05-1.80548E-06 5.67544E-19 1.37665E-18
 -1      2000 9.36959E-05-2.85993E-05-2.78897E-05-2.58270E-06 1.73716E-20 1.14087E-18
 -1      2001 9.44449E-05-2.85407E-05-2.82481E-05-1.03253E-06 8.31696E-19 1.09572E-18
 -1      2002 9.40787E-05-2.84592E-05-2.81383E-05-1.23280E-06 7.92537E-19 1.48450E-18
 -1      2003 9.43380E-05-2.87060E-05-2.81210E-05-1.80564E-06 8.86997E-19 1.06208E-18
 -1      2004 9.48542E-05-2.86050E-05-2.83953E-05-6.41619E-07 3.83951E-19 5.99070E-19
 -1      2005 9.46185E-05-2.85605E-05-2.83230E-05-7.89026E-07 6.73652E-19 1.46181E-18
 -1      2006 9.47644E-05-2.87374E-05-2.82921E-05-1.18730E-06 6.64392E-19 8.01602E-19
 -1      2007 9.51021E-05-2.86305E-05-2.84900E-05-3.66698E-07 7.09066E-19 6.27354E-19
 -1      2008 9.49609E-05-2.86098E-05-2.84454E-05-4.68257E-07 6.64813E-20 6.00114E-19
 -1      2009 9.50317E-05-2.87284E-05-2.84120E-05-7.29124E-07 2.49142E-19 4.01657E-19
 -1      2010 9.52397E-05-2.86346E-05-2.85466E-05-1.85285E-07 5.54414E-19 1.00067E-18
 -1      2011 9.51629E-05-2.86279E-05-2.85214E-05-2.50825E-07 1.25582E-18 1.25346E-18
 -1      2012 9.51880E-05-2.87021E-05-2.84914E-05-4.10578E-07 6.24019E-19 6.77095E-19
 -1      2013 9.53061E-05-2.86282E-05-2.85773E-05-7.34565E-08-4.41147E-19 1.94641E-19
 -1      2014 9.52705E-05-2.86290E-05-2.85649E-05-1.12782E-07 2.60088E-19 5.82191E-19
 -1      2015 9.52708E-05-2.86718E-05-2.85408E-05-2.02519E-07 1.04328E-18 1.77243E-18
 -1      2016 9.53295E-05-2.86177E-05-2.85914E-05-1.00413E-08-9.43347E-20-1.21933E-19
 -1      2017 9.53184E-05-2.86219E-05-2.85868E-05-3.15118E-08-5.77443E-19-1.54740E-19
 -1      2018 9.53074E-05-2.86441E-05-2.85690E-05-7.56024E-08-1.64316E-19 1.19493E-18
 -1      2019 9.53290E-05-2.86067E-05-2.85957E-05 2.17504E-08-1.38057E-19 8.02304E-19
 -1      2020 9.53312E-05-2.86120E-05-2.85954E-05 1.16811E-08 5.92779E-20 2.42982E-19
 -1      2021 9.53169E-05-2.86215E-05-2.85832E-05-4.56874E-09-4.70526E-19 1.54521E-18
 -1      2022 9.53170E-05-2.85969E-05-2.85945E-05 3.42175E-08 3.82018E-19 7.75977E-19
 -1      2023 9.53253E-05-2.86020E-05-2.85964E-05 3.09280E-08 4.92537E-19 1.04700E-18
 -1      2024 9.53119E-05-2.86043E-05-2.85887E-05 3.02784E-08 4.15434E-19 1.21433E-18
 -1      2025 9.53007E-05-2.85888E-05-2.85909E-05 3.57983E-08 5.41965E-19 8.13408E-19
 -1      2026 9.53109E-05-2.85932E-05-2.85936E-05 3.61855E-08 4.78051E-19 1.13053E-18
 -1      2027 9.53003E-05-2.85919E-05-2.85892E-05 4.32049E-08 2.33375E-19 6.61590E-19
 -1      2028 9.52844E-05-2.85825E-05-2.85866E-05 3.19397E-08-1.14759E-18 1.12731E-18
 -1      2029 9.52943E-05-2.85860E-05-2.85893E-05 3.40457E-08-3.45532E-20 8.69800E-19
 -1      2030 9.52868E-05-2.85834E-05-2.85872E-05 4.39166E-08 2.98237E-19 1.53749E-18
 -1      2031 9.52702E-05-2.85779E-05-2.85824E-05 2.59390E-08-1.50905E-18 1.08473E-18
 -1      2032 9.52785E-05-2.85805E-05-2.85848E-05 2.86105E-08-1.16481E-18 8.78561E-19
 -1      2033 9.52739E-05-2.85777E-05-2.85841E-05 3.86356E-08-1.04600E-18 1.27719E-18
 -1      2034 9.52586E-05-2.85747E-05-2.85788E-05 1.96412E-08-2.92563E-20-1.69998E-20
 -1      2035 9.52652E-05-2.85766E-05-2.85807E-05 2.22571E-08-1.09128E-18 1.76730E-19
 -1      2036 9.52628E-05-2.85740E-05-2.85810E-05 3.11022E-08-8.41172E-19-3.59592E-19
 -1      2037 9.52499E-05-2.85726E-05-2.85760E-05 1.39655E-08 7.06567E-19-9.53735E-19
 -1      2038 9.52548E-05-2.85738E-05-2.85774E-05 1.62363E-08 4.70694E-19-1.20768E-18
 -1      2039 9.52540E-05-2.85718E-05-2.85781E-05 2.33916E-08 5.84166E-19-2.33467E-18
 -1      2040 9.52437E-05-2.85712E-05-2.85739E-05 9.27621E-09-2.24855E-19-4.91392E-19
 -1      2041 9.52471E-05-2.85720E-05-2.85749E-05 1.11057E-08-5.77554E-21-6.30281E-19
 -1      2042 9.52473E-05-2.85706E-05-2.85758E-05 1.65226E-08 1.13921E-19-2.63337E-18
 -1      2043 9.52396E-05-2.85705E-05-2.85725E-05 5.63042E-09 3.61148E-19-6.97999E-19
 -1      2044 9.52418E-05-2.85709E-05-2.85731E-05 7.02519E-09 3.70348E-19-1.16413E-19
 -1      2045 9.52425E-05-2.85699E-05-2.85740E-05 1.08848E-08 1.84277E-20-2.46892E-18
 -1      2046 9.52371E-05-2.85701E-05-2.85715E-05 2.93388E-09-1.15763E-18-1.00259E-18
 -1      2047 9.52383E-05-2.85703E-05-2.85719E-05 3.94769E-09-2.52657E-19-8.26403E-19
 -1      2048 9.52393E-05-2.85697E-05-2.85727E-05 6.52149E-09 6.61112E-20-1.58467E-18
 -1      2049 9.52358E-05-2.85701E-05-2.85710E-05 1.03530E-09 1.77601E-18-1.41313E-18
 -1      2050 9.52364E-05-2.85701E-05-2.85712E-05 1.73604E-09-4.82332E-20-1.00746E-18
 -1      2051 9.52374E-05-2.85697E-05-2.85719E-05 3.30850E-09-5.39929E-19-1.40864E-18
 -1      2052 9.52354E-05-2.85702E-05-2.85708E-05-2.20363E-10 1.30573E-18-1.63551E-18
 -1      2053 9.52355E-05-2.85701E-05-2.85708E-05 2.31154E-10 1.90390E-18-8.45139E-19
 -1      2054 9.52364E-05-2.85699E-05-2.85714E-05 1.06128E-09 8.17620E-19-1.08773E-18
 -1      2055 9.52355E-05-2.85704E-05-2.85707E-05-9.63929E-10 1.07555E-18-1.43052E-18
 -1      2056 9.52353E-05-2.85703E-05-2.85707E-05-7.11186E-10 8.76788E-19-1.41895E-18
 -1      2057 9.52360E-05-2.85702E-05-2.85711E-05-4.04522E-10 1.08164E-18-9.79056E-20
 -1      2058 9.52359E-05-2.85707E-05-2.85708E-05-1.28907E-09 6.73416E-19-1.10086E-18
 -1      2059 9.52355E-05-2.85705E-05-2.85707E-05-1.20321E-09 9.77642E-19-1.00042E-18
 -1      2060 9.52360E-05-2.85705E-05-2.85709E-05-1.24315E-09 1.04897E-18 2.76639E-19
 -1      2061 9.52364E-05-2.85710E-05-2.85709E-05-1.24281E-09-1.74415E-18 5.32375E-19
 -1      2062 9.52360E-05-2.85709E-05-2.85708E-05-1.31636E-09-6.60127E-19 2.68397E-20
 -1      2063 9.52363E-05-2.85709E-05-2.85709E-05-1.57008E-09-3.59551E-19 1.37201E-18
 -1      2064 9.52369E-05-2.85713E-05-2.85709E-05-8.88740E-10 1.12332E-19-4.22934E-19
 -1      2065 9.52365E-05-2.85711E-05-2.85709E-05-1.09921E-09-5.46419E-19-3.68343E-19
 -1      2066 9.52366E-05-2.85712E-05-2.85709E-05-1.46460E-09-8.28981E-19 1.65510E-18
 -1      2067 9.52370E-05-2.85715E-05-2.85709E-05-1.05153E-09-3.85519E-19 2.28974E-18
 -1      2068 9.52378E-05-2.85729E-05-2.85706E-05-1.33293E-09-4.17303E-19 2.13394E-19
 -1      2069 9.52376E-05-2.85726E-05-2.85707E-05-1.37295E-09-1.64371E-18-3.45447E-20
 -1      2070 9.52375E-05-2.85725E-05-2.85708E-05-1.38988E-09-9.24646E-19 4.97629E-19
 -1      2071 9.52374E-05-2.85721E-05-2.85708E-05-1.37007E-09-6.76836E-19 1.26261E-18
 -1      2072 9.52375E-05-2.85721E-05-2.85709E-05-1.66115E-09-2.05027E-18-5.53956E-20
 -1      2073 9.52372E-05-2.85718E-05-2.85709E-05-1.19748E-09 2.67102E-19 1.26458E-18
 -1      2074 9.52379E-05-2.85734E-05-2.85705E-05-1.18609E-09-1.31909E-18-2.64235E-18
 -1      2075 9.52378E-05-2.85731E-05-2.85706E-05-1.26050E-09-8.60081E-19-1.06588E-19
 -1      2076 9.52376E-05-2.85724E-05-2.85708E-05-1.55707E-09-2.41544E-18-6.66799E-19
 -1      2077 9.52381E-05-2.85738E-05-2.85704E-05-9.89102E-10 5.74739E-20-4.45989E-19
 -1      2078 9.52380E-05-2.85735E-05-2.85705E-05-1.08520E-09-3.76831E-19-7.81119E-19
 -1      2079 9.52378E-05-2.85727E-05-2.85707E-05-1.37026E-09-1.12834E-18-1.24133E-18
 -1      2080 9.52382E-05-2.85741E-05-2.85703E-05-7.48061E-10-5.97604E-20-2.65921E-18
 -1      2081 9.52381E-05-2.85739E-05-2.85704E-05-8.65308E-10 2.56454E-19-1.45929E-18
 -1      2082 9.52379E-05-2.85730E-05-2.85707E-05-1.12926E-09-7.76483E-19-7.14535E-19
 -1      2083 9.52383E-05-2.85744E-05-2.85702E-05-4.46453E-10-9.76533E-19-2.41760E-18
 -1      2084 9.52382E-05-2.85742E-05-2.85703E-05-5.92965E-10-8.77038E-19-2.77111E-18
 -1      2085 9.52380E-05-2.85732E-05-2.85706E-05-8.28728E-10-8.39088E-19-3.19728E-18
 -1      2086 9.52384E-05-2.85745E-05-2.85702E-05-6.60441E-11-8.96479E-19-1.48002E-18
 -1      2087 9.52383E-05-2.85745E-05-2.85702E-05-2.48476E-10-9.56007E-19-6.69324E-19
 -1      2088 9.52381E-05-2.85734E-05-2.85706E-05-4.45263E-10-2.55559E-18-1.44142E-18
 -1      2089 9.52384E-05-2.85745E-05-2.85702E-05 3.94494E-10-9.42761E-19-3.98634E-19
 -1      2090 9.52384E-05-2.85746E-05-2.85702E-05 1.79026E-10-1.47401E-18-7.90033E-19
 -1      2091 9.52382E-05-2.85736E-05-2.85706E-05 3.99730E-11-2.57919E-18-1.86597E-18
 -1      2092 9.52384E-05-2.85743E-05-2.85703E-05 8.95509E-10-2.58264E-18-5.39803E-19
 -1      2093 9.52384E-05-2.85745E-05-2.85703E-05 6.69949E-10-2.00739E-18-9.25070E-20
 -1      2094 9.52383E-05-2.85736E-05-2.85706E-05 6.13825E-10-2.47785E-18-7.53703E-19
 -1      2095 9.52382E-05-2.85739E-05-2.85704E-05 1.38375E-09-1.54926E-18 1.80826E-20
 -1      2096 9.52383E-05-2.85742E-05-2.85703E-05 1.17681E-09-2.51697E-18 1.25850E-18
 -1      2097 9.52383E-05-2.85735E-05-2.85706E-05 1.23069E-09-2.84333E-18-4.30688E-19
 -1      2098 9.52379E-05-2.85733E-05-2.85706E-05 1.73887E-09-2.36843E-19 2.48200E-20
 -1      2099 9.52381E-05-2.85737E-05-2.85705E-05 1.61022E-09-9.67572E-19-2.35399E-18
 -1      2100 9.52381E-05-2.85733E-05-2.85707E-05 1.79673E-09-9.23117E-19-1.96961E-19
 -1      2101 9.52375E-05-2.85725E-05-2.85707E-05 1.82927E-09 8.42967E-20 1.16877E-18
 -1      2102 9.52377E-05-2.85730E-05-2.85706E-05 1.83443E-09-2.65526E-19 8.49289E-19
 -1      2103 9.52378E-05-2.85728E-05-2.85707E-05 2.15969E-09 5.13171E-19 3.13103E-19
 -1      2104 9.37844E-05-2.74244E-05-2.83987E-05 2.08457E-06 8.96730E-19 3.58720E-18
 -1      2105 9.48992E-05-2.74231E-05-2.88597E-05 3.15262E-06 8.92561E-19 3.95337E-18
 -1      2106 9.56272E-05-2.69297E-05-2.94420E-05 4.55893E-06 1.05081E-18 3.00366E-18
 -1      2107 9.45408E-05-2.72879E-05-2.88342E-05 2.62260E-06 9.62243E-19 2.51774E-18
 -1      2108 6.66278E-05-3.83459E-05-1.22817E-05 5.21924E-05 2.44369E-19 1.26229E-18
 -1      2109 5.02423E-05-4.09902E-05-4.93260E-06 4.54608E-05-5.46336E-20 4.39398E-19
 -1      2110 1.47301E-04-4.39367E-05-4.41597E-05 4.05894E-05 7.99599E-19-3.61260E-19
 -1      2111 1.25068E-04-4.31448E-05-3.55397E-05 4.43005E-05 6.04358E-19 2.95614E-19
 -1      2112 1.30126E-04-5.50832E-05-3.17524E-05 4.15439E-05-1.14180E-18-8.65879E-19
 -1      2113 1.11602E-05-3.55645E-05 9.23540E-06 2.01779E-05-8.85149E-20-1.66018E-19
 -1      2114 8.42053E-06-3.59226E-05 1.04606E-05 1.05978E-05-5.15631E-20 7.89435E-19
 -1      2115 8.71725E-05-8.53462E-06-3.37941E-05-1.02372E-05-4.14219E-19-2.49924E-18
 -1      2116 8.79690E-05-9.10935E-06-3.38806E-05-1.17778E-05-6.17030E-19-2.42596E-18
 -1      2117 9.04776E-05-1.28473E-05-3.32954E-05-1.14330E-05-7.95642E-19-2.20911E-18
 -1      2118 8.84835E-05-1.07495E-05-3.33441E-05-9.11025E-06-3.98916E-19-2.35250E-18
 -1      2119 1.80153E-04-3.44491E-05-6.12458E-05 2.82637E-05 2.36608E-18-4.98479E-19
 -1      2120 1.59943E-04-3.60029E-05-5.32225E-05 2.80921E-05 1.88947E-18-1.19855E-19
 -1      2121 1.96565E-04-2.89891E-05-7.07639E-05 1.51050E-05 3.17044E-18-1.88211E-18
 -1      2122 1.84159E-04-2.88993E-05-6.61315E-05 2.27910E-05 2.70394E-18-9.69429E-19
 -1      2123 1.70085E-04-2.92348E-05-5.95157E-05 6.44792E-06 2.44200E-18-9.50794E-19
 -1      2124 1.91693E-04-1.99590E-05-7.31756E-05-3.74806E-07 3.62996E-18-1.61114E-18
 -1      2125 1.98434E-04-2.45907E-05-7.31190E-05 9.56269E-06 3.78708E-18-1.76966E-18
 -1      2126 1.73510E-04-1.61630E-05-6.63612E-05 1.65594E-06 3.71170E-18-1.47426E-18
 -1      2127 1.95558E-04-2.63182E-05-7.12997E-05-1.39562E-05 3.08744E-18-3.31402E-18
 -1      2128 1.94800E-04-2.22336E-05-7.31051E-05-3.34246E-06 2.98791E-18-2.42908E-18
 -1      2129 1.74126E-04-3.12350E-05-6.10627E-05-2.26962E-05 3.29866E-18-3.23397E-18
 -1      2130 1.91150E-04-3.09426E-05-6.73642E-05-1.94085E-05 3.24075E-18-3.22338E-18
 -1      2131 1.47962E-04-4.11219E-05-4.59110E-05-3.59716E-05 2.67684E-18-3.45039E-18
 -1      2132 1.66455E-04-3.94552E-05-5.38182E-05-3.20004E-05 2.84487E-18-3.14630E-18
 -1      2133 1.08557E-04-4.21901E-05-2.91312E-05-4.72584E-05 2.71855E-18-4.53120E-18
 -1      2134 1.31453E-04-4.21336E-05-3.80427E-05-4.83653E-05 2.80368E-18-4.02764E-18
 -1      2135 6.95571E-05-4.23513E-05-1.29017E-05-4.63788E-05 1.65129E-18-4.83868E-18
 -1      2136 8.84757E-05-3.87291E-05-2.13863E-05-5.28986E-05 2.62834E-18-5.46400E-18
 -1      2137 3.69922E-05-4.15804E-05 5.60269E-07-3.86442E-05-2.28699E-20-4.87340E-18
 -1      2138 5.05311E-05-3.78810E-05-6.01599E-06-4.61131E-05 1.54075E-18-5.27066E-18
 -1      2139 1.48855E-05-3.99807E-05 9.20058E-06-2.26461E-05-1.54647E-18-4.63539E-18
 -1      2140 2.12566E-05-3.58218E-05 5.31312E-06-3.17594E-05-8.72444E-20-5.29819E-18
 -1      2141 8.99602E-06-3.21926E-05 9.03065E-06-2.91478E-06-1.53874E-18-4.17206E-18
 -1      2142 9.77129E-06-3.74885E-05 1.03140E-05-1.32481E-05-1.40375E-18-4.30970E-18
 -1      2143 1.24123E-05-2.44128E-05 4.43991E-06-2.05472E-05-6.39298E-19-5.06526E-18
 -1      2144 2.86908E-05-4.25536E-05 4.16942E-06 1.78635E-05-3.48088E-18-3.31740E-18
 -1      2145 1.82349E-05-3.70566E-05 6.86023E-06 1.21366E-05-2.21478E-18-3.41185E-18
 -1      2146 6.46151E-05-4.85904E-05-8.31874E-06 3.06956E-05-3.79725E-18-2.35655E-18
 -1      2147 4.53947E-05-4.79340E-05-1.17223E-06 2.28684E-05-3.52112E-18-2.65608E-18
 -1      2148 1.20845E-04-6.15952E-05-2.63608E-05 3.04967E-05-3.48131E-18-1.88168E-18
 -1      2149 8.89338E-05-5.67176E-05-1.61603E-05 2.70793E-05-3.77607E-18-2.10530E-18
 -1      2150 1.80527E-04-7.10655E-05-4.68741E-05 7.95631E-06-2.56778E-18-2.40896E-18
 -1      2151 1.48747E-04-6.75180E-05-3.66610E-05 1.40261E-05-3.03873E-18-1.87364E-18
 -1      2152 2.22787E-04-5.35251E-05-6.98082E-05-1.35561E-05-4.39017E-18-2.65460E-18
 -1      2153 2.11350E-04-5.95347E-05-6.46776E-05 2.52165E-05-1.68687E-18-2.23956E-18
 -1      2154 1.30797E-04-6.63621E-05-2.97689E-05-1.93113E-05 2.10064E-19 8.98702E-19
 -1      2155 1.64080E-04-7.14483E-05-4.06954E-05-1.57028E-05-3.47707E-19 1.34001E-18
 -1      2156 7.85452E-05-5.45593E-05-1.25255E-05-2.77118E-05 1.72456E-18 2.24760E-18
 -1      2157 1.07223E-04-5.85193E-05-2.21055E-05-3.19476E-05 3.93023E-19 1.88888E-18
 -1      2158 1.30262E-04-6.51538E-05-2.77280E-05-2.70563E-05 1.77369E-18 3.69836E-19
 -1      2159 3.74185E-05-4.39938E-05 1.10288E-06-2.08946E-05 9.33430E-19 2.06718E-18
 -1      2160 5.56161E-05-4.49395E-05-5.67311E-06-2.93894E-05 1.08590E-18 2.46021E-18
 -1      2161 8.17193E-05-4.88951E-05-1.44476E-05-3.59869E-05 1.53736E-18 2.20927E-18
 -1      2162 1.33048E-05-3.52155E-05 8.18065E-06-4.89834E-06-6.35275E-22 1.01517E-18
 -1      2163 2.19764E-05-3.83366E-05 5.70914E-06-1.35395E-05 2.41404E-19 1.30909E-18
 -1      2164 3.85516E-05-3.21026E-05-3.36417E-06-2.76086E-05 6.39510E-20 1.70847E-18
 -1      2165 3.01092E-05-3.39777E-05 1.08418E-06 3.99869E-05 3.19755E-19-5.99276E-20
 -1      2166 2.06015E-05-3.77691E-05 6.04293E-06 3.04762E-05 1.32137E-19-3.89635E-20
 -1      2167 2.20119E-04-6.63189E-05-6.36605E-05-1.88721E-05-3.17764E-18-1.55007E-18
 -1      2168 1.94490E-04-6.64988E-05-5.51148E-05-1.45405E-05-3.01120E-18-1.85670E-18
 -1      2169 1.57853E-04-7.05694E-05-3.78252E-05 1.28842E-05-1.37092E-18 1.97359E-19
 -1      2170 1.83125E-04-7.44736E-05-4.55992E-05-7.59123E-06-7.24107E-19 3.49401E-19
 -1      2171 9.21359E-05-4.92087E-05-1.83410E-05 5.34479E-05-1.43911E-18-5.70318E-19
 -1      2172 9.75306E-05-2.43795E-05-3.14184E-05-9.66215E-06-1.24869E-18-7.60318E-19
 -1      2173 9.66608E-05-2.31156E-05-3.15886E-05-9.91648E-06-1.26322E-18-1.20310E-18
 -1      2174 1.57248E-04-4.72467E-05-4.67580E-05 2.17796E-05 4.78679E-19-8.26281E-19
 -1      2175 1.28681E-05-2.36431E-05 3.97303E-06-9.64583E-07-6.24052E-19 1.48104E-18
 -1      2176 2.07480E-04-7.04589E-05-5.84102E-05 1.84721E-05-1.73748E-19-2.82570E-18
 -1      2177 1.32403E-04-5.86455E-05-3.16260E-05-2.74023E-05 2.11208E-18-1.04455E-18
 -1      2178 9.52369E-05-2.85717E-05-2.85708E-05 1.50529E-09-1.14720E-18 1.34040E-19
 -1      2179 9.52371E-05-2.85717E-05-2.85709E-05-1.52655E-09-1.77962E-19 1.19611E-18
 -1      2180 1.12210E-04-5.16554E-05-2.57411E-05-4.85012E-05 4.62056E-19-3.51307E-18
 -1      2181 9.52371E-05-2.85720E-05-2.85707E-05 1.69959E-09-8.19214E-19 4.74406E-20
 -1      2182 4.81429E-05-3.56540E-05-5.55056E-06 4.96729E-05-1.15366E-18 1.54372E-19
 -1      2183 1.73065E-05-2.53626E-05 2.91067E-06 3.00012E-05-1.20935E-18 5.59042E-20
 -1      2184 1.47043E-04-5.13237E-05-4.04996E-05-3.19364E-05 9.91240E-19-1.80503E-18
 -1      2185 1.48565E-04-7.12000E-05-3.37219E-05 1.68541E-05-1.99349E-18-2.39710E-19
 -1      2186 9.30486E-05-5.59296E-05-1.67121E-05 3.50925E-05-1.52297E-18-7.35436E-19
 -1      2187 1.54888E-05-2.83693E-05 4.79003E-06 7.27196E-06-1.12020E-18-3.83706E-18
 -1      2188 1.41993E-05-1.64984E-05 1.14554E-06 3.59051E-06 7.50683E-20-4.08185E-18
 -1      2189 2.36789E-05-2.14021E-05-1.00376E-06 1.83211E-05 6.88214E-20-3.39999E-18
 -1      2190 3.42209E-05-3.37993E-05-8.11299E-07-4.23316E-05-6.98802E-19-5.65225E-18
 -1      2191 7.16258E-05-4.47617E-05-1.18705E-05-5.24018E-05-7.03037E-20-4.61186E-18
 -1      2192 1.67054E-04-3.81593E-05-5.45864E-05-1.19195E-05 1.86623E-18-8.29669E-19
 -1      2193 1.63123E-04-9.42026E-06-6.60162E-05 6.72624E-07 3.12767E-18-5.84612E-19
 -1      2194 1.81449E-04-1.56974E-05-7.03159E-05-3.18749E-07 3.35679E-18-1.49597E-18
 -1      2195 1.60827E-04-7.72471E-06-6.58222E-05 6.95206E-07 3.33646E-18-1.21655E-18
 -1      2196 1.87302E-04-7.24570E-05-4.90040E-05-3.29393E-06-1.64091E-18-1.24090E-18
 -1      2197 1.87174E-04-7.29556E-05-4.97902E-05 1.11898E-05 2.04029E-19-1.03507E-18
 -1      2198 1.74878E-04-2.11322E-05-6.48920E-05-2.85956E-06 2.78843E-18-1.07637E-18
 -1      2199 9.52371E-05-2.85720E-05-2.85708E-05 2.16439E-09-3.22391E-20-3.08779E-19
 -1      2200 4.66004E-05-3.92512E-05-4.13144E-06 3.05365E-05-1.20660E-18-2.17878E-18
 -1      2201 8.76648E-05-1.07334E-05-3.30083E-05-3.77807E-06 4.43672E-19-1.94373E-18
 -1      2202 8.78956E-05-1.09813E-05-3.30019E-05-4.83687E-06 2.24928E-19-2.11449E-18
 -1      2203 8.82643E-05-1.14420E-05-3.29692E-05-5.73961E-06 4.82710E-20-2.16508E-18
 -1      2204 8.87195E-05-1.19276E-05-3.29568E-05-6.82162E-06-1.66010E-19-2.19609E-18
 -1      2205 8.93378E-05-1.32267E-05-3.26144E-05-4.90446E-06 1.39408E-19-1.95955E-18
 -1      2206 8.75452E-05-1.05532E-05-3.30274E-05 2.73920E-07 1.05871E-18-1.73760E-18
 -1      2207 8.74728E-05-1.04878E-05-3.30294E-05-8.11237E-07 8.97498E-19-1.80699E-18
 -1      2208 8.78776E-05-1.09304E-05-3.30090E-05 2.41462E-06 1.25733E-18-1.63856E-18
 -1      2209 8.76946E-05-1.07417E-05-3.30169E-05 1.29072E-06 1.15741E-18-1.70058E-18
 -1      2210 8.88963E-05-1.26448E-05-3.26836E-05 6.35264E-07 1.00335E-18-1.61132E-18
 -1      2211 8.84333E-05-1.15906E-05-3.29682E-05 4.59722E-06 1.43183E-18-1.34809E-18
 -1      2212 8.81421E-05-1.12747E-05-3.29832E-05 3.44884E-06 1.28589E-18-1.55857E-18
 -1      2213 8.93317E-05-1.31735E-05-3.26433E-05 2.63837E-06 1.20218E-18-1.48405E-18
 -1      2214 8.92886E-05-1.26350E-05-3.28965E-05 6.86624E-06 1.65541E-18-7.75015E-19
 -1      2215 8.88404E-05-1.21290E-05-3.29214E-05 5.65968E-06 1.51953E-18-1.10485E-18
 -1      2216 9.00140E-05-1.40384E-05-3.25628E-05 4.67957E-06 1.38519E-18-1.11805E-18
 -1      2217 9.05870E-05-1.42540E-05-3.27786E-05 9.09467E-06 1.79054E-18-1.12510E-19
 -1      2218 8.98967E-05-1.34431E-05-3.28188E-05 7.88499E-06 1.67403E-18-5.13110E-19
 -1      2219 9.10161E-05-1.53483E-05-3.24244E-05 6.68135E-06 1.57862E-18-5.72750E-19
 -1      2220 9.25820E-05-1.68242E-05-3.25701E-05 1.09856E-05 1.85554E-18 6.32231E-19
 -1      2221 9.14875E-05-1.54588E-05-3.26467E-05 9.94762E-06 1.77955E-18 2.36362E-19
 -1      2222 9.24528E-05-1.72937E-05-3.21924E-05 8.43384E-06 1.64381E-18 9.44376E-20
 -1      2223 9.56222E-05-2.09161E-05-3.21117E-05 1.16572E-05 1.52566E-18 1.83961E-18
 -1      2224 9.39312E-05-1.85886E-05-3.23272E-05 1.14164E-05 1.66886E-18 1.08076E-18
 -1      2225 9.44841E-05-2.01979E-05-3.17873E-05 9.44534E-06 1.57512E-18 8.34539E-19
 -1      2226 9.76430E-05-2.46726E-05-3.13367E-05 9.80975E-06 1.33135E-18 2.94910E-18
 -1      2227 9.64004E-05-2.23107E-05-3.17493E-05 1.10496E-05 1.43998E-18 2.29054E-18
 -1      2228 9.59410E-05-2.33091E-05-3.11279E-05 8.77648E-06 1.38877E-18 1.74018E-18
 -1      2229 9.64522E-05-2.57576E-05-3.03062E-05 6.87148E-06 1.19167E-18 2.70786E-18
 -1      2230 1.58273E-04-4.49301E-05-4.91263E-05 9.56928E-06 4.06470E-19-1.25276E-18
 -1      2231 1.48915E-04-5.27695E-05-4.11805E-05 1.94433E-05-6.62115E-19-1.38490E-18
 -1      2232 1.06611E-04-5.26961E-05-2.31569E-05 5.03615E-05-1.95368E-18-1.05257E-18
 -1      2233 8.64917E-05-4.64167E-05-1.67693E-05 5.24733E-05-1.81731E-18-6.02585E-19
 -1      2234 9.61816E-05-2.49321E-05-3.04898E-05-5.50851E-06-8.96723E-19-1.23071E-18
 -1      2235 9.55981E-05-2.56306E-05-2.99926E-05-3.44078E-06-8.08864E-19-1.21111E-18
 -1      2236 1.21524E-04-5.23867E-05-2.94468E-05 3.19403E-05 7.86894E-19 9.65670E-19
 -1      2237 9.54486E-05-2.62077E-05-2.96213E-05-1.90370E-06-7.58376E-19-1.06487E-18
 -1      2238 9.50867E-05-2.64890E-05-2.93857E-05-5.84120E-07-5.47951E-19-1.13757E-18
 -1      2239 9.54108E-05-2.48865E-05-3.02312E-05-3.28063E-06-7.63094E-19-1.35997E-18
 -1      2240 9.48045E-05-2.66378E-05-2.91830E-05 5.79262E-07-4.82397E-19-1.11687E-18
 -1      2241 9.46941E-05-2.67084E-05-2.91142E-05 1.59292E-06-4.85244E-19-1.25095E-18
 -1      2242 9.49828E-05-2.58537E-05-2.96353E-05-3.88298E-07-5.53644E-19-1.14830E-18
 -1      2243 9.43371E-05-2.65782E-05-2.90295E-05 2.62642E-06-6.09295E-19-1.23741E-18
 -1      2244 9.44220E-05-2.64678E-05-2.90906E-05 3.65559E-06-4.74426E-19-1.14133E-18
 -1      2245 9.43848E-05-2.59828E-05-2.93175E-05 1.94086E-06-5.50475E-19-1.01885E-18
 -1      2246 9.39342E-05-2.60648E-05-2.90959E-05 4.66125E-06-3.80470E-19-1.06329E-18
 -1      2247 9.41365E-05-2.57672E-05-2.92581E-05 5.83354E-06-3.09835E-19-1.14314E-18
 -1      2248 9.35859E-05-2.54226E-05-2.92014E-05 4.06177E-06-4.67908E-19-8.70962E-19
 -1      2249 9.33332E-05-2.50223E-05-2.93065E-05 7.04161E-06-1.77798E-19-1.08081E-18
 -1      2250 9.35539E-05-2.44702E-05-2.95525E-05 8.61600E-06-3.14858E-20-1.08337E-18
 -1      2251 9.23576E-05-2.41353E-05-2.92041E-05 6.29087E-06-3.22890E-19-8.34197E-19
 -1      2252 9.21497E-05-2.32620E-05-2.95812E-05 1.01900E-05 1.98755E-20-1.02594E-18
 -1      2253 9.22558E-05-2.24057E-05-2.98705E-05 1.23625E-05 3.67791E-19-9.87990E-19
 -1      2254 9.02492E-05-2.19339E-05-2.92076E-05 8.98903E-06-2.16672E-20-1.01610E-18
 -1      2255 8.98585E-05-2.06504E-05-2.97505E-05 1.44535E-05 5.31596E-19-1.09290E-18
 -1      2256 8.96988E-05-1.95810E-05-2.99726E-05 1.73357E-05 7.95510E-19-8.45508E-19
 -1      2257 8.66145E-05-1.86362E-05-2.90035E-05 1.23959E-05 4.17068E-19-8.50977E-19
 -1      2258 8.58834E-05-1.74428E-05-2.94348E-05 2.00781E-05 1.13902E-18-8.51870E-19
 -1      2259 8.55253E-05-1.67827E-05-2.93227E-05 2.35257E-05 1.49332E-18-7.16544E-19
 -1      2260 8.06424E-05-1.43791E-05-2.81689E-05 1.66639E-05 9.18503E-19-9.99515E-19
 -1      2261 8.01516E-05-1.51632E-05-2.78273E-05 2.71252E-05 1.80896E-18-4.47207E-19
 -1      2262 8.03642E-05-1.69473E-05-2.68341E-05 3.05529E-05 1.89815E-18-9.84146E-20
 -1      2263 7.15630E-05-1.04462E-05-2.58550E-05 2.17944E-05 1.65332E-18-1.08239E-18
 -1      2264 8.06373E-05-2.07593E-05-2.52848E-05 3.54064E-05 1.58501E-18 4.50516E-19
 -1      2265 8.39473E-05-2.79990E-05-2.35036E-05 3.71448E-05 1.45594E-18 7.47083E-19
 -1      2266 9.52613E-05-1.99425E-05-3.23264E-05-1.13003E-05-1.16437E-18-1.54692E-18
 -1      2267 9.57201E-05-2.32373E-05-3.10806E-05-7.39332E-06-1.04568E-18-1.35834E-18
 -1      2268 9.51455E-05-2.22862E-05-3.12147E-05-6.93911E-06-8.99337E-19-1.47149E-18
 -1      2269 9.33336E-05-1.75580E-05-3.25068E-05-1.08181E-05-9.84620E-19-1.76785E-18
 -1      2270 9.52370E-05-2.85715E-05-2.85709E-05-1.65039E-09-5.00862E-19 1.03468E-18
 -1      2271 8.72257E-05-2.04159E-05-2.83151E-05-3.19656E-05-2.20546E-19-2.18153E-18
 -1      2272 8.58171E-05-1.77094E-05-2.90907E-05-2.85050E-05-3.05197E-19-2.00704E-18
 -1      2273 9.02800E-05-1.88479E-05-3.04534E-05-2.45034E-05-1.18047E-18-1.77844E-18
 -1      2274 8.98854E-05-1.90341E-05-3.04322E-05-2.07804E-05-1.98126E-18-2.70679E-18
 -1      2275 7.60933E-05-1.26527E-05-2.68712E-05-2.42359E-05-6.26308E-19-7.01423E-19
 -1      2276 9.32363E-05-2.09625E-05-3.08706E-05-1.75575E-05-2.00179E-18-2.02010E-18
 -1      2277 9.29279E-05-2.18048E-05-3.05540E-05-1.44244E-05-2.60153E-18-2.06796E-18
 -1      2278 8.37424E-05-1.56732E-05-2.89741E-05-1.78225E-05-1.70383E-18-8.62736E-19
 -1      2279 9.50252E-05-2.34580E-05-3.05897E-05-1.20053E-05-2.65121E-18-1.26824E-18
 -1      2280 9.46431E-05-2.42154E-05-3.02357E-05-9.67941E-06-2.08851E-18-1.43301E-18
 -1      2281 8.89804E-05-1.95738E-05-2.96299E-05-1.26375E-05-2.09657E-18 6.00411E-19
 -1      2282 9.58615E-05-2.54254E-05-3.01227E-05-7.86215E-06-1.21531E-18-2.38929E-18
 -1      2283 9.54624E-05-2.59735E-05-2.98124E-05-6.20351E-06-1.96168E-19-2.39642E-18
 -1      2284 9.21728E-05-2.28027E-05-2.96636E-05-8.59484E-06-2.21453E-18 4.63215E-19
 -1      2285 9.60715E-05-2.67036E-05-2.96808E-05-5.03562E-06 1.71518E-19-2.60262E-18
 -1      2286 9.57388E-05-2.70351E-05-2.94616E-05-3.99469E-06 9.29748E-19-3.23628E-18
 -1      2287 9.39056E-05-2.50361E-05-2.94814E-05-5.68954E-06-2.11705E-19-1.26739E-18
 -1      2288 9.60277E-05-2.74793E-05-2.93441E-05-3.21123E-06 4.56683E-19-3.87794E-18
 -1      2289 9.57665E-05-2.76805E-05-2.91894E-05-2.54203E-06 2.84489E-19-4.24319E-18
 -1      2290 9.47607E-05-2.64336E-05-2.92657E-05-3.73586E-06 1.97021E-19-1.02249E-18
 -1      2291 9.58915E-05-2.79444E-05-2.90976E-05-2.02882E-06 9.49662E-19-4.43830E-18
 -1      2292 9.56981E-05-2.80629E-05-2.89919E-05-1.60514E-06 5.83658E-19-4.76911E-18
 -1      2293 9.51630E-05-2.73004E-05-2.90756E-05-2.42042E-06 4.64182E-19-1.23311E-18
 -1      2294 9.57416E-05-2.82168E-05-2.89244E-05-1.27401E-06 1.43043E-18-5.22745E-18
 -1      2295 9.56038E-05-2.82853E-05-2.88537E-05-1.00861E-06 1.76526E-18-4.34152E-18
 -1      2296 9.53300E-05-2.78255E-05-2.89269E-05-1.55399E-06 9.43940E-19-1.63049E-18
 -1      2297 9.56097E-05-2.83738E-05-2.88059E-05-7.97170E-07 1.94330E-18-4.57734E-18
 -1      2298 9.55139E-05-2.84128E-05-2.87592E-05-6.32022E-07 1.89309E-18-4.22224E-18
 -1      2299 9.53817E-05-2.81385E-05-2.88172E-05-9.91885E-07 1.68579E-18-2.34961E-18
 -1      2300 9.55044E-05-2.84629E-05-2.87260E-05-4.97941E-07 1.01019E-18-4.13234E-18
 -1      2301 9.54389E-05-2.84848E-05-2.86954E-05-3.95583E-07-1.00864E-19-2.54745E-18
 -1      2302 9.53814E-05-2.83226E-05-2.87392E-05-6.30970E-07 1.41319E-18-2.77148E-18
 -1      2303 9.54247E-05-2.85127E-05-2.86728E-05-3.10880E-07 3.05776E-19-2.40501E-18
 -1      2304 9.53802E-05-2.85248E-05-2.86528E-05-2.47463E-07 9.48778E-19-1.15620E-18
 -1      2305 9.53607E-05-2.84297E-05-2.86849E-05-4.00759E-07 3.16054E-19-2.49689E-18
 -1      2306 9.53654E-05-2.85407E-05-2.86368E-05-1.91663E-07-9.11260E-19-1.68506E-18
 -1      2307 9.53345E-05-2.85473E-05-2.86233E-05-1.51157E-07-1.03141E-18-2.12898E-18
 -1      2308 9.53343E-05-2.84920E-05-2.86469E-05-2.51960E-07 3.24894E-20-2.26537E-18
 -1      2309 9.53227E-05-2.85551E-05-2.86132E-05-1.18319E-07 3.86392E-19-1.41781E-18
 -1      2310 9.53031E-05-2.85584E-05-2.86049E-05-9.45012E-08 5.03032E-19-1.22180E-18
 -1      2311 9.53096E-05-2.85276E-05-2.86212E-05-1.57784E-07-3.59713E-19-1.08977E-18
 -1      2312 9.52937E-05-2.85625E-05-2.85981E-05-7.35764E-08 6.51728E-19-1.10082E-18
 -1      2313 9.52807E-05-2.85642E-05-2.85928E-05-5.87338E-08 2.08607E-18 7.48505E-20
 -1      2314 9.52894E-05-2.85466E-05-2.86043E-05-9.99129E-08 6.33289E-19 7.75377E-19
 -1      2315 9.52734E-05-2.85662E-05-2.85882E-05-4.53858E-08 2.09402E-18-7.04596E-20
 -1      2316 9.52649E-05-2.85671E-05-2.85848E-05-3.60620E-08 1.52494E-19-4.05782E-19
 -1      2317 9.52736E-05-2.85572E-05-2.85930E-05-6.29020E-08 2.20696E-18 8.11684E-19
 -1      2318 9.52596E-05-2.85680E-05-2.85817E-05-2.74939E-08-1.15542E-18-2.16309E-19
 -1      2319 9.52541E-05-2.85685E-05-2.85795E-05-2.15966E-08-2.70892E-19-5.07149E-19
 -1      2320 9.52617E-05-2.85630E-05-2.85853E-05-3.91046E-08 7.34281E-20 6.10548E-19
 -1      2321 9.52503E-05-2.85689E-05-2.85775E-05-1.60624E-08-2.51341E-19-9.05239E-19
 -1      2322 9.52467E-05-2.85692E-05-2.85761E-05-1.23097E-08-5.72702E-19-1.01397E-18
 -1      2323 9.52530E-05-2.85662E-05-2.85802E-05-2.37082E-08-6.09107E-19 6.33675E-19
 -1      2324 9.52441E-05-2.85693E-05-2.85748E-05-8.72129E-09-1.87405E-18-2.04649E-18
 -1      2325 9.52420E-05-2.85695E-05-2.85739E-05-6.32114E-09-2.15109E-18-1.57779E-18
 -1      2326 9.52469E-05-2.85679E-05-2.85768E-05-1.36952E-08-1.79194E-18-3.94723E-19
 -1      2327 9.52401E-05-2.85696E-05-2.85730E-05-3.89660E-09-5.74518E-19-1.60162E-18
 -1      2328 9.52389E-05-2.85698E-05-2.85724E-05-2.31808E-09-4.03242E-19-1.15192E-18
 -1      2329 9.52426E-05-2.85689E-05-2.85745E-05-7.06007E-09-1.55447E-18-7.16307E-19
 -1      2330 9.52378E-05-2.85699E-05-2.85719E-05-8.61426E-10 3.40222E-19-4.02797E-19
 -1      2331 9.52372E-05-2.85700E-05-2.85716E-05 6.96672E-11 1.56018E-18 2.98498E-19
 -1      2332 9.52399E-05-2.85696E-05-2.85730E-05-2.76057E-09 2.54315E-19 1.26338E-18
 -1      2333 9.52365E-05-2.85701E-05-2.85713E-05 9.86745E-10 1.34395E-18-4.47356E-19
 -1      2334 9.52363E-05-2.85703E-05-2.85712E-05 1.54029E-09 2.13011E-18-4.65442E-19
 -1      2335 9.52382E-05-2.85700E-05-2.85721E-05-1.05271E-10 9.24660E-19 1.18983E-18
 -1      2336 9.52360E-05-2.85703E-05-2.85710E-05 2.07919E-09 2.03850E-18-1.36339E-18
 -1      2337 9.52361E-05-2.85705E-05-2.85709E-05 2.36749E-09 2.95575E-18-1.20715E-18
 -1      2338 9.52373E-05-2.85704E-05-2.85715E-05 1.53103E-09 1.29031E-18-5.28752E-20
 -1      2339 9.52359E-05-2.85706E-05-2.85708E-05 2.63067E-09 3.02858E-18-1.73970E-18
 -1      2340 9.52361E-05-2.85709E-05-2.85708E-05 2.71550E-09 1.98184E-18-2.50982E-18
 -1      2341 9.52369E-05-2.85707E-05-2.85712E-05 2.44571E-09 2.98451E-18-9.90527E-19
 -1      2342 9.52361E-05-2.85710E-05-2.85708E-05 2.75954E-09 1.19437E-18-2.72381E-18
 -1      2343 9.52364E-05-2.85712E-05-2.85708E-05 2.66272E-09 4.34331E-19-3.41974E-18
 -1      2344 9.52368E-05-2.85711E-05-2.85710E-05 2.82058E-09 1.84322E-18-2.46050E-18
 -1      2345 9.52366E-05-2.85714E-05-2.85708E-05 2.60284E-09 8.55607E-19-2.02924E-18
 -1      2346 9.52369E-05-2.85717E-05-2.85708E-05 2.34037E-09 8.33789E-19-1.91411E-18
 -1      2347 9.52374E-05-2.85722E-05-2.85708E-05 2.48758E-09 9.77913E-19 1.45389E-18
 -1      2348 9.52370E-05-2.85716E-05-2.85709E-05 2.78591E-09 9.31655E-19-1.04961E-18
 -1      2349 9.36212E-05-2.83153E-05-2.79975E-05 5.73258E-07 4.80049E-19 1.37620E-18
 -1      2350 9.37941E-05-2.81691E-05-2.81058E-05 5.45929E-07 6.47252E-19 1.44324E-18
 -1      2351 9.39118E-05-2.79724E-05-2.82648E-05 6.90938E-07 7.77909E-19 1.38603E-18
 -1      2352 9.41684E-05-2.77816E-05-2.84189E-05 9.49623E-07 7.39387E-19 1.49117E-18
 -1      2353 9.47280E-05-2.82613E-05-2.84967E-05 8.90714E-07 8.02822E-19 7.84134E-19
 -1      2354 9.43511E-05-2.74989E-05-2.86512E-05 1.45445E-06 7.09934E-19 1.54191E-18
 -1      2355 9.47507E-05-2.72237E-05-2.89013E-05 2.13702E-06 7.73533E-19 1.71765E-18
 -1      2356 9.49817E-05-2.75726E-05-2.89043E-05 1.62051E-06 8.13403E-19 9.15342E-19
 -1      2357 9.33827E-05-2.85757E-05-2.77876E-05 9.45439E-07 3.09186E-19 1.01735E-18
 -1      2358 9.35533E-05-2.84732E-05-2.78807E-05 7.04255E-07 4.10900E-19 1.19427E-18
 -1      2359 9.45813E-05-2.87762E-05-2.82093E-05 8.37738E-07 5.62786E-19 7.30015E-19
 -1      2360 9.30871E-05-2.87374E-05-2.75944E-05 1.69776E-06 2.66126E-19 8.16632E-19
 -1      2361 9.33236E-05-2.86965E-05-2.76922E-05 1.29524E-06 2.99858E-19 9.45556E-19
 -1      2362 9.44852E-05-2.91768E-05-2.79922E-05 1.31662E-06 4.61853E-19 6.40099E-19
 -1      2363 9.26287E-05-2.87475E-05-2.73940E-05 2.71898E-06 1.19183E-19 9.37959E-19
 -1      2364 9.29861E-05-2.87992E-05-2.75080E-05 2.21237E-06 9.74286E-20 8.56537E-19
 -1      2365 9.43485E-05-2.94455E-05-2.78142E-05 2.20998E-06 2.57535E-19 5.35240E-19
 -1      2366 9.19150E-05-2.85323E-05-2.71773E-05 3.85972E-06 3.45189E-19 1.22043E-18
 -1      2367 9.24304E-05-2.87125E-05-2.73112E-05 3.32728E-06 3.04285E-19 1.26086E-18
 -1      2368 9.40644E-05-2.95137E-05-2.76592E-05 3.38692E-06 7.75122E-20 5.55543E-19
 -1      2369 9.08851E-05-2.80204E-05-2.69480E-05 4.90953E-06-3.48334E-20 1.23779E-18
 -1      2370 9.15680E-05-2.83570E-05-2.70980E-05 4.45793E-06 2.68466E-19 1.23651E-18
 -1      2371 9.35233E-05-2.92835E-05-2.75227E-05 4.66463E-06 2.55616E-19 1.25806E-18
 -1      2372 8.95412E-05-2.71817E-05-2.67202E-05 5.60016E-06-1.95494E-19 1.31911E-18
 -1      2373 9.03601E-05-2.76746E-05-2.68759E-05 5.35730E-06-4.01848E-20 1.29244E-18
 -1      2374 9.26405E-05-2.86650E-05-2.74082E-05 5.78549E-06-9.37092E-20 1.18455E-18
 -1      2375 8.79824E-05-2.60732E-05-2.65145E-05 5.64955E-06-6.92246E-19 1.20541E-18
 -1      2376 8.88560E-05-2.66744E-05-2.66606E-05 5.73786E-06-4.96037E-19 1.36807E-18
 -1      2377 9.14016E-05-2.76318E-05-2.73224E-05 6.42804E-06-4.67981E-19 1.43614E-18
 -1      2378 8.64231E-05-2.48688E-05-2.63520E-05 4.84894E-06 1.77352E-19 9.14099E-19
 -1      2379 8.72233E-05-2.54747E-05-2.64715E-05 5.34204E-06-3.38658E-19 8.34634E-19
 -1      2380 8.99120E-05-2.62814E-05-2.72697E-05 6.26992E-06-2.31152E-19 8.86956E-19
 -1      2381 8.51656E-05-2.38402E-05-2.62499E-05 3.16799E-06 7.22931E-19 6.35124E-19
 -1      2382 8.57426E-05-2.43105E-05-2.63273E-05 4.04657E-06 6.10734E-19 7.43116E-19
 -1      2383 8.84190E-05-2.48631E-05-2.72483E-05 5.10133E-06 4.38937E-19 2.59612E-19
 -1      2384 8.45146E-05-2.32722E-05-2.62183E-05 8.21900E-07 8.69234E-20 3.53497E-19
 -1      2385 8.47405E-05-2.34779E-05-2.62425E-05 1.95554E-06 3.72800E-19 7.50130E-19
 -1      2386 8.72676E-05-2.37314E-05-2.72500E-05 2.95003E-06 5.04780E-19 2.83647E-19
 -1      2387 8.46598E-05-2.33421E-05-2.62609E-05-1.75870E-06 4.90387E-19 7.29098E-20
 -1      2388 8.44741E-05-2.32207E-05-2.62270E-05-5.82670E-07 3.91612E-19 1.23628E-19
 -1      2389 8.67800E-05-2.32201E-05-2.72653E-05 1.40730E-07 1.95816E-19 9.80569E-20
 -1      2390 8.55906E-05-2.40338E-05-2.63755E-05-4.06416E-06 1.14442E-19 2.79767E-19
 -1      2391 8.50237E-05-2.36188E-05-2.62854E-05-3.07077E-06 2.96098E-19 3.90113E-19
 -1      2392 8.71139E-05-2.34920E-05-2.72891E-05-2.77676E-06 4.05557E-19 2.28930E-19
 -1      2393 8.70989E-05-2.51455E-05-2.65550E-05-5.68523E-06-3.17335E-19 2.77658E-19
 -1      2394 8.62588E-05-2.45495E-05-2.64174E-05-5.03561E-06-4.15460E-20 1.47644E-19
 -1      2395 8.81842E-05-2.44585E-05-2.73244E-05-5.21836E-06 1.62844E-19 6.06472E-19
 -1      2396 8.88702E-05-2.63871E-05-2.67870E-05-6.43784E-06 9.17165E-20 3.51639E-20
 -1      2397 8.79023E-05-2.57507E-05-2.66156E-05-6.18657E-06-7.55902E-20 4.83975E-20
 -1      2398 8.97074E-05-2.58257E-05-2.73803E-05-6.77567E-06 4.23752E-20 1.93317E-19
 -1      2399 9.06032E-05-2.75002E-05-2.70531E-05-6.37728E-06 4.29635E-19 4.23351E-20
 -1      2400 8.96438E-05-2.69392E-05-2.68650E-05-6.47833E-06 2.04504E-19 1.34748E-20
 -1      2401 9.13329E-05-2.72332E-05-2.74653E-05-7.32744E-06-8.30723E-20-4.68782E-19
 -1      2402 9.20924E-05-2.83335E-05-2.73321E-05-5.72027E-06 1.07131E-19 6.82952E-19
 -1      2403 9.12385E-05-2.79108E-05-2.71441E-05-6.06690E-06 5.32875E-19 7.21626E-19
 -1      2404 9.27769E-05-2.83965E-05-2.75816E-05-7.01347E-06-6.04202E-20 2.54863E-19
 -1      2405 9.32490E-05-2.88520E-05-2.76026E-05-4.73622E-06-7.19008E-19 1.01114E-18
 -1      2406 9.25501E-05-2.85786E-05-2.74288E-05-5.20766E-06-3.30925E-19 7.53764E-19
 -1      2407 9.38885E-05-2.91778E-05-2.77228E-05-6.11925E-06-1.78432E-19 1.55662E-18
 -1      2408 9.40754E-05-2.91014E-05-2.78473E-05-3.66230E-06-5.76429E-19 1.11822E-18
 -1      2409 9.35412E-05-2.89543E-05-2.76972E-05-4.15709E-06-6.89041E-19 6.74849E-19
 -1      2410 9.46435E-05-2.95775E-05-2.78769E-05-4.95075E-06-3.44429E-19 1.18188E-18
 -1      2411 9.46247E-05-2.91614E-05-2.80554E-05-2.66278E-06 4.52526E-20 9.20053E-19
 -1      2412 9.42398E-05-2.91042E-05-2.79333E-05-3.11320E-06-2.14567E-19 9.01138E-19
 -1      2413 9.50963E-05-2.96792E-05-2.80297E-05-3.75313E-06-5.28486E-19 4.64616E-19
 -1      2414 9.49658E-05-2.91113E-05-2.82222E-05-1.82515E-06 8.33977E-19 9.09754E-19
 -1      2415 9.47031E-05-2.91087E-05-2.81285E-05-2.19695E-06 6.98307E-19 9.87776E-19
 -1      2416 9.53307E-05-2.95923E-05-2.81696E-05-2.68156E-06 2.84409E-19 8.56461E-19
 -1      2417 9.51630E-05-2.90123E-05-2.83489E-05-1.17677E-06 2.75736E-19 1.08789E-18
 -1      2418 9.49931E-05-2.90370E-05-2.82807E-05-1.46112E-06 5.16357E-19 7.55421E-19
 -1      2419 9.54266E-05-2.94140E-05-2.82886E-05-1.80846E-06 6.33863E-19 1.37615E-18
 -1      2420 9.52669E-05-2.89037E-05-2.84401E-05-7.07082E-07 3.87808E-19 6.26367E-19
 -1      2421 9.51636E-05-2.89378E-05-2.83931E-05-9.10805E-07 8.46869E-19 9.36075E-19
 -1      2422 9.54452E-05-2.92129E-05-2.83838E-05-1.14703E-06 7.10106E-19 4.51254E-19
 -1      2423 9.53139E-05-2.88063E-05-2.85022E-05-3.86865E-07 7.33588E-19 1.22400E-18
 -1      2424 9.52558E-05-2.88398E-05-2.84716E-05-5.24161E-07 5.52794E-20 6.33582E-19
 -1      2425 9.54266E-05-2.90286E-05-2.84554E-05-6.76194E-07 2.70626E-19 1.46586E-18
 -1      2426 9.53281E-05-2.87283E-05-2.85420E-05-1.81520E-07 8.52031E-19 2.02901E-18
 -1      2427 9.52992E-05-2.87567E-05-2.85235E-05-2.68376E-07 1.69384E-18 1.97540E-18
 -1      2428 9.53945E-05-2.88785E-05-2.85064E-05-3.60058E-07 5.08761E-19 1.57105E-18
 -1      2429 9.53250E-05-2.86705E-05-2.85657E-05-5.86877E-08-7.89185E-19 2.02091E-18
 -1      2430 9.53139E-05-2.86924E-05-2.85555E-05-1.09714E-07-1.77391E-19 2.03557E-18
 -1      2431 9.53609E-05-2.87659E-05-2.85405E-05-1.60306E-07 5.85358E-19 2.15185E-18
 -1      2432 9.53137E-05-2.86302E-05-2.85783E-05 8.33454E-09-3.88868E-19 1.66087E-18
 -1      2433 9.53128E-05-2.86461E-05-2.85735E-05-1.87432E-08-5.20908E-19 1.59920E-18
 -1      2434 9.53311E-05-2.86867E-05-2.85617E-05-4.28050E-08-6.35834E-19 2.08558E-18
 -1      2435 9.52996E-05-2.86036E-05-2.85838E-05 3.97962E-08 6.00665E-19 1.76768E-18
 -1      2436 9.53038E-05-2.86145E-05-2.85823E-05 2.77662E-08 6.90926E-20 2.04249E-18
 -1      2437 9.53067E-05-2.86342E-05-2.85739E-05 1.98081E-08-3.75763E-19 1.25046E-18
 -1      2438 9.52856E-05-2.85868E-05-2.85851E-05 5.00712E-08 4.06195E-19 1.40862E-18
 -1      2439 9.52919E-05-2.85940E-05-2.85854E-05 4.68417E-08 5.68384E-19 1.30000E-18
 -1      2440 9.52876E-05-2.86013E-05-2.85798E-05 4.78847E-08 5.11428E-19 2.60982E-18
 -1      2441 9.52732E-05-2.85769E-05-2.85840E-05 4.87872E-08-2.96936E-19 1.46304E-18
 -1      2442 9.52797E-05-2.85814E-05-2.85852E-05 5.02247E-08 6.44698E-19 6.84641E-19
 -1      2443 9.52730E-05-2.85819E-05-2.85819E-05 5.56691E-08 8.68059E-19 6.17888E-19
 -1      2444 9.52628E-05-2.85714E-05-2.85820E-05 4.20346E-08-7.26956E-19-2.18395E-19
 -1      2445 9.52687E-05-2.85741E-05-2.85834E-05 4.55618E-08-7.49391E-19 4.50693E-19
 -1      2446 9.52621E-05-2.85714E-05-2.85818E-05 5.25961E-08 3.46376E-19-3.56495E-19
 -1      2447 9.52545E-05-2.85687E-05-2.85796E-05 3.34263E-08-1.97797E-19-1.68112E-18
 -1      2448 9.52594E-05-2.85701E-05-2.85810E-05 3.75431E-08-3.28373E-19-1.09000E-18
 -1      2449 9.52540E-05-2.85663E-05-2.85805E-05 4.45739E-08-4.40613E-21-1.27005E-18
 -1      2450 9.52482E-05-2.85676E-05-2.85774E-05 2.49333E-08 1.67219E-18-2.73804E-18
 -1      2451 9.52521E-05-2.85683E-05-2.85786E-05 2.88448E-08 7.56185E-19-1.70971E-18
 -1      2452 9.52482E-05-2.85645E-05-2.85788E-05 3.50692E-08 8.52906E-19-1.48629E-18
 -1      2453 9.52437E-05-2.85675E-05-2.85755E-05 1.74966E-08-4.59287E-19-2.79566E-18
 -1      2454 9.52465E-05-2.85677E-05-2.85765E-05 2.08433E-08 6.69334E-19-2.64300E-18
 -1      2455 9.52439E-05-2.85644E-05-2.85770E-05 2.59451E-08 9.10990E-19-1.85028E-18
 -1      2456 9.52405E-05-2.85678E-05-2.85740E-05 1.14495E-08 3.75284E-20-2.15117E-18
 -1      2457 9.52425E-05-2.85678E-05-2.85748E-05 1.41239E-08-3.95749E-19-2.43300E-18
 -1      2458 9.52410E-05-2.85651E-05-2.85754E-05 1.80657E-08-5.53505E-19-8.59318E-19
 -1      2459 9.52384E-05-2.85683E-05-2.85729E-05 6.79583E-09-4.05650E-19-1.58319E-18
 -1      2460 9.52397E-05-2.85681E-05-2.85734E-05 8.82267E-09 5.05714E-19-1.91362E-18
 -1      2461 9.52390E-05-2.85662E-05-2.85741E-05 1.17115E-08 1.92926E-19-1.35990E-18
 -1      2462 9.52372E-05-2.85689E-05-2.85721E-05 3.38362E-09-1.05328E-18-1.68877E-18
 -1      2463 9.52379E-05-2.85687E-05-2.85725E-05 4.84632E-09-1.34518E-18-1.52976E-18
 -1      2464 9.52378E-05-2.85673E-05-2.85731E-05 6.85023E-09-8.34909E-19-1.01969E-18
 -1      2465 9.52365E-05-2.85695E-05-2.85716E-05 1.00955E-09 9.37624E-19-1.59039E-18
 -1      2466 9.52369E-05-2.85692E-05-2.85718E-05 2.00664E-09-1.26768E-20-2.52060E-18
 -1      2467 9.52370E-05-2.85683E-05-2.85723E-05 3.30602E-09-8.69057E-19-2.28272E-18
 -1      2468 9.52363E-05-2.85700E-05-2.85713E-05-5.23667E-10 5.95220E-19-4.81399E-19
 -1      2469 9.52364E-05-2.85698E-05-2.85714E-05 9.84640E-11 1.10551E-18-8.96456E-19
 -1      2470 9.52367E-05-2.85692E-05-2.85718E-05 8.61552E-10 2.77800E-19-2.21692E-18
 -1      2471 9.52364E-05-2.85705E-05-2.85711E-05-1.37757E-09 7.82411E-19 5.43977E-19
 -1      2472 9.52363E-05-2.85703E-05-2.85711E-05-1.05841E-09 7.99132E-19-8.86092E-20
 -1      2473 9.52366E-05-2.85699E-05-2.85714E-05-6.93328E-10 4.70989E-19-1.75225E-18
 -1      2474 9.52367E-05-2.85710E-05-2.85710E-05-1.67256E-09-5.69011E-19 3.11326E-19
 -1      2475 9.52365E-05-2.85708E-05-2.85710E-05-1.60401E-09-1.74193E-19 4.04544E-19
 -1      2476 9.52367E-05-2.85706E-05-2.85712E-05-1.52746E-09 4.44693E-19 2.81611E-19
 -1      2477 9.52377E-05-2.85720E-05-2.85710E-05-1.38122E-09-5.77540E-20 1.13845E-18
 -1      2478 9.52376E-05-2.85719E-05-2.85710E-05-1.48511E-09-1.59024E-18-3.84408E-19
 -1      2479 9.52376E-05-2.85719E-05-2.85710E-05-1.57299E-09-2.60744E-18-2.33759E-19
 -1      2480 9.52375E-05-2.85718E-05-2.85710E-05-1.65013E-09-2.89195E-18 6.76388E-20
 -1      2481 9.52374E-05-2.85712E-05-2.85712E-05-1.58685E-09-2.86853E-18 8.13212E-19
 -1      2482 9.52374E-05-2.85718E-05-2.85710E-05-1.70762E-09-2.30253E-18-3.35332E-19
 -1      2483 9.52373E-05-2.85716E-05-2.85710E-05-1.73059E-09-1.29958E-18-8.34525E-19
 -1      2484 9.52373E-05-2.85713E-05-2.85712E-05-1.74436E-09-2.36062E-18-4.19270E-19
 -1      2485 1.07212E-04-5.40748E-05-2.26992E-05-4.79695E-05-6.24687E-19-2.90225E-18
 -1      2486 1.24784E-04-5.66684E-05-2.94607E-05-4.33914E-05-3.03873E-19-1.75251E-18
 -1      2487 9.52377E-05-2.85722E-05-2.85710E-05-1.14361E-09 5.96567E-20-1.48559E-18
 -1      2488 9.52377E-05-2.85721E-05-2.85710E-05-1.27298E-09-2.06691E-19 3.02383E-19
 -1      2489 9.52375E-05-2.85712E-05-2.85713E-05-1.39765E-09 9.59858E-21 4.95918E-19
 -1      2490 9.52379E-05-2.85724E-05-2.85709E-05-8.41822E-10-2.28442E-18-4.08803E-18
 -1      2491 9.52378E-05-2.85722E-05-2.85710E-05-1.00790E-09-1.21320E-18-3.16511E-18
 -1      2492 9.52376E-05-2.85713E-05-2.85713E-05-1.16468E-09-1.20543E-18-3.50347E-18
 -1      2493 9.52380E-05-2.85726E-05-2.85709E-05-4.39482E-10-2.90315E-18 7.93935E-20
 -1      2494 9.52380E-05-2.85725E-05-2.85709E-05-6.56557E-10-2.82002E-18-1.08866E-18
 -1      2495 9.52378E-05-2.85715E-05-2.85713E-05-8.51696E-10-2.89821E-18-3.17499E-18
 -1      2496 9.52382E-05-2.85727E-05-2.85709E-05 8.76120E-11-2.35291E-18-1.18308E-18
 -1      2497 9.52381E-05-2.85727E-05-2.85709E-05-1.86045E-10-2.08729E-18-9.05062E-19
 -1      2498 9.52380E-05-2.85717E-05-2.85713E-05-4.12964E-10-1.49676E-18 2.93647E-19
 -1      2499 9.52383E-05-2.85729E-05-2.85709E-05 7.15660E-10-1.05471E-18-1.86552E-18
 -1      2500 9.52383E-05-2.85729E-05-2.85709E-05 4.05044E-10-1.44779E-18-8.38841E-19
 -1      2501 9.52382E-05-2.85720E-05-2.85712E-05 1.68950E-10-7.54039E-19-5.80226E-19
 -1      2502 9.52383E-05-2.85729E-05-2.85709E-05 1.40236E-09-1.48367E-18 1.55393E-18
 -1      2503 9.52383E-05-2.85730E-05-2.85709E-05 1.08194E-09-1.60852E-18-7.83232E-19
 -1      2504 9.52383E-05-2.85722E-05-2.85712E-05 8.75650E-10 6.76820E-19-1.55368E-18
 -1      2505 9.52381E-05-2.85727E-05-2.85709E-05 2.01612E-09-1.41125E-19-6.27622E-19
 -1      2506 9.52382E-05-2.85729E-05-2.85709E-05 1.75855E-09-1.44633E-18 7.72502E-19
 -1      2507 9.52383E-05-2.85723E-05-2.85711E-05 1.63118E-09-4.23047E-19 1.26834E-18
 -1      2508 9.52376E-05-2.85723E-05-2.85709E-05 2.36900E-09 4.18904E-19 1.26965E-18
 -1      2509 9.52379E-05-2.85726E-05-2.85708E-05 2.25871E-09 5.63704E-19 8.09222E-20
 -1      2510 9.52380E-05-2.85723E-05-2.85710E-05 2.25158E-09 1.16241E-18 9.73756E-19
 -1      2511 9.52375E-05-2.85720E-05-2.85709E-05 2.60319E-09 6.02932E-19 1.70381E-18
 -1      2512 6.41102E-05-3.57074E-05-1.19173E-05 3.76741E-05-8.13152E-20-8.19081E-19
 -1      2513 4.47487E-05-2.77616E-05-7.03246E-06 3.11393E-05 1.42302E-19-1.81773E-18
 -1      2514 1.36111E-05-1.26350E-05-5.10025E-08 7.38473E-06-1.69910E-18 1.48104E-18
 -1      2515 1.99451E-05-1.37406E-05-2.24742E-06-1.16467E-05-1.40470E-18 1.21210E-18
 -1      2516 1.37508E-04-5.82679E-05-3.44150E-05 3.39009E-05-1.32317E-18-1.23709E-18
 -1      2517 1.24222E-04-5.74216E-05-2.84840E-05 4.06338E-05-1.57230E-18-1.11364E-18
 -1      2518 3.25493E-05-2.37548E-05-3.29638E-06-3.93309E-05-9.28348E-19-5.36595E-18
 -1      2519 4.86692E-05-3.09939E-05-7.30726E-06-4.96191E-05-9.52277E-19-4.88611E-18
 -1      2520 9.18806E-05-3.37196E-05-2.44820E-05-3.73587E-05 3.75871E-19 1.29067E-19
 -1      2521 8.63656E-05-2.42359E-05-2.61159E-05-3.62233E-05-6.38133E-19-1.45541E-18
 -1      2522 6.21364E-05-3.56110E-05-1.12873E-05 5.39855E-05-1.65531E-18-4.48292E-19
 -1      2523 4.30102E-05-2.76414E-05-6.06409E-06 4.61877E-05-1.27246E-18-4.08270E-19
 -1      2524 1.58854E-04-2.19352E-05-5.91440E-05 3.61706E-06 1.98375E-18 1.07361E-19
 -1      2525 1.61077E-04-1.60534E-05-6.26043E-05 3.20062E-06 2.31918E-18-1.90794E-19
 -1      2526 8.74556E-05-1.04702E-05-3.30266E-05-1.78431E-06 7.89385E-19-1.85458E-18
 -1      2527 8.75151E-05-1.05430E-05-3.30242E-05-2.84507E-06 6.10601E-19-1.86554E-18
 -1      2528 8.88264E-05-1.25959E-05-3.26698E-05-3.14897E-06 4.93414E-19-1.77214E-18
 -1      2529 8.87089E-05-1.24348E-05-3.26916E-05-1.30398E-06 7.53997E-19-1.72978E-18
 -1      2530 9.52371E-05-2.85714E-05-2.85710E-05-1.76868E-09-7.32635E-19-5.23006E-19
 -1      2531 1.60241E-04-2.54551E-05-5.82999E-05-1.95174E-06 2.50912E-18-1.83340E-18
 -1      2532 1.57950E-04-3.22927E-05-5.41803E-05-5.48801E-07 1.52487E-18-1.64473E-18
 -1      2533 1.56357E-04-4.33724E-05-4.85565E-05-5.68325E-06 7.61588E-19 5.20925E-19
 -1      2534 1.60474E-04-3.41011E-05-5.47352E-05-1.88953E-07 1.51555E-18 3.90906E-19
 -1      2535 6.78091E-05-4.15980E-05-1.10576E-05-5.22835E-05-1.16234E-18-4.10027E-18
 -1      2536 8.74856E-05-4.74710E-05-1.71331E-05-5.41800E-05-6.53909E-19-3.87790E-18
 -1      2537 1.42407E-05-1.39232E-05 4.00078E-07-1.40532E-05-2.36534E-19-4.37238E-18
 -1      2538 1.87399E-05-1.71425E-05-3.59431E-07-2.78058E-05-2.33358E-19-5.38798E-18
 -1      2539 3.51686E-05-2.13634E-05-5.52596E-06-2.53084E-05-8.47033E-19 5.70900E-19
 -1      2540 5.34880E-05-2.94839E-05-9.97052E-06-3.43645E-05 1.73642E-20 1.46388E-18
 -1      2541 1.40016E-04-5.71715E-05-3.54276E-05-3.04322E-05-1.32137E-19-8.18869E-19
 -1      2542 1.51443E-04-5.42369E-05-4.22968E-05-2.03384E-05 2.46592E-19 1.00797E-19
 -1      2543 2.48703E-05-1.82526E-05-2.57324E-06 3.59726E-05-1.02597E-18 7.28025E-19
 -1      2544 1.64197E-05-1.55379E-05 5.63617E-08 2.20697E-05-1.92160E-18 9.84676E-19
 -1      2545 1.56281E-04-1.14089E-05-6.28901E-05-3.72418E-06 3.63123E-18-2.56323E-18
 -1      2546 1.58297E-04-1.75034E-05-6.09022E-05-3.63594E-06 3.45102E-18-2.18069E-18
 -1      2547 1.48860E-04-1.96551E-05-5.55987E-05-8.53907E-06 2.68361E-18-2.66498E-18
 -1      2548 8.93762E-05-1.27420E-05-3.28970E-05-7.68128E-06-2.70788E-19-2.23589E-18
 -1      2549 9.01291E-05-1.35761E-05-3.28687E-05-8.78268E-06-4.55693E-19-2.25301E-18
 -1      2550 9.03423E-05-1.44670E-05-3.25098E-05-6.55903E-06-2.20024E-19-2.04390E-18
 -1      2551 1.53067E-04-3.99253E-05-4.86956E-05-7.16309E-07 5.63700E-19-1.90244E-18
 -1      2552 9.60990E-05-2.63535E-05-2.98592E-05 5.42406E-06 1.07649E-18 2.46345E-18
 -1      2553 9.60426E-05-2.52790E-05-3.03023E-05 6.51260E-06 1.20645E-18 1.99222E-18
 -1      2554 9.54269E-05-2.66081E-05-2.94687E-05 4.17451E-06 1.08190E-18 2.31131E-18
 -1      2555 1.18573E-04-5.65421E-05-2.62487E-05 4.20142E-05-1.74542E-18-1.07568E-18
 -1      2556 8.00629E-05-4.05863E-05-1.64388E-05 5.17919E-05-1.97782E-18-8.76467E-19
 -1      2557 6.43651E-05-2.25572E-05-1.72271E-05 3.66557E-05 1.11618E-18-5.01867E-19
 -1      2558 8.31471E-05-3.27958E-05-2.09744E-05 3.96103E-05 1.16361E-18 5.70688E-19
 -1      2559 6.52176E-05-1.27279E-05-2.20577E-05 2.98042E-05 1.88910E-18-7.73976E-19
 -1      2560 1.44740E-04-5.70953E-05-3.74561E-05 2.04428E-05-1.34001E-18-1.39972E-18
 -1      2561 1.11992E-04-5.14925E-05-2.52734E-05-3.61638E-05 2.16248E-18 5.15631E-19
 -1      2562 6.98010E-05-1.60294E-05-2.26390E-05-3.24259E-05-9.85840E-19-1.10506E-18
 -1      2563 5.20523E-05-2.03802E-05-1.29442E-05 3.26049E-05 1.27330E-18-1.44250E-18
 -1      2564 3.62361E-05-2.15860E-05-5.89041E-06 2.62910E-05 4.74762E-19-2.33781E-18
 -1      2565 3.10119E-05-1.26158E-05-7.16344E-06 2.09974E-05 8.67891E-19-2.88669E-18
 -1      2566 5.32703E-05-1.46702E-05-1.59658E-05 3.14655E-05 1.38882E-18-1.35737E-18
 -1      2567 9.52371E-05-2.85711E-05-2.85711E-05-1.78398E-09-4.86046E-19-6.45029E-19
 -1      2568 1.35088E-04-5.99546E-05-3.20144E-05-3.27832E-05-9.72076E-19-5.23466E-19
 -1      2569 1.03337E-04-5.29937E-05-2.12578E-05-4.94925E-05-1.36542E-18-2.82837E-18
 -1      2570 8.65441E-05-4.13544E-05-1.89443E-05 3.78862E-05 5.62006E-19 9.70912E-20
 -1      2571 2.17613E-05-8.14129E-06-5.17318E-06 1.27957E-05-1.94569E-18 1.09691E-18
 -1      2572 3.35877E-05-1.27888E-05-8.25422E-06-1.89400E-05-1.84759E-18 6.83344E-19
 -1      2573 9.48397E-05-2.70278E-05-2.90371E-05 2.62805E-06 8.25976E-19 1.82309E-18
 -1      2574 9.52007E-05-2.68170E-05-2.92668E-05 3.44360E-06 9.78426E-19 2.04586E-18
 -1      2575 9.54652E-05-2.63163E-05-2.96460E-05 4.17156E-06 1.01295E-18 1.50655E-18
 -1      2576 9.52153E-05-2.68891E-05-2.93023E-05 2.80049E-06 8.11396E-19 1.24505E-18
 -1      2577 1.51220E-04-8.09992E-06-6.17487E-05-2.88552E-06 2.80558E-18-1.12084E-18
 -1      2578 1.40169E-04-8.37756E-06-5.68611E-05-6.59380E-06 2.83354E-18-1.18405E-18
 -1      2579 1.41567E-04-4.43803E-06-5.96223E-05-2.07802E-06 2.74989E-18-7.82751E-19
 -1      2580 4.00563E-05-1.98870E-05-8.04542E-06 4.08641E-05-1.64028E-18-1.75336E-19
 -1      2581 6.52770E-05-3.54508E-05-1.23995E-05-5.05599E-05-1.47172E-18-4.22691E-18
 -1      2582 1.70367E-05-1.15779E-05-1.84670E-06-4.39175E-06 2.55830E-20-3.98063E-18
 -1      2583 2.23080E-05-6.74066E-06-6.02931E-06-1.02223E-05 1.61413E-19-4.18710E-18
 -1      2584 2.16286E-05-7.81065E-06-5.24643E-06 6.47107E-06 5.60312E-19-3.68883E-18
 -1      2585 1.51222E-04-2.78083E-05-5.31543E-05 8.04442E-06 1.23900E-18 6.20663E-19
 -1      2586 1.50289E-04-9.66571E-06-6.06766E-05 6.07118E-06 2.50912E-18-1.30443E-19
 -1      2587 3.28744E-05-1.65532E-05-6.44379E-06-3.43156E-05-5.61795E-19-5.02587E-18
 -1      2588 1.30862E-04-6.48167E-05-2.84866E-05 2.65930E-05-1.00628E-18 8.16275E-19
 -1      2589 8.70904E-05-4.14274E-05-1.92703E-05-3.76395E-05 1.59941E-18 1.14477E-18
 -1      2590 1.51928E-04-5.06567E-05-4.34731E-05-7.25873E-06-5.84320E-21 1.00966E-18
 -1      2591 9.10069E-05-1.46910E-05-3.27629E-05-9.39493E-06-6.33577E-19-2.15070E-18
 -1      2592 9.21475E-05-1.60388E-05-3.26950E-05-1.03899E-05-8.81637E-19-2.03752E-18
 -1      2593 9.36189E-05-1.88996E-05-3.20124E-05-8.64885E-06-9.63616E-19-1.76465E-18
 -1      2594 9.18048E-05-1.63482E-05-3.23257E-05-7.86476E-06-5.46266E-19-2.00953E-18
 -1      2595 6.43403E-05-2.97303E-05-1.43521E-05-3.69505E-05 1.37855E-19 1.26589E-18
 -1      2596 1.46415E-04-3.45500E-05-4.86992E-05-7.76298E-06 1.14678E-18-2.16576E-18
 -1      2597 1.48402E-04-4.52285E-05-4.42317E-05-1.11908E-06-1.02173E-19-1.64928E-18
 -1      2598 9.06120E-05-1.53075E-05-3.22924E-05 2.75344E-06 1.16874E-18-1.33848E-18
 -1      2599 9.03355E-05-1.49623E-05-3.23240E-05 1.78009E-06 1.10098E-18-1.47670E-18
 -1      2600 9.00862E-05-1.46313E-05-3.23536E-05 9.02269E-07 9.80339E-19-1.54478E-18
 -1      2601 8.99126E-05-1.44429E-05-3.23660E-05-5.67963E-08 8.93427E-19-1.56630E-18
 -1      2602 9.13537E-05-1.66327E-05-3.20136E-05 1.04480E-06 9.54275E-19-1.41638E-18
 -1      2603 9.23680E-05-1.78442E-05-3.19772E-05 6.31292E-06 1.49315E-18-4.09019E-19
 -1      2604 9.18277E-05-1.70377E-05-3.20736E-05 5.41546E-06 1.44146E-18-7.22046E-19
 -1      2605 9.37164E-05-1.99848E-05-3.16591E-05 7.59594E-06 1.53789E-18 2.37184E-19
 -1      2606 9.29931E-05-1.87932E-05-3.18143E-05 6.91755E-06 1.53396E-18-9.22770E-20
 -1      2607 9.37076E-05-2.02087E-05-3.14751E-05 5.63158E-06 1.32160E-18-2.12588E-19
 -1      2608 9.60471E-05-2.45255E-05-3.06445E-05 7.16593E-06 1.23890E-18 1.49754E-18
 -1      2609 9.54853E-05-2.32203E-05-3.09966E-05 7.85597E-06 1.36233E-18 1.08619E-18
 -1      2610 9.56680E-05-2.51689E-05-3.01941E-05 5.63102E-06 1.20637E-18 1.34581E-18
 -1      2611 9.52371E-05-2.85708E-05-2.85713E-05-1.64874E-09-2.24085E-19-1.06524E-18
 -1      2612 9.52370E-05-2.85707E-05-2.85713E-05-1.58951E-09-2.39263E-19-1.67403E-19
 -1      2613 9.52369E-05-2.85702E-05-2.85714E-05-1.30298E-09-2.68163E-19-1.18941E-18
 -1      2614 5.70895E-05-6.22119E-06-2.16089E-05 2.03961E-05 1.75272E-18-1.72572E-18
 -1      2615 5.69317E-05-1.00789E-05-1.95010E-05 2.55482E-05 1.66516E-18-1.52784E-18
 -1      2616 4.57042E-05-7.60970E-06-1.56720E-05 2.24926E-05 1.44980E-18-2.41838E-18
 -1      2617 9.50890E-05-2.34075E-05-3.07043E-05-4.44944E-06-5.77195E-19-1.37506E-18
 -1      2618 9.49639E-05-2.42625E-05-3.03162E-05-2.75456E-06-5.27481E-19-1.28389E-18
 -1      2619 9.49441E-05-2.49049E-05-2.99960E-05-1.45496E-06-4.20254E-19-1.17801E-18
 -1      2620 9.46802E-05-2.52388E-05-2.97671E-05-1.62806E-07-3.94798E-19-1.07758E-18
 -1      2621 9.45766E-05-2.35673E-05-3.04240E-05-2.47710E-06-4.41491E-19-1.10525E-18
 -1      2622 9.43059E-05-2.53538E-05-2.95435E-05 9.03678E-07-4.76484E-19-9.07828E-19
 -1      2623 9.39383E-05-2.52814E-05-2.94246E-05 2.01710E-06-4.50195E-19-8.36173E-19
 -1      2624 9.42031E-05-2.45021E-05-2.98631E-05-6.24919E-08-3.62651E-19-8.70978E-19
 -1      2625 9.32404E-05-2.49359E-05-2.92824E-05 2.85779E-06-4.56309E-19-6.74156E-19
 -1      2626 9.27316E-05-2.44961E-05-2.92429E-05 3.87384E-06-3.19553E-19-7.10871E-19
 -1      2627 9.31744E-05-2.43586E-05-2.94739E-05 1.85362E-06-3.79763E-19-7.58349E-19
 -1      2628 9.15700E-05-2.36882E-05-2.91208E-05 4.64073E-06-3.35061E-19-7.04237E-19
 -1      2629 9.07251E-05-2.28189E-05-2.91066E-05 5.75486E-06-3.83799E-19-7.60007E-19
 -1      2630 9.14018E-05-2.32336E-05-2.91766E-05 3.39544E-06-2.80706E-19-8.25362E-19
 -1      2631 8.88374E-05-2.14492E-05-2.89334E-05 6.49759E-06-2.18428E-19-7.49659E-19
 -1      2632 8.73714E-05-2.00525E-05-2.88678E-05 7.80762E-06 6.77064E-20-7.03367E-19
 -1      2633 8.84930E-05-2.10382E-05-2.88380E-05 4.71156E-06-2.85937E-19-6.39498E-19
 -1      2634 8.43634E-05-1.80179E-05-2.85154E-05 8.52394E-06 1.72609E-19-7.92709E-19
 -1      2635 8.18764E-05-1.60437E-05-2.82476E-05 1.00590E-05 3.98635E-19-9.94891E-19
 -1      2636 8.38287E-05-1.76082E-05-2.82554E-05 5.76939E-06 6.46739E-20-6.60401E-19
 -1      2637 7.72127E-05-1.33508E-05-2.74717E-05 1.06981E-05 5.17219E-19-1.15881E-18
 -1      2638 7.32885E-05-1.10101E-05-2.67037E-05 1.23969E-05 7.70893E-19-1.36016E-18
 -1      2639 7.65344E-05-1.28966E-05-2.70533E-05 6.37116E-06 2.63808E-19-1.19751E-18
 -1      2640 6.63437E-05-8.03096E-06-2.50278E-05 1.31147E-05 1.22640E-18-1.72684E-18
 -1      2641 6.08916E-05-6.47736E-06-2.31095E-05 1.47779E-05 1.60622E-18-2.02965E-18
 -1      2642 6.53312E-05-7.25170E-06-2.45183E-05 6.20174E-06 7.38533E-19-1.66983E-18
 -1      2643 1.46090E-04-5.51756E-05-3.96416E-05 1.05011E-05-9.59675E-19-1.65044E-18
 -1      2644 1.38098E-04-5.85421E-05-3.38523E-05 2.17850E-05-1.00556E-18-1.08685E-18
 -1      2645 9.42604E-05-2.05777E-05-3.16028E-05-7.39703E-06-8.46530E-19-1.58994E-18
 -1      2646 9.47236E-05-2.23146E-05-3.10385E-05-5.56826E-06-7.38562E-19-1.55803E-18
 -1      2647 9.42628E-05-2.17146E-05-3.10880E-05-4.94785E-06-5.62520E-19-1.38915E-18
 -1      2648 9.33001E-05-1.91064E-05-3.18027E-05-7.24972E-06-7.11351E-19-1.66571E-18
 -1      2649 9.52373E-05-2.85705E-05-2.85715E-05-1.42395E-09-1.38877E-18 1.95590E-18
 -1      2650 9.52372E-05-2.85705E-05-2.85714E-05-1.48653E-09-1.60799E-18 5.82863E-19
 -1      2651 6.49370E-05-8.21806E-06-2.40595E-05-1.91369E-05 4.12421E-19-4.08958E-19
 -1      2652 6.92302E-05-9.09721E-06-2.57958E-05-1.66626E-05-3.62623E-19 4.45751E-20
 -1      2653 7.56870E-05-1.17382E-05-2.73544E-05-1.45435E-05-1.17217E-18 5.20264E-20
 -1      2654 7.90656E-05-1.38605E-05-2.80355E-05-1.22889E-05-1.64708E-18 4.87917E-19
 -1      2655 8.36786E-05-1.65696E-05-2.87590E-05-1.09534E-05-2.31583E-18 1.10491E-18
 -1      2656 8.58336E-05-1.84830E-05-2.89415E-05-9.03561E-06-2.21939E-18 1.23209E-18
 -1      2657 7.72254E-05-1.27807E-05-2.73971E-05-8.18738E-06-1.70609E-18 5.48219E-19
 -1      2658 8.88684E-05-2.06764E-05-2.92213E-05-7.87159E-06-3.00858E-18 1.05910E-18
 -1      2659 9.01412E-05-2.21443E-05-2.91962E-05-6.32838E-06-2.13719E-18 4.59830E-19
 -1      2660 8.46111E-05-1.78384E-05-2.84885E-05-6.47803E-06-2.35185E-18 1.13727E-18
 -1      2661 9.18878E-05-2.35876E-05-2.92607E-05-5.45255E-06-9.84229E-19 4.05112E-19
 -1      2662 9.25152E-05-2.45228E-05-2.91749E-05-4.37971E-06-9.26442E-20 1.26596E-20
 -1      2663 8.91579E-05-2.15857E-05-2.88844E-05-4.85476E-06-1.85885E-18 1.36400E-18
 -1      2664 9.35419E-05-2.54685E-05-2.91614E-05-3.71619E-06 2.33664E-19 5.73781E-19
 -1      2665 9.38498E-05-2.60726E-05-2.90701E-05-2.96615E-06-7.40285E-21 3.96752E-19
 -1      2666 9.18110E-05-2.41134E-05-2.89703E-05-3.51153E-06 4.84128E-20 8.10932E-19
 -1      2667 9.44399E-05-2.66737E-05-2.90313E-05-2.48606E-06-3.67644E-19 4.38274E-19
 -1      2668 9.45768E-05-2.70515E-05-2.89537E-05-1.97763E-06 1.68402E-19 1.15643E-19
 -1      2669 9.33628E-05-2.57807E-05-2.89396E-05-2.46453E-06 1.49077E-19 9.88157E-19
 -1      2670 9.49077E-05-2.74253E-05-2.89121E-05-1.64158E-06 6.63119E-19-4.97730E-19
 -1      2671 9.49584E-05-2.76572E-05-2.88522E-05-1.30421E-06 8.34946E-19-6.58221E-19
 -1      2672 9.42487E-05-2.68494E-05-2.88722E-05-1.69301E-06 5.14417E-20 1.69871E-18
 -1      2673 9.51390E-05-2.78860E-05-2.88161E-05-1.07458E-06 1.20041E-18-9.23307E-19
 -1      2674 9.51491E-05-2.80264E-05-2.87723E-05-8.53984E-07 1.39604E-18-9.53821E-19
 -1      2675 9.47418E-05-2.75204E-05-2.88022E-05-1.14591E-06 4.39739E-19 3.52417E-19
 -1      2676 9.52444E-05-2.81648E-05-2.87437E-05-6.99665E-07 1.42707E-18-1.70850E-18
 -1      2677 9.52374E-05-2.82489E-05-2.87126E-05-5.56830E-07 7.40159E-19-1.94886E-18
 -1      2678 9.50085E-05-2.79354E-05-2.87420E-05-7.68023E-07 9.27418E-19 3.09987E-19
 -1      2679 9.52852E-05-2.83318E-05-2.86911E-05-4.54213E-07 4.99417E-19-1.67615E-18
 -1      2680 9.52724E-05-2.83818E-05-2.86694E-05-3.62170E-07 4.51446E-19-1.53884E-18
 -1      2681 9.51472E-05-2.81890E-05-2.86946E-05-5.11586E-07 8.83470E-19-9.04331E-20
 -1      2682 9.52951E-05-2.84330E-05-2.86531E-05-2.91248E-07 3.58359E-19-4.68330E-19
 -1      2683 9.52814E-05-2.84632E-05-2.86375E-05-2.30259E-07 2.03937E-19-1.49205E-19
 -1      2684 9.52164E-05-2.83450E-05-2.86583E-05-3.36429E-07 1.27787E-18 5.67478E-19
 -1      2685 9.52900E-05-2.84912E-05-2.86266E-05-1.86719E-07-6.28006E-19 5.83284E-19
 -1      2686 9.52785E-05-2.85079E-05-2.86166E-05-1.49568E-07 1.13188E-19 1.24072E-18
 -1      2687 9.52466E-05-2.84384E-05-2.86319E-05-2.20169E-07 7.34207E-19 1.44976E-18
 -1      2688 9.52805E-05-2.85243E-05-2.86088E-05-1.20732E-07 5.24892E-19 1.51055E-18
 -1      2689 9.52712E-05-2.85340E-05-2.86020E-05-9.68078E-08 1.23113E-18 1.83457E-18
 -1      2690 9.52569E-05-2.84920E-05-2.86135E-05-1.45385E-07 2.86870E-19 2.20840E-18
 -1      2691 9.52703E-05-2.85435E-05-2.85966E-05-7.77290E-08 1.68012E-18 6.94786E-19
 -1      2692 9.52632E-05-2.85491E-05-2.85920E-05-6.22357E-08 2.14809E-18 1.02208E-19
 -1      2693 9.52582E-05-2.85238E-05-2.86005E-05-9.55743E-08 8.24941E-19 1.35503E-18
 -1      2694 9.52613E-05-2.85546E-05-2.85882E-05-4.95598E-08 1.57655E-18-1.39383E-19
 -1      2695 9.52561E-05-2.85579E-05-2.85851E-05-3.94687E-08-1.90683E-20 3.84835E-19
 -1      2696 9.52556E-05-2.85426E-05-2.85914E-05-6.23139E-08 1.55334E-18-4.24637E-19
 -1      2697 9.52541E-05-2.85611E-05-2.85824E-05-3.10086E-08-5.68313E-19 1.04213E-18
 -1      2698 9.52503E-05-2.85630E-05-2.85803E-05-2.43997E-08-8.16611E-19 9.90199E-19
 -1      2699 9.52518E-05-2.85538E-05-2.85850E-05-4.00221E-08 3.61637E-19 1.23928E-18
 -1      2700 9.52485E-05-2.85648E-05-2.85785E-05-1.87365E-08-1.82678E-18 5.53431E-19
 -1      2701 9.52458E-05-2.85660E-05-2.85771E-05-1.43849E-08-2.50236E-18-1.67309E-20
 -1      2702 9.52481E-05-2.85604E-05-2.85805E-05-2.50323E-08-1.45326E-18 6.91946E-19
 -1      2703 9.52443E-05-2.85671E-05-2.85758E-05-1.04243E-08-1.67051E-18 3.04779E-19
 -1      2704 9.52425E-05-2.85679E-05-2.85748E-05-7.46890E-09-6.16726E-19 1.21271E-18
 -1      2705 9.52449E-05-2.85645E-05-2.85774E-05-1.47620E-08-1.72354E-18 1.71544E-18
 -1      2706 9.52414E-05-2.85685E-05-2.85740E-05-5.00208E-09 2.21800E-19 1.87337E-18
 -1      2707 9.52403E-05-2.85690E-05-2.85734E-05-3.17943E-09 3.41542E-19 2.22571E-18
 -1      2708 9.52423E-05-2.85670E-05-2.85752E-05-7.88169E-09 3.04847E-19 2.40105E-18
 -1      2709 9.52395E-05-2.85694E-05-2.85728E-05-1.55312E-09-9.52202E-20 1.07417E-18
 -1      2710 9.52389E-05-2.85698E-05-2.85725E-05-3.93340E-10 3.25024E-19 9.80191E-19
 -1      2711 9.52405E-05-2.85686E-05-2.85737E-05-3.45545E-09-4.28234E-20 2.16995E-18
 -1      2712 9.52383E-05-2.85701E-05-2.85721E-05 6.41292E-10 1.45142E-18 4.69281E-20
 -1      2713 9.52380E-05-2.85704E-05-2.85718E-05 1.34059E-09 1.93888E-18-1.02517E-19
 -1      2714 9.52393E-05-2.85696E-05-2.85727E-05-5.68609E-10 2.17546E-19-5.86182E-19
 -1      2715 9.52376E-05-2.85706E-05-2.85716E-05 1.95020E-09 2.50409E-18 1.75973E-19
 -1      2716 9.52375E-05-2.85708E-05-2.85714E-05 2.31380E-09 3.70404E-18 3.24122E-22
 -1      2717 9.52384E-05-2.85704E-05-2.85720E-05 1.22913E-09 2.81127E-18 6.42816E-19
 -1      2718 9.52373E-05-2.85711E-05-2.85712E-05 2.60525E-09 2.23949E-18-1.54877E-18
 -1      2719 9.52373E-05-2.85713E-05-2.85711E-05 2.70625E-09 6.41942E-19-1.27053E-18
 -1      2720 9.52379E-05-2.85710E-05-2.85716E-05 2.23513E-09 1.90172E-18 5.12496E-19
 -1      2721 9.52373E-05-2.85715E-05-2.85711E-05 2.74252E-09 1.22110E-18-1.78017E-19
 -1      2722 9.52375E-05-2.85718E-05-2.85710E-05 2.64083E-09 1.64766E-18 1.67646E-18
 -1      2723 9.52378E-05-2.85719E-05-2.85711E-05 2.53933E-09 1.88373E-18 2.03916E-18
 -1      2724 9.52378E-05-2.85715E-05-2.85713E-05 2.56649E-09 1.80830E-18 6.73699E-19
 -1      2725 9.54282E-05-2.85401E-05-2.86783E-05 9.49318E-07 6.87182E-19 3.33540E-19
 -1      2726 9.55322E-05-2.81489E-05-2.88523E-05 1.16629E-06 8.48031E-19 3.86247E-19
 -1      2727 9.54799E-05-2.92613E-05-2.83919E-05 9.70825E-07 5.85727E-19 2.83218E-19
 -1      2728 9.55391E-05-2.89502E-05-2.85179E-05 8.78535E-07 6.05748E-19 3.41415E-19
 -1      2729 9.62310E-05-2.89331E-05-2.88524E-05 1.03751E-06 6.85092E-19-1.73576E-19
 -1      2730 9.54432E-05-2.76242E-05-2.90778E-05 1.57707E-06 8.41116E-19 3.91183E-19
 -1      2731 9.56143E-05-2.71063E-05-2.93287E-05 2.18982E-06 8.28016E-19 5.26086E-19
 -1      2732 9.60106E-05-2.77917E-05-2.92469E-05 1.58489E-06 7.90406E-19 2.44879E-20
 -1      2733 9.56328E-05-3.02626E-05-2.80302E-05 2.51259E-06 1.61542E-19 3.40965E-19
 -1      2734 9.57317E-05-3.01184E-05-2.81083E-05 1.98546E-06 4.15447E-19 4.83358E-19
 -1      2735 9.55531E-05-3.04203E-05-2.79272E-05 3.80032E-06 7.16587E-21 4.45331E-19
 -1      2736 9.57534E-05-3.04264E-05-2.79906E-05 3.16033E-06-1.05891E-19 4.03334E-19
 -1      2737 9.71324E-05-3.11396E-05-2.82841E-05 2.89473E-06 9.78193E-21 3.09426E-19
 -1      2738 9.52032E-05-3.01811E-05-2.78747E-05 5.19243E-06-4.74231E-20 9.62748E-19
 -1      2739 9.55570E-05-3.04039E-05-2.79227E-05 4.54931E-06 4.93984E-20 6.11631E-19
 -1      2740 9.72742E-05-3.13260E-05-2.82593E-05 4.31747E-06-5.13076E-20 1.53650E-19
 -1      2741 9.44667E-05-2.94159E-05-2.78775E-05 6.39696E-06-4.16062E-19 1.04127E-18
 -1      2742 9.50034E-05-2.99060E-05-2.79073E-05 5.90214E-06-8.22354E-20 8.95055E-19
 -1      2743 9.70901E-05-3.09902E-05-2.83184E-05 5.82993E-06-9.85158E-20 6.60233E-19
 -1      2744 9.33030E-05-2.80860E-05-2.79357E-05 7.03866E-06-3.50617E-19 1.03779E-18
 -1      2745 9.40031E-05-2.88362E-05-2.79455E-05 6.86968E-06-4.79394E-19 1.05334E-18
 -1      2746 9.64262E-05-2.99839E-05-2.84613E-05 7.08574E-06-4.46519E-19 6.49112E-19
 -1      2747 9.18181E-05-2.63333E-05-2.80380E-05 6.73742E-06 1.30812E-19 2.50049E-19
 -1      2748 9.25928E-05-2.72407E-05-2.80300E-05 7.05180E-06-1.44976E-19 7.33656E-19
 -1      2749 9.52330E-05-2.82966E-05-2.86746E-05 7.64155E-06 4.23475E-20 2.57072E-19
 -1      2750 9.03024E-05-2.45221E-05-2.81582E-05 5.25553E-06 4.83458E-19 1.23825E-19
 -1      2751 9.09958E-05-2.53828E-05-2.81397E-05 6.12024E-06 3.19828E-19-5.04460E-20
 -1      2752 9.36612E-05-2.61636E-05-2.89240E-05 7.06650E-06 4.15868E-19-1.83294E-19
 -1      2753 8.91733E-05-2.31635E-05-2.82606E-05 2.66308E-06 1.22449E-19 2.89577E-19
 -1      2754 8.96062E-05-2.37290E-05-2.82418E-05 3.99150E-06 3.17099E-19 1.41660E-19
 -1      2755 9.20947E-05-2.40893E-05-2.91554E-05 5.13710E-06 1.92310E-19 1.34485E-19
 -1      2756 8.88095E-05-2.27084E-05-2.83138E-05-5.94677E-07 4.16411E-19 2.92213E-19
 -1      2757 8.88516E-05-2.27928E-05-2.83025E-05 9.52635E-07 2.38695E-19 4.94217E-19
 -1      2758 9.10408E-05-2.27032E-05-2.93091E-05 2.03151E-06 9.87538E-20 2.81442E-19
 -1      2759 8.93580E-05-2.33190E-05-2.83048E-05-3.81716E-06 3.66400E-19 3.05970E-19
 -1      2760 8.89893E-05-2.28942E-05-2.83022E-05-2.37691E-06 3.74969E-19 1.80701E-19
 -1      2761 9.08934E-05-2.24825E-05-2.93423E-05-1.63570E-06 4.36299E-19 4.29756E-19
 -1      2762 9.06469E-05-2.47764E-05-2.82460E-05-6.32113E-06 8.59652E-20-5.71375E-21
 -1      2763 8.99682E-05-2.39872E-05-2.82459E-05-5.26930E-06 2.93487E-19 4.27632E-21
 -1      2764 9.17116E-05-2.34987E-05-2.92483E-05-5.02044E-06 4.58784E-19-1.27938E-19
 -1      2765 9.22793E-05-2.66029E-05-2.81678E-05-7.70424E-06 6.11803E-22-2.42435E-19
 -1      2766 9.14619E-05-2.56888E-05-2.81603E-05-7.17972E-06 1.83145E-19 1.03675E-19
 -1      2767 9.31835E-05-2.53794E-05-2.90593E-05-7.40546E-06-3.49530E-20-3.95338E-19
 -1      2768 9.38344E-05-2.83021E-05-2.81029E-05-7.93907E-06-3.29337E-19-3.42465E-19
 -1      2769 9.30461E-05-2.74860E-05-2.80802E-05-7.92055E-06-1.86382E-19-2.79429E-19
 -1      2770 9.48091E-05-2.75132E-05-2.88305E-05-8.47191E-06-1.67136E-19-6.70422E-20
 -1      2771 9.50298E-05-2.95486E-05-2.80737E-05-7.28523E-06-4.66180E-19 1.00690E-18
 -1      2772 9.43823E-05-2.89622E-05-2.80334E-05-7.64154E-06-4.95518E-19 3.64802E-19
 -1      2773 9.61508E-05-2.93437E-05-2.86169E-05-8.32811E-06-6.24875E-19 1.59134E-19
 -1      2774 9.57742E-05-3.02449E-05-2.80865E-05-6.11680E-06-8.91657E-19 1.67252E-18
 -1      2775 9.53085E-05-2.99166E-05-2.80319E-05-6.68120E-06-6.54076E-19 1.07938E-18
 -1      2776 9.69854E-05-3.05603E-05-2.84551E-05-7.34887E-06-8.32600E-19 8.70326E-19
 -1      2777 9.61194E-05-3.04638E-05-2.81348E-05-4.77563E-06 2.84866E-19 1.27288E-18
 -1      2778 9.58238E-05-3.03516E-05-2.80724E-05-5.40190E-06 7.95268E-20 1.78463E-18
 -1      2779 9.73090E-05-3.11206E-05-2.83585E-05-5.96346E-06-4.40345E-19 6.55146E-19
 -1      2780 9.61828E-05-3.03554E-05-2.82053E-05-3.50126E-06-1.21373E-19 1.65865E-19
 -1      2781 9.60189E-05-3.03883E-05-2.81423E-05-4.08869E-06 1.69634E-19 1.00274E-18
 -1      2782 9.72481E-05-3.11576E-05-2.83213E-05-4.51606E-06 7.55141E-19 8.12037E-19
 -1      2783 9.60863E-05-3.00732E-05-2.82839E-05-2.42223E-06 3.91882E-19 3.87273E-19
 -1      2784 9.60107E-05-3.01827E-05-2.82261E-05-2.91738E-06-1.04677E-19 5.44471E-20
 -1      2785 9.69653E-05-3.08670E-05-2.83280E-05-3.21948E-06 1.40579E-19-2.57591E-19
 -1      2786 9.59235E-05-2.97352E-05-2.83595E-05-1.58098E-06 7.60929E-19 6.75788E-19
 -1      2787 9.59000E-05-2.98701E-05-2.83105E-05-1.96670E-06 6.70258E-19 6.65751E-19
 -1      2788 9.65991E-05-3.04279E-05-2.83611E-05-2.16818E-06 9.84850E-20-5.45251E-19
 -1      2789 9.57529E-05-2.94147E-05-2.84249E-05-9.67007E-07 1.77236E-19 8.07826E-19
 -1      2790 9.57563E-05-2.95436E-05-2.83861E-05-1.24867E-06 6.71827E-19 6.94306E-19
 -1      2791 9.62405E-05-2.99674E-05-2.84053E-05-1.37637E-06 7.18286E-19 6.54873E-20
 -1      2792 9.56041E-05-2.91470E-05-2.84773E-05-5.44242E-07-9.20723E-20 1.26674E-18
 -1      2793 9.56187E-05-2.92549E-05-2.84484E-05-7.38296E-07 1.81464E-19 1.55269E-18
 -1      2794 9.59360E-05-2.95578E-05-2.84502E-05-8.15063E-07-4.29674E-20 4.97149E-19
 -1      2795 9.54873E-05-2.89419E-05-2.85163E-05-2.69268E-07 7.45676E-19 1.13511E-18
 -1      2796 9.55046E-05-2.90246E-05-2.84961E-05-3.95461E-07 2.53696E-19 9.74758E-19
 -1      2797 9.57005E-05-2.92291E-05-2.84897E-05-4.38567E-07 5.38844E-19 6.42376E-19
 -1      2798 9.54017E-05-2.87952E-05-2.85436E-05-1.01301E-07-8.50900E-20 1.43664E-18
 -1      2799 9.54179E-05-2.88544E-05-2.85303E-05-1.78259E-07 5.12783E-19 1.46419E-18
 -1      2800 9.55305E-05-2.89846E-05-2.85211E-05-1.99912E-07 1.61087E-19 5.09952E-20
 -1      2801 9.53424E-05-2.86962E-05-2.85613E-05-6.55295E-09-2.96481E-19 1.16314E-18
 -1      2802 9.53559E-05-2.87362E-05-2.85532E-05-4.97844E-08-1.26897E-19 1.54896E-18
 -1      2803 9.54147E-05-2.88137E-05-2.85442E-05-5.82684E-08 6.01983E-21 1.65910E-19
 -1      2804 9.53028E-05-2.86331E-05-2.85719E-05 4.07542E-08-1.40140E-19 1.84457E-19
 -1      2805 9.53135E-05-2.86586E-05-2.85675E-05 1.93678E-08-3.89875E-19 2.50900E-19
 -1      2806 9.53396E-05-2.87009E-05-2.85600E-05 1.85817E-08 3.65591E-19 1.35835E-20
 -1      2807 9.52772E-05-2.85954E-05-2.85775E-05 5.90983E-08 3.48591E-19 9.32790E-19
 -1      2808 9.52854E-05-2.86107E-05-2.85755E-05 5.10171E-08 2.24167E-19 1.03911E-18
 -1      2809 9.52931E-05-2.86307E-05-2.85699E-05 5.43918E-08-2.29789E-19-4.52987E-19
 -1      2810 9.52611E-05-2.85744E-05-2.85798E-05 6.10326E-08 1.22913E-18 6.91927E-19
 -1      2811 9.52672E-05-2.85829E-05-2.85793E-05 6.04492E-08 1.33316E-18 1.37998E-18
 -1      2812 9.52656E-05-2.85899E-05-2.85755E-05 6.57510E-08 5.02940E-19 6.97322E-19
 -1      2813 9.52511E-05-2.85641E-05-2.85801E-05 5.46576E-08 7.62101E-19-6.80742E-19
 -1      2814 9.52557E-05-2.85683E-05-2.85804E-05 5.78284E-08 5.74781E-19 5.44814E-20
 -1      2815 9.52501E-05-2.85681E-05-2.85781E-05 6.36936E-08 1.06248E-18 4.94116E-19
 -1      2816 9.52450E-05-2.85600E-05-2.85793E-05 4.49160E-08 1.41711E-19-4.53094E-19
 -1      2817 9.52484E-05-2.85617E-05-2.85800E-05 4.95645E-08 3.05551E-19-5.54302E-19
 -1      2818 9.52420E-05-2.85582E-05-2.85788E-05 5.52062E-08 8.73504E-19 4.48772E-19
 -1      2819 9.52413E-05-2.85595E-05-2.85780E-05 3.46206E-08 1.09272E-18-1.01301E-19
 -1      2820 9.52438E-05-2.85597E-05-2.85788E-05 3.94602E-08 6.26618E-19-4.52254E-19
 -1      2821 9.52380E-05-2.85550E-05-2.85784E-05 4.44680E-08 3.48793E-19 2.89183E-19
 -1      2822 9.52392E-05-2.85606E-05-2.85766E-05 2.52159E-08 4.61440E-20 3.44549E-19
 -1      2823 9.52409E-05-2.85601E-05-2.85774E-05 2.95945E-08 5.15144E-19-3.70348E-19
 -1      2824 9.52363E-05-2.85555E-05-2.85775E-05 3.37983E-08 5.45885E-19 2.73755E-19
 -1      2825 9.52379E-05-2.85624E-05-2.85752E-05 1.73130E-08 2.51141E-21-2.47334E-19
 -1      2826 9.52391E-05-2.85617E-05-2.85759E-05 2.09628E-08 3.20069E-20 3.79807E-19
 -1      2827 9.52357E-05-2.85576E-05-2.85763E-05 2.43390E-08-1.71058E-19 1.42754E-19
 -1      2828 9.52372E-05-2.85643E-05-2.85741E-05 1.10484E-08-3.72720E-19 5.59295E-20
 -1      2829 9.52379E-05-2.85635E-05-2.85747E-05 1.39187E-08-2.69901E-20-5.75963E-19
 -1      2830 9.52357E-05-2.85603E-05-2.85752E-05 1.65263E-08 3.87861E-19-6.57602E-19
 -1      2831 9.52368E-05-2.85661E-05-2.85732E-05 6.31370E-09-1.09348E-19-1.38983E-18
 -1      2832 9.52373E-05-2.85653E-05-2.85736E-05 8.46371E-09-3.00512E-19-4.75836E-19
 -1      2833 9.52359E-05-2.85629E-05-2.85742E-05 1.04023E-08 1.77335E-19-3.94475E-19
 -1      2834 9.52367E-05-2.85676E-05-2.85725E-05 2.89806E-09-4.56917E-19-2.46005E-18
 -1      2835 9.52369E-05-2.85669E-05-2.85728E-05 4.43094E-09-1.07613E-18-1.68664E-18
 -1      2836 9.52362E-05-2.85651E-05-2.85733E-05 5.81286E-09-4.08361E-19-1.63098E-18
 -1      2837 9.52367E-05-2.85688E-05-2.85720E-05 5.68678E-10 5.07279E-19-2.85819E-18
 -1      2838 9.52368E-05-2.85682E-05-2.85722E-05 1.59348E-09 3.04581E-19-2.89425E-18
 -1      2839 9.52364E-05-2.85670E-05-2.85726E-05 2.53844E-09-1.79793E-20-1.98626E-18
 -1      2840 9.52368E-05-2.85698E-05-2.85716E-05-8.56380E-10 2.94632E-21-2.06547E-18
 -1      2841 9.52368E-05-2.85693E-05-2.85717E-05-2.38618E-10-1.03613E-19-2.94390E-18
 -1      2842 9.52367E-05-2.85685E-05-2.85721E-05 3.49491E-10-6.09614E-20-3.09600E-18
 -1      2843 9.52369E-05-2.85697E-05-2.85717E-05-9.88242E-10-1.02584E-18-1.88823E-18
 -1      2844 9.52374E-05-2.85704E-05-2.85716E-05-1.11434E-09-1.26731E-18-5.02063E-18
 -1      2845 9.52373E-05-2.85703E-05-2.85716E-05-1.22836E-09 5.11316E-20-3.24626E-18
 -1      2846 9.52372E-05-2.85707E-05-2.85714E-05-1.56805E-09-1.12846E-18-1.21086E-18
 -1      2847 9.52373E-05-2.85704E-05-2.85715E-05-1.28044E-09-1.31402E-18-5.48168E-19
 -1      2848 9.52373E-05-2.85704E-05-2.85715E-05-1.36501E-09-1.38284E-18 1.33494E-18
 -1      2849 9.52371E-05-2.85696E-05-2.85718E-05-1.28004E-09-1.43167E-18 1.98390E-18
 -1      2850 9.52371E-05-2.85694E-05-2.85719E-05-1.21666E-09-1.51029E-18-1.45196E-18
 -1      2851 9.52379E-05-2.85708E-05-2.85716E-05-4.50113E-10-5.20682E-20 3.29369E-19
 -1      2852 9.52378E-05-2.85707E-05-2.85716E-05-6.92150E-10-7.88533E-19 7.86308E-19
 -1      2853 9.52382E-05-2.85712E-05-2.85716E-05 1.29158E-10 2.93324E-19-1.12272E-18
 -1      2854 9.52381E-05-2.85711E-05-2.85716E-05-1.85999E-10 1.81720E-19 2.39570E-19
 -1      2855 9.52379E-05-2.85700E-05-2.85719E-05-5.03384E-10 1.57158E-18 9.73638E-20
 -1      2856 9.52384E-05-2.85716E-05-2.85715E-05 8.74122E-10 2.73025E-19-1.77212E-18
 -1      2857 9.52383E-05-2.85715E-05-2.85715E-05 4.98546E-10 5.37814E-19-2.30594E-18
 -1      2858 9.52383E-05-2.85706E-05-2.85719E-05 1.14429E-10-1.78373E-19-1.00775E-18
 -1      2859 9.52383E-05-2.85718E-05-2.85714E-05 1.67733E-09 6.60322E-19 2.33549E-18
 -1      2860 9.52384E-05-2.85718E-05-2.85714E-05 1.30089E-09 1.19975E-19 1.79110E-18
 -1      2861 9.52385E-05-2.85711E-05-2.85717E-05 9.16685E-10 5.17050E-19 6.90801E-21
 -1      2862 1.25788E-04-5.84559E-05-2.92555E-05 3.47086E-05-1.86210E-18-1.06493E-18
 -1      2863 1.11889E-04-5.27727E-05-2.47701E-05 4.14349E-05-2.46439E-18-1.32207E-18
 -1      2864 9.08704E-05-4.32559E-05-2.05887E-05 4.83236E-05-2.08232E-18-1.36102E-18
 -1      2865 7.15768E-05-3.22769E-05-1.60564E-05 4.78799E-05-2.06062E-18-1.32095E-18
 -1      2866 9.63955E-05-4.82462E-05-2.02004E-05-4.80948E-05-1.77168E-18-2.53027E-18
 -1      2867 1.12871E-04-5.50752E-05-2.48839E-05-4.38115E-05-1.66633E-18-1.44317E-18
 -1      2868 2.88857E-05-5.47097E-06-9.46800E-06 1.98360E-05-1.94500E-18 9.79594E-19
 -1      2869 2.71946E-05-2.65370E-06-9.81554E-06 3.34025E-06-1.85988E-18 1.24323E-18
 -1      2870 6.16885E-05-2.75921E-05-1.40222E-05-4.55145E-05-1.18849E-18-3.60275E-18
 -1      2871 7.93305E-05-3.90074E-05-1.70526E-05-5.02647E-05-1.62419E-18-3.14959E-18
 -1      2872 9.19108E-05-4.22302E-05-2.08653E-05-4.45795E-05-1.99995E-18-2.05612E-18
 -1      2873 3.15041E-05-9.02364E-06-8.87317E-06-2.45772E-05-2.63851E-19-4.66292E-18
 -1      2874 4.33991E-05-1.58800E-05-1.12039E-05-3.64339E-05-7.82129E-19-4.59007E-18
 -1      2875 1.38055E-04-9.87788E-06-5.54747E-05 8.48559E-06 1.81011E-18 3.98688E-19
 -1      2876 1.40041E-04-5.52252E-06-5.83740E-05 3.35464E-06 2.34416E-18-3.98608E-19
 -1      2877 9.13581E-05-1.63449E-05-3.21745E-05 4.61168E-06 1.46501E-18-9.11609E-19
 -1      2878 9.09642E-05-1.58041E-05-3.22326E-05 3.63006E-06 1.30427E-18-1.15299E-18
 -1      2879 9.19566E-05-1.74508E-05-3.19200E-05 2.73474E-06 1.15311E-18-1.13316E-18
 -1      2880 9.27392E-05-1.86169E-05-3.17512E-05 4.33433E-06 1.29863E-18-7.49867E-19
 -1      2881 9.55723E-05-2.98448E-05-2.81826E-05 1.52617E-06 4.02404E-19 4.29090E-19
 -1      2882 9.56260E-05-2.96040E-05-2.82794E-05 1.18718E-06 5.11654E-19 4.00316E-19
 -1      2883 9.65081E-05-2.98546E-05-2.85746E-05 1.13706E-06 4.87975E-19-8.76526E-20
 -1      2884 9.68333E-05-3.06062E-05-2.83889E-05 1.78840E-06 3.51220E-19-9.63561E-20
 -1      2885 5.14815E-05-2.08973E-05-1.29408E-05 4.34867E-05-2.19445E-18-1.06896E-18
 -1      2886 3.69040E-05-1.15832E-05-1.00743E-05 3.18376E-05-1.85479E-18 2.25311E-19
 -1      2887 4.15279E-05-7.49897E-06-1.39260E-05 2.32243E-05-2.32844E-18 3.28861E-19
 -1      2888 9.01008E-05-1.48213E-05-3.22834E-05-4.04663E-06 2.48661E-19-1.79354E-18
 -1      2889 9.04449E-05-1.52862E-05-3.22411E-05-4.84135E-06 4.24263E-20-1.82290E-18
 -1      2890 1.10211E-04-5.07888E-05-2.53366E-05 3.66921E-05 3.23143E-19 6.76038E-19
 -1      2891 1.27132E-04-5.93978E-05-2.86892E-05-3.48900E-05-1.59009E-18-5.49460E-19
 -1      2892 1.38036E-04-6.04514E-05-3.38231E-05-2.45761E-05-1.23476E-18 5.06367E-19
 -1      2893 1.19945E-04-5.60970E-05-2.71367E-05-3.58236E-05-2.11573E-18-4.28506E-19
 -1      2894 1.43897E-04-3.15342E-05-4.83074E-05 1.07318E-05 5.79900E-19 1.06716E-18
 -1      2895 1.41289E-04-2.17992E-05-5.20927E-05 1.12274E-05 1.39358E-18 7.03884E-19
 -1      2896 1.46232E-04-5.54469E-05-3.86916E-05-8.61058E-06-7.32300E-19 1.31068E-18
 -1      2897 1.47095E-04-4.64442E-05-4.39762E-05 2.19115E-06-1.24143E-19 1.14297E-18
 -1      2898 9.52376E-05-2.85705E-05-2.85716E-05-8.59095E-10-1.13127E-18-1.75183E-18
 -1      2899 9.52375E-05-2.85704E-05-2.85716E-05-1.02514E-09-4.92590E-20-5.71884E-18
 -1      2900 9.52375E-05-2.85696E-05-2.85719E-05-9.04185E-10 8.85024E-19-8.65403E-19
 -1      2901 5.62052E-05-1.34006E-05-1.77510E-05-2.81599E-05-1.77025E-18-5.17219E-19
 -1      2902 5.72077E-05-7.68963E-06-2.08320E-05-2.36464E-05-8.79008E-19-6.46286E-19
 -1      2903 1.38538E-04-1.59266E-05-5.33247E-05-1.02534E-05 2.51908E-18-1.49480E-18
 -1      2904 1.41520E-04-2.29360E-05-5.12308E-05-1.13892E-05 1.83287E-18-1.94203E-18
 -1      2905 9.09487E-05-1.61429E-05-3.20488E-05-5.97789E-07 7.54333E-19-1.46791E-18
 -1      2906 8.97805E-05-1.42848E-05-3.23706E-05-8.84157E-07 7.85635E-19-1.57651E-18
 -1      2907 8.97356E-05-1.42689E-05-3.23663E-05-1.79356E-06 6.25095E-19-1.65289E-18
 -1      2908 9.46514E-05-2.15868E-05-3.13060E-05 7.86394E-06 1.42821E-18 7.00122E-19
 -1      2909 1.32121E-04-5.13498E-06-5.49440E-05 1.01978E-06 2.35433E-18-1.17314E-19
 -1      2910 5.34369E-05-3.74038E-06-2.09568E-05 1.13538E-05 1.56554E-18-2.30854E-18
 -1      2911 1.31801E-04-5.73308E-05-3.18069E-05 2.33354E-05-1.62493E-18-5.67512E-19
 -1      2912 1.43501E-04-4.96325E-05-4.03240E-05 1.55466E-06-6.82285E-19-1.69184E-18
 -1      2913 5.21233E-05-4.24855E-06-1.99610E-05-1.57142E-05-3.69253E-19 7.75247E-19
 -1      2914 6.65349E-05-7.32658E-06-2.49818E-05-1.03804E-05-6.41505E-19 1.50176E-19
 -1      2915 6.61428E-05-2.47982E-05-1.72001E-05 4.15232E-05-2.25793E-18-8.98067E-19
 -1      2916 9.52372E-05-2.85694E-05-2.85719E-05-1.12044E-09-2.96945E-19-4.43999E-18
 -1      2917 1.02518E-04-4.62540E-05-2.37658E-05 4.08530E-05-2.23405E-18-1.37530E-18
 -1      2918 9.52371E-05-2.85700E-05-2.85716E-05-1.35905E-09-3.33519E-19-6.70254E-19
 -1      2919 1.28294E-04-7.94127E-06-5.22750E-05-7.55466E-06 1.92001E-18-3.18881E-19
 -1      2920 1.34421E-04-1.18807E-05-5.30565E-05-9.51906E-06 2.39435E-18-1.21030E-18
 -1      2921 1.28691E-04-1.50476E-05-4.90026E-05-1.12878E-05 1.83383E-18-1.41603E-18
 -1      2922 9.52380E-05-2.85719E-05-2.85712E-05 2.27210E-09 1.63405E-18 1.16585E-18
 -1      2923 9.52382E-05-2.85720E-05-2.85713E-05 2.02120E-09 7.35197E-19 1.58532E-18
 -1      2924 9.52384E-05-2.85715E-05-2.85715E-05 1.72100E-09 1.13908E-18 3.17348E-18
 -1      2925 9.52380E-05-2.85717E-05-2.85713E-05 2.32017E-09 2.13569E-18 2.19380E-18
 -1      2926 9.57615E-05-2.62526E-05-2.97975E-05 2.89439E-06 8.66039E-19 2.80695E-20
 -1      2927 9.54890E-05-2.62977E-05-2.96505E-05 3.03486E-06 8.33547E-19 5.46515E-19
 -1      2928 1.32711E-04-1.54761E-05-5.07032E-05 1.11424E-05 1.30718E-18 6.43427E-19
 -1      2929 9.54831E-05-2.58948E-05-2.98009E-05 3.64920E-06 8.50950E-19 6.81199E-19
 -1      2930 9.16359E-05-1.72799E-05-3.18396E-05-4.49489E-06-2.40751E-20-1.67556E-18
 -1      2931 9.09171E-05-1.59245E-05-3.21626E-05-5.39356E-06-9.55484E-20-1.87154E-18
 -1      2932 9.15223E-05-1.67377E-05-3.20838E-05-6.08496E-06-2.60090E-19-1.95969E-18
 -1      2933 3.22557E-05-8.50195E-06-9.47075E-06 1.38755E-05 8.42692E-19-3.15181E-18
 -1      2934 3.86550E-05-2.91960E-06-1.46729E-05-4.42927E-06-1.60672E-18 1.34085E-18
 -1      2935 3.20063E-05-4.62880E-06-1.10126E-05-1.11670E-05-2.15898E-18 1.17992E-18
 -1      2936 9.49629E-05-2.26830E-05-3.09473E-05 6.35601E-06 1.24882E-18 5.20623E-19
 -1      2937 3.04413E-05-5.75011E-06-9.88184E-06-1.66425E-05 2.75445E-19-4.22288E-18
 -1      2938 4.06322E-05-6.43770E-06-1.41570E-05-1.92450E-05 4.47869E-20-3.88470E-18
 -1      2939 3.09982E-05-2.49236E-06-1.16222E-05-5.99899E-06 7.43847E-19-3.54356E-18
 -1      2940 8.97556E-05-1.43170E-05-3.23480E-05-2.53940E-06 5.24111E-19-1.54475E-18
 -1      2941 8.98793E-05-1.45102E-05-3.23269E-05-3.39260E-06 3.29727E-19-1.65774E-18
 -1      2942 9.09988E-05-1.63634E-05-3.19679E-05-3.40716E-06 2.42979E-19-1.53309E-18
 -1      2943 9.08004E-05-1.60230E-05-3.20336E-05-2.09907E-06 4.71997E-19-1.48025E-18
 -1      2944 1.39388E-04-5.70013E-05-3.52614E-05-1.36657E-05-1.08246E-18 1.11120E-18
 -1      2945 1.40687E-04-3.94732E-05-4.36231E-05 7.93966E-06-3.49878E-19 1.25371E-18
 -1      2946 1.38815E-04-2.97708E-05-4.70562E-05-1.08415E-05 1.02152E-18-1.52805E-18
 -1      2947 4.57028E-05-1.19830E-05-1.38067E-05-2.66799E-05-1.83033E-18 1.94818E-20
 -1      2948 9.46309E-05-2.23177E-05-3.10266E-05 4.95897E-06 1.17496E-18-8.51328E-20
 -1      2949 9.42020E-05-2.13956E-05-3.12048E-05 4.48675E-06 1.08577E-18-3.31645E-19
 -1      2950 9.55488E-05-2.55576E-05-2.99709E-05 4.79700E-06 9.93417E-19 1.14540E-18
 -1      2951 1.23670E-04-5.33562E-06-5.11269E-05 3.43035E-06 2.06147E-18-5.24578E-19
 -1      2952 1.26170E-04-5.39598E-06-5.23166E-05-2.66934E-06 2.22441E-18-6.54095E-19
 -1      2953 1.21811E-04-8.41360E-06-4.89538E-05-5.11019E-06 1.58882E-18-1.73185E-18
 -1      2954 9.52383E-05-2.85699E-05-2.85722E-05-8.75088E-11 9.62547E-20-2.12648E-18
 -1      2955 9.52381E-05-2.85696E-05-2.85722E-05-4.22473E-10 4.00146E-19 2.59313E-19
 -1      2956 9.40979E-05-2.37808E-05-3.01311E-05-1.09801E-06-3.26645E-19-1.06789E-18
 -1      2957 9.37262E-05-2.40383E-05-2.98861E-05-2.62701E-08-2.44927E-19-1.03314E-18
 -1      2958 9.32180E-05-2.40371E-05-2.96502E-05 6.36014E-07-3.73593E-19-1.05681E-18
 -1      2959 9.25215E-05-2.37948E-05-2.94776E-05 1.43018E-06-4.02961E-19-1.04333E-18
 -1      2960 9.32240E-05-2.34180E-05-2.98949E-05-3.51562E-07-2.62996E-19-1.16751E-18
 -1      2961 9.15341E-05-2.32848E-05-2.92615E-05 1.83234E-06-3.28277E-19-9.53103E-19
 -1      2962 9.03682E-05-2.25506E-05-2.90992E-05 2.44640E-06-2.48168E-19-1.05004E-18
 -1      2963 9.18033E-05-2.30661E-05-2.94241E-05 6.22853E-07-3.68285E-19-1.06906E-18
 -1      2964 8.87541E-05-2.15047E-05-2.88454E-05 2.54679E-06-1.09022E-19-9.95220E-19
 -1      2965 8.68628E-05-2.02196E-05-2.86181E-05 2.96934E-06-2.91747E-20-7.40294E-19
 -1      2966 8.93242E-05-2.16855E-05-2.89319E-05 9.36533E-07-9.08861E-20-1.02901E-18
 -1      2967 8.43883E-05-1.86021E-05-2.82311E-05 2.65219E-06-2.19732E-19-6.86383E-19
 -1      2968 8.13820E-05-1.67132E-05-2.78058E-05 2.77734E-06-1.48284E-19-1.11213E-18
 -1      2969 8.54305E-05-1.92624E-05-2.82680E-05 3.72369E-07-1.10399E-19-1.14225E-18
 -1      2970 7.77233E-05-1.45516E-05-2.71178E-05 1.82054E-06 6.41892E-20-1.19273E-18
 -1      2971 7.30758E-05-1.21085E-05-2.62456E-05 1.41950E-06 2.23723E-19-1.27783E-18
 -1      2972 7.96079E-05-1.58565E-05-2.71772E-05-1.50891E-06-2.74937E-19-1.28253E-18
 -1      2973 6.78913E-05-9.69514E-06-2.49542E-05-4.61344E-07 2.63427E-19-1.55180E-18
 -1      2974 6.16042E-05-7.12108E-06-2.33286E-05-1.92596E-06 6.02267E-19-1.80640E-18
 -1      2975 7.11806E-05-1.18086E-05-2.52054E-05-5.41157E-06 5.99474E-20-1.46619E-18
 -1      2976 4.91590E-05-9.86745E-06-1.66665E-05 2.70725E-05-2.03619E-18-8.25857E-21
 -1      2977 4.35007E-05-4.07098E-06-1.64000E-05 1.50830E-05-2.08262E-18 7.95258E-19
 -1      2978 8.10600E-05-1.62245E-05-2.78608E-05-3.66895E-06-2.06746E-18 1.33813E-18
 -1      2979 8.41469E-05-1.84150E-05-2.82251E-05-3.16170E-06-2.70290E-18 1.68567E-18
 -1      2980 8.67775E-05-2.03103E-05-2.85315E-05-3.29586E-06-1.80512E-18 2.10385E-18
 -1      2981 8.85530E-05-2.18037E-05-2.86470E-05-2.75098E-06-9.27779E-19 2.75974E-18
 -1      2982 8.43825E-05-1.87515E-05-2.80217E-05-8.46549E-07-1.62453E-18 1.72067E-18
 -1      2983 9.02420E-05-2.31506E-05-2.87756E-05-2.67648E-06-8.99982E-19 2.52114E-18
 -1      2984 9.12947E-05-2.41753E-05-2.87935E-05-2.19088E-06-1.84987E-19 1.89467E-18
 -1      2985 8.85249E-05-2.19157E-05-2.84822E-05-1.29345E-06-1.01783E-18 3.26423E-18
 -1      2986 9.23542E-05-2.50929E-05-2.88360E-05-2.03915E-06-3.19805E-19 1.22450E-18
 -1      2987 9.29622E-05-2.57687E-05-2.88161E-05-1.65130E-06 2.03150E-19 1.91658E-18
 -1      2988 9.11695E-05-2.41757E-05-2.86720E-05-1.28819E-06-8.17842E-19 2.76441E-18
 -1      2989 9.36127E-05-2.63744E-05-2.88198E-05-1.49109E-06 6.21212E-19 1.54153E-18
 -1      2990 9.39554E-05-2.68094E-05-2.87892E-05-1.20080E-06 4.24707E-19 1.61785E-18
 -1      2991 9.28201E-05-2.57247E-05-2.87314E-05-1.10126E-06 4.55730E-19 6.00329E-19
 -1      2992 9.43473E-05-2.72003E-05-2.87777E-05-1.06118E-06 3.59508E-19 2.05854E-18
 -1      2993 9.45354E-05-2.74753E-05-2.87480E-05-8.52794E-07 3.78745E-19 2.13341E-18
 -1      2994 9.38295E-05-2.67547E-05-2.87323E-05-8.70887E-07 6.47323E-19 1.32172E-18
 -1      2995 9.47672E-05-2.77234E-05-2.87323E-05-7.41822E-07 8.57567E-19 1.73324E-18
 -1      2996 9.48671E-05-2.78950E-05-2.87074E-05-5.96281E-07 6.34809E-19 2.11995E-18
 -1      2997 9.44353E-05-2.74247E-05-2.87107E-05-6.57954E-07 5.71469E-19 2.96267E-18
 -1      2998 9.50016E-05-2.80505E-05-2.86923E-05-5.12488E-07 3.96526E-19 1.90636E-18
 -1      2999 9.50524E-05-2.81565E-05-2.86728E-05-4.12503E-07 5.75531E-19 1.22882E-18
 -1      3000 9.47922E-05-2.78533E-05-2.86834E-05-4.83008E-07 3.48078E-19 2.97902E-18
 -1      3001 9.51315E-05-2.82569E-05-2.86595E-05-3.48206E-07 2.18483E-18 4.67634E-19
 -1      3002 9.51561E-05-2.83238E-05-2.86444E-05-2.78093E-07 2.37249E-18 2.03657E-18
 -1      3003 9.50020E-05-2.81291E-05-2.86572E-05-3.45179E-07 1.14762E-18 1.87342E-18
 -1      3004 9.51974E-05-2.83816E-05-2.86345E-05-2.35104E-07 1.54019E-18 2.21616E-18
 -1      3005 9.52067E-05-2.84200E-05-2.86240E-05-1.90178E-07 1.11759E-18 2.41124E-18
 -1      3006 9.51192E-05-2.83003E-05-2.86354E-05-2.43099E-07 2.02485E-18 1.66502E-18
 -1      3007 9.52287E-05-2.84554E-05-2.86165E-05-1.59530E-07-1.04721E-19 2.43373E-18
 -1      3008 9.52313E-05-2.84787E-05-2.86089E-05-1.29274E-07-2.35984E-19 2.53891E-18
 -1      3009 9.51813E-05-2.84031E-05-2.86186E-05-1.71002E-07 7.04511E-19 2.20573E-18
 -1      3010 9.52425E-05-2.85002E-05-2.86033E-05-1.07654E-07-2.35550E-20 2.02052E-18
 -1      3011 9.52420E-05-2.85143E-05-2.85980E-05-8.72423E-08 6.22630E-20 8.75721E-19
 -1      3012 9.52142E-05-2.84667E-05-2.86058E-05-1.19122E-07-4.38089E-19 1.32496E-18
 -1      3013 9.52473E-05-2.85274E-05-2.85938E-05-7.20352E-08 8.38361E-19 9.38715E-19
 -1      3014 9.52456E-05-2.85360E-05-2.85901E-05-5.82308E-08 1.67243E-18 6.71405E-19
 -1      3015 9.52307E-05-2.85059E-05-2.85963E-05-8.20833E-08 3.62090E-19 2.08560E-18
 -1      3016 9.52478E-05-2.85440E-05-2.85871E-05-4.75523E-08 1.08430E-18 7.59094E-19
 -1      3017 9.52458E-05-2.85492E-05-2.85844E-05-3.81905E-08 3.91567E-19 1.05278E-18
 -1      3018 9.52384E-05-2.85302E-05-2.85892E-05-5.57633E-08 1.64266E-18 5.83022E-19
 -1      3019 9.52464E-05-2.85541E-05-2.85822E-05-3.07060E-08-1.46747E-18 7.62590E-19
 -1      3020 9.52447E-05-2.85574E-05-2.85804E-05-2.43378E-08-2.11745E-18 3.73266E-19
 -1      3021 9.52413E-05-2.85452E-05-2.85841E-05-3.71277E-08-7.39846E-19-2.13050E-19
 -1      3022 9.52446E-05-2.85605E-05-2.85787E-05-1.88739E-08-1.57533E-18 1.08801E-18
 -1      3023 9.52431E-05-2.85626E-05-2.85774E-05-1.44029E-08-2.50770E-19 2.43134E-18
 -1      3024 9.52420E-05-2.85549E-05-2.85802E-05-2.37459E-08-8.51881E-19 8.12310E-19
 -1      3025 9.52427E-05-2.85645E-05-2.85763E-05-1.08571E-08 6.47623E-19 1.98691E-18
 -1      3026 9.52416E-05-2.85658E-05-2.85754E-05-7.99963E-09 1.21667E-18 2.17568E-18
 -1      3027 9.52417E-05-2.85610E-05-2.85775E-05-1.43974E-08 8.36882E-19 1.28935E-18
 -1      3028 9.52412E-05-2.85670E-05-2.85746E-05-5.56178E-09 2.39423E-19 2.67299E-18
 -1      3029 9.52404E-05-2.85678E-05-2.85740E-05-3.66252E-09-8.98133E-19 1.97188E-18
 -1      3030 9.52409E-05-2.85647E-05-2.85755E-05-8.12144E-09 9.70989E-19 8.14368E-19
 -1      3031 9.52399E-05-2.85686E-05-2.85734E-05-2.02784E-09-9.57403E-19 1.36827E-18
 -1      3032 9.52394E-05-2.85692E-05-2.85729E-05-8.01690E-10 3.44326E-19 1.20533E-18
 -1      3033 9.52401E-05-2.85672E-05-2.85741E-05-3.83642E-09-1.27611E-18 2.05248E-18
 -1      3034 9.52390E-05-2.85698E-05-2.85725E-05 2.57341E-10 2.11087E-18 1.38129E-18
 -1      3035 9.52387E-05-2.85702E-05-2.85722E-05 1.00153E-09 3.36788E-18 1.46044E-18
 -1      3036 9.52394E-05-2.85689E-05-2.85731E-05-9.97725E-10 1.55621E-18 3.00895E-18
 -1      3037 9.52384E-05-2.85706E-05-2.85719E-05 1.61528E-09 3.04143E-18 1.84800E-18
 -1      3038 9.52382E-05-2.85710E-05-2.85717E-05 2.00149E-09 1.51334E-18 1.96313E-18
 -1      3039 9.52389E-05-2.85702E-05-2.85723E-05 8.07106E-10 3.01357E-18 2.57363E-18
 -1      3040 9.69280E-05-2.93347E-05-2.89811E-05 9.13273E-07 6.28823E-19-2.28226E-19
 -1      3041 9.68065E-05-2.87383E-05-2.91490E-05 1.05022E-06 7.33425E-19-1.26291E-19
 -1      3042 9.64579E-05-2.79987E-05-2.93543E-05 1.34817E-06 7.55694E-19-1.20850E-19
 -1      3043 9.63512E-05-2.72545E-05-2.95892E-05 1.83590E-06 7.13473E-19-1.88029E-19
 -1      3044 9.70435E-05-2.83042E-05-2.94692E-05 1.17839E-06 7.19635E-19-3.41930E-19
 -1      3045 9.90059E-05-3.23682E-05-2.85718E-05 4.51345E-06-1.42451E-19 3.60924E-19
 -1      3046 9.90053E-05-3.23578E-05-2.85520E-05 3.75722E-06-1.78491E-19 2.61462E-19
 -1      3047 9.86044E-05-3.21015E-05-2.85155E-05 2.97904E-06-1.67406E-19 1.50346E-19
 -1      3048 9.84826E-05-3.18453E-05-2.85419E-05 2.34855E-06 2.38461E-20 2.16030E-19
 -1      3049 1.00313E-04-3.31150E-05-2.88035E-05 3.14928E-06-2.85882E-19 3.39598E-19
 -1      3050 9.84659E-05-3.06943E-05-2.90394E-05 7.54273E-06-1.53222E-19 4.84658E-19
 -1      3051 9.89429E-05-3.14833E-05-2.89237E-05 7.01489E-06-4.26458E-19 8.16284E-19
 -1      3052 9.72381E-05-2.85304E-05-2.94242E-05 8.12115E-06 2.85040E-19 6.38501E-21
 -1      3053 9.79641E-05-2.97185E-05-2.92752E-05 8.05384E-06 1.05110E-19 3.31047E-19
 -1      3054 1.00570E-04-3.10898E-05-2.97546E-05 8.12675E-06 9.03087E-20 3.34520E-19
 -1      3055 9.55231E-05-2.58079E-05-2.98422E-05 7.37313E-06 2.60250E-19 3.65103E-19
 -1      3056 9.63599E-05-2.71739E-05-2.96866E-05 7.97175E-06 2.37864E-19 1.25417E-19
 -1      3057 9.91744E-05-2.83902E-05-3.03152E-05 8.60465E-06 1.12856E-19 3.93329E-19
 -1      3058 9.38128E-05-2.32485E-05-3.02044E-05 5.03945E-06 8.27222E-20 7.02937E-19
 -1      3059 9.45188E-05-2.44057E-05-3.00795E-05 6.34640E-06 1.73206E-19 6.27012E-19
 -1      3060 9.72456E-05-2.51784E-05-3.08786E-05 7.48880E-06 3.17493E-21 5.67434E-19
 -1      3061 9.27557E-05-2.17308E-05-3.04166E-05 1.39702E-06 2.96230E-20 7.10984E-19
 -1      3062 9.30819E-05-2.22762E-05-3.03570E-05 3.20320E-06 1.96631E-19 5.10431E-19
 -1      3063 9.54555E-05-2.24074E-05-3.13189E-05 4.57321E-06 7.33492E-20 1.19565E-18
 -1      3064 9.28149E-05-2.18454E-05-3.04182E-05-2.72326E-06 7.13221E-19 4.25900E-19
 -1      3065 9.26334E-05-2.15709E-05-3.04412E-05-8.36645E-07 2.47826E-19 4.32770E-19
 -1      3066 9.45721E-05-2.10848E-05-3.15181E-05 3.48571E-07 1.77549E-19 6.91197E-19
 -1      3067 9.39733E-05-2.35388E-05-3.02117E-05-6.26211E-06 2.14242E-19 3.57804E-19
 -1      3068 9.33549E-05-2.25593E-05-3.03083E-05-4.74979E-06 5.88161E-19 4.35241E-19
 -1      3069 9.50070E-05-2.17356E-05-3.14191E-05-4.08363E-06 6.26908E-19 3.83396E-19
 -1      3070 9.57284E-05-2.61369E-05-2.98602E-05-8.43978E-06-2.41506E-19 5.33172E-19
 -1      3071 9.49007E-05-2.48180E-05-3.00001E-05-7.58415E-06 1.07594E-19 7.23180E-19
 -1      3072 9.65275E-05-2.40706E-05-3.10525E-05-7.51753E-06-5.12494E-20 1.20615E-18
 -1      3073 9.74219E-05-2.87636E-05-2.94552E-05-9.05247E-06-6.93474E-19 7.20525E-19
 -1      3074 9.66398E-05-2.75114E-05-2.96019E-05-8.88524E-06-4.63252E-19 8.35449E-19
 -1      3075 9.84187E-05-2.71685E-05-3.05186E-05-9.25289E-06-5.14278E-19 1.09843E-18
 -1      3076 9.85722E-05-3.07575E-05-2.90805E-05-8.40187E-06-6.67346E-19 5.58352E-19
 -1      3077 9.80105E-05-2.98463E-05-2.92048E-05-8.76181E-06-6.40037E-19 2.86296E-19
 -1      3078 9.99459E-05-3.00249E-05-2.99427E-05-9.29847E-06-5.47674E-19 1.19933E-18
 -1      3079 9.90258E-05-3.18641E-05-2.87867E-05-7.02301E-06-8.68323E-19 7.94870E-19
 -1      3080 9.87369E-05-3.13754E-05-2.88741E-05-7.67617E-06-4.29334E-19 6.85784E-19
 -1      3081 1.00695E-04-3.19897E-05-2.94264E-05-8.16306E-06-7.37454E-19 1.19131E-18
 -1      3082 9.88929E-05-3.21687E-05-2.85894E-05-5.40847E-06 2.58725E-19 4.12383E-19
 -1      3083 9.88383E-05-3.20439E-05-2.86385E-05-6.15115E-06-5.10045E-19 7.12705E-19
 -1      3084 1.00652E-04-3.29039E-05-2.90254E-05-6.48406E-06-2.48269E-19 1.28127E-18
 -1      3085 9.83928E-05-3.19151E-05-2.84786E-05-3.89113E-06 3.86669E-19 4.02430E-19
 -1      3086 9.84926E-05-3.20345E-05-2.84963E-05-4.58647E-06 4.39751E-19 4.39893E-19
 -1      3087 1.00040E-04-3.29546E-05-2.87506E-05-4.75486E-06 3.89477E-19 5.58229E-19
 -1      3088 9.77424E-05-3.13680E-05-2.84330E-05-2.63483E-06 1.51936E-19 9.89467E-20
 -1      3089 9.79167E-05-3.16115E-05-2.84293E-05-3.21499E-06 5.71767E-19 1.93518E-19
 -1      3090 9.91455E-05-3.24585E-05-2.85856E-05-3.25863E-06 2.48341E-19 8.63190E-19
 -1      3091 9.70966E-05-3.07331E-05-2.84294E-05-1.68064E-06 3.94082E-20-9.79638E-20
 -1      3092 9.72864E-05-3.10107E-05-2.84140E-05-2.12721E-06 1.47528E-19-3.03451E-20
 -1      3093 9.82035E-05-3.17157E-05-2.85028E-05-2.09727E-06 4.11170E-19 9.14275E-19
 -1      3094 9.65403E-05-3.01376E-05-2.84485E-05-1.00222E-06 1.19470E-19 5.75374E-19
 -1      3095 9.67113E-05-3.03950E-05-2.84286E-05-1.32490E-06 1.93423E-20 7.58103E-20
 -1      3096 9.73592E-05-3.09393E-05-2.84739E-05-1.26308E-06-2.55111E-19 7.00899E-19
 -1      3097 9.61042E-05-2.96421E-05-2.84763E-05-5.46397E-07 2.19564E-19 3.25134E-19
 -1      3098 9.62418E-05-2.98545E-05-2.84567E-05-7.67048E-07 3.34103E-19 5.34834E-19
 -1      3099 9.66766E-05-3.02496E-05-2.84758E-05-6.99729E-07-7.00997E-20 1.18853E-18
 -1      3100 9.57857E-05-2.92628E-05-2.85046E-05-2.56543E-07 7.34658E-19 4.45579E-19
 -1      3101 9.58880E-05-2.94241E-05-2.84877E-05-3.99496E-07 5.66118E-19 8.52754E-19
 -1      3102 9.61650E-05-2.96957E-05-2.84924E-05-3.39953E-07 1.60969E-19 1.17268E-18
 -1      3103 9.55663E-05-2.89907E-05-2.85289E-05-8.32618E-08-2.18102E-19 6.89549E-19
 -1      3104 9.56378E-05-2.91056E-05-2.85158E-05-1.70504E-07 1.81537E-19 3.32977E-19
 -1      3105 9.58043E-05-2.92825E-05-2.85134E-05-1.23321E-07 4.15631E-19 6.51584E-19
 -1      3106 9.54230E-05-2.88065E-05-2.85477E-05 1.22205E-08 1.13245E-19 6.93661E-19
 -1      3107 9.54704E-05-2.88838E-05-2.85383E-05-3.70941E-08-2.08290E-19 7.44690E-19
 -1      3108 9.55635E-05-2.89924E-05-2.85332E-05-2.14393E-09-1.81823E-19 1.17136E-18
 -1      3109 9.53342E-05-2.86886E-05-2.85611E-05 5.82974E-08 5.73811E-19 4.69005E-20
 -1      3110 9.53640E-05-2.87377E-05-2.85548E-05 3.35370E-08 5.78970E-19 2.88311E-19
 -1      3111 9.54108E-05-2.87998E-05-2.85493E-05 5.83722E-08 3.37363E-19 9.25923E-19
 -1      3112 9.52820E-05-2.86176E-05-2.85697E-05 7.46926E-08-7.13663E-19-1.72305E-19
 -1      3113 9.53000E-05-2.86469E-05-2.85659E-05 6.49740E-08 1.36716E-20-2.97223E-19
 -1      3114 9.53192E-05-2.86788E-05-2.85612E-05 8.22402E-08 4.39074E-19-4.83933E-20
 -1      3115 9.52533E-05-2.85780E-05-2.85748E-05 7.45047E-08 6.21724E-19-5.00798E-19
 -1      3116 9.52636E-05-2.85941E-05-2.85728E-05 7.33776E-08-1.31800E-19-5.31234E-19
 -1      3117 9.52677E-05-2.86075E-05-2.85693E-05 8.53220E-08-1.49139E-19-1.36662E-18
 -1      3118 9.52389E-05-2.85582E-05-2.85773E-05 6.60570E-08 1.43989E-18-1.20867E-18
 -1      3119 9.52445E-05-2.85661E-05-2.85764E-05 6.93460E-08 1.19296E-18-6.20890E-19
 -1      3120 9.52411E-05-2.85689E-05-2.85741E-05 7.76869E-08 1.01591E-18-1.90738E-18
 -1      3121 9.52327E-05-2.85504E-05-2.85781E-05 5.43819E-08 5.29085E-19-5.23093E-19
 -1      3122 9.52355E-05-2.85534E-05-2.85780E-05 5.95187E-08 1.00738E-18-5.36303E-19
 -1      3123 9.52292E-05-2.85507E-05-2.85766E-05 6.54596E-08 8.52859E-19-1.39389E-18
 -1      3124 9.52308E-05-2.85492E-05-2.85779E-05 4.23317E-08 7.41444E-19-6.79151E-19
 -1      3125 9.52321E-05-2.85494E-05-2.85782E-05 4.78343E-08 7.57020E-19-5.90664E-19
 -1      3126 9.52253E-05-2.85445E-05-2.85776E-05 5.21707E-08 7.13033E-19-8.25551E-19
 -1      3127 9.52311E-05-2.85512E-05-2.85771E-05 3.13703E-08 5.43560E-19-3.60591E-19
 -1      3128 9.52315E-05-2.85502E-05-2.85776E-05 3.64597E-08 6.80270E-19-1.86674E-19
 -1      3129 9.52256E-05-2.85447E-05-2.85775E-05 3.96988E-08 6.54037E-19 2.80558E-19
 -1      3130 9.52321E-05-2.85546E-05-2.85761E-05 2.21171E-08-7.72075E-20-1.49314E-18
 -1      3131 9.52322E-05-2.85531E-05-2.85767E-05 2.64480E-08 4.46516E-20-1.01610E-18
 -1      3132 9.52275E-05-2.85480E-05-2.85769E-05 2.89084E-08 7.44340E-19-1.07283E-18
 -1      3133 9.52334E-05-2.85583E-05-2.85751E-05 1.47072E-08 2.18459E-19-5.23326E-19
 -1      3134 9.52333E-05-2.85566E-05-2.85757E-05 1.81866E-08-3.21340E-19-9.05848E-19
 -1      3135 9.52298E-05-2.85524E-05-2.85760E-05 2.00705E-08-1.08478E-18-2.11328E-18
 -1      3136 9.52345E-05-2.85616E-05-2.85742E-05 9.02210E-09 3.02248E-19-2.28412E-19
 -1      3137 9.52344E-05-2.85601E-05-2.85747E-05 1.16910E-08 4.45245E-19 7.36082E-19
 -1      3138 9.52320E-05-2.85567E-05-2.85751E-05 1.31321E-08-4.53947E-19-7.85590E-19
 -1      3139 9.52355E-05-2.85644E-05-2.85734E-05 4.83551E-09-7.39823E-20-1.35285E-18
 -1      3140 9.52353E-05-2.85631E-05-2.85738E-05 6.79304E-09 1.19137E-19-1.03402E-18
 -1      3141 9.52338E-05-2.85606E-05-2.85742E-05 7.88371E-09 6.79945E-19-1.91630E-19
 -1      3142 9.52362E-05-2.85666E-05-2.85727E-05 1.90610E-09 5.67307E-19-1.38809E-18
 -1      3143 9.52360E-05-2.85656E-05-2.85730E-05 3.23439E-09-2.45819E-19-1.68899E-18
 -1      3144 9.52351E-05-2.85638E-05-2.85734E-05 4.05542E-09-1.64233E-19-1.96781E-18
 -1      3145 3.66060E-05-2.80289E-06-1.38521E-05 8.64803E-06 1.26835E-18-3.09845E-18
 -1      3146 5.98701E-05-5.38327E-06-2.32865E-05-3.17338E-06-1.49700E-19-5.39189E-20
 -1      3147 6.60293E-05-8.01666E-06-2.49189E-05-2.75930E-06-1.04273E-18-3.29747E-19
 -1      3148 9.52386E-05-2.85705E-05-2.85720E-05 7.40905E-10 1.14654E-18 2.39244E-18
 -1      3149 9.52385E-05-2.85703E-05-2.85721E-05 3.36722E-10 5.34881E-19-1.08287E-18
 -1      3150 9.52384E-05-2.85693E-05-2.85725E-05-2.70913E-10 8.44248E-19 3.40917E-20
 -1      3151 9.52378E-05-2.85692E-05-2.85723E-05-6.86388E-10 1.35138E-18-4.25923E-19
 -1      3152 9.52376E-05-2.85689E-05-2.85723E-05-9.05599E-10 1.87090E-18-1.31827E-19
 -1      3153 9.52379E-05-2.85684E-05-2.85726E-05-9.04055E-10 4.57352E-19-6.78684E-19
 -1      3154 9.52368E-05-2.85690E-05-2.85720E-05-9.63359E-10-7.41911E-19 8.85134E-19
 -1      3155 9.52369E-05-2.85692E-05-2.85719E-05-9.53046E-10-5.70868E-19-8.66567E-19
 -1      3156 9.52367E-05-2.85685E-05-2.85721E-05-4.41042E-10-9.75819E-19-6.02486E-19
 -1      3157 1.39066E-04-4.47143E-05-4.10206E-05-5.13175E-06-3.37119E-19-1.69740E-18
 -1      3158 1.38860E-04-5.17273E-05-3.71653E-05 3.40107E-06-8.49468E-19-1.74335E-18
 -1      3159 1.27379E-04-1.90724E-05-4.66650E-05 1.26423E-05 8.57515E-19 5.01311E-19
 -1      3160 1.24666E-04-1.06050E-05-4.94941E-05 8.83882E-06 1.49925E-18 2.66286E-19
 -1      3161 9.52369E-05-2.85683E-05-2.85723E-05-1.10677E-09-4.66060E-19-4.53107E-18
 -1      3162 9.52368E-05-2.85683E-05-2.85722E-05-1.14476E-09-1.45199E-18-3.44837E-18
 -1      3163 5.01605E-05-1.96903E-05-1.25143E-05-4.00608E-05-8.17175E-19-4.43475E-18
 -1      3164 6.45956E-05-2.43001E-05-1.67354E-05-4.02128E-05-1.13921E-18-3.49020E-18
 -1      3165 4.72449E-05-1.27287E-05-1.43239E-05-3.15745E-05-5.94194E-19-4.64365E-18
 -1      3166 9.55448E-05-2.48621E-05-3.03198E-05 4.95658E-06 9.67682E-19 4.76322E-19
 -1      3167 4.64998E-05-2.18067E-06-1.86936E-05-1.70357E-06-3.90714E-19 8.14210E-19
 -1      3168 9.50631E-05-2.33666E-05-3.07117E-05 5.01651E-06 1.07275E-18 8.00487E-20
 -1      3169 9.90286E-05-3.19684E-05-2.87468E-05 6.16491E-06-4.18987E-19 8.58939E-19
 -1      3170 9.92372E-05-3.23191E-05-2.86779E-05 5.42026E-06-1.84584E-19 5.72142E-19
 -1      3171 1.00973E-04-3.33661E-05-2.89696E-05 4.84349E-06-3.54538E-19 6.19232E-19
 -1      3172 1.01145E-04-3.27660E-05-2.92900E-05 6.66046E-06-3.49470E-19 6.45732E-19
 -1      3173 7.24875E-05-1.11527E-05-2.63621E-05-3.30888E-06-8.16732E-19-1.40740E-19
 -1      3174 7.70726E-05-1.37863E-05-2.71892E-05-3.11811E-06-1.07210E-18 8.68000E-19
 -1      3175 7.80585E-05-1.45991E-05-2.70200E-05 5.30781E-07-1.34809E-18 6.97955E-19
 -1      3176 8.71196E-05-3.63758E-05-2.13411E-05-4.06430E-05-1.82541E-18-1.95548E-18
 -1      3177 1.01208E-04-4.56645E-05-2.38578E-05-3.98525E-05-2.01435E-18-1.22881E-18
 -1      3178 7.58639E-05-2.83169E-05-2.05685E-05 3.96128E-05-1.93769E-18-1.34699E-18
 -1      3179 6.11798E-05-1.73770E-05-1.81633E-05 3.38156E-05-1.82369E-18-6.67356E-19
 -1      3180 4.82483E-05-3.08453E-06-1.90317E-05-2.37913E-06 1.02386E-18-2.69685E-18
 -1      3181 4.37885E-05-3.01442E-06-1.69226E-05 3.35732E-06 1.32021E-18-3.03439E-18
 -1      3182 5.94169E-05-2.01531E-05-1.59872E-05-3.47234E-05-7.80753E-19-1.42302E-19
 -1      3183 9.54192E-05-2.42985E-05-3.04654E-05 3.88556E-06 9.51586E-19-4.26602E-20
 -1      3184 9.52373E-05-2.85686E-05-2.85723E-05-1.01223E-09 1.98733E-18 1.52110E-18
 -1      3185 9.52371E-05-2.85685E-05-2.85723E-05-1.12824E-09 1.03336E-18-8.30362E-19
 -1      3186 9.52367E-05-2.85672E-05-2.85726E-05-1.20859E-09 3.20874E-19-1.55079E-18
 -1      3187 9.52372E-05-2.85676E-05-2.85727E-05-1.20694E-09 2.01889E-18 5.25500E-19
 -1      3188 9.42012E-05-2.24053E-05-3.07552E-05-3.33783E-06-3.88310E-19-1.31659E-18
 -1      3189 9.41644E-05-2.32118E-05-3.04277E-05-2.01216E-06-4.06812E-19-1.26703E-18
 -1      3190 9.37682E-05-2.27102E-05-3.04394E-05-1.89334E-06-3.04264E-19-1.37872E-18
 -1      3191 1.12560E-04-5.12923E-05-2.59130E-05-3.54594E-05-2.08860E-18-6.57688E-19
 -1      3192 1.23341E-04-5.63205E-05-2.90678E-05-2.91265E-05-1.90598E-18-2.40630E-19
 -1      3193 1.07792E-04-4.65704E-05-2.59470E-05-3.27854E-05-1.89222E-18-9.62494E-19
 -1      3194 1.34244E-04-5.64701E-05-3.37437E-05 1.45481E-05-1.92816E-18-3.04667E-19
 -1      3195 1.24732E-04-5.45744E-05-2.99045E-05 2.44479E-05-2.57232E-18-3.58844E-19
 -1      3196 9.19810E-05-1.73175E-05-3.20233E-05-6.48957E-06-3.27748E-19-1.86876E-18
 -1      3197 9.27308E-05-1.83630E-05-3.19018E-05-6.92061E-06-5.51615E-19-1.76704E-18
 -1      3198 9.34075E-05-1.98065E-05-3.15212E-05-5.84419E-06-4.73129E-19-1.60046E-18
 -1      3199 9.25567E-05-1.85478E-05-3.16849E-05-5.27301E-06-2.24138E-19-1.87680E-18
 -1      3200 1.31266E-04-2.52923E-05-4.59206E-05-1.29788E-05 1.13958E-18-1.88960E-18
 -1      3201 1.36627E-04-3.48826E-05-4.36926E-05-1.11030E-05 2.21023E-19-1.80889E-18
 -1      3202 1.36729E-04-4.40092E-05-3.98092E-05 6.44143E-06-5.40301E-19 8.73185E-19
 -1      3203 1.32698E-04-3.24429E-05-4.33932E-05 1.24632E-05 1.36849E-19 1.14183E-18
 -1      3204 9.24469E-05-1.85116E-05-3.16966E-05 1.10629E-06 9.56544E-19-1.24867E-18
 -1      3205 9.21815E-05-1.81814E-05-3.17287E-05 2.98062E-07 7.44527E-19-1.36691E-18
 -1      3206 1.10250E-04-4.89054E-05-2.64461E-05 3.43931E-05-2.28154E-18-1.11136E-18
 -1      3207 9.41342E-05-3.93644E-05-2.29456E-05 3.94311E-05-1.87213E-18-1.64502E-18
 -1      3208 1.33678E-04-5.76882E-05-3.22602E-05-1.84772E-05-1.27382E-18 7.53753E-19
 -1      3209 1.37886E-04-5.40715E-05-3.62869E-05-5.48305E-06-5.73706E-19 1.28066E-18
 -1      3210 4.97316E-05-3.90498E-06-1.92011E-05 6.77888E-06-1.13563E-18 5.93982E-19
 -1      3211 6.23948E-05-1.96676E-05-1.78951E-05-3.49179E-05-1.08412E-18-3.50560E-18
 -1      3212 7.32893E-05-2.80070E-05-1.92883E-05-4.01354E-05-1.44250E-18-2.64703E-18
 -1      3213 9.74522E-05-3.04598E-05-2.87235E-05 1.08215E-06 3.69230E-19-1.52490E-19
 -1      3214 9.72985E-05-2.99579E-05-2.88387E-05 9.18137E-07 5.88157E-19-1.34227E-19
 -1      3215 9.77654E-05-2.98533E-05-2.91171E-05 8.19250E-07 5.90004E-19-1.13638E-19
 -1      3216 1.19632E-04-9.89419E-06-4.73726E-05 6.09856E-06 1.35737E-18-1.60897E-19
 -1      3217 9.52367E-05-2.85684E-05-2.85721E-05-9.93174E-10-2.55199E-18-3.59934E-19
 -1      3218 9.52367E-05-2.85686E-05-2.85721E-05-9.97919E-10-1.18561E-18 6.23199E-19
 -1      3219 9.52365E-05-2.85676E-05-2.85724E-05-5.93726E-10-1.26580E-18-4.11974E-19
 -1      3220 5.38142E-05-6.14203E-06-2.00822E-05-9.44324E-06 4.45625E-19-2.63787E-18
 -1      3221 6.13461E-05-1.39525E-05-1.99568E-05 2.64560E-05-1.29392E-18-5.38448E-19
 -1      3222 9.37638E-05-2.10263E-05-3.11939E-05-4.74873E-06-3.70483E-19-1.50803E-18
 -1      3223 1.33475E-04-3.93957E-05-4.04461E-05-8.83205E-06-4.27249E-19-1.95191E-18
 -1      3224 9.52381E-05-2.85714E-05-2.85714E-05 2.27768E-09 9.42268E-19 1.88724E-18
 -1      3225 6.82043E-05-9.42100E-06-2.49079E-05 2.87132E-06-8.12548E-19 5.23076E-20
 -1      3226 9.94435E-05-3.23106E-05-2.87812E-05 1.84489E-06 1.32817E-19 3.82863E-19
 -1      3227 9.80356E-05-3.14069E-05-2.85686E-05 1.79417E-06 3.22424E-19 8.66118E-20
 -1      3228 9.78713E-05-3.10014E-05-2.86386E-05 1.37166E-06 2.58386E-19-3.16869E-20
 -1      3229 9.52386E-05-2.85710E-05-2.85718E-05 1.38329E-09 1.89455E-18 2.73603E-18
 -1      3230 9.52387E-05-2.85702E-05-2.85722E-05 7.74228E-10 1.89310E-18 3.41026E-18
 -1      3231 9.52365E-05-2.85679E-05-2.85722E-05 1.49067E-10-5.87162E-19-9.31721E-19
 -1      3232 9.52363E-05-2.85671E-05-2.85725E-05 1.01460E-09 4.26160E-19-1.19916E-18
 -1      3233 9.52358E-05-2.85659E-05-2.85728E-05 1.57006E-09-4.29796E-19-9.62949E-19
 -1      3234 9.52363E-05-2.85673E-05-2.85724E-05 3.83462E-11-7.96595E-19-5.68627E-19
 -1      3235 1.33277E-04-5.20114E-05-3.48375E-05 6.21080E-06-1.33898E-18-8.88538E-19
 -1      3236 9.34087E-05-2.06988E-05-3.11690E-05-4.18187E-06-3.26869E-19-1.61247E-18
 -1      3237 9.52367E-05-2.85683E-05-2.85722E-05-1.07384E-09-1.89502E-18-1.29368E-18
 -1      3238 9.52367E-05-2.85683E-05-2.85722E-05-1.07514E-09-2.61492E-18 3.61373E-20
 -1      3239 9.52363E-05-2.85671E-05-2.85725E-05-8.12906E-10-2.53615E-18-5.88845E-19
 -1      3240 9.52364E-05-2.85670E-05-2.85726E-05-1.04085E-09-1.13752E-18-1.55691E-18
 -1      3241 9.59491E-05-2.62908E-05-2.98684E-05 2.45533E-06 8.22989E-19-6.27902E-20
 -1      3242 9.57793E-05-2.53068E-05-3.01951E-05 3.34587E-06 9.01590E-19-5.09570E-20
 -1      3243 1.27012E-04-2.63505E-05-4.34077E-05 1.38599E-05 3.12105E-19 6.58356E-19
 -1      3244 1.19615E-04-2.02716E-05-4.27197E-05 1.26316E-05 4.27593E-19 2.97600E-19
 -1      3245 1.24879E-04-3.19158E-05-3.99489E-05 1.20854E-05-3.95988E-20 6.53261E-19
 -1      3246 9.54950E-05-2.42707E-05-3.05144E-05 3.38176E-06 9.76988E-19-1.19334E-19
 -1      3247 9.20152E-05-1.84061E-05-3.15559E-05-3.67160E-06 2.33348E-21-1.44686E-18
 -1      3248 9.24213E-05-1.90606E-05-3.14681E-05-4.09856E-06-1.73212E-19-1.74811E-18
 -1      3249 4.88508E-05-9.40693E-06-1.63058E-05-2.39199E-05-1.86294E-19-3.88513E-18
 -1      3250 5.31651E-05-1.23796E-05-1.72090E-05-2.77059E-05-3.98264E-19-4.13521E-18
 -1      3251 1.18044E-04-5.14969E-05-2.83917E-05 2.71047E-05-2.52105E-18-2.64857E-19
 -1      3252 1.09201E-04-4.54553E-05-2.73233E-05 2.75404E-05-2.13714E-18-5.58195E-19
 -1      3253 1.21463E-04-5.08120E-05-3.02655E-05 1.82824E-05-2.61022E-18-1.24080E-19
 -1      3254 9.30854E-05-1.94444E-05-3.15754E-05 2.62811E-06 1.12096E-18-8.81805E-19
 -1      3255 9.27569E-05-1.89519E-05-3.16415E-05 1.82910E-06 9.64848E-19-1.08506E-18
 -1      3256 9.35789E-05-2.03637E-05-3.13658E-05 1.04019E-06 7.83353E-19-1.12070E-18
 -1      3257 8.72989E-05-3.24518E-05-2.32480E-05 3.44942E-05-1.72583E-18-9.62282E-19
 -1      3258 8.47245E-05-3.22520E-05-2.21772E-05-3.63025E-05-1.41095E-18-1.95186E-18
 -1      3259 9.48121E-05-2.25854E-05-3.09441E-05 3.43875E-06 9.90315E-19-5.45725E-19
 -1      3260 9.38218E-05-2.06919E-05-3.13633E-05 3.99801E-06 1.13217E-18-7.73873E-19
 -1      3261 9.34377E-05-2.00122E-05-3.14752E-05 3.29504E-06 1.12672E-18-9.27832E-19
 -1      3262 6.24999E-05-1.60567E-05-1.95258E-05-2.81484E-05-8.17731E-19-3.30449E-18
 -1      3263 1.26523E-04-5.47093E-05-3.06519E-05-2.03127E-05-1.34628E-18 8.17916E-20
 -1      3264 9.16115E-05-1.77086E-05-3.16795E-05-2.84478E-06 3.10834E-19-1.32529E-18
 -1      3265 9.17659E-05-1.80178E-05-3.16304E-05-3.39647E-06 1.19592E-19-1.42174E-18
 -1      3266 9.25464E-05-1.95267E-05-3.12774E-05-3.07757E-06-5.19008E-20-1.35876E-18
 -1      3267 1.27994E-04-2.09742E-05-4.61767E-05-1.32318E-05 1.57432E-18-2.03060E-18
 -1      3268 1.26221E-04-2.61222E-05-4.30864E-05-1.28739E-05 8.37716E-19-2.10595E-18
 -1      3269 1.23212E-04-1.63896E-05-4.61167E-05-1.19727E-05 1.43890E-18-1.96649E-18
 -1      3270 9.19357E-05-1.78726E-05-3.17482E-05-3.93693E-07 7.08923E-19-1.38834E-18
 -1      3271 9.17621E-05-1.77149E-05-3.17523E-05-1.14876E-06 5.86333E-19-1.37742E-18
 -1      3272 9.30091E-05-1.96147E-05-3.14414E-05-3.09885E-07 6.26236E-19-1.31262E-18
 -1      3273 9.52384E-05-2.85711E-05-2.85717E-05 1.77291E-09 1.87122E-18 3.62012E-18
 -1      3274 1.36289E-04-4.94088E-05-3.73264E-05 2.05303E-06-5.85469E-19 6.99332E-19
 -1      3275 1.29972E-04-4.22145E-05-3.76354E-05 7.79633E-06-3.90615E-19 5.60683E-19
 -1      3276 1.31484E-04-5.09634E-05-3.45934E-05-3.33669E-06-3.92037E-19 4.73910E-19
 -1      3277 4.72946E-05-6.19631E-06-1.71793E-05-1.66295E-05 3.40904E-19-3.47220E-18
 -1      3278 9.63048E-05-2.64116E-05-2.99583E-05 2.16074E-06 8.28507E-19-2.26659E-19
 -1      3279 9.35084E-05-2.18765E-05-3.07070E-05-2.59511E-06-1.22010E-19-1.65542E-18
 -1      3280 9.34542E-05-2.25787E-05-3.04000E-05-1.70222E-06-7.85776E-20-1.44542E-18
 -1      3281 9.22915E-05-2.32336E-05-2.95939E-05-4.96352E-07-2.16529E-19-1.15566E-18
 -1      3282 9.13157E-05-2.29190E-05-2.93552E-05-2.36814E-07-2.11391E-19-1.09087E-18
 -1      3283 9.02866E-05-2.24377E-05-2.90778E-05-4.98648E-07-2.71915E-19-9.69267E-19
 -1      3284 8.86964E-05-2.16465E-05-2.87970E-05-6.54335E-07-1.29378E-19-1.04991E-18
 -1      3285 9.10911E-05-2.27588E-05-2.92485E-05-1.60309E-06-2.30059E-19-1.09816E-18
 -1      3286 8.71381E-05-2.07587E-05-2.84459E-05-1.48387E-06-5.75494E-20-1.27206E-18
 -1      3287 8.47110E-05-1.95190E-05-2.80305E-05-2.23716E-06-2.91004E-19-1.31261E-18
 -1      3288 8.86082E-05-2.17264E-05-2.86130E-05-2.91849E-06-2.54189E-19-1.06299E-18
 -1      3289 8.25699E-05-1.83480E-05-2.75109E-05-3.88658E-06-4.16069E-19-1.32735E-18
 -1      3290 7.90071E-05-1.67644E-05-2.68032E-05-5.55693E-06-1.61502E-19-1.32441E-18
 -1      3291 8.50632E-05-2.01610E-05-2.77459E-05-5.75521E-06-3.31788E-19-1.24894E-18
 -1      3292 7.63156E-05-1.56169E-05-2.59672E-05-8.40103E-06-4.03058E-19-1.46388E-18
 -1      3293 7.13667E-05-1.39992E-05-2.47008E-05-1.14823E-05-3.77538E-19-1.92961E-18
 -1      3294 8.04548E-05-1.85706E-05-2.64212E-05-1.07817E-05-4.61441E-19-1.58375E-18
 -1      3295 7.64848E-05-1.49584E-05-2.64920E-05 4.85253E-06-7.40525E-20 3.62957E-19
 -1      3296 8.03880E-05-1.69831E-05-2.71844E-05 3.45779E-06-7.16415E-19 9.68774E-19
 -1      3297 8.73816E-05-2.15721E-05-2.82610E-05 3.76221E-07-1.02865E-18 2.16775E-18
 -1      3298 8.90669E-05-2.27995E-05-2.84148E-05 1.45547E-07-1.11668E-18 2.00120E-18
 -1      3299 9.03238E-05-2.38135E-05-2.85380E-05-2.92958E-07-9.63890E-19 1.95592E-18
 -1      3300 9.13866E-05-2.46861E-05-2.85982E-05-3.21697E-07-8.11410E-19 1.48158E-18
 -1      3301 8.96818E-05-2.34099E-05-2.83585E-05 1.16350E-06-8.15933E-19 3.37665E-19
 -1      3302 9.22234E-05-2.54114E-05-2.86527E-05-5.23569E-07-6.15381E-19 1.89352E-18
 -1      3303 9.28793E-05-2.60089E-05-2.86683E-05-4.67790E-07 3.24459E-19 1.29244E-18
 -1      3304 9.16905E-05-2.50236E-05-2.85426E-05 3.49634E-07-6.10257E-19 1.38968E-18
 -1      3305 9.34224E-05-2.65085E-05-2.86877E-05-5.44814E-07 1.17034E-18 1.47303E-18
 -1      3306 9.38193E-05-2.69068E-05-2.86838E-05-4.64293E-07 9.69442E-19 2.21955E-18
 -1      3307 9.30166E-05-2.61876E-05-2.86224E-05-3.43188E-08 3.15467E-19 2.47178E-18
 -1      3308 9.41643E-05-2.72417E-05-2.86865E-05-4.79990E-07 1.83301E-19 2.07065E-18
 -1      3309 9.44002E-05-2.75019E-05-2.86756E-05-4.01654E-07-7.86104E-20 1.54758E-18
 -1      3310 9.38714E-05-2.69961E-05-2.86491E-05-1.89479E-07 2.94196E-19 1.66274E-18
 -1      3311 9.46153E-05-2.77224E-05-2.86711E-05-3.90159E-07 5.02855E-19 1.67251E-18
 -1      3312 9.47531E-05-2.78898E-05-2.86590E-05-3.23832E-07 4.26838E-19 1.25342E-18
 -1      3313 9.44110E-05-2.75425E-05-2.86506E-05-2.30098E-07 8.63047E-20 1.07913E-18
 -1      3314 9.48899E-05-2.80385E-05-2.86518E-05-3.01208E-07 6.63336E-19 2.32007E-18
 -1      3315 9.49710E-05-2.81485E-05-2.86404E-05-2.47051E-07 1.72446E-18 2.38366E-18
 -1      3316 9.47519E-05-2.79121E-05-2.86413E-05-2.17367E-07 1.06559E-18 1.70746E-18
 -1      3317 9.50486E-05-2.82380E-05-2.86336E-05-2.24815E-07 1.94387E-18 2.70089E-18
 -1      3318 9.50910E-05-2.83035E-05-2.86246E-05-1.85680E-07 2.10110E-18 2.69113E-18
 -1      3319 9.49578E-05-2.81510E-05-2.86289E-05-1.84496E-07 1.54036E-18 2.84257E-18
 -1      3320 9.51370E-05-2.83603E-05-2.86186E-05-1.65596E-07 5.02854E-19 1.74940E-18
 -1      3321 9.51599E-05-2.84015E-05-2.86117E-05-1.36631E-07-1.06805E-19 1.30533E-18
 -1      3322 9.50774E-05-2.83008E-05-2.86171E-05-1.48031E-07 7.53504E-19 2.25663E-18
 -1      3323 9.51868E-05-2.84375E-05-2.86067E-05-1.19915E-07-2.38154E-19 7.72198E-19
 -1      3324 9.51986E-05-2.84633E-05-2.86014E-05-9.87713E-08-8.00733E-19 1.33632E-18
 -1      3325 9.51480E-05-2.83970E-05-2.86068E-05-1.14208E-07-5.43538E-19 1.02327E-18
 -1      3326 9.52140E-05-2.84860E-05-2.85975E-05-8.54507E-08-1.40114E-19 9.87995E-19
 -1      3327 9.52197E-05-2.85022E-05-2.85936E-05-7.01532E-08 7.92356E-19 7.83593E-19
 -1      3328 9.51891E-05-2.84586E-05-2.85983E-05-8.55251E-08-9.55502E-19 5.23854E-19
 -1      3329 9.52283E-05-2.85167E-05-2.85906E-05-5.98413E-08 1.05822E-18 3.01196E-19
 -1      3330 9.52308E-05-2.85269E-05-2.85876E-05-4.88462E-08 1.55555E-18 5.71721E-19
 -1      3331 9.52126E-05-2.84981E-05-2.85917E-05-6.23957E-08 3.77300E-19-7.35069E-19
 -1      3332 9.52355E-05-2.85361E-05-2.85853E-05-4.10304E-08 6.10674E-19 7.11762E-20
 -1      3333 9.52363E-05-2.85426E-05-2.85832E-05-3.31638E-08-1.32219E-18-1.76062E-19
 -1      3334 9.52257E-05-2.85236E-05-2.85865E-05-4.43504E-08 2.50174E-19 6.91114E-19
 -1      3335 9.52389E-05-2.85488E-05-2.85814E-05-2.70682E-08-1.10944E-18 1.02993E-18
 -1      3336 9.52389E-05-2.85531E-05-2.85797E-05-2.12883E-08 3.14802E-19 2.13954E-18
 -1      3337 9.52329E-05-2.85403E-05-2.85825E-05-3.03431E-08-2.32850E-19 1.20210E-18
 -1      3338 9.52401E-05-2.85569E-05-2.85784E-05-1.71153E-08 5.43715E-19 1.90663E-18
 -1      3339 9.52398E-05-2.85595E-05-2.85773E-05-1.32567E-08 8.62609E-19 2.20634E-18
 -1      3340 9.52367E-05-2.85513E-05-2.85794E-05-1.99306E-08 6.93947E-19 2.58866E-18
 -1      3341 9.52403E-05-2.85620E-05-2.85763E-05-1.02481E-08 1.59071E-18 1.53992E-18
 -1      3342 9.52399E-05-2.85638E-05-2.85755E-05-7.57280E-09 1.39852E-18 1.43562E-18
 -1      3343 9.52384E-05-2.85583E-05-2.85772E-05-1.25543E-08 5.63913E-19 1.54651E-18
 -1      3344 9.52400E-05-2.85654E-05-2.85748E-05-5.45841E-09 1.27433E-19 2.05938E-18
 -1      3345 9.52396E-05-2.85666E-05-2.85742E-05-3.64251E-09-4.53461E-19 3.52982E-18
 -1      3346 9.52391E-05-2.85630E-05-2.85755E-05-7.27063E-09 1.06110E-18 2.55471E-18
 -1      3347 9.52396E-05-2.85678E-05-2.85736E-05-2.19347E-09 1.57140E-20 5.03377E-18
 -1      3348 9.52392E-05-2.85686E-05-2.85731E-05-1.03014E-09 2.52798E-18 4.80997E-18
 -1      3349 9.52392E-05-2.85662E-05-2.85742E-05-3.58572E-09 9.64184E-19 4.49968E-18
 -1      3350 9.52391E-05-2.85691E-05-2.85728E-05-3.84841E-10 2.60872E-18 4.76817E-18
 -1      3351 9.52389E-05-2.85698E-05-2.85725E-05 3.48340E-10 2.56877E-18 4.32996E-18
 -1      3352 9.52388E-05-2.85693E-05-2.85727E-05-2.75137E-10 1.13453E-18 2.86208E-18
 -1      3353 9.52390E-05-2.85681E-05-2.85733E-05-1.40912E-09 1.88738E-18 4.90120E-18
 -1      3354 1.15118E-04-1.21762E-05-4.42706E-05 7.54936E-06 7.70271E-19 4.93307E-19
 -1      3355 1.14514E-04-8.78275E-06-4.56895E-05 2.12553E-06 1.24715E-18-4.07297E-19
 -1      3356 1.01259E-04-2.83066E-05-3.12337E-05 9.04501E-06-9.73902E-20 7.38212E-19
 -1      3357 1.02158E-04-3.01491E-05-3.09038E-05 9.09321E-06-7.77219E-21 3.92094E-19
 -1      3358 1.02813E-04-3.17293E-05-3.04564E-05 8.49334E-06 2.15838E-19 4.19920E-19
 -1      3359 1.03331E-04-3.29989E-05-3.01624E-05 7.88742E-06 1.62283E-19 4.27117E-19
 -1      3360 1.05078E-04-3.18781E-05-3.13349E-05 9.07559E-06 4.81237E-20 5.63677E-19
 -1      3361 9.70475E-05-2.09986E-05-3.25535E-05 4.19222E-06-1.05326E-19 8.88082E-19
 -1      3362 9.77881E-05-2.23797E-05-3.23590E-05 6.06520E-06 1.28048E-21 7.93343E-19
 -1      3363 9.62640E-05-1.98354E-05-3.27473E-05-7.11053E-07 4.54268E-19 4.83697E-19
 -1      3364 9.63897E-05-2.00616E-05-3.27177E-05 1.61445E-06 2.00165E-19 5.42672E-19
 -1      3365 9.87085E-05-1.98379E-05-3.38201E-05 3.27266E-06 2.73274E-19 1.03542E-19
 -1      3366 9.71299E-05-2.13348E-05-3.25140E-05-5.53091E-06 2.32022E-19 6.22362E-19
 -1      3367 9.65787E-05-2.03047E-05-3.26580E-05-3.44514E-06 3.67961E-19 3.06921E-19
 -1      3368 9.83496E-05-1.92773E-05-3.39028E-05-2.25312E-06 4.24675E-19 4.88037E-19
 -1      3369 9.91412E-05-2.47670E-05-3.19283E-05-8.80295E-06-3.55145E-19 8.55364E-19
 -1      3370 9.81967E-05-2.29596E-05-3.22011E-05-7.51071E-06-8.02547E-20 7.76539E-19
 -1      3371 9.97994E-05-2.17409E-05-3.34549E-05-7.10422E-06-3.36886E-20 4.30907E-19
 -1      3372 1.01272E-04-2.86944E-05-3.11540E-05-9.93357E-06-5.47737E-19 7.43745E-19
 -1      3373 1.00339E-04-2.68011E-05-3.14833E-05-9.58610E-06-5.38035E-19 9.11288E-19
 -1      3374 1.02142E-04-2.59862E-05-3.26176E-05-9.83374E-06-4.80472E-19 3.26524E-19
 -1      3375 1.02648E-04-3.18559E-05-3.03678E-05-9.23060E-06-7.25873E-19 1.27082E-18
 -1      3376 1.02041E-04-3.04170E-05-3.06840E-05-9.63090E-06-6.07247E-19 1.21746E-18
 -1      3377 1.04151E-04-3.03174E-05-3.16129E-05-1.01273E-05-7.41135E-19 1.20119E-18
 -1      3378 1.02935E-04-3.36512E-05-2.96972E-05-7.49649E-06-8.28883E-19 1.60205E-18
 -1      3379 1.02758E-04-3.28753E-05-2.99559E-05-8.29044E-06-6.14890E-19 1.40539E-18
 -1      3380 1.05017E-04-3.34263E-05-3.06520E-05-8.68829E-06-4.83028E-19 1.58548E-18
 -1      3381 1.02315E-04-3.41692E-05-2.91943E-05-5.49436E-06-1.08201E-19 1.38820E-18
 -1      3382 1.02496E-04-3.39774E-05-2.93811E-05-6.38777E-06-4.02233E-19 1.31754E-18
 -1      3383 1.04640E-04-3.49182E-05-2.98674E-05-6.51308E-06-4.85052E-19 1.07662E-18
 -1      3384 1.01158E-04-3.37832E-05-2.88563E-05-3.69549E-06 3.69301E-19 9.43740E-19
 -1      3385 1.01558E-04-3.39873E-05-2.89759E-05-4.49909E-06 4.08075E-19 9.22049E-19
 -1      3386 1.03399E-04-3.50510E-05-2.92951E-05-4.37382E-06 1.66077E-19 8.11343E-19
 -1      3387 9.98323E-05-3.29276E-05-2.86537E-05-2.29879E-06 9.12045E-20 1.02770E-18
 -1      3388 1.00312E-04-3.33289E-05-2.87203E-05-2.93573E-06-5.18415E-21 6.68265E-19
 -1      3389 1.01763E-04-3.43169E-05-2.89180E-05-2.65161E-06 6.95419E-19 9.19941E-19
 -1      3390 9.85884E-05-3.19356E-05-2.85481E-05-1.31578E-06-1.82369E-19 1.58367E-18
 -1      3391 9.90489E-05-3.23870E-05-2.85782E-05-1.77881E-06 2.96047E-19 1.27271E-18
 -1      3392 1.00119E-04-3.32045E-05-2.86937E-05-1.43663E-06-2.10791E-19 1.30138E-18
 -1      3393 9.75517E-05-3.10087E-05-2.85047E-05-6.74471E-07-2.74998E-19 1.49721E-18
 -1      3394 9.79414E-05-3.14239E-05-2.85125E-05-9.89665E-07-9.15633E-20 1.58740E-18
 -1      3395 9.86875E-05-3.20478E-05-2.85753E-05-6.61384E-07-2.20453E-19 1.76217E-18
 -1      3396 9.67562E-05-3.02401E-05-2.84969E-05-2.83132E-07 7.76275E-20 1.52660E-18
 -1      3397 9.70584E-05-3.05808E-05-2.84928E-05-4.85909E-07-3.67961E-19 1.25570E-18
 -1      3398 9.75534E-05-3.10284E-05-2.85237E-05-2.09225E-07-1.22528E-19 8.67995E-19
 -1      3399 9.61838E-05-2.96525E-05-2.85065E-05-6.07883E-08 4.38481E-19 9.09192E-19
 -1      3400 9.64030E-05-2.99107E-05-2.84974E-05-1.84009E-07 8.66477E-20 1.47754E-18
 -1      3401 9.67159E-05-3.02155E-05-2.85101E-05 2.96041E-08-4.72961E-21 7.08725E-19
 -1      3402 9.57941E-05-2.92309E-05-2.85226E-05 5.41019E-08-1.06062E-19 1.41586E-18
 -1      3403 9.59441E-05-2.94147E-05-2.85126E-05-1.58350E-08 5.84291E-19 1.33620E-18
 -1      3404 9.61317E-05-2.96120E-05-2.85156E-05 1.38489E-07 4.04364E-19 1.59534E-18
 -1      3405 9.55420E-05-2.89447E-05-2.85389E-05 1.04373E-07-4.87559E-19 1.53729E-18
 -1      3406 9.56395E-05-2.90685E-05-2.85301E-05 6.84634E-08-2.95101E-19 1.38969E-18
 -1      3407 9.57448E-05-2.91895E-05-2.85285E-05 1.74080E-07-3.21854E-19 1.12040E-18
 -1      3408 9.53873E-05-2.87606E-05-2.85527E-05 1.18023E-07 1.02444E-18 1.10790E-19
 -1      3409 9.54473E-05-2.88395E-05-2.85458E-05 1.02835E-07 5.03653E-19 1.32654E-18
 -1      3410 9.55010E-05-2.89088E-05-2.85426E-05 1.71840E-07 4.91899E-19 8.72014E-19
 -1      3411 9.52979E-05-2.86487E-05-2.85630E-05 1.12467E-07 3.95114E-19-1.33279E-19
 -1      3412 9.53327E-05-2.86962E-05-2.85582E-05 1.09201E-07 7.80139E-19-1.42557E-19
 -1      3413 9.53556E-05-2.87320E-05-2.85549E-05 1.52460E-07 8.74019E-19 4.28632E-19
 -1      3414 9.52500E-05-2.85855E-05-2.85701E-05 9.80858E-08 3.55969E-19-8.12572E-19
 -1      3415 9.52688E-05-2.86119E-05-2.85669E-05 1.01136E-07 4.36049E-19-7.14973E-19
 -1      3416 9.52744E-05-2.86273E-05-2.85642E-05 1.27249E-07 9.45519E-19 4.39802E-19
 -1      3417 9.52273E-05-2.85534E-05-2.85744E-05 8.07899E-08 9.08781E-19-2.74147E-19
 -1      3418 9.52363E-05-2.85665E-05-2.85726E-05 8.67200E-08 2.76684E-19-1.02301E-18
 -1      3419 9.52333E-05-2.85700E-05-2.85706E-05 1.01946E-07 5.65437E-19-7.49981E-19
 -1      3420 9.52188E-05-2.85401E-05-2.85766E-05 6.37468E-08 1.14097E-18-2.39428E-19
 -1      3421 9.52224E-05-2.85452E-05-2.85758E-05 7.05463E-08 1.38567E-18-3.05929E-19
 -1      3422 9.52157E-05-2.85425E-05-2.85745E-05 7.91597E-08 7.72616E-19 8.09111E-19
 -1      3423 9.52179E-05-2.85373E-05-2.85774E-05 4.84898E-08 3.56869E-19 1.25048E-19
 -1      3424 9.52185E-05-2.85380E-05-2.85772E-05 5.50588E-08 6.77286E-19-9.34116E-20
 -1      3425 9.52110E-05-2.85325E-05-2.85766E-05 5.98265E-08 4.79733E-19 9.81476E-19
 -1      3426 9.52204E-05-2.85400E-05-2.85774E-05 3.56102E-08 1.17409E-18 1.40589E-19
 -1      3427 9.52197E-05-2.85385E-05-2.85775E-05 4.14132E-08 7.00722E-19-1.61847E-19
 -1      3428 9.52127E-05-2.85323E-05-2.85774E-05 4.40414E-08 4.39591E-19-2.57929E-19
 -1      3429 9.52240E-05-2.85450E-05-2.85768E-05 2.51808E-08 9.04118E-19-1.31911E-18
 -1      3430 9.52228E-05-2.85426E-05-2.85772E-05 3.00186E-08 1.37612E-18-5.77324E-19
 -1      3431 9.52171E-05-2.85367E-05-2.85773E-05 3.15097E-08 1.37871E-18-5.06970E-19
 -1      3432 9.52276E-05-2.85505E-05-2.85760E-05 1.70123E-08-1.64167E-18-1.44103E-18
 -1      3433 9.52264E-05-2.85479E-05-2.85764E-05 2.08742E-08-5.77761E-19-1.96086E-18
 -1      3434 9.52219E-05-2.85428E-05-2.85767E-05 2.17874E-08 8.61018E-19-2.88186E-19
 -1      3435 9.52306E-05-2.85556E-05-2.85751E-05 1.08014E-08-1.28285E-18-7.13048E-19
 -1      3436 9.52296E-05-2.85533E-05-2.85755E-05 1.37736E-08-2.33802E-18-2.11065E-18
 -1      3437 9.52264E-05-2.85491E-05-2.85759E-05 1.44029E-08-1.71792E-18-4.99793E-19
 -1      3438 9.52330E-05-2.85600E-05-2.85742E-05 6.21573E-09 4.55608E-19-7.69531E-19
 -1      3439 9.52322E-05-2.85580E-05-2.85746E-05 8.42453E-09-1.16566E-19-6.02536E-19
 -1      3440 9.52300E-05-2.85548E-05-2.85751E-05 8.91379E-09-1.22816E-18-1.56447E-18
 -1      3441 9.52348E-05-2.85635E-05-2.85734E-05 2.93199E-09-5.59446E-19-9.12186E-19
 -1      3442 9.52342E-05-2.85619E-05-2.85738E-05 4.52561E-09 5.34108E-20-1.28637E-18
 -1      3443 9.52327E-05-2.85595E-05-2.85742E-05 4.93488E-09 2.72955E-19-9.64210E-19
 -1      3444 9.52385E-05-2.85686E-05-2.85728E-05-7.21785E-10 9.30349E-19-7.76331E-19
 -1      3445 9.52382E-05-2.85681E-05-2.85729E-05-1.08420E-09 7.25295E-19-9.60370E-19
 -1      3446 9.52386E-05-2.85679E-05-2.85731E-05-1.20616E-09 1.23969E-18 1.29429E-18
 -1      3447 1.31294E-04-4.87102E-05-3.57456E-05-5.11178E-07-1.18400E-18-1.85202E-18
 -1      3448 1.28304E-04-5.13987E-05-3.28926E-05 8.28341E-06-2.07239E-18-1.30762E-18
 -1      3449 6.62247E-05-1.04128E-05-2.39232E-05 9.89078E-06-8.32408E-19-3.04402E-20
 -1      3450 7.23202E-05-1.29233E-05-2.54475E-05 7.63814E-06-8.40720E-19 1.30403E-19
 -1      3451 9.52377E-05-2.85675E-05-2.85730E-05-1.29636E-09 2.99865E-19-2.79278E-19
 -1      3452 9.52373E-05-2.85670E-05-2.85730E-05-1.48636E-09 1.06018E-18-1.63065E-18
 -1      3453 9.52377E-05-2.85666E-05-2.85733E-05-1.77906E-09 7.89651E-19-4.22436E-19
 -1      3454 9.65633E-05-2.66244E-05-2.99868E-05 1.61035E-06 7.82622E-19-5.66049E-19
 -1      3455 9.61436E-05-2.54856E-05-3.02715E-05 2.28526E-06 8.76420E-19-4.51653E-19
 -1      3456 9.90429E-05-2.42796E-05-3.19941E-05 7.69009E-06-7.24585E-20 6.35428E-19
 -1      3457 1.00067E-04-2.62412E-05-3.16926E-05 8.66491E-06-1.47152E-19 4.96053E-19
 -1      3458 1.03209E-04-2.77054E-05-3.23263E-05 9.48644E-06-1.50871E-19 6.71519E-19
 -1      3459 1.00687E-04-2.31196E-05-3.32348E-05 7.57492E-06-2.72228E-19 6.19313E-19
 -1      3460 1.19837E-04-5.11101E-05-2.92594E-05-2.16296E-05-1.47838E-18-2.37937E-19
 -1      3461 1.26783E-04-5.30556E-05-3.17992E-05-1.28781E-05-8.76249E-19 2.69386E-19
 -1      3462 1.01948E-04-3.42123E-05-2.90460E-05 2.93611E-06-3.61480E-19 4.12551E-19
 -1      3463 1.01545E-04-3.38409E-05-2.89930E-05 2.20276E-06-1.38289E-19 3.95624E-19
 -1      3464 1.15984E-04-7.93574E-06-4.65517E-05-3.13047E-06 1.46923E-18-1.02492E-18
 -1      3465 1.18967E-04-1.09321E-05-4.66134E-05-8.34757E-06 1.22502E-18-1.68650E-18
 -1      3466 9.16246E-05-1.75752E-05-3.17413E-05-1.73984E-06 5.61617E-19-1.39322E-18
 -1      3467 9.15864E-05-1.76227E-05-3.17199E-05-2.40292E-06 3.84177E-19-1.36452E-18
 -1      3468 9.23727E-05-1.90812E-05-3.13949E-05-2.46758E-06 2.95343E-19-1.26637E-18
 -1      3469 9.75230E-05-2.86427E-05-2.95315E-05 7.74541E-07 6.78388E-19-4.31784E-19
 -1      3470 9.71653E-05-2.77232E-05-2.97416E-05 1.13877E-06 6.78009E-19-6.21113E-19
 -1      3471 9.69566E-05-2.68923E-05-3.00332E-05 1.16500E-06 8.29837E-19-5.15214E-19
 -1      3472 9.53719E-05-3.65464E-05-2.52654E-05 3.08380E-05-1.52420E-18-6.26963E-19
 -1      3473 8.12748E-05-2.62396E-05-2.33636E-05 3.03664E-05-1.80717E-18-9.31260E-19
 -1      3474 9.30188E-05-2.01527E-05-3.12391E-05-3.94852E-06-2.41883E-19-1.81773E-18
 -1      3475 8.29451E-05-1.85953E-05-2.76693E-05 1.88466E-06-1.65736E-18 1.73229E-18
 -1      3476 8.55527E-05-2.02300E-05-2.80095E-05 1.23739E-06-9.35389E-19 2.66283E-18
 -1      3477 8.25370E-05-1.87364E-05-2.72484E-05 5.62725E-06-6.22021E-19 2.08050E-18
 -1      3478 1.05112E-04-4.33099E-05-2.62119E-05-2.97674E-05-1.54336E-18-1.10554E-18
 -1      3479 1.13761E-04-4.89961E-05-2.79470E-05-2.65592E-05-1.52875E-18-4.73273E-19
 -1      3480 1.16778E-04-4.82907E-05-2.92429E-05-1.90435E-05-1.17273E-18-4.09785E-19
 -1      3481 1.27451E-04-3.46237E-05-4.01040E-05-1.15984E-05-1.40713E-19-1.81937E-18
 -1      3482 1.30703E-04-4.20094E-05-3.79090E-05-7.49461E-06-6.07137E-19-1.71058E-18
 -1      3483 9.33566E-05-2.30863E-05-3.01102E-05-1.25440E-06-1.26912E-19-1.33069E-18
 -1      3484 9.28423E-05-2.32470E-05-2.98576E-05-6.55213E-07-1.13416E-19-1.21912E-18
 -1      3485 9.32617E-05-2.24124E-05-3.03605E-05-1.90998E-06 1.20100E-20-1.41085E-18
 -1      3486 9.57118E-05-2.46204E-05-3.04718E-05 2.60211E-06 8.94223E-19-5.22093E-19
 -1      3487 9.52958E-05-2.36156E-05-3.07286E-05 3.07644E-06 9.13007E-19-5.41074E-19
 -1      3488 9.50213E-05-2.29404E-05-3.08878E-05 2.65934E-06 9.06409E-19-8.50858E-19
 -1      3489 9.59461E-05-2.48137E-05-3.04833E-05 2.00543E-06 8.17341E-19-6.13732E-19
 -1      3490 6.18313E-05-1.29711E-05-2.08224E-05-2.20526E-05-4.38194E-19-3.08024E-18
 -1      3491 7.01189E-05-2.00973E-05-2.14008E-05-2.92631E-05-9.19467E-19-2.89886E-18
 -1      3492 7.99725E-05-2.70758E-05-2.23529E-05-3.23396E-05-1.06705E-18-1.98073E-18
 -1      3493 9.16034E-05-3.57219E-05-2.41092E-05-3.35087E-05-1.37188E-18-1.50706E-18
 -1      3494 7.87142E-05-2.37106E-05-2.33136E-05-2.70740E-05-8.23058E-19-2.13308E-18
 -1      3495 9.32713E-05-2.09581E-05-3.09792E-05-3.10886E-06-1.84044E-19-1.72144E-18
 -1      3496 9.30376E-05-2.08352E-05-3.09288E-05-2.85936E-06-4.72299E-21-1.52478E-18
 -1      3497 7.40696E-05-1.74256E-05-2.41537E-05-1.85833E-05-7.98606E-19-2.13146E-18
 -1      3498 6.73690E-05-1.29605E-05-2.31513E-05-1.54680E-05-1.92197E-19-2.51632E-18
 -1      3499 5.60358E-05-6.09727E-06-2.12977E-05 1.08870E-05-1.12939E-18 2.10699E-20
 -1      3500 8.67275E-05-2.12918E-05-2.79794E-05 2.74389E-06-1.14568E-18 1.85125E-18
 -1      3501 1.23729E-04-4.81253E-05-3.23444E-05 5.10649E-06-1.89412E-18-1.84250E-18
 -1      3502 1.24323E-04-5.11230E-05-3.13842E-05 1.21987E-05-2.44547E-18-8.03927E-19
 -1      3503 1.17871E-04-4.80020E-05-2.99957E-05 1.50190E-05-1.91524E-18-6.77196E-19
 -1      3504 1.12023E-04-1.06162E-05-4.36519E-05-8.25593E-07 9.94814E-19-4.95792E-19
 -1      3505 1.27240E-04-4.38009E-05-3.57817E-05-4.77019E-06-8.25630E-19-1.49210E-18
 -1      3506 1.22519E-04-4.92004E-05-3.14340E-05-8.68857E-06-6.56885E-19-3.11020E-20
 -1      3507 1.28211E-04-5.12441E-05-3.29033E-05-6.08164E-06-4.22067E-19 4.27480E-19
 -1      3508 1.25968E-04-4.71705E-05-3.38507E-05 6.15363E-07-4.18937E-19 4.60247E-19
 -1      3509 9.52360E-05-2.85667E-05-2.85726E-05-7.97975E-11-1.27664E-18-3.30143E-19
 -1      3510 9.52358E-05-2.85659E-05-2.85728E-05 4.93597E-10-1.07875E-18-9.94426E-19
 -1      3511 9.52359E-05-2.85663E-05-2.85727E-05-2.28001E-10-1.20920E-18 3.55109E-20
 -1      3512 1.00744E-04-3.32248E-05-2.89504E-05 1.56418E-06 2.22289E-20 5.83605E-19
 -1      3513 1.00291E-04-3.26376E-05-2.89698E-05 1.07610E-06 1.48411E-19 4.09902E-19
 -1      3514 1.02267E-04-3.42540E-05-2.91650E-05 1.31919E-06 1.21423E-20 5.29992E-19
 -1      3515 1.26140E-04-4.16987E-05-3.62712E-05 7.36996E-06-5.00934E-19 4.99826E-19
 -1      3516 1.26525E-04-3.74835E-05-3.83190E-05 1.07792E-05-3.73793E-19 6.74510E-19
 -1      3517 1.21249E-04-3.14553E-05-3.84954E-05 1.23654E-05-2.72387E-19 5.48242E-19
 -1      3518 1.05698E-04-3.45873E-05-3.04527E-05 7.21428E-06 9.56101E-20 3.40929E-19
 -1      3519 1.03327E-04-3.38231E-05-2.97963E-05 6.80657E-06-1.54774E-20 3.45247E-19
 -1      3520 1.03424E-04-3.44098E-05-2.95754E-05 5.91092E-06-3.10353E-19 6.41624E-19
 -1      3521 9.28837E-05-2.05578E-05-3.10146E-05-2.85965E-06-7.38286E-20-1.42357E-18
 -1      3522 9.32095E-05-2.14198E-05-3.07480E-05-2.49267E-06 9.60874E-21-1.46586E-18
 -1      3523 9.27560E-05-2.02009E-05-3.10895E-05-2.70342E-06 5.78766E-20-1.20735E-18
 -1      3524 9.52351E-05-2.85643E-05-2.85732E-05 1.93343E-09-5.85185E-19-1.19922E-18
 -1      3525 9.85632E-05-3.11853E-05-2.88885E-05 1.05188E-06 3.31853E-19 2.17008E-19
 -1      3526 9.25748E-05-1.91575E-05-3.14489E-05-1.52098E-06 5.44643E-19-1.36136E-18
 -1      3527 1.02926E-04-3.45470E-05-2.93218E-05 4.77167E-06-4.05795E-19 3.72812E-19
 -1      3528 1.02698E-04-3.45563E-05-2.91870E-05 3.87154E-06-3.74359E-19 4.24059E-19
 -1      3529 1.03849E-04-3.53557E-05-2.93626E-05 2.83198E-06-3.72312E-19 3.89182E-19
 -1      3530 1.05145E-04-3.56309E-05-2.97846E-05 4.90510E-06-3.50227E-19 1.48585E-19
 -1      3531 9.52359E-05-2.85657E-05-2.85729E-05-9.93780E-10 2.90919E-19-1.40504E-18
 -1      3532 9.52358E-05-2.85657E-05-2.85729E-05-8.55673E-10-8.41564E-19-2.05546E-19
 -1      3533 7.63035E-05-1.58105E-05-2.57765E-05 1.07158E-05-2.38936E-19-1.43122E-19
 -1      3534 9.52367E-05-2.85654E-05-2.85734E-05-1.86948E-09 7.69797E-19-4.15445E-19
 -1      3535 9.52369E-05-2.85665E-05-2.85730E-05-1.46354E-09 5.33095E-19-5.07113E-20
 -1      3536 9.52366E-05-2.85662E-05-2.85730E-05-1.48612E-09 1.11551E-18 1.18621E-18
 -1      3537 8.28525E-05-2.47469E-05-2.47049E-05 2.44525E-05-1.36409E-18-9.29003E-19
 -1      3538 7.35610E-05-2.00156E-05-2.28723E-05 2.67692E-05-1.27874E-18-9.99512E-19
 -1      3539 1.14545E-04-2.22893E-05-3.95726E-05 1.14463E-05 2.35025E-19 7.53975E-20
 -1      3540 1.14941E-04-1.71621E-05-4.21561E-05 1.05194E-05 5.35934E-19 1.48674E-19
 -1      3541 1.10145E-04-1.49548E-05-4.08600E-05 7.39827E-06 5.99766E-19 8.55768E-20
 -1      3542 1.21383E-04-2.62956E-05-4.09204E-05-1.31282E-05 7.74797E-19-2.05125E-18
 -1      3543 1.25081E-04-3.07871E-05-4.05331E-05-1.29740E-05 4.15523E-19-2.19112E-18
 -1      3544 1.22883E-04-3.42108E-05-3.80856E-05-1.12601E-05 3.70842E-20-2.12045E-18
 -1      3545 9.84839E-05-3.03580E-05-2.92069E-05 4.84599E-07 5.37148E-19-1.07201E-19
 -1      3546 9.81047E-05-2.95639E-05-2.93527E-05 5.52704E-07 5.95962E-19-2.36572E-19
 -1      3547 9.81181E-05-2.90660E-05-2.96060E-05 4.07252E-07 5.79387E-19-3.78389E-19
 -1      3548 1.08574E-04-4.29521E-05-2.81249E-05 2.13354E-05-1.60483E-18-1.06168E-18
 -1      3549 1.03068E-04-4.05906E-05-2.66058E-05 2.71767E-05-1.13733E-18-1.16121E-18
 -1      3550 9.61370E-05-3.48316E-05-2.63504E-05 2.48746E-05-1.17530E-18-8.45789E-19
 -1      3551 1.18214E-04-1.58487E-05-4.40755E-05-1.02043E-05 1.25308E-18-1.81620E-18
 -1      3552 9.41976E-05-2.13524E-05-3.12079E-05 2.35967E-06 9.30993E-19-8.80823E-19
 -1      3553 6.84661E-05-1.68158E-05-2.20777E-05 2.53194E-05-7.89479E-19-8.49759E-19
 -1      3554 5.93569E-05-9.67476E-06-2.09874E-05 1.86678E-05-1.15707E-18-2.10673E-19
 -1      3555 7.07753E-05-1.57170E-05-2.36129E-05 1.98719E-05-1.15191E-18-1.10529E-18
 -1      3556 9.39341E-05-2.12339E-05-3.11608E-05-3.17946E-07 6.26541E-19-1.07555E-18
 -1      3557 9.36456E-05-2.09253E-05-3.11801E-05-9.40767E-07 5.06744E-19-1.37418E-18
 -1      3558 9.45500E-05-2.20810E-05-3.10656E-05 9.20323E-07 8.09095E-19-1.07581E-18
 -1      3559 9.42475E-05-2.16464E-05-3.11231E-05 2.72212E-07 7.28640E-19-1.07815E-18
 -1      3560 9.48975E-05-2.28368E-05-3.08727E-05-4.06429E-07 5.72957E-19-1.04451E-18
 -1      3561 9.98824E-05-3.86438E-05-2.61025E-05-2.77012E-05-1.16298E-18-1.00184E-18
 -1      3562 9.26035E-05-2.29999E-05-2.97996E-05-1.35722E-06-9.02005E-20-1.25438E-18
 -1      3563 9.52363E-05-2.85660E-05-2.85730E-05-1.32989E-09 1.69170E-18 1.82757E-19
 -1      3564 9.52361E-05-2.85658E-05-2.85730E-05-1.22490E-09 7.03239E-19-1.65820E-18
 -1      3565 9.52355E-05-2.85643E-05-2.85733E-05-1.09620E-09 8.94771E-19-8.15624E-19
 -1      3566 9.52359E-05-2.85647E-05-2.85734E-05-1.57686E-09 1.40264E-18-2.09750E-19
 -1      3567 6.38117E-05-9.73056E-06-2.30608E-05 1.16167E-05-5.99390E-19 8.02299E-20
 -1      3568 6.96748E-05-1.36441E-05-2.38080E-05 1.62885E-05-9.89091E-19-8.87849E-19
 -1      3569 6.01821E-05-9.12767E-06-2.17502E-05-1.41027E-05 6.68130E-20-2.73449E-18
 -1      3570 8.94204E-05-2.36439E-05-2.82384E-05 2.51821E-06-1.60851E-18 5.50306E-19
 -1      3571 9.06527E-05-2.44444E-05-2.83699E-05 1.86668E-06-7.44328E-19 3.94728E-19
 -1      3572 9.04852E-05-2.30920E-05-2.88583E-05-3.67997E-06-3.14218E-19-9.24890E-19
 -1      3573 8.89755E-05-2.26318E-05-2.85011E-05-4.76108E-06-3.60662E-19-9.36023E-19
 -1      3574 8.81312E-05-2.23953E-05-2.81294E-05-6.42348E-06-4.08818E-19-1.05165E-18
 -1      3575 8.60784E-05-2.18388E-05-2.76194E-05-8.43636E-06-2.73084E-19-1.01001E-18
 -1      3576 9.03450E-05-2.40165E-05-2.84070E-05-7.08420E-06-4.40801E-19-8.59013E-19
 -1      3577 8.53121E-05-2.18598E-05-2.71211E-05-1.10727E-05-4.73838E-19-1.19670E-18
 -1      3578 8.28204E-05-2.15831E-05-2.63384E-05-1.43861E-05-8.24633E-19-1.39325E-18
 -1      3579 8.87792E-05-2.44207E-05-2.75703E-05-1.15799E-05-5.40718E-19-9.84227E-19
 -1      3580 1.07585E-04-3.24268E-05-3.21993E-05 9.42600E-06-1.30899E-19 4.89564E-19
 -1      3581 1.08261E-04-3.44466E-05-3.16717E-05 8.65705E-06-1.43504E-19 3.84333E-19
 -1      3582 8.23122E-05-2.20350E-05-2.57048E-05-1.76473E-05-9.35587E-19-1.44529E-18
 -1      3583 7.86449E-05-2.19164E-05-2.43041E-05-2.25619E-05-8.73906E-19-1.89456E-18
 -1      3584 8.68676E-05-2.85929E-05-2.50898E-05-2.56509E-05-1.11563E-18-1.31429E-18
 -1      3585 8.74900E-05-2.57090E-05-2.64968E-05-1.77593E-05-9.75367E-19-1.18840E-18
 -1      3586 9.13991E-05-2.50610E-05-2.84618E-05 1.21275E-06-1.23258E-20 3.97042E-19
 -1      3587 9.22245E-05-2.56670E-05-2.85240E-05 8.75590E-07-7.23620E-20 1.42599E-18
 -1      3588 9.14316E-05-2.51914E-05-2.83656E-05 2.38982E-06-4.57703E-19 3.26736E-21
 -1      3589 9.27608E-05-2.61418E-05-2.85703E-05 5.01559E-07 2.25516E-19 1.45555E-18
 -1      3590 9.32989E-05-2.65781E-05-2.85959E-05 3.40581E-07 5.27627E-19 1.48747E-18
 -1      3591 9.26700E-05-2.61201E-05-2.85045E-05 1.25410E-06 1.74631E-19-5.17113E-19
 -1      3592 9.36693E-05-2.69241E-05-2.86168E-05 1.35194E-07 1.29837E-19 1.84736E-18
 -1      3593 9.40124E-05-2.72274E-05-2.86239E-05 6.85414E-08 3.41480E-20 1.58974E-18
 -1      3594 9.35456E-05-2.68459E-05-2.85738E-05 6.04039E-07 6.64647E-19 6.85979E-19
 -1      3595 9.42609E-05-2.74709E-05-2.86313E-05-3.81892E-08 7.75773E-20 2.24918E-18
 -1      3596 9.44760E-05-2.76764E-05-2.86299E-05-5.70590E-08 9.50099E-19 2.70170E-18
 -1      3597 9.41433E-05-2.73813E-05-2.86043E-05 2.46925E-07 5.54800E-19 2.19178E-18
 -1      3598 9.46455E-05-2.78502E-05-2.86305E-05-1.09594E-07 1.36654E-18 1.48520E-18
 -1      3599 9.47820E-05-2.79920E-05-2.86255E-05-1.05693E-07 1.07940E-18 1.74326E-18
 -1      3600 9.45486E-05-2.77704E-05-2.86143E-05 5.88419E-08 7.92829E-19 1.79883E-18
 -1      3601 9.48844E-05-2.81021E-05-2.86232E-05-1.25091E-07 1.17227E-18 2.15516E-18
 -1      3602 9.49621E-05-2.81900E-05-2.86176E-05-1.12370E-07 1.72825E-18 1.78098E-18
 -1      3603 9.48100E-05-2.80363E-05-2.86140E-05-3.00883E-08 1.50115E-18 3.73674E-19
 -1      3604 9.50271E-05-2.82630E-05-2.86143E-05-1.16581E-07 6.52465E-19 1.73039E-18
 -1      3605 9.50734E-05-2.83206E-05-2.86091E-05-1.01733E-07 1.54783E-20 8.47858E-19
 -1      3606 9.49723E-05-2.82124E-05-2.86094E-05-6.36465E-08 9.89058E-19 7.43250E-19
 -1      3607 9.51142E-05-2.83687E-05-2.86058E-05-9.87335E-08-4.54512E-19 6.08209E-19
 -1      3608 9.51413E-05-2.84061E-05-2.86014E-05-8.47366E-08-1.14953E-18-2.66013E-20
 -1      3609 9.50748E-05-2.83307E-05-2.86034E-05-7.05429E-08-6.20544E-19 2.57574E-19
 -1      3610 9.51666E-05-2.84378E-05-2.85983E-05-7.88702E-08-1.68314E-18 1.23757E-18
 -1      3611 9.51822E-05-2.84621E-05-2.85947E-05-6.68619E-08-1.15361E-18 9.72142E-19
 -1      3612 9.51389E-05-2.84098E-05-2.85974E-05-6.48524E-08-1.37323E-18 6.58730E-19
 -1      3613 9.51978E-05-2.84830E-05-2.85922E-05-6.03883E-08-4.91597E-19 3.90598E-19
 -1      3614 9.52066E-05-2.84988E-05-2.85893E-05-5.06279E-08 7.81798E-19 4.70227E-19
 -1      3615 9.51787E-05-2.84627E-05-2.85921E-05-5.42275E-08-7.82929E-19 2.25677E-18
 -1      3616 9.52162E-05-2.85127E-05-2.85872E-05-4.46208E-08 9.97216E-19 2.88687E-20
 -1      3617 9.52210E-05-2.85231E-05-2.85850E-05-3.69578E-08-1.22214E-19 8.77086E-20
 -1      3618 9.52031E-05-2.84980E-05-2.85876E-05-4.26270E-08 4.55392E-19 6.59186E-19
 -1      3619 9.52270E-05-2.85327E-05-2.85832E-05-3.15961E-08 4.68421E-19 1.85409E-19
 -1      3620 9.52297E-05-2.85399E-05-2.85815E-05-2.55321E-08 1.24507E-18 1.64085E-18
 -1      3621 9.52184E-05-2.85223E-05-2.85839E-05-3.16995E-08 7.74981E-19 6.87244E-19
 -1      3622 9.52331E-05-2.85459E-05-2.85802E-05-2.14966E-08 4.98089E-19 1.86501E-18
 -1      3623 9.52343E-05-2.85504E-05-2.85789E-05-1.71973E-08 5.08007E-19 1.72722E-18
 -1      3624 9.52275E-05-2.85387E-05-2.85809E-05-2.24989E-08 1.68426E-18 7.84248E-19
 -1      3625 9.52363E-05-2.85545E-05-2.85778E-05-1.40790E-08 6.17333E-19 2.14275E-18
 -1      3626 9.52368E-05-2.85576E-05-2.85769E-05-1.09436E-08 1.23751E-18 2.39879E-18
 -1      3627 9.52327E-05-2.85495E-05-2.85785E-05-1.53665E-08 3.06851E-19 2.05033E-18
 -1      3628 9.52379E-05-2.85604E-05-2.85760E-05-8.62361E-09 8.24123E-19 2.32305E-18
 -1      3629 9.52381E-05-2.85625E-05-2.85753E-05-6.39012E-09 8.68726E-19 2.44398E-18
 -1      3630 9.52358E-05-2.85569E-05-2.85766E-05-9.90496E-09 9.39851E-19 2.53015E-18
 -1      3631 9.52386E-05-2.85644E-05-2.85746E-05-4.71457E-09 4.84971E-19 2.95839E-18
 -1      3632 9.52386E-05-2.85658E-05-2.85741E-05-3.19722E-09 1.91248E-18 3.75078E-18
 -1      3633 9.52374E-05-2.85620E-05-2.85752E-05-5.87456E-09 7.39769E-19 1.44632E-18
 -1      3634 9.52387E-05-2.85666E-05-2.85737E-05-2.48426E-09 1.10920E-18 2.31712E-18
 -1      3635 9.52385E-05-2.85673E-05-2.85734E-05-1.75308E-09 8.85732E-19 1.24164E-18
 -1      3636 9.52381E-05-2.85666E-05-2.85735E-05-2.11161E-09 7.28952E-19-1.56221E-21
 -1      3637 9.52380E-05-2.85650E-05-2.85742E-05-3.44251E-09 3.39232E-19 1.13302E-18
 -1      3638 1.00441E-04-1.81915E-05-3.52732E-05-3.82837E-06 4.36341E-19 3.23757E-19
 -1      3639 1.00095E-04-1.75037E-05-3.53858E-05-1.11654E-06 4.65912E-19 1.70571E-19
 -1      3640 1.00284E-04-1.78330E-05-3.53250E-05 2.47638E-06 3.74208E-19 9.30388E-20
 -1      3641 1.00995E-04-1.91820E-05-3.51204E-05 5.06970E-06 4.16169E-19 1.01138E-19
 -1      3642 1.02372E-04-1.64754E-05-3.68149E-05 8.20539E-07 3.96143E-19 2.02353E-19
 -1      3643 1.05436E-04-2.78691E-05-3.33199E-05-1.07656E-05-4.51831E-19-5.99871E-21
 -1      3644 1.04165E-04-2.50704E-05-3.38595E-05-1.01226E-05-2.31104E-19-4.04084E-19
 -1      3645 1.07325E-04-3.27640E-05-3.19992E-05-9.99792E-06-1.05347E-18 2.68215E-19
 -1      3646 1.06507E-04-3.05106E-05-3.25595E-05-1.04390E-05-8.09797E-19-2.00753E-19
 -1      3647 1.08861E-04-2.99850E-05-3.37865E-05-1.10775E-05-3.67189E-19-2.12841E-18
 -1      3648 1.07554E-04-3.56524E-05-3.08256E-05-7.56946E-06-3.93240E-19 3.00977E-19
 -1      3649 1.07472E-04-3.44494E-05-3.13022E-05-8.62281E-06-7.61352E-19 3.46562E-19
 -1      3650 1.10163E-04-3.50983E-05-3.21474E-05-9.01308E-06-8.29306E-19-1.90098E-18
 -1      3651 1.06384E-04-3.65067E-05-2.99292E-05-4.96859E-06-1.50951E-19-2.81274E-20
 -1      3652 1.06822E-04-3.61898E-05-3.02901E-05-6.10744E-06-8.92626E-20 1.44737E-19
 -1      3653 1.09325E-04-3.72091E-05-3.08827E-05-6.04814E-06-1.23548E-19-6.25513E-19
 -1      3654 1.04397E-04-3.59473E-05-2.93067E-05-2.76852E-06 1.79322E-19 9.34673E-20
 -1      3655 1.05155E-04-3.62576E-05-2.95524E-05-3.71244E-06 3.08245E-20 3.61933E-21
 -1      3656 1.07305E-04-3.75108E-05-2.99229E-05-3.24004E-06 7.67971E-20-7.70215E-20
 -1      3657 1.02226E-04-3.46896E-05-2.89151E-05-1.24606E-06 1.99368E-19 1.03311E-18
 -1      3658 1.03079E-04-3.52929E-05-2.90669E-05-1.92184E-06 2.67534E-19 6.79618E-19
 -1      3659 1.04701E-04-3.64234E-05-2.92851E-05-1.22196E-06-2.76905E-20 3.88580E-19
 -1      3660 1.00253E-04-3.32510E-05-2.86912E-05-3.29340E-07-6.65563E-19 1.77221E-18
 -1      3661 1.01044E-04-3.39183E-05-2.87757E-05-7.60107E-07-1.78377E-19 1.66928E-18
 -1      3662 1.02181E-04-3.48164E-05-2.88976E-05-1.43046E-08-5.62520E-19 1.92982E-18
 -1      3663 9.86509E-05-3.19301E-05-2.85770E-05 1.46616E-07-2.56069E-19 1.94590E-18
 -1      3664 9.93042E-05-3.25333E-05-2.86179E-05-1.00993E-07-3.99994E-19 1.76040E-18
 -1      3665 1.00053E-04-3.31846E-05-2.86825E-05 5.72633E-07-5.00293E-19 1.98650E-18
 -1      3666 9.74478E-05-3.08526E-05-2.85287E-05 3.46116E-07 4.62569E-20 1.44621E-18
 -1      3667 9.79457E-05-3.13402E-05-2.85438E-05 2.19158E-07-5.57598E-20 1.86810E-18
 -1      3668 9.84123E-05-3.17833E-05-2.85755E-05 7.66326E-07 7.39059E-20 1.89122E-18
 -1      3669 9.65970E-05-3.00397E-05-2.85168E-05 3.91810E-07 2.74179E-19 1.50302E-18
 -1      3670 9.69535E-05-3.04050E-05-2.85180E-05 3.37496E-07 2.00953E-22 1.67890E-18
 -1      3671 9.72296E-05-3.06906E-05-2.85317E-05 7.49503E-07 2.08587E-19 1.24993E-18
 -1      3672 9.60256E-05-2.94624E-05-2.85223E-05 3.62858E-07 8.03766E-20 2.05691E-18
 -1      3673 9.62675E-05-2.97202E-05-2.85173E-05 3.48525E-07 3.35448E-19 2.11588E-18
 -1      3674 9.64212E-05-2.98951E-05-2.85217E-05 6.40990E-07 5.48007E-20 1.61860E-18
 -1      3675 9.56603E-05-2.90735E-05-2.85344E-05 3.05334E-07-6.03371E-19 1.73812E-18
 -1      3676 9.58163E-05-2.92460E-05-2.85275E-05 3.10741E-07-1.82593E-19 1.71115E-18
 -1      3677 9.58949E-05-2.93469E-05-2.85276E-05 5.08081E-07-1.15075E-19 2.40396E-18
 -1      3678 9.54383E-05-2.88245E-05-2.85473E-05 2.43200E-07 9.20499E-19 1.63561E-18
 -1      3679 9.55338E-05-2.89341E-05-2.85407E-05 2.56819E-07 2.59637E-19 1.51254E-18
 -1      3680 9.55684E-05-2.89877E-05-2.85390E-05 3.83954E-07 2.34172E-19 2.34411E-18
 -1      3681 9.53112E-05-2.86736E-05-2.85582E-05 1.87112E-07 5.70072E-19 1.66969E-18
 -1      3682 9.53663E-05-2.87394E-05-2.85529E-05 2.02887E-07 9.08236E-19 1.80391E-18
 -1      3683 9.53765E-05-2.87640E-05-2.85509E-05 2.81178E-07 5.30632E-19 2.20636E-18
 -1      3684 9.52441E-05-2.85884E-05-2.85665E-05 1.40601E-07 1.25552E-18 1.98225E-18
 -1      3685 9.52735E-05-2.86250E-05-2.85626E-05 1.55646E-07 8.99615E-19 1.65816E-18
 -1      3686 9.52711E-05-2.86327E-05-2.85609E-05 2.01613E-07 5.24928E-19 1.57339E-18
 -1      3687 9.52132E-05-2.85450E-05-2.85720E-05 1.03803E-07 9.09943E-19 5.61420E-20
 -1      3688 9.52270E-05-2.85632E-05-2.85695E-05 1.16944E-07 1.40590E-18 9.20425E-19
 -1      3689 9.52190E-05-2.85617E-05-2.85682E-05 1.42491E-07 1.89033E-18 1.55824E-18
 -1      3690 9.52027E-05-2.85269E-05-2.85754E-05 7.54865E-08 9.58477E-19-3.12671E-20
 -1      3691 9.52077E-05-2.85341E-05-2.85740E-05 8.64191E-08 1.03177E-18-1.62525E-20
 -1      3692 9.51979E-05-2.85281E-05-2.85732E-05 9.96577E-08 1.05500E-18-3.94799E-20
 -1      3693 9.52028E-05-2.85232E-05-2.85771E-05 5.40678E-08 3.67178E-19 2.17138E-19
 -1      3694 9.52031E-05-2.85242E-05-2.85764E-05 6.28851E-08 8.15295E-19 3.05260E-19
 -1      3695 9.51937E-05-2.85166E-05-2.85760E-05 6.90846E-08 7.43981E-19-2.67274E-19
 -1      3696 9.52077E-05-2.85269E-05-2.85776E-05 3.80517E-08 9.84201E-19 3.66660E-20
 -1      3697 9.52059E-05-2.85248E-05-2.85775E-05 4.50057E-08 9.56208E-19-6.27238E-20
 -1      3698 9.51977E-05-2.85171E-05-2.85774E-05 4.74331E-08 1.14565E-18 5.25642E-19
 -1      3699 9.52141E-05-2.85337E-05-2.85774E-05 2.61789E-08 2.14993E-18-2.97615E-19
 -1      3700 9.52116E-05-2.85304E-05-2.85776E-05 3.15654E-08 1.09554E-18 1.11983E-20
 -1      3701 9.52050E-05-2.85234E-05-2.85778E-05 3.21515E-08 1.78799E-18 1.89993E-19
 -1      3702 9.52203E-05-2.85414E-05-2.85768E-05 1.74514E-08-4.12879E-20 1.18513E-18
 -1      3703 9.52178E-05-2.85378E-05-2.85771E-05 2.15536E-08 1.82730E-18 1.09687E-18
 -1      3704 9.52127E-05-2.85319E-05-2.85775E-05 2.13738E-08 9.83996E-19-5.98723E-20
 -1      3705 9.52255E-05-2.85485E-05-2.85759E-05 1.11000E-08-1.39468E-18-1.86433E-19
 -1      3706 9.52235E-05-2.85452E-05-2.85764E-05 1.41698E-08-1.17756E-18 8.44188E-19
 -1      3707 9.52197E-05-2.85405E-05-2.85768E-05 1.37799E-08-5.73366E-20 1.52164E-18
 -1      3708 9.52296E-05-2.85546E-05-2.85750E-05 6.54024E-09-6.89032E-19-7.83206E-19
 -1      3709 9.52280E-05-2.85518E-05-2.85755E-05 8.79126E-09-1.66561E-18-7.90614E-19
 -1      3710 9.52254E-05-2.85481E-05-2.85759E-05 8.44554E-09-9.41701E-19 1.46681E-18
 -1      3711 9.52326E-05-2.85596E-05-2.85742E-05 3.33378E-09 7.80150E-19-2.09893E-19
 -1      3712 9.52314E-05-2.85573E-05-2.85746E-05 4.93122E-09 4.64067E-19-5.36347E-19
 -1      3713 9.52297E-05-2.85546E-05-2.85750E-05 4.73121E-09-3.94451E-19 1.41826E-18
 -1      3714 9.95532E-05-3.18878E-05-2.90104E-05 7.45148E-07 8.21257E-20 3.52283E-19
 -1      3715 9.91267E-05-3.11846E-05-2.90945E-05 5.30029E-07 3.01881E-19 2.16919E-19
 -1      3716 9.93343E-05-3.09787E-05-2.93116E-05 1.52213E-07 2.89699E-19-1.48423E-20
 -1      3717 1.00715E-04-3.27222E-05-2.91581E-05 4.37157E-07 6.36229E-20 2.37468E-19
 -1      3718 9.31732E-05-2.21847E-05-3.04466E-05-2.10585E-06 1.40059E-19-1.41599E-18
 -1      3719 1.07779E-04-1.21443E-05-4.10375E-05 3.55334E-07 8.15666E-19-6.75879E-19
 -1      3720 1.09395E-04-1.24111E-05-4.17526E-05-4.76093E-06 8.45207E-19-1.15445E-18
 -1      3721 8.82891E-05-2.81306E-05-2.57492E-05 2.32020E-05-1.03540E-18 1.73959E-19
 -1      3722 8.17845E-05-2.26706E-05-2.53370E-05 2.02657E-05-7.19404E-19-1.05995E-18
 -1      3723 9.52353E-05-2.85643E-05-2.85732E-05-5.00585E-10-3.76096E-19 2.20909E-19
 -1      3724 9.52358E-05-2.85658E-05-2.85729E-05-5.89023E-10-1.06884E-18 2.49372E-19
 -1      3725 9.52358E-05-2.85659E-05-2.85728E-05-4.27478E-10-1.47404E-18-3.00323E-19
 -1      3726 1.12435E-04-4.49325E-05-2.87297E-05-1.85631E-05-8.09653E-19-6.46543E-19
 -1      3727 1.16514E-04-4.71871E-05-2.98367E-05-1.46028E-05-7.86837E-19-9.25291E-19
 -1      3728 9.42371E-05-2.20863E-05-3.09094E-05-1.43647E-06 3.78815E-19-1.34780E-18
 -1      3729 9.33486E-05-2.05931E-05-3.11808E-05-1.43301E-06 5.27183E-19-1.42929E-18
 -1      3730 9.31281E-05-2.04462E-05-3.11672E-05-1.93920E-06 5.08731E-19-1.35182E-18
 -1      3731 9.29196E-05-2.02037E-05-3.11610E-05-2.21047E-06 3.77046E-19-1.12302E-18
 -1      3732 9.28361E-05-2.02734E-05-3.11181E-05-2.56470E-06 1.24221E-19-1.12342E-18
 -1      3733 9.32152E-05-2.11923E-05-3.08622E-05-2.43404E-06 1.24730E-19-1.03943E-18
 -1      3734 9.36338E-05-2.15010E-05-3.08995E-05-2.11738E-06 3.14910E-19-1.10475E-18
 -1      3735 1.22671E-04-3.96290E-05-3.57287E-05-8.39808E-06-6.34990E-19-1.42169E-18
 -1      3736 1.23925E-04-4.45981E-05-3.39706E-05-2.77974E-06-1.11460E-18-1.36993E-18
 -1      3737 9.52375E-05-2.85657E-05-2.85736E-05-2.26288E-09 4.93363E-20 1.43132E-19
 -1      3738 9.52369E-05-2.85650E-05-2.85737E-05-2.36707E-09-4.73430E-19-6.81662E-20
 -1      3739 9.52374E-05-2.85649E-05-2.85739E-05-2.84797E-09-1.27355E-18-1.67440E-19
 -1      3740 7.36256E-05-1.64795E-05-2.44504E-05 1.75984E-05-1.70090E-18-1.51764E-18
 -1      3741 1.12038E-04-1.44550E-05-4.19488E-05-8.47267E-06 8.49998E-19-1.67183E-18
 -1      3742 1.16611E-04-1.98525E-05-4.15611E-05-1.22161E-05 7.87847E-19-2.21989E-18
 -1      3743 1.08109E-04-1.60138E-05-3.95418E-05-6.73642E-06 5.38250E-19-1.33339E-18
 -1      3744 9.72609E-05-2.72167E-05-3.00280E-05 5.21737E-07 8.10710E-19-6.19213E-19
 -1      3745 9.66612E-05-2.59905E-05-3.02763E-05 1.04826E-06 8.04518E-19-6.80901E-19
 -1      3746 9.49410E-05-2.27600E-05-3.09429E-05 2.10863E-06 8.00748E-19-8.81403E-19
 -1      3747 9.46542E-05-2.22201E-05-3.10458E-05 1.51831E-06 8.08251E-19-1.02052E-18
 -1      3748 9.53405E-05-2.34139E-05-3.08126E-05 7.29478E-07 7.39639E-19-1.02049E-18
 -1      3749 9.54714E-05-2.37347E-05-3.07365E-05 1.80700E-06 7.29663E-19-8.40711E-19
 -1      3750 9.50972E-05-3.42210E-05-2.59389E-05-2.56436E-05-1.12169E-18-1.08642E-18
 -1      3751 1.05906E-04-4.17997E-05-2.76620E-05-2.27538E-05-1.20012E-18-5.14453E-19
 -1      3752 1.07442E-04-4.12238E-05-2.83711E-05-1.80820E-05-8.52777E-19-9.73128E-19
 -1      3753 9.45961E-05-3.20638E-05-2.66374E-05-2.15021E-05-1.23078E-18-1.09527E-18
 -1      3754 1.02605E-04-2.22283E-05-3.45194E-05-8.80731E-06 6.76171E-20 5.99979E-20
 -1      3755 1.01417E-04-1.98939E-05-3.49091E-05-6.89056E-06 3.57092E-19 3.18564E-19
 -1      3756 1.03227E-04-1.81692E-05-3.64667E-05-5.85080E-06 2.70715E-19-9.64162E-21
 -1      3757 1.06152E-04-2.38561E-05-3.52749E-05-1.01606E-05 1.48275E-19-7.48486E-19
 -1      3758 8.30652E-05-2.01867E-05-2.70443E-05 8.63691E-06 9.65882E-20 3.98962E-19
 -1      3759 8.54682E-05-2.12022E-05-2.75146E-05 6.59233E-06-7.78254E-19 9.06707E-19
 -1      3760 9.21664E-05-2.34211E-05-2.94485E-05-2.31845E-06-1.38127E-19-9.65471E-19
 -1      3761 9.11658E-05-2.32435E-05-2.91604E-05-2.74589E-06-2.01864E-19-9.42794E-19
 -1      3762 9.18273E-05-2.39462E-05-2.90702E-05-4.32634E-06-3.05821E-19-8.20414E-19
 -1      3763 9.31474E-05-2.31136E-05-3.00002E-05-1.95116E-06 1.13946E-19-1.26832E-18
 -1      3764 9.25782E-05-2.33164E-05-2.97271E-05-1.91486E-06-5.07810E-20-1.18561E-18
 -1      3765 9.28806E-05-2.36493E-05-2.96498E-05-2.87753E-06 3.24615E-20-8.54339E-19
 -1      3766 9.52347E-05-2.85635E-05-2.85734E-05 1.67048E-09-5.18566E-19-4.35482E-19
 -1      3767 8.66577E-05-2.19288E-05-2.78121E-05 4.80796E-06-1.37431E-18 1.00297E-18
 -1      3768 8.84349E-05-2.29082E-05-2.80684E-05 3.62124E-06-1.44001E-18 4.04409E-19
 -1      3769 8.97607E-05-2.41063E-05-2.81072E-05 4.30662E-06-1.43381E-18-1.34460E-19
 -1      3770 8.76504E-05-2.30291E-05-2.76538E-05 7.41458E-06-9.51163E-19-3.88888E-19
 -1      3771 7.97950E-05-2.04759E-05-2.53493E-05 1.81884E-05-3.99554E-19-7.85980E-19
 -1      3772 7.75741E-05-1.82286E-05-2.55089E-05 1.49237E-05-2.34155E-19-8.89970E-19
 -1      3773 8.54012E-05-2.38581E-05-2.63044E-05 1.68750E-05-1.23409E-19 2.27041E-19
 -1      3774 1.10915E-04-3.65187E-05-3.18478E-05 7.58172E-06-2.77838E-19 8.19872E-20
 -1      3775 1.08190E-04-3.57765E-05-3.10472E-05 7.16268E-06-9.08881E-20 2.69290E-19
 -1      3776 1.08186E-04-3.67201E-05-3.06247E-05 6.00776E-06-6.63217E-20 4.04626E-20
 -1      3777 1.06646E-04-2.99484E-05-3.29389E-05 1.01621E-05-1.33034E-19 6.37885E-19
 -1      3778 1.10115E-04-3.22702E-05-3.33148E-05 1.00776E-05-4.95336E-20 2.58865E-19
 -1      3779 1.05407E-04-2.71689E-05-3.34917E-05 9.96252E-06-2.80769E-19 3.90290E-19
 -1      3780 1.22594E-04-4.62504E-05-3.27908E-05 3.93217E-07-1.83859E-18-1.72278E-18
 -1      3781 1.19104E-04-4.57067E-05-3.14868E-05 3.82544E-06-2.51240E-18-1.27967E-18
 -1      3782 1.19299E-04-4.25382E-05-3.28956E-05-3.74098E-06-1.85373E-18-1.21275E-18
 -1      3783 1.19061E-04-4.73670E-05-3.06381E-05-9.56211E-06-5.30825E-19-2.89126E-19
 -1      3784 1.19332E-04-4.61582E-05-3.14743E-05-3.91394E-06-1.62223E-19 1.96224E-19
 -1      3785 1.14914E-04-4.48179E-05-3.00698E-05-9.78089E-06-2.36875E-19-4.36650E-19
 -1      3786 9.52354E-05-2.85648E-05-2.85731E-05 5.70715E-11-1.25287E-18 1.73406E-19
 -1      3787 1.03616E-04-3.52534E-05-2.93136E-05 6.64642E-07-6.51674E-21 2.08929E-19
 -1      3788 1.02807E-04-3.44532E-05-2.92632E-05 1.33727E-07 5.18808E-20 2.26897E-19
 -1      3789 1.25231E-04-4.45292E-05-3.45698E-05 4.69015E-06-3.90150E-19 3.77851E-19
 -1      3790 1.21933E-04-3.97179E-05-3.52159E-05 8.18197E-06-3.82975E-19 2.68582E-19
 -1      3791 1.22141E-04-4.52584E-05-3.29965E-05 1.43061E-06-3.52999E-19 2.98857E-19
 -1      3792 8.12152E-05-1.93000E-05-2.64903E-05 1.13360E-05 7.67048E-19 2.14321E-19
 -1      3793 8.48474E-05-2.20957E-05-2.68447E-05 1.21782E-05 5.63512E-19-2.52366E-19
 -1      3794 9.52344E-05-2.85626E-05-2.85736E-05-3.58570E-10 1.02747E-18-9.79419E-20
 -1      3795 9.52344E-05-2.85627E-05-2.85736E-05 5.84700E-12 4.85622E-19 1.02819E-18
 -1      3796 1.15667E-04-2.70827E-05-3.81438E-05 1.23790E-05-1.41124E-19 2.53349E-19
 -1      3797 1.11111E-04-2.30905E-05-3.77062E-05 1.10672E-05-1.15653E-19 3.05197E-20
 -1      3798 9.52363E-05-2.85644E-05-2.85737E-05-2.19781E-09-3.32653E-19-1.30235E-18
 -1      3799 9.52358E-05-2.85639E-05-2.85737E-05-2.06633E-09-5.78825E-19-1.48306E-19
 -1      3800 9.52361E-05-2.85633E-05-2.85740E-05-2.68358E-09-2.44515E-18-1.07881E-18
 -1      3801 1.06113E-04-1.76684E-05-3.78671E-05 7.01573E-06 1.68699E-19 1.28668E-19
 -1      3802 1.06524E-04-1.46434E-05-3.95335E-05 4.25358E-06 6.54072E-19 4.93992E-21
 -1      3803 9.50320E-05-2.34696E-05-3.06660E-05-1.56706E-06 2.93664E-19-1.30304E-18
 -1      3804 9.46454E-05-2.31309E-05-3.06632E-05-1.99396E-06 2.09880E-19-1.37411E-18
 -1      3805 1.15791E-04-2.45236E-05-3.91905E-05-1.20184E-05 7.02184E-19-2.03219E-18
 -1      3806 9.33119E-05-2.24104E-05-3.03729E-05-2.43655E-06 2.17589E-19-1.28210E-18
 -1      3807 9.47667E-05-3.21235E-05-2.67618E-05 2.07949E-05-6.91622E-19-3.19881E-19
 -1      3808 1.13103E-04-4.51518E-05-2.90325E-05 1.71716E-05-1.66835E-18-6.34232E-19
 -1      3809 1.06613E-04-4.08933E-05-2.82887E-05 1.78316E-05-9.81169E-19-9.58985E-19
 -1      3810 1.15433E-04-4.52751E-05-3.00143E-05 1.12883E-05-1.97988E-18-3.07977E-19
 -1      3811 1.17247E-04-3.17115E-05-3.66895E-05 1.14516E-05-3.14620E-19 2.25929E-19
 -1      3812 1.02458E-04-2.14852E-05-3.46483E-05 7.64755E-06 2.19534E-20 4.38338E-19
 -1      3813 1.03769E-04-2.41499E-05-3.41995E-05 9.18144E-06-3.70971E-19 4.64986E-19
 -1      3814 1.07465E-04-2.59814E-05-3.48995E-05 1.03363E-05-1.88405E-19 3.81793E-20
 -1      3815 1.04194E-04-1.97179E-05-3.62015E-05 7.11021E-06 1.43312E-19-2.78264E-21
 -1      3816 9.80108E-05-2.84005E-05-2.98123E-05 1.42527E-07 5.82997E-19-4.71896E-19
 -1      3817 9.76411E-05-2.75787E-05-3.00393E-05-7.07914E-08 5.87941E-19-6.40839E-19
 -1      3818 9.85874E-05-2.94639E-05-2.96301E-05-1.62536E-07 3.72554E-19-3.31564E-19
 -1      3819 9.57914E-05-2.43575E-05-3.06204E-05-5.63486E-07 5.14171E-19-9.63892E-19
 -1      3820 9.54353E-05-2.39330E-05-3.06540E-05-1.09152E-06 3.88695E-19-1.03821E-18
 -1      3821 9.58871E-05-2.48880E-05-3.04205E-05-1.71340E-06 1.94720E-19-1.05109E-18
 -1      3822 9.52346E-05-2.85634E-05-2.85734E-05 7.09035E-10-6.23276E-19 2.98214E-19
 -1      3823 9.52337E-05-2.85613E-05-2.85738E-05 2.21484E-09 5.85851E-19 1.03870E-19
 -1      3824 9.52326E-05-2.85594E-05-2.85742E-05 2.10545E-09 1.20176E-18 1.43069E-18
 -1      3825 9.52344E-05-2.85630E-05-2.85735E-05 4.68143E-10 4.21374E-19 1.15770E-18
 -1      3826 1.05619E-04-3.65937E-05-2.96036E-05 2.23354E-06-5.50508E-19 1.78519E-19
 -1      3827 1.04864E-04-3.60856E-05-2.94443E-05 1.37677E-06-1.99897E-19 2.91684E-19
 -1      3828 1.05208E-04-3.64022E-05-2.95159E-05 2.93732E-08-5.54467E-20 1.25324E-19
 -1      3829 9.52347E-05-2.85627E-05-2.85737E-05-1.21692E-09 8.79142E-19-1.96481E-19
 -1      3830 9.52345E-05-2.85626E-05-2.85737E-05-8.82583E-10 5.17650E-19-3.27525E-19
 -1      3831 9.52336E-05-2.85607E-05-2.85741E-05-4.39353E-10 1.83354E-18-3.99162E-19
 -1      3832 1.18927E-04-3.37117E-05-3.65721E-05-1.13138E-05-1.20107E-20-1.73728E-18
 -1      3833 1.21534E-04-3.72920E-05-3.61145E-05-1.01682E-05-7.37686E-19-1.19692E-18
 -1      3834 1.19029E-04-3.89796E-05-3.43000E-05-8.05822E-06-1.24746E-18-1.11309E-18
 -1      3835 8.82469E-05-2.55495E-05-2.68298E-05 1.54600E-05-1.61482E-19-3.85226E-19
 -1      3836 8.59096E-05-2.34423E-05-2.68243E-05 1.35310E-05 1.88594E-19-1.73784E-19
 -1      3837 8.77222E-05-2.38672E-05-2.73382E-05 1.06608E-05-1.55016E-19-1.13379E-18
 -1      3838 9.27197E-05-2.55520E-05-2.87380E-05-6.74376E-06-3.40134E-19-1.00209E-18
 -1      3839 9.19368E-05-2.58073E-05-2.83851E-05-8.52502E-06-3.70359E-19-1.04916E-18
 -1      3840 9.23007E-05-2.65802E-05-2.80941E-05-1.05148E-05-5.31898E-19-1.05878E-18
 -1      3841 9.16803E-05-2.72240E-05-2.76504E-05-1.32327E-05-7.46453E-19-1.16288E-18
 -1      3842 9.46188E-05-2.82889E-05-2.84509E-05-9.98010E-06-4.10983E-19-1.05233E-18
 -1      3843 1.11233E-04-3.93944E-05-3.07653E-05-3.68813E-06-6.63478E-19-6.21350E-19
 -1      3844 1.11968E-04-3.89045E-05-3.13124E-05-5.19995E-06-9.69554E-19-1.23805E-18
 -1      3845 9.27254E-05-2.63724E-05-2.84606E-05 1.88221E-06-6.43203E-20 6.46928E-20
 -1      3846 9.32512E-05-2.67113E-05-2.85093E-05 1.42623E-06 5.77242E-19 2.67624E-20
 -1      3847 9.35198E-05-2.69585E-05-2.85420E-05 1.01702E-06 7.76804E-19-2.46257E-19
 -1      3848 9.38849E-05-2.72227E-05-2.85656E-05 7.56617E-07 7.28801E-19 3.54090E-19
 -1      3849 9.36765E-05-2.71457E-05-2.85061E-05 1.56003E-06 4.12708E-19 4.28747E-19
 -1      3850 9.40895E-05-2.74208E-05-2.85825E-05 5.10949E-07 9.17035E-19 3.36049E-19
 -1      3851 9.43359E-05-2.76158E-05-2.85924E-05 3.68359E-07 5.42534E-19 2.22315E-19
 -1      3852 9.41376E-05-2.74931E-05-2.85562E-05 8.68382E-07 1.01348E-18-3.27375E-19
 -1      3853 9.44909E-05-2.77719E-05-2.86003E-05 2.19988E-07 2.09739E-19 3.14145E-19
 -1      3854 9.46584E-05-2.79164E-05-2.86029E-05 1.44369E-07 9.49610E-19-3.07598E-20
 -1      3855 9.44882E-05-2.77877E-05-2.85821E-05 4.48404E-07 6.47389E-19-6.77024E-19
 -1      3856 9.47601E-05-2.80235E-05-2.86053E-05 6.77332E-08 1.76103E-18-1.70288E-19
 -1      3857 9.48622E-05-2.81186E-05-2.86043E-05 3.46176E-08 1.77440E-18 1.49619E-19
 -1      3858 9.47365E-05-2.80113E-05-2.85935E-05 2.07489E-07 1.30684E-18-3.45393E-19
 -1      3859 9.49320E-05-2.81942E-05-2.86042E-05-5.58883E-09 1.31957E-18 1.15211E-19
 -1      3860 9.49969E-05-2.82597E-05-2.86018E-05-1.79792E-08 7.11747E-19-2.95086E-19
 -1      3861 9.49038E-05-2.81734E-05-2.85967E-05 7.96866E-08 1.71110E-18-1.07611E-18
 -1      3862 9.50439E-05-2.83125E-05-2.86005E-05-3.70273E-08-5.02711E-19-5.23465E-20
 -1      3863 9.50847E-05-2.83571E-05-2.85978E-05-3.88371E-08-1.22356E-18-2.59771E-19
 -1      3864 9.50175E-05-2.82902E-05-2.85961E-05 1.37451E-08 8.21455E-20-2.18803E-18
 -1      3865 9.51161E-05-2.83937E-05-2.85960E-05-4.61716E-08-4.70422E-20 8.91476E-19
 -1      3866 9.51415E-05-2.84240E-05-2.85934E-05-4.30658E-08-4.40976E-19 2.19570E-18
 -1      3867 9.50938E-05-2.83734E-05-2.85936E-05-1.67413E-08 1.74460E-19 1.83642E-19
 -1      3868 9.51622E-05-2.84493E-05-2.85916E-05-4.43114E-08-1.31968E-18 3.12661E-18
 -1      3869 9.51779E-05-2.84699E-05-2.85893E-05-3.93764E-08-7.08688E-19 3.03280E-18
 -1      3870 9.51446E-05-2.84323E-05-2.85904E-05-2.78056E-08 2.68340E-19 2.19520E-18
 -1      3871 9.51916E-05-2.84875E-05-2.85877E-05-3.77573E-08-5.02722E-19 1.82527E-18
 -1      3872 9.52012E-05-2.85015E-05-2.85857E-05-3.25698E-08 2.10567E-20 7.88659E-19
 -1      3873 9.51782E-05-2.84738E-05-2.85873E-05-2.89139E-08-9.54548E-19 2.59857E-18
 -1      3874 9.52105E-05-2.85142E-05-2.85842E-05-2.97158E-08 1.64914E-19 5.16050E-19
 -1      3875 9.52165E-05-2.85243E-05-2.85825E-05-2.48397E-08 6.60084E-19 1.04906E-18
 -1      3876 9.52008E-05-2.85037E-05-2.85842E-05-2.53445E-08 1.65416E-19 4.81220E-19
 -1      3877 9.52222E-05-2.85326E-05-2.85813E-05-2.20227E-08 1.45686E-18 3.44309E-19
 -1      3878 9.52256E-05-2.85392E-05-2.85800E-05-1.81505E-08 1.46761E-18 4.63843E-19
 -1      3879 9.52154E-05-2.85247E-05-2.85816E-05-2.01880E-08 4.81545E-19 1.03046E-18
 -1      3880 9.52293E-05-2.85450E-05-2.85790E-05-1.56253E-08 9.48835E-19 6.60837E-19
 -1      3881 9.52313E-05-2.85496E-05-2.85780E-05-1.25664E-08 1.23487E-18 1.46642E-18
 -1      3882 9.52246E-05-2.85391E-05-2.85794E-05-1.51076E-08 1.87294E-18-9.24897E-19
 -1      3883 9.52336E-05-2.85536E-05-2.85771E-05-1.04975E-08 1.09636E-18 1.66069E-18
 -1      3884 9.52347E-05-2.85568E-05-2.85763E-05-8.18066E-09 1.27393E-18 1.50921E-18
 -1      3885 9.52304E-05-2.85494E-05-2.85775E-05-1.06507E-08 1.72874E-18 2.75228E-19
 -1      3886 9.52361E-05-2.85597E-05-2.85756E-05-6.57366E-09 6.16215E-19 6.42476E-19
 -1      3887 9.52367E-05-2.85619E-05-2.85749E-05-4.90849E-09 3.82726E-19 9.85704E-19
 -1      3888 9.52340E-05-2.85567E-05-2.85760E-05-7.06421E-09 6.19279E-19 1.73531E-18
 -1      3889 9.52371E-05-2.85630E-05-2.85746E-05-4.21490E-09 1.72554E-19 8.02456E-19
 -1      3890 9.52371E-05-2.85639E-05-2.85742E-05-3.41621E-09-1.12704E-18-1.06036E-19
 -1      3891 9.52364E-05-2.85631E-05-2.85743E-05-3.43544E-09-1.77796E-18-7.83909E-19
 -1      3892 9.52357E-05-2.85608E-05-2.85750E-05-4.75173E-09 2.29839E-19-8.30172E-20
 -1      3893 1.03878E-04-1.52590E-05-3.80690E-05-2.92228E-06 5.16121E-19-5.22472E-19
 -1      3894 1.03910E-04-1.52291E-05-3.80101E-05 9.84560E-07 4.95845E-19-2.90109E-19
 -1      3895 1.13833E-04-3.70267E-05-3.29398E-05-8.43453E-06-1.14020E-18-2.01889E-18
 -1      3896 1.13637E-04-3.47257E-05-3.38427E-05-1.01358E-05-8.17724E-19-2.57643E-18
 -1      3897 1.12692E-04-3.16175E-05-3.47633E-05-1.09400E-05-1.85533E-19-2.13393E-18
 -1      3898 1.08028E-04-3.84348E-05-2.97786E-05-8.94613E-07-3.36414E-19 4.78828E-19
 -1      3899 1.09276E-04-3.89294E-05-3.01818E-05-2.02963E-06-1.24322E-19 1.27612E-19
 -1      3900 1.11753E-04-4.04496E-05-3.05877E-05-1.09830E-06-1.05836E-18-2.09029E-19
 -1      3901 1.04748E-04-3.65927E-05-2.91656E-05 7.31910E-07-3.26115E-19 1.34786E-18
 -1      3902 1.06083E-04-3.74867E-05-2.94168E-05 3.77173E-08-4.78951E-19 7.33876E-19
 -1      3903 1.07791E-04-3.87667E-05-2.96221E-05 1.27830E-06-5.77643E-19 9.21082E-20
 -1      3904 1.01877E-04-3.45602E-05-2.88168E-05 1.44880E-06-1.21868E-18 1.28831E-18
 -1      3905 1.03073E-04-3.55111E-05-2.89601E-05 1.11395E-06-9.75371E-19 1.14196E-18
 -1      3906 1.04149E-04-3.64500E-05-2.90555E-05 2.39104E-06-5.15247E-19 2.07167E-19
 -1      3907 9.96338E-05-3.27656E-05-2.86355E-05 1.58506E-06-5.83287E-19 1.05757E-18
 -1      3908 1.00593E-04-3.35941E-05-2.87100E-05 1.48181E-06-2.24404E-19 1.02184E-18
 -1      3909 1.01201E-04-3.42047E-05-2.87501E-05 2.58767E-06-4.88172E-19 1.37033E-19
 -1      3910 9.80057E-05-3.13513E-05-2.85528E-05 1.42321E-06 5.92932E-19 1.05211E-18
 -1      3911 9.87170E-05-3.19984E-05-2.85863E-05 1.44691E-06-2.28068E-19 1.03838E-18
 -1      3912 9.90268E-05-3.23616E-05-2.86005E-05 2.32293E-06-2.39110E-19-6.04454E-19
 -1      3913 9.68921E-05-3.03186E-05-2.85239E-05 1.15429E-06-7.28243E-20 1.31877E-18
 -1      3914 9.73909E-05-3.07906E-05-2.85347E-05 1.23091E-06 5.10426E-19 1.15875E-18
 -1      3915 9.75254E-05-3.09834E-05-2.85379E-05 1.87143E-06 3.80918E-19 8.05505E-19
 -1      3916 9.61650E-05-2.96044E-05-2.85220E-05 8.76485E-07 6.20922E-20 1.07254E-18
 -1      3917 9.64971E-05-2.99295E-05-2.85216E-05 9.65423E-07-2.27263E-19 5.30618E-19
 -1      3918 9.65387E-05-3.00215E-05-2.85205E-05 1.41264E-06 4.17786E-19 4.53454E-19
 -1      3919 9.57127E-05-2.91350E-05-2.85315E-05 6.35923E-07-6.02769E-19 1.43052E-18
 -1      3920 9.59234E-05-2.93479E-05-2.85265E-05 7.17117E-07 3.14433E-19 1.72421E-18
 -1      3921 9.59199E-05-2.93826E-05-2.85244E-05 1.01428E-06-7.23925E-20 1.82491E-19
 -1      3922 9.54450E-05-2.88411E-05-2.85439E-05 4.46696E-07 5.80069E-19 1.32178E-18
 -1      3923 9.55722E-05-2.89738E-05-2.85379E-05 5.12907E-07-3.37250E-19 1.57136E-18
 -1      3924 9.55506E-05-2.89787E-05-2.85359E-05 7.01840E-07-3.67920E-19 7.80618E-19
 -1      3925 9.52964E-05-2.86669E-05-2.85554E-05 3.06507E-07 8.95006E-19 8.69511E-19
 -1      3926 9.53687E-05-2.87451E-05-2.85500E-05 3.57009E-07 9.96101E-19 9.06355E-19
 -1      3927 9.53423E-05-2.87358E-05-2.85486E-05 4.71933E-07 1.08369E-18 7.06002E-19
 -1      3928 9.52211E-05-2.85710E-05-2.85645E-05 2.06767E-07 7.70279E-19-3.72488E-19
 -1      3929 9.52589E-05-2.86136E-05-2.85603E-05 2.43711E-07 1.00811E-18 2.26927E-19
 -1      3930 9.52338E-05-2.85990E-05-2.85594E-05 3.10214E-07 1.39924E-18-1.17577E-19
 -1      3931 9.51889E-05-2.85240E-05-2.85710E-05 1.37784E-07 2.45631E-18-7.85114E-19
 -1      3932 9.52061E-05-2.85445E-05-2.85680E-05 1.64100E-07 1.83341E-18-2.28038E-19
 -1      3933 9.51846E-05-2.85289E-05-2.85676E-05 2.00247E-07 1.23644E-18-1.61223E-18
 -1      3934 9.51805E-05-2.85062E-05-2.85750E-05 9.09892E-08 5.91600E-19-1.06885E-18
 -1      3935 9.51861E-05-2.85135E-05-2.85732E-05 1.09435E-07 1.56072E-18-5.94167E-19
 -1      3936 9.51687E-05-2.84990E-05-2.85731E-05 1.27393E-07 1.84445E-18-1.08526E-18
 -1      3937 9.51842E-05-2.85045E-05-2.85772E-05 5.96351E-08 5.14405E-21 4.12939E-19
 -1      3938 9.51837E-05-2.85047E-05-2.85763E-05 7.24577E-08-5.79289E-19-6.00323E-19
 -1      3939 9.51702E-05-2.84920E-05-2.85765E-05 8.00810E-08-2.56536E-19-3.47341E-19
 -1      3940 9.51929E-05-2.85110E-05-2.85781E-05 3.87632E-08 1.19052E-18 3.62466E-19
 -1      3941 9.51897E-05-2.85076E-05-2.85778E-05 4.76536E-08 9.79832E-19 1.36592E-19
 -1      3942 9.51794E-05-2.84970E-05-2.85781E-05 4.98060E-08 4.00193E-19 5.57309E-19
 -1      3943 9.52028E-05-2.85208E-05-2.85782E-05 2.49001E-08 2.25019E-18-5.17643E-20
 -1      3944 9.51988E-05-2.85160E-05-2.85782E-05 3.10715E-08 1.44166E-18 1.28774E-19
 -1      3945 9.51911E-05-2.85074E-05-2.85787E-05 3.06286E-08 1.85560E-18-2.97734E-19
 -1      3946 9.52120E-05-2.85311E-05-2.85776E-05 1.56742E-08 3.48157E-19 7.77476E-19
 -1      3947 9.52082E-05-2.85262E-05-2.85779E-05 1.99686E-08 1.59676E-18 2.78717E-19
 -1      3948 9.52026E-05-2.85194E-05-2.85784E-05 1.85454E-08 1.66121E-18 2.12782E-19
 -1      3949 9.52197E-05-2.85406E-05-2.85768E-05 9.52121E-09-3.71706E-19 1.74301E-18
 -1      3950 9.52165E-05-2.85361E-05-2.85772E-05 1.25152E-08 1.65641E-19 1.66294E-18
 -1      3951 9.52125E-05-2.85309E-05-2.85777E-05 1.09396E-08-6.52476E-20 9.57827E-19
 -1      3952 9.52257E-05-2.85487E-05-2.85759E-05 5.40932E-09-9.13768E-19 2.24013E-18
 -1      3953 9.52231E-05-2.85449E-05-2.85764E-05 7.49405E-09-9.31153E-19 1.99799E-18
 -1      3954 9.52204E-05-2.85409E-05-2.85768E-05 6.14695E-09-1.05253E-18 1.41588E-18
 -1      3955 9.52300E-05-2.85552E-05-2.85750E-05 2.70118E-09 8.73718E-19 1.75432E-18
 -1      3956 9.52282E-05-2.85522E-05-2.85754E-05 4.10964E-09 1.73589E-19 2.46123E-18
 -1      3957 9.52264E-05-2.85493E-05-2.85759E-05 3.13148E-09-4.45255E-19 7.19698E-19
 -1      3958 9.52335E-05-2.85610E-05-2.85739E-05 6.44758E-10 1.79611E-18 1.11925E-18
 -1      3959 1.07338E-04-3.70024E-05-3.01686E-05 4.51021E-06-3.70539E-19 9.44194E-20
 -1      3960 1.06835E-04-3.70602E-05-2.98808E-05 3.37704E-06-6.09750E-19-1.88184E-22
 -1      3961 1.09868E-04-3.81763E-05-3.07014E-05 4.48136E-06-2.80164E-19-1.57652E-20
 -1      3962 1.07791E-04-2.10140E-05-3.73164E-05 9.58345E-06-6.06125E-20-6.31933E-20
 -1      3963 1.02839E-04-3.43748E-05-2.93691E-05-8.58240E-07-4.65773E-20-3.11104E-19
 -1      3964 1.01700E-04-3.34718E-05-2.92491E-05-1.87288E-07 7.01945E-21-9.32954E-20
 -1      3965 1.00952E-04-3.25495E-05-2.92884E-05-4.08901E-07 1.49377E-20-8.93194E-20
 -1      3966 9.49714E-05-2.39686E-05-3.04236E-05-2.37065E-06 2.06731E-20-1.16949E-18
 -1      3967 9.42354E-05-2.26841E-05-3.06603E-05-2.21976E-06 2.05175E-19-1.15968E-18
 -1      3968 9.39319E-05-2.24420E-05-3.06511E-05-2.40538E-06 1.07065E-19-8.15613E-19
 -1      3969 9.27566E-05-2.85991E-05-2.73920E-05-1.55347E-05-8.35666E-19-1.11405E-18
 -1      3970 9.23438E-05-2.96274E-05-2.68487E-05-1.88495E-05-1.03352E-18-1.15300E-18
 -1      3971 9.88893E-05-3.48907E-05-2.75561E-05-1.88108E-05-9.84472E-19-8.24567E-19
 -1      3972 9.59129E-05-3.08585E-05-2.79480E-05-1.41759E-05-7.37576E-19-8.52049E-19
 -1      3973 9.61486E-05-2.49426E-05-3.05208E-05 8.28547E-07 7.69473E-19-1.05174E-18
 -1      3974 9.59085E-05-2.46511E-05-3.05440E-05 1.50282E-06 7.28686E-19-7.56549E-19
 -1      3975 9.61030E-05-2.48213E-05-3.05501E-05 2.92985E-07 7.24054E-19-1.04761E-18
 -1      3976 9.33358E-05-2.48823E-05-2.93079E-05-4.34070E-06-1.62817E-19-1.07031E-18
 -1      3977 9.26899E-05-2.50986E-05-2.90096E-05-5.38432E-06-2.57433E-19-9.98497E-19
 -1      3978 9.42847E-05-2.66595E-05-2.89884E-05-6.62660E-06-1.79693E-19-1.20172E-18
 -1      3979 9.52354E-05-2.85633E-05-2.85737E-05-1.81153E-09 1.00991E-18-1.66378E-19
 -1      3980 9.52351E-05-2.85631E-05-2.85737E-05-1.57720E-09 1.40142E-18-3.43952E-19
 -1      3981 9.52342E-05-2.85611E-05-2.85741E-05-1.46913E-09 3.28823E-19 2.31285E-19
 -1      3982 9.52349E-05-2.85621E-05-2.85741E-05-2.11188E-09 1.64158E-19-1.56174E-18
 -1      3983 1.00040E-04-3.56792E-05-2.75260E-05 1.88381E-05-6.90428E-19-1.15362E-18
 -1      3984 9.25549E-05-2.98212E-05-2.69818E-05 1.76414E-05-7.68545E-19-3.79931E-19
 -1      3985 9.16725E-05-2.56955E-05-2.83100E-05 3.31441E-06-1.05554E-18 8.63802E-19
 -1      3986 9.24004E-05-2.60945E-05-2.84021E-05 2.54332E-06-6.72231E-19 6.30998E-19
 -1      3987 9.30962E-05-2.67744E-05-2.84162E-05 2.68075E-06-6.88708E-19 9.49373E-19
 -1      3988 9.37220E-05-2.40315E-05-2.98530E-05-3.03500E-06 1.27787E-19-1.23960E-18
 -1      3989 9.33442E-05-2.44214E-05-2.95726E-05-3.50326E-06-3.08001E-20-1.11924E-18
 -1      3990 9.42897E-05-2.54138E-05-2.95136E-05-4.39862E-06-4.16386E-20-1.37812E-18
 -1      3991 9.35874E-05-2.22714E-05-3.05670E-05-2.53340E-06 1.62489E-19-1.16063E-18
 -1      3992 9.36419E-05-2.34138E-05-3.01183E-05-2.59004E-06 1.61318E-19-1.15494E-18
 -1      3993 9.41992E-05-2.41001E-05-3.00415E-05-3.08735E-06 8.68780E-20-1.19958E-18
 -1      3994 9.37558E-05-2.23304E-05-3.05970E-05-2.49613E-06 1.76661E-19-8.31035E-19
 -1      3995 9.66820E-05-2.58377E-05-3.03488E-05-4.14833E-07 5.13017E-19-9.19582E-19
 -1      3996 9.13375E-05-2.54537E-05-2.82111E-05 4.35019E-06-8.36834E-19 3.69119E-19
 -1      3997 9.24460E-05-2.64849E-05-2.82645E-05 4.44225E-06-4.71079E-19 4.36818E-19
 -1      3998 9.03675E-05-2.50414E-05-2.80477E-05 5.62354E-06-8.67007E-19 3.23246E-20
 -1      3999 1.13848E-04-3.78956E-05-3.25584E-05 7.32734E-06-2.40514E-19-2.34587E-19
 -1      4000 1.13680E-04-3.94524E-05-3.18542E-05 5.67533E-06-2.32261E-19-2.86497E-19
 -1      4001 9.93806E-05-3.05435E-05-2.94792E-05-3.73524E-07 2.30804E-19-3.48461E-19
 -1      4002 9.91172E-05-2.99462E-05-2.96663E-05-7.57723E-07 2.64420E-19-3.47390E-19
 -1      4003 1.00028E-04-3.15228E-05-2.93649E-05-4.24203E-07 3.74599E-20-1.27567E-19
 -1      4004 1.11579E-04-4.26289E-05-2.94540E-05-1.16028E-05-5.91398E-19-7.29402E-19
 -1      4005 1.13140E-04-4.29521E-05-3.00922E-05-7.14744E-06-3.32856E-19-1.01826E-19
 -1      4006 1.08842E-04-2.46730E-05-3.60196E-05 1.06069E-05-1.03606E-19-3.94871E-20
 -1      4007 9.52353E-05-2.85611E-05-2.85746E-05-3.69044E-09-8.04564E-19-1.99623E-18
 -1      4008 9.52356E-05-2.85622E-05-2.85743E-05-3.10585E-09-1.95796E-18-2.14447E-18
 -1      4009 9.52349E-05-2.85615E-05-2.85743E-05-2.78679E-09-1.49048E-18-3.12278E-18
 -1      4010 9.52324E-05-2.85586E-05-2.85745E-05-4.83785E-10 1.98059E-18-5.41050E-19
 -1      4011 9.52323E-05-2.85586E-05-2.85744E-05 1.73786E-10 2.03556E-18-7.62256E-19
 -1      4012 1.03427E-04-3.76524E-05-2.80804E-05-1.73684E-05-9.91330E-19-1.05622E-18
 -1      4013 1.08498E-04-4.11507E-05-2.89517E-05-1.42141E-05-7.47030E-19-1.03760E-18
 -1      4014 1.07488E-04-3.96715E-05-2.90942E-05-1.15946E-05-8.85355E-19-9.57057E-19
 -1      4015 1.01266E-04-3.53133E-05-2.81993E-05-1.52236E-05-7.69254E-19-1.06134E-18
 -1      4016 9.30819E-05-2.90410E-05-2.74369E-05 1.42688E-05-3.91643E-19-7.53249E-19
 -1      4017 9.74371E-05-2.71508E-05-3.01217E-05-8.87927E-07 3.69418E-19-7.93051E-19
 -1      4018 1.13759E-04-2.85648E-05-3.65232E-05-1.23091E-05 4.56862E-19-1.95743E-18
 -1      4019 9.52311E-05-2.85567E-05-2.85747E-05 1.70216E-09 1.49414E-18 7.56944E-19
 -1      4020 9.52299E-05-2.85545E-05-2.85751E-05 1.02540E-09 1.77210E-18-2.55606E-19
 -1      4021 1.07710E-04-3.79029E-05-2.99380E-05 1.78951E-06-4.66468E-19 2.20150E-19
 -1      4022 1.03720E-04-3.51021E-05-2.94125E-05-1.86728E-06 2.40197E-20-3.56719E-19
 -1      4023 1.02591E-04-3.39213E-05-2.94004E-05-2.04214E-06-1.76032E-19-4.57570E-19
 -1      4024 1.09055E-04-2.29781E-05-3.69595E-05-1.10663E-05 4.56193E-19-1.56899E-18
 -1      4025 1.04849E-04-1.69371E-05-3.76846E-05-6.26296E-06 4.09435E-19-4.93986E-19
 -1      4026 1.07587E-04-1.96002E-05-3.77572E-05-9.73311E-06 5.31493E-19-1.02530E-18
 -1      4027 1.04293E-04-3.80758E-05-2.83168E-05 1.51737E-05-6.28980E-19-1.15523E-18
 -1      4028 9.67708E-05-2.62678E-05-3.02058E-05-1.96230E-06 2.21216E-19-8.42466E-19
 -1      4029 9.62604E-05-2.57788E-05-3.02159E-05-2.39544E-06 1.38703E-19-1.09279E-18
 -1      4030 1.18758E-04-3.62060E-05-3.54578E-05 1.03411E-05-2.90369E-19 8.52559E-20
 -1      4031 1.13699E-04-3.13662E-05-3.52408E-05 1.10726E-05 8.68043E-21 4.71956E-20
 -1      4032 8.91166E-05-2.47927E-05-2.76252E-05 9.19126E-06-3.53026E-19-1.10735E-18
 -1      4033 9.01706E-05-2.50048E-05-2.78915E-05 7.17481E-06-7.19133E-19-5.77919E-19
 -1      4034 9.18925E-05-2.64529E-05-2.80207E-05 7.09909E-06-1.68000E-19 8.57993E-20
 -1      4035 1.06536E-04-3.74504E-05-2.96196E-05-1.12219E-06-3.43130E-19 3.55142E-19
 -1      4036 1.05245E-04-3.63548E-05-2.94843E-05-1.66298E-06-1.14246E-19 7.66397E-20
 -1      4037 1.04687E-04-3.59810E-05-2.94746E-05-3.05829E-06-3.39335E-19-7.09837E-20
 -1      4038 9.65124E-05-2.65048E-05-3.00055E-05-2.96014E-06 3.17989E-21-8.83763E-19
 -1      4039 9.57140E-05-2.51907E-05-3.02130E-05-2.68416E-06 1.63124E-20-1.12420E-18
 -1      4040 9.52017E-05-2.47476E-05-3.02067E-05-2.87333E-06-1.35657E-19-8.88728E-19
 -1      4041 1.10559E-04-2.86986E-05-3.52065E-05 1.12103E-05-2.91995E-22 3.40858E-19
 -1      4042 1.11982E-04-3.22269E-05-3.41496E-05 1.04506E-05 9.44094E-20 1.48251E-19
 -1      4043 1.18003E-04-3.88896E-05-3.39296E-05 7.81393E-06-1.90451E-19-6.86361E-20
 -1      4044 9.04497E-05-2.58992E-05-2.75998E-05 1.04540E-05-1.52629E-19-1.76885E-18
 -1      4045 1.12914E-04-3.53595E-05-3.33155E-05 9.47253E-06-7.88336E-20 1.50216E-21
 -1      4046 1.16107E-04-3.82043E-05-3.33319E-05 7.76695E-06-3.05647E-19-5.05738E-19
 -1      4047 1.07125E-04-3.85672E-05-2.93201E-05 3.98670E-06-1.51652E-19-1.16581E-18
 -1      4048 1.09154E-04-3.98796E-05-2.96911E-05 3.21844E-06-1.94588E-19-7.92357E-19
 -1      4049 9.52328E-05-2.85589E-05-2.85745E-05-1.23240E-09 1.36697E-18 8.75458E-19
 -1      4050 9.52314E-05-2.85565E-05-2.85749E-05-6.93759E-10 1.83267E-18-7.78053E-19
 -1      4051 9.52332E-05-2.85593E-05-2.85745E-05-1.71294E-09 1.13429E-18-2.23856E-19
 -1      4052 9.42315E-05-2.76746E-05-2.85377E-05 1.14245E-06 3.49014E-19-3.38417E-19
 -1      4053 9.44414E-05-2.77935E-05-2.85558E-05 8.67570E-07 7.15742E-19-7.97082E-19
 -1      4054 9.45157E-05-2.78779E-05-2.85682E-05 6.30162E-07 7.92575E-19-1.52930E-18
 -1      4055 9.46733E-05-2.79825E-05-2.85774E-05 4.61701E-07 1.19035E-18-1.06853E-18
 -1      4056 9.46474E-05-2.80247E-05-2.85526E-05 8.72937E-07 7.22112E-19-1.93002E-18
 -1      4057 9.47349E-05-2.80537E-05-2.85836E-05 3.26854E-07 1.53884E-18-1.09951E-18
 -1      4058 9.48395E-05-2.81309E-05-2.85872E-05 2.35810E-07 1.81407E-18-9.79258E-19
 -1      4059 9.47923E-05-2.81214E-05-2.85717E-05 4.86484E-07 1.59324E-18-2.16388E-18
 -1      4060 9.48899E-05-2.81885E-05-2.85901E-05 1.56177E-07 1.73963E-18-8.28372E-19
 -1      4061 9.49614E-05-2.82468E-05-2.85909E-05 1.06729E-07 8.20051E-19-1.72160E-18
 -1      4062 9.49098E-05-2.82158E-05-2.85815E-05 2.60400E-07 2.07074E-18-1.73126E-18
 -1      4063 9.50003E-05-2.82915E-05-2.85918E-05 6.18038E-08 2.92136E-19-1.67962E-18
 -1      4064 9.50484E-05-2.83344E-05-2.85912E-05 3.68025E-08 1.44734E-20-1.25828E-18
 -1      4065 9.50013E-05-2.82974E-05-2.85859E-05 1.28316E-07 5.46040E-19-2.10270E-18
 -1      4066 9.50775E-05-2.83683E-05-2.85910E-05 1.28604E-08-1.69057E-19-1.24610E-18
 -1      4067 9.51094E-05-2.83995E-05-2.85898E-05 1.75845E-09 7.25938E-19-2.36758E-19
 -1      4068 9.50703E-05-2.83639E-05-2.85872E-05 5.44886E-08 5.63626E-20-7.91746E-19
 -1      4069 9.51307E-05-2.84248E-05-2.85890E-05-9.94392E-09 1.13303E-18-7.87498E-19
 -1      4070 9.51518E-05-2.84474E-05-2.85876E-05-1.35301E-08 2.55771E-19-8.74792E-19
 -1      4071 9.51209E-05-2.84163E-05-2.85868E-05 1.56249E-08 5.69606E-19-2.62181E-18
 -1      4072 9.51672E-05-2.84662E-05-2.85866E-05-1.84037E-08-9.02046E-19 4.01302E-19
 -1      4073 9.51811E-05-2.84824E-05-2.85852E-05-1.82184E-08-2.68154E-19 5.72346E-19
 -1      4074 9.51575E-05-2.84567E-05-2.85854E-05-2.99535E-09 2.97547E-19-2.29539E-18
 -1      4075 9.51925E-05-2.84968E-05-2.85841E-05-1.94864E-08 2.13630E-20-5.20070E-19
 -1      4076 9.52018E-05-2.85090E-05-2.85827E-05-1.75581E-08 1.98272E-19-5.46473E-19
 -1      4077 9.51841E-05-2.84881E-05-2.85835E-05-1.05011E-08-1.12243E-18-2.48947E-18
 -1      4078 9.52094E-05-2.85190E-05-2.85817E-05-1.70495E-08 7.39542E-19 2.78939E-19
 -1      4079 9.52151E-05-2.85273E-05-2.85806E-05-1.47160E-08 1.04162E-18-1.40667E-19
 -1      4080 9.52027E-05-2.85115E-05-2.85816E-05-1.20646E-08 8.08354E-19-8.65754E-19
 -1      4081 9.52203E-05-2.85346E-05-2.85797E-05-1.35735E-08 1.38078E-18-6.84997E-19
 -1      4082 9.52240E-05-2.85406E-05-2.85787E-05-1.13218E-08 1.44499E-18-6.69345E-19
 -1      4083 9.52153E-05-2.85286E-05-2.85798E-05-1.08896E-08 1.56562E-18-3.00857E-19
 -1      4084 9.52275E-05-2.85459E-05-2.85779E-05-1.00604E-08 2.01742E-18-9.60079E-19
 -1      4085 9.52298E-05-2.85502E-05-2.85770E-05-8.13102E-09 2.01643E-18-1.63340E-19
 -1      4086 9.52239E-05-2.85413E-05-2.85781E-05-8.75929E-09 1.71944E-18-3.39295E-19
 -1      4087 9.52322E-05-2.85541E-05-2.85763E-05-6.97478E-09 1.44659E-18-6.06436E-19
 -1      4088 9.52336E-05-2.85572E-05-2.85756E-05-5.49410E-09 4.64281E-19-4.77068E-19
 -1      4089 9.52296E-05-2.85506E-05-2.85766E-05-6.51711E-09 1.60039E-18-1.00309E-18
 -1      4090 9.52343E-05-2.85586E-05-2.85753E-05-4.92022E-09 9.98198E-19-1.03948E-18
 -1      4091 9.52347E-05-2.85599E-05-2.85749E-05-4.16724E-09 2.78310E-19-6.83689E-19
 -1      4092 9.52338E-05-2.85590E-05-2.85749E-05-3.69720E-09-2.53297E-19-2.94295E-18
 -1      4093 9.52325E-05-2.85561E-05-2.85756E-05-4.81104E-09 1.22542E-18-2.03097E-18
 -1      4094 1.16092E-04-3.95627E-05-3.27959E-05-6.11274E-06-1.45872E-18-1.45145E-18
 -1      4095 1.19914E-04-4.51153E-05-3.19827E-05-4.81627E-07-3.45381E-19 1.02637E-20
 -1      4096 1.18846E-04-4.28498E-05-3.26003E-05 3.29620E-06-2.59794E-19-1.73569E-19
 -1      4097 9.33191E-05-2.88910E-05-2.76784E-05 1.20421E-05 2.33463E-20-8.69829E-19
 -1      4098 9.45513E-05-2.93401E-05-2.79509E-05 1.01717E-05-2.13296E-19-8.82085E-19
 -1      4099 9.79840E-05-3.26889E-05-2.79026E-05 1.34594E-05-1.96496E-19-9.79622E-19
 -1      4100 9.52324E-05-2.85591E-05-2.85743E-05 1.57750E-09 1.26991E-18 1.09417E-18
 -1      4101 1.03148E-04-3.56989E-05-2.88577E-05 4.20216E-06-2.89361E-19-7.69486E-19
 -1      4102 1.04812E-04-3.70189E-05-2.90575E-05 4.04358E-06-4.48499E-19-1.12515E-18
 -1      4103 1.05535E-04-3.78008E-05-2.90742E-05 6.04632E-06-2.94654E-19-1.41218E-18
 -1      4104 1.00196E-04-3.33209E-05-2.86329E-05 3.74452E-06-6.29095E-19-9.24411E-19
 -1      4105 1.01490E-04-3.44100E-05-2.87340E-05 3.91337E-06-2.11570E-19-8.18185E-19
 -1      4106 1.01789E-04-3.49330E-05-2.87213E-05 5.57276E-06-2.66020E-19-1.68789E-18
 -1      4107 9.81744E-05-3.15460E-05-2.85395E-05 2.98991E-06-2.67179E-22-1.26206E-18
 -1      4108 9.91056E-05-3.23654E-05-2.85833E-05 3.28430E-06-3.50104E-19-1.13543E-18
 -1      4109 9.90583E-05-3.25924E-05-2.85583E-05 4.51612E-06-3.49540E-19-1.37510E-18
 -1      4110 9.68778E-05-3.03472E-05-2.85098E-05 2.24605E-06 1.44758E-19-1.40762E-19
 -1      4111 9.75134E-05-3.09122E-05-2.85248E-05 2.52970E-06-2.22322E-19-9.52294E-19
 -1      4112 9.73656E-05-3.09556E-05-2.85014E-05 3.42728E-06-2.05788E-19-2.10983E-18
 -1      4113 9.60761E-05-2.95496E-05-2.85118E-05 1.59622E-06 6.51610E-19 2.16633E-19
 -1      4114 9.64865E-05-2.99193E-05-2.85124E-05 1.84250E-06 8.98566E-19 3.11456E-19
 -1      4115 9.63034E-05-2.98652E-05-2.84959E-05 2.45480E-06 6.01800E-19-1.32108E-18
 -1      4116 9.56078E-05-2.90535E-05-2.85252E-05 1.09111E-06-9.31373E-19 9.60353E-19
 -1      4117 9.58594E-05-2.92842E-05-2.85200E-05 1.28487E-06-9.20225E-20 5.99212E-19
 -1      4118 9.56984E-05-2.92023E-05-2.85103E-05 1.68054E-06 1.97439E-20 1.28132E-19
 -1      4119 9.53487E-05-2.87593E-05-2.85406E-05 7.22966E-07-1.16949E-20 5.69588E-19
 -1      4120 9.54959E-05-2.88964E-05-2.85341E-05 8.65482E-07-4.33728E-19 1.08102E-18
 -1      4121 9.53690E-05-2.88153E-05-2.85290E-05 1.11123E-06-8.74559E-19 1.06706E-18
 -1      4122 9.52171E-05-2.85957E-05-2.85541E-05 4.65901E-07 1.89722E-18-3.26090E-20
 -1      4123 9.52976E-05-2.86718E-05-2.85482E-05 5.65834E-07 9.72024E-19 5.00648E-19
 -1      4124 9.52032E-05-2.86009E-05-2.85461E-05 7.12663E-07 5.11099E-19-1.77545E-19
 -1      4125 9.51594E-05-2.85129E-05-2.85644E-05 2.93156E-07 1.70908E-18-8.23174E-19
 -1      4126 9.51994E-05-2.85512E-05-2.85598E-05 3.60981E-07 2.10758E-18-5.35112E-19
 -1      4127 9.51327E-05-2.84955E-05-2.85593E-05 4.44225E-07 2.13280E-18-9.34702E-19
 -1      4128 9.51425E-05-2.84784E-05-2.85716E-05 1.80470E-07 1.83325E-18-1.52033E-18
 -1      4129 9.51590E-05-2.84942E-05-2.85683E-05 2.25233E-07 1.55628E-18-1.16714E-18
 -1      4130 9.51130E-05-2.84522E-05-2.85687E-05 2.69191E-07 2.12732E-18-9.46331E-19
 -1      4131 9.51464E-05-2.84710E-05-2.85760E-05 1.08823E-07 1.38810E-18-4.57503E-19
 -1      4132 9.51500E-05-2.84742E-05-2.85740E-05 1.37712E-07 1.49821E-18-1.36616E-18
 -1      4133 9.51189E-05-2.84434E-05-2.85748E-05 1.58483E-07 1.19106E-18-1.39895E-18
 -1      4134 9.51594E-05-2.84778E-05-2.85785E-05 6.42866E-08-8.06448E-19-2.60123E-19
 -1      4135 9.51567E-05-2.84744E-05-2.85774E-05 8.26055E-08 6.03707E-19-3.99645E-19
 -1      4136 9.51359E-05-2.84521E-05-2.85783E-05 9.04137E-08 4.54633E-19 2.54855E-19
 -1      4137 9.51751E-05-2.84908E-05-2.85794E-05 3.71509E-08 1.08722E-18-9.73977E-19
 -1      4138 9.51698E-05-2.84845E-05-2.85790E-05 4.86188E-08-2.09870E-19-4.26444E-19
 -1      4139 9.51559E-05-2.84684E-05-2.85799E-05 4.97111E-08 1.43600E-20-8.74395E-19
 -1      4140 9.51902E-05-2.85056E-05-2.85794E-05 2.09181E-08 1.95980E-18-4.88858E-20
 -1      4141 9.51843E-05-2.84985E-05-2.85794E-05 2.80186E-08 1.98765E-18 3.42844E-19
 -1      4142 9.51752E-05-2.84869E-05-2.85803E-05 2.60515E-08 5.89811E-19-6.48061E-19
 -1      4143 9.52032E-05-2.85197E-05-2.85788E-05 1.13231E-08 9.71391E-19 1.02770E-18
 -1      4144 9.51978E-05-2.85130E-05-2.85791E-05 1.57292E-08 2.04526E-18 4.07237E-19
 -1      4145 9.51918E-05-2.85046E-05-2.85799E-05 1.27219E-08 1.56577E-18 1.90325E-18
 -1      4146 9.52137E-05-2.85322E-05-2.85779E-05 5.75697E-09-7.77518E-19 3.32057E-19
 -1      4147 9.52092E-05-2.85263E-05-2.85783E-05 8.49029E-09-2.38155E-19 3.12103E-19
 -1      4148 9.52052E-05-2.85203E-05-2.85790E-05 5.49005E-09 3.17438E-19 1.25774E-18
 -1      4149 9.52217E-05-2.85425E-05-2.85769E-05 2.55577E-09-1.10200E-18 1.31481E-19
 -1      4150 9.52182E-05-2.85377E-05-2.85774E-05 4.26043E-09-1.81279E-19 4.10518E-19
 -1      4151 9.52156E-05-2.85333E-05-2.85780E-05 1.73640E-09 1.88052E-19 1.74972E-19
 -1      4152 9.52275E-05-2.85507E-05-2.85758E-05 7.60394E-10 5.56704E-19-1.97736E-18
 -1      4153 9.52249E-05-2.85469E-05-2.85763E-05 1.78626E-09-8.41221E-19-9.65190E-19
 -1      4154 9.52233E-05-2.85438E-05-2.85768E-05-1.02277E-10-9.81366E-21-8.77823E-19
 -1      4155 1.09575E-04-3.93229E-05-3.01318E-05 5.96152E-07-5.16025E-19 3.72418E-19
 -1      4156 1.08358E-04-3.85834E-05-2.98540E-05-3.75839E-07-4.45072E-19 4.98723E-19
 -1      4157 1.08066E-04-3.87117E-05-2.97709E-05-2.37632E-06-5.11277E-19 6.04767E-19
 -1      4158 1.10257E-04-4.07110E-05-2.98330E-05-5.18702E-06-3.60467E-19-1.29684E-19
 -1      4159 1.13205E-04-4.23035E-05-3.03419E-05-3.35780E-06-8.68573E-20 5.90458E-20
 -1      4160 9.43504E-05-2.34825E-05-3.03638E-05-2.62311E-06 7.43784E-20-9.05813E-19
 -1      4161 1.16738E-04-4.41278E-05-3.11551E-05-2.16432E-06-8.93454E-20 1.28134E-19
 -1      4162 1.16135E-04-4.36308E-05-3.10325E-05 2.51996E-06-1.93549E-18-1.02629E-18
 -1      4163 1.16880E-04-4.55469E-05-3.05684E-05 7.43046E-06-2.01940E-18-1.00260E-18
 -1      4164 1.12148E-04-4.31471E-05-2.96560E-05 9.87411E-06-1.72804E-18-5.42118E-19
 -1      4165 9.38928E-05-2.74722E-05-2.84842E-05 1.95128E-06 2.17465E-19 6.71536E-19
 -1      4166 9.41672E-05-2.75982E-05-2.85172E-05 1.50478E-06 3.88465E-19 1.71739E-19
 -1      4167 9.44927E-05-2.79537E-05-2.85197E-05 1.49275E-06 6.05269E-20-4.88742E-19
 -1      4168 1.00813E-04-3.21874E-05-2.94345E-05-1.05815E-06-1.21395E-19-3.76806E-19
 -1      4169 9.52479E-05-2.58844E-05-2.97130E-05-3.98269E-06-3.47233E-20-1.14468E-18
 -1      4170 9.52643E-05-2.65899E-05-2.94540E-05-4.82434E-06 4.02837E-22-1.14618E-18
 -1      4171 9.35390E-05-2.73376E-05-2.83952E-05 3.21242E-06-6.07382E-19-8.03352E-20
 -1      4172 9.38675E-05-2.74335E-05-2.84513E-05 2.50740E-06-3.03038E-19 3.34678E-19
 -1      4173 9.43736E-05-2.79697E-05-2.84679E-05 2.43238E-06 1.51936E-19-2.22799E-19
 -1      4174 1.01964E-04-3.32528E-05-2.94627E-05-2.86825E-06-1.32221E-19-5.46876E-19
 -1      4175 1.01388E-04-3.26803E-05-2.94440E-05-1.90279E-06-1.58756E-19-4.74951E-19
 -1      4176 1.00467E-04-3.15204E-05-2.95238E-05-1.79791E-06-2.95498E-20-5.12241E-19
 -1      4177 9.67313E-05-2.94099E-05-2.87999E-05-8.53574E-06-2.88351E-19-9.96464E-19
 -1      4178 9.71413E-05-3.05165E-05-2.85515E-05-1.04206E-05-4.21291E-19-9.53581E-19
 -1      4179 9.58008E-05-2.74848E-05-2.92373E-05-5.84405E-06-5.18386E-20-1.07801E-18
 -1      4180 9.58500E-05-2.82604E-05-2.89837E-05-7.18083E-06-1.88694E-19-9.87521E-19
 -1      4181 9.67189E-05-2.80723E-05-2.94377E-05-5.30898E-06-8.63591E-20-7.58362E-19
 -1      4182 1.13238E-04-4.15534E-05-3.07438E-05-2.43614E-07-5.62082E-20 2.22017E-19
 -1      4183 9.52301E-05-2.85546E-05-2.85752E-05-5.09854E-10 1.19231E-18-2.16127E-18
 -1      4184 9.52290E-05-2.85529E-05-2.85755E-05 4.33668E-10 5.31512E-19-2.09285E-18
 -1      4185 9.52280E-05-2.85508E-05-2.85759E-05-9.82972E-10 3.85185E-20-2.22426E-18
 -1      4186 9.52307E-05-2.85550E-05-2.85753E-05-1.37634E-09 1.94513E-19-1.53752E-18
 -1      4187 9.87003E-05-2.90962E-05-2.98124E-05-1.24390E-06 2.25990E-19-7.55140E-19
 -1      4188 9.75664E-05-2.74007E-05-3.00847E-05-1.66648E-06 2.13549E-19-8.90373E-19
 -1      4189 9.80301E-05-2.82517E-05-2.99000E-05-2.39037E-06 1.65372E-19-8.05961E-19
 -1      4190 9.94760E-05-3.02707E-05-2.96575E-05-1.54967E-06 5.37215E-20-5.06642E-19
 -1      4191 1.07784E-04-4.02836E-05-2.89008E-05 1.20752E-05-6.58095E-19-3.77534E-20
 -1      4192 1.01488E-04-3.58802E-05-2.82139E-05 1.32689E-05 6.62572E-22-8.66290E-19
 -1      4193 1.09446E-04-4.07520E-05-2.94017E-05 8.46895E-06-3.27476E-19-8.20129E-20
 -1      4194 1.01388E-04-3.51249E-05-2.84113E-05 1.08055E-05 2.92225E-19-5.61172E-20
 -1      4195 9.88944E-05-2.95229E-05-2.97134E-05-2.93226E-06 4.14041E-20-7.08958E-19
 -1      4196 9.79236E-05-2.83783E-05-2.98114E-05-3.27280E-06 6.90425E-20-6.68579E-19
 -1      4197 1.16955E-04-4.13922E-05-3.24418E-05-4.26567E-06-1.67791E-18-1.31790E-18
 -1      4198 1.15971E-04-4.22317E-05-3.15172E-05-1.79956E-06-2.05188E-18-8.74481E-19
 -1      4199 9.73045E-05-2.77781E-05-2.98015E-05-3.57846E-06-9.21810E-20-7.28167E-19
 -1      4200 1.11947E-04-4.15166E-05-3.01315E-05 2.95923E-06-1.03290E-18-2.82901E-19
 -1      4201 1.14082E-04-4.24037E-05-3.07421E-05 1.48242E-06-1.37466E-18-6.79261E-19
 -1      4202 9.69151E-05-3.12255E-05-2.81766E-05 9.28493E-06-1.12262E-19-1.17732E-19
 -1      4203 9.37361E-05-2.84365E-05-2.80450E-05 8.24957E-06 1.33017E-19-5.28739E-19
 -1      4204 1.04801E-04-3.72350E-05-2.89040E-05-1.12921E-05-8.00997E-19-1.03406E-18
 -1      4205 1.07176E-04-3.88418E-05-2.92989E-05-9.04970E-06-7.79202E-19-7.47411E-19
 -1      4206 1.18881E-04-4.17458E-05-3.30689E-05 5.36402E-06-3.87246E-19-1.84633E-19
 -1      4207 1.08078E-04-3.92974E-05-2.94851E-05-7.36064E-06-6.33255E-19-5.85768E-19
 -1      4208 1.08304E-04-3.88875E-05-2.97288E-05-3.79816E-06-4.30998E-19-7.21004E-20
 -1      4209 1.06369E-04-3.74715E-05-2.94985E-05-4.32766E-06-4.04392E-19-9.18170E-22
 -1      4210 1.05344E-04-3.70646E-05-2.92803E-05-7.45298E-06-6.13353E-19-9.08139E-19
 -1      4211 1.13731E-04-4.03769E-05-3.14637E-05 3.77983E-06-1.69539E-20-1.70068E-19
 -1      4212 1.12809E-04-4.06475E-05-3.09068E-05 2.20343E-06-1.75139E-19 7.07674E-20
 -1      4213 9.52344E-05-2.85609E-05-2.85744E-05-2.51523E-09-1.44236E-19-2.81781E-18
 -1      4214 1.10709E-04-4.13735E-05-2.97268E-05 6.17155E-06-4.14485E-19-8.96660E-19
 -1      4215 9.39582E-05-2.81313E-05-2.81831E-05 6.68258E-06 1.88872E-19 1.83369E-19
 -1      4216 1.16824E-04-4.19882E-05-3.20664E-05 3.35416E-06-2.92738E-19-2.80401E-19
 -1      4217 9.83392E-05-3.18425E-05-2.84367E-05-1.17664E-05-6.11539E-19-8.19989E-19
 -1      4218 9.93731E-05-3.33863E-05-2.82419E-05-1.37937E-05-7.13708E-19-9.13736E-19
 -1      4219 1.02849E-04-3.61162E-05-2.86698E-05-1.25389E-05-8.32159E-19-1.00554E-18
 -1      4220 9.99945E-05-3.29577E-05-2.87863E-05-1.00833E-05-3.97313E-19-1.13058E-18
 -1      4221 9.36196E-05-2.74009E-05-2.83456E-05 4.03149E-06-7.79584E-19-2.30837E-19
 -1      4222 9.43729E-05-2.81789E-05-2.83900E-05 3.82897E-06-1.37111E-19-3.58212E-19
 -1      4223 9.32532E-05-2.73947E-05-2.82517E-05 5.10742E-06-1.01592E-19-2.48655E-19
 -1      4224 1.04582E-04-3.58631E-05-2.94379E-05-4.17603E-06-5.69411E-19-2.62440E-20
 -1      4225 1.03027E-04-3.44382E-05-2.93878E-05-4.15276E-06-4.01951E-19-3.12952E-19
 -1      4226 1.04346E-04-3.58939E-05-2.93767E-05-5.60207E-06-5.34320E-19-5.38921E-19
 -1      4227 1.01784E-04-3.30853E-05-2.94306E-05-3.87380E-06-3.20478E-19-4.47963E-19
 -1      4228 9.80237E-05-3.03090E-05-2.90530E-05-7.56217E-06-2.05903E-19-9.12230E-19
 -1      4229 1.06587E-04-3.88855E-05-2.90370E-05 8.25418E-06 6.96188E-20-1.72608E-19
 -1      4230 9.50904E-05-2.91747E-05-2.82863E-05 6.12043E-06 2.30818E-19-5.47974E-19
 -1      4231 9.98194E-05-3.07088E-05-2.96461E-05-2.38676E-06 1.79863E-20-6.28192E-19
 -1      4232 9.98612E-05-3.08721E-05-2.95671E-05-3.34080E-06-1.06080E-19-6.40044E-19
 -1      4233 9.49344E-05-2.83539E-05-2.85384E-05 1.03567E-06-4.91487E-21-6.81969E-19
 -1      4234 9.49901E-05-2.83573E-05-2.85508E-05 7.85243E-07 5.73898E-19-1.07666E-18
 -1      4235 9.49447E-05-2.83176E-05-2.85583E-05 6.16788E-07 1.05000E-18-1.12342E-18
 -1      4236 9.49976E-05-2.83383E-05-2.85652E-05 4.69414E-07 1.92286E-18-1.16415E-18
 -1      4237 9.49849E-05-2.83273E-05-2.85705E-05 3.58742E-07 3.11340E-18-1.42612E-18
 -1      4238 9.50302E-05-2.83533E-05-2.85743E-05 2.70076E-07 2.09087E-18-1.75867E-18
 -1      4239 9.50334E-05-2.83571E-05-2.85778E-05 1.99885E-07 1.50903E-18-1.71186E-18
 -1      4240 9.50695E-05-2.83826E-05-2.85795E-05 1.48407E-07 8.21925E-19-1.44586E-18
 -1      4241 9.50795E-05-2.83930E-05-2.85815E-05 1.05216E-07-1.09167E-19-9.13303E-19
 -1      4242 9.51072E-05-2.84155E-05-2.85820E-05 7.66636E-08-2.29592E-19-6.35719E-19
 -1      4243 9.51191E-05-2.84280E-05-2.85830E-05 5.08736E-08 2.04926E-19-6.09347E-19
 -1      4244 9.51398E-05-2.84468E-05-2.85827E-05 3.60044E-08 6.69306E-19-1.06146E-18
 -1      4245 9.51512E-05-2.84592E-05-2.85830E-05 2.10878E-08 3.30631E-19-8.64935E-19
 -1      4246 9.51663E-05-2.84744E-05-2.85824E-05 1.40971E-08-4.04784E-19-1.38371E-18
 -1      4247 9.51762E-05-2.84855E-05-2.85822E-05 5.73871E-09-2.13532E-19-5.78406E-19
 -1      4248 9.51876E-05-2.84981E-05-2.85814E-05 2.94802E-09-4.18183E-19-3.86926E-19
 -1      4249 9.51955E-05-2.85074E-05-2.85809E-05-1.48421E-09 7.94842E-21 5.61123E-19
 -1      4250 9.52032E-05-2.85167E-05-2.85801E-05-1.88885E-09 1.61328E-18 7.46444E-19
 -1      4251 9.52094E-05-2.85242E-05-2.85795E-05-4.12308E-09 1.27524E-18-1.02047E-19
 -1      4252 9.52148E-05-2.85314E-05-2.85787E-05-3.56677E-09 1.11888E-18-5.99348E-19
 -1      4253 9.52194E-05-2.85374E-05-2.85781E-05-4.59905E-09 1.24294E-18-8.24073E-19
 -1      4254 9.52231E-05-2.85427E-05-2.85774E-05-3.71273E-09 6.71696E-19-1.20342E-18
 -1      4255 9.52264E-05-2.85473E-05-2.85768E-05-4.10363E-09 4.36385E-19-1.69144E-18
 -1      4256 9.52288E-05-2.85513E-05-2.85761E-05-3.26187E-09 1.06734E-18-1.44720E-18
 -1      4257 9.50028E-05-2.84859E-05-2.85100E-05 1.66071E-06-2.91194E-19-2.41885E-19
 -1      4258 9.50399E-05-2.84469E-05-2.85287E-05 1.28601E-06-2.32233E-19-1.30158E-19
 -1      4259 9.73237E-05-3.09770E-05-2.84035E-05 5.73675E-06-6.53572E-20-8.21697E-19
 -1      4260 9.84845E-05-3.19854E-05-2.84457E-05 6.35708E-06-2.66382E-19-4.26140E-19
 -1      4261 9.57503E-05-2.94023E-05-2.84261E-05 3.86943E-06 2.47850E-19-9.96168E-19
 -1      4262 9.64159E-05-2.99837E-05-2.84308E-05 4.45197E-06 6.30535E-20-1.12735E-18
 -1      4263 9.52282E-05-2.87931E-05-2.84717E-05 2.57627E-06 2.45917E-19-2.44088E-19
 -1      4264 9.56152E-05-2.91299E-05-2.84640E-05 3.05563E-06 3.26772E-19-7.28731E-19
 -1      4265 9.52127E-05-2.86708E-05-2.84994E-05 2.01520E-06 9.65124E-20-1.22110E-19
 -1      4266 9.94266E-05-3.30332E-05-2.84137E-05 7.89448E-06-2.99598E-19-3.99727E-19
 -1      4267 9.51199E-05-2.53849E-05-2.98926E-05-3.46804E-06-1.00168E-19-1.09208E-18
 -1      4268 9.44839E-05-2.42428E-05-3.00976E-05-3.04574E-06-4.75213E-20-1.11232E-18
 -1      4269 9.52331E-05-2.85585E-05-2.85748E-05-2.42082E-09 2.61666E-19-2.95304E-18
 -1      4270 9.60680E-05-2.64358E-05-2.98244E-05-3.81754E-06-5.58509E-20-8.99658E-19
 -1      4271 1.04434E-04-3.70577E-05-2.88073E-05 8.11473E-06-1.06018E-19-4.14839E-19
 -1      4272 9.90422E-05-3.06808E-05-2.92643E-05-6.15402E-06-3.10572E-19-8.06121E-19
 -1      4273 9.98948E-05-3.19770E-05-2.91070E-05-7.34239E-06-4.20994E-19-1.00588E-18
 -1      4274 1.00591E-04-3.18930E-05-2.94554E-05-4.53454E-06-3.06409E-19-6.29092E-19
 -1      4275 1.03044E-04-3.55337E-05-2.89138E-05-1.02091E-05-5.74352E-19-1.00460E-18
 -1      4276 1.01030E-04-3.45372E-05-2.84986E-05 8.62377E-06-8.38017E-21-6.10646E-19
 -1      4277 9.75572E-05-2.83733E-05-2.96403E-05-4.17762E-06-4.88583E-20-7.21989E-19
 -1      4278 9.81331E-05-2.94425E-05-2.94410E-05-5.07515E-06-3.59999E-20-6.97472E-19
 -1      4279 1.03527E-04-3.56876E-05-2.91219E-05-8.44881E-06-5.50423E-19-8.56746E-19
 -1      4280 1.04430E-04-3.60867E-05-2.92777E-05-6.98455E-06-6.40936E-19-7.48666E-19
 -1      4281 1.02640E-04-3.43765E-05-2.92447E-05-6.47600E-06-6.65717E-19-8.56489E-19
 -1      4282 1.01982E-04-3.44374E-05-2.89246E-05-9.53740E-06-5.01620E-19-1.06850E-18
 -1      4283 9.52328E-05-2.85577E-05-2.85750E-05-3.16058E-09-1.05941E-18-4.55302E-18
 -1      4284 9.52315E-05-2.85561E-05-2.85752E-05-2.22053E-09 2.18864E-19-1.88081E-18
 -1      4285 9.52303E-05-2.85540E-05-2.85755E-05-2.14506E-09-3.62983E-19-1.93127E-18
 -1      4286 9.52321E-05-2.85563E-05-2.85754E-05-3.63137E-09 3.69193E-19-3.08727E-18
 -1      4287 1.01535E-04-3.34691E-05-2.92115E-05-6.90344E-06-5.52955E-19-7.99123E-19
 -1      4288 1.00861E-04-3.30959E-05-2.90078E-05-8.42676E-06-3.53655E-19-1.09134E-18
 -1      4289 9.52288E-05-2.85517E-05-2.85759E-05-2.00023E-09 9.29920E-20-1.91531E-18
 -1      4290 9.52313E-05-2.85548E-05-2.85757E-05-4.30556E-09 1.57288E-18-3.15162E-18
 -1      4291 9.96805E-05-3.09647E-05-2.94494E-05-4.86154E-06-2.65611E-19-7.16497E-19
 -1      4292 1.01623E-04-3.32170E-05-2.93165E-05-5.59807E-06-6.06029E-19-5.52605E-19
 -3
    1PSTEP                         4           1           1          
  100CL  101 1.000000000        4292                     0    1           1
 -4  ERROR       1    1
 -5  STR(%)      1    1    0    0
 -1         1 1.52162E+01
 -1         2 2.47825E+01
 -1         3 4.03102E-05
 -1         4 1.15821E-04
 -1         5 1.40158E+01
 -1         6 1.30919E+01
 -1         7 1.30919E+01
 -1         8 3.63480E+00
 -1         9 1.82555E+00
 -1        10 1.28796E+00
 -1        11 1.03408E+00
 -1        12 8.82359E-01
 -1        13 7.86576E-01
 -1        14 7.33252E-01
 -1        15 7.57085E-01
 -1        16 8.23318E-01
 -1        17 9.14478E-01
 -1        18 1.06729E+00
 -1        19 1.31949E+00
 -1        20 1.84055E+00
 -1        21 3.51322E+00
 -1        22 8.62654E+00
 -1        23 1.30919E+01
 -1        24 4.32017E+00
 -1        25 3.33348E+00
 -1        26 2.10870E+00
 -1        27 1.48447E+00
 -1        28 1.21904E+00
 -1        29 1.07785E+00
 -1        30 1.42928E+00
 -1        31 2.03050E+00
 -1        32 2.77052E+00
 -1        33 3.95635E+00
 -1        34 5.71473E+00
 -1        35 7.64819E+00
 -1        36 7.93578E+00
 -1        37 7.93578E+00
 -1        38 9.27993E+00
 -1        39 2.12240E+01
 -1        40 2.24799E+01
 -1        41 2.24799E+01
 -1        42 1.40075E+01
 -1        43 6.20921E+00
 -1        44 7.32513E+00
 -1        45 7.32513E+00
 -1        46 5.82833E+00
 -1        47 4.24683E+00
 -1        48 2.85717E+00
 -1        49 1.99806E+00
 -1        50 1.32916E+00
 -1        51 8.67544E-01
 -1        52 5.05127E-01
 -1        53 3.04986E-01
 -1        54 1.82015E-01
 -1        55 1.07893E-01
 -1        56 6.39947E-02
 -1        57 4.27052E-02
 -1        58 2.86001E-02
 -1        59 1.89975E-02
 -1        60 1.28378E-02
 -1        61 8.81824E-03
 -1        62 6.11798E-03
 -1        63 4.27818E-03
 -1        64 3.00217E-03
 -1        65 2.30632E-03
 -1        66 1.81841E-03
 -1        67 1.39595E-03
 -1        68 1.06037E-03
 -1        69 7.62883E-04
 -1        70 5.19124E-04
 -1        71 4.25576E-04
 -1        72 2.77858E-04
 -1        73 1.40158E+01
 -1        74 3.37411E+00
 -1        75 2.38273E+00
 -1        76 1.62079E+00
 -1        77 1.08899E+00
 -1        78 7.78158E-01
 -1        79 5.47435E-01
 -1        80 4.22137E-01
 -1        81 4.45276E-01
 -1        82 5.20445E-01
 -1        83 6.75393E-01
 -1        84 8.77111E-01
 -1        85 1.18400E+00
 -1        86 1.59644E+00
 -1        87 1.97248E+00
 -1        88 2.22107E+00
 -1        89 2.28810E+00
 -1        90 2.53850E+00
 -1        91 2.53850E+00
 -1        92 2.52626E+00
 -1        93 2.28271E+00
 -1        94 1.89279E+00
 -1        95 1.48749E+00
 -1        96 1.11695E+00
 -1        97 7.89292E-01
 -1        98 5.24567E-01
 -1        99 3.51233E-01
 -1       100 2.36467E-01
 -1       101 1.49500E-01
 -1       102 8.76018E-02
 -1       103 5.50059E-02
 -1       104 3.93089E-02
 -1       105 2.67447E-02
 -1       106 2.21246E-02
 -1       107 1.67845E-02
 -1       108 1.18491E-02
 -1       109 8.08219E-03
 -1       110 5.44853E-03
 -1       111 4.18301E-03
 -1       112 3.00995E-03
 -1       113 2.02560E-03
 -1       114 1.48666E-03
 -1       115 1.24428E-03
 -1       116 9.72326E-04
 -1       117 8.13064E-04
 -1       118 6.87718E-04
 -1       119 5.07587E-04
 -1       120 3.04722E-04
 -1       121 2.01358E-04
 -1       122 9.57177E-05
 -1       123 6.37131E-05
 -1       124 2.58407E-05
 -1       125 2.01256E-05
 -1       126 2.51805E-05
 -1       127 2.89356E-05
 -1       128 3.43379E-05
 -1       129 4.22067E-05
 -1       130 5.10001E-05
 -1       131 5.78344E-05
 -1       132 5.93458E-05
 -1       133 5.93458E-05
 -1       134 4.89813E-05
 -1       135 3.80206E-05
 -1       136 6.58693E-05
 -1       137 6.80771E-05
 -1       138 2.47825E+01
 -1       139 4.34668E+01
 -1       140 4.34668E+01
 -1       141 1.65056E+01
 -1       142 1.17007E+01
 -1       143 1.19676E+01
 -1       144 1.28910E+01
 -1       145 1.28910E+01
 -1       146 1.25392E+01
 -1       147 1.22403E+01
 -1       148 2.35124E+01
 -1       149 3.39980E+01
 -1       150 3.39980E+01
 -1       151 2.43784E+01
 -1       152 2.66417E+01
 -1       153 2.66417E+01
 -1       154 2.60807E+01
 -1       155 3.16319E+01
 -1       156 3.16319E+01
 -1       157 1.56547E+01
 -1       158 1.52162E+01
 -1       159 1.43699E+01
 -1       160 1.68459E+01
 -1       161 3.82881E+01
 -1       162 3.82881E+01
 -1       163 2.51908E+01
 -1       164 2.51908E+01
 -1       165 6.02897E+00
 -1       166 2.29428E+00
 -1       167 1.50962E+00
 -1       168 1.15526E+00
 -1       169 9.59415E-01
 -1       170 8.44195E-01
 -1       171 7.72940E-01
 -1       172 7.50535E-01
 -1       173 8.03506E-01
 -1       174 8.77250E-01
 -1       175 9.94001E-01
 -1       176 1.18493E+00
 -1       177 1.53955E+00
 -1       178 2.26978E+00
 -1       179 3.93555E+00
 -1       180 1.40158E+01
 -1       181 4.32017E+00
 -1       182 3.33348E+00
 -1       183 2.10870E+00
 -1       184 1.48447E+00
 -1       185 1.21904E+00
 -1       186 1.07785E+00
 -1       187 1.05465E+00
 -1       188 1.62755E+00
 -1       189 2.77834E+00
 -1       190 4.27446E+00
 -1       191 5.92665E+00
 -1       192 7.26734E+00
 -1       193 7.86290E+00
 -1       194 1.06220E+01
 -1       195 1.06645E+01
 -1       196 2.12240E+01
 -1       197 2.24799E+01
 -1       198 1.43596E+01
 -1       199 9.33573E+00
 -1       200 1.04454E+01
 -1       201 7.90527E+00
 -1       202 7.10086E+00
 -1       203 5.94308E+00
 -1       204 4.38623E+00
 -1       205 2.94399E+00
 -1       206 1.84530E+00
 -1       207 1.12269E+00
 -1       208 6.18820E-01
 -1       209 3.47062E-01
 -1       210 2.13976E-01
 -1       211 1.31111E-01
 -1       212 8.00448E-02
 -1       213 4.87810E-02
 -1       214 2.97103E-02
 -1       215 1.89975E-02
 -1       216 1.28378E-02
 -1       217 9.12008E-03
 -1       218 6.61357E-03
 -1       219 4.80779E-03
 -1       220 3.49652E-03
 -1       221 2.53191E-03
 -1       222 1.81841E-03
 -1       223 1.39595E-03
 -1       224 1.06037E-03
 -1       225 7.80291E-04
 -1       226 5.55146E-04
 -1       227 4.25576E-04
 -1       228 2.77858E-04
 -1       229 1.31089E-04
 -1       230 3.37411E+00
 -1       231 2.38273E+00
 -1       232 1.62079E+00
 -1       233 1.11783E+00
 -1       234 8.15047E-01
 -1       235 6.19384E-01
 -1       236 5.77166E-01
 -1       237 6.60731E-01
 -1       238 8.08748E-01
 -1       239 1.01263E+00
 -1       240 1.25319E+00
 -1       241 1.50692E+00
 -1       242 1.79903E+00
 -1       243 2.01165E+00
 -1       244 2.09547E+00
 -1       245 2.22107E+00
 -1       246 2.28810E+00
 -1       247 2.53850E+00
 -1       248 2.52626E+00
 -1       249 2.28271E+00
 -1       250 1.89279E+00
 -1       251 1.48749E+00
 -1       252 1.13708E+00
 -1       253 8.38123E-01
 -1       254 5.83835E-01
 -1       255 3.83520E-01
 -1       256 2.36467E-01
 -1       257 1.49500E-01
 -1       258 8.97747E-02
 -1       259 5.50059E-02
 -1       260 3.93089E-02
 -1       261 2.67447E-02
 -1       262 2.21246E-02
 -1       263 1.67845E-02
 -1       264 1.18491E-02
 -1       265 8.10650E-03
 -1       266 5.84003E-03
 -1       267 4.18301E-03
 -1       268 3.00995E-03
 -1       269 2.02560E-03
 -1       270 1.48666E-03
 -1       271 1.24428E-03
 -1       272 9.72326E-04
 -1       273 8.13064E-04
 -1       274 6.87718E-04
 -1       275 5.07587E-04
 -1       276 3.04722E-04
 -1       277 2.01358E-04
 -1       278 1.17904E-04
 -1       279 1.17904E-04
 -1       280 3.93225E-05
 -1       281 3.87912E-05
 -1       282 4.46300E-05
 -1       283 5.35730E-05
 -1       284 6.79122E-05
 -1       285 8.55267E-05
 -1       286 1.00762E-04
 -1       287 1.05521E-04
 -1       288 1.05521E-04
 -1       289 1.05009E-04
 -1       290 8.29487E-05
 -1       291 1.82195E-04
 -1       292 1.82195E-04
 -1       293 2.74412E+01
 -1       294 3.68476E+01
 -1       295 4.34668E+01
 -1       296 1.65056E+01
 -1       297 1.10916E+01
 -1       298 1.17007E+01
 -1       299 1.19676E+01
 -1       300 1.28910E+01
 -1       301 1.25392E+01
 -1       302 1.22403E+01
 -1       303 1.16375E+01
 -1       304 2.55056E+01
 -1       305 3.39980E+01
 -1       306 3.14091E+01
 -1       307 3.12579E+01
 -1       308 3.30553E+01
 -1       309 3.57829E+01
 -1       310 3.57829E+01
 -1       311 3.16319E+01
 -1       312 1.56547E+01
 -1       313 1.39027E+01
 -1       314 1.52162E+01
 -1       315 1.43699E+01
 -1       316 1.38677E+01
 -1       317 1.68459E+01
 -1       318 3.82881E+01
 -1       319 3.53811E+01
 -1       320 2.94840E+01
 -1       321 2.94840E+01
 -1       322 9.39662E+00
 -1       323 1.08405E+00
 -1       324 2.46118E+00
 -1       325 7.83798E-01
 -1       326 6.82082E-01
 -1       327 6.14113E-01
 -1       328 5.69040E-01
 -1       329 5.97146E-01
 -1       330 6.45790E-01
 -1       331 7.14679E-01
 -1       332 8.09511E-01
 -1       333 9.42128E-01
 -1       334 1.15188E+00
 -1       335 1.33751E+00
 -1       336 2.18437E+00
 -1       337 1.90234E+00
 -1       338 1.06220E+01
 -1       339 1.68560E+00
 -1       340 1.19258E+00
 -1       341 7.97649E-01
 -1       342 6.77449E-01
 -1       343 6.45117E-01
 -1       344 1.15089E+00
 -1       345 2.04722E+00
 -1       346 3.37161E+00
 -1       347 5.27932E+00
 -1       348 7.80310E+00
 -1       349 8.53909E+00
 -1       350 1.35650E+01
 -1       351 1.46416E+01
 -1       352 1.28780E+01
 -1       353 1.74500E+01
 -1       354 9.66128E+00
 -1       355 7.52981E+00
 -1       356 5.25784E+00
 -1       357 3.49124E+00
 -1       358 2.23253E+00
 -1       359 1.38845E+00
 -1       360 8.28593E-01
 -1       361 4.98066E-01
 -1       362 2.95966E-01
 -1       363 1.73935E-01
 -1       364 1.01030E-01
 -1       365 5.78944E-02
 -1       366 3.26094E-02
 -1       367 2.17657E-02
 -1       368 1.34449E-02
 -1       369 9.12008E-03
 -1       370 6.61357E-03
 -1       371 4.80779E-03
 -1       372 3.49886E-03
 -1       373 2.67268E-03
 -1       374 2.00306E-03
 -1       375 1.46570E-03
 -1       376 1.05462E-03
 -1       377 7.80291E-04
 -1       378 5.55146E-04
 -1       379 3.68911E-04
 -1       380 2.56228E-04
 -1       381 1.11783E+00
 -1       382 8.15047E-01
 -1       383 6.66689E-01
 -1       384 5.85131E-01
 -1       385 6.36880E-01
 -1       386 7.45689E-01
 -1       387 8.92353E-01
 -1       388 1.07602E+00
 -1       389 1.30828E+00
 -1       390 1.53525E+00
 -1       391 1.79903E+00
 -1       392 2.01165E+00
 -1       393 2.09547E+00
 -1       394 2.03024E+00
 -1       395 2.10703E+00
 -1       396 2.05758E+00
 -1       397 1.86840E+00
 -1       398 1.57920E+00
 -1       399 1.31294E+00
 -1       400 1.04126E+00
 -1       401 8.07058E-01
 -1       402 6.08179E-01
 -1       403 4.35717E-01
 -1       404 2.96182E-01
 -1       405 1.90087E-01
 -1       406 1.14002E-01
 -1       407 6.25197E-02
 -1       408 3.23281E-02
 -1       409 2.23791E-02
 -1       410 1.55967E-02
 -1       411 1.25373E-02
 -1       412 9.22990E-03
 -1       413 7.09780E-03
 -1       414 5.03612E-03
 -1       415 3.78072E-03
 -1       416 2.81006E-03
 -1       417 1.99359E-03
 -1       418 1.38943E-03
 -1       419 1.16610E-03
 -1       420 9.07870E-04
 -1       421 6.48161E-04
 -1       422 4.99759E-04
 -1       423 3.60146E-04
 -1       424 2.28712E-04
 -1       425 1.81030E-04
 -1       426 5.96802E-05
 -1       427 1.81030E-04
 -1       428 4.96213E-05
 -1       429 5.28197E-05
 -1       430 6.88205E-05
 -1       431 9.30502E-05
 -1       432 1.18587E-04
 -1       433 1.34540E-04
 -1       434 1.43484E-04
 -1       435 1.46411E-04
 -1       436 1.46411E-04
 -1       437 2.11211E-04
 -1       438 1.33488E+00
 -1       439 2.51939E+01
 -1       440 7.29871E+00
 -1       441 4.75348E+01
 -1       442 9.15567E-01
 -1       443 7.85092E+00
 -1       444 1.06368E+01
 -1       445 1.06769E+01
 -1       446 9.30905E+00
 -1       447 9.09629E+00
 -1       448 6.20608E+00
 -1       449 1.04015E+01
 -1       450 1.84903E+01
 -1       451 3.14091E+01
 -1       452 3.11082E+01
 -1       453 5.09453E+01
 -1       454 2.98478E+01
 -1       455 3.57829E+01
 -1       456 2.08650E+01
 -1       457 1.28604E+01
 -1       458 2.22640E+01
 -1       459 2.33279E+01
 -1       460 4.75348E+01
 -1       461 2.57225E+01
 -1       462 5.09453E+01
 -1       463 9.41204E+00
 -1       464 4.66009E-01
 -1       465 4.99413E-01
 -1       466 4.41886E-01
 -1       467 4.74459E-01
 -1       468 5.06465E-01
 -1       469 5.28526E-01
 -1       470 5.28526E-01
 -1       471 5.17208E-01
 -1       472 6.36419E-01
 -1       473 1.30948E+00
 -1       474 5.28044E+00
 -1       475 1.23988E+01
 -1       476 7.57161E-01
 -1       477 5.58249E-01
 -1       478 3.47285E-01
 -1       479 3.66426E-01
 -1       480 7.19745E-01
 -1       481 1.35862E+00
 -1       482 2.44699E+00
 -1       483 4.36209E+00
 -1       484 7.38048E+00
 -1       485 7.80310E+00
 -1       486 1.20021E+01
 -1       487 8.81559E-01
 -1       488 1.00792E+01
 -1       489 6.79346E+00
 -1       490 4.37779E+00
 -1       491 2.56845E+00
 -1       492 1.50707E+00
 -1       493 8.85610E-01
 -1       494 5.27290E-01
 -1       495 3.22192E-01
 -1       496 2.02461E-01
 -1       497 1.26006E-01
 -1       498 7.76870E-02
 -1       499 4.74513E-02
 -1       500 2.88990E-02
 -1       501 1.66404E-02
 -1       502 9.69828E-03
 -1       503 5.95819E-03
 -1       504 4.13444E-03
 -1       505 2.96501E-03
 -1       506 2.28144E-03
 -1       507 1.71252E-03
 -1       508 1.27063E-03
 -1       509 9.81125E-04
 -1       510 7.29102E-04
 -1       511 5.13338E-04
 -1       512 3.34985E-04
 -1       513 2.98731E-04
 -1       514 5.61697E-01
 -1       515 6.21504E-01
 -1       516 7.16197E-01
 -1       517 5.70420E-01
 -1       518 6.45370E-01
 -1       519 7.74610E-01
 -1       520 9.43587E-01
 -1       521 1.13346E+00
 -1       522 1.31233E+00
 -1       523 1.44043E+00
 -1       524 1.57991E+00
 -1       525 1.63553E+00
 -1       526 1.60025E+00
 -1       527 1.59413E+00
 -1       528 1.63745E+00
 -1       529 1.59264E+00
 -1       530 1.45530E+00
 -1       531 1.29324E+00
 -1       532 1.09666E+00
 -1       533 8.71845E-01
 -1       534 6.52989E-01
 -1       535 4.70620E-01
 -1       536 3.33730E-01
 -1       537 2.25395E-01
 -1       538 1.44304E-01
 -1       539 8.67535E-02
 -1       540 4.80294E-02
 -1       541 2.34102E-02
 -1       542 1.17384E-02
 -1       543 8.16555E-03
 -1       544 7.80430E-03
 -1       545 6.72048E-03
 -1       546 5.45998E-03
 -1       547 4.06302E-03
 -1       548 2.88488E-03
 -1       549 2.06564E-03
 -1       550 1.36820E-03
 -1       551 8.67722E-04
 -1       552 5.85115E-04
 -1       553 4.95346E-04
 -1       554 3.76326E-04
 -1       555 2.60962E-04
 -1       556 1.90023E-04
 -1       557 4.71119E-05
 -1       558 7.72722E-05
 -1       559 8.68886E-05
 -1       560 9.37388E+00
 -1       561 5.87138E-05
 -1       562 7.73270E-05
 -1       563 1.12261E-04
 -1       564 1.45508E-04
 -1       565 1.63438E-04
 -1       566 1.91048E-04
 -1       567 1.95711E-04
 -1       568 2.02163E-04
 -1       569 2.25348E+01
 -1       570 4.75348E+01
 -1       571 7.46462E+00
 -1       572 2.33520E+01
 -1       573 1.39158E+01
 -1       574 1.83558E+01
 -1       575 7.04792E+00
 -1       576 4.34015E-01
 -1       577 5.67958E+00
 -1       578 4.83742E+00
 -1       579 1.44067E+01
 -1       580 3.11082E+01
 -1       581 2.33279E+01
 -1       582 6.58705E+00
 -1       583 2.57225E+01
 -1       584 7.20499E+00
 -1       585 4.99413E-01
 -1       586 7.47275E-01
 -1       587 2.18386E+01
 -1       588 6.27706E-01
 -1       589 8.22962E+00
 -1       590 5.09453E+01
 -1       591 4.59398E-01
 -1       592 2.88806E+00
 -1       593 3.86858E-01
 -1       594 3.65783E-01
 -1       595 3.87232E-01
 -1       596 3.58571E-01
 -1       597 5.91337E-01
 -1       598 1.67785E-04
 -1       599 1.71297E+01
 -1       600 3.97739E-01
 -1       601 2.97503E-01
 -1       602 3.39351E-01
 -1       603 5.22648E-01
 -1       604 1.00417E+00
 -1       605 1.79223E+00
 -1       606 3.09646E+00
 -1       607 5.56166E+00
 -1       608 1.07178E+01
 -1       609 5.12184E+00
 -1       610 4.29409E-01
 -1       611 5.42766E-05
 -1       612 1.26129E+01
 -1       613 5.82111E+00
 -1       614 3.54574E+00
 -1       615 2.09399E+00
 -1       616 1.24330E+00
 -1       617 7.48380E-01
 -1       618 4.47398E-01
 -1       619 2.72852E-01
 -1       620 1.67628E-01
 -1       621 1.01599E-01
 -1       622 6.07257E-02
 -1       623 3.50734E-02
 -1       624 2.21292E-02
 -1       625 1.40125E-02
 -1       626 8.74096E-03
 -1       627 5.33984E-03
 -1       628 3.16381E-03
 -1       629 1.92695E-03
 -1       630 1.45030E-03
 -1       631 1.14913E-03
 -1       632 8.96476E-04
 -1       633 6.72411E-04
 -1       634 5.00756E-04
 -1       635 3.69375E-04
 -1       636 2.77321E-04
 -1       637 4.83468E-01
 -1       638 4.99852E-01
 -1       639 4.79012E-01
 -1       640 7.00425E-01
 -1       641 8.21724E-01
 -1       642 9.66817E-01
 -1       643 1.14779E+00
 -1       644 1.29312E+00
 -1       645 1.35668E+00
 -1       646 1.39289E+00
 -1       647 1.37680E+00
 -1       648 1.30041E+00
 -1       649 1.34500E+00
 -1       650 1.37604E+00
 -1       651 1.33490E+00
 -1       652 1.26311E+00
 -1       653 1.11292E+00
 -1       654 9.08980E-01
 -1       655 7.16772E-01
 -1       656 5.68037E-01
 -1       657 4.23787E-01
 -1       658 2.98595E-01
 -1       659 1.98853E-01
 -1       660 1.24820E-01
 -1       661 7.55790E-02
 -1       662 4.29046E-02
 -1       663 2.20569E-02
 -1       664 1.25197E-02
 -1       665 7.35846E-03
 -1       666 6.18829E-03
 -1       667 5.41317E-03
 -1       668 4.29299E-03
 -1       669 3.16044E-03
 -1       670 2.17312E-03
 -1       671 1.48902E-03
 -1       672 9.94115E-04
 -1       673 6.15148E-04
 -1       674 3.44882E-04
 -1       675 2.42889E-04
 -1       676 2.17777E-04
 -1       677 8.07485E-05
 -1       678 5.92039E-05
 -1       679 1.26012E-04
 -1       680 1.70849E-04
 -1       681 1.92858E-04
 -1       682 2.11718E-04
 -1       683 8.30365E+00
 -1       684 1.11773E+01
 -1       685 7.54435E+00
 -1       686 1.77218E+01
 -1       687 1.16773E+01
 -1       688 1.65648E+01
 -1       689 6.24660E+00
 -1       690 3.87232E-01
 -1       691 5.86834E-01
 -1       692 1.52648E+01
 -1       693 3.28579E-01
 -1       694 5.88185E+00
 -1       695 3.91469E+00
 -1       696 4.49337E+00
 -1       697 1.09393E-04
 -1       698 1.90232E+01
 -1       699 4.41177E+00
 -1       700 3.34566E-01
 -1       701 5.85360E+00
 -1       702 2.64415E-04
 -1       703 4.37743E-01
 -1       704 3.28579E-01
 -1       705 1.71297E+01
 -1       706 3.16227E-01
 -1       707 2.73560E-01
 -1       708 5.03554E+00
 -1       709 1.72598E-04
 -1       710 3.19827E-01
 -1       711 4.64121E-01
 -1       712 7.77062E-01
 -1       713 1.28129E+00
 -1       714 2.07805E+00
 -1       715 3.32524E+00
 -1       716 1.07178E+01
 -1       717 9.70083E+00
 -1       718 2.28224E+00
 -1       719 1.34492E+00
 -1       720 8.11206E-01
 -1       721 5.24313E-01
 -1       722 3.34496E-01
 -1       723 2.10586E-01
 -1       724 1.30799E-01
 -1       725 8.00975E-02
 -1       726 4.86060E-02
 -1       727 2.96138E-02
 -1       728 1.83118E-02
 -1       729 1.11431E-02
 -1       730 6.63397E-03
 -1       731 4.39356E-03
 -1       732 2.85733E-03
 -1       733 1.81274E-03
 -1       734 1.06236E-03
 -1       735 7.29060E-04
 -1       736 6.18573E-04
 -1       737 4.94387E-04
 -1       738 3.68587E-04
 -1       739 3.94935E-01
 -1       740 3.22380E-01
 -1       741 9.25131E-01
 -1       742 7.82975E-01
 -1       743 1.16550E+00
 -1       744 1.30011E+00
 -1       745 1.37920E+00
 -1       746 1.49656E+00
 -1       747 1.42548E+00
 -1       748 1.36573E+00
 -1       749 1.46982E+00
 -1       750 1.37876E+00
 -1       751 1.26681E+00
 -1       752 1.14279E+00
 -1       753 1.01217E+00
 -1       754 8.65462E-01
 -1       755 7.09151E-01
 -1       756 5.43955E-01
 -1       757 3.93352E-01
 -1       758 2.69213E-01
 -1       759 1.74549E-01
 -1       760 1.06785E-01
 -1       761 6.09663E-02
 -1       762 3.46805E-02
 -1       763 2.14014E-02
 -1       764 1.25197E-02
 -1       765 7.08242E-03
 -1       766 5.71952E-03
 -1       767 4.44351E-03
 -1       768 3.26032E-03
 -1       769 2.53054E-03
 -1       770 1.85502E-03
 -1       771 1.25323E-03
 -1       772 7.73867E-04
 -1       773 4.61708E-04
 -1       774 2.40520E-04
 -1       775 1.11990E+01
 -1       776 2.23217E-04
 -1       777 1.75793E-04
 -1       778 1.26343E-04
 -1       779 2.88338E+00
 -1       780 3.56737E+00
 -1       781 1.59700E-04
 -1       782 8.50553E+00
 -1       783 1.03474E+00
 -1       784 4.17634E+00
 -1       785 6.49540E+00
 -1       786 8.26402E+00
 -1       787 1.75793E-04
 -1       788 2.68810E-01
 -1       789 4.49955E+00
 -1       790 3.64425E+00
 -1       791 2.81713E-01
 -1       792 2.69734E+00
 -1       793 3.04078E+00
 -1       794 3.33659E-01
 -1       795 7.63232E+00
 -1       796 4.26888E+00
 -1       797 7.53551E+00
 -1       798 5.06864E-01
 -1       799 1.38520E-04
 -1       800 6.37693E-01
 -1       801 2.70230E-04
 -1       802 1.53084E-04
 -1       803 2.48826E-01
 -1       804 3.56737E+00
 -1       805 2.18516E-01
 -1       806 8.57365E+00
 -1       807 3.99644E+00
 -1       808 3.33659E-01
 -1       809 3.22967E-01
 -1       810 2.25233E-01
 -1       811 3.02990E+00
 -1       812 3.15568E-01
 -1       813 3.03329E+00
 -1       814 2.09508E-01
 -1       815 5.44305E-01
 -1       816 9.21270E-01
 -1       817 1.56860E+00
 -1       818 2.52289E+00
 -1       819 4.03477E+00
 -1       820 2.70750E+00
 -1       821 9.32835E-01
 -1       822 5.99727E-01
 -1       823 3.74093E-01
 -1       824 2.28202E-01
 -1       825 1.36512E-01
 -1       826 8.01161E-02
 -1       827 5.22521E-02
 -1       828 3.35169E-02
 -1       829 2.16466E-02
 -1       830 1.43277E-02
 -1       831 9.35064E-03
 -1       832 5.99578E-03
 -1       833 3.76442E-03
 -1       834 2.25655E-03
 -1       835 1.43291E-03
 -1       836 9.44001E-04
 -1       837 6.02632E-04
 -1       838 4.03777E-04
 -1       839 3.63371E-04
 -1       840 3.05720E+00
 -1       841 1.36071E+00
 -1       842 1.30294E+00
 -1       843 1.75236E+00
 -1       844 1.55086E+00
 -1       845 1.63798E+00
 -1       846 1.64499E+00
 -1       847 1.37876E+00
 -1       848 1.29940E+00
 -1       849 1.16633E+00
 -1       850 1.01217E+00
 -1       851 8.34919E-01
 -1       852 6.38368E-01
 -1       853 4.58237E-01
 -1       854 3.10544E-01
 -1       855 2.04989E-01
 -1       856 1.39861E-01
 -1       857 9.05093E-02
 -1       858 5.54992E-02
 -1       859 3.26864E-02
 -1       860 1.86431E-02
 -1       861 9.99061E-03
 -1       862 7.08242E-03
 -1       863 4.94470E-03
 -1       864 3.66712E-03
 -1       865 3.04154E-03
 -1       866 2.32250E-03
 -1       867 1.65544E-03
 -1       868 1.10202E-03
 -1       869 6.77524E-04
 -1       870 4.07464E-04
 -1       871 2.46834E-04
 -1       872 2.14919E+00
 -1       873 4.28613E+00
 -1       874 2.81925E-04
 -1       875 2.13392E-01
 -1       876 1.56462E+00
 -1       877 2.66980E+00
 -1       878 8.57641E-01
 -1       879 3.50122E+00
 -1       880 2.72872E-01
 -1       881 2.78682E-01
 -1       882 5.53157E+00
 -1       883 1.54615E+00
 -1       884 5.32792E+00
 -1       885 2.04494E+00
 -1       886 3.30851E-01
 -1       887 1.59711E-01
 -1       888 5.82718E+00
 -1       889 5.32792E+00
 -1       890 2.93190E+00
 -1       891 2.66980E+00
 -1       892 2.70230E-04
 -1       893 6.75823E-01
 -1       894 1.88572E+00
 -1       895 1.17695E+00
 -1       896 2.04628E-01
 -1       897 1.02841E+00
 -1       898 2.71341E-04
 -1       899 2.81925E-04
 -1       900 3.87676E+00
 -1       901 2.90930E+00
 -1       902 2.90740E+00
 -1       903 3.82258E-01
 -1       904 3.23949E+00
 -1       905 6.04568E+00
 -1       906 2.85573E-01
 -1       907 2.85573E-01
 -1       908 2.71341E-04
 -1       909 7.27833E-01
 -1       910 1.11372E+00
 -1       911 1.60729E+00
 -1       912 2.52289E+00
 -1       913 1.34533E+00
 -1       914 4.15813E+00
 -1       915 4.30929E-01
 -1       916 2.51122E-01
 -1       917 1.64769E-01
 -1       918 1.05160E-01
 -1       919 6.80723E-02
 -1       920 3.92131E-02
 -1       921 2.33887E-02
 -1       922 1.43277E-02
 -1       923 9.93076E-03
 -1       924 6.98212E-03
 -1       925 4.79716E-03
 -1       926 3.17149E-03
 -1       927 2.04686E-03
 -1       928 1.28272E-03
 -1       929 7.62593E-04
 -1       930 4.89747E-04
 -1       931 3.36087E-04
 -1       932 1.63798E+00
 -1       933 2.50808E+00
 -1       934 2.90740E+00
 -1       935 1.68237E+00
 -1       936 1.98722E+00
 -1       937 1.16633E+00
 -1       938 9.67227E-01
 -1       939 7.50981E-01
 -1       940 5.44302E-01
 -1       941 4.10259E-01
 -1       942 2.90547E-01
 -1       943 1.94614E-01
 -1       944 1.23857E-01
 -1       945 7.57656E-02
 -1       946 4.42577E-02
 -1       947 2.60267E-02
 -1       948 1.67672E-02
 -1       949 1.04348E-02
 -1       950 6.27627E-03
 -1       951 4.52951E-03
 -1       952 3.58709E-03
 -1       953 2.68603E-03
 -1       954 1.91278E-03
 -1       955 1.29240E-03
 -1       956 8.32188E-04
 -1       957 5.56990E-04
 -1       958 5.14244E-01
 -1       959 2.77063E+00
 -1       960 3.41537E+00
 -1       961 2.64219E-04
 -1       962 2.62507E+00
 -1       963 2.60473E-01
 -1       964 2.03700E-01
 -1       965 1.73835E+00
 -1       966 3.82690E-04
 -1       967 3.02990E+00
 -1       968 2.56588E-01
 -1       969 2.32290E-01
 -1       970 3.71567E+00
 -1       971 2.00193E+00
 -1       972 1.83328E+00
 -1       973 7.11498E-01
 -1       974 4.11553E-01
 -1       975 1.16590E+00
 -1       976 3.04774E+00
 -1       977 1.48389E+00
 -1       978 1.56462E+00
 -1       979 2.14919E+00
 -1       980 1.78054E+00
 -1       981 6.96914E-01
 -1       982 1.95469E+00
 -1       983 4.27833E-04
 -1       984 1.85743E+00
 -1       985 3.82690E-04
 -1       986 2.77203E-01
 -1       987 2.82085E+00
 -1       988 1.75236E+00
 -1       989 3.92727E-01
 -1       990 3.92727E-01
 -1       991 3.03437E-04
 -1       992 9.30245E-01
 -1       993 4.30022E-04
 -1       994 2.58153E+00
 -1       995 2.11135E+00
 -1       996 1.17215E+00
 -1       997 1.77502E+00
 -1       998 1.98722E+00
 -1       999 3.37382E-01
 -1      1000 2.07764E-01
 -1      1001 1.23650E-01
 -1      1002 7.31028E-02
 -1      1003 4.45023E-02
 -1      1004 2.88366E-02
 -1      1005 1.84426E-02
 -1      1006 1.16170E-02
 -1      1007 7.35627E-03
 -1      1008 4.79716E-03
 -1      1009 3.46591E-03
 -1      1010 2.44705E-03
 -1      1011 1.67559E-03
 -1      1012 1.10675E-03
 -1      1013 6.74730E-04
 -1      1014 5.11238E-04
 -1      1015 1.16787E+00
 -1      1016 1.01163E+00
 -1      1017 7.50981E-01
 -1      1018 5.44302E-01
 -1      1019 3.71865E-01
 -1      1020 2.44069E-01
 -1      1021 1.63702E-01
 -1      1022 1.09343E-01
 -1      1023 6.95857E-02
 -1      1024 4.28769E-02
 -1      1025 2.59175E-02
 -1      1026 1.49586E-02
 -1      1027 8.99319E-03
 -1      1028 6.14207E-03
 -1      1029 4.37677E-03
 -1      1030 3.12850E-03
 -1      1031 2.22217E-03
 -1      1032 1.66972E-03
 -1      1033 1.18462E-03
 -1      1034 7.99756E-04
 -1      1035 1.56105E+00
 -1      1036 4.95989E-01
 -1      1037 2.96913E-01
 -1      1038 2.57834E+00
 -1      1039 7.11498E-01
 -1      1040 4.30022E-04
 -1      1041 3.23949E+00
 -1      1042 5.29975E-01
 -1      1043 4.45840E-01
 -1      1044 2.78060E-01
 -1      1045 8.66256E-01
 -1      1046 1.40734E+00
 -1      1047 3.63674E-01
 -1      1048 1.77095E+00
 -1      1049 5.41923E-04
 -1      1050 4.27833E-04
 -1      1051 1.77095E+00
 -1      1052 6.38911E-01
 -1      1053 4.99615E-01
 -1      1054 1.88572E+00
 -1      1055 1.54596E+00
 -1      1056 8.22382E-01
 -1      1057 4.99615E-01
 -1      1058 1.74448E+00
 -1      1059 5.41923E-04
 -1      1060 2.33399E-01
 -1      1061 1.41983E-01
 -1      1062 8.10856E-02
 -1      1063 4.52349E-02
 -1      1064 2.39581E-02
 -1      1065 1.18560E-02
 -1      1066 8.18098E-03
 -1      1067 5.55812E-03
 -1      1068 4.01817E-03
 -1      1069 3.37048E-03
 -1      1070 2.61900E-03
 -1      1071 1.91251E-03
 -1      1072 1.27737E-03
 -1      1073 5.55885E-04
 -1      1074 1.56105E+00
 -1      1075 2.11135E+00
 -1      1076 1.53925E+00
 -1      1077 1.00239E+00
 -1      1078 8.76636E-01
 -1      1079 5.73171E-01
 -1      1080 3.89518E-01
 -1      1081 2.53030E-01
 -1      1082 1.57517E-01
 -1      1083 9.42376E-02
 -1      1084 5.48058E-02
 -1      1085 3.02628E-02
 -1      1086 1.81903E-02
 -1      1087 1.06363E-02
 -1      1088 6.04391E-03
 -1      1089 4.21554E-03
 -1      1090 3.37048E-03
 -1      1091 2.61900E-03
 -1      1092 1.91251E-03
 -1      1093 1.27737E-03
 -1      1094 1.56105E+00
 -1      1095 2.12988E+00
 -1      1096 3.64413E-01
 -1      1097 5.78763E-01
 -1      1098 5.53882E-01
 -1      1099 7.04150E-01
 -1      1100 1.07921E+00
 -1      1101 8.60975E-01
 -1      1102 7.71516E-04
 -1      1103 3.92727E-01
 -1      1104 2.58685E+00
 -1      1105 7.04150E-01
 -1      1106 1.43228E+00
 -1      1107 1.18854E+00
 -1      1108 1.18854E+00
 -1      1109 1.35272E+00
 -1      1110 8.76636E-01
 -1      1111 7.92196E-01
 -1      1112 7.07289E-01
 -1      1113 7.86590E-01
 -1      1114 8.20406E-04
 -1      1115 1.30919E+01
 -1      1116 8.36336E+00
 -1      1117 2.73018E+00
 -1      1118 1.55675E+00
 -1      1119 1.16102E+00
 -1      1120 9.58218E-01
 -1      1121 8.34468E-01
 -1      1122 7.59914E-01
 -1      1123 7.45169E-01
 -1      1124 7.90202E-01
 -1      1125 8.68898E-01
 -1      1126 9.90883E-01
 -1      1127 1.19339E+00
 -1      1128 1.58002E+00
 -1      1129 2.67689E+00
 -1      1130 6.06988E+00
 -1      1131 1.13212E+01
 -1      1132 1.30919E+01
 -1      1133 8.70604E+00
 -1      1134 3.82683E+00
 -1      1135 2.72109E+00
 -1      1136 1.79659E+00
 -1      1137 1.35175E+00
 -1      1138 1.14844E+00
 -1      1139 1.25357E+00
 -1      1140 1.72989E+00
 -1      1141 2.40051E+00
 -1      1142 3.36344E+00
 -1      1143 4.83554E+00
 -1      1144 6.68146E+00
 -1      1145 7.79198E+00
 -1      1146 7.93578E+00
 -1      1147 8.60785E+00
 -1      1148 1.52520E+01
 -1      1149 2.18520E+01
 -1      1150 2.24799E+01
 -1      1151 1.82437E+01
 -1      1152 1.01084E+01
 -1      1153 6.76717E+00
 -1      1154 7.32513E+00
 -1      1155 6.57673E+00
 -1      1156 5.03758E+00
 -1      1157 3.55200E+00
 -1      1158 2.42762E+00
 -1      1159 1.66361E+00
 -1      1160 1.09835E+00
 -1      1161 6.86335E-01
 -1      1162 4.05056E-01
 -1      1163 2.43501E-01
 -1      1164 1.44954E-01
 -1      1165 8.59436E-02
 -1      1166 5.33499E-02
 -1      1167 3.56527E-02
 -1      1168 2.37988E-02
 -1      1169 1.59176E-02
 -1      1170 1.08280E-02
 -1      1171 7.46811E-03
 -1      1172 5.19808E-03
 -1      1173 3.64017E-03
 -1      1174 2.65424E-03
 -1      1175 2.06236E-03
 -1      1176 1.60718E-03
 -1      1177 1.22816E-03
 -1      1178 9.11625E-04
 -1      1179 6.41003E-04
 -1      1180 4.72350E-04
 -1      1181 3.51717E-04
 -1      1182 1.96840E-04
 -1      1183 1.40158E+01
 -1      1184 8.69495E+00
 -1      1185 2.87842E+00
 -1      1186 2.00176E+00
 -1      1187 1.35489E+00
 -1      1188 9.33573E-01
 -1      1189 6.62797E-01
 -1      1190 4.84786E-01
 -1      1191 4.33707E-01
 -1      1192 4.82861E-01
 -1      1193 5.97919E-01
 -1      1194 7.76252E-01
 -1      1195 1.03056E+00
 -1      1196 1.39022E+00
 -1      1197 1.78446E+00
 -1      1198 2.09677E+00
 -1      1199 2.25459E+00
 -1      1200 2.41330E+00
 -1      1201 2.53850E+00
 -1      1202 2.53238E+00
 -1      1203 2.40448E+00
 -1      1204 2.08775E+00
 -1      1205 1.69014E+00
 -1      1206 1.30222E+00
 -1      1207 9.53119E-01
 -1      1208 6.56930E-01
 -1      1209 4.37900E-01
 -1      1210 2.93850E-01
 -1      1211 1.92984E-01
 -1      1212 1.18551E-01
 -1      1213 7.13039E-02
 -1      1214 4.71574E-02
 -1      1215 3.30268E-02
 -1      1216 2.44347E-02
 -1      1217 1.94546E-02
 -1      1218 1.43168E-02
 -1      1219 9.96562E-03
 -1      1220 6.76536E-03
 -1      1221 4.81577E-03
 -1      1222 3.59648E-03
 -1      1223 2.51777E-03
 -1      1224 1.75613E-03
 -1      1225 1.36547E-03
 -1      1226 1.10830E-03
 -1      1227 8.92695E-04
 -1      1228 7.50391E-04
 -1      1229 5.97652E-04
 -1      1230 4.06155E-04
 -1      1231 2.53040E-04
 -1      1232 1.20834E-04
 -1      1233 6.80140E-05
 -1      1234 7.97154E-05
 -1      1235 4.47769E-05
 -1      1236 2.29832E-05
 -1      1237 2.26530E-05
 -1      1238 2.70580E-05
 -1      1239 3.16368E-05
 -1      1240 3.82723E-05
 -1      1241 4.66034E-05
 -1      1242 5.44172E-05
 -1      1243 5.85901E-05
 -1      1244 5.93458E-05
 -1      1245 5.41635E-05
 -1      1246 4.35009E-05
 -1      1247 5.19449E-05
 -1      1248 6.69732E-05
 -1      1249 9.19491E-05
 -1      1250 2.47825E+01
 -1      1251 3.41247E+01
 -1      1252 4.34668E+01
 -1      1253 2.99862E+01
 -1      1254 1.41032E+01
 -1      1255 1.18342E+01
 -1      1256 1.24293E+01
 -1      1257 1.28910E+01
 -1      1258 1.27151E+01
 -1      1259 1.23897E+01
 -1      1260 1.78764E+01
 -1      1261 2.87552E+01
 -1      1262 3.39980E+01
 -1      1263 2.91882E+01
 -1      1264 2.55100E+01
 -1      1265 2.66417E+01
 -1      1266 2.63612E+01
 -1      1267 2.88563E+01
 -1      1268 3.16319E+01
 -1      1269 2.36433E+01
 -1      1270 1.54355E+01
 -1      1271 1.52162E+01
 -1      1272 1.47931E+01
 -1      1273 1.56079E+01
 -1      1274 2.75670E+01
 -1      1275 3.82881E+01
 -1      1276 3.17395E+01
 -1      1277 2.51908E+01
 -1      1278 2.49867E+01
 -1      1279 1.30919E+01
 -1      1280 4.83189E+00
 -1      1281 9.56044E+00
 -1      1282 2.05992E+00
 -1      1283 2.96454E+00
 -1      1284 4.16162E+00
 -1      1285 1.39879E+00
 -1      1286 1.66758E+00
 -1      1287 1.90195E+00
 -1      1288 1.09467E+00
 -1      1289 1.22161E+00
 -1      1290 1.33244E+00
 -1      1291 9.20887E-01
 -1      1292 9.96746E-01
 -1      1293 1.05734E+00
 -1      1294 8.15386E-01
 -1      1295 8.63277E-01
 -1      1296 9.01805E-01
 -1      1297 7.53096E-01
 -1      1298 7.79758E-01
 -1      1299 8.08568E-01
 -1      1300 7.53810E-01
 -1      1301 7.41893E-01
 -1      1302 7.61738E-01
 -1      1303 8.13412E-01
 -1      1304 7.80295E-01
 -1      1305 7.77020E-01
 -1      1306 8.95864E-01
 -1      1307 8.50284E-01
 -1      1308 8.40378E-01
 -1      1309 1.03064E+00
 -1      1310 9.54239E-01
 -1      1311 9.35625E-01
 -1      1312 1.25221E+00
 -1      1313 1.12611E+00
 -1      1314 1.08947E+00
 -1      1315 1.69005E+00
 -1      1316 1.42952E+00
 -1      1317 1.36224E+00
 -1      1318 2.89150E+00
 -1      1319 2.05517E+00
 -1      1320 1.90467E+00
 -1      1321 6.28105E+00
 -1      1322 3.72439E+00
 -1      1323 3.10267E+00
 -1      1324 1.40158E+01
 -1      1325 1.13212E+01
 -1      1326 8.97567E+00
 -1      1327 1.40158E+01
 -1      1328 8.70604E+00
 -1      1329 4.32017E+00
 -1      1330 3.82683E+00
 -1      1331 3.33348E+00
 -1      1332 3.82683E+00
 -1      1333 2.72109E+00
 -1      1334 2.10870E+00
 -1      1335 2.72109E+00
 -1      1336 1.79659E+00
 -1      1337 1.48447E+00
 -1      1338 1.79659E+00
 -1      1339 1.35175E+00
 -1      1340 1.21904E+00
 -1      1341 1.35175E+00
 -1      1342 1.14844E+00
 -1      1343 1.07785E+00
 -1      1344 1.14844E+00
 -1      1345 1.06625E+00
 -1      1346 1.24197E+00
 -1      1347 1.06625E+00
 -1      1348 1.52842E+00
 -1      1349 1.82902E+00
 -1      1350 1.34110E+00
 -1      1351 2.40442E+00
 -1      1352 2.77443E+00
 -1      1353 2.20294E+00
 -1      1354 3.52249E+00
 -1      1355 4.11540E+00
 -1      1356 3.52640E+00
 -1      1357 4.94150E+00
 -1      1358 5.82069E+00
 -1      1359 5.10055E+00
 -1      1360 6.49104E+00
 -1      1361 7.45777E+00
 -1      1362 6.59700E+00
 -1      1363 7.75554E+00
 -1      1364 7.89934E+00
 -1      1365 7.56512E+00
 -1      1366 9.27890E+00
 -1      1367 9.27890E+00
 -1      1368 9.24246E+00
 -1      1369 9.97220E+00
 -1      1370 1.59442E+01
 -1      1371 2.12240E+01
 -1      1372 2.18520E+01
 -1      1373 1.59442E+01
 -1      1374 2.24799E+01
 -1      1375 2.24799E+01
 -1      1376 2.18520E+01
 -1      1377 1.84198E+01
 -1      1378 1.41836E+01
 -1      1379 1.84198E+01
 -1      1380 1.16716E+01
 -1      1381 7.77247E+00
 -1      1382 1.18477E+01
 -1      1383 8.32730E+00
 -1      1384 8.88526E+00
 -1      1385 9.89056E+00
 -1      1386 7.61520E+00
 -1      1387 7.61520E+00
 -1      1388 9.17533E+00
 -1      1389 7.21299E+00
 -1      1390 6.46459E+00
 -1      1391 7.50306E+00
 -1      1392 5.88570E+00
 -1      1393 5.09495E+00
 -1      1394 6.52197E+00
 -1      1395 4.31653E+00
 -1      1396 3.62170E+00
 -1      1397 5.16466E+00
 -1      1398 2.90058E+00
 -1      1399 2.47103E+00
 -1      1400 3.66511E+00
 -1      1401 1.92168E+00
 -1      1402 1.58723E+00
 -1      1403 2.39465E+00
 -1      1404 1.22592E+00
 -1      1405 9.95117E-01
 -1      1406 1.48399E+00
 -1      1407 7.43182E-01
 -1      1408 5.61973E-01
 -1      1409 8.70755E-01
 -1      1410 4.26094E-01
 -1      1411 3.26024E-01
 -1      1412 4.82941E-01
 -1      1413 2.59481E-01
 -1      1414 1.97996E-01
 -1      1415 2.80519E-01
 -1      1416 1.56563E-01
 -1      1417 1.19502E-01
 -1      1418 1.72543E-01
 -1      1419 9.39687E-02
 -1      1420 7.20197E-02
 -1      1421 1.05578E-01
 -1      1422 5.63878E-02
 -1      1423 4.57431E-02
 -1      1424 6.44129E-02
 -1      1425 3.62078E-02
 -1      1426 2.91552E-02
 -1      1427 3.92457E-02
 -1      1428 2.37988E-02
 -1      1429 1.89975E-02
 -1      1430 2.43539E-02
 -1      1431 1.59176E-02
 -1      1432 1.28378E-02
 -1      1433 1.59176E-02
 -1      1434 1.09789E-02
 -1      1435 8.96916E-03
 -1      1436 1.09789E-02
 -1      1437 7.71590E-03
 -1      1438 6.36578E-03
 -1      1439 7.86682E-03
 -1      1440 5.46289E-03
 -1      1441 4.54298E-03
 -1      1442 5.71068E-03
 -1      1443 3.88735E-03
 -1      1444 3.24935E-03
 -1      1445 4.15216E-03
 -1      1446 2.76704E-03
 -1      1447 2.41911E-03
 -1      1448 3.01422E-03
 -1      1449 2.06236E-03
 -1      1450 1.81841E-03
 -1      1451 2.17516E-03
 -1      1452 1.60718E-03
 -1      1453 1.39595E-03
 -1      1454 1.60718E-03
 -1      1455 1.22816E-03
 -1      1456 1.06037E-03
 -1      1457 1.22816E-03
 -1      1458 9.20329E-04
 -1      1459 7.71587E-04
 -1      1460 9.20329E-04
 -1      1461 6.59014E-04
 -1      1462 5.37135E-04
 -1      1463 6.67718E-04
 -1      1464 4.72350E-04
 -1      1465 4.25576E-04
 -1      1466 4.90361E-04
 -1      1467 3.51717E-04
 -1      1468 2.77858E-04
 -1      1469 3.51717E-04
 -1      1470 2.04474E-04
 -1      1471 1.23455E-04
 -1      1472 9.95831E-05
 -1      1473 2.04474E-04
 -1      1474 3.37411E+00
 -1      1475 8.69495E+00
 -1      1476 8.69495E+00
 -1      1477 2.38273E+00
 -1      1478 2.87842E+00
 -1      1479 2.87842E+00
 -1      1480 1.62079E+00
 -1      1481 2.00176E+00
 -1      1482 2.00176E+00
 -1      1483 1.10341E+00
 -1      1484 1.36931E+00
 -1      1485 1.36931E+00
 -1      1486 7.96603E-01
 -1      1487 9.52018E-01
 -1      1488 9.66439E-01
 -1      1489 5.83410E-01
 -1      1490 6.98771E-01
 -1      1491 7.17215E-01
 -1      1492 4.99652E-01
 -1      1493 5.62301E-01
 -1      1494 5.98275E-01
 -1      1495 5.53004E-01
 -1      1496 5.41434E-01
 -1      1497 6.18949E-01
 -1      1498 6.64596E-01
 -1      1499 6.27012E-01
 -1      1500 7.34739E-01
 -1      1501 8.44010E-01
 -1      1502 7.66536E-01
 -1      1503 9.10687E-01
 -1      1504 1.06515E+00
 -1      1505 9.64290E-01
 -1      1506 1.13291E+00
 -1      1507 1.34546E+00
 -1      1508 1.19201E+00
 -1      1509 1.38005E+00
 -1      1510 1.69774E+00
 -1      1511 1.49152E+00
 -1      1512 1.65297E+00
 -1      1513 1.99207E+00
 -1      1514 1.80405E+00
 -1      1515 1.90534E+00
 -1      1516 2.15827E+00
 -1      1517 2.03398E+00
 -1      1518 2.05356E+00
 -1      1519 2.25459E+00
 -1      1520 2.22107E+00
 -1      1521 2.15827E+00
 -1      1522 2.41330E+00
 -1      1523 2.28810E+00
 -1      1524 2.25459E+00
 -1      1525 2.53850E+00
 -1      1526 2.53850E+00
 -1      1527 2.41330E+00
 -1      1528 2.52626E+00
 -1      1529 2.53238E+00
 -1      1530 2.53238E+00
 -1      1531 2.28271E+00
 -1      1532 2.40448E+00
 -1      1533 2.40448E+00
 -1      1534 1.89279E+00
 -1      1535 2.08775E+00
 -1      1536 2.08775E+00
 -1      1537 1.48749E+00
 -1      1538 1.69014E+00
 -1      1539 1.69014E+00
 -1      1540 1.12701E+00
 -1      1541 1.31229E+00
 -1      1542 1.31229E+00
 -1      1543 8.13707E-01
 -1      1544 9.77534E-01
 -1      1545 9.87603E-01
 -1      1546 5.54201E-01
 -1      1547 6.86564E-01
 -1      1548 7.10979E-01
 -1      1549 3.67376E-01
 -1      1550 4.54044E-01
 -1      1551 4.83678E-01
 -1      1552 2.36467E-01
 -1      1553 2.93850E-01
 -1      1554 3.09993E-01
 -1      1555 1.49500E-01
 -1      1556 1.92984E-01
 -1      1557 1.92984E-01
 -1      1558 8.86883E-02
 -1      1559 1.19638E-01
 -1      1560 1.19638E-01
 -1      1561 5.50059E-02
 -1      1562 7.13039E-02
 -1      1563 7.23903E-02
 -1      1564 3.93089E-02
 -1      1565 4.71574E-02
 -1      1566 4.71574E-02
 -1      1567 2.67447E-02
 -1      1568 3.30268E-02
 -1      1569 3.30268E-02
 -1      1570 2.21246E-02
 -1      1571 2.44347E-02
 -1      1572 2.44347E-02
 -1      1573 1.67845E-02
 -1      1574 1.94546E-02
 -1      1575 1.94546E-02
 -1      1576 1.18491E-02
 -1      1577 1.43168E-02
 -1      1578 1.43168E-02
 -1      1579 8.09434E-03
 -1      1580 9.97777E-03
 -1      1581 9.97777E-03
 -1      1582 5.64428E-03
 -1      1583 6.96111E-03
 -1      1584 6.97326E-03
 -1      1585 4.18301E-03
 -1      1586 4.81577E-03
 -1      1587 5.01152E-03
 -1      1588 3.00995E-03
 -1      1589 3.59648E-03
 -1      1590 3.59648E-03
 -1      1591 2.02560E-03
 -1      1592 2.51777E-03
 -1      1593 2.51777E-03
 -1      1594 1.48666E-03
 -1      1595 1.75613E-03
 -1      1596 1.75613E-03
 -1      1597 1.24428E-03
 -1      1598 1.36547E-03
 -1      1599 1.36547E-03
 -1      1600 9.72326E-04
 -1      1601 1.10830E-03
 -1      1602 1.10830E-03
 -1      1603 8.13064E-04
 -1      1604 8.92695E-04
 -1      1605 8.92695E-04
 -1      1606 6.87718E-04
 -1      1607 7.50391E-04
 -1      1608 7.50391E-04
 -1      1609 5.07587E-04
 -1      1610 5.97652E-04
 -1      1611 5.97652E-04
 -1      1612 3.04722E-04
 -1      1613 4.06155E-04
 -1      1614 4.06155E-04
 -1      1615 2.01358E-04
 -1      1616 2.53040E-04
 -1      1617 2.53040E-04
 -1      1618 1.48538E-04
 -1      1619 9.08085E-05
 -1      1620 1.06811E-04
 -1      1621 7.18724E-05
 -1      1622 9.08085E-05
 -1      1623 1.17904E-04
 -1      1624 2.97241E-05
 -1      1625 3.25816E-05
 -1      1626 7.86132E-05
 -1      1627 3.19858E-05
 -1      1628 2.94584E-05
 -1      1629 3.90568E-05
 -1      1630 3.67828E-05
 -1      1631 3.49052E-05
 -1      1632 4.17106E-05
 -1      1633 4.39555E-05
 -1      1634 4.12543E-05
 -1      1635 4.91015E-05
 -1      1636 5.50595E-05
 -1      1637 5.11251E-05
 -1      1638 6.07426E-05
 -1      1639 6.82634E-05
 -1      1640 6.38667E-05
 -1      1641 7.67195E-05
 -1      1642 7.92981E-05
 -1      1643 7.58810E-05
 -1      1644 9.31443E-05
 -1      1645 8.24334E-05
 -1      1646 8.16777E-05
 -1      1647 1.03141E-04
 -1      1648 8.24334E-05
 -1      1649 8.24334E-05
 -1      1650 1.05521E-04
 -1      1651 7.69950E-05
 -1      1652 8.21772E-05
 -1      1653 1.05265E-04
 -1      1654 6.04846E-05
 -1      1655 6.59650E-05
 -1      1656 9.39786E-05
 -1      1657 1.24032E-04
 -1      1658 1.10108E-04
 -1      1659 1.32572E-04
 -1      1660 1.25136E-04
 -1      1661 1.24032E-04
 -1      1662 1.82195E-04
 -1      1663 1.56642E-04
 -1      1664 2.61118E+01
 -1      1665 2.61118E+01
 -1      1666 4.01572E+01
 -1      1667 3.08151E+01
 -1      1668 4.34668E+01
 -1      1669 4.34668E+01
 -1      1670 1.65056E+01
 -1      1671 2.99862E+01
 -1      1672 1.13962E+01
 -1      1673 1.37986E+01
 -1      1674 1.18342E+01
 -1      1675 1.17007E+01
 -1      1676 1.24293E+01
 -1      1677 1.19676E+01
 -1      1678 1.28910E+01
 -1      1679 1.28910E+01
 -1      1680 1.25392E+01
 -1      1681 1.27151E+01
 -1      1682 1.22403E+01
 -1      1683 1.23897E+01
 -1      1684 1.75749E+01
 -1      1685 1.19389E+01
 -1      1686 2.97518E+01
 -1      1687 2.45090E+01
 -1      1688 3.39980E+01
 -1      1689 3.39980E+01
 -1      1690 2.78937E+01
 -1      1691 3.27035E+01
 -1      1692 2.89498E+01
 -1      1693 2.78181E+01
 -1      1694 2.98485E+01
 -1      1695 2.98485E+01
 -1      1696 3.09318E+01
 -1      1697 3.12123E+01
 -1      1698 3.37074E+01
 -1      1699 3.09318E+01
 -1      1700 3.16319E+01
 -1      1701 3.16319E+01
 -1      1702 1.56547E+01
 -1      1703 2.36433E+01
 -1      1704 1.45595E+01
 -1      1705 1.47787E+01
 -1      1706 1.52162E+01
 -1      1707 1.52162E+01
 -1      1708 1.43699E+01
 -1      1709 1.47931E+01
 -1      1710 1.53568E+01
 -1      1711 1.41188E+01
 -1      1712 2.75670E+01
 -1      1713 1.68459E+01
 -1      1714 3.82881E+01
 -1      1715 3.82881E+01
 -1      1716 3.02859E+01
 -1      1717 3.68346E+01
 -1      1718 2.73374E+01
 -1      1719 2.73374E+01
 -1      1720 2.71332E+01
 -1      1721 2.73374E+01
 -1      1722 8.66620E+00
 -1      1723 9.33828E+00
 -1      1724 2.99862E+01
 -1      1725 2.84626E+01
 -1      1726 1.48538E-04
 -1      1727 1.59631E-04
 -1      1728 3.21444E+01
 -1      1729 4.01572E+01
 -1      1730 1.37986E+01
 -1      1731 1.13962E+01
 -1      1732 1.18342E+01
 -1      1733 1.24293E+01
 -1      1734 1.27151E+01
 -1      1735 1.23897E+01
 -1      1736 1.19389E+01
 -1      1737 1.85715E+01
 -1      1738 2.97518E+01
 -1      1739 3.27035E+01
 -1      1740 3.13335E+01
 -1      1741 3.21566E+01
 -1      1742 3.44191E+01
 -1      1743 3.57829E+01
 -1      1744 3.37074E+01
 -1      1745 2.36433E+01
 -1      1746 1.47787E+01
 -1      1747 1.45595E+01
 -1      1748 1.47931E+01
 -1      1749 1.41188E+01
 -1      1750 1.53568E+01
 -1      1751 2.75670E+01
 -1      1752 3.68346E+01
 -1      1753 3.24325E+01
 -1      1754 2.94840E+01
 -1      1755 1.00305E+01
 -1      1756 9.56044E+00
 -1      1757 1.00093E+01
 -1      1758 1.29683E+00
 -1      1759 1.68917E+00
 -1      1760 2.37773E+00
 -1      1761 4.24508E+00
 -1      1762 1.77262E+00
 -1      1763 8.71606E-01
 -1      1764 9.69530E-01
 -1      1765 7.63138E-01
 -1      1766 8.20748E-01
 -1      1767 7.32940E-01
 -1      1768 6.93527E-01
 -1      1769 7.29154E-01
 -1      1770 6.48097E-01
 -1      1771 6.59787E-01
 -1      1772 6.70990E-01
 -1      1773 5.91577E-01
 -1      1774 7.00326E-01
 -1      1775 6.73840E-01
 -1      1776 5.83093E-01
 -1      1777 7.61520E-01
 -1      1778 7.24648E-01
 -1      1779 6.21468E-01
 -1      1780 8.54340E-01
 -1      1781 7.95964E-01
 -1      1782 6.80235E-01
 -1      1783 9.97221E-01
 -1      1784 9.01756E-01
 -1      1785 7.62095E-01
 -1      1786 1.24084E+00
 -1      1787 1.06353E+00
 -1      1788 8.75820E-01
 -1      1789 1.71083E+00
 -1      1790 1.34572E+00
 -1      1791 1.04700E+00
 -1      1792 2.63653E+00
 -1      1793 1.80365E+00
 -1      1794 1.24470E+00
 -1      1795 8.10008E+00
 -1      1796 3.05996E+00
 -1      1797 1.76094E+00
 -1      1798 2.77924E+00
 -1      1799 5.17457E+00
 -1      1800 2.14253E+00
 -1      1801 2.63822E+00
 -1      1802 2.04335E+00
 -1      1803 1.06220E+01
 -1      1804 1.00093E+01
 -1      1805 2.50954E+00
 -1      1806 1.89715E+00
 -1      1807 1.65064E+00
 -1      1808 1.33853E+00
 -1      1809 1.43909E+00
 -1      1810 1.14106E+00
 -1      1811 1.00834E+00
 -1      1812 9.95117E-01
 -1      1813 9.48243E-01
 -1      1814 8.77649E-01
 -1      1815 7.37549E-01
 -1      1816 8.61483E-01
 -1      1817 8.49884E-01
 -1      1818 6.61283E-01
 -1      1819 1.10277E+00
 -1      1820 1.38922E+00
 -1      1821 8.98004E-01
 -1      1822 1.83739E+00
 -1      1823 2.41278E+00
 -1      1824 1.59906E+00
 -1      1825 3.07498E+00
 -1      1826 3.82304E+00
 -1      1827 2.70942E+00
 -1      1828 4.77689E+00
 -1      1829 5.60299E+00
 -1      1830 4.32547E+00
 -1      1831 6.86487E+00
 -1      1832 7.53522E+00
 -1      1833 6.54121E+00
 -1      1834 7.90322E+00
 -1      1835 8.20100E+00
 -1      1836 8.17110E+00
 -1      1837 1.07139E+01
 -1      1838 1.20935E+01
 -1      1839 1.10520E+01
 -1      1840 1.55736E+01
 -1      1841 2.90542E+01
 -1      1842 3.39068E+00
 -1      1843 1.82201E+01
 -1      1844 1.88481E+01
 -1      1845 1.84249E+01
 -1      1846 1.43648E+01
 -1      1847 1.11069E+01
 -1      1848 1.16617E+01
 -1      1849 1.39477E+01
 -1      1850 1.26776E+01
 -1      1851 8.78327E+00
 -1      1852 8.38107E+00
 -1      1853 1.35556E+01
 -1      1854 7.31533E+00
 -1      1855 6.73645E+00
 -1      1856 8.59554E+00
 -1      1857 5.60046E+00
 -1      1858 4.82204E+00
 -1      1859 6.39383E+00
 -1      1860 3.93874E+00
 -1      1861 3.21762E+00
 -1      1862 4.37454E+00
 -1      1863 2.58826E+00
 -1      1864 2.03892E+00
 -1      1865 2.86189E+00
 -1      1866 1.61687E+00
 -1      1867 1.25557E+00
 -1      1868 1.81049E+00
 -1      1869 9.75641E-01
 -1      1870 7.23706E-01
 -1      1871 1.10852E+00
 -1      1872 5.58443E-01
 -1      1873 4.22564E-01
 -1      1874 6.63329E-01
 -1      1875 3.21514E-01
 -1      1876 2.54971E-01
 -1      1877 3.97016E-01
 -1      1878 1.93955E-01
 -1      1879 1.52523E-01
 -1      1880 2.34950E-01
 -1      1881 1.16070E-01
 -1      1882 9.05373E-02
 -1      1883 1.37482E-01
 -1      1884 6.89696E-02
 -1      1885 5.33377E-02
 -1      1886 7.94621E-02
 -1      1887 4.06952E-02
 -1      1888 3.11599E-02
 -1      1889 4.52519E-02
 -1      1890 2.57380E-02
 -1      1891 2.03816E-02
 -1      1892 2.71876E-02
 -1      1893 1.62212E-02
 -1      1894 1.31413E-02
 -1      1895 1.76053E-02
 -1      1896 1.09789E-02
 -1      1897 9.12008E-03
 -1      1898 1.12825E-02
 -1      1899 7.86682E-03
 -1      1900 6.61357E-03
 -1      1901 7.86682E-03
 -1      1902 5.71068E-03
 -1      1903 4.80779E-03
 -1      1904 5.71068E-03
 -1      1905 4.15333E-03
 -1      1906 3.49769E-03
 -1      1907 4.15333E-03
 -1      1908 3.08460E-03
 -1      1909 2.60230E-03
 -1      1910 3.08577E-03
 -1      1911 2.26749E-03
 -1      1912 1.91073E-03
 -1      1913 2.33787E-03
 -1      1914 1.64205E-03
 -1      1915 1.43082E-03
 -1      1916 1.73438E-03
 -1      1917 1.22529E-03
 -1      1918 1.05750E-03
 -1      1919 1.26016E-03
 -1      1920 9.20329E-04
 -1      1921 7.80291E-04
 -1      1922 9.17458E-04
 -1      1923 6.67718E-04
 -1      1924 5.55146E-04
 -1      1925 6.67718E-04
 -1      1926 4.62029E-04
 -1      1927 3.97243E-04
 -1      1928 4.62029E-04
 -1      1929 3.40902E-04
 -1      1930 2.67043E-04
 -1      1931 3.12570E-04
 -1      1932 2.30027E-04
 -1      1933 1.11783E+00
 -1      1934 1.36931E+00
 -1      1935 8.15047E-01
 -1      1936 9.66439E-01
 -1      1937 9.66439E-01
 -1      1938 6.43036E-01
 -1      1939 7.40868E-01
 -1      1940 7.40868E-01
 -1      1941 5.81148E-01
 -1      1942 6.02257E-01
 -1      1943 6.25910E-01
 -1      1944 6.48806E-01
 -1      1945 6.07023E-01
 -1      1946 6.11005E-01
 -1      1947 7.77219E-01
 -1      1948 7.03210E-01
 -1      1949 6.91285E-01
 -1      1950 9.52490E-01
 -1      1951 8.50550E-01
 -1      1952 8.19021E-01
 -1      1953 1.16460E+00
 -1      1954 1.04432E+00
 -1      1955 9.84187E-01
 -1      1956 1.40760E+00
 -1      1957 1.28073E+00
 -1      1958 1.19215E+00
 -1      1959 1.66714E+00
 -1      1960 1.52108E+00
 -1      1961 1.42176E+00
 -1      1962 1.90534E+00
 -1      1963 1.79903E+00
 -1      1964 1.66714E+00
 -1      1965 2.05356E+00
 -1      1966 2.01165E+00
 -1      1967 1.90534E+00
 -1      1968 2.15827E+00
 -1      1969 2.09547E+00
 -1      1970 2.05356E+00
 -1      1971 2.15917E+00
 -1      1972 2.12566E+00
 -1      1973 2.06286E+00
 -1      1974 2.32277E+00
 -1      1975 2.19757E+00
 -1      1976 2.06864E+00
 -1      1977 2.29192E+00
 -1      1978 2.29804E+00
 -1      1979 2.08231E+00
 -1      1980 2.07555E+00
 -1      1981 2.19733E+00
 -1      1982 1.96299E+00
 -1      1983 1.73599E+00
 -1      1984 1.93095E+00
 -1      1985 1.72380E+00
 -1      1986 1.40022E+00
 -1      1987 1.60287E+00
 -1      1988 1.44607E+00
 -1      1989 1.08917E+00
 -1      1990 1.26437E+00
 -1      1991 1.17710E+00
 -1      1992 8.22590E-01
 -1      1993 9.72070E-01
 -1      1994 9.24158E-01
 -1      1995 5.96007E-01
 -1      1996 7.23151E-01
 -1      1997 7.07619E-01
 -1      1998 4.09618E-01
 -1      1999 5.09776E-01
 -1      2000 5.21948E-01
 -1      2001 2.66325E-01
 -1      2002 3.39851E-01
 -1      2003 3.65949E-01
 -1      2004 1.69794E-01
 -1      2005 2.13277E-01
 -1      2006 2.43134E-01
 -1      2007 1.01888E-01
 -1      2008 1.31751E-01
 -1      2009 1.52044E-01
 -1      2010 5.87628E-02
 -1      2011 7.61472E-02
 -1      2012 8.82606E-02
 -1      2013 3.58185E-02
 -1      2014 4.36670E-02
 -1      2015 4.74239E-02
 -1      2016 2.45619E-02
 -1      2017 3.08440E-02
 -1      2018 2.73536E-02
 -1      2019 1.88607E-02
 -1      2020 2.11707E-02
 -1      2021 1.89879E-02
 -1      2022 1.46609E-02
 -1      2023 1.73310E-02
 -1      2024 1.40670E-02
 -1      2025 1.05395E-02
 -1      2026 1.30072E-02
 -1      2027 1.08836E-02
 -1      2028 7.60215E-03
 -1      2029 9.47342E-03
 -1      2030 8.16385E-03
 -1      2031 5.43807E-03
 -1      2032 6.57131E-03
 -1      2033 6.06696E-03
 -1      2034 3.98186E-03
 -1      2035 4.81037E-03
 -1      2036 4.40842E-03
 -1      2037 2.91000E-03
 -1      2038 3.49653E-03
 -1      2039 3.29539E-03
 -1      2040 2.00960E-03
 -1      2041 2.50177E-03
 -1      2042 2.40183E-03
 -1      2043 1.43804E-03
 -1      2044 1.70751E-03
 -1      2045 1.69151E-03
 -1      2046 1.20519E-03
 -1      2047 1.32638E-03
 -1      2048 1.27776E-03
 -1      2049 9.40098E-04
 -1      2050 1.07607E-03
 -1      2051 1.03698E-03
 -1      2052 7.30612E-04
 -1      2053 8.10244E-04
 -1      2054 7.78015E-04
 -1      2055 5.93738E-04
 -1      2056 6.56412E-04
 -1      2057 5.73960E-04
 -1      2058 4.33867E-04
 -1      2059 5.23932E-04
 -1      2060 4.29952E-04
 -1      2061 2.66717E-04
 -1      2062 3.68150E-04
 -1      2063 2.94429E-04
 -1      2064 1.91194E-04
 -1      2065 2.42876E-04
 -1      2066 2.04871E-04
 -1      2067 1.49467E-04
 -1      2068 4.92357E-05
 -1      2069 4.95013E-05
 -1      2070 1.10176E-04
 -1      2071 1.49467E-04
 -1      2072 1.20355E-04
 -1      2073 1.49467E-04
 -1      2074 4.71256E-05
 -1      2075 4.42062E-05
 -1      2076 5.46507E-05
 -1      2077 5.31964E-05
 -1      2078 4.87248E-05
 -1      2079 5.12205E-05
 -1      2080 6.83664E-05
 -1      2081 6.11968E-05
 -1      2082 6.08201E-05
 -1      2083 8.92884E-05
 -1      2084 8.04812E-05
 -1      2085 8.09353E-05
 -1      2086 1.09675E-04
 -1      2087 1.02057E-04
 -1      2088 1.05819E-04
 -1      2089 1.20031E-04
 -1      2090 1.17651E-04
 -1      2091 1.26564E-04
 -1      2092 1.24502E-04
 -1      2093 1.24502E-04
 -1      2094 1.39012E-04
 -1      2095 1.25710E-04
 -1      2096 1.25966E-04
 -1      2097 1.44947E-04
 -1      2098 1.14680E-04
 -1      2099 1.25710E-04
 -1      2100 1.46411E-04
 -1      2101 1.96703E-04
 -1      2102 1.47080E-04
 -1      2103 1.78811E-04
 -1      2104 1.47783E+00
 -1      2105 1.85880E+00
 -1      2106 1.61861E+00
 -1      2107 1.22636E+00
 -1      2108 3.43303E+01
 -1      2109 3.10207E+01
 -1      2110 9.19516E+00
 -1      2111 1.19021E+01
 -1      2112 1.09701E+01
 -1      2113 3.74880E+01
 -1      2114 3.85094E+01
 -1      2115 1.03541E+00
 -1      2116 1.21259E+00
 -1      2117 9.99809E-01
 -1      2118 8.49682E-01
 -1      2119 9.77583E+00
 -1      2120 9.47126E+00
 -1      2121 1.13022E+01
 -1      2122 1.11688E+01
 -1      2123 9.24388E+00
 -1      2124 1.17840E+01
 -1      2125 1.13223E+01
 -1      2126 1.06569E+01
 -1      2127 1.09241E+01
 -1      2128 1.11000E+01
 -1      2129 1.06683E+01
 -1      2130 1.08177E+01
 -1      2131 8.92177E+00
 -1      2132 9.22320E+00
 -1      2133 1.79535E+01
 -1      2134 1.10195E+01
 -1      2135 2.62442E+01
 -1      2136 2.19979E+01
 -1      2137 3.14091E+01
 -1      2138 3.27035E+01
 -1      2139 3.11831E+01
 -1      2140 3.12586E+01
 -1      2141 4.20003E+01
 -1      2142 4.11016E+01
 -1      2143 4.10268E+01
 -1      2144 3.28154E+01
 -1      2145 3.14516E+01
 -1      2146 3.57829E+01
 -1      2147 3.57829E+01
 -1      2148 2.62484E+01
 -1      2149 2.83239E+01
 -1      2150 1.42575E+01
 -1      2151 2.22461E+01
 -1      2152 1.75633E+01
 -1      2153 1.41137E+01
 -1      2154 2.55831E+01
 -1      2155 1.48620E+01
 -1      2156 2.88225E+01
 -1      2157 3.02760E+01
 -1      2158 1.75710E+01
 -1      2159 2.64059E+01
 -1      2160 2.93545E+01
 -1      2161 2.27959E+01
 -1      2162 3.85094E+01
 -1      2163 3.85094E+01
 -1      2164 3.54313E+01
 -1      2165 3.12850E+01
 -1      2166 2.65818E+01
 -1      2167 1.22836E+01
 -1      2168 1.31596E+01
 -1      2169 1.17412E+01
 -1      2170 1.11285E+01
 -1      2171 1.99177E+01
 -1      2172 2.89733E+00
 -1      2173 2.07339E+00
 -1      2174 7.57481E+00
 -1      2175 4.75348E+01
 -1      2176 1.16017E+01
 -1      2177 1.51640E+01
 -1      2178 2.19212E-04
 -1      2179 1.81030E-04
 -1      2180 1.44459E+01
 -1      2181 2.19212E-04
 -1      2182 2.54582E+01
 -1      2183 3.66286E+01
 -1      2184 8.30380E+00
 -1      2185 1.68627E+01
 -1      2186 2.83239E+01
 -1      2187 4.20003E+01
 -1      2188 5.09453E+01
 -1      2189 4.03966E+01
 -1      2190 3.12586E+01
 -1      2191 2.49497E+01
 -1      2192 7.65119E+00
 -1      2193 9.36054E+00
 -1      2194 1.11515E+01
 -1      2195 1.00445E+01
 -1      2196 1.25257E+01
 -1      2197 1.30908E+01
 -1      2198 9.20267E+00
 -1      2199 2.33720E-04
 -1      2200 3.28154E+01
 -1      2201 5.40061E-01
 -1      2202 5.74045E-01
 -1      2203 5.90748E-01
 -1      2204 6.41605E-01
 -1      2205 4.82711E-01
 -1      2206 5.19516E-01
 -1      2207 5.05463E-01
 -1      2208 5.60125E-01
 -1      2209 5.35802E-01
 -1      2210 4.58173E-01
 -1      2211 6.10572E-01
 -1      2212 5.76128E-01
 -1      2213 4.90462E-01
 -1      2214 6.69018E-01
 -1      2215 6.21602E-01
 -1      2216 5.17495E-01
 -1      2217 7.35327E-01
 -1      2218 6.69018E-01
 -1      2219 5.28526E-01
 -1      2220 8.34543E-01
 -1      2221 7.29668E-01
 -1      2222 5.22867E-01
 -1      2223 9.86967E-01
 -1      2224 8.94148E-01
 -1      2225 5.76814E-01
 -1      2226 1.74692E+00
 -1      2227 1.32350E+00
 -1      2228 9.72949E-01
 -1      2229 1.60591E+00
 -1      2230 6.56568E+00
 -1      2231 6.28958E+00
 -1      2232 1.35202E+01
 -1      2233 1.87963E+01
 -1      2234 1.22138E+00
 -1      2235 9.74872E-01
 -1      2236 1.20935E+01
 -1      2237 8.75417E-01
 -1      2238 6.77949E-01
 -1      2239 6.57705E-01
 -1      2240 5.72467E-01
 -1      2241 5.12367E-01
 -1      2242 4.52767E-01
 -1      2243 5.21937E-01
 -1      2244 5.05772E-01
 -1      2245 3.56855E-01
 -1      2246 6.82431E-01
 -1      2247 9.35318E-01
 -1      2248 5.43086E-01
 -1      2249 1.25476E+00
 -1      2250 1.70292E+00
 -1      2251 1.03918E+00
 -1      2252 2.24711E+00
 -1      2253 2.90930E+00
 -1      2254 1.90281E+00
 -1      2255 3.86685E+00
 -1      2256 4.82071E+00
 -1      2257 3.40454E+00
 -1      2258 6.32990E+00
 -1      2259 7.59179E+00
 -1      2260 5.87128E+00
 -1      2261 7.80310E+00
 -1      2262 8.17110E+00
 -1      2263 7.59179E+00
 -1      2264 1.02706E+01
 -1      2265 1.27835E+01
 -1      2266 1.67137E+00
 -1      2267 1.28358E+00
 -1      2268 8.19360E-01
 -1      2269 9.82805E-01
 -1      2270 2.04871E-04
 -1      2271 9.87024E+00
 -1      2272 8.80451E+00
 -1      2273 7.16164E+00
 -1      2274 6.02565E+00
 -1      2275 8.43633E+00
 -1      2276 4.81782E+00
 -1      2277 3.93452E+00
 -1      2278 5.58563E+00
 -1      2279 3.02985E+00
 -1      2280 2.40049E+00
 -1      2281 3.47312E+00
 -1      2282 1.86980E+00
 -1      2283 1.44776E+00
 -1      2284 2.03776E+00
 -1      2285 1.13703E+00
 -1      2286 8.57101E-01
 -1      2287 1.19634E+00
 -1      2288 6.77941E-01
 -1      2289 5.12678E-01
 -1      2290 7.06450E-01
 -1      2291 4.10129E-01
 -1      2292 3.09079E-01
 -1      2293 4.24741E-01
 -1      2294 2.49213E-01
 -1      2295 1.88198E-01
 -1      2296 2.62326E-01
 -1      2297 1.49970E-01
 -1      2298 1.13518E-01
 -1      2299 1.64233E-01
 -1      2300 8.93584E-02
 -1      2301 6.77907E-02
 -1      2302 1.01847E-01
 -1      2303 5.26729E-02
 -1      2304 4.00304E-02
 -1      2305 6.25692E-02
 -1      2306 3.07542E-02
 -1      2307 2.53324E-02
 -1      2308 3.81752E-02
 -1      2309 1.92031E-02
 -1      2310 1.50426E-02
 -1      2311 2.27697E-02
 -1      2312 1.15716E-02
 -1      2313 9.40918E-03
 -1      2314 1.31693E-02
 -1      2315 7.53914E-03
 -1      2316 6.28588E-03
 -1      2317 7.82823E-03
 -1      2318 5.37401E-03
 -1      2319 4.47112E-03
 -1      2320 5.04632E-03
 -1      2321 3.88640E-03
 -1      2322 3.23194E-03
 -1      2323 3.54973E-03
 -1      2324 2.89015E-03
 -1      2325 2.47706E-03
 -1      2326 2.62323E-03
 -1      2327 2.19260E-03
 -1      2328 1.85779E-03
 -1      2329 1.99698E-03
 -1      2330 1.63685E-03
 -1      2331 1.36817E-03
 -1      2332 1.49158E-03
 -1      2333 1.22341E-03
 -1      2334 1.01788E-03
 -1      2335 1.12588E-03
 -1      2336 8.91863E-04
 -1      2337 7.54696E-04
 -1      2338 8.55114E-04
 -1      2339 6.46814E-04
 -1      2340 5.34242E-04
 -1      2341 6.21220E-04
 -1      2342 4.45066E-04
 -1      2343 3.51948E-04
 -1      2344 4.24162E-04
 -1      2345 3.33821E-04
 -1      2346 2.77479E-04
 -1      2347 2.54971E-04
 -1      2348 3.16858E-04
 -1      2349 5.73414E-01
 -1      2350 6.14193E-01
 -1      2351 6.44097E-01
 -1      2352 7.18276E-01
 -1      2353 5.91601E-01
 -1      2354 7.65622E-01
 -1      2355 9.17014E-01
 -1      2356 6.68851E-01
 -1      2357 6.03650E-01
 -1      2358 5.77775E-01
 -1      2359 5.66058E-01
 -1      2360 6.95530E-01
 -1      2361 6.41125E-01
 -1      2362 6.07895E-01
 -1      2363 8.33481E-01
 -1      2364 7.60149E-01
 -1      2365 7.09990E-01
 -1      2366 1.00980E+00
 -1      2367 9.17970E-01
 -1      2368 8.59098E-01
 -1      2369 1.22087E+00
 -1      2370 1.10474E+00
 -1      2371 1.03852E+00
 -1      2372 1.42379E+00
 -1      2373 1.31030E+00
 -1      2374 1.22290E+00
 -1      2375 1.61973E+00
 -1      2376 1.48784E+00
 -1      2377 1.37638E+00
 -1      2378 1.79578E+00
 -1      2379 1.68947E+00
 -1      2380 1.51017E+00
 -1      2381 1.86550E+00
 -1      2382 1.82359E+00
 -1      2383 1.60772E+00
 -1      2384 1.81525E+00
 -1      2385 1.84786E+00
 -1      2386 1.61789E+00
 -1      2387 1.85058E+00
 -1      2388 1.81219E+00
 -1      2389 1.59719E+00
 -1      2390 1.84752E+00
 -1      2391 1.87224E+00
 -1      2392 1.61579E+00
 -1      2393 1.73052E+00
 -1      2394 1.82511E+00
 -1      2395 1.61504E+00
 -1      2396 1.51725E+00
 -1      2397 1.66185E+00
 -1      2398 1.52397E+00
 -1      2399 1.30309E+00
 -1      2400 1.43622E+00
 -1      2401 1.37427E+00
 -1      2402 1.06896E+00
 -1      2403 1.20480E+00
 -1      2404 1.19495E+00
 -1      2405 8.39452E-01
 -1      2406 9.56551E-01
 -1      2407 9.84254E-01
 -1      2408 6.30584E-01
 -1      2409 7.30024E-01
 -1      2410 7.62417E-01
 -1      2411 4.53168E-01
 -1      2412 5.39400E-01
 -1      2413 5.61805E-01
 -1      2414 3.14956E-01
 -1      2415 3.84723E-01
 -1      2416 4.02175E-01
 -1      2417 2.07741E-01
 -1      2418 2.60789E-01
 -1      2419 2.79563E-01
 -1      2420 1.29153E-01
 -1      2421 1.67195E-01
 -1      2422 1.84849E-01
 -1      2423 7.46366E-02
 -1      2424 1.00378E-01
 -1      2425 1.15529E-01
 -1      2426 4.01788E-02
 -1      2427 5.52746E-02
 -1      2428 6.73915E-02
 -1      2429 2.28946E-02
 -1      2430 2.78692E-02
 -1      2431 3.57198E-02
 -1      2432 1.36675E-02
 -1      2433 1.70587E-02
 -1      2434 1.75743E-02
 -1      2435 1.03515E-02
 -1      2436 1.18811E-02
 -1      2437 9.95197E-03
 -1      2438 8.51710E-03
 -1      2439 1.01708E-02
 -1      2440 7.98493E-03
 -1      2441 6.90914E-03
 -1      2442 7.97519E-03
 -1      2443 7.26239E-03
 -1      2444 5.24805E-03
 -1      2445 6.27889E-03
 -1      2446 6.09023E-03
 -1      2447 3.92187E-03
 -1      2448 4.54957E-03
 -1      2449 4.76150E-03
 -1      2450 2.84747E-03
 -1      2451 3.33280E-03
 -1      2452 3.47395E-03
 -1      2453 2.02962E-03
 -1      2454 2.43785E-03
 -1      2455 2.47526E-03
 -1      2456 1.37881E-03
 -1      2457 1.68090E-03
 -1      2458 1.71692E-03
 -1      2459 1.01691E-03
 -1      2460 1.12857E-03
 -1      2461 1.11796E-03
 -1      2462 7.46493E-04
 -1      2463 8.75606E-04
 -1      2464 7.26419E-04
 -1      2465 5.71753E-04
 -1      2466 7.01608E-04
 -1      2467 5.40230E-04
 -1      2468 4.38042E-04
 -1      2469 5.12243E-04
 -1      2470 4.35836E-04
 -1      2471 3.10554E-04
 -1      2472 3.80361E-04
 -1      2473 3.18644E-04
 -1      2474 2.09368E-04
 -1      2475 2.75085E-04
 -1      2476 2.25493E-04
 -1      2477 4.99658E-05
 -1      2478 4.83666E-05
 -1      2479 6.34467E-05
 -1      2480 6.84762E-05
 -1      2481 6.21921E-05
 -1      2482 7.32844E-05
 -1      2483 1.33959E-04
 -1      2484 8.20804E-05
 -1      2485 1.39321E+01
 -1      2486 9.88770E+00
 -1      2487 6.37671E-05
 -1      2488 5.57668E-05
 -1      2489 5.29129E-05
 -1      2490 8.51886E-05
 -1      2491 7.30738E-05
 -1      2492 6.80204E-05
 -1      2493 1.15424E-04
 -1      2494 1.02655E-04
 -1      2495 9.47939E-05
 -1      2496 1.40024E-04
 -1      2497 1.32047E-04
 -1      2498 1.28884E-04
 -1      2499 1.53461E-04
 -1      2500 1.48989E-04
 -1      2501 1.54473E-04
 -1      2502 1.68729E-04
 -1      2503 1.67266E-04
 -1      2504 1.77243E-04
 -1      2505 1.71061E-04
 -1      2506 1.71061E-04
 -1      2507 1.93379E-04
 -1      2508 2.06687E-04
 -1      2509 1.74287E-04
 -1      2510 1.98937E-04
 -1      2511 2.50447E-04
 -1      2512 2.91588E+01
 -1      2513 2.61913E+01
 -1      2514 4.75348E+01
 -1      2515 4.75348E+01
 -1      2516 7.38166E+00
 -1      2517 1.10531E+01
 -1      2518 2.72301E+01
 -1      2519 2.73805E+01
 -1      2520 1.56829E+01
 -1      2521 1.17886E+01
 -1      2522 2.17748E+01
 -1      2523 2.20391E+01
 -1      2524 8.07210E+00
 -1      2525 8.17848E+00
 -1      2526 5.01528E-01
 -1      2527 5.24064E-01
 -1      2528 4.50012E-01
 -1      2529 4.37951E-01
 -1      2530 1.85526E-04
 -1      2531 8.15821E+00
 -1      2532 6.76525E+00
 -1      2533 5.52175E+00
 -1      2534 6.96685E+00
 -1      2535 2.29079E+01
 -1      2536 1.64485E+01
 -1      2537 4.10268E+01
 -1      2538 3.11082E+01
 -1      2539 3.54313E+01
 -1      2540 2.33279E+01
 -1      2541 8.49428E+00
 -1      2542 6.39656E+00
 -1      2543 2.57225E+01
 -1      2544 3.66286E+01
 -1      2545 8.94094E+00
 -1      2546 8.92092E+00
 -1      2547 6.44229E+00
 -1      2548 6.41605E-01
 -1      2549 7.07490E-01
 -1      2550 4.99413E-01
 -1      2551 5.48001E+00
 -1      2552 1.32481E+00
 -1      2553 1.02838E+00
 -1      2554 1.04108E+00
 -1      2555 9.93171E+00
 -1      2556 1.53773E+01
 -1      2557 1.72684E+01
 -1      2558 1.80499E+01
 -1      2559 9.90260E+00
 -1      2560 6.37253E+00
 -1      2561 1.98570E+01
 -1      2562 1.19975E+01
 -1      2563 2.21867E+01
 -1      2564 2.58432E+01
 -1      2565 3.63919E+01
 -1      2566 1.69203E+01
 -1      2567 1.38456E-04
 -1      2568 7.98046E+00
 -1      2569 1.18903E+01
 -1      2570 2.46739E+01
 -1      2571 3.66286E+01
 -1      2572 3.54313E+01
 -1      2573 8.72768E-01
 -1      2574 9.81293E-01
 -1      2575 6.87491E-01
 -1      2576 6.71951E-01
 -1      2577 9.45326E+00
 -1      2578 7.71731E+00
 -1      2579 8.82083E+00
 -1      2580 2.20391E+01
 -1      2581 1.88793E+01
 -1      2582 5.09453E+01
 -1      2583 4.10268E+01
 -1      2584 5.09453E+01
 -1      2585 5.94267E+00
 -1      2586 8.22998E+00
 -1      2587 2.72301E+01
 -1      2588 1.57435E+01
 -1      2589 2.03889E+01
 -1      2590 5.71223E+00
 -1      2591 6.87482E-01
 -1      2592 7.71724E-01
 -1      2593 6.70479E-01
 -1      2594 4.79406E-01
 -1      2595 1.86219E+01
 -1      2596 4.28382E+00
 -1      2597 4.08425E+00
 -1      2598 4.46662E-01
 -1      2599 4.30659E-01
 -1      2600 4.20121E-01
 -1      2601 4.03835E-01
 -1      2602 3.76321E-01
 -1      2603 4.57879E-01
 -1      2604 4.57879E-01
 -1      2605 4.37890E-01
 -1      2606 4.43548E-01
 -1      2607 3.72902E-01
 -1      2608 9.50408E-01
 -1      2609 6.13878E-01
 -1      2610 6.69306E-01
 -1      2611 1.27337E-04
 -1      2612 1.78904E-04
 -1      2613 2.14374E-04
 -1      2614 1.24664E+01
 -1      2615 1.45659E+01
 -1      2616 1.94841E+01
 -1      2617 5.77450E-01
 -1      2618 4.77994E-01
 -1      2619 4.27876E-01
 -1      2620 3.22394E-01
 -1      2621 3.47621E-01
 -1      2622 3.43318E-01
 -1      2623 3.52889E-01
 -1      2624 3.18427E-01
 -1      2625 4.44537E-01
 -1      2626 6.21197E-01
 -1      2627 4.31000E-01
 -1      2628 8.61959E-01
 -1      2629 1.18140E+00
 -1      2630 7.63410E-01
 -1      2631 1.57543E+00
 -1      2632 2.11961E+00
 -1      2633 1.39820E+00
 -1      2634 2.77173E+00
 -1      2635 3.72927E+00
 -1      2636 2.44435E+00
 -1      2637 4.96188E+00
 -1      2638 6.47107E+00
 -1      2639 4.32906E+00
 -1      2640 9.04912E+00
 -1      2641 9.26043E+00
 -1      2642 8.13971E+00
 -1      2643 5.20114E+00
 -1      2644 6.29323E+00
 -1      2645 6.55484E-01
 -1      2646 5.93285E-01
 -1      2647 4.13574E-01
 -1      2648 4.44404E-01
 -1      2649 5.06943E-05
 -1      2650 6.57744E-05
 -1      2651 1.13461E+01
 -1      2652 9.70319E+00
 -1      2653 6.30729E+00
 -1      2654 5.09945E+00
 -1      2655 3.96177E+00
 -1      2656 3.05710E+00
 -1      2657 4.68343E+00
 -1      2658 2.33122E+00
 -1      2659 1.80053E+00
 -1      2660 2.81987E+00
 -1      2661 1.37519E+00
 -1      2662 1.06446E+00
 -1      2663 1.66865E+00
 -1      2664 8.16995E-01
 -1      2665 6.37835E-01
 -1      2666 9.95842E-01
 -1      2667 4.87344E-01
 -1      2668 3.84795E-01
 -1      2669 5.97889E-01
 -1      2670 2.97522E-01
 -1      2671 2.37656E-01
 -1      2672 3.60125E-01
 -1      2673 1.85044E-01
 -1      2674 1.46817E-01
 -1      2675 2.20240E-01
 -1      2676 1.13803E-01
 -1      2677 8.96430E-02
 -1      2678 1.34614E-01
 -1      2679 6.92063E-02
 -1      2680 5.40885E-02
 -1      2681 8.11623E-02
 -1      2682 4.12624E-02
 -1      2683 3.19862E-02
 -1      2684 4.78995E-02
 -1      2685 2.55141E-02
 -1      2686 1.93848E-02
 -1      2687 2.86013E-02
 -1      2688 1.53265E-02
 -1      2689 1.18554E-02
 -1      2690 1.80709E-02
 -1      2691 9.21962E-03
 -1      2692 7.34958E-03
 -1      2693 1.13768E-02
 -1      2694 5.64901E-03
 -1      2695 4.73714E-03
 -1      2696 7.04040E-03
 -1      2697 3.64912E-03
 -1      2698 3.06441E-03
 -1      2699 4.25182E-03
 -1      2700 2.44598E-03
 -1      2701 2.10420E-03
 -1      2702 2.54538E-03
 -1      2703 1.86587E-03
 -1      2704 1.58141E-03
 -1      2705 1.68863E-03
 -1      2706 1.43083E-03
 -1      2707 1.20988E-03
 -1      2708 1.29972E-03
 -1      2709 1.08356E-03
 -1      2710 9.38801E-04
 -1      2711 1.02281E-03
 -1      2712 8.26768E-04
 -1      2713 7.00757E-04
 -1      2714 7.84444E-04
 -1      2715 6.14929E-04
 -1      2716 5.07047E-04
 -1      2717 5.86583E-04
 -1      2718 4.41357E-04
 -1      2719 3.52180E-04
 -1      2720 4.35065E-04
 -1      2721 3.06153E-04
 -1      2722 2.88026E-04
 -1      2723 2.39742E-04
 -1      2724 3.23348E-04
 -1      2725 5.22582E-01
 -1      2726 5.52486E-01
 -1      2727 5.35136E-01
 -1      2728 5.30774E-01
 -1      2729 4.91660E-01
 -1      2730 5.50258E-01
 -1      2731 5.97605E-01
 -1      2732 4.81240E-01
 -1      2733 7.37517E-01
 -1      2734 6.72898E-01
 -1      2735 8.82656E-01
 -1      2736 7.98167E-01
 -1      2737 7.61075E-01
 -1      2738 1.05014E+00
 -1      2739 9.55202E-01
 -1      2740 8.94271E-01
 -1      2741 1.23006E+00
 -1      2742 1.14062E+00
 -1      2743 1.05730E+00
 -1      2744 1.36678E+00
 -1      2745 1.30273E+00
 -1      2746 1.22046E+00
 -1      2747 1.46829E+00
 -1      2748 1.39855E+00
 -1      2749 1.32490E+00
 -1      2750 1.51421E+00
 -1      2751 1.48640E+00
 -1      2752 1.37478E+00
 -1      2753 1.48852E+00
 -1      2754 1.50616E+00
 -1      2755 1.38484E+00
 -1      2756 1.44727E+00
 -1      2757 1.45033E+00
 -1      2758 1.33860E+00
 -1      2759 1.49122E+00
 -1      2760 1.46956E+00
 -1      2761 1.32270E+00
 -1      2762 1.48434E+00
 -1      2763 1.50675E+00
 -1      2764 1.36052E+00
 -1      2765 1.39510E+00
 -1      2766 1.46377E+00
 -1      2767 1.35547E+00
 -1      2768 1.27817E+00
 -1      2769 1.35921E+00
 -1      2770 1.29900E+00
 -1      2771 1.10479E+00
 -1      2772 1.20308E+00
 -1      2773 1.18802E+00
 -1      2774 8.90412E-01
 -1      2775 1.00282E+00
 -1      2776 1.01095E+00
 -1      2777 6.84881E-01
 -1      2778 7.94308E-01
 -1      2779 8.12876E-01
 -1      2780 5.19329E-01
 -1      2781 6.10513E-01
 -1      2782 6.42405E-01
 -1      2783 3.78759E-01
 -1      2784 4.47204E-01
 -1      2785 4.95912E-01
 -1      2786 2.61995E-01
 -1      2787 3.16162E-01
 -1      2788 3.61191E-01
 -1      2789 1.71578E-01
 -1      2790 2.12124E-01
 -1      2791 2.48724E-01
 -1      2792 1.05787E-01
 -1      2793 1.34562E-01
 -1      2794 1.61836E-01
 -1      2795 6.18042E-02
 -1      2796 8.11663E-02
 -1      2797 1.00200E-01
 -1      2798 3.31574E-02
 -1      2799 4.54670E-02
 -1      2800 5.92418E-02
 -1      2801 1.68976E-02
 -1      2802 2.27335E-02
 -1      2803 3.24807E-02
 -1      2804 1.03426E-02
 -1      2805 1.21291E-02
 -1      2806 1.72883E-02
 -1      2807 7.58138E-03
 -1      2808 7.76201E-03
 -1      2809 9.93909E-03
 -1      2810 6.45439E-03
 -1      2811 6.99629E-03
 -1      2812 6.77337E-03
 -1      2813 5.43658E-03
 -1      2814 6.06683E-03
 -1      2815 5.80073E-03
 -1      2816 4.17800E-03
 -1      2817 4.87648E-03
 -1      2818 4.85308E-03
 -1      2819 3.02266E-03
 -1      2820 3.61173E-03
 -1      2821 3.72671E-03
 -1      2822 2.11938E-03
 -1      2823 2.52900E-03
 -1      2824 2.66678E-03
 -1      2825 1.42861E-03
 -1      2826 1.77733E-03
 -1      2827 1.83107E-03
 -1      2828 9.30918E-04
 -1      2829 1.18116E-03
 -1      2830 1.24157E-03
 -1      2831 6.00132E-04
 -1      2832 7.41435E-04
 -1      2833 8.04631E-04
 -1      2834 4.20114E-04
 -1      2835 4.64999E-04
 -1      2836 4.80015E-04
 -1      2837 3.09607E-04
 -1      2838 3.69117E-04
 -1      2839 2.93885E-04
 -1      2840 2.39370E-04
 -1      2841 2.97051E-04
 -1      2842 2.30333E-04
 -1      2843 1.92781E-04
 -1      2844 7.90378E-05
 -1      2845 6.97311E-05
 -1      2846 1.22528E-04
 -1      2847 5.89588E-05
 -1      2848 5.31579E-05
 -1      2849 5.67402E-05
 -1      2850 6.99762E-05
 -1      2851 1.35760E-04
 -1      2852 1.19136E-04
 -1      2853 1.67143E-04
 -1      2854 1.58178E-04
 -1      2855 1.48430E-04
 -1      2856 1.91953E-04
 -1      2857 1.78148E-04
 -1      2858 1.81853E-04
 -1      2859 2.03714E-04
 -1      2860 2.01383E-04
 -1      2861 2.02288E-04
 -1      2862 7.88413E+00
 -1      2863 1.03512E+01
 -1      2864 1.17881E+01
 -1      2865 1.47665E+01
 -1      2866 1.09755E+01
 -1      2867 8.45911E+00
 -1      2868 2.17221E+01
 -1      2869 3.26283E+01
 -1      2870 1.75146E+01
 -1      2871 1.30420E+01
 -1      2872 9.61082E+00
 -1      2873 2.38365E+01
 -1      2874 1.99584E+01
 -1      2875 6.64726E+00
 -1      2876 7.82932E+00
 -1      2877 4.57879E-01
 -1      2878 4.46849E-01
 -1      2879 3.87045E-01
 -1      2880 3.87232E-01
 -1      2881 6.16102E-01
 -1      2882 5.78627E-01
 -1      2883 5.43343E-01
 -1      2884 6.43629E-01
 -1      2885 1.68103E+01
 -1      2886 2.04937E+01
 -1      2887 1.64933E+01
 -1      2888 3.97294E-01
 -1      2889 4.13996E-01
 -1      2890 1.72150E+01
 -1      2891 7.62786E+00
 -1      2892 6.23445E+00
 -1      2893 6.71310E+00
 -1      2894 4.37605E+00
 -1      2895 5.48130E+00
 -1      2896 5.54021E+00
 -1      2897 4.66540E+00
 -1      2898 1.10827E-04
 -1      2899 9.33598E-05
 -1      2900 1.17702E-04
 -1      2901 1.64695E+01
 -1      2902 1.45512E+01
 -1      2903 5.80838E+00
 -1      2904 5.04568E+00
 -1      2905 3.50175E-01
 -1      2906 3.88226E-01
 -1      2907 3.84291E-01
 -1      2908 5.54273E-01
 -1      2909 7.23811E+00
 -1      2910 1.39237E+01
 -1      2911 6.71274E+00
 -1      2912 4.00495E+00
 -1      2913 1.58181E+01
 -1      2914 9.21702E+00
 -1      2915 1.32211E+01
 -1      2916 9.50706E-05
 -1      2917 9.74048E+00
 -1      2918 1.11031E-04
 -1      2919 7.04161E+00
 -1      2920 6.52930E+00
 -1      2921 5.13269E+00
 -1      2922 2.33289E-04
 -1      2923 2.30063E-04
 -1      2924 2.38066E-04
 -1      2925 2.70868E-04
 -1      2926 4.58378E-01
 -1      2927 5.76970E-01
 -1      2928 5.08065E+00
 -1      2929 5.32724E-01
 -1      2930 3.28579E-01
 -1      2931 4.13996E-01
 -1      2932 4.13996E-01
 -1      2933 3.63919E+01
 -1      2934 1.83725E+01
 -1      2935 3.32790E+01
 -1      2936 4.74954E-01
 -1      2937 2.41189E+01
 -1      2938 1.68473E+01
 -1      2939 3.40375E+01
 -1      2940 3.75121E-01
 -1      2941 3.91118E-01
 -1      2942 3.22403E-01
 -1      2943 3.25397E-01
 -1      2944 5.18761E+00
 -1      2945 4.20403E+00
 -1      2946 3.64992E+00
 -1      2947 2.11756E+01
 -1      2948 3.16066E-01
 -1      2949 3.30396E-01
 -1      2950 6.09522E-01
 -1      2951 5.64107E+00
 -1      2952 6.63258E+00
 -1      2953 5.44457E+00
 -1      2954 1.82728E-04
 -1      2955 1.71724E-04
 -1      2956 3.08665E-01
 -1      2957 3.29589E-01
 -1      2958 4.01736E-01
 -1      2959 4.93385E-01
 -1      2960 3.91974E-01
 -1      2961 6.49855E-01
 -1      2962 8.90617E-01
 -1      2963 6.20592E-01
 -1      2964 1.14273E+00
 -1      2965 1.53676E+00
 -1      2966 1.02918E+00
 -1      2967 1.93514E+00
 -1      2968 2.58726E+00
 -1      2969 1.67967E+00
 -1      2970 3.21085E+00
 -1      2971 4.44345E+00
 -1      2972 2.70165E+00
 -1      2973 8.13971E+00
 -1      2974 1.07178E+01
 -1      2975 7.02150E+00
 -1      2976 1.24828E+01
 -1      2977 1.37113E+01
 -1      2978 2.91399E+00
 -1      2979 2.18811E+00
 -1      2980 1.71946E+00
 -1      2981 1.29411E+00
 -1      2982 1.81358E+00
 -1      2983 1.02725E+00
 -1      2984 7.79793E-01
 -1      2985 1.07806E+00
 -1      2986 6.36346E-01
 -1      2987 4.85855E-01
 -1      2988 6.67759E-01
 -1      2989 3.90947E-01
 -1      2990 3.03674E-01
 -1      2991 4.29404E-01
 -1      2992 2.41719E-01
 -1      2993 1.89107E-01
 -1      2994 2.72541E-01
 -1      2995 1.49214E-01
 -1      2996 1.16199E-01
 -1      2997 1.70692E-01
 -1      2998 9.08482E-02
 -1      2999 7.04116E-02
 -1      3000 1.05448E-01
 -1      3001 5.46658E-02
 -1      3002 4.18397E-02
 -1      3003 6.43517E-02
 -1      3004 3.23436E-02
 -1      3005 2.58715E-02
 -1      3006 3.91099E-02
 -1      3007 2.02205E-02
 -1      3008 1.61622E-02
 -1      3009 2.39628E-02
 -1      3010 1.25778E-02
 -1      3011 9.94205E-03
 -1      3012 1.47275E-02
 -1      3013 7.68747E-03
 -1      3014 5.98690E-03
 -1      3015 8.88855E-03
 -1      3016 4.86670E-03
 -1      3017 3.77869E-03
 -1      3018 5.51376E-03
 -1      3019 3.01057E-03
 -1      3020 2.39214E-03
 -1      3021 3.62545E-03
 -1      3022 1.86985E-03
 -1      3023 1.63152E-03
 -1      3024 2.33504E-03
 -1      3025 1.25633E-03
 -1      3026 1.10575E-03
 -1      3027 1.43755E-03
 -1      3028 9.39097E-04
 -1      3029 8.12768E-04
 -1      3030 8.95709E-04
 -1      3031 7.57525E-04
 -1      3032 6.45492E-04
 -1      3033 6.73816E-04
 -1      3034 5.83399E-04
 -1      3035 4.97571E-04
 -1      3036 5.56480E-04
 -1      3037 4.34671E-04
 -1      3038 3.68981E-04
 -1      3039 4.31487E-04
 -1      3040 4.47393E-01
 -1      3041 4.39201E-01
 -1      3042 4.02924E-01
 -1      3043 4.00696E-01
 -1      3044 3.58657E-01
 -1      3045 9.45974E-01
 -1      3046 8.73428E-01
 -1      3047 8.02350E-01
 -1      3048 7.41700E-01
 -1      3049 8.54053E-01
 -1      3050 1.22931E+00
 -1      3051 1.15664E+00
 -1      3052 1.32839E+00
 -1      3053 1.29662E+00
 -1      3054 1.23280E+00
 -1      3055 1.38605E+00
 -1      3056 1.36794E+00
 -1      3057 1.33965E+00
 -1      3058 1.43668E+00
 -1      3059 1.44473E+00
 -1      3060 1.43788E+00
 -1      3061 1.36295E+00
 -1      3062 1.40114E+00
 -1      3063 1.46102E+00
 -1      3064 1.35536E+00
 -1      3065 1.33307E+00
 -1      3066 1.39561E+00
 -1      3067 1.42293E+00
 -1      3068 1.40741E+00
 -1      3069 1.41778E+00
 -1      3070 1.35683E+00
 -1      3071 1.37740E+00
 -1      3072 1.42429E+00
 -1      3073 1.26496E+00
 -1      3074 1.30085E+00
 -1      3075 1.32279E+00
 -1      3076 1.12786E+00
 -1      3077 1.20295E+00
 -1      3078 1.20480E+00
 -1      3079 9.60577E-01
 -1      3080 1.06255E+00
 -1      3081 1.07748E+00
 -1      3082 7.91117E-01
 -1      3083 8.87221E-01
 -1      3084 9.38818E-01
 -1      3085 6.38594E-01
 -1      3086 7.12961E-01
 -1      3087 7.87306E-01
 -1      3088 4.83871E-01
 -1      3089 5.55996E-01
 -1      3090 6.26553E-01
 -1      3091 3.45973E-01
 -1      3092 4.08569E-01
 -1      3093 4.68653E-01
 -1      3094 2.34033E-01
 -1      3095 2.83904E-01
 -1      3096 3.31282E-01
 -1      3097 1.49684E-01
 -1      3098 1.86701E-01
 -1      3099 2.21881E-01
 -1      3100 9.11821E-02
 -1      3101 1.15803E-01
 -1      3102 1.40667E-01
 -1      3103 5.19354E-02
 -1      3104 6.82727E-02
 -1      3105 8.38758E-02
 -1      3106 2.83687E-02
 -1      3107 3.87925E-02
 -1      3108 4.78234E-02
 -1      3109 1.69606E-02
 -1      3110 2.17291E-02
 -1      3111 2.80409E-02
 -1      3112 9.93909E-03
 -1      3113 1.25197E-02
 -1      3114 1.69606E-02
 -1      3115 6.63536E-03
 -1      3116 7.22044E-03
 -1      3117 9.80108E-03
 -1      3118 5.56635E-03
 -1      3119 5.95391E-03
 -1      3120 6.40097E-03
 -1      3121 4.36825E-03
 -1      3122 4.92834E-03
 -1      3123 5.08152E-03
 -1      3124 3.21038E-03
 -1      3125 3.77666E-03
 -1      3126 3.85192E-03
 -1      3127 2.35183E-03
 -1      3128 2.84549E-03
 -1      3129 2.89543E-03
 -1      3130 1.67202E-03
 -1      3131 2.01407E-03
 -1      3132 2.19278E-03
 -1      3133 1.12367E-03
 -1      3134 1.37113E-03
 -1      3135 1.55412E-03
 -1      3136 6.94508E-04
 -1      3137 8.83991E-04
 -1      3138 1.01355E-03
 -1      3139 4.03295E-04
 -1      3140 5.38428E-04
 -1      3141 6.17788E-04
 -1      3142 2.41704E-04
 -1      3143 2.92701E-04
 -1      3144 3.51114E-04
 -1      3145 3.40375E+01
 -1      3146 1.19060E+01
 -1      3147 8.51006E+00
 -1      3148 2.17467E-04
 -1      3149 2.08037E-04
 -1      3150 1.97908E-04
 -1      3151 1.73321E-04
 -1      3152 1.50902E-04
 -1      3153 1.74196E-04
 -1      3154 9.03098E-05
 -1      3155 1.47064E-04
 -1      3156 1.72060E-04
 -1      3157 2.88572E+00
 -1      3158 4.00261E+00
 -1      3159 3.74103E+00
 -1      3160 4.90699E+00
 -1      3161 1.34546E-04
 -1      3162 1.20224E-04
 -1      3163 1.59287E+01
 -1      3164 1.00914E+01
 -1      3165 1.25352E+01
 -1      3166 5.14540E-01
 -1      3167 1.51674E+01
 -1      3168 3.98157E-01
 -1      3169 1.09126E+00
 -1      3170 1.00078E+00
 -1      3171 9.79935E-01
 -1      3172 1.10012E+00
 -1      3173 4.99873E+00
 -1      3174 3.86104E+00
 -1      3175 3.22929E+00
 -1      3176 9.08634E+00
 -1      3177 7.01988E+00
 -1      3178 9.72066E+00
 -1      3179 1.17644E+01
 -1      3180 1.39237E+01
 -1      3181 1.71297E+01
 -1      3182 1.86219E+01
 -1      3183 3.55652E-01
 -1      3184 1.50902E-04
 -1      3185 1.42593E-04
 -1      3186 1.67747E-04
 -1      3187 1.75793E-04
 -1      3188 3.33275E-01
 -1      3189 2.83157E-01
 -1      3190 2.94318E-01
 -1      3191 6.02195E+00
 -1      3192 5.19070E+00
 -1      3193 5.49748E+00
 -1      3194 4.38304E+00
 -1      3195 5.97395E+00
 -1      3196 3.90563E-01
 -1      3197 3.70556E-01
 -1      3198 3.55561E-01
 -1      3199 3.05146E-01
 -1      3200 3.55456E+00
 -1      3201 2.79270E+00
 -1      3202 3.76708E+00
 -1      3203 3.47774E+00
 -1      3204 3.60259E-01
 -1      3205 3.49721E-01
 -1      3206 7.96798E+00
 -1      3207 9.40482E+00
 -1      3208 5.07537E+00
 -1      3209 4.38113E+00
 -1      3210 1.44604E+01
 -1      3211 8.02052E+00
 -1      3212 9.60640E+00
 -1      3213 5.46849E-01
 -1      3214 5.03358E-01
 -1      3215 4.50899E-01
 -1      3216 4.30145E+00
 -1      3217 9.88617E-05
 -1      3218 9.63980E-05
 -1      3219 1.32431E-04
 -1      3220 1.39237E+01
 -1      3221 8.98243E+00
 -1      3222 3.39726E-01
 -1      3223 2.79036E+00
 -1      3224 3.16895E-04
 -1      3225 7.68767E+00
 -1      3226 7.10334E-01
 -1      3227 6.69059E-01
 -1      3228 6.12263E-01
 -1      3229 2.90152E-04
 -1      3230 2.95902E-04
 -1      3231 2.44003E-04
 -1      3232 2.56559E-04
 -1      3233 2.55375E-04
 -1      3234 1.98286E-04
 -1      3235 3.26381E+00
 -1      3236 2.75262E-01
 -1      3237 1.16916E-04
 -1      3238 1.06144E-04
 -1      3239 1.45802E-04
 -1      3240 1.56392E-04
 -1      3241 3.63919E-01
 -1      3242 3.43284E-01
 -1      3243 3.74103E+00
 -1      3244 3.56737E+00
 -1      3245 3.30408E+00
 -1      3246 2.61193E-01
 -1      3247 2.73547E-01
 -1      3248 2.73547E-01
 -1      3249 1.25692E+01
 -1      3250 8.53959E+00
 -1      3251 6.15004E+00
 -1      3252 5.81438E+00
 -1      3253 3.82034E+00
 -1      3254 3.60445E-01
 -1      3255 3.60259E-01
 -1      3256 3.33659E-01
 -1      3257 7.94817E+00
 -1      3258 7.01546E+00
 -1      3259 2.98264E-01
 -1      3260 3.55100E-01
 -1      3261 3.55100E-01
 -1      3262 8.05458E+00
 -1      3263 4.38422E+00
 -1      3264 2.70730E-01
 -1      3265 2.76906E-01
 -1      3266 2.21875E-01
 -1      3267 3.72084E+00
 -1      3268 2.86362E+00
 -1      3269 4.44175E+00
 -1      3270 3.40676E-01
 -1      3271 3.25067E-01
 -1      3272 3.24613E-01
 -1      3273 3.16501E-04
 -1      3274 3.76333E+00
 -1      3275 3.03703E+00
 -1      3276 3.65108E+00
 -1      3277 1.28517E+01
 -1      3278 2.85603E-01
 -1      3279 2.39159E-01
 -1      3280 2.64668E-01
 -1      3281 5.04213E-01
 -1      3282 6.60684E-01
 -1      3283 8.49166E-01
 -1      3284 1.10128E+00
 -1      3285 7.32787E-01
 -1      3286 1.42494E+00
 -1      3287 1.82333E+00
 -1      3288 1.24493E+00
 -1      3289 2.30047E+00
 -1      3290 2.92406E+00
 -1      3291 2.04574E+00
 -1      3292 3.68001E+00
 -1      3293 7.37627E+00
 -1      3294 3.27883E+00
 -1      3295 3.44192E+00
 -1      3296 2.49487E+00
 -1      3297 1.13888E+00
 -1      3298 8.72021E-01
 -1      3299 7.05466E-01
 -1      3300 5.62020E-01
 -1      3301 7.66281E-01
 -1      3302 4.49203E-01
 -1      3303 3.54294E-01
 -1      3304 4.86910E-01
 -1      3305 2.81349E-01
 -1      3306 2.19394E-01
 -1      3307 3.01148E-01
 -1      3308 1.73549E-01
 -1      3309 1.33655E-01
 -1      3310 1.82357E-01
 -1      3311 1.05458E-01
 -1      3312 8.01068E-02
 -1      3313 1.08314E-01
 -1      3314 6.61748E-02
 -1      3315 5.04290E-02
 -1      3316 6.61841E-02
 -1      3317 4.10615E-02
 -1      3318 3.15654E-02
 -1      3319 4.28845E-02
 -1      3320 2.56302E-02
 -1      3321 1.99792E-02
 -1      3322 2.75817E-02
 -1      3323 1.63198E-02
 -1      3324 1.27354E-02
 -1      3325 1.79871E-02
 -1      3326 1.02469E-02
 -1      3327 7.99230E-03
 -1      3328 1.18392E-02
 -1      3329 6.31487E-03
 -1      3330 5.19467E-03
 -1      3331 7.67321E-03
 -1      3332 4.07899E-03
 -1      3333 3.31088E-03
 -1      3334 4.88010E-03
 -1      3335 2.55694E-03
 -1      3336 2.03465E-03
 -1      3337 3.01049E-03
 -1      3338 1.62283E-03
 -1      3339 1.24763E-03
 -1      3340 1.84473E-03
 -1      3341 1.00318E-03
 -1      3342 8.36530E-04
 -1      3343 1.18845E-03
 -1      3344 6.65846E-04
 -1      3345 6.10603E-04
 -1      3346 7.73316E-04
 -1      3347 5.11175E-04
 -1      3348 4.49082E-04
 -1      3349 5.03205E-04
 -1      3350 4.28879E-04
 -1      3351 3.65979E-04
 -1      3352 2.93294E-04
 -1      3353 3.83574E-04
 -1      3354 3.31229E+00
 -1      3355 4.04637E+00
 -1      3356 1.36995E+00
 -1      3357 1.33041E+00
 -1      3358 1.30153E+00
 -1      3359 1.23422E+00
 -1      3360 1.33182E+00
 -1      3361 1.58892E+00
 -1      3362 1.62446E+00
 -1      3363 1.45829E+00
 -1      3364 1.48817E+00
 -1      3365 1.65161E+00
 -1      3366 1.55390E+00
 -1      3367 1.50186E+00
 -1      3368 1.59442E+00
 -1      3369 1.51188E+00
 -1      3370 1.55740E+00
 -1      3371 1.64149E+00
 -1      3372 1.32279E+00
 -1      3373 1.37876E+00
 -1      3374 1.51188E+00
 -1      3375 1.22110E+00
 -1      3376 1.28310E+00
 -1      3377 1.33908E+00
 -1      3378 1.08925E+00
 -1      3379 1.15456E+00
 -1      3380 1.23287E+00
 -1      3381 9.38818E-01
 -1      3382 1.01217E+00
 -1      3383 1.08925E+00
 -1      3384 7.72035E-01
 -1      3385 8.50190E-01
 -1      3386 9.23547E-01
 -1      3387 5.91162E-01
 -1      3388 6.73759E-01
 -1      3389 7.36643E-01
 -1      3390 4.25794E-01
 -1      3391 5.01096E-01
 -1      3392 5.48302E-01
 -1      3393 2.89879E-01
 -1      3394 3.51948E-01
 -1      3395 3.84390E-01
 -1      3396 1.89769E-01
 -1      3397 2.37101E-01
 -1      3398 2.57767E-01
 -1      3399 1.23323E-01
 -1      3400 1.57205E-01
 -1      3401 1.72425E-01
 -1      3402 7.57378E-02
 -1      3403 9.86473E-02
 -1      3404 1.15185E-01
 -1      3405 4.50899E-02
 -1      3406 5.82328E-02
 -1      3407 7.30043E-02
 -1      3408 2.70439E-02
 -1      3409 3.36834E-02
 -1      3410 4.40928E-02
 -1      3411 1.55814E-02
 -1      3412 2.00222E-02
 -1      3413 2.56647E-02
 -1      3414 8.53652E-03
 -1      3415 1.12552E-02
 -1      3416 1.43168E-02
 -1      3417 6.40097E-03
 -1      3418 7.08242E-03
 -1      3419 8.53652E-03
 -1      3420 4.69411E-03
 -1      3421 5.33211E-03
 -1      3422 6.01356E-03
 -1      3423 3.46372E-03
 -1      3424 4.05531E-03
 -1      3425 4.30591E-03
 -1      3426 2.78604E-03
 -1      3427 3.15093E-03
 -1      3428 3.35433E-03
 -1      3429 2.08876E-03
 -1      3430 2.42652E-03
 -1      3431 2.68202E-03
 -1      3432 1.45434E-03
 -1      3433 1.75523E-03
 -1      3434 1.98897E-03
 -1      3435 9.37946E-04
 -1      3436 1.17763E-03
 -1      3437 1.37873E-03
 -1      3438 5.69616E-04
 -1      3439 7.25695E-04
 -1      3440 8.89774E-04
 -1      3441 3.23992E-04
 -1      3442 4.34586E-04
 -1      3443 5.42494E-04
 -1      3444 2.35025E-04
 -1      3445 2.09716E-04
 -1      3446 3.05102E-04
 -1      3447 2.51628E+00
 -1      3448 2.89672E+00
 -1      3449 7.74256E+00
 -1      3450 4.23123E+00
 -1      3451 2.27262E-04
 -1      3452 2.28859E-04
 -1      3453 2.64379E-04
 -1      3454 2.67886E-01
 -1      3455 2.31109E-01
 -1      3456 1.53059E+00
 -1      3457 1.47191E+00
 -1      3458 1.46266E+00
 -1      3459 1.65849E+00
 -1      3460 3.58467E+00
 -1      3461 3.46934E+00
 -1      3462 8.91386E-01
 -1      3463 8.20308E-01
 -1      3464 4.26838E+00
 -1      3465 4.67741E+00
 -1      3466 3.03719E-01
 -1      3467 2.94550E-01
 -1      3468 2.49053E-01
 -1      3469 3.36808E-01
 -1      3470 3.00531E-01
 -1      3471 2.46037E-01
 -1      3472 6.58195E+00
 -1      3473 6.89780E+00
 -1      3474 2.98694E-01
 -1      3475 1.91419E+00
 -1      3476 1.44554E+00
 -1      3477 2.12682E+00
 -1      3478 5.91166E+00
 -1      3479 4.91374E+00
 -1      3480 3.99886E+00
 -1      3481 2.37114E+00
 -1      3482 2.46416E+00
 -1      3483 3.25339E-01
 -1      3484 3.97486E-01
 -1      3485 2.70180E-01
 -1      3486 2.04269E-01
 -1      3487 2.16636E-01
 -1      3488 2.41339E-01
 -1      3489 1.86551E-01
 -1      3490 7.20042E+00
 -1      3491 6.68135E+00
 -1      3492 6.43172E+00
 -1      3493 5.91166E+00
 -1      3494 5.57755E+00
 -1      3495 2.43663E-01
 -1      3496 2.14012E-01
 -1      3497 4.93098E+00
 -1      3498 8.27247E+00
 -1      3499 1.04499E+01
 -1      3500 1.23949E+00
 -1      3501 2.54054E+00
 -1      3502 3.28807E+00
 -1      3503 3.46417E+00
 -1      3504 3.27921E+00
 -1      3505 2.09706E+00
 -1      3506 2.66980E+00
 -1      3507 3.46934E+00
 -1      3508 2.85154E+00
 -1      3509 1.98286E-04
 -1      3510 2.70230E-04
 -1      3511 2.04375E-04
 -1      3512 7.29399E-01
 -1      3513 6.56758E-01
 -1      3514 7.66732E-01
 -1      3515 2.45951E+00
 -1      3516 2.46325E+00
 -1      3517 2.72655E+00
 -1      3518 1.23995E+00
 -1      3519 1.17122E+00
 -1      3520 1.10584E+00
 -1      3521 2.11572E-01
 -1      3522 2.07068E-01
 -1      3523 2.14931E-01
 -1      3524 3.38847E-04
 -1      3525 5.72278E-01
 -1      3526 2.94220E-01
 -1      3527 1.03157E+00
 -1      3528 9.76771E-01
 -1      3529 9.43026E-01
 -1      3530 1.10268E+00
 -1      3531 2.15521E-04
 -1      3532 2.12212E-04
 -1      3533 3.49681E+00
 -1      3534 2.81925E-04
 -1      3535 2.28859E-04
 -1      3536 2.28859E-04
 -1      3537 4.70417E+00
 -1      3538 6.07039E+00
 -1      3539 3.23834E+00
 -1      3540 3.23834E+00
 -1      3541 2.98325E+00
 -1      3542 2.96865E+00
 -1      3543 2.80237E+00
 -1      3544 2.47617E+00
 -1      3545 4.44561E-01
 -1      3546 3.88596E-01
 -1      3547 3.30470E-01
 -1      3548 3.61796E+00
 -1      3549 5.43590E+00
 -1      3550 4.38553E+00
 -1      3551 3.26556E+00
 -1      3552 3.28313E-01
 -1      3553 7.15485E+00
 -1      3554 7.87326E+00
 -1      3555 4.96122E+00
 -1      3556 3.09616E-01
 -1      3557 3.00570E-01
 -1      3558 3.09616E-01
 -1      3559 3.09616E-01
 -1      3560 2.85573E-01
 -1      3561 5.32792E+00
 -1      3562 4.37578E-01
 -1      3563 2.23567E-04
 -1      3564 2.15521E-04
 -1      3565 2.71341E-04
 -1      3566 2.76633E-04
 -1      3567 8.62234E+00
 -1      3568 5.16590E+00
 -1      3569 9.64571E+00
 -1      3570 8.30334E-01
 -1      3571 6.63780E-01
 -1      3572 1.01749E+00
 -1      3573 1.34116E+00
 -1      3574 1.58794E+00
 -1      3575 2.06509E+00
 -1      3576 1.36051E+00
 -1      3577 2.52289E+00
 -1      3578 3.27883E+00
 -1      3579 2.06509E+00
 -1      3580 1.35302E+00
 -1      3581 1.32414E+00
 -1      3582 4.09645E+00
 -1      3583 4.99265E+00
 -1      3584 4.74302E+00
 -1      3585 3.34051E+00
 -1      3586 5.15328E-01
 -1      3587 4.02511E-01
 -1      3588 5.79381E-01
 -1      3589 3.12608E-01
 -1      3590 2.39662E-01
 -1      3591 3.41026E-01
 -1      3592 1.96486E-01
 -1      3593 1.50641E-01
 -1      3594 2.07946E-01
 -1      3595 1.20836E-01
 -1      3596 9.26380E-02
 -1      3597 1.34965E-01
 -1      3598 7.40942E-02
 -1      3599 6.01622E-02
 -1      3600 8.66161E-02
 -1      3601 4.57326E-02
 -1      3602 3.63650E-02
 -1      3603 5.36427E-02
 -1      3604 2.84528E-02
 -1      3605 2.25176E-02
 -1      3606 3.13009E-02
 -1      3607 1.79871E-02
 -1      3608 1.43277E-02
 -1      3609 1.88582E-02
 -1      3610 1.21292E-02
 -1      3611 9.64070E-03
 -1      3612 1.21292E-02
 -1      3613 8.16638E-03
 -1      3614 6.48895E-03
 -1      3615 8.45644E-03
 -1      3616 5.39647E-03
 -1      3617 4.28079E-03
 -1      3618 5.88964E-03
 -1      3619 3.46795E-03
 -1      3620 2.71402E-03
 -1      3621 3.98432E-03
 -1      3622 2.15171E-03
 -1      3623 1.73989E-03
 -1      3624 2.60917E-03
 -1      3625 1.35781E-03
 -1      3626 1.11336E-03
 -1      3627 1.66479E-03
 -1      3628 8.53297E-04
 -1      3629 6.82612E-04
 -1      3630 1.02266E-03
 -1      3631 5.46190E-04
 -1      3632 4.46762E-04
 -1      3633 6.26170E-04
 -1      3634 3.69932E-04
 -1      3635 3.49729E-04
 -1      3636 2.91460E-04
 -1      3637 4.12917E-04
 -1      3638 1.63798E+00
 -1      3639 1.59442E+00
 -1      3640 2.02947E+00
 -1      3641 2.13022E+00
 -1      3642 2.07303E+00
 -1      3643 2.14308E+00
 -1      3644 2.27619E+00
 -1      3645 1.49089E+00
 -1      3646 1.53057E+00
 -1      3647 2.29489E+00
 -1      3648 1.57678E+00
 -1      3649 1.64331E+00
 -1      3650 1.83480E+00
 -1      3651 1.08925E+00
 -1      3652 1.16633E+00
 -1      3653 1.57678E+00
 -1      3654 9.01073E-01
 -1      3655 9.89701E-01
 -1      3656 1.06678E+00
 -1      3657 6.94674E-01
 -1      3658 7.92950E-01
 -1      3659 8.59104E-01
 -1      3660 5.01269E-01
 -1      3661 5.91335E-01
 -1      3662 6.47641E-01
 -1      3663 3.60401E-01
 -1      3664 4.34248E-01
 -1      3665 4.77280E-01
 -1      3666 2.47768E-01
 -1      3667 3.00546E-01
 -1      3668 3.50403E-01
 -1      3669 1.67237E-01
 -1      3670 1.99802E-01
 -1      3671 2.42581E-01
 -1      3672 1.07183E-01
 -1      3673 1.31859E-01
 -1      3674 1.59235E-01
 -1      3675 6.56324E-02
 -1      3676 8.31375E-02
 -1      3677 9.98111E-02
 -1      3678 3.84721E-02
 -1      3679 4.98785E-02
 -1      3680 6.00117E-02
 -1      3681 2.23349E-02
 -1      3682 2.93566E-02
 -1      3683 3.51422E-02
 -1      3684 1.33789E-02
 -1      3685 1.77051E-02
 -1      3686 2.13969E-02
 -1      3687 8.75863E-03
 -1      3688 1.02127E-02
 -1      3689 1.36010E-02
 -1      3690 5.61049E-03
 -1      3691 6.67935E-03
 -1      3692 8.35556E-03
 -1      3693 4.09831E-03
 -1      3694 4.73710E-03
 -1      3695 5.40289E-03
 -1      3696 3.31432E-03
 -1      3697 3.62710E-03
 -1      3698 4.05830E-03
 -1      3699 2.50426E-03
 -1      3700 2.86379E-03
 -1      3701 3.13656E-03
 -1      3702 1.78411E-03
 -1      3703 2.11764E-03
 -1      3704 2.29941E-03
 -1      3705 1.19721E-03
 -1      3706 1.47392E-03
 -1      3707 1.60259E-03
 -1      3708 7.54856E-04
 -1      3709 9.67107E-04
 -1      3710 1.06229E-03
 -1      3711 4.82227E-04
 -1      3712 6.17257E-04
 -1      3713 6.94589E-04
 -1      3714 5.75969E-01
 -1      3715 5.10554E-01
 -1      3716 4.48251E-01
 -1      3717 5.95034E-01
 -1      3718 2.67739E-01
 -1      3719 2.91392E+00
 -1      3720 3.13593E+00
 -1      3721 4.47347E+00
 -1      3722 3.64607E+00
 -1      3723 2.67780E-04
 -1      3724 2.08651E-04
 -1      3725 2.01369E-04
 -1      3726 3.97649E+00
 -1      3727 2.64743E+00
 -1      3728 2.73023E-01
 -1      3729 2.88020E-01
 -1      3730 2.66672E-01
 -1      3731 2.38286E-01
 -1      3732 2.14467E-01
 -1      3733 2.04164E-01
 -1      3734 2.32086E-01
 -1      3735 1.89165E+00
 -1      3736 1.94377E+00
 -1      3737 3.14762E-04
 -1      3738 3.32307E-04
 -1      3739 3.59388E-04
 -1      3740 4.08144E+00
 -1      3741 3.26556E+00
 -1      3742 3.02990E+00
 -1      3743 2.90027E+00
 -1      3744 2.67635E-01
 -1      3745 2.34990E-01
 -1      3746 2.77629E-01
 -1      3747 2.82974E-01
 -1      3748 2.58931E-01
 -1      3749 1.96000E-01
 -1      3750 4.52179E+00
 -1      3751 4.52179E+00
 -1      3752 3.17037E+00
 -1      3753 3.93690E+00
 -1      3754 1.82346E+00
 -1      3755 1.81996E+00
 -1      3756 1.81996E+00
 -1      3757 2.45467E+00
 -1      3758 2.27039E+00
 -1      3759 1.68972E+00
 -1      3760 6.27902E-01
 -1      3761 8.16384E-01
 -1      3762 9.12609E-01
 -1      3763 3.71202E-01
 -1      3764 4.77929E-01
 -1      3765 5.61526E-01
 -1      3766 3.38847E-04
 -1      3767 1.35602E+00
 -1      3768 1.04937E+00
 -1      3769 9.46865E-01
 -1      3770 1.49959E+00
 -1      3771 3.46225E+00
 -1      3772 3.66693E+00
 -1      3773 3.23156E+00
 -1      3774 1.41461E+00
 -1      3775 1.39341E+00
 -1      3776 1.33042E+00
 -1      3777 1.46266E+00
 -1      3778 1.45498E+00
 -1      3779 1.56462E+00
 -1      3780 2.14919E+00
 -1      3781 2.54054E+00
 -1      3782 1.94377E+00
 -1      3783 2.22517E+00
 -1      3784 2.22517E+00
 -1      3785 2.20280E+00
 -1      3786 2.67224E-04
 -1      3787 7.77278E-01
 -1      3788 6.86369E-01
 -1      3789 2.49399E+00
 -1      3790 1.92021E+00
 -1      3791 2.31224E+00
 -1      3792 2.87762E+00
 -1      3793 2.44051E+00
 -1      3794 3.49587E-04
 -1      3795 3.46026E-04
 -1      3796 2.71240E+00
 -1      3797 2.38336E+00
 -1      3798 3.32307E-04
 -1      3799 3.32307E-04
 -1      3800 3.82690E-04
 -1      3801 2.70869E+00
 -1      3802 2.78264E+00
 -1      3803 2.81388E-01
 -1      3804 2.68838E-01
 -1      3805 2.96865E+00
 -1      3806 3.08090E-01
 -1      3807 3.32743E+00
 -1      3808 3.40865E+00
 -1      3809 3.03017E+00
 -1      3810 2.87637E+00
 -1      3811 1.87157E+00
 -1      3812 1.75236E+00
 -1      3813 1.65849E+00
 -1      3814 1.65849E+00
 -1      3815 2.13022E+00
 -1      3816 3.35704E-01
 -1      3817 3.24657E-01
 -1      3818 3.87492E-01
 -1      3819 3.39150E-01
 -1      3820 3.39150E-01
 -1      3821 3.34965E-01
 -1      3822 2.86833E-04
 -1      3823 3.55450E-04
 -1      3824 4.30213E-04
 -1      3825 2.83828E-04
 -1      3826 9.79328E-01
 -1      3827 8.93943E-01
 -1      3828 8.13579E-01
 -1      3829 3.50681E-04
 -1      3830 3.50681E-04
 -1      3831 4.28927E-04
 -1      3832 2.74447E+00
 -1      3833 2.31324E+00
 -1      3834 2.15994E+00
 -1      3835 2.76336E+00
 -1      3836 2.57955E+00
 -1      3837 1.97232E+00
 -1      3838 1.14294E+00
 -1      3839 1.38972E+00
 -1      3840 1.69115E+00
 -1      3841 2.14895E+00
 -1      3842 1.47359E+00
 -1      3843 1.57678E+00
 -1      3844 1.98722E+00
 -1      3845 3.84155E-01
 -1      3846 2.94252E-01
 -1      3847 2.29443E-01
 -1      3848 1.86267E-01
 -1      3849 2.72573E-01
 -1      3850 1.44210E-01
 -1      3851 1.14405E-01
 -1      3852 1.65707E-01
 -1      3853 8.91314E-02
 -1      3854 7.05876E-02
 -1      3855 9.83764E-02
 -1      3856 5.62873E-02
 -1      3857 4.18577E-02
 -1      3858 5.88026E-02
 -1      3859 3.40249E-02
 -1      3860 2.61127E-02
 -1      3861 3.66695E-02
 -1      3862 2.09156E-02
 -1      3863 1.63852E-02
 -1      3864 2.36396E-02
 -1      3865 1.29723E-02
 -1      3866 1.07739E-02
 -1      3867 1.50298E-02
 -1      3868 8.64352E-03
 -1      3869 7.16919E-03
 -1      3870 9.48662E-03
 -1      3871 5.88964E-03
 -1      3872 4.79716E-03
 -1      3873 6.07671E-03
 -1      3874 4.13153E-03
 -1      3875 3.31870E-03
 -1      3876 4.13153E-03
 -1      3877 2.80927E-03
 -1      3878 2.24696E-03
 -1      3879 2.95648E-03
 -1      3880 1.86123E-03
 -1      3881 1.47916E-03
 -1      3882 2.06132E-03
 -1      3883 1.19473E-03
 -1      3884 9.34672E-04
 -1      3885 1.39117E-03
 -1      3886 7.18661E-04
 -1      3887 5.82239E-04
 -1      3888 8.90741E-04
 -1      3889 5.00492E-04
 -1      3890 4.23662E-04
 -1      3891 4.46964E-04
 -1      3892 5.92984E-04
 -1      3893 2.20431E+00
 -1      3894 2.63936E+00
 -1      3895 2.28438E+00
 -1      3896 2.13195E+00
 -1      3897 2.74447E+00
 -1      3898 1.06755E+00
 -1      3899 1.16710E+00
 -1      3900 1.57755E+00
 -1      3901 8.81304E-01
 -1      3902 9.89427E-01
 -1      3903 1.08975E+00
 -1      3904 6.47641E-01
 -1      3905 7.50981E-01
 -1      3906 8.81304E-01
 -1      3907 4.77280E-01
 -1      3908 5.44302E-01
 -1      3909 6.47641E-01
 -1      3910 3.31206E-01
 -1      3911 3.91062E-01
 -1      3912 4.58084E-01
 -1      3913 2.19342E-01
 -1      3914 2.67308E-01
 -1      3915 3.07967E-01
 -1      3916 1.43779E-01
 -1      3917 1.79158E-01
 -1      3918 2.03886E-01
 -1      3919 9.25545E-02
 -1      3920 1.16600E-01
 -1      3921 1.36523E-01
 -1      3922 5.69217E-02
 -1      3923 7.26756E-02
 -1      3924 8.94645E-02
 -1      3925 3.44518E-02
 -1      3926 4.35673E-02
 -1      3927 5.62313E-02
 -1      3928 2.13423E-02
 -1      3929 2.59721E-02
 -1      3930 3.43972E-02
 -1      3931 1.26967E-02
 -1      3932 1.58629E-02
 -1      3933 2.04380E-02
 -1      3934 7.63473E-03
 -1      3935 9.71401E-03
 -1      3936 1.19759E-02
 -1      3937 5.33579E-03
 -1      3938 6.20917E-03
 -1      3939 7.56763E-03
 -1      3940 3.98193E-03
 -1      3941 4.45314E-03
 -1      3942 5.25942E-03
 -1      3943 2.90727E-03
 -1      3944 3.35780E-03
 -1      3945 3.75264E-03
 -1      3946 2.06748E-03
 -1      3947 2.45410E-03
 -1      3948 2.67533E-03
 -1      3949 1.48106E-03
 -1      3950 1.79125E-03
 -1      3951 1.94595E-03
 -1      3952 1.00841E-03
 -1      3953 1.23851E-03
 -1      3954 1.42717E-03
 -1      3955 6.78373E-04
 -1      3956 8.15972E-04
 -1      3957 9.92190E-04
 -1      3958 3.65635E-04
 -1      3959 1.36900E+00
 -1      3960 1.29473E+00
 -1      3961 1.52247E+00
 -1      3962 2.33083E+00
 -1      3963 5.96451E-01
 -1      3964 5.85906E-01
 -1      3965 5.05116E-01
 -1      3966 2.87058E-01
 -1      3967 2.78693E-01
 -1      3968 2.50307E-01
 -1      3969 2.55061E+00
 -1      3970 3.36823E+00
 -1      3971 3.14700E+00
 -1      3972 2.17668E+00
 -1      3973 2.44439E-01
 -1      3974 2.22841E-01
 -1      3975 2.71080E-01
 -1      3976 7.11498E-01
 -1      3977 9.12609E-01
 -1      3978 9.41826E-01
 -1      3979 3.55973E-04
 -1      3980 3.50681E-04
 -1      3981 4.30022E-04
 -1      3982 4.06356E-04
 -1      3983 3.23949E+00
 -1      3984 3.32743E+00
 -1      3985 6.28904E-01
 -1      3986 4.80452E-01
 -1      3987 4.33679E-01
 -1      3988 4.28696E-01
 -1      3989 5.78669E-01
 -1      3990 5.78669E-01
 -1      3991 2.41344E-01
 -1      3992 3.44806E-01
 -1      3993 3.61950E-01
 -1      3994 2.40880E-01
 -1      3995 3.24657E-01
 -1      3996 7.97045E-01
 -1      3997 6.98116E-01
 -1      3998 1.01608E+00
 -1      3999 1.37634E+00
 -1      4000 1.44561E+00
 -1      4001 3.72966E-01
 -1      4002 3.78200E-01
 -1      4003 4.38959E-01
 -1      4004 2.19801E+00
 -1      4005 1.77574E+00
 -1      4006 1.80489E+00
 -1      4007 5.26580E-04
 -1      4008 4.62306E-04
 -1      4009 4.62306E-04
 -1      4010 4.28927E-04
 -1      4011 4.27833E-04
 -1      4012 2.74331E+00
 -1      4013 2.19801E+00
 -1      4014 1.77095E+00
 -1      4015 2.17464E+00
 -1      4016 2.67542E+00
 -1      4017 3.92727E-01
 -1      4018 2.90740E+00
 -1      4019 4.92412E-04
 -1      4020 6.13794E-04
 -1      4021 1.24565E+00
 -1      4022 6.67913E-01
 -1      4023 5.67450E-01
 -1      4024 2.96865E+00
 -1      4025 2.38628E+00
 -1      4026 2.51591E+00
 -1      4027 3.03017E+00
 -1      4028 4.46171E-01
 -1      4029 3.88409E-01
 -1      4030 1.88572E+00
 -1      4031 1.87157E+00
 -1      4032 1.68962E+00
 -1      4033 1.35593E+00
 -1      4034 1.20611E+00
 -1      4035 8.76313E-01
 -1      4036 7.59648E-01
 -1      4037 7.30647E-01
 -1      4038 4.99615E-01
 -1      4039 3.88409E-01
 -1      4040 3.98264E-01
 -1      4041 1.71102E+00
 -1      4042 1.72517E+00
 -1      4043 1.92021E+00
 -1      4044 1.82866E+00
 -1      4045 1.61553E+00
 -1      4046 1.64653E+00
 -1      4047 1.37806E+00
 -1      4048 1.45618E+00
 -1      4049 4.85972E-04
 -1      4050 4.84878E-04
 -1      4051 4.85972E-04
 -1      4052 2.20581E-01
 -1      4053 1.78524E-01
 -1      4054 1.32816E-01
 -1      4055 1.07543E-01
 -1      4056 1.87691E-01
 -1      4057 7.70942E-02
 -1      4058 6.27939E-02
 -1      4059 1.11534E-01
 -1      4060 4.48686E-02
 -1      4061 3.70357E-02
 -1      4062 6.31602E-02
 -1      4063 2.63974E-02
 -1      4064 2.12004E-02
 -1      4065 3.45965E-02
 -1      4066 1.51493E-02
 -1      4067 1.17365E-02
 -1      4068 1.79071E-02
 -1      4069 9.89898E-03
 -1      4070 7.76862E-03
 -1      4071 1.00185E-02
 -1      4072 6.45720E-03
 -1      4073 5.17764E-03
 -1      4074 6.86955E-03
 -1      4075 4.40767E-03
 -1      4076 3.74204E-03
 -1      4077 4.78815E-03
 -1      4078 3.41820E-03
 -1      4079 2.90877E-03
 -1      4080 3.69433E-03
 -1      4081 2.53302E-03
 -1      4082 2.14730E-03
 -1      4083 2.99474E-03
 -1      4084 1.79405E-03
 -1      4085 1.50963E-03
 -1      4086 2.26575E-03
 -1      4087 1.19206E-03
 -1      4088 9.76050E-04
 -1      4089 1.59494E-03
 -1      4090 6.15307E-04
 -1      4091 5.33561E-04
 -1      4092 5.48904E-04
 -1      4093 9.16627E-04
 -1      4094 2.28438E+00
 -1      4095 2.11542E+00
 -1      4096 1.75787E+00
 -1      4097 2.11135E+00
 -1      4098 1.82866E+00
 -1      4099 2.67542E+00
 -1      4100 4.92412E-04
 -1      4101 1.14512E+00
 -1      4102 1.27544E+00
 -1      4103 1.64187E+00
 -1      4104 7.73346E-01
 -1      4105 8.76685E-01
 -1      4106 1.27082E+00
 -1      4107 6.24251E-01
 -1      4108 7.10469E-01
 -1      4109 9.39513E-01
 -1      4110 4.08620E-01
 -1      4111 4.72518E-01
 -1      4112 7.24904E-01
 -1      4113 2.76610E-01
 -1      4114 3.16794E-01
 -1      4115 4.81344E-01
 -1      4116 1.81186E-01
 -1      4117 2.08366E-01
 -1      4118 3.21274E-01
 -1      4119 1.13551E-01
 -1      4120 1.33430E-01
 -1      4121 2.05273E-01
 -1      4122 6.85573E-02
 -1      4123 8.19117E-02
 -1      4124 1.25877E-01
 -1      4125 4.03616E-02
 -1      4126 4.88413E-02
 -1      4127 7.45217E-02
 -1      4128 2.26107E-02
 -1      4129 2.80901E-02
 -1      4130 4.25343E-02
 -1      4131 1.35917E-02
 -1      4132 1.65744E-02
 -1      4133 2.42265E-02
 -1      4134 8.38920E-03
 -1      4135 9.81476E-03
 -1      4136 1.44133E-02
 -1      4137 5.21034E-03
 -1      4138 6.09299E-03
 -1      4139 8.34012E-03
 -1      4140 3.67202E-03
 -1      4141 4.29615E-03
 -1      4142 5.12972E-03
 -1      4143 2.79633E-03
 -1      4144 3.24949E-03
 -1      4145 3.79301E-03
 -1      4146 2.14436E-03
 -1      4147 2.42058E-03
 -1      4148 2.99474E-03
 -1      4149 1.54857E-03
 -1      4150 1.79112E-03
 -1      4151 2.26575E-03
 -1      4152 1.03856E-03
 -1      4153 1.23100E-03
 -1      4154 1.59494E-03
 -1      4155 1.56105E+00
 -1      4156 1.24565E+00
 -1      4157 1.19171E+00
 -1      4158 1.66600E+00
 -1      4159 1.67079E+00
 -1      4160 2.87486E-01
 -1      4161 1.67079E+00
 -1      4162 2.13953E+00
 -1      4163 2.53089E+00
 -1      4164 2.47537E+00
 -1      4165 3.50897E-01
 -1      4166 2.86089E-01
 -1      4167 2.98906E-01
 -1      4168 4.29831E-01
 -1      4169 5.12301E-01
 -1      4170 6.45131E-01
 -1      4171 5.41929E-01
 -1      4172 4.45632E-01
 -1      4173 4.59148E-01
 -1      4174 6.71531E-01
 -1      4175 6.00069E-01
 -1      4176 5.33912E-01
 -1      4177 1.12568E+00
 -1      4178 1.42712E+00
 -1      4179 7.86237E-01
 -1      4180 1.01656E+00
 -1      4181 7.19869E-01
 -1      4182 1.56105E+00
 -1      4183 5.99675E-04
 -1      4184 7.85636E-04
 -1      4185 1.02444E-03
 -1      4186 6.56720E-04
 -1      4187 3.92727E-01
 -1      4188 3.92727E-01
 -1      4189 4.46171E-01
 -1      4190 3.78200E-01
 -1      4191 2.70385E+00
 -1      4192 2.91317E+00
 -1      4193 2.35837E+00
 -1      4194 2.34910E+00
 -1      4195 5.48438E-01
 -1      4196 6.01883E-01
 -1      4197 1.86279E+00
 -1      4198 2.06820E+00
 -1      4199 6.01883E-01
 -1      4200 1.64888E+00
 -1      4201 2.05855E+00
 -1      4202 1.77182E+00
 -1      4203 1.48912E+00
 -1      4204 1.47975E+00
 -1      4205 1.47975E+00
 -1      4206 1.68102E+00
 -1      4207 1.47975E+00
 -1      4208 1.37480E+00
 -1      4209 1.00546E+00
 -1      4210 1.18854E+00
 -1      4211 1.52247E+00
 -1      4212 1.56105E+00
 -1      4213 4.85972E-04
 -1      4214 1.93718E+00
 -1      4215 1.14927E+00
 -1      4216 1.48420E+00
 -1      4217 1.56387E+00
 -1      4218 1.96553E+00
 -1      4219 1.56183E+00
 -1      4220 1.21597E+00
 -1      4221 7.03306E-01
 -1      4222 7.15259E-01
 -1      4223 8.71446E-01
 -1      4224 8.07289E-01
 -1      4225 7.15554E-01
 -1      4226 9.90370E-01
 -1      4227 7.48173E-01
 -1      4228 9.70094E-01
 -1      4229 2.16566E+00
 -1      4230 1.15446E+00
 -1      4231 5.48438E-01
 -1      4232 7.04150E-01
 -1      4233 1.95458E-01
 -1      4234 1.49750E-01
 -1      4235 1.18110E-01
 -1      4236 8.76616E-02
 -1      4237 6.79457E-02
 -1      4238 5.00203E-02
 -1      4239 3.77488E-02
 -1      4240 2.71105E-02
 -1      4241 2.10742E-02
 -1      4242 1.50231E-02
 -1      4243 1.12462E-02
 -1      4244 9.40865E-03
 -1      4245 7.11244E-03
 -1      4246 5.80102E-03
 -1      4247 4.88683E-03
 -1      4248 4.11685E-03
 -1      4249 3.69433E-03
 -1      4250 3.37048E-03
 -1      4251 2.99474E-03
 -1      4252 2.61900E-03
 -1      4253 2.26575E-03
 -1      4254 1.91251E-03
 -1      4255 1.59494E-03
 -1      4256 1.27737E-03
 -1      4257 3.08721E-01
 -1      4258 2.43214E-01
 -1      4259 1.15446E+00
 -1      4260 1.21734E+00
 -1      4261 7.24904E-01
 -1      4262 8.76636E-01
 -1      4263 4.71700E-01
 -1      4264 5.63527E-01
 -1      4265 3.76965E-01
 -1      4266 1.55687E+00
 -1      4267 4.72727E-01
 -1      4268 3.71376E-01
 -1      4269 5.41923E-04
 -1      4270 5.39189E-01
 -1      4271 2.06305E+00
 -1      4272 7.84132E-01
 -1      4273 8.93251E-01
 -1      4274 7.48173E-01
 -1      4275 1.27063E+00
 -1      4276 1.82530E+00
 -1      4277 6.41457E-01
 -1      4278 7.82562E-01
 -1      4279 9.87567E-01
 -1      4280 9.87567E-01
 -1      4281 7.89393E-01
 -1      4282 1.06965E+00
 -1      4283 6.81165E-04
 -1      4284 6.81165E-04
 -1      4285 7.95961E-04
 -1      4286 6.88146E-04
 -1      4287 7.46939E-01
 -1      4288 9.32902E-01
 -1      4289 1.04889E-03
 -1      4290 1.04889E-03
 -1      4291 7.05719E-01
 -1      4292 7.49742E-01
 -3
 9999
