    1C
    1UUSER                                                              
    1UDATE              27.october.2022                                 
    1UTIME              00:59:47                                        
    1UHOST                                                              
    1UPGM               CalculiX                                        
    1UVERSION           Version 2.17                             
    1UCOMPILETIME       Thu Jul 23 21:43:50 CEST 2020                    
    1UDIR                                                               
    1UDBN                                                               
    1UMAT    1SOLIDMATERIAL                                             
    2C                          4242                                     1
 -1         1 1.39091E+02 3.11589E+01 0.00000E+00
 -1         2 1.46433E+02 2.41673E+01 0.00000E+00
 -1         3 1.50000E+02 0.00000E+00 0.00000E+00
 -1         4 1.50000E+02 5.00000E+01 0.00000E+00
 -1         5 0.00000E+00 0.00000E+00 0.00000E+00
 -1         6 0.00000E+00 5.00000E+01 0.00000E+00
 -1         7 0.00000E+00 4.70500E+01 0.00000E+00
 -1         8 0.00000E+00 4.41000E+01 0.00000E+00
 -1         9 0.00000E+00 4.11500E+01 0.00000E+00
 -1        10 0.00000E+00 3.82000E+01 0.00000E+00
 -1        11 0.00000E+00 3.52500E+01 0.00000E+00
 -1        12 0.00000E+00 3.23500E+01 0.00000E+00
 -1        13 0.00000E+00 2.94000E+01 0.00000E+00
 -1        14 0.00000E+00 2.64500E+01 0.00000E+00
 -1        15 0.00000E+00 2.35000E+01 0.00000E+00
 -1        16 0.00000E+00 2.05500E+01 0.00000E+00
 -1        17 0.00000E+00 1.76000E+01 0.00000E+00
 -1        18 0.00000E+00 1.47000E+01 0.00000E+00
 -1        19 0.00000E+00 1.17500E+01 0.00000E+00
 -1        20 0.00000E+00 8.80000E+00 0.00000E+00
 -1        21 0.00000E+00 5.85000E+00 0.00000E+00
 -1        22 0.00000E+00 2.90000E+00 0.00000E+00
 -1        23 3.15000E+00 5.00000E+01 0.00000E+00
 -1        24 6.15000E+00 5.00000E+01 0.00000E+00
 -1        25 9.15000E+00 5.00000E+01 0.00000E+00
 -1        26 1.21500E+01 5.00000E+01 0.00000E+00
 -1        27 1.51500E+01 5.00000E+01 0.00000E+00
 -1        28 1.81500E+01 5.00000E+01 0.00000E+00
 -1        29 2.11500E+01 5.00000E+01 0.00000E+00
 -1        30 2.41500E+01 5.00000E+01 0.00000E+00
 -1        31 2.71500E+01 5.00000E+01 0.00000E+00
 -1        32 3.01500E+01 5.00000E+01 0.00000E+00
 -1        33 3.31500E+01 5.00000E+01 0.00000E+00
 -1        34 3.61500E+01 5.00000E+01 0.00000E+00
 -1        35 3.91500E+01 5.00000E+01 0.00000E+00
 -1        36 4.21500E+01 5.00000E+01 0.00000E+00
 -1        37 4.51500E+01 5.00000E+01 0.00000E+00
 -1        38 4.81500E+01 5.00000E+01 0.00000E+00
 -1        39 5.11500E+01 5.00000E+01 0.00000E+00
 -1        40 5.41500E+01 5.00000E+01 0.00000E+00
 -1        41 5.71500E+01 5.00000E+01 0.00000E+00
 -1        42 6.01500E+01 5.00000E+01 0.00000E+00
 -1        43 6.31500E+01 5.00000E+01 0.00000E+00
 -1        44 6.61500E+01 5.00000E+01 0.00000E+00
 -1        45 6.91500E+01 5.00000E+01 0.00000E+00
 -1        46 7.21500E+01 5.00000E+01 0.00000E+00
 -1        47 7.51500E+01 5.00000E+01 0.00000E+00
 -1        48 7.81500E+01 5.00000E+01 0.00000E+00
 -1        49 8.11500E+01 5.00000E+01 0.00000E+00
 -1        50 8.41500E+01 5.00000E+01 0.00000E+00
 -1        51 8.71500E+01 5.00000E+01 0.00000E+00
 -1        52 9.01500E+01 5.00000E+01 0.00000E+00
 -1        53 9.31500E+01 5.00000E+01 0.00000E+00
 -1        54 9.61500E+01 5.00000E+01 0.00000E+00
 -1        55 9.91500E+01 5.00000E+01 0.00000E+00
 -1        56 1.02150E+02 5.00000E+01 0.00000E+00
 -1        57 1.05150E+02 5.00000E+01 0.00000E+00
 -1        58 1.08150E+02 5.00000E+01 0.00000E+00
 -1        59 1.11150E+02 5.00000E+01 0.00000E+00
 -1        60 1.14150E+02 5.00000E+01 0.00000E+00
 -1        61 1.17150E+02 5.00000E+01 0.00000E+00
 -1        62 1.20150E+02 5.00000E+01 0.00000E+00
 -1        63 1.23150E+02 5.00000E+01 0.00000E+00
 -1        64 1.26150E+02 5.00000E+01 0.00000E+00
 -1        65 1.29150E+02 5.00000E+01 0.00000E+00
 -1        66 1.32150E+02 5.00000E+01 0.00000E+00
 -1        67 1.35150E+02 5.00000E+01 0.00000E+00
 -1        68 1.38150E+02 5.00000E+01 0.00000E+00
 -1        69 1.41150E+02 5.00000E+01 0.00000E+00
 -1        70 1.44150E+02 5.00000E+01 0.00000E+00
 -1        71 1.47150E+02 5.00000E+01 0.00000E+00
 -1        72 3.15000E+00 0.00000E+00 0.00000E+00
 -1        73 6.15000E+00 0.00000E+00 0.00000E+00
 -1        74 9.15000E+00 0.00000E+00 0.00000E+00
 -1        75 1.21500E+01 0.00000E+00 0.00000E+00
 -1        76 1.51500E+01 0.00000E+00 0.00000E+00
 -1        77 1.81500E+01 0.00000E+00 0.00000E+00
 -1        78 2.11500E+01 0.00000E+00 0.00000E+00
 -1        79 2.41500E+01 0.00000E+00 0.00000E+00
 -1        80 2.71500E+01 0.00000E+00 0.00000E+00
 -1        81 3.01500E+01 0.00000E+00 0.00000E+00
 -1        82 3.31500E+01 0.00000E+00 0.00000E+00
 -1        83 3.61500E+01 0.00000E+00 0.00000E+00
 -1        84 3.91500E+01 0.00000E+00 0.00000E+00
 -1        85 4.21500E+01 0.00000E+00 0.00000E+00
 -1        86 4.51500E+01 0.00000E+00 0.00000E+00
 -1        87 4.81500E+01 0.00000E+00 0.00000E+00
 -1        88 5.11500E+01 0.00000E+00 0.00000E+00
 -1        89 5.41500E+01 0.00000E+00 0.00000E+00
 -1        90 5.71500E+01 0.00000E+00 0.00000E+00
 -1        91 6.01500E+01 0.00000E+00 0.00000E+00
 -1        92 6.31500E+01 0.00000E+00 0.00000E+00
 -1        93 6.61500E+01 0.00000E+00 0.00000E+00
 -1        94 6.91500E+01 0.00000E+00 0.00000E+00
 -1        95 7.21500E+01 0.00000E+00 0.00000E+00
 -1        96 7.51500E+01 0.00000E+00 0.00000E+00
 -1        97 7.81500E+01 0.00000E+00 0.00000E+00
 -1        98 8.11500E+01 0.00000E+00 0.00000E+00
 -1        99 8.41500E+01 0.00000E+00 0.00000E+00
 -1       100 8.71500E+01 0.00000E+00 0.00000E+00
 -1       101 9.01500E+01 0.00000E+00 0.00000E+00
 -1       102 9.31500E+01 0.00000E+00 0.00000E+00
 -1       103 9.61500E+01 0.00000E+00 0.00000E+00
 -1       104 9.91500E+01 0.00000E+00 0.00000E+00
 -1       105 1.02150E+02 0.00000E+00 0.00000E+00
 -1       106 1.05150E+02 0.00000E+00 0.00000E+00
 -1       107 1.08150E+02 0.00000E+00 0.00000E+00
 -1       108 1.11150E+02 0.00000E+00 0.00000E+00
 -1       109 1.14150E+02 0.00000E+00 0.00000E+00
 -1       110 1.17150E+02 0.00000E+00 0.00000E+00
 -1       111 1.20150E+02 0.00000E+00 0.00000E+00
 -1       112 1.23150E+02 0.00000E+00 0.00000E+00
 -1       113 1.26150E+02 0.00000E+00 0.00000E+00
 -1       114 1.29150E+02 0.00000E+00 0.00000E+00
 -1       115 1.32150E+02 0.00000E+00 0.00000E+00
 -1       116 1.35150E+02 0.00000E+00 0.00000E+00
 -1       117 1.38150E+02 0.00000E+00 0.00000E+00
 -1       118 1.41150E+02 0.00000E+00 0.00000E+00
 -1       119 1.44150E+02 0.00000E+00 0.00000E+00
 -1       120 1.47150E+02 0.00000E+00 0.00000E+00
 -1       121 1.50000E+02 3.10000E+00 0.00000E+00
 -1       122 1.50000E+02 6.15000E+00 0.00000E+00
 -1       123 1.50000E+02 9.20000E+00 0.00000E+00
 -1       124 1.50000E+02 1.22500E+01 0.00000E+00
 -1       125 1.50000E+02 1.48500E+01 0.00000E+00
 -1       126 1.50000E+02 1.72000E+01 0.00000E+00
 -1       127 1.50000E+02 1.93000E+01 0.00000E+00
 -1       128 1.50000E+02 2.15500E+01 0.00000E+00
 -1       129 1.50000E+02 2.36000E+01 0.00000E+00
 -1       130 1.50000E+02 2.54500E+01 0.00000E+00
 -1       131 1.50000E+02 2.76000E+01 0.00000E+00
 -1       132 1.50000E+02 2.96000E+01 0.00000E+00
 -1       133 1.50000E+02 3.19000E+01 0.00000E+00
 -1       134 1.50000E+02 3.48500E+01 0.00000E+00
 -1       135 1.50000E+02 3.78000E+01 0.00000E+00
 -1       136 1.50000E+02 4.08500E+01 0.00000E+00
 -1       137 1.50000E+02 4.39000E+01 0.00000E+00
 -1       138 1.50000E+02 4.69500E+01 0.00000E+00
 -1       139 1.46267E+02 2.26525E+01 0.00000E+00
 -1       140 1.45799E+02 2.12567E+01 0.00000E+00
 -1       141 1.45066E+02 2.00112E+01 0.00000E+00
 -1       142 1.44098E+02 1.89486E+01 0.00000E+00
 -1       143 1.42873E+02 1.80707E+01 0.00000E+00
 -1       144 1.41522E+02 1.74863E+01 0.00000E+00
 -1       145 1.40077E+02 1.71969E+01 0.00000E+00
 -1       146 1.38536E+02 1.72250E+01 0.00000E+00
 -1       147 1.37147E+02 1.75511E+01 0.00000E+00
 -1       148 1.35706E+02 1.82422E+01 0.00000E+00
 -1       149 1.34564E+02 1.91384E+01 0.00000E+00
 -1       150 1.33581E+02 2.03264E+01 0.00000E+00
 -1       151 1.32934E+02 2.15665E+01 0.00000E+00
 -1       152 1.32531E+02 2.30014E+01 0.00000E+00
 -1       153 1.32437E+02 2.44071E+01 0.00000E+00
 -1       154 1.32656E+02 2.59187E+01 0.00000E+00
 -1       155 1.33150E+02 2.72522E+01 0.00000E+00
 -1       156 1.33924E+02 2.84855E+01 0.00000E+00
 -1       157 1.35010E+02 2.95927E+01 0.00000E+00
 -1       158 1.36265E+02 3.04092E+01 0.00000E+00
 -1       159 1.37586E+02 3.09193E+01 0.00000E+00
 -1       160 1.40479E+02 3.10888E+01 0.00000E+00
 -1       161 1.41876E+02 3.07271E+01 0.00000E+00
 -1       162 1.43143E+02 3.01036E+01 0.00000E+00
 -1       163 1.44225E+02 2.92697E+01 0.00000E+00
 -1       164 1.45151E+02 2.82055E+01 0.00000E+00
 -1       165 1.45875E+02 2.69067E+01 0.00000E+00
 -1       166 1.46293E+02 2.55612E+01 0.00000E+00
 -1       167 2.59800E+00 4.55750E+01 0.00000E+00
 -1       168 2.59800E+00 4.26250E+01 0.00000E+00
 -1       169 2.59800E+00 3.96750E+01 0.00000E+00
 -1       170 2.59800E+00 3.67250E+01 0.00000E+00
 -1       171 2.59800E+00 3.38250E+01 0.00000E+00
 -1       172 2.59800E+00 3.08750E+01 0.00000E+00
 -1       173 2.59800E+00 2.79250E+01 0.00000E+00
 -1       174 2.59800E+00 2.49750E+01 0.00000E+00
 -1       175 2.59800E+00 2.20250E+01 0.00000E+00
 -1       176 2.59800E+00 1.90750E+01 0.00000E+00
 -1       177 2.59800E+00 1.61750E+01 0.00000E+00
 -1       178 2.59800E+00 1.32250E+01 0.00000E+00
 -1       179 2.59800E+00 1.02750E+01 0.00000E+00
 -1       180 2.59800E+00 7.32500E+00 0.00000E+00
 -1       181 2.59800E+00 4.37500E+00 0.00000E+00
 -1       182 2.87400E+00 2.18750E+00 0.00000E+00
 -1       183 4.65000E+00 4.74020E+01 0.00000E+00
 -1       184 7.65000E+00 4.74020E+01 0.00000E+00
 -1       185 1.06500E+01 4.74020E+01 0.00000E+00
 -1       186 1.36500E+01 4.74020E+01 0.00000E+00
 -1       187 1.66500E+01 4.74020E+01 0.00000E+00
 -1       188 1.96500E+01 4.74020E+01 0.00000E+00
 -1       189 2.26500E+01 4.74020E+01 0.00000E+00
 -1       190 2.56500E+01 4.74020E+01 0.00000E+00
 -1       191 2.86500E+01 4.74020E+01 0.00000E+00
 -1       192 3.16500E+01 4.74020E+01 0.00000E+00
 -1       193 3.46500E+01 4.74020E+01 0.00000E+00
 -1       194 3.76500E+01 4.74020E+01 0.00000E+00
 -1       195 4.06500E+01 4.74020E+01 0.00000E+00
 -1       196 4.36500E+01 4.74020E+01 0.00000E+00
 -1       197 4.66500E+01 4.74020E+01 0.00000E+00
 -1       198 4.96500E+01 4.74020E+01 0.00000E+00
 -1       199 5.26500E+01 4.74020E+01 0.00000E+00
 -1       200 5.56500E+01 4.74020E+01 0.00000E+00
 -1       201 5.86500E+01 4.74020E+01 0.00000E+00
 -1       202 6.16500E+01 4.74020E+01 0.00000E+00
 -1       203 6.46500E+01 4.74020E+01 0.00000E+00
 -1       204 6.76500E+01 4.74020E+01 0.00000E+00
 -1       205 7.06500E+01 4.74020E+01 0.00000E+00
 -1       206 7.36500E+01 4.74020E+01 0.00000E+00
 -1       207 7.66500E+01 4.74020E+01 0.00000E+00
 -1       208 7.96500E+01 4.74020E+01 0.00000E+00
 -1       209 8.26500E+01 4.74020E+01 0.00000E+00
 -1       210 8.56500E+01 4.74020E+01 0.00000E+00
 -1       211 8.86500E+01 4.74020E+01 0.00000E+00
 -1       212 9.16500E+01 4.74020E+01 0.00000E+00
 -1       213 9.46500E+01 4.74020E+01 0.00000E+00
 -1       214 9.76500E+01 4.74020E+01 0.00000E+00
 -1       215 1.00650E+02 4.74020E+01 0.00000E+00
 -1       216 1.03650E+02 4.74020E+01 0.00000E+00
 -1       217 1.06650E+02 4.74020E+01 0.00000E+00
 -1       218 1.09650E+02 4.74020E+01 0.00000E+00
 -1       219 1.12650E+02 4.74020E+01 0.00000E+00
 -1       220 1.15650E+02 4.74020E+01 0.00000E+00
 -1       221 1.18650E+02 4.74020E+01 0.00000E+00
 -1       222 1.21650E+02 4.74020E+01 0.00000E+00
 -1       223 1.24650E+02 4.74020E+01 0.00000E+00
 -1       224 1.27650E+02 4.74020E+01 0.00000E+00
 -1       225 1.30650E+02 4.74020E+01 0.00000E+00
 -1       226 1.33650E+02 4.74020E+01 0.00000E+00
 -1       227 1.36650E+02 4.74020E+01 0.00000E+00
 -1       228 1.39650E+02 4.74020E+01 0.00000E+00
 -1       229 1.42650E+02 4.74020E+01 0.00000E+00
 -1       230 1.45650E+02 4.74020E+01 0.00000E+00
 -1       231 5.87400E+00 2.18750E+00 0.00000E+00
 -1       232 8.87400E+00 2.18750E+00 0.00000E+00
 -1       233 1.18740E+01 2.18750E+00 0.00000E+00
 -1       234 1.48740E+01 2.18750E+00 0.00000E+00
 -1       235 1.78740E+01 2.18750E+00 0.00000E+00
 -1       236 2.08740E+01 2.18750E+00 0.00000E+00
 -1       237 2.38740E+01 2.18750E+00 0.00000E+00
 -1       238 2.68740E+01 2.18750E+00 0.00000E+00
 -1       239 2.98740E+01 2.18750E+00 0.00000E+00
 -1       240 3.28740E+01 2.18750E+00 0.00000E+00
 -1       241 3.58740E+01 2.18750E+00 0.00000E+00
 -1       242 3.88740E+01 2.18750E+00 0.00000E+00
 -1       243 4.18740E+01 2.18750E+00 0.00000E+00
 -1       244 4.48740E+01 2.18750E+00 0.00000E+00
 -1       245 4.78740E+01 2.18750E+00 0.00000E+00
 -1       246 5.08740E+01 2.18750E+00 0.00000E+00
 -1       247 5.38740E+01 2.18750E+00 0.00000E+00
 -1       248 5.68740E+01 2.18750E+00 0.00000E+00
 -1       249 5.98740E+01 2.18750E+00 0.00000E+00
 -1       250 6.28740E+01 2.18750E+00 0.00000E+00
 -1       251 6.58740E+01 2.18750E+00 0.00000E+00
 -1       252 6.88740E+01 2.18750E+00 0.00000E+00
 -1       253 7.18740E+01 2.18750E+00 0.00000E+00
 -1       254 7.48740E+01 2.18750E+00 0.00000E+00
 -1       255 7.78740E+01 2.18750E+00 0.00000E+00
 -1       256 8.08740E+01 2.18750E+00 0.00000E+00
 -1       257 8.38740E+01 2.18750E+00 0.00000E+00
 -1       258 8.68740E+01 2.18750E+00 0.00000E+00
 -1       259 8.98740E+01 2.18750E+00 0.00000E+00
 -1       260 9.28740E+01 2.18750E+00 0.00000E+00
 -1       261 9.58740E+01 2.18750E+00 0.00000E+00
 -1       262 9.88740E+01 2.18750E+00 0.00000E+00
 -1       263 1.01874E+02 2.18750E+00 0.00000E+00
 -1       264 1.04874E+02 2.18750E+00 0.00000E+00
 -1       265 1.07874E+02 2.18750E+00 0.00000E+00
 -1       266 1.10874E+02 2.18750E+00 0.00000E+00
 -1       267 1.13874E+02 2.18750E+00 0.00000E+00
 -1       268 1.16874E+02 2.18750E+00 0.00000E+00
 -1       269 1.19874E+02 2.18750E+00 0.00000E+00
 -1       270 1.22874E+02 2.18750E+00 0.00000E+00
 -1       271 1.25874E+02 2.18750E+00 0.00000E+00
 -1       272 1.28874E+02 2.18750E+00 0.00000E+00
 -1       273 1.31874E+02 2.18750E+00 0.00000E+00
 -1       274 1.34874E+02 2.18750E+00 0.00000E+00
 -1       275 1.37874E+02 2.18750E+00 0.00000E+00
 -1       276 1.40874E+02 2.18750E+00 0.00000E+00
 -1       277 1.43874E+02 2.18750E+00 0.00000E+00
 -1       278 1.46874E+02 2.18750E+00 0.00000E+00
 -1       279 1.47402E+02 4.62500E+00 0.00000E+00
 -1       280 1.47402E+02 7.67500E+00 0.00000E+00
 -1       281 1.47402E+02 1.07250E+01 0.00000E+00
 -1       282 1.47402E+02 1.33250E+01 0.00000E+00
 -1       283 1.47402E+02 1.56750E+01 0.00000E+00
 -1       284 1.47950E+02 2.04250E+01 0.00000E+00
 -1       285 1.48369E+02 2.45250E+01 0.00000E+00
 -1       286 1.48369E+02 2.66750E+01 0.00000E+00
 -1       287 1.48369E+02 2.86750E+01 0.00000E+00
 -1       288 1.48369E+02 3.09750E+01 0.00000E+00
 -1       289 1.48369E+02 3.39250E+01 0.00000E+00
 -1       290 1.48369E+02 3.68750E+01 0.00000E+00
 -1       291 1.48369E+02 3.99250E+01 0.00000E+00
 -1       292 1.48369E+02 4.29750E+01 0.00000E+00
 -1       293 1.47009E+02 4.51885E+01 0.00000E+00
 -1       294 1.47639E+02 2.32688E+01 0.00000E+00
 -1       295 1.47183E+02 2.15692E+01 0.00000E+00
 -1       296 1.46549E+02 1.99761E+01 0.00000E+00
 -1       297 1.45479E+02 1.86637E+01 0.00000E+00
 -1       298 1.44289E+02 1.73878E+01 0.00000E+00
 -1       299 1.42712E+02 1.65889E+01 0.00000E+00
 -1       300 1.41037E+02 1.61528E+01 0.00000E+00
 -1       301 1.39284E+02 1.59988E+01 0.00000E+00
 -1       302 1.37545E+02 1.61261E+01 0.00000E+00
 -1       303 1.35757E+02 1.65012E+01 0.00000E+00
 -1       304 1.34386E+02 1.77366E+01 0.00000E+00
 -1       305 1.33009E+02 1.88527E+01 0.00000E+00
 -1       306 1.32183E+02 2.03858E+01 0.00000E+00
 -1       307 1.31404E+02 2.19106E+01 0.00000E+00
 -1       308 1.31274E+02 2.36237E+01 0.00000E+00
 -1       309 1.31181E+02 2.53603E+01 0.00000E+00
 -1       310 1.31766E+02 2.70064E+01 0.00000E+00
 -1       311 1.32439E+02 2.85580E+01 0.00000E+00
 -1       312 1.33362E+02 3.01228E+01 0.00000E+00
 -1       313 1.34930E+02 3.10874E+01 0.00000E+00
 -1       314 1.36489E+02 3.17954E+01 0.00000E+00
 -1       315 1.38122E+02 3.24019E+01 0.00000E+00
 -1       316 1.39846E+02 3.23347E+01 0.00000E+00
 -1       317 1.41565E+02 3.24061E+01 0.00000E+00
 -1       318 1.42832E+02 3.17826E+01 0.00000E+00
 -1       319 1.44424E+02 3.06472E+01 0.00000E+00
 -1       320 1.45603E+02 2.95332E+01 0.00000E+00
 -1       321 1.46718E+02 2.82280E+01 0.00000E+00
 -1       322 1.47242E+02 2.65938E+01 0.00000E+00
 -1       323 1.47440E+02 2.49313E+01 0.00000E+00
 -1       324 1.47950E+02 1.83250E+01 0.00000E+00
 -1       325 1.48369E+02 2.25750E+01 0.00000E+00
 -1       326 5.19600E+00 4.11500E+01 0.00000E+00
 -1       327 5.19600E+00 4.41000E+01 0.00000E+00
 -1       328 5.19600E+00 3.52750E+01 0.00000E+00
 -1       329 5.19600E+00 3.23250E+01 0.00000E+00
 -1       330 5.19600E+00 2.93750E+01 0.00000E+00
 -1       331 5.19600E+00 2.64250E+01 0.00000E+00
 -1       332 5.19600E+00 2.34750E+01 0.00000E+00
 -1       333 5.19600E+00 2.05250E+01 0.00000E+00
 -1       334 5.19600E+00 1.76250E+01 0.00000E+00
 -1       335 5.19600E+00 1.46750E+01 0.00000E+00
 -1       336 5.19600E+00 1.17250E+01 0.00000E+00
 -1       337 5.19600E+00 8.77500E+00 0.00000E+00
 -1       338 5.19600E+00 5.82500E+00 0.00000E+00
 -1       339 5.53500E+00 4.00625E+00 0.00000E+00
 -1       340 8.53500E+00 4.00625E+00 0.00000E+00
 -1       341 1.44526E+02 3.24748E+01 0.00000E+00
 -1       342 9.15000E+00 4.48040E+01 0.00000E+00
 -1       343 1.21500E+01 4.48040E+01 0.00000E+00
 -1       344 1.51500E+01 4.48040E+01 0.00000E+00
 -1       345 1.81500E+01 4.48040E+01 0.00000E+00
 -1       346 2.11500E+01 4.48040E+01 0.00000E+00
 -1       347 2.41500E+01 4.48040E+01 0.00000E+00
 -1       348 2.71500E+01 4.48040E+01 0.00000E+00
 -1       349 3.01500E+01 4.48040E+01 0.00000E+00
 -1       350 3.31500E+01 4.48040E+01 0.00000E+00
 -1       351 3.61500E+01 4.48040E+01 0.00000E+00
 -1       352 3.91500E+01 4.48040E+01 0.00000E+00
 -1       353 4.21500E+01 4.48040E+01 0.00000E+00
 -1       354 4.51500E+01 4.48040E+01 0.00000E+00
 -1       355 4.81500E+01 4.48040E+01 0.00000E+00
 -1       356 5.11500E+01 4.48040E+01 0.00000E+00
 -1       357 5.41500E+01 4.48040E+01 0.00000E+00
 -1       358 5.71500E+01 4.48040E+01 0.00000E+00
 -1       359 6.01500E+01 4.48040E+01 0.00000E+00
 -1       360 6.31500E+01 4.48040E+01 0.00000E+00
 -1       361 6.61500E+01 4.48040E+01 0.00000E+00
 -1       362 6.91500E+01 4.48040E+01 0.00000E+00
 -1       363 7.21500E+01 4.48040E+01 0.00000E+00
 -1       364 7.51500E+01 4.48040E+01 0.00000E+00
 -1       365 7.81500E+01 4.48040E+01 0.00000E+00
 -1       366 8.11500E+01 4.48040E+01 0.00000E+00
 -1       367 8.41500E+01 4.48040E+01 0.00000E+00
 -1       368 8.71500E+01 4.48040E+01 0.00000E+00
 -1       369 9.01500E+01 4.48040E+01 0.00000E+00
 -1       370 9.31500E+01 4.48040E+01 0.00000E+00
 -1       371 9.61500E+01 4.48040E+01 0.00000E+00
 -1       372 9.91500E+01 4.48040E+01 0.00000E+00
 -1       373 1.02150E+02 4.48040E+01 0.00000E+00
 -1       374 1.05150E+02 4.48040E+01 0.00000E+00
 -1       375 1.08150E+02 4.48040E+01 0.00000E+00
 -1       376 1.11150E+02 4.48040E+01 0.00000E+00
 -1       377 1.14150E+02 4.48040E+01 0.00000E+00
 -1       378 1.17150E+02 4.48040E+01 0.00000E+00
 -1       379 1.20150E+02 4.48040E+01 0.00000E+00
 -1       380 1.23150E+02 4.48040E+01 0.00000E+00
 -1       381 1.26150E+02 4.48040E+01 0.00000E+00
 -1       382 1.29150E+02 4.48040E+01 0.00000E+00
 -1       383 1.32150E+02 4.48040E+01 0.00000E+00
 -1       384 1.35150E+02 4.48040E+01 0.00000E+00
 -1       385 1.38150E+02 4.48040E+01 0.00000E+00
 -1       386 1.41150E+02 4.48040E+01 0.00000E+00
 -1       387 1.44150E+02 4.48040E+01 0.00000E+00
 -1       388 1.15350E+01 4.00625E+00 0.00000E+00
 -1       389 1.45350E+01 4.00625E+00 0.00000E+00
 -1       390 1.75350E+01 4.00625E+00 0.00000E+00
 -1       391 2.05350E+01 4.00625E+00 0.00000E+00
 -1       392 2.35350E+01 4.00625E+00 0.00000E+00
 -1       393 2.65350E+01 4.00625E+00 0.00000E+00
 -1       394 2.95350E+01 4.00625E+00 0.00000E+00
 -1       395 3.25350E+01 4.00625E+00 0.00000E+00
 -1       396 3.55350E+01 4.00625E+00 0.00000E+00
 -1       397 3.85350E+01 4.00625E+00 0.00000E+00
 -1       398 4.15350E+01 4.00625E+00 0.00000E+00
 -1       399 4.45350E+01 4.00625E+00 0.00000E+00
 -1       400 4.75350E+01 4.00625E+00 0.00000E+00
 -1       401 5.05350E+01 4.00625E+00 0.00000E+00
 -1       402 5.35350E+01 4.00625E+00 0.00000E+00
 -1       403 5.65350E+01 4.00625E+00 0.00000E+00
 -1       404 5.95350E+01 4.00625E+00 0.00000E+00
 -1       405 6.25350E+01 4.00625E+00 0.00000E+00
 -1       406 6.55350E+01 4.00625E+00 0.00000E+00
 -1       407 6.85350E+01 4.00625E+00 0.00000E+00
 -1       408 7.15350E+01 4.00625E+00 0.00000E+00
 -1       409 7.45350E+01 4.00625E+00 0.00000E+00
 -1       410 7.75350E+01 4.00625E+00 0.00000E+00
 -1       411 8.05350E+01 4.00625E+00 0.00000E+00
 -1       412 8.35350E+01 4.00625E+00 0.00000E+00
 -1       413 8.65350E+01 4.00625E+00 0.00000E+00
 -1       414 8.95350E+01 4.00625E+00 0.00000E+00
 -1       415 9.25350E+01 4.00625E+00 0.00000E+00
 -1       416 9.55350E+01 4.00625E+00 0.00000E+00
 -1       417 9.85350E+01 4.00625E+00 0.00000E+00
 -1       418 1.01535E+02 4.00625E+00 0.00000E+00
 -1       419 1.04535E+02 4.00625E+00 0.00000E+00
 -1       420 1.07535E+02 4.00625E+00 0.00000E+00
 -1       421 1.10535E+02 4.00625E+00 0.00000E+00
 -1       422 1.13535E+02 4.00625E+00 0.00000E+00
 -1       423 1.16535E+02 4.00625E+00 0.00000E+00
 -1       424 1.19535E+02 4.00625E+00 0.00000E+00
 -1       425 1.22535E+02 4.00625E+00 0.00000E+00
 -1       426 1.25535E+02 4.00625E+00 0.00000E+00
 -1       427 1.28535E+02 4.00625E+00 0.00000E+00
 -1       428 1.31535E+02 4.00625E+00 0.00000E+00
 -1       429 1.34535E+02 4.00625E+00 0.00000E+00
 -1       430 1.37535E+02 4.00625E+00 0.00000E+00
 -1       431 1.40535E+02 4.00625E+00 0.00000E+00
 -1       432 1.43535E+02 4.00625E+00 0.00000E+00
 -1       433 1.45469E+02 4.31563E+00 0.00000E+00
 -1       434 1.44849E+02 1.20250E+01 0.00000E+00
 -1       435 1.44849E+02 8.97500E+00 0.00000E+00
 -1       436 1.45159E+02 6.64531E+00 0.00000E+00
 -1       437 1.44849E+02 1.43750E+01 0.00000E+00
 -1       438 1.45996E+02 1.73472E+01 0.00000E+00
 -1       439 1.45983E+02 3.54000E+01 0.00000E+00
 -1       440 1.45983E+02 3.84500E+01 0.00000E+00
 -1       441 1.45983E+02 4.15000E+01 0.00000E+00
 -1       442 1.43260E+02 3.30984E+01 0.00000E+00
 -1       443 1.47146E+02 2.97227E+01 0.00000E+00
 -1       444 5.19600E+00 3.82125E+01 0.00000E+00
 -1       445 1.44200E+02 1.56078E+01 0.00000E+00
 -1       446 1.42244E+02 1.49543E+01 0.00000E+00
 -1       447 1.40304E+02 1.44507E+01 0.00000E+00
 -1       448 1.38302E+02 1.45190E+01 0.00000E+00
 -1       449 1.36351E+02 1.48811E+01 0.00000E+00
 -1       450 1.34036E+02 1.59692E+01 0.00000E+00
 -1       451 1.32659E+02 1.70853E+01 0.00000E+00
 -1       452 1.31234E+02 1.88849E+01 0.00000E+00
 -1       453 1.30455E+02 2.04097E+01 0.00000E+00
 -1       454 1.29963E+02 2.26629E+01 0.00000E+00
 -1       455 1.29850E+02 2.44177E+01 0.00000E+00
 -1       456 1.30173E+02 2.66455E+01 0.00000E+00
 -1       457 1.30836E+02 2.83315E+01 0.00000E+00
 -1       458 1.31640E+02 3.00842E+01 0.00000E+00
 -1       459 1.33467E+02 3.17092E+01 0.00000E+00
 -1       460 1.35070E+02 3.28504E+01 0.00000E+00
 -1       461 1.36702E+02 3.34570E+01 0.00000E+00
 -1       462 1.39044E+02 3.39147E+01 0.00000E+00
 -1       463 1.40763E+02 3.39861E+01 0.00000E+00
 -1       464 1.45961E+02 3.10934E+01 0.00000E+00
 -1       465 1.42458E+02 3.46784E+01 0.00000E+00
 -1       466 1.31745E+02 3.16706E+01 0.00000E+00
 -1       467 1.34629E+02 1.43490E+01 0.00000E+00
 -1       468 1.00350E+01 6.60425E+00 0.00000E+00
 -1       469 7.79400E+00 3.08500E+01 0.00000E+00
 -1       470 7.79400E+00 3.38000E+01 0.00000E+00
 -1       471 7.79400E+00 2.49500E+01 0.00000E+00
 -1       472 7.79400E+00 2.20000E+01 0.00000E+00
 -1       473 7.79400E+00 1.91000E+01 0.00000E+00
 -1       474 7.79400E+00 1.61500E+01 0.00000E+00
 -1       475 7.79400E+00 1.32000E+01 0.00000E+00
 -1       476 7.79400E+00 1.02500E+01 0.00000E+00
 -1       477 1.06500E+01 4.22060E+01 0.00000E+00
 -1       478 1.30350E+01 6.60425E+00 0.00000E+00
 -1       479 7.92300E+00 4.16780E+01 0.00000E+00
 -1       480 1.36500E+01 4.22060E+01 0.00000E+00
 -1       481 1.66500E+01 4.22060E+01 0.00000E+00
 -1       482 1.96500E+01 4.22060E+01 0.00000E+00
 -1       483 2.26500E+01 4.22060E+01 0.00000E+00
 -1       484 2.56500E+01 4.22060E+01 0.00000E+00
 -1       485 2.86500E+01 4.22060E+01 0.00000E+00
 -1       486 3.16500E+01 4.22060E+01 0.00000E+00
 -1       487 3.46500E+01 4.22060E+01 0.00000E+00
 -1       488 3.76500E+01 4.22060E+01 0.00000E+00
 -1       489 4.06500E+01 4.22060E+01 0.00000E+00
 -1       490 4.36500E+01 4.22060E+01 0.00000E+00
 -1       491 4.66500E+01 4.22060E+01 0.00000E+00
 -1       492 4.96500E+01 4.22060E+01 0.00000E+00
 -1       493 5.26500E+01 4.22060E+01 0.00000E+00
 -1       494 5.56500E+01 4.22060E+01 0.00000E+00
 -1       495 5.86500E+01 4.22060E+01 0.00000E+00
 -1       496 6.16500E+01 4.22060E+01 0.00000E+00
 -1       497 6.46500E+01 4.22060E+01 0.00000E+00
 -1       498 6.76500E+01 4.22060E+01 0.00000E+00
 -1       499 7.06500E+01 4.22060E+01 0.00000E+00
 -1       500 7.36500E+01 4.22060E+01 0.00000E+00
 -1       501 7.66500E+01 4.22060E+01 0.00000E+00
 -1       502 7.96500E+01 4.22060E+01 0.00000E+00
 -1       503 8.26500E+01 4.22060E+01 0.00000E+00
 -1       504 8.56500E+01 4.22060E+01 0.00000E+00
 -1       505 8.86500E+01 4.22060E+01 0.00000E+00
 -1       506 9.16500E+01 4.22060E+01 0.00000E+00
 -1       507 9.46500E+01 4.22060E+01 0.00000E+00
 -1       508 9.76500E+01 4.22060E+01 0.00000E+00
 -1       509 1.00650E+02 4.22060E+01 0.00000E+00
 -1       510 1.03650E+02 4.22060E+01 0.00000E+00
 -1       511 1.06650E+02 4.22060E+01 0.00000E+00
 -1       512 1.09650E+02 4.22060E+01 0.00000E+00
 -1       513 1.12650E+02 4.22060E+01 0.00000E+00
 -1       514 1.15650E+02 4.22060E+01 0.00000E+00
 -1       515 1.18650E+02 4.22060E+01 0.00000E+00
 -1       516 1.21650E+02 4.22060E+01 0.00000E+00
 -1       517 1.24650E+02 4.22060E+01 0.00000E+00
 -1       518 1.27650E+02 4.22060E+01 0.00000E+00
 -1       519 1.30650E+02 4.22060E+01 0.00000E+00
 -1       520 1.33650E+02 4.22060E+01 0.00000E+00
 -1       521 1.36650E+02 4.22060E+01 0.00000E+00
 -1       522 1.39650E+02 4.22060E+01 0.00000E+00
 -1       523 1.42650E+02 4.22060E+01 0.00000E+00
 -1       524 1.60350E+01 6.60425E+00 0.00000E+00
 -1       525 1.90350E+01 6.60425E+00 0.00000E+00
 -1       526 2.20350E+01 6.60425E+00 0.00000E+00
 -1       527 2.50350E+01 6.60425E+00 0.00000E+00
 -1       528 2.80350E+01 6.60425E+00 0.00000E+00
 -1       529 3.10350E+01 6.60425E+00 0.00000E+00
 -1       530 3.40350E+01 6.60425E+00 0.00000E+00
 -1       531 3.70350E+01 6.60425E+00 0.00000E+00
 -1       532 4.00350E+01 6.60425E+00 0.00000E+00
 -1       533 4.30350E+01 6.60425E+00 0.00000E+00
 -1       534 4.60350E+01 6.60425E+00 0.00000E+00
 -1       535 4.90350E+01 6.60425E+00 0.00000E+00
 -1       536 5.20350E+01 6.60425E+00 0.00000E+00
 -1       537 5.50350E+01 6.60425E+00 0.00000E+00
 -1       538 5.80350E+01 6.60425E+00 0.00000E+00
 -1       539 6.10350E+01 6.60425E+00 0.00000E+00
 -1       540 6.40350E+01 6.60425E+00 0.00000E+00
 -1       541 6.70350E+01 6.60425E+00 0.00000E+00
 -1       542 7.00350E+01 6.60425E+00 0.00000E+00
 -1       543 7.30350E+01 6.60425E+00 0.00000E+00
 -1       544 7.60350E+01 6.60425E+00 0.00000E+00
 -1       545 7.90350E+01 6.60425E+00 0.00000E+00
 -1       546 8.20350E+01 6.60425E+00 0.00000E+00
 -1       547 8.50350E+01 6.60425E+00 0.00000E+00
 -1       548 8.80350E+01 6.60425E+00 0.00000E+00
 -1       549 9.10350E+01 6.60425E+00 0.00000E+00
 -1       550 9.40350E+01 6.60425E+00 0.00000E+00
 -1       551 9.70350E+01 6.60425E+00 0.00000E+00
 -1       552 1.00035E+02 6.60425E+00 0.00000E+00
 -1       553 1.03035E+02 6.60425E+00 0.00000E+00
 -1       554 1.06035E+02 6.60425E+00 0.00000E+00
 -1       555 1.09035E+02 6.60425E+00 0.00000E+00
 -1       556 1.12035E+02 6.60425E+00 0.00000E+00
 -1       557 1.15035E+02 6.60425E+00 0.00000E+00
 -1       558 1.18035E+02 6.60425E+00 0.00000E+00
 -1       559 1.21035E+02 6.60425E+00 0.00000E+00
 -1       560 1.24035E+02 6.60425E+00 0.00000E+00
 -1       561 1.27035E+02 6.60425E+00 0.00000E+00
 -1       562 1.30035E+02 6.60425E+00 0.00000E+00
 -1       563 1.33035E+02 6.60425E+00 0.00000E+00
 -1       564 1.36035E+02 6.60425E+00 0.00000E+00
 -1       565 1.39035E+02 6.60425E+00 0.00000E+00
 -1       566 1.42035E+02 6.60425E+00 0.00000E+00
 -1       567 1.42631E+02 1.05000E+01 0.00000E+00
 -1       568 1.43598E+02 3.99750E+01 0.00000E+00
 -1       569 1.44062E+02 3.62249E+01 0.00000E+00
 -1       570 1.37544E+02 3.53691E+01 0.00000E+00
 -1       571 1.33419E+02 3.34721E+01 0.00000E+00
 -1       572 7.79400E+00 2.79000E+01 0.00000E+00
 -1       573 1.41662E+02 1.32046E+01 0.00000E+00
 -1       574 1.39244E+02 1.27708E+01 0.00000E+00
 -1       575 1.37044E+02 1.31785E+01 0.00000E+00
 -1       576 1.32373E+02 1.53250E+01 0.00000E+00
 -1       577 1.30602E+02 1.69203E+01 0.00000E+00
 -1       578 1.29541E+02 1.89816E+01 0.00000E+00
 -1       579 1.28534E+02 2.11705E+01 0.00000E+00
 -1       580 1.28480E+02 2.57539E+01 0.00000E+00
 -1       581 1.28597E+02 2.82392E+01 0.00000E+00
 -1       582 1.29400E+02 2.99919E+01 0.00000E+00
 -1       583 1.35289E+02 3.47614E+01 0.00000E+00
 -1       584 1.39826E+02 3.58314E+01 0.00000E+00
 -1       585 1.28529E+02 2.34512E+01 0.00000E+00
 -1       586 7.61550E+00 6.21462E+00 0.00000E+00
 -1       587 1.43501E+02 1.35652E+01 0.00000E+00
 -1       588 7.79400E+00 3.67375E+01 0.00000E+00
 -1       589 1.35323E+02 1.26465E+01 0.00000E+00
 -1       590 1.41520E+02 3.65237E+01 0.00000E+00
 -1       591 1.29505E+02 3.15783E+01 0.00000E+00
 -1       592 1.03920E+01 2.05500E+01 0.00000E+00
 -1       593 1.03920E+01 2.35000E+01 0.00000E+00
 -1       594 1.03920E+01 1.46750E+01 0.00000E+00
 -1       595 1.03920E+01 1.17250E+01 0.00000E+00
 -1       596 1.21500E+01 3.96080E+01 0.00000E+00
 -1       597 1.15350E+01 9.20225E+00 0.00000E+00
 -1       598 1.38311E+02 3.74454E+01 0.00000E+00
 -1       599 1.51500E+01 3.96080E+01 0.00000E+00
 -1       600 1.81500E+01 3.96080E+01 0.00000E+00
 -1       601 2.11500E+01 3.96080E+01 0.00000E+00
 -1       602 2.41500E+01 3.96080E+01 0.00000E+00
 -1       603 2.71500E+01 3.96080E+01 0.00000E+00
 -1       604 3.01500E+01 3.96080E+01 0.00000E+00
 -1       605 3.31500E+01 3.96080E+01 0.00000E+00
 -1       606 3.61500E+01 3.96080E+01 0.00000E+00
 -1       607 3.91500E+01 3.96080E+01 0.00000E+00
 -1       608 4.21500E+01 3.96080E+01 0.00000E+00
 -1       609 4.51500E+01 3.96080E+01 0.00000E+00
 -1       610 4.81500E+01 3.96080E+01 0.00000E+00
 -1       611 5.11500E+01 3.96080E+01 0.00000E+00
 -1       612 5.41500E+01 3.96080E+01 0.00000E+00
 -1       613 5.71500E+01 3.96080E+01 0.00000E+00
 -1       614 6.01500E+01 3.96080E+01 0.00000E+00
 -1       615 6.31500E+01 3.96080E+01 0.00000E+00
 -1       616 6.61500E+01 3.96080E+01 0.00000E+00
 -1       617 6.91500E+01 3.96080E+01 0.00000E+00
 -1       618 7.21500E+01 3.96080E+01 0.00000E+00
 -1       619 7.51500E+01 3.96080E+01 0.00000E+00
 -1       620 7.81500E+01 3.96080E+01 0.00000E+00
 -1       621 8.11500E+01 3.96080E+01 0.00000E+00
 -1       622 8.41500E+01 3.96080E+01 0.00000E+00
 -1       623 8.71500E+01 3.96080E+01 0.00000E+00
 -1       624 9.01500E+01 3.96080E+01 0.00000E+00
 -1       625 9.31500E+01 3.96080E+01 0.00000E+00
 -1       626 9.61500E+01 3.96080E+01 0.00000E+00
 -1       627 9.91500E+01 3.96080E+01 0.00000E+00
 -1       628 1.02150E+02 3.96080E+01 0.00000E+00
 -1       629 1.05150E+02 3.96080E+01 0.00000E+00
 -1       630 1.08150E+02 3.96080E+01 0.00000E+00
 -1       631 1.11150E+02 3.96080E+01 0.00000E+00
 -1       632 1.14150E+02 3.96080E+01 0.00000E+00
 -1       633 1.17150E+02 3.96080E+01 0.00000E+00
 -1       634 1.20150E+02 3.96080E+01 0.00000E+00
 -1       635 1.23150E+02 3.96080E+01 0.00000E+00
 -1       636 1.26150E+02 3.96080E+01 0.00000E+00
 -1       637 1.29150E+02 3.96080E+01 0.00000E+00
 -1       638 1.32150E+02 3.96080E+01 0.00000E+00
 -1       639 1.35150E+02 3.96080E+01 0.00000E+00
 -1       640 2.05350E+01 9.20225E+00 0.00000E+00
 -1       641 2.35350E+01 9.20225E+00 0.00000E+00
 -1       642 2.65350E+01 9.20225E+00 0.00000E+00
 -1       643 2.95350E+01 9.20225E+00 0.00000E+00
 -1       644 3.25350E+01 9.20225E+00 0.00000E+00
 -1       645 3.55350E+01 9.20225E+00 0.00000E+00
 -1       646 3.85350E+01 9.20225E+00 0.00000E+00
 -1       647 4.15350E+01 9.20225E+00 0.00000E+00
 -1       648 4.45350E+01 9.20225E+00 0.00000E+00
 -1       649 4.75350E+01 9.20225E+00 0.00000E+00
 -1       650 5.05350E+01 9.20225E+00 0.00000E+00
 -1       651 5.35350E+01 9.20225E+00 0.00000E+00
 -1       652 5.65350E+01 9.20225E+00 0.00000E+00
 -1       653 5.95350E+01 9.20225E+00 0.00000E+00
 -1       654 6.25350E+01 9.20225E+00 0.00000E+00
 -1       655 6.55350E+01 9.20225E+00 0.00000E+00
 -1       656 6.85350E+01 9.20225E+00 0.00000E+00
 -1       657 7.15350E+01 9.20225E+00 0.00000E+00
 -1       658 7.45350E+01 9.20225E+00 0.00000E+00
 -1       659 7.75350E+01 9.20225E+00 0.00000E+00
 -1       660 8.05350E+01 9.20225E+00 0.00000E+00
 -1       661 8.35350E+01 9.20225E+00 0.00000E+00
 -1       662 8.65350E+01 9.20225E+00 0.00000E+00
 -1       663 8.95350E+01 9.20225E+00 0.00000E+00
 -1       664 9.25350E+01 9.20225E+00 0.00000E+00
 -1       665 9.55350E+01 9.20225E+00 0.00000E+00
 -1       666 9.85350E+01 9.20225E+00 0.00000E+00
 -1       667 1.01535E+02 9.20225E+00 0.00000E+00
 -1       668 1.04535E+02 9.20225E+00 0.00000E+00
 -1       669 1.07535E+02 9.20225E+00 0.00000E+00
 -1       670 1.10535E+02 9.20225E+00 0.00000E+00
 -1       671 1.13535E+02 9.20225E+00 0.00000E+00
 -1       672 1.16535E+02 9.20225E+00 0.00000E+00
 -1       673 1.19535E+02 9.20225E+00 0.00000E+00
 -1       674 1.22535E+02 9.20225E+00 0.00000E+00
 -1       675 1.25535E+02 9.20225E+00 0.00000E+00
 -1       676 1.28535E+02 9.20225E+00 0.00000E+00
 -1       677 1.31535E+02 9.20225E+00 0.00000E+00
 -1       678 1.34535E+02 9.20225E+00 0.00000E+00
 -1       679 1.37535E+02 9.20225E+00 0.00000E+00
 -1       680 1.40083E+02 9.85112E+00 0.00000E+00
 -1       681 1.26874E+02 2.45674E+01 0.00000E+00
 -1       682 1.33428E+02 3.54597E+01 0.00000E+00
 -1       683 1.35927E+02 3.68831E+01 0.00000E+00
 -1       684 1.31387E+02 3.36820E+01 0.00000E+00
 -1       685 1.75350E+01 9.20225E+00 0.00000E+00
 -1       686 1.03920E+01 1.76125E+01 0.00000E+00
 -1       687 1.45350E+01 9.20225E+00 0.00000E+00
 -1       688 1.03920E+01 3.23250E+01 0.00000E+00
 -1       689 1.28397E+02 1.70894E+01 0.00000E+00
 -1       690 1.30227E+02 1.47237E+01 0.00000E+00
 -1       691 1.32820E+02 1.32628E+01 0.00000E+00
 -1       692 1.26878E+02 2.22867E+01 0.00000E+00
 -1       693 1.27439E+02 2.98303E+01 0.00000E+00
 -1       694 1.26490E+02 2.70930E+01 0.00000E+00
 -1       695 1.27390E+02 1.92782E+01 0.00000E+00
 -1       696 1.41438E+02 3.91344E+01 0.00000E+00
 -1       697 1.03920E+01 2.64500E+01 0.00000E+00
 -1       698 1.37290E+02 1.11904E+01 0.00000E+00
 -1       699 1.25734E+02 2.03945E+01 0.00000E+00
 -1       700 1.03920E+01 2.93875E+01 0.00000E+00
 -1       701 1.27544E+02 3.14166E+01 0.00000E+00
 -1       702 1.03920E+01 3.52625E+01 0.00000E+00
 -1       703 9.78035E+00 3.93914E+01 0.00000E+00
 -1       704 1.29900E+01 1.32000E+01 0.00000E+00
 -1       705 1.30951E+02 3.62431E+01 0.00000E+00
 -1       706 1.35186E+02 1.04052E+01 0.00000E+00
 -1       707 1.33662E+02 3.79529E+01 0.00000E+00
 -1       708 1.66500E+01 3.70100E+01 0.00000E+00
 -1       709 1.96500E+01 3.70100E+01 0.00000E+00
 -1       710 2.26500E+01 3.70100E+01 0.00000E+00
 -1       711 2.56500E+01 3.70100E+01 0.00000E+00
 -1       712 2.86500E+01 3.70100E+01 0.00000E+00
 -1       713 3.16500E+01 3.70100E+01 0.00000E+00
 -1       714 3.46500E+01 3.70100E+01 0.00000E+00
 -1       715 3.76500E+01 3.70100E+01 0.00000E+00
 -1       716 4.06500E+01 3.70100E+01 0.00000E+00
 -1       717 4.36500E+01 3.70100E+01 0.00000E+00
 -1       718 4.66500E+01 3.70100E+01 0.00000E+00
 -1       719 4.96500E+01 3.70100E+01 0.00000E+00
 -1       720 5.26500E+01 3.70100E+01 0.00000E+00
 -1       721 5.56500E+01 3.70100E+01 0.00000E+00
 -1       722 5.86500E+01 3.70100E+01 0.00000E+00
 -1       723 6.16500E+01 3.70100E+01 0.00000E+00
 -1       724 6.46500E+01 3.70100E+01 0.00000E+00
 -1       725 6.76500E+01 3.70100E+01 0.00000E+00
 -1       726 7.06500E+01 3.70100E+01 0.00000E+00
 -1       727 7.36500E+01 3.70100E+01 0.00000E+00
 -1       728 7.66500E+01 3.70100E+01 0.00000E+00
 -1       729 7.96500E+01 3.70100E+01 0.00000E+00
 -1       730 8.26500E+01 3.70100E+01 0.00000E+00
 -1       731 8.56500E+01 3.70100E+01 0.00000E+00
 -1       732 8.86500E+01 3.70100E+01 0.00000E+00
 -1       733 9.16500E+01 3.70100E+01 0.00000E+00
 -1       734 9.46500E+01 3.70100E+01 0.00000E+00
 -1       735 9.76500E+01 3.70100E+01 0.00000E+00
 -1       736 1.00650E+02 3.70100E+01 0.00000E+00
 -1       737 1.03650E+02 3.70100E+01 0.00000E+00
 -1       738 1.06650E+02 3.70100E+01 0.00000E+00
 -1       739 1.09650E+02 3.70100E+01 0.00000E+00
 -1       740 1.12650E+02 3.70100E+01 0.00000E+00
 -1       741 1.15650E+02 3.70100E+01 0.00000E+00
 -1       742 1.18650E+02 3.70100E+01 0.00000E+00
 -1       743 1.21650E+02 3.70100E+01 0.00000E+00
 -1       744 1.24650E+02 3.70100E+01 0.00000E+00
 -1       745 1.27650E+02 3.70100E+01 0.00000E+00
 -1       746 2.20350E+01 1.18003E+01 0.00000E+00
 -1       747 3.10350E+01 1.18003E+01 0.00000E+00
 -1       748 3.40350E+01 1.18003E+01 0.00000E+00
 -1       749 3.70350E+01 1.18003E+01 0.00000E+00
 -1       750 4.00350E+01 1.18003E+01 0.00000E+00
 -1       751 4.30350E+01 1.18003E+01 0.00000E+00
 -1       752 4.60350E+01 1.18003E+01 0.00000E+00
 -1       753 4.90350E+01 1.18003E+01 0.00000E+00
 -1       754 5.20350E+01 1.18003E+01 0.00000E+00
 -1       755 5.50350E+01 1.18003E+01 0.00000E+00
 -1       756 5.80350E+01 1.18003E+01 0.00000E+00
 -1       757 6.10350E+01 1.18003E+01 0.00000E+00
 -1       758 6.40350E+01 1.18003E+01 0.00000E+00
 -1       759 6.70350E+01 1.18003E+01 0.00000E+00
 -1       760 7.00350E+01 1.18003E+01 0.00000E+00
 -1       761 7.30350E+01 1.18003E+01 0.00000E+00
 -1       762 7.60350E+01 1.18003E+01 0.00000E+00
 -1       763 7.90350E+01 1.18003E+01 0.00000E+00
 -1       764 8.20350E+01 1.18003E+01 0.00000E+00
 -1       765 8.50350E+01 1.18003E+01 0.00000E+00
 -1       766 8.80350E+01 1.18003E+01 0.00000E+00
 -1       767 9.10350E+01 1.18003E+01 0.00000E+00
 -1       768 9.40350E+01 1.18003E+01 0.00000E+00
 -1       769 9.70350E+01 1.18003E+01 0.00000E+00
 -1       770 1.00035E+02 1.18003E+01 0.00000E+00
 -1       771 1.03035E+02 1.18003E+01 0.00000E+00
 -1       772 1.06035E+02 1.18003E+01 0.00000E+00
 -1       773 1.09035E+02 1.18003E+01 0.00000E+00
 -1       774 1.12035E+02 1.18003E+01 0.00000E+00
 -1       775 1.15035E+02 1.18003E+01 0.00000E+00
 -1       776 1.18035E+02 1.18003E+01 0.00000E+00
 -1       777 1.21035E+02 1.18003E+01 0.00000E+00
 -1       778 1.24035E+02 1.18003E+01 0.00000E+00
 -1       779 1.27035E+02 1.18003E+01 0.00000E+00
 -1       780 1.28793E+02 3.41089E+01 0.00000E+00
 -1       781 1.90350E+01 1.18003E+01 0.00000E+00
 -1       782 2.80350E+01 1.18003E+01 0.00000E+00
 -1       783 1.24825E+02 2.34233E+01 0.00000E+00
 -1       784 1.36500E+01 3.70100E+01 0.00000E+00
 -1       785 1.24442E+02 2.59488E+01 0.00000E+00
 -1       786 1.27691E+02 1.46520E+01 0.00000E+00
 -1       787 1.25186E+02 2.90784E+01 0.00000E+00
 -1       788 1.29900E+01 2.20250E+01 0.00000E+00
 -1       789 1.26183E+02 1.73968E+01 0.00000E+00
 -1       790 2.50350E+01 1.18003E+01 0.00000E+00
 -1       791 1.37625E+01 1.12011E+01 0.00000E+00
 -1       792 1.29381E+02 1.19630E+01 0.00000E+00
 -1       793 1.25291E+02 3.06648E+01 0.00000E+00
 -1       794 1.29900E+01 2.49750E+01 0.00000E+00
 -1       795 1.29900E+01 1.90875E+01 0.00000E+00
 -1       796 1.24528E+02 1.85130E+01 0.00000E+00
 -1       797 1.29900E+01 3.08563E+01 0.00000E+00
 -1       798 1.29900E+01 3.37938E+01 0.00000E+00
 -1       799 1.29900E+01 1.61437E+01 0.00000E+00
 -1       800 1.63988E+01 1.15007E+01 0.00000E+00
 -1       801 1.22275E+02 2.43281E+01 0.00000E+00
 -1       802 2.11500E+01 3.44120E+01 0.00000E+00
 -1       803 2.41500E+01 3.44120E+01 0.00000E+00
 -1       804 2.71500E+01 3.44120E+01 0.00000E+00
 -1       805 3.01500E+01 3.44120E+01 0.00000E+00
 -1       806 3.31500E+01 3.44120E+01 0.00000E+00
 -1       807 3.61500E+01 3.44120E+01 0.00000E+00
 -1       808 3.91500E+01 3.44120E+01 0.00000E+00
 -1       809 4.21500E+01 3.44120E+01 0.00000E+00
 -1       810 4.51500E+01 3.44120E+01 0.00000E+00
 -1       811 4.81500E+01 3.44120E+01 0.00000E+00
 -1       812 5.11500E+01 3.44120E+01 0.00000E+00
 -1       813 5.41500E+01 3.44120E+01 0.00000E+00
 -1       814 5.71500E+01 3.44120E+01 0.00000E+00
 -1       815 6.01500E+01 3.44120E+01 0.00000E+00
 -1       816 6.31500E+01 3.44120E+01 0.00000E+00
 -1       817 6.61500E+01 3.44120E+01 0.00000E+00
 -1       818 6.91500E+01 3.44120E+01 0.00000E+00
 -1       819 7.21500E+01 3.44120E+01 0.00000E+00
 -1       820 7.51500E+01 3.44120E+01 0.00000E+00
 -1       821 7.81500E+01 3.44120E+01 0.00000E+00
 -1       822 8.11500E+01 3.44120E+01 0.00000E+00
 -1       823 8.41500E+01 3.44120E+01 0.00000E+00
 -1       824 8.71500E+01 3.44120E+01 0.00000E+00
 -1       825 9.01500E+01 3.44120E+01 0.00000E+00
 -1       826 9.31500E+01 3.44120E+01 0.00000E+00
 -1       827 9.61500E+01 3.44120E+01 0.00000E+00
 -1       828 9.91500E+01 3.44120E+01 0.00000E+00
 -1       829 1.02150E+02 3.44120E+01 0.00000E+00
 -1       830 1.05150E+02 3.44120E+01 0.00000E+00
 -1       831 1.08150E+02 3.44120E+01 0.00000E+00
 -1       832 1.11150E+02 3.44120E+01 0.00000E+00
 -1       833 1.14150E+02 3.44120E+01 0.00000E+00
 -1       834 1.17150E+02 3.44120E+01 0.00000E+00
 -1       835 1.20150E+02 3.44120E+01 0.00000E+00
 -1       836 1.23150E+02 3.44120E+01 0.00000E+00
 -1       837 2.65350E+01 1.43982E+01 0.00000E+00
 -1       838 3.25350E+01 1.43982E+01 0.00000E+00
 -1       839 4.15350E+01 1.43982E+01 0.00000E+00
 -1       840 4.45350E+01 1.43982E+01 0.00000E+00
 -1       841 4.75350E+01 1.43982E+01 0.00000E+00
 -1       842 5.05350E+01 1.43982E+01 0.00000E+00
 -1       843 5.35350E+01 1.43982E+01 0.00000E+00
 -1       844 5.65350E+01 1.43982E+01 0.00000E+00
 -1       845 5.95350E+01 1.43982E+01 0.00000E+00
 -1       846 6.25350E+01 1.43982E+01 0.00000E+00
 -1       847 6.55350E+01 1.43982E+01 0.00000E+00
 -1       848 6.85350E+01 1.43982E+01 0.00000E+00
 -1       849 7.15350E+01 1.43982E+01 0.00000E+00
 -1       850 7.45350E+01 1.43982E+01 0.00000E+00
 -1       851 7.75350E+01 1.43982E+01 0.00000E+00
 -1       852 8.05350E+01 1.43982E+01 0.00000E+00
 -1       853 8.35350E+01 1.43982E+01 0.00000E+00
 -1       854 8.65350E+01 1.43982E+01 0.00000E+00
 -1       855 8.95350E+01 1.43982E+01 0.00000E+00
 -1       856 9.25350E+01 1.43982E+01 0.00000E+00
 -1       857 9.55350E+01 1.43982E+01 0.00000E+00
 -1       858 9.85350E+01 1.43982E+01 0.00000E+00
 -1       859 1.01535E+02 1.43982E+01 0.00000E+00
 -1       860 1.04535E+02 1.43982E+01 0.00000E+00
 -1       861 1.07535E+02 1.43982E+01 0.00000E+00
 -1       862 1.10535E+02 1.43982E+01 0.00000E+00
 -1       863 1.13535E+02 1.43982E+01 0.00000E+00
 -1       864 1.16535E+02 1.43982E+01 0.00000E+00
 -1       865 1.19535E+02 1.43982E+01 0.00000E+00
 -1       866 1.22535E+02 1.43982E+01 0.00000E+00
 -1       867 1.29900E+01 2.79188E+01 0.00000E+00
 -1       868 2.95350E+01 1.43982E+01 0.00000E+00
 -1       869 2.05350E+01 1.43982E+01 0.00000E+00
 -1       870 1.26005E+02 3.37666E+01 0.00000E+00
 -1       871 3.85350E+01 1.43982E+01 0.00000E+00
 -1       872 1.51500E+01 3.44120E+01 0.00000E+00
 -1       873 3.55350E+01 1.43982E+01 0.00000E+00
 -1       874 1.81500E+01 3.44120E+01 0.00000E+00
 -1       875 1.22493E+02 2.80652E+01 0.00000E+00
 -1       876 1.24993E+02 1.49568E+01 0.00000E+00
 -1       877 1.23184E+02 2.12993E+01 0.00000E+00
 -1       878 2.35350E+01 1.43982E+01 0.00000E+00
 -1       879 1.55880E+01 2.35000E+01 0.00000E+00
 -1       880 1.75351E+01 1.43983E+01 0.00000E+00
 -1       881 1.55880E+01 2.05625E+01 0.00000E+00
 -1       882 1.22598E+02 2.96516E+01 0.00000E+00
 -1       883 1.55880E+01 2.93875E+01 0.00000E+00
 -1       884 1.55880E+01 1.46719E+01 0.00000E+00
 -1       885 1.23531E+02 1.64556E+01 0.00000E+00
 -1       886 1.59934E+01 1.30863E+01 0.00000E+00
 -1       887 1.90351E+01 1.69963E+01 0.00000E+00
 -1       888 2.50350E+01 1.69963E+01 0.00000E+00
 -1       889 2.56500E+01 3.18140E+01 0.00000E+00
 -1       890 2.86500E+01 3.18140E+01 0.00000E+00
 -1       891 3.16500E+01 3.18140E+01 0.00000E+00
 -1       892 3.46500E+01 3.18140E+01 0.00000E+00
 -1       893 3.76500E+01 3.18140E+01 0.00000E+00
 -1       894 4.06500E+01 3.18140E+01 0.00000E+00
 -1       895 4.36500E+01 3.18140E+01 0.00000E+00
 -1       896 4.66500E+01 3.18140E+01 0.00000E+00
 -1       897 4.96500E+01 3.18140E+01 0.00000E+00
 -1       898 5.26500E+01 3.18140E+01 0.00000E+00
 -1       899 5.56500E+01 3.18140E+01 0.00000E+00
 -1       900 5.86500E+01 3.18140E+01 0.00000E+00
 -1       901 6.16500E+01 3.18140E+01 0.00000E+00
 -1       902 6.46500E+01 3.18140E+01 0.00000E+00
 -1       903 6.76500E+01 3.18140E+01 0.00000E+00
 -1       904 7.06500E+01 3.18140E+01 0.00000E+00
 -1       905 7.36500E+01 3.18140E+01 0.00000E+00
 -1       906 7.66500E+01 3.18140E+01 0.00000E+00
 -1       907 7.96500E+01 3.18140E+01 0.00000E+00
 -1       908 8.26500E+01 3.18140E+01 0.00000E+00
 -1       909 8.56500E+01 3.18140E+01 0.00000E+00
 -1       910 8.86500E+01 3.18140E+01 0.00000E+00
 -1       911 9.16500E+01 3.18140E+01 0.00000E+00
 -1       912 9.46500E+01 3.18140E+01 0.00000E+00
 -1       913 9.76500E+01 3.18140E+01 0.00000E+00
 -1       914 1.00650E+02 3.18140E+01 0.00000E+00
 -1       915 1.03650E+02 3.18140E+01 0.00000E+00
 -1       916 1.06650E+02 3.18140E+01 0.00000E+00
 -1       917 1.09650E+02 3.18140E+01 0.00000E+00
 -1       918 1.12650E+02 3.18140E+01 0.00000E+00
 -1       919 1.15650E+02 3.18140E+01 0.00000E+00
 -1       920 1.18650E+02 3.18140E+01 0.00000E+00
 -1       921 4.30350E+01 1.69963E+01 0.00000E+00
 -1       922 5.20350E+01 1.69963E+01 0.00000E+00
 -1       923 5.50350E+01 1.69963E+01 0.00000E+00
 -1       924 5.80350E+01 1.69963E+01 0.00000E+00
 -1       925 6.10350E+01 1.69963E+01 0.00000E+00
 -1       926 6.40350E+01 1.69963E+01 0.00000E+00
 -1       927 6.70350E+01 1.69963E+01 0.00000E+00
 -1       928 7.00350E+01 1.69963E+01 0.00000E+00
 -1       929 7.30350E+01 1.69963E+01 0.00000E+00
 -1       930 7.60350E+01 1.69963E+01 0.00000E+00
 -1       931 7.90350E+01 1.69963E+01 0.00000E+00
 -1       932 8.20350E+01 1.69963E+01 0.00000E+00
 -1       933 8.50350E+01 1.69963E+01 0.00000E+00
 -1       934 8.80350E+01 1.69963E+01 0.00000E+00
 -1       935 9.10350E+01 1.69963E+01 0.00000E+00
 -1       936 9.40350E+01 1.69963E+01 0.00000E+00
 -1       937 9.70350E+01 1.69963E+01 0.00000E+00
 -1       938 1.00035E+02 1.69963E+01 0.00000E+00
 -1       939 1.03035E+02 1.69963E+01 0.00000E+00
 -1       940 1.06035E+02 1.69963E+01 0.00000E+00
 -1       941 1.09035E+02 1.69963E+01 0.00000E+00
 -1       942 1.12035E+02 1.69963E+01 0.00000E+00
 -1       943 1.15035E+02 1.69963E+01 0.00000E+00
 -1       944 1.18035E+02 1.69963E+01 0.00000E+00
 -1       945 1.20783E+02 1.67260E+01 0.00000E+00
 -1       946 4.00350E+01 1.69963E+01 0.00000E+00
 -1       947 1.55880E+01 3.23250E+01 0.00000E+00
 -1       948 1.55880E+01 2.64438E+01 0.00000E+00
 -1       949 3.10350E+01 1.69963E+01 0.00000E+00
 -1       950 1.55880E+01 1.76156E+01 0.00000E+00
 -1       951 2.20350E+01 1.69963E+01 0.00000E+00
 -1       952 1.96500E+01 3.18140E+01 0.00000E+00
 -1       953 1.19791E+02 2.63479E+01 0.00000E+00
 -1       954 1.81860E+01 3.08563E+01 0.00000E+00
 -1       955 1.20241E+02 2.20670E+01 0.00000E+00
 -1       956 4.60350E+01 1.69963E+01 0.00000E+00
 -1       957 2.80350E+01 1.69963E+01 0.00000E+00
 -1       958 2.26500E+01 3.18140E+01 0.00000E+00
 -1       959 1.21858E+02 1.89430E+01 0.00000E+00
 -1       960 4.90350E+01 1.69963E+01 0.00000E+00
 -1       961 1.81860E+01 2.79125E+01 0.00000E+00
 -1       962 1.81860E+01 2.20313E+01 0.00000E+00
 -1       963 3.40350E+01 1.69963E+01 0.00000E+00
 -1       964 1.81860E+01 2.49719E+01 0.00000E+00
 -1       965 3.70350E+01 1.69963E+01 0.00000E+00
 -1       966 3.01500E+01 2.92160E+01 0.00000E+00
 -1       967 3.31500E+01 2.92160E+01 0.00000E+00
 -1       968 3.61500E+01 2.92160E+01 0.00000E+00
 -1       969 3.91500E+01 2.92160E+01 0.00000E+00
 -1       970 4.21500E+01 2.92160E+01 0.00000E+00
 -1       971 4.51500E+01 2.92160E+01 0.00000E+00
 -1       972 4.81500E+01 2.92160E+01 0.00000E+00
 -1       973 5.11500E+01 2.92160E+01 0.00000E+00
 -1       974 5.41500E+01 2.92160E+01 0.00000E+00
 -1       975 5.71500E+01 2.92160E+01 0.00000E+00
 -1       976 6.01500E+01 2.92160E+01 0.00000E+00
 -1       977 6.31500E+01 2.92160E+01 0.00000E+00
 -1       978 6.61500E+01 2.92160E+01 0.00000E+00
 -1       979 6.91500E+01 2.92160E+01 0.00000E+00
 -1       980 7.21500E+01 2.92160E+01 0.00000E+00
 -1       981 7.51500E+01 2.92160E+01 0.00000E+00
 -1       982 7.81500E+01 2.92160E+01 0.00000E+00
 -1       983 8.11500E+01 2.92160E+01 0.00000E+00
 -1       984 8.41500E+01 2.92160E+01 0.00000E+00
 -1       985 8.71500E+01 2.92160E+01 0.00000E+00
 -1       986 9.01500E+01 2.92160E+01 0.00000E+00
 -1       987 9.31500E+01 2.92160E+01 0.00000E+00
 -1       988 9.61500E+01 2.92160E+01 0.00000E+00
 -1       989 9.91500E+01 2.92160E+01 0.00000E+00
 -1       990 1.02150E+02 2.92160E+01 0.00000E+00
 -1       991 1.05150E+02 2.92160E+01 0.00000E+00
 -1       992 1.08150E+02 2.92160E+01 0.00000E+00
 -1       993 1.11150E+02 2.92160E+01 0.00000E+00
 -1       994 1.14150E+02 2.92160E+01 0.00000E+00
 -1       995 1.17150E+02 2.92160E+01 0.00000E+00
 -1       996 2.41500E+01 2.92160E+01 0.00000E+00
 -1       997 5.35350E+01 1.95942E+01 0.00000E+00
 -1       998 6.25350E+01 1.95942E+01 0.00000E+00
 -1       999 6.55350E+01 1.95942E+01 0.00000E+00
 -1      1000 6.85350E+01 1.95942E+01 0.00000E+00
 -1      1001 7.15350E+01 1.95942E+01 0.00000E+00
 -1      1002 7.45350E+01 1.95942E+01 0.00000E+00
 -1      1003 7.75350E+01 1.95942E+01 0.00000E+00
 -1      1004 8.05350E+01 1.95942E+01 0.00000E+00
 -1      1005 8.35350E+01 1.95942E+01 0.00000E+00
 -1      1006 8.65350E+01 1.95942E+01 0.00000E+00
 -1      1007 8.95350E+01 1.95942E+01 0.00000E+00
 -1      1008 9.25350E+01 1.95942E+01 0.00000E+00
 -1      1009 9.55350E+01 1.95942E+01 0.00000E+00
 -1      1010 9.85350E+01 1.95942E+01 0.00000E+00
 -1      1011 1.01535E+02 1.95942E+01 0.00000E+00
 -1      1012 1.04535E+02 1.95942E+01 0.00000E+00
 -1      1013 1.07535E+02 1.95942E+01 0.00000E+00
 -1      1014 1.10535E+02 1.95942E+01 0.00000E+00
 -1      1015 1.13535E+02 1.95942E+01 0.00000E+00
 -1      1016 1.16535E+02 1.95942E+01 0.00000E+00
 -1      1017 4.15350E+01 1.95942E+01 0.00000E+00
 -1      1018 5.65350E+01 1.95942E+01 0.00000E+00
 -1      1019 1.19822E+02 2.86406E+01 0.00000E+00
 -1      1020 1.17432E+02 2.39355E+01 0.00000E+00
 -1      1021 5.95350E+01 1.95942E+01 0.00000E+00
 -1      1022 4.45350E+01 1.95942E+01 0.00000E+00
 -1      1023 2.71500E+01 2.92160E+01 0.00000E+00
 -1      1024 4.75350E+01 1.95942E+01 0.00000E+00
 -1      1025 1.18931E+02 1.94086E+01 0.00000E+00
 -1      1026 5.05350E+01 1.95942E+01 0.00000E+00
 -1      1027 2.11860E+01 2.20312E+01 0.00000E+00
 -1      1028 2.04180E+01 2.98633E+01 0.00000E+00
 -1      1029 1.17119E+02 2.69233E+01 0.00000E+00
 -1      1030 3.85350E+01 1.95942E+01 0.00000E+00
 -1      1031 2.65350E+01 1.95942E+01 0.00000E+00
 -1      1032 2.38605E+01 2.08127E+01 0.00000E+00
 -1      1033 2.95350E+01 1.95942E+01 0.00000E+00
 -1      1034 1.16984E+02 2.17649E+01 0.00000E+00
 -1      1035 3.25350E+01 1.95942E+01 0.00000E+00
 -1      1036 3.46500E+01 2.66180E+01 0.00000E+00
 -1      1037 3.76500E+01 2.66180E+01 0.00000E+00
 -1      1038 4.06500E+01 2.66180E+01 0.00000E+00
 -1      1039 4.36500E+01 2.66180E+01 0.00000E+00
 -1      1040 4.66500E+01 2.66180E+01 0.00000E+00
 -1      1041 4.96500E+01 2.66180E+01 0.00000E+00
 -1      1042 5.26500E+01 2.66180E+01 0.00000E+00
 -1      1043 5.56500E+01 2.66180E+01 0.00000E+00
 -1      1044 5.86500E+01 2.66180E+01 0.00000E+00
 -1      1045 6.16500E+01 2.66180E+01 0.00000E+00
 -1      1046 6.46500E+01 2.66180E+01 0.00000E+00
 -1      1047 6.76500E+01 2.66180E+01 0.00000E+00
 -1      1048 7.06500E+01 2.66180E+01 0.00000E+00
 -1      1049 7.36500E+01 2.66180E+01 0.00000E+00
 -1      1050 7.66500E+01 2.66180E+01 0.00000E+00
 -1      1051 7.96500E+01 2.66180E+01 0.00000E+00
 -1      1052 8.26500E+01 2.66180E+01 0.00000E+00
 -1      1053 8.56500E+01 2.66180E+01 0.00000E+00
 -1      1054 8.86500E+01 2.66180E+01 0.00000E+00
 -1      1055 9.16500E+01 2.66180E+01 0.00000E+00
 -1      1056 9.46500E+01 2.66180E+01 0.00000E+00
 -1      1057 9.76500E+01 2.66180E+01 0.00000E+00
 -1      1058 1.00650E+02 2.66180E+01 0.00000E+00
 -1      1059 1.03650E+02 2.66180E+01 0.00000E+00
 -1      1060 1.06650E+02 2.66180E+01 0.00000E+00
 -1      1061 1.09650E+02 2.66180E+01 0.00000E+00
 -1      1062 1.12650E+02 2.66180E+01 0.00000E+00
 -1      1063 2.18400E+01 2.69798E+01 0.00000E+00
 -1      1064 4.60350E+01 2.21922E+01 0.00000E+00
 -1      1065 2.86500E+01 2.66180E+01 0.00000E+00
 -1      1066 4.30350E+01 2.21922E+01 0.00000E+00
 -1      1067 6.40350E+01 2.21922E+01 0.00000E+00
 -1      1068 7.30350E+01 2.21922E+01 0.00000E+00
 -1      1069 7.60350E+01 2.21922E+01 0.00000E+00
 -1      1070 7.90350E+01 2.21922E+01 0.00000E+00
 -1      1071 8.20350E+01 2.21922E+01 0.00000E+00
 -1      1072 8.50350E+01 2.21922E+01 0.00000E+00
 -1      1073 8.80350E+01 2.21922E+01 0.00000E+00
 -1      1074 9.10350E+01 2.21922E+01 0.00000E+00
 -1      1075 9.40350E+01 2.21922E+01 0.00000E+00
 -1      1076 9.70350E+01 2.21922E+01 0.00000E+00
 -1      1077 1.00035E+02 2.21922E+01 0.00000E+00
 -1      1078 1.03035E+02 2.21922E+01 0.00000E+00
 -1      1079 1.06035E+02 2.21922E+01 0.00000E+00
 -1      1080 1.09035E+02 2.21922E+01 0.00000E+00
 -1      1081 1.12035E+02 2.21922E+01 0.00000E+00
 -1      1082 1.14509E+02 2.19786E+01 0.00000E+00
 -1      1083 3.55350E+01 1.95942E+01 0.00000E+00
 -1      1084 5.50350E+01 2.21922E+01 0.00000E+00
 -1      1085 7.00350E+01 2.21922E+01 0.00000E+00
 -1      1086 6.70350E+01 2.21922E+01 0.00000E+00
 -1      1087 5.80350E+01 2.21922E+01 0.00000E+00
 -1      1088 6.10350E+01 2.21922E+01 0.00000E+00
 -1      1089 1.14692E+02 2.51585E+01 0.00000E+00
 -1      1090 2.15046E+01 2.53569E+01 0.00000E+00
 -1      1091 3.16500E+01 2.66180E+01 0.00000E+00
 -1      1092 2.56500E+01 2.66180E+01 0.00000E+00
 -1      1093 2.80350E+01 2.21922E+01 0.00000E+00
 -1      1094 4.90350E+01 2.21922E+01 0.00000E+00
 -1      1095 4.00350E+01 2.21922E+01 0.00000E+00
 -1      1096 2.53605E+01 2.34107E+01 0.00000E+00
 -1      1097 5.20350E+01 2.21922E+01 0.00000E+00
 -1      1098 2.34325E+01 2.43838E+01 0.00000E+00
 -1      1099 3.10350E+01 2.21922E+01 0.00000E+00
 -1      1100 3.91500E+01 2.40200E+01 0.00000E+00
 -1      1101 3.61500E+01 2.40200E+01 0.00000E+00
 -1      1102 3.35925E+01 2.31061E+01 0.00000E+00
 -1      1103 0.00000E+00 4.85250E+01 0.00000E+00
 -1      1104 0.00000E+00 4.55750E+01 0.00000E+00
 -1      1105 0.00000E+00 4.26250E+01 0.00000E+00
 -1      1106 0.00000E+00 3.96750E+01 0.00000E+00
 -1      1107 0.00000E+00 3.67250E+01 0.00000E+00
 -1      1108 0.00000E+00 3.38000E+01 0.00000E+00
 -1      1109 0.00000E+00 3.08750E+01 0.00000E+00
 -1      1110 0.00000E+00 2.79250E+01 0.00000E+00
 -1      1111 0.00000E+00 2.49750E+01 0.00000E+00
 -1      1112 0.00000E+00 2.20250E+01 0.00000E+00
 -1      1113 0.00000E+00 1.90750E+01 0.00000E+00
 -1      1114 0.00000E+00 1.61500E+01 0.00000E+00
 -1      1115 0.00000E+00 1.32250E+01 0.00000E+00
 -1      1116 0.00000E+00 1.02750E+01 0.00000E+00
 -1      1117 0.00000E+00 7.32500E+00 0.00000E+00
 -1      1118 0.00000E+00 4.37500E+00 0.00000E+00
 -1      1119 0.00000E+00 1.45000E+00 0.00000E+00
 -1      1120 1.57500E+00 5.00000E+01 0.00000E+00
 -1      1121 4.65000E+00 5.00000E+01 0.00000E+00
 -1      1122 7.65000E+00 5.00000E+01 0.00000E+00
 -1      1123 1.06500E+01 5.00000E+01 0.00000E+00
 -1      1124 1.36500E+01 5.00000E+01 0.00000E+00
 -1      1125 1.66500E+01 5.00000E+01 0.00000E+00
 -1      1126 1.96500E+01 5.00000E+01 0.00000E+00
 -1      1127 2.26500E+01 5.00000E+01 0.00000E+00
 -1      1128 2.56500E+01 5.00000E+01 0.00000E+00
 -1      1129 2.86500E+01 5.00000E+01 0.00000E+00
 -1      1130 3.16500E+01 5.00000E+01 0.00000E+00
 -1      1131 3.46500E+01 5.00000E+01 0.00000E+00
 -1      1132 3.76500E+01 5.00000E+01 0.00000E+00
 -1      1133 4.06500E+01 5.00000E+01 0.00000E+00
 -1      1134 4.36500E+01 5.00000E+01 0.00000E+00
 -1      1135 4.66500E+01 5.00000E+01 0.00000E+00
 -1      1136 4.96500E+01 5.00000E+01 0.00000E+00
 -1      1137 5.26500E+01 5.00000E+01 0.00000E+00
 -1      1138 5.56500E+01 5.00000E+01 0.00000E+00
 -1      1139 5.86500E+01 5.00000E+01 0.00000E+00
 -1      1140 6.16500E+01 5.00000E+01 0.00000E+00
 -1      1141 6.46500E+01 5.00000E+01 0.00000E+00
 -1      1142 6.76500E+01 5.00000E+01 0.00000E+00
 -1      1143 7.06500E+01 5.00000E+01 0.00000E+00
 -1      1144 7.36500E+01 5.00000E+01 0.00000E+00
 -1      1145 7.66500E+01 5.00000E+01 0.00000E+00
 -1      1146 7.96500E+01 5.00000E+01 0.00000E+00
 -1      1147 8.26500E+01 5.00000E+01 0.00000E+00
 -1      1148 8.56500E+01 5.00000E+01 0.00000E+00
 -1      1149 8.86500E+01 5.00000E+01 0.00000E+00
 -1      1150 9.16500E+01 5.00000E+01 0.00000E+00
 -1      1151 9.46500E+01 5.00000E+01 0.00000E+00
 -1      1152 9.76500E+01 5.00000E+01 0.00000E+00
 -1      1153 1.00650E+02 5.00000E+01 0.00000E+00
 -1      1154 1.03650E+02 5.00000E+01 0.00000E+00
 -1      1155 1.06650E+02 5.00000E+01 0.00000E+00
 -1      1156 1.09650E+02 5.00000E+01 0.00000E+00
 -1      1157 1.12650E+02 5.00000E+01 0.00000E+00
 -1      1158 1.15650E+02 5.00000E+01 0.00000E+00
 -1      1159 1.18650E+02 5.00000E+01 0.00000E+00
 -1      1160 1.21650E+02 5.00000E+01 0.00000E+00
 -1      1161 1.24650E+02 5.00000E+01 0.00000E+00
 -1      1162 1.27650E+02 5.00000E+01 0.00000E+00
 -1      1163 1.30650E+02 5.00000E+01 0.00000E+00
 -1      1164 1.33650E+02 5.00000E+01 0.00000E+00
 -1      1165 1.36650E+02 5.00000E+01 0.00000E+00
 -1      1166 1.39650E+02 5.00000E+01 0.00000E+00
 -1      1167 1.42650E+02 5.00000E+01 0.00000E+00
 -1      1168 1.45650E+02 5.00000E+01 0.00000E+00
 -1      1169 1.48575E+02 5.00000E+01 0.00000E+00
 -1      1170 1.57500E+00 0.00000E+00 0.00000E+00
 -1      1171 4.65000E+00 0.00000E+00 0.00000E+00
 -1      1172 7.65000E+00 0.00000E+00 0.00000E+00
 -1      1173 1.06500E+01 0.00000E+00 0.00000E+00
 -1      1174 1.36500E+01 0.00000E+00 0.00000E+00
 -1      1175 1.66500E+01 0.00000E+00 0.00000E+00
 -1      1176 1.96500E+01 0.00000E+00 0.00000E+00
 -1      1177 2.26500E+01 0.00000E+00 0.00000E+00
 -1      1178 2.56500E+01 0.00000E+00 0.00000E+00
 -1      1179 2.86500E+01 0.00000E+00 0.00000E+00
 -1      1180 3.16500E+01 0.00000E+00 0.00000E+00
 -1      1181 3.46500E+01 0.00000E+00 0.00000E+00
 -1      1182 3.76500E+01 0.00000E+00 0.00000E+00
 -1      1183 4.06500E+01 0.00000E+00 0.00000E+00
 -1      1184 4.36500E+01 0.00000E+00 0.00000E+00
 -1      1185 4.66500E+01 0.00000E+00 0.00000E+00
 -1      1186 4.96500E+01 0.00000E+00 0.00000E+00
 -1      1187 5.26500E+01 0.00000E+00 0.00000E+00
 -1      1188 5.56500E+01 0.00000E+00 0.00000E+00
 -1      1189 5.86500E+01 0.00000E+00 0.00000E+00
 -1      1190 6.16500E+01 0.00000E+00 0.00000E+00
 -1      1191 6.46500E+01 0.00000E+00 0.00000E+00
 -1      1192 6.76500E+01 0.00000E+00 0.00000E+00
 -1      1193 7.06500E+01 0.00000E+00 0.00000E+00
 -1      1194 7.36500E+01 0.00000E+00 0.00000E+00
 -1      1195 7.66500E+01 0.00000E+00 0.00000E+00
 -1      1196 7.96500E+01 0.00000E+00 0.00000E+00
 -1      1197 8.26500E+01 0.00000E+00 0.00000E+00
 -1      1198 8.56500E+01 0.00000E+00 0.00000E+00
 -1      1199 8.86500E+01 0.00000E+00 0.00000E+00
 -1      1200 9.16500E+01 0.00000E+00 0.00000E+00
 -1      1201 9.46500E+01 0.00000E+00 0.00000E+00
 -1      1202 9.76500E+01 0.00000E+00 0.00000E+00
 -1      1203 1.00650E+02 0.00000E+00 0.00000E+00
 -1      1204 1.03650E+02 0.00000E+00 0.00000E+00
 -1      1205 1.06650E+02 0.00000E+00 0.00000E+00
 -1      1206 1.09650E+02 0.00000E+00 0.00000E+00
 -1      1207 1.12650E+02 0.00000E+00 0.00000E+00
 -1      1208 1.15650E+02 0.00000E+00 0.00000E+00
 -1      1209 1.18650E+02 0.00000E+00 0.00000E+00
 -1      1210 1.21650E+02 0.00000E+00 0.00000E+00
 -1      1211 1.24650E+02 0.00000E+00 0.00000E+00
 -1      1212 1.27650E+02 0.00000E+00 0.00000E+00
 -1      1213 1.30650E+02 0.00000E+00 0.00000E+00
 -1      1214 1.33650E+02 0.00000E+00 0.00000E+00
 -1      1215 1.36650E+02 0.00000E+00 0.00000E+00
 -1      1216 1.39650E+02 0.00000E+00 0.00000E+00
 -1      1217 1.42650E+02 0.00000E+00 0.00000E+00
 -1      1218 1.45650E+02 0.00000E+00 0.00000E+00
 -1      1219 1.48575E+02 0.00000E+00 0.00000E+00
 -1      1220 1.50000E+02 1.55000E+00 0.00000E+00
 -1      1221 1.50000E+02 4.62500E+00 0.00000E+00
 -1      1222 1.50000E+02 7.67500E+00 0.00000E+00
 -1      1223 1.50000E+02 1.07250E+01 0.00000E+00
 -1      1224 1.50000E+02 1.35500E+01 0.00000E+00
 -1      1225 1.50000E+02 1.60250E+01 0.00000E+00
 -1      1226 1.50000E+02 1.82500E+01 0.00000E+00
 -1      1227 1.50000E+02 2.04250E+01 0.00000E+00
 -1      1228 1.50000E+02 2.25750E+01 0.00000E+00
 -1      1229 1.50000E+02 2.45250E+01 0.00000E+00
 -1      1230 1.50000E+02 2.65250E+01 0.00000E+00
 -1      1231 1.50000E+02 2.86000E+01 0.00000E+00
 -1      1232 1.50000E+02 3.07500E+01 0.00000E+00
 -1      1233 1.50000E+02 3.33750E+01 0.00000E+00
 -1      1234 1.50000E+02 3.63250E+01 0.00000E+00
 -1      1235 1.50000E+02 3.93250E+01 0.00000E+00
 -1      1236 1.50000E+02 4.23750E+01 0.00000E+00
 -1      1237 1.50000E+02 4.54250E+01 0.00000E+00
 -1      1238 1.50000E+02 4.84750E+01 0.00000E+00
 -1      1239 1.46392E+02 2.34054E+01 0.00000E+00
 -1      1240 1.46070E+02 2.19423E+01 0.00000E+00
 -1      1241 1.45465E+02 2.06149E+01 0.00000E+00
 -1      1242 1.44609E+02 1.94550E+01 0.00000E+00
 -1      1243 1.43509E+02 1.84766E+01 0.00000E+00
 -1      1244 1.42213E+02 1.77429E+01 0.00000E+00
 -1      1245 1.40807E+02 1.73034E+01 0.00000E+00
 -1      1246 1.39306E+02 1.71685E+01 0.00000E+00
 -1      1247 1.37833E+02 1.73525E+01 0.00000E+00
 -1      1248 1.36407E+02 1.78554E+01 0.00000E+00
 -1      1249 1.35111E+02 1.86606E+01 0.00000E+00
 -1      1250 1.34040E+02 1.97052E+01 0.00000E+00
 -1      1251 1.33227E+02 2.09303E+01 0.00000E+00
 -1      1252 1.32694E+02 2.22732E+01 0.00000E+00
 -1      1253 1.32449E+02 2.37019E+01 0.00000E+00
 -1      1254 1.32505E+02 2.51689E+01 0.00000E+00
 -1      1255 1.32869E+02 2.65980E+01 0.00000E+00
 -1      1256 1.33504E+02 2.78891E+01 0.00000E+00
 -1      1257 1.34436E+02 2.90693E+01 0.00000E+00
 -1      1258 1.35615E+02 3.00346E+01 0.00000E+00
 -1      1259 1.36913E+02 3.06978E+01 0.00000E+00
 -1      1260 1.38332E+02 3.10802E+01 0.00000E+00
 -1      1261 1.39787E+02 3.11584E+01 0.00000E+00
 -1      1262 1.41187E+02 3.09441E+01 0.00000E+00
 -1      1263 1.42525E+02 3.04473E+01 0.00000E+00
 -1      1264 1.43704E+02 2.97131E+01 0.00000E+00
 -1      1265 1.44715E+02 2.87610E+01 0.00000E+00
 -1      1266 1.45547E+02 2.75754E+01 0.00000E+00
 -1      1267 1.46118E+02 2.62445E+01 0.00000E+00
 -1      1268 1.46398E+02 2.48678E+01 0.00000E+00
 -1      1269 1.57500E+00 4.85250E+01 0.00000E+00
 -1      1270 1.29900E+00 4.48375E+01 0.00000E+00
 -1      1271 1.29900E+00 4.63125E+01 0.00000E+00
 -1      1272 1.29900E+00 4.18875E+01 0.00000E+00
 -1      1273 1.29900E+00 4.33625E+01 0.00000E+00
 -1      1274 2.59800E+00 4.41000E+01 0.00000E+00
 -1      1275 1.29900E+00 3.89375E+01 0.00000E+00
 -1      1276 1.29900E+00 4.04125E+01 0.00000E+00
 -1      1277 2.59800E+00 4.11500E+01 0.00000E+00
 -1      1278 1.29900E+00 3.59875E+01 0.00000E+00
 -1      1279 1.29900E+00 3.74625E+01 0.00000E+00
 -1      1280 2.59800E+00 3.82000E+01 0.00000E+00
 -1      1281 1.29900E+00 3.30875E+01 0.00000E+00
 -1      1282 1.29900E+00 3.45375E+01 0.00000E+00
 -1      1283 2.59800E+00 3.52750E+01 0.00000E+00
 -1      1284 1.29900E+00 3.01375E+01 0.00000E+00
 -1      1285 1.29900E+00 3.16125E+01 0.00000E+00
 -1      1286 2.59800E+00 3.23500E+01 0.00000E+00
 -1      1287 1.29900E+00 2.71875E+01 0.00000E+00
 -1      1288 1.29900E+00 2.86625E+01 0.00000E+00
 -1      1289 2.59800E+00 2.94000E+01 0.00000E+00
 -1      1290 1.29900E+00 2.42375E+01 0.00000E+00
 -1      1291 1.29900E+00 2.57125E+01 0.00000E+00
 -1      1292 2.59800E+00 2.64500E+01 0.00000E+00
 -1      1293 1.29900E+00 2.12875E+01 0.00000E+00
 -1      1294 1.29900E+00 2.27625E+01 0.00000E+00
 -1      1295 2.59800E+00 2.35000E+01 0.00000E+00
 -1      1296 1.29900E+00 1.83375E+01 0.00000E+00
 -1      1297 1.29900E+00 1.98125E+01 0.00000E+00
 -1      1298 2.59800E+00 2.05500E+01 0.00000E+00
 -1      1299 1.29900E+00 1.54375E+01 0.00000E+00
 -1      1300 1.29900E+00 1.68875E+01 0.00000E+00
 -1      1301 2.59800E+00 1.76250E+01 0.00000E+00
 -1      1302 1.29900E+00 1.24875E+01 0.00000E+00
 -1      1303 1.29900E+00 1.39625E+01 0.00000E+00
 -1      1304 2.59800E+00 1.47000E+01 0.00000E+00
 -1      1305 1.29900E+00 9.53750E+00 0.00000E+00
 -1      1306 1.29900E+00 1.10125E+01 0.00000E+00
 -1      1307 2.59800E+00 1.17500E+01 0.00000E+00
 -1      1308 1.29900E+00 6.58750E+00 0.00000E+00
 -1      1309 1.29900E+00 8.06250E+00 0.00000E+00
 -1      1310 2.59800E+00 8.80000E+00 0.00000E+00
 -1      1311 1.29900E+00 3.63750E+00 0.00000E+00
 -1      1312 1.29900E+00 5.11250E+00 0.00000E+00
 -1      1313 2.59800E+00 5.85000E+00 0.00000E+00
 -1      1314 1.43700E+00 1.09375E+00 0.00000E+00
 -1      1315 1.43700E+00 2.54375E+00 0.00000E+00
 -1      1316 2.73600E+00 3.28125E+00 0.00000E+00
 -1      1317 3.01200E+00 1.09375E+00 0.00000E+00
 -1      1318 3.90000E+00 4.87010E+01 0.00000E+00
 -1      1319 5.40000E+00 4.87010E+01 0.00000E+00
 -1      1320 6.90000E+00 4.87010E+01 0.00000E+00
 -1      1321 8.40000E+00 4.87010E+01 0.00000E+00
 -1      1322 6.15000E+00 4.74020E+01 0.00000E+00
 -1      1323 9.90000E+00 4.87010E+01 0.00000E+00
 -1      1324 1.14000E+01 4.87010E+01 0.00000E+00
 -1      1325 9.15000E+00 4.74020E+01 0.00000E+00
 -1      1326 1.29000E+01 4.87010E+01 0.00000E+00
 -1      1327 1.44000E+01 4.87010E+01 0.00000E+00
 -1      1328 1.21500E+01 4.74020E+01 0.00000E+00
 -1      1329 1.59000E+01 4.87010E+01 0.00000E+00
 -1      1330 1.74000E+01 4.87010E+01 0.00000E+00
 -1      1331 1.51500E+01 4.74020E+01 0.00000E+00
 -1      1332 1.89000E+01 4.87010E+01 0.00000E+00
 -1      1333 2.04000E+01 4.87010E+01 0.00000E+00
 -1      1334 1.81500E+01 4.74020E+01 0.00000E+00
 -1      1335 2.19000E+01 4.87010E+01 0.00000E+00
 -1      1336 2.34000E+01 4.87010E+01 0.00000E+00
 -1      1337 2.11500E+01 4.74020E+01 0.00000E+00
 -1      1338 2.49000E+01 4.87010E+01 0.00000E+00
 -1      1339 2.64000E+01 4.87010E+01 0.00000E+00
 -1      1340 2.41500E+01 4.74020E+01 0.00000E+00
 -1      1341 2.79000E+01 4.87010E+01 0.00000E+00
 -1      1342 2.94000E+01 4.87010E+01 0.00000E+00
 -1      1343 2.71500E+01 4.74020E+01 0.00000E+00
 -1      1344 3.09000E+01 4.87010E+01 0.00000E+00
 -1      1345 3.24000E+01 4.87010E+01 0.00000E+00
 -1      1346 3.01500E+01 4.74020E+01 0.00000E+00
 -1      1347 3.39000E+01 4.87010E+01 0.00000E+00
 -1      1348 3.54000E+01 4.87010E+01 0.00000E+00
 -1      1349 3.31500E+01 4.74020E+01 0.00000E+00
 -1      1350 3.69000E+01 4.87010E+01 0.00000E+00
 -1      1351 3.84000E+01 4.87010E+01 0.00000E+00
 -1      1352 3.61500E+01 4.74020E+01 0.00000E+00
 -1      1353 3.99000E+01 4.87010E+01 0.00000E+00
 -1      1354 4.14000E+01 4.87010E+01 0.00000E+00
 -1      1355 3.91500E+01 4.74020E+01 0.00000E+00
 -1      1356 4.29000E+01 4.87010E+01 0.00000E+00
 -1      1357 4.44000E+01 4.87010E+01 0.00000E+00
 -1      1358 4.21500E+01 4.74020E+01 0.00000E+00
 -1      1359 4.59000E+01 4.87010E+01 0.00000E+00
 -1      1360 4.74000E+01 4.87010E+01 0.00000E+00
 -1      1361 4.51500E+01 4.74020E+01 0.00000E+00
 -1      1362 4.89000E+01 4.87010E+01 0.00000E+00
 -1      1363 5.04000E+01 4.87010E+01 0.00000E+00
 -1      1364 4.81500E+01 4.74020E+01 0.00000E+00
 -1      1365 5.19000E+01 4.87010E+01 0.00000E+00
 -1      1366 5.34000E+01 4.87010E+01 0.00000E+00
 -1      1367 5.11500E+01 4.74020E+01 0.00000E+00
 -1      1368 5.49000E+01 4.87010E+01 0.00000E+00
 -1      1369 5.64000E+01 4.87010E+01 0.00000E+00
 -1      1370 5.41500E+01 4.74020E+01 0.00000E+00
 -1      1371 5.79000E+01 4.87010E+01 0.00000E+00
 -1      1372 5.94000E+01 4.87010E+01 0.00000E+00
 -1      1373 5.71500E+01 4.74020E+01 0.00000E+00
 -1      1374 6.09000E+01 4.87010E+01 0.00000E+00
 -1      1375 6.24000E+01 4.87010E+01 0.00000E+00
 -1      1376 6.01500E+01 4.74020E+01 0.00000E+00
 -1      1377 6.39000E+01 4.87010E+01 0.00000E+00
 -1      1378 6.54000E+01 4.87010E+01 0.00000E+00
 -1      1379 6.31500E+01 4.74020E+01 0.00000E+00
 -1      1380 6.69000E+01 4.87010E+01 0.00000E+00
 -1      1381 6.84000E+01 4.87010E+01 0.00000E+00
 -1      1382 6.61500E+01 4.74020E+01 0.00000E+00
 -1      1383 6.99000E+01 4.87010E+01 0.00000E+00
 -1      1384 7.14000E+01 4.87010E+01 0.00000E+00
 -1      1385 6.91500E+01 4.74020E+01 0.00000E+00
 -1      1386 7.29000E+01 4.87010E+01 0.00000E+00
 -1      1387 7.44000E+01 4.87010E+01 0.00000E+00
 -1      1388 7.21500E+01 4.74020E+01 0.00000E+00
 -1      1389 7.59000E+01 4.87010E+01 0.00000E+00
 -1      1390 7.74000E+01 4.87010E+01 0.00000E+00
 -1      1391 7.51500E+01 4.74020E+01 0.00000E+00
 -1      1392 7.89000E+01 4.87010E+01 0.00000E+00
 -1      1393 8.04000E+01 4.87010E+01 0.00000E+00
 -1      1394 7.81500E+01 4.74020E+01 0.00000E+00
 -1      1395 8.19000E+01 4.87010E+01 0.00000E+00
 -1      1396 8.34000E+01 4.87010E+01 0.00000E+00
 -1      1397 8.11500E+01 4.74020E+01 0.00000E+00
 -1      1398 8.49000E+01 4.87010E+01 0.00000E+00
 -1      1399 8.64000E+01 4.87010E+01 0.00000E+00
 -1      1400 8.41500E+01 4.74020E+01 0.00000E+00
 -1      1401 8.79000E+01 4.87010E+01 0.00000E+00
 -1      1402 8.94000E+01 4.87010E+01 0.00000E+00
 -1      1403 8.71500E+01 4.74020E+01 0.00000E+00
 -1      1404 9.09000E+01 4.87010E+01 0.00000E+00
 -1      1405 9.24000E+01 4.87010E+01 0.00000E+00
 -1      1406 9.01500E+01 4.74020E+01 0.00000E+00
 -1      1407 9.39000E+01 4.87010E+01 0.00000E+00
 -1      1408 9.54000E+01 4.87010E+01 0.00000E+00
 -1      1409 9.31500E+01 4.74020E+01 0.00000E+00
 -1      1410 9.69000E+01 4.87010E+01 0.00000E+00
 -1      1411 9.84000E+01 4.87010E+01 0.00000E+00
 -1      1412 9.61500E+01 4.74020E+01 0.00000E+00
 -1      1413 9.99000E+01 4.87010E+01 0.00000E+00
 -1      1414 1.01400E+02 4.87010E+01 0.00000E+00
 -1      1415 9.91500E+01 4.74020E+01 0.00000E+00
 -1      1416 1.02900E+02 4.87010E+01 0.00000E+00
 -1      1417 1.04400E+02 4.87010E+01 0.00000E+00
 -1      1418 1.02150E+02 4.74020E+01 0.00000E+00
 -1      1419 1.05900E+02 4.87010E+01 0.00000E+00
 -1      1420 1.07400E+02 4.87010E+01 0.00000E+00
 -1      1421 1.05150E+02 4.74020E+01 0.00000E+00
 -1      1422 1.08900E+02 4.87010E+01 0.00000E+00
 -1      1423 1.10400E+02 4.87010E+01 0.00000E+00
 -1      1424 1.08150E+02 4.74020E+01 0.00000E+00
 -1      1425 1.11900E+02 4.87010E+01 0.00000E+00
 -1      1426 1.13400E+02 4.87010E+01 0.00000E+00
 -1      1427 1.11150E+02 4.74020E+01 0.00000E+00
 -1      1428 1.14900E+02 4.87010E+01 0.00000E+00
 -1      1429 1.16400E+02 4.87010E+01 0.00000E+00
 -1      1430 1.14150E+02 4.74020E+01 0.00000E+00
 -1      1431 1.17900E+02 4.87010E+01 0.00000E+00
 -1      1432 1.19400E+02 4.87010E+01 0.00000E+00
 -1      1433 1.17150E+02 4.74020E+01 0.00000E+00
 -1      1434 1.20900E+02 4.87010E+01 0.00000E+00
 -1      1435 1.22400E+02 4.87010E+01 0.00000E+00
 -1      1436 1.20150E+02 4.74020E+01 0.00000E+00
 -1      1437 1.23900E+02 4.87010E+01 0.00000E+00
 -1      1438 1.25400E+02 4.87010E+01 0.00000E+00
 -1      1439 1.23150E+02 4.74020E+01 0.00000E+00
 -1      1440 1.26900E+02 4.87010E+01 0.00000E+00
 -1      1441 1.28400E+02 4.87010E+01 0.00000E+00
 -1      1442 1.26150E+02 4.74020E+01 0.00000E+00
 -1      1443 1.29900E+02 4.87010E+01 0.00000E+00
 -1      1444 1.31400E+02 4.87010E+01 0.00000E+00
 -1      1445 1.29150E+02 4.74020E+01 0.00000E+00
 -1      1446 1.32900E+02 4.87010E+01 0.00000E+00
 -1      1447 1.34400E+02 4.87010E+01 0.00000E+00
 -1      1448 1.32150E+02 4.74020E+01 0.00000E+00
 -1      1449 1.35900E+02 4.87010E+01 0.00000E+00
 -1      1450 1.37400E+02 4.87010E+01 0.00000E+00
 -1      1451 1.35150E+02 4.74020E+01 0.00000E+00
 -1      1452 1.38900E+02 4.87010E+01 0.00000E+00
 -1      1453 1.40400E+02 4.87010E+01 0.00000E+00
 -1      1454 1.38150E+02 4.74020E+01 0.00000E+00
 -1      1455 1.41900E+02 4.87010E+01 0.00000E+00
 -1      1456 1.43400E+02 4.87010E+01 0.00000E+00
 -1      1457 1.41150E+02 4.74020E+01 0.00000E+00
 -1      1458 1.44900E+02 4.87010E+01 0.00000E+00
 -1      1459 1.46400E+02 4.87010E+01 0.00000E+00
 -1      1460 1.44150E+02 4.74020E+01 0.00000E+00
 -1      1461 1.48575E+02 4.84750E+01 0.00000E+00
 -1      1462 1.47825E+02 4.71760E+01 0.00000E+00
 -1      1463 6.01200E+00 1.09375E+00 0.00000E+00
 -1      1464 4.51200E+00 1.09375E+00 0.00000E+00
 -1      1465 4.37400E+00 2.18750E+00 0.00000E+00
 -1      1466 9.01200E+00 1.09375E+00 0.00000E+00
 -1      1467 7.51200E+00 1.09375E+00 0.00000E+00
 -1      1468 7.37400E+00 2.18750E+00 0.00000E+00
 -1      1469 1.20120E+01 1.09375E+00 0.00000E+00
 -1      1470 1.05120E+01 1.09375E+00 0.00000E+00
 -1      1471 1.03740E+01 2.18750E+00 0.00000E+00
 -1      1472 1.50120E+01 1.09375E+00 0.00000E+00
 -1      1473 1.35120E+01 1.09375E+00 0.00000E+00
 -1      1474 1.33740E+01 2.18750E+00 0.00000E+00
 -1      1475 1.80120E+01 1.09375E+00 0.00000E+00
 -1      1476 1.65120E+01 1.09375E+00 0.00000E+00
 -1      1477 1.63740E+01 2.18750E+00 0.00000E+00
 -1      1478 2.10120E+01 1.09375E+00 0.00000E+00
 -1      1479 1.95120E+01 1.09375E+00 0.00000E+00
 -1      1480 1.93740E+01 2.18750E+00 0.00000E+00
 -1      1481 2.40120E+01 1.09375E+00 0.00000E+00
 -1      1482 2.25120E+01 1.09375E+00 0.00000E+00
 -1      1483 2.23740E+01 2.18750E+00 0.00000E+00
 -1      1484 2.70120E+01 1.09375E+00 0.00000E+00
 -1      1485 2.55120E+01 1.09375E+00 0.00000E+00
 -1      1486 2.53740E+01 2.18750E+00 0.00000E+00
 -1      1487 3.00120E+01 1.09375E+00 0.00000E+00
 -1      1488 2.85120E+01 1.09375E+00 0.00000E+00
 -1      1489 2.83740E+01 2.18750E+00 0.00000E+00
 -1      1490 3.30120E+01 1.09375E+00 0.00000E+00
 -1      1491 3.15120E+01 1.09375E+00 0.00000E+00
 -1      1492 3.13740E+01 2.18750E+00 0.00000E+00
 -1      1493 3.60120E+01 1.09375E+00 0.00000E+00
 -1      1494 3.45120E+01 1.09375E+00 0.00000E+00
 -1      1495 3.43740E+01 2.18750E+00 0.00000E+00
 -1      1496 3.90120E+01 1.09375E+00 0.00000E+00
 -1      1497 3.75120E+01 1.09375E+00 0.00000E+00
 -1      1498 3.73740E+01 2.18750E+00 0.00000E+00
 -1      1499 4.20120E+01 1.09375E+00 0.00000E+00
 -1      1500 4.05120E+01 1.09375E+00 0.00000E+00
 -1      1501 4.03740E+01 2.18750E+00 0.00000E+00
 -1      1502 4.50120E+01 1.09375E+00 0.00000E+00
 -1      1503 4.35120E+01 1.09375E+00 0.00000E+00
 -1      1504 4.33740E+01 2.18750E+00 0.00000E+00
 -1      1505 4.80120E+01 1.09375E+00 0.00000E+00
 -1      1506 4.65120E+01 1.09375E+00 0.00000E+00
 -1      1507 4.63740E+01 2.18750E+00 0.00000E+00
 -1      1508 5.10120E+01 1.09375E+00 0.00000E+00
 -1      1509 4.95120E+01 1.09375E+00 0.00000E+00
 -1      1510 4.93740E+01 2.18750E+00 0.00000E+00
 -1      1511 5.40120E+01 1.09375E+00 0.00000E+00
 -1      1512 5.25120E+01 1.09375E+00 0.00000E+00
 -1      1513 5.23740E+01 2.18750E+00 0.00000E+00
 -1      1514 5.70120E+01 1.09375E+00 0.00000E+00
 -1      1515 5.55120E+01 1.09375E+00 0.00000E+00
 -1      1516 5.53740E+01 2.18750E+00 0.00000E+00
 -1      1517 6.00120E+01 1.09375E+00 0.00000E+00
 -1      1518 5.85120E+01 1.09375E+00 0.00000E+00
 -1      1519 5.83740E+01 2.18750E+00 0.00000E+00
 -1      1520 6.30120E+01 1.09375E+00 0.00000E+00
 -1      1521 6.15120E+01 1.09375E+00 0.00000E+00
 -1      1522 6.13740E+01 2.18750E+00 0.00000E+00
 -1      1523 6.60120E+01 1.09375E+00 0.00000E+00
 -1      1524 6.45120E+01 1.09375E+00 0.00000E+00
 -1      1525 6.43740E+01 2.18750E+00 0.00000E+00
 -1      1526 6.90120E+01 1.09375E+00 0.00000E+00
 -1      1527 6.75120E+01 1.09375E+00 0.00000E+00
 -1      1528 6.73740E+01 2.18750E+00 0.00000E+00
 -1      1529 7.20120E+01 1.09375E+00 0.00000E+00
 -1      1530 7.05120E+01 1.09375E+00 0.00000E+00
 -1      1531 7.03740E+01 2.18750E+00 0.00000E+00
 -1      1532 7.50120E+01 1.09375E+00 0.00000E+00
 -1      1533 7.35120E+01 1.09375E+00 0.00000E+00
 -1      1534 7.33740E+01 2.18750E+00 0.00000E+00
 -1      1535 7.80120E+01 1.09375E+00 0.00000E+00
 -1      1536 7.65120E+01 1.09375E+00 0.00000E+00
 -1      1537 7.63740E+01 2.18750E+00 0.00000E+00
 -1      1538 8.10120E+01 1.09375E+00 0.00000E+00
 -1      1539 7.95120E+01 1.09375E+00 0.00000E+00
 -1      1540 7.93740E+01 2.18750E+00 0.00000E+00
 -1      1541 8.40120E+01 1.09375E+00 0.00000E+00
 -1      1542 8.25120E+01 1.09375E+00 0.00000E+00
 -1      1543 8.23740E+01 2.18750E+00 0.00000E+00
 -1      1544 8.70120E+01 1.09375E+00 0.00000E+00
 -1      1545 8.55120E+01 1.09375E+00 0.00000E+00
 -1      1546 8.53740E+01 2.18750E+00 0.00000E+00
 -1      1547 9.00120E+01 1.09375E+00 0.00000E+00
 -1      1548 8.85120E+01 1.09375E+00 0.00000E+00
 -1      1549 8.83740E+01 2.18750E+00 0.00000E+00
 -1      1550 9.30120E+01 1.09375E+00 0.00000E+00
 -1      1551 9.15120E+01 1.09375E+00 0.00000E+00
 -1      1552 9.13740E+01 2.18750E+00 0.00000E+00
 -1      1553 9.60120E+01 1.09375E+00 0.00000E+00
 -1      1554 9.45120E+01 1.09375E+00 0.00000E+00
 -1      1555 9.43740E+01 2.18750E+00 0.00000E+00
 -1      1556 9.90120E+01 1.09375E+00 0.00000E+00
 -1      1557 9.75120E+01 1.09375E+00 0.00000E+00
 -1      1558 9.73740E+01 2.18750E+00 0.00000E+00
 -1      1559 1.02012E+02 1.09375E+00 0.00000E+00
 -1      1560 1.00512E+02 1.09375E+00 0.00000E+00
 -1      1561 1.00374E+02 2.18750E+00 0.00000E+00
 -1      1562 1.05012E+02 1.09375E+00 0.00000E+00
 -1      1563 1.03512E+02 1.09375E+00 0.00000E+00
 -1      1564 1.03374E+02 2.18750E+00 0.00000E+00
 -1      1565 1.08012E+02 1.09375E+00 0.00000E+00
 -1      1566 1.06512E+02 1.09375E+00 0.00000E+00
 -1      1567 1.06374E+02 2.18750E+00 0.00000E+00
 -1      1568 1.11012E+02 1.09375E+00 0.00000E+00
 -1      1569 1.09512E+02 1.09375E+00 0.00000E+00
 -1      1570 1.09374E+02 2.18750E+00 0.00000E+00
 -1      1571 1.14012E+02 1.09375E+00 0.00000E+00
 -1      1572 1.12512E+02 1.09375E+00 0.00000E+00
 -1      1573 1.12374E+02 2.18750E+00 0.00000E+00
 -1      1574 1.17012E+02 1.09375E+00 0.00000E+00
 -1      1575 1.15512E+02 1.09375E+00 0.00000E+00
 -1      1576 1.15374E+02 2.18750E+00 0.00000E+00
 -1      1577 1.20012E+02 1.09375E+00 0.00000E+00
 -1      1578 1.18512E+02 1.09375E+00 0.00000E+00
 -1      1579 1.18374E+02 2.18750E+00 0.00000E+00
 -1      1580 1.23012E+02 1.09375E+00 0.00000E+00
 -1      1581 1.21512E+02 1.09375E+00 0.00000E+00
 -1      1582 1.21374E+02 2.18750E+00 0.00000E+00
 -1      1583 1.26012E+02 1.09375E+00 0.00000E+00
 -1      1584 1.24512E+02 1.09375E+00 0.00000E+00
 -1      1585 1.24374E+02 2.18750E+00 0.00000E+00
 -1      1586 1.29012E+02 1.09375E+00 0.00000E+00
 -1      1587 1.27512E+02 1.09375E+00 0.00000E+00
 -1      1588 1.27374E+02 2.18750E+00 0.00000E+00
 -1      1589 1.32012E+02 1.09375E+00 0.00000E+00
 -1      1590 1.30512E+02 1.09375E+00 0.00000E+00
 -1      1591 1.30374E+02 2.18750E+00 0.00000E+00
 -1      1592 1.35012E+02 1.09375E+00 0.00000E+00
 -1      1593 1.33512E+02 1.09375E+00 0.00000E+00
 -1      1594 1.33374E+02 2.18750E+00 0.00000E+00
 -1      1595 1.38012E+02 1.09375E+00 0.00000E+00
 -1      1596 1.36512E+02 1.09375E+00 0.00000E+00
 -1      1597 1.36374E+02 2.18750E+00 0.00000E+00
 -1      1598 1.41012E+02 1.09375E+00 0.00000E+00
 -1      1599 1.39512E+02 1.09375E+00 0.00000E+00
 -1      1600 1.39374E+02 2.18750E+00 0.00000E+00
 -1      1601 1.44012E+02 1.09375E+00 0.00000E+00
 -1      1602 1.42512E+02 1.09375E+00 0.00000E+00
 -1      1603 1.42374E+02 2.18750E+00 0.00000E+00
 -1      1604 1.47012E+02 1.09375E+00 0.00000E+00
 -1      1605 1.45512E+02 1.09375E+00 0.00000E+00
 -1      1606 1.45374E+02 2.18750E+00 0.00000E+00
 -1      1607 1.48575E+02 1.55000E+00 0.00000E+00
 -1      1608 1.48701E+02 5.38750E+00 0.00000E+00
 -1      1609 1.48701E+02 3.86250E+00 0.00000E+00
 -1      1610 1.48701E+02 8.43750E+00 0.00000E+00
 -1      1611 1.48701E+02 6.91250E+00 0.00000E+00
 -1      1612 1.47402E+02 6.15000E+00 0.00000E+00
 -1      1613 1.48701E+02 1.14875E+01 0.00000E+00
 -1      1614 1.48701E+02 9.96250E+00 0.00000E+00
 -1      1615 1.47402E+02 9.20000E+00 0.00000E+00
 -1      1616 1.48701E+02 1.40875E+01 0.00000E+00
 -1      1617 1.48701E+02 1.27875E+01 0.00000E+00
 -1      1618 1.47402E+02 1.20250E+01 0.00000E+00
 -1      1619 1.48701E+02 1.64375E+01 0.00000E+00
 -1      1620 1.48701E+02 1.52625E+01 0.00000E+00
 -1      1621 1.47402E+02 1.45000E+01 0.00000E+00
 -1      1622 1.48975E+02 2.09875E+01 0.00000E+00
 -1      1623 1.48975E+02 1.98625E+01 0.00000E+00
 -1      1624 1.49184E+02 2.49875E+01 0.00000E+00
 -1      1625 1.49184E+02 2.40625E+01 0.00000E+00
 -1      1626 1.49184E+02 2.71375E+01 0.00000E+00
 -1      1627 1.49184E+02 2.60625E+01 0.00000E+00
 -1      1628 1.48369E+02 2.56000E+01 0.00000E+00
 -1      1629 1.49184E+02 2.91375E+01 0.00000E+00
 -1      1630 1.49184E+02 2.81375E+01 0.00000E+00
 -1      1631 1.48369E+02 2.76750E+01 0.00000E+00
 -1      1632 1.49184E+02 3.14375E+01 0.00000E+00
 -1      1633 1.49184E+02 3.02875E+01 0.00000E+00
 -1      1634 1.48369E+02 2.98250E+01 0.00000E+00
 -1      1635 1.49184E+02 3.43875E+01 0.00000E+00
 -1      1636 1.49184E+02 3.29125E+01 0.00000E+00
 -1      1637 1.48369E+02 3.24500E+01 0.00000E+00
 -1      1638 1.49184E+02 3.73375E+01 0.00000E+00
 -1      1639 1.49184E+02 3.58625E+01 0.00000E+00
 -1      1640 1.48369E+02 3.54000E+01 0.00000E+00
 -1      1641 1.49184E+02 4.03875E+01 0.00000E+00
 -1      1642 1.49184E+02 3.88625E+01 0.00000E+00
 -1      1643 1.48369E+02 3.84000E+01 0.00000E+00
 -1      1644 1.49184E+02 4.34375E+01 0.00000E+00
 -1      1645 1.49184E+02 4.19125E+01 0.00000E+00
 -1      1646 1.48369E+02 4.14500E+01 0.00000E+00
 -1      1647 1.48505E+02 4.60692E+01 0.00000E+00
 -1      1648 1.48505E+02 4.45443E+01 0.00000E+00
 -1      1649 1.47689E+02 4.40817E+01 0.00000E+00
 -1      1650 1.46330E+02 4.62952E+01 0.00000E+00
 -1      1651 1.46953E+02 2.29607E+01 0.00000E+00
 -1      1652 1.47036E+02 2.37181E+01 0.00000E+00
 -1      1653 1.46491E+02 2.14130E+01 0.00000E+00
 -1      1654 1.46725E+02 2.21109E+01 0.00000E+00
 -1      1655 1.45808E+02 1.99936E+01 0.00000E+00
 -1      1656 1.46174E+02 2.06164E+01 0.00000E+00
 -1      1657 1.44789E+02 1.88062E+01 0.00000E+00
 -1      1658 1.45272E+02 1.93374E+01 0.00000E+00
 -1      1659 1.43581E+02 1.77293E+01 0.00000E+00
 -1      1660 1.44194E+02 1.81682E+01 0.00000E+00
 -1      1661 1.42117E+02 1.70376E+01 0.00000E+00
 -1      1662 1.42793E+02 1.73298E+01 0.00000E+00
 -1      1663 1.40557E+02 1.66749E+01 0.00000E+00
 -1      1664 1.41280E+02 1.68195E+01 0.00000E+00
 -1      1665 1.38910E+02 1.66119E+01 0.00000E+00
 -1      1666 1.39680E+02 1.65979E+01 0.00000E+00
 -1      1667 1.37346E+02 1.68386E+01 0.00000E+00
 -1      1668 1.38041E+02 1.66756E+01 0.00000E+00
 -1      1669 1.35732E+02 1.73717E+01 0.00000E+00
 -1      1670 1.36452E+02 1.70261E+01 0.00000E+00
 -1      1671 1.34475E+02 1.84375E+01 0.00000E+00
 -1      1672 1.35046E+02 1.79894E+01 0.00000E+00
 -1      1673 1.33295E+02 1.95896E+01 0.00000E+00
 -1      1674 1.33786E+02 1.89956E+01 0.00000E+00
 -1      1675 1.32558E+02 2.09762E+01 0.00000E+00
 -1      1676 1.32882E+02 2.03561E+01 0.00000E+00
 -1      1677 1.31967E+02 2.24560E+01 0.00000E+00
 -1      1678 1.32169E+02 2.17386E+01 0.00000E+00
 -1      1679 1.31856E+02 2.40154E+01 0.00000E+00
 -1      1680 1.31903E+02 2.33125E+01 0.00000E+00
 -1      1681 1.31918E+02 2.56395E+01 0.00000E+00
 -1      1682 1.31809E+02 2.48837E+01 0.00000E+00
 -1      1683 1.32458E+02 2.71293E+01 0.00000E+00
 -1      1684 1.32211E+02 2.64626E+01 0.00000E+00
 -1      1685 1.33181E+02 2.85218E+01 0.00000E+00
 -1      1686 1.32794E+02 2.79051E+01 0.00000E+00
 -1      1687 1.34186E+02 2.98578E+01 0.00000E+00
 -1      1688 1.33643E+02 2.93042E+01 0.00000E+00
 -1      1689 1.35598E+02 3.07483E+01 0.00000E+00
 -1      1690 1.34970E+02 3.03401E+01 0.00000E+00
 -1      1691 1.37038E+02 3.13573E+01 0.00000E+00
 -1      1692 1.36377E+02 3.11023E+01 0.00000E+00
 -1      1693 1.38606E+02 3.17804E+01 0.00000E+00
 -1      1694 1.37854E+02 3.16606E+01 0.00000E+00
 -1      1695 1.40162E+02 3.17117E+01 0.00000E+00
 -1      1696 1.39468E+02 3.17468E+01 0.00000E+00
 -1      1697 1.41721E+02 3.15666E+01 0.00000E+00
 -1      1698 1.41022E+02 3.17474E+01 0.00000E+00
 -1      1699 1.42987E+02 3.09431E+01 0.00000E+00
 -1      1700 1.42354E+02 3.12548E+01 0.00000E+00
 -1      1701 1.42198E+02 3.20943E+01 0.00000E+00
 -1      1702 1.44325E+02 2.99585E+01 0.00000E+00
 -1      1703 1.43783E+02 3.03754E+01 0.00000E+00
 -1      1704 1.45377E+02 2.88693E+01 0.00000E+00
 -1      1705 1.44914E+02 2.94015E+01 0.00000E+00
 -1      1706 1.46297E+02 2.75674E+01 0.00000E+00
 -1      1707 1.45935E+02 2.82167E+01 0.00000E+00
 -1      1708 1.46767E+02 2.60775E+01 0.00000E+00
 -1      1709 1.46558E+02 2.67503E+01 0.00000E+00
 -1      1710 1.46937E+02 2.45493E+01 0.00000E+00
 -1      1711 1.46867E+02 2.52463E+01 0.00000E+00
 -1      1712 1.47341E+02 2.57625E+01 0.00000E+00
 -1      1713 1.47539E+02 2.41001E+01 0.00000E+00
 -1      1714 1.48437E+02 2.64375E+00 0.00000E+00
 -1      1715 1.47138E+02 3.40625E+00 0.00000E+00
 -1      1716 1.47950E+02 1.93750E+01 0.00000E+00
 -1      1717 1.48975E+02 1.88125E+01 0.00000E+00
 -1      1718 1.48975E+02 1.77625E+01 0.00000E+00
 -1      1719 1.47676E+02 1.70000E+01 0.00000E+00
 -1      1720 1.49184E+02 2.30875E+01 0.00000E+00
 -1      1721 1.49184E+02 2.20625E+01 0.00000E+00
 -1      1722 1.47411E+02 2.24190E+01 0.00000E+00
 -1      1723 1.46866E+02 2.07727E+01 0.00000E+00
 -1      1724 1.48159E+02 2.15000E+01 0.00000E+00
 -1      1725 1.46014E+02 1.93199E+01 0.00000E+00
 -1      1726 1.44884E+02 1.80258E+01 0.00000E+00
 -1      1727 1.43501E+02 1.69883E+01 0.00000E+00
 -1      1728 1.41875E+02 1.63708E+01 0.00000E+00
 -1      1729 1.40161E+02 1.60758E+01 0.00000E+00
 -1      1730 1.38415E+02 1.60625E+01 0.00000E+00
 -1      1731 1.36651E+02 1.63137E+01 0.00000E+00
 -1      1732 1.35072E+02 1.71189E+01 0.00000E+00
 -1      1733 1.33698E+02 1.82947E+01 0.00000E+00
 -1      1734 1.32596E+02 1.96193E+01 0.00000E+00
 -1      1735 1.31793E+02 2.11482E+01 0.00000E+00
 -1      1736 1.31339E+02 2.27671E+01 0.00000E+00
 -1      1737 1.31228E+02 2.44920E+01 0.00000E+00
 -1      1738 1.31473E+02 2.61834E+01 0.00000E+00
 -1      1739 1.32102E+02 2.77822E+01 0.00000E+00
 -1      1740 1.32900E+02 2.93404E+01 0.00000E+00
 -1      1741 1.34146E+02 3.06051E+01 0.00000E+00
 -1      1742 1.35710E+02 3.14414E+01 0.00000E+00
 -1      1743 1.37305E+02 3.20986E+01 0.00000E+00
 -1      1744 1.38984E+02 3.23683E+01 0.00000E+00
 -1      1745 1.40706E+02 3.23704E+01 0.00000E+00
 -1      1746 1.45013E+02 3.00902E+01 0.00000E+00
 -1      1747 1.46161E+02 2.88806E+01 0.00000E+00
 -1      1748 1.46980E+02 2.74109E+01 0.00000E+00
 -1      1749 2.87400E+00 4.77875E+01 0.00000E+00
 -1      1750 1.43628E+02 3.12149E+01 0.00000E+00
 -1      1751 3.89700E+00 4.04125E+01 0.00000E+00
 -1      1752 3.89700E+00 4.18875E+01 0.00000E+00
 -1      1753 3.89700E+00 4.33625E+01 0.00000E+00
 -1      1754 3.89700E+00 4.48375E+01 0.00000E+00
 -1      1755 5.19600E+00 4.26250E+01 0.00000E+00
 -1      1756 3.89700E+00 3.45500E+01 0.00000E+00
 -1      1757 3.89700E+00 3.60000E+01 0.00000E+00
 -1      1758 3.89700E+00 3.16000E+01 0.00000E+00
 -1      1759 3.89700E+00 3.30750E+01 0.00000E+00
 -1      1760 5.19600E+00 3.38000E+01 0.00000E+00
 -1      1761 3.89700E+00 2.86500E+01 0.00000E+00
 -1      1762 3.89700E+00 3.01250E+01 0.00000E+00
 -1      1763 5.19600E+00 3.08500E+01 0.00000E+00
 -1      1764 3.89700E+00 2.57000E+01 0.00000E+00
 -1      1765 3.89700E+00 2.71750E+01 0.00000E+00
 -1      1766 5.19600E+00 2.79000E+01 0.00000E+00
 -1      1767 3.89700E+00 2.27500E+01 0.00000E+00
 -1      1768 3.89700E+00 2.42250E+01 0.00000E+00
 -1      1769 5.19600E+00 2.49500E+01 0.00000E+00
 -1      1770 3.89700E+00 1.98000E+01 0.00000E+00
 -1      1771 3.89700E+00 2.12750E+01 0.00000E+00
 -1      1772 5.19600E+00 2.20000E+01 0.00000E+00
 -1      1773 3.89700E+00 1.69000E+01 0.00000E+00
 -1      1774 3.89700E+00 1.83500E+01 0.00000E+00
 -1      1775 5.19600E+00 1.90750E+01 0.00000E+00
 -1      1776 3.89700E+00 1.39500E+01 0.00000E+00
 -1      1777 3.89700E+00 1.54250E+01 0.00000E+00
 -1      1778 5.19600E+00 1.61500E+01 0.00000E+00
 -1      1779 3.89700E+00 1.10000E+01 0.00000E+00
 -1      1780 3.89700E+00 1.24750E+01 0.00000E+00
 -1      1781 5.19600E+00 1.32000E+01 0.00000E+00
 -1      1782 3.89700E+00 8.05000E+00 0.00000E+00
 -1      1783 3.89700E+00 9.52500E+00 0.00000E+00
 -1      1784 5.19600E+00 1.02500E+01 0.00000E+00
 -1      1785 3.89700E+00 5.10000E+00 0.00000E+00
 -1      1786 3.89700E+00 6.57500E+00 0.00000E+00
 -1      1787 5.19600E+00 7.30000E+00 0.00000E+00
 -1      1788 4.20450E+00 3.09687E+00 0.00000E+00
 -1      1789 4.06650E+00 4.19063E+00 0.00000E+00
 -1      1790 5.36550E+00 4.91563E+00 0.00000E+00
 -1      1791 5.70450E+00 3.09687E+00 0.00000E+00
 -1      1792 3.62400E+00 4.64885E+01 0.00000E+00
 -1      1793 8.70450E+00 3.09687E+00 0.00000E+00
 -1      1794 7.20450E+00 3.09687E+00 0.00000E+00
 -1      1795 7.03500E+00 4.00625E+00 0.00000E+00
 -1      1796 1.44475E+02 3.15610E+01 0.00000E+00
 -1      1797 1.43679E+02 3.21287E+01 0.00000E+00
 -1      1798 4.92300E+00 4.57510E+01 0.00000E+00
 -1      1799 8.40000E+00 4.61030E+01 0.00000E+00
 -1      1800 9.90000E+00 4.61030E+01 0.00000E+00
 -1      1801 1.14000E+01 4.61030E+01 0.00000E+00
 -1      1802 1.29000E+01 4.61030E+01 0.00000E+00
 -1      1803 1.06500E+01 4.48040E+01 0.00000E+00
 -1      1804 1.44000E+01 4.61030E+01 0.00000E+00
 -1      1805 1.59000E+01 4.61030E+01 0.00000E+00
 -1      1806 1.36500E+01 4.48040E+01 0.00000E+00
 -1      1807 1.74000E+01 4.61030E+01 0.00000E+00
 -1      1808 1.89000E+01 4.61030E+01 0.00000E+00
 -1      1809 1.66500E+01 4.48040E+01 0.00000E+00
 -1      1810 2.04000E+01 4.61030E+01 0.00000E+00
 -1      1811 2.19000E+01 4.61030E+01 0.00000E+00
 -1      1812 1.96500E+01 4.48040E+01 0.00000E+00
 -1      1813 2.34000E+01 4.61030E+01 0.00000E+00
 -1      1814 2.49000E+01 4.61030E+01 0.00000E+00
 -1      1815 2.26500E+01 4.48040E+01 0.00000E+00
 -1      1816 2.64000E+01 4.61030E+01 0.00000E+00
 -1      1817 2.79000E+01 4.61030E+01 0.00000E+00
 -1      1818 2.56500E+01 4.48040E+01 0.00000E+00
 -1      1819 2.94000E+01 4.61030E+01 0.00000E+00
 -1      1820 3.09000E+01 4.61030E+01 0.00000E+00
 -1      1821 2.86500E+01 4.48040E+01 0.00000E+00
 -1      1822 3.24000E+01 4.61030E+01 0.00000E+00
 -1      1823 3.39000E+01 4.61030E+01 0.00000E+00
 -1      1824 3.16500E+01 4.48040E+01 0.00000E+00
 -1      1825 3.54000E+01 4.61030E+01 0.00000E+00
 -1      1826 3.69000E+01 4.61030E+01 0.00000E+00
 -1      1827 3.46500E+01 4.48040E+01 0.00000E+00
 -1      1828 3.84000E+01 4.61030E+01 0.00000E+00
 -1      1829 3.99000E+01 4.61030E+01 0.00000E+00
 -1      1830 3.76500E+01 4.48040E+01 0.00000E+00
 -1      1831 4.14000E+01 4.61030E+01 0.00000E+00
 -1      1832 4.29000E+01 4.61030E+01 0.00000E+00
 -1      1833 4.06500E+01 4.48040E+01 0.00000E+00
 -1      1834 4.44000E+01 4.61030E+01 0.00000E+00
 -1      1835 4.59000E+01 4.61030E+01 0.00000E+00
 -1      1836 4.36500E+01 4.48040E+01 0.00000E+00
 -1      1837 4.74000E+01 4.61030E+01 0.00000E+00
 -1      1838 4.89000E+01 4.61030E+01 0.00000E+00
 -1      1839 4.66500E+01 4.48040E+01 0.00000E+00
 -1      1840 5.04000E+01 4.61030E+01 0.00000E+00
 -1      1841 5.19000E+01 4.61030E+01 0.00000E+00
 -1      1842 4.96500E+01 4.48040E+01 0.00000E+00
 -1      1843 5.34000E+01 4.61030E+01 0.00000E+00
 -1      1844 5.49000E+01 4.61030E+01 0.00000E+00
 -1      1845 5.26500E+01 4.48040E+01 0.00000E+00
 -1      1846 5.64000E+01 4.61030E+01 0.00000E+00
 -1      1847 5.79000E+01 4.61030E+01 0.00000E+00
 -1      1848 5.56500E+01 4.48040E+01 0.00000E+00
 -1      1849 5.94000E+01 4.61030E+01 0.00000E+00
 -1      1850 6.09000E+01 4.61030E+01 0.00000E+00
 -1      1851 5.86500E+01 4.48040E+01 0.00000E+00
 -1      1852 6.24000E+01 4.61030E+01 0.00000E+00
 -1      1853 6.39000E+01 4.61030E+01 0.00000E+00
 -1      1854 6.16500E+01 4.48040E+01 0.00000E+00
 -1      1855 6.54000E+01 4.61030E+01 0.00000E+00
 -1      1856 6.69000E+01 4.61030E+01 0.00000E+00
 -1      1857 6.46500E+01 4.48040E+01 0.00000E+00
 -1      1858 6.84000E+01 4.61030E+01 0.00000E+00
 -1      1859 6.99000E+01 4.61030E+01 0.00000E+00
 -1      1860 6.76500E+01 4.48040E+01 0.00000E+00
 -1      1861 7.14000E+01 4.61030E+01 0.00000E+00
 -1      1862 7.29000E+01 4.61030E+01 0.00000E+00
 -1      1863 7.06500E+01 4.48040E+01 0.00000E+00
 -1      1864 7.44000E+01 4.61030E+01 0.00000E+00
 -1      1865 7.59000E+01 4.61030E+01 0.00000E+00
 -1      1866 7.36500E+01 4.48040E+01 0.00000E+00
 -1      1867 7.74000E+01 4.61030E+01 0.00000E+00
 -1      1868 7.89000E+01 4.61030E+01 0.00000E+00
 -1      1869 7.66500E+01 4.48040E+01 0.00000E+00
 -1      1870 8.04000E+01 4.61030E+01 0.00000E+00
 -1      1871 8.19000E+01 4.61030E+01 0.00000E+00
 -1      1872 7.96500E+01 4.48040E+01 0.00000E+00
 -1      1873 8.34000E+01 4.61030E+01 0.00000E+00
 -1      1874 8.49000E+01 4.61030E+01 0.00000E+00
 -1      1875 8.26500E+01 4.48040E+01 0.00000E+00
 -1      1876 8.64000E+01 4.61030E+01 0.00000E+00
 -1      1877 8.79000E+01 4.61030E+01 0.00000E+00
 -1      1878 8.56500E+01 4.48040E+01 0.00000E+00
 -1      1879 8.94000E+01 4.61030E+01 0.00000E+00
 -1      1880 9.09000E+01 4.61030E+01 0.00000E+00
 -1      1881 8.86500E+01 4.48040E+01 0.00000E+00
 -1      1882 9.24000E+01 4.61030E+01 0.00000E+00
 -1      1883 9.39000E+01 4.61030E+01 0.00000E+00
 -1      1884 9.16500E+01 4.48040E+01 0.00000E+00
 -1      1885 9.54000E+01 4.61030E+01 0.00000E+00
 -1      1886 9.69000E+01 4.61030E+01 0.00000E+00
 -1      1887 9.46500E+01 4.48040E+01 0.00000E+00
 -1      1888 9.84000E+01 4.61030E+01 0.00000E+00
 -1      1889 9.99000E+01 4.61030E+01 0.00000E+00
 -1      1890 9.76500E+01 4.48040E+01 0.00000E+00
 -1      1891 1.01400E+02 4.61030E+01 0.00000E+00
 -1      1892 1.02900E+02 4.61030E+01 0.00000E+00
 -1      1893 1.00650E+02 4.48040E+01 0.00000E+00
 -1      1894 1.04400E+02 4.61030E+01 0.00000E+00
 -1      1895 1.05900E+02 4.61030E+01 0.00000E+00
 -1      1896 1.03650E+02 4.48040E+01 0.00000E+00
 -1      1897 1.07400E+02 4.61030E+01 0.00000E+00
 -1      1898 1.08900E+02 4.61030E+01 0.00000E+00
 -1      1899 1.06650E+02 4.48040E+01 0.00000E+00
 -1      1900 1.10400E+02 4.61030E+01 0.00000E+00
 -1      1901 1.11900E+02 4.61030E+01 0.00000E+00
 -1      1902 1.09650E+02 4.48040E+01 0.00000E+00
 -1      1903 1.13400E+02 4.61030E+01 0.00000E+00
 -1      1904 1.14900E+02 4.61030E+01 0.00000E+00
 -1      1905 1.12650E+02 4.48040E+01 0.00000E+00
 -1      1906 1.16400E+02 4.61030E+01 0.00000E+00
 -1      1907 1.17900E+02 4.61030E+01 0.00000E+00
 -1      1908 1.15650E+02 4.48040E+01 0.00000E+00
 -1      1909 1.19400E+02 4.61030E+01 0.00000E+00
 -1      1910 1.20900E+02 4.61030E+01 0.00000E+00
 -1      1911 1.18650E+02 4.48040E+01 0.00000E+00
 -1      1912 1.22400E+02 4.61030E+01 0.00000E+00
 -1      1913 1.23900E+02 4.61030E+01 0.00000E+00
 -1      1914 1.21650E+02 4.48040E+01 0.00000E+00
 -1      1915 1.25400E+02 4.61030E+01 0.00000E+00
 -1      1916 1.26900E+02 4.61030E+01 0.00000E+00
 -1      1917 1.24650E+02 4.48040E+01 0.00000E+00
 -1      1918 1.28400E+02 4.61030E+01 0.00000E+00
 -1      1919 1.29900E+02 4.61030E+01 0.00000E+00
 -1      1920 1.27650E+02 4.48040E+01 0.00000E+00
 -1      1921 1.31400E+02 4.61030E+01 0.00000E+00
 -1      1922 1.32900E+02 4.61030E+01 0.00000E+00
 -1      1923 1.30650E+02 4.48040E+01 0.00000E+00
 -1      1924 1.34400E+02 4.61030E+01 0.00000E+00
 -1      1925 1.35900E+02 4.61030E+01 0.00000E+00
 -1      1926 1.33650E+02 4.48040E+01 0.00000E+00
 -1      1927 1.37400E+02 4.61030E+01 0.00000E+00
 -1      1928 1.38900E+02 4.61030E+01 0.00000E+00
 -1      1929 1.36650E+02 4.48040E+01 0.00000E+00
 -1      1930 1.40400E+02 4.61030E+01 0.00000E+00
 -1      1931 1.41900E+02 4.61030E+01 0.00000E+00
 -1      1932 1.39650E+02 4.48040E+01 0.00000E+00
 -1      1933 1.43400E+02 4.61030E+01 0.00000E+00
 -1      1934 1.44900E+02 4.61030E+01 0.00000E+00
 -1      1935 1.42650E+02 4.48040E+01 0.00000E+00
 -1      1936 1.17045E+01 3.09687E+00 0.00000E+00
 -1      1937 1.02045E+01 3.09687E+00 0.00000E+00
 -1      1938 1.00350E+01 4.00625E+00 0.00000E+00
 -1      1939 1.47045E+01 3.09687E+00 0.00000E+00
 -1      1940 1.32045E+01 3.09687E+00 0.00000E+00
 -1      1941 1.30350E+01 4.00625E+00 0.00000E+00
 -1      1942 1.77045E+01 3.09687E+00 0.00000E+00
 -1      1943 1.62045E+01 3.09687E+00 0.00000E+00
 -1      1944 1.60350E+01 4.00625E+00 0.00000E+00
 -1      1945 2.07045E+01 3.09687E+00 0.00000E+00
 -1      1946 1.92045E+01 3.09687E+00 0.00000E+00
 -1      1947 1.90350E+01 4.00625E+00 0.00000E+00
 -1      1948 2.37045E+01 3.09687E+00 0.00000E+00
 -1      1949 2.22045E+01 3.09687E+00 0.00000E+00
 -1      1950 2.20350E+01 4.00625E+00 0.00000E+00
 -1      1951 2.67045E+01 3.09687E+00 0.00000E+00
 -1      1952 2.52045E+01 3.09687E+00 0.00000E+00
 -1      1953 2.50350E+01 4.00625E+00 0.00000E+00
 -1      1954 2.97045E+01 3.09687E+00 0.00000E+00
 -1      1955 2.82045E+01 3.09687E+00 0.00000E+00
 -1      1956 2.80350E+01 4.00625E+00 0.00000E+00
 -1      1957 3.27045E+01 3.09687E+00 0.00000E+00
 -1      1958 3.12045E+01 3.09687E+00 0.00000E+00
 -1      1959 3.10350E+01 4.00625E+00 0.00000E+00
 -1      1960 3.57045E+01 3.09687E+00 0.00000E+00
 -1      1961 3.42045E+01 3.09687E+00 0.00000E+00
 -1      1962 3.40350E+01 4.00625E+00 0.00000E+00
 -1      1963 3.87045E+01 3.09687E+00 0.00000E+00
 -1      1964 3.72045E+01 3.09687E+00 0.00000E+00
 -1      1965 3.70350E+01 4.00625E+00 0.00000E+00
 -1      1966 4.17045E+01 3.09687E+00 0.00000E+00
 -1      1967 4.02045E+01 3.09687E+00 0.00000E+00
 -1      1968 4.00350E+01 4.00625E+00 0.00000E+00
 -1      1969 4.47045E+01 3.09687E+00 0.00000E+00
 -1      1970 4.32045E+01 3.09687E+00 0.00000E+00
 -1      1971 4.30350E+01 4.00625E+00 0.00000E+00
 -1      1972 4.77045E+01 3.09687E+00 0.00000E+00
 -1      1973 4.62045E+01 3.09687E+00 0.00000E+00
 -1      1974 4.60350E+01 4.00625E+00 0.00000E+00
 -1      1975 5.07045E+01 3.09687E+00 0.00000E+00
 -1      1976 4.92045E+01 3.09687E+00 0.00000E+00
 -1      1977 4.90350E+01 4.00625E+00 0.00000E+00
 -1      1978 5.37045E+01 3.09687E+00 0.00000E+00
 -1      1979 5.22045E+01 3.09687E+00 0.00000E+00
 -1      1980 5.20350E+01 4.00625E+00 0.00000E+00
 -1      1981 5.67045E+01 3.09687E+00 0.00000E+00
 -1      1982 5.52045E+01 3.09687E+00 0.00000E+00
 -1      1983 5.50350E+01 4.00625E+00 0.00000E+00
 -1      1984 5.97045E+01 3.09687E+00 0.00000E+00
 -1      1985 5.82045E+01 3.09687E+00 0.00000E+00
 -1      1986 5.80350E+01 4.00625E+00 0.00000E+00
 -1      1987 6.27045E+01 3.09687E+00 0.00000E+00
 -1      1988 6.12045E+01 3.09687E+00 0.00000E+00
 -1      1989 6.10350E+01 4.00625E+00 0.00000E+00
 -1      1990 6.57045E+01 3.09687E+00 0.00000E+00
 -1      1991 6.42045E+01 3.09687E+00 0.00000E+00
 -1      1992 6.40350E+01 4.00625E+00 0.00000E+00
 -1      1993 6.87045E+01 3.09687E+00 0.00000E+00
 -1      1994 6.72045E+01 3.09687E+00 0.00000E+00
 -1      1995 6.70350E+01 4.00625E+00 0.00000E+00
 -1      1996 7.17045E+01 3.09687E+00 0.00000E+00
 -1      1997 7.02045E+01 3.09687E+00 0.00000E+00
 -1      1998 7.00350E+01 4.00625E+00 0.00000E+00
 -1      1999 7.47045E+01 3.09687E+00 0.00000E+00
 -1      2000 7.32045E+01 3.09687E+00 0.00000E+00
 -1      2001 7.30350E+01 4.00625E+00 0.00000E+00
 -1      2002 7.77045E+01 3.09687E+00 0.00000E+00
 -1      2003 7.62045E+01 3.09687E+00 0.00000E+00
 -1      2004 7.60350E+01 4.00625E+00 0.00000E+00
 -1      2005 8.07045E+01 3.09687E+00 0.00000E+00
 -1      2006 7.92045E+01 3.09687E+00 0.00000E+00
 -1      2007 7.90350E+01 4.00625E+00 0.00000E+00
 -1      2008 8.37045E+01 3.09687E+00 0.00000E+00
 -1      2009 8.22045E+01 3.09687E+00 0.00000E+00
 -1      2010 8.20350E+01 4.00625E+00 0.00000E+00
 -1      2011 8.67045E+01 3.09687E+00 0.00000E+00
 -1      2012 8.52045E+01 3.09687E+00 0.00000E+00
 -1      2013 8.50350E+01 4.00625E+00 0.00000E+00
 -1      2014 8.97045E+01 3.09687E+00 0.00000E+00
 -1      2015 8.82045E+01 3.09687E+00 0.00000E+00
 -1      2016 8.80350E+01 4.00625E+00 0.00000E+00
 -1      2017 9.27045E+01 3.09687E+00 0.00000E+00
 -1      2018 9.12045E+01 3.09687E+00 0.00000E+00
 -1      2019 9.10350E+01 4.00625E+00 0.00000E+00
 -1      2020 9.57045E+01 3.09687E+00 0.00000E+00
 -1      2021 9.42045E+01 3.09687E+00 0.00000E+00
 -1      2022 9.40350E+01 4.00625E+00 0.00000E+00
 -1      2023 9.87045E+01 3.09687E+00 0.00000E+00
 -1      2024 9.72045E+01 3.09687E+00 0.00000E+00
 -1      2025 9.70350E+01 4.00625E+00 0.00000E+00
 -1      2026 1.01704E+02 3.09687E+00 0.00000E+00
 -1      2027 1.00204E+02 3.09687E+00 0.00000E+00
 -1      2028 1.00035E+02 4.00625E+00 0.00000E+00
 -1      2029 1.04704E+02 3.09687E+00 0.00000E+00
 -1      2030 1.03204E+02 3.09687E+00 0.00000E+00
 -1      2031 1.03035E+02 4.00625E+00 0.00000E+00
 -1      2032 1.07704E+02 3.09687E+00 0.00000E+00
 -1      2033 1.06204E+02 3.09687E+00 0.00000E+00
 -1      2034 1.06035E+02 4.00625E+00 0.00000E+00
 -1      2035 1.10704E+02 3.09687E+00 0.00000E+00
 -1      2036 1.09204E+02 3.09687E+00 0.00000E+00
 -1      2037 1.09035E+02 4.00625E+00 0.00000E+00
 -1      2038 1.13704E+02 3.09687E+00 0.00000E+00
 -1      2039 1.12204E+02 3.09687E+00 0.00000E+00
 -1      2040 1.12035E+02 4.00625E+00 0.00000E+00
 -1      2041 1.16704E+02 3.09687E+00 0.00000E+00
 -1      2042 1.15204E+02 3.09687E+00 0.00000E+00
 -1      2043 1.15035E+02 4.00625E+00 0.00000E+00
 -1      2044 1.19704E+02 3.09687E+00 0.00000E+00
 -1      2045 1.18204E+02 3.09687E+00 0.00000E+00
 -1      2046 1.18035E+02 4.00625E+00 0.00000E+00
 -1      2047 1.22704E+02 3.09687E+00 0.00000E+00
 -1      2048 1.21204E+02 3.09687E+00 0.00000E+00
 -1      2049 1.21035E+02 4.00625E+00 0.00000E+00
 -1      2050 1.25704E+02 3.09687E+00 0.00000E+00
 -1      2051 1.24204E+02 3.09687E+00 0.00000E+00
 -1      2052 1.24035E+02 4.00625E+00 0.00000E+00
 -1      2053 1.28704E+02 3.09687E+00 0.00000E+00
 -1      2054 1.27204E+02 3.09687E+00 0.00000E+00
 -1      2055 1.27035E+02 4.00625E+00 0.00000E+00
 -1      2056 1.31704E+02 3.09687E+00 0.00000E+00
 -1      2057 1.30204E+02 3.09687E+00 0.00000E+00
 -1      2058 1.30035E+02 4.00625E+00 0.00000E+00
 -1      2059 1.34704E+02 3.09687E+00 0.00000E+00
 -1      2060 1.33204E+02 3.09687E+00 0.00000E+00
 -1      2061 1.33035E+02 4.00625E+00 0.00000E+00
 -1      2062 1.37704E+02 3.09687E+00 0.00000E+00
 -1      2063 1.36204E+02 3.09687E+00 0.00000E+00
 -1      2064 1.36035E+02 4.00625E+00 0.00000E+00
 -1      2065 1.40704E+02 3.09687E+00 0.00000E+00
 -1      2066 1.39204E+02 3.09687E+00 0.00000E+00
 -1      2067 1.39035E+02 4.00625E+00 0.00000E+00
 -1      2068 1.43704E+02 3.09687E+00 0.00000E+00
 -1      2069 1.42204E+02 3.09687E+00 0.00000E+00
 -1      2070 1.42035E+02 4.00625E+00 0.00000E+00
 -1      2071 1.46171E+02 3.25156E+00 0.00000E+00
 -1      2072 1.44671E+02 3.25156E+00 0.00000E+00
 -1      2073 1.44502E+02 4.16094E+00 0.00000E+00
 -1      2074 1.46435E+02 4.47031E+00 0.00000E+00
 -1      2075 1.46126E+02 1.26750E+01 0.00000E+00
 -1      2076 1.46126E+02 1.13750E+01 0.00000E+00
 -1      2077 1.46126E+02 9.85000E+00 0.00000E+00
 -1      2078 1.46126E+02 8.32500E+00 0.00000E+00
 -1      2079 1.44849E+02 1.05000E+01 0.00000E+00
 -1      2080 1.46280E+02 7.16016E+00 0.00000E+00
 -1      2081 1.46280E+02 5.63516E+00 0.00000E+00
 -1      2082 1.45314E+02 5.48047E+00 0.00000E+00
 -1      2083 1.45004E+02 7.81016E+00 0.00000E+00
 -1      2084 1.46126E+02 1.50250E+01 0.00000E+00
 -1      2085 1.46126E+02 1.38500E+01 0.00000E+00
 -1      2086 1.44849E+02 1.32000E+01 0.00000E+00
 -1      2087 1.48369E+02 2.35500E+01 0.00000E+00
 -1      2088 1.46973E+02 1.78361E+01 0.00000E+00
 -1      2089 1.46699E+02 1.65111E+01 0.00000E+00
 -1      2090 1.47176E+02 3.61375E+01 0.00000E+00
 -1      2091 1.47176E+02 3.46625E+01 0.00000E+00
 -1      2092 1.47176E+02 3.91875E+01 0.00000E+00
 -1      2093 1.47176E+02 3.76625E+01 0.00000E+00
 -1      2094 1.45983E+02 3.69250E+01 0.00000E+00
 -1      2095 1.47176E+02 4.22375E+01 0.00000E+00
 -1      2096 1.47176E+02 4.07125E+01 0.00000E+00
 -1      2097 1.45983E+02 3.99750E+01 0.00000E+00
 -1      2098 1.47250E+02 2.02006E+01 0.00000E+00
 -1      2099 1.47566E+02 2.09971E+01 0.00000E+00
 -1      2100 1.47776E+02 2.20721E+01 0.00000E+00
 -1      2101 1.43046E+02 3.24405E+01 0.00000E+00
 -1      2102 1.42412E+02 3.27523E+01 0.00000E+00
 -1      2103 1.43893E+02 3.27866E+01 0.00000E+00
 -1      2104 1.46932E+02 2.89753E+01 0.00000E+00
 -1      2105 1.46374E+02 2.96280E+01 0.00000E+00
 -1      2106 3.89700E+00 3.74688E+01 0.00000E+00
 -1      2107 3.89700E+00 3.89437E+01 0.00000E+00
 -1      2108 5.19600E+00 3.96813E+01 0.00000E+00
 -1      2109 5.19600E+00 3.67438E+01 0.00000E+00
 -1      2110 1.45143E+02 1.73675E+01 0.00000E+00
 -1      2111 1.45737E+02 1.80054E+01 0.00000E+00
 -1      2112 1.43456E+02 1.60984E+01 0.00000E+00
 -1      2113 1.44245E+02 1.64978E+01 0.00000E+00
 -1      2114 1.41640E+02 1.55535E+01 0.00000E+00
 -1      2115 1.42478E+02 1.57716E+01 0.00000E+00
 -1      2116 1.39794E+02 1.52247E+01 0.00000E+00
 -1      2117 1.40670E+02 1.53017E+01 0.00000E+00
 -1      2118 1.37924E+02 1.53226E+01 0.00000E+00
 -1      2119 1.38793E+02 1.52589E+01 0.00000E+00
 -1      2120 1.36054E+02 1.56912E+01 0.00000E+00
 -1      2121 1.36948E+02 1.55036E+01 0.00000E+00
 -1      2122 1.34211E+02 1.68529E+01 0.00000E+00
 -1      2123 1.34897E+02 1.62352E+01 0.00000E+00
 -1      2124 1.32834E+02 1.79690E+01 0.00000E+00
 -1      2125 1.33523E+02 1.74110E+01 0.00000E+00
 -1      2126 1.33347E+02 1.65273E+01 0.00000E+00
 -1      2127 1.31708E+02 1.96353E+01 0.00000E+00
 -1      2128 1.32121E+02 1.88688E+01 0.00000E+00
 -1      2129 1.30930E+02 2.11601E+01 0.00000E+00
 -1      2130 1.31319E+02 2.03977E+01 0.00000E+00
 -1      2131 1.30844E+02 1.96473E+01 0.00000E+00
 -1      2132 1.30619E+02 2.31433E+01 0.00000E+00
 -1      2133 1.30684E+02 2.22868E+01 0.00000E+00
 -1      2134 1.30515E+02 2.48890E+01 0.00000E+00
 -1      2135 1.30562E+02 2.40207E+01 0.00000E+00
 -1      2136 1.30969E+02 2.68260E+01 0.00000E+00
 -1      2137 1.30677E+02 2.60029E+01 0.00000E+00
 -1      2138 1.31638E+02 2.84447E+01 0.00000E+00
 -1      2139 1.31301E+02 2.76690E+01 0.00000E+00
 -1      2140 1.32501E+02 3.01035E+01 0.00000E+00
 -1      2141 1.32039E+02 2.93211E+01 0.00000E+00
 -1      2142 1.34199E+02 3.13983E+01 0.00000E+00
 -1      2143 1.33415E+02 3.09160E+01 0.00000E+00
 -1      2144 1.35779E+02 3.23229E+01 0.00000E+00
 -1      2145 1.35000E+02 3.19689E+01 0.00000E+00
 -1      2146 1.37412E+02 3.29294E+01 0.00000E+00
 -1      2147 1.36596E+02 3.26262E+01 0.00000E+00
 -1      2148 1.35886E+02 3.31537E+01 0.00000E+00
 -1      2149 1.39445E+02 3.31247E+01 0.00000E+00
 -1      2150 1.38583E+02 3.31583E+01 0.00000E+00
 -1      2151 1.41164E+02 3.31961E+01 0.00000E+00
 -1      2152 1.40305E+02 3.31604E+01 0.00000E+00
 -1      2153 1.39904E+02 3.39504E+01 0.00000E+00
 -1      2154 1.45782E+02 3.03133E+01 0.00000E+00
 -1      2155 1.45192E+02 3.08703E+01 0.00000E+00
 -1      2156 1.47250E+02 1.91506E+01 0.00000E+00
 -1      2157 1.46714E+02 1.84944E+01 0.00000E+00
 -1      2158 1.46554E+02 3.04080E+01 0.00000E+00
 -1      2159 1.45244E+02 3.17841E+01 0.00000E+00
 -1      2160 6.42300E+00 4.57510E+01 0.00000E+00
 -1      2161 7.17300E+00 4.44520E+01 0.00000E+00
 -1      2162 1.45580E+02 4.49963E+01 0.00000E+00
 -1      2163 1.47757E+02 3.03488E+01 0.00000E+00
 -1      2164 1.47757E+02 2.91988E+01 0.00000E+00
 -1      2165 1.47543E+02 2.84515E+01 0.00000E+00
 -1      2166 1.47543E+02 2.74515E+01 0.00000E+00
 -1      2167 1.48004E+02 2.38969E+01 0.00000E+00
 -1      2168 1.48004E+02 2.29219E+01 0.00000E+00
 -1      2169 1.42859E+02 3.38884E+01 0.00000E+00
 -1      2170 1.42012E+02 3.35423E+01 0.00000E+00
 -1      2171 1.41611E+02 3.43323E+01 0.00000E+00
 -1      2172 1.45255E+02 3.39374E+01 0.00000E+00
 -1      2173 1.46447E+02 3.31999E+01 0.00000E+00
 -1      2174 1.47805E+02 2.66344E+01 0.00000E+00
 -1      2175 1.47805E+02 2.55594E+01 0.00000E+00
 -1      2176 1.46496E+02 4.33442E+01 0.00000E+00
 -1      2177 1.47904E+02 2.47281E+01 0.00000E+00
 -1      2178 1.47165E+02 3.10342E+01 0.00000E+00
 -1      2179 1.37873E+02 3.36858E+01 0.00000E+00
 -1      2180 1.34268E+02 3.22798E+01 0.00000E+00
 -1      2181 1.32553E+02 3.08967E+01 0.00000E+00
 -1      2182 1.31692E+02 3.08774E+01 0.00000E+00
 -1      2183 1.32606E+02 3.16899E+01 0.00000E+00
 -1      2184 1.31238E+02 2.92079E+01 0.00000E+00
 -1      2185 1.30505E+02 2.74885E+01 0.00000E+00
 -1      2186 1.30011E+02 2.55316E+01 0.00000E+00
 -1      2187 1.30209E+02 2.15363E+01 0.00000E+00
 -1      2188 1.31946E+02 1.79851E+01 0.00000E+00
 -1      2189 1.35193E+02 1.54251E+01 0.00000E+00
 -1      2190 1.35490E+02 1.46151E+01 0.00000E+00
 -1      2191 1.34333E+02 1.51591E+01 0.00000E+00
 -1      2192 1.37326E+02 1.47001E+01 0.00000E+00
 -1      2193 1.39303E+02 1.44849E+01 0.00000E+00
 -1      2194 1.41274E+02 1.47025E+01 0.00000E+00
 -1      2195 1.43222E+02 1.52811E+01 0.00000E+00
 -1      2196 1.45098E+02 1.64775E+01 0.00000E+00
 -1      2197 1.29906E+02 2.35403E+01 0.00000E+00
 -1      2198 1.07850E+01 5.30525E+00 0.00000E+00
 -1      2199 9.28500E+00 5.30525E+00 0.00000E+00
 -1      2200 6.49500E+00 3.01125E+01 0.00000E+00
 -1      2201 6.49500E+00 3.15875E+01 0.00000E+00
 -1      2202 6.49500E+00 3.30625E+01 0.00000E+00
 -1      2203 6.49500E+00 3.45375E+01 0.00000E+00
 -1      2204 7.79400E+00 3.23250E+01 0.00000E+00
 -1      2205 6.49500E+00 2.42125E+01 0.00000E+00
 -1      2206 6.49500E+00 2.56875E+01 0.00000E+00
 -1      2207 6.49500E+00 2.12625E+01 0.00000E+00
 -1      2208 6.49500E+00 2.27375E+01 0.00000E+00
 -1      2209 7.79400E+00 2.34750E+01 0.00000E+00
 -1      2210 6.49500E+00 1.83625E+01 0.00000E+00
 -1      2211 6.49500E+00 1.98125E+01 0.00000E+00
 -1      2212 7.79400E+00 2.05500E+01 0.00000E+00
 -1      2213 6.49500E+00 1.54125E+01 0.00000E+00
 -1      2214 6.49500E+00 1.68875E+01 0.00000E+00
 -1      2215 7.79400E+00 1.76250E+01 0.00000E+00
 -1      2216 6.49500E+00 1.24625E+01 0.00000E+00
 -1      2217 6.49500E+00 1.39375E+01 0.00000E+00
 -1      2218 7.79400E+00 1.46750E+01 0.00000E+00
 -1      2219 6.49500E+00 9.51250E+00 0.00000E+00
 -1      2220 6.49500E+00 1.09875E+01 0.00000E+00
 -1      2221 7.79400E+00 1.17250E+01 0.00000E+00
 -1      2222 9.90000E+00 4.35050E+01 0.00000E+00
 -1      2223 1.14000E+01 4.35050E+01 0.00000E+00
 -1      2224 1.37850E+01 5.30525E+00 0.00000E+00
 -1      2225 1.22850E+01 5.30525E+00 0.00000E+00
 -1      2226 1.15350E+01 6.60425E+00 0.00000E+00
 -1      2227 6.55950E+00 4.28890E+01 0.00000E+00
 -1      2228 8.53650E+00 4.32410E+01 0.00000E+00
 -1      2229 9.28650E+00 4.19420E+01 0.00000E+00
 -1      2230 6.55950E+00 4.14140E+01 0.00000E+00
 -1      2231 1.29000E+01 4.35050E+01 0.00000E+00
 -1      2232 1.44000E+01 4.35050E+01 0.00000E+00
 -1      2233 1.21500E+01 4.22060E+01 0.00000E+00
 -1      2234 1.59000E+01 4.35050E+01 0.00000E+00
 -1      2235 1.74000E+01 4.35050E+01 0.00000E+00
 -1      2236 1.51500E+01 4.22060E+01 0.00000E+00
 -1      2237 1.89000E+01 4.35050E+01 0.00000E+00
 -1      2238 2.04000E+01 4.35050E+01 0.00000E+00
 -1      2239 1.81500E+01 4.22060E+01 0.00000E+00
 -1      2240 2.19000E+01 4.35050E+01 0.00000E+00
 -1      2241 2.34000E+01 4.35050E+01 0.00000E+00
 -1      2242 2.11500E+01 4.22060E+01 0.00000E+00
 -1      2243 2.49000E+01 4.35050E+01 0.00000E+00
 -1      2244 2.64000E+01 4.35050E+01 0.00000E+00
 -1      2245 2.41500E+01 4.22060E+01 0.00000E+00
 -1      2246 2.79000E+01 4.35050E+01 0.00000E+00
 -1      2247 2.94000E+01 4.35050E+01 0.00000E+00
 -1      2248 2.71500E+01 4.22060E+01 0.00000E+00
 -1      2249 3.09000E+01 4.35050E+01 0.00000E+00
 -1      2250 3.24000E+01 4.35050E+01 0.00000E+00
 -1      2251 3.01500E+01 4.22060E+01 0.00000E+00
 -1      2252 3.39000E+01 4.35050E+01 0.00000E+00
 -1      2253 3.54000E+01 4.35050E+01 0.00000E+00
 -1      2254 3.31500E+01 4.22060E+01 0.00000E+00
 -1      2255 3.69000E+01 4.35050E+01 0.00000E+00
 -1      2256 3.84000E+01 4.35050E+01 0.00000E+00
 -1      2257 3.61500E+01 4.22060E+01 0.00000E+00
 -1      2258 3.99000E+01 4.35050E+01 0.00000E+00
 -1      2259 4.14000E+01 4.35050E+01 0.00000E+00
 -1      2260 3.91500E+01 4.22060E+01 0.00000E+00
 -1      2261 4.29000E+01 4.35050E+01 0.00000E+00
 -1      2262 4.44000E+01 4.35050E+01 0.00000E+00
 -1      2263 4.21500E+01 4.22060E+01 0.00000E+00
 -1      2264 4.59000E+01 4.35050E+01 0.00000E+00
 -1      2265 4.74000E+01 4.35050E+01 0.00000E+00
 -1      2266 4.51500E+01 4.22060E+01 0.00000E+00
 -1      2267 4.89000E+01 4.35050E+01 0.00000E+00
 -1      2268 5.04000E+01 4.35050E+01 0.00000E+00
 -1      2269 4.81500E+01 4.22060E+01 0.00000E+00
 -1      2270 5.19000E+01 4.35050E+01 0.00000E+00
 -1      2271 5.34000E+01 4.35050E+01 0.00000E+00
 -1      2272 5.11500E+01 4.22060E+01 0.00000E+00
 -1      2273 5.49000E+01 4.35050E+01 0.00000E+00
 -1      2274 5.64000E+01 4.35050E+01 0.00000E+00
 -1      2275 5.41500E+01 4.22060E+01 0.00000E+00
 -1      2276 5.79000E+01 4.35050E+01 0.00000E+00
 -1      2277 5.94000E+01 4.35050E+01 0.00000E+00
 -1      2278 5.71500E+01 4.22060E+01 0.00000E+00
 -1      2279 6.09000E+01 4.35050E+01 0.00000E+00
 -1      2280 6.24000E+01 4.35050E+01 0.00000E+00
 -1      2281 6.01500E+01 4.22060E+01 0.00000E+00
 -1      2282 6.39000E+01 4.35050E+01 0.00000E+00
 -1      2283 6.54000E+01 4.35050E+01 0.00000E+00
 -1      2284 6.31500E+01 4.22060E+01 0.00000E+00
 -1      2285 6.69000E+01 4.35050E+01 0.00000E+00
 -1      2286 6.84000E+01 4.35050E+01 0.00000E+00
 -1      2287 6.61500E+01 4.22060E+01 0.00000E+00
 -1      2288 6.99000E+01 4.35050E+01 0.00000E+00
 -1      2289 7.14000E+01 4.35050E+01 0.00000E+00
 -1      2290 6.91500E+01 4.22060E+01 0.00000E+00
 -1      2291 7.29000E+01 4.35050E+01 0.00000E+00
 -1      2292 7.44000E+01 4.35050E+01 0.00000E+00
 -1      2293 7.21500E+01 4.22060E+01 0.00000E+00
 -1      2294 7.59000E+01 4.35050E+01 0.00000E+00
 -1      2295 7.74000E+01 4.35050E+01 0.00000E+00
 -1      2296 7.51500E+01 4.22060E+01 0.00000E+00
 -1      2297 7.89000E+01 4.35050E+01 0.00000E+00
 -1      2298 8.04000E+01 4.35050E+01 0.00000E+00
 -1      2299 7.81500E+01 4.22060E+01 0.00000E+00
 -1      2300 8.19000E+01 4.35050E+01 0.00000E+00
 -1      2301 8.34000E+01 4.35050E+01 0.00000E+00
 -1      2302 8.11500E+01 4.22060E+01 0.00000E+00
 -1      2303 8.49000E+01 4.35050E+01 0.00000E+00
 -1      2304 8.64000E+01 4.35050E+01 0.00000E+00
 -1      2305 8.41500E+01 4.22060E+01 0.00000E+00
 -1      2306 8.79000E+01 4.35050E+01 0.00000E+00
 -1      2307 8.94000E+01 4.35050E+01 0.00000E+00
 -1      2308 8.71500E+01 4.22060E+01 0.00000E+00
 -1      2309 9.09000E+01 4.35050E+01 0.00000E+00
 -1      2310 9.24000E+01 4.35050E+01 0.00000E+00
 -1      2311 9.01500E+01 4.22060E+01 0.00000E+00
 -1      2312 9.39000E+01 4.35050E+01 0.00000E+00
 -1      2313 9.54000E+01 4.35050E+01 0.00000E+00
 -1      2314 9.31500E+01 4.22060E+01 0.00000E+00
 -1      2315 9.69000E+01 4.35050E+01 0.00000E+00
 -1      2316 9.84000E+01 4.35050E+01 0.00000E+00
 -1      2317 9.61500E+01 4.22060E+01 0.00000E+00
 -1      2318 9.99000E+01 4.35050E+01 0.00000E+00
 -1      2319 1.01400E+02 4.35050E+01 0.00000E+00
 -1      2320 9.91500E+01 4.22060E+01 0.00000E+00
 -1      2321 1.02900E+02 4.35050E+01 0.00000E+00
 -1      2322 1.04400E+02 4.35050E+01 0.00000E+00
 -1      2323 1.02150E+02 4.22060E+01 0.00000E+00
 -1      2324 1.05900E+02 4.35050E+01 0.00000E+00
 -1      2325 1.07400E+02 4.35050E+01 0.00000E+00
 -1      2326 1.05150E+02 4.22060E+01 0.00000E+00
 -1      2327 1.08900E+02 4.35050E+01 0.00000E+00
 -1      2328 1.10400E+02 4.35050E+01 0.00000E+00
 -1      2329 1.08150E+02 4.22060E+01 0.00000E+00
 -1      2330 1.11900E+02 4.35050E+01 0.00000E+00
 -1      2331 1.13400E+02 4.35050E+01 0.00000E+00
 -1      2332 1.11150E+02 4.22060E+01 0.00000E+00
 -1      2333 1.14900E+02 4.35050E+01 0.00000E+00
 -1      2334 1.16400E+02 4.35050E+01 0.00000E+00
 -1      2335 1.14150E+02 4.22060E+01 0.00000E+00
 -1      2336 1.17900E+02 4.35050E+01 0.00000E+00
 -1      2337 1.19400E+02 4.35050E+01 0.00000E+00
 -1      2338 1.17150E+02 4.22060E+01 0.00000E+00
 -1      2339 1.20900E+02 4.35050E+01 0.00000E+00
 -1      2340 1.22400E+02 4.35050E+01 0.00000E+00
 -1      2341 1.20150E+02 4.22060E+01 0.00000E+00
 -1      2342 1.23900E+02 4.35050E+01 0.00000E+00
 -1      2343 1.25400E+02 4.35050E+01 0.00000E+00
 -1      2344 1.23150E+02 4.22060E+01 0.00000E+00
 -1      2345 1.26900E+02 4.35050E+01 0.00000E+00
 -1      2346 1.28400E+02 4.35050E+01 0.00000E+00
 -1      2347 1.26150E+02 4.22060E+01 0.00000E+00
 -1      2348 1.29900E+02 4.35050E+01 0.00000E+00
 -1      2349 1.31400E+02 4.35050E+01 0.00000E+00
 -1      2350 1.29150E+02 4.22060E+01 0.00000E+00
 -1      2351 1.32900E+02 4.35050E+01 0.00000E+00
 -1      2352 1.34400E+02 4.35050E+01 0.00000E+00
 -1      2353 1.32150E+02 4.22060E+01 0.00000E+00
 -1      2354 1.35900E+02 4.35050E+01 0.00000E+00
 -1      2355 1.37400E+02 4.35050E+01 0.00000E+00
 -1      2356 1.35150E+02 4.22060E+01 0.00000E+00
 -1      2357 1.38900E+02 4.35050E+01 0.00000E+00
 -1      2358 1.40400E+02 4.35050E+01 0.00000E+00
 -1      2359 1.38150E+02 4.22060E+01 0.00000E+00
 -1      2360 1.41900E+02 4.35050E+01 0.00000E+00
 -1      2361 1.43400E+02 4.35050E+01 0.00000E+00
 -1      2362 1.41150E+02 4.22060E+01 0.00000E+00
 -1      2363 1.67850E+01 5.30525E+00 0.00000E+00
 -1      2364 1.52850E+01 5.30525E+00 0.00000E+00
 -1      2365 1.45350E+01 6.60425E+00 0.00000E+00
 -1      2366 1.97850E+01 5.30525E+00 0.00000E+00
 -1      2367 1.82850E+01 5.30525E+00 0.00000E+00
 -1      2368 1.75350E+01 6.60425E+00 0.00000E+00
 -1      2369 2.27850E+01 5.30525E+00 0.00000E+00
 -1      2370 2.12850E+01 5.30525E+00 0.00000E+00
 -1      2371 2.05350E+01 6.60425E+00 0.00000E+00
 -1      2372 2.57850E+01 5.30525E+00 0.00000E+00
 -1      2373 2.42850E+01 5.30525E+00 0.00000E+00
 -1      2374 2.35350E+01 6.60425E+00 0.00000E+00
 -1      2375 2.87850E+01 5.30525E+00 0.00000E+00
 -1      2376 2.72850E+01 5.30525E+00 0.00000E+00
 -1      2377 2.65350E+01 6.60425E+00 0.00000E+00
 -1      2378 3.17850E+01 5.30525E+00 0.00000E+00
 -1      2379 3.02850E+01 5.30525E+00 0.00000E+00
 -1      2380 2.95350E+01 6.60425E+00 0.00000E+00
 -1      2381 3.47850E+01 5.30525E+00 0.00000E+00
 -1      2382 3.32850E+01 5.30525E+00 0.00000E+00
 -1      2383 3.25350E+01 6.60425E+00 0.00000E+00
 -1      2384 3.77850E+01 5.30525E+00 0.00000E+00
 -1      2385 3.62850E+01 5.30525E+00 0.00000E+00
 -1      2386 3.55350E+01 6.60425E+00 0.00000E+00
 -1      2387 4.07850E+01 5.30525E+00 0.00000E+00
 -1      2388 3.92850E+01 5.30525E+00 0.00000E+00
 -1      2389 3.85350E+01 6.60425E+00 0.00000E+00
 -1      2390 4.37850E+01 5.30525E+00 0.00000E+00
 -1      2391 4.22850E+01 5.30525E+00 0.00000E+00
 -1      2392 4.15350E+01 6.60425E+00 0.00000E+00
 -1      2393 4.67850E+01 5.30525E+00 0.00000E+00
 -1      2394 4.52850E+01 5.30525E+00 0.00000E+00
 -1      2395 4.45350E+01 6.60425E+00 0.00000E+00
 -1      2396 4.97850E+01 5.30525E+00 0.00000E+00
 -1      2397 4.82850E+01 5.30525E+00 0.00000E+00
 -1      2398 4.75350E+01 6.60425E+00 0.00000E+00
 -1      2399 5.27850E+01 5.30525E+00 0.00000E+00
 -1      2400 5.12850E+01 5.30525E+00 0.00000E+00
 -1      2401 5.05350E+01 6.60425E+00 0.00000E+00
 -1      2402 5.57850E+01 5.30525E+00 0.00000E+00
 -1      2403 5.42850E+01 5.30525E+00 0.00000E+00
 -1      2404 5.35350E+01 6.60425E+00 0.00000E+00
 -1      2405 5.87850E+01 5.30525E+00 0.00000E+00
 -1      2406 5.72850E+01 5.30525E+00 0.00000E+00
 -1      2407 5.65350E+01 6.60425E+00 0.00000E+00
 -1      2408 6.17850E+01 5.30525E+00 0.00000E+00
 -1      2409 6.02850E+01 5.30525E+00 0.00000E+00
 -1      2410 5.95350E+01 6.60425E+00 0.00000E+00
 -1      2411 6.47850E+01 5.30525E+00 0.00000E+00
 -1      2412 6.32850E+01 5.30525E+00 0.00000E+00
 -1      2413 6.25350E+01 6.60425E+00 0.00000E+00
 -1      2414 6.77850E+01 5.30525E+00 0.00000E+00
 -1      2415 6.62850E+01 5.30525E+00 0.00000E+00
 -1      2416 6.55350E+01 6.60425E+00 0.00000E+00
 -1      2417 7.07850E+01 5.30525E+00 0.00000E+00
 -1      2418 6.92850E+01 5.30525E+00 0.00000E+00
 -1      2419 6.85350E+01 6.60425E+00 0.00000E+00
 -1      2420 7.37850E+01 5.30525E+00 0.00000E+00
 -1      2421 7.22850E+01 5.30525E+00 0.00000E+00
 -1      2422 7.15350E+01 6.60425E+00 0.00000E+00
 -1      2423 7.67850E+01 5.30525E+00 0.00000E+00
 -1      2424 7.52850E+01 5.30525E+00 0.00000E+00
 -1      2425 7.45350E+01 6.60425E+00 0.00000E+00
 -1      2426 7.97850E+01 5.30525E+00 0.00000E+00
 -1      2427 7.82850E+01 5.30525E+00 0.00000E+00
 -1      2428 7.75350E+01 6.60425E+00 0.00000E+00
 -1      2429 8.27850E+01 5.30525E+00 0.00000E+00
 -1      2430 8.12850E+01 5.30525E+00 0.00000E+00
 -1      2431 8.05350E+01 6.60425E+00 0.00000E+00
 -1      2432 8.57850E+01 5.30525E+00 0.00000E+00
 -1      2433 8.42850E+01 5.30525E+00 0.00000E+00
 -1      2434 8.35350E+01 6.60425E+00 0.00000E+00
 -1      2435 8.87850E+01 5.30525E+00 0.00000E+00
 -1      2436 8.72850E+01 5.30525E+00 0.00000E+00
 -1      2437 8.65350E+01 6.60425E+00 0.00000E+00
 -1      2438 9.17850E+01 5.30525E+00 0.00000E+00
 -1      2439 9.02850E+01 5.30525E+00 0.00000E+00
 -1      2440 8.95350E+01 6.60425E+00 0.00000E+00
 -1      2441 9.47850E+01 5.30525E+00 0.00000E+00
 -1      2442 9.32850E+01 5.30525E+00 0.00000E+00
 -1      2443 9.25350E+01 6.60425E+00 0.00000E+00
 -1      2444 9.77850E+01 5.30525E+00 0.00000E+00
 -1      2445 9.62850E+01 5.30525E+00 0.00000E+00
 -1      2446 9.55350E+01 6.60425E+00 0.00000E+00
 -1      2447 1.00785E+02 5.30525E+00 0.00000E+00
 -1      2448 9.92850E+01 5.30525E+00 0.00000E+00
 -1      2449 9.85350E+01 6.60425E+00 0.00000E+00
 -1      2450 1.03785E+02 5.30525E+00 0.00000E+00
 -1      2451 1.02285E+02 5.30525E+00 0.00000E+00
 -1      2452 1.01535E+02 6.60425E+00 0.00000E+00
 -1      2453 1.06785E+02 5.30525E+00 0.00000E+00
 -1      2454 1.05285E+02 5.30525E+00 0.00000E+00
 -1      2455 1.04535E+02 6.60425E+00 0.00000E+00
 -1      2456 1.09785E+02 5.30525E+00 0.00000E+00
 -1      2457 1.08285E+02 5.30525E+00 0.00000E+00
 -1      2458 1.07535E+02 6.60425E+00 0.00000E+00
 -1      2459 1.12785E+02 5.30525E+00 0.00000E+00
 -1      2460 1.11285E+02 5.30525E+00 0.00000E+00
 -1      2461 1.10535E+02 6.60425E+00 0.00000E+00
 -1      2462 1.15785E+02 5.30525E+00 0.00000E+00
 -1      2463 1.14285E+02 5.30525E+00 0.00000E+00
 -1      2464 1.13535E+02 6.60425E+00 0.00000E+00
 -1      2465 1.18785E+02 5.30525E+00 0.00000E+00
 -1      2466 1.17285E+02 5.30525E+00 0.00000E+00
 -1      2467 1.16535E+02 6.60425E+00 0.00000E+00
 -1      2468 1.21785E+02 5.30525E+00 0.00000E+00
 -1      2469 1.20285E+02 5.30525E+00 0.00000E+00
 -1      2470 1.19535E+02 6.60425E+00 0.00000E+00
 -1      2471 1.24785E+02 5.30525E+00 0.00000E+00
 -1      2472 1.23285E+02 5.30525E+00 0.00000E+00
 -1      2473 1.22535E+02 6.60425E+00 0.00000E+00
 -1      2474 1.27785E+02 5.30525E+00 0.00000E+00
 -1      2475 1.26285E+02 5.30525E+00 0.00000E+00
 -1      2476 1.25535E+02 6.60425E+00 0.00000E+00
 -1      2477 1.30785E+02 5.30525E+00 0.00000E+00
 -1      2478 1.29285E+02 5.30525E+00 0.00000E+00
 -1      2479 1.28535E+02 6.60425E+00 0.00000E+00
 -1      2480 1.33785E+02 5.30525E+00 0.00000E+00
 -1      2481 1.32285E+02 5.30525E+00 0.00000E+00
 -1      2482 1.31535E+02 6.60425E+00 0.00000E+00
 -1      2483 1.36785E+02 5.30525E+00 0.00000E+00
 -1      2484 1.35285E+02 5.30525E+00 0.00000E+00
 -1      2485 1.34535E+02 6.60425E+00 0.00000E+00
 -1      2486 1.39785E+02 5.30525E+00 0.00000E+00
 -1      2487 1.38285E+02 5.30525E+00 0.00000E+00
 -1      2488 1.37535E+02 6.60425E+00 0.00000E+00
 -1      2489 1.42785E+02 5.30525E+00 0.00000E+00
 -1      2490 1.41285E+02 5.30525E+00 0.00000E+00
 -1      2491 1.40535E+02 6.60425E+00 0.00000E+00
 -1      2492 1.44347E+02 5.32578E+00 0.00000E+00
 -1      2493 1.45423E+02 1.58611E+01 0.00000E+00
 -1      2494 1.43740E+02 1.12625E+01 0.00000E+00
 -1      2495 1.43740E+02 9.73750E+00 0.00000E+00
 -1      2496 1.44791E+02 4.07375E+01 0.00000E+00
 -1      2497 1.44791E+02 3.92125E+01 0.00000E+00
 -1      2498 1.45067E+02 4.31520E+01 0.00000E+00
 -1      2499 1.45023E+02 3.73375E+01 0.00000E+00
 -1      2500 1.45023E+02 3.58125E+01 0.00000E+00
 -1      2501 1.44294E+02 3.43499E+01 0.00000E+00
 -1      2502 1.43830E+02 3.81000E+01 0.00000E+00
 -1      2503 1.38294E+02 3.46419E+01 0.00000E+00
 -1      2504 1.37123E+02 3.44130E+01 0.00000E+00
 -1      2505 1.34245E+02 3.31613E+01 0.00000E+00
 -1      2506 1.33443E+02 3.25907E+01 0.00000E+00
 -1      2507 6.49500E+00 2.71625E+01 0.00000E+00
 -1      2508 6.49500E+00 2.86375E+01 0.00000E+00
 -1      2509 7.79400E+00 2.93750E+01 0.00000E+00
 -1      2510 7.79400E+00 2.64250E+01 0.00000E+00
 -1      2511 1.40983E+02 1.38277E+01 0.00000E+00
 -1      2512 1.41953E+02 1.40795E+01 0.00000E+00
 -1      2513 1.38773E+02 1.36449E+01 0.00000E+00
 -1      2514 1.39774E+02 1.36107E+01 0.00000E+00
 -1      2515 1.36697E+02 1.40298E+01 0.00000E+00
 -1      2516 1.37673E+02 1.38488E+01 0.00000E+00
 -1      2517 1.32516E+02 1.62052E+01 0.00000E+00
 -1      2518 1.33204E+02 1.56471E+01 0.00000E+00
 -1      2519 1.30918E+02 1.79026E+01 0.00000E+00
 -1      2520 1.31630E+02 1.70028E+01 0.00000E+00
 -1      2521 1.29998E+02 1.96957E+01 0.00000E+00
 -1      2522 1.30387E+02 1.89333E+01 0.00000E+00
 -1      2523 1.29248E+02 2.19167E+01 0.00000E+00
 -1      2524 1.29494E+02 2.07901E+01 0.00000E+00
 -1      2525 1.29326E+02 2.61997E+01 0.00000E+00
 -1      2526 1.29165E+02 2.50858E+01 0.00000E+00
 -1      2527 1.29717E+02 2.82853E+01 0.00000E+00
 -1      2528 1.29385E+02 2.74423E+01 0.00000E+00
 -1      2529 1.30520E+02 3.00381E+01 0.00000E+00
 -1      2530 1.30118E+02 2.91617E+01 0.00000E+00
 -1      2531 1.28998E+02 2.91156E+01 0.00000E+00
 -1      2532 1.35996E+02 3.41092E+01 0.00000E+00
 -1      2533 1.35179E+02 3.38059E+01 0.00000E+00
 -1      2534 1.40294E+02 3.49088E+01 0.00000E+00
 -1      2535 1.39435E+02 3.48731E+01 0.00000E+00
 -1      2536 1.29189E+02 2.39344E+01 0.00000E+00
 -1      2537 1.29246E+02 2.30570E+01 0.00000E+00
 -1      2538 8.07525E+00 5.11044E+00 0.00000E+00
 -1      2539 6.57525E+00 5.11044E+00 0.00000E+00
 -1      2540 6.40575E+00 6.01981E+00 0.00000E+00
 -1      2541 8.82525E+00 6.40944E+00 0.00000E+00
 -1      2542 1.47165E+02 3.25092E+01 0.00000E+00
 -1      2543 1.42582E+02 1.33849E+01 0.00000E+00
 -1      2544 1.42872E+02 1.42598E+01 0.00000E+00
 -1      2545 7.79400E+00 3.52687E+01 0.00000E+00
 -1      2546 6.49500E+00 3.60062E+01 0.00000E+00
 -1      2547 6.49500E+00 3.74750E+01 0.00000E+00
 -1      2548 6.40575E+00 7.49481E+00 0.00000E+00
 -1      2549 7.70475E+00 8.23231E+00 0.00000E+00
 -1      2550 6.55950E+00 3.99453E+01 0.00000E+00
 -1      2551 1.35837E+02 1.37638E+01 0.00000E+00
 -1      2552 1.36183E+02 1.29125E+01 0.00000E+00
 -1      2553 1.34976E+02 1.34977E+01 0.00000E+00
 -1      2554 1.43597E+02 6.62478E+00 0.00000E+00
 -1      2555 1.44317E+02 4.18530E+01 0.00000E+00
 -1      2556 1.43124E+02 4.10905E+01 0.00000E+00
 -1      2557 1.41989E+02 3.56011E+01 0.00000E+00
 -1      2558 1.41142E+02 3.52549E+01 0.00000E+00
 -1      2559 1.40673E+02 3.61776E+01 0.00000E+00
 -1      2560 1.36416E+02 3.50652E+01 0.00000E+00
 -1      2561 1.44175E+02 1.39701E+01 0.00000E+00
 -1      2562 1.44175E+02 1.27951E+01 0.00000E+00
 -1      2563 1.43442E+02 7.78963E+00 0.00000E+00
 -1      2564 1.38685E+02 3.56003E+01 0.00000E+00
 -1      2565 1.42333E+02 8.55212E+00 0.00000E+00
 -1      2566 1.34354E+02 3.41168E+01 0.00000E+00
 -1      2567 1.32582E+02 3.25714E+01 0.00000E+00
 -1      2568 1.30573E+02 3.08313E+01 0.00000E+00
 -1      2569 1.29453E+02 3.07851E+01 0.00000E+00
 -1      2570 1.30625E+02 3.16245E+01 0.00000E+00
 -1      2571 1.28538E+02 2.69965E+01 0.00000E+00
 -1      2572 1.28531E+02 2.23108E+01 0.00000E+00
 -1      2573 1.29037E+02 2.00760E+01 0.00000E+00
 -1      2574 1.33501E+02 1.48370E+01 0.00000E+00
 -1      2575 1.30071E+02 1.79510E+01 0.00000E+00
 -1      2576 1.31487E+02 1.61227E+01 0.00000E+00
 -1      2577 1.38144E+02 1.29746E+01 0.00000E+00
 -1      2578 1.40453E+02 1.29877E+01 0.00000E+00
 -1      2579 1.43851E+02 1.45865E+01 0.00000E+00
 -1      2580 1.44525E+02 1.49914E+01 0.00000E+00
 -1      2581 1.28504E+02 2.46025E+01 0.00000E+00
 -1      2582 1.43066E+02 1.20326E+01 0.00000E+00
 -1      2583 9.09300E+00 1.98250E+01 0.00000E+00
 -1      2584 9.09300E+00 2.12750E+01 0.00000E+00
 -1      2585 9.09300E+00 2.27500E+01 0.00000E+00
 -1      2586 9.09300E+00 2.42250E+01 0.00000E+00
 -1      2587 1.03920E+01 2.20250E+01 0.00000E+00
 -1      2588 9.09300E+00 1.39375E+01 0.00000E+00
 -1      2589 9.09300E+00 1.54125E+01 0.00000E+00
 -1      2590 9.09300E+00 1.09875E+01 0.00000E+00
 -1      2591 9.09300E+00 1.24625E+01 0.00000E+00
 -1      2592 1.03920E+01 1.32000E+01 0.00000E+00
 -1      2593 7.85850E+00 3.92077E+01 0.00000E+00
 -1      2594 1.14000E+01 4.09070E+01 0.00000E+00
 -1      2595 1.29000E+01 4.09070E+01 0.00000E+00
 -1      2596 1.22850E+01 7.90325E+00 0.00000E+00
 -1      2597 1.07850E+01 7.90325E+00 0.00000E+00
 -1      2598 1.43661E+02 3.46617E+01 0.00000E+00
 -1      2599 1.43260E+02 3.54517E+01 0.00000E+00
 -1      2600 1.39068E+02 3.66384E+01 0.00000E+00
 -1      2601 1.37928E+02 3.64072E+01 0.00000E+00
 -1      2602 1.44000E+01 4.09070E+01 0.00000E+00
 -1      2603 1.59000E+01 4.09070E+01 0.00000E+00
 -1      2604 1.36500E+01 3.96080E+01 0.00000E+00
 -1      2605 1.74000E+01 4.09070E+01 0.00000E+00
 -1      2606 1.89000E+01 4.09070E+01 0.00000E+00
 -1      2607 1.66500E+01 3.96080E+01 0.00000E+00
 -1      2608 2.04000E+01 4.09070E+01 0.00000E+00
 -1      2609 2.19000E+01 4.09070E+01 0.00000E+00
 -1      2610 1.96500E+01 3.96080E+01 0.00000E+00
 -1      2611 2.34000E+01 4.09070E+01 0.00000E+00
 -1      2612 2.49000E+01 4.09070E+01 0.00000E+00
 -1      2613 2.26500E+01 3.96080E+01 0.00000E+00
 -1      2614 2.64000E+01 4.09070E+01 0.00000E+00
 -1      2615 2.79000E+01 4.09070E+01 0.00000E+00
 -1      2616 2.56500E+01 3.96080E+01 0.00000E+00
 -1      2617 2.94000E+01 4.09070E+01 0.00000E+00
 -1      2618 3.09000E+01 4.09070E+01 0.00000E+00
 -1      2619 2.86500E+01 3.96080E+01 0.00000E+00
 -1      2620 3.24000E+01 4.09070E+01 0.00000E+00
 -1      2621 3.39000E+01 4.09070E+01 0.00000E+00
 -1      2622 3.16500E+01 3.96080E+01 0.00000E+00
 -1      2623 3.54000E+01 4.09070E+01 0.00000E+00
 -1      2624 3.69000E+01 4.09070E+01 0.00000E+00
 -1      2625 3.46500E+01 3.96080E+01 0.00000E+00
 -1      2626 3.84000E+01 4.09070E+01 0.00000E+00
 -1      2627 3.99000E+01 4.09070E+01 0.00000E+00
 -1      2628 3.76500E+01 3.96080E+01 0.00000E+00
 -1      2629 4.14000E+01 4.09070E+01 0.00000E+00
 -1      2630 4.29000E+01 4.09070E+01 0.00000E+00
 -1      2631 4.06500E+01 3.96080E+01 0.00000E+00
 -1      2632 4.44000E+01 4.09070E+01 0.00000E+00
 -1      2633 4.59000E+01 4.09070E+01 0.00000E+00
 -1      2634 4.36500E+01 3.96080E+01 0.00000E+00
 -1      2635 4.74000E+01 4.09070E+01 0.00000E+00
 -1      2636 4.89000E+01 4.09070E+01 0.00000E+00
 -1      2637 4.66500E+01 3.96080E+01 0.00000E+00
 -1      2638 5.04000E+01 4.09070E+01 0.00000E+00
 -1      2639 5.19000E+01 4.09070E+01 0.00000E+00
 -1      2640 4.96500E+01 3.96080E+01 0.00000E+00
 -1      2641 5.34000E+01 4.09070E+01 0.00000E+00
 -1      2642 5.49000E+01 4.09070E+01 0.00000E+00
 -1      2643 5.26500E+01 3.96080E+01 0.00000E+00
 -1      2644 5.64000E+01 4.09070E+01 0.00000E+00
 -1      2645 5.79000E+01 4.09070E+01 0.00000E+00
 -1      2646 5.56500E+01 3.96080E+01 0.00000E+00
 -1      2647 5.94000E+01 4.09070E+01 0.00000E+00
 -1      2648 6.09000E+01 4.09070E+01 0.00000E+00
 -1      2649 5.86500E+01 3.96080E+01 0.00000E+00
 -1      2650 6.24000E+01 4.09070E+01 0.00000E+00
 -1      2651 6.39000E+01 4.09070E+01 0.00000E+00
 -1      2652 6.16500E+01 3.96080E+01 0.00000E+00
 -1      2653 6.54000E+01 4.09070E+01 0.00000E+00
 -1      2654 6.69000E+01 4.09070E+01 0.00000E+00
 -1      2655 6.46500E+01 3.96080E+01 0.00000E+00
 -1      2656 6.84000E+01 4.09070E+01 0.00000E+00
 -1      2657 6.99000E+01 4.09070E+01 0.00000E+00
 -1      2658 6.76500E+01 3.96080E+01 0.00000E+00
 -1      2659 7.14000E+01 4.09070E+01 0.00000E+00
 -1      2660 7.29000E+01 4.09070E+01 0.00000E+00
 -1      2661 7.06500E+01 3.96080E+01 0.00000E+00
 -1      2662 7.44000E+01 4.09070E+01 0.00000E+00
 -1      2663 7.59000E+01 4.09070E+01 0.00000E+00
 -1      2664 7.36500E+01 3.96080E+01 0.00000E+00
 -1      2665 7.74000E+01 4.09070E+01 0.00000E+00
 -1      2666 7.89000E+01 4.09070E+01 0.00000E+00
 -1      2667 7.66500E+01 3.96080E+01 0.00000E+00
 -1      2668 8.04000E+01 4.09070E+01 0.00000E+00
 -1      2669 8.19000E+01 4.09070E+01 0.00000E+00
 -1      2670 7.96500E+01 3.96080E+01 0.00000E+00
 -1      2671 8.34000E+01 4.09070E+01 0.00000E+00
 -1      2672 8.49000E+01 4.09070E+01 0.00000E+00
 -1      2673 8.26500E+01 3.96080E+01 0.00000E+00
 -1      2674 8.64000E+01 4.09070E+01 0.00000E+00
 -1      2675 8.79000E+01 4.09070E+01 0.00000E+00
 -1      2676 8.56500E+01 3.96080E+01 0.00000E+00
 -1      2677 8.94000E+01 4.09070E+01 0.00000E+00
 -1      2678 9.09000E+01 4.09070E+01 0.00000E+00
 -1      2679 8.86500E+01 3.96080E+01 0.00000E+00
 -1      2680 9.24000E+01 4.09070E+01 0.00000E+00
 -1      2681 9.39000E+01 4.09070E+01 0.00000E+00
 -1      2682 9.16500E+01 3.96080E+01 0.00000E+00
 -1      2683 9.54000E+01 4.09070E+01 0.00000E+00
 -1      2684 9.69000E+01 4.09070E+01 0.00000E+00
 -1      2685 9.46500E+01 3.96080E+01 0.00000E+00
 -1      2686 9.84000E+01 4.09070E+01 0.00000E+00
 -1      2687 9.99000E+01 4.09070E+01 0.00000E+00
 -1      2688 9.76500E+01 3.96080E+01 0.00000E+00
 -1      2689 1.01400E+02 4.09070E+01 0.00000E+00
 -1      2690 1.02900E+02 4.09070E+01 0.00000E+00
 -1      2691 1.00650E+02 3.96080E+01 0.00000E+00
 -1      2692 1.04400E+02 4.09070E+01 0.00000E+00
 -1      2693 1.05900E+02 4.09070E+01 0.00000E+00
 -1      2694 1.03650E+02 3.96080E+01 0.00000E+00
 -1      2695 1.07400E+02 4.09070E+01 0.00000E+00
 -1      2696 1.08900E+02 4.09070E+01 0.00000E+00
 -1      2697 1.06650E+02 3.96080E+01 0.00000E+00
 -1      2698 1.10400E+02 4.09070E+01 0.00000E+00
 -1      2699 1.11900E+02 4.09070E+01 0.00000E+00
 -1      2700 1.09650E+02 3.96080E+01 0.00000E+00
 -1      2701 1.13400E+02 4.09070E+01 0.00000E+00
 -1      2702 1.14900E+02 4.09070E+01 0.00000E+00
 -1      2703 1.12650E+02 3.96080E+01 0.00000E+00
 -1      2704 1.16400E+02 4.09070E+01 0.00000E+00
 -1      2705 1.17900E+02 4.09070E+01 0.00000E+00
 -1      2706 1.15650E+02 3.96080E+01 0.00000E+00
 -1      2707 1.19400E+02 4.09070E+01 0.00000E+00
 -1      2708 1.20900E+02 4.09070E+01 0.00000E+00
 -1      2709 1.18650E+02 3.96080E+01 0.00000E+00
 -1      2710 1.22400E+02 4.09070E+01 0.00000E+00
 -1      2711 1.23900E+02 4.09070E+01 0.00000E+00
 -1      2712 1.21650E+02 3.96080E+01 0.00000E+00
 -1      2713 1.25400E+02 4.09070E+01 0.00000E+00
 -1      2714 1.26900E+02 4.09070E+01 0.00000E+00
 -1      2715 1.24650E+02 3.96080E+01 0.00000E+00
 -1      2716 1.28400E+02 4.09070E+01 0.00000E+00
 -1      2717 1.29900E+02 4.09070E+01 0.00000E+00
 -1      2718 1.27650E+02 3.96080E+01 0.00000E+00
 -1      2719 1.31400E+02 4.09070E+01 0.00000E+00
 -1      2720 1.32900E+02 4.09070E+01 0.00000E+00
 -1      2721 1.30650E+02 3.96080E+01 0.00000E+00
 -1      2722 1.34400E+02 4.09070E+01 0.00000E+00
 -1      2723 1.35900E+02 4.09070E+01 0.00000E+00
 -1      2724 1.33650E+02 3.96080E+01 0.00000E+00
 -1      2725 1.37480E+02 3.98257E+01 0.00000E+00
 -1      2726 1.38980E+02 3.98257E+01 0.00000E+00
 -1      2727 2.12850E+01 7.90325E+00 0.00000E+00
 -1      2728 1.97850E+01 7.90325E+00 0.00000E+00
 -1      2729 2.42850E+01 7.90325E+00 0.00000E+00
 -1      2730 2.27850E+01 7.90325E+00 0.00000E+00
 -1      2731 2.20350E+01 9.20225E+00 0.00000E+00
 -1      2732 8.91450E+00 8.42712E+00 0.00000E+00
 -1      2733 2.72850E+01 7.90325E+00 0.00000E+00
 -1      2734 2.57850E+01 7.90325E+00 0.00000E+00
 -1      2735 2.50350E+01 9.20225E+00 0.00000E+00
 -1      2736 3.02850E+01 7.90325E+00 0.00000E+00
 -1      2737 2.87850E+01 7.90325E+00 0.00000E+00
 -1      2738 2.80350E+01 9.20225E+00 0.00000E+00
 -1      2739 3.32850E+01 7.90325E+00 0.00000E+00
 -1      2740 3.17850E+01 7.90325E+00 0.00000E+00
 -1      2741 3.10350E+01 9.20225E+00 0.00000E+00
 -1      2742 3.62850E+01 7.90325E+00 0.00000E+00
 -1      2743 3.47850E+01 7.90325E+00 0.00000E+00
 -1      2744 3.40350E+01 9.20225E+00 0.00000E+00
 -1      2745 3.92850E+01 7.90325E+00 0.00000E+00
 -1      2746 3.77850E+01 7.90325E+00 0.00000E+00
 -1      2747 3.70350E+01 9.20225E+00 0.00000E+00
 -1      2748 4.22850E+01 7.90325E+00 0.00000E+00
 -1      2749 4.07850E+01 7.90325E+00 0.00000E+00
 -1      2750 4.00350E+01 9.20225E+00 0.00000E+00
 -1      2751 4.52850E+01 7.90325E+00 0.00000E+00
 -1      2752 4.37850E+01 7.90325E+00 0.00000E+00
 -1      2753 4.30350E+01 9.20225E+00 0.00000E+00
 -1      2754 4.82850E+01 7.90325E+00 0.00000E+00
 -1      2755 4.67850E+01 7.90325E+00 0.00000E+00
 -1      2756 4.60350E+01 9.20225E+00 0.00000E+00
 -1      2757 5.12850E+01 7.90325E+00 0.00000E+00
 -1      2758 4.97850E+01 7.90325E+00 0.00000E+00
 -1      2759 4.90350E+01 9.20225E+00 0.00000E+00
 -1      2760 5.42850E+01 7.90325E+00 0.00000E+00
 -1      2761 5.27850E+01 7.90325E+00 0.00000E+00
 -1      2762 5.20350E+01 9.20225E+00 0.00000E+00
 -1      2763 5.72850E+01 7.90325E+00 0.00000E+00
 -1      2764 5.57850E+01 7.90325E+00 0.00000E+00
 -1      2765 5.50350E+01 9.20225E+00 0.00000E+00
 -1      2766 6.02850E+01 7.90325E+00 0.00000E+00
 -1      2767 5.87850E+01 7.90325E+00 0.00000E+00
 -1      2768 5.80350E+01 9.20225E+00 0.00000E+00
 -1      2769 6.32850E+01 7.90325E+00 0.00000E+00
 -1      2770 6.17850E+01 7.90325E+00 0.00000E+00
 -1      2771 6.10350E+01 9.20225E+00 0.00000E+00
 -1      2772 6.62850E+01 7.90325E+00 0.00000E+00
 -1      2773 6.47850E+01 7.90325E+00 0.00000E+00
 -1      2774 6.40350E+01 9.20225E+00 0.00000E+00
 -1      2775 6.92850E+01 7.90325E+00 0.00000E+00
 -1      2776 6.77850E+01 7.90325E+00 0.00000E+00
 -1      2777 6.70350E+01 9.20225E+00 0.00000E+00
 -1      2778 7.22850E+01 7.90325E+00 0.00000E+00
 -1      2779 7.07850E+01 7.90325E+00 0.00000E+00
 -1      2780 7.00350E+01 9.20225E+00 0.00000E+00
 -1      2781 7.52850E+01 7.90325E+00 0.00000E+00
 -1      2782 7.37850E+01 7.90325E+00 0.00000E+00
 -1      2783 7.30350E+01 9.20225E+00 0.00000E+00
 -1      2784 7.82850E+01 7.90325E+00 0.00000E+00
 -1      2785 7.67850E+01 7.90325E+00 0.00000E+00
 -1      2786 7.60350E+01 9.20225E+00 0.00000E+00
 -1      2787 8.12850E+01 7.90325E+00 0.00000E+00
 -1      2788 7.97850E+01 7.90325E+00 0.00000E+00
 -1      2789 7.90350E+01 9.20225E+00 0.00000E+00
 -1      2790 8.42850E+01 7.90325E+00 0.00000E+00
 -1      2791 8.27850E+01 7.90325E+00 0.00000E+00
 -1      2792 8.20350E+01 9.20225E+00 0.00000E+00
 -1      2793 8.72850E+01 7.90325E+00 0.00000E+00
 -1      2794 8.57850E+01 7.90325E+00 0.00000E+00
 -1      2795 8.50350E+01 9.20225E+00 0.00000E+00
 -1      2796 9.02850E+01 7.90325E+00 0.00000E+00
 -1      2797 8.87850E+01 7.90325E+00 0.00000E+00
 -1      2798 8.80350E+01 9.20225E+00 0.00000E+00
 -1      2799 9.32850E+01 7.90325E+00 0.00000E+00
 -1      2800 9.17850E+01 7.90325E+00 0.00000E+00
 -1      2801 9.10350E+01 9.20225E+00 0.00000E+00
 -1      2802 9.62850E+01 7.90325E+00 0.00000E+00
 -1      2803 9.47850E+01 7.90325E+00 0.00000E+00
 -1      2804 9.40350E+01 9.20225E+00 0.00000E+00
 -1      2805 9.92850E+01 7.90325E+00 0.00000E+00
 -1      2806 9.77850E+01 7.90325E+00 0.00000E+00
 -1      2807 9.70350E+01 9.20225E+00 0.00000E+00
 -1      2808 1.02285E+02 7.90325E+00 0.00000E+00
 -1      2809 1.00785E+02 7.90325E+00 0.00000E+00
 -1      2810 1.00035E+02 9.20225E+00 0.00000E+00
 -1      2811 1.05285E+02 7.90325E+00 0.00000E+00
 -1      2812 1.03785E+02 7.90325E+00 0.00000E+00
 -1      2813 1.03035E+02 9.20225E+00 0.00000E+00
 -1      2814 1.08285E+02 7.90325E+00 0.00000E+00
 -1      2815 1.06785E+02 7.90325E+00 0.00000E+00
 -1      2816 1.06035E+02 9.20225E+00 0.00000E+00
 -1      2817 1.11285E+02 7.90325E+00 0.00000E+00
 -1      2818 1.09785E+02 7.90325E+00 0.00000E+00
 -1      2819 1.09035E+02 9.20225E+00 0.00000E+00
 -1      2820 1.14285E+02 7.90325E+00 0.00000E+00
 -1      2821 1.12785E+02 7.90325E+00 0.00000E+00
 -1      2822 1.12035E+02 9.20225E+00 0.00000E+00
 -1      2823 1.17285E+02 7.90325E+00 0.00000E+00
 -1      2824 1.15785E+02 7.90325E+00 0.00000E+00
 -1      2825 1.15035E+02 9.20225E+00 0.00000E+00
 -1      2826 1.20285E+02 7.90325E+00 0.00000E+00
 -1      2827 1.18785E+02 7.90325E+00 0.00000E+00
 -1      2828 1.18035E+02 9.20225E+00 0.00000E+00
 -1      2829 1.23285E+02 7.90325E+00 0.00000E+00
 -1      2830 1.21785E+02 7.90325E+00 0.00000E+00
 -1      2831 1.21035E+02 9.20225E+00 0.00000E+00
 -1      2832 1.26285E+02 7.90325E+00 0.00000E+00
 -1      2833 1.24785E+02 7.90325E+00 0.00000E+00
 -1      2834 1.24035E+02 9.20225E+00 0.00000E+00
 -1      2835 1.29285E+02 7.90325E+00 0.00000E+00
 -1      2836 1.27785E+02 7.90325E+00 0.00000E+00
 -1      2837 1.27035E+02 9.20225E+00 0.00000E+00
 -1      2838 1.32285E+02 7.90325E+00 0.00000E+00
 -1      2839 1.30785E+02 7.90325E+00 0.00000E+00
 -1      2840 1.30035E+02 9.20225E+00 0.00000E+00
 -1      2841 1.35285E+02 7.90325E+00 0.00000E+00
 -1      2842 1.33785E+02 7.90325E+00 0.00000E+00
 -1      2843 1.33035E+02 9.20225E+00 0.00000E+00
 -1      2844 1.38285E+02 7.90325E+00 0.00000E+00
 -1      2845 1.36785E+02 7.90325E+00 0.00000E+00
 -1      2846 1.36035E+02 9.20225E+00 0.00000E+00
 -1      2847 1.41059E+02 8.22769E+00 0.00000E+00
 -1      2848 1.39559E+02 8.22769E+00 0.00000E+00
 -1      2849 1.38809E+02 9.52669E+00 0.00000E+00
 -1      2850 1.41357E+02 1.01756E+01 0.00000E+00
 -1      2851 1.27677E+02 2.51607E+01 0.00000E+00
 -1      2852 1.27701E+02 2.40093E+01 0.00000E+00
 -1      2853 1.34358E+02 3.51105E+01 0.00000E+00
 -1      2854 1.33424E+02 3.44659E+01 0.00000E+00
 -1      2855 1.42147E+02 1.18523E+01 0.00000E+00
 -1      2856 1.36735E+02 3.61261E+01 0.00000E+00
 -1      2857 1.35608E+02 3.58223E+01 0.00000E+00
 -1      2858 1.32403E+02 3.35771E+01 0.00000E+00
 -1      2859 1.31566E+02 3.26763E+01 0.00000E+00
 -1      2860 1.82850E+01 7.90325E+00 0.00000E+00
 -1      2861 1.67850E+01 7.90325E+00 0.00000E+00
 -1      2862 1.90350E+01 9.20225E+00 0.00000E+00
 -1      2863 9.09300E+00 1.68813E+01 0.00000E+00
 -1      2864 9.09300E+00 1.83563E+01 0.00000E+00
 -1      2865 1.03920E+01 1.90812E+01 0.00000E+00
 -1      2866 1.03920E+01 1.61437E+01 0.00000E+00
 -1      2867 1.52850E+01 7.90325E+00 0.00000E+00
 -1      2868 1.37850E+01 7.90325E+00 0.00000E+00
 -1      2869 1.30350E+01 9.20225E+00 0.00000E+00
 -1      2870 1.60350E+01 9.20225E+00 0.00000E+00
 -1      2871 9.09300E+00 3.15875E+01 0.00000E+00
 -1      2872 9.09300E+00 3.30625E+01 0.00000E+00
 -1      2873 1.40873E+02 1.15279E+01 0.00000E+00
 -1      2874 1.39664E+02 1.13109E+01 0.00000E+00
 -1      2875 1.28969E+02 1.80355E+01 0.00000E+00
 -1      2876 1.29499E+02 1.70049E+01 0.00000E+00
 -1      2877 1.30415E+02 1.58220E+01 0.00000E+00
 -1      2878 1.31300E+02 1.50244E+01 0.00000E+00
 -1      2879 1.32597E+02 1.42939E+01 0.00000E+00
 -1      2880 1.33725E+02 1.38059E+01 0.00000E+00
 -1      2881 1.27704E+02 2.28689E+01 0.00000E+00
 -1      2882 1.27706E+02 2.17286E+01 0.00000E+00
 -1      2883 1.26876E+02 2.34271E+01 0.00000E+00
 -1      2884 1.28420E+02 2.99111E+01 0.00000E+00
 -1      2885 1.28018E+02 2.90347E+01 0.00000E+00
 -1      2886 1.27543E+02 2.76661E+01 0.00000E+00
 -1      2887 1.27485E+02 2.64234E+01 0.00000E+00
 -1      2888 1.27962E+02 2.02243E+01 0.00000E+00
 -1      2889 1.28465E+02 1.91299E+01 0.00000E+00
 -1      2890 1.27894E+02 1.81838E+01 0.00000E+00
 -1      2891 1.42791E+02 3.63743E+01 0.00000E+00
 -1      2892 1.39874E+02 3.82899E+01 0.00000E+00
 -1      2893 1.40544E+02 4.06702E+01 0.00000E+00
 -1      2894 1.03920E+01 2.49750E+01 0.00000E+00
 -1      2895 9.09300E+00 2.57000E+01 0.00000E+00
 -1      2896 9.09300E+00 2.71750E+01 0.00000E+00
 -1      2897 1.34071E+02 1.29546E+01 0.00000E+00
 -1      2898 1.37119E+02 3.71643E+01 0.00000E+00
 -1      2899 1.42044E+02 4.06702E+01 0.00000E+00
 -1      2900 1.26682E+02 2.58302E+01 0.00000E+00
 -1      2901 1.38267E+02 1.19806E+01 0.00000E+00
 -1      2902 1.38686E+02 1.05208E+01 0.00000E+00
 -1      2903 1.37412E+02 1.01963E+01 0.00000E+00
 -1      2904 1.37167E+02 1.21844E+01 0.00000E+00
 -1      2905 1.26965E+02 2.84616E+01 0.00000E+00
 -1      2906 1.42518E+02 3.95547E+01 0.00000E+00
 -1      2907 1.27134E+02 2.07825E+01 0.00000E+00
 -1      2908 1.26562E+02 1.98364E+01 0.00000E+00
 -1      2909 1.26306E+02 2.13406E+01 0.00000E+00
 -1      2910 1.42750E+02 3.76797E+01 0.00000E+00
 -1      2911 1.30446E+02 3.26302E+01 0.00000E+00
 -1      2912 9.09300E+00 2.86437E+01 0.00000E+00
 -1      2913 9.09300E+00 3.01187E+01 0.00000E+00
 -1      2914 1.03920E+01 3.08563E+01 0.00000E+00
 -1      2915 1.03920E+01 2.79188E+01 0.00000E+00
 -1      2916 1.28525E+02 3.14975E+01 0.00000E+00
 -1      2917 1.28472E+02 3.07043E+01 0.00000E+00
 -1      2918 1.27492E+02 3.06235E+01 0.00000E+00
 -1      2919 1.03920E+01 3.37938E+01 0.00000E+00
 -1      2920 9.09300E+00 3.45313E+01 0.00000E+00
 -1      2921 9.09300E+00 3.60000E+01 0.00000E+00
 -1      2922 9.66450E+00 9.72612E+00 0.00000E+00
 -1      2923 1.36306E+02 1.19184E+01 0.00000E+00
 -1      2924 1.31524E+02 1.39933E+01 0.00000E+00
 -1      2925 1.29312E+02 1.59066E+01 0.00000E+00
 -1      2926 1.40632E+02 3.74829E+01 0.00000E+00
 -1      2927 1.34677E+02 3.61714E+01 0.00000E+00
 -1      2928 1.09635E+01 1.04636E+01 0.00000E+00
 -1      2929 8.85168E+00 4.05347E+01 0.00000E+00
 -1      2930 1.02152E+01 4.07987E+01 0.00000E+00
 -1      2931 1.09652E+01 3.94997E+01 0.00000E+00
 -1      2932 1.32408E+02 3.45708E+01 0.00000E+00
 -1      2933 8.78718E+00 3.80644E+01 0.00000E+00
 -1      2934 1.16910E+01 1.24625E+01 0.00000E+00
 -1      2935 1.16910E+01 1.39375E+01 0.00000E+00
 -1      2936 1.32189E+02 3.58514E+01 0.00000E+00
 -1      2937 1.31169E+02 3.49625E+01 0.00000E+00
 -1      2938 1.35254E+02 1.15258E+01 0.00000E+00
 -1      2939 1.36238E+02 1.07978E+01 0.00000E+00
 -1      2940 1.34795E+02 3.74180E+01 0.00000E+00
 -1      2941 1.33545E+02 3.67063E+01 0.00000E+00
 -1      2942 1.36730E+02 3.85267E+01 0.00000E+00
 -1      2943 1.59000E+01 3.83090E+01 0.00000E+00
 -1      2944 1.74000E+01 3.83090E+01 0.00000E+00
 -1      2945 1.89000E+01 3.83090E+01 0.00000E+00
 -1      2946 2.04000E+01 3.83090E+01 0.00000E+00
 -1      2947 1.81500E+01 3.70100E+01 0.00000E+00
 -1      2948 2.19000E+01 3.83090E+01 0.00000E+00
 -1      2949 2.34000E+01 3.83090E+01 0.00000E+00
 -1      2950 2.11500E+01 3.70100E+01 0.00000E+00
 -1      2951 2.49000E+01 3.83090E+01 0.00000E+00
 -1      2952 2.64000E+01 3.83090E+01 0.00000E+00
 -1      2953 2.41500E+01 3.70100E+01 0.00000E+00
 -1      2954 2.79000E+01 3.83090E+01 0.00000E+00
 -1      2955 2.94000E+01 3.83090E+01 0.00000E+00
 -1      2956 2.71500E+01 3.70100E+01 0.00000E+00
 -1      2957 3.09000E+01 3.83090E+01 0.00000E+00
 -1      2958 3.24000E+01 3.83090E+01 0.00000E+00
 -1      2959 3.01500E+01 3.70100E+01 0.00000E+00
 -1      2960 3.39000E+01 3.83090E+01 0.00000E+00
 -1      2961 3.54000E+01 3.83090E+01 0.00000E+00
 -1      2962 3.31500E+01 3.70100E+01 0.00000E+00
 -1      2963 3.69000E+01 3.83090E+01 0.00000E+00
 -1      2964 3.84000E+01 3.83090E+01 0.00000E+00
 -1      2965 3.61500E+01 3.70100E+01 0.00000E+00
 -1      2966 3.99000E+01 3.83090E+01 0.00000E+00
 -1      2967 4.14000E+01 3.83090E+01 0.00000E+00
 -1      2968 3.91500E+01 3.70100E+01 0.00000E+00
 -1      2969 4.29000E+01 3.83090E+01 0.00000E+00
 -1      2970 4.44000E+01 3.83090E+01 0.00000E+00
 -1      2971 4.21500E+01 3.70100E+01 0.00000E+00
 -1      2972 4.59000E+01 3.83090E+01 0.00000E+00
 -1      2973 4.74000E+01 3.83090E+01 0.00000E+00
 -1      2974 4.51500E+01 3.70100E+01 0.00000E+00
 -1      2975 4.89000E+01 3.83090E+01 0.00000E+00
 -1      2976 5.04000E+01 3.83090E+01 0.00000E+00
 -1      2977 4.81500E+01 3.70100E+01 0.00000E+00
 -1      2978 5.19000E+01 3.83090E+01 0.00000E+00
 -1      2979 5.34000E+01 3.83090E+01 0.00000E+00
 -1      2980 5.11500E+01 3.70100E+01 0.00000E+00
 -1      2981 5.49000E+01 3.83090E+01 0.00000E+00
 -1      2982 5.64000E+01 3.83090E+01 0.00000E+00
 -1      2983 5.41500E+01 3.70100E+01 0.00000E+00
 -1      2984 5.79000E+01 3.83090E+01 0.00000E+00
 -1      2985 5.94000E+01 3.83090E+01 0.00000E+00
 -1      2986 5.71500E+01 3.70100E+01 0.00000E+00
 -1      2987 6.09000E+01 3.83090E+01 0.00000E+00
 -1      2988 6.24000E+01 3.83090E+01 0.00000E+00
 -1      2989 6.01500E+01 3.70100E+01 0.00000E+00
 -1      2990 6.39000E+01 3.83090E+01 0.00000E+00
 -1      2991 6.54000E+01 3.83090E+01 0.00000E+00
 -1      2992 6.31500E+01 3.70100E+01 0.00000E+00
 -1      2993 6.69000E+01 3.83090E+01 0.00000E+00
 -1      2994 6.84000E+01 3.83090E+01 0.00000E+00
 -1      2995 6.61500E+01 3.70100E+01 0.00000E+00
 -1      2996 6.99000E+01 3.83090E+01 0.00000E+00
 -1      2997 7.14000E+01 3.83090E+01 0.00000E+00
 -1      2998 6.91500E+01 3.70100E+01 0.00000E+00
 -1      2999 7.29000E+01 3.83090E+01 0.00000E+00
 -1      3000 7.44000E+01 3.83090E+01 0.00000E+00
 -1      3001 7.21500E+01 3.70100E+01 0.00000E+00
 -1      3002 7.59000E+01 3.83090E+01 0.00000E+00
 -1      3003 7.74000E+01 3.83090E+01 0.00000E+00
 -1      3004 7.51500E+01 3.70100E+01 0.00000E+00
 -1      3005 7.89000E+01 3.83090E+01 0.00000E+00
 -1      3006 8.04000E+01 3.83090E+01 0.00000E+00
 -1      3007 7.81500E+01 3.70100E+01 0.00000E+00
 -1      3008 8.19000E+01 3.83090E+01 0.00000E+00
 -1      3009 8.34000E+01 3.83090E+01 0.00000E+00
 -1      3010 8.11500E+01 3.70100E+01 0.00000E+00
 -1      3011 8.49000E+01 3.83090E+01 0.00000E+00
 -1      3012 8.64000E+01 3.83090E+01 0.00000E+00
 -1      3013 8.41500E+01 3.70100E+01 0.00000E+00
 -1      3014 8.79000E+01 3.83090E+01 0.00000E+00
 -1      3015 8.94000E+01 3.83090E+01 0.00000E+00
 -1      3016 8.71500E+01 3.70100E+01 0.00000E+00
 -1      3017 9.09000E+01 3.83090E+01 0.00000E+00
 -1      3018 9.24000E+01 3.83090E+01 0.00000E+00
 -1      3019 9.01500E+01 3.70100E+01 0.00000E+00
 -1      3020 9.39000E+01 3.83090E+01 0.00000E+00
 -1      3021 9.54000E+01 3.83090E+01 0.00000E+00
 -1      3022 9.31500E+01 3.70100E+01 0.00000E+00
 -1      3023 9.69000E+01 3.83090E+01 0.00000E+00
 -1      3024 9.84000E+01 3.83090E+01 0.00000E+00
 -1      3025 9.61500E+01 3.70100E+01 0.00000E+00
 -1      3026 9.99000E+01 3.83090E+01 0.00000E+00
 -1      3027 1.01400E+02 3.83090E+01 0.00000E+00
 -1      3028 9.91500E+01 3.70100E+01 0.00000E+00
 -1      3029 1.02900E+02 3.83090E+01 0.00000E+00
 -1      3030 1.04400E+02 3.83090E+01 0.00000E+00
 -1      3031 1.02150E+02 3.70100E+01 0.00000E+00
 -1      3032 1.05900E+02 3.83090E+01 0.00000E+00
 -1      3033 1.07400E+02 3.83090E+01 0.00000E+00
 -1      3034 1.05150E+02 3.70100E+01 0.00000E+00
 -1      3035 1.08900E+02 3.83090E+01 0.00000E+00
 -1      3036 1.10400E+02 3.83090E+01 0.00000E+00
 -1      3037 1.08150E+02 3.70100E+01 0.00000E+00
 -1      3038 1.11900E+02 3.83090E+01 0.00000E+00
 -1      3039 1.13400E+02 3.83090E+01 0.00000E+00
 -1      3040 1.11150E+02 3.70100E+01 0.00000E+00
 -1      3041 1.14900E+02 3.83090E+01 0.00000E+00
 -1      3042 1.16400E+02 3.83090E+01 0.00000E+00
 -1      3043 1.14150E+02 3.70100E+01 0.00000E+00
 -1      3044 1.17900E+02 3.83090E+01 0.00000E+00
 -1      3045 1.19400E+02 3.83090E+01 0.00000E+00
 -1      3046 1.17150E+02 3.70100E+01 0.00000E+00
 -1      3047 1.20900E+02 3.83090E+01 0.00000E+00
 -1      3048 1.22400E+02 3.83090E+01 0.00000E+00
 -1      3049 1.20150E+02 3.70100E+01 0.00000E+00
 -1      3050 1.23900E+02 3.83090E+01 0.00000E+00
 -1      3051 1.25400E+02 3.83090E+01 0.00000E+00
 -1      3052 1.23150E+02 3.70100E+01 0.00000E+00
 -1      3053 1.26900E+02 3.83090E+01 0.00000E+00
 -1      3054 1.28400E+02 3.83090E+01 0.00000E+00
 -1      3055 1.26150E+02 3.70100E+01 0.00000E+00
 -1      3056 1.30050E+02 3.79255E+01 0.00000E+00
 -1      3057 1.31550E+02 3.79255E+01 0.00000E+00
 -1      3058 2.27850E+01 1.05013E+01 0.00000E+00
 -1      3059 2.12850E+01 1.05013E+01 0.00000E+00
 -1      3060 3.17850E+01 1.05013E+01 0.00000E+00
 -1      3061 3.02850E+01 1.05013E+01 0.00000E+00
 -1      3062 3.47850E+01 1.05013E+01 0.00000E+00
 -1      3063 3.32850E+01 1.05013E+01 0.00000E+00
 -1      3064 3.25350E+01 1.18003E+01 0.00000E+00
 -1      3065 3.77850E+01 1.05013E+01 0.00000E+00
 -1      3066 3.62850E+01 1.05013E+01 0.00000E+00
 -1      3067 3.55350E+01 1.18003E+01 0.00000E+00
 -1      3068 4.07850E+01 1.05013E+01 0.00000E+00
 -1      3069 3.92850E+01 1.05013E+01 0.00000E+00
 -1      3070 3.85350E+01 1.18003E+01 0.00000E+00
 -1      3071 4.37850E+01 1.05013E+01 0.00000E+00
 -1      3072 4.22850E+01 1.05013E+01 0.00000E+00
 -1      3073 4.15350E+01 1.18003E+01 0.00000E+00
 -1      3074 4.67850E+01 1.05013E+01 0.00000E+00
 -1      3075 4.52850E+01 1.05013E+01 0.00000E+00
 -1      3076 4.45350E+01 1.18003E+01 0.00000E+00
 -1      3077 4.97850E+01 1.05013E+01 0.00000E+00
 -1      3078 4.82850E+01 1.05013E+01 0.00000E+00
 -1      3079 4.75350E+01 1.18003E+01 0.00000E+00
 -1      3080 5.27850E+01 1.05013E+01 0.00000E+00
 -1      3081 5.12850E+01 1.05013E+01 0.00000E+00
 -1      3082 5.05350E+01 1.18003E+01 0.00000E+00
 -1      3083 5.57850E+01 1.05013E+01 0.00000E+00
 -1      3084 5.42850E+01 1.05013E+01 0.00000E+00
 -1      3085 5.35350E+01 1.18003E+01 0.00000E+00
 -1      3086 5.87850E+01 1.05013E+01 0.00000E+00
 -1      3087 5.72850E+01 1.05013E+01 0.00000E+00
 -1      3088 5.65350E+01 1.18003E+01 0.00000E+00
 -1      3089 6.17850E+01 1.05013E+01 0.00000E+00
 -1      3090 6.02850E+01 1.05013E+01 0.00000E+00
 -1      3091 5.95350E+01 1.18003E+01 0.00000E+00
 -1      3092 6.47850E+01 1.05013E+01 0.00000E+00
 -1      3093 6.32850E+01 1.05013E+01 0.00000E+00
 -1      3094 6.25350E+01 1.18003E+01 0.00000E+00
 -1      3095 6.77850E+01 1.05013E+01 0.00000E+00
 -1      3096 6.62850E+01 1.05013E+01 0.00000E+00
 -1      3097 6.55350E+01 1.18003E+01 0.00000E+00
 -1      3098 7.07850E+01 1.05013E+01 0.00000E+00
 -1      3099 6.92850E+01 1.05013E+01 0.00000E+00
 -1      3100 6.85350E+01 1.18003E+01 0.00000E+00
 -1      3101 7.37850E+01 1.05013E+01 0.00000E+00
 -1      3102 7.22850E+01 1.05013E+01 0.00000E+00
 -1      3103 7.15350E+01 1.18003E+01 0.00000E+00
 -1      3104 7.67850E+01 1.05013E+01 0.00000E+00
 -1      3105 7.52850E+01 1.05013E+01 0.00000E+00
 -1      3106 7.45350E+01 1.18003E+01 0.00000E+00
 -1      3107 7.97850E+01 1.05013E+01 0.00000E+00
 -1      3108 7.82850E+01 1.05013E+01 0.00000E+00
 -1      3109 7.75350E+01 1.18003E+01 0.00000E+00
 -1      3110 8.27850E+01 1.05013E+01 0.00000E+00
 -1      3111 8.12850E+01 1.05013E+01 0.00000E+00
 -1      3112 8.05350E+01 1.18003E+01 0.00000E+00
 -1      3113 8.57850E+01 1.05013E+01 0.00000E+00
 -1      3114 8.42850E+01 1.05013E+01 0.00000E+00
 -1      3115 8.35350E+01 1.18003E+01 0.00000E+00
 -1      3116 8.87850E+01 1.05013E+01 0.00000E+00
 -1      3117 8.72850E+01 1.05013E+01 0.00000E+00
 -1      3118 8.65350E+01 1.18003E+01 0.00000E+00
 -1      3119 9.17850E+01 1.05013E+01 0.00000E+00
 -1      3120 9.02850E+01 1.05013E+01 0.00000E+00
 -1      3121 8.95350E+01 1.18003E+01 0.00000E+00
 -1      3122 9.47850E+01 1.05013E+01 0.00000E+00
 -1      3123 9.32850E+01 1.05013E+01 0.00000E+00
 -1      3124 9.25350E+01 1.18003E+01 0.00000E+00
 -1      3125 9.77850E+01 1.05013E+01 0.00000E+00
 -1      3126 9.62850E+01 1.05013E+01 0.00000E+00
 -1      3127 9.55350E+01 1.18003E+01 0.00000E+00
 -1      3128 1.00785E+02 1.05013E+01 0.00000E+00
 -1      3129 9.92850E+01 1.05013E+01 0.00000E+00
 -1      3130 9.85350E+01 1.18003E+01 0.00000E+00
 -1      3131 1.03785E+02 1.05013E+01 0.00000E+00
 -1      3132 1.02285E+02 1.05013E+01 0.00000E+00
 -1      3133 1.01535E+02 1.18003E+01 0.00000E+00
 -1      3134 1.06785E+02 1.05013E+01 0.00000E+00
 -1      3135 1.05285E+02 1.05013E+01 0.00000E+00
 -1      3136 1.04535E+02 1.18003E+01 0.00000E+00
 -1      3137 1.09785E+02 1.05013E+01 0.00000E+00
 -1      3138 1.08285E+02 1.05013E+01 0.00000E+00
 -1      3139 1.07535E+02 1.18003E+01 0.00000E+00
 -1      3140 1.12785E+02 1.05013E+01 0.00000E+00
 -1      3141 1.11285E+02 1.05013E+01 0.00000E+00
 -1      3142 1.10535E+02 1.18003E+01 0.00000E+00
 -1      3143 1.15785E+02 1.05013E+01 0.00000E+00
 -1      3144 1.14285E+02 1.05013E+01 0.00000E+00
 -1      3145 1.13535E+02 1.18003E+01 0.00000E+00
 -1      3146 1.18785E+02 1.05013E+01 0.00000E+00
 -1      3147 1.17285E+02 1.05013E+01 0.00000E+00
 -1      3148 1.16535E+02 1.18003E+01 0.00000E+00
 -1      3149 1.21785E+02 1.05013E+01 0.00000E+00
 -1      3150 1.20285E+02 1.05013E+01 0.00000E+00
 -1      3151 1.19535E+02 1.18003E+01 0.00000E+00
 -1      3152 1.24785E+02 1.05013E+01 0.00000E+00
 -1      3153 1.23285E+02 1.05013E+01 0.00000E+00
 -1      3154 1.22535E+02 1.18003E+01 0.00000E+00
 -1      3155 1.27785E+02 1.05013E+01 0.00000E+00
 -1      3156 1.26285E+02 1.05013E+01 0.00000E+00
 -1      3157 1.25535E+02 1.18003E+01 0.00000E+00
 -1      3158 1.33678E+02 1.12325E+01 0.00000E+00
 -1      3159 1.32178E+02 1.12325E+01 0.00000E+00
 -1      3160 1.30090E+02 3.38954E+01 0.00000E+00
 -1      3161 1.29149E+02 3.28436E+01 0.00000E+00
 -1      3162 1.97850E+01 1.05013E+01 0.00000E+00
 -1      3163 1.82850E+01 1.05013E+01 0.00000E+00
 -1      3164 2.05350E+01 1.18003E+01 0.00000E+00
 -1      3165 2.87850E+01 1.05013E+01 0.00000E+00
 -1      3166 2.72850E+01 1.05013E+01 0.00000E+00
 -1      3167 2.95350E+01 1.18003E+01 0.00000E+00
 -1      3168 1.25849E+02 2.39954E+01 0.00000E+00
 -1      3169 1.25852E+02 2.28550E+01 0.00000E+00
 -1      3170 1.29000E+01 3.83090E+01 0.00000E+00
 -1      3171 1.44000E+01 3.83090E+01 0.00000E+00
 -1      3172 1.51500E+01 3.70100E+01 0.00000E+00
 -1      3173 1.25466E+02 2.65209E+01 0.00000E+00
 -1      3174 1.25658E+02 2.52581E+01 0.00000E+00
 -1      3175 1.24634E+02 2.46860E+01 0.00000E+00
 -1      3176 1.28044E+02 1.58707E+01 0.00000E+00
 -1      3177 1.28959E+02 1.46879E+01 0.00000E+00
 -1      3178 1.26313E+02 2.94543E+01 0.00000E+00
 -1      3179 1.25838E+02 2.80857E+01 0.00000E+00
 -1      3180 1.35538E+02 3.82456E+01 0.00000E+00
 -1      3181 1.16910E+01 2.12875E+01 0.00000E+00
 -1      3182 1.16910E+01 2.27625E+01 0.00000E+00
 -1      3183 1.26787E+02 1.83375E+01 0.00000E+00
 -1      3184 1.27290E+02 1.72431E+01 0.00000E+00
 -1      3185 1.00862E+01 3.73269E+01 0.00000E+00
 -1      3186 2.57850E+01 1.05013E+01 0.00000E+00
 -1      3187 2.42850E+01 1.05013E+01 0.00000E+00
 -1      3188 2.35350E+01 1.18003E+01 0.00000E+00
 -1      3189 1.26488E+01 1.02017E+01 0.00000E+00
 -1      3190 1.20772E+01 1.14631E+01 0.00000E+00
 -1      3191 1.33763E+01 1.22006E+01 0.00000E+00
 -1      3192 1.41488E+01 1.02017E+01 0.00000E+00
 -1      3193 1.31101E+02 1.26129E+01 0.00000E+00
 -1      3194 1.30458E+02 1.05826E+01 0.00000E+00
 -1      3195 1.28958E+02 1.05826E+01 0.00000E+00
 -1      3196 1.29804E+02 1.33434E+01 0.00000E+00
 -1      3197 1.26418E+02 3.10407E+01 0.00000E+00
 -1      3198 1.26365E+02 3.02475E+01 0.00000E+00
 -1      3199 1.25239E+02 2.98716E+01 0.00000E+00
 -1      3200 1.28536E+02 1.33075E+01 0.00000E+00
 -1      3201 1.29872E+02 3.51760E+01 0.00000E+00
 -1      3202 1.28169E+02 3.27627E+01 0.00000E+00
 -1      3203 1.32307E+02 3.70980E+01 0.00000E+00
 -1      3204 1.29900E+01 2.35000E+01 0.00000E+00
 -1      3205 1.16910E+01 2.42375E+01 0.00000E+00
 -1      3206 1.16910E+01 2.57125E+01 0.00000E+00
 -1      3207 1.29300E+02 3.66265E+01 0.00000E+00
 -1      3208 2.65350E+01 1.18003E+01 0.00000E+00
 -1      3209 1.32906E+02 3.87804E+01 0.00000E+00
 -1      3210 1.34406E+02 3.87804E+01 0.00000E+00
 -1      3211 1.16910E+01 1.83500E+01 0.00000E+00
 -1      3212 1.16910E+01 1.98188E+01 0.00000E+00
 -1      3213 1.29900E+01 2.05562E+01 0.00000E+00
 -1      3214 1.25280E+02 2.19089E+01 0.00000E+00
 -1      3215 1.28208E+02 1.18816E+01 0.00000E+00
 -1      3216 1.35912E+02 1.01963E+01 0.00000E+00
 -1      3217 1.34003E+02 1.18340E+01 0.00000E+00
 -1      3218 1.41479E+02 3.78291E+01 0.00000E+00
 -1      3219 1.25959E+02 1.88956E+01 0.00000E+00
 -1      3220 1.25356E+02 1.79549E+01 0.00000E+00
 -1      3221 1.25131E+02 1.94538E+01 0.00000E+00
 -1      3222 1.16910E+01 3.01219E+01 0.00000E+00
 -1      3223 1.16910E+01 3.15906E+01 0.00000E+00
 -1      3224 1.16910E+01 3.30594E+01 0.00000E+00
 -1      3225 1.16910E+01 3.45281E+01 0.00000E+00
 -1      3226 1.29900E+01 3.23250E+01 0.00000E+00
 -1      3227 1.16910E+01 1.54094E+01 0.00000E+00
 -1      3228 1.16910E+01 1.68781E+01 0.00000E+00
 -1      3229 1.29900E+01 1.76156E+01 0.00000E+00
 -1      3230 1.29900E+01 1.46719E+01 0.00000E+00
 -1      3231 1.24814E+02 2.75136E+01 0.00000E+00
 -1      3232 1.26937E+02 1.60244E+01 0.00000E+00
 -1      3233 1.12710E+01 3.74352E+01 0.00000E+00
 -1      3234 1.20210E+01 3.61362E+01 0.00000E+00
 -1      3235 1.69669E+01 1.03515E+01 0.00000E+00
 -1      3236 1.54669E+01 1.03515E+01 0.00000E+00
 -1      3237 1.50806E+01 1.13509E+01 0.00000E+00
 -1      3238 1.77169E+01 1.16505E+01 0.00000E+00
 -1      3239 1.23359E+02 2.51385E+01 0.00000E+00
 -1      3240 1.23550E+02 2.38757E+01 0.00000E+00
 -1      3241 2.04000E+01 3.57110E+01 0.00000E+00
 -1      3242 2.19000E+01 3.57110E+01 0.00000E+00
 -1      3243 2.34000E+01 3.57110E+01 0.00000E+00
 -1      3244 2.49000E+01 3.57110E+01 0.00000E+00
 -1      3245 2.26500E+01 3.44120E+01 0.00000E+00
 -1      3246 2.64000E+01 3.57110E+01 0.00000E+00
 -1      3247 2.79000E+01 3.57110E+01 0.00000E+00
 -1      3248 2.56500E+01 3.44120E+01 0.00000E+00
 -1      3249 2.94000E+01 3.57110E+01 0.00000E+00
 -1      3250 3.09000E+01 3.57110E+01 0.00000E+00
 -1      3251 2.86500E+01 3.44120E+01 0.00000E+00
 -1      3252 3.24000E+01 3.57110E+01 0.00000E+00
 -1      3253 3.39000E+01 3.57110E+01 0.00000E+00
 -1      3254 3.16500E+01 3.44120E+01 0.00000E+00
 -1      3255 3.54000E+01 3.57110E+01 0.00000E+00
 -1      3256 3.69000E+01 3.57110E+01 0.00000E+00
 -1      3257 3.46500E+01 3.44120E+01 0.00000E+00
 -1      3258 3.84000E+01 3.57110E+01 0.00000E+00
 -1      3259 3.99000E+01 3.57110E+01 0.00000E+00
 -1      3260 3.76500E+01 3.44120E+01 0.00000E+00
 -1      3261 4.14000E+01 3.57110E+01 0.00000E+00
 -1      3262 4.29000E+01 3.57110E+01 0.00000E+00
 -1      3263 4.06500E+01 3.44120E+01 0.00000E+00
 -1      3264 4.44000E+01 3.57110E+01 0.00000E+00
 -1      3265 4.59000E+01 3.57110E+01 0.00000E+00
 -1      3266 4.36500E+01 3.44120E+01 0.00000E+00
 -1      3267 4.74000E+01 3.57110E+01 0.00000E+00
 -1      3268 4.89000E+01 3.57110E+01 0.00000E+00
 -1      3269 4.66500E+01 3.44120E+01 0.00000E+00
 -1      3270 5.04000E+01 3.57110E+01 0.00000E+00
 -1      3271 5.19000E+01 3.57110E+01 0.00000E+00
 -1      3272 4.96500E+01 3.44120E+01 0.00000E+00
 -1      3273 5.34000E+01 3.57110E+01 0.00000E+00
 -1      3274 5.49000E+01 3.57110E+01 0.00000E+00
 -1      3275 5.26500E+01 3.44120E+01 0.00000E+00
 -1      3276 5.64000E+01 3.57110E+01 0.00000E+00
 -1      3277 5.79000E+01 3.57110E+01 0.00000E+00
 -1      3278 5.56500E+01 3.44120E+01 0.00000E+00
 -1      3279 5.94000E+01 3.57110E+01 0.00000E+00
 -1      3280 6.09000E+01 3.57110E+01 0.00000E+00
 -1      3281 5.86500E+01 3.44120E+01 0.00000E+00
 -1      3282 6.24000E+01 3.57110E+01 0.00000E+00
 -1      3283 6.39000E+01 3.57110E+01 0.00000E+00
 -1      3284 6.16500E+01 3.44120E+01 0.00000E+00
 -1      3285 6.54000E+01 3.57110E+01 0.00000E+00
 -1      3286 6.69000E+01 3.57110E+01 0.00000E+00
 -1      3287 6.46500E+01 3.44120E+01 0.00000E+00
 -1      3288 6.84000E+01 3.57110E+01 0.00000E+00
 -1      3289 6.99000E+01 3.57110E+01 0.00000E+00
 -1      3290 6.76500E+01 3.44120E+01 0.00000E+00
 -1      3291 7.14000E+01 3.57110E+01 0.00000E+00
 -1      3292 7.29000E+01 3.57110E+01 0.00000E+00
 -1      3293 7.06500E+01 3.44120E+01 0.00000E+00
 -1      3294 7.44000E+01 3.57110E+01 0.00000E+00
 -1      3295 7.59000E+01 3.57110E+01 0.00000E+00
 -1      3296 7.36500E+01 3.44120E+01 0.00000E+00
 -1      3297 7.74000E+01 3.57110E+01 0.00000E+00
 -1      3298 7.89000E+01 3.57110E+01 0.00000E+00
 -1      3299 7.66500E+01 3.44120E+01 0.00000E+00
 -1      3300 8.04000E+01 3.57110E+01 0.00000E+00
 -1      3301 8.19000E+01 3.57110E+01 0.00000E+00
 -1      3302 7.96500E+01 3.44120E+01 0.00000E+00
 -1      3303 8.34000E+01 3.57110E+01 0.00000E+00
 -1      3304 8.49000E+01 3.57110E+01 0.00000E+00
 -1      3305 8.26500E+01 3.44120E+01 0.00000E+00
 -1      3306 8.64000E+01 3.57110E+01 0.00000E+00
 -1      3307 8.79000E+01 3.57110E+01 0.00000E+00
 -1      3308 8.56500E+01 3.44120E+01 0.00000E+00
 -1      3309 8.94000E+01 3.57110E+01 0.00000E+00
 -1      3310 9.09000E+01 3.57110E+01 0.00000E+00
 -1      3311 8.86500E+01 3.44120E+01 0.00000E+00
 -1      3312 9.24000E+01 3.57110E+01 0.00000E+00
 -1      3313 9.39000E+01 3.57110E+01 0.00000E+00
 -1      3314 9.16500E+01 3.44120E+01 0.00000E+00
 -1      3315 9.54000E+01 3.57110E+01 0.00000E+00
 -1      3316 9.69000E+01 3.57110E+01 0.00000E+00
 -1      3317 9.46500E+01 3.44120E+01 0.00000E+00
 -1      3318 9.84000E+01 3.57110E+01 0.00000E+00
 -1      3319 9.99000E+01 3.57110E+01 0.00000E+00
 -1      3320 9.76500E+01 3.44120E+01 0.00000E+00
 -1      3321 1.01400E+02 3.57110E+01 0.00000E+00
 -1      3322 1.02900E+02 3.57110E+01 0.00000E+00
 -1      3323 1.00650E+02 3.44120E+01 0.00000E+00
 -1      3324 1.04400E+02 3.57110E+01 0.00000E+00
 -1      3325 1.05900E+02 3.57110E+01 0.00000E+00
 -1      3326 1.03650E+02 3.44120E+01 0.00000E+00
 -1      3327 1.07400E+02 3.57110E+01 0.00000E+00
 -1      3328 1.08900E+02 3.57110E+01 0.00000E+00
 -1      3329 1.06650E+02 3.44120E+01 0.00000E+00
 -1      3330 1.10400E+02 3.57110E+01 0.00000E+00
 -1      3331 1.11900E+02 3.57110E+01 0.00000E+00
 -1      3332 1.09650E+02 3.44120E+01 0.00000E+00
 -1      3333 1.13400E+02 3.57110E+01 0.00000E+00
 -1      3334 1.14900E+02 3.57110E+01 0.00000E+00
 -1      3335 1.12650E+02 3.44120E+01 0.00000E+00
 -1      3336 1.16400E+02 3.57110E+01 0.00000E+00
 -1      3337 1.17900E+02 3.57110E+01 0.00000E+00
 -1      3338 1.15650E+02 3.44120E+01 0.00000E+00
 -1      3339 1.19400E+02 3.57110E+01 0.00000E+00
 -1      3340 1.20900E+02 3.57110E+01 0.00000E+00
 -1      3341 1.18650E+02 3.44120E+01 0.00000E+00
 -1      3342 1.22400E+02 3.57110E+01 0.00000E+00
 -1      3343 1.23900E+02 3.57110E+01 0.00000E+00
 -1      3344 1.21650E+02 3.44120E+01 0.00000E+00
 -1      3345 2.72850E+01 1.30992E+01 0.00000E+00
 -1      3346 2.57850E+01 1.30992E+01 0.00000E+00
 -1      3347 3.32850E+01 1.30992E+01 0.00000E+00
 -1      3348 3.17850E+01 1.30992E+01 0.00000E+00
 -1      3349 4.22850E+01 1.30992E+01 0.00000E+00
 -1      3350 4.07850E+01 1.30992E+01 0.00000E+00
 -1      3351 4.52850E+01 1.30992E+01 0.00000E+00
 -1      3352 4.37850E+01 1.30992E+01 0.00000E+00
 -1      3353 4.30350E+01 1.43982E+01 0.00000E+00
 -1      3354 4.82850E+01 1.30992E+01 0.00000E+00
 -1      3355 4.67850E+01 1.30992E+01 0.00000E+00
 -1      3356 4.60350E+01 1.43982E+01 0.00000E+00
 -1      3357 5.12850E+01 1.30992E+01 0.00000E+00
 -1      3358 4.97850E+01 1.30992E+01 0.00000E+00
 -1      3359 4.90350E+01 1.43982E+01 0.00000E+00
 -1      3360 5.42850E+01 1.30992E+01 0.00000E+00
 -1      3361 5.27850E+01 1.30992E+01 0.00000E+00
 -1      3362 5.20350E+01 1.43982E+01 0.00000E+00
 -1      3363 5.72850E+01 1.30992E+01 0.00000E+00
 -1      3364 5.57850E+01 1.30992E+01 0.00000E+00
 -1      3365 5.50350E+01 1.43982E+01 0.00000E+00
 -1      3366 6.02850E+01 1.30992E+01 0.00000E+00
 -1      3367 5.87850E+01 1.30992E+01 0.00000E+00
 -1      3368 5.80350E+01 1.43982E+01 0.00000E+00
 -1      3369 6.32850E+01 1.30992E+01 0.00000E+00
 -1      3370 6.17850E+01 1.30992E+01 0.00000E+00
 -1      3371 6.10350E+01 1.43982E+01 0.00000E+00
 -1      3372 6.62850E+01 1.30992E+01 0.00000E+00
 -1      3373 6.47850E+01 1.30992E+01 0.00000E+00
 -1      3374 6.40350E+01 1.43982E+01 0.00000E+00
 -1      3375 6.92850E+01 1.30992E+01 0.00000E+00
 -1      3376 6.77850E+01 1.30992E+01 0.00000E+00
 -1      3377 6.70350E+01 1.43982E+01 0.00000E+00
 -1      3378 7.22850E+01 1.30992E+01 0.00000E+00
 -1      3379 7.07850E+01 1.30992E+01 0.00000E+00
 -1      3380 7.00350E+01 1.43982E+01 0.00000E+00
 -1      3381 7.52850E+01 1.30992E+01 0.00000E+00
 -1      3382 7.37850E+01 1.30992E+01 0.00000E+00
 -1      3383 7.30350E+01 1.43982E+01 0.00000E+00
 -1      3384 7.82850E+01 1.30992E+01 0.00000E+00
 -1      3385 7.67850E+01 1.30992E+01 0.00000E+00
 -1      3386 7.60350E+01 1.43982E+01 0.00000E+00
 -1      3387 8.12850E+01 1.30992E+01 0.00000E+00
 -1      3388 7.97850E+01 1.30992E+01 0.00000E+00
 -1      3389 7.90350E+01 1.43982E+01 0.00000E+00
 -1      3390 8.42850E+01 1.30992E+01 0.00000E+00
 -1      3391 8.27850E+01 1.30992E+01 0.00000E+00
 -1      3392 8.20350E+01 1.43982E+01 0.00000E+00
 -1      3393 8.72850E+01 1.30992E+01 0.00000E+00
 -1      3394 8.57850E+01 1.30992E+01 0.00000E+00
 -1      3395 8.50350E+01 1.43982E+01 0.00000E+00
 -1      3396 9.02850E+01 1.30992E+01 0.00000E+00
 -1      3397 8.87850E+01 1.30992E+01 0.00000E+00
 -1      3398 8.80350E+01 1.43982E+01 0.00000E+00
 -1      3399 9.32850E+01 1.30992E+01 0.00000E+00
 -1      3400 9.17850E+01 1.30992E+01 0.00000E+00
 -1      3401 9.10350E+01 1.43982E+01 0.00000E+00
 -1      3402 9.62850E+01 1.30992E+01 0.00000E+00
 -1      3403 9.47850E+01 1.30992E+01 0.00000E+00
 -1      3404 9.40350E+01 1.43982E+01 0.00000E+00
 -1      3405 9.92850E+01 1.30992E+01 0.00000E+00
 -1      3406 9.77850E+01 1.30992E+01 0.00000E+00
 -1      3407 9.70350E+01 1.43982E+01 0.00000E+00
 -1      3408 1.02285E+02 1.30992E+01 0.00000E+00
 -1      3409 1.00785E+02 1.30992E+01 0.00000E+00
 -1      3410 1.00035E+02 1.43982E+01 0.00000E+00
 -1      3411 1.05285E+02 1.30992E+01 0.00000E+00
 -1      3412 1.03785E+02 1.30992E+01 0.00000E+00
 -1      3413 1.03035E+02 1.43982E+01 0.00000E+00
 -1      3414 1.08285E+02 1.30992E+01 0.00000E+00
 -1      3415 1.06785E+02 1.30992E+01 0.00000E+00
 -1      3416 1.06035E+02 1.43982E+01 0.00000E+00
 -1      3417 1.11285E+02 1.30992E+01 0.00000E+00
 -1      3418 1.09785E+02 1.30992E+01 0.00000E+00
 -1      3419 1.09035E+02 1.43982E+01 0.00000E+00
 -1      3420 1.14285E+02 1.30992E+01 0.00000E+00
 -1      3421 1.12785E+02 1.30992E+01 0.00000E+00
 -1      3422 1.12035E+02 1.43982E+01 0.00000E+00
 -1      3423 1.17285E+02 1.30992E+01 0.00000E+00
 -1      3424 1.15785E+02 1.30992E+01 0.00000E+00
 -1      3425 1.15035E+02 1.43982E+01 0.00000E+00
 -1      3426 1.20285E+02 1.30992E+01 0.00000E+00
 -1      3427 1.18785E+02 1.30992E+01 0.00000E+00
 -1      3428 1.18035E+02 1.43982E+01 0.00000E+00
 -1      3429 1.23285E+02 1.30992E+01 0.00000E+00
 -1      3430 1.21785E+02 1.30992E+01 0.00000E+00
 -1      3431 1.21035E+02 1.43982E+01 0.00000E+00
 -1      3432 1.27363E+02 1.32261E+01 0.00000E+00
 -1      3433 1.16910E+01 2.86531E+01 0.00000E+00
 -1      3434 1.29900E+01 2.93875E+01 0.00000E+00
 -1      3435 1.16910E+01 2.71844E+01 0.00000E+00
 -1      3436 3.02850E+01 1.30992E+01 0.00000E+00
 -1      3437 2.87850E+01 1.30992E+01 0.00000E+00
 -1      3438 3.10350E+01 1.43982E+01 0.00000E+00
 -1      3439 2.12850E+01 1.30992E+01 0.00000E+00
 -1      3440 1.97850E+01 1.30992E+01 0.00000E+00
 -1      3441 1.28222E+02 3.55594E+01 0.00000E+00
 -1      3442 1.27399E+02 3.39377E+01 0.00000E+00
 -1      3443 1.26775E+02 3.25916E+01 0.00000E+00
 -1      3444 3.92850E+01 1.30992E+01 0.00000E+00
 -1      3445 3.77850E+01 1.30992E+01 0.00000E+00
 -1      3446 4.00350E+01 1.43982E+01 0.00000E+00
 -1      3447 1.44000E+01 3.57110E+01 0.00000E+00
 -1      3448 1.59000E+01 3.57110E+01 0.00000E+00
 -1      3449 3.62850E+01 1.30992E+01 0.00000E+00
 -1      3450 3.47850E+01 1.30992E+01 0.00000E+00
 -1      3451 3.40350E+01 1.43982E+01 0.00000E+00
 -1      3452 3.70350E+01 1.43982E+01 0.00000E+00
 -1      3453 1.74000E+01 3.57110E+01 0.00000E+00
 -1      3454 1.89000E+01 3.57110E+01 0.00000E+00
 -1      3455 1.66500E+01 3.44120E+01 0.00000E+00
 -1      3456 1.23840E+02 2.85718E+01 0.00000E+00
 -1      3457 1.23468E+02 2.70070E+01 0.00000E+00
 -1      3458 1.25588E+02 1.61768E+01 0.00000E+00
 -1      3459 1.26342E+02 1.48044E+01 0.00000E+00
 -1      3460 1.24005E+02 2.23613E+01 0.00000E+00
 -1      3461 1.24459E+02 2.08469E+01 0.00000E+00
 -1      3462 1.22730E+02 2.28137E+01 0.00000E+00
 -1      3463 2.42850E+01 1.30992E+01 0.00000E+00
 -1      3464 2.27850E+01 1.30992E+01 0.00000E+00
 -1      3465 2.20350E+01 1.43982E+01 0.00000E+00
 -1      3466 1.26014E+02 1.33785E+01 0.00000E+00
 -1      3467 1.26828E+02 3.53883E+01 0.00000E+00
 -1      3468 1.42890E+01 2.27625E+01 0.00000E+00
 -1      3469 1.42890E+01 2.42375E+01 0.00000E+00
 -1      3470 1.24578E+02 3.40893E+01 0.00000E+00
 -1      3471 1.25328E+02 3.53883E+01 0.00000E+00
 -1      3472 2.50350E+01 1.43982E+01 0.00000E+00
 -1      3473 2.80350E+01 1.43982E+01 0.00000E+00
 -1      3474 1.90350E+01 1.43983E+01 0.00000E+00
 -1      3475 1.82850E+01 1.30993E+01 0.00000E+00
 -1      3476 1.42890E+01 1.98250E+01 0.00000E+00
 -1      3477 1.42890E+01 2.12938E+01 0.00000E+00
 -1      3478 1.55880E+01 2.20313E+01 0.00000E+00
 -1      3479 1.22384E+02 2.61967E+01 0.00000E+00
 -1      3480 1.24514E+02 1.33785E+01 0.00000E+00
 -1      3481 1.23764E+02 1.46775E+01 0.00000E+00
 -1      3482 1.25648E+02 3.22157E+01 0.00000E+00
 -1      3483 1.23945E+02 3.01582E+01 0.00000E+00
 -1      3484 1.23892E+02 2.93650E+01 0.00000E+00
 -1      3485 1.22546E+02 2.88584E+01 0.00000E+00
 -1      3486 1.29900E+01 2.64469E+01 0.00000E+00
 -1      3487 1.23856E+02 1.99062E+01 0.00000E+00
 -1      3488 1.42890E+01 2.86531E+01 0.00000E+00
 -1      3489 1.42890E+01 3.01219E+01 0.00000E+00
 -1      3490 1.42890E+01 1.39359E+01 0.00000E+00
 -1      3491 1.42890E+01 1.54078E+01 0.00000E+00
 -1      3492 1.96500E+01 3.44120E+01 0.00000E+00
 -1      3493 1.33200E+01 3.54019E+01 0.00000E+00
 -1      3494 1.40700E+01 3.41029E+01 0.00000E+00
 -1      3495 1.24857E+02 1.69262E+01 0.00000E+00
 -1      3496 1.24262E+02 1.57062E+01 0.00000E+00
 -1      3497 1.23033E+02 1.54269E+01 0.00000E+00
 -1      3498 1.24029E+02 1.74843E+01 0.00000E+00
 -1      3499 1.48779E+01 1.21437E+01 0.00000E+00
 -1      3500 1.44917E+01 1.31431E+01 0.00000E+00
 -1      3501 1.57907E+01 1.38791E+01 0.00000E+00
 -1      3502 1.61961E+01 1.22935E+01 0.00000E+00
 -1      3503 1.69669E+01 1.29495E+01 0.00000E+00
 -1      3504 1.97850E+01 1.56973E+01 0.00000E+00
 -1      3505 1.82851E+01 1.56973E+01 0.00000E+00
 -1      3506 2.57850E+01 1.56973E+01 0.00000E+00
 -1      3507 2.42850E+01 1.56973E+01 0.00000E+00
 -1      3508 2.49000E+01 3.31130E+01 0.00000E+00
 -1      3509 2.64000E+01 3.31130E+01 0.00000E+00
 -1      3510 2.79000E+01 3.31130E+01 0.00000E+00
 -1      3511 2.94000E+01 3.31130E+01 0.00000E+00
 -1      3512 2.71500E+01 3.18140E+01 0.00000E+00
 -1      3513 3.09000E+01 3.31130E+01 0.00000E+00
 -1      3514 3.24000E+01 3.31130E+01 0.00000E+00
 -1      3515 3.01500E+01 3.18140E+01 0.00000E+00
 -1      3516 3.39000E+01 3.31130E+01 0.00000E+00
 -1      3517 3.54000E+01 3.31130E+01 0.00000E+00
 -1      3518 3.31500E+01 3.18140E+01 0.00000E+00
 -1      3519 3.69000E+01 3.31130E+01 0.00000E+00
 -1      3520 3.84000E+01 3.31130E+01 0.00000E+00
 -1      3521 3.61500E+01 3.18140E+01 0.00000E+00
 -1      3522 3.99000E+01 3.31130E+01 0.00000E+00
 -1      3523 4.14000E+01 3.31130E+01 0.00000E+00
 -1      3524 3.91500E+01 3.18140E+01 0.00000E+00
 -1      3525 4.29000E+01 3.31130E+01 0.00000E+00
 -1      3526 4.44000E+01 3.31130E+01 0.00000E+00
 -1      3527 4.21500E+01 3.18140E+01 0.00000E+00
 -1      3528 4.59000E+01 3.31130E+01 0.00000E+00
 -1      3529 4.74000E+01 3.31130E+01 0.00000E+00
 -1      3530 4.51500E+01 3.18140E+01 0.00000E+00
 -1      3531 4.89000E+01 3.31130E+01 0.00000E+00
 -1      3532 5.04000E+01 3.31130E+01 0.00000E+00
 -1      3533 4.81500E+01 3.18140E+01 0.00000E+00
 -1      3534 5.19000E+01 3.31130E+01 0.00000E+00
 -1      3535 5.34000E+01 3.31130E+01 0.00000E+00
 -1      3536 5.11500E+01 3.18140E+01 0.00000E+00
 -1      3537 5.49000E+01 3.31130E+01 0.00000E+00
 -1      3538 5.64000E+01 3.31130E+01 0.00000E+00
 -1      3539 5.41500E+01 3.18140E+01 0.00000E+00
 -1      3540 5.79000E+01 3.31130E+01 0.00000E+00
 -1      3541 5.94000E+01 3.31130E+01 0.00000E+00
 -1      3542 5.71500E+01 3.18140E+01 0.00000E+00
 -1      3543 6.09000E+01 3.31130E+01 0.00000E+00
 -1      3544 6.24000E+01 3.31130E+01 0.00000E+00
 -1      3545 6.01500E+01 3.18140E+01 0.00000E+00
 -1      3546 6.39000E+01 3.31130E+01 0.00000E+00
 -1      3547 6.54000E+01 3.31130E+01 0.00000E+00
 -1      3548 6.31500E+01 3.18140E+01 0.00000E+00
 -1      3549 6.69000E+01 3.31130E+01 0.00000E+00
 -1      3550 6.84000E+01 3.31130E+01 0.00000E+00
 -1      3551 6.61500E+01 3.18140E+01 0.00000E+00
 -1      3552 6.99000E+01 3.31130E+01 0.00000E+00
 -1      3553 7.14000E+01 3.31130E+01 0.00000E+00
 -1      3554 6.91500E+01 3.18140E+01 0.00000E+00
 -1      3555 7.29000E+01 3.31130E+01 0.00000E+00
 -1      3556 7.44000E+01 3.31130E+01 0.00000E+00
 -1      3557 7.21500E+01 3.18140E+01 0.00000E+00
 -1      3558 7.59000E+01 3.31130E+01 0.00000E+00
 -1      3559 7.74000E+01 3.31130E+01 0.00000E+00
 -1      3560 7.51500E+01 3.18140E+01 0.00000E+00
 -1      3561 7.89000E+01 3.31130E+01 0.00000E+00
 -1      3562 8.04000E+01 3.31130E+01 0.00000E+00
 -1      3563 7.81500E+01 3.18140E+01 0.00000E+00
 -1      3564 8.19000E+01 3.31130E+01 0.00000E+00
 -1      3565 8.34000E+01 3.31130E+01 0.00000E+00
 -1      3566 8.11500E+01 3.18140E+01 0.00000E+00
 -1      3567 8.49000E+01 3.31130E+01 0.00000E+00
 -1      3568 8.64000E+01 3.31130E+01 0.00000E+00
 -1      3569 8.41500E+01 3.18140E+01 0.00000E+00
 -1      3570 8.79000E+01 3.31130E+01 0.00000E+00
 -1      3571 8.94000E+01 3.31130E+01 0.00000E+00
 -1      3572 8.71500E+01 3.18140E+01 0.00000E+00
 -1      3573 9.09000E+01 3.31130E+01 0.00000E+00
 -1      3574 9.24000E+01 3.31130E+01 0.00000E+00
 -1      3575 9.01500E+01 3.18140E+01 0.00000E+00
 -1      3576 9.39000E+01 3.31130E+01 0.00000E+00
 -1      3577 9.54000E+01 3.31130E+01 0.00000E+00
 -1      3578 9.31500E+01 3.18140E+01 0.00000E+00
 -1      3579 9.69000E+01 3.31130E+01 0.00000E+00
 -1      3580 9.84000E+01 3.31130E+01 0.00000E+00
 -1      3581 9.61500E+01 3.18140E+01 0.00000E+00
 -1      3582 9.99000E+01 3.31130E+01 0.00000E+00
 -1      3583 1.01400E+02 3.31130E+01 0.00000E+00
 -1      3584 9.91500E+01 3.18140E+01 0.00000E+00
 -1      3585 1.02900E+02 3.31130E+01 0.00000E+00
 -1      3586 1.04400E+02 3.31130E+01 0.00000E+00
 -1      3587 1.02150E+02 3.18140E+01 0.00000E+00
 -1      3588 1.05900E+02 3.31130E+01 0.00000E+00
 -1      3589 1.07400E+02 3.31130E+01 0.00000E+00
 -1      3590 1.05150E+02 3.18140E+01 0.00000E+00
 -1      3591 1.08900E+02 3.31130E+01 0.00000E+00
 -1      3592 1.10400E+02 3.31130E+01 0.00000E+00
 -1      3593 1.08150E+02 3.18140E+01 0.00000E+00
 -1      3594 1.11900E+02 3.31130E+01 0.00000E+00
 -1      3595 1.13400E+02 3.31130E+01 0.00000E+00
 -1      3596 1.11150E+02 3.18140E+01 0.00000E+00
 -1      3597 1.14900E+02 3.31130E+01 0.00000E+00
 -1      3598 1.16400E+02 3.31130E+01 0.00000E+00
 -1      3599 1.14150E+02 3.18140E+01 0.00000E+00
 -1      3600 1.17900E+02 3.31130E+01 0.00000E+00
 -1      3601 1.19400E+02 3.31130E+01 0.00000E+00
 -1      3602 1.17150E+02 3.18140E+01 0.00000E+00
 -1      3603 1.21374E+02 3.20318E+01 0.00000E+00
 -1      3604 1.22874E+02 3.20318E+01 0.00000E+00
 -1      3605 1.24221E+02 3.25384E+01 0.00000E+00
 -1      3606 4.37850E+01 1.56973E+01 0.00000E+00
 -1      3607 4.22850E+01 1.56973E+01 0.00000E+00
 -1      3608 5.27850E+01 1.56973E+01 0.00000E+00
 -1      3609 5.12850E+01 1.56973E+01 0.00000E+00
 -1      3610 5.57850E+01 1.56973E+01 0.00000E+00
 -1      3611 5.42850E+01 1.56973E+01 0.00000E+00
 -1      3612 5.35350E+01 1.69963E+01 0.00000E+00
 -1      3613 5.87850E+01 1.56973E+01 0.00000E+00
 -1      3614 5.72850E+01 1.56973E+01 0.00000E+00
 -1      3615 5.65350E+01 1.69963E+01 0.00000E+00
 -1      3616 6.17850E+01 1.56973E+01 0.00000E+00
 -1      3617 6.02850E+01 1.56973E+01 0.00000E+00
 -1      3618 5.95350E+01 1.69963E+01 0.00000E+00
 -1      3619 6.47850E+01 1.56973E+01 0.00000E+00
 -1      3620 6.32850E+01 1.56973E+01 0.00000E+00
 -1      3621 6.25350E+01 1.69963E+01 0.00000E+00
 -1      3622 6.77850E+01 1.56973E+01 0.00000E+00
 -1      3623 6.62850E+01 1.56973E+01 0.00000E+00
 -1      3624 6.55350E+01 1.69963E+01 0.00000E+00
 -1      3625 7.07850E+01 1.56973E+01 0.00000E+00
 -1      3626 6.92850E+01 1.56973E+01 0.00000E+00
 -1      3627 6.85350E+01 1.69963E+01 0.00000E+00
 -1      3628 7.37850E+01 1.56973E+01 0.00000E+00
 -1      3629 7.22850E+01 1.56973E+01 0.00000E+00
 -1      3630 7.15350E+01 1.69963E+01 0.00000E+00
 -1      3631 7.67850E+01 1.56973E+01 0.00000E+00
 -1      3632 7.52850E+01 1.56973E+01 0.00000E+00
 -1      3633 7.45350E+01 1.69963E+01 0.00000E+00
 -1      3634 7.97850E+01 1.56973E+01 0.00000E+00
 -1      3635 7.82850E+01 1.56973E+01 0.00000E+00
 -1      3636 7.75350E+01 1.69963E+01 0.00000E+00
 -1      3637 8.27850E+01 1.56973E+01 0.00000E+00
 -1      3638 8.12850E+01 1.56973E+01 0.00000E+00
 -1      3639 8.05350E+01 1.69963E+01 0.00000E+00
 -1      3640 8.57850E+01 1.56973E+01 0.00000E+00
 -1      3641 8.42850E+01 1.56973E+01 0.00000E+00
 -1      3642 8.35350E+01 1.69963E+01 0.00000E+00
 -1      3643 8.87850E+01 1.56973E+01 0.00000E+00
 -1      3644 8.72850E+01 1.56973E+01 0.00000E+00
 -1      3645 8.65350E+01 1.69963E+01 0.00000E+00
 -1      3646 9.17850E+01 1.56973E+01 0.00000E+00
 -1      3647 9.02850E+01 1.56973E+01 0.00000E+00
 -1      3648 8.95350E+01 1.69963E+01 0.00000E+00
 -1      3649 9.47850E+01 1.56973E+01 0.00000E+00
 -1      3650 9.32850E+01 1.56973E+01 0.00000E+00
 -1      3651 9.25350E+01 1.69963E+01 0.00000E+00
 -1      3652 9.77850E+01 1.56973E+01 0.00000E+00
 -1      3653 9.62850E+01 1.56973E+01 0.00000E+00
 -1      3654 9.55350E+01 1.69963E+01 0.00000E+00
 -1      3655 1.00785E+02 1.56973E+01 0.00000E+00
 -1      3656 9.92850E+01 1.56973E+01 0.00000E+00
 -1      3657 9.85350E+01 1.69963E+01 0.00000E+00
 -1      3658 1.03785E+02 1.56973E+01 0.00000E+00
 -1      3659 1.02285E+02 1.56973E+01 0.00000E+00
 -1      3660 1.01535E+02 1.69963E+01 0.00000E+00
 -1      3661 1.06785E+02 1.56973E+01 0.00000E+00
 -1      3662 1.05285E+02 1.56973E+01 0.00000E+00
 -1      3663 1.04535E+02 1.69963E+01 0.00000E+00
 -1      3664 1.09785E+02 1.56973E+01 0.00000E+00
 -1      3665 1.08285E+02 1.56973E+01 0.00000E+00
 -1      3666 1.07535E+02 1.69963E+01 0.00000E+00
 -1      3667 1.12785E+02 1.56973E+01 0.00000E+00
 -1      3668 1.11285E+02 1.56973E+01 0.00000E+00
 -1      3669 1.10535E+02 1.69963E+01 0.00000E+00
 -1      3670 1.15785E+02 1.56973E+01 0.00000E+00
 -1      3671 1.14285E+02 1.56973E+01 0.00000E+00
 -1      3672 1.13535E+02 1.69963E+01 0.00000E+00
 -1      3673 1.18785E+02 1.56973E+01 0.00000E+00
 -1      3674 1.17285E+02 1.56973E+01 0.00000E+00
 -1      3675 1.16535E+02 1.69963E+01 0.00000E+00
 -1      3676 1.21659E+02 1.55621E+01 0.00000E+00
 -1      3677 1.20159E+02 1.55621E+01 0.00000E+00
 -1      3678 1.19409E+02 1.68611E+01 0.00000E+00
 -1      3679 1.22157E+02 1.65908E+01 0.00000E+00
 -1      3680 4.07850E+01 1.56973E+01 0.00000E+00
 -1      3681 3.92850E+01 1.56973E+01 0.00000E+00
 -1      3682 4.15350E+01 1.69963E+01 0.00000E+00
 -1      3683 1.42890E+01 3.15906E+01 0.00000E+00
 -1      3684 1.42890E+01 3.30594E+01 0.00000E+00
 -1      3685 1.42890E+01 2.71812E+01 0.00000E+00
 -1      3686 1.55880E+01 2.79156E+01 0.00000E+00
 -1      3687 1.42890E+01 2.57094E+01 0.00000E+00
 -1      3688 1.34860E+02 9.80374E+00 0.00000E+00
 -1      3689 3.17850E+01 1.56973E+01 0.00000E+00
 -1      3690 3.02850E+01 1.56973E+01 0.00000E+00
 -1      3691 1.55880E+01 1.61437E+01 0.00000E+00
 -1      3692 1.42890E+01 1.68797E+01 0.00000E+00
 -1      3693 1.42890E+01 1.83516E+01 0.00000E+00
 -1      3694 2.27850E+01 1.56973E+01 0.00000E+00
 -1      3695 2.12850E+01 1.56973E+01 0.00000E+00
 -1      3696 2.05350E+01 1.69963E+01 0.00000E+00
 -1      3697 2.35350E+01 1.69963E+01 0.00000E+00
 -1      3698 1.89000E+01 3.31130E+01 0.00000E+00
 -1      3699 2.04000E+01 3.31130E+01 0.00000E+00
 -1      3700 1.21142E+02 2.72066E+01 0.00000E+00
 -1      3701 1.21033E+02 2.53380E+01 0.00000E+00
 -1      3702 1.55880E+01 2.49719E+01 0.00000E+00
 -1      3703 1.55880E+01 3.08563E+01 0.00000E+00
 -1      3704 1.68870E+01 3.01219E+01 0.00000E+00
 -1      3705 1.68870E+01 3.15906E+01 0.00000E+00
 -1      3706 1.53690E+01 3.33685E+01 0.00000E+00
 -1      3707 1.21258E+02 2.31976E+01 0.00000E+00
 -1      3708 1.21713E+02 2.16832E+01 0.00000E+00
 -1      3709 4.67850E+01 1.56973E+01 0.00000E+00
 -1      3710 4.52850E+01 1.56973E+01 0.00000E+00
 -1      3711 4.45350E+01 1.69963E+01 0.00000E+00
 -1      3712 2.87850E+01 1.56973E+01 0.00000E+00
 -1      3713 2.72850E+01 1.56973E+01 0.00000E+00
 -1      3714 2.65350E+01 1.69963E+01 0.00000E+00
 -1      3715 2.95350E+01 1.69963E+01 0.00000E+00
 -1      3716 1.68690E+01 3.33685E+01 0.00000E+00
 -1      3717 2.19000E+01 3.31130E+01 0.00000E+00
 -1      3718 2.34000E+01 3.31130E+01 0.00000E+00
 -1      3719 2.11500E+01 3.18140E+01 0.00000E+00
 -1      3720 1.22521E+02 2.01212E+01 0.00000E+00
 -1      3721 1.23193E+02 1.87280E+01 0.00000E+00
 -1      3722 4.97850E+01 1.56973E+01 0.00000E+00
 -1      3723 4.82850E+01 1.56973E+01 0.00000E+00
 -1      3724 5.05350E+01 1.69963E+01 0.00000E+00
 -1      3725 1.81680E+01 3.26341E+01 0.00000E+00
 -1      3726 1.22695E+02 1.76993E+01 0.00000E+00
 -1      3727 1.68870E+01 2.86500E+01 0.00000E+00
 -1      3728 1.81860E+01 2.93844E+01 0.00000E+00
 -1      3729 1.68870E+01 2.71781E+01 0.00000E+00
 -1      3730 1.20624E+02 3.07328E+01 0.00000E+00
 -1      3731 1.55880E+01 1.90891E+01 0.00000E+00
 -1      3732 1.68870E+01 2.12969E+01 0.00000E+00
 -1      3733 1.68870E+01 2.27656E+01 0.00000E+00
 -1      3734 2.41500E+01 3.18140E+01 0.00000E+00
 -1      3735 1.21050E+02 2.05050E+01 0.00000E+00
 -1      3736 3.32850E+01 1.56973E+01 0.00000E+00
 -1      3737 3.25350E+01 1.69963E+01 0.00000E+00
 -1      3738 3.47850E+01 1.56973E+01 0.00000E+00
 -1      3739 1.20016E+02 2.42075E+01 0.00000E+00
 -1      3740 1.68870E+01 2.42359E+01 0.00000E+00
 -1      3741 1.68870E+01 2.57078E+01 0.00000E+00
 -1      3742 1.81860E+01 2.64422E+01 0.00000E+00
 -1      3743 1.81860E+01 2.35016E+01 0.00000E+00
 -1      3744 3.85350E+01 1.69963E+01 0.00000E+00
 -1      3745 3.77850E+01 1.56973E+01 0.00000E+00
 -1      3746 3.62850E+01 1.56973E+01 0.00000E+00
 -1      3747 4.75350E+01 1.69963E+01 0.00000E+00
 -1      3748 2.94000E+01 3.05150E+01 0.00000E+00
 -1      3749 3.09000E+01 3.05150E+01 0.00000E+00
 -1      3750 3.24000E+01 3.05150E+01 0.00000E+00
 -1      3751 3.39000E+01 3.05150E+01 0.00000E+00
 -1      3752 3.16500E+01 2.92160E+01 0.00000E+00
 -1      3753 3.54000E+01 3.05150E+01 0.00000E+00
 -1      3754 3.69000E+01 3.05150E+01 0.00000E+00
 -1      3755 3.46500E+01 2.92160E+01 0.00000E+00
 -1      3756 3.84000E+01 3.05150E+01 0.00000E+00
 -1      3757 3.99000E+01 3.05150E+01 0.00000E+00
 -1      3758 3.76500E+01 2.92160E+01 0.00000E+00
 -1      3759 4.14000E+01 3.05150E+01 0.00000E+00
 -1      3760 4.29000E+01 3.05150E+01 0.00000E+00
 -1      3761 4.06500E+01 2.92160E+01 0.00000E+00
 -1      3762 4.44000E+01 3.05150E+01 0.00000E+00
 -1      3763 4.59000E+01 3.05150E+01 0.00000E+00
 -1      3764 4.36500E+01 2.92160E+01 0.00000E+00
 -1      3765 4.74000E+01 3.05150E+01 0.00000E+00
 -1      3766 4.89000E+01 3.05150E+01 0.00000E+00
 -1      3767 4.66500E+01 2.92160E+01 0.00000E+00
 -1      3768 5.04000E+01 3.05150E+01 0.00000E+00
 -1      3769 5.19000E+01 3.05150E+01 0.00000E+00
 -1      3770 4.96500E+01 2.92160E+01 0.00000E+00
 -1      3771 5.34000E+01 3.05150E+01 0.00000E+00
 -1      3772 5.49000E+01 3.05150E+01 0.00000E+00
 -1      3773 5.26500E+01 2.92160E+01 0.00000E+00
 -1      3774 5.64000E+01 3.05150E+01 0.00000E+00
 -1      3775 5.79000E+01 3.05150E+01 0.00000E+00
 -1      3776 5.56500E+01 2.92160E+01 0.00000E+00
 -1      3777 5.94000E+01 3.05150E+01 0.00000E+00
 -1      3778 6.09000E+01 3.05150E+01 0.00000E+00
 -1      3779 5.86500E+01 2.92160E+01 0.00000E+00
 -1      3780 6.24000E+01 3.05150E+01 0.00000E+00
 -1      3781 6.39000E+01 3.05150E+01 0.00000E+00
 -1      3782 6.16500E+01 2.92160E+01 0.00000E+00
 -1      3783 6.54000E+01 3.05150E+01 0.00000E+00
 -1      3784 6.69000E+01 3.05150E+01 0.00000E+00
 -1      3785 6.46500E+01 2.92160E+01 0.00000E+00
 -1      3786 6.84000E+01 3.05150E+01 0.00000E+00
 -1      3787 6.99000E+01 3.05150E+01 0.00000E+00
 -1      3788 6.76500E+01 2.92160E+01 0.00000E+00
 -1      3789 7.14000E+01 3.05150E+01 0.00000E+00
 -1      3790 7.29000E+01 3.05150E+01 0.00000E+00
 -1      3791 7.06500E+01 2.92160E+01 0.00000E+00
 -1      3792 7.44000E+01 3.05150E+01 0.00000E+00
 -1      3793 7.59000E+01 3.05150E+01 0.00000E+00
 -1      3794 7.36500E+01 2.92160E+01 0.00000E+00
 -1      3795 7.74000E+01 3.05150E+01 0.00000E+00
 -1      3796 7.89000E+01 3.05150E+01 0.00000E+00
 -1      3797 7.66500E+01 2.92160E+01 0.00000E+00
 -1      3798 8.04000E+01 3.05150E+01 0.00000E+00
 -1      3799 8.19000E+01 3.05150E+01 0.00000E+00
 -1      3800 7.96500E+01 2.92160E+01 0.00000E+00
 -1      3801 8.34000E+01 3.05150E+01 0.00000E+00
 -1      3802 8.49000E+01 3.05150E+01 0.00000E+00
 -1      3803 8.26500E+01 2.92160E+01 0.00000E+00
 -1      3804 8.64000E+01 3.05150E+01 0.00000E+00
 -1      3805 8.79000E+01 3.05150E+01 0.00000E+00
 -1      3806 8.56500E+01 2.92160E+01 0.00000E+00
 -1      3807 8.94000E+01 3.05150E+01 0.00000E+00
 -1      3808 9.09000E+01 3.05150E+01 0.00000E+00
 -1      3809 8.86500E+01 2.92160E+01 0.00000E+00
 -1      3810 9.24000E+01 3.05150E+01 0.00000E+00
 -1      3811 9.39000E+01 3.05150E+01 0.00000E+00
 -1      3812 9.16500E+01 2.92160E+01 0.00000E+00
 -1      3813 9.54000E+01 3.05150E+01 0.00000E+00
 -1      3814 9.69000E+01 3.05150E+01 0.00000E+00
 -1      3815 9.46500E+01 2.92160E+01 0.00000E+00
 -1      3816 9.84000E+01 3.05150E+01 0.00000E+00
 -1      3817 9.99000E+01 3.05150E+01 0.00000E+00
 -1      3818 9.76500E+01 2.92160E+01 0.00000E+00
 -1      3819 1.01400E+02 3.05150E+01 0.00000E+00
 -1      3820 1.02900E+02 3.05150E+01 0.00000E+00
 -1      3821 1.00650E+02 2.92160E+01 0.00000E+00
 -1      3822 1.04400E+02 3.05150E+01 0.00000E+00
 -1      3823 1.05900E+02 3.05150E+01 0.00000E+00
 -1      3824 1.03650E+02 2.92160E+01 0.00000E+00
 -1      3825 1.07400E+02 3.05150E+01 0.00000E+00
 -1      3826 1.08900E+02 3.05150E+01 0.00000E+00
 -1      3827 1.06650E+02 2.92160E+01 0.00000E+00
 -1      3828 1.10400E+02 3.05150E+01 0.00000E+00
 -1      3829 1.11900E+02 3.05150E+01 0.00000E+00
 -1      3830 1.09650E+02 2.92160E+01 0.00000E+00
 -1      3831 1.13400E+02 3.05150E+01 0.00000E+00
 -1      3832 1.14900E+02 3.05150E+01 0.00000E+00
 -1      3833 1.12650E+02 2.92160E+01 0.00000E+00
 -1      3834 1.16400E+02 3.05150E+01 0.00000E+00
 -1      3835 1.17900E+02 3.05150E+01 0.00000E+00
 -1      3836 1.15650E+02 2.92160E+01 0.00000E+00
 -1      3837 1.73115E+01 1.87794E+01 0.00000E+00
 -1      3838 1.86105E+01 1.95138E+01 0.00000E+00
 -1      3839 2.34000E+01 3.05150E+01 0.00000E+00
 -1      3840 2.49000E+01 3.05150E+01 0.00000E+00
 -1      3841 1.89180E+01 3.13351E+01 0.00000E+00
 -1      3842 5.42850E+01 1.82952E+01 0.00000E+00
 -1      3843 5.27850E+01 1.82952E+01 0.00000E+00
 -1      3844 6.32850E+01 1.82952E+01 0.00000E+00
 -1      3845 6.17850E+01 1.82952E+01 0.00000E+00
 -1      3846 6.62850E+01 1.82952E+01 0.00000E+00
 -1      3847 6.47850E+01 1.82952E+01 0.00000E+00
 -1      3848 6.40350E+01 1.95942E+01 0.00000E+00
 -1      3849 6.92850E+01 1.82952E+01 0.00000E+00
 -1      3850 6.77850E+01 1.82952E+01 0.00000E+00
 -1      3851 6.70350E+01 1.95942E+01 0.00000E+00
 -1      3852 7.22850E+01 1.82952E+01 0.00000E+00
 -1      3853 7.07850E+01 1.82952E+01 0.00000E+00
 -1      3854 7.00350E+01 1.95942E+01 0.00000E+00
 -1      3855 7.52850E+01 1.82952E+01 0.00000E+00
 -1      3856 7.37850E+01 1.82952E+01 0.00000E+00
 -1      3857 7.30350E+01 1.95942E+01 0.00000E+00
 -1      3858 7.82850E+01 1.82952E+01 0.00000E+00
 -1      3859 7.67850E+01 1.82952E+01 0.00000E+00
 -1      3860 7.60350E+01 1.95942E+01 0.00000E+00
 -1      3861 8.12850E+01 1.82952E+01 0.00000E+00
 -1      3862 7.97850E+01 1.82952E+01 0.00000E+00
 -1      3863 7.90350E+01 1.95942E+01 0.00000E+00
 -1      3864 8.42850E+01 1.82952E+01 0.00000E+00
 -1      3865 8.27850E+01 1.82952E+01 0.00000E+00
 -1      3866 8.20350E+01 1.95942E+01 0.00000E+00
 -1      3867 8.72850E+01 1.82952E+01 0.00000E+00
 -1      3868 8.57850E+01 1.82952E+01 0.00000E+00
 -1      3869 8.50350E+01 1.95942E+01 0.00000E+00
 -1      3870 9.02850E+01 1.82952E+01 0.00000E+00
 -1      3871 8.87850E+01 1.82952E+01 0.00000E+00
 -1      3872 8.80350E+01 1.95942E+01 0.00000E+00
 -1      3873 9.32850E+01 1.82952E+01 0.00000E+00
 -1      3874 9.17850E+01 1.82952E+01 0.00000E+00
 -1      3875 9.10350E+01 1.95942E+01 0.00000E+00
 -1      3876 9.62850E+01 1.82952E+01 0.00000E+00
 -1      3877 9.47850E+01 1.82952E+01 0.00000E+00
 -1      3878 9.40350E+01 1.95942E+01 0.00000E+00
 -1      3879 9.92850E+01 1.82952E+01 0.00000E+00
 -1      3880 9.77850E+01 1.82952E+01 0.00000E+00
 -1      3881 9.70350E+01 1.95942E+01 0.00000E+00
 -1      3882 1.02285E+02 1.82952E+01 0.00000E+00
 -1      3883 1.00785E+02 1.82952E+01 0.00000E+00
 -1      3884 1.00035E+02 1.95942E+01 0.00000E+00
 -1      3885 1.05285E+02 1.82952E+01 0.00000E+00
 -1      3886 1.03785E+02 1.82952E+01 0.00000E+00
 -1      3887 1.03035E+02 1.95942E+01 0.00000E+00
 -1      3888 1.08285E+02 1.82952E+01 0.00000E+00
 -1      3889 1.06785E+02 1.82952E+01 0.00000E+00
 -1      3890 1.06035E+02 1.95942E+01 0.00000E+00
 -1      3891 1.11285E+02 1.82952E+01 0.00000E+00
 -1      3892 1.09785E+02 1.82952E+01 0.00000E+00
 -1      3893 1.09035E+02 1.95942E+01 0.00000E+00
 -1      3894 1.14285E+02 1.82952E+01 0.00000E+00
 -1      3895 1.12785E+02 1.82952E+01 0.00000E+00
 -1      3896 1.12035E+02 1.95942E+01 0.00000E+00
 -1      3897 1.17285E+02 1.82952E+01 0.00000E+00
 -1      3898 1.15785E+02 1.82952E+01 0.00000E+00
 -1      3899 1.15035E+02 1.95942E+01 0.00000E+00
 -1      3900 4.22850E+01 1.82952E+01 0.00000E+00
 -1      3901 4.07850E+01 1.82952E+01 0.00000E+00
 -1      3902 1.21321E+02 1.78345E+01 0.00000E+00
 -1      3903 5.72850E+01 1.82952E+01 0.00000E+00
 -1      3904 5.57850E+01 1.82952E+01 0.00000E+00
 -1      3905 5.50350E+01 1.95942E+01 0.00000E+00
 -1      3906 1.19236E+02 3.02273E+01 0.00000E+00
 -1      3907 1.21210E+02 2.91461E+01 0.00000E+00
 -1      3908 1.21158E+02 2.83529E+01 0.00000E+00
 -1      3909 1.18486E+02 2.89283E+01 0.00000E+00
 -1      3910 1.73115E+01 1.58341E+01 0.00000E+00
 -1      3911 1.73115E+01 1.73059E+01 0.00000E+00
 -1      3912 1.19806E+02 2.74943E+01 0.00000E+00
 -1      3913 1.67642E+01 1.37423E+01 0.00000E+00
 -1      3914 1.18612E+02 2.51417E+01 0.00000E+00
 -1      3915 1.18837E+02 2.30012E+01 0.00000E+00
 -1      3916 6.02850E+01 1.82952E+01 0.00000E+00
 -1      3917 5.87850E+01 1.82952E+01 0.00000E+00
 -1      3918 6.10350E+01 1.95942E+01 0.00000E+00
 -1      3919 4.52850E+01 1.82952E+01 0.00000E+00
 -1      3920 4.37850E+01 1.82952E+01 0.00000E+00
 -1      3921 4.30350E+01 1.95942E+01 0.00000E+00
 -1      3922 1.65615E+01 1.45351E+01 0.00000E+00
 -1      3923 2.64000E+01 3.05150E+01 0.00000E+00
 -1      3924 2.79000E+01 3.05150E+01 0.00000E+00
 -1      3925 2.56500E+01 2.92160E+01 0.00000E+00
 -1      3926 4.82850E+01 1.82952E+01 0.00000E+00
 -1      3927 4.67850E+01 1.82952E+01 0.00000E+00
 -1      3928 4.60350E+01 1.95942E+01 0.00000E+00
 -1      3929 1.19586E+02 2.07378E+01 0.00000E+00
 -1      3930 1.20395E+02 1.91758E+01 0.00000E+00
 -1      3931 5.12850E+01 1.82952E+01 0.00000E+00
 -1      3932 4.97850E+01 1.82952E+01 0.00000E+00
 -1      3933 4.90350E+01 1.95942E+01 0.00000E+00
 -1      3934 5.20350E+01 1.95942E+01 0.00000E+00
 -1      3935 2.01105E+01 1.95138E+01 0.00000E+00
 -1      3936 1.96860E+01 2.20312E+01 0.00000E+00
 -1      3937 2.16105E+01 1.95138E+01 0.00000E+00
 -1      3938 1.93020E+01 3.03598E+01 0.00000E+00
 -1      3939 2.00340E+01 3.08386E+01 0.00000E+00
 -1      3940 2.15340E+01 3.08386E+01 0.00000E+00
 -1      3941 1.93020E+01 2.88879E+01 0.00000E+00
 -1      3942 1.18470E+02 2.77820E+01 0.00000E+00
 -1      3943 1.18455E+02 2.66356E+01 0.00000E+00
 -1      3944 1.17135E+02 2.80697E+01 0.00000E+00
 -1      3945 3.92850E+01 1.82952E+01 0.00000E+00
 -1      3946 3.77850E+01 1.82952E+01 0.00000E+00
 -1      3947 4.00350E+01 1.95942E+01 0.00000E+00
 -1      3948 2.72850E+01 1.82952E+01 0.00000E+00
 -1      3949 2.57850E+01 1.82952E+01 0.00000E+00
 -1      3950 2.86500E+01 2.92160E+01 0.00000E+00
 -1      3951 1.18483E+02 1.82024E+01 0.00000E+00
 -1      3952 1.17733E+02 1.95014E+01 0.00000E+00
 -1      3953 1.19857E+02 1.80673E+01 0.00000E+00
 -1      3954 3.55350E+01 1.69963E+01 0.00000E+00
 -1      3955 5.80350E+01 1.95942E+01 0.00000E+00
 -1      3956 2.44477E+01 1.89045E+01 0.00000E+00
 -1      3957 2.29478E+01 1.89045E+01 0.00000E+00
 -1      3958 2.25232E+01 2.14220E+01 0.00000E+00
 -1      3959 2.51977E+01 2.02035E+01 0.00000E+00
 -1      3960 2.22840E+01 2.95396E+01 0.00000E+00
 -1      3961 1.96860E+01 2.35016E+01 0.00000E+00
 -1      3962 1.17276E+02 2.54294E+01 0.00000E+00
 -1      3963 3.02850E+01 1.82952E+01 0.00000E+00
 -1      3964 2.87850E+01 1.82952E+01 0.00000E+00
 -1      3965 2.80350E+01 1.95942E+01 0.00000E+00
 -1      3966 1.18613E+02 2.19159E+01 0.00000E+00
 -1      3967 1.17958E+02 2.05867E+01 0.00000E+00
 -1      3968 1.16759E+02 2.06796E+01 0.00000E+00
 -1      3969 1.17208E+02 2.28502E+01 0.00000E+00
 -1      3970 3.32850E+01 1.82952E+01 0.00000E+00
 -1      3971 3.17850E+01 1.82952E+01 0.00000E+00
 -1      3972 3.10350E+01 1.95942E+01 0.00000E+00
 -1      3973 3.39000E+01 2.79170E+01 0.00000E+00
 -1      3974 3.54000E+01 2.79170E+01 0.00000E+00
 -1      3975 3.69000E+01 2.79170E+01 0.00000E+00
 -1      3976 3.84000E+01 2.79170E+01 0.00000E+00
 -1      3977 3.61500E+01 2.66180E+01 0.00000E+00
 -1      3978 3.99000E+01 2.79170E+01 0.00000E+00
 -1      3979 4.14000E+01 2.79170E+01 0.00000E+00
 -1      3980 3.91500E+01 2.66180E+01 0.00000E+00
 -1      3981 4.29000E+01 2.79170E+01 0.00000E+00
 -1      3982 4.44000E+01 2.79170E+01 0.00000E+00
 -1      3983 4.21500E+01 2.66180E+01 0.00000E+00
 -1      3984 4.59000E+01 2.79170E+01 0.00000E+00
 -1      3985 4.74000E+01 2.79170E+01 0.00000E+00
 -1      3986 4.51500E+01 2.66180E+01 0.00000E+00
 -1      3987 4.89000E+01 2.79170E+01 0.00000E+00
 -1      3988 5.04000E+01 2.79170E+01 0.00000E+00
 -1      3989 4.81500E+01 2.66180E+01 0.00000E+00
 -1      3990 5.19000E+01 2.79170E+01 0.00000E+00
 -1      3991 5.34000E+01 2.79170E+01 0.00000E+00
 -1      3992 5.11500E+01 2.66180E+01 0.00000E+00
 -1      3993 5.49000E+01 2.79170E+01 0.00000E+00
 -1      3994 5.64000E+01 2.79170E+01 0.00000E+00
 -1      3995 5.41500E+01 2.66180E+01 0.00000E+00
 -1      3996 5.79000E+01 2.79170E+01 0.00000E+00
 -1      3997 5.94000E+01 2.79170E+01 0.00000E+00
 -1      3998 5.71500E+01 2.66180E+01 0.00000E+00
 -1      3999 6.09000E+01 2.79170E+01 0.00000E+00
 -1      4000 6.24000E+01 2.79170E+01 0.00000E+00
 -1      4001 6.01500E+01 2.66180E+01 0.00000E+00
 -1      4002 6.39000E+01 2.79170E+01 0.00000E+00
 -1      4003 6.54000E+01 2.79170E+01 0.00000E+00
 -1      4004 6.31500E+01 2.66180E+01 0.00000E+00
 -1      4005 6.69000E+01 2.79170E+01 0.00000E+00
 -1      4006 6.84000E+01 2.79170E+01 0.00000E+00
 -1      4007 6.61500E+01 2.66180E+01 0.00000E+00
 -1      4008 6.99000E+01 2.79170E+01 0.00000E+00
 -1      4009 7.14000E+01 2.79170E+01 0.00000E+00
 -1      4010 6.91500E+01 2.66180E+01 0.00000E+00
 -1      4011 7.29000E+01 2.79170E+01 0.00000E+00
 -1      4012 7.44000E+01 2.79170E+01 0.00000E+00
 -1      4013 7.21500E+01 2.66180E+01 0.00000E+00
 -1      4014 7.59000E+01 2.79170E+01 0.00000E+00
 -1      4015 7.74000E+01 2.79170E+01 0.00000E+00
 -1      4016 7.51500E+01 2.66180E+01 0.00000E+00
 -1      4017 7.89000E+01 2.79170E+01 0.00000E+00
 -1      4018 8.04000E+01 2.79170E+01 0.00000E+00
 -1      4019 7.81500E+01 2.66180E+01 0.00000E+00
 -1      4020 8.19000E+01 2.79170E+01 0.00000E+00
 -1      4021 8.34000E+01 2.79170E+01 0.00000E+00
 -1      4022 8.11500E+01 2.66180E+01 0.00000E+00
 -1      4023 8.49000E+01 2.79170E+01 0.00000E+00
 -1      4024 8.64000E+01 2.79170E+01 0.00000E+00
 -1      4025 8.41500E+01 2.66180E+01 0.00000E+00
 -1      4026 8.79000E+01 2.79170E+01 0.00000E+00
 -1      4027 8.94000E+01 2.79170E+01 0.00000E+00
 -1      4028 8.71500E+01 2.66180E+01 0.00000E+00
 -1      4029 9.09000E+01 2.79170E+01 0.00000E+00
 -1      4030 9.24000E+01 2.79170E+01 0.00000E+00
 -1      4031 9.01500E+01 2.66180E+01 0.00000E+00
 -1      4032 9.39000E+01 2.79170E+01 0.00000E+00
 -1      4033 9.54000E+01 2.79170E+01 0.00000E+00
 -1      4034 9.31500E+01 2.66180E+01 0.00000E+00
 -1      4035 9.69000E+01 2.79170E+01 0.00000E+00
 -1      4036 9.84000E+01 2.79170E+01 0.00000E+00
 -1      4037 9.61500E+01 2.66180E+01 0.00000E+00
 -1      4038 9.99000E+01 2.79170E+01 0.00000E+00
 -1      4039 1.01400E+02 2.79170E+01 0.00000E+00
 -1      4040 9.91500E+01 2.66180E+01 0.00000E+00
 -1      4041 1.02900E+02 2.79170E+01 0.00000E+00
 -1      4042 1.04400E+02 2.79170E+01 0.00000E+00
 -1      4043 1.02150E+02 2.66180E+01 0.00000E+00
 -1      4044 1.05900E+02 2.79170E+01 0.00000E+00
 -1      4045 1.07400E+02 2.79170E+01 0.00000E+00
 -1      4046 1.05150E+02 2.66180E+01 0.00000E+00
 -1      4047 1.08900E+02 2.79170E+01 0.00000E+00
 -1      4048 1.10400E+02 2.79170E+01 0.00000E+00
 -1      4049 1.08150E+02 2.66180E+01 0.00000E+00
 -1      4050 1.11900E+02 2.79170E+01 0.00000E+00
 -1      4051 1.13400E+02 2.79170E+01 0.00000E+00
 -1      4052 1.11150E+02 2.66180E+01 0.00000E+00
 -1      4053 1.15635E+02 2.80697E+01 0.00000E+00
 -1      4054 2.11290E+01 2.84215E+01 0.00000E+00
 -1      4055 2.29950E+01 2.80979E+01 0.00000E+00
 -1      4056 4.67850E+01 2.08932E+01 0.00000E+00
 -1      4057 4.52850E+01 2.08932E+01 0.00000E+00
 -1      4058 2.79000E+01 2.79170E+01 0.00000E+00
 -1      4059 2.94000E+01 2.79170E+01 0.00000E+00
 -1      4060 4.37850E+01 2.08932E+01 0.00000E+00
 -1      4061 4.22850E+01 2.08932E+01 0.00000E+00
 -1      4062 4.45350E+01 2.21922E+01 0.00000E+00
 -1      4063 6.47850E+01 2.08932E+01 0.00000E+00
 -1      4064 6.32850E+01 2.08932E+01 0.00000E+00
 -1      4065 7.37850E+01 2.08932E+01 0.00000E+00
 -1      4066 7.22850E+01 2.08932E+01 0.00000E+00
 -1      4067 7.67850E+01 2.08932E+01 0.00000E+00
 -1      4068 7.52850E+01 2.08932E+01 0.00000E+00
 -1      4069 7.45350E+01 2.21922E+01 0.00000E+00
 -1      4070 7.97850E+01 2.08932E+01 0.00000E+00
 -1      4071 7.82850E+01 2.08932E+01 0.00000E+00
 -1      4072 7.75350E+01 2.21922E+01 0.00000E+00
 -1      4073 8.27850E+01 2.08932E+01 0.00000E+00
 -1      4074 8.12850E+01 2.08932E+01 0.00000E+00
 -1      4075 8.05350E+01 2.21922E+01 0.00000E+00
 -1      4076 8.57850E+01 2.08932E+01 0.00000E+00
 -1      4077 8.42850E+01 2.08932E+01 0.00000E+00
 -1      4078 8.35350E+01 2.21922E+01 0.00000E+00
 -1      4079 8.87850E+01 2.08932E+01 0.00000E+00
 -1      4080 8.72850E+01 2.08932E+01 0.00000E+00
 -1      4081 8.65350E+01 2.21922E+01 0.00000E+00
 -1      4082 9.17850E+01 2.08932E+01 0.00000E+00
 -1      4083 9.02850E+01 2.08932E+01 0.00000E+00
 -1      4084 8.95350E+01 2.21922E+01 0.00000E+00
 -1      4085 9.47850E+01 2.08932E+01 0.00000E+00
 -1      4086 9.32850E+01 2.08932E+01 0.00000E+00
 -1      4087 9.25350E+01 2.21922E+01 0.00000E+00
 -1      4088 9.77850E+01 2.08932E+01 0.00000E+00
 -1      4089 9.62850E+01 2.08932E+01 0.00000E+00
 -1      4090 9.55350E+01 2.21922E+01 0.00000E+00
 -1      4091 1.00785E+02 2.08932E+01 0.00000E+00
 -1      4092 9.92850E+01 2.08932E+01 0.00000E+00
 -1      4093 9.85350E+01 2.21922E+01 0.00000E+00
 -1      4094 1.03785E+02 2.08932E+01 0.00000E+00
 -1      4095 1.02285E+02 2.08932E+01 0.00000E+00
 -1      4096 1.01535E+02 2.21922E+01 0.00000E+00
 -1      4097 1.06785E+02 2.08932E+01 0.00000E+00
 -1      4098 1.05285E+02 2.08932E+01 0.00000E+00
 -1      4099 1.04535E+02 2.21922E+01 0.00000E+00
 -1      4100 1.09785E+02 2.08932E+01 0.00000E+00
 -1      4101 1.08285E+02 2.08932E+01 0.00000E+00
 -1      4102 1.07535E+02 2.21922E+01 0.00000E+00
 -1      4103 1.12785E+02 2.08932E+01 0.00000E+00
 -1      4104 1.11285E+02 2.08932E+01 0.00000E+00
 -1      4105 1.10535E+02 2.21922E+01 0.00000E+00
 -1      4106 1.15522E+02 2.07864E+01 0.00000E+00
 -1      4107 1.14022E+02 2.07864E+01 0.00000E+00
 -1      4108 1.13272E+02 2.20854E+01 0.00000E+00
 -1      4109 1.15747E+02 2.18717E+01 0.00000E+00
 -1      4110 3.62850E+01 1.82952E+01 0.00000E+00
 -1      4111 3.47850E+01 1.82952E+01 0.00000E+00
 -1      4112 3.40350E+01 1.95942E+01 0.00000E+00
 -1      4113 3.70350E+01 1.95942E+01 0.00000E+00
 -1      4114 5.57850E+01 2.08932E+01 0.00000E+00
 -1      4115 5.42850E+01 2.08932E+01 0.00000E+00
 -1      4116 7.07850E+01 2.08932E+01 0.00000E+00
 -1      4117 6.92850E+01 2.08932E+01 0.00000E+00
 -1      4118 7.15350E+01 2.21922E+01 0.00000E+00
 -1      4119 6.77850E+01 2.08932E+01 0.00000E+00
 -1      4120 6.62850E+01 2.08932E+01 0.00000E+00
 -1      4121 6.55350E+01 2.21922E+01 0.00000E+00
 -1      4122 6.85350E+01 2.21922E+01 0.00000E+00
 -1      4123 5.87850E+01 2.08932E+01 0.00000E+00
 -1      4124 5.72850E+01 2.08932E+01 0.00000E+00
 -1      4125 5.65350E+01 2.21922E+01 0.00000E+00
 -1      4126 6.17850E+01 2.08932E+01 0.00000E+00
 -1      4127 6.02850E+01 2.08932E+01 0.00000E+00
 -1      4128 6.25350E+01 2.21922E+01 0.00000E+00
 -1      4129 1.15906E+02 2.60409E+01 0.00000E+00
 -1      4130 1.16062E+02 2.45470E+01 0.00000E+00
 -1      4131 2.13453E+01 2.36941E+01 0.00000E+00
 -1      4132 1.98453E+01 2.51644E+01 0.00000E+00
 -1      4133 3.09000E+01 2.79170E+01 0.00000E+00
 -1      4134 3.24000E+01 2.79170E+01 0.00000E+00
 -1      4135 3.01500E+01 2.66180E+01 0.00000E+00
 -1      4136 2.49000E+01 2.79170E+01 0.00000E+00
 -1      4137 2.64000E+01 2.79170E+01 0.00000E+00
 -1      4138 2.71500E+01 2.66180E+01 0.00000E+00
 -1      4139 1.98453E+01 2.66347E+01 0.00000E+00
 -1      4140 2.87850E+01 2.08932E+01 0.00000E+00
 -1      4141 2.72850E+01 2.08932E+01 0.00000E+00
 -1      4142 1.14421E+02 2.71872E+01 0.00000E+00
 -1      4143 4.82850E+01 2.08932E+01 0.00000E+00
 -1      4144 4.75350E+01 2.21922E+01 0.00000E+00
 -1      4145 4.97850E+01 2.08932E+01 0.00000E+00
 -1      4146 4.15350E+01 2.21922E+01 0.00000E+00
 -1      4147 4.07850E+01 2.08932E+01 0.00000E+00
 -1      4148 3.92850E+01 2.08932E+01 0.00000E+00
 -1      4149 5.95350E+01 2.21922E+01 0.00000E+00
 -1      4150 2.59477E+01 2.15025E+01 0.00000E+00
 -1      4151 2.46105E+01 2.21117E+01 0.00000E+00
 -1      4152 2.66977E+01 2.28015E+01 0.00000E+00
 -1      4153 5.35350E+01 2.21922E+01 0.00000E+00
 -1      4154 5.27850E+01 2.08932E+01 0.00000E+00
 -1      4155 5.12850E+01 2.08932E+01 0.00000E+00
 -1      4156 1.13671E+02 2.58882E+01 0.00000E+00
 -1      4157 3.31500E+01 2.66180E+01 0.00000E+00
 -1      4158 2.37450E+01 2.67989E+01 0.00000E+00
 -1      4159 2.36465E+01 2.25983E+01 0.00000E+00
 -1      4160 2.23093E+01 2.32075E+01 0.00000E+00
 -1      4161 2.24686E+01 2.48703E+01 0.00000E+00
 -1      4162 2.43965E+01 2.38973E+01 0.00000E+00
 -1      4163 1.15971E+02 2.29570E+01 0.00000E+00
 -1      4164 3.02850E+01 2.08932E+01 0.00000E+00
 -1      4165 2.95350E+01 2.21922E+01 0.00000E+00
 -1      4166 3.17850E+01 2.08932E+01 0.00000E+00
 -1      4167 2.00130E+01 2.74462E+01 0.00000E+00
 -1      4168 1.14601E+02 2.35685E+01 0.00000E+00
 -1      4169 3.84000E+01 2.53190E+01 0.00000E+00
 -1      4170 3.99000E+01 2.53190E+01 0.00000E+00
 -1      4171 4.18425E+01 2.44051E+01 0.00000E+00
 -1      4172 4.33425E+01 2.44051E+01 0.00000E+00
 -1      4173 4.48425E+01 2.44051E+01 0.00000E+00
 -1      4174 4.63425E+01 2.44051E+01 0.00000E+00
 -1      4175 4.78425E+01 2.44051E+01 0.00000E+00
 -1      4176 4.93425E+01 2.44051E+01 0.00000E+00
 -1      4177 5.08425E+01 2.44051E+01 0.00000E+00
 -1      4178 5.23425E+01 2.44051E+01 0.00000E+00
 -1      4179 5.38425E+01 2.44051E+01 0.00000E+00
 -1      4180 5.53425E+01 2.44051E+01 0.00000E+00
 -1      4181 5.68425E+01 2.44051E+01 0.00000E+00
 -1      4182 5.83425E+01 2.44051E+01 0.00000E+00
 -1      4183 5.98425E+01 2.44051E+01 0.00000E+00
 -1      4184 6.13425E+01 2.44051E+01 0.00000E+00
 -1      4185 6.28425E+01 2.44051E+01 0.00000E+00
 -1      4186 6.43425E+01 2.44051E+01 0.00000E+00
 -1      4187 6.58425E+01 2.44051E+01 0.00000E+00
 -1      4188 6.73425E+01 2.44051E+01 0.00000E+00
 -1      4189 6.88425E+01 2.44051E+01 0.00000E+00
 -1      4190 7.03425E+01 2.44051E+01 0.00000E+00
 -1      4191 7.18425E+01 2.44051E+01 0.00000E+00
 -1      4192 7.33425E+01 2.44051E+01 0.00000E+00
 -1      4193 7.48425E+01 2.44051E+01 0.00000E+00
 -1      4194 7.63425E+01 2.44051E+01 0.00000E+00
 -1      4195 7.78425E+01 2.44051E+01 0.00000E+00
 -1      4196 7.93425E+01 2.44051E+01 0.00000E+00
 -1      4197 8.08425E+01 2.44051E+01 0.00000E+00
 -1      4198 8.23425E+01 2.44051E+01 0.00000E+00
 -1      4199 8.38425E+01 2.44051E+01 0.00000E+00
 -1      4200 8.53425E+01 2.44051E+01 0.00000E+00
 -1      4201 8.68425E+01 2.44051E+01 0.00000E+00
 -1      4202 8.83425E+01 2.44051E+01 0.00000E+00
 -1      4203 8.98425E+01 2.44051E+01 0.00000E+00
 -1      4204 9.13425E+01 2.44051E+01 0.00000E+00
 -1      4205 9.28425E+01 2.44051E+01 0.00000E+00
 -1      4206 9.43425E+01 2.44051E+01 0.00000E+00
 -1      4207 9.58425E+01 2.44051E+01 0.00000E+00
 -1      4208 9.73425E+01 2.44051E+01 0.00000E+00
 -1      4209 9.88425E+01 2.44051E+01 0.00000E+00
 -1      4210 1.00342E+02 2.44051E+01 0.00000E+00
 -1      4211 1.01842E+02 2.44051E+01 0.00000E+00
 -1      4212 1.03342E+02 2.44051E+01 0.00000E+00
 -1      4213 1.04842E+02 2.44051E+01 0.00000E+00
 -1      4214 1.06342E+02 2.44051E+01 0.00000E+00
 -1      4215 1.07842E+02 2.44051E+01 0.00000E+00
 -1      4216 1.09342E+02 2.44051E+01 0.00000E+00
 -1      4217 1.10842E+02 2.44051E+01 0.00000E+00
 -1      4218 1.12342E+02 2.44051E+01 0.00000E+00
 -1      4219 1.13363E+02 2.36754E+01 0.00000E+00
 -1      4220 2.98425E+01 2.44051E+01 0.00000E+00
 -1      4221 3.13425E+01 2.44051E+01 0.00000E+00
 -1      4222 3.54000E+01 2.53190E+01 0.00000E+00
 -1      4223 3.69000E+01 2.53190E+01 0.00000E+00
 -1      4224 3.76500E+01 2.40200E+01 0.00000E+00
 -1      4225 3.26213E+01 2.48621E+01 0.00000E+00
 -1      4226 3.41213E+01 2.48621E+01 0.00000E+00
 -1      4227 3.48713E+01 2.35631E+01 0.00000E+00
 -1      4228 3.23138E+01 2.26492E+01 0.00000E+00
 -1      4229 2.83425E+01 2.44051E+01 0.00000E+00
 -1      4230 5.05350E+01 2.21922E+01 0.00000E+00
 -1      4231 2.68425E+01 2.44051E+01 0.00000E+00
 -1      4232 3.73425E+01 2.18071E+01 0.00000E+00
 -1      4233 3.58425E+01 2.18071E+01 0.00000E+00
 -1      4234 2.16723E+01 2.61684E+01 0.00000E+00
 -1      4235 2.26363E+01 2.56818E+01 0.00000E+00
 -1      4236 2.55052E+01 2.50144E+01 0.00000E+00
 -1      4237 3.30638E+01 2.13502E+01 0.00000E+00
 -1      4238 2.45413E+01 2.55009E+01 0.00000E+00
 -1      4239 4.10925E+01 2.31061E+01 0.00000E+00
 -1      4240 3.45638E+01 2.13502E+01 0.00000E+00
 -1      4241 3.80925E+01 2.31061E+01 0.00000E+00
 -1      4242 3.95925E+01 2.31061E+01 0.00000E+00
 -3
    3C                          2038                                     1
 -1       167    8    0    1
 -2         6         7        23      1103      1269      1120
 -1       168    8    0    1
 -2         7         8       167      1104      1270      1271
 -1       169    8    0    1
 -2         8         9       168      1105      1272      1273
 -1       170    8    0    1
 -2         8       168       167      1273      1274      1270
 -1       171    8    0    1
 -2         9        10       169      1106      1275      1276
 -1       172    8    0    1
 -2         9       169       168      1276      1277      1272
 -1       173    8    0    1
 -2        10        11       170      1107      1278      1279
 -1       174    8    0    1
 -2        10       170       169      1279      1280      1275
 -1       175    8    0    1
 -2        11        12       171      1108      1281      1282
 -1       176    8    0    1
 -2        11       171       170      1282      1283      1278
 -1       177    8    0    1
 -2        12        13       172      1109      1284      1285
 -1       178    8    0    1
 -2        12       172       171      1285      1286      1281
 -1       179    8    0    1
 -2        13        14       173      1110      1287      1288
 -1       180    8    0    1
 -2        13       173       172      1288      1289      1284
 -1       181    8    0    1
 -2        14        15       174      1111      1290      1291
 -1       182    8    0    1
 -2        14       174       173      1291      1292      1287
 -1       183    8    0    1
 -2        15        16       175      1112      1293      1294
 -1       184    8    0    1
 -2        15       175       174      1294      1295      1290
 -1       185    8    0    1
 -2        16        17       176      1113      1296      1297
 -1       186    8    0    1
 -2        16       176       175      1297      1298      1293
 -1       187    8    0    1
 -2        17        18       177      1114      1299      1300
 -1       188    8    0    1
 -2        17       177       176      1300      1301      1296
 -1       189    8    0    1
 -2        18        19       178      1115      1302      1303
 -1       190    8    0    1
 -2        18       178       177      1303      1304      1299
 -1       191    8    0    1
 -2        19        20       179      1116      1305      1306
 -1       192    8    0    1
 -2        19       179       178      1306      1307      1302
 -1       193    8    0    1
 -2        20        21       180      1117      1308      1309
 -1       194    8    0    1
 -2        20       180       179      1309      1310      1305
 -1       195    8    0    1
 -2        21        22       181      1118      1311      1312
 -1       196    8    0    1
 -2        21       181       180      1312      1313      1308
 -1       197    8    0    1
 -2        22         5       182      1119      1314      1315
 -1       198    8    0    1
 -2       181        22       182      1311      1315      1316
 -1       199    8    0    1
 -2         5        72       182      1170      1317      1314
 -1       200    8    0    1
 -2        24        23       183      1121      1318      1319
 -1       201    8    0    1
 -2        25        24       184      1122      1320      1321
 -1       202    8    0    1
 -2        24       183       184      1319      1322      1320
 -1       203    8    0    1
 -2        26        25       185      1123      1323      1324
 -1       204    8    0    1
 -2        25       184       185      1321      1325      1323
 -1       205    8    0    1
 -2        27        26       186      1124      1326      1327
 -1       206    8    0    1
 -2        26       185       186      1324      1328      1326
 -1       207    8    0    1
 -2        28        27       187      1125      1329      1330
 -1       208    8    0    1
 -2        27       186       187      1327      1331      1329
 -1       209    8    0    1
 -2        29        28       188      1126      1332      1333
 -1       210    8    0    1
 -2        28       187       188      1330      1334      1332
 -1       211    8    0    1
 -2        30        29       189      1127      1335      1336
 -1       212    8    0    1
 -2        29       188       189      1333      1337      1335
 -1       213    8    0    1
 -2        31        30       190      1128      1338      1339
 -1       214    8    0    1
 -2        30       189       190      1336      1340      1338
 -1       215    8    0    1
 -2        32        31       191      1129      1341      1342
 -1       216    8    0    1
 -2        31       190       191      1339      1343      1341
 -1       217    8    0    1
 -2        33        32       192      1130      1344      1345
 -1       218    8    0    1
 -2        32       191       192      1342      1346      1344
 -1       219    8    0    1
 -2        34        33       193      1131      1347      1348
 -1       220    8    0    1
 -2        33       192       193      1345      1349      1347
 -1       221    8    0    1
 -2        35        34       194      1132      1350      1351
 -1       222    8    0    1
 -2        34       193       194      1348      1352      1350
 -1       223    8    0    1
 -2        36        35       195      1133      1353      1354
 -1       224    8    0    1
 -2        35       194       195      1351      1355      1353
 -1       225    8    0    1
 -2        37        36       196      1134      1356      1357
 -1       226    8    0    1
 -2        36       195       196      1354      1358      1356
 -1       227    8    0    1
 -2        38        37       197      1135      1359      1360
 -1       228    8    0    1
 -2        37       196       197      1357      1361      1359
 -1       229    8    0    1
 -2        39        38       198      1136      1362      1363
 -1       230    8    0    1
 -2        38       197       198      1360      1364      1362
 -1       231    8    0    1
 -2        40        39       199      1137      1365      1366
 -1       232    8    0    1
 -2        39       198       199      1363      1367      1365
 -1       233    8    0    1
 -2        41        40       200      1138      1368      1369
 -1       234    8    0    1
 -2        40       199       200      1366      1370      1368
 -1       235    8    0    1
 -2        42        41       201      1139      1371      1372
 -1       236    8    0    1
 -2        41       200       201      1369      1373      1371
 -1       237    8    0    1
 -2        43        42       202      1140      1374      1375
 -1       238    8    0    1
 -2        42       201       202      1372      1376      1374
 -1       239    8    0    1
 -2        44        43       203      1141      1377      1378
 -1       240    8    0    1
 -2        43       202       203      1375      1379      1377
 -1       241    8    0    1
 -2        45        44       204      1142      1380      1381
 -1       242    8    0    1
 -2        44       203       204      1378      1382      1380
 -1       243    8    0    1
 -2        46        45       205      1143      1383      1384
 -1       244    8    0    1
 -2        45       204       205      1381      1385      1383
 -1       245    8    0    1
 -2        47        46       206      1144      1386      1387
 -1       246    8    0    1
 -2        46       205       206      1384      1388      1386
 -1       247    8    0    1
 -2        48        47       207      1145      1389      1390
 -1       248    8    0    1
 -2        47       206       207      1387      1391      1389
 -1       249    8    0    1
 -2        49        48       208      1146      1392      1393
 -1       250    8    0    1
 -2        48       207       208      1390      1394      1392
 -1       251    8    0    1
 -2        50        49       209      1147      1395      1396
 -1       252    8    0    1
 -2        49       208       209      1393      1397      1395
 -1       253    8    0    1
 -2        51        50       210      1148      1398      1399
 -1       254    8    0    1
 -2        50       209       210      1396      1400      1398
 -1       255    8    0    1
 -2        52        51       211      1149      1401      1402
 -1       256    8    0    1
 -2        51       210       211      1399      1403      1401
 -1       257    8    0    1
 -2        53        52       212      1150      1404      1405
 -1       258    8    0    1
 -2        52       211       212      1402      1406      1404
 -1       259    8    0    1
 -2        54        53       213      1151      1407      1408
 -1       260    8    0    1
 -2        53       212       213      1405      1409      1407
 -1       261    8    0    1
 -2        55        54       214      1152      1410      1411
 -1       262    8    0    1
 -2        54       213       214      1408      1412      1410
 -1       263    8    0    1
 -2        56        55       215      1153      1413      1414
 -1       264    8    0    1
 -2        55       214       215      1411      1415      1413
 -1       265    8    0    1
 -2        57        56       216      1154      1416      1417
 -1       266    8    0    1
 -2        56       215       216      1414      1418      1416
 -1       267    8    0    1
 -2        58        57       217      1155      1419      1420
 -1       268    8    0    1
 -2        57       216       217      1417      1421      1419
 -1       269    8    0    1
 -2        59        58       218      1156      1422      1423
 -1       270    8    0    1
 -2        58       217       218      1420      1424      1422
 -1       271    8    0    1
 -2        60        59       219      1157      1425      1426
 -1       272    8    0    1
 -2        59       218       219      1423      1427      1425
 -1       273    8    0    1
 -2        61        60       220      1158      1428      1429
 -1       274    8    0    1
 -2        60       219       220      1426      1430      1428
 -1       275    8    0    1
 -2        62        61       221      1159      1431      1432
 -1       276    8    0    1
 -2        61       220       221      1429      1433      1431
 -1       277    8    0    1
 -2        63        62       222      1160      1434      1435
 -1       278    8    0    1
 -2        62       221       222      1432      1436      1434
 -1       279    8    0    1
 -2        64        63       223      1161      1437      1438
 -1       280    8    0    1
 -2        63       222       223      1435      1439      1437
 -1       281    8    0    1
 -2        65        64       224      1162      1440      1441
 -1       282    8    0    1
 -2        64       223       224      1438      1442      1440
 -1       283    8    0    1
 -2        66        65       225      1163      1443      1444
 -1       284    8    0    1
 -2        65       224       225      1441      1445      1443
 -1       285    8    0    1
 -2        67        66       226      1164      1446      1447
 -1       286    8    0    1
 -2        66       225       226      1444      1448      1446
 -1       287    8    0    1
 -2        68        67       227      1165      1449      1450
 -1       288    8    0    1
 -2        67       226       227      1447      1451      1449
 -1       289    8    0    1
 -2        69        68       228      1166      1452      1453
 -1       290    8    0    1
 -2        68       227       228      1450      1454      1452
 -1       291    8    0    1
 -2        70        69       229      1167      1455      1456
 -1       292    8    0    1
 -2        69       228       229      1453      1457      1455
 -1       293    8    0    1
 -2        71        70       230      1168      1458      1459
 -1       294    8    0    1
 -2        70       229       230      1456      1460      1458
 -1       295    8    0    1
 -2         4        71       138      1169      1461      1238
 -1       296    8    0    1
 -2       138        71       230      1461      1459      1462
 -1       297    8    0    1
 -2        72        73       231      1171      1463      1464
 -1       298    8    0    1
 -2        72       231       182      1464      1465      1317
 -1       299    8    0    1
 -2        73        74       232      1172      1466      1467
 -1       300    8    0    1
 -2        73       232       231      1467      1468      1463
 -1       301    8    0    1
 -2        74        75       233      1173      1469      1470
 -1       302    8    0    1
 -2        74       233       232      1470      1471      1466
 -1       303    8    0    1
 -2        75        76       234      1174      1472      1473
 -1       304    8    0    1
 -2        75       234       233      1473      1474      1469
 -1       305    8    0    1
 -2        76        77       235      1175      1475      1476
 -1       306    8    0    1
 -2        76       235       234      1476      1477      1472
 -1       307    8    0    1
 -2        77        78       236      1176      1478      1479
 -1       308    8    0    1
 -2        77       236       235      1479      1480      1475
 -1       309    8    0    1
 -2        78        79       237      1177      1481      1482
 -1       310    8    0    1
 -2        78       237       236      1482      1483      1478
 -1       311    8    0    1
 -2        79        80       238      1178      1484      1485
 -1       312    8    0    1
 -2        79       238       237      1485      1486      1481
 -1       313    8    0    1
 -2        80        81       239      1179      1487      1488
 -1       314    8    0    1
 -2        80       239       238      1488      1489      1484
 -1       315    8    0    1
 -2        81        82       240      1180      1490      1491
 -1       316    8    0    1
 -2        81       240       239      1491      1492      1487
 -1       317    8    0    1
 -2        82        83       241      1181      1493      1494
 -1       318    8    0    1
 -2        82       241       240      1494      1495      1490
 -1       319    8    0    1
 -2        83        84       242      1182      1496      1497
 -1       320    8    0    1
 -2        83       242       241      1497      1498      1493
 -1       321    8    0    1
 -2        84        85       243      1183      1499      1500
 -1       322    8    0    1
 -2        84       243       242      1500      1501      1496
 -1       323    8    0    1
 -2        85        86       244      1184      1502      1503
 -1       324    8    0    1
 -2        85       244       243      1503      1504      1499
 -1       325    8    0    1
 -2        86        87       245      1185      1505      1506
 -1       326    8    0    1
 -2        86       245       244      1506      1507      1502
 -1       327    8    0    1
 -2        87        88       246      1186      1508      1509
 -1       328    8    0    1
 -2        87       246       245      1509      1510      1505
 -1       329    8    0    1
 -2        88        89       247      1187      1511      1512
 -1       330    8    0    1
 -2        88       247       246      1512      1513      1508
 -1       331    8    0    1
 -2        89        90       248      1188      1514      1515
 -1       332    8    0    1
 -2        89       248       247      1515      1516      1511
 -1       333    8    0    1
 -2        90        91       249      1189      1517      1518
 -1       334    8    0    1
 -2        90       249       248      1518      1519      1514
 -1       335    8    0    1
 -2        91        92       250      1190      1520      1521
 -1       336    8    0    1
 -2        91       250       249      1521      1522      1517
 -1       337    8    0    1
 -2        92        93       251      1191      1523      1524
 -1       338    8    0    1
 -2        92       251       250      1524      1525      1520
 -1       339    8    0    1
 -2        93        94       252      1192      1526      1527
 -1       340    8    0    1
 -2        93       252       251      1527      1528      1523
 -1       341    8    0    1
 -2        94        95       253      1193      1529      1530
 -1       342    8    0    1
 -2        94       253       252      1530      1531      1526
 -1       343    8    0    1
 -2        95        96       254      1194      1532      1533
 -1       344    8    0    1
 -2        95       254       253      1533      1534      1529
 -1       345    8    0    1
 -2        96        97       255      1195      1535      1536
 -1       346    8    0    1
 -2        96       255       254      1536      1537      1532
 -1       347    8    0    1
 -2        97        98       256      1196      1538      1539
 -1       348    8    0    1
 -2        97       256       255      1539      1540      1535
 -1       349    8    0    1
 -2        98        99       257      1197      1541      1542
 -1       350    8    0    1
 -2        98       257       256      1542      1543      1538
 -1       351    8    0    1
 -2        99       100       258      1198      1544      1545
 -1       352    8    0    1
 -2        99       258       257      1545      1546      1541
 -1       353    8    0    1
 -2       100       101       259      1199      1547      1548
 -1       354    8    0    1
 -2       100       259       258      1548      1549      1544
 -1       355    8    0    1
 -2       101       102       260      1200      1550      1551
 -1       356    8    0    1
 -2       101       260       259      1551      1552      1547
 -1       357    8    0    1
 -2       102       103       261      1201      1553      1554
 -1       358    8    0    1
 -2       102       261       260      1554      1555      1550
 -1       359    8    0    1
 -2       103       104       262      1202      1556      1557
 -1       360    8    0    1
 -2       103       262       261      1557      1558      1553
 -1       361    8    0    1
 -2       104       105       263      1203      1559      1560
 -1       362    8    0    1
 -2       104       263       262      1560      1561      1556
 -1       363    8    0    1
 -2       105       106       264      1204      1562      1563
 -1       364    8    0    1
 -2       105       264       263      1563      1564      1559
 -1       365    8    0    1
 -2       106       107       265      1205      1565      1566
 -1       366    8    0    1
 -2       106       265       264      1566      1567      1562
 -1       367    8    0    1
 -2       107       108       266      1206      1568      1569
 -1       368    8    0    1
 -2       107       266       265      1569      1570      1565
 -1       369    8    0    1
 -2       108       109       267      1207      1571      1572
 -1       370    8    0    1
 -2       108       267       266      1572      1573      1568
 -1       371    8    0    1
 -2       109       110       268      1208      1574      1575
 -1       372    8    0    1
 -2       109       268       267      1575      1576      1571
 -1       373    8    0    1
 -2       110       111       269      1209      1577      1578
 -1       374    8    0    1
 -2       110       269       268      1578      1579      1574
 -1       375    8    0    1
 -2       111       112       270      1210      1580      1581
 -1       376    8    0    1
 -2       111       270       269      1581      1582      1577
 -1       377    8    0    1
 -2       112       113       271      1211      1583      1584
 -1       378    8    0    1
 -2       112       271       270      1584      1585      1580
 -1       379    8    0    1
 -2       113       114       272      1212      1586      1587
 -1       380    8    0    1
 -2       113       272       271      1587      1588      1583
 -1       381    8    0    1
 -2       114       115       273      1213      1589      1590
 -1       382    8    0    1
 -2       114       273       272      1590      1591      1586
 -1       383    8    0    1
 -2       115       116       274      1214      1592      1593
 -1       384    8    0    1
 -2       115       274       273      1593      1594      1589
 -1       385    8    0    1
 -2       116       117       275      1215      1595      1596
 -1       386    8    0    1
 -2       116       275       274      1596      1597      1592
 -1       387    8    0    1
 -2       117       118       276      1216      1598      1599
 -1       388    8    0    1
 -2       117       276       275      1599      1600      1595
 -1       389    8    0    1
 -2       118       119       277      1217      1601      1602
 -1       390    8    0    1
 -2       118       277       276      1602      1603      1598
 -1       391    8    0    1
 -2       119       120       278      1218      1604      1605
 -1       392    8    0    1
 -2       119       278       277      1605      1606      1601
 -1       393    8    0    1
 -2       120         3       121      1219      1220      1607
 -1       394    8    0    1
 -2       121       122       279      1221      1608      1609
 -1       395    8    0    1
 -2       122       123       280      1222      1610      1611
 -1       396    8    0    1
 -2       122       280       279      1611      1612      1608
 -1       397    8    0    1
 -2       123       124       281      1223      1613      1614
 -1       398    8    0    1
 -2       123       281       280      1614      1615      1610
 -1       399    8    0    1
 -2       124       125       282      1224      1616      1617
 -1       400    8    0    1
 -2       124       282       281      1617      1618      1613
 -1       401    8    0    1
 -2       125       126       283      1225      1619      1620
 -1       402    8    0    1
 -2       125       283       282      1620      1621      1616
 -1       403    8    0    1
 -2       127       128       284      1227      1622      1623
 -1       404    8    0    1
 -2       129       130       285      1229      1624      1625
 -1       405    8    0    1
 -2       130       131       286      1230      1626      1627
 -1       406    8    0    1
 -2       130       286       285      1627      1628      1624
 -1       407    8    0    1
 -2       131       132       287      1231      1629      1630
 -1       408    8    0    1
 -2       131       287       286      1630      1631      1626
 -1       409    8    0    1
 -2       132       133       288      1232      1632      1633
 -1       410    8    0    1
 -2       132       288       287      1633      1634      1629
 -1       411    8    0    1
 -2       133       134       289      1233      1635      1636
 -1       412    8    0    1
 -2       133       289       288      1636      1637      1632
 -1       413    8    0    1
 -2       134       135       290      1234      1638      1639
 -1       414    8    0    1
 -2       134       290       289      1639      1640      1635
 -1       415    8    0    1
 -2       135       136       291      1235      1641      1642
 -1       416    8    0    1
 -2       135       291       290      1642      1643      1638
 -1       417    8    0    1
 -2       136       137       292      1236      1644      1645
 -1       418    8    0    1
 -2       136       292       291      1645      1646      1641
 -1       419    8    0    1
 -2       137       138       293      1237      1647      1648
 -1       420    8    0    1
 -2       292       137       293      1644      1648      1649
 -1       421    8    0    1
 -2       138       230       293      1462      1650      1647
 -1       422    8    0    1
 -2         2       139       294      1239      1651      1652
 -1       423    8    0    1
 -2       139       140       295      1240      1653      1654
 -1       424    8    0    1
 -2       140       141       296      1241      1655      1656
 -1       425    8    0    1
 -2       141       142       297      1242      1657      1658
 -1       426    8    0    1
 -2       142       143       298      1243      1659      1660
 -1       427    8    0    1
 -2       143       144       299      1244      1661      1662
 -1       428    8    0    1
 -2       144       145       300      1245      1663      1664
 -1       429    8    0    1
 -2       145       146       301      1246      1665      1666
 -1       430    8    0    1
 -2       146       147       302      1247      1667      1668
 -1       431    8    0    1
 -2       147       148       303      1248      1669      1670
 -1       432    8    0    1
 -2       148       149       304      1249      1671      1672
 -1       433    8    0    1
 -2       149       150       305      1250      1673      1674
 -1       434    8    0    1
 -2       150       151       306      1251      1675      1676
 -1       435    8    0    1
 -2       151       152       307      1252      1677      1678
 -1       436    8    0    1
 -2       152       153       308      1253      1679      1680
 -1       437    8    0    1
 -2       153       154       309      1254      1681      1682
 -1       438    8    0    1
 -2       154       155       310      1255      1683      1684
 -1       439    8    0    1
 -2       155       156       311      1256      1685      1686
 -1       440    8    0    1
 -2       156       157       312      1257      1687      1688
 -1       441    8    0    1
 -2       157       158       313      1258      1689      1690
 -1       442    8    0    1
 -2       158       159       314      1259      1691      1692
 -1       443    8    0    1
 -2       159         1       315      1260      1693      1694
 -1       444    8    0    1
 -2         1       160       316      1261      1695      1696
 -1       445    8    0    1
 -2       160       161       317      1262      1697      1698
 -1       446    8    0    1
 -2       161       162       318      1263      1699      1700
 -1       447    8    0    1
 -2       161       318       317      1700      1701      1697
 -1       448    8    0    1
 -2       162       163       319      1264      1702      1703
 -1       449    8    0    1
 -2       163       164       320      1265      1704      1705
 -1       450    8    0    1
 -2       164       165       321      1266      1706      1707
 -1       451    8    0    1
 -2       165       166       322      1267      1708      1709
 -1       452    8    0    1
 -2       166         2       323      1268      1710      1711
 -1       453    8    0    1
 -2       322       166       323      1708      1711      1712
 -1       454    8    0    1
 -2         2       294       323      1652      1713      1710
 -1       455    8    0    1
 -2       120       121       278      1607      1714      1604
 -1       456    8    0    1
 -2       121       279       278      1609      1715      1714
 -1       457    8    0    1
 -2       127       284       324      1623      1716      1717
 -1       458    8    0    1
 -2       127       324       126      1717      1718      1226
 -1       459    8    0    1
 -2       283       126       324      1619      1718      1719
 -1       460    8    0    1
 -2       128       129       325      1228      1720      1721
 -1       461    8    0    1
 -2       294       139       295      1651      1654      1722
 -1       462    8    0    1
 -2       295       140       296      1653      1656      1723
 -1       463    8    0    1
 -2       128       325       284      1721      1724      1622
 -1       464    8    0    1
 -2       141       297       296      1658      1725      1655
 -1       465    8    0    1
 -2       142       298       297      1660      1726      1657
 -1       466    8    0    1
 -2       143       299       298      1662      1727      1659
 -1       467    8    0    1
 -2       144       300       299      1664      1728      1661
 -1       468    8    0    1
 -2       145       301       300      1666      1729      1663
 -1       469    8    0    1
 -2       146       302       301      1668      1730      1665
 -1       470    8    0    1
 -2       147       303       302      1670      1731      1667
 -1       471    8    0    1
 -2       148       304       303      1672      1732      1669
 -1       472    8    0    1
 -2       149       305       304      1674      1733      1671
 -1       473    8    0    1
 -2       150       306       305      1676      1734      1673
 -1       474    8    0    1
 -2       151       307       306      1678      1735      1675
 -1       475    8    0    1
 -2       152       308       307      1680      1736      1677
 -1       476    8    0    1
 -2       153       309       308      1682      1737      1679
 -1       477    8    0    1
 -2       154       310       309      1684      1738      1681
 -1       478    8    0    1
 -2       155       311       310      1686      1739      1683
 -1       479    8    0    1
 -2       156       312       311      1688      1740      1685
 -1       480    8    0    1
 -2       157       313       312      1690      1741      1687
 -1       481    8    0    1
 -2       158       314       313      1692      1742      1689
 -1       482    8    0    1
 -2       159       315       314      1694      1743      1691
 -1       483    8    0    1
 -2         1       316       315      1696      1744      1693
 -1       484    8    0    1
 -2       160       317       316      1698      1745      1695
 -1       485    8    0    1
 -2       319       163       320      1702      1705      1746
 -1       486    8    0    1
 -2       164       321       320      1707      1747      1704
 -1       487    8    0    1
 -2       165       322       321      1709      1748      1706
 -1       488    8    0    1
 -2        23         7       167      1269      1271      1749
 -1       489    8    0    1
 -2       162       319       318      1703      1750      1699
 -1       490    8    0    1
 -2       168       169       326      1277      1751      1752
 -1       491    8    0    1
 -2       167       168       327      1274      1753      1754
 -1       492    8    0    1
 -2       168       326       327      1752      1755      1753
 -1       493    8    0    1
 -2       170       171       328      1283      1756      1757
 -1       494    8    0    1
 -2       171       172       329      1286      1758      1759
 -1       495    8    0    1
 -2       171       329       328      1759      1760      1756
 -1       496    8    0    1
 -2       172       173       330      1289      1761      1762
 -1       497    8    0    1
 -2       172       330       329      1762      1763      1758
 -1       498    8    0    1
 -2       173       174       331      1292      1764      1765
 -1       499    8    0    1
 -2       173       331       330      1765      1766      1761
 -1       500    8    0    1
 -2       174       175       332      1295      1767      1768
 -1       501    8    0    1
 -2       174       332       331      1768      1769      1764
 -1       502    8    0    1
 -2       175       176       333      1298      1770      1771
 -1       503    8    0    1
 -2       175       333       332      1771      1772      1767
 -1       504    8    0    1
 -2       176       177       334      1301      1773      1774
 -1       505    8    0    1
 -2       176       334       333      1774      1775      1770
 -1       506    8    0    1
 -2       177       178       335      1304      1776      1777
 -1       507    8    0    1
 -2       177       335       334      1777      1778      1773
 -1       508    8    0    1
 -2       178       179       336      1307      1779      1780
 -1       509    8    0    1
 -2       178       336       335      1780      1781      1776
 -1       510    8    0    1
 -2       179       180       337      1310      1782      1783
 -1       511    8    0    1
 -2       179       337       336      1783      1784      1779
 -1       512    8    0    1
 -2       180       181       338      1313      1785      1786
 -1       513    8    0    1
 -2       180       338       337      1786      1787      1782
 -1       514    8    0    1
 -2       181       182       339      1316      1788      1789
 -1       515    8    0    1
 -2       338       181       339      1785      1789      1790
 -1       516    8    0    1
 -2       182       231       339      1465      1791      1788
 -1       517    8    0    1
 -2       183        23       167      1318      1749      1792
 -1       518    8    0    1
 -2       231       232       340      1468      1793      1794
 -1       519    8    0    1
 -2       231       340       339      1794      1795      1791
 -1       520    8    0    1
 -2       318       319       341      1750      1796      1797
 -1       521    8    0    1
 -2       183       167       327      1792      1754      1798
 -1       522    8    0    1
 -2       185       184       342      1325      1799      1800
 -1       523    8    0    1
 -2       186       185       343      1328      1801      1802
 -1       524    8    0    1
 -2       185       342       343      1800      1803      1801
 -1       525    8    0    1
 -2       187       186       344      1331      1804      1805
 -1       526    8    0    1
 -2       186       343       344      1802      1806      1804
 -1       527    8    0    1
 -2       188       187       345      1334      1807      1808
 -1       528    8    0    1
 -2       187       344       345      1805      1809      1807
 -1       529    8    0    1
 -2       189       188       346      1337      1810      1811
 -1       530    8    0    1
 -2       188       345       346      1808      1812      1810
 -1       531    8    0    1
 -2       190       189       347      1340      1813      1814
 -1       532    8    0    1
 -2       189       346       347      1811      1815      1813
 -1       533    8    0    1
 -2       191       190       348      1343      1816      1817
 -1       534    8    0    1
 -2       190       347       348      1814      1818      1816
 -1       535    8    0    1
 -2       192       191       349      1346      1819      1820
 -1       536    8    0    1
 -2       191       348       349      1817      1821      1819
 -1       537    8    0    1
 -2       193       192       350      1349      1822      1823
 -1       538    8    0    1
 -2       192       349       350      1820      1824      1822
 -1       539    8    0    1
 -2       194       193       351      1352      1825      1826
 -1       540    8    0    1
 -2       193       350       351      1823      1827      1825
 -1       541    8    0    1
 -2       195       194       352      1355      1828      1829
 -1       542    8    0    1
 -2       194       351       352      1826      1830      1828
 -1       543    8    0    1
 -2       196       195       353      1358      1831      1832
 -1       544    8    0    1
 -2       195       352       353      1829      1833      1831
 -1       545    8    0    1
 -2       197       196       354      1361      1834      1835
 -1       546    8    0    1
 -2       196       353       354      1832      1836      1834
 -1       547    8    0    1
 -2       198       197       355      1364      1837      1838
 -1       548    8    0    1
 -2       197       354       355      1835      1839      1837
 -1       549    8    0    1
 -2       199       198       356      1367      1840      1841
 -1       550    8    0    1
 -2       198       355       356      1838      1842      1840
 -1       551    8    0    1
 -2       200       199       357      1370      1843      1844
 -1       552    8    0    1
 -2       199       356       357      1841      1845      1843
 -1       553    8    0    1
 -2       201       200       358      1373      1846      1847
 -1       554    8    0    1
 -2       200       357       358      1844      1848      1846
 -1       555    8    0    1
 -2       202       201       359      1376      1849      1850
 -1       556    8    0    1
 -2       201       358       359      1847      1851      1849
 -1       557    8    0    1
 -2       203       202       360      1379      1852      1853
 -1       558    8    0    1
 -2       202       359       360      1850      1854      1852
 -1       559    8    0    1
 -2       204       203       361      1382      1855      1856
 -1       560    8    0    1
 -2       203       360       361      1853      1857      1855
 -1       561    8    0    1
 -2       205       204       362      1385      1858      1859
 -1       562    8    0    1
 -2       204       361       362      1856      1860      1858
 -1       563    8    0    1
 -2       206       205       363      1388      1861      1862
 -1       564    8    0    1
 -2       205       362       363      1859      1863      1861
 -1       565    8    0    1
 -2       207       206       364      1391      1864      1865
 -1       566    8    0    1
 -2       206       363       364      1862      1866      1864
 -1       567    8    0    1
 -2       208       207       365      1394      1867      1868
 -1       568    8    0    1
 -2       207       364       365      1865      1869      1867
 -1       569    8    0    1
 -2       209       208       366      1397      1870      1871
 -1       570    8    0    1
 -2       208       365       366      1868      1872      1870
 -1       571    8    0    1
 -2       210       209       367      1400      1873      1874
 -1       572    8    0    1
 -2       209       366       367      1871      1875      1873
 -1       573    8    0    1
 -2       211       210       368      1403      1876      1877
 -1       574    8    0    1
 -2       210       367       368      1874      1878      1876
 -1       575    8    0    1
 -2       212       211       369      1406      1879      1880
 -1       576    8    0    1
 -2       211       368       369      1877      1881      1879
 -1       577    8    0    1
 -2       213       212       370      1409      1882      1883
 -1       578    8    0    1
 -2       212       369       370      1880      1884      1882
 -1       579    8    0    1
 -2       214       213       371      1412      1885      1886
 -1       580    8    0    1
 -2       213       370       371      1883      1887      1885
 -1       581    8    0    1
 -2       215       214       372      1415      1888      1889
 -1       582    8    0    1
 -2       214       371       372      1886      1890      1888
 -1       583    8    0    1
 -2       216       215       373      1418      1891      1892
 -1       584    8    0    1
 -2       215       372       373      1889      1893      1891
 -1       585    8    0    1
 -2       217       216       374      1421      1894      1895
 -1       586    8    0    1
 -2       216       373       374      1892      1896      1894
 -1       587    8    0    1
 -2       218       217       375      1424      1897      1898
 -1       588    8    0    1
 -2       217       374       375      1895      1899      1897
 -1       589    8    0    1
 -2       219       218       376      1427      1900      1901
 -1       590    8    0    1
 -2       218       375       376      1898      1902      1900
 -1       591    8    0    1
 -2       220       219       377      1430      1903      1904
 -1       592    8    0    1
 -2       219       376       377      1901      1905      1903
 -1       593    8    0    1
 -2       221       220       378      1433      1906      1907
 -1       594    8    0    1
 -2       220       377       378      1904      1908      1906
 -1       595    8    0    1
 -2       222       221       379      1436      1909      1910
 -1       596    8    0    1
 -2       221       378       379      1907      1911      1909
 -1       597    8    0    1
 -2       223       222       380      1439      1912      1913
 -1       598    8    0    1
 -2       222       379       380      1910      1914      1912
 -1       599    8    0    1
 -2       224       223       381      1442      1915      1916
 -1       600    8    0    1
 -2       223       380       381      1913      1917      1915
 -1       601    8    0    1
 -2       225       224       382      1445      1918      1919
 -1       602    8    0    1
 -2       224       381       382      1916      1920      1918
 -1       603    8    0    1
 -2       226       225       383      1448      1921      1922
 -1       604    8    0    1
 -2       225       382       383      1919      1923      1921
 -1       605    8    0    1
 -2       227       226       384      1451      1924      1925
 -1       606    8    0    1
 -2       226       383       384      1922      1926      1924
 -1       607    8    0    1
 -2       228       227       385      1454      1927      1928
 -1       608    8    0    1
 -2       227       384       385      1925      1929      1927
 -1       609    8    0    1
 -2       229       228       386      1457      1930      1931
 -1       610    8    0    1
 -2       228       385       386      1928      1932      1930
 -1       611    8    0    1
 -2       230       229       387      1460      1933      1934
 -1       612    8    0    1
 -2       229       386       387      1931      1935      1933
 -1       613    8    0    1
 -2       232       233       388      1471      1936      1937
 -1       614    8    0    1
 -2       232       388       340      1937      1938      1793
 -1       615    8    0    1
 -2       233       234       389      1474      1939      1940
 -1       616    8    0    1
 -2       233       389       388      1940      1941      1936
 -1       617    8    0    1
 -2       234       235       390      1477      1942      1943
 -1       618    8    0    1
 -2       234       390       389      1943      1944      1939
 -1       619    8    0    1
 -2       235       236       391      1480      1945      1946
 -1       620    8    0    1
 -2       235       391       390      1946      1947      1942
 -1       621    8    0    1
 -2       236       237       392      1483      1948      1949
 -1       622    8    0    1
 -2       236       392       391      1949      1950      1945
 -1       623    8    0    1
 -2       237       238       393      1486      1951      1952
 -1       624    8    0    1
 -2       237       393       392      1952      1953      1948
 -1       625    8    0    1
 -2       238       239       394      1489      1954      1955
 -1       626    8    0    1
 -2       238       394       393      1955      1956      1951
 -1       627    8    0    1
 -2       239       240       395      1492      1957      1958
 -1       628    8    0    1
 -2       239       395       394      1958      1959      1954
 -1       629    8    0    1
 -2       240       241       396      1495      1960      1961
 -1       630    8    0    1
 -2       240       396       395      1961      1962      1957
 -1       631    8    0    1
 -2       241       242       397      1498      1963      1964
 -1       632    8    0    1
 -2       241       397       396      1964      1965      1960
 -1       633    8    0    1
 -2       242       243       398      1501      1966      1967
 -1       634    8    0    1
 -2       242       398       397      1967      1968      1963
 -1       635    8    0    1
 -2       243       244       399      1504      1969      1970
 -1       636    8    0    1
 -2       243       399       398      1970      1971      1966
 -1       637    8    0    1
 -2       244       245       400      1507      1972      1973
 -1       638    8    0    1
 -2       244       400       399      1973      1974      1969
 -1       639    8    0    1
 -2       245       246       401      1510      1975      1976
 -1       640    8    0    1
 -2       245       401       400      1976      1977      1972
 -1       641    8    0    1
 -2       246       247       402      1513      1978      1979
 -1       642    8    0    1
 -2       246       402       401      1979      1980      1975
 -1       643    8    0    1
 -2       247       248       403      1516      1981      1982
 -1       644    8    0    1
 -2       247       403       402      1982      1983      1978
 -1       645    8    0    1
 -2       248       249       404      1519      1984      1985
 -1       646    8    0    1
 -2       248       404       403      1985      1986      1981
 -1       647    8    0    1
 -2       249       250       405      1522      1987      1988
 -1       648    8    0    1
 -2       249       405       404      1988      1989      1984
 -1       649    8    0    1
 -2       250       251       406      1525      1990      1991
 -1       650    8    0    1
 -2       250       406       405      1991      1992      1987
 -1       651    8    0    1
 -2       251       252       407      1528      1993      1994
 -1       652    8    0    1
 -2       251       407       406      1994      1995      1990
 -1       653    8    0    1
 -2       252       253       408      1531      1996      1997
 -1       654    8    0    1
 -2       252       408       407      1997      1998      1993
 -1       655    8    0    1
 -2       253       254       409      1534      1999      2000
 -1       656    8    0    1
 -2       253       409       408      2000      2001      1996
 -1       657    8    0    1
 -2       254       255       410      1537      2002      2003
 -1       658    8    0    1
 -2       254       410       409      2003      2004      1999
 -1       659    8    0    1
 -2       255       256       411      1540      2005      2006
 -1       660    8    0    1
 -2       255       411       410      2006      2007      2002
 -1       661    8    0    1
 -2       256       257       412      1543      2008      2009
 -1       662    8    0    1
 -2       256       412       411      2009      2010      2005
 -1       663    8    0    1
 -2       257       258       413      1546      2011      2012
 -1       664    8    0    1
 -2       257       413       412      2012      2013      2008
 -1       665    8    0    1
 -2       258       259       414      1549      2014      2015
 -1       666    8    0    1
 -2       258       414       413      2015      2016      2011
 -1       667    8    0    1
 -2       259       260       415      1552      2017      2018
 -1       668    8    0    1
 -2       259       415       414      2018      2019      2014
 -1       669    8    0    1
 -2       260       261       416      1555      2020      2021
 -1       670    8    0    1
 -2       260       416       415      2021      2022      2017
 -1       671    8    0    1
 -2       261       262       417      1558      2023      2024
 -1       672    8    0    1
 -2       261       417       416      2024      2025      2020
 -1       673    8    0    1
 -2       262       263       418      1561      2026      2027
 -1       674    8    0    1
 -2       262       418       417      2027      2028      2023
 -1       675    8    0    1
 -2       263       264       419      1564      2029      2030
 -1       676    8    0    1
 -2       263       419       418      2030      2031      2026
 -1       677    8    0    1
 -2       264       265       420      1567      2032      2033
 -1       678    8    0    1
 -2       264       420       419      2033      2034      2029
 -1       679    8    0    1
 -2       265       266       421      1570      2035      2036
 -1       680    8    0    1
 -2       265       421       420      2036      2037      2032
 -1       681    8    0    1
 -2       266       267       422      1573      2038      2039
 -1       682    8    0    1
 -2       266       422       421      2039      2040      2035
 -1       683    8    0    1
 -2       267       268       423      1576      2041      2042
 -1       684    8    0    1
 -2       267       423       422      2042      2043      2038
 -1       685    8    0    1
 -2       268       269       424      1579      2044      2045
 -1       686    8    0    1
 -2       268       424       423      2045      2046      2041
 -1       687    8    0    1
 -2       269       270       425      1582      2047      2048
 -1       688    8    0    1
 -2       269       425       424      2048      2049      2044
 -1       689    8    0    1
 -2       270       271       426      1585      2050      2051
 -1       690    8    0    1
 -2       270       426       425      2051      2052      2047
 -1       691    8    0    1
 -2       271       272       427      1588      2053      2054
 -1       692    8    0    1
 -2       271       427       426      2054      2055      2050
 -1       693    8    0    1
 -2       272       273       428      1591      2056      2057
 -1       694    8    0    1
 -2       272       428       427      2057      2058      2053
 -1       695    8    0    1
 -2       273       274       429      1594      2059      2060
 -1       696    8    0    1
 -2       273       429       428      2060      2061      2056
 -1       697    8    0    1
 -2       274       275       430      1597      2062      2063
 -1       698    8    0    1
 -2       274       430       429      2063      2064      2059
 -1       699    8    0    1
 -2       275       276       431      1600      2065      2066
 -1       700    8    0    1
 -2       275       431       430      2066      2067      2062
 -1       701    8    0    1
 -2       276       277       432      1603      2068      2069
 -1       702    8    0    1
 -2       276       432       431      2069      2070      2065
 -1       703    8    0    1
 -2       277       278       433      1606      2071      2072
 -1       704    8    0    1
 -2       432       277       433      2068      2072      2073
 -1       705    8    0    1
 -2       278       279       433      1715      2074      2071
 -1       706    8    0    1
 -2       281       282       434      1618      2075      2076
 -1       707    8    0    1
 -2       280       281       435      1615      2077      2078
 -1       708    8    0    1
 -2       281       434       435      2076      2079      2077
 -1       709    8    0    1
 -2       279       280       436      1612      2080      2081
 -1       710    8    0    1
 -2       433       279       436      2074      2081      2082
 -1       711    8    0    1
 -2       280       435       436      2078      2083      2080
 -1       712    8    0    1
 -2       282       283       437      1621      2084      2085
 -1       713    8    0    1
 -2       282       437       434      2085      2086      2075
 -1       714    8    0    1
 -2       325       129       285      1720      1625      2087
 -1       715    8    0    1
 -2       283       324       438      1719      2088      2089
 -1       716    8    0    1
 -2       289       290       439      1640      2090      2091
 -1       717    8    0    1
 -2       290       291       440      1643      2092      2093
 -1       718    8    0    1
 -2       290       440       439      2093      2094      2090
 -1       719    8    0    1
 -2       291       292       441      1646      2095      2096
 -1       720    8    0    1
 -2       291       441       440      2096      2097      2092
 -1       721    8    0    1
 -2       295       296       284      1723      2098      2099
 -1       722    8    0    1
 -2       284       325       295      1724      2100      2099
 -1       723    8    0    1
 -2       317       318       442      1701      2101      2102
 -1       724    8    0    1
 -2       318       341       442      1797      2103      2101
 -1       725    8    0    1
 -2       320       321       443      1747      2104      2105
 -1       726    8    0    1
 -2       169       170       444      1280      2106      2107
 -1       727    8    0    1
 -2       326       169       444      1751      2107      2108
 -1       728    8    0    1
 -2       170       328       444      1757      2109      2106
 -1       729    8    0    1
 -2       297       298       438      1726      2110      2111
 -1       730    8    0    1
 -2       298       299       445      1727      2112      2113
 -1       731    8    0    1
 -2       299       300       446      1728      2114      2115
 -1       732    8    0    1
 -2       300       301       447      1729      2116      2117
 -1       733    8    0    1
 -2       301       302       448      1730      2118      2119
 -1       734    8    0    1
 -2       302       303       449      1731      2120      2121
 -1       735    8    0    1
 -2       303       304       450      1732      2122      2123
 -1       736    8    0    1
 -2       304       305       451      1733      2124      2125
 -1       737    8    0    1
 -2       304       451       450      2125      2126      2122
 -1       738    8    0    1
 -2       305       306       452      1734      2127      2128
 -1       739    8    0    1
 -2       306       307       453      1735      2129      2130
 -1       740    8    0    1
 -2       306       453       452      2130      2131      2127
 -1       741    8    0    1
 -2       307       308       454      1736      2132      2133
 -1       742    8    0    1
 -2       308       309       455      1737      2134      2135
 -1       743    8    0    1
 -2       309       310       456      1738      2136      2137
 -1       744    8    0    1
 -2       310       311       457      1739      2138      2139
 -1       745    8    0    1
 -2       311       312       458      1740      2140      2141
 -1       746    8    0    1
 -2       312       313       459      1741      2142      2143
 -1       747    8    0    1
 -2       313       314       460      1742      2144      2145
 -1       748    8    0    1
 -2       314       315       461      1743      2146      2147
 -1       749    8    0    1
 -2       314       461       460      2147      2148      2144
 -1       750    8    0    1
 -2       315       316       462      1744      2149      2150
 -1       751    8    0    1
 -2       316       317       463      1745      2151      2152
 -1       752    8    0    1
 -2       316       463       462      2152      2153      2149
 -1       753    8    0    1
 -2       319       320       464      1746      2154      2155
 -1       754    8    0    1
 -2       284       296       324      2098      2156      1716
 -1       755    8    0    1
 -2       324       296       297      2156      1725      2157
 -1       756    8    0    1
 -2       324       297       438      2157      2111      2088
 -1       757    8    0    1
 -2       320       443       464      2105      2158      2154
 -1       758    8    0    1
 -2       341       319       464      1796      2155      2159
 -1       759    8    0    1
 -2       184       183       327      1322      1798      2160
 -1       760    8    0    1
 -2       342       184       327      1799      2160      2161
 -1       761    8    0    1
 -2       230       387       293      1934      2162      1650
 -1       762    8    0    1
 -2       287       288       443      1634      2163      2164
 -1       763    8    0    1
 -2       286       287       321      1631      2165      2166
 -1       764    8    0    1
 -2       325       285       294      2087      2167      2168
 -1       765    8    0    1
 -2       317       442       465      2102      2169      2170
 -1       766    8    0    1
 -2       317       465       463      2170      2171      2151
 -1       767    8    0    1
 -2       289       439       341      2091      2172      2173
 -1       768    8    0    1
 -2       294       295       325      1722      2100      2168
 -1       769    8    0    1
 -2       285       286       322      1628      2174      2175
 -1       770    8    0    1
 -2       441       292       293      2095      1649      2176
 -1       771    8    0    1
 -2       287       443       321      2164      2104      2165
 -1       772    8    0    1
 -2       294       285       323      2167      2177      1713
 -1       773    8    0    1
 -2       443       288       464      2163      2178      2158
 -1       774    8    0    1
 -2       286       321       322      2166      1748      2174
 -1       775    8    0    1
 -2       461       315       462      2146      2150      2179
 -1       776    8    0    1
 -2       459       313       460      2142      2145      2180
 -1       777    8    0    1
 -2       458       312       466      2140      2181      2182
 -1       778    8    0    1
 -2       312       459       466      2143      2183      2181
 -1       779    8    0    1
 -2       457       311       458      2138      2141      2184
 -1       780    8    0    1
 -2       456       310       457      2136      2139      2185
 -1       781    8    0    1
 -2       455       309       456      2134      2137      2186
 -1       782    8    0    1
 -2       453       307       454      2129      2133      2187
 -1       783    8    0    1
 -2       451       305       452      2124      2128      2188
 -1       784    8    0    1
 -2       449       303       467      2120      2189      2190
 -1       785    8    0    1
 -2       303       450       467      2123      2191      2189
 -1       786    8    0    1
 -2       448       302       449      2118      2121      2192
 -1       787    8    0    1
 -2       447       301       448      2116      2119      2193
 -1       788    8    0    1
 -2       446       300       447      2114      2117      2194
 -1       789    8    0    1
 -2       445       299       446      2112      2115      2195
 -1       790    8    0    1
 -2       298       445       438      2113      2196      2110
 -1       791    8    0    1
 -2       454       308       455      2132      2135      2197
 -1       792    8    0    1
 -2       340       388       468      1938      2198      2199
 -1       793    8    0    1
 -2       329       330       469      1763      2200      2201
 -1       794    8    0    1
 -2       328       329       470      1760      2202      2203
 -1       795    8    0    1
 -2       329       469       470      2201      2204      2202
 -1       796    8    0    1
 -2       331       332       471      1769      2205      2206
 -1       797    8    0    1
 -2       332       333       472      1772      2207      2208
 -1       798    8    0    1
 -2       332       472       471      2208      2209      2205
 -1       799    8    0    1
 -2       333       334       473      1775      2210      2211
 -1       800    8    0    1
 -2       333       473       472      2211      2212      2207
 -1       801    8    0    1
 -2       334       335       474      1778      2213      2214
 -1       802    8    0    1
 -2       334       474       473      2214      2215      2210
 -1       803    8    0    1
 -2       335       336       475      1781      2216      2217
 -1       804    8    0    1
 -2       335       475       474      2217      2218      2213
 -1       805    8    0    1
 -2       336       337       476      1784      2219      2220
 -1       806    8    0    1
 -2       336       476       475      2220      2221      2216
 -1       807    8    0    1
 -2       343       342       477      1803      2222      2223
 -1       808    8    0    1
 -2       388       389       478      1941      2224      2225
 -1       809    8    0    1
 -2       388       478       468      2225      2226      2198
 -1       810    8    0    1
 -2       342       327       479      2161      2227      2228
 -1       811    8    0    1
 -2       477       342       479      2222      2228      2229
 -1       812    8    0    1
 -2       327       326       479      1755      2230      2227
 -1       813    8    0    1
 -2       344       343       480      1806      2231      2232
 -1       814    8    0    1
 -2       343       477       480      2223      2233      2231
 -1       815    8    0    1
 -2       345       344       481      1809      2234      2235
 -1       816    8    0    1
 -2       344       480       481      2232      2236      2234
 -1       817    8    0    1
 -2       346       345       482      1812      2237      2238
 -1       818    8    0    1
 -2       345       481       482      2235      2239      2237
 -1       819    8    0    1
 -2       347       346       483      1815      2240      2241
 -1       820    8    0    1
 -2       346       482       483      2238      2242      2240
 -1       821    8    0    1
 -2       348       347       484      1818      2243      2244
 -1       822    8    0    1
 -2       347       483       484      2241      2245      2243
 -1       823    8    0    1
 -2       349       348       485      1821      2246      2247
 -1       824    8    0    1
 -2       348       484       485      2244      2248      2246
 -1       825    8    0    1
 -2       350       349       486      1824      2249      2250
 -1       826    8    0    1
 -2       349       485       486      2247      2251      2249
 -1       827    8    0    1
 -2       351       350       487      1827      2252      2253
 -1       828    8    0    1
 -2       350       486       487      2250      2254      2252
 -1       829    8    0    1
 -2       352       351       488      1830      2255      2256
 -1       830    8    0    1
 -2       351       487       488      2253      2257      2255
 -1       831    8    0    1
 -2       353       352       489      1833      2258      2259
 -1       832    8    0    1
 -2       352       488       489      2256      2260      2258
 -1       833    8    0    1
 -2       354       353       490      1836      2261      2262
 -1       834    8    0    1
 -2       353       489       490      2259      2263      2261
 -1       835    8    0    1
 -2       355       354       491      1839      2264      2265
 -1       836    8    0    1
 -2       354       490       491      2262      2266      2264
 -1       837    8    0    1
 -2       356       355       492      1842      2267      2268
 -1       838    8    0    1
 -2       355       491       492      2265      2269      2267
 -1       839    8    0    1
 -2       357       356       493      1845      2270      2271
 -1       840    8    0    1
 -2       356       492       493      2268      2272      2270
 -1       841    8    0    1
 -2       358       357       494      1848      2273      2274
 -1       842    8    0    1
 -2       357       493       494      2271      2275      2273
 -1       843    8    0    1
 -2       359       358       495      1851      2276      2277
 -1       844    8    0    1
 -2       358       494       495      2274      2278      2276
 -1       845    8    0    1
 -2       360       359       496      1854      2279      2280
 -1       846    8    0    1
 -2       359       495       496      2277      2281      2279
 -1       847    8    0    1
 -2       361       360       497      1857      2282      2283
 -1       848    8    0    1
 -2       360       496       497      2280      2284      2282
 -1       849    8    0    1
 -2       362       361       498      1860      2285      2286
 -1       850    8    0    1
 -2       361       497       498      2283      2287      2285
 -1       851    8    0    1
 -2       363       362       499      1863      2288      2289
 -1       852    8    0    1
 -2       362       498       499      2286      2290      2288
 -1       853    8    0    1
 -2       364       363       500      1866      2291      2292
 -1       854    8    0    1
 -2       363       499       500      2289      2293      2291
 -1       855    8    0    1
 -2       365       364       501      1869      2294      2295
 -1       856    8    0    1
 -2       364       500       501      2292      2296      2294
 -1       857    8    0    1
 -2       366       365       502      1872      2297      2298
 -1       858    8    0    1
 -2       365       501       502      2295      2299      2297
 -1       859    8    0    1
 -2       367       366       503      1875      2300      2301
 -1       860    8    0    1
 -2       366       502       503      2298      2302      2300
 -1       861    8    0    1
 -2       368       367       504      1878      2303      2304
 -1       862    8    0    1
 -2       367       503       504      2301      2305      2303
 -1       863    8    0    1
 -2       369       368       505      1881      2306      2307
 -1       864    8    0    1
 -2       368       504       505      2304      2308      2306
 -1       865    8    0    1
 -2       370       369       506      1884      2309      2310
 -1       866    8    0    1
 -2       369       505       506      2307      2311      2309
 -1       867    8    0    1
 -2       371       370       507      1887      2312      2313
 -1       868    8    0    1
 -2       370       506       507      2310      2314      2312
 -1       869    8    0    1
 -2       372       371       508      1890      2315      2316
 -1       870    8    0    1
 -2       371       507       508      2313      2317      2315
 -1       871    8    0    1
 -2       373       372       509      1893      2318      2319
 -1       872    8    0    1
 -2       372       508       509      2316      2320      2318
 -1       873    8    0    1
 -2       374       373       510      1896      2321      2322
 -1       874    8    0    1
 -2       373       509       510      2319      2323      2321
 -1       875    8    0    1
 -2       375       374       511      1899      2324      2325
 -1       876    8    0    1
 -2       374       510       511      2322      2326      2324
 -1       877    8    0    1
 -2       376       375       512      1902      2327      2328
 -1       878    8    0    1
 -2       375       511       512      2325      2329      2327
 -1       879    8    0    1
 -2       377       376       513      1905      2330      2331
 -1       880    8    0    1
 -2       376       512       513      2328      2332      2330
 -1       881    8    0    1
 -2       378       377       514      1908      2333      2334
 -1       882    8    0    1
 -2       377       513       514      2331      2335      2333
 -1       883    8    0    1
 -2       379       378       515      1911      2336      2337
 -1       884    8    0    1
 -2       378       514       515      2334      2338      2336
 -1       885    8    0    1
 -2       380       379       516      1914      2339      2340
 -1       886    8    0    1
 -2       379       515       516      2337      2341      2339
 -1       887    8    0    1
 -2       381       380       517      1917      2342      2343
 -1       888    8    0    1
 -2       380       516       517      2340      2344      2342
 -1       889    8    0    1
 -2       382       381       518      1920      2345      2346
 -1       890    8    0    1
 -2       381       517       518      2343      2347      2345
 -1       891    8    0    1
 -2       383       382       519      1923      2348      2349
 -1       892    8    0    1
 -2       382       518       519      2346      2350      2348
 -1       893    8    0    1
 -2       384       383       520      1926      2351      2352
 -1       894    8    0    1
 -2       383       519       520      2349      2353      2351
 -1       895    8    0    1
 -2       385       384       521      1929      2354      2355
 -1       896    8    0    1
 -2       384       520       521      2352      2356      2354
 -1       897    8    0    1
 -2       386       385       522      1932      2357      2358
 -1       898    8    0    1
 -2       385       521       522      2355      2359      2357
 -1       899    8    0    1
 -2       387       386       523      1935      2360      2361
 -1       900    8    0    1
 -2       386       522       523      2358      2362      2360
 -1       901    8    0    1
 -2       389       390       524      1944      2363      2364
 -1       902    8    0    1
 -2       389       524       478      2364      2365      2224
 -1       903    8    0    1
 -2       390       391       525      1947      2366      2367
 -1       904    8    0    1
 -2       390       525       524      2367      2368      2363
 -1       905    8    0    1
 -2       391       392       526      1950      2369      2370
 -1       906    8    0    1
 -2       391       526       525      2370      2371      2366
 -1       907    8    0    1
 -2       392       393       527      1953      2372      2373
 -1       908    8    0    1
 -2       392       527       526      2373      2374      2369
 -1       909    8    0    1
 -2       393       394       528      1956      2375      2376
 -1       910    8    0    1
 -2       393       528       527      2376      2377      2372
 -1       911    8    0    1
 -2       394       395       529      1959      2378      2379
 -1       912    8    0    1
 -2       394       529       528      2379      2380      2375
 -1       913    8    0    1
 -2       395       396       530      1962      2381      2382
 -1       914    8    0    1
 -2       395       530       529      2382      2383      2378
 -1       915    8    0    1
 -2       396       397       531      1965      2384      2385
 -1       916    8    0    1
 -2       396       531       530      2385      2386      2381
 -1       917    8    0    1
 -2       397       398       532      1968      2387      2388
 -1       918    8    0    1
 -2       397       532       531      2388      2389      2384
 -1       919    8    0    1
 -2       398       399       533      1971      2390      2391
 -1       920    8    0    1
 -2       398       533       532      2391      2392      2387
 -1       921    8    0    1
 -2       399       400       534      1974      2393      2394
 -1       922    8    0    1
 -2       399       534       533      2394      2395      2390
 -1       923    8    0    1
 -2       400       401       535      1977      2396      2397
 -1       924    8    0    1
 -2       400       535       534      2397      2398      2393
 -1       925    8    0    1
 -2       401       402       536      1980      2399      2400
 -1       926    8    0    1
 -2       401       536       535      2400      2401      2396
 -1       927    8    0    1
 -2       402       403       537      1983      2402      2403
 -1       928    8    0    1
 -2       402       537       536      2403      2404      2399
 -1       929    8    0    1
 -2       403       404       538      1986      2405      2406
 -1       930    8    0    1
 -2       403       538       537      2406      2407      2402
 -1       931    8    0    1
 -2       404       405       539      1989      2408      2409
 -1       932    8    0    1
 -2       404       539       538      2409      2410      2405
 -1       933    8    0    1
 -2       405       406       540      1992      2411      2412
 -1       934    8    0    1
 -2       405       540       539      2412      2413      2408
 -1       935    8    0    1
 -2       406       407       541      1995      2414      2415
 -1       936    8    0    1
 -2       406       541       540      2415      2416      2411
 -1       937    8    0    1
 -2       407       408       542      1998      2417      2418
 -1       938    8    0    1
 -2       407       542       541      2418      2419      2414
 -1       939    8    0    1
 -2       408       409       543      2001      2420      2421
 -1       940    8    0    1
 -2       408       543       542      2421      2422      2417
 -1       941    8    0    1
 -2       409       410       544      2004      2423      2424
 -1       942    8    0    1
 -2       409       544       543      2424      2425      2420
 -1       943    8    0    1
 -2       410       411       545      2007      2426      2427
 -1       944    8    0    1
 -2       410       545       544      2427      2428      2423
 -1       945    8    0    1
 -2       411       412       546      2010      2429      2430
 -1       946    8    0    1
 -2       411       546       545      2430      2431      2426
 -1       947    8    0    1
 -2       412       413       547      2013      2432      2433
 -1       948    8    0    1
 -2       412       547       546      2433      2434      2429
 -1       949    8    0    1
 -2       413       414       548      2016      2435      2436
 -1       950    8    0    1
 -2       413       548       547      2436      2437      2432
 -1       951    8    0    1
 -2       414       415       549      2019      2438      2439
 -1       952    8    0    1
 -2       414       549       548      2439      2440      2435
 -1       953    8    0    1
 -2       415       416       550      2022      2441      2442
 -1       954    8    0    1
 -2       415       550       549      2442      2443      2438
 -1       955    8    0    1
 -2       416       417       551      2025      2444      2445
 -1       956    8    0    1
 -2       416       551       550      2445      2446      2441
 -1       957    8    0    1
 -2       417       418       552      2028      2447      2448
 -1       958    8    0    1
 -2       417       552       551      2448      2449      2444
 -1       959    8    0    1
 -2       418       419       553      2031      2450      2451
 -1       960    8    0    1
 -2       418       553       552      2451      2452      2447
 -1       961    8    0    1
 -2       419       420       554      2034      2453      2454
 -1       962    8    0    1
 -2       419       554       553      2454      2455      2450
 -1       963    8    0    1
 -2       420       421       555      2037      2456      2457
 -1       964    8    0    1
 -2       420       555       554      2457      2458      2453
 -1       965    8    0    1
 -2       421       422       556      2040      2459      2460
 -1       966    8    0    1
 -2       421       556       555      2460      2461      2456
 -1       967    8    0    1
 -2       422       423       557      2043      2462      2463
 -1       968    8    0    1
 -2       422       557       556      2463      2464      2459
 -1       969    8    0    1
 -2       423       424       558      2046      2465      2466
 -1       970    8    0    1
 -2       423       558       557      2466      2467      2462
 -1       971    8    0    1
 -2       424       425       559      2049      2468      2469
 -1       972    8    0    1
 -2       424       559       558      2469      2470      2465
 -1       973    8    0    1
 -2       425       426       560      2052      2471      2472
 -1       974    8    0    1
 -2       425       560       559      2472      2473      2468
 -1       975    8    0    1
 -2       426       427       561      2055      2474      2475
 -1       976    8    0    1
 -2       426       561       560      2475      2476      2471
 -1       977    8    0    1
 -2       427       428       562      2058      2477      2478
 -1       978    8    0    1
 -2       427       562       561      2478      2479      2474
 -1       979    8    0    1
 -2       428       429       563      2061      2480      2481
 -1       980    8    0    1
 -2       428       563       562      2481      2482      2477
 -1       981    8    0    1
 -2       429       430       564      2064      2483      2484
 -1       982    8    0    1
 -2       429       564       563      2484      2485      2480
 -1       983    8    0    1
 -2       430       431       565      2067      2486      2487
 -1       984    8    0    1
 -2       430       565       564      2487      2488      2483
 -1       985    8    0    1
 -2       431       432       566      2070      2489      2490
 -1       986    8    0    1
 -2       431       566       565      2490      2491      2486
 -1       987    8    0    1
 -2       432       433       436      2073      2082      2492
 -1       988    8    0    1
 -2       437       283       438      2084      2089      2493
 -1       989    8    0    1
 -2       435       434       567      2079      2494      2495
 -1       990    8    0    1
 -2       440       441       568      2097      2496      2497
 -1       991    8    0    1
 -2       441       293       387      2176      2162      2498
 -1       992    8    0    1
 -2       439       440       569      2094      2499      2500
 -1       993    8    0    1
 -2       341       439       569      2172      2500      2501
 -1       994    8    0    1
 -2       440       568       569      2497      2502      2499
 -1       995    8    0    1
 -2       461       462       570      2179      2503      2504
 -1       996    8    0    1
 -2       459       460       571      2180      2505      2506
 -1       997    8    0    1
 -2       330       331       572      1766      2507      2508
 -1       998    8    0    1
 -2       469       330       572      2200      2508      2509
 -1       999    8    0    1
 -2       331       471       572      2206      2510      2507
 -1      1000    8    0    1
 -2       446       447       573      2194      2511      2512
 -1      1001    8    0    1
 -2       447       448       574      2193      2513      2514
 -1      1002    8    0    1
 -2       448       449       575      2192      2515      2516
 -1      1003    8    0    1
 -2       450       451       576      2126      2517      2518
 -1      1004    8    0    1
 -2       451       452       577      2188      2519      2520
 -1      1005    8    0    1
 -2       452       453       578      2131      2521      2522
 -1      1006    8    0    1
 -2       453       454       579      2187      2523      2524
 -1      1007    8    0    1
 -2       455       456       580      2186      2525      2526
 -1      1008    8    0    1
 -2       456       457       581      2185      2527      2528
 -1      1009    8    0    1
 -2       457       458       582      2184      2529      2530
 -1      1010    8    0    1
 -2       457       582       581      2530      2531      2527
 -1      1011    8    0    1
 -2       460       461       583      2148      2532      2533
 -1      1012    8    0    1
 -2       462       463       584      2153      2534      2535
 -1      1013    8    0    1
 -2       454       455       585      2197      2536      2537
 -1      1014    8    0    1
 -2       339       340       586      1795      2538      2539
 -1      1015    8    0    1
 -2       338       339       586      1790      2539      2540
 -1      1016    8    0    1
 -2       340       468       586      2199      2541      2538
 -1      1017    8    0    1
 -2       464       288       289      2178      1637      2542
 -1      1018    8    0    1
 -2       464       289       341      2542      2173      2159
 -1      1019    8    0    1
 -2       446       573       587      2512      2543      2544
 -1      1020    8    0    1
 -2       328       470       588      2203      2545      2546
 -1      1021    8    0    1
 -2       328       588       444      2546      2547      2109
 -1      1022    8    0    1
 -2       337       338       586      1787      2540      2548
 -1      1023    8    0    1
 -2       337       586       476      2548      2549      2219
 -1      1024    8    0    1
 -2       479       326       444      2230      2108      2550
 -1      1025    8    0    1
 -2       575       449       589      2515      2551      2552
 -1      1026    8    0    1
 -2       449       467       589      2190      2553      2551
 -1      1027    8    0    1
 -2       285       322       323      2175      1712      2177
 -1      1028    8    0    1
 -2       432       436       566      2492      2554      2489
 -1      1029    8    0    1
 -2       568       441       523      2496      2555      2556
 -1      1030    8    0    1
 -2       463       465       590      2171      2557      2558
 -1      1031    8    0    1
 -2       463       590       584      2558      2559      2534
 -1      1032    8    0    1
 -2       461       570       583      2504      2560      2532
 -1      1033    8    0    1
 -2       434       437       587      2086      2561      2562
 -1      1034    8    0    1
 -2       436       435       566      2083      2563      2554
 -1      1035    8    0    1
 -2       570       462       584      2503      2535      2564
 -1      1036    8    0    1
 -2       441       387       523      2498      2361      2555
 -1      1037    8    0    1
 -2       435       567       566      2495      2565      2563
 -1      1038    8    0    1
 -2       571       460       583      2505      2533      2566
 -1      1039    8    0    1
 -2       459       571       466      2506      2567      2183
 -1      1040    8    0    1
 -2       582       458       591      2529      2568      2569
 -1      1041    8    0    1
 -2       458       466       591      2182      2570      2568
 -1      1042    8    0    1
 -2       580       456       581      2525      2528      2571
 -1      1043    8    0    1
 -2       579       454       585      2523      2537      2572
 -1      1044    8    0    1
 -2       578       453       579      2521      2524      2573
 -1      1045    8    0    1
 -2       467       450       576      2191      2518      2574
 -1      1046    8    0    1
 -2       577       452       578      2519      2522      2575
 -1      1047    8    0    1
 -2       576       451       577      2517      2520      2576
 -1      1048    8    0    1
 -2       574       448       575      2513      2516      2577
 -1      1049    8    0    1
 -2       573       447       574      2511      2514      2578
 -1      1050    8    0    1
 -2       445       446       587      2195      2544      2579
 -1      1051    8    0    1
 -2       445       587       437      2579      2561      2580
 -1      1052    8    0    1
 -2       455       580       585      2526      2581      2536
 -1      1053    8    0    1
 -2       434       587       567      2562      2582      2494
 -1      1054    8    0    1
 -2       472       473       592      2212      2583      2584
 -1      1055    8    0    1
 -2       471       472       593      2209      2585      2586
 -1      1056    8    0    1
 -2       472       592       593      2584      2587      2585
 -1      1057    8    0    1
 -2       474       475       594      2218      2588      2589
 -1      1058    8    0    1
 -2       475       476       595      2221      2590      2591
 -1      1059    8    0    1
 -2       475       595       594      2591      2592      2588
 -1      1060    8    0    1
 -2       479       444       588      2550      2547      2593
 -1      1061    8    0    1
 -2       480       477       596      2233      2594      2595
 -1      1062    8    0    1
 -2       468       478       597      2226      2596      2597
 -1      1063    8    0    1
 -2       465       442       569      2169      2598      2599
 -1      1064    8    0    1
 -2       570       584       598      2564      2600      2601
 -1      1065    8    0    1
 -2       481       480       599      2236      2602      2603
 -1      1066    8    0    1
 -2       480       596       599      2595      2604      2602
 -1      1067    8    0    1
 -2       482       481       600      2239      2605      2606
 -1      1068    8    0    1
 -2       481       599       600      2603      2607      2605
 -1      1069    8    0    1
 -2       483       482       601      2242      2608      2609
 -1      1070    8    0    1
 -2       482       600       601      2606      2610      2608
 -1      1071    8    0    1
 -2       484       483       602      2245      2611      2612
 -1      1072    8    0    1
 -2       483       601       602      2609      2613      2611
 -1      1073    8    0    1
 -2       485       484       603      2248      2614      2615
 -1      1074    8    0    1
 -2       484       602       603      2612      2616      2614
 -1      1075    8    0    1
 -2       486       485       604      2251      2617      2618
 -1      1076    8    0    1
 -2       485       603       604      2615      2619      2617
 -1      1077    8    0    1
 -2       487       486       605      2254      2620      2621
 -1      1078    8    0    1
 -2       486       604       605      2618      2622      2620
 -1      1079    8    0    1
 -2       488       487       606      2257      2623      2624
 -1      1080    8    0    1
 -2       487       605       606      2621      2625      2623
 -1      1081    8    0    1
 -2       489       488       607      2260      2626      2627
 -1      1082    8    0    1
 -2       488       606       607      2624      2628      2626
 -1      1083    8    0    1
 -2       490       489       608      2263      2629      2630
 -1      1084    8    0    1
 -2       489       607       608      2627      2631      2629
 -1      1085    8    0    1
 -2       491       490       609      2266      2632      2633
 -1      1086    8    0    1
 -2       490       608       609      2630      2634      2632
 -1      1087    8    0    1
 -2       492       491       610      2269      2635      2636
 -1      1088    8    0    1
 -2       491       609       610      2633      2637      2635
 -1      1089    8    0    1
 -2       493       492       611      2272      2638      2639
 -1      1090    8    0    1
 -2       492       610       611      2636      2640      2638
 -1      1091    8    0    1
 -2       494       493       612      2275      2641      2642
 -1      1092    8    0    1
 -2       493       611       612      2639      2643      2641
 -1      1093    8    0    1
 -2       495       494       613      2278      2644      2645
 -1      1094    8    0    1
 -2       494       612       613      2642      2646      2644
 -1      1095    8    0    1
 -2       496       495       614      2281      2647      2648
 -1      1096    8    0    1
 -2       495       613       614      2645      2649      2647
 -1      1097    8    0    1
 -2       497       496       615      2284      2650      2651
 -1      1098    8    0    1
 -2       496       614       615      2648      2652      2650
 -1      1099    8    0    1
 -2       498       497       616      2287      2653      2654
 -1      1100    8    0    1
 -2       497       615       616      2651      2655      2653
 -1      1101    8    0    1
 -2       499       498       617      2290      2656      2657
 -1      1102    8    0    1
 -2       498       616       617      2654      2658      2656
 -1      1103    8    0    1
 -2       500       499       618      2293      2659      2660
 -1      1104    8    0    1
 -2       499       617       618      2657      2661      2659
 -1      1105    8    0    1
 -2       501       500       619      2296      2662      2663
 -1      1106    8    0    1
 -2       500       618       619      2660      2664      2662
 -1      1107    8    0    1
 -2       502       501       620      2299      2665      2666
 -1      1108    8    0    1
 -2       501       619       620      2663      2667      2665
 -1      1109    8    0    1
 -2       503       502       621      2302      2668      2669
 -1      1110    8    0    1
 -2       502       620       621      2666      2670      2668
 -1      1111    8    0    1
 -2       504       503       622      2305      2671      2672
 -1      1112    8    0    1
 -2       503       621       622      2669      2673      2671
 -1      1113    8    0    1
 -2       505       504       623      2308      2674      2675
 -1      1114    8    0    1
 -2       504       622       623      2672      2676      2674
 -1      1115    8    0    1
 -2       506       505       624      2311      2677      2678
 -1      1116    8    0    1
 -2       505       623       624      2675      2679      2677
 -1      1117    8    0    1
 -2       507       506       625      2314      2680      2681
 -1      1118    8    0    1
 -2       506       624       625      2678      2682      2680
 -1      1119    8    0    1
 -2       508       507       626      2317      2683      2684
 -1      1120    8    0    1
 -2       507       625       626      2681      2685      2683
 -1      1121    8    0    1
 -2       509       508       627      2320      2686      2687
 -1      1122    8    0    1
 -2       508       626       627      2684      2688      2686
 -1      1123    8    0    1
 -2       510       509       628      2323      2689      2690
 -1      1124    8    0    1
 -2       509       627       628      2687      2691      2689
 -1      1125    8    0    1
 -2       511       510       629      2326      2692      2693
 -1      1126    8    0    1
 -2       510       628       629      2690      2694      2692
 -1      1127    8    0    1
 -2       512       511       630      2329      2695      2696
 -1      1128    8    0    1
 -2       511       629       630      2693      2697      2695
 -1      1129    8    0    1
 -2       513       512       631      2332      2698      2699
 -1      1130    8    0    1
 -2       512       630       631      2696      2700      2698
 -1      1131    8    0    1
 -2       514       513       632      2335      2701      2702
 -1      1132    8    0    1
 -2       513       631       632      2699      2703      2701
 -1      1133    8    0    1
 -2       515       514       633      2338      2704      2705
 -1      1134    8    0    1
 -2       514       632       633      2702      2706      2704
 -1      1135    8    0    1
 -2       516       515       634      2341      2707      2708
 -1      1136    8    0    1
 -2       515       633       634      2705      2709      2707
 -1      1137    8    0    1
 -2       517       516       635      2344      2710      2711
 -1      1138    8    0    1
 -2       516       634       635      2708      2712      2710
 -1      1139    8    0    1
 -2       518       517       636      2347      2713      2714
 -1      1140    8    0    1
 -2       517       635       636      2711      2715      2713
 -1      1141    8    0    1
 -2       519       518       637      2350      2716      2717
 -1      1142    8    0    1
 -2       518       636       637      2714      2718      2716
 -1      1143    8    0    1
 -2       520       519       638      2353      2719      2720
 -1      1144    8    0    1
 -2       519       637       638      2717      2721      2719
 -1      1145    8    0    1
 -2       521       520       639      2356      2722      2723
 -1      1146    8    0    1
 -2       520       638       639      2720      2724      2722
 -1      1147    8    0    1
 -2       522       521       598      2359      2725      2726
 -1      1148    8    0    1
 -2       525       526       640      2371      2727      2728
 -1      1149    8    0    1
 -2       526       527       641      2374      2729      2730
 -1      1150    8    0    1
 -2       526       641       640      2730      2731      2727
 -1      1151    8    0    1
 -2       586       468       476      2541      2732      2549
 -1      1152    8    0    1
 -2       527       528       642      2377      2733      2734
 -1      1153    8    0    1
 -2       527       642       641      2734      2735      2729
 -1      1154    8    0    1
 -2       528       529       643      2380      2736      2737
 -1      1155    8    0    1
 -2       528       643       642      2737      2738      2733
 -1      1156    8    0    1
 -2       529       530       644      2383      2739      2740
 -1      1157    8    0    1
 -2       529       644       643      2740      2741      2736
 -1      1158    8    0    1
 -2       530       531       645      2386      2742      2743
 -1      1159    8    0    1
 -2       530       645       644      2743      2744      2739
 -1      1160    8    0    1
 -2       531       532       646      2389      2745      2746
 -1      1161    8    0    1
 -2       531       646       645      2746      2747      2742
 -1      1162    8    0    1
 -2       532       533       647      2392      2748      2749
 -1      1163    8    0    1
 -2       532       647       646      2749      2750      2745
 -1      1164    8    0    1
 -2       533       534       648      2395      2751      2752
 -1      1165    8    0    1
 -2       533       648       647      2752      2753      2748
 -1      1166    8    0    1
 -2       534       535       649      2398      2754      2755
 -1      1167    8    0    1
 -2       534       649       648      2755      2756      2751
 -1      1168    8    0    1
 -2       535       536       650      2401      2757      2758
 -1      1169    8    0    1
 -2       535       650       649      2758      2759      2754
 -1      1170    8    0    1
 -2       536       537       651      2404      2760      2761
 -1      1171    8    0    1
 -2       536       651       650      2761      2762      2757
 -1      1172    8    0    1
 -2       537       538       652      2407      2763      2764
 -1      1173    8    0    1
 -2       537       652       651      2764      2765      2760
 -1      1174    8    0    1
 -2       538       539       653      2410      2766      2767
 -1      1175    8    0    1
 -2       538       653       652      2767      2768      2763
 -1      1176    8    0    1
 -2       539       540       654      2413      2769      2770
 -1      1177    8    0    1
 -2       539       654       653      2770      2771      2766
 -1      1178    8    0    1
 -2       540       541       655      2416      2772      2773
 -1      1179    8    0    1
 -2       540       655       654      2773      2774      2769
 -1      1180    8    0    1
 -2       541       542       656      2419      2775      2776
 -1      1181    8    0    1
 -2       541       656       655      2776      2777      2772
 -1      1182    8    0    1
 -2       542       543       657      2422      2778      2779
 -1      1183    8    0    1
 -2       542       657       656      2779      2780      2775
 -1      1184    8    0    1
 -2       543       544       658      2425      2781      2782
 -1      1185    8    0    1
 -2       543       658       657      2782      2783      2778
 -1      1186    8    0    1
 -2       544       545       659      2428      2784      2785
 -1      1187    8    0    1
 -2       544       659       658      2785      2786      2781
 -1      1188    8    0    1
 -2       545       546       660      2431      2787      2788
 -1      1189    8    0    1
 -2       545       660       659      2788      2789      2784
 -1      1190    8    0    1
 -2       546       547       661      2434      2790      2791
 -1      1191    8    0    1
 -2       546       661       660      2791      2792      2787
 -1      1192    8    0    1
 -2       547       548       662      2437      2793      2794
 -1      1193    8    0    1
 -2       547       662       661      2794      2795      2790
 -1      1194    8    0    1
 -2       548       549       663      2440      2796      2797
 -1      1195    8    0    1
 -2       548       663       662      2797      2798      2793
 -1      1196    8    0    1
 -2       549       550       664      2443      2799      2800
 -1      1197    8    0    1
 -2       549       664       663      2800      2801      2796
 -1      1198    8    0    1
 -2       550       551       665      2446      2802      2803
 -1      1199    8    0    1
 -2       550       665       664      2803      2804      2799
 -1      1200    8    0    1
 -2       551       552       666      2449      2805      2806
 -1      1201    8    0    1
 -2       551       666       665      2806      2807      2802
 -1      1202    8    0    1
 -2       552       553       667      2452      2808      2809
 -1      1203    8    0    1
 -2       552       667       666      2809      2810      2805
 -1      1204    8    0    1
 -2       553       554       668      2455      2811      2812
 -1      1205    8    0    1
 -2       553       668       667      2812      2813      2808
 -1      1206    8    0    1
 -2       554       555       669      2458      2814      2815
 -1      1207    8    0    1
 -2       554       669       668      2815      2816      2811
 -1      1208    8    0    1
 -2       555       556       670      2461      2817      2818
 -1      1209    8    0    1
 -2       555       670       669      2818      2819      2814
 -1      1210    8    0    1
 -2       556       557       671      2464      2820      2821
 -1      1211    8    0    1
 -2       556       671       670      2821      2822      2817
 -1      1212    8    0    1
 -2       557       558       672      2467      2823      2824
 -1      1213    8    0    1
 -2       557       672       671      2824      2825      2820
 -1      1214    8    0    1
 -2       558       559       673      2470      2826      2827
 -1      1215    8    0    1
 -2       558       673       672      2827      2828      2823
 -1      1216    8    0    1
 -2       559       560       674      2473      2829      2830
 -1      1217    8    0    1
 -2       559       674       673      2830      2831      2826
 -1      1218    8    0    1
 -2       560       561       675      2476      2832      2833
 -1      1219    8    0    1
 -2       560       675       674      2833      2834      2829
 -1      1220    8    0    1
 -2       561       562       676      2479      2835      2836
 -1      1221    8    0    1
 -2       561       676       675      2836      2837      2832
 -1      1222    8    0    1
 -2       562       563       677      2482      2838      2839
 -1      1223    8    0    1
 -2       562       677       676      2839      2840      2835
 -1      1224    8    0    1
 -2       563       564       678      2485      2841      2842
 -1      1225    8    0    1
 -2       563       678       677      2842      2843      2838
 -1      1226    8    0    1
 -2       564       565       679      2488      2844      2845
 -1      1227    8    0    1
 -2       564       679       678      2845      2846      2841
 -1      1228    8    0    1
 -2       565       566       680      2491      2847      2848
 -1      1229    8    0    1
 -2       679       565       680      2844      2848      2849
 -1      1230    8    0    1
 -2       566       567       680      2565      2850      2847
 -1      1231    8    0    1
 -2       585       580       681      2581      2851      2852
 -1      1232    8    0    1
 -2       437       438       445      2493      2196      2580
 -1      1233    8    0    1
 -2       571       583       682      2566      2853      2854
 -1      1234    8    0    1
 -2       442       341       569      2103      2501      2598
 -1      1235    8    0    1
 -2       587       573       567      2543      2855      2582
 -1      1236    8    0    1
 -2       583       570       683      2560      2856      2857
 -1      1237    8    0    1
 -2       466       571       684      2567      2858      2859
 -1      1238    8    0    1
 -2       524       525       685      2368      2860      2861
 -1      1239    8    0    1
 -2       525       640       685      2728      2862      2860
 -1      1240    8    0    1
 -2       473       474       686      2215      2863      2864
 -1      1241    8    0    1
 -2       592       473       686      2583      2864      2865
 -1      1242    8    0    1
 -2       474       594       686      2589      2866      2863
 -1      1243    8    0    1
 -2       478       524       687      2365      2867      2868
 -1      1244    8    0    1
 -2       597       478       687      2596      2868      2869
 -1      1245    8    0    1
 -2       524       685       687      2861      2870      2867
 -1      1246    8    0    1
 -2       470       469       688      2204      2871      2872
 -1      1247    8    0    1
 -2       567       573       680      2855      2873      2850
 -1      1248    8    0    1
 -2       573       574       680      2578      2874      2873
 -1      1249    8    0    1
 -2       577       578       689      2575      2875      2876
 -1      1250    8    0    1
 -2       576       577       690      2576      2877      2878
 -1      1251    8    0    1
 -2       467       576       691      2574      2879      2880
 -1      1252    8    0    1
 -2       579       585       692      2572      2881      2882
 -1      1253    8    0    1
 -2       585       681       692      2852      2883      2881
 -1      1254    8    0    1
 -2       581       582       693      2531      2884      2885
 -1      1255    8    0    1
 -2       580       581       694      2571      2886      2887
 -1      1256    8    0    1
 -2       578       579       695      2573      2888      2889
 -1      1257    8    0    1
 -2       578       695       689      2889      2890      2875
 -1      1258    8    0    1
 -2       465       569       590      2599      2891      2557
 -1      1259    8    0    1
 -2       522       598       696      2726      2892      2893
 -1      1260    8    0    1
 -2       471       593       697      2586      2894      2895
 -1      1261    8    0    1
 -2       471       697       572      2895      2896      2510
 -1      1262    8    0    1
 -2       589       467       691      2553      2880      2897
 -1      1263    8    0    1
 -2       570       598       683      2601      2898      2856
 -1      1264    8    0    1
 -2       523       522       696      2362      2893      2899
 -1      1265    8    0    1
 -2       681       580       694      2851      2887      2900
 -1      1266    8    0    1
 -2       680       574       698      2874      2901      2902
 -1      1267    8    0    1
 -2       679       680       698      2849      2902      2903
 -1      1268    8    0    1
 -2       574       575       698      2577      2904      2901
 -1      1269    8    0    1
 -2       581       693       694      2885      2905      2886
 -1      1270    8    0    1
 -2       568       523       696      2556      2899      2906
 -1      1271    8    0    1
 -2       695       579       699      2888      2907      2908
 -1      1272    8    0    1
 -2       579       692       699      2882      2909      2907
 -1      1273    8    0    1
 -2       568       696       569      2906      2910      2502
 -1      1274    8    0    1
 -2       591       466       684      2570      2859      2911
 -1      1275    8    0    1
 -2       469       572       700      2509      2912      2913
 -1      1276    8    0    1
 -2       688       469       700      2871      2913      2914
 -1      1277    8    0    1
 -2       572       697       700      2896      2915      2912
 -1      1278    8    0    1
 -2       582       591       701      2569      2916      2917
 -1      1279    8    0    1
 -2       582       701       693      2917      2918      2884
 -1      1280    8    0    1
 -2       470       688       702      2872      2919      2920
 -1      1281    8    0    1
 -2       470       702       588      2920      2921      2545
 -1      1282    8    0    1
 -2       476       468       597      2732      2597      2922
 -1      1283    8    0    1
 -2       575       589       698      2552      2923      2904
 -1      1284    8    0    1
 -2       691       576       690      2879      2878      2924
 -1      1285    8    0    1
 -2       577       689       690      2876      2925      2877
 -1      1286    8    0    1
 -2       598       584       696      2600      2926      2892
 -1      1287    8    0    1
 -2       682       583       683      2853      2857      2927
 -1      1288    8    0    1
 -2       595       476       597      2590      2922      2928
 -1      1289    8    0    1
 -2       477       479       703      2229      2929      2930
 -1      1290    8    0    1
 -2       477       703       596      2930      2931      2594
 -1      1291    8    0    1
 -2       684       571       682      2858      2854      2932
 -1      1292    8    0    1
 -2       479       588       703      2593      2933      2929
 -1      1293    8    0    1
 -2       594       595       704      2592      2934      2935
 -1      1294    8    0    1
 -2       684       682       705      2932      2936      2937
 -1      1295    8    0    1
 -2       698       589       706      2923      2938      2939
 -1      1296    8    0    1
 -2       682       683       707      2927      2940      2941
 -1      1297    8    0    1
 -2       521       639       598      2723      2942      2725
 -1      1298    8    0    1
 -2       600       599       708      2607      2943      2944
 -1      1299    8    0    1
 -2       601       600       709      2610      2945      2946
 -1      1300    8    0    1
 -2       600       708       709      2944      2947      2945
 -1      1301    8    0    1
 -2       602       601       710      2613      2948      2949
 -1      1302    8    0    1
 -2       601       709       710      2946      2950      2948
 -1      1303    8    0    1
 -2       603       602       711      2616      2951      2952
 -1      1304    8    0    1
 -2       602       710       711      2949      2953      2951
 -1      1305    8    0    1
 -2       604       603       712      2619      2954      2955
 -1      1306    8    0    1
 -2       603       711       712      2952      2956      2954
 -1      1307    8    0    1
 -2       605       604       713      2622      2957      2958
 -1      1308    8    0    1
 -2       604       712       713      2955      2959      2957
 -1      1309    8    0    1
 -2       606       605       714      2625      2960      2961
 -1      1310    8    0    1
 -2       605       713       714      2958      2962      2960
 -1      1311    8    0    1
 -2       607       606       715      2628      2963      2964
 -1      1312    8    0    1
 -2       606       714       715      2961      2965      2963
 -1      1313    8    0    1
 -2       608       607       716      2631      2966      2967
 -1      1314    8    0    1
 -2       607       715       716      2964      2968      2966
 -1      1315    8    0    1
 -2       609       608       717      2634      2969      2970
 -1      1316    8    0    1
 -2       608       716       717      2967      2971      2969
 -1      1317    8    0    1
 -2       610       609       718      2637      2972      2973
 -1      1318    8    0    1
 -2       609       717       718      2970      2974      2972
 -1      1319    8    0    1
 -2       611       610       719      2640      2975      2976
 -1      1320    8    0    1
 -2       610       718       719      2973      2977      2975
 -1      1321    8    0    1
 -2       612       611       720      2643      2978      2979
 -1      1322    8    0    1
 -2       611       719       720      2976      2980      2978
 -1      1323    8    0    1
 -2       613       612       721      2646      2981      2982
 -1      1324    8    0    1
 -2       612       720       721      2979      2983      2981
 -1      1325    8    0    1
 -2       614       613       722      2649      2984      2985
 -1      1326    8    0    1
 -2       613       721       722      2982      2986      2984
 -1      1327    8    0    1
 -2       615       614       723      2652      2987      2988
 -1      1328    8    0    1
 -2       614       722       723      2985      2989      2987
 -1      1329    8    0    1
 -2       616       615       724      2655      2990      2991
 -1      1330    8    0    1
 -2       615       723       724      2988      2992      2990
 -1      1331    8    0    1
 -2       617       616       725      2658      2993      2994
 -1      1332    8    0    1
 -2       616       724       725      2991      2995      2993
 -1      1333    8    0    1
 -2       618       617       726      2661      2996      2997
 -1      1334    8    0    1
 -2       617       725       726      2994      2998      2996
 -1      1335    8    0    1
 -2       619       618       727      2664      2999      3000
 -1      1336    8    0    1
 -2       618       726       727      2997      3001      2999
 -1      1337    8    0    1
 -2       620       619       728      2667      3002      3003
 -1      1338    8    0    1
 -2       619       727       728      3000      3004      3002
 -1      1339    8    0    1
 -2       621       620       729      2670      3005      3006
 -1      1340    8    0    1
 -2       620       728       729      3003      3007      3005
 -1      1341    8    0    1
 -2       622       621       730      2673      3008      3009
 -1      1342    8    0    1
 -2       621       729       730      3006      3010      3008
 -1      1343    8    0    1
 -2       623       622       731      2676      3011      3012
 -1      1344    8    0    1
 -2       622       730       731      3009      3013      3011
 -1      1345    8    0    1
 -2       624       623       732      2679      3014      3015
 -1      1346    8    0    1
 -2       623       731       732      3012      3016      3014
 -1      1347    8    0    1
 -2       625       624       733      2682      3017      3018
 -1      1348    8    0    1
 -2       624       732       733      3015      3019      3017
 -1      1349    8    0    1
 -2       626       625       734      2685      3020      3021
 -1      1350    8    0    1
 -2       625       733       734      3018      3022      3020
 -1      1351    8    0    1
 -2       627       626       735      2688      3023      3024
 -1      1352    8    0    1
 -2       626       734       735      3021      3025      3023
 -1      1353    8    0    1
 -2       628       627       736      2691      3026      3027
 -1      1354    8    0    1
 -2       627       735       736      3024      3028      3026
 -1      1355    8    0    1
 -2       629       628       737      2694      3029      3030
 -1      1356    8    0    1
 -2       628       736       737      3027      3031      3029
 -1      1357    8    0    1
 -2       630       629       738      2697      3032      3033
 -1      1358    8    0    1
 -2       629       737       738      3030      3034      3032
 -1      1359    8    0    1
 -2       631       630       739      2700      3035      3036
 -1      1360    8    0    1
 -2       630       738       739      3033      3037      3035
 -1      1361    8    0    1
 -2       632       631       740      2703      3038      3039
 -1      1362    8    0    1
 -2       631       739       740      3036      3040      3038
 -1      1363    8    0    1
 -2       633       632       741      2706      3041      3042
 -1      1364    8    0    1
 -2       632       740       741      3039      3043      3041
 -1      1365    8    0    1
 -2       634       633       742      2709      3044      3045
 -1      1366    8    0    1
 -2       633       741       742      3042      3046      3044
 -1      1367    8    0    1
 -2       635       634       743      2712      3047      3048
 -1      1368    8    0    1
 -2       634       742       743      3045      3049      3047
 -1      1369    8    0    1
 -2       636       635       744      2715      3050      3051
 -1      1370    8    0    1
 -2       635       743       744      3048      3052      3050
 -1      1371    8    0    1
 -2       637       636       745      2718      3053      3054
 -1      1372    8    0    1
 -2       636       744       745      3051      3055      3053
 -1      1373    8    0    1
 -2       638       637       705      2721      3056      3057
 -1      1374    8    0    1
 -2       640       641       746      2731      3058      3059
 -1      1375    8    0    1
 -2       643       644       747      2741      3060      3061
 -1      1376    8    0    1
 -2       644       645       748      2744      3062      3063
 -1      1377    8    0    1
 -2       644       748       747      3063      3064      3060
 -1      1378    8    0    1
 -2       645       646       749      2747      3065      3066
 -1      1379    8    0    1
 -2       645       749       748      3066      3067      3062
 -1      1380    8    0    1
 -2       646       647       750      2750      3068      3069
 -1      1381    8    0    1
 -2       646       750       749      3069      3070      3065
 -1      1382    8    0    1
 -2       647       648       751      2753      3071      3072
 -1      1383    8    0    1
 -2       647       751       750      3072      3073      3068
 -1      1384    8    0    1
 -2       648       649       752      2756      3074      3075
 -1      1385    8    0    1
 -2       648       752       751      3075      3076      3071
 -1      1386    8    0    1
 -2       649       650       753      2759      3077      3078
 -1      1387    8    0    1
 -2       649       753       752      3078      3079      3074
 -1      1388    8    0    1
 -2       650       651       754      2762      3080      3081
 -1      1389    8    0    1
 -2       650       754       753      3081      3082      3077
 -1      1390    8    0    1
 -2       651       652       755      2765      3083      3084
 -1      1391    8    0    1
 -2       651       755       754      3084      3085      3080
 -1      1392    8    0    1
 -2       652       653       756      2768      3086      3087
 -1      1393    8    0    1
 -2       652       756       755      3087      3088      3083
 -1      1394    8    0    1
 -2       653       654       757      2771      3089      3090
 -1      1395    8    0    1
 -2       653       757       756      3090      3091      3086
 -1      1396    8    0    1
 -2       654       655       758      2774      3092      3093
 -1      1397    8    0    1
 -2       654       758       757      3093      3094      3089
 -1      1398    8    0    1
 -2       655       656       759      2777      3095      3096
 -1      1399    8    0    1
 -2       655       759       758      3096      3097      3092
 -1      1400    8    0    1
 -2       656       657       760      2780      3098      3099
 -1      1401    8    0    1
 -2       656       760       759      3099      3100      3095
 -1      1402    8    0    1
 -2       657       658       761      2783      3101      3102
 -1      1403    8    0    1
 -2       657       761       760      3102      3103      3098
 -1      1404    8    0    1
 -2       658       659       762      2786      3104      3105
 -1      1405    8    0    1
 -2       658       762       761      3105      3106      3101
 -1      1406    8    0    1
 -2       659       660       763      2789      3107      3108
 -1      1407    8    0    1
 -2       659       763       762      3108      3109      3104
 -1      1408    8    0    1
 -2       660       661       764      2792      3110      3111
 -1      1409    8    0    1
 -2       660       764       763      3111      3112      3107
 -1      1410    8    0    1
 -2       661       662       765      2795      3113      3114
 -1      1411    8    0    1
 -2       661       765       764      3114      3115      3110
 -1      1412    8    0    1
 -2       662       663       766      2798      3116      3117
 -1      1413    8    0    1
 -2       662       766       765      3117      3118      3113
 -1      1414    8    0    1
 -2       663       664       767      2801      3119      3120
 -1      1415    8    0    1
 -2       663       767       766      3120      3121      3116
 -1      1416    8    0    1
 -2       664       665       768      2804      3122      3123
 -1      1417    8    0    1
 -2       664       768       767      3123      3124      3119
 -1      1418    8    0    1
 -2       665       666       769      2807      3125      3126
 -1      1419    8    0    1
 -2       665       769       768      3126      3127      3122
 -1      1420    8    0    1
 -2       666       667       770      2810      3128      3129
 -1      1421    8    0    1
 -2       666       770       769      3129      3130      3125
 -1      1422    8    0    1
 -2       667       668       771      2813      3131      3132
 -1      1423    8    0    1
 -2       667       771       770      3132      3133      3128
 -1      1424    8    0    1
 -2       668       669       772      2816      3134      3135
 -1      1425    8    0    1
 -2       668       772       771      3135      3136      3131
 -1      1426    8    0    1
 -2       669       670       773      2819      3137      3138
 -1      1427    8    0    1
 -2       669       773       772      3138      3139      3134
 -1      1428    8    0    1
 -2       670       671       774      2822      3140      3141
 -1      1429    8    0    1
 -2       670       774       773      3141      3142      3137
 -1      1430    8    0    1
 -2       671       672       775      2825      3143      3144
 -1      1431    8    0    1
 -2       671       775       774      3144      3145      3140
 -1      1432    8    0    1
 -2       672       673       776      2828      3146      3147
 -1      1433    8    0    1
 -2       672       776       775      3147      3148      3143
 -1      1434    8    0    1
 -2       673       674       777      2831      3149      3150
 -1      1435    8    0    1
 -2       673       777       776      3150      3151      3146
 -1      1436    8    0    1
 -2       674       675       778      2834      3152      3153
 -1      1437    8    0    1
 -2       674       778       777      3153      3154      3149
 -1      1438    8    0    1
 -2       675       676       779      2837      3155      3156
 -1      1439    8    0    1
 -2       675       779       778      3156      3157      3152
 -1      1440    8    0    1
 -2       677       678       691      2843      3158      3159
 -1      1441    8    0    1
 -2       591       684       780      2911      3160      3161
 -1      1442    8    0    1
 -2       685       640       781      2862      3162      3163
 -1      1443    8    0    1
 -2       640       746       781      3059      3164      3162
 -1      1444    8    0    1
 -2       642       643       782      2738      3165      3166
 -1      1445    8    0    1
 -2       643       747       782      3061      3167      3165
 -1      1446    8    0    1
 -2       692       681       783      2883      3168      3169
 -1      1447    8    0    1
 -2       599       596       784      2604      3170      3171
 -1      1448    8    0    1
 -2       599       784       708      3171      3172      2943
 -1      1449    8    0    1
 -2       681       694       785      2900      3173      3174
 -1      1450    8    0    1
 -2       681       785       783      3174      3175      3168
 -1      1451    8    0    1
 -2       690       689       786      2925      3176      3177
 -1      1452    8    0    1
 -2       694       693       787      2905      3178      3179
 -1      1453    8    0    1
 -2       683       598       639      2898      2942      3180
 -1      1454    8    0    1
 -2       593       592       788      2587      3181      3182
 -1      1455    8    0    1
 -2       689       695       789      2890      3183      3184
 -1      1456    8    0    1
 -2       703       588       702      2933      2921      3185
 -1      1457    8    0    1
 -2       641       642       790      2735      3186      3187
 -1      1458    8    0    1
 -2       641       790       746      3187      3188      3058
 -1      1459    8    0    1
 -2       595       597       791      2928      3189      3190
 -1      1460    8    0    1
 -2       704       595       791      2934      3190      3191
 -1      1461    8    0    1
 -2       597       687       791      2869      3192      3189
 -1      1462    8    0    1
 -2       677       691       792      3159      3193      3194
 -1      1463    8    0    1
 -2       676       677       792      2840      3194      3195
 -1      1464    8    0    1
 -2       691       690       792      2924      3196      3193
 -1      1465    8    0    1
 -2       693       701       793      2918      3197      3198
 -1      1466    8    0    1
 -2       693       793       787      3198      3199      3178
 -1      1467    8    0    1
 -2       792       690       786      3196      3177      3200
 -1      1468    8    0    1
 -2       684       705       780      2937      3201      3160
 -1      1469    8    0    1
 -2       701       591       780      2916      3161      3202
 -1      1470    8    0    1
 -2       682       707       705      2941      3203      2936
 -1      1471    8    0    1
 -2       593       788       794      3182      3204      3205
 -1      1472    8    0    1
 -2       593       794       697      3205      3206      2894
 -1      1473    8    0    1
 -2       637       745       705      3054      3207      3056
 -1      1474    8    0    1
 -2       642       782       790      3166      3208      3186
 -1      1475    8    0    1
 -2       639       638       707      2724      3209      3210
 -1      1476    8    0    1
 -2       638       705       707      3057      3203      3209
 -1      1477    8    0    1
 -2       592       686       795      2865      3211      3212
 -1      1478    8    0    1
 -2       592       795       788      3212      3213      3181
 -1      1479    8    0    1
 -2       692       783       699      3169      3214      2909
 -1      1480    8    0    1
 -2       779       676       792      3155      3195      3215
 -1      1481    8    0    1
 -2       678       679       698      2846      2903      3216
 -1      1482    8    0    1
 -2       589       691       706      2897      3217      2938
 -1      1483    8    0    1
 -2       584       590       696      2559      3218      2926
 -1      1484    8    0    1
 -2       789       695       796      3183      3219      3220
 -1      1485    8    0    1
 -2       695       699       796      2908      3221      3219
 -1      1486    8    0    1
 -2       688       700       797      2914      3222      3223
 -1      1487    8    0    1
 -2       702       688       798      2919      3224      3225
 -1      1488    8    0    1
 -2       688       797       798      3223      3226      3224
 -1      1489    8    0    1
 -2       686       594       799      2866      3227      3228
 -1      1490    8    0    1
 -2       795       686       799      3211      3228      3229
 -1      1491    8    0    1
 -2       594       704       799      2935      3230      3227
 -1      1492    8    0    1
 -2       785       694       787      3173      3179      3231
 -1      1493    8    0    1
 -2       786       689       789      3176      3184      3232
 -1      1494    8    0    1
 -2       707       683       639      2940      3180      3210
 -1      1495    8    0    1
 -2       590       569       696      2891      2910      3218
 -1      1496    8    0    1
 -2       596       703       702      2931      3185      3233
 -1      1497    8    0    1
 -2       596       702       784      3233      3234      3170
 -1      1498    8    0    1
 -2       687       685       800      2870      3235      3236
 -1      1499    8    0    1
 -2       791       687       800      3192      3236      3237
 -1      1500    8    0    1
 -2       685       781       800      3163      3238      3235
 -1      1501    8    0    1
 -2       783       785       801      3175      3239      3240
 -1      1502    8    0    1
 -2       710       709       802      2950      3241      3242
 -1      1503    8    0    1
 -2       711       710       803      2953      3243      3244
 -1      1504    8    0    1
 -2       710       802       803      3242      3245      3243
 -1      1505    8    0    1
 -2       712       711       804      2956      3246      3247
 -1      1506    8    0    1
 -2       711       803       804      3244      3248      3246
 -1      1507    8    0    1
 -2       713       712       805      2959      3249      3250
 -1      1508    8    0    1
 -2       712       804       805      3247      3251      3249
 -1      1509    8    0    1
 -2       714       713       806      2962      3252      3253
 -1      1510    8    0    1
 -2       713       805       806      3250      3254      3252
 -1      1511    8    0    1
 -2       715       714       807      2965      3255      3256
 -1      1512    8    0    1
 -2       714       806       807      3253      3257      3255
 -1      1513    8    0    1
 -2       716       715       808      2968      3258      3259
 -1      1514    8    0    1
 -2       715       807       808      3256      3260      3258
 -1      1515    8    0    1
 -2       717       716       809      2971      3261      3262
 -1      1516    8    0    1
 -2       716       808       809      3259      3263      3261
 -1      1517    8    0    1
 -2       718       717       810      2974      3264      3265
 -1      1518    8    0    1
 -2       717       809       810      3262      3266      3264
 -1      1519    8    0    1
 -2       719       718       811      2977      3267      3268
 -1      1520    8    0    1
 -2       718       810       811      3265      3269      3267
 -1      1521    8    0    1
 -2       720       719       812      2980      3270      3271
 -1      1522    8    0    1
 -2       719       811       812      3268      3272      3270
 -1      1523    8    0    1
 -2       721       720       813      2983      3273      3274
 -1      1524    8    0    1
 -2       720       812       813      3271      3275      3273
 -1      1525    8    0    1
 -2       722       721       814      2986      3276      3277
 -1      1526    8    0    1
 -2       721       813       814      3274      3278      3276
 -1      1527    8    0    1
 -2       723       722       815      2989      3279      3280
 -1      1528    8    0    1
 -2       722       814       815      3277      3281      3279
 -1      1529    8    0    1
 -2       724       723       816      2992      3282      3283
 -1      1530    8    0    1
 -2       723       815       816      3280      3284      3282
 -1      1531    8    0    1
 -2       725       724       817      2995      3285      3286
 -1      1532    8    0    1
 -2       724       816       817      3283      3287      3285
 -1      1533    8    0    1
 -2       726       725       818      2998      3288      3289
 -1      1534    8    0    1
 -2       725       817       818      3286      3290      3288
 -1      1535    8    0    1
 -2       727       726       819      3001      3291      3292
 -1      1536    8    0    1
 -2       726       818       819      3289      3293      3291
 -1      1537    8    0    1
 -2       728       727       820      3004      3294      3295
 -1      1538    8    0    1
 -2       727       819       820      3292      3296      3294
 -1      1539    8    0    1
 -2       729       728       821      3007      3297      3298
 -1      1540    8    0    1
 -2       728       820       821      3295      3299      3297
 -1      1541    8    0    1
 -2       730       729       822      3010      3300      3301
 -1      1542    8    0    1
 -2       729       821       822      3298      3302      3300
 -1      1543    8    0    1
 -2       731       730       823      3013      3303      3304
 -1      1544    8    0    1
 -2       730       822       823      3301      3305      3303
 -1      1545    8    0    1
 -2       732       731       824      3016      3306      3307
 -1      1546    8    0    1
 -2       731       823       824      3304      3308      3306
 -1      1547    8    0    1
 -2       733       732       825      3019      3309      3310
 -1      1548    8    0    1
 -2       732       824       825      3307      3311      3309
 -1      1549    8    0    1
 -2       734       733       826      3022      3312      3313
 -1      1550    8    0    1
 -2       733       825       826      3310      3314      3312
 -1      1551    8    0    1
 -2       735       734       827      3025      3315      3316
 -1      1552    8    0    1
 -2       734       826       827      3313      3317      3315
 -1      1553    8    0    1
 -2       736       735       828      3028      3318      3319
 -1      1554    8    0    1
 -2       735       827       828      3316      3320      3318
 -1      1555    8    0    1
 -2       737       736       829      3031      3321      3322
 -1      1556    8    0    1
 -2       736       828       829      3319      3323      3321
 -1      1557    8    0    1
 -2       738       737       830      3034      3324      3325
 -1      1558    8    0    1
 -2       737       829       830      3322      3326      3324
 -1      1559    8    0    1
 -2       739       738       831      3037      3327      3328
 -1      1560    8    0    1
 -2       738       830       831      3325      3329      3327
 -1      1561    8    0    1
 -2       740       739       832      3040      3330      3331
 -1      1562    8    0    1
 -2       739       831       832      3328      3332      3330
 -1      1563    8    0    1
 -2       741       740       833      3043      3333      3334
 -1      1564    8    0    1
 -2       740       832       833      3331      3335      3333
 -1      1565    8    0    1
 -2       742       741       834      3046      3336      3337
 -1      1566    8    0    1
 -2       741       833       834      3334      3338      3336
 -1      1567    8    0    1
 -2       743       742       835      3049      3339      3340
 -1      1568    8    0    1
 -2       742       834       835      3337      3341      3339
 -1      1569    8    0    1
 -2       744       743       836      3052      3342      3343
 -1      1570    8    0    1
 -2       743       835       836      3340      3344      3342
 -1      1571    8    0    1
 -2       790       782       837      3208      3345      3346
 -1      1572    8    0    1
 -2       747       748       838      3064      3347      3348
 -1      1573    8    0    1
 -2       750       751       839      3073      3349      3350
 -1      1574    8    0    1
 -2       751       752       840      3076      3351      3352
 -1      1575    8    0    1
 -2       751       840       839      3352      3353      3349
 -1      1576    8    0    1
 -2       752       753       841      3079      3354      3355
 -1      1577    8    0    1
 -2       752       841       840      3355      3356      3351
 -1      1578    8    0    1
 -2       753       754       842      3082      3357      3358
 -1      1579    8    0    1
 -2       753       842       841      3358      3359      3354
 -1      1580    8    0    1
 -2       754       755       843      3085      3360      3361
 -1      1581    8    0    1
 -2       754       843       842      3361      3362      3357
 -1      1582    8    0    1
 -2       755       756       844      3088      3363      3364
 -1      1583    8    0    1
 -2       755       844       843      3364      3365      3360
 -1      1584    8    0    1
 -2       756       757       845      3091      3366      3367
 -1      1585    8    0    1
 -2       756       845       844      3367      3368      3363
 -1      1586    8    0    1
 -2       757       758       846      3094      3369      3370
 -1      1587    8    0    1
 -2       757       846       845      3370      3371      3366
 -1      1588    8    0    1
 -2       758       759       847      3097      3372      3373
 -1      1589    8    0    1
 -2       758       847       846      3373      3374      3369
 -1      1590    8    0    1
 -2       759       760       848      3100      3375      3376
 -1      1591    8    0    1
 -2       759       848       847      3376      3377      3372
 -1      1592    8    0    1
 -2       760       761       849      3103      3378      3379
 -1      1593    8    0    1
 -2       760       849       848      3379      3380      3375
 -1      1594    8    0    1
 -2       761       762       850      3106      3381      3382
 -1      1595    8    0    1
 -2       761       850       849      3382      3383      3378
 -1      1596    8    0    1
 -2       762       763       851      3109      3384      3385
 -1      1597    8    0    1
 -2       762       851       850      3385      3386      3381
 -1      1598    8    0    1
 -2       763       764       852      3112      3387      3388
 -1      1599    8    0    1
 -2       763       852       851      3388      3389      3384
 -1      1600    8    0    1
 -2       764       765       853      3115      3390      3391
 -1      1601    8    0    1
 -2       764       853       852      3391      3392      3387
 -1      1602    8    0    1
 -2       765       766       854      3118      3393      3394
 -1      1603    8    0    1
 -2       765       854       853      3394      3395      3390
 -1      1604    8    0    1
 -2       766       767       855      3121      3396      3397
 -1      1605    8    0    1
 -2       766       855       854      3397      3398      3393
 -1      1606    8    0    1
 -2       767       768       856      3124      3399      3400
 -1      1607    8    0    1
 -2       767       856       855      3400      3401      3396
 -1      1608    8    0    1
 -2       768       769       857      3127      3402      3403
 -1      1609    8    0    1
 -2       768       857       856      3403      3404      3399
 -1      1610    8    0    1
 -2       769       770       858      3130      3405      3406
 -1      1611    8    0    1
 -2       769       858       857      3406      3407      3402
 -1      1612    8    0    1
 -2       770       771       859      3133      3408      3409
 -1      1613    8    0    1
 -2       770       859       858      3409      3410      3405
 -1      1614    8    0    1
 -2       771       772       860      3136      3411      3412
 -1      1615    8    0    1
 -2       771       860       859      3412      3413      3408
 -1      1616    8    0    1
 -2       772       773       861      3139      3414      3415
 -1      1617    8    0    1
 -2       772       861       860      3415      3416      3411
 -1      1618    8    0    1
 -2       773       774       862      3142      3417      3418
 -1      1619    8    0    1
 -2       773       862       861      3418      3419      3414
 -1      1620    8    0    1
 -2       774       775       863      3145      3420      3421
 -1      1621    8    0    1
 -2       774       863       862      3421      3422      3417
 -1      1622    8    0    1
 -2       775       776       864      3148      3423      3424
 -1      1623    8    0    1
 -2       775       864       863      3424      3425      3420
 -1      1624    8    0    1
 -2       776       777       865      3151      3426      3427
 -1      1625    8    0    1
 -2       776       865       864      3427      3428      3423
 -1      1626    8    0    1
 -2       777       778       866      3154      3429      3430
 -1      1627    8    0    1
 -2       777       866       865      3430      3431      3426
 -1      1628    8    0    1
 -2       779       792       786      3215      3200      3432
 -1      1629    8    0    1
 -2       797       700       867      3222      3433      3434
 -1      1630    8    0    1
 -2       700       697       867      2915      3435      3433
 -1      1631    8    0    1
 -2       782       747       868      3167      3436      3437
 -1      1632    8    0    1
 -2       747       838       868      3348      3438      3436
 -1      1633    8    0    1
 -2       781       746       869      3164      3439      3440
 -1      1634    8    0    1
 -2       780       705       745      3201      3207      3441
 -1      1635    8    0    1
 -2       701       780       870      3202      3442      3443
 -1      1636    8    0    1
 -2       749       750       871      3070      3444      3445
 -1      1637    8    0    1
 -2       750       839       871      3350      3446      3444
 -1      1638    8    0    1
 -2       708       784       872      3172      3447      3448
 -1      1639    8    0    1
 -2       748       749       873      3067      3449      3450
 -1      1640    8    0    1
 -2       838       748       873      3347      3450      3451
 -1      1641    8    0    1
 -2       749       871       873      3445      3452      3449
 -1      1642    8    0    1
 -2       709       708       874      2947      3453      3454
 -1      1643    8    0    1
 -2       708       872       874      3448      3455      3453
 -1      1644    8    0    1
 -2       785       787       875      3231      3456      3457
 -1      1645    8    0    1
 -2       786       789       876      3232      3458      3459
 -1      1646    8    0    1
 -2       699       783       877      3214      3460      3461
 -1      1647    8    0    1
 -2       783       801       877      3240      3462      3460
 -1      1648    8    0    1
 -2       746       790       878      3188      3463      3464
 -1      1649    8    0    1
 -2       746       878       869      3464      3465      3439
 -1      1650    8    0    1
 -2       779       786       876      3432      3459      3466
 -1      1651    8    0    1
 -2       780       745       870      3441      3467      3442
 -1      1652    8    0    1
 -2       794       788       879      3204      3468      3469
 -1      1653    8    0    1
 -2       744       836       870      3343      3470      3471
 -1      1654    8    0    1
 -2       790       837       878      3346      3472      3463
 -1      1655    8    0    1
 -2       837       782       868      3345      3437      3473
 -1      1656    8    0    1
 -2       745       744       870      3055      3471      3467
 -1      1657    8    0    1
 -2       781       869       880      3440      3474      3475
 -1      1658    8    0    1
 -2       788       795       881      3213      3476      3477
 -1      1659    8    0    1
 -2       788       881       879      3477      3478      3468
 -1      1660    8    0    1
 -2       785       875       801      3457      3479      3239
 -1      1661    8    0    1
 -2       866       778       876      3429      3480      3481
 -1      1662    8    0    1
 -2       778       779       876      3157      3466      3480
 -1      1663    8    0    1
 -2       793       701       870      3197      3443      3482
 -1      1664    8    0    1
 -2       787       793       882      3199      3483      3484
 -1      1665    8    0    1
 -2       787       882       875      3484      3485      3456
 -1      1666    8    0    1
 -2       867       697       794      3435      3206      3486
 -1      1667    8    0    1
 -2       796       699       877      3221      3461      3487
 -1      1668    8    0    1
 -2       797       867       883      3434      3488      3489
 -1      1669    8    0    1
 -2       799       704       884      3230      3490      3491
 -1      1670    8    0    1
 -2       709       874       802      3454      3492      3241
 -1      1671    8    0    1
 -2       872       784       798      3447      3493      3494
 -1      1672    8    0    1
 -2       876       789       885      3458      3495      3496
 -1      1673    8    0    1
 -2       866       876       885      3481      3496      3497
 -1      1674    8    0    1
 -2       789       796       885      3220      3498      3495
 -1      1675    8    0    1
 -2       704       791       886      3191      3499      3500
 -1      1676    8    0    1
 -2       884       704       886      3490      3500      3501
 -1      1677    8    0    1
 -2       791       800       886      3237      3502      3499
 -1      1678    8    0    1
 -2       781       880       800      3475      3503      3238
 -1      1679    8    0    1
 -2       784       702       798      3234      3225      3493
 -1      1680    8    0    1
 -2       880       869       887      3474      3504      3505
 -1      1681    8    0    1
 -2       878       837       888      3472      3506      3507
 -1      1682    8    0    1
 -2       804       803       889      3248      3508      3509
 -1      1683    8    0    1
 -2       805       804       890      3251      3510      3511
 -1      1684    8    0    1
 -2       804       889       890      3509      3512      3510
 -1      1685    8    0    1
 -2       806       805       891      3254      3513      3514
 -1      1686    8    0    1
 -2       805       890       891      3511      3515      3513
 -1      1687    8    0    1
 -2       807       806       892      3257      3516      3517
 -1      1688    8    0    1
 -2       806       891       892      3514      3518      3516
 -1      1689    8    0    1
 -2       808       807       893      3260      3519      3520
 -1      1690    8    0    1
 -2       807       892       893      3517      3521      3519
 -1      1691    8    0    1
 -2       809       808       894      3263      3522      3523
 -1      1692    8    0    1
 -2       808       893       894      3520      3524      3522
 -1      1693    8    0    1
 -2       810       809       895      3266      3525      3526
 -1      1694    8    0    1
 -2       809       894       895      3523      3527      3525
 -1      1695    8    0    1
 -2       811       810       896      3269      3528      3529
 -1      1696    8    0    1
 -2       810       895       896      3526      3530      3528
 -1      1697    8    0    1
 -2       812       811       897      3272      3531      3532
 -1      1698    8    0    1
 -2       811       896       897      3529      3533      3531
 -1      1699    8    0    1
 -2       813       812       898      3275      3534      3535
 -1      1700    8    0    1
 -2       812       897       898      3532      3536      3534
 -1      1701    8    0    1
 -2       814       813       899      3278      3537      3538
 -1      1702    8    0    1
 -2       813       898       899      3535      3539      3537
 -1      1703    8    0    1
 -2       815       814       900      3281      3540      3541
 -1      1704    8    0    1
 -2       814       899       900      3538      3542      3540
 -1      1705    8    0    1
 -2       816       815       901      3284      3543      3544
 -1      1706    8    0    1
 -2       815       900       901      3541      3545      3543
 -1      1707    8    0    1
 -2       817       816       902      3287      3546      3547
 -1      1708    8    0    1
 -2       816       901       902      3544      3548      3546
 -1      1709    8    0    1
 -2       818       817       903      3290      3549      3550
 -1      1710    8    0    1
 -2       817       902       903      3547      3551      3549
 -1      1711    8    0    1
 -2       819       818       904      3293      3552      3553
 -1      1712    8    0    1
 -2       818       903       904      3550      3554      3552
 -1      1713    8    0    1
 -2       820       819       905      3296      3555      3556
 -1      1714    8    0    1
 -2       819       904       905      3553      3557      3555
 -1      1715    8    0    1
 -2       821       820       906      3299      3558      3559
 -1      1716    8    0    1
 -2       820       905       906      3556      3560      3558
 -1      1717    8    0    1
 -2       822       821       907      3302      3561      3562
 -1      1718    8    0    1
 -2       821       906       907      3559      3563      3561
 -1      1719    8    0    1
 -2       823       822       908      3305      3564      3565
 -1      1720    8    0    1
 -2       822       907       908      3562      3566      3564
 -1      1721    8    0    1
 -2       824       823       909      3308      3567      3568
 -1      1722    8    0    1
 -2       823       908       909      3565      3569      3567
 -1      1723    8    0    1
 -2       825       824       910      3311      3570      3571
 -1      1724    8    0    1
 -2       824       909       910      3568      3572      3570
 -1      1725    8    0    1
 -2       826       825       911      3314      3573      3574
 -1      1726    8    0    1
 -2       825       910       911      3571      3575      3573
 -1      1727    8    0    1
 -2       827       826       912      3317      3576      3577
 -1      1728    8    0    1
 -2       826       911       912      3574      3578      3576
 -1      1729    8    0    1
 -2       828       827       913      3320      3579      3580
 -1      1730    8    0    1
 -2       827       912       913      3577      3581      3579
 -1      1731    8    0    1
 -2       829       828       914      3323      3582      3583
 -1      1732    8    0    1
 -2       828       913       914      3580      3584      3582
 -1      1733    8    0    1
 -2       830       829       915      3326      3585      3586
 -1      1734    8    0    1
 -2       829       914       915      3583      3587      3585
 -1      1735    8    0    1
 -2       831       830       916      3329      3588      3589
 -1      1736    8    0    1
 -2       830       915       916      3586      3590      3588
 -1      1737    8    0    1
 -2       832       831       917      3332      3591      3592
 -1      1738    8    0    1
 -2       831       916       917      3589      3593      3591
 -1      1739    8    0    1
 -2       833       832       918      3335      3594      3595
 -1      1740    8    0    1
 -2       832       917       918      3592      3596      3594
 -1      1741    8    0    1
 -2       834       833       919      3338      3597      3598
 -1      1742    8    0    1
 -2       833       918       919      3595      3599      3597
 -1      1743    8    0    1
 -2       835       834       920      3341      3600      3601
 -1      1744    8    0    1
 -2       834       919       920      3598      3602      3600
 -1      1745    8    0    1
 -2       836       835       882      3344      3603      3604
 -1      1746    8    0    1
 -2       793       870       836      3482      3470      3605
 -1      1747    8    0    1
 -2       839       840       921      3353      3606      3607
 -1      1748    8    0    1
 -2       842       843       922      3362      3608      3609
 -1      1749    8    0    1
 -2       843       844       923      3365      3610      3611
 -1      1750    8    0    1
 -2       843       923       922      3611      3612      3608
 -1      1751    8    0    1
 -2       844       845       924      3368      3613      3614
 -1      1752    8    0    1
 -2       844       924       923      3614      3615      3610
 -1      1753    8    0    1
 -2       845       846       925      3371      3616      3617
 -1      1754    8    0    1
 -2       845       925       924      3617      3618      3613
 -1      1755    8    0    1
 -2       846       847       926      3374      3619      3620
 -1      1756    8    0    1
 -2       846       926       925      3620      3621      3616
 -1      1757    8    0    1
 -2       847       848       927      3377      3622      3623
 -1      1758    8    0    1
 -2       847       927       926      3623      3624      3619
 -1      1759    8    0    1
 -2       848       849       928      3380      3625      3626
 -1      1760    8    0    1
 -2       848       928       927      3626      3627      3622
 -1      1761    8    0    1
 -2       849       850       929      3383      3628      3629
 -1      1762    8    0    1
 -2       849       929       928      3629      3630      3625
 -1      1763    8    0    1
 -2       850       851       930      3386      3631      3632
 -1      1764    8    0    1
 -2       850       930       929      3632      3633      3628
 -1      1765    8    0    1
 -2       851       852       931      3389      3634      3635
 -1      1766    8    0    1
 -2       851       931       930      3635      3636      3631
 -1      1767    8    0    1
 -2       852       853       932      3392      3637      3638
 -1      1768    8    0    1
 -2       852       932       931      3638      3639      3634
 -1      1769    8    0    1
 -2       853       854       933      3395      3640      3641
 -1      1770    8    0    1
 -2       853       933       932      3641      3642      3637
 -1      1771    8    0    1
 -2       854       855       934      3398      3643      3644
 -1      1772    8    0    1
 -2       854       934       933      3644      3645      3640
 -1      1773    8    0    1
 -2       855       856       935      3401      3646      3647
 -1      1774    8    0    1
 -2       855       935       934      3647      3648      3643
 -1      1775    8    0    1
 -2       856       857       936      3404      3649      3650
 -1      1776    8    0    1
 -2       856       936       935      3650      3651      3646
 -1      1777    8    0    1
 -2       857       858       937      3407      3652      3653
 -1      1778    8    0    1
 -2       857       937       936      3653      3654      3649
 -1      1779    8    0    1
 -2       858       859       938      3410      3655      3656
 -1      1780    8    0    1
 -2       858       938       937      3656      3657      3652
 -1      1781    8    0    1
 -2       859       860       939      3413      3658      3659
 -1      1782    8    0    1
 -2       859       939       938      3659      3660      3655
 -1      1783    8    0    1
 -2       860       861       940      3416      3661      3662
 -1      1784    8    0    1
 -2       860       940       939      3662      3663      3658
 -1      1785    8    0    1
 -2       861       862       941      3419      3664      3665
 -1      1786    8    0    1
 -2       861       941       940      3665      3666      3661
 -1      1787    8    0    1
 -2       862       863       942      3422      3667      3668
 -1      1788    8    0    1
 -2       862       942       941      3668      3669      3664
 -1      1789    8    0    1
 -2       863       864       943      3425      3670      3671
 -1      1790    8    0    1
 -2       863       943       942      3671      3672      3667
 -1      1791    8    0    1
 -2       864       865       944      3428      3673      3674
 -1      1792    8    0    1
 -2       864       944       943      3674      3675      3670
 -1      1793    8    0    1
 -2       865       866       945      3431      3676      3677
 -1      1794    8    0    1
 -2       944       865       945      3673      3677      3678
 -1      1795    8    0    1
 -2       866       885       945      3497      3679      3676
 -1      1796    8    0    1
 -2       871       839       946      3446      3680      3681
 -1      1797    8    0    1
 -2       839       921       946      3607      3682      3680
 -1      1798    8    0    1
 -2       798       797       947      3226      3683      3684
 -1      1799    8    0    1
 -2       883       867       948      3488      3685      3686
 -1      1800    8    0    1
 -2       867       794       948      3486      3687      3685
 -1      1801    8    0    1
 -2       678       698       706      3216      2939      3688
 -1      1802    8    0    1
 -2       868       838       949      3438      3689      3690
 -1      1803    8    0    1
 -2       799       884       950      3491      3691      3692
 -1      1804    8    0    1
 -2       799       950       795      3692      3693      3229
 -1      1805    8    0    1
 -2       869       878       951      3465      3694      3695
 -1      1806    8    0    1
 -2       887       869       951      3504      3695      3696
 -1      1807    8    0    1
 -2       878       888       951      3507      3697      3694
 -1      1808    8    0    1
 -2       802       874       952      3492      3698      3699
 -1      1809    8    0    1
 -2       801       875       953      3479      3700      3701
 -1      1810    8    0    1
 -2       794       879       948      3469      3702      3687
 -1      1811    8    0    1
 -2       947       797       883      3683      3489      3703
 -1      1812    8    0    1
 -2       793       836       882      3605      3604      3483
 -1      1813    8    0    1
 -2       947       883       954      3703      3704      3705
 -1      1814    8    0    1
 -2       798       947       872      3684      3706      3494
 -1      1815    8    0    1
 -2       678       706       691      3688      3217      3158
 -1      1816    8    0    1
 -2       877       801       955      3462      3707      3708
 -1      1817    8    0    1
 -2       840       841       956      3356      3709      3710
 -1      1818    8    0    1
 -2       840       956       921      3710      3711      3606
 -1      1819    8    0    1
 -2       837       868       957      3473      3712      3713
 -1      1820    8    0    1
 -2       888       837       957      3506      3713      3714
 -1      1821    8    0    1
 -2       868       949       957      3690      3715      3712
 -1      1822    8    0    1
 -2       874       872       947      3455      3706      3716
 -1      1823    8    0    1
 -2       803       802       958      3245      3717      3718
 -1      1824    8    0    1
 -2       802       952       958      3699      3719      3717
 -1      1825    8    0    1
 -2       796       877       959      3487      3720      3721
 -1      1826    8    0    1
 -2       841       842       960      3359      3722      3723
 -1      1827    8    0    1
 -2       842       922       960      3609      3724      3722
 -1      1828    8    0    1
 -2       874       947       954      3716      3705      3725
 -1      1829    8    0    1
 -2       796       959       885      3721      3726      3498
 -1      1830    8    0    1
 -2       954       883       961      3704      3727      3728
 -1      1831    8    0    1
 -2       883       948       961      3686      3729      3727
 -1      1832    8    0    1
 -2       835       920       882      3601      3730      3603
 -1      1833    8    0    1
 -2       881       795       950      3476      3693      3731
 -1      1834    8    0    1
 -2       879       881       962      3478      3732      3733
 -1      1835    8    0    1
 -2       803       958       889      3718      3734      3508
 -1      1836    8    0    1
 -2       877       955       959      3708      3735      3720
 -1      1837    8    0    1
 -2       949       838       963      3689      3736      3737
 -1      1838    8    0    1
 -2       838       873       963      3451      3738      3736
 -1      1839    8    0    1
 -2       801       953       955      3701      3739      3707
 -1      1840    8    0    1
 -2       948       879       964      3702      3740      3741
 -1      1841    8    0    1
 -2       961       948       964      3729      3741      3742
 -1      1842    8    0    1
 -2       879       962       964      3733      3743      3740
 -1      1843    8    0    1
 -2       871       946       965      3681      3744      3745
 -1      1844    8    0    1
 -2       871       965       873      3745      3746      3452
 -1      1845    8    0    1
 -2       956       841       960      3709      3723      3747
 -1      1846    8    0    1
 -2       891       890       966      3515      3748      3749
 -1      1847    8    0    1
 -2       892       891       967      3518      3750      3751
 -1      1848    8    0    1
 -2       891       966       967      3749      3752      3750
 -1      1849    8    0    1
 -2       893       892       968      3521      3753      3754
 -1      1850    8    0    1
 -2       892       967       968      3751      3755      3753
 -1      1851    8    0    1
 -2       894       893       969      3524      3756      3757
 -1      1852    8    0    1
 -2       893       968       969      3754      3758      3756
 -1      1853    8    0    1
 -2       895       894       970      3527      3759      3760
 -1      1854    8    0    1
 -2       894       969       970      3757      3761      3759
 -1      1855    8    0    1
 -2       896       895       971      3530      3762      3763
 -1      1856    8    0    1
 -2       895       970       971      3760      3764      3762
 -1      1857    8    0    1
 -2       897       896       972      3533      3765      3766
 -1      1858    8    0    1
 -2       896       971       972      3763      3767      3765
 -1      1859    8    0    1
 -2       898       897       973      3536      3768      3769
 -1      1860    8    0    1
 -2       897       972       973      3766      3770      3768
 -1      1861    8    0    1
 -2       899       898       974      3539      3771      3772
 -1      1862    8    0    1
 -2       898       973       974      3769      3773      3771
 -1      1863    8    0    1
 -2       900       899       975      3542      3774      3775
 -1      1864    8    0    1
 -2       899       974       975      3772      3776      3774
 -1      1865    8    0    1
 -2       901       900       976      3545      3777      3778
 -1      1866    8    0    1
 -2       900       975       976      3775      3779      3777
 -1      1867    8    0    1
 -2       902       901       977      3548      3780      3781
 -1      1868    8    0    1
 -2       901       976       977      3778      3782      3780
 -1      1869    8    0    1
 -2       903       902       978      3551      3783      3784
 -1      1870    8    0    1
 -2       902       977       978      3781      3785      3783
 -1      1871    8    0    1
 -2       904       903       979      3554      3786      3787
 -1      1872    8    0    1
 -2       903       978       979      3784      3788      3786
 -1      1873    8    0    1
 -2       905       904       980      3557      3789      3790
 -1      1874    8    0    1
 -2       904       979       980      3787      3791      3789
 -1      1875    8    0    1
 -2       906       905       981      3560      3792      3793
 -1      1876    8    0    1
 -2       905       980       981      3790      3794      3792
 -1      1877    8    0    1
 -2       907       906       982      3563      3795      3796
 -1      1878    8    0    1
 -2       906       981       982      3793      3797      3795
 -1      1879    8    0    1
 -2       908       907       983      3566      3798      3799
 -1      1880    8    0    1
 -2       907       982       983      3796      3800      3798
 -1      1881    8    0    1
 -2       909       908       984      3569      3801      3802
 -1      1882    8    0    1
 -2       908       983       984      3799      3803      3801
 -1      1883    8    0    1
 -2       910       909       985      3572      3804      3805
 -1      1884    8    0    1
 -2       909       984       985      3802      3806      3804
 -1      1885    8    0    1
 -2       911       910       986      3575      3807      3808
 -1      1886    8    0    1
 -2       910       985       986      3805      3809      3807
 -1      1887    8    0    1
 -2       912       911       987      3578      3810      3811
 -1      1888    8    0    1
 -2       911       986       987      3808      3812      3810
 -1      1889    8    0    1
 -2       913       912       988      3581      3813      3814
 -1      1890    8    0    1
 -2       912       987       988      3811      3815      3813
 -1      1891    8    0    1
 -2       914       913       989      3584      3816      3817
 -1      1892    8    0    1
 -2       913       988       989      3814      3818      3816
 -1      1893    8    0    1
 -2       915       914       990      3587      3819      3820
 -1      1894    8    0    1
 -2       914       989       990      3817      3821      3819
 -1      1895    8    0    1
 -2       916       915       991      3590      3822      3823
 -1      1896    8    0    1
 -2       915       990       991      3820      3824      3822
 -1      1897    8    0    1
 -2       917       916       992      3593      3825      3826
 -1      1898    8    0    1
 -2       916       991       992      3823      3827      3825
 -1      1899    8    0    1
 -2       918       917       993      3596      3828      3829
 -1      1900    8    0    1
 -2       917       992       993      3826      3830      3828
 -1      1901    8    0    1
 -2       919       918       994      3599      3831      3832
 -1      1902    8    0    1
 -2       918       993       994      3829      3833      3831
 -1      1903    8    0    1
 -2       920       919       995      3602      3834      3835
 -1      1904    8    0    1
 -2       919       994       995      3832      3836      3834
 -1      1905    8    0    1
 -2       962       881       887      3732      3837      3838
 -1      1906    8    0    1
 -2       889       958       996      3734      3839      3840
 -1      1907    8    0    1
 -2       874       954       952      3725      3841      3698
 -1      1908    8    0    1
 -2       922       923       997      3612      3842      3843
 -1      1909    8    0    1
 -2       925       926       998      3621      3844      3845
 -1      1910    8    0    1
 -2       926       927       999      3624      3846      3847
 -1      1911    8    0    1
 -2       926       999       998      3847      3848      3844
 -1      1912    8    0    1
 -2       927       928      1000      3627      3849      3850
 -1      1913    8    0    1
 -2       927      1000       999      3850      3851      3846
 -1      1914    8    0    1
 -2       928       929      1001      3630      3852      3853
 -1      1915    8    0    1
 -2       928      1001      1000      3853      3854      3849
 -1      1916    8    0    1
 -2       929       930      1002      3633      3855      3856
 -1      1917    8    0    1
 -2       929      1002      1001      3856      3857      3852
 -1      1918    8    0    1
 -2       930       931      1003      3636      3858      3859
 -1      1919    8    0    1
 -2       930      1003      1002      3859      3860      3855
 -1      1920    8    0    1
 -2       931       932      1004      3639      3861      3862
 -1      1921    8    0    1
 -2       931      1004      1003      3862      3863      3858
 -1      1922    8    0    1
 -2       932       933      1005      3642      3864      3865
 -1      1923    8    0    1
 -2       932      1005      1004      3865      3866      3861
 -1      1924    8    0    1
 -2       933       934      1006      3645      3867      3868
 -1      1925    8    0    1
 -2       933      1006      1005      3868      3869      3864
 -1      1926    8    0    1
 -2       934       935      1007      3648      3870      3871
 -1      1927    8    0    1
 -2       934      1007      1006      3871      3872      3867
 -1      1928    8    0    1
 -2       935       936      1008      3651      3873      3874
 -1      1929    8    0    1
 -2       935      1008      1007      3874      3875      3870
 -1      1930    8    0    1
 -2       936       937      1009      3654      3876      3877
 -1      1931    8    0    1
 -2       936      1009      1008      3877      3878      3873
 -1      1932    8    0    1
 -2       937       938      1010      3657      3879      3880
 -1      1933    8    0    1
 -2       937      1010      1009      3880      3881      3876
 -1      1934    8    0    1
 -2       938       939      1011      3660      3882      3883
 -1      1935    8    0    1
 -2       938      1011      1010      3883      3884      3879
 -1      1936    8    0    1
 -2       939       940      1012      3663      3885      3886
 -1      1937    8    0    1
 -2       939      1012      1011      3886      3887      3882
 -1      1938    8    0    1
 -2       940       941      1013      3666      3888      3889
 -1      1939    8    0    1
 -2       940      1013      1012      3889      3890      3885
 -1      1940    8    0    1
 -2       941       942      1014      3669      3891      3892
 -1      1941    8    0    1
 -2       941      1014      1013      3892      3893      3888
 -1      1942    8    0    1
 -2       942       943      1015      3672      3894      3895
 -1      1943    8    0    1
 -2       942      1015      1014      3895      3896      3891
 -1      1944    8    0    1
 -2       943       944      1016      3675      3897      3898
 -1      1945    8    0    1
 -2       943      1016      1015      3898      3899      3894
 -1      1946    8    0    1
 -2       946       921      1017      3682      3900      3901
 -1      1947    8    0    1
 -2       885       959       945      3726      3902      3679
 -1      1948    8    0    1
 -2       923       924      1018      3615      3903      3904
 -1      1949    8    0    1
 -2       923      1018       997      3904      3905      3842
 -1      1950    8    0    1
 -2       882       920      1019      3730      3906      3907
 -1      1951    8    0    1
 -2       875       882      1019      3485      3907      3908
 -1      1952    8    0    1
 -2       920       995      1019      3835      3909      3906
 -1      1953    8    0    1
 -2       950       884       887      3691      3910      3911
 -1      1954    8    0    1
 -2       953       875      1019      3700      3908      3912
 -1      1955    8    0    1
 -2       800       880       886      3503      3913      3502
 -1      1956    8    0    1
 -2       955       953      1020      3739      3914      3915
 -1      1957    8    0    1
 -2       924       925      1021      3618      3916      3917
 -1      1958    8    0    1
 -2       925       998      1021      3845      3918      3916
 -1      1959    8    0    1
 -2       921       956      1022      3711      3919      3920
 -1      1960    8    0    1
 -2       921      1022      1017      3920      3921      3900
 -1      1961    8    0    1
 -2       884       886       880      3501      3913      3922
 -1      1962    8    0    1
 -2       890       889      1023      3512      3923      3924
 -1      1963    8    0    1
 -2       889       996      1023      3840      3925      3923
 -1      1964    8    0    1
 -2       956       960      1024      3747      3926      3927
 -1      1965    8    0    1
 -2       956      1024      1022      3927      3928      3919
 -1      1966    8    0    1
 -2       959       955      1025      3735      3929      3930
 -1      1967    8    0    1
 -2       960       922      1026      3724      3931      3932
 -1      1968    8    0    1
 -2      1024       960      1026      3926      3932      3933
 -1      1969    8    0    1
 -2       922       997      1026      3843      3934      3931
 -1      1970    8    0    1
 -2       962       887      1027      3838      3935      3936
 -1      1971    8    0    1
 -2       887       951      1027      3696      3937      3935
 -1      1972    8    0    1
 -2       952       954      1028      3841      3938      3939
 -1      1973    8    0    1
 -2       958       952      1028      3719      3939      3940
 -1      1974    8    0    1
 -2       954       961      1028      3728      3941      3938
 -1      1975    8    0    1
 -2       884       880       887      3922      3505      3910
 -1      1976    8    0    1
 -2       953      1019      1029      3912      3942      3943
 -1      1977    8    0    1
 -2      1019       995      1029      3909      3944      3942
 -1      1978    8    0    1
 -2       965       946      1030      3744      3945      3946
 -1      1979    8    0    1
 -2       946      1017      1030      3901      3947      3945
 -1      1980    8    0    1
 -2       950       887       881      3911      3837      3731
 -1      1981    8    0    1
 -2       888       957      1031      3714      3948      3949
 -1      1982    8    0    1
 -2       890      1023       966      3924      3950      3748
 -1      1983    8    0    1
 -2      1016       944      1025      3897      3951      3952
 -1      1984    8    0    1
 -2       944       945      1025      3678      3953      3951
 -1      1985    8    0    1
 -2       945       959      1025      3902      3930      3953
 -1      1986    8    0    1
 -2       963       873       965      3738      3746      3954
 -1      1987    8    0    1
 -2      1018       924      1021      3903      3917      3955
 -1      1988    8    0    1
 -2       951       888      1032      3697      3956      3957
 -1      1989    8    0    1
 -2      1027       951      1032      3937      3957      3958
 -1      1990    8    0    1
 -2       888      1031      1032      3949      3959      3956
 -1      1991    8    0    1
 -2       958      1028       996      3940      3960      3839
 -1      1992    8    0    1
 -2       962      1027       964      3936      3961      3743
 -1      1993    8    0    1
 -2      1020       953      1029      3914      3943      3962
 -1      1994    8    0    1
 -2       957       949      1033      3715      3963      3964
 -1      1995    8    0    1
 -2       957      1033      1031      3964      3965      3948
 -1      1996    8    0    1
 -2      1025       955      1034      3929      3966      3967
 -1      1997    8    0    1
 -2      1016      1025      1034      3952      3967      3968
 -1      1998    8    0    1
 -2       955      1020      1034      3915      3969      3966
 -1      1999    8    0    1
 -2       949       963      1035      3737      3970      3971
 -1      2000    8    0    1
 -2       949      1035      1033      3971      3972      3963
 -1      2001    8    0    1
 -2       968       967      1036      3755      3973      3974
 -1      2002    8    0    1
 -2       969       968      1037      3758      3975      3976
 -1      2003    8    0    1
 -2       968      1036      1037      3974      3977      3975
 -1      2004    8    0    1
 -2       970       969      1038      3761      3978      3979
 -1      2005    8    0    1
 -2       969      1037      1038      3976      3980      3978
 -1      2006    8    0    1
 -2       971       970      1039      3764      3981      3982
 -1      2007    8    0    1
 -2       970      1038      1039      3979      3983      3981
 -1      2008    8    0    1
 -2       972       971      1040      3767      3984      3985
 -1      2009    8    0    1
 -2       971      1039      1040      3982      3986      3984
 -1      2010    8    0    1
 -2       973       972      1041      3770      3987      3988
 -1      2011    8    0    1
 -2       972      1040      1041      3985      3989      3987
 -1      2012    8    0    1
 -2       974       973      1042      3773      3990      3991
 -1      2013    8    0    1
 -2       973      1041      1042      3988      3992      3990
 -1      2014    8    0    1
 -2       975       974      1043      3776      3993      3994
 -1      2015    8    0    1
 -2       974      1042      1043      3991      3995      3993
 -1      2016    8    0    1
 -2       976       975      1044      3779      3996      3997
 -1      2017    8    0    1
 -2       975      1043      1044      3994      3998      3996
 -1      2018    8    0    1
 -2       977       976      1045      3782      3999      4000
 -1      2019    8    0    1
 -2       976      1044      1045      3997      4001      3999
 -1      2020    8    0    1
 -2       978       977      1046      3785      4002      4003
 -1      2021    8    0    1
 -2       977      1045      1046      4000      4004      4002
 -1      2022    8    0    1
 -2       979       978      1047      3788      4005      4006
 -1      2023    8    0    1
 -2       978      1046      1047      4003      4007      4005
 -1      2024    8    0    1
 -2       980       979      1048      3791      4008      4009
 -1      2025    8    0    1
 -2       979      1047      1048      4006      4010      4008
 -1      2026    8    0    1
 -2       981       980      1049      3794      4011      4012
 -1      2027    8    0    1
 -2       980      1048      1049      4009      4013      4011
 -1      2028    8    0    1
 -2       982       981      1050      3797      4014      4015
 -1      2029    8    0    1
 -2       981      1049      1050      4012      4016      4014
 -1      2030    8    0    1
 -2       983       982      1051      3800      4017      4018
 -1      2031    8    0    1
 -2       982      1050      1051      4015      4019      4017
 -1      2032    8    0    1
 -2       984       983      1052      3803      4020      4021
 -1      2033    8    0    1
 -2       983      1051      1052      4018      4022      4020
 -1      2034    8    0    1
 -2       985       984      1053      3806      4023      4024
 -1      2035    8    0    1
 -2       984      1052      1053      4021      4025      4023
 -1      2036    8    0    1
 -2       986       985      1054      3809      4026      4027
 -1      2037    8    0    1
 -2       985      1053      1054      4024      4028      4026
 -1      2038    8    0    1
 -2       987       986      1055      3812      4029      4030
 -1      2039    8    0    1
 -2       986      1054      1055      4027      4031      4029
 -1      2040    8    0    1
 -2       988       987      1056      3815      4032      4033
 -1      2041    8    0    1
 -2       987      1055      1056      4030      4034      4032
 -1      2042    8    0    1
 -2       989       988      1057      3818      4035      4036
 -1      2043    8    0    1
 -2       988      1056      1057      4033      4037      4035
 -1      2044    8    0    1
 -2       990       989      1058      3821      4038      4039
 -1      2045    8    0    1
 -2       989      1057      1058      4036      4040      4038
 -1      2046    8    0    1
 -2       991       990      1059      3824      4041      4042
 -1      2047    8    0    1
 -2       990      1058      1059      4039      4043      4041
 -1      2048    8    0    1
 -2       992       991      1060      3827      4044      4045
 -1      2049    8    0    1
 -2       991      1059      1060      4042      4046      4044
 -1      2050    8    0    1
 -2       993       992      1061      3830      4047      4048
 -1      2051    8    0    1
 -2       992      1060      1061      4045      4049      4047
 -1      2052    8    0    1
 -2       994       993      1062      3833      4050      4051
 -1      2053    8    0    1
 -2       993      1061      1062      4048      4052      4050
 -1      2054    8    0    1
 -2       995       994      1029      3836      4053      3944
 -1      2055    8    0    1
 -2       996      1028      1063      3960      4054      4055
 -1      2056    8    0    1
 -2      1022      1024      1064      3928      4056      4057
 -1      2057    8    0    1
 -2       966      1023      1065      3950      4058      4059
 -1      2058    8    0    1
 -2      1017      1022      1066      3921      4060      4061
 -1      2059    8    0    1
 -2      1022      1064      1066      4057      4062      4060
 -1      2060    8    0    1
 -2       998       999      1067      3848      4063      4064
 -1      2061    8    0    1
 -2      1001      1002      1068      3857      4065      4066
 -1      2062    8    0    1
 -2      1002      1003      1069      3860      4067      4068
 -1      2063    8    0    1
 -2      1002      1069      1068      4068      4069      4065
 -1      2064    8    0    1
 -2      1003      1004      1070      3863      4070      4071
 -1      2065    8    0    1
 -2      1003      1070      1069      4071      4072      4067
 -1      2066    8    0    1
 -2      1004      1005      1071      3866      4073      4074
 -1      2067    8    0    1
 -2      1004      1071      1070      4074      4075      4070
 -1      2068    8    0    1
 -2      1005      1006      1072      3869      4076      4077
 -1      2069    8    0    1
 -2      1005      1072      1071      4077      4078      4073
 -1      2070    8    0    1
 -2      1006      1007      1073      3872      4079      4080
 -1      2071    8    0    1
 -2      1006      1073      1072      4080      4081      4076
 -1      2072    8    0    1
 -2      1007      1008      1074      3875      4082      4083
 -1      2073    8    0    1
 -2      1007      1074      1073      4083      4084      4079
 -1      2074    8    0    1
 -2      1008      1009      1075      3878      4085      4086
 -1      2075    8    0    1
 -2      1008      1075      1074      4086      4087      4082
 -1      2076    8    0    1
 -2      1009      1010      1076      3881      4088      4089
 -1      2077    8    0    1
 -2      1009      1076      1075      4089      4090      4085
 -1      2078    8    0    1
 -2      1010      1011      1077      3884      4091      4092
 -1      2079    8    0    1
 -2      1010      1077      1076      4092      4093      4088
 -1      2080    8    0    1
 -2      1011      1012      1078      3887      4094      4095
 -1      2081    8    0    1
 -2      1011      1078      1077      4095      4096      4091
 -1      2082    8    0    1
 -2      1012      1013      1079      3890      4097      4098
 -1      2083    8    0    1
 -2      1012      1079      1078      4098      4099      4094
 -1      2084    8    0    1
 -2      1013      1014      1080      3893      4100      4101
 -1      2085    8    0    1
 -2      1013      1080      1079      4101      4102      4097
 -1      2086    8    0    1
 -2      1014      1015      1081      3896      4103      4104
 -1      2087    8    0    1
 -2      1014      1081      1080      4104      4105      4100
 -1      2088    8    0    1
 -2      1015      1016      1082      3899      4106      4107
 -1      2089    8    0    1
 -2      1081      1015      1082      4103      4107      4108
 -1      2090    8    0    1
 -2      1016      1034      1082      3968      4109      4106
 -1      2091    8    0    1
 -2       963       965      1083      3954      4110      4111
 -1      2092    8    0    1
 -2      1035       963      1083      3970      4111      4112
 -1      2093    8    0    1
 -2       965      1030      1083      3946      4113      4110
 -1      2094    8    0    1
 -2       997      1018      1084      3905      4114      4115
 -1      2095    8    0    1
 -2      1000      1001      1085      3854      4116      4117
 -1      2096    8    0    1
 -2      1001      1068      1085      4066      4118      4116
 -1      2097    8    0    1
 -2       999      1000      1086      3851      4119      4120
 -1      2098    8    0    1
 -2      1067       999      1086      4063      4120      4121
 -1      2099    8    0    1
 -2      1000      1085      1086      4117      4122      4119
 -1      2100    8    0    1
 -2      1018      1021      1087      3955      4123      4124
 -1      2101    8    0    1
 -2      1018      1087      1084      4124      4125      4114
 -1      2102    8    0    1
 -2      1021       998      1088      3918      4126      4127
 -1      2103    8    0    1
 -2       998      1067      1088      4064      4128      4126
 -1      2104    8    0    1
 -2      1020      1029      1089      3962      4129      4130
 -1      2105    8    0    1
 -2       964      1027      1090      3961      4131      4132
 -1      2106    8    0    1
 -2       967       966      1091      3752      4133      4134
 -1      2107    8    0    1
 -2       966      1065      1091      4059      4135      4133
 -1      2108    8    0    1
 -2      1023       996      1092      3925      4136      4137
 -1      2109    8    0    1
 -2      1023      1092      1065      4137      4138      4058
 -1      2110    8    0    1
 -2       961       964      1090      3742      4132      4139
 -1      2111    8    0    1
 -2      1031      1033      1093      3965      4140      4141
 -1      2112    8    0    1
 -2      1029       994      1089      4053      4142      4129
 -1      2113    8    0    1
 -2      1064      1024      1094      4056      4143      4144
 -1      2114    8    0    1
 -2      1024      1026      1094      3933      4145      4143
 -1      2115    8    0    1
 -2      1017      1066      1095      4061      4146      4147
 -1      2116    8    0    1
 -2      1017      1095      1030      4147      4148      3947
 -1      2117    8    0    1
 -2      1087      1021      1088      4123      4127      4149
 -1      2118    8    0    1
 -2      1032      1031      1096      3959      4150      4151
 -1      2119    8    0    1
 -2      1031      1093      1096      4141      4152      4150
 -1      2120    8    0    1
 -2       997      1084      1097      4115      4153      4154
 -1      2121    8    0    1
 -2       997      1097      1026      4154      4155      3934
 -1      2122    8    0    1
 -2       994      1062      1089      4051      4156      4142
 -1      2123    8    0    1
 -2       967      1091      1036      4134      4157      3973
 -1      2124    8    0    1
 -2       996      1063      1092      4055      4158      4136
 -1      2125    8    0    1
 -2      1027      1032      1098      3958      4159      4160
 -1      2126    8    0    1
 -2      1090      1027      1098      4131      4160      4161
 -1      2127    8    0    1
 -2      1032      1096      1098      4151      4162      4159
 -1      2128    8    0    1
 -2      1034      1020      1082      3969      4163      4109
 -1      2129    8    0    1
 -2      1093      1033      1099      4140      4164      4165
 -1      2130    8    0    1
 -2      1033      1035      1099      3972      4166      4164
 -1      2131    8    0    1
 -2      1028       961      1063      3941      4167      4054
 -1      2132    8    0    1
 -2      1082      1020      1089      4163      4130      4168
 -1      2133    8    0    1
 -2      1038      1037      1100      3980      4169      4170
 -1      2134    8    0    1
 -2      1039      1038      1066      3983      4171      4172
 -1      2135    8    0    1
 -2      1040      1039      1064      3986      4173      4174
 -1      2136    8    0    1
 -2      1041      1040      1094      3989      4175      4176
 -1      2137    8    0    1
 -2      1042      1041      1097      3992      4177      4178
 -1      2138    8    0    1
 -2      1043      1042      1084      3995      4179      4180
 -1      2139    8    0    1
 -2      1044      1043      1087      3998      4181      4182
 -1      2140    8    0    1
 -2      1045      1044      1088      4001      4183      4184
 -1      2141    8    0    1
 -2      1046      1045      1067      4004      4185      4186
 -1      2142    8    0    1
 -2      1047      1046      1086      4007      4187      4188
 -1      2143    8    0    1
 -2      1048      1047      1085      4010      4189      4190
 -1      2144    8    0    1
 -2      1049      1048      1068      4013      4191      4192
 -1      2145    8    0    1
 -2      1050      1049      1069      4016      4193      4194
 -1      2146    8    0    1
 -2      1051      1050      1070      4019      4195      4196
 -1      2147    8    0    1
 -2      1052      1051      1071      4022      4197      4198
 -1      2148    8    0    1
 -2      1053      1052      1072      4025      4199      4200
 -1      2149    8    0    1
 -2      1054      1053      1073      4028      4201      4202
 -1      2150    8    0    1
 -2      1055      1054      1074      4031      4203      4204
 -1      2151    8    0    1
 -2      1056      1055      1075      4034      4205      4206
 -1      2152    8    0    1
 -2      1057      1056      1076      4037      4207      4208
 -1      2153    8    0    1
 -2      1058      1057      1077      4040      4209      4210
 -1      2154    8    0    1
 -2      1059      1058      1078      4043      4211      4212
 -1      2155    8    0    1
 -2      1060      1059      1079      4046      4213      4214
 -1      2156    8    0    1
 -2      1061      1060      1080      4049      4215      4216
 -1      2157    8    0    1
 -2      1062      1061      1081      4052      4217      4218
 -1      2158    8    0    1
 -2      1082      1089      1081      4168      4219      4108
 -1      2159    8    0    1
 -2      1078      1058      1077      4211      4210      4096
 -1      2160    8    0    1
 -2      1067      1045      1088      4185      4184      4128
 -1      2161    8    0    1
 -2      1070      1050      1069      4195      4194      4072
 -1      2162    8    0    1
 -2      1068      1069      1049      4069      4193      4192
 -1      2163    8    0    1
 -2      1071      1072      1052      4078      4199      4198
 -1      2164    8    0    1
 -2      1072      1073      1053      4081      4201      4200
 -1      2165    8    0    1
 -2      1073      1074      1054      4084      4203      4202
 -1      2166    8    0    1
 -2      1074      1075      1055      4087      4205      4204
 -1      2167    8    0    1
 -2      1075      1076      1056      4090      4207      4206
 -1      2168    8    0    1
 -2      1076      1077      1057      4093      4209      4208
 -1      2169    8    0    1
 -2      1078      1079      1059      4099      4213      4212
 -1      2170    8    0    1
 -2      1079      1080      1060      4102      4215      4214
 -1      2171    8    0    1
 -2      1080      1081      1061      4105      4217      4216
 -1      2172    8    0    1
 -2      1091      1065      1099      4135      4220      4221
 -1      2173    8    0    1
 -2      1085      1068      1048      4118      4191      4190
 -1      2174    8    0    1
 -2      1071      1051      1070      4197      4196      4075
 -1      2175    8    0    1
 -2      1084      1087      1043      4125      4181      4180
 -1      2176    8    0    1
 -2      1085      1047      1086      4189      4188      4122
 -1      2177    8    0    1
 -2      1088      1044      1087      4183      4182      4149
 -1      2178    8    0    1
 -2      1066      1064      1039      4062      4173      4172
 -1      2179    8    0    1
 -2      1084      1042      1097      4179      4178      4153
 -1      2180    8    0    1
 -2      1089      1062      1081      4156      4218      4219
 -1      2181    8    0    1
 -2      1037      1036      1101      3977      4222      4223
 -1      2182    8    0    1
 -2      1037      1101      1100      4223      4224      4169
 -1      2183    8    0    1
 -2      1036      1091      1102      4157      4225      4226
 -1      2184    8    0    1
 -2      1101      1036      1102      4222      4226      4227
 -1      2185    8    0    1
 -2      1091      1099      1102      4221      4228      4225
 -1      2186    8    0    1
 -2      1040      1064      1094      4174      4144      4175
 -1      2187    8    0    1
 -2      1046      1067      1086      4186      4121      4187
 -1      2188    8    0    1
 -2      1099      1065      1093      4220      4229      4165
 -1      2189    8    0    1
 -2      1094      1026      1097      4145      4155      4230
 -1      2190    8    0    1
 -2      1041      1094      1097      4176      4230      4177
 -1      2191    8    0    1
 -2      1065      1092      1093      4138      4231      4229
 -1      2192    8    0    1
 -2      1083      1030      1101      4113      4232      4233
 -1      2193    8    0    1
 -2       961      1090      1063      4139      4234      4167
 -1      2194    8    0    1
 -2      1063      1090      1098      4234      4161      4235
 -1      2195    8    0    1
 -2      1093      1092      1096      4231      4236      4152
 -1      2196    8    0    1
 -2      1099      1035      1102      4166      4237      4228
 -1      2197    8    0    1
 -2      1092      1063      1098      4158      4235      4238
 -1      2198    8    0    1
 -2      1066      1038      1100      4171      4170      4239
 -1      2199    8    0    1
 -2      1102      1035      1083      4237      4112      4240
 -1      2200    8    0    1
 -2      1096      1092      1098      4236      4238      4162
 -1      2201    8    0    1
 -2      1102      1083      1101      4240      4233      4227
 -1      2202    8    0    1
 -2      1101      1030      1095      4232      4148      4241
 -1      2203    8    0    1
 -2      1095      1066      1100      4146      4239      4242
 -1      2204    8    0    1
 -2      1100      1101      1095      4224      4241      4242
 -3
    1PSTEP                         1           1           1          
  100CL  101 1.000000000        4242                     0    1           1
 -4  DISP        4    1
 -5  D1          1    2    1    0
 -5  D2          1    2    2    0
 -5  D3          1    2    3    0
 -5  ALL         1    2    0    0    1ALL
 -1         1 1.38708E-02-1.17126E-03-6.20803E-14
 -1         2 1.90146E-02 7.79546E-05-6.78671E-14
 -1         3 1.43208E-02 1.00160E-03-7.12056E-14
 -1         4 1.43068E-02-9.61708E-04-6.94301E-14
 -1         5 0.00000E+00 0.00000E+00 0.00000E+00
 -1         6 0.00000E+00 0.00000E+00 0.00000E+00
 -1         7 0.00000E+00 0.00000E+00 0.00000E+00
 -1         8 0.00000E+00 0.00000E+00 0.00000E+00
 -1         9 0.00000E+00 0.00000E+00 0.00000E+00
 -1        10 0.00000E+00 0.00000E+00 0.00000E+00
 -1        11 0.00000E+00 0.00000E+00 0.00000E+00
 -1        12 0.00000E+00 0.00000E+00 0.00000E+00
 -1        13 0.00000E+00 0.00000E+00 0.00000E+00
 -1        14 0.00000E+00 0.00000E+00 0.00000E+00
 -1        15 0.00000E+00 0.00000E+00 0.00000E+00
 -1        16 0.00000E+00 0.00000E+00 0.00000E+00
 -1        17 0.00000E+00 0.00000E+00 0.00000E+00
 -1        18 0.00000E+00 0.00000E+00 0.00000E+00
 -1        19 0.00000E+00 0.00000E+00 0.00000E+00
 -1        20 0.00000E+00 0.00000E+00 0.00000E+00
 -1        21 0.00000E+00 0.00000E+00 0.00000E+00
 -1        22 0.00000E+00 0.00000E+00 0.00000E+00
 -1        23 4.11414E-04-2.60729E-04 2.85518E-17
 -1        24 7.03443E-04-4.00965E-04-1.61851E-17
 -1        25 9.73570E-04-4.98340E-04-1.33726E-16
 -1        26 1.23813E-03-5.67093E-04-3.22503E-16
 -1        27 1.50174E-03-6.16370E-04-5.82162E-16
 -1        28 1.76651E-03-6.51561E-04-9.12082E-16
 -1        29 2.03337E-03-6.76381E-04-1.31302E-15
 -1        30 2.30271E-03-6.93534E-04-1.78391E-15
 -1        31 2.57457E-03-7.05048E-04-2.32185E-15
 -1        32 2.84881E-03-7.12461E-04-2.92492E-15
 -1        33 3.12520E-03-7.16938E-04-3.59085E-15
 -1        34 3.40347E-03-7.19356E-04-4.31688E-15
 -1        35 3.68332E-03-7.20366E-04-5.10764E-15
 -1        36 3.96447E-03-7.20441E-04-5.95296E-15
 -1        37 4.24667E-03-7.19915E-04-6.85784E-15
 -1        38 4.52970E-03-7.19018E-04-7.82331E-15
 -1        39 4.81337E-03-7.17895E-04-8.84779E-15
 -1        40 5.09751E-03-7.16626E-04-9.93062E-15
 -1        41 5.38200E-03-7.15246E-04-1.10726E-14
 -1        42 5.66675E-03-7.13749E-04-1.22662E-14
 -1        43 5.95170E-03-7.12103E-04-1.35222E-14
 -1        44 6.23682E-03-7.10250E-04-1.48373E-14
 -1        45 6.52213E-03-7.08118E-04-1.62137E-14
 -1        46 6.80765E-03-7.05624E-04-1.76534E-14
 -1        47 7.09351E-03-7.02680E-04-1.91512E-14
 -1        48 7.37983E-03-6.99202E-04-2.07118E-14
 -1        49 7.66685E-03-6.95123E-04-2.23378E-14
 -1        50 7.95488E-03-6.90412E-04-2.40167E-14
 -1        51 8.24432E-03-6.85098E-04-2.57407E-14
 -1        52 8.53571E-03-6.79308E-04-2.75023E-14
 -1        53 8.82972E-03-6.73312E-04-2.93000E-14
 -1        54 9.12717E-03-6.67598E-04-3.11358E-14
 -1        55 9.42904E-03-6.62952E-04-3.30089E-14
 -1        56 9.73643E-03-6.60571E-04-3.49106E-14
 -1        57 1.00505E-02-6.62189E-04-3.68559E-14
 -1        58 1.03723E-02-6.70209E-04-3.88479E-14
 -1        59 1.07026E-02-6.87799E-04-4.08818E-14
 -1        60 1.10412E-02-7.18874E-04-4.29485E-14
 -1        61 1.13865E-02-7.67804E-04-4.50408E-14
 -1        62 1.17346E-02-8.38626E-04-4.71585E-14
 -1        63 1.20784E-02-9.33458E-04-4.93139E-14
 -1        64 1.24076E-02-1.04997E-03-5.15008E-14
 -1        65 1.27094E-02-1.17830E-03-5.37181E-14
 -1        66 1.29730E-02-1.29890E-03-5.59658E-14
 -1        67 1.31951E-02-1.38405E-03-5.82446E-14
 -1        68 1.33861E-02-1.40580E-03-6.05358E-14
 -1        69 1.35713E-02-1.34965E-03-6.28120E-14
 -1        70 1.37821E-02-1.22800E-03-6.50702E-14
 -1        71 1.40375E-02-1.08119E-03-6.73224E-14
 -1        72 4.13858E-04 2.61434E-04 2.70983E-17
 -1        73 7.03266E-04 4.03670E-04-2.21889E-17
 -1        74 9.74107E-04 5.00112E-04-1.44063E-16
 -1        75 1.23896E-03 5.68804E-04-3.39552E-16
 -1        76 1.50270E-03 6.18130E-04-6.10572E-16
 -1        77 1.76753E-03 6.53412E-04-9.56226E-16
 -1        78 2.03443E-03 6.78344E-04-1.37519E-15
 -1        79 2.30379E-03 6.95619E-04-1.86366E-15
 -1        80 2.57567E-03 7.07261E-04-2.42153E-15
 -1        81 2.84992E-03 7.14805E-04-3.05084E-15
 -1        82 3.12632E-03 7.19414E-04-3.75317E-15
 -1        83 3.40459E-03 7.21966E-04-4.52336E-15
 -1        84 3.68444E-03 7.23110E-04-5.35895E-15
 -1        85 3.96560E-03 7.23319E-04-6.26145E-15
 -1        86 4.24780E-03 7.22929E-04-7.23244E-15
 -1        87 4.53083E-03 7.22166E-04-8.26806E-15
 -1        88 4.81449E-03 7.21177E-04-9.36141E-15
 -1        89 5.09863E-03 7.20044E-04-1.05169E-14
 -1        90 5.38312E-03 7.18798E-04-1.17349E-14
 -1        91 5.66787E-03 7.17436E-04-1.30087E-14
 -1        92 5.95282E-03 7.15923E-04-1.43377E-14
 -1        93 6.23794E-03 7.14202E-04-1.57203E-14
 -1        94 6.52323E-03 7.12200E-04-1.71617E-14
 -1        95 6.80875E-03 7.09831E-04-1.86540E-14
 -1        96 7.09459E-03 7.07005E-04-2.02048E-14
 -1        97 7.38090E-03 7.03632E-04-2.18116E-14
 -1        98 7.66791E-03 6.99639E-04-2.34708E-14
 -1        99 7.95592E-03 6.94984E-04-2.51754E-14
 -1       100 8.24536E-03 6.89682E-04-2.69353E-14
 -1       101 8.53677E-03 6.83839E-04-2.87652E-14
 -1       102 8.83086E-03 6.77701E-04-3.06505E-14
 -1       103 9.12851E-03 6.71728E-04-3.25814E-14
 -1       104 9.43080E-03 6.66679E-04-3.45461E-14
 -1       105 9.73899E-03 6.63742E-04-3.65441E-14
 -1       106 1.00545E-02 6.64684E-04-3.85978E-14
 -1       107 1.03787E-02 6.72033E-04-4.07026E-14
 -1       108 1.07128E-02 6.89258E-04-4.28372E-14
 -1       109 1.10574E-02 7.20864E-04-4.50010E-14
 -1       110 1.14115E-02 7.72256E-04-4.71961E-14
 -1       111 1.17716E-02 8.49054E-04-4.94134E-14
 -1       112 1.21306E-02 9.55435E-04-5.16431E-14
 -1       113 1.24764E-02 1.09104E-03-5.38744E-14
 -1       114 1.27931E-02 1.24662E-03-5.60941E-14
 -1       115 1.30649E-02 1.39998E-03-5.83036E-14
 -1       116 1.32836E-02 1.51624E-03-6.04944E-14
 -1       117 1.34587E-02 1.55670E-03-6.26688E-14
 -1       118 1.36199E-02 1.49725E-03-6.48293E-14
 -1       119 1.38084E-02 1.34829E-03-6.69841E-14
 -1       120 1.40525E-02 1.16069E-03-6.91409E-14
 -1       121 1.44730E-02 9.08458E-04-7.11320E-14
 -1       122 1.45990E-02 7.68158E-04-7.10356E-14
 -1       123 1.47679E-02 5.33133E-04-7.09410E-14
 -1       124 1.50941E-02 1.77256E-04-7.08481E-14
 -1       125 1.56274E-02-2.11739E-04-7.08011E-14
 -1       126 1.64174E-02-5.55422E-04-7.07744E-14
 -1       127 1.73901E-02-7.31099E-04-7.07469E-14
 -1       128 1.84897E-02-5.80173E-04-7.07530E-14
 -1       129 1.90841E-02-8.39926E-05-7.07740E-14
 -1       130 1.89456E-02 4.60454E-04-7.07385E-14
 -1       131 1.80889E-02 8.56788E-04-7.06000E-14
 -1       132 1.70757E-02 8.73182E-04-7.04488E-14
 -1       133 1.60851E-02 6.14216E-04-7.03209E-14
 -1       134 1.52672E-02 1.54619E-04-7.01899E-14
 -1       135 1.48403E-02-2.47268E-04-7.00477E-14
 -1       136 1.46258E-02-5.48108E-04-6.98913E-14
 -1       137 1.45126E-02-7.45748E-04-6.97399E-14
 -1       138 1.44207E-02-8.71084E-04-6.95778E-14
 -1       139 1.87508E-02 4.74113E-04-6.78306E-14
 -1       140 1.80982E-02 8.07880E-04-6.75603E-14
 -1       141 1.72907E-02 1.05652E-03-6.70657E-14
 -1       142 1.64756E-02 1.22354E-03-6.63926E-14
 -1       143 1.56799E-02 1.32867E-03-6.55327E-14
 -1       144 1.49671E-02 1.37214E-03-6.45705E-14
 -1       145 1.43103E-02 1.36479E-03-6.35188E-14
 -1       146 1.36800E-02 1.30629E-03-6.23650E-14
 -1       147 1.31499E-02 1.20869E-03-6.13047E-14
 -1       148 1.26279E-02 1.05480E-03-6.01817E-14
 -1       149 1.22258E-02 8.82773E-04-5.92673E-14
 -1       150 1.18887E-02 6.74728E-04-5.84507E-14
 -1       151 1.16705E-02 4.69778E-04-5.78850E-14
 -1       152 1.15352E-02 2.44159E-04-5.74973E-14
 -1       153 1.15034E-02 2.54967E-05-5.73489E-14
 -1       154 1.15748E-02-2.06521E-04-5.74351E-14
 -1       155 1.17381E-02-4.16986E-04-5.77379E-14
 -1       156 1.19980E-02-6.18270E-04-5.82540E-14
 -1       157 1.23688E-02-8.10670E-04-5.90217E-14
 -1       158 1.28095E-02-9.68503E-04-5.99390E-14
 -1       159 1.32926E-02-1.08546E-03-6.09260E-14
 -1       160 1.44532E-02-1.20982E-03-6.31589E-14
 -1       161 1.51042E-02-1.20365E-03-6.42502E-14
 -1       162 1.58004E-02-1.15546E-03-6.52424E-14
 -1       163 1.65364E-02-1.05354E-03-6.60966E-14
 -1       164 1.73441E-02-8.83055E-04-6.68240E-14
 -1       165 1.81731E-02-6.18689E-04-6.73908E-14
 -1       166 1.87799E-02-2.94027E-04-6.77142E-14
 -1       167 2.40429E-04-1.25499E-04-9.63585E-18
 -1       168 2.25291E-04-9.45937E-05-2.17111E-17
 -1       169 2.19528E-04-7.27487E-05-2.88703E-17
 -1       170 2.16705E-04-5.50805E-05-3.31122E-17
 -1       171 2.15209E-04-3.99454E-05-3.53281E-17
 -1       172 2.14367E-04-2.58990E-05-3.64970E-17
 -1       173 2.13944E-04-1.26354E-05-3.67036E-17
 -1       174 2.13821E-04 2.72932E-07-3.70424E-17
 -1       175 2.13963E-04 1.31936E-05-3.68324E-17
 -1       176 2.14408E-04 2.64967E-05-3.63275E-17
 -1       177 2.15258E-04 4.03707E-05-3.51925E-17
 -1       178 2.16815E-04 5.58871E-05-3.31596E-17
 -1       179 2.19680E-04 7.37888E-05-2.94124E-17
 -1       180 2.25462E-04 9.59929E-05-2.27378E-17
 -1       181 2.39360E-04 1.27577E-04-1.08285E-17
 -1       182 2.97740E-04 1.85487E-04 1.43657E-18
 -1       183 4.68678E-04-2.63527E-04-2.68882E-17
 -1       184 7.66864E-04-3.82109E-04-1.25147E-16
 -1       185 1.05076E-03-4.64990E-04-2.91783E-16
 -1       186 1.32821E-03-5.23773E-04-5.27458E-16
 -1       187 1.60288E-03-5.65485E-04-8.32122E-16
 -1       188 1.87684E-03-5.94818E-04-1.20609E-15
 -1       189 2.15124E-03-6.15081E-04-1.64868E-15
 -1       190 2.42665E-03-6.28708E-04-2.15827E-15
 -1       191 2.70335E-03-6.37517E-04-2.73257E-15
 -1       192 2.98139E-03-6.42882E-04-3.37155E-15
 -1       193 3.26073E-03-6.45832E-04-4.07160E-15
 -1       194 3.54124E-03-6.47129E-04-4.83205E-15
 -1       195 3.82277E-03-6.47330E-04-5.65403E-15
 -1       196 4.10518E-03-6.46833E-04-6.53181E-15
 -1       197 4.38830E-03-6.45910E-04-7.46971E-15
 -1       198 4.67199E-03-6.44739E-04-8.46744E-15
 -1       199 4.95614E-03-6.43423E-04-9.52305E-15
 -1       200 5.24065E-03-6.42012E-04-1.06372E-14
 -1       201 5.52544E-03-6.40511E-04-1.18079E-14
 -1       202 5.81046E-03-6.38894E-04-1.30345E-14
 -1       203 6.09569E-03-6.37106E-04-1.43222E-14
 -1       204 6.38111E-03-6.35075E-04-1.56708E-14
 -1       205 6.66677E-03-6.32711E-04-1.70816E-14
 -1       206 6.95273E-03-6.29919E-04-1.85527E-14
 -1       207 7.23911E-03-6.26596E-04-2.00821E-14
 -1       208 7.52605E-03-6.22650E-04-2.16747E-14
 -1       209 7.81379E-03-6.18011E-04-2.33241E-14
 -1       210 8.10262E-03-6.12649E-04-2.50234E-14
 -1       211 8.39290E-03-6.06610E-04-2.67659E-14
 -1       212 8.68510E-03-6.00056E-04-2.85478E-14
 -1       213 8.97978E-03-5.93323E-04-3.03683E-14
 -1       214 9.27760E-03-5.87002E-04-3.22244E-14
 -1       215 9.57928E-03-5.82045E-04-3.41158E-14
 -1       216 9.88559E-03-5.79888E-04-3.60437E-14
 -1       217 1.01972E-02-5.82607E-04-3.80163E-14
 -1       218 1.05148E-02-5.93054E-04-4.00299E-14
 -1       219 1.08383E-02-6.14950E-04-4.20812E-14
 -1       220 1.11671E-02-6.52798E-04-4.41612E-14
 -1       221 1.14995E-02-7.11417E-04-4.62677E-14
 -1       222 1.18322E-02-7.94803E-04-4.84022E-14
 -1       223 1.21597E-02-9.03991E-04-5.05696E-14
 -1       224 1.24752E-02-1.03386E-03-5.27626E-14
 -1       225 1.27712E-02-1.16970E-03-5.49833E-14
 -1       226 1.30423E-02-1.28590E-03-5.72347E-14
 -1       227 1.32892E-02-1.35017E-03-5.95085E-14
 -1       228 1.35208E-02-1.33568E-03-6.17901E-14
 -1       229 1.37530E-02-1.23808E-03-6.40586E-14
 -1       230 1.40023E-02-1.08727E-03-6.63149E-14
 -1       231 6.04637E-04 3.31009E-04-5.76728E-17
 -1       232 8.93777E-04 4.32617E-04-1.85761E-16
 -1       233 1.17272E-03 5.04365E-04-3.85092E-16
 -1       234 1.44713E-03 5.55465E-04-6.57111E-16
 -1       235 1.72002E-03 5.91742E-04-1.00138E-15
 -1       236 1.99300E-03 6.17182E-04-1.41751E-15
 -1       237 2.26692E-03 6.34662E-04-1.90412E-15
 -1       238 2.54218E-03 6.46324E-04-2.45961E-15
 -1       239 2.81892E-03 6.53779E-04-3.08422E-15
 -1       240 3.09711E-03 6.58243E-04-3.77874E-15
 -1       241 3.37665E-03 6.60626E-04-4.54050E-15
 -1       242 3.65739E-03 6.61599E-04-5.36866E-15
 -1       243 3.93914E-03 6.61648E-04-6.26301E-15
 -1       244 4.22174E-03 6.61116E-04-7.22381E-15
 -1       245 4.50502E-03 6.60235E-04-8.24783E-15
 -1       246 4.78886E-03 6.59150E-04-9.33161E-15
 -1       247 5.07312E-03 6.57942E-04-1.04782E-14
 -1       248 5.35772E-03 6.56642E-04-1.16847E-14
 -1       249 5.64257E-03 6.55242E-04-1.29481E-14
 -1       250 5.92764E-03 6.53705E-04-1.42688E-14
 -1       251 6.21291E-03 6.51968E-04-1.56437E-14
 -1       252 6.49839E-03 6.49951E-04-1.70764E-14
 -1       253 6.78413E-03 6.47562E-04-1.85599E-14
 -1       254 7.07021E-03 6.44699E-04-2.00984E-14
 -1       255 7.35676E-03 6.41261E-04-2.16951E-14
 -1       256 7.64398E-03 6.37156E-04-2.33448E-14
 -1       257 7.93214E-03 6.32321E-04-2.50447E-14
 -1       258 8.22157E-03 6.26739E-04-2.67991E-14
 -1       259 8.51272E-03 6.20481E-04-2.86156E-14
 -1       260 8.80615E-03 6.13747E-04-3.04870E-14
 -1       261 9.10254E-03 6.06937E-04-3.24038E-14
 -1       262 9.40269E-03 6.00743E-04-3.43614E-14
 -1       263 9.70753E-03 5.96276E-04-3.63594E-14
 -1       264 1.00180E-02 5.95225E-04-3.84050E-14
 -1       265 1.03352E-02 6.00051E-04-4.04936E-14
 -1       266 1.06596E-02 6.14199E-04-4.26144E-14
 -1       267 1.09917E-02 6.42248E-04-4.47663E-14
 -1       268 1.13307E-02 6.89865E-04-4.69481E-14
 -1       269 1.16742E-02 7.63249E-04-4.91522E-14
 -1       270 1.20176E-02 8.67603E-04-5.13702E-14
 -1       271 1.23537E-02 1.00408E-03-5.35952E-14
 -1       272 1.26726E-02 1.16510E-03-5.58144E-14
 -1       273 1.29644E-02 1.32945E-03-5.80195E-14
 -1       274 1.32232E-02 1.46106E-03-6.02139E-14
 -1       275 1.34522E-02 1.51704E-03-6.23926E-14
 -1       276 1.36668E-02 1.46701E-03-6.45636E-14
 -1       277 1.38898E-02 1.31673E-03-6.67284E-14
 -1       278 1.41404E-02 1.11758E-03-6.88917E-14
 -1       279 1.42809E-02 1.00078E-03-6.92099E-14
 -1       280 1.44003E-02 8.71865E-04-6.91165E-14
 -1       281 1.46090E-02 7.12186E-04-6.90236E-14
 -1       282 1.49639E-02 5.57500E-04-6.89491E-14
 -1       283 1.55383E-02 4.14478E-04-6.88929E-14
 -1       284 1.77948E-02 4.03564E-05-6.92032E-14
 -1       285 1.90808E-02 1.06816E-04-6.94310E-14
 -1       286 1.84403E-02 2.25946E-04-6.93559E-14
 -1       287 1.73910E-02 2.40812E-04-6.92633E-14
 -1       288 1.62489E-02 1.36192E-04-6.91440E-14
 -1       289 1.52649E-02-1.02914E-04-6.90010E-14
 -1       290 1.47487E-02-3.64996E-04-6.88607E-14
 -1       291 1.44959E-02-5.95531E-04-6.87131E-14
 -1       292 1.43740E-02-7.72303E-04-6.85588E-14
 -1       293 1.41836E-02-9.43293E-04-6.74330E-14
 -1       294 1.89852E-02 9.59084E-05-6.88855E-14
 -1       295 1.83343E-02 2.38896E-04-6.85883E-14
 -1       296 1.73892E-02 4.89544E-04-6.81651E-14
 -1       297 1.65030E-02 8.41902E-04-6.74085E-14
 -1       298 1.56761E-02 1.12262E-03-6.65770E-14
 -1       299 1.50446E-02 1.35160E-03-6.54557E-14
 -1       300 1.45088E-02 1.45211E-03-6.42490E-14
 -1       301 1.40055E-02 1.43539E-03-6.29645E-14
 -1       302 1.35420E-02 1.31650E-03-6.16641E-14
 -1       303 1.30983E-02 1.10630E-03-6.03089E-14
 -1       304 1.26083E-02 8.64472E-04-5.92219E-14
 -1       305 1.21988E-02 6.09905E-04-5.81350E-14
 -1       306 1.18373E-02 4.14231E-04-5.74299E-14
 -1       307 1.15928E-02 2.35722E-04-5.67751E-14
 -1       308 1.14746E-02 1.04177E-04-5.65799E-14
 -1       309 1.14987E-02-2.54573E-05-5.64193E-14
 -1       310 1.16700E-02-1.81009E-04-5.67572E-14
 -1       311 1.19565E-02-3.51363E-04-5.71768E-14
 -1       312 1.23607E-02-5.55336E-04-5.77876E-14
 -1       313 1.27819E-02-8.16736E-04-5.89105E-14
 -1       314 1.32140E-02-1.03692E-03-6.00565E-14
 -1       315 1.36714E-02-1.21108E-03-6.12771E-14
 -1       316 1.41287E-02-1.28935E-03-6.26072E-14
 -1       317 1.45713E-02-1.27847E-03-6.39206E-14
 -1       318 1.50238E-02-1.17959E-03-6.49150E-14
 -1       319 1.57966E-02-9.42822E-04-6.61762E-14
 -1       320 1.65606E-02-6.50939E-04-6.71162E-14
 -1       321 1.74541E-02-2.73206E-04-6.80107E-14
 -1       322 1.84015E-02-6.22039E-05-6.84651E-14
 -1       323 1.89958E-02 4.39062E-05-6.86678E-14
 -1       324 1.66800E-02 1.04728E-04-6.92448E-14
 -1       325 1.88243E-02-1.79871E-05-6.94809E-14
 -1       326 4.55419E-04-1.64747E-04-9.77069E-17
 -1       327 4.74301E-04-2.12938E-04-7.69614E-17
 -1       328 4.40430E-04-9.39739E-05-1.19235E-16
 -1       329 4.37452E-04-6.48786E-05-1.24056E-16
 -1       330 4.35818E-04-3.78848E-05-1.26797E-16
 -1       331 4.35102E-04-1.20103E-05-1.28068E-16
 -1       332 4.35133E-04 1.35288E-05-1.28132E-16
 -1       333 4.35916E-04 3.94608E-05-1.27031E-16
 -1       334 4.37593E-04 6.61060E-05-1.24477E-16
 -1       335 4.40665E-04 9.53728E-05-1.20025E-16
 -1       336 4.46071E-04 1.28281E-04-1.12428E-16
 -1       337 4.55925E-04 1.67261E-04-9.99465E-17
 -1       338 4.75936E-04 2.17007E-04-8.00311E-17
 -1       339 5.32076E-04 2.69938E-04-7.27432E-17
 -1       340 8.24595E-04 3.73461E-04-2.03667E-16
 -1       341 1.51372E-02-9.23474E-04-6.61654E-14
 -1       342 8.63364E-04-3.57356E-04-2.50007E-16
 -1       343 1.14976E-03-4.26106E-04-4.63134E-16
 -1       344 1.43259E-03-4.75288E-04-7.43749E-16
 -1       345 1.71335E-03-5.10048E-04-1.09214E-15
 -1       346 1.99319E-03-5.34190E-04-1.50884E-15
 -1       347 2.27284E-03-5.50543E-04-1.99107E-15
 -1       348 2.55279E-03-5.61232E-04-2.53713E-15
 -1       349 2.83329E-03-5.67855E-04-3.14791E-15
 -1       350 3.11446E-03-5.71616E-04-3.82199E-15
 -1       351 3.39631E-03-5.73408E-04-4.55639E-15
 -1       352 3.67881E-03-5.73888E-04-5.35128E-15
 -1       353 3.96191E-03-5.73526E-04-6.20447E-15
 -1       354 4.24552E-03-5.72650E-04-7.11544E-15
 -1       355 4.52956E-03-5.71476E-04-8.08640E-15
 -1       356 4.81397E-03-5.70140E-04-9.11523E-15
 -1       357 5.09866E-03-5.68711E-04-1.02023E-14
 -1       358 5.38360E-03-5.67210E-04-1.13458E-14
 -1       359 5.66873E-03-5.65621E-04-1.25460E-14
 -1       360 5.95405E-03-5.63898E-04-1.38070E-14
 -1       361 6.23954E-03-5.61971E-04-1.51288E-14
 -1       362 6.52522E-03-5.59754E-04-1.65098E-14
 -1       363 6.81114E-03-5.57146E-04-1.79543E-14
 -1       364 7.09736E-03-5.54039E-04-1.94554E-14
 -1       365 7.38398E-03-5.50326E-04-2.10145E-14
 -1       366 7.67114E-03-5.45911E-04-2.26347E-14
 -1       367 7.95902E-03-5.40725E-04-2.43093E-14
 -1       368 8.24786E-03-5.34756E-04-2.60315E-14
 -1       369 8.53794E-03-5.28079E-04-2.77925E-14
 -1       370 8.82961E-03-5.20907E-04-2.95945E-14
 -1       371 9.12328E-03-5.13664E-04-3.14359E-14
 -1       372 9.41942E-03-5.07068E-04-3.33149E-14
 -1       373 9.71855E-03-5.02254E-04-3.52299E-14
 -1       374 1.00212E-02-5.00911E-04-3.71836E-14
 -1       375 1.03280E-02-5.05439E-04-3.91796E-14
 -1       376 1.06393E-02-5.19088E-04-4.12144E-14
 -1       377 1.09555E-02-5.46017E-04-4.32867E-14
 -1       378 1.12767E-02-5.91132E-04-4.53805E-14
 -1       379 1.16023E-02-6.59471E-04-4.74975E-14
 -1       380 1.19307E-02-7.54798E-04-4.96456E-14
 -1       381 1.22585E-02-8.77022E-04-5.18177E-14
 -1       382 1.25802E-02-1.01835E-03-5.40141E-14
 -1       383 1.28879E-02-1.15930E-03-5.62379E-14
 -1       384 1.31744E-02-1.26780E-03-5.84936E-14
 -1       385 1.34379E-02-1.30630E-03-6.07655E-14
 -1       386 1.36864E-02-1.24932E-03-6.30389E-14
 -1       387 1.39369E-02-1.10441E-03-6.53052E-14
 -1       388 1.11012E-03 4.47778E-04-4.03615E-16
 -1       389 1.39092E-03 5.00850E-04-6.74323E-16
 -1       390 1.66929E-03 5.38484E-04-1.01583E-15
 -1       391 1.94675E-03 5.64809E-04-1.42789E-15
 -1       392 2.22425E-03 5.82838E-04-1.90977E-15
 -1       393 2.50232E-03 5.94816E-04-2.46010E-15
 -1       394 2.78122E-03 6.02431E-04-3.07845E-15
 -1       395 3.06106E-03 6.06952E-04-3.76552E-15
 -1       396 3.34184E-03 6.09328E-04-4.51870E-15
 -1       397 3.62349E-03 6.10257E-04-5.33788E-15
 -1       398 3.90592E-03 6.10244E-04-6.22277E-15
 -1       399 4.18900E-03 6.09646E-04-7.17314E-15
 -1       400 4.47264E-03 6.08700E-04-8.18688E-15
 -1       401 4.75673E-03 6.07560E-04-9.25983E-15
 -1       402 5.04118E-03 6.06307E-04-1.03955E-14
 -1       403 5.32593E-03 6.04975E-04-1.15919E-14
 -1       404 5.61091E-03 6.03555E-04-1.28457E-14
 -1       405 5.89609E-03 6.02009E-04-1.41569E-14
 -1       406 6.18147E-03 6.00273E-04-1.55230E-14
 -1       407 6.46705E-03 5.98264E-04-1.69454E-14
 -1       408 6.75287E-03 5.95885E-04-1.84190E-14
 -1       409 7.03901E-03 5.93029E-04-1.99485E-14
 -1       410 7.32557E-03 5.89586E-04-2.15347E-14
 -1       411 7.61271E-03 5.85455E-04-2.31753E-14
 -1       412 7.90063E-03 5.80554E-04-2.48675E-14
 -1       413 8.18963E-03 5.74849E-04-2.66129E-14
 -1       414 8.48002E-03 5.68380E-04-2.84184E-14
 -1       415 8.77225E-03 5.61311E-04-3.02767E-14
 -1       416 9.06682E-03 5.53992E-04-3.21824E-14
 -1       417 9.36435E-03 5.47051E-04-3.41329E-14
 -1       418 9.66551E-03 5.41519E-04-3.61240E-14
 -1       419 9.97104E-03 5.38980E-04-3.81616E-14
 -1       420 1.02817E-02 5.41777E-04-4.02396E-14
 -1       421 1.05981E-02 5.53220E-04-4.23503E-14
 -1       422 1.09206E-02 5.77777E-04-4.44914E-14
 -1       423 1.12493E-02 6.21094E-04-4.66608E-14
 -1       424 1.15832E-02 6.89598E-04-4.88551E-14
 -1       425 1.19202E-02 7.89235E-04-5.10658E-14
 -1       426 1.22563E-02 9.22739E-04-5.32850E-14
 -1       427 1.25847E-02 1.08504E-03-5.55019E-14
 -1       428 1.28967E-02 1.25761E-03-5.77057E-14
 -1       429 1.31841E-02 1.40519E-03-5.98993E-14
 -1       430 1.34439E-02 1.48136E-03-6.20849E-14
 -1       431 1.36840E-02 1.44747E-03-6.42627E-14
 -1       432 1.39224E-02 1.29954E-03-6.64320E-14
 -1       433 1.40945E-02 1.15563E-03-6.78205E-14
 -1       434 1.44844E-02 1.05592E-03-6.71390E-14
 -1       435 1.42268E-02 1.10069E-03-6.72311E-14
 -1       436 1.41466E-02 1.11965E-03-6.75261E-14
 -1       437 1.48590E-02 1.03090E-03-6.70699E-14
 -1       438 1.59488E-02 7.15048E-04-6.78245E-14
 -1       439 1.46897E-02-6.95442E-04-6.71268E-14
 -1       440 1.43492E-02-7.89112E-04-6.69793E-14
 -1       441 1.41898E-02-8.87607E-04-6.68359E-14
 -1       442 1.47697E-02-1.12619E-03-6.51728E-14
 -1       443 1.66797E-02-1.82854E-04-6.82774E-14
 -1       444 4.45607E-04-1.26436E-04-1.10934E-16
 -1       445 1.50537E-02 1.14027E-03-6.65637E-14
 -1       446 1.45713E-02 1.39570E-03-6.51628E-14
 -1       447 1.41530E-02 1.48196E-03-6.37667E-14
 -1       448 1.37805E-02 1.42382E-03-6.22888E-14
 -1       449 1.34009E-02 1.24660E-03-6.08246E-14
 -1       450 1.28745E-02 9.14987E-04-5.90578E-14
 -1       451 1.24960E-02 6.74222E-04-5.79827E-14
 -1       452 1.20286E-02 4.06352E-04-5.68387E-14
 -1       453 1.17408E-02 2.58144E-04-5.61887E-14
 -1       454 1.14948E-02 1.25263E-04-5.57086E-14
 -1       455 1.14468E-02 4.88347E-05-5.55315E-14
 -1       456 1.15746E-02-5.78153E-05-5.56419E-14
 -1       457 1.18137E-02-1.82453E-04-5.60340E-14
 -1       458 1.21615E-02-3.56929E-04-5.65365E-14
 -1       459 1.26685E-02-6.62577E-04-5.78037E-14
 -1       460 1.30870E-02-9.22053E-04-5.89470E-14
 -1       461 1.34355E-02-1.12529E-03-6.01509E-14
 -1       462 1.38845E-02-1.29811E-03-6.19160E-14
 -1       463 1.41888E-02-1.30914E-03-6.32260E-14
 -1       464 1.58599E-02-5.69970E-04-6.73162E-14
 -1       465 1.43664E-02-1.19930E-03-6.44865E-14
 -1       466 1.24110E-02-4.80891E-04-5.65458E-14
 -1       467 1.31334E-02 1.08097E-03-5.95740E-14
 -1       468 9.31338E-04 3.45975E-04-3.39941E-16
 -1       469 6.65781E-04-7.51040E-05-2.66436E-16
 -1       470 6.69764E-04-1.15849E-04-2.59151E-16
 -1       471 6.63094E-04 1.10441E-06-2.71955E-16
 -1       472 6.63818E-04 3.87508E-05-2.71250E-16
 -1       473 6.65968E-04 7.67905E-05-2.67923E-16
 -1       474 6.70079E-04 1.17691E-04-2.61432E-16
 -1       475 6.77109E-04 1.62301E-04-2.50644E-16
 -1       476 6.89049E-04 2.12661E-04-2.33900E-16
 -1       477 9.76378E-04-3.28568E-04-3.91184E-16
 -1       478 1.21725E-03 4.06465E-04-5.85544E-16
 -1       479 7.12662E-04-2.51780E-04-2.19988E-16
 -1       480 1.26231E-03-3.83453E-04-6.48475E-16
 -1       481 1.54735E-03-4.23217E-04-9.71991E-16
 -1       482 1.83151E-03-4.51305E-04-1.36278E-15
 -1       483 2.11508E-03-4.70624E-04-1.81896E-15
 -1       484 2.39838E-03-4.83470E-04-2.33874E-15
 -1       485 2.68166E-03-4.91622E-04-2.92159E-15
 -1       486 2.96508E-03-4.96434E-04-3.56704E-15
 -1       487 3.24872E-03-4.98925E-04-4.27588E-15
 -1       488 3.53264E-03-4.99851E-04-5.04568E-15
 -1       489 3.81683E-03-4.99758E-04-5.87456E-15
 -1       490 4.10128E-03-4.99033E-04-6.75922E-15
 -1       491 4.38596E-03-4.97939E-04-7.70244E-15
 -1       492 4.67085E-03-4.96642E-04-8.70525E-15
 -1       493 4.95591E-03-4.95240E-04-9.76542E-15
 -1       494 5.24113E-03-4.93771E-04-1.08829E-14
 -1       495 5.52647E-03-4.92236E-04-1.20570E-14
 -1       496 5.81192E-03-4.90599E-04-1.32911E-14
 -1       497 6.09749E-03-4.88802E-04-1.45863E-14
 -1       498 6.38318E-03-4.86763E-04-1.59413E-14
 -1       499 6.66900E-03-4.84388E-04-1.73559E-14
 -1       500 6.95499E-03-4.81568E-04-1.88297E-14
 -1       501 7.24120E-03-4.78192E-04-2.03604E-14
 -1       502 7.52770E-03-4.74151E-04-2.19506E-14
 -1       503 7.81457E-03-4.69356E-04-2.35967E-14
 -1       504 8.10193E-03-4.63751E-04-2.52936E-14
 -1       505 8.38991E-03-4.57348E-04-2.70374E-14
 -1       506 8.67871E-03-4.50262E-04-2.88213E-14
 -1       507 8.96852E-03-4.42766E-04-3.06459E-14
 -1       508 9.25961E-03-4.35368E-04-3.25079E-14
 -1       509 9.55229E-03-4.28901E-04-3.44094E-14
 -1       510 9.84698E-03-4.24644E-04-3.63485E-14
 -1       511 1.01442E-02-4.24458E-04-3.83291E-14
 -1       512 1.04446E-02-4.30935E-04-4.03485E-14
 -1       513 1.07492E-02-4.47527E-04-4.24083E-14
 -1       514 1.10592E-02-4.78608E-04-4.44939E-14
 -1       515 1.13763E-02-5.29344E-04-4.65981E-14
 -1       516 1.17018E-02-6.05147E-04-4.87270E-14
 -1       517 1.20364E-02-7.10313E-04-5.08805E-14
 -1       518 1.23777E-02-8.45103E-04-5.30558E-14
 -1       519 1.27184E-02-1.00044E-03-5.52548E-14
 -1       520 1.30460E-02-1.15156E-03-5.74866E-14
 -1       521 1.33479E-02-1.25550E-03-5.97421E-14
 -1       522 1.36186E-02-1.26300E-03-6.20134E-14
 -1       523 1.38738E-02-1.14852E-03-6.42843E-14
 -1       524 1.50140E-03 4.50149E-04-9.00169E-16
 -1       525 1.78418E-03 4.81065E-04-1.28379E-15
 -1       526 2.06621E-03 5.02463E-04-1.73603E-15
 -1       527 2.34800E-03 5.16851E-04-2.25538E-15
 -1       528 2.62988E-03 5.26147E-04-2.84193E-15
 -1       529 2.91207E-03 5.31807E-04-3.49607E-15
 -1       530 3.19467E-03 5.34928E-04-4.21694E-15
 -1       531 3.47770E-03 5.36320E-04-5.00179E-15
 -1       532 3.76117E-03 5.36576E-04-5.85173E-15
 -1       533 4.04504E-03 5.36118E-04-6.76706E-15
 -1       534 4.32926E-03 5.35233E-04-7.74605E-15
 -1       535 4.61378E-03 5.34110E-04-8.78598E-15
 -1       536 4.89856E-03 5.32860E-04-9.88499E-15
 -1       537 5.18354E-03 5.31535E-04-1.10452E-14
 -1       538 5.46871E-03 5.30142E-04-1.22658E-14
 -1       539 5.75403E-03 5.28654E-04-1.35452E-14
 -1       540 6.03950E-03 5.27015E-04-1.48798E-14
 -1       541 6.32511E-03 5.25149E-04-1.62686E-14
 -1       542 6.61089E-03 5.22961E-04-1.77096E-14
 -1       543 6.89689E-03 5.20345E-04-1.92039E-14
 -1       544 7.18315E-03 5.17185E-04-2.07591E-14
 -1       545 7.46977E-03 5.13368E-04-2.23694E-14
 -1       546 7.75686E-03 5.08793E-04-2.40314E-14
 -1       547 8.04457E-03 5.03386E-04-2.57465E-14
 -1       548 8.33309E-03 4.97131E-04-2.75186E-14
 -1       549 8.62266E-03 4.90105E-04-2.93424E-14
 -1       550 8.91355E-03 4.82528E-04-3.12166E-14
 -1       551 9.20610E-03 4.74842E-04-3.31392E-14
 -1       552 9.50070E-03 4.67803E-04-3.51060E-14
 -1       553 9.79779E-03 4.62619E-04-3.71161E-14
 -1       554 1.00979E-02 4.61114E-04-3.91685E-14
 -1       555 1.04017E-02 4.65921E-04-4.12576E-14
 -1       556 1.07099E-02 4.80694E-04-4.33753E-14
 -1       557 1.10236E-02 5.10270E-04-4.55214E-14
 -1       558 1.13439E-02 5.60666E-04-4.76952E-14
 -1       559 1.16722E-02 6.38650E-04-4.98906E-14
 -1       560 1.20091E-02 7.50430E-04-5.20982E-14
 -1       561 1.23533E-02 8.98636E-04-5.43059E-14
 -1       562 1.26988E-02 1.07653E-03-5.65133E-14
 -1       563 1.30337E-02 1.26028E-03-5.87092E-14
 -1       564 1.33439E-02 1.40392E-03-6.09009E-14
 -1       565 1.36223E-02 1.44820E-03-6.30893E-14
 -1       566 1.38779E-02 1.35288E-03-6.52707E-14
 -1       567 1.41182E-02 1.31026E-03-6.55822E-14
 -1       568 1.40387E-02-1.06400E-03-6.51024E-14
 -1       569 1.43671E-02-1.00395E-03-6.56319E-14
 -1       570 1.36059E-02-1.23071E-03-6.07090E-14
 -1       571 1.28685E-02-7.73286E-04-5.76942E-14
 -1       572 6.63706E-04-3.65063E-05-2.70597E-16
 -1       573 1.42456E-02 1.41845E-03-6.47940E-14
 -1       574 1.38818E-02 1.46485E-03-6.30453E-14
 -1       575 1.35666E-02 1.35581E-03-6.14074E-14
 -1       576 1.26834E-02 7.72653E-04-5.78674E-14
 -1       577 1.22438E-02 4.96963E-04-5.64909E-14
 -1       578 1.18623E-02 2.93860E-04-5.56139E-14
 -1       579 1.15588E-02 1.53154E-04-5.47738E-14
 -1       580 1.14582E-02 9.90489E-06-5.44892E-14
 -1       581 1.16563E-02-8.74194E-05-5.44440E-14
 -1       582 1.19171E-02-2.09217E-04-5.49324E-14
 -1       583 1.32504E-02-1.03296E-03-5.90325E-14
 -1       584 1.39074E-02-1.29935E-03-6.24223E-14
 -1       585 1.14298E-02 7.71284E-05-5.46483E-14
 -1       586 7.03879E-04 2.90846E-04-1.86771E-16
 -1       587 1.45344E-02 1.24342E-03-6.61189E-14
 -1       588 6.76584E-04-1.60031E-04-2.47489E-16
 -1       589 1.33089E-02 1.22427E-03-6.01580E-14
 -1       590 1.40601E-02-1.23763E-03-6.36827E-14
 -1       591 1.21104E-02-3.20163E-04-5.49331E-14
 -1       592 8.99693E-04 7.40910E-05-4.63178E-16
 -1       593 8.97595E-04 2.51713E-05-4.66485E-16
 -1       594 9.11810E-04 1.78188E-04-4.43466E-16
 -1       595 9.24211E-04 2.36746E-04-4.23703E-16
 -1       596 1.09777E-03-2.94573E-04-5.48518E-16
 -1       597 1.04893E-03 3.13869E-04-4.91879E-16
 -1       598 1.36471E-02-1.26671E-03-6.11993E-14
 -1       599 1.38334E-03-3.37009E-04-8.47894E-16
 -1       600 1.66953E-03-3.67948E-04-1.21281E-15
 -1       601 1.95575E-03-3.89764E-04-1.64325E-15
 -1       602 2.24180E-03-4.04617E-04-2.13668E-15
 -1       603 2.52765E-03-4.14305E-04-2.69264E-15
 -1       604 2.81337E-03-4.20253E-04-3.31064E-15
 -1       605 3.09899E-03-4.23560E-04-3.99125E-15
 -1       606 3.38456E-03-4.25057E-04-4.73469E-15
 -1       607 3.67011E-03-4.25354E-04-5.53943E-15
 -1       608 3.95565E-03-4.24891E-04-6.40064E-15
 -1       609 4.24121E-03-4.23970E-04-7.31800E-15
 -1       610 4.52679E-03-4.22793E-04-8.29376E-15
 -1       611 4.81239E-03-4.21482E-04-9.32687E-15
 -1       612 5.09801E-03-4.20100E-04-1.04185E-14
 -1       613 5.38365E-03-4.18662E-04-1.15679E-14
 -1       614 5.66932E-03-4.17150E-04-1.27749E-14
 -1       615 5.95502E-03-4.15518E-04-1.40430E-14
 -1       616 6.24074E-03-4.13698E-04-1.53724E-14
 -1       617 6.52649E-03-4.11603E-04-1.67587E-14
 -1       618 6.81228E-03-4.09136E-04-1.82045E-14
 -1       619 7.09812E-03-4.06189E-04-1.97069E-14
 -1       620 7.38401E-03-4.02653E-04-2.12685E-14
 -1       621 7.66997E-03-3.98428E-04-2.28883E-14
 -1       622 7.95601E-03-3.93436E-04-2.45597E-14
 -1       623 8.24217E-03-3.87643E-04-2.62794E-14
 -1       624 8.52847E-03-3.81089E-04-2.80452E-14
 -1       625 8.81496E-03-3.73928E-04-2.98531E-14
 -1       626 9.10172E-03-3.66482E-04-3.17002E-14
 -1       627 9.38889E-03-3.59314E-04-3.35828E-14
 -1       628 9.67668E-03-3.53312E-04-3.55081E-14
 -1       629 9.96547E-03-3.49796E-04-3.74752E-14
 -1       630 1.02559E-02-3.50635E-04-3.94829E-14
 -1       631 1.05491E-02-3.58386E-04-4.15280E-14
 -1       632 1.08468E-02-3.76434E-04-4.36021E-14
 -1       633 1.11516E-02-4.09159E-04-4.56980E-14
 -1       634 1.14671E-02-4.62083E-04-4.78165E-14
 -1       635 1.17975E-02-5.41766E-04-4.99530E-14
 -1       636 1.21460E-02-6.55066E-04-5.21090E-14
 -1       637 1.25108E-02-8.05705E-04-5.42862E-14
 -1       638 1.28808E-02-9.84906E-04-5.64883E-14
 -1       639 1.32363E-02-1.15892E-03-5.87245E-14
 -1       640 1.90577E-03 4.20697E-04-1.56028E-15
 -1       641 2.19077E-03 4.37502E-04-2.05005E-15
 -1       642 2.47556E-03 4.48601E-04-2.60533E-15
 -1       643 2.76024E-03 4.55565E-04-3.22755E-15
 -1       644 3.04493E-03 4.59600E-04-3.91616E-15
 -1       645 3.32969E-03 4.61616E-04-4.66878E-15
 -1       646 3.61454E-03 4.62283E-04-5.48499E-15
 -1       647 3.89951E-03 4.62086E-04-6.36629E-15
 -1       648 4.18460E-03 4.61362E-04-7.31029E-15
 -1       649 4.46979E-03 4.60338E-04-8.31762E-15
 -1       650 4.75508E-03 4.59155E-04-9.38263E-15
 -1       651 5.04047E-03 4.57887E-04-1.05084E-14
 -1       652 5.32593E-03 4.56561E-04-1.16946E-14
 -1       653 5.61146E-03 4.55164E-04-1.29395E-14
 -1       654 5.89706E-03 4.53654E-04-1.42419E-14
 -1       655 6.18273E-03 4.51965E-04-1.55990E-14
 -1       656 6.46848E-03 4.50012E-04-1.70078E-14
 -1       657 6.75431E-03 4.47694E-04-1.84691E-14
 -1       658 7.04026E-03 4.44902E-04-1.99880E-14
 -1       659 7.32634E-03 4.41522E-04-2.15681E-14
 -1       660 7.61261E-03 4.37442E-04-2.32010E-14
 -1       661 7.89910E-03 4.32573E-04-2.48851E-14
 -1       662 8.18588E-03 4.26861E-04-2.66259E-14
 -1       663 8.47303E-03 4.20319E-04-2.84180E-14
 -1       664 8.76064E-03 4.13068E-04-3.02600E-14
 -1       665 9.04881E-03 4.05393E-04-3.21507E-14
 -1       666 9.33771E-03 3.97818E-04-3.40935E-14
 -1       667 9.62752E-03 3.91201E-04-3.60779E-14
 -1       668 9.91854E-03 3.86861E-04-3.81043E-14
 -1       669 1.02113E-02 3.86724E-04-4.01699E-14
 -1       670 1.05065E-02 3.93498E-04-4.22678E-14
 -1       671 1.08056E-02 4.10857E-04-4.43917E-14
 -1       672 1.11107E-02 4.43626E-04-4.65452E-14
 -1       673 1.14252E-02 4.97929E-04-4.87247E-14
 -1       674 1.17534E-02 5.81154E-04-5.09156E-14
 -1       675 1.20996E-02 7.01292E-04-5.31152E-14
 -1       676 1.24650E-02 8.64191E-04-5.53174E-14
 -1       677 1.28420E-02 1.06475E-03-5.75157E-14
 -1       678 1.32107E-02 1.27139E-03-5.97080E-14
 -1       679 1.35501E-02 1.41823E-03-6.19097E-14
 -1       680 1.38341E-02 1.43412E-03-6.37502E-14
 -1       681 1.13747E-02 4.38399E-05-5.34152E-14
 -1       682 1.29873E-02-8.90561E-04-5.76156E-14
 -1       683 1.33642E-02-1.14774E-03-5.94230E-14
 -1       684 1.25719E-02-5.99169E-04-5.61964E-14
 -1       685 1.62040E-03 3.96182E-04-1.13678E-15
 -1       686 9.04164E-04 1.24585E-04-4.55687E-16
 -1       687 1.33469E-03 3.61509E-04-7.80294E-16
 -1       688 9.03790E-04-1.22176E-04-4.52746E-16
 -1       689 1.19643E-02 3.63294E-04-5.48850E-14
 -1       690 1.24219E-02 6.33022E-04-5.63278E-14
 -1       691 1.29090E-02 9.55676E-04-5.82938E-14
 -1       692 1.14162E-02 9.79445E-05-5.35349E-14
 -1       693 1.17203E-02-1.42451E-04-5.35437E-14
 -1       694 1.14458E-02-2.07751E-05-5.30108E-14
 -1       695 1.16561E-02 2.11372E-04-5.40526E-14
 -1       696 1.38876E-02-1.20921E-03-6.35009E-14
 -1       697 8.97532E-04-2.31510E-05-4.65970E-16
 -1       698 1.35725E-02 1.39487E-03-6.16624E-14
 -1       699 1.14574E-02 1.45642E-04-5.28086E-14
 -1       700 8.99487E-04-7.18067E-05-4.61572E-16
 -1       701 1.18727E-02-2.33094E-04-5.35379E-14
 -1       702 9.11224E-04-1.75565E-04-4.38292E-16
 -1       703 8.72409E-04-2.47063E-04-3.60267E-16
 -1       704 1.16153E-03 2.43600E-04-6.68068E-16
 -1       705 1.26572E-02-7.35869E-04-5.57624E-14
 -1       706 1.32991E-02 1.28225E-03-6.01418E-14
 -1       707 1.30649E-02-1.02104E-03-5.76828E-14
 -1       708 1.51019E-03-2.86490E-04-1.06152E-15
 -1       709 1.79727E-03-3.09481E-04-1.46531E-15
 -1       710 2.08492E-03-3.25598E-04-1.93304E-15
 -1       711 2.37270E-03-3.36433E-04-2.46194E-15
 -1       712 2.66038E-03-3.43338E-04-3.05320E-15
 -1       713 2.94786E-03-3.47409E-04-3.70678E-15
 -1       714 3.23510E-03-3.49498E-04-4.42308E-15
 -1       715 3.52210E-03-3.50246E-04-5.20132E-15
 -1       716 3.80888E-03-3.50121E-04-6.03884E-15
 -1       717 4.09546E-03-3.49457E-04-6.93144E-15
 -1       718 4.38187E-03-3.48480E-04-7.88202E-15
 -1       719 4.66814E-03-3.47334E-04-8.88885E-15
 -1       720 4.95428E-03-3.46101E-04-9.95254E-15
 -1       721 5.24033E-03-3.44815E-04-1.10769E-14
 -1       722 5.52629E-03-3.43475E-04-1.22577E-14
 -1       723 5.81218E-03-3.42049E-04-1.34999E-14
 -1       724 6.09800E-03-3.40486E-04-1.48017E-14
 -1       725 6.38375E-03-3.38715E-04-1.61630E-14
 -1       726 6.66941E-03-3.36652E-04-1.75802E-14
 -1       727 6.95497E-03-3.34201E-04-1.90552E-14
 -1       728 7.24040E-03-3.31262E-04-2.05891E-14
 -1       729 7.52564E-03-3.27739E-04-2.21827E-14
 -1       730 7.81066E-03-3.23544E-04-2.38292E-14
 -1       731 8.09538E-03-3.18619E-04-2.55238E-14
 -1       732 8.37972E-03-3.12950E-04-2.72672E-14
 -1       733 8.66360E-03-3.06604E-04-2.90572E-14
 -1       734 8.94694E-03-2.99758E-04-3.08879E-14
 -1       735 9.22969E-03-2.92752E-04-3.27561E-14
 -1       736 9.51187E-03-2.86145E-04-3.46664E-14
 -1       737 9.79362E-03-2.80785E-04-3.66184E-14
 -1       738 1.00753E-02-2.77885E-04-3.86131E-14
 -1       739 1.03579E-02-2.79112E-04-4.06453E-14
 -1       740 1.06427E-02-2.86715E-04-4.27085E-14
 -1       741 1.09323E-02-3.03724E-04-4.47961E-14
 -1       742 1.12309E-02-3.34373E-04-4.69069E-14
 -1       743 1.15444E-02-3.84849E-04-4.90308E-14
 -1       744 1.18803E-02-4.64201E-04-5.11744E-14
 -1       745 1.22461E-02-5.85364E-04-5.33309E-14
 -1       746 2.03273E-03 3.57659E-04-1.84500E-15
 -1       747 2.89341E-03 3.83394E-04-3.61794E-15
 -1       748 3.17997E-03 3.86095E-04-4.33909E-15
 -1       749 3.46636E-03 3.87262E-04-5.12308E-15
 -1       750 3.75262E-03 3.87422E-04-5.97087E-15
 -1       751 4.03877E-03 3.86954E-04-6.88185E-15
 -1       752 4.32482E-03 3.86116E-04-7.85403E-15
 -1       753 4.61079E-03 3.85075E-04-8.88637E-15
 -1       754 4.89671E-03 3.83929E-04-9.97876E-15
 -1       755 5.18257E-03 3.82724E-04-1.11299E-14
 -1       756 5.46841E-03 3.81465E-04-1.23413E-14
 -1       757 5.75421E-03 3.80124E-04-1.36106E-14
 -1       758 6.03999E-03 3.78651E-04-1.49355E-14
 -1       759 6.32575E-03 3.76975E-04-1.63130E-14
 -1       760 6.61147E-03 3.75008E-04-1.77413E-14
 -1       761 6.89717E-03 3.72651E-04-1.92266E-14
 -1       762 7.18281E-03 3.69801E-04-2.07724E-14
 -1       763 7.46839E-03 3.66350E-04-2.23780E-14
 -1       764 7.75387E-03 3.62202E-04-2.40344E-14
 -1       765 8.03922E-03 3.57285E-04-2.57423E-14
 -1       766 8.32439E-03 3.51575E-04-2.75023E-14
 -1       767 8.60933E-03 3.45120E-04-2.93128E-14
 -1       768 8.89397E-03 3.38085E-04-3.11740E-14
 -1       769 9.17826E-03 3.30807E-04-3.30850E-14
 -1       770 9.46216E-03 3.23856E-04-3.50462E-14
 -1       771 9.74572E-03 3.18119E-04-3.70484E-14
 -1       772 1.00291E-02 3.14897E-04-3.90899E-14
 -1       773 1.03129E-02 3.16011E-04-4.11664E-14
 -1       774 1.05982E-02 3.23930E-04-4.32722E-14
 -1       775 1.08869E-02 3.41946E-04-4.54063E-14
 -1       776 1.11826E-02 3.74477E-04-4.75667E-14
 -1       777 1.14910E-02 4.27672E-04-4.97419E-14
 -1       778 1.18198E-02 5.10337E-04-5.19250E-14
 -1       779 1.21789E-02 6.35364E-04-5.41196E-14
 -1       780 1.22414E-02-4.59387E-04-5.42986E-14
 -1       781 1.74569E-03 3.39067E-04-1.38410E-15
 -1       782 2.60668E-03 3.78438E-04-2.96132E-15
 -1       783 1.12937E-02 6.38606E-05-5.20151E-14
 -1       784 1.22452E-03-2.54988E-04-7.21753E-16
 -1       785 1.12920E-02 1.01430E-05-5.16186E-14
 -1       786 1.20925E-02 4.90718E-04-5.44835E-14
 -1       787 1.14814E-02-8.30772E-05-5.19837E-14
 -1       788 1.13816E-03 5.90419E-05-7.08773E-16
 -1       789 1.17104E-02 2.78350E-04-5.32710E-14
 -1       790 2.31977E-03 3.70271E-04-2.37060E-15
 -1       791 1.24624E-03 3.00794E-04-7.26131E-16
 -1       792 1.24766E-02 7.61886E-04-5.58309E-14
 -1       793 1.15950E-02-1.49859E-04-5.19731E-14
 -1       794 1.13679E-03 1.19466E-06-7.10881E-16
 -1       795 1.14229E-03 1.17783E-04-7.01506E-16
 -1       796 1.14864E-02 2.02328E-04-5.20260E-14
 -1       797 1.14194E-03-1.15172E-04-6.98324E-16
 -1       798 1.14918E-03-1.76090E-04-6.82644E-16
 -1       799 1.14974E-03 1.78948E-04-6.88594E-16
 -1       800 1.49560E-03 3.24082E-04-1.02865E-15
 -1       801 1.11516E-02 3.99140E-05-5.01532E-14
 -1       802 1.92944E-03-2.47768E-04-1.72878E-15
 -1       803 2.21821E-03-2.58901E-04-2.23148E-15
 -1       804 2.50725E-03-2.66251E-04-2.79602E-15
 -1       805 2.79623E-03-2.70798E-04-3.42285E-15
 -1       806 3.08496E-03-2.73339E-04-4.11174E-15
 -1       807 3.37334E-03-2.74491E-04-4.86277E-15
 -1       808 3.66136E-03-2.74717E-04-5.67406E-15
 -1       809 3.94900E-03-2.74354E-04-6.54372E-15
 -1       810 4.23631E-03-2.73636E-04-7.46871E-15
 -1       811 4.52331E-03-2.72719E-04-8.45036E-15
 -1       812 4.81005E-03-2.71697E-04-9.48870E-15
 -1       813 5.09657E-03-2.70619E-04-1.05847E-14
 -1       814 5.38289E-03-2.69498E-04-1.17404E-14
 -1       815 5.66904E-03-2.68320E-04-1.29560E-14
 -1       816 5.95503E-03-2.67049E-04-1.42307E-14
 -1       817 6.24085E-03-2.65633E-04-1.55667E-14
 -1       818 6.52648E-03-2.64005E-04-1.69589E-14
 -1       819 6.81190E-03-2.62089E-04-1.84065E-14
 -1       820 7.09704E-03-2.59801E-04-1.99102E-14
 -1       821 7.38182E-03-2.57056E-04-2.14774E-14
 -1       822 7.66614E-03-2.53771E-04-2.31019E-14
 -1       823 7.94987E-03-2.49880E-04-2.47737E-14
 -1       824 8.23286E-03-2.45341E-04-2.64924E-14
 -1       825 8.51490E-03-2.40163E-04-2.82590E-14
 -1       826 8.79581E-03-2.34420E-04-3.00735E-14
 -1       827 9.07538E-03-2.28289E-04-3.19279E-14
 -1       828 9.35342E-03-2.22082E-04-3.38204E-14
 -1       829 9.62982E-03-2.16281E-04-3.57602E-14
 -1       830 9.90464E-03-2.11583E-04-3.77395E-14
 -1       831 1.01782E-02-2.08938E-04-3.97597E-14
 -1       832 1.04514E-02-2.09609E-04-4.18137E-14
 -1       833 1.07257E-02-2.15278E-04-4.38931E-14
 -1       834 1.10042E-02-2.28335E-04-4.59979E-14
 -1       835 1.12916E-02-2.52639E-04-4.81150E-14
 -1       836 1.15976E-02-2.95232E-04-5.02452E-14
 -1       837 2.45262E-03 3.00975E-04-2.69827E-15
 -1       838 3.02926E-03 3.09893E-04-4.01201E-15
 -1       839 3.89204E-03 3.11938E-04-6.45873E-15
 -1       840 4.17904E-03 3.11355E-04-7.39762E-15
 -1       841 4.46580E-03 3.10528E-04-8.39664E-15
 -1       842 4.75234E-03 3.09572E-04-9.45527E-15
 -1       843 5.03871E-03 3.08548E-04-1.05734E-14
 -1       844 5.32492E-03 3.07478E-04-1.17492E-14
 -1       845 5.61100E-03 3.06350E-04-1.29851E-14
 -1       846 5.89695E-03 3.05132E-04-1.42776E-14
 -1       847 6.18279E-03 3.03768E-04-1.56248E-14
 -1       848 6.46849E-03 3.02189E-04-1.70213E-14
 -1       849 6.75404E-03 3.00313E-04-1.84737E-14
 -1       850 7.03939E-03 2.98052E-04-1.99853E-14
 -1       851 7.32448E-03 2.95312E-04-2.15579E-14
 -1       852 7.60924E-03 2.92004E-04-2.31878E-14
 -1       853 7.89355E-03 2.88053E-04-2.48664E-14
 -1       854 8.17728E-03 2.83413E-04-2.65958E-14
 -1       855 8.46028E-03 2.78091E-04-2.83762E-14
 -1       856 8.74234E-03 2.72168E-04-3.02080E-14
 -1       857 9.02325E-03 2.65844E-04-3.20890E-14
 -1       858 9.30278E-03 2.59471E-04-3.40208E-14
 -1       859 9.58074E-03 2.53613E-04-3.59984E-14
 -1       860 9.85699E-03 2.49087E-04-3.80161E-14
 -1       861 1.01316E-02 2.47021E-04-4.00707E-14
 -1       862 1.04051E-02 2.48900E-04-4.21577E-14
 -1       863 1.06785E-02 2.56641E-04-4.42745E-14
 -1       864 1.09542E-02 2.72758E-04-4.64136E-14
 -1       865 1.12364E-02 3.00854E-04-4.85717E-14
 -1       866 1.15326E-02 3.46927E-04-5.07453E-14
 -1       867 1.13800E-03-5.65044E-05-7.07601E-16
 -1       868 2.74106E-03 3.06610E-04-3.32282E-15
 -1       869 1.87583E-03 2.78738E-04-1.64146E-15
 -1       870 1.18758E-02-3.27970E-04-5.23158E-14
 -1       871 3.60475E-03 3.12092E-04-5.58058E-15
 -1       872 1.35536E-03-2.09603E-04-9.10682E-16
 -1       873 3.31716E-03 3.11541E-04-4.76472E-15
 -1       874 1.64152E-03-2.31736E-04-1.28823E-15
 -1       875 1.12379E-02-4.47424E-05-5.01251E-14
 -1       876 1.17595E-02 3.76494E-04-5.25076E-14
 -1       877 1.12546E-02 1.06917E-04-5.09376E-14
 -1       878 2.16412E-03 2.92064E-04-2.13798E-15
 -1       879 1.38090E-03 3.41020E-05-1.00320E-15
 -1       880 1.58829E-03 2.59672E-04-1.20849E-15
 -1       881 1.38403E-03 9.98050E-05-9.97808E-16
 -1       882 1.13104E-02-9.28594E-05-5.01163E-14
 -1       883 1.38379E-03-9.70724E-05-9.94410E-16
 -1       884 1.40121E-03 2.36952E-04-9.64652E-16
 -1       885 1.15217E-02 2.74143E-04-5.13892E-14
 -1       886 1.44757E-03 2.79721E-04-9.98232E-16
 -1       887 1.72163E-03 2.02468E-04-1.44049E-15
 -1       888 2.29930E-03 2.24013E-04-2.43832E-15
 -1       889 2.35507E-03-1.89790E-04-2.53919E-15
 -1       890 2.64503E-03-1.94259E-04-3.13911E-15
 -1       891 2.93489E-03-1.96914E-04-3.80043E-15
 -1       892 3.22444E-03-1.98284E-04-4.52427E-15
 -1       893 3.51355E-03-1.98776E-04-5.30871E-15
 -1       894 3.80219E-03-1.98694E-04-6.15308E-15
 -1       895 4.09037E-03-1.98254E-04-7.05424E-15
 -1       896 4.37812E-03-1.97605E-04-8.01115E-15
 -1       897 4.66547E-03-1.96842E-04-9.02442E-15
 -1       898 4.95249E-03-1.96020E-04-1.00947E-14
 -1       899 5.23921E-03-1.95161E-04-1.12249E-14
 -1       900 5.52566E-03-1.94265E-04-1.24128E-14
 -1       901 5.81187E-03-1.93313E-04-1.36617E-14
 -1       902 6.09784E-03-1.92271E-04-1.49703E-14
 -1       903 6.38354E-03-1.91092E-04-1.63374E-14
 -1       904 6.66894E-03-1.89721E-04-1.77580E-14
 -1       905 6.95397E-03-1.88096E-04-1.92360E-14
 -1       906 7.23854E-03-1.86150E-04-2.07756E-14
 -1       907 7.52250E-03-1.83817E-04-2.23738E-14
 -1       908 7.80570E-03-1.81036E-04-2.40241E-14
 -1       909 8.08792E-03-1.77758E-04-2.57195E-14
 -1       910 8.36891E-03-1.73960E-04-2.74643E-14
 -1       911 8.64838E-03-1.69655E-04-2.92582E-14
 -1       912 8.92601E-03-1.64914E-04-3.10963E-14
 -1       913 9.20146E-03-1.59877E-04-3.29736E-14
 -1       914 9.47440E-03-1.54778E-04-3.48970E-14
 -1       915 9.74457E-03-1.49959E-04-3.68661E-14
 -1       916 1.00118E-02-1.45874E-04-3.88717E-14
 -1       917 1.02762E-02-1.43102E-04-4.09128E-14
 -1       918 1.05382E-02-1.42360E-04-4.29863E-14
 -1       919 1.07989E-02-1.44560E-04-4.50824E-14
 -1       920 1.10611E-02-1.51274E-04-4.72002E-14
 -1       921 4.03275E-03 2.36033E-04-6.94739E-15
 -1       922 4.89444E-03 2.33968E-04-1.00211E-14
 -1       923 5.18108E-03 2.33136E-04-1.11651E-14
 -1       924 5.46749E-03 2.32263E-04-1.23662E-14
 -1       925 5.75368E-03 2.31333E-04-1.36248E-14
 -1       926 6.03967E-03 2.30308E-04-1.49407E-14
 -1       927 6.32543E-03 2.29138E-04-1.63082E-14
 -1       928 6.61095E-03 2.27764E-04-1.77291E-14
 -1       929 6.89616E-03 2.26116E-04-1.92068E-14
 -1       930 7.18099E-03 2.24120E-04-2.07464E-14
 -1       931 7.46533E-03 2.21703E-04-2.23456E-14
 -1       932 7.74902E-03 2.18800E-04-2.39976E-14
 -1       933 8.03187E-03 2.15363E-04-2.56977E-14
 -1       934 8.31366E-03 2.11373E-04-2.74476E-14
 -1       935 8.59410E-03 2.06866E-04-2.92494E-14
 -1       936 8.87287E-03 2.01947E-04-3.11031E-14
 -1       937 9.14960E-03 1.96823E-04-3.30046E-14
 -1       938 9.42391E-03 1.91830E-04-3.49545E-14
 -1       939 9.69540E-03 1.87459E-04-3.69469E-14
 -1       940 9.96373E-03 1.84368E-04-3.89775E-14
 -1       941 1.02287E-02 1.83386E-04-4.10451E-14
 -1       942 1.04905E-02 1.85499E-04-4.31431E-14
 -1       943 1.07495E-02 1.91870E-04-4.52677E-14
 -1       944 1.10074E-02 2.03925E-04-4.74090E-14
 -1       945 1.12570E-02 2.31314E-04-4.93941E-14
 -1       946 3.74478E-03 2.36330E-04-6.04019E-15
 -1       947 1.39011E-03-1.64180E-04-9.78526E-16
 -1       948 1.38081E-03-3.12515E-05-1.00220E-15
 -1       949 2.87837E-03 2.33341E-04-3.68931E-15
 -1       950 1.39066E-03 1.67242E-04-9.85320E-16
 -1       951 2.01002E-03 2.15217E-04-1.90786E-15
 -1       952 1.77664E-03-1.72694E-04-1.52588E-15
 -1       953 1.10087E-02-6.68923E-06-4.82874E-14
 -1       954 1.63391E-03-1.42473E-04-1.32357E-15
 -1       955 1.10427E-02 8.22334E-05-4.88010E-14
 -1       956 4.32031E-03 2.35469E-04-7.91238E-15
 -1       957 2.58888E-03 2.29790E-04-3.03159E-15
 -1       958 2.06541E-03-1.82850E-04-2.00124E-15
 -1       959 1.12520E-02 1.66503E-04-5.00855E-14
 -1       960 4.60753E-03 2.34757E-04-8.93703E-15
 -1       961 1.62892E-03-7.00502E-05-1.33802E-15
 -1       962 1.62916E-03 7.31938E-05-1.34173E-15
 -1       963 3.16758E-03 2.35303E-04-4.40968E-15
 -1       964 1.62737E-03 1.57328E-06-1.34407E-15
 -1       965 3.45640E-03 2.36176E-04-5.19414E-15
 -1       966 2.78565E-03-1.20695E-04-3.48980E-15
 -1       967 3.07603E-03-1.21941E-04-4.18568E-15
 -1       968 3.36601E-03-1.22498E-04-4.94401E-15
 -1       969 3.65549E-03-1.22594E-04-5.76138E-15
 -1       970 3.94442E-03-1.22393E-04-6.63736E-15
 -1       971 4.23284E-03-1.22013E-04-7.57129E-15
 -1       972 4.52077E-03-1.21532E-04-8.55997E-15
 -1       973 4.80826E-03-1.20996E-04-9.60563E-15
 -1       974 5.09537E-03-1.20432E-04-1.07090E-14
 -1       975 5.38214E-03-1.19844E-04-1.18720E-14
 -1       976 5.66860E-03-1.19228E-04-1.30933E-14
 -1       977 5.95476E-03-1.18565E-04-1.43755E-14
 -1       978 6.24060E-03-1.17829E-04-1.57165E-14
 -1       979 6.52609E-03-1.16987E-04-1.71111E-14
 -1       980 6.81117E-03-1.16001E-04-1.85629E-14
 -1       981 7.09574E-03-1.14829E-04-2.00752E-14
 -1       982 7.37964E-03-1.13425E-04-2.16460E-14
 -1       983 7.66271E-03-1.11746E-04-2.32727E-14
 -1       984 7.94470E-03-1.09750E-04-2.49492E-14
 -1       985 8.22534E-03-1.07409E-04-2.66700E-14
 -1       986 8.50428E-03-1.04705E-04-2.84428E-14
 -1       987 8.78114E-03-1.01648E-04-3.02609E-14
 -1       988 9.05548E-03-9.82753E-05-3.21223E-14
 -1       989 9.32683E-03-9.46664E-05-3.40292E-14
 -1       990 9.59469E-03-9.09406E-05-3.59831E-14
 -1       991 9.85858E-03-8.72560E-05-3.79798E-14
 -1       992 1.01180E-02-8.37953E-05-4.00091E-14
 -1       993 1.03724E-02-8.07480E-05-4.20708E-14
 -1       994 1.06216E-02-7.83267E-05-4.41637E-14
 -1       995 1.08649E-02-7.67071E-05-4.62761E-14
 -1       996 2.20475E-03-1.14876E-04-2.28456E-15
 -1       997 5.03702E-03 1.58397E-04-1.05868E-14
 -1       998 5.89642E-03 1.56526E-04-1.42619E-14
 -1       999 6.18233E-03 1.55772E-04-1.55995E-14
 -1      1000 6.46792E-03 1.54895E-04-1.69919E-14
 -1      1001 6.75315E-03 1.53850E-04-1.84382E-14
 -1      1002 7.03792E-03 1.52587E-04-1.99432E-14
 -1      1003 7.32211E-03 1.51054E-04-2.15095E-14
 -1      1004 7.60556E-03 1.49203E-04-2.31345E-14
 -1      1005 7.88804E-03 1.46996E-04-2.48095E-14
 -1      1006 8.16930E-03 1.44412E-04-2.65298E-14
 -1      1007 8.44901E-03 1.41460E-04-2.83019E-14
 -1      1008 8.72678E-03 1.38192E-04-3.01270E-14
 -1      1009 9.00217E-03 1.34722E-04-3.19987E-14
 -1      1010 9.27468E-03 1.31239E-04-3.39171E-14
 -1      1011 9.54377E-03 1.28026E-04-3.58837E-14
 -1      1012 9.80882E-03 1.25458E-04-3.78913E-14
 -1      1013 1.00692E-02 1.23988E-04-3.99366E-14
 -1      1014 1.03242E-02 1.24107E-04-4.20151E-14
 -1      1015 1.05733E-02 1.26310E-04-4.41238E-14
 -1      1016 1.08154E-02 1.31003E-04-4.62501E-14
 -1      1017 3.88630E-03 1.60196E-04-6.50207E-15
 -1      1018 5.32377E-03 1.57813E-04-1.17542E-14
 -1      1019 1.10597E-02-6.11435E-05-4.81969E-14
 -1      1020 1.08295E-02 3.91519E-05-4.67194E-14
 -1      1021 5.61024E-03 1.57196E-04-1.29795E-14
 -1      1022 4.17462E-03 1.59903E-04-7.43503E-15
 -1      1023 2.49509E-03-1.18466E-04-2.85668E-15
 -1      1024 4.46249E-03 1.59466E-04-8.42607E-15
 -1      1025 1.10084E-02 1.41484E-04-4.79666E-14
 -1      1026 4.74994E-03 1.58952E-04-9.47693E-15
 -1      1027 1.91703E-03 7.87111E-05-1.79368E-15
 -1      1028 1.84589E-03-1.24680E-04-1.65627E-15
 -1      1029 1.08230E-02-2.32415E-05-4.63644E-14
 -1      1030 3.59748E-03 1.60242E-04-5.62746E-15
 -1      1031 2.43782E-03 1.53663E-04-2.74566E-15
 -1      1032 2.17690E-03 1.15718E-04-2.24582E-15
 -1      1033 2.72814E-03 1.56933E-04-3.37148E-15
 -1      1034 1.08135E-02 8.33511E-05-4.64890E-14
 -1      1035 3.01831E-03 1.58873E-04-4.06070E-15
 -1      1036 3.21929E-03-4.61690E-05-4.57957E-15
 -1      1037 3.50935E-03-4.62465E-05-5.37037E-15
 -1      1038 3.79885E-03-4.61826E-05-6.22039E-15
 -1      1039 4.08780E-03-4.60237E-05-7.12816E-15
 -1      1040 4.37619E-03-4.58120E-05-8.09397E-15
 -1      1041 4.66409E-03-4.55705E-05-9.11692E-15
 -1      1042 4.95154E-03-4.53135E-05-1.01952E-14
 -1      1043 5.23859E-03-4.50469E-05-1.13314E-14
 -1      1044 5.52528E-03-4.47707E-05-1.25275E-14
 -1      1045 5.81164E-03-4.44799E-05-1.37824E-14
 -1      1046 6.09766E-03-4.41659E-05-1.50970E-14
 -1      1047 6.38332E-03-4.38168E-05-1.64660E-14
 -1      1048 6.66856E-03-4.34178E-05-1.78905E-14
 -1      1049 6.95328E-03-4.29522E-05-1.93771E-14
 -1      1050 7.23736E-03-4.24009E-05-2.09216E-14
 -1      1051 7.52062E-03-4.17437E-05-2.25201E-14
 -1      1052 7.80282E-03-4.09593E-05-2.41747E-14
 -1      1053 8.08368E-03-4.00267E-05-2.58746E-14
 -1      1054 8.36286E-03-3.89255E-05-2.76239E-14
 -1      1055 8.63994E-03-3.76377E-05-2.94234E-14
 -1      1056 8.91445E-03-3.61483E-05-3.12675E-14
 -1      1057 9.18586E-03-3.44456E-05-3.31571E-14
 -1      1058 9.45357E-03-3.25204E-05-3.50925E-14
 -1      1059 9.71691E-03-3.03622E-05-3.70775E-14
 -1      1060 9.97512E-03-2.79524E-05-3.90956E-14
 -1      1061 1.02272E-02-2.52514E-05-4.11459E-14
 -1      1062 1.04720E-02-2.22923E-05-4.32294E-14
 -1      1063 1.97898E-03-5.14995E-05-1.89699E-15
 -1      1064 4.31748E-03 8.37355E-05-7.92277E-15
 -1      1065 2.63792E-03-4.52471E-05-3.18223E-15
 -1      1066 4.02906E-03 8.39036E-05-6.96359E-15
 -1      1067 6.03920E-03 8.20324E-05-1.48966E-14
 -1      1068 6.89517E-03 8.05709E-05-1.91487E-14
 -1      1069 7.17945E-03 7.98623E-05-2.06824E-14
 -1      1070 7.46296E-03 7.90009E-05-2.22755E-14
 -1      1071 7.74551E-03 7.79661E-05-2.39222E-14
 -1      1072 8.02681E-03 7.67462E-05-2.56192E-14
 -1      1073 8.30652E-03 7.53444E-05-2.73638E-14
 -1      1074 8.58427E-03 7.37862E-05-2.91578E-14
 -1      1075 8.85957E-03 7.21288E-05-3.10006E-14
 -1      1076 9.13189E-03 7.04707E-05-3.28907E-14
 -1      1077 9.40062E-03 6.89601E-05-3.48282E-14
 -1      1078 9.66508E-03 6.77992E-05-3.68111E-14
 -1      1079 9.92447E-03 6.72398E-05-3.88337E-14
 -1      1080 1.01778E-02 6.75637E-05-4.08872E-14
 -1      1081 1.04237E-02 6.89419E-05-4.29774E-14
 -1      1082 1.06217E-02 7.57350E-05-4.47255E-14
 -1      1083 3.30813E-03 1.59873E-04-4.81229E-15
 -1      1084 5.17998E-03 8.29808E-05-1.11483E-14
 -1      1085 6.61029E-03 8.11516E-05-1.76746E-14
 -1      1086 6.32494E-03 8.16304E-05-1.62584E-14
 -1      1087 5.46671E-03 8.26917E-05-1.23397E-14
 -1      1088 5.75312E-03 8.23800E-05-1.35879E-14
 -1      1089 1.06257E-02 1.05991E-05-4.47294E-14
 -1      1090 1.94595E-03-8.43108E-06-1.84607E-15
 -1      1091 2.92875E-03-4.58687E-05-3.84942E-15
 -1      1092 2.34713E-03-4.41658E-05-2.57717E-15
 -1      1093 2.57929E-03 8.12808E-05-3.06013E-15
 -1      1094 4.60541E-03 8.35100E-05-8.93996E-15
 -1      1095 3.74010E-03 8.39637E-05-6.06096E-15
 -1      1096 2.31915E-03 4.53578E-05-2.52782E-15
 -1      1097 4.89289E-03 8.32542E-05-1.00150E-14
 -1      1098 2.13215E-03 1.77631E-05-2.17426E-15
 -1      1099 2.87004E-03 8.26778E-05-3.71672E-15
 -1      1100 3.65409E-03 3.02059E-05-5.80281E-15
 -1      1101 3.36426E-03 3.00951E-05-4.97992E-15
 -1      1102 3.11713E-03 5.66560E-05-4.32664E-15
 -1      1103 0.00000E+00 0.00000E+00 0.00000E+00
 -1      1104 0.00000E+00 0.00000E+00 0.00000E+00
 -1      1105 0.00000E+00 0.00000E+00 0.00000E+00
 -1      1106 0.00000E+00 0.00000E+00 0.00000E+00
 -1      1107 0.00000E+00 0.00000E+00 0.00000E+00
 -1      1108 0.00000E+00 0.00000E+00 0.00000E+00
 -1      1109 0.00000E+00 0.00000E+00 0.00000E+00
 -1      1110 0.00000E+00 0.00000E+00 0.00000E+00
 -1      1111 0.00000E+00 0.00000E+00 0.00000E+00
 -1      1112 0.00000E+00 0.00000E+00 0.00000E+00
 -1      1113 0.00000E+00 0.00000E+00 0.00000E+00
 -1      1114 0.00000E+00 0.00000E+00 0.00000E+00
 -1      1115 0.00000E+00 0.00000E+00 0.00000E+00
 -1      1116 0.00000E+00 0.00000E+00 0.00000E+00
 -1      1117 0.00000E+00 0.00000E+00 0.00000E+00
 -1      1118 0.00000E+00 0.00000E+00 0.00000E+00
 -1      1119 0.00000E+00 0.00000E+00 0.00000E+00
 -1      1120 2.11678E-04-1.48328E-04 1.29427E-17
 -1      1121 5.51681E-04-3.37491E-04-3.76760E-18
 -1      1122 8.33549E-04-4.58969E-04-8.34971E-17
 -1      1123 1.10319E-03-5.40644E-04-2.37305E-16
 -1      1124 1.36867E-03-5.97898E-04-4.62033E-16
 -1      1125 1.63357E-03-6.38627E-04-7.57207E-16
 -1      1126 1.89974E-03-6.67486E-04-1.12265E-15
 -1      1127 2.16802E-03-6.87600E-04-1.55817E-15
 -1      1128 2.43871E-03-7.01264E-04-2.06226E-15
 -1      1129 2.71181E-03-7.10210E-04-2.63198E-15
 -1      1130 2.98714E-03-7.15757E-04-3.26619E-15
 -1      1131 3.26448E-03-7.18902E-04-3.96265E-15
 -1      1132 3.54352E-03-7.20390E-04-4.72125E-15
 -1      1133 3.82401E-03-7.20765E-04-5.53964E-15
 -1      1134 4.10567E-03-7.20421E-04-6.41432E-15
 -1      1135 4.38827E-03-7.19628E-04-7.34960E-15
 -1      1136 4.67160E-03-7.18565E-04-8.34436E-15
 -1      1137 4.95549E-03-7.17339E-04-9.39725E-15
 -1      1138 5.23980E-03-7.16002E-04-1.05091E-14
 -1      1139 5.52442E-03-7.14564E-04-1.16767E-14
 -1      1140 5.80927E-03-7.13003E-04-1.29041E-14
 -1      1141 6.09430E-03-7.11271E-04-1.41912E-14
 -1      1142 6.37952E-03-7.09302E-04-1.55358E-14
 -1      1143 6.66495E-03-7.07013E-04-1.69423E-14
 -1      1144 6.95066E-03-7.04316E-04-1.84106E-14
 -1      1145 7.23677E-03-7.01119E-04-1.99383E-14
 -1      1146 7.52348E-03-6.97342E-04-2.15311E-14
 -1      1147 7.81105E-03-6.92925E-04-2.31832E-14
 -1      1148 8.09984E-03-6.87856E-04-2.48876E-14
 -1      1149 8.39032E-03-6.82194E-04-2.66306E-14
 -1      1150 8.68309E-03-6.76116E-04-2.84055E-14
 -1      1151 8.97889E-03-6.69975E-04-3.02214E-14
 -1      1152 9.27863E-03-6.64373E-04-3.20756E-14
 -1      1153 9.58333E-03-6.60263E-04-3.39651E-14
 -1      1154 9.89409E-03-6.59077E-04-3.58880E-14
 -1      1155 1.02120E-02-6.62863E-04-3.78571E-14
 -1      1156 1.05379E-02-6.74427E-04-3.98697E-14
 -1      1157 1.08721E-02-6.97412E-04-4.19218E-14
 -1      1158 1.12137E-02-7.36205E-04-4.40011E-14
 -1      1159 1.15600E-02-7.95464E-04-4.61024E-14
 -1      1160 1.19055E-02-8.78957E-04-4.82378E-14
 -1      1161 1.22418E-02-9.87407E-04-5.04095E-14
 -1      1162 1.25574E-02-1.11532E-03-5.26124E-14
 -1      1163 1.28405E-02-1.24774E-03-5.48473E-14
 -1      1164 1.30839E-02-1.35925E-03-5.71096E-14
 -1      1165 1.32904E-02-1.41867E-03-5.93898E-14
 -1      1166 1.34776E-02-1.40103E-03-6.16732E-14
 -1      1167 1.36742E-02-1.30353E-03-6.39404E-14
 -1      1168 1.39071E-02-1.15660E-03-6.61919E-14
 -1      1169 1.41739E-02-1.01583E-03-6.83719E-14
 -1      1170 2.28437E-04 1.60706E-04 1.41488E-17
 -1      1171 5.53853E-04 3.42123E-04-6.22061E-18
 -1      1172 8.34479E-04 4.61136E-04-9.19132E-17
 -1      1173 1.10408E-03 5.42330E-04-2.51494E-16
 -1      1174 1.36957E-03 5.99579E-04-4.85018E-16
 -1      1175 1.63453E-03 6.40397E-04-7.93460E-16
 -1      1176 1.90075E-03 6.69362E-04-1.17633E-15
 -1      1177 2.16907E-03 6.89595E-04-1.62945E-15
 -1      1178 2.43979E-03 7.03386E-04-2.15217E-15
 -1      1179 2.71290E-03 7.12465E-04-2.74501E-15
 -1      1180 2.98825E-03 7.18147E-04-3.41120E-15
 -1      1181 3.26559E-03 7.21429E-04-4.14743E-15
 -1      1182 3.54464E-03 7.23053E-04-4.95055E-15
 -1      1183 3.82513E-03 7.23565E-04-5.82007E-15
 -1      1184 4.10680E-03 7.23358E-04-6.75591E-15
 -1      1185 4.38940E-03 7.22701E-04-7.76066E-15
 -1      1186 4.67273E-03 7.21775E-04-8.82450E-15
 -1      1187 4.95662E-03 7.20685E-04-9.94699E-15
 -1      1188 5.24093E-03 7.19484E-04-1.11344E-14
 -1      1189 5.52554E-03 7.18182E-04-1.23809E-14
 -1      1190 5.81039E-03 7.16757E-04-1.36830E-14
 -1      1191 6.09542E-03 7.15159E-04-1.50377E-14
 -1      1192 6.38063E-03 7.13322E-04-1.64466E-14
 -1      1193 6.66605E-03 7.11163E-04-1.79140E-14
 -1      1194 6.95175E-03 7.08589E-04-1.94380E-14
 -1      1195 7.23785E-03 7.05507E-04-2.10164E-14
 -1      1196 7.52454E-03 7.01829E-04-2.26495E-14
 -1      1197 7.81209E-03 6.97489E-04-2.43306E-14
 -1      1198 8.10087E-03 6.92459E-04-2.60630E-14
 -1      1199 8.39137E-03 6.86782E-04-2.78562E-14
 -1      1200 8.68420E-03 6.80613E-04-2.97129E-14
 -1      1201 8.98016E-03 6.74271E-04-3.16235E-14
 -1      1202 9.28022E-03 6.68329E-04-3.35725E-14
 -1      1203 9.58555E-03 6.63711E-04-3.55504E-14
 -1      1204 9.89744E-03 6.61844E-04-3.75740E-14
 -1      1205 1.02173E-02 6.64830E-04-3.96534E-14
 -1      1206 1.05464E-02 6.75654E-04-4.17744E-14
 -1      1207 1.08855E-02 6.98370E-04-4.39260E-14
 -1      1208 1.12345E-02 7.38157E-04-4.61045E-14
 -1      1209 1.15911E-02 8.01023E-04-4.83083E-14
 -1      1210 1.19502E-02 8.92718E-04-5.05317E-14
 -1      1211 1.23022E-02 1.01631E-03-5.27604E-14
 -1      1212 1.26336E-02 1.16810E-03-5.49814E-14
 -1      1213 1.29284E-02 1.33253E-03-5.71973E-14
 -1      1214 1.31744E-02 1.47920E-03-5.93939E-14
 -1      1215 1.33712E-02 1.56692E-03-6.15790E-14
 -1      1216 1.35380E-02 1.55873E-03-6.37493E-14
 -1      1217 1.37108E-02 1.44459E-03-6.59076E-14
 -1      1218 1.39266E-02 1.25841E-03-6.80619E-14
 -1      1219 1.41878E-02 1.07396E-03-7.01732E-14
 -1      1220 1.44019E-02 9.51139E-04-7.11729E-14
 -1      1221 1.45259E-02 8.40026E-04-7.10863E-14
 -1      1222 1.46419E-02 6.57350E-04-7.09881E-14
 -1      1223 1.48460E-02 3.70810E-04-7.08919E-14
 -1      1224 1.52469E-02 1.93122E-06-7.08187E-14
 -1      1225 1.59099E-02-3.69882E-04-7.07890E-14
 -1      1226 1.68435E-02-6.51303E-04-7.07559E-14
 -1      1227 1.79970E-02-7.01666E-04-7.07325E-14
 -1      1228 1.89802E-02-3.69119E-04-7.07592E-14
 -1      1229 1.92331E-02 1.97349E-04-7.07678E-14
 -1      1230 1.86695E-02 7.08383E-04-7.06773E-14
 -1      1231 1.75895E-02 8.94882E-04-7.05093E-14
 -1      1232 1.64899E-02 7.47034E-04-7.03642E-14
 -1      1233 1.55361E-02 3.66781E-04-7.02518E-14
 -1      1234 1.49474E-02-6.67229E-05-7.01120E-14
 -1      1235 1.46697E-02-4.09393E-04-6.99726E-14
 -1      1236 1.45415E-02-6.51220E-04-6.98173E-14
 -1      1237 1.44613E-02-8.08378E-04-6.96636E-14
 -1      1238 1.43681E-02-9.12233E-04-6.94971E-14
 -1      1239 1.90765E-02 2.71729E-04-6.78714E-14
 -1      1240 1.85316E-02 6.35040E-04-6.77337E-14
 -1      1241 1.76997E-02 9.35215E-04-6.73548E-14
 -1      1242 1.68203E-02 1.16652E-03-6.67660E-14
 -1      1243 1.59939E-02 1.33200E-03-6.59946E-14
 -1      1244 1.52574E-02 1.43087E-03-6.50715E-14
 -1      1245 1.46090E-02 1.45880E-03-6.40516E-14
 -1      1246 1.40057E-02 1.41642E-03-6.29352E-14
 -1      1247 1.34565E-02 1.31072E-03-6.18262E-14
 -1      1248 1.29392E-02 1.14823E-03-6.07341E-14
 -1      1249 1.24682E-02 9.48899E-04-5.97164E-14
 -1      1250 1.20711E-02 7.34809E-04-5.88433E-14
 -1      1251 1.17625E-02 5.22945E-04-5.81491E-14
 -1      1252 1.15571E-02 3.21237E-04-5.76638E-14
 -1      1253 1.14597E-02 1.25197E-04-5.73950E-14
 -1      1254 1.14821E-02-7.04853E-05-5.73646E-14
 -1      1255 1.16214E-02-2.69040E-04-5.75697E-14
 -1      1256 1.18631E-02-4.68119E-04-5.79858E-14
 -1      1257 1.22092E-02-6.77552E-04-5.86308E-14
 -1      1258 1.26361E-02-8.82552E-04-5.94804E-14
 -1      1259 1.31008E-02-1.05614E-03-6.04329E-14
 -1      1260 1.36127E-02-1.19104E-03-6.15009E-14
 -1      1261 1.41604E-02-1.27518E-03-6.26152E-14
 -1      1262 1.47381E-02-1.29670E-03-6.37025E-14
 -1      1263 1.53794E-02-1.25683E-03-6.47581E-14
 -1      1264 1.60853E-02-1.15564E-03-6.56942E-14
 -1      1265 1.68814E-02-9.92208E-04-6.64894E-14
 -1      1266 1.77741E-02-7.52452E-04-6.71397E-14
 -1      1267 1.85924E-02-4.49035E-04-6.75639E-14
 -1      1268 1.90865E-02-1.05121E-04-6.77854E-14
 -1      1269 1.66714E-04-1.10334E-04 1.89735E-18
 -1      1270 1.12551E-04-5.69624E-05-1.24277E-17
 -1      1271 1.17634E-04-6.75723E-05-8.52454E-18
 -1      1272 1.08431E-04-4.34778E-05-1.89058E-17
 -1      1273 1.10294E-04-4.95931E-05-1.68051E-17
 -1      1274 2.26350E-04-1.07600E-04-3.94243E-17
 -1      1275 1.06843E-04-3.35928E-05-2.28631E-17
 -1      1276 1.07694E-04-3.83168E-05-2.17247E-17
 -1      1277 2.19122E-04-8.24301E-05-5.14183E-17
 -1      1278 1.06058E-04-2.53400E-05-2.54110E-17
 -1      1279 1.06491E-04-2.93702E-05-2.47334E-17
 -1      1280 2.15864E-04-6.32467E-05-5.91432E-17
 -1      1281 1.05655E-04-1.80806E-05-2.67120E-17
 -1      1282 1.05887E-04-2.16476E-05-2.63597E-17
 -1      1283 2.14201E-04-4.71667E-05-6.38189E-17
 -1      1284 1.05431E-04-1.12316E-05-2.75794E-17
 -1      1285 1.05556E-04-1.46153E-05-2.75252E-17
 -1      1286 2.13282E-04-3.27342E-05-6.66920E-17
 -1      1287 1.05330E-04-4.68561E-06-2.78233E-17
 -1      1288 1.05383E-04-7.93694E-06-2.77962E-17
 -1      1289 2.12780E-04-1.91777E-05-6.81557E-17
 -1      1290 1.05318E-04 1.74197E-06-2.80944E-17
 -1      1291 1.05316E-04-1.46933E-06-2.80944E-17
 -1      1292 2.12562E-04-6.15601E-06-6.88333E-17
 -1      1293 1.05392E-04 8.21927E-06-2.78369E-17
 -1      1294 1.05334E-04 4.96148E-06-2.79453E-17
 -1      1295 2.12570E-04 6.70436E-06-6.90095E-17
 -1      1296 1.05571E-04 1.49226E-05-2.74439E-17
 -1      1297 1.05443E-04 1.15244E-05-2.75387E-17
 -1      1298 2.12805E-04 1.97520E-05-6.83047E-17
 -1      1299 1.05908E-04 2.19386E-05-2.64545E-17
 -1      1300 1.05671E-04 1.83486E-05-2.67527E-17
 -1      1301 2.13321E-04 3.32475E-05-6.68411E-17
 -1      1302 1.06536E-04 2.98037E-05-2.47876E-17
 -1      1303 1.06094E-04 2.57274E-05-2.53703E-17
 -1      1304 2.14269E-04 4.77704E-05-6.42390E-17
 -1      1305 1.07730E-04 3.89025E-05-2.22261E-17
 -1      1306 1.06877E-04 3.41087E-05-2.32155E-17
 -1      1307 2.15982E-04 6.41809E-05-5.98344E-17
 -1      1308 1.10273E-04 5.03314E-05-1.75776E-17
 -1      1309 1.08434E-04 4.41465E-05-1.96512E-17
 -1      1310 2.19217E-04 8.36796E-05-5.28684E-17
 -1      1311 1.16949E-04 6.76085E-05-9.67650E-18
 -1      1312 1.12198E-04 5.77618E-05-1.34848E-17
 -1      1313 2.26338E-04 1.09419E-04-4.14030E-17
 -1      1314 1.57592E-04 1.09853E-04 2.80537E-18
 -1      1315 1.35675E-04 8.60815E-05-5.23128E-18
 -1      1316 2.56066E-04 1.52072E-04-2.76743E-17
 -1      1317 3.35114E-04 2.20721E-04-7.18284E-18
 -1      1318 4.21579E-04-2.61715E-04-1.58294E-17
 -1      1319 5.74696E-04-3.36764E-04-4.18638E-17
 -1      1320 7.21906E-04-3.97357E-04-8.69259E-17
 -1      1321 8.65098E-04-4.46646E-04-1.49688E-16
 -1      1322 6.12141E-04-3.30848E-04-8.63025E-17
 -1      1323 1.00515E-03-4.87715E-04-2.29471E-16
 -1      1324 1.14302E-03-5.21702E-04-3.26914E-16
 -1      1325 9.05418E-04-4.31532E-04-2.18575E-16
 -1      1326 1.27955E-03-5.50476E-04-4.41880E-16
 -1      1327 1.41523E-03-5.74517E-04-5.74763E-16
 -1      1328 1.18790E-03-5.00949E-04-4.19586E-16
 -1      1329 1.55051E-03-5.94890E-04-7.24776E-16
 -1      1330 1.68565E-03-6.11930E-04-8.92298E-16
 -1      1331 1.46489E-03-5.49728E-04-6.90000E-16
 -1      1332 1.82088E-03-6.26264E-04-1.07697E-15
 -1      1333 1.95631E-03-6.38188E-04-1.27903E-15
 -1      1334 1.73965E-03-5.84056E-04-1.02921E-15
 -1      1335 2.09208E-03-6.48103E-04-1.49829E-15
 -1      1336 2.22822E-03-6.56260E-04-1.73491E-15
 -1      1337 2.01404E-03-6.07917E-04-1.43734E-15
 -1      1338 2.36478E-03-6.62935E-04-1.98830E-15
 -1      1339 2.50179E-03-6.68335E-04-2.25803E-15
 -1      1340 2.28905E-03-6.24131E-04-1.91325E-15
 -1      1341 2.63924E-03-6.72656E-04-2.54424E-15
 -1      1342 2.77714E-03-6.76063E-04-2.84617E-15
 -1      1343 2.56516E-03-6.34780E-04-2.45497E-15
 -1      1344 2.91547E-03-6.78697E-04-3.16354E-15
 -1      1345 3.05421E-03-6.80689E-04-3.49746E-15
 -1      1346 2.84255E-03-6.41425E-04-3.06068E-15
 -1      1347 3.19336E-03-6.82139E-04-3.84638E-15
 -1      1348 3.33287E-03-6.83149E-04-4.21112E-15
 -1      1349 3.12123E-03-6.45243E-04-3.72947E-15
 -1      1350 3.47273E-03-6.83788E-04-4.59138E-15
 -1      1351 3.61292E-03-6.84135E-04-4.98630E-15
 -1      1352 3.40114E-03-6.47109E-04-4.46018E-15
 -1      1353 3.75339E-03-6.84237E-04-5.39571E-15
 -1      1354 3.89414E-03-6.84151E-04-5.81973E-15
 -1      1355 3.68215E-03-6.47667E-04-5.25208E-15
 -1      1356 4.03513E-03-6.83909E-04-6.25858E-15
 -1      1357 4.17633E-03-6.83553E-04-6.71174E-15
 -1      1358 3.96410E-03-6.47380E-04-6.10179E-15
 -1      1359 4.31774E-03-6.83102E-04-7.18014E-15
 -1      1360 4.45932E-03-6.82584E-04-7.66367E-15
 -1      1361 4.24684E-03-6.46571E-04-7.01021E-15
 -1      1362 4.60105E-03-6.82010E-04-8.16126E-15
 -1      1363 4.74293E-03-6.81399E-04-8.67362E-15
 -1      1364 4.53023E-03-6.45458E-04-7.97776E-15
 -1      1365 4.88492E-03-6.80754E-04-9.20053E-15
 -1      1366 5.02702E-03-6.80087E-04-9.74248E-15
 -1      1367 4.81414E-03-6.44174E-04-9.00382E-15
 -1      1368 5.16921E-03-6.79394E-04-1.02986E-14
 -1      1369 5.31148E-03-6.78683E-04-1.08692E-14
 -1      1370 5.09845E-03-6.42789E-04-1.00881E-14
 -1      1371 5.45382E-03-6.77946E-04-1.14540E-14
 -1      1372 5.59623E-03-6.77186E-04-1.20528E-14
 -1      1373 5.38309E-03-6.41327E-04-1.12306E-14
 -1      1374 5.73869E-03-6.76392E-04-1.26666E-14
 -1      1375 5.88120E-03-6.75562E-04-1.32967E-14
 -1      1376 5.66799E-03-6.39773E-04-1.24299E-14
 -1      1377 6.02377E-03-6.74684E-04-1.39400E-14
 -1      1378 6.16638E-03-6.73753E-04-1.45972E-14
 -1      1379 5.95311E-03-6.38084E-04-1.36882E-14
 -1      1380 6.30905E-03-6.72756E-04-1.52721E-14
 -1      1381 6.45177E-03-6.71686E-04-1.59613E-14
 -1      1382 6.23844E-03-6.36194E-04-1.50076E-14
 -1      1383 6.59455E-03-6.70525E-04-1.66645E-14
 -1      1384 6.73741E-03-6.69269E-04-1.73834E-14
 -1      1385 6.52399E-03-6.34019E-04-1.63867E-14
 -1      1386 6.88034E-03-6.67898E-04-1.81179E-14
 -1      1387 7.02338E-03-6.66408E-04-1.88683E-14
 -1      1388 6.80982E-03-6.31462E-04-1.78265E-14
 -1      1389 7.16653E-03-6.64777E-04-1.96338E-14
 -1      1390 7.30981E-03-6.63004E-04-2.04126E-14
 -1      1391 7.09601E-03-6.28422E-04-1.93265E-14
 -1      1392 7.45327E-03-6.61068E-04-2.12082E-14
 -1      1393 7.59691E-03-6.58971E-04-2.20197E-14
 -1      1394 7.38270E-03-6.24795E-04-2.08864E-14
 -1      1395 7.74079E-03-6.56695E-04-2.28444E-14
 -1      1396 7.88494E-03-6.54251E-04-2.36840E-14
 -1      1397 7.67009E-03-6.20491E-04-2.25076E-14
 -1      1398 8.02941E-03-6.51621E-04-2.45335E-14
 -1      1399 8.17425E-03-6.48830E-04-2.53957E-14
 -1      1400 7.95842E-03-6.15451E-04-2.41817E-14
 -1      1401 8.31952E-03-6.45869E-04-2.62661E-14
 -1      1402 8.46529E-03-6.42779E-04-2.71443E-14
 -1      1403 8.24804E-03-6.09668E-04-2.59014E-14
 -1      1404 8.61163E-03-6.39566E-04-2.80349E-14
 -1      1405 8.75863E-03-6.36297E-04-2.89340E-14
 -1      1406 8.53936E-03-6.03227E-04-2.76617E-14
 -1      1407 8.90636E-03-6.32998E-04-2.98429E-14
 -1      1408 9.05494E-03-6.29771E-04-3.07613E-14
 -1      1409 8.83289E-03-5.96353E-04-2.94631E-14
 -1      1410 9.20445E-03-6.26678E-04-3.16889E-14
 -1      1411 9.35502E-03-6.23866E-04-3.26255E-14
 -1      1412 9.12923E-03-5.89481E-04-3.13010E-14
 -1      1413 9.50675E-03-6.21448E-04-3.35703E-14
 -1      1414 9.65975E-03-6.19629E-04-3.45243E-14
 -1      1415 9.42907E-03-5.83345E-04-3.31751E-14
 -1      1416 9.81414E-03-6.18599E-04-3.54881E-14
 -1      1417 9.97002E-03-6.18631E-04-3.64630E-14
 -1      1418 9.73314E-03-5.79105E-04-3.50863E-14
 -1      1419 1.01275E-02-6.20019E-04-3.74477E-14
 -1      1420 1.02866E-02-6.23113E-04-3.84418E-14
 -1      1421 1.00422E-02-5.78488E-04-3.70370E-14
 -1      1422 1.04475E-02-6.28345E-04-3.94489E-14
 -1      1423 1.06101E-02-6.36140E-04-4.04667E-14
 -1      1424 1.03567E-02-5.83950E-04-3.90292E-14
 -1      1425 1.07744E-02-6.47088E-04-4.14910E-14
 -1      1426 1.09402E-02-6.61666E-04-4.25258E-14
 -1      1427 1.06771E-02-5.98829E-04-4.10622E-14
 -1      1428 1.11075E-02-6.80613E-04-4.35648E-14
 -1      1429 1.12758E-02-7.04394E-04-4.46081E-14
 -1      1430 1.10029E-02-6.27387E-04-4.31275E-14
 -1      1431 1.14448E-02-7.33814E-04-4.56615E-14
 -1      1432 1.16139E-02-7.69188E-04-4.67205E-14
 -1      1433 1.13331E-02-6.74605E-04-4.52204E-14
 -1      1434 1.17825E-02-8.11168E-04-4.77868E-14
 -1      1435 1.19497E-02-8.59685E-04-4.88647E-14
 -1      1436 1.16650E-02-7.45443E-04-4.73383E-14
 -1      1437 1.21144E-02-9.14827E-04-4.99503E-14
 -1      1438 1.22757E-02-9.75798E-04-5.10406E-14
 -1      1439 1.19944E-02-8.43198E-04-4.94889E-14
 -1      1440 1.24323E-02-1.04155E-03-5.21380E-14
 -1      1441 1.25832E-02-1.11020E-03-5.32456E-14
 -1      1442 1.23156E-02-9.66661E-04-5.16687E-14
 -1      1443 1.27274E-02-1.17907E-03-5.43607E-14
 -1      1444 1.28642E-02-1.24503E-03-5.54822E-14
 -1      1445 1.26214E-02-1.10633E-03-5.38756E-14
 -1      1446 1.29932E-02-1.30386E-03-5.66098E-14
 -1      1447 1.31148E-02-1.35167E-03-5.77435E-14
 -1      1448 1.29055E-02-1.24126E-03-5.61133E-14
 -1      1449 1.32297E-02-1.38383E-03-5.88813E-14
 -1      1450 1.33398E-02-1.39719E-03-6.00184E-14
 -1      1451 1.31652E-02-1.33989E-03-5.83744E-14
 -1      1452 1.34468E-02-1.38903E-03-6.11588E-14
 -1      1453 1.35537E-02-1.35879E-03-6.22986E-14
 -1      1454 1.34047E-02-1.36864E-03-6.06489E-14
 -1      1455 1.36628E-02-1.30814E-03-6.34336E-14
 -1      1456 1.37770E-02-1.24060E-03-6.45607E-14
 -1      1457 1.36360E-02-1.30834E-03-6.29219E-14
 -1      1458 1.38977E-02-1.16282E-03-6.56885E-14
 -1      1459 1.40263E-02-1.08233E-03-6.68118E-14
 -1      1460 1.38755E-02-1.17105E-03-6.51839E-14
 -1      1461 1.42334E-02-9.70739E-04-6.84436E-14
 -1      1462 1.42060E-02-9.64835E-04-6.79483E-14
 -1      1463 6.43146E-04 3.71975E-04-5.98480E-17
 -1      1464 4.92999E-04 3.03662E-04-2.41506E-17
 -1      1465 4.44929E-04 2.65863E-04-3.94243E-17
 -1      1466 9.28780E-04 4.71924E-04-1.85439E-16
 -1      1467 7.87892E-04 4.26440E-04-1.13557E-16
 -1      1468 7.44831E-04 3.90664E-04-1.31554E-16
 -1      1469 1.20373E-03 5.41341E-04-3.83740E-16
 -1      1470 1.06703E-03 5.09662E-04-2.75360E-16
 -1      1471 1.03093E-03 4.76094E-04-2.95743E-16
 -1      1472 1.47435E-03 5.90547E-04-6.55007E-16
 -1      1473 1.33926E-03 5.68082E-04-5.10198E-16
 -1      1474 1.30890E-03 5.35919E-04-5.31706E-16
 -1      1475 1.74396E-03 6.25466E-04-1.00011E-15
 -1      1476 1.60911E-03 6.09551E-04-8.18153E-16
 -1      1477 1.58319E-03 5.78220E-04-8.39931E-16
 -1      1478 2.01426E-03 6.49972E-04-1.41715E-15
 -1      1479 1.87894E-03 6.38848E-04-1.19974E-15
 -1      1480 1.85643E-03 6.07978E-04-1.22008E-15
 -1      1481 2.28605E-03 6.66817E-04-1.90405E-15
 -1      1482 2.14993E-03 6.59220E-04-1.65211E-15
 -1      1483 2.13003E-03 6.28583E-04-1.67131E-15
 -1      1484 2.55965E-03 6.78052E-04-2.46022E-15
 -1      1485 2.42261E-03 6.73034E-04-2.17320E-15
 -1      1486 2.40470E-03 6.42488E-04-2.19159E-15
 -1      1487 2.83512E-03 6.85225E-04-3.08725E-15
 -1      1488 2.69715E-03 6.82068E-04-2.76514E-15
 -1      1489 2.68073E-03 6.51529E-04-2.78122E-15
 -1      1490 3.11235E-03 6.89510E-04-3.78555E-15
 -1      1491 2.97352E-03 6.87670E-04-3.42798E-15
 -1      1492 2.95820E-03 6.57089E-04-3.44142E-15
 -1      1493 3.39118E-03 6.91785E-04-4.55086E-15
 -1      1494 3.25158E-03 6.90855E-04-4.15958E-15
 -1      1495 3.23705E-03 6.60208E-04-4.16987E-15
 -1      1496 3.67138E-03 6.92699E-04-5.38324E-15
 -1      1497 3.53112E-03 6.92380E-04-4.95863E-15
 -1      1498 3.51717E-03 6.61656E-04-4.96422E-15
 -1      1499 3.95276E-03 6.92722E-04-6.28217E-15
 -1      1500 3.81194E-03 6.92799E-04-5.82463E-15
 -1      1501 3.79840E-03 6.61997E-04-5.82614E-15
 -1      1502 4.23508E-03 6.92185E-04-7.24633E-15
 -1      1503 4.09381E-03 6.92508E-04-6.75565E-15
 -1      1504 4.08055E-03 6.61634E-04-6.75303E-15
 -1      1505 4.51817E-03 6.91311E-04-8.27634E-15
 -1      1506 4.37654E-03 6.91780E-04-7.75366E-15
 -1      1507 4.36347E-03 6.60843E-04-7.74535E-15
 -1      1508 4.80187E-03 6.90242E-04-9.36486E-15
 -1      1509 4.65996E-03 6.90795E-04-8.81341E-15
 -1      1510 4.64702E-03 6.59805E-04-8.79936E-15
 -1      1511 5.08603E-03 6.89053E-04-1.05147E-14
 -1      1512 4.94390E-03 6.89660E-04-9.93159E-15
 -1      1513 4.93105E-03 6.58627E-04-9.91384E-15
 -1      1514 5.37054E-03 6.87773E-04-1.17268E-14
 -1      1515 5.22825E-03 6.88424E-04-1.11133E-14
 -1      1516 5.21547E-03 6.57359E-04-1.10901E-14
 -1      1517 5.65532E-03 6.86394E-04-1.29960E-14
 -1      1518 5.51290E-03 6.87098E-04-1.23542E-14
 -1      1519 5.50019E-03 6.56008E-04-1.23257E-14
 -1      1520 5.94033E-03 6.84876E-04-1.43201E-14
 -1      1521 5.79780E-03 6.85655E-04-1.36511E-14
 -1      1522 5.78515E-03 6.54549E-04-1.36180E-14
 -1      1523 6.22553E-03 6.83159E-04-1.56990E-14
 -1      1524 6.08290E-03 6.84047E-04-1.50029E-14
 -1      1525 6.07032E-03 6.52928E-04-1.49651E-14
 -1      1526 6.51094E-03 6.81164E-04-1.71306E-14
 -1      1527 6.36820E-03 6.82201E-04-1.64079E-14
 -1      1528 6.35570E-03 6.51073E-04-1.63670E-14
 -1      1529 6.79660E-03 6.78798E-04-1.86233E-14
 -1      1530 6.65373E-03 6.80031E-04-1.78698E-14
 -1      1531 6.64132E-03 6.48894E-04-1.78237E-14
 -1      1532 7.08262E-03 6.75962E-04-2.01697E-14
 -1      1533 6.93956E-03 6.77442E-04-1.93894E-14
 -1      1534 6.92724E-03 6.46290E-04-1.93376E-14
 -1      1535 7.36914E-03 6.72557E-04-2.17693E-14
 -1      1536 7.22581E-03 6.74332E-04-2.09626E-14
 -1      1537 7.21358E-03 6.43156E-04-2.09064E-14
 -1      1538 7.65638E-03 6.68494E-04-2.34225E-14
 -1      1539 7.51266E-03 6.70607E-04-2.25899E-14
 -1      1540 7.50051E-03 6.39388E-04-2.25293E-14
 -1      1541 7.94461E-03 6.63713E-04-2.51263E-14
 -1      1542 7.80035E-03 6.66188E-04-2.42678E-14
 -1      1543 7.78824E-03 6.34900E-04-2.42036E-14
 -1      1544 8.23425E-03 6.58203E-04-2.68861E-14
 -1      1545 8.08923E-03 6.61037E-04-2.59986E-14
 -1      1546 8.07710E-03 6.29642E-04-2.59312E-14
 -1      1547 8.52577E-03 6.52035E-04-2.87036E-14
 -1      1548 8.37974E-03 6.55178E-04-2.77871E-14
 -1      1549 8.36746E-03 6.23622E-04-2.77153E-14
 -1      1550 8.81983E-03 6.45416E-04-3.05807E-14
 -1      1551 8.67245E-03 6.48744E-04-2.96354E-14
 -1      1552 8.65984E-03 6.16955E-04-2.95570E-14
 -1      1553 9.11720E-03 6.38751E-04-3.25062E-14
 -1      1554 8.96805E-03 6.42031E-04-3.15382E-14
 -1      1555 8.95486E-03 6.09911E-04-3.14518E-14
 -1      1556 9.41881E-03 6.32737E-04-3.44660E-14
 -1      1557 9.26741E-03 6.35576E-04-3.34818E-14
 -1      1558 9.25325E-03 6.03000E-04-3.33906E-14
 -1      1559 9.72571E-03 6.28492E-04-3.64644E-14
 -1      1560 9.57153E-03 6.30270E-04-3.54590E-14
 -1      1561 9.55586E-03 5.97080E-04-3.53659E-14
 -1      1562 1.00391E-02 6.27716E-04-3.85126E-14
 -1      1563 9.88150E-03 6.27502E-04-3.74823E-14
 -1      1564 9.86363E-03 5.93501E-04-3.73865E-14
 -1      1565 1.03599E-02 6.32893E-04-4.06043E-14
 -1      1566 1.01985E-02 6.29338E-04-3.95538E-14
 -1      1567 1.01775E-02 5.94295E-04-3.94528E-14
 -1      1568 1.06892E-02 6.47508E-04-4.27360E-14
 -1      1569 1.05235E-02 6.38744E-04-4.16661E-14
 -1      1570 1.04983E-02 6.02398E-04-4.15580E-14
 -1      1571 1.10269E-02 6.76219E-04-4.48940E-14
 -1      1572 1.08570E-02 6.59783E-04-4.38116E-14
 -1      1573 1.08264E-02 6.21873E-04-4.36962E-14
 -1      1574 1.13721E-02 7.24821E-04-4.70801E-14
 -1      1575 1.11987E-02 6.97716E-04-4.59839E-14
 -1      1576 1.11615E-02 6.58028E-04-4.58623E-14
 -1      1577 1.17217E-02 7.99688E-04-4.92876E-14
 -1      1578 1.15466E-02 7.58750E-04-4.81816E-14
 -1      1579 1.15021E-02 7.17222E-04-4.80539E-14
 -1      1580 1.20696E-02 9.06176E-04-5.15119E-14
 -1      1581 1.18963E-02 8.49025E-04-5.03988E-14
 -1      1582 1.18448E-02 8.05915E-04-5.02666E-14
 -1      1583 1.24068E-02 1.04540E-03-5.37324E-14
 -1      1584 1.22403E-02 9.72259E-04-5.26218E-14
 -1      1585 1.21838E-02 9.28392E-04-5.24846E-14
 -1      1586 1.27215E-02 1.20930E-03-5.59488E-14
 -1      1587 1.25678E-02 1.12560E-03-5.48418E-14
 -1      1588 1.25108E-02 1.08263E-03-5.47028E-14
 -1      1589 1.30025E-02 1.37554E-03-5.81575E-14
 -1      1590 1.28669E-02 1.29430E-03-5.70554E-14
 -1      1591 1.28164E-02 1.25471E-03-5.69145E-14
 -1      1592 1.32441E-02 1.50655E-03-6.03461E-14
 -1      1593 1.31282E-02 1.44802E-03-5.92544E-14
 -1      1594 1.30924E-02 1.41465E-03-5.91132E-14
 -1      1595 1.34525E-02 1.55831E-03-6.25302E-14
 -1      1596 1.33515E-02 1.54424E-03-6.14396E-14
 -1      1597 1.33371E-02 1.51894E-03-6.13012E-14
 -1      1598 1.36477E-02 1.50083E-03-6.46945E-14
 -1      1599 1.35498E-02 1.54310E-03-6.36128E-14
 -1      1600 1.35589E-02 1.52510E-03-6.34775E-14
 -1      1601 1.38576E-02 1.34219E-03-6.68563E-14
 -1      1602 1.37490E-02 1.43127E-03-6.57750E-14
 -1      1603 1.37768E-02 1.41645E-03-6.56441E-14
 -1      1604 1.41029E-02 1.13799E-03-6.90180E-14
 -1      1605 1.39751E-02 1.24082E-03-6.79368E-14
 -1      1606 1.40122E-02 1.22290E-03-6.78080E-14
 -1      1607 1.42675E-02 1.02759E-03-7.01370E-14
 -1      1608 1.44226E-02 8.73613E-04-7.01224E-14
 -1      1609 1.43729E-02 9.39857E-04-7.01673E-14
 -1      1610 1.45399E-02 7.00742E-04-7.00272E-14
 -1      1611 1.44749E-02 7.94466E-04-7.00749E-14
 -1      1612 1.43189E-02 9.36504E-04-6.91605E-14
 -1      1613 1.47732E-02 4.68269E-04-6.99375E-14
 -1      1614 1.46335E-02 5.92265E-04-6.99820E-14
 -1      1615 1.44473E-02 7.96901E-04-6.90687E-14
 -1      1616 1.51943E-02 2.30820E-04-6.98748E-14
 -1      1617 1.49476E-02 3.53513E-04-6.99025E-14
 -1      1618 1.46957E-02 6.48642E-04-6.89872E-14
 -1      1619 1.58878E-02 1.07247E-05-6.98310E-14
 -1      1620 1.54929E-02 1.18962E-04-6.98505E-14
 -1      1621 1.51354E-02 5.08602E-04-6.89227E-14
 -1      1622 1.82286E-02-2.64195E-04-6.99631E-14
 -1      1623 1.75942E-02-2.86390E-04-6.99786E-14
 -1      1624 1.91818E-02 2.26688E-04-7.00803E-14
 -1      1625 1.92644E-02 6.53795E-05-7.00994E-14
 -1      1626 1.83377E-02 4.86976E-04-6.99775E-14
 -1      1627 1.88465E-02 3.80742E-04-7.00410E-14
 -1      1628 1.89837E-02 1.76468E-04-6.93915E-14
 -1      1629 1.72051E-02 5.14828E-04-6.98507E-14
 -1      1630 1.77750E-02 5.25787E-04-6.99151E-14
 -1      1631 1.79702E-02 2.39633E-04-6.93062E-14
 -1      1632 1.60818E-02 3.51637E-04-6.97217E-14
 -1      1633 1.66021E-02 4.54547E-04-6.97790E-14
 -1      1634 1.67433E-02 1.83938E-04-6.91919E-14
 -1      1635 1.51762E-02 2.30149E-05-6.95948E-14
 -1      1636 1.55607E-02 1.94650E-04-6.96589E-14
 -1      1637 1.56097E-02 8.82030E-07-6.90635E-14
 -1      1638 1.47305E-02-2.94004E-04-6.94476E-14
 -1      1639 1.49112E-02-1.41030E-04-6.95212E-14
 -1      1640 1.48893E-02-2.49913E-04-6.89277E-14
 -1      1641 1.45254E-02-5.55395E-04-6.93031E-14
 -1      1642 1.46063E-02-4.34247E-04-6.93749E-14
 -1      1643 1.45487E-02-4.86148E-04-6.87819E-14
 -1      1644 1.44296E-02-7.45940E-04-6.91527E-14
 -1      1645 1.44697E-02-6.59278E-04-6.92264E-14
 -1      1646 1.43994E-02-6.83523E-04-6.86332E-14
 -1      1647 1.42996E-02-8.93633E-04-6.85100E-14
 -1      1648 1.43358E-02-8.32629E-04-6.85878E-14
 -1      1649 1.42653E-02-8.56366E-04-6.79959E-14
 -1      1650 1.40907E-02-1.01630E-03-6.68716E-14
 -1      1651 1.90109E-02 2.11714E-04-6.83500E-14
 -1      1652 1.91810E-02 1.21609E-04-6.83670E-14
 -1      1653 1.82596E-02 4.66386E-04-6.80779E-14
 -1      1654 1.86543E-02 3.42107E-04-6.82191E-14
 -1      1655 1.72955E-02 7.55144E-04-6.76244E-14
 -1      1656 1.77412E-02 6.12087E-04-6.78758E-14
 -1      1657 1.64077E-02 1.06779E-03-6.69135E-14
 -1      1658 1.68084E-02 9.34740E-04-6.72522E-14
 -1      1659 1.56065E-02 1.30413E-03-6.60629E-14
 -1      1660 1.59491E-02 1.19585E-03-6.64986E-14
 -1      1661 1.49734E-02 1.46415E-03-6.50166E-14
 -1      1662 1.52532E-02 1.40585E-03-6.55023E-14
 -1      1663 1.44265E-02 1.50996E-03-6.38796E-14
 -1      1664 1.46734E-02 1.50209E-03-6.44079E-14
 -1      1665 1.39068E-02 1.44917E-03-6.26527E-14
 -1      1666 1.41443E-02 1.49086E-03-6.32300E-14
 -1      1667 1.34388E-02 1.30226E-03-6.14840E-14
 -1      1668 1.36480E-02 1.38016E-03-6.20046E-14
 -1      1669 1.29664E-02 1.06854E-03-6.02517E-14
 -1      1670 1.31931E-02 1.18679E-03-6.08087E-14
 -1      1671 1.24834E-02 8.27483E-04-5.92534E-14
 -1      1672 1.26853E-02 9.40436E-04-5.97053E-14
 -1      1673 1.20718E-02 5.75232E-04-5.83011E-14
 -1      1674 1.22624E-02 6.86046E-04-5.87048E-14
 -1      1675 1.17379E-02 3.85842E-04-5.76627E-14
 -1      1676 1.18730E-02 4.71044E-04-5.79428E-14
 -1      1677 1.15175E-02 2.11862E-04-5.71366E-14
 -1      1678 1.16070E-02 2.83901E-04-5.73293E-14
 -1      1679 1.14321E-02 7.62582E-05-5.69639E-14
 -1      1680 1.14534E-02 1.38362E-04-5.70372E-14
 -1      1681 1.14942E-02-6.34211E-05-5.69339E-14
 -1      1682 1.14453E-02 2.47965E-06-5.68897E-14
 -1      1683 1.16916E-02-2.28187E-04-5.72578E-14
 -1      1684 1.15863E-02-1.53032E-04-5.71068E-14
 -1      1685 1.20035E-02-4.13284E-04-5.77311E-14
 -1      1686 1.18474E-02-3.21028E-04-5.74714E-14
 -1      1687 1.24286E-02-6.33647E-04-5.84208E-14
 -1      1688 1.22290E-02-5.20214E-04-5.80395E-14
 -1      1689 1.28659E-02-8.90892E-04-5.94402E-14
 -1      1690 1.26560E-02-7.79237E-04-5.89857E-14
 -1      1691 1.33096E-02-1.10342E-03-6.05019E-14
 -1      1692 1.31042E-02-1.01166E-03-6.00144E-14
 -1      1693 1.37912E-02-1.26963E-03-6.16847E-14
 -1      1694 1.35702E-02-1.20054E-03-6.11126E-14
 -1      1695 1.42632E-02-1.34307E-03-6.28740E-14
 -1      1696 1.40473E-02-1.31839E-03-6.23442E-14
 -1      1697 1.47530E-02-1.33126E-03-6.40799E-14
 -1      1698 1.45182E-02-1.35302E-03-6.35335E-14
 -1      1699 1.52879E-02-1.22654E-03-6.50810E-14
 -1      1700 1.50133E-02-1.29004E-03-6.45797E-14
 -1      1701 1.47419E-02-1.30964E-03-6.44162E-14
 -1      1702 1.60479E-02-1.01937E-03-6.61439E-14
 -1      1703 1.57217E-02-1.11915E-03-6.57146E-14
 -1      1704 1.68703E-02-7.49777E-04-6.69750E-14
 -1      1705 1.64685E-02-8.82476E-04-6.66095E-14
 -1      1706 1.78219E-02-4.05117E-04-6.77064E-14
 -1      1707 1.73580E-02-5.52501E-04-6.74165E-14
 -1      1708 1.87122E-02-1.63163E-04-6.80769E-14
 -1      1709 1.83439E-02-2.78182E-04-6.79178E-14
 -1      1710 1.91813E-02 2.95502E-05-6.82461E-14
 -1      1711 1.90381E-02-6.35033E-05-6.81657E-14
 -1      1712 1.88778E-02 9.05650E-06-6.85482E-14
 -1      1713 1.92185E-02 7.99122E-05-6.87590E-14
 -1      1714 1.43033E-02 1.00064E-03-7.00106E-14
 -1      1715 1.42091E-02 1.05914E-03-6.90507E-14
 -1      1716 1.72032E-02 7.19858E-05-6.92259E-14
 -1      1717 1.70074E-02-2.57970E-04-6.99932E-14
 -1      1718 1.64767E-02-1.93073E-04-7.00136E-14
 -1      1719 1.59794E-02 2.82695E-04-6.90689E-14
 -1      1720 1.91292E-02-9.65293E-05-7.01132E-14
 -1      1721 1.87776E-02-2.40383E-04-7.01116E-14
 -1      1722 1.88288E-02 1.39089E-04-6.87307E-14
 -1      1723 1.79057E-02 3.47944E-04-6.83807E-14
 -1      1724 1.84431E-02-1.66084E-05-6.93348E-14
 -1      1725 1.68947E-02 6.75682E-04-6.77947E-14
 -1      1726 1.59965E-02 1.02341E-03-6.70017E-14
 -1      1727 1.52850E-02 1.31068E-03-6.60231E-14
 -1      1728 1.47360E-02 1.49125E-03-6.48545E-14
 -1      1729 1.42554E-02 1.53064E-03-6.36003E-14
 -1      1730 1.38057E-02 1.44277E-03-6.23062E-14
 -1      1731 1.33712E-02 1.24497E-03-6.09865E-14
 -1      1732 1.29149E-02 9.76707E-04-5.97723E-14
 -1      1733 1.24379E-02 6.96807E-04-5.86832E-14
 -1      1734 1.20207E-02 4.57858E-04-5.77859E-14
 -1      1735 1.16852E-02 2.74013E-04-5.71004E-14
 -1      1736 1.14798E-02 1.46602E-04-5.66738E-14
 -1      1737 1.14266E-02 4.28096E-05-5.65011E-14
 -1      1738 1.15383E-02-6.46510E-05-5.65959E-14
 -1      1739 1.17950E-02-2.13854E-04-5.69792E-14
 -1      1740 1.21753E-02-4.02592E-04-5.74963E-14
 -1      1741 1.26140E-02-6.57053E-04-5.83632E-14
 -1      1742 1.30549E-02-9.33602E-04-5.94974E-14
 -1      1743 1.34976E-02-1.16680E-03-6.06774E-14
 -1      1744 1.39190E-02-1.32340E-03-6.19454E-14
 -1      1745 1.43470E-02-1.37434E-03-6.32612E-14
 -1      1746 1.60924E-02-8.36252E-04-6.66504E-14
 -1      1747 1.69633E-02-4.69399E-04-6.75638E-14
 -1      1748 1.79839E-02-1.46088E-04-6.82314E-14
 -1      1749 2.85269E-04-1.76210E-04-1.75370E-17
 -1      1750 1.53212E-02-1.13422E-03-6.55496E-14
 -1      1751 3.32207E-04-1.16726E-04-8.29686E-17
 -1      1752 3.36351E-04-1.32973E-04-7.60432E-17
 -1      1753 3.42237E-04-1.51964E-04-6.78304E-17
 -1      1754 3.51796E-04-1.73970E-04-5.68257E-17
 -1      1755 4.58368E-04-1.88019E-04-1.09830E-16
 -1      1756 3.24553E-04-6.53393E-05-9.88792E-17
 -1      1757 3.25696E-04-7.66338E-05-9.62772E-17
 -1      1758 3.23051E-04-4.38572E-05-1.02647E-16
 -1      1759 3.23708E-04-5.43414E-05-1.00939E-16
 -1      1760 4.36489E-04-7.92368E-05-1.47533E-16
 -1      1761 3.22261E-04-2.37528E-05-1.04436E-16
 -1      1762 3.22595E-04-3.36593E-05-1.03772E-16
 -1      1763 4.34479E-04-5.12811E-05-1.52019E-16
 -1      1764 3.21966E-04-4.33327E-06-1.05439E-16
 -1      1765 3.22063E-04-1.39781E-05-1.04924E-16
 -1      1766 4.33452E-04-2.49052E-05-1.54431E-16
 -1      1767 3.22088E-04 1.49695E-05-1.05019E-16
 -1      1768 3.21974E-04 5.31459E-06-1.05371E-16
 -1      1769 4.33153E-04 7.57268E-07-1.55122E-16
 -1      1770 3.22658E-04 3.47041E-05-1.03934E-16
 -1      1771 3.22304E-04 2.47652E-05-1.04639E-16
 -1      1772 4.33511E-04 2.64486E-05-1.54580E-16
 -1      1773 3.23793E-04 5.51295E-05-1.01278E-16
 -1      1774 3.23126E-04 4.47725E-05-1.02809E-16
 -1      1775 4.34593E-04 5.26869E-05-1.52412E-16
 -1      1776 3.25858E-04 7.77715E-05-9.69954E-17
 -1      1777 3.24656E-04 6.61947E-05-9.95704E-17
 -1      1778 4.36657E-04 8.05523E-05-1.48346E-16
 -1      1779 3.29556E-04 1.03605E-04-8.98126E-17
 -1      1780 3.27403E-04 9.02562E-05-9.39326E-17
 -1      1781 4.40317E-04 1.11511E-04-1.41556E-16
 -1      1782 3.36600E-04 1.35063E-04-7.81710E-17
 -1      1783 3.32414E-04 1.18564E-04-8.48117E-17
 -1      1784 4.46801E-04 1.47275E-04-1.30402E-16
 -1      1785 3.52335E-04 1.77562E-04-5.96718E-17
 -1      1786 3.42836E-04 1.54713E-04-7.01479E-17
 -1      1787 4.59350E-04 1.91398E-04-1.12852E-16
 -1      1788 4.07741E-04 2.33648E-04-4.73796E-17
 -1      1789 3.78128E-04 2.02622E-04-5.56602E-17
 -1      1790 4.95905E-04 2.43941E-04-9.72800E-17
 -1      1791 5.58607E-04 3.02453E-04-8.51505E-17
 -1      1792 3.40058E-04-1.90876E-04-3.74185E-17
 -1      1793 8.53671E-04 4.07045E-04-2.15133E-16
 -1      1794 7.07244E-04 3.59314E-04-1.41380E-16
 -1      1795 6.73474E-04 3.28744E-04-1.49078E-16
 -1      1796 1.53478E-02-9.70740E-04-6.61728E-14
 -1      1797 1.50224E-02-1.12626E-03-6.55390E-14
 -1      1798 4.59003E-04-2.36670E-04-7.24247E-17
 -1      1799 8.07323E-04-3.74041E-04-2.04819E-16
 -1      1800 9.52610E-04-4.15217E-04-2.91244E-16
 -1      1801 1.09547E-03-4.49899E-04-3.94839E-16
 -1      1802 1.23717E-03-4.78790E-04-5.15430E-16
 -1      1803 1.00403E-03-3.97825E-04-3.67802E-16
 -1      1804 1.37760E-03-5.03273E-04-6.53083E-16
 -1      1805 1.51732E-03-5.23647E-04-8.08083E-16
 -1      1806 1.28976E-03-4.55779E-04-6.14458E-16
 -1      1807 1.65651E-03-5.40831E-04-9.80159E-16
 -1      1808 1.79539E-03-5.55065E-04-1.16912E-15
 -1      1809 1.57222E-03-4.96729E-04-9.28850E-16
 -1      1810 1.93414E-03-5.66957E-04-1.37459E-15
 -1      1811 2.07284E-03-5.76712E-04-1.59725E-15
 -1      1812 1.85289E-03-5.25290E-04-1.31061E-15
 -1      1813 2.21163E-03-5.84748E-04-1.83694E-15
 -1      1814 2.35051E-03-5.91237E-04-2.09258E-15
 -1      1815 2.13285E-03-5.44808E-04-1.75925E-15
 -1      1816 2.48959E-03-5.96476E-04-2.36466E-15
 -1      1817 2.62885E-03-6.00607E-04-2.65276E-15
 -1      1818 2.41278E-03-5.57742E-04-2.27345E-15
 -1      1819 2.76837E-03-6.03844E-04-2.95713E-15
 -1      1820 2.90808E-03-6.06298E-04-3.27654E-15
 -1      1821 2.69308E-03-5.65933E-04-2.85176E-15
 -1      1822 3.04807E-03-6.08126E-04-3.61197E-15
 -1      1823 3.18826E-03-6.09414E-04-3.96289E-15
 -1      1824 2.97395E-03-5.70761E-04-3.49376E-15
 -1      1825 3.32871E-03-6.10274E-04-4.32898E-15
 -1      1826 3.46935E-03-6.10773E-04-4.71089E-15
 -1      1827 3.25547E-03-5.73256E-04-4.19727E-15
 -1      1828 3.61023E-03-6.10990E-04-5.10761E-15
 -1      1829 3.75128E-03-6.10973E-04-5.51868E-15
 -1      1830 3.53766E-03-5.74178E-04-4.96216E-15
 -1      1831 3.89254E-03-6.10777E-04-5.94407E-15
 -1      1832 4.03395E-03-6.10439E-04-6.38451E-15
 -1      1833 3.82045E-03-5.74078E-04-5.78643E-15
 -1      1834 4.17553E-03-6.09992E-04-6.84011E-15
 -1      1835 4.31724E-03-6.09463E-04-7.30985E-15
 -1      1836 4.10380E-03-5.73343E-04-6.66853E-15
 -1      1837 4.45909E-03-6.08873E-04-7.79423E-15
 -1      1838 4.60104E-03-6.08238E-04-8.29325E-15
 -1      1839 4.38762E-03-5.72237E-04-7.61019E-15
 -1      1840 4.74311E-03-6.07570E-04-8.80734E-15
 -1      1841 4.88527E-03-6.06878E-04-9.33531E-15
 -1      1842 4.67183E-03-5.70929E-04-8.61011E-15
 -1      1843 5.02751E-03-6.06166E-04-9.87764E-15
 -1      1844 5.16983E-03-6.05438E-04-1.04344E-14
 -1      1845 4.95637E-03-5.69514E-04-9.66675E-15
 -1      1846 5.31222E-03-6.04691E-04-1.10065E-14
 -1      1847 5.45466E-03-6.03928E-04-1.15924E-14
 -1      1848 5.24118E-03-5.68033E-04-1.07818E-14
 -1      1849 5.59717E-03-6.03138E-04-1.21927E-14
 -1      1850 5.73973E-03-6.02322E-04-1.28079E-14
 -1      1851 5.52621E-03-5.66485E-04-1.19554E-14
 -1      1852 5.88234E-03-6.01467E-04-1.34374E-14
 -1      1853 6.02499E-03-6.00570E-04-1.40823E-14
 -1      1854 5.81143E-03-5.64835E-04-1.31860E-14
 -1      1855 6.16770E-03-5.99615E-04-1.47422E-14
 -1      1856 6.31046E-03-5.98596E-04-1.54184E-14
 -1      1857 6.09684E-03-5.63023E-04-1.44777E-14
 -1      1858 6.45328E-03-5.97497E-04-1.61089E-14
 -1      1859 6.59616E-03-5.96311E-04-1.68132E-14
 -1      1860 6.38244E-03-5.60968E-04-1.58293E-14
 -1      1861 6.73911E-03-5.95017E-04-1.75337E-14
 -1      1862 6.88214E-03-5.93610E-04-1.82686E-14
 -1      1863 6.66825E-03-5.58573E-04-1.72415E-14
 -1      1864 7.02526E-03-5.92068E-04-1.90195E-14
 -1      1865 7.16849E-03-5.90387E-04-1.97847E-14
 -1      1866 6.95433E-03-5.55730E-04-1.87127E-14
 -1      1867 7.31184E-03-5.88542E-04-2.05660E-14
 -1      1868 7.45535E-03-5.86534E-04-2.13604E-14
 -1      1869 7.24078E-03-5.52326E-04-2.02442E-14
 -1      1870 7.59902E-03-5.84338E-04-2.21704E-14
 -1      1871 7.74289E-03-5.81960E-04-2.29940E-14
 -1      1872 7.52770E-03-5.48253E-04-2.18346E-14
 -1      1873 7.88699E-03-5.79379E-04-2.38302E-14
 -1      1874 8.03136E-03-5.76608E-04-2.46799E-14
 -1      1875 7.81526E-03-5.43420E-04-2.34798E-14
 -1      1876 8.17602E-03-5.73634E-04-2.55393E-14
 -1      1877 8.32104E-03-5.70480E-04-2.64090E-14
 -1      1878 8.10367E-03-5.37776E-04-2.51765E-14
 -1      1879 8.46645E-03-5.67149E-04-2.72897E-14
 -1      1880 8.61232E-03-5.63680E-04-2.81802E-14
 -1      1881 8.39318E-03-5.31335E-04-2.69175E-14
 -1      1882 8.75868E-03-5.60098E-04-2.90811E-14
 -1      1883 8.90564E-03-5.56464E-04-2.99914E-14
 -1      1884 8.68411E-03-5.24222E-04-2.86988E-14
 -1      1885 9.05321E-03-5.52841E-04-3.09127E-14
 -1      1886 9.20152E-03-5.49319E-04-3.18415E-14
 -1      1887 8.97684E-03-5.16730E-04-3.05221E-14
 -1      1888 9.35058E-03-5.46014E-04-3.27773E-14
 -1      1889 9.50054E-03-5.43060E-04-3.37246E-14
 -1      1890 9.27179E-03-5.09401E-04-3.23804E-14
 -1      1891 9.65139E-03-5.40645E-04-3.46809E-14
 -1      1892 9.80330E-03-5.38958E-04-3.56477E-14
 -1      1893 9.56946E-03-5.03132E-04-3.42760E-14
 -1      1894 9.95624E-03-5.38290E-04-3.66268E-14
 -1      1895 1.01104E-02-5.38897E-04-3.76125E-14
 -1      1896 9.87035E-03-4.99303E-04-3.62117E-14
 -1      1897 1.02657E-02-5.41200E-04-3.86107E-14
 -1      1898 1.04223E-02-5.45538E-04-3.96177E-14
 -1      1899 1.01750E-02-4.99945E-04-3.81910E-14
 -1      1900 1.05801E-02-5.52482E-04-4.06331E-14
 -1      1901 1.07392E-02-5.62462E-04-4.16596E-14
 -1      1902 1.04839E-02-5.07900E-04-4.02055E-14
 -1      1903 1.08996E-02-5.76196E-04-4.26903E-14
 -1      1904 1.10610E-02-5.94191E-04-4.37297E-14
 -1      1905 1.07974E-02-5.26955E-04-4.22554E-14
 -1      1906 1.12237E-02-6.17254E-04-4.47791E-14
 -1      1907 1.13869E-02-6.45915E-04-4.58321E-14
 -1      1908 1.11157E-02-5.61837E-04-4.43366E-14
 -1      1909 1.15510E-02-6.80898E-04-4.68917E-14
 -1      1910 1.17150E-02-7.22618E-04-4.79569E-14
 -1      1911 1.14387E-02-6.17889E-04-4.64440E-14
 -1      1912 1.18792E-02-7.71392E-04-4.90305E-14
 -1      1913 1.20422E-02-8.27229E-04-5.01129E-14
 -1      1914 1.17655E-02-7.00112E-04-4.85757E-14
 -1      1915 1.22043E-02-8.89556E-04-5.12019E-14
 -1      1916 1.23636E-02-9.57490E-04-5.22949E-14
 -1      1917 1.20938E-02-8.11163E-04-5.07350E-14
 -1      1918 1.25204E-02-1.02905E-03-5.33966E-14
 -1      1919 1.26729E-02-1.10188E-03-5.45050E-14
 -1      1920 1.24195E-02-9.47927E-04-5.29208E-14
 -1      1921 1.28209E-02-1.17236E-03-5.56214E-14
 -1      1922 1.29636E-02-1.23650E-03-5.67447E-14
 -1      1923 1.27356E-02-1.09700E-03-5.51316E-14
 -1      1924 1.31001E-02-1.28959E-03-5.78706E-14
 -1      1925 1.32318E-02-1.32677E-03-5.90024E-14
 -1      1926 1.30337E-02-1.23136E-03-5.73707E-14
 -1      1927 1.33570E-02-1.34396E-03-6.01375E-14
 -1      1928 1.34802E-02-1.33796E-03-6.12740E-14
 -1      1929 1.33080E-02-1.31267E-03-5.96271E-14
 -1      1930 1.35993E-02-1.30805E-03-6.24105E-14
 -1      1931 1.37203E-02-1.25471E-03-6.35449E-14
 -1      1932 1.35608E-02-1.30483E-03-6.18991E-14
 -1      1933 1.38418E-02-1.18209E-03-6.46788E-14
 -1      1934 1.39688E-02-1.09677E-03-6.58067E-14
 -1      1935 1.38055E-02-1.19569E-03-6.41699E-14
 -1      1936 1.13877E-03 4.79995E-04-4.15087E-16
 -1      1937 9.96976E-04 4.46750E-04-3.06030E-16
 -1      1938 9.64583E-04 4.17292E-04-3.14446E-16
 -1      1939 1.41794E-03 5.31474E-04-6.86463E-16
 -1      1940 1.27876E-03 5.08025E-04-5.41735E-16
 -1      1941 1.24911E-03 4.79884E-04-5.49555E-16
 -1      1942 1.69439E-03 5.67779E-04-1.02942E-15
 -1      1943 1.55632E-03 5.51278E-04-8.49066E-16
 -1      1944 1.52943E-03 5.24101E-04-8.55842E-16
 -1      1945 1.97003E-03 5.93094E-04-1.44280E-15
 -1      1946 1.83222E-03 5.81640E-04-1.22719E-15
 -1      1947 1.80773E-03 5.55098E-04-1.23255E-15
 -1      1948 2.24595E-03 6.10379E-04-1.92679E-15
 -1      1949 2.10791E-03 6.02614E-04-1.67618E-15
 -1      1950 2.08542E-03 5.76476E-04-1.67913E-15
 -1      1951 2.52271E-03 6.21817E-04-2.47896E-15
 -1      1952 2.38421E-03 6.16734E-04-2.19449E-15
 -1      1953 2.36332E-03 5.90841E-04-2.19491E-15
 -1      1954 2.80055E-03 6.29048E-04-3.10052E-15
 -1      1955 2.66149E-03 6.25888E-04-2.78073E-15
 -1      1956 2.64186E-03 6.00132E-04-2.77881E-15
 -1      1957 3.07955E-03 6.33299E-04-3.79109E-15
 -1      1958 2.93991E-03 6.31493E-04-3.43707E-15
 -1      1959 2.92126E-03 6.05805E-04-3.43128E-15
 -1      1960 3.35967E-03 6.35491E-04-4.54831E-15
 -1      1961 3.21948E-03 6.34614E-04-4.16179E-15
 -1      1962 3.20158E-03 6.08948E-04-4.15145E-15
 -1      1963 3.64080E-03 6.36299E-04-5.37213E-15
 -1      1964 3.50012E-03 6.36040E-04-4.95170E-15
 -1      1965 3.48279E-03 6.10368E-04-4.93775E-15
 -1      1966 3.92283E-03 6.36210E-04-6.26231E-15
 -1      1967 3.78172E-03 6.36347E-04-5.80864E-15
 -1      1968 3.76482E-03 6.10653E-04-5.78999E-15
 -1      1969 4.20562E-03 6.35567E-04-7.21635E-15
 -1      1970 4.06415E-03 6.35945E-04-6.73121E-15
 -1      1971 4.04756E-03 6.10221E-04-6.70740E-15
 -1      1972 4.48904E-03 6.34598E-04-8.23491E-15
 -1      1973 4.34726E-03 6.35115E-04-7.71803E-15
 -1      1974 4.33090E-03 6.09361E-04-7.68969E-15
 -1      1975 4.77296E-03 6.33449E-04-9.31456E-15
 -1      1976 4.63094E-03 6.34042E-04-8.76713E-15
 -1      1977 4.61475E-03 6.08259E-04-8.73344E-15
 -1      1978 5.05728E-03 6.32196E-04-1.04541E-14
 -1      1979 4.91508E-03 6.32834E-04-9.87682E-15
 -1      1980 4.89901E-03 6.07026E-04-9.83824E-15
 -1      1981 5.34193E-03 6.30869E-04-1.16551E-14
 -1      1982 5.19957E-03 6.31542E-04-1.10467E-14
 -1      1983 5.18360E-03 6.05715E-04-1.10030E-14
 -1      1984 5.62683E-03 6.29456E-04-1.29138E-14
 -1      1985 5.48435E-03 6.30175E-04-1.22770E-14
 -1      1986 5.46846E-03 6.04335E-04-1.22276E-14
 -1      1987 5.91196E-03 6.27917E-04-1.42295E-14
 -1      1988 5.76937E-03 6.28706E-04-1.35652E-14
 -1      1989 5.75354E-03 6.02858E-04-1.35108E-14
 -1      1990 6.19728E-03 6.26188E-04-1.56005E-14
 -1      1991 6.05460E-03 6.27080E-04-1.49079E-14
 -1      1992 6.03882E-03 6.01230E-04-1.48498E-14
 -1      1993 6.48283E-03 6.24183E-04-1.70232E-14
 -1      1994 6.34003E-03 6.25224E-04-1.63057E-14
 -1      1995 6.32431E-03 5.99375E-04-1.62426E-14
 -1      1996 6.76864E-03 6.21806E-04-1.85046E-14
 -1      1997 6.62570E-03 6.23045E-04-1.77570E-14
 -1      1998 6.61002E-03 5.97202E-04-1.76896E-14
 -1      1999 7.05480E-03 6.18948E-04-2.00413E-14
 -1      2000 6.91167E-03 6.20441E-04-1.92651E-14
 -1      2001 6.89601E-03 5.94603E-04-1.91922E-14
 -1      2002 7.34142E-03 6.15501E-04-2.16313E-14
 -1      2003 7.19804E-03 6.17301E-04-2.08293E-14
 -1      2004 7.18239E-03 5.91466E-04-2.07509E-14
 -1      2005 7.62870E-03 6.11361E-04-2.32749E-14
 -1      2006 7.48497E-03 6.13519E-04-2.24464E-14
 -1      2007 7.46927E-03 5.87679E-04-2.23633E-14
 -1      2008 7.91686E-03 6.06449E-04-2.49725E-14
 -1      2009 7.77265E-03 6.09000E-04-2.41175E-14
 -1      2010 7.75685E-03 5.83144E-04-2.40301E-14
 -1      2011 8.20621E-03 6.00729E-04-2.67245E-14
 -1      2012 8.06136E-03 6.03683E-04-2.58411E-14
 -1      2013 8.04536E-03 5.77789E-04-2.57505E-14
 -1      2014 8.49717E-03 5.94243E-04-2.85313E-14
 -1      2015 8.35146E-03 5.97567E-04-2.76209E-14
 -1      2016 8.33512E-03 5.71604E-04-2.75245E-14
 -1      2017 8.79021E-03 5.87156E-04-3.03944E-14
 -1      2018 8.64339E-03 5.90748E-04-2.94567E-14
 -1      2019 8.62651E-03 5.64668E-04-2.93553E-14
 -1      2020 9.08594E-03 5.79822E-04-3.23061E-14
 -1      2021 8.93769E-03 5.83477E-04-3.13441E-14
 -1      2022 8.92000E-03 5.57212E-04-3.12370E-14
 -1      2023 9.38504E-03 5.72877E-04-3.42588E-14
 -1      2024 9.23501E-03 5.76236E-04-3.32776E-14
 -1      2025 9.21614E-03 5.49693E-04-3.31639E-14
 -1      2026 9.68830E-03 5.67367E-04-3.62540E-14
 -1      2027 9.53608E-03 5.69848E-04-3.52518E-14
 -1      2028 9.51556E-03 5.42897E-04-3.51344E-14
 -1      2029 9.99653E-03 5.64907E-04-3.82946E-14
 -1      2030 9.84172E-03 5.65622E-04-3.72683E-14
 -1      2031 9.81897E-03 5.38087E-04-3.71490E-14
 -1      2032 1.03105E-02 5.67897E-04-4.03736E-14
 -1      2033 1.01527E-02 5.65538E-04-3.93296E-14
 -1      2034 1.01271E-02 5.37184E-04-3.92053E-14
 -1      2035 1.06309E-02 5.79750E-04-4.24914E-14
 -1      2036 1.04698E-02 5.72476E-04-4.14280E-14
 -1      2037 1.04405E-02 5.42996E-04-4.12985E-14
 -1      2038 1.09577E-02 6.05099E-04-4.46384E-14
 -1      2039 1.07935E-02 5.90440E-04-4.35615E-14
 -1      2040 1.07597E-02 5.59448E-04-4.34264E-14
 -1      2041 1.12907E-02 6.49834E-04-4.68117E-14
 -1      2042 1.11235E-02 6.24710E-04-4.57214E-14
 -1      2043 1.10849E-02 5.91748E-04-4.55815E-14
 -1      2044 1.16280E-02 7.20671E-04-4.90093E-14
 -1      2045 1.14590E-02 6.81682E-04-4.79081E-14
 -1      2046 1.14157E-02 6.46297E-04-4.77624E-14
 -1      2047 1.19663E-02 8.23757E-04-5.12233E-14
 -1      2048 1.17974E-02 7.68041E-04-5.01149E-14
 -1      2049 1.17506E-02 7.29961E-04-4.99648E-14
 -1      2050 1.23004E-02 9.61651E-04-5.34388E-14
 -1      2051 1.21346E-02 8.88622E-04-5.23309E-14
 -1      2052 1.20868E-02 8.48134E-04-5.21775E-14
 -1      2053 1.26226E-02 1.12837E-03-5.56520E-14
 -1      2054 1.24639E-02 1.04242E-03-5.45461E-14
 -1      2055 1.24193E-02 1.00092E-03-5.43907E-14
 -1      2056 1.29244E-02 1.30351E-03-5.78584E-14
 -1      2057 1.27769E-02 1.21688E-03-5.67572E-14
 -1      2058 1.27406E-02 1.17734E-03-5.66000E-14
 -1      2059 1.31987E-02 1.44958E-03-6.00530E-14
 -1      2060 1.30651E-02 1.38288E-03-5.89590E-14
 -1      2061 1.30417E-02 1.34955E-03-5.87999E-14
 -1      2062 1.34456E-02 1.51916E-03-6.22356E-14
 -1      2063 1.33248E-02 1.49638E-03-6.11426E-14
 -1      2064 1.33158E-02 1.47297E-03-6.09910E-14
 -1      2065 1.36751E-02 1.47511E-03-6.44112E-14
 -1      2066 1.35606E-02 1.51185E-03-6.33261E-14
 -1      2067 1.35639E-02 1.49891E-03-6.31707E-14
 -1      2068 1.39067E-02 1.31811E-03-6.65776E-14
 -1      2069 1.37883E-02 1.40808E-03-6.54950E-14
 -1      2070 1.37991E-02 1.40080E-03-6.53459E-14
 -1      2071 1.41174E-02 1.13639E-03-6.83570E-14
 -1      2072 1.39893E-02 1.24724E-03-6.72717E-14
 -1      2073 1.40019E-02 1.23852E-03-6.71237E-14
 -1      2074 1.41788E-02 1.07829E-03-6.85125E-14
 -1      2075 1.46494E-02 8.58723E-04-6.80444E-14
 -1      2076 1.44932E-02 8.94825E-04-6.80821E-14
 -1      2077 1.43648E-02 9.38112E-04-6.81268E-14
 -1      2078 1.42817E-02 9.84359E-04-6.81714E-14
 -1      2079 1.42931E-02 1.09939E-03-6.71841E-14
 -1      2080 1.42479E-02 1.00420E-03-6.83194E-14
 -1      2081 1.41992E-02 1.05464E-03-6.83658E-14
 -1      2082 1.41080E-02 1.14308E-03-6.76725E-14
 -1      2083 1.41581E-02 1.11950E-03-6.73769E-14
 -1      2084 1.51084E-02 7.90521E-04-6.79803E-14
 -1      2085 1.48438E-02 8.25077E-04-6.80133E-14
 -1      2086 1.45869E-02 1.07942E-03-6.71064E-14
 -1      2087 1.91958E-02 3.88324E-05-6.94486E-14
 -1      2088 1.62442E-02 4.46557E-04-6.85363E-14
 -1      2089 1.56449E-02 5.84380E-04-6.83640E-14
 -1      2090 1.46491E-02-5.29645E-04-6.79885E-14
 -1      2091 1.48870E-02-4.54685E-04-6.80621E-14
 -1      2092 1.43772E-02-6.79584E-04-6.78429E-14
 -1      2093 1.44834E-02-6.05390E-04-6.79152E-14
 -1      2094 1.44354E-02-7.62029E-04-6.70482E-14
 -1      2095 1.42601E-02-8.16532E-04-6.76968E-14
 -1      2096 1.43062E-02-7.49233E-04-6.77687E-14
 -1      2097 1.42231E-02-8.45927E-04-6.69031E-14
 -1      2098 1.75972E-02 2.52168E-04-6.86849E-14
 -1      2099 1.81143E-02 1.33665E-04-6.89004E-14
 -1      2100 1.86990E-02 6.80851E-05-6.90257E-14
 -1      2101 1.48242E-02-1.21841E-03-6.50415E-14
 -1      2102 1.46413E-02-1.28865E-03-6.45425E-14
 -1      2103 1.48828E-02-1.08609E-03-6.56671E-14
 -1      2104 1.70193E-02-2.22226E-04-6.81435E-14
 -1      2105 1.65580E-02-4.27216E-04-6.76923E-14
 -1      2106 3.27130E-04-8.89361E-05-9.28890E-17
 -1      2107 3.29249E-04-1.02079E-04-8.83625E-17
 -1      2108 4.46332E-04-1.45042E-04-1.28058E-16
 -1      2109 4.39988E-04-1.09886E-04-1.39943E-16
 -1      2110 1.57369E-02 9.66829E-04-6.72070E-14
 -1      2111 1.61273E-02 7.90672E-04-6.76259E-14
 -1      2112 1.49927E-02 1.32023E-03-6.60148E-14
 -1      2113 1.52536E-02 1.17502E-03-6.65773E-14
 -1      2114 1.45266E-02 1.51310E-03-6.47046E-14
 -1      2115 1.47286E-02 1.44458E-03-6.53116E-14
 -1      2116 1.41150E-02 1.54163E-03-6.33542E-14
 -1      2117 1.42960E-02 1.54780E-03-6.39998E-14
 -1      2118 1.37301E-02 1.42623E-03-6.19693E-14
 -1      2119 1.39075E-02 1.49831E-03-6.26128E-14
 -1      2120 1.33292E-02 1.19550E-03-6.05723E-14
 -1      2121 1.35212E-02 1.32006E-03-6.12419E-14
 -1      2122 1.28217E-02 8.62530E-04-5.91451E-14
 -1      2123 1.30438E-02 1.00571E-03-5.96853E-14
 -1      2124 1.23981E-02 5.91736E-04-5.80644E-14
 -1      2125 1.26083E-02 7.27064E-04-5.86045E-14
 -1      2126 1.27312E-02 7.70044E-04-5.85223E-14
 -1      2127 1.19460E-02 3.51389E-04-5.71397E-14
 -1      2128 1.21368E-02 4.44622E-04-5.74889E-14
 -1      2129 1.16458E-02 2.04906E-04-5.64824E-14
 -1      2130 1.17845E-02 2.71340E-04-5.68100E-14
 -1      2131 1.18758E-02 2.82978E-04-5.65153E-14
 -1      2132 1.14421E-02 1.03035E-04-5.61428E-14
 -1      2133 1.15083E-02 1.38567E-04-5.62380E-14
 -1      2134 1.14287E-02 3.45349E-05-5.59792E-14
 -1      2135 1.14154E-02 6.54359E-05-5.60548E-14
 -1      2136 1.15985E-02-6.51764E-05-5.62082E-14
 -1      2137 1.15003E-02-1.65385E-05-5.60393E-14
 -1      2138 1.18885E-02-2.02559E-04-5.66184E-14
 -1      2139 1.17320E-02-1.31267E-04-5.64089E-14
 -1      2140 1.22925E-02-4.01760E-04-5.71753E-14
 -1      2141 1.20858E-02-2.96436E-04-5.68717E-14
 -1      2142 1.27850E-02-7.13654E-04-5.83726E-14
 -1      2143 1.25710E-02-5.70920E-04-5.78131E-14
 -1      2144 1.32128E-02-9.91282E-04-5.95155E-14
 -1      2145 1.30178E-02-8.60144E-04-5.89461E-14
 -1      2146 1.35910E-02-1.21421E-03-6.07249E-14
 -1      2147 1.34063E-02-1.10870E-03-6.01187E-14
 -1      2148 1.33148E-02-1.04526E-03-5.95627E-14
 -1      2149 1.40069E-02-1.36831E-03-6.22611E-14
 -1      2150 1.38347E-02-1.31867E-03-6.16057E-14
 -1      2151 1.43357E-02-1.37036E-03-6.35705E-14
 -1      2152 1.41790E-02-1.38528E-03-6.29145E-14
 -1      2153 1.40440E-02-1.37763E-03-6.25737E-14
 -1      2154 1.61066E-02-6.21911E-04-6.72170E-14
 -1      2155 1.57474E-02-7.98500E-04-6.67478E-14
 -1      2156 1.69755E-02 2.91177E-04-6.87128E-14
 -1      2157 1.65282E-02 4.91374E-04-6.83325E-14
 -1      2158 1.61885E-02-4.06178E-04-6.77920E-14
 -1      2159 1.54000E-02-7.99223E-04-6.67397E-14
 -1      2160 6.07944E-04-2.98068E-04-1.21661E-16
 -1      2161 6.63664E-04-2.92344E-04-1.70735E-16
 -1      2162 1.40514E-02-1.02455E-03-6.63695E-14
 -1      2163 1.63901E-02-3.96230E-05-6.87019E-14
 -1      2164 1.70041E-02 1.50911E-05-6.87610E-14
 -1      2165 1.74092E-02-1.52415E-05-6.86338E-14
 -1      2166 1.80143E-02 1.46194E-05-6.86735E-14
 -1      2167 1.92285E-02 6.90968E-05-6.91465E-14
 -1      2168 1.90478E-02 4.20567E-05-6.91739E-14
 -1      2169 1.45012E-02-1.22502E-03-6.48278E-14
 -1      2170 1.44322E-02-1.31571E-03-6.41989E-14
 -1      2171 1.42652E-02-1.32807E-03-6.38556E-14
 -1      2172 1.48068E-02-8.30667E-04-6.66428E-14
 -1      2173 1.51338E-02-5.55027E-04-6.75842E-14
 -1      2174 1.85019E-02 9.75989E-05-6.89024E-14
 -1      2175 1.89699E-02 9.61510E-05-6.89346E-14
 -1      2176 1.41683E-02-9.10738E-04-6.71328E-14
 -1      2177 1.91947E-02 9.31792E-05-6.90333E-14
 -1      2178 1.59859E-02-2.61869E-04-6.82228E-14
 -1      2179 1.36992E-02-1.27360E-03-6.10413E-14
 -1      2180 1.29313E-02-7.82609E-04-5.83892E-14
 -1      2181 1.24434E-02-4.65762E-04-5.71808E-14
 -1      2182 1.23188E-02-3.79938E-04-5.65541E-14
 -1      2183 1.25768E-02-5.36458E-04-5.71867E-14
 -1      2184 1.19884E-02-2.20185E-04-5.62974E-14
 -1      2185 1.16665E-02-7.60303E-05-5.58478E-14
 -1      2186 1.14548E-02 1.72804E-05-5.55897E-14
 -1      2187 1.15729E-02 1.54879E-04-5.59461E-14
 -1      2188 1.22799E-02 4.92909E-04-5.74123E-14
 -1      2189 1.31966E-02 1.09544E-03-5.99444E-14
 -1      2190 1.33108E-02 1.17862E-03-6.01991E-14
 -1      2191 1.30674E-02 9.96807E-04-5.93188E-14
 -1      2192 1.36326E-02 1.38517E-03-6.15529E-14
 -1      2193 1.39832E-02 1.52804E-03-6.30186E-14
 -1      2194 1.43366E-02 1.52358E-03-6.44599E-14
 -1      2195 1.47542E-02 1.34880E-03-6.58661E-14
 -1      2196 1.53946E-02 9.91033E-04-6.71971E-14
 -1      2197 1.14198E-02 7.76623E-05-5.56176E-14
 -1      2198 1.01669E-03 3.99724E-04-3.92684E-16
 -1      2199 8.72211E-04 3.63348E-04-2.89726E-16
 -1      2200 5.47736E-04-5.52697E-05-2.16759E-16
 -1      2201 5.48780E-04-7.19779E-05-2.14347E-16
 -1      2202 5.50209E-04-8.92924E-05-2.11148E-16
 -1      2203 5.52088E-04-1.07263E-04-2.07245E-16
 -1      2204 6.65241E-04-9.54459E-05-2.88127E-16
 -1      2205 5.46344E-04 8.85192E-06-2.20120E-16
 -1      2206 5.46324E-04-6.97685E-06-2.20188E-16
 -1      2207 5.47104E-04 4.08459E-05-2.18928E-16
 -1      2208 5.46601E-04 2.47798E-05-2.19754E-16
 -1      2209 6.61267E-04 1.99208E-05-2.97857E-16
 -1      2210 5.48943E-04 7.34525E-05-2.15377E-16
 -1      2211 5.47873E-04 5.69673E-05-2.17383E-16
 -1      2212 6.62602E-04 5.77583E-05-2.95526E-16
 -1      2213 5.52353E-04 1.08913E-04-2.09061E-16
 -1      2214 5.50419E-04 9.08437E-05-2.12612E-16
 -1      2215 6.65480E-04 9.72113E-05-2.90173E-16
 -1      2216 5.58255E-04 1.48238E-04-1.98707E-16
 -1      2217 5.54925E-04 1.28018E-04-2.04467E-16
 -1      2218 6.70595E-04 1.39970E-04-2.80985E-16
 -1      2219 5.68607E-04 1.93833E-04-1.82553E-16
 -1      2220 5.62756E-04 1.70116E-04-1.91538E-16
 -1      2221 6.79273E-04 1.87504E-04-2.66402E-16
 -1      2222 9.15257E-04-3.46290E-04-3.38583E-16
 -1      2223 1.05937E-03-3.79596E-04-4.48101E-16
 -1      2224 1.30219E-03 4.56656E-04-6.50684E-16
 -1      2225 1.15985E-03 4.30718E-04-5.12936E-16
 -1      2226 1.07186E-03 3.81240E-04-4.74569E-16
 -1      2227 5.88551E-04-2.37910E-04-1.61112E-16
 -1      2228 7.81370E-04-3.04750E-04-2.57512E-16
 -1      2229 8.40793E-04-2.93516E-04-3.20368E-16
 -1      2230 5.79005E-04-2.10111E-04-1.74475E-16
 -1      2231 1.20264E-03-4.07981E-04-5.73882E-16
 -1      2232 1.34547E-03-4.31853E-04-7.16563E-16
 -1      2233 1.11705E-03-3.60407E-04-5.31788E-16
 -1      2234 1.48765E-03-4.52070E-04-8.76035E-16
 -1      2235 1.62945E-03-4.68909E-04-1.05260E-15
 -1      2236 1.40339E-03-4.07174E-04-8.22083E-16
 -1      2237 1.77089E-03-4.83045E-04-1.24556E-15
 -1      2238 1.91209E-03-4.94692E-04-1.45481E-15
 -1      2239 1.68854E-03-4.40411E-04-1.17870E-15
 -1      2240 2.05313E-03-5.04346E-04-1.68050E-15
 -1      2241 2.19407E-03-5.12183E-04-1.92308E-15
 -1      2242 1.97275E-03-4.63472E-04-1.60118E-15
 -1      2243 2.33499E-03-5.18565E-04-2.18117E-15
 -1      2244 2.47590E-03-5.23635E-04-2.45557E-15
 -1      2245 2.25641E-03-4.79002E-04-2.08813E-15
 -1      2246 2.61686E-03-5.27658E-04-2.74622E-15
 -1      2247 2.75788E-03-5.30749E-04-3.05225E-15
 -1      2248 2.53985E-03-4.89044E-04-2.63952E-15
 -1      2249 2.89900E-03-5.33102E-04-3.37416E-15
 -1      2250 3.04020E-03-5.34808E-04-3.71158E-15
 -1      2251 2.82329E-03-4.95157E-04-3.25377E-15
 -1      2252 3.18152E-03-5.36005E-04-4.06443E-15
 -1      2253 3.32293E-03-5.36764E-04-4.43298E-15
 -1      2254 3.10689E-03-4.98516E-04-3.93067E-15
 -1      2255 3.46447E-03-5.37185E-04-4.81639E-15
 -1      2256 3.60611E-03-5.37319E-04-5.21488E-15
 -1      2257 3.39070E-03-4.99997E-04-4.66943E-15
 -1      2258 3.74786E-03-5.37237E-04-5.62758E-15
 -1      2259 3.88971E-03-5.36977E-04-6.05485E-15
 -1      2260 3.67478E-03-5.00241E-04-5.46820E-15
 -1      2261 4.03166E-03-5.36585E-04-6.49647E-15
 -1      2262 4.17369E-03-5.36088E-04-6.95376E-15
 -1      2263 3.95911E-03-4.99703E-04-6.32468E-15
 -1      2264 4.31581E-03-5.35517E-04-7.42543E-15
 -1      2265 4.45801E-03-5.34890E-04-7.91117E-15
 -1      2266 4.24368E-03-4.98700E-04-7.23943E-15
 -1      2267 4.60028E-03-5.34223E-04-8.41176E-15
 -1      2268 4.74261E-03-5.33528E-04-8.92687E-15
 -1      2269 4.52846E-03-4.97440E-04-8.21298E-15
 -1      2270 4.88501E-03-5.32812E-04-9.45617E-15
 -1      2271 5.02746E-03-5.32081E-04-9.99933E-15
 -1      2272 4.81344E-03-4.96048E-04-9.24425E-15
 -1      2273 5.16996E-03-5.31335E-04-1.05574E-14
 -1      2274 5.31251E-03-5.30576E-04-1.11301E-14
 -1      2275 5.09857E-03-4.94588E-04-1.03329E-14
 -1      2276 5.45510E-03-5.29799E-04-1.17180E-14
 -1      2277 5.59773E-03-5.29003E-04-1.23193E-14
 -1      2278 5.38384E-03-4.93075E-04-1.14799E-14
 -1      2279 5.74040E-03-5.28177E-04-1.29353E-14
 -1      2280 5.88311E-03-5.27318E-04-1.35667E-14
 -1      2281 5.66924E-03-4.91488E-04-1.26843E-14
 -1      2282 6.02586E-03-5.26412E-04-1.42130E-14
 -1      2283 6.16864E-03-5.25453E-04-1.48745E-14
 -1      2284 5.95476E-03-4.89778E-04-1.39482E-14
 -1      2285 6.31147E-03-5.24426E-04-1.55512E-14
 -1      2286 6.45434E-03-5.23323E-04-1.62425E-14
 -1      2287 6.24039E-03-4.87870E-04-1.52726E-14
 -1      2288 6.59726E-03-5.22126E-04-1.69508E-14
 -1      2289 6.74023E-03-5.20826E-04-1.76715E-14
 -1      2290 6.52616E-03-4.85676E-04-1.66578E-14
 -1      2291 6.88326E-03-5.19403E-04-1.84064E-14
 -1      2292 7.02637E-03-5.17850E-04-1.91575E-14
 -1      2293 6.81208E-03-4.83088E-04-1.81016E-14
 -1      2294 7.16955E-03-5.16144E-04-1.99237E-14
 -1      2295 7.31282E-03-5.14280E-04-2.07049E-14
 -1      2296 7.09820E-03-4.79995E-04-1.96038E-14
 -1      2297 7.45620E-03-5.12236E-04-2.14996E-14
 -1      2298 7.59970E-03-5.10008E-04-2.23087E-14
 -1      2299 7.38458E-03-4.76280E-04-2.11652E-14
 -1      2300 7.74333E-03-5.07578E-04-2.31312E-14
 -1      2301 7.88713E-03-5.04946E-04-2.39667E-14
 -1      2302 7.67129E-03-4.71837E-04-2.27830E-14
 -1      2303 8.03110E-03-5.02100E-04-2.48141E-14
 -1      2304 8.17529E-03-4.99050E-04-2.56736E-14
 -1      2305 7.95844E-03-4.66583E-04-2.44526E-14
 -1      2306 8.31969E-03-4.95792E-04-2.65449E-14
 -1      2307 8.46438E-03-4.92349E-04-2.74267E-14
 -1      2308 8.24615E-03-4.60485E-04-2.61723E-14
 -1      2309 8.60934E-03-4.88737E-04-2.83179E-14
 -1      2310 8.75466E-03-4.84994E-04-2.92195E-14
 -1      2311 8.53457E-03-4.53590E-04-2.79359E-14
 -1      2312 8.90032E-03-4.81166E-04-3.01300E-14
 -1      2313 9.04643E-03-4.77314E-04-3.10519E-14
 -1      2314 8.82390E-03-4.46071E-04-2.97395E-14
 -1      2315 9.19296E-03-4.73529E-04-3.19831E-14
 -1      2316 9.34004E-03-4.69906E-04-3.29211E-14
 -1      2317 9.11436E-03-4.38297E-04-3.15822E-14
 -1      2318 9.48764E-03-4.66595E-04-3.38708E-14
 -1      2319 9.63590E-03-4.63738E-04-3.48293E-14
 -1      2320 9.40624E-03-4.30911E-04-3.34642E-14
 -1      2321 9.78479E-03-4.61568E-04-3.57990E-14
 -1      2322 9.93446E-03-4.60288E-04-3.67805E-14
 -1      2323 9.69987E-03-4.24943E-04-3.53852E-14
 -1      2324 1.00849E-02-4.60236E-04-3.77686E-14
 -1      2325 1.02362E-02-4.61701E-04-3.87683E-14
 -1      2326 9.99569E-03-4.21941E-04-3.73473E-14
 -1      2327 1.03885E-02-4.65139E-04-3.97769E-14
 -1      2328 1.05418E-02-4.70949E-04-4.07943E-14
 -1      2329 1.02943E-02-4.24127E-04-3.93464E-14
 -1      2330 1.06963E-02-4.79712E-04-4.18202E-14
 -1      2331 1.08520E-02-4.91959E-04-4.28533E-14
 -1      2332 1.05965E-02-4.34547E-04-4.13836E-14
 -1      2333 1.10090E-02-5.08362E-04-4.38937E-14
 -1      2334 1.11674E-02-5.29597E-04-4.49423E-14
 -1      2335 1.09034E-02-4.57202E-04-4.34527E-14
 -1      2336 1.13274E-02-5.56328E-04-4.59967E-14
 -1      2337 1.14887E-02-5.89335E-04-4.70563E-14
 -1      2338 1.12166E-02-4.97049E-04-4.55479E-14
 -1      2339 1.16520E-02-6.29085E-04-4.81212E-14
 -1      2340 1.18163E-02-6.76294E-04-4.91917E-14
 -1      2341 1.15378E-02-5.59737E-04-4.76668E-14
 -1      2342 1.19825E-02-7.30922E-04-5.02698E-14
 -1      2343 1.21489E-02-7.93180E-04-5.13539E-14
 -1      2344 1.18684E-02-6.50747E-04-4.98072E-14
 -1      2345 1.23163E-02-8.62112E-04-5.24448E-14
 -1      2346 1.24823E-02-9.36567E-04-5.35422E-14
 -1      2347 1.22080E-02-7.73378E-04-5.19714E-14
 -1      2348 1.26471E-02-1.01428E-03-5.46457E-14
 -1      2349 1.28081E-02-1.09162E-03-5.57556E-14
 -1      2350 1.25518E-02-9.24493E-04-5.41608E-14
 -1      2351 1.29645E-02-1.16480E-03-5.68738E-14
 -1      2352 1.31150E-02-1.22767E-03-5.79950E-14
 -1      2353 1.28889E-02-1.08764E-03-5.63753E-14
 -1      2354 1.32577E-02-1.27574E-03-5.91217E-14
 -1      2355 1.33944E-02-1.30142E-03-6.02530E-14
 -1      2356 1.32042E-02-1.22737E-03-5.86186E-14
 -1      2357 1.35216E-02-1.30161E-03-6.13881E-14
 -1      2358 1.36475E-02-1.27286E-03-6.25250E-14
 -1      2359 1.34857E-02-1.29287E-03-6.08787E-14
 -1      2360 1.37688E-02-1.21594E-03-6.36587E-14
 -1      2361 1.38936E-02-1.13337E-03-6.47948E-14
 -1      2362 1.37383E-02-1.23825E-03-6.31492E-14
 -1      2363 1.58465E-03 4.96977E-04-9.78533E-16
 -1      2364 1.44369E-03 4.78654E-04-8.05752E-16
 -1      2365 1.35791E-03 4.32635E-04-7.54469E-16
 -1      2366 1.86544E-03 5.25158E-04-1.37564E-15
 -1      2367 1.72519E-03 5.12408E-04-1.16855E-15
 -1      2368 1.64196E-03 4.69119E-04-1.10316E-15
 -1      2369 2.14556E-03 5.44446E-04-1.84221E-15
 -1      2370 2.00555E-03 5.35777E-04-1.60028E-15
 -1      2371 1.92473E-03 4.94539E-04-1.52086E-15
 -1      2372 2.42566E-03 5.57254E-04-2.37625E-15
 -1      2373 2.28560E-03 5.51554E-04-2.10074E-15
 -1      2374 2.20686E-03 5.11809E-04-2.00630E-15
 -1      2375 2.70612E-03 5.65393E-04-2.97853E-15
 -1      2376 2.56584E-03 5.61825E-04-2.66893E-15
 -1      2377 2.48883E-03 5.23142E-04-2.55857E-15
 -1      2378 2.98713E-03 5.70225E-04-3.64854E-15
 -1      2379 2.84656E-03 5.68160E-04-3.30468E-15
 -1      2380 2.77095E-03 5.30212E-04-3.17857E-15
 -1      2381 3.26878E-03 5.72765E-04-4.38523E-15
 -1      2382 3.12788E-03 5.71734E-04-4.00891E-15
 -1      2383 3.05339E-03 5.34281E-04-3.86620E-15
 -1      2384 3.55106E-03 5.73762E-04-5.18734E-15
 -1      2385 3.40985E-03 5.73421E-04-4.77816E-15
 -1      2386 3.33624E-03 5.36288E-04-4.61913E-15
 -1      2387 3.83395E-03 5.73758E-04-6.05515E-15
 -1      2388 3.69244E-03 5.73859E-04-5.61296E-15
 -1      2389 3.61950E-03 5.36922E-04-5.43665E-15
 -1      2390 4.11736E-03 5.73135E-04-6.98660E-15
 -1      2391 3.97560E-03 5.73506E-04-6.51264E-15
 -1      2392 3.90317E-03 5.36680E-04-6.31939E-15
 -1      2393 4.40123E-03 5.72150E-04-7.98278E-15
 -1      2394 4.25925E-03 5.72675E-04-7.47700E-15
 -1      2395 4.18722E-03 5.35906E-04-7.26581E-15
 -1      2396 4.68549E-03 5.70970E-04-9.03948E-15
 -1      2397 4.54332E-03 5.71577E-04-8.50349E-15
 -1      2398 4.47158E-03 5.34831E-04-8.27563E-15
 -1      2399 4.97006E-03 5.69686E-04-1.01562E-14
 -1      2400 4.82774E-03 5.70336E-04-9.59043E-15
 -1      2401 4.75623E-03 5.33598E-04-9.34472E-15
 -1      2402 5.25489E-03 5.68338E-04-1.13348E-14
 -1      2403 5.11245E-03 5.69018E-04-1.07386E-14
 -1      2404 5.04110E-03 5.32283E-04-1.04753E-14
 -1      2405 5.53995E-03 5.66921E-04-1.25715E-14
 -1      2406 5.39740E-03 5.67638E-04-1.19452E-14
 -1      2407 5.32618E-03 5.30911E-04-1.16664E-14
 -1      2408 5.82519E-03 5.65400E-04-1.38657E-14
 -1      2409 5.68255E-03 5.66176E-04-1.32110E-14
 -1      2410 5.61142E-03 5.29469E-04-1.29146E-14
 -1      2411 6.11061E-03 5.63713E-04-1.52168E-14
 -1      2412 5.96788E-03 5.64580E-04-1.45345E-14
 -1      2413 5.89681E-03 5.27912E-04-1.42205E-14
 -1      2414 6.39622E-03 5.61777E-04-1.66191E-14
 -1      2415 6.25339E-03 5.62780E-04-1.59120E-14
 -1      2416 6.18236E-03 5.26172E-04-1.55824E-14
 -1      2417 6.68205E-03 5.59493E-04-1.80791E-14
 -1      2418 6.53910E-03 5.60683E-04-1.73428E-14
 -1      2419 6.46807E-03 5.24160E-04-1.69977E-14
 -1      2420 6.96815E-03 5.56750E-04-1.95926E-14
 -1      2421 6.82506E-03 5.58184E-04-1.88282E-14
 -1      2422 6.75397E-03 5.21773E-04-1.84667E-14
 -1      2423 7.25461E-03 5.53432E-04-2.11621E-14
 -1      2424 7.11133E-03 5.55168E-04-2.03702E-14
 -1      2425 7.04012E-03 5.18895E-04-1.99907E-14
 -1      2426 7.54155E-03 5.49423E-04-2.27856E-14
 -1      2427 7.39801E-03 5.51517E-04-2.19676E-14
 -1      2428 7.32658E-03 5.15407E-04-2.15728E-14
 -1      2429 7.82914E-03 5.44625E-04-2.44644E-14
 -1      2430 7.68525E-03 5.47124E-04-2.36184E-14
 -1      2431 7.61347E-03 5.11194E-04-2.32089E-14
 -1      2432 8.11758E-03 5.38972E-04-2.61962E-14
 -1      2433 7.97323E-03 5.41903E-04-2.53234E-14
 -1      2434 7.90091E-03 5.06161E-04-2.48979E-14
 -1      2435 8.40714E-03 5.32464E-04-2.79820E-14
 -1      2436 8.26219E-03 5.35818E-04-2.70829E-14
 -1      2437 8.18907E-03 5.00249E-04-2.66416E-14
 -1      2438 8.69814E-03 5.25202E-04-2.98214E-14
 -1      2439 8.55242E-03 5.28911E-04-2.88953E-14
 -1      2440 8.47817E-03 4.93473E-04-2.84386E-14
 -1      2441 8.99097E-03 5.17451E-04-3.17110E-14
 -1      2442 8.84428E-03 5.21360E-04-3.07601E-14
 -1      2443 8.76845E-03 4.85957E-04-3.02865E-14
 -1      2444 9.28609E-03 5.09722E-04-3.36458E-14
 -1      2445 9.13819E-03 5.13538E-04-3.26728E-14
 -1      2446 9.06022E-03 4.78007E-04-3.21836E-14
 -1      2447 9.58400E-03 5.02882E-04-3.56269E-14
 -1      2448 9.43463E-03 5.06121E-04-3.46311E-14
 -1      2449 9.35382E-03 4.70189E-04-3.41291E-14
 -1      2450 9.88527E-03 4.98308E-04-3.76499E-14
 -1      2451 9.73415E-03 5.00208E-04-3.66331E-14
 -1      2452 9.64967E-03 4.63447E-04-3.61178E-14
 -1      2453 1.01905E-02 4.98072E-04-3.97122E-14
 -1      2454 1.00373E-02 4.97499E-04-3.86765E-14
 -1      2455 9.94822E-03 4.59258E-04-3.81486E-14
 -1      2456 1.05003E-02 5.05176E-04-4.18103E-14
 -1      2457 1.03448E-02 5.00499E-04-4.07563E-14
 -1      2458 1.02500E-02 4.59824E-04-4.02181E-14
 -1      2459 1.08153E-02 5.23773E-04-4.39408E-14
 -1      2460 1.06571E-02 5.12756E-04-4.28720E-14
 -1      2461 1.05558E-02 4.68287E-04-4.23210E-14
 -1      2462 1.11359E-02 5.59316E-04-4.60977E-14
 -1      2463 1.09749E-02 5.39064E-04-4.50163E-14
 -1      2464 1.08664E-02 4.88954E-04-4.44533E-14
 -1      2465 1.14625E-02 6.18423E-04-4.82798E-14
 -1      2466 1.12986E-02 5.85496E-04-4.71854E-14
 -1      2467 1.11829E-02 5.27428E-04-4.66126E-14
 -1      2468 1.17950E-02 7.08084E-04-5.04811E-14
 -1      2469 1.16283E-02 6.59010E-04-4.93783E-14
 -1      2470 1.15068E-02 5.90481E-04-4.87968E-14
 -1      2471 1.21320E-02 8.33594E-04-5.26897E-14
 -1      2472 1.19635E-02 7.66129E-04-5.15845E-14
 -1      2473 1.18394E-02 6.85308E-04-5.09939E-14
 -1      2474 1.24698E-02 9.94416E-04-5.48984E-14
 -1      2475 1.23016E-02 9.09925E-04-5.37951E-14
 -1      2476 1.21810E-02 8.17477E-04-5.32002E-14
 -1      2477 1.28006E-02 1.17783E-03-5.71025E-14
 -1      2478 1.26371E-02 1.08476E-03-5.60010E-14
 -1      2479 1.25282E-02 9.86515E-04-5.54047E-14
 -1      2480 1.31131E-02 1.35238E-03-5.93042E-14
 -1      2481 1.29599E-02 1.26926E-03-5.82052E-14
 -1      2482 1.28716E-02 1.17846E-03-5.76081E-14
 -1      2483 1.33971E-02 1.46750E-03-6.14912E-14
 -1      2484 1.32583E-02 1.42108E-03-6.04003E-14
 -1      2485 1.31961E-02 1.35669E-03-5.98052E-14
 -1      2486 1.36522E-02 1.47136E-03-6.36754E-14
 -1      2487 1.35264E-02 1.48639E-03-6.25823E-14
 -1      2488 1.34877E-02 1.46371E-03-6.19948E-14
 -1      2489 1.38928E-02 1.33938E-03-6.58491E-14
 -1      2490 1.37711E-02 1.42160E-03-6.47644E-14
 -1      2491 1.37465E-02 1.44099E-03-6.41787E-14
 -1      2492 1.40200E-02 1.22597E-03-6.69769E-14
 -1      2493 1.52456E-02 9.25015E-04-6.74501E-14
 -1      2494 1.42526E-02 1.23710E-03-6.63578E-14
 -1      2495 1.41451E-02 1.23291E-03-6.64025E-14
 -1      2496 1.40885E-02-9.83125E-04-6.59667E-14
 -1      2497 1.41540E-02-9.59612E-04-6.60381E-14
 -1      2498 1.40428E-02-1.01084E-03-6.60649E-14
 -1      2499 1.43064E-02-9.11068E-04-6.63035E-14
 -1      2500 1.44686E-02-8.97350E-04-6.63761E-14
 -1      2501 1.46065E-02-1.00937E-03-6.58977E-14
 -1      2502 1.41375E-02-1.05991E-03-6.53635E-14
 -1      2503 1.37573E-02-1.31529E-03-6.13186E-14
 -1      2504 1.35782E-02-1.22104E-03-6.04436E-14
 -1      2505 1.30246E-02-8.41256E-04-5.83357E-14
 -1      2506 1.28281E-02-7.00824E-04-5.77670E-14
 -1      2507 5.46539E-04-2.28880E-05-2.19483E-16
 -1      2508 5.47000E-04-3.89203E-05-2.18453E-16
 -1      2509 6.62452E-04-5.57880E-05-2.94469E-16
 -1      2510 6.61214E-04-1.76962E-05-2.97492E-16
 -1      2511 1.41988E-02 1.52141E-03-6.42730E-14
 -1      2512 1.43594E-02 1.47099E-03-6.49765E-14
 -1      2513 1.38651E-02 1.50441E-03-6.26558E-14
 -1      2514 1.40076E-02 1.53429E-03-6.33930E-14
 -1      2515 1.35393E-02 1.33791E-03-6.11147E-14
 -1      2516 1.36975E-02 1.43426E-03-6.18386E-14
 -1      2517 1.26402E-02 6.96289E-04-5.79255E-14
 -1      2518 1.28234E-02 8.22949E-04-5.84610E-14
 -1      2519 1.21634E-02 4.09082E-04-5.66669E-14
 -1      2520 1.23967E-02 5.41683E-04-5.72347E-14
 -1      2521 1.17998E-02 2.34648E-04-5.59022E-14
 -1      2522 1.19488E-02 3.00528E-04-5.62271E-14
 -1      2523 1.15006E-02 1.16168E-04-5.52381E-14
 -1      2524 1.16272E-02 1.61587E-04-5.54784E-14
 -1      2525 1.14843E-02 7.77858E-06-5.50714E-14
 -1      2526 1.14165E-02 3.64169E-05-5.50121E-14
 -1      2527 1.17260E-02-8.52713E-05-5.52485E-14
 -1      2528 1.16019E-02-3.90000E-05-5.50509E-14
 -1      2529 1.20475E-02-2.31099E-04-5.57430E-14
 -1      2530 1.18760E-02-1.50955E-04-5.54947E-14
 -1      2531 1.17740E-02-1.11290E-04-5.46950E-14
 -1      2532 1.33850E-02-1.10072E-03-5.96048E-14
 -1      2533 1.32329E-02-9.90157E-04-5.90046E-14
 -1      2534 1.40282E-02-1.36393E-03-6.28257E-14
 -1      2535 1.39163E-02-1.35897E-03-6.21745E-14
 -1      2536 1.14017E-02 6.45531E-05-5.50901E-14
 -1      2537 1.14271E-02 8.26174E-05-5.51762E-14
 -1      2538 7.57959E-04 3.34150E-04-2.16624E-16
 -1      2539 6.11529E-04 2.84799E-04-1.44795E-16
 -1      2540 5.84799E-04 2.58029E-04-1.48427E-16
 -1      2541 8.13779E-04 3.22816E-04-2.78084E-16
 -1      2542 1.54311E-02-3.38052E-04-6.81585E-14
 -1      2543 1.43544E-02 1.39770E-03-6.54534E-14
 -1      2544 1.45133E-02 1.38308E-03-6.56397E-14
 -1      2545 6.70212E-04-1.37905E-04-2.77854E-16
 -1      2546 5.54587E-04-1.26163E-04-2.02299E-16
 -1      2547 5.57767E-04-1.46146E-04-1.95956E-16
 -1      2548 5.72290E-04 2.27831E-04-1.62956E-16
 -1      2549 6.89574E-04 2.51174E-04-2.34364E-16
 -1      2550 5.71851E-04-1.85136E-04-1.85344E-16
 -1      2551 1.34038E-02 1.25581E-03-6.04919E-14
 -1      2552 1.34654E-02 1.31877E-03-6.07783E-14
 -1      2553 1.32712E-02 1.17048E-03-5.98672E-14
 -1      2554 1.39969E-02 1.26415E-03-6.63966E-14
 -1      2555 1.40110E-02-1.04109E-03-6.55590E-14
 -1      2556 1.39338E-02-1.12541E-03-6.46904E-14
 -1      2557 1.41714E-02-1.27230E-03-6.40856E-14
 -1      2558 1.41091E-02-1.33288E-03-6.34550E-14
 -1      2559 1.39792E-02-1.32591E-03-6.30572E-14
 -1      2560 1.34668E-02-1.17089E-03-5.98816E-14
 -1      2561 1.46326E-02 1.19236E-03-6.65952E-14
 -1      2562 1.44594E-02 1.18833E-03-6.66275E-14
 -1      2563 1.40228E-02 1.26573E-03-6.62483E-14
 -1      2564 1.37769E-02-1.32713E-03-6.15730E-14
 -1      2565 1.39631E-02 1.35401E-03-6.54213E-14
 -1      2566 1.31084E-02-9.13081E-04-5.83767E-14
 -1      2567 1.26815E-02-6.06334E-04-5.71319E-14
 -1      2568 1.21660E-02-2.92650E-04-5.57453E-14
 -1      2569 1.20234E-02-2.32428E-04-5.49412E-14
 -1      2570 1.22769E-02-3.60563E-04-5.57467E-14
 -1      2571 1.15207E-02-1.20073E-05-5.44712E-14
 -1      2572 1.14514E-02 9.66938E-05-5.47088E-14
 -1      2573 1.16833E-02 1.84071E-04-5.51901E-14
 -1      2574 1.29495E-02 9.20443E-04-5.87188E-14
 -1      2575 1.20565E-02 3.54327E-04-5.60491E-14
 -1      2576 1.24889E-02 6.04005E-04-5.71750E-14
 -1      2577 1.37491E-02 1.46959E-03-6.22184E-14
 -1      2578 1.40548E-02 1.51705E-03-6.39121E-14
 -1      2579 1.47030E-02 1.24704E-03-6.63422E-14
 -1      2580 1.48802E-02 1.13030E-03-6.68227E-14
 -1      2581 1.13941E-02 4.80821E-05-5.45706E-14
 -1      2582 1.42579E-02 1.32336E-03-6.58448E-14
 -1      2583 7.80129E-04 7.73017E-05-3.84079E-16
 -1      2584 7.78861E-04 5.54487E-05-3.86532E-16
 -1      2585 7.78010E-04 3.35459E-05-3.87887E-16
 -1      2586 7.77585E-04 1.18910E-05-3.88483E-16
 -1      2587 8.96409E-04 4.96612E-05-4.90005E-16
 -1      2588 7.91517E-04 1.73074E-04-3.63953E-16
 -1      2589 7.87498E-04 1.47664E-04-3.71068E-16
 -1      2590 8.03409E-04 2.28263E-04-3.44343E-16
 -1      2591 7.96772E-04 1.99875E-04-3.55049E-16
 -1      2592 9.14822E-04 2.07764E-04-4.57411E-16
 -1      2593 6.88571E-04-2.03929E-04-2.59219E-16
 -1      2594 1.03372E-03-3.14153E-04-4.88623E-16
 -1      2595 1.17697E-03-3.40271E-04-6.19445E-16
 -1      2596 1.12987E-03 3.61875E-04-5.59990E-16
 -1      2597 9.86263E-04 3.32812E-04-4.34833E-16
 -1      2598 1.44782E-02-1.10961E-03-6.53998E-14
 -1      2599 1.43281E-02-1.15047E-03-6.50582E-14
 -1      2600 1.37735E-02-1.32686E-03-6.18157E-14
 -1      2601 1.36520E-02-1.29069E-03-6.09642E-14
 -1      2602 1.32018E-03-3.62687E-04-7.66870E-16
 -1      2603 1.46341E-03-3.81666E-04-9.30869E-16
 -1      2604 1.23841E-03-3.19004E-04-7.11033E-16
 -1      2605 1.60646E-03-3.97749E-04-1.11110E-15
 -1      2606 1.74940E-03-4.11163E-04-1.30781E-15
 -1      2607 1.52499E-03-3.55340E-04-1.04260E-15
 -1      2608 1.89218E-03-4.22377E-04-1.52073E-15
 -1      2609 2.03484E-03-4.31580E-04-1.74947E-15
 -1      2610 1.81168E-03-3.81250E-04-1.43931E-15
 -1      2611 2.17739E-03-4.39148E-04-1.99474E-15
 -1      2612 2.31986E-03-4.45234E-04-2.25552E-15
 -1      2613 2.09814E-03-3.99123E-04-1.90058E-15
 -1      2614 2.46228E-03-4.50127E-04-2.53226E-15
 -1      2615 2.60465E-03-4.53952E-04-2.82508E-15
 -1      2616 2.38431E-03-4.10983E-04-2.42479E-15
 -1      2617 2.74701E-03-4.56926E-04-3.13372E-15
 -1      2618 2.88935E-03-4.59145E-04-3.45730E-15
 -1      2619 2.67026E-03-4.18452E-04-3.01240E-15
 -1      2620 3.03170E-03-4.60772E-04-3.79617E-15
 -1      2621 3.17405E-03-4.61881E-04-4.15085E-15
 -1      2622 2.95603E-03-4.22795E-04-3.66166E-15
 -1      2623 3.31643E-03-4.62590E-04-4.52135E-15
 -1      2624 3.45882E-03-4.62954E-04-4.90753E-15
 -1      2625 3.24170E-03-4.24969E-04-4.37301E-15
 -1      2626 3.60125E-03-4.63058E-04-5.30777E-15
 -1      2627 3.74369E-03-4.62943E-04-5.72274E-15
 -1      2628 3.52731E-03-4.25689E-04-5.14646E-15
 -1      2629 3.88618E-03-4.62667E-04-6.15199E-15
 -1      2630 4.02868E-03-4.62258E-04-6.59564E-15
 -1      2631 3.81289E-03-4.25470E-04-5.97862E-15
 -1      2632 4.17122E-03-4.61756E-04-7.05404E-15
 -1      2633 4.31378E-03-4.61180E-04-7.52701E-15
 -1      2634 4.09846E-03-4.24677E-04-6.86797E-15
 -1      2635 4.45638E-03-4.60554E-04-8.01411E-15
 -1      2636 4.59899E-03-4.59890E-04-8.51616E-15
 -1      2637 4.38404E-03-4.23556E-04-7.81520E-15
 -1      2638 4.74164E-03-4.59201E-04-9.03253E-15
 -1      2639 4.88431E-03-4.58494E-04-9.56266E-15
 -1      2640 4.66963E-03-4.22262E-04-8.82016E-15
 -1      2641 5.02700E-03-4.57774E-04-1.01079E-14
 -1      2642 5.16971E-03-4.57042E-04-1.06676E-14
 -1      2643 4.95525E-03-4.20884E-04-9.88238E-15
 -1      2644 5.31244E-03-4.56296E-04-1.12416E-14
 -1      2645 5.45519E-03-4.55537E-04-1.18304E-14
 -1      2646 5.24088E-03-4.19456E-04-1.10036E-14
 -1      2647 5.59795E-03-4.54756E-04-1.24330E-14
 -1      2648 5.74074E-03-4.53950E-04-1.30509E-14
 -1      2649 5.52654E-03-4.17974E-04-1.21819E-14
 -1      2650 5.88355E-03-4.53110E-04-1.36837E-14
 -1      2651 6.02637E-03-4.52228E-04-1.43313E-14
 -1      2652 5.81223E-03-4.16402E-04-1.34186E-14
 -1      2653 6.16921E-03-4.51291E-04-1.49949E-14
 -1      2654 6.31208E-03-4.50291E-04-1.56733E-14
 -1      2655 6.09794E-03-4.14681E-04-1.47168E-14
 -1      2656 6.45496E-03-4.49213E-04-1.63660E-14
 -1      2657 6.59787E-03-4.48048E-04-1.70741E-14
 -1      2658 6.38369E-03-4.12732E-04-1.60750E-14
 -1      2659 6.74081E-03-4.46776E-04-1.77975E-14
 -1      2660 6.88378E-03-4.45390E-04-1.85330E-14
 -1      2661 6.66948E-03-4.10458E-04-1.74911E-14
 -1      2662 7.02678E-03-4.43869E-04-1.92843E-14
 -1      2663 7.16982E-03-4.42205E-04-2.00509E-14
 -1      2664 6.95531E-03-4.07754E-04-1.89660E-14
 -1      2665 7.31289E-03-4.40377E-04-2.08314E-14
 -1      2666 7.45603E-03-4.38378E-04-2.16266E-14
 -1      2667 7.24119E-03-4.04507E-04-2.04976E-14
 -1      2668 7.59921E-03-4.36190E-04-2.24360E-14
 -1      2669 7.74246E-03-4.33807E-04-2.32582E-14
 -1      2670 7.52714E-03-4.00608E-04-2.20887E-14
 -1      2671 7.88577E-03-4.31217E-04-2.40927E-14
 -1      2672 8.02917E-03-4.28417E-04-2.49390E-14
 -1      2673 7.81316E-03-3.95959E-04-2.37333E-14
 -1      2674 8.17264E-03-4.25405E-04-2.57993E-14
 -1      2675 8.31624E-03-4.22186E-04-2.66710E-14
 -1      2676 8.09928E-03-3.90495E-04-2.54275E-14
 -1      2677 8.45993E-03-4.18772E-04-2.75534E-14
 -1      2678 8.60377E-03-4.15178E-04-2.84466E-14
 -1      2679 8.38553E-03-3.84205E-04-2.71703E-14
 -1      2680 8.74772E-03-4.11441E-04-2.93478E-14
 -1      2681 8.89187E-03-4.07592E-04-3.02595E-14
 -1      2682 8.67193E-03-3.77173E-04-2.89556E-14
 -1      2683 9.03617E-03-4.03702E-04-3.11825E-14
 -1      2684 9.18071E-03-3.99827E-04-3.21141E-14
 -1      2685 8.95855E-03-3.69617E-04-3.07818E-14
 -1      2686 9.32545E-03-3.96083E-04-3.30573E-14
 -1      2687 9.47050E-03-3.92563E-04-3.40079E-14
 -1      2688 9.24547E-03-3.61959E-04-3.26484E-14
 -1      2689 9.61582E-03-3.89443E-04-3.49700E-14
 -1      2690 9.76154E-03-3.86869E-04-3.59436E-14
 -1      2691 9.53286E-03-3.54901E-04-3.45549E-14
 -1      2692 9.90765E-03-3.85091E-04-3.69237E-14
 -1      2693 1.00543E-02-3.84329E-04-3.79156E-14
 -1      2694 9.82099E-03-3.49525E-04-3.65004E-14
 -1      2695 1.02015E-02-3.84920E-04-3.89169E-14
 -1      2696 1.03495E-02-3.87185E-04-3.99288E-14
 -1      2697 1.01104E-02-3.47408E-04-3.84866E-14
 -1      2698 1.04983E-02-3.91553E-04-4.09495E-14
 -1      2699 1.06481E-02-3.98490E-04-4.19766E-14
 -1      2700 1.04018E-02-3.50753E-04-4.05121E-14
 -1      2701 1.07993E-02-4.08494E-04-4.30114E-14
 -1      2702 1.09519E-02-4.22236E-04-4.40523E-14
 -1      2703 1.06968E-02-3.62538E-04-4.25704E-14
 -1      2704 1.11066E-02-4.40239E-04-4.51000E-14
 -1      2705 1.12633E-02-4.63436E-04-4.61550E-14
 -1      2706 1.09976E-02-3.86680E-04-4.46527E-14
 -1      2707 1.14229E-02-4.92275E-04-4.72139E-14
 -1      2708 1.15851E-02-5.27979E-04-4.82766E-14
 -1      2709 1.13075E-02-4.28237E-04-4.67604E-14
 -1      2710 1.17511E-02-5.70770E-04-4.93475E-14
 -1      2711 1.19202E-02-6.22020E-04-5.04218E-14
 -1      2712 1.16308E-02-4.93514E-04-4.88878E-14
 -1      2713 1.20935E-02-6.81545E-04-5.15016E-14
 -1      2714 1.22690E-02-7.50158E-04-5.25871E-14
 -1      2715 1.19718E-02-5.89919E-04-5.10357E-14
 -1      2716 1.24478E-02-8.26946E-04-5.36782E-14
 -1      2717 1.26262E-02-9.10462E-04-5.47775E-14
 -1      2718 1.23321E-02-7.24454E-04-5.32011E-14
 -1      2719 1.28046E-02-9.98253E-04-5.58838E-14
 -1      2720 1.29781E-02-1.08505E-03-5.69961E-14
 -1      2721 1.27053E-02-8.96973E-04-5.53931E-14
 -1      2722 1.31451E-02-1.16667E-03-5.81140E-14
 -1      2723 1.33034E-02-1.23210E-03-5.92374E-14
 -1      2724 1.30729E-02-1.08805E-03-5.76123E-14
 -1      2725 1.34877E-02-1.27513E-03-6.04775E-14
 -1      2726 1.36326E-02-1.29231E-03-6.16107E-14
 -1      2727 1.98555E-03 4.63194E-04-1.66780E-15
 -1      2728 1.84349E-03 4.52930E-04-1.44092E-15
 -1      2729 2.26930E-03 4.78535E-04-2.17153E-15
 -1      2730 2.12747E-03 4.71675E-04-1.91148E-15
 -1      2731 2.04768E-03 4.31268E-04-1.81654E-15
 -1      2732 8.03124E-04 2.78168E-04-3.08591E-16
 -1      2733 2.55285E-03 4.88485E-04-2.74265E-15
 -1      2734 2.41110E-03 4.84095E-04-2.44891E-15
 -1      2735 2.33280E-03 4.44752E-04-2.33871E-15
 -1      2736 2.83640E-03 4.94575E-04-3.38010E-15
 -1      2737 2.69462E-03 4.91943E-04-3.05292E-15
 -1      2738 2.61769E-03 4.53391E-04-2.92764E-15
 -1      2739 3.12009E-03 4.97962E-04-4.08420E-15
 -1      2740 2.97823E-03 4.96554E-04-3.72379E-15
 -1      2741 2.90248E-03 4.58571E-04-3.58222E-15
 -1      2742 3.40400E-03 4.99508E-04-4.85294E-15
 -1      2743 3.26202E-03 4.98927E-04-4.46062E-15
 -1      2744 3.18726E-03 4.61342E-04-4.30282E-15
 -1      2745 3.68815E-03 4.99843E-04-5.68664E-15
 -1      2746 3.54605E-03 4.99799E-04-5.26181E-15
 -1      2747 3.47211E-03 4.62485E-04-5.08743E-15
 -1      2748 3.97254E-03 4.99414E-04-6.58393E-15
 -1      2749 3.83032E-03 4.99704E-04-6.12767E-15
 -1      2750 3.75705E-03 4.62569E-04-5.93636E-15
 -1      2751 4.25716E-03 4.98532E-04-7.54523E-15
 -1      2752 4.11483E-03 4.99016E-04-7.05633E-15
 -1      2753 4.04209E-03 4.61996E-04-6.84892E-15
 -1      2754 4.54199E-03 4.97401E-04-8.56772E-15
 -1      2755 4.39956E-03 4.97989E-04-8.04853E-15
 -1      2756 4.32724E-03 4.61041E-04-7.82340E-15
 -1      2757 4.82700E-03 4.96142E-04-9.65024E-15
 -1      2758 4.68448E-03 4.96783E-04-9.10186E-15
 -1      2759 4.61248E-03 4.59882E-04-8.85998E-15
 -1      2760 5.11216E-03 4.94817E-04-1.07937E-14
 -1      2761 4.96956E-03 4.95486E-04-1.02136E-14
 -1      2762 4.89782E-03 4.58620E-04-9.95516E-15
 -1      2763 5.39746E-03 4.93439E-04-1.19963E-14
 -1      2764 5.25479E-03 4.94135E-04-1.13876E-14
 -1      2765 5.18325E-03 4.57303E-04-1.11105E-14
 -1      2766 5.68287E-03 4.91985E-04-1.32574E-14
 -1      2767 5.54015E-03 4.92723E-04-1.26198E-14
 -1      2768 5.46875E-03 4.55932E-04-1.23260E-14
 -1      2769 5.96840E-03 4.90404E-04-1.45752E-14
 -1      2770 5.82562E-03 4.91213E-04-1.39089E-14
 -1      2771 5.75432E-03 4.54479E-04-1.35995E-14
 -1      2772 6.25405E-03 4.88621E-04-1.59471E-14
 -1      2773 6.11121E-03 4.89542E-04-1.52546E-14
 -1      2774 6.03996E-03 4.52886E-04-1.49280E-14
 -1      2775 6.53982E-03 4.86545E-04-1.73728E-14
 -1      2776 6.39692E-03 4.87625E-04-1.66529E-14
 -1      2777 6.32567E-03 4.51074E-04-1.63111E-14
 -1      2778 6.82575E-03 4.84069E-04-1.88537E-14
 -1      2779 6.68277E-03 4.85363E-04-1.81072E-14
 -1      2780 6.61148E-03 4.48949E-04-1.77475E-14
 -1      2781 7.11188E-03 4.81074E-04-2.03897E-14
 -1      2782 6.96879E-03 4.82642E-04-1.96143E-14
 -1      2783 6.89738E-03 4.46401E-04-1.92394E-14
 -1      2784 7.39826E-03 4.77443E-04-2.19825E-14
 -1      2785 7.25503E-03 4.79343E-04-2.11782E-14
 -1      2786 7.18342E-03 4.43315E-04-2.07872E-14
 -1      2787 7.68497E-03 4.73061E-04-2.36305E-14
 -1      2788 7.54157E-03 4.75350E-04-2.27999E-14
 -1      2789 7.46962E-03 4.39572E-04-2.23928E-14
 -1      2790 7.97211E-03 4.67839E-04-2.53315E-14
 -1      2791 7.82847E-03 4.70558E-04-2.44743E-14
 -1      2792 7.75603E-03 4.35064E-04-2.40524E-14
 -1      2793 8.25979E-03 4.61730E-04-2.70869E-14
 -1      2794 8.11586E-03 4.64894E-04-2.62025E-14
 -1      2795 8.04270E-03 4.29709E-04-2.57648E-14
 -1      2796 8.54817E-03 4.54764E-04-2.88926E-14
 -1      2797 8.40387E-03 4.58347E-04-2.79837E-14
 -1      2798 8.32969E-03 4.23474E-04-2.75310E-14
 -1      2799 8.83742E-03 4.47096E-04-3.07513E-14
 -1      2800 8.69266E-03 4.51003E-04-2.98166E-14
 -1      2801 8.61710E-03 4.16408E-04-2.93476E-14
 -1      2802 9.12775E-03 4.39068E-04-3.26570E-14
 -1      2803 8.98241E-03 4.43099E-04-3.16987E-14
 -1      2804 8.90501E-03 4.08695E-04-3.12151E-14
 -1      2805 9.41941E-03 4.31296E-04-3.46111E-14
 -1      2806 9.27337E-03 4.35103E-04-3.36275E-14
 -1      2807 9.19354E-03 4.00712E-04-3.31299E-14
 -1      2808 9.71271E-03 4.24792E-04-3.66070E-14
 -1      2809 9.56581E-03 4.27813E-04-3.56032E-14
 -1      2810 9.48285E-03 3.93120E-04-3.50912E-14
 -1      2811 1.00080E-02 4.21108E-04-3.86473E-14
 -1      2812 9.86007E-03 4.22487E-04-3.76238E-14
 -1      2813 9.77316E-03 3.86977E-04-3.70982E-14
 -1      2814 1.03060E-02 4.22521E-04-4.07206E-14
 -1      2815 1.01566E-02 4.21016E-04-3.96787E-14
 -1      2816 1.00648E-02 3.83873E-04-3.91430E-14
 -1      2817 1.06073E-02 4.32240E-04-4.28276E-14
 -1      2818 1.04562E-02 4.26111E-04-4.17704E-14
 -1      2819 1.03585E-02 3.86106E-04-4.12227E-14
 -1      2820 1.09134E-02 4.54619E-04-4.49638E-14
 -1      2821 1.07597E-02 4.41524E-04-4.38920E-14
 -1      2822 1.06552E-02 3.96862E-04-4.33334E-14
 -1      2823 1.12261E-02 4.95297E-04-4.71256E-14
 -1      2824 1.10689E-02 4.72231E-04-4.60416E-14
 -1      2825 1.09568E-02 4.20427E-04-4.54732E-14
 -1      2826 1.15482E-02 5.61156E-04-4.93089E-14
 -1      2827 1.13860E-02 5.24514E-04-4.82151E-14
 -1      2828 1.12661E-02 4.62386E-04-4.76361E-14
 -1      2829 1.18827E-02 6.59762E-04-5.15053E-14
 -1      2830 1.17140E-02 6.05725E-04-5.04072E-14
 -1      2831 1.15873E-02 5.29770E-04-4.98200E-14
 -1      2832 1.22316E-02 7.97571E-04-5.37085E-14
 -1      2833 1.20558E-02 7.23282E-04-5.26069E-14
 -1      2834 1.19254E-02 6.30901E-04-5.20138E-14
 -1      2835 1.25919E-02 9.75092E-04-5.59077E-14
 -1      2836 1.24114E-02 8.81638E-04-5.48081E-14
 -1      2837 1.22842E-02 7.74104E-04-5.42124E-14
 -1      2838 1.29519E-02 1.17842E-03-5.81100E-14
 -1      2839 1.27737E-02 1.07587E-03-5.70089E-14
 -1      2840 1.26605E-02 9.62632E-04-5.64117E-14
 -1      2841 1.32919E-02 1.36467E-03-6.03070E-14
 -1      2842 1.31263E-02 1.27832E-03-5.92095E-14
 -1      2843 1.30399E-02 1.18176E-03-5.86099E-14
 -1      2844 1.35908E-02 1.46520E-03-6.24980E-14
 -1      2845 1.34456E-02 1.43175E-03-6.14032E-14
 -1      2846 1.33943E-02 1.37990E-03-6.08092E-14
 -1      2847 1.38463E-02 1.42292E-03-6.45046E-14
 -1      2848 1.37151E-02 1.46595E-03-6.34135E-14
 -1      2849 1.36930E-02 1.47158E-03-6.28261E-14
 -1      2850 1.39602E-02 1.42725E-03-6.46601E-14
 -1      2851 1.13855E-02 3.85476E-05-5.39527E-14
 -1      2852 1.13723E-02 5.66664E-05-5.40294E-14
 -1      2853 1.31509E-02-9.69264E-04-5.83374E-14
 -1      2854 1.29759E-02-8.32638E-04-5.76722E-14
 -1      2855 1.41522E-02 1.40785E-03-6.51830E-14
 -1      2856 1.35042E-02-1.21869E-03-6.00766E-14
 -1      2857 1.33501E-02-1.11722E-03-5.92404E-14
 -1      2858 1.27512E-02-6.68325E-04-5.69579E-14
 -1      2859 1.25331E-02-5.16964E-04-5.63835E-14
 -1      2860 1.70127E-03 4.40462E-04-1.23061E-15
 -1      2861 1.55881E-03 4.25586E-04-1.03724E-15
 -1      2862 1.76217E-03 4.11142E-04-1.36048E-15
 -1      2863 7.84340E-04 1.23414E-04-3.76530E-16
 -1      2864 7.81942E-04 9.99840E-05-3.80799E-16
 -1      2865 8.99538E-04 9.94119E-05-4.84327E-16
 -1      2866 9.05301E-04 1.51539E-04-4.74054E-16
 -1      2867 1.41613E-03 4.07766E-04-8.61141E-16
 -1      2868 1.27307E-03 3.86738E-04-7.01967E-16
 -1      2869 1.18970E-03 3.41419E-04-6.48787E-16
 -1      2870 1.47614E-03 3.82116E-04-9.70632E-16
 -1      2871 7.81673E-04-9.79288E-05-3.78658E-16
 -1      2872 7.83996E-04-1.21274E-04-3.73426E-16
 -1      2873 1.39956E-02 1.47588E-03-6.42665E-14
 -1      2874 1.38606E-02 1.49573E-03-6.33872E-14
 -1      2875 1.19240E-02 2.96333E-04-5.52498E-14
 -1      2876 1.21103E-02 3.92824E-04-5.56838E-14
 -1      2877 1.23636E-02 5.40713E-04-5.64063E-14
 -1      2878 1.25774E-02 6.78196E-04-5.70926E-14
 -1      2879 1.28418E-02 8.58546E-04-5.80798E-14
 -1      2880 1.30572E-02 1.01640E-03-5.89323E-14
 -1      2881 1.13978E-02 7.86300E-05-5.40894E-14
 -1      2882 1.14597E-02 1.02917E-04-5.41479E-14
 -1      2883 1.13574E-02 6.52831E-05-5.34700E-14
 -1      2884 1.18144E-02-1.41487E-04-5.42423E-14
 -1      2885 1.16841E-02-8.74879E-05-5.39988E-14
 -1      2886 1.15269E-02-2.51613E-05-5.37294E-14
 -1      2887 1.14339E-02 1.02396E-05-5.37510E-14
 -1      2888 1.15960E-02 1.56844E-04-5.44087E-14
 -1      2889 1.17500E-02 2.15893E-04-5.48284E-14
 -1      2890 1.18008E-02 2.55695E-04-5.44636E-14
 -1      2891 1.41830E-02-1.18454E-03-6.46593E-14
 -1      2892 1.37765E-02-1.29905E-03-6.23553E-14
 -1      2893 1.37347E-02-1.26202E-03-6.27584E-14
 -1      2894 8.95379E-04 1.00965E-06-4.91347E-16
 -1      2895 7.77555E-04-9.71672E-06-3.88212E-16
 -1      2896 7.77921E-04-3.13551E-05-3.87114E-16
 -1      2897 1.31429E-02 1.10274E-03-5.92235E-14
 -1      2898 1.35280E-02-1.25005E-03-6.03203E-14
 -1      2899 1.38613E-02-1.19582E-03-6.38939E-14
 -1      2900 1.13750E-02 2.26939E-05-5.32096E-14
 -1      2901 1.37305E-02 1.47526E-03-6.23426E-14
 -1      2902 1.37226E-02 1.47475E-03-6.27008E-14
 -1      2903 1.35740E-02 1.43672E-03-6.17813E-14
 -1      2904 1.35990E-02 1.41162E-03-6.15282E-14
 -1      2905 1.15553E-02-5.31887E-05-5.32763E-14
 -1      2906 1.39462E-02-1.16829E-03-6.43033E-14
 -1      2907 1.14989E-02 1.26357E-04-5.37880E-14
 -1      2908 1.15384E-02 1.55224E-04-5.34236E-14
 -1      2909 1.14176E-02 1.07028E-04-5.31664E-14
 -1      2910 1.40703E-02-1.16845E-03-6.45663E-14
 -1      2911 1.23604E-02-4.30759E-04-5.55727E-14
 -1      2912 7.78704E-04-5.31308E-05-3.85217E-16
 -1      2913 7.79928E-04-7.53112E-05-3.82385E-16
 -1      2914 8.99254E-04-9.70628E-05-4.81941E-16
 -1      2915 8.96280E-04-4.75097E-05-4.88691E-16
 -1      2916 1.19946E-02-2.46891E-04-5.42400E-14
 -1      2917 1.19052E-02-1.91238E-04-5.42413E-14
 -1      2918 1.17953E-02-1.63544E-04-5.35436E-14
 -1      2919 9.04836E-04-1.49012E-04-4.69744E-16
 -1      2920 7.87071E-04-1.45412E-04-3.67043E-16
 -1      2921 7.90986E-04-1.70577E-04-3.59427E-16
 -1      2922 8.64875E-04 2.66485E-04-3.73169E-16
 -1      2923 1.34780E-02 1.35025E-03-6.09066E-14
 -1      2924 1.26916E-02 7.80443E-04-5.73066E-14
 -1      2925 1.22025E-02 4.67138E-04-5.56004E-14
 -1      2926 1.38920E-02-1.29928E-03-6.29659E-14
 -1      2927 1.32151E-02-1.04560E-03-5.85296E-14
 -1      2928 9.82961E-04 2.75718E-04-4.80044E-16
 -1      2929 7.88902E-04-2.52392E-04-3.07995E-16
 -1      2930 9.20080E-04-2.88178E-04-3.98241E-16
 -1      2931 9.82163E-04-2.73178E-04-4.70855E-16
 -1      2932 1.28174E-02-7.41302E-04-5.69170E-14
 -1      2933 7.69948E-04-2.02420E-04-3.25112E-16
 -1      2934 1.04026E-03 2.43207E-04-5.61169E-16
 -1      2935 1.03362E-03 2.11486E-04-5.73096E-16
 -1      2936 1.28435E-02-8.07239E-04-5.66997E-14
 -1      2937 1.26501E-02-6.61350E-04-5.59909E-14
 -1      2938 1.33333E-02 1.27498E-03-6.01505E-14
 -1      2939 1.34517E-02 1.36736E-03-6.08970E-14
 -1      2940 1.32320E-02-1.09951E-03-5.85648E-14
 -1      2941 1.30607E-02-9.68307E-04-5.76665E-14
 -1      2942 1.34449E-02-1.24108E-03-5.99673E-14
 -1      2943 1.44457E-03-3.13683E-04-9.73708E-16
 -1      2944 1.58807E-03-3.28156E-04-1.15755E-15
 -1      2945 1.73166E-03-3.40410E-04-1.35768E-15
 -1      2946 1.87532E-03-3.50624E-04-1.57377E-15
 -1      2947 1.65233E-03-3.00088E-04-1.27571E-15
 -1      2948 2.01898E-03-3.59123E-04-1.80545E-15
 -1      2949 2.16261E-03-3.66063E-04-2.05329E-15
 -1      2950 1.94010E-03-3.19315E-04-1.71072E-15
 -1      2951 2.30621E-03-3.71722E-04-2.31678E-15
 -1      2952 2.44975E-03-3.76225E-04-2.59555E-15
 -1      2953 2.22812E-03-3.32461E-04-2.20829E-15
 -1      2954 2.59324E-03-3.79794E-04-2.89063E-15
 -1      2955 2.73666E-03-3.82531E-04-3.20136E-15
 -1      2956 2.51607E-03-3.41029E-04-2.76873E-15
 -1      2957 2.88004E-03-3.84607E-04-3.52675E-15
 -1      2958 3.02336E-03-3.86099E-04-3.86747E-15
 -1      2959 2.80381E-03-3.46258E-04-3.39140E-15
 -1      2960 3.16663E-03-3.87138E-04-4.22474E-15
 -1      2961 3.30985E-03-3.87780E-04-4.59713E-15
 -1      2962 3.09129E-03-3.49125E-04-4.07613E-15
 -1      2963 3.45304E-03-3.88122E-04-4.98435E-15
 -1      2964 3.59618E-03-3.88204E-04-5.38702E-15
 -1      2965 3.37849E-03-3.50372E-04-4.82250E-15
 -1      2966 3.73930E-03-3.88096E-04-5.80407E-15
 -1      2967 3.88237E-03-3.87826E-04-6.23523E-15
 -1      2968 3.66544E-03-3.50550E-04-5.62920E-15
 -1      2969 4.02543E-03-3.87443E-04-6.68088E-15
 -1      2970 4.16846E-03-3.86965E-04-7.14145E-15
 -1      2971 3.95216E-03-3.50054E-04-6.49402E-15
 -1      2972 4.31147E-03-3.86425E-04-7.61610E-15
 -1      2973 4.45445E-03-3.85833E-04-8.10480E-15
 -1      2974 4.23868E-03-3.49158E-04-7.41617E-15
 -1      2975 4.59742E-03-3.85211E-04-8.60676E-15
 -1      2976 4.74038E-03-3.84563E-04-9.12387E-15
 -1      2977 4.52503E-03-3.48042E-04-8.39433E-15
 -1      2978 4.88333E-03-3.83900E-04-9.65684E-15
 -1      2979 5.02626E-03-3.83224E-04-1.02033E-14
 -1      2980 4.81125E-03-3.46816E-04-9.42979E-15
 -1      2981 5.16918E-03-3.82537E-04-1.07638E-14
 -1      2982 5.31210E-03-3.81839E-04-1.13397E-14
 -1      2983 5.09735E-03-3.45534E-04-1.05246E-14
 -1      2984 5.45501E-03-3.81127E-04-1.19297E-14
 -1      2985 5.59791E-03-3.80397E-04-1.25342E-14
 -1      2986 5.38336E-03-3.44209E-04-1.16769E-14
 -1      2987 5.74081E-03-3.79642E-04-1.31546E-14
 -1      2988 5.88370E-03-3.78856E-04-1.37886E-14
 -1      2989 5.66930E-03-3.42822E-04-1.28888E-14
 -1      2990 6.02659E-03-3.78030E-04-1.44383E-14
 -1      2991 6.16947E-03-3.77155E-04-1.51036E-14
 -1      2992 5.95516E-03-3.41329E-04-1.41602E-14
 -1      2993 6.31235E-03-3.76219E-04-1.57834E-14
 -1      2994 6.45523E-03-3.75213E-04-1.64771E-14
 -1      2995 6.24095E-03-3.39666E-04-1.54914E-14
 -1      2996 6.59809E-03-3.74121E-04-1.71857E-14
 -1      2997 6.74095E-03-3.72934E-04-1.79093E-14
 -1      2998 6.52667E-03-3.37753E-04-1.68810E-14
 -1      2999 6.88381E-03-3.71636E-04-1.86468E-14
 -1      3000 7.02665E-03-3.70216E-04-1.93981E-14
 -1      3001 6.81230E-03-3.35498E-04-1.83274E-14
 -1      3002 7.16948E-03-3.68657E-04-2.01654E-14
 -1      3003 7.31231E-03-3.66948E-04-2.09465E-14
 -1      3004 7.09781E-03-3.32801E-04-1.98327E-14
 -1      3005 7.45511E-03-3.65075E-04-2.17414E-14
 -1      3006 7.59790E-03-3.63027E-04-2.25519E-14
 -1      3007 7.38316E-03-3.29557E-04-2.13957E-14
 -1      3008 7.74066E-03-3.60792E-04-2.33747E-14
 -1      3009 7.88341E-03-3.58362E-04-2.42093E-14
 -1      3010 7.66832E-03-3.25669E-04-2.30161E-14
 -1      3011 8.02612E-03-3.55733E-04-2.50555E-14
 -1      3012 8.16881E-03-3.52899E-04-2.59146E-14
 -1      3013 7.95320E-03-3.21057E-04-2.46852E-14
 -1      3014 8.31145E-03-3.49869E-04-2.67868E-14
 -1      3015 8.45406E-03-3.46641E-04-2.76701E-14
 -1      3016 8.23774E-03-3.15676E-04-2.64041E-14
 -1      3017 8.59662E-03-3.43243E-04-2.85633E-14
 -1      3018 8.73915E-03-3.39684E-04-2.94667E-14
 -1      3019 8.52185E-03-3.09541E-04-2.81696E-14
 -1      3020 8.88161E-03-3.36015E-04-3.03805E-14
 -1      3021 9.02405E-03-3.32263E-04-3.13045E-14
 -1      3022 8.80543E-03-3.02759E-04-2.99798E-14
 -1      3023 9.16643E-03-3.28512E-04-3.22385E-14
 -1      3024 9.30881E-03-3.24811E-04-3.31835E-14
 -1      3025 9.08842E-03-2.95574E-04-3.18292E-14
 -1      3026 9.45114E-03-3.21290E-04-3.41378E-14
 -1      3027 9.59352E-03-3.18033E-04-3.51028E-14
 -1      3028 9.37078E-03-2.88416E-04-3.37197E-14
 -1      3029 9.73592E-03-3.15221E-04-3.60761E-14
 -1      3030 9.87846E-03-3.12991E-04-3.70599E-14
 -1      3031 9.65257E-03-2.81969E-04-3.56505E-14
 -1      3032 1.00211E-02-3.11582E-04-3.80551E-14
 -1      3033 1.01642E-02-3.11208E-04-3.90600E-14
 -1      3034 9.93404E-03-2.77241E-04-3.76233E-14
 -1      3035 1.03076E-02-3.12165E-04-4.00747E-14
 -1      3036 1.04516E-02-3.14784E-04-4.10972E-14
 -1      3037 1.02158E-02-2.75648E-04-3.96356E-14
 -1      3038 1.05965E-02-3.19406E-04-4.21261E-14
 -1      3039 1.07426E-02-3.26545E-04-4.31612E-14
 -1      3040 1.04990E-02-2.79118E-04-4.16814E-14
 -1      3041 1.08903E-02-3.36558E-04-4.42043E-14
 -1      3042 1.10401E-02-3.50260E-04-4.52530E-14
 -1      3043 1.07856E-02-2.90238E-04-4.37550E-14
 -1      3044 1.11925E-02-3.67981E-04-4.63074E-14
 -1      3045 1.13482E-02-3.91017E-04-4.73662E-14
 -1      3046 1.10792E-02-3.12537E-04-4.58539E-14
 -1      3047 1.15082E-02-4.19558E-04-4.84297E-14
 -1      3048 1.16728E-02-4.55625E-04-4.94977E-14
 -1      3049 1.13851E-02-3.51128E-04-4.79727E-14
 -1      3050 1.18436E-02-4.99266E-04-5.05697E-14
 -1      3051 1.20201E-02-5.53235E-04-5.16456E-14
 -1      3052 1.17107E-02-4.13682E-04-5.01057E-14
 -1      3053 1.22045E-02-6.17429E-04-5.27257E-14
 -1      3054 1.23936E-02-6.94215E-04-5.38123E-14
 -1      3055 1.20647E-02-5.11797E-04-5.22545E-14
 -1      3056 1.26010E-02-7.70663E-04-5.50353E-14
 -1      3057 1.28011E-02-8.72774E-04-5.61360E-14
 -1      3058 2.11108E-03 3.98715E-04-1.96681E-15
 -1      3059 1.96786E-03 3.90782E-04-1.72147E-15
 -1      3060 2.96919E-03 4.22191E-04-3.78513E-15
 -1      3061 2.82629E-03 4.20344E-04-3.44114E-15
 -1      3062 3.25492E-03 4.24415E-04-4.52194E-15
 -1      3063 3.11207E-03 4.23526E-04-4.14543E-15
 -1      3064 3.03652E-03 3.85507E-04-3.98911E-15
 -1      3065 3.54059E-03 4.25217E-04-5.32201E-15
 -1      3066 3.39777E-03 4.24963E-04-4.91382E-15
 -1      3067 3.32307E-03 3.87246E-04-4.74150E-15
 -1      3068 3.82622E-03 4.25102E-04-6.18635E-15
 -1      3069 3.68341E-03 4.25252E-04-5.74631E-15
 -1      3070 3.60945E-03 3.87757E-04-5.55731E-15
 -1      3071 4.11184E-03 4.24429E-04-7.11321E-15
 -1      3072 3.96904E-03 4.24820E-04-6.64224E-15
 -1      3073 3.89569E-03 3.87487E-04-6.43677E-15
 -1      3074 4.39745E-03 4.23436E-04-8.10165E-15
 -1      3075 4.25465E-03 4.23963E-04-7.60003E-15
 -1      3076 4.18181E-03 3.86748E-04-7.37741E-15
 -1      3077 4.68308E-03 4.22277E-04-9.15125E-15
 -1      3078 4.54027E-03 4.22872E-04-8.61876E-15
 -1      3079 4.46783E-03 3.85747E-04-8.38004E-15
 -1      3080 4.96872E-03 4.21036E-04-1.02596E-14
 -1      3081 4.82590E-03 4.21664E-04-9.69794E-15
 -1      3082 4.75379E-03 3.84612E-04-9.44161E-15
 -1      3083 5.25437E-03 4.19746E-04-1.14276E-14
 -1      3084 5.11154E-03 4.20397E-04-1.08362E-14
 -1      3085 5.03969E-03 3.83411E-04-1.05636E-14
 -1      3086 5.54005E-03 4.18401E-04-1.26554E-14
 -1      3087 5.39721E-03 4.19082E-04-1.20340E-14
 -1      3088 5.32554E-03 3.82164E-04-1.17441E-14
 -1      3089 5.82575E-03 4.16964E-04-1.39408E-14
 -1      3090 5.68290E-03 4.17696E-04-1.32915E-14
 -1      3091 5.61137E-03 3.80859E-04-1.29847E-14
 -1      3092 6.11147E-03 4.15374E-04-1.52803E-14
 -1      3093 5.96861E-03 4.16192E-04-1.46035E-14
 -1      3094 5.89717E-03 3.79453E-04-1.42816E-14
 -1      3095 6.39723E-03 4.13550E-04-1.66735E-14
 -1      3096 6.25434E-03 4.14496E-04-1.59705E-14
 -1      3097 6.18294E-03 3.77883E-04-1.56321E-14
 -1      3098 6.68301E-03 4.11397E-04-1.81218E-14
 -1      3099 6.54011E-03 4.12520E-04-1.73904E-14
 -1      3100 6.46870E-03 3.76067E-04-1.70360E-14
 -1      3101 6.96884E-03 4.08806E-04-1.96249E-14
 -1      3102 6.82592E-03 4.10162E-04-1.88666E-14
 -1      3103 6.75442E-03 3.73910E-04-1.84944E-14
 -1      3104 7.25471E-03 4.05662E-04-2.11855E-14
 -1      3105 7.11177E-03 4.07309E-04-2.03981E-14
 -1      3106 7.04011E-03 3.71307E-04-2.00094E-14
 -1      3107 7.54063E-03 4.01853E-04-2.28039E-14
 -1      3108 7.39766E-03 4.03847E-04-2.19875E-14
 -1      3109 7.32574E-03 3.68146E-04-2.15845E-14
 -1      3110 7.82662E-03 3.97276E-04-2.44741E-14
 -1      3111 7.68361E-03 3.99666E-04-2.36317E-14
 -1      3112 7.61129E-03 3.64321E-04-2.32140E-14
 -1      3113 8.11267E-03 3.91861E-04-2.61986E-14
 -1      3114 7.96963E-03 3.94677E-04-2.53301E-14
 -1      3115 7.89673E-03 3.59741E-04-2.48969E-14
 -1      3116 8.39879E-03 3.85590E-04-2.79744E-14
 -1      3117 8.25571E-03 3.88832E-04-2.70810E-14
 -1      3118 8.18201E-03 3.54346E-04-2.66320E-14
 -1      3119 8.68500E-03 3.78534E-04-2.98012E-14
 -1      3120 8.54187E-03 3.82154E-04-2.88804E-14
 -1      3121 8.46708E-03 3.48135E-04-2.84175E-14
 -1      3122 8.97130E-03 3.70901E-04-3.16770E-14
 -1      3123 8.82812E-03 3.74774E-04-3.07335E-14
 -1      3124 8.75187E-03 3.41201E-04-3.02536E-14
 -1      3125 9.25772E-03 3.63099E-04-3.36019E-14
 -1      3126 9.11447E-03 3.66993E-04-3.26332E-14
 -1      3127 9.03631E-03 3.33774E-04-3.21385E-14
 -1      3128 9.54433E-03 3.55820E-04-3.55741E-14
 -1      3129 9.40097E-03 3.59347E-04-3.45833E-14
 -1      3130 9.32034E-03 3.26285E-04-3.40748E-14
 -1      3131 9.83129E-03 3.50142E-04-3.75875E-14
 -1      3132 9.68773E-03 3.52708E-04-3.65735E-14
 -1      3133 9.60394E-03 3.19437E-04-3.60545E-14
 -1      3134 1.01189E-02 3.47651E-04-3.96373E-14
 -1      3135 9.97497E-03 3.48388E-04-3.86092E-14
 -1      3136 9.88721E-03 3.14299E-04-3.80747E-14
 -1      3137 1.04080E-02 3.50593E-04-4.17225E-14
 -1      3138 1.02632E-02 3.48281E-04-4.06762E-14
 -1      3139 1.01705E-02 3.12402E-04-4.01324E-14
 -1      3140 1.06997E-02 3.62036E-04-4.38399E-14
 -1      3141 1.05534E-02 3.55015E-04-4.27780E-14
 -1      3142 1.04545E-02 3.15861E-04-4.22234E-14
 -1      3143 1.09964E-02 3.86081E-04-4.59809E-14
 -1      3144 1.08472E-02 3.72136E-04-4.49066E-14
 -1      3145 1.07409E-02 3.27516E-04-4.43433E-14
 -1      3146 1.13020E-02 4.28156E-04-4.81463E-14
 -1      3147 1.11478E-02 4.04345E-04-4.70608E-14
 -1      3148 1.10324E-02 3.51154E-04-4.64864E-14
 -1      3149 1.16222E-02 4.95463E-04-5.03277E-14
 -1      3150 1.14600E-02 4.57887E-04-4.92349E-14
 -1      3151 1.13339E-02 3.91959E-04-4.86534E-14
 -1      3152 1.19643E-02 5.97401E-04-5.25202E-14
 -1      3153 1.17904E-02 5.40998E-04-5.14239E-14
 -1      3154 1.16529E-02 4.57442E-04-5.08341E-14
 -1      3155 1.23345E-02 7.45185E-04-5.47152E-14
 -1      3156 1.21464E-02 6.64440E-04-5.36175E-14
 -1      3157 1.19991E-02 5.58643E-04-5.30218E-14
 -1      3158 1.31165E-02 1.14546E-03-5.90040E-14
 -1      3159 1.29077E-02 1.01642E-03-5.79029E-14
 -1      3160 1.24215E-02-5.05457E-04-5.52565E-14
 -1      3161 1.22008E-02-3.69663E-04-5.46252E-14
 -1      3162 1.82458E-03 3.81102E-04-1.49201E-15
 -1      3163 1.68123E-03 3.69503E-04-1.27921E-15
 -1      3164 1.88824E-03 3.50393E-04-1.62617E-15
 -1      3165 2.68334E-03 4.17843E-04-3.11334E-15
 -1      3166 2.54036E-03 4.14603E-04-2.80216E-15
 -1      3167 2.74976E-03 3.81922E-04-3.30051E-15
 -1      3168 1.13129E-02 5.39603E-05-5.27120E-14
 -1      3169 1.13319E-02 7.15211E-05-5.27682E-14
 -1      3170 1.15850E-03-2.76877E-04-6.54506E-16
 -1      3171 1.30137E-03-2.96660E-04-8.06145E-16
 -1      3172 1.36541E-03-2.73072E-04-9.04618E-16
 -1      3173 1.13475E-02 7.55335E-06-5.23110E-14
 -1      3174 1.13158E-02 3.15494E-05-5.25109E-14
 -1      3175 1.12636E-02 3.89685E-05-5.18107E-14
 -1      3176 1.20440E-02 4.06850E-04-5.46830E-14
 -1      3177 1.22651E-02 5.37432E-04-5.53994E-14
 -1      3178 1.15874E-02-8.83604E-05-5.27613E-14
 -1      3179 1.14519E-02-3.57779E-05-5.24937E-14
 -1      3180 1.33163E-02-1.17163E-03-5.90834E-14
 -1      3181 1.01647E-03 6.81816E-05-6.04050E-16
 -1      3182 1.01529E-03 4.12089E-05-6.06137E-16
 -1      3183 1.16831E-02 2.23567E-04-5.36557E-14
 -1      3184 1.18333E-02 2.93666E-04-5.40725E-14
 -1      3185 8.87851E-04-2.11752E-04-4.22785E-16
 -1      3186 2.39732E-03 4.10431E-04-2.50718E-15
 -1      3187 2.25424E-03 4.05219E-04-2.22852E-15
 -1      3188 2.17559E-03 3.65613E-04-2.11914E-15
 -1      3189 1.14503E-03 3.10497E-04-6.25395E-16
 -1      3190 1.08236E-03 2.71568E-04-5.86730E-16
 -1      3191 1.20143E-03 2.72984E-04-7.19097E-16
 -1      3192 1.28819E-03 3.32469E-04-7.74852E-16
 -1      3193 1.27073E-02 8.43151E-04-5.70575E-14
 -1      3194 1.26846E-02 9.17602E-04-5.66680E-14
 -1      3195 1.24854E-02 8.12287E-04-5.55688E-14
 -1      3196 1.24774E-02 6.88877E-04-5.60745E-14
 -1      3197 1.17262E-02-1.67430E-04-5.27568E-14
 -1      3198 1.16557E-02-1.25395E-04-5.27610E-14
 -1      3199 1.15297E-02-9.98612E-05-5.19761E-14
 -1      3200 1.23017E-02 6.11743E-04-5.51513E-14
 -1      3201 1.24706E-02-5.85372E-04-5.50364E-14
 -1      3202 1.20666E-02-3.22312E-04-5.39222E-14
 -1      3203 1.28901E-02-8.86915E-04-5.67310E-14
 -1      3204 1.13536E-03 3.01540E-05-7.34168E-16
 -1      3205 1.01469E-03 1.44423E-05-6.06720E-16
 -1      3206 1.01466E-03-1.22249E-05-6.06327E-16
 -1      3207 1.24596E-02-6.46508E-04-5.45508E-14
 -1      3208 2.46278E-03 3.75656E-04-2.67710E-15
 -1      3209 1.29861E-02-1.00959E-03-5.71008E-14
 -1      3210 1.31717E-02-1.11014E-03-5.82137E-14
 -1      3211 1.02076E-03 1.23195E-04-5.96189E-16
 -1      3212 1.01828E-03 9.54322E-05-6.00675E-16
 -1      3213 1.13803E-03 8.85299E-05-7.29560E-16
 -1      3214 1.13389E-02 9.03060E-05-5.24054E-14
 -1      3215 1.23346E-02 6.86785E-04-5.49725E-14
 -1      3216 1.34013E-02 1.35724E-03-6.06803E-14
 -1      3217 1.31538E-02 1.14883E-03-5.92186E-14
 -1      3218 1.39479E-02-1.25905E-03-6.35952E-14
 -1      3219 1.15672E-02 1.86092E-04-5.30352E-14
 -1      3220 1.15877E-02 2.20605E-04-5.26414E-14
 -1      3221 1.14631E-02 1.58774E-04-5.24138E-14
 -1      3222 1.01801E-03-9.29612E-05-5.97951E-16
 -1      3223 1.02040E-03-1.20665E-04-5.92516E-16
 -1      3224 1.02360E-03-1.49064E-04-5.85496E-16
 -1      3225 1.02768E-03-1.78293E-04-5.76525E-16
 -1      3226 1.14320E-03-1.45856E-04-7.13906E-16
 -1      3227 1.02827E-03 1.81051E-04-5.82732E-16
 -1      3228 1.02408E-03 1.51730E-04-5.90213E-16
 -1      3229 1.14366E-03 1.48598E-04-7.19151E-16
 -1      3230 1.15301E-03 2.11692E-04-7.01872E-16
 -1      3231 1.13569E-02-1.95067E-05-5.17957E-14
 -1      3232 1.19006E-02 3.58585E-04-5.38699E-14
 -1      3233 9.99636E-04-2.33099E-04-5.17110E-16
 -1      3234 1.06450E-03-2.15843E-04-5.94454E-16
 -1      3235 1.55633E-03 3.61421E-04-1.10396E-15
 -1      3236 1.41296E-03 3.45250E-04-9.22426E-16
 -1      3237 1.36912E-03 3.15030E-04-8.92082E-16
 -1      3238 1.61927E-03 3.33817E-04-1.22042E-15
 -1      3239 1.12036E-02 2.89105E-05-5.08814E-14
 -1      3240 1.12086E-02 5.00783E-05-5.10788E-14
 -1      3241 1.86178E-03-2.79957E-04-1.61566E-15
 -1      3242 2.00599E-03-2.87299E-04-1.84977E-15
 -1      3243 2.15029E-03-2.93372E-04-2.09987E-15
 -1      3244 2.29463E-03-2.98293E-04-2.36558E-15
 -1      3245 2.07285E-03-2.54598E-04-1.99150E-15
 -1      3246 2.43896E-03-3.02265E-04-2.64661E-15
 -1      3247 2.58327E-03-3.05382E-04-2.94395E-15
 -1      3248 2.36203E-03-2.63606E-04-2.52511E-15
 -1      3249 2.72752E-03-3.07812E-04-3.25580E-15
 -1      3250 2.87170E-03-3.09628E-04-3.58353E-15
 -1      3251 2.65126E-03-2.69341E-04-3.12044E-15
 -1      3252 3.01581E-03-3.10963E-04-3.92731E-15
 -1      3253 3.15983E-03-3.11871E-04-4.28634E-15
 -1      3254 2.94027E-03-2.72700E-04-3.77823E-15
 -1      3255 3.30378E-03-3.12453E-04-4.66066E-15
 -1      3256 3.44763E-03-3.12748E-04-5.04956E-15
 -1      3257 3.22894E-03-2.74394E-04-4.49795E-15
 -1      3258 3.59140E-03-3.12832E-04-5.45388E-15
 -1      3259 3.73509E-03-3.12732E-04-5.87289E-15
 -1      3260 3.51723E-03-2.74961E-04-5.27866E-15
 -1      3261 3.87871E-03-3.12502E-04-6.30581E-15
 -1      3262 4.02225E-03-3.12160E-04-6.75370E-15
 -1      3263 3.80511E-03-2.74797E-04-6.11794E-15
 -1      3264 4.16573E-03-3.11743E-04-7.21574E-15
 -1      3265 4.30913E-03-3.11263E-04-7.69186E-15
 -1      3266 4.09263E-03-2.74184E-04-7.01519E-15
 -1      3267 4.45249E-03-3.10744E-04-8.18150E-15
 -1      3268 4.59579E-03-3.10191E-04-8.68510E-15
 -1      3269 4.37981E-03-2.73314E-04-7.96824E-15
 -1      3270 4.73904E-03-3.09620E-04-9.20401E-15
 -1      3271 4.88224E-03-3.09032E-04-9.73790E-15
 -1      3272 4.66671E-03-2.72307E-04-8.97864E-15
 -1      3273 5.02540E-03-3.08434E-04-1.02861E-14
 -1      3274 5.16853E-03-3.07826E-04-1.08479E-14
 -1      3275 4.95335E-03-2.71232E-04-1.00464E-14
 -1      3276 5.31162E-03-3.07208E-04-1.14253E-14
 -1      3277 5.45467E-03-3.06577E-04-1.20173E-14
 -1      3278 5.23978E-03-2.70118E-04-1.11736E-14
 -1      3279 5.59770E-03-3.05931E-04-1.26237E-14
 -1      3280 5.74070E-03-3.05262E-04-1.32459E-14
 -1      3281 5.52603E-03-2.68961E-04-1.23592E-14
 -1      3282 5.88366E-03-3.04566E-04-1.38820E-14
 -1      3283 6.02660E-03-3.03835E-04-1.45332E-14
 -1      3284 5.81210E-03-2.67734E-04-1.36040E-14
 -1      3285 6.16951E-03-3.03060E-04-1.52005E-14
 -1      3286 6.31238E-03-3.02232E-04-1.58815E-14
 -1      3287 6.09802E-03-2.66392E-04-1.49092E-14
 -1      3288 6.45522E-03-3.01341E-04-1.65761E-14
 -1      3289 6.59803E-03-3.00376E-04-1.72861E-14
 -1      3290 6.38376E-03-2.64872E-04-1.62724E-14
 -1      3291 6.74079E-03-2.99326E-04-1.80094E-14
 -1      3292 6.88351E-03-2.98179E-04-1.87467E-14
 -1      3293 6.66930E-03-2.63102E-04-1.76920E-14
 -1      3294 7.02617E-03-2.96923E-04-1.95001E-14
 -1      3295 7.16878E-03-2.95545E-04-2.02687E-14
 -1      3296 6.95459E-03-2.60999E-04-1.91679E-14
 -1      3297 7.31131E-03-2.94035E-04-2.10508E-14
 -1      3298 7.45377E-03-2.92378E-04-2.18474E-14
 -1      3299 7.23957E-03-2.58474E-04-2.07049E-14
 -1      3300 7.59614E-03-2.90567E-04-2.26567E-14
 -1      3301 7.73840E-03-2.88588E-04-2.34805E-14
 -1      3302 7.52414E-03-2.55441E-04-2.22989E-14
 -1      3303 7.88055E-03-2.86439E-04-2.43155E-14
 -1      3304 8.02257E-03-2.84106E-04-2.51617E-14
 -1      3305 7.80818E-03-2.51818E-04-2.39451E-14
 -1      3306 8.16443E-03-2.81596E-04-2.60224E-14
 -1      3307 8.30614E-03-2.78897E-04-2.68947E-14
 -1      3308 8.09154E-03-2.47547E-04-2.56410E-14
 -1      3309 8.44765E-03-2.76029E-04-2.77778E-14
 -1      3310 8.58897E-03-2.72985E-04-2.86721E-14
 -1      3311 8.37405E-03-2.42601E-04-2.73851E-14
 -1      3312 8.73006E-03-2.69804E-04-2.95765E-14
 -1      3313 8.87092E-03-2.66485E-04-3.04920E-14
 -1      3314 8.65550E-03-2.37013E-04-2.91743E-14
 -1      3315 9.01150E-03-2.63092E-04-3.14171E-14
 -1      3316 9.15183E-03-2.59638E-04-3.23537E-14
 -1      3317 8.93568E-03-2.30896E-04-3.10061E-14
 -1      3318 9.29185E-03-2.56216E-04-3.33020E-14
 -1      3319 9.43161E-03-2.52858E-04-3.42597E-14
 -1      3320 9.21437E-03-2.24482E-04-3.28818E-14
 -1      3321 9.57105E-03-2.49694E-04-3.52255E-14
 -1      3322 9.71027E-03-2.46785E-04-3.62025E-14
 -1      3323 9.49142E-03-2.18151E-04-3.47992E-14
 -1      3324 9.84922E-03-2.44299E-04-3.71917E-14
 -1      3325 9.98804E-03-2.42339E-04-3.81895E-14
 -1      3326 9.76677E-03-2.12475E-04-3.67584E-14
 -1      3327 1.01267E-02-2.41111E-04-3.91954E-14
 -1      3328 1.02655E-02-2.40786E-04-4.02126E-14
 -1      3329 1.00406E-02-2.08251E-04-3.87565E-14
 -1      3330 1.04045E-02-2.41593E-04-4.12376E-14
 -1      3331 1.05439E-02-2.43820E-04-4.22677E-14
 -1      3332 1.03135E-02-2.06544E-04-4.07911E-14
 -1      3333 1.06841E-02-2.47696E-04-4.33069E-14
 -1      3334 1.08255E-02-2.53725E-04-4.43518E-14
 -1      3335 1.05866E-02-2.08749E-04-4.28572E-14
 -1      3336 1.09686E-02-2.62095E-04-4.54002E-14
 -1      3337 1.11142E-02-2.73714E-04-4.64559E-14
 -1      3338 1.08623E-02-2.16763E-04-4.49476E-14
 -1      3339 1.12630E-02-2.88679E-04-4.75147E-14
 -1      3340 1.14163E-02-3.08887E-04-4.85778E-14
 -1      3341 1.11447E-02-2.33329E-04-4.70580E-14
 -1      3342 1.15751E-02-3.34198E-04-4.96439E-14
 -1      3343 1.17409E-02-3.67821E-04-5.07131E-14
 -1      3344 1.14410E-02-2.63346E-04-4.91826E-14
 -1      3345 2.52916E-03 3.40408E-04-2.84903E-15
 -1      3346 2.38518E-03 3.36661E-04-2.55304E-15
 -1      3347 3.10447E-03 3.48515E-04-4.19398E-15
 -1      3348 2.96075E-03 3.47312E-04-3.83360E-15
 -1      3349 3.96546E-03 3.49728E-04-6.68767E-15
 -1      3350 3.82211E-03 3.49985E-04-6.23266E-15
 -1      3351 4.25200E-03 3.48960E-04-7.64213E-15
 -1      3352 4.10876E-03 3.49382E-04-7.15713E-15
 -1      3353 4.03552E-03 3.11867E-04-6.93841E-15
 -1      3354 4.53838E-03 3.47980E-04-8.65753E-15
 -1      3355 4.39521E-03 3.48490E-04-8.14233E-15
 -1      3356 4.32243E-03 3.11100E-04-7.90669E-15
 -1      3357 4.82462E-03 3.46893E-04-9.73310E-15
 -1      3358 4.68152E-03 3.47447E-04-9.18795E-15
 -1      3359 4.60909E-03 3.10165E-04-8.93533E-15
 -1      3360 5.11073E-03 3.45752E-04-1.08671E-14
 -1      3361 4.96769E-03 3.46328E-04-1.02926E-14
 -1      3362 4.89556E-03 3.09145E-04-1.00233E-14
 -1      3363 5.39676E-03 3.44567E-04-1.20600E-14
 -1      3364 5.25376E-03 3.45165E-04-1.14561E-14
 -1      3365 5.18186E-03 3.08080E-04-1.11700E-14
 -1      3366 5.68270E-03 3.43318E-04-1.33133E-14
 -1      3367 5.53974E-03 3.43953E-04-1.26797E-14
 -1      3368 5.46802E-03 3.06972E-04-1.23762E-14
 -1      3369 5.96857E-03 3.41961E-04-1.46200E-14
 -1      3370 5.82564E-03 3.42657E-04-1.39594E-14
 -1      3371 5.75404E-03 3.05796E-04-1.36390E-14
 -1      3372 6.25436E-03 3.40431E-04-1.59815E-14
 -1      3373 6.11147E-03 3.41222E-04-1.52944E-14
 -1      3374 6.03995E-03 3.04506E-04-1.49578E-14
 -1      3375 6.54008E-03 3.38648E-04-1.73972E-14
 -1      3376 6.39723E-03 3.39577E-04-1.66830E-14
 -1      3377 6.32573E-03 3.03037E-04-1.63313E-14
 -1      3378 6.82569E-03 3.36519E-04-1.88673E-14
 -1      3379 6.68290E-03 3.37633E-04-1.81247E-14
 -1      3380 6.61137E-03 3.01313E-04-1.77577E-14
 -1      3381 7.11119E-03 3.33942E-04-2.03953E-14
 -1      3382 6.96846E-03 3.35293E-04-1.96239E-14
 -1      3383 6.89683E-03 2.99245E-04-1.92396E-14
 -1      3384 7.39651E-03 3.30814E-04-2.19835E-14
 -1      3385 7.25387E-03 3.32454E-04-2.11826E-14
 -1      3386 7.18207E-03 2.96738E-04-2.07823E-14
 -1      3387 7.68160E-03 3.27036E-04-2.36240E-14
 -1      3388 7.53908E-03 3.29013E-04-2.27966E-14
 -1      3389 7.46701E-03 2.93696E-04-2.23818E-14
 -1      3390 7.96639E-03 3.22529E-04-2.53192E-14
 -1      3391 7.82403E-03 3.24879E-04-2.44654E-14
 -1      3392 7.75157E-03 2.90032E-04-2.40354E-14
 -1      3393 8.25077E-03 3.17247E-04-2.70637E-14
 -1      3394 8.10863E-03 3.19988E-04-2.61846E-14
 -1      3395 8.03561E-03 2.85679E-04-2.57392E-14
 -1      3396 8.53464E-03 3.11206E-04-2.88590E-14
 -1      3397 8.39277E-03 3.14321E-04-2.79558E-14
 -1      3398 8.31898E-03 2.80607E-04-2.74948E-14
 -1      3399 8.81783E-03 3.04518E-04-3.07060E-14
 -1      3400 8.67632E-03 3.07937E-04-2.97759E-14
 -1      3401 8.60150E-03 2.74848E-04-2.93017E-14
 -1      3402 9.10021E-03 2.97431E-04-3.26019E-14
 -1      3403 8.95912E-03 3.01010E-04-3.16480E-14
 -1      3404 8.88295E-03 2.68530E-04-3.11586E-14
 -1      3405 9.38163E-03 2.90386E-04-3.45471E-14
 -1      3406 9.24103E-03 2.93878E-04-3.35684E-14
 -1      3407 9.16309E-03 2.61913E-04-3.30656E-14
 -1      3408 9.66198E-03 2.84082E-04-3.65332E-14
 -1      3409 9.52192E-03 2.87100E-04-3.55348E-14
 -1      3410 9.44170E-03 2.55435E-04-3.50161E-14
 -1      3411 9.94129E-03 2.79543E-04-3.85606E-14
 -1      3412 9.80173E-03 2.81529E-04-3.75411E-14
 -1      3413 9.71859E-03 2.49767E-04-3.70113E-14
 -1      3414 1.02199E-02 2.78198E-04-4.06250E-14
 -1      3415 1.00806E-02 2.78378E-04-3.95900E-14
 -1      3416 9.99370E-03 2.45858E-04-3.90461E-14
 -1      3417 1.04985E-02 2.81963E-04-4.27234E-14
 -1      3418 1.03590E-02 2.79304E-04-4.16697E-14
 -1      3419 1.02673E-02 2.44979E-04-4.11178E-14
 -1      3420 1.07789E-02 2.93362E-04-4.48449E-14
 -1      3421 1.06383E-02 2.86500E-04-4.37810E-14
 -1      3422 1.05400E-02 2.48774E-04-4.32195E-14
 -1      3423 1.10642E-02 3.15766E-04-4.69908E-14
 -1      3424 1.09206E-02 3.02853E-04-4.59147E-14
 -1      3425 1.08138E-02 2.59342E-04-4.53451E-14
 -1      3426 1.13601E-02 3.54008E-04-4.91579E-14
 -1      3427 1.12103E-02 3.32309E-04-4.80732E-14
 -1      3428 1.10918E-02 2.79489E-04-4.74931E-14
 -1      3429 1.16757E-02 4.15935E-04-5.13366E-14
 -1      3430 1.15146E-02 3.80876E-04-5.02452E-14
 -1      3431 1.13802E-02 3.13567E-04-4.96594E-14
 -1      3432 1.21518E-02 5.53895E-04-5.43010E-14
 -1      3433 1.01628E-03-6.57515E-05-6.02179E-16
 -1      3434 1.13779E-03-8.59534E-05-7.26808E-16
 -1      3435 1.01518E-03-3.89211E-05-6.04903E-16
 -1      3436 2.81695E-03 3.45616E-04-3.48906E-15
 -1      3437 2.67309E-03 3.43364E-04-3.16115E-15
 -1      3438 2.88484E-03 3.08990E-04-3.67905E-15
 -1      3439 1.95310E-03 3.18978E-04-1.76301E-15
 -1      3440 1.80912E-03 3.10384E-04-1.53165E-15
 -1      3441 1.22639E-02-5.15060E-04-5.38216E-14
 -1      3442 1.20602E-02-3.71768E-04-5.33103E-14
 -1      3443 1.18857E-02-2.64159E-04-5.29307E-14
 -1      3444 3.67870E-03 3.50109E-04-5.79356E-15
 -1      3445 3.53525E-03 3.50078E-04-5.36986E-15
 -1      3446 3.74834E-03 3.12320E-04-6.03001E-15
 -1      3447 1.28770E-03-2.33989E-04-8.35852E-16
 -1      3448 1.43056E-03-2.48323E-04-1.00687E-15
 -1      3449 3.39172E-03 3.49833E-04-4.96199E-15
 -1      3450 3.24813E-03 3.49340E-04-4.56999E-15
 -1      3451 3.17301E-03 3.11277E-04-4.39960E-15
 -1      3452 3.46084E-03 3.12233E-04-5.18357E-15
 -1      3453 1.57395E-03-2.60652E-04-1.19380E-15
 -1      3454 1.71774E-03-2.71125E-04-1.39672E-15
 -1      3455 1.49664E-03-2.22316E-04-1.11227E-15
 -1      3456 1.13450E-02-4.95550E-05-5.10487E-14
 -1      3457 1.12530E-02-9.52823E-06-5.08656E-14
 -1      3458 1.17413E-02 3.12515E-04-5.28875E-14
 -1      3459 1.19245E-02 4.12948E-04-5.34929E-14
 -1      3460 1.12565E-02 7.93560E-05-5.14736E-14
 -1      3461 1.13395E-02 1.12946E-04-5.18677E-14
 -1      3462 1.11768E-02 6.81690E-05-5.05421E-14
 -1      3463 2.24116E-03 3.31933E-04-2.27341E-15
 -1      3464 2.09712E-03 3.26116E-04-2.01010E-15
 -1      3465 2.01900E-03 2.86881E-04-1.90172E-15
 -1      3466 1.19744E-02 4.87483E-04-5.33117E-14
 -1      3467 1.20733E-02-4.42570E-04-5.28244E-14
 -1      3468 1.25734E-03 4.78361E-05-8.73271E-16
 -1      3469 1.25660E-03 1.67783E-05-8.74179E-16
 -1      3470 1.17362E-02-2.97836E-04-5.12831E-14
 -1      3471 1.18907E-02-3.88997E-04-5.17501E-14
 -1      3472 2.30768E-03 2.97725E-04-2.42970E-15
 -1      3473 2.59637E-03 3.04746E-04-3.02220E-15
 -1      3474 1.73070E-03 2.70959E-04-1.43769E-15
 -1      3475 1.66528E-03 3.00062E-04-1.31641E-15
 -1      3476 1.26101E-03 1.10444E-04-8.66508E-16
 -1      3477 1.25880E-03 7.89778E-05-8.70682E-16
 -1      3478 1.38049E-03 6.70689E-05-1.02384E-15
 -1      3479 1.11662E-02 4.98022E-06-5.01359E-14
 -1      3480 1.17987E-02 4.35310E-04-5.22210E-14
 -1      3481 1.16445E-02 3.49455E-04-5.16269E-14
 -1      3482 1.17341E-02-2.18778E-04-5.21459E-14
 -1      3483 1.14406E-02-1.04934E-04-5.10437E-14
 -1      3484 1.13903E-02-7.54969E-05-5.10458E-14
 -1      3485 1.12638E-02-5.93792E-05-5.01164E-14
 -1      3486 1.13528E-03-2.76898E-05-7.33232E-16
 -1      3487 1.13472E-02 1.38169E-04-5.14774E-14
 -1      3488 1.25859E-03-7.63136E-05-8.68175E-16
 -1      3489 1.26071E-03-1.07755E-04-8.62645E-16
 -1      3490 1.27924E-03 2.42791E-04-8.31651E-16
 -1      3491 1.27307E-03 2.08538E-04-8.43807E-16
 -1      3492 1.78414E-03-2.41239E-04-1.52040E-15
 -1      3493 1.18401E-03-2.15391E-04-7.25562E-16
 -1      3494 1.25013E-03-1.93723E-04-8.14575E-16
 -1      3495 1.16148E-02 2.60389E-04-5.23259E-14
 -1      3496 1.16356E-02 3.09687E-04-5.19478E-14
 -1      3497 1.15272E-02 3.00848E-04-5.10678E-14
 -1      3498 1.15008E-02 2.25343E-04-5.17062E-14
 -1      3499 1.34482E-03 2.92795E-04-8.78949E-16
 -1      3500 1.30243E-03 2.63911E-04-8.46613E-16
 -1      3501 1.42257E-03 2.59183E-04-1.00351E-15
 -1      3502 1.46986E-03 3.03005E-04-1.03530E-15
 -1      3503 1.53985E-03 2.93311E-04-1.13956E-15
 -1      3504 1.79715E-03 2.40945E-04-1.56126E-15
 -1      3505 1.65315E-03 2.32433E-04-1.34418E-15
 -1      3506 2.37513E-03 2.62976E-04-2.58749E-15
 -1      3507 2.23049E-03 2.59004E-04-2.30680E-15
 -1      3508 2.28545E-03-2.25197E-04-2.40345E-15
 -1      3509 2.43031E-03-2.28394E-04-2.68718E-15
 -1      3510 2.57518E-03-2.30941E-04-2.98562E-15
 -1      3511 2.72002E-03-2.32903E-04-3.29961E-15
 -1      3512 2.49938E-03-1.92701E-04-2.85103E-15
 -1      3513 2.86480E-03-2.34398E-04-3.62937E-15
 -1      3514 3.00950E-03-2.35476E-04-3.97528E-15
 -1      3515 2.78949E-03-1.96121E-04-3.48106E-15
 -1      3516 3.15411E-03-2.36232E-04-4.33568E-15
 -1      3517 3.29861E-03-2.36700E-04-4.71181E-15
 -1      3518 3.07935E-03-1.98012E-04-4.17316E-15
 -1      3519 3.44300E-03-2.36954E-04-5.10288E-15
 -1      3520 3.58728E-03-2.37018E-04-5.50840E-15
 -1      3521 3.36879E-03-1.98842E-04-4.92698E-15
 -1      3522 3.73145E-03-2.36946E-04-5.92933E-15
 -1      3523 3.87550E-03-2.36754E-04-6.36425E-15
 -1      3524 3.65775E-03-1.98967E-04-5.73994E-15
 -1      3525 4.01945E-03-2.36481E-04-6.81386E-15
 -1      3526 4.16329E-03-2.36136E-04-7.27783E-15
 -1      3527 3.94622E-03-1.98643E-04-6.61270E-15
 -1      3528 4.30705E-03-2.35748E-04-7.75518E-15
 -1      3529 4.45071E-03-2.35320E-04-8.24654E-15
 -1      3530 4.23422E-03-1.98052E-04-7.54151E-15
 -1      3531 4.59429E-03-2.34871E-04-8.75268E-15
 -1      3532 4.73778E-03-2.34400E-04-9.27322E-15
 -1      3533 4.52180E-03-1.97312E-04-8.52650E-15
 -1      3534 4.88121E-03-2.33920E-04-9.80849E-15
 -1      3535 5.02457E-03-2.33428E-04-1.03580E-14
 -1      3536 4.80901E-03-1.96497E-04-9.57001E-15
 -1      3537 5.16787E-03-2.32930E-04-1.09219E-14
 -1      3538 5.31110E-03-2.32421E-04-1.15009E-14
 -1      3539 5.09589E-03-1.95641E-04-1.06711E-14
 -1      3540 5.45429E-03-2.31904E-04-1.20947E-14
 -1      3541 5.59741E-03-2.31372E-04-1.27031E-14
 -1      3542 5.38249E-03-1.94755E-04-1.18301E-14
 -1      3543 5.74049E-03-2.30823E-04-1.33261E-14
 -1      3544 5.88352E-03-2.30251E-04-1.39642E-14
 -1      3545 5.66884E-03-1.93828E-04-1.30483E-14
 -1      3546 6.02649E-03-2.29651E-04-1.46175E-14
 -1      3547 6.16941E-03-2.29014E-04-1.52858E-14
 -1      3548 5.95493E-03-1.92829E-04-1.43262E-14
 -1      3549 6.31227E-03-2.28335E-04-1.59681E-14
 -1      3550 6.45508E-03-2.27604E-04-1.66639E-14
 -1      3551 6.24078E-03-1.91719E-04-1.56637E-14
 -1      3552 6.59781E-03-2.26814E-04-1.73742E-14
 -1      3553 6.74048E-03-2.25953E-04-1.80986E-14
 -1      3554 6.52635E-03-1.90446E-04-1.70567E-14
 -1      3555 6.88306E-03-2.25014E-04-1.88373E-14
 -1      3556 7.02555E-03-2.23985E-04-1.95914E-14
 -1      3557 6.81158E-03-1.88947E-04-1.85072E-14
 -1      3558 7.16793E-03-2.22859E-04-2.03605E-14
 -1      3559 7.31019E-03-2.21621E-04-2.11446E-14
 -1      3560 7.09639E-03-1.87158E-04-2.00168E-14
 -1      3561 7.45232E-03-2.20268E-04-2.19420E-14
 -1      3562 7.59430E-03-2.18783E-04-2.27519E-14
 -1      3563 7.38068E-03-1.85009E-04-2.15847E-14
 -1      3564 7.73609E-03-2.17167E-04-2.35758E-14
 -1      3565 7.87769E-03-2.15402E-04-2.44122E-14
 -1      3566 7.66427E-03-1.82431E-04-2.32071E-14
 -1      3567 8.01907E-03-2.13495E-04-2.52602E-14
 -1      3568 8.16020E-03-2.11427E-04-2.61204E-14
 -1      3569 7.94698E-03-1.79368E-04-2.48799E-14
 -1      3570 8.30104E-03-2.09216E-04-2.69925E-14
 -1      3571 8.44158E-03-2.06841E-04-2.78767E-14
 -1      3572 8.22858E-03-1.75776E-04-2.65999E-14
 -1      3573 8.58176E-03-2.04335E-04-2.87723E-14
 -1      3574 8.72157E-03-2.01679E-04-2.96777E-14
 -1      3575 8.50879E-03-1.71646E-04-2.83687E-14
 -1      3576 8.86095E-03-1.98922E-04-3.05957E-14
 -1      3577 8.99990E-03-1.96050E-04-3.15229E-14
 -1      3578 8.78728E-03-1.67010E-04-3.01842E-14
 -1      3579 9.13835E-03-1.93133E-04-3.24624E-14
 -1      3580 9.27630E-03-1.90162E-04-3.34133E-14
 -1      3581 9.06372E-03-1.61966E-04-3.20433E-14
 -1      3582 9.41367E-03-1.87234E-04-3.43721E-14
 -1      3583 9.55051E-03-1.84350E-04-3.53427E-14
 -1      3584 9.33775E-03-1.56689E-04-3.39443E-14
 -1      3585 9.68674E-03-1.81633E-04-3.63227E-14
 -1      3586 9.82243E-03-1.79097E-04-3.73144E-14
 -1      3587 9.60907E-03-1.51454E-04-3.58880E-14
 -1      3588 9.95750E-03-1.76892E-04-3.83173E-14
 -1      3589 1.00921E-02-1.75055E-04-3.93258E-14
 -1      3590 9.87743E-03-1.46639E-04-3.78739E-14
 -1      3591 1.02262E-02-1.73754E-04-4.03434E-14
 -1      3592 1.03600E-02-1.73064E-04-4.13706E-14
 -1      3593 1.01428E-02-1.42727E-04-3.98964E-14
 -1      3594 1.04935E-02-1.73153E-04-4.24052E-14
 -1      3595 1.06272E-02-1.74184E-04-4.34463E-14
 -1      3596 1.04053E-02-1.40301E-04-4.19522E-14
 -1      3597 1.07610E-02-1.76307E-04-4.44933E-14
 -1      3598 1.08959E-02-1.79901E-04-4.55445E-14
 -1      3599 1.06658E-02-1.40047E-04-4.40365E-14
 -1      3600 1.10316E-02-1.85096E-04-4.65986E-14
 -1      3601 1.11698E-02-1.92515E-04-4.76579E-14
 -1      3602 1.09261E-02-1.42968E-04-4.61408E-14
 -1      3603 1.13083E-02-1.64441E-04-4.91173E-14
 -1      3604 1.14474E-02-1.75474E-04-5.01825E-14
 -1      3605 1.16065E-02-2.11717E-04-5.11133E-14
 -1      3606 4.10588E-03 2.73913E-04-7.18914E-15
 -1      3607 3.96216E-03 2.74200E-04-6.72058E-15
 -1      3608 4.96663E-03 2.71378E-04-1.03129E-14
 -1      3609 4.82333E-03 2.71851E-04-9.75485E-15
 -1      3610 5.25306E-03 2.70406E-04-1.14723E-14
 -1      3611 5.10987E-03 2.70897E-04-1.08855E-14
 -1      3612 5.03780E-03 2.33613E-04-1.06020E-14
 -1      3613 5.53931E-03 2.69391E-04-1.26908E-14
 -1      3614 5.39621E-03 2.69906E-04-1.20741E-14
 -1      3615 5.32434E-03 2.32749E-04-1.17744E-14
 -1      3616 5.82539E-03 2.68305E-04-1.39647E-14
 -1      3617 5.68237E-03 2.68860E-04-1.33212E-14
 -1      3618 5.61065E-03 2.31842E-04-1.30043E-14
 -1      3619 6.11130E-03 2.67102E-04-1.52959E-14
 -1      3620 5.96837E-03 2.67722E-04-1.46238E-14
 -1      3621 5.89675E-03 2.30863E-04-1.42909E-14
 -1      3622 6.39704E-03 2.65720E-04-1.66804E-14
 -1      3623 6.25419E-03 2.66438E-04-1.59810E-14
 -1      3624 6.18264E-03 2.29767E-04-1.56333E-14
 -1      3625 6.68257E-03 2.64086E-04-1.81176E-14
 -1      3626 6.53983E-03 2.64940E-04-1.73914E-14
 -1      3627 6.46829E-03 2.28497E-04-1.70281E-14
 -1      3628 6.96784E-03 2.62118E-04-1.96134E-14
 -1      3629 6.82524E-03 2.63149E-04-1.88583E-14
 -1      3630 6.75367E-03 2.26986E-04-1.84787E-14
 -1      3631 7.25278E-03 2.59730E-04-2.11698E-14
 -1      3632 7.11035E-03 2.60983E-04-2.03842E-14
 -1      3633 7.03871E-03 2.25160E-04-1.99878E-14
 -1      3634 7.53729E-03 2.56836E-04-2.27798E-14
 -1      3635 7.39509E-03 2.58352E-04-2.19678E-14
 -1      3636 7.32331E-03 2.22943E-04-2.15554E-14
 -1      3637 7.82123E-03 2.53361E-04-2.44457E-14
 -1      3638 7.67934E-03 2.55177E-04-2.36062E-14
 -1      3639 7.60734E-03 2.20261E-04-2.31801E-14
 -1      3640 8.10445E-03 2.49252E-04-2.61615E-14
 -1      3641 7.96294E-03 2.51391E-04-2.52980E-14
 -1      3642 7.89062E-03 2.17053E-04-2.48565E-14
 -1      3643 8.38672E-03 2.44494E-04-2.79264E-14
 -1      3644 8.24571E-03 2.46958E-04-2.70364E-14
 -1      3645 8.17295E-03 2.13279E-04-2.65824E-14
 -1      3646 8.66779E-03 2.39135E-04-2.97434E-14
 -1      3647 8.52741E-03 2.41890E-04-2.88286E-14
 -1      3648 8.45405E-03 2.08940E-04-2.83577E-14
 -1      3649 8.94739E-03 2.33313E-04-3.16111E-14
 -1      3650 8.80779E-03 2.36278E-04-3.06701E-14
 -1      3651 8.73362E-03 2.04097E-04-3.01854E-14
 -1      3652 9.22520E-03 2.27294E-04-3.35262E-14
 -1      3653 9.08653E-03 2.30318E-04-3.25632E-14
 -1      3654 9.01130E-03 1.98895E-04-3.20616E-14
 -1      3655 9.50089E-03 2.21501E-04-3.54866E-14
 -1      3656 9.36331E-03 2.24351E-04-3.45015E-14
 -1      3657 9.28669E-03 1.93593E-04-3.39867E-14
 -1      3658 9.77418E-03 2.16559E-04-3.74897E-14
 -1      3659 9.63783E-03 2.18895E-04-3.64836E-14
 -1      3660 9.55938E-03 1.88591E-04-3.59567E-14
 -1      3661 1.00449E-02 2.13312E-04-3.95321E-14
 -1      3662 9.90984E-03 2.14683E-04-3.85060E-14
 -1      3663 9.82898E-03 1.84448E-04-3.79678E-14
 -1      3664 1.03132E-02 2.12846E-04-4.16098E-14
 -1      3665 1.01793E-02 2.12676E-04-4.05664E-14
 -1      3666 1.00952E-02 1.81882E-04-4.00161E-14
 -1      3667 1.05796E-02 2.16492E-04-4.37127E-14
 -1      3668 1.04465E-02 2.14074E-04-4.26573E-14
 -1      3669 1.03579E-02 1.81753E-04-4.20970E-14
 -1      3670 1.08457E-02 2.25880E-04-4.58424E-14
 -1      3671 1.07125E-02 2.20341E-04-4.47760E-14
 -1      3672 1.06175E-02 1.85046E-04-4.42058E-14
 -1      3673 1.11146E-02 2.43221E-04-4.79913E-14
 -1      3674 1.09794E-02 2.33304E-04-4.69146E-14
 -1      3675 1.08749E-02 1.92852E-04-4.63384E-14
 -1      3676 1.13869E-02 2.75910E-04-5.00686E-14
 -1      3677 1.12455E-02 2.59220E-04-4.89857E-14
 -1      3678 1.11268E-02 2.10078E-04-4.84001E-14
 -1      3679 1.13827E-02 2.40958E-04-5.03894E-14
 -1      3680 3.81834E-03 2.74400E-04-6.26688E-15
 -1      3681 3.67444E-03 2.74499E-04-5.82830E-15
 -1      3682 3.88870E-03 2.36390E-04-6.50440E-15
 -1      3683 1.26366E-03-1.39667E-04-8.55192E-16
 -1      3684 1.26750E-03-1.72170E-04-8.46017E-16
 -1      3685 1.25721E-03-4.51291E-05-8.71739E-16
 -1      3686 1.38031E-03-6.42713E-05-1.02139E-15
 -1      3687 1.25656E-03-1.41491E-05-8.73623E-16
 -1      3688 1.32698E-02 1.29481E-03-5.99254E-14
 -1      3689 2.95343E-03 2.72042E-04-3.86957E-15
 -1      3690 2.80895E-03 2.70604E-04-3.52489E-15
 -1      3691 1.39373E-03 2.02531E-04-9.98306E-16
 -1      3692 1.26806E-03 1.75165E-04-8.53403E-16
 -1      3693 1.26410E-03 1.42517E-04-8.60911E-16
 -1      3694 2.08590E-03 2.54091E-04-2.04234E-15
 -1      3695 1.94143E-03 2.48131E-04-1.79374E-15
 -1      3696 1.86453E-03 2.10025E-04-1.68684E-15
 -1      3697 2.15371E-03 2.20622E-04-2.18517E-15
 -1      3698 1.70736E-03-2.03425E-04-1.42625E-15
 -1      3699 1.85152E-03-2.10450E-04-1.64700E-15
 -1      3700 1.11094E-02-1.89539E-05-4.92029E-14
 -1      3701 1.10691E-02 1.84207E-05-4.92169E-14
 -1      3702 1.37889E-03 1.42663E-06-1.02590E-15
 -1      3703 1.38489E-03-1.30870E-04-1.00909E-15
 -1      3704 1.50689E-03-1.19724E-04-1.17515E-15
 -1      3705 1.51018E-03-1.54954E-04-1.16602E-15
 -1      3706 1.37084E-03-1.87650E-04-9.66119E-16
 -1      3707 1.10832E-02 5.91971E-05-4.94748E-14
 -1      3708 1.11380E-02 8.88956E-05-4.98663E-14
 -1      3709 4.39307E-03 2.73177E-04-8.17045E-15
 -1      3710 4.24951E-03 2.73570E-04-7.67241E-15
 -1      3711 4.17651E-03 2.35902E-04-7.43948E-15
 -1      3712 2.66439E-03 2.68666E-04-3.19657E-15
 -1      3713 2.51977E-03 2.66169E-04-2.88405E-15
 -1      3714 2.44341E-03 2.27728E-04-2.74700E-15
 -1      3715 2.73315E-03 2.32220E-04-3.37213E-15
 -1      3716 1.51377E-03-1.98130E-04-1.14977E-15
 -1      3717 1.99598E-03-2.16342E-04-1.88372E-15
 -1      3718 2.14065E-03-2.21207E-04-2.13586E-15
 -1      3719 1.91976E-03-1.78751E-04-1.77636E-15
 -1      3720 1.12434E-02 1.27953E-04-5.05094E-14
 -1      3721 1.13593E-02 1.71548E-04-5.10498E-14
 -1      3722 4.67997E-03 2.72310E-04-9.21213E-15
 -1      3723 4.53656E-03 2.72756E-04-8.68390E-15
 -1      3724 4.75101E-03 2.34442E-04-9.48826E-15
 -1      3725 1.63562E-03-1.87433E-04-1.32813E-15
 -1      3726 1.13729E-02 2.04816E-04-5.07335E-14
 -1      3727 1.50448E-03-8.48073E-05-1.18193E-15
 -1      3728 1.62959E-03-1.06470E-04-1.35275E-15
 -1      3729 1.50292E-03-5.01616E-05-1.18636E-15
 -1      3730 1.11877E-02-1.15817E-04-4.86540E-14
 -1      3731 1.38529E-03 1.33780E-04-1.01507E-15
 -1      3732 1.50472E-03 8.77737E-05-1.18614E-15
 -1      3733 1.50308E-03 5.31731E-05-1.18898E-15
 -1      3734 2.20930E-03-1.87157E-04-2.28265E-15
 -1      3735 1.11271E-02 1.14725E-04-4.94390E-14
 -1      3736 3.09783E-03 2.73091E-04-4.23015E-15
 -1      3737 3.02266E-03 2.34828E-04-4.06156E-15
 -1      3738 3.24213E-03 2.73795E-04-4.60619E-15
 -1      3739 1.10002E-02 3.78098E-05-4.85445E-14
 -1      3740 1.50223E-03 1.87177E-05-1.18990E-15
 -1      3741 1.50218E-03-1.57142E-05-1.18907E-15
 -1      3742 1.62635E-03-3.43059E-05-1.36328E-15
 -1      3743 1.62646E-03 3.74530E-05-1.36542E-15
 -1      3744 3.60047E-03 2.36538E-04-5.62803E-15
 -1      3745 3.53044E-03 2.74452E-04-5.40563E-15
 -1      3746 3.38634E-03 2.74238E-04-4.99762E-15
 -1      3747 4.46393E-03 2.35222E-04-8.43443E-15
 -1      3748 2.71445E-03-1.57950E-04-3.33289E-15
 -1      3749 2.85964E-03-1.59007E-04-3.66416E-15
 -1      3750 3.00476E-03-1.59788E-04-4.01116E-15
 -1      3751 3.14977E-03-1.60318E-04-4.37348E-15
 -1      3752 2.93041E-03-1.21615E-04-3.84931E-15
 -1      3753 3.29468E-03-1.60661E-04-4.75129E-15
 -1      3754 3.43946E-03-1.60832E-04-5.14409E-15
 -1      3755 3.22073E-03-1.22448E-04-4.57604E-15
 -1      3756 3.58411E-03-1.60882E-04-5.55178E-15
 -1      3757 3.72862E-03-1.60820E-04-5.97380E-15
 -1      3758 3.51056E-03-1.22717E-04-5.36332E-15
 -1      3759 3.87300E-03-1.60684E-04-6.41089E-15
 -1      3760 4.01726E-03-1.60479E-04-6.86259E-15
 -1      3761 3.79985E-03-1.22620E-04-6.20954E-15
 -1      3762 4.16139E-03-1.60231E-04-7.32780E-15
 -1      3763 4.30540E-03-1.59943E-04-7.80741E-15
 -1      3764 4.08858E-03-1.22296E-04-7.11378E-15
 -1      3765 4.44929E-03-1.59634E-04-8.30080E-15
 -1      3766 4.59308E-03-1.59302E-04-8.80864E-15
 -1      3767 4.37679E-03-1.21840E-04-8.07491E-15
 -1      3768 4.73678E-03-1.58960E-04-9.33047E-15
 -1      3769 4.88037E-03-1.58606E-04-9.86781E-15
 -1      3770 4.66453E-03-1.21313E-04-9.09224E-15
 -1      3771 5.02388E-03-1.58248E-04-1.04199E-14
 -1      3772 5.16731E-03-1.57881E-04-1.09852E-14
 -1      3773 4.95185E-03-1.20751E-04-1.01675E-14
 -1      3774 5.31066E-03-1.57510E-04-1.15653E-14
 -1      3775 5.45394E-03-1.57130E-04-1.21609E-14
 -1      3776 5.23881E-03-1.20168E-04-1.13013E-14
 -1      3777 5.59715E-03-1.56741E-04-1.27709E-14
 -1      3778 5.74028E-03-1.56339E-04-1.33950E-14
 -1      3779 5.52544E-03-1.19562E-04-1.24933E-14
 -1      3780 5.88335E-03-1.55921E-04-1.40356E-14
 -1      3781 6.02635E-03-1.55481E-04-1.46905E-14
 -1      3782 5.81175E-03-1.18920E-04-1.37452E-14
 -1      3783 6.16928E-03-1.55017E-04-1.53593E-14
 -1      3784 6.31213E-03-1.54521E-04-1.60427E-14
 -1      3785 6.09777E-03-1.18220E-04-1.50559E-14
 -1      3786 6.45489E-03-1.53989E-04-1.67404E-14
 -1      3787 6.59757E-03-1.53412E-04-1.74511E-14
 -1      3788 6.38345E-03-1.17432E-04-1.64237E-14
 -1      3789 6.74014E-03-1.52788E-04-1.81765E-14
 -1      3790 6.88261E-03-1.52104E-04-1.89176E-14
 -1      3791 6.66875E-03-1.16519E-04-1.78470E-14
 -1      3792 7.02495E-03-1.51359E-04-1.96728E-14
 -1      3793 7.16715E-03-1.50539E-04-2.04431E-14
 -1      3794 6.95359E-03-1.15438E-04-1.93290E-14
 -1      3795 7.30919E-03-1.49645E-04-2.12275E-14
 -1      3796 7.45105E-03-1.48660E-04-2.20253E-14
 -1      3797 7.23784E-03-1.14146E-04-2.08696E-14
 -1      3798 7.59270E-03-1.47588E-04-2.28384E-14
 -1      3799 7.73412E-03-1.46411E-04-2.36622E-14
 -1      3800 7.52134E-03-1.12595E-04-2.24678E-14
 -1      3801 7.87527E-03-1.45136E-04-2.44987E-14
 -1      3802 8.01613E-03-1.43743E-04-2.53475E-14
 -1      3803 7.80388E-03-1.10741E-04-2.41183E-14
 -1      3804 8.15665E-03-1.42246E-04-2.62096E-14
 -1      3805 8.29681E-03-1.40622E-04-2.70828E-14
 -1      3806 8.08519E-03-1.08545E-04-2.58176E-14
 -1      3807 8.43655E-03-1.38896E-04-2.79669E-14
 -1      3808 8.57583E-03-1.37042E-04-2.88631E-14
 -1      3809 8.36496E-03-1.05982E-04-2.75648E-14
 -1      3810 8.71460E-03-1.35096E-04-2.97712E-14
 -1      3811 8.85282E-03-1.33029E-04-3.06900E-14
 -1      3812 8.64281E-03-1.03043E-04-2.93588E-14
 -1      3813 8.99042E-03-1.30896E-04-3.16206E-14
 -1      3814 9.12737E-03-1.28663E-04-3.25627E-14
 -1      3815 8.91832E-03-9.97458E-05-3.11986E-14
 -1      3816 9.26359E-03-1.26403E-04-3.35151E-14
 -1      3817 9.39906E-03-1.24079E-04-3.44777E-14
 -1      3818 9.19103E-03-9.61432E-05-3.30834E-14
 -1      3819 9.53369E-03-1.21787E-04-3.54519E-14
 -1      3820 9.66749E-03-1.19482E-04-3.64356E-14
 -1      3821 9.46043E-03-9.23258E-05-3.50129E-14
 -1      3822 9.80033E-03-1.17284E-04-3.74299E-14
 -1      3823 9.93227E-03-1.15138E-04-3.84352E-14
 -1      3824 9.72600E-03-8.84208E-05-3.69857E-14
 -1      3825 1.00632E-02-1.13186E-04-3.94483E-14
 -1      3826 1.01931E-02-1.11361E-04-4.04680E-14
 -1      3827 9.98721E-03-8.45790E-05-3.89965E-14
 -1      3828 1.03220E-02-1.09822E-04-4.14978E-14
 -1      3829 1.04500E-02-1.08491E-04-4.25351E-14
 -1      3830 1.02436E-02-8.09449E-05-4.10417E-14
 -1      3831 1.05770E-02-1.07543E-04-4.35792E-14
 -1      3832 1.07032E-02-1.06828E-04-4.46284E-14
 -1      3833 1.04945E-02-7.76144E-05-4.31186E-14
 -1      3834 1.08284E-02-1.06696E-04-4.56820E-14
 -1      3835 1.09533E-02-1.06995E-04-4.67379E-14
 -1      3836 1.07396E-02-7.45840E-05-4.52192E-14
 -1      3837 1.55010E-03 1.49826E-04-1.23275E-15
 -1      3838 1.67262E-03 1.37131E-04-1.41544E-15
 -1      3839 2.13373E-03-1.49643E-04-2.16199E-15
 -1      3840 2.27880E-03-1.52450E-04-2.43130E-15
 -1      3841 1.70385E-03-1.57978E-04-1.44379E-15
 -1      3842 5.10908E-03 1.95862E-04-1.08911E-14
 -1      3843 4.96567E-03 1.96222E-04-1.03204E-14
 -1      3844 5.96811E-03 1.93483E-04-1.46156E-14
 -1      3845 5.82509E-03 1.93922E-04-1.39589E-14
 -1      3846 6.25394E-03 1.92516E-04-1.59694E-14
 -1      3847 6.11106E-03 1.93017E-04-1.52855E-14
 -1      3848 6.03946E-03 1.56179E-04-1.49392E-14
 -1      3849 6.53949E-03 1.91386E-04-1.73760E-14
 -1      3850 6.39676E-03 1.91975E-04-1.66660E-14
 -1      3851 6.32522E-03 1.55364E-04-1.63048E-14
 -1      3852 6.82470E-03 1.90034E-04-1.88404E-14
 -1      3853 6.68215E-03 1.90742E-04-1.81011E-14
 -1      3854 6.61065E-03 1.54403E-04-1.77250E-14
 -1      3855 7.10948E-03 1.88395E-04-2.03626E-14
 -1      3856 6.96715E-03 1.89255E-04-1.95941E-14
 -1      3857 6.89566E-03 1.53247E-04-1.92020E-14
 -1      3858 7.39371E-03 1.86406E-04-2.19435E-14
 -1      3859 7.25167E-03 1.87450E-04-2.11464E-14
 -1      3860 7.18016E-03 1.51843E-04-2.07374E-14
 -1      3861 7.67722E-03 1.84005E-04-2.35788E-14
 -1      3862 7.53557E-03 1.85263E-04-2.27537E-14
 -1      3863 7.46400E-03 1.50139E-04-2.23313E-14
 -1      3864 7.95981E-03 1.81144E-04-2.52679E-14
 -1      3865 7.81865E-03 1.82638E-04-2.44175E-14
 -1      3866 7.74697E-03 1.48088E-04-2.39796E-14
 -1      3867 8.24122E-03 1.77800E-04-2.70032E-14
 -1      3868 8.10068E-03 1.79538E-04-2.61300E-14
 -1      3869 8.02885E-03 1.45657E-04-2.56787E-14
 -1      3870 8.52112E-03 1.73986E-04-2.87904E-14
 -1      3871 8.38137E-03 1.75956E-04-2.78900E-14
 -1      3872 8.30932E-03 1.42835E-04-2.74256E-14
 -1      3873 8.79916E-03 1.69771E-04-3.06283E-14
 -1      3874 8.66039E-03 1.71931E-04-2.97022E-14
 -1      3875 8.58803E-03 1.39648E-04-2.92225E-14
 -1      3876 9.07490E-03 1.65304E-04-3.25138E-14
 -1      3877 8.93734E-03 1.67569E-04-3.15653E-14
 -1      3878 8.86454E-03 1.36170E-04-3.10710E-14
 -1      3879 9.34788E-03 1.60833E-04-3.44476E-14
 -1      3880 9.21176E-03 1.63066E-04-3.34753E-14
 -1      3881 9.13838E-03 1.32547E-04-3.29662E-14
 -1      3882 9.61759E-03 1.56720E-04-3.64249E-14
 -1      3883 9.48316E-03 1.58725E-04-3.54315E-14
 -1      3884 9.40899E-03 1.29007E-04-3.49073E-14
 -1      3885 9.88352E-03 1.53450E-04-3.84436E-14
 -1      3886 9.75104E-03 1.54972E-04-3.74296E-14
 -1      3887 9.67578E-03 1.25869E-04-3.68934E-14
 -1      3888 1.01452E-02 1.51607E-04-4.04986E-14
 -1      3889 1.00149E-02 1.52345E-04-3.94663E-14
 -1      3890 9.93811E-03 1.23538E-04-3.89186E-14
 -1      3891 1.04022E-02 1.51834E-04-4.25844E-14
 -1      3892 1.02743E-02 1.51462E-04-4.15392E-14
 -1      3893 1.01953E-02 1.22459E-04-4.09795E-14
 -1      3894 1.06545E-02 1.54786E-04-4.46982E-14
 -1      3895 1.05289E-02 1.52975E-04-4.36370E-14
 -1      3896 1.04465E-02 1.23059E-04-4.30708E-14
 -1      3897 1.09021E-02 1.61048E-04-4.68297E-14
 -1      3898 1.07787E-02 1.57518E-04-4.57610E-14
 -1      3899 1.06910E-02 1.25711E-04-4.51843E-14
 -1      3900 3.95940E-03 1.98302E-04-6.74105E-15
 -1      3901 3.81523E-03 1.98447E-04-6.28868E-15
 -1      3902 1.12499E-02 1.90530E-04-4.97381E-14
 -1      3903 5.39567E-03 1.95121E-04-1.20760E-14
 -1      3904 5.25241E-03 1.95496E-04-1.14761E-14
 -1      3905 5.18044E-03 1.58144E-04-1.11794E-14
 -1      3906 1.10549E-02-9.94434E-05-4.76972E-14
 -1      3907 1.11748E-02-6.81412E-05-4.91538E-14
 -1      3908 1.11431E-02-4.68441E-05-4.91551E-14
 -1      3909 1.09581E-02-6.48184E-05-4.72341E-14
 -1      3910 1.55936E-03 2.22617E-04-1.21315E-15
 -1      3911 1.55418E-03 1.85960E-04-1.22429E-15
 -1      3912 1.10229E-02-2.88510E-05-4.82403E-14
 -1      3913 1.51628E-03 2.71252E-04-1.12252E-15
 -1      3914 1.09077E-02 1.77832E-05-4.75029E-14
 -1      3915 1.09268E-02 5.86798E-05-4.77577E-14
 -1      3916 5.68201E-03 1.94337E-04-1.33165E-14
 -1      3917 5.53888E-03 1.94736E-04-1.26894E-14
 -1      3918 5.75340E-03 1.56891E-04-1.36285E-14
 -1      3919 4.24740E-03 1.97845E-04-7.68969E-15
 -1      3920 4.10346E-03 1.98100E-04-7.20835E-15
 -1      3921 4.03040E-03 1.60175E-04-6.97825E-15
 -1      3922 1.49312E-03 2.49546E-04-1.10456E-15
 -1      3923 2.42398E-03-1.54737E-04-2.71622E-15
 -1      3924 2.56922E-03-1.56539E-04-3.01668E-15
 -1      3925 2.34906E-03-1.17146E-04-2.58237E-15
 -1      3926 4.53499E-03 1.97245E-04-8.69792E-15
 -1      3927 4.39125E-03 1.97560E-04-8.18625E-15
 -1      3928 4.31854E-03 1.59776E-04-7.94014E-15
 -1      3929 1.10159E-02 1.06993E-04-4.83839E-14
 -1      3930 1.11226E-02 1.46684E-04-4.90214E-14
 -1      3931 4.82219E-03 1.96573E-04-9.76476E-15
 -1      3932 4.67863E-03 1.96917E-04-9.22400E-15
 -1      3933 4.60622E-03 1.59275E-04-8.96094E-15
 -1      3934 4.89351E-03 1.58724E-04-1.00410E-14
 -1      3935 1.81666E-03 1.42291E-04-1.63732E-15
 -1      3936 1.77153E-03 7.63892E-05-1.58150E-15
 -1      3937 1.96116E-03 1.46628E-04-1.87472E-15
 -1      3938 1.73843E-03-1.34536E-04-1.50605E-15
 -1      3939 1.80984E-03-1.49317E-04-1.61163E-15
 -1      3940 1.95431E-03-1.53879E-04-1.84599E-15
 -1      3941 1.73575E-03-9.71002E-05-1.51458E-15
 -1      3942 1.09315E-02-3.74307E-05-4.72791E-14
 -1      3943 1.09107E-02-1.27502E-05-4.73230E-14
 -1      3944 1.08357E-02-4.63201E-05-4.63203E-14
 -1      3945 3.67093E-03 1.98502E-04-5.85084E-15
 -1      3946 3.52651E-03 1.98459E-04-5.42829E-15
 -1      3947 3.74177E-03 1.60389E-04-6.07416E-15
 -1      3948 2.51251E-03 1.91989E-04-2.90810E-15
 -1      3949 2.36743E-03 1.89549E-04-2.61094E-15
 -1      3950 2.63975E-03-1.19959E-04-3.18494E-15
 -1      3951 1.10026E-02 1.67116E-04-4.76897E-14
 -1      3952 1.09067E-02 1.32138E-04-4.71062E-14
 -1      3953 1.11200E-02 1.76101E-04-4.86782E-14
 -1      3954 3.31179E-03 2.36122E-04-4.81338E-15
 -1      3955 5.46707E-03 1.57538E-04-1.23756E-14
 -1      3956 2.23663E-03 1.69892E-04-2.36351E-15
 -1      3957 2.09166E-03 1.66543E-04-2.09630E-15
 -1      3958 2.04576E-03 9.72944E-05-2.03467E-15
 -1      3959 2.30646E-03 1.34948E-04-2.50981E-15
 -1      3960 2.02400E-03-1.20811E-04-1.97852E-15
 -1      3961 1.77022E-03 3.89730E-05-1.58322E-15
 -1      3962 1.08147E-02 9.47379E-06-4.65419E-14
 -1      3963 2.80264E-03 1.95415E-04-3.54916E-15
 -1      3964 2.65759E-03 1.93928E-04-3.22049E-15
 -1      3965 2.58234E-03 1.55804E-04-3.07019E-15
 -1      3966 1.09233E-02 8.01511E-05-4.76416E-14
 -1      3967 1.08996E-02 1.07580E-04-4.72265E-14
 -1      3968 1.08071E-02 1.04033E-04-4.63688E-14
 -1      3969 1.08126E-02 5.97675E-05-4.66041E-14
 -1      3970 3.09251E-03 1.97356E-04-4.25449E-15
 -1      3971 2.94762E-03 1.96546E-04-3.89410E-15
 -1      3972 2.87278E-03 1.58303E-04-3.72803E-15
 -1      3973 3.14703E-03-8.42520E-05-4.40056E-15
 -1      3974 3.29218E-03-8.44199E-05-4.77987E-15
 -1      3975 3.43720E-03-8.45082E-05-5.17448E-15
 -1      3976 3.58208E-03-8.45154E-05-5.58375E-15
 -1      3977 3.36407E-03-4.62845E-05-4.98561E-15
 -1      3978 3.72681E-03-8.44752E-05-6.00739E-15
 -1      3979 3.87140E-03-8.43831E-05-6.44572E-15
 -1      3980 3.65395E-03-4.62707E-05-5.80537E-15
 -1      3981 4.01585E-03-8.42615E-05-6.89901E-15
 -1      3982 4.16016E-03-8.41080E-05-7.36606E-15
 -1      3983 3.94324E-03-4.61407E-05-6.68388E-15
 -1      3984 4.30433E-03-8.39409E-05-7.84819E-15
 -1      3985 4.44838E-03-8.37545E-05-8.34420E-15
 -1      3986 4.23196E-03-4.59450E-05-7.62065E-15
 -1      3987 4.59231E-03-8.35621E-05-8.85316E-15
 -1      3988 4.73612E-03-8.33586E-05-9.37749E-15
 -1      3989 4.52014E-03-4.57111E-05-8.61443E-15
 -1      3990 4.87983E-03-8.31533E-05-9.91622E-15
 -1      3991 5.02344E-03-8.29409E-05-1.04697E-14
 -1      3992 4.80783E-03-4.54567E-05-9.66524E-15
 -1      3993 5.16695E-03-8.27277E-05-1.10374E-14
 -1      3994 5.31038E-03-8.25087E-05-1.16197E-14
 -1      3995 5.09511E-03-4.51916E-05-1.07729E-14
 -1      3996 5.45371E-03-8.22874E-05-1.22163E-14
 -1      3997 5.59697E-03-8.20589E-05-1.28284E-14
 -1      3998 5.38199E-03-4.49183E-05-1.19400E-14
 -1      3999 5.74015E-03-8.18250E-05-1.34548E-14
 -1      4000 5.88324E-03-8.15807E-05-1.40966E-14
 -1      4001 5.66853E-03-4.46339E-05-1.31651E-14
 -1      4002 6.02625E-03-8.13263E-05-1.47525E-14
 -1      4003 6.16918E-03-8.10567E-05-1.54221E-14
 -1      4004 5.95474E-03-4.43313E-05-1.44487E-14
 -1      4005 6.31202E-03-8.07711E-05-1.61075E-14
 -1      4006 6.45476E-03-8.04642E-05-1.68058E-14
 -1      4007 6.24059E-03-4.40000E-05-1.57913E-14
 -1      4008 6.59739E-03-8.01346E-05-1.75192E-14
 -1      4009 6.73991E-03-7.97761E-05-1.82457E-14
 -1      4010 6.52605E-03-4.36262E-05-1.71907E-14
 -1      4011 6.88230E-03-7.93877E-05-1.89860E-14
 -1      4012 7.02454E-03-7.89620E-05-1.97433E-14
 -1      4013 6.81105E-03-4.31940E-05-1.86445E-14
 -1      4014 7.16661E-03-7.84987E-05-2.05144E-14
 -1      4015 7.30850E-03-7.79889E-05-2.12994E-14
 -1      4016 7.09547E-03-4.26850E-05-2.01588E-14
 -1      4017 7.45017E-03-7.74340E-05-2.20989E-14
 -1      4018 7.59161E-03-7.68228E-05-2.29122E-14
 -1      4019 7.37915E-03-4.20791E-05-2.17300E-14
 -1      4020 7.73277E-03-7.61598E-05-2.37364E-14
 -1      4021 7.87363E-03-7.54306E-05-2.45739E-14
 -1      4022 7.66189E-03-4.13548E-05-2.33548E-14
 -1      4023 8.01414E-03-7.46445E-05-2.54247E-14
 -1      4024 8.15426E-03-7.37831E-05-2.62876E-14
 -1      4025 7.94342E-03-4.04902E-05-2.50315E-14
 -1      4026 8.29395E-03-7.28619E-05-2.71627E-14
 -1      4027 8.43316E-03-7.18578E-05-2.80476E-14
 -1      4028 8.22343E-03-3.94635E-05-2.67574E-14
 -1      4029 8.57183E-03-7.07947E-05-2.89449E-14
 -1      4030 8.70991E-03-6.96433E-05-2.98544E-14
 -1      4031 8.50152E-03-3.82543E-05-2.85308E-14
 -1      4032 8.84732E-03-6.84386E-05-3.07762E-14
 -1      4033 8.98403E-03-6.71434E-05-3.17088E-14
 -1      4034 8.77725E-03-3.68443E-05-3.03533E-14
 -1      4035 9.11993E-03-6.58062E-05-3.26529E-14
 -1      4036 9.25500E-03-6.43798E-05-3.36078E-14
 -1      4037 9.05010E-03-3.52180E-05-3.22206E-14
 -1      4038 9.38911E-03-6.29286E-05-3.45739E-14
 -1      4039 9.52224E-03-6.13917E-05-3.55506E-14
 -1      4040 9.31948E-03-3.33617E-05-3.41328E-14
 -1      4041 9.65424E-03-5.98528E-05-3.65387E-14
 -1      4042 9.78511E-03-5.82302E-05-3.75368E-14
 -1      4043 9.58475E-03-3.12604E-05-3.60907E-14
 -1      4044 9.91467E-03-5.66312E-05-3.85445E-14
 -1      4045 1.00429E-02-5.49396E-05-3.95603E-14
 -1      4046 9.84516E-03-2.88911E-05-3.80902E-14
 -1      4047 1.01696E-02-5.32975E-05-4.05853E-14
 -1      4048 1.02949E-02-5.15271E-05-4.16174E-14
 -1      4049 1.00998E-02-2.62084E-05-4.01250E-14
 -1      4050 1.04182E-02-4.98498E-05-4.26554E-14
 -1      4051 1.05398E-02-4.78971E-05-4.37027E-14
 -1      4052 1.03476E-02-2.31165E-05-4.21918E-14
 -1      4053 1.07191E-02-4.84444E-05-4.52636E-14
 -1      4054 1.91083E-03-8.88451E-05-1.79646E-15
 -1      4055 2.09056E-03-8.29660E-05-2.10776E-15
 -1      4056 4.38989E-03 1.21706E-04-8.19028E-15
 -1      4057 4.24586E-03 1.21878E-04-7.69591E-15
 -1      4058 2.56551E-03-8.22372E-05-3.03770E-15
 -1      4059 2.71097E-03-8.29881E-05-3.35539E-15
 -1      4060 4.10169E-03 1.22023E-04-7.21528E-15
 -1      4061 3.95740E-03 1.22142E-04-6.74910E-15
 -1      4062 4.17323E-03 8.38740E-05-7.45230E-15
 -1      4063 6.11082E-03 1.18963E-04-1.52626E-14
 -1      4064 5.96786E-03 1.19249E-04-1.45944E-14
 -1      4065 6.96657E-03 1.16641E-04-1.95637E-14
 -1      4066 6.82423E-03 1.17126E-04-1.88109E-14
 -1      4067 7.25078E-03 1.15520E-04-2.11130E-14
 -1      4068 7.10876E-03 1.16110E-04-2.03312E-14
 -1      4069 7.03745E-03 8.02287E-05-1.99260E-14
 -1      4070 7.53422E-03 1.14159E-04-2.27189E-14
 -1      4071 7.39260E-03 1.14874E-04-2.19101E-14
 -1      4072 7.32136E-03 7.94388E-05-2.14890E-14
 -1      4073 7.81666E-03 1.12528E-04-2.43803E-14
 -1      4074 7.67558E-03 1.13383E-04-2.35420E-14
 -1      4075 7.60440E-03 7.84817E-05-2.31085E-14
 -1      4076 8.09783E-03 1.10607E-04-2.60878E-14
 -1      4077 7.95742E-03 1.11610E-04-2.52274E-14
 -1      4078 7.88633E-03 7.73394E-05-2.47789E-14
 -1      4079 8.37740E-03 1.08396E-04-2.78477E-14
 -1      4080 8.23783E-03 1.09543E-04-2.69624E-14
 -1      4081 8.16683E-03 7.60055E-05-2.64990E-14
 -1      4082 8.65494E-03 1.05930E-04-2.96551E-14
 -1      4083 8.51644E-03 1.07201E-04-2.87445E-14
 -1      4084 8.44553E-03 7.44917E-05-2.82690E-14
 -1      4085 8.93000E-03 1.03286E-04-3.15120E-14
 -1      4086 8.79281E-03 1.04635E-04-3.05777E-14
 -1      4087 8.72200E-03 7.28363E-05-3.00873E-14
 -1      4088 9.20203E-03 1.00598E-04-3.34170E-14
 -1      4089 9.06643E-03 1.01952E-04-3.24596E-14
 -1      4090 8.99571E-03 7.11140E-05-3.19539E-14
 -1      4091 9.47042E-03 9.80710E-05-3.53678E-14
 -1      4092 9.33671E-03 9.93195E-05-3.43867E-14
 -1      4093 9.26607E-03 6.94450E-05-3.38679E-14
 -1      4094 9.73448E-03 9.59758E-05-3.73603E-14
 -1      4095 9.60302E-03 9.69763E-05-3.63583E-14
 -1      4096 9.53243E-03 6.80015E-05-3.58259E-14
 -1      4097 9.99343E-03 9.46407E-05-3.93923E-14
 -1      4098 9.86462E-03 9.52272E-05-3.83722E-14
 -1      4099 9.79401E-03 6.70073E-05-3.78271E-14
 -1      4100 1.02463E-02 9.43926E-05-4.14589E-14
 -1      4101 1.01207E-02 9.44165E-05-4.04216E-14
 -1      4102 1.00499E-02 6.67240E-05-3.98645E-14
 -1      4103 1.04920E-02 9.54784E-05-4.35523E-14
 -1      4104 1.03701E-02 9.48135E-05-4.25023E-14
 -1      4105 1.02989E-02 6.73832E-05-4.19341E-14
 -1      4106 1.07101E-02 1.00047E-04-4.54883E-14
 -1      4107 1.05921E-02 9.87618E-05-4.44284E-14
 -1      4108 1.05195E-02 7.10533E-05-4.38526E-14
 -1      4109 1.07131E-02 7.75988E-05-4.56071E-14
 -1      4110 3.38196E-03 1.98270E-04-5.02160E-15
 -1      4111 3.23729E-03 1.97922E-04-4.63032E-15
 -1      4112 3.16292E-03 1.59676E-04-4.44805E-15
 -1      4113 3.45260E-03 1.60282E-04-5.23075E-15
 -1      4114 5.25189E-03 1.20470E-04-1.14664E-14
 -1      4115 5.10846E-03 1.20692E-04-1.08841E-14
 -1      4116 6.68176E-03 1.17562E-04-1.80732E-14
 -1      4117 6.53918E-03 1.17961E-04-1.73493E-14
 -1      4118 6.75285E-03 8.08755E-05-1.84209E-14
 -1      4119 6.39648E-03 1.18323E-04-1.66403E-14
 -1      4120 6.25369E-03 1.18657E-04-1.59445E-14
 -1      4121 6.18217E-03 8.18462E-05-1.55864E-14
 -1      4122 6.46773E-03 8.14059E-05-1.69757E-14
 -1      4123 5.53851E-03 1.20010E-04-1.26745E-14
 -1      4124 5.39524E-03 1.20244E-04-1.20634E-14
 -1      4125 5.32340E-03 8.28542E-05-1.17531E-14
 -1      4126 5.82482E-03 1.19515E-04-1.39405E-14
 -1      4127 5.68170E-03 1.19769E-04-1.33003E-14
 -1      4128 5.89624E-03 8.22211E-05-1.42519E-14
 -1      4129 1.07174E-02-4.83317E-06-4.55463E-14
 -1      4130 1.07229E-02 2.49344E-05-4.57218E-14
 -1      4131 1.92981E-03 3.53449E-05-1.84256E-15
 -1      4132 1.78505E-03-3.25706E-06-1.60675E-15
 -1      4133 2.85640E-03-8.35596E-05-3.68816E-15
 -1      4134 3.00176E-03-8.39672E-05-4.03680E-15
 -1      4135 2.78279E-03-4.56740E-05-3.52775E-15
 -1      4136 2.27471E-03-8.00468E-05-2.45005E-15
 -1      4137 2.42006E-03-8.12616E-05-2.73607E-15
 -1      4138 2.49176E-03-4.48522E-05-2.89192E-15
 -1      4139 1.78553E-03-4.07340E-05-1.60408E-15
 -1      4140 2.65289E-03 1.19193E-04-3.23451E-15
 -1      4141 2.50751E-03 1.17953E-04-2.92174E-15
 -1      4142 1.06134E-02-3.10409E-05-4.44503E-14
 -1      4143 4.53382E-03 1.21522E-04-8.69948E-15
 -1      4144 4.46144E-03 8.36621E-05-8.44024E-15
 -1      4145 4.67763E-03 1.21324E-04-9.22409E-15
 -1      4146 3.88448E-03 8.40101E-05-6.52116E-15
 -1      4147 3.81297E-03 1.22211E-04-6.29730E-15
 -1      4148 3.66840E-03 1.22238E-04-5.86099E-15
 -1      4149 5.60998E-03 8.25516E-05-1.29733E-14
 -1      4150 2.37707E-03 9.94055E-05-2.65785E-15
 -1      4151 2.24678E-03 8.10640E-05-2.40618E-15
 -1      4152 2.44838E-03 6.33106E-05-2.80789E-15
 -1      4153 5.03647E-03 8.31397E-05-1.05900E-14
 -1      4154 4.96494E-03 1.20907E-04-1.03159E-14
 -1      4155 4.82133E-03 1.21120E-04-9.76260E-15
 -1      4156 1.05450E-02-4.98356E-06-4.39805E-14
 -1      4157 3.07364E-03-4.61148E-05-4.22565E-15
 -1      4158 2.16189E-03-4.82435E-05-2.24518E-15
 -1      4159 2.15296E-03 6.67172E-05-2.23217E-15
 -1      4160 2.02315E-03 4.90166E-05-2.00157E-15
 -1      4161 2.03788E-03 4.47946E-06-2.02795E-15
 -1      4162 2.22465E-03 3.14891E-05-2.36848E-15
 -1      4163 1.07207E-02 5.61680E-05-4.57243E-14
 -1      4164 2.79825E-03 1.20170E-04-3.56267E-15
 -1      4165 2.72408E-03 8.22043E-05-3.39985E-15
 -1      4166 2.94355E-03 1.20900E-04-3.90736E-15
 -1      4167 1.80230E-03-6.16942E-05-1.62682E-15
 -1      4168 1.06145E-02 4.24257E-05-4.47305E-14
 -1      4169 3.58132E-03-8.03971E-06-5.60301E-15
 -1      4170 3.72615E-03-8.00283E-06-6.02830E-15
 -1      4171 3.91351E-03 1.89259E-05-6.60678E-15
 -1      4172 4.05798E-03 1.89454E-05-7.06641E-15
 -1      4173 4.20231E-03 1.89479E-05-7.54095E-15
 -1      4174 4.34651E-03 1.89568E-05-8.02970E-15
 -1      4175 4.49057E-03 1.89547E-05-8.53226E-15
 -1      4176 4.63452E-03 1.89582E-05-9.04909E-15
 -1      4177 4.77834E-03 1.89537E-05-9.57982E-15
 -1      4178 4.92206E-03 1.89540E-05-1.01261E-14
 -1      4179 5.06568E-03 1.89485E-05-1.06866E-14
 -1      4180 5.20919E-03 1.89467E-05-1.12616E-14
 -1      4181 5.35262E-03 1.89402E-05-1.18511E-14
 -1      4182 5.49595E-03 1.89362E-05-1.24549E-14
 -1      4183 5.63920E-03 1.89280E-05-1.30740E-14
 -1      4184 5.78237E-03 1.89209E-05-1.37070E-14
 -1      4185 5.92545E-03 1.89094E-05-1.43546E-14
 -1      4186 6.06844E-03 1.88978E-05-1.50164E-14
 -1      4187 6.21134E-03 1.88810E-05-1.56921E-14
 -1      4188 6.35414E-03 1.88632E-05-1.63824E-14
 -1      4189 6.49684E-03 1.88387E-05-1.70858E-14
 -1      4190 6.63942E-03 1.88126E-05-1.78046E-14
 -1      4191 6.78188E-03 1.87779E-05-1.85373E-14
 -1      4192 6.92419E-03 1.87417E-05-1.92832E-14
 -1      4193 7.06634E-03 1.86944E-05-2.00461E-14
 -1      4194 7.20831E-03 1.86465E-05-2.08226E-14
 -1      4195 7.35007E-03 1.85848E-05-2.16129E-14
 -1      4196 7.49160E-03 1.85248E-05-2.24177E-14
 -1      4197 7.63287E-03 1.84481E-05-2.32358E-14
 -1      4198 7.77384E-03 1.83772E-05-2.40649E-14
 -1      4199 7.91447E-03 1.82869E-05-2.49075E-14
 -1      4200 8.05472E-03 1.82093E-05-2.57634E-14
 -1      4201 8.19455E-03 1.81100E-05-2.66325E-14
 -1      4202 8.33390E-03 1.80340E-05-2.75129E-14
 -1      4203 8.47271E-03 1.79353E-05-2.84041E-14
 -1      4204 8.61094E-03 1.78755E-05-2.93069E-14
 -1      4205 8.74851E-03 1.77939E-05-3.02234E-14
 -1      4206 8.88536E-03 1.77730E-05-3.11507E-14
 -1      4207 9.02140E-03 1.77340E-05-3.20900E-14
 -1      4208 9.15657E-03 1.77861E-05-3.30421E-14
 -1      4209 9.29077E-03 1.78264E-05-3.40042E-14
 -1      4210 9.42393E-03 1.79987E-05-3.49784E-14
 -1      4211 9.55593E-03 1.81680E-05-3.59622E-14
 -1      4212 9.68670E-03 1.85233E-05-3.69562E-14
 -1      4213 9.81608E-03 1.88843E-05-3.79623E-14
 -1      4214 9.94400E-03 1.95023E-05-3.89760E-14
 -1      4215 1.00702E-02 2.01284E-05-3.99969E-14
 -1      4216 1.01947E-02 2.11125E-05-4.10288E-14
 -1      4217 1.03172E-02 2.20736E-05-4.20661E-14
 -1      4218 1.04375E-02 2.36421E-05-4.31111E-14
 -1      4219 1.05185E-02 3.91690E-05-4.38539E-14
 -1      4220 2.75266E-03 1.83567E-05-3.46693E-15
 -1      4221 2.89816E-03 1.85125E-05-3.80598E-15
 -1      4222 3.29124E-03-8.09007E-06-4.79749E-15
 -1      4223 3.43635E-03-8.06449E-06-5.19303E-15
 -1      4224 3.50898E-03 3.01962E-05-5.40141E-15
 -1      4225 3.02208E-03 5.25119E-06-4.10606E-15
 -1      4226 3.16743E-03 5.30801E-06-4.47346E-15
 -1      4227 3.24034E-03 4.34791E-05-4.66664E-15
 -1      4228 2.99311E-03 6.98625E-05-4.03512E-15
 -1      4229 2.60712E-03 1.81836E-05-3.14417E-15
 -1      4230 4.74917E-03 8.34111E-05-9.48598E-15
 -1      4231 2.46159E-03 1.79495E-05-2.83658E-15
 -1      4232 3.48027E-03 9.52875E-05-5.32010E-15
 -1      4233 3.33532E-03 9.51604E-05-4.91917E-15
 -1      4234 1.96123E-03-2.99742E-05-1.89280E-15
 -1      4235 2.05415E-03-1.73565E-05-2.05504E-15
 -1      4236 2.33184E-03 6.68657E-07-2.57449E-15
 -1      4237 3.06687E-03 1.08015E-04-4.21444E-15
 -1      4238 2.23845E-03-1.28154E-05-2.39312E-15
 -1      4239 3.84148E-03 5.71390E-05-6.38718E-15
 -1      4240 3.21203E-03 1.08368E-04-4.58738E-15
 -1      4241 3.55202E-03 5.71083E-05-5.52557E-15
 -1      4242 3.69683E-03 5.71395E-05-5.94811E-15
 -3
    1PSTEP                         2           1           1          
  100CL  101 1.000000000        4242                     0    1           1
 -4  STRESS      6    1
 -5  SXX         1    4    1    1
 -5  SYY         1    4    2    2
 -5  SZZ         1    4    3    3
 -5  SXY         1    4    1    2
 -5  SYZ         1    4    2    3
 -5  SZX         1    4    3    1
 -1         1 8.29046E+01 1.04861E+00 3.45245E+00 3.74063E+00-1.85591E-13-1.14131E-12
 -1         2-2.17513E+00-5.89410E+01-1.60879E+01-7.27987E-01 2.45066E-12 2.04711E-13
 -1         3 2.03022E+01 3.54243E-01 2.83337E-01 3.21282E-01 1.09054E-13 1.44998E-13
 -1         4 2.02016E+01 2.27670E-01 1.38078E-01-2.10862E-01 2.09780E-14 7.64415E-14
 -1         5 3.27685E+01 6.14285E+00 2.74226E+00 6.22414E+00-1.83117E-14 1.51124E-12
 -1         6 3.57523E+01 1.22633E+01 5.12513E+00-8.64635E+00-8.17679E-14 1.60527E-12
 -1         7 2.08203E+01 6.10013E+00-1.28504E-01-4.72488E+00-1.33227E-14 3.99389E-13
 -1         8 1.96731E+01 5.93536E+00 5.10228E-02-3.27387E+00-1.92277E-14-6.84392E-15
 -1         9 1.91384E+01 5.77221E+00 4.91932E-02-2.52552E+00-1.43132E-14-2.49625E-13
 -1        10 1.88952E+01 5.69216E+00 5.09564E-02-1.95014E+00-1.37277E-14-3.73644E-13
 -1        11 1.87733E+01 5.65112E+00 5.02506E-02-1.45529E+00-1.24688E-14-4.36899E-13
 -1        12 1.87094E+01 5.62940E+00 4.87979E-02-1.01449E+00-6.92198E-15-4.67841E-13
 -1        13 1.86755E+01 5.61785E+00 4.73940E-02-5.94907E-01-3.57602E-15-4.68792E-13
 -1        14 1.86612E+01 5.61296E+00 4.66562E-02-1.91046E-01-1.96951E-15-4.70440E-13
 -1        15 1.86617E+01 5.61311E+00 4.66958E-02 2.08053E-01 1.64230E-15-4.70231E-13
 -1        16 1.86770E+01 5.61833E+00 4.75210E-02 6.12734E-01 3.79861E-15-4.59623E-13
 -1        17 1.87122E+01 5.63014E+00 4.90456E-02 1.03425E+00 5.25773E-15-4.51463E-13
 -1        18 1.87775E+01 5.65230E+00 5.08080E-02 1.47815E+00 8.45417E-15-4.22924E-13
 -1        19 1.89012E+01 5.69384E+00 5.15350E-02 1.97918E+00 1.49212E-14-3.67406E-13
 -1        20 1.91432E+01 5.77472E+00 4.88110E-02 2.56279E+00 1.67175E-14-2.67770E-13
 -1        21 1.96687E+01 5.94995E+00 4.59845E-02 3.30792E+00 2.30926E-14-3.73035E-14
 -1        22 2.12030E+01 6.38183E+00 1.39775E-01 4.52248E+00 4.71845E-15 4.28045E-13
 -1        23 2.30312E+01-1.37932E+00-9.38353E-01-7.11000E-01-5.15525E-14 1.30172E-12
 -1        24 1.93695E+01-9.94863E-02-3.09830E-01 6.32371E-02-1.50938E-14 1.06362E-12
 -1        25 1.86819E+01-5.63244E-02-6.88181E-02 6.07366E-02-9.11012E-15 8.18135E-13
 -1        26 1.84803E+01-2.20948E-02-6.50674E-03 3.30005E-02 8.13097E-15 6.26752E-13
 -1        27 1.84926E+01-1.18044E-02 1.56930E-03 2.26278E-02-1.07465E-14 5.01266E-13
 -1        28 1.86078E+01-6.24017E-03 1.77683E-03 1.63349E-02-1.53402E-14 4.46589E-13
 -1        29 1.87687E+01-3.08269E-03 1.72004E-03 1.21959E-02 3.50772E-15 3.76188E-13
 -1        30 1.89441E+01-1.22318E-03 1.90633E-03 9.24941E-03 2.66604E-15 2.90941E-13
 -1        31 1.91161E+01-1.21751E-04 2.07256E-03 7.03768E-03 2.54981E-14 3.06135E-13
 -1        32 1.92750E+01 5.12296E-04 2.11144E-03 5.32803E-03-2.65581E-14 2.01239E-13
 -1        33 1.94157E+01 8.48826E-04 2.03079E-03 3.98941E-03 1.94021E-14 8.09179E-14
 -1        34 1.95364E+01 9.93926E-04 1.86912E-03 2.93830E-03-3.02936E-14-6.07022E-14
 -1        35 1.96371E+01 1.01703E-03 1.66275E-03 2.11523E-03 1.93060E-14-4.98939E-14
 -1        36 1.97192E+01 9.64596E-04 1.43861E-03 1.47421E-03-1.10923E-14 3.88009E-14
 -1        37 1.97846E+01 8.67625E-04 1.21451E-03 9.77928E-04-5.24028E-14-3.80983E-14
 -1        38 1.98354E+01 7.46123E-04 1.00076E-03 5.95565E-04 4.42519E-14-8.22177E-14
 -1        39 1.98740E+01 6.12039E-04 8.01788E-04 3.01655E-04-1.14301E-14 4.26224E-15
 -1        40 1.99028E+01 4.71287E-04 6.17437E-04 7.55498E-05 2.10983E-15-5.12863E-14
 -1        41 1.99240E+01 3.25190E-04 4.43922E-04-9.88932E-05 2.36189E-14-1.50525E-13
 -1        42 1.99398E+01 1.71518E-04 2.74528E-04-2.33442E-04-4.20560E-14-3.02537E-13
 -1        43 1.99525E+01 5.25181E-06 1.00046E-04-3.35457E-04-4.50273E-14-1.41382E-13
 -1        44 1.99645E+01-1.80832E-04-9.09765E-05-4.07655E-04 1.75099E-14 8.32317E-14
 -1        45 1.99784E+01-3.95660E-04-3.12110E-04-4.47639E-04-6.24214E-14 1.76486E-13
 -1        46 1.99973E+01-6.49322E-04-5.78946E-04-4.47123E-04-4.33113E-15 1.32237E-14
 -1        47 2.00247E+01-9.52361E-04-9.08908E-04-3.90811E-04 1.79408E-16 5.87745E-14
 -1        48 2.00652E+01-1.31469E-03-1.32078E-03-2.54869E-04-9.16554E-14-1.43385E-13
 -1        49 2.01240E+01-1.74385E-03-1.83368E-03-4.96861E-06 3.48490E-14-4.13641E-13
 -1        50 2.02078E+01-2.24216E-03-2.46492E-03 4.06043E-04 1.27501E-14-3.91445E-13
 -1        51 2.03244E+01-2.80220E-03-3.22590E-03 1.04066E-03 7.81059E-15-3.43482E-14
 -1        52 2.04830E+01-3.39953E-03-4.11464E-03 1.97880E-03-5.88149E-14 3.07956E-13
 -1        53 2.06938E+01-3.98149E-03-5.10201E-03 3.31804E-03-3.61884E-14-1.44572E-14
 -1        54 2.09676E+01-4.45032E-03-6.10771E-03 5.16889E-03-1.74857E-14-2.51251E-14
 -1        55 2.13143E+01-4.63919E-03-6.95887E-03 7.63865E-03 3.27933E-15-8.49416E-14
 -1        56 2.17409E+01-4.28118E-03-7.32298E-03 1.07914E-02 2.93654E-14 6.48227E-14
 -1        57 2.22466E+01-2.97698E-03-6.60851E-03 1.45622E-02 1.44571E-14 2.35415E-13
 -1        58 2.28166E+01-1.80350E-04-3.84504E-03 1.85905E-02-3.50990E-14-3.99247E-15
 -1        59 2.34115E+01 4.75175E-03 2.39047E-03 2.19349E-02 1.80171E-14-1.34473E-13
 -1        60 2.39535E+01 1.23559E-02 1.38169E-02 2.26616E-02-8.83641E-14 1.30764E-13
 -1        61 2.43115E+01 2.25808E-02 3.17044E-02 1.74350E-02 1.03929E-13 3.39910E-13
 -1        62 2.42932E+01 3.39421E-02 5.50588E-02 1.55185E-03-1.47945E-13 2.57393E-13
 -1        63 2.36622E+01 4.25122E-02 7.76236E-02-2.95727E-02-9.66783E-14-4.34982E-14
 -1        64 2.22063E+01 4.16520E-02 8.52785E-02-7.61238E-02-1.12825E-13-2.74180E-13
 -1        65 1.98785E+01 2.40453E-02 5.81576E-02-1.27034E-01-1.71586E-15-5.50351E-13
 -1        66 1.69825E+01-1.25838E-02-1.69429E-02-1.55239E-01 4.56989E-14-4.59570E-13
 -1        67 1.42843E+01-5.87961E-02-1.26572E-01-1.24499E-01 3.32976E-14-6.08531E-13
 -1        68 1.28584E+01-9.03383E-02-2.14334E-01-1.50000E-02 1.45257E-14-2.87891E-13
 -1        69 1.35523E+01-7.84242E-02-2.04468E-01 1.45390E-01 1.60107E-13-5.66353E-14
 -1        70 1.62397E+01-2.72841E-02-5.58278E-02 2.53512E-01-1.08703E-13-1.11008E-13
 -1        71 1.93243E+01-2.40044E-02 1.40686E-01 1.99095E-01-4.32863E-14-3.80092E-13
 -1        72 2.10438E+01-4.04900E-01-9.80440E-01-3.11674E-01 2.42896E-14 1.33211E-12
 -1        73 1.93340E+01-6.58837E-02-2.91116E-01-5.38461E-02 7.85786E-15 9.76379E-13
 -1        74 1.86915E+01-2.05092E-02-6.42685E-02-2.03507E-02 7.46484E-15 7.12548E-13
 -1        75 1.84895E+01-9.88305E-03-9.31900E-03-1.54512E-02-1.09090E-14 5.62318E-13
 -1        76 1.85016E+01-5.16938E-03 6.68324E-04-1.23888E-02 1.91149E-14 3.95706E-13
 -1        77 1.86160E+01-2.61772E-03 1.73265E-03-1.01231E-02 1.85379E-14 2.49159E-13
 -1        78 1.87759E+01-1.14562E-03 1.86825E-03-8.38910E-03-1.84005E-14 2.59811E-13
 -1        79 1.89503E+01-2.78592E-04 2.06197E-03-6.96612E-03 8.59318E-15 2.54430E-13
 -1        80 1.91214E+01 2.25181E-04 2.20640E-03-5.74660E-03 4.23589E-15 1.28268E-13
 -1        81 1.92794E+01 5.01120E-04 2.22355E-03-4.68787E-03 3.21705E-14-5.91951E-14
 -1        82 1.94193E+01 6.31495E-04 2.12371E-03-3.77169E-03-8.63729E-15-2.15927E-13
 -1        83 1.95393E+01 6.69006E-04 1.94509E-03-2.98665E-03 1.22426E-14-3.08140E-13
 -1        84 1.96395E+01 6.48528E-04 1.72393E-03-2.32172E-03 1.05787E-14-2.80508E-13
 -1        85 1.97210E+01 5.93316E-04 1.48706E-03-1.76461E-03-3.83706E-15-2.86877E-13
 -1        86 1.97859E+01 5.18579E-04 1.25212E-03-1.30171E-03 2.59222E-14-4.80407E-13
 -1        87 1.98364E+01 4.33704E-04 1.02920E-03-9.18628E-04-6.14248E-14-3.44803E-13
 -1        88 1.98747E+01 3.43742E-04 8.22513E-04-6.00785E-04 6.57978E-15-2.56503E-13
 -1        89 1.99032E+01 2.50449E-04 6.31603E-04-3.34016E-04 4.32155E-14-5.40938E-13
 -1        90 1.99241E+01 1.53026E-04 4.52357E-04-1.05090E-04 1.07331E-14-5.15121E-13
 -1        91 1.99397E+01 4.86425E-05 2.77692E-04 9.78772E-05-2.81980E-14-4.30628E-13
 -1        92 1.99521E+01-6.71918E-05 9.79801E-05 2.85062E-04-3.82907E-14-1.04660E-13
 -1        93 1.99638E+01-2.00357E-04-9.87484E-05 4.64534E-04-2.02153E-14-1.38218E-13
 -1        94 1.99774E+01-3.57890E-04-3.26766E-04 6.41729E-04 4.75454E-14-4.10403E-13
 -1        95 1.99959E+01-5.47728E-04-6.02702E-04 8.18686E-04-2.47916E-16-6.33295E-13
 -1        96 2.00230E+01-7.78323E-04-9.45603E-04 9.92903E-04 6.46066E-14-3.29825E-13
 -1        97 2.00631E+01-1.05799E-03-1.37687E-03 1.15563E-03-1.75400E-14-2.74507E-13
 -1        98 2.01218E+01-1.39377E-03-1.91984E-03 1.28930E-03-4.11862E-14-1.98991E-14
 -1        99 2.02060E+01-1.78940E-03-2.59862E-03 1.36376E-03-5.49771E-14-9.80590E-14
 -1       100 2.03240E+01-2.24183E-03-3.43537E-03 1.33059E-03 2.51294E-14-6.93238E-14
 -1       101 2.04857E+01-2.73521E-03-4.44453E-03 1.11493E-03 1.13759E-14-4.92595E-13
 -1       102 2.07030E+01-3.23084E-03-5.62112E-03 6.03783E-04-4.47298E-15-7.83794E-13
 -1       103 2.09889E+01-3.65093E-03-6.91790E-03-3.69614E-04-2.46463E-14-5.03825E-13
 -1       104 2.13570E+01-3.85352E-03-8.20205E-03-2.04397E-03-3.89909E-15-6.08012E-14
 -1       105 2.18195E+01-3.59719E-03-9.17684E-03-4.74413E-03 1.33856E-14-2.89152E-13
 -1       106 2.23830E+01-2.49923E-03-9.24951E-03-8.87171E-03-7.06458E-14-5.24610E-13
 -1       107 2.30420E+01-6.10556E-06-7.33409E-03-1.48255E-02 2.34137E-14-8.44069E-13
 -1       108 2.37670E+01 4.57056E-03-1.62737E-03-2.27559E-02-2.73325E-14-5.72225E-13
 -1       109 2.44863E+01 1.18374E-02 1.04506E-02-3.19929E-02 4.48616E-14-2.89832E-13
 -1       110 2.50634E+01 2.17364E-02 3.16304E-02-3.99786E-02-1.03155E-13-5.72330E-13
 -1       111 2.52741E+01 3.24392E-02 6.25319E-02-4.08035E-02 6.22081E-14-5.23530E-13
 -1       112 2.48084E+01 3.90927E-02 9.70867E-02-2.44793E-02-1.19045E-14-1.93706E-13
 -1       113 2.33344E+01 3.39096E-02 1.17236E-01 2.00961E-02-1.13260E-14 2.47302E-14
 -1       114 2.06739E+01 9.87450E-03 9.32694E-02 9.48485E-02-9.74984E-14-1.44121E-13
 -1       115 1.70805E+01-3.09821E-02 2.05994E-04 1.76893E-01-4.92325E-15 9.67074E-14
 -1       116 1.34686E+01-7.12695E-02-1.49493E-01 2.12532E-01 1.23724E-13 1.99701E-14
 -1       117 1.12905E+01-8.25078E-02-2.81812E-01 1.41117E-01-1.06684E-13-1.49527E-13
 -1       118 1.18376E+01-4.70695E-02-2.81214E-01-5.06674E-02 1.29851E-13 3.33476E-13
 -1       119 1.51424E+01 4.32606E-02-6.97139E-02-2.96846E-01-7.33128E-14 4.81906E-13
 -1       120 1.89908E+01-1.97012E-02 1.49474E-01-3.43424E-01 4.95324E-14 3.66887E-13
 -1       121 2.00799E+01-1.38419E+00 3.13824E-01-3.38418E-01 5.07615E-13 3.58810E-14
 -1       122 2.00703E+01-6.52461E+00 2.89930E-01-4.50222E-01 8.85042E-13 2.27995E-14
 -1       123 1.99214E+01-1.40699E+01 6.46891E-02-6.98072E-01 9.14990E-13-2.56676E-13
 -1       124 1.97284E+01-2.24088E+01-7.15655E-01-9.38161E-01-6.04794E-14 1.71429E-13
 -1       125 1.95275E+01-2.64812E+01-2.02225E+00-4.52973E-01-1.70330E-12-9.10591E-14
 -1       126 1.92056E+01-2.07457E+01-2.94388E+00 1.20696E+00-1.72051E-12 2.65503E-13
 -1       127 2.00583E+01 1.41976E+00-7.92028E-01 2.97095E+00-2.64555E-12-3.85415E-13
 -1       128 2.01922E+01 4.18105E+01 5.59758E+00 3.97820E+00-5.46319E-12-1.03306E-13
 -1       129 2.06716E+01 7.07623E+01 1.11376E+01 1.06040E+00-3.96438E-12 6.13315E-13
 -1       130 2.07159E+01 6.34766E+01 9.72295E+00-2.20277E+00 9.28924E-13 5.09565E-13
 -1       131 2.03312E+01 2.55645E+01 2.77271E+00-3.22782E+00 4.60920E-12-2.54657E-15
 -1       132 1.97306E+01-7.89215E+00-1.99127E+00-1.64018E+00 2.80709E-12-7.72202E-13
 -1       133 1.96566E+01-2.56639E+01-2.93389E+00-2.59666E-01-3.87940E-13 7.86524E-15
 -1       134 1.97710E+01-2.62226E+01-1.35998E+00 4.85218E-01-2.00173E-13-2.30710E-14
 -1       135 1.99279E+01-1.85862E+01-1.52114E-01 3.86868E-01-6.56308E-13-5.15597E-14
 -1       136 1.99935E+01-1.06821E+01 2.17783E-01 2.43254E-01 2.19186E-13 1.49315E-13
 -1       137 2.00796E+01-4.79237E+00 2.18626E-01 4.06818E-01 6.55725E-14 1.68771E-13
 -1       138 2.00860E+01-1.06500E+00 2.16303E-01 3.01850E-01 7.87304E-13-1.60474E-13
 -1       139-2.26604E+00-3.70255E+01-1.17184E+01-4.60962E+00 5.22526E-12 1.51143E-12
 -1       140 3.45082E+00 3.49751E+00-3.28804E+00 4.97468E+00 3.81983E-12 1.61748E-12
 -1       141 1.89960E+01 2.93796E+01 2.70045E+00 2.30423E+01 1.35181E-12 1.17550E-12
 -1       142 4.24914E+01 3.24048E+01 4.90633E+00 3.59655E+01 9.33587E-13 9.61342E-13
 -1       143 6.66783E+01 2.19714E+01 4.96776E+00 3.68929E+01 2.91961E-13 7.04936E-13
 -1       144 8.38713E+01 9.19892E+00 4.47057E+00 2.61202E+01 1.65458E-14 1.90334E-14
 -1       145 8.88084E+01 1.61869E+00 3.97446E+00 8.35441E+00-1.44947E-13-1.51021E-12
 -1       146 7.84548E+01 1.88693E+00 3.30921E+00-9.50034E+00 7.33719E-14-1.53777E-12
 -1       147 5.75326E+01 6.93807E+00 2.33040E+00-1.88332E+01 6.70075E-13-1.10401E-12
 -1       148 3.10550E+01 1.07915E+01 9.26748E-01-1.79338E+01 8.69971E-13-1.50835E-12
 -1       149 1.06862E+01 8.03327E+00-5.62199E-01-9.39026E+00 1.94367E-12-1.74438E-12
 -1       150-5.04647E-01-3.15802E+00-1.95154E+00 9.78358E-01 2.45404E-12-1.82987E-12
 -1       151-2.70569E+00-1.73803E+01-2.98649E+00 5.94223E+00 2.25692E-12-9.37750E-13
 -1       152-1.52983E+00-2.90636E+01-3.62147E+00 4.62798E+00 1.42009E-12-3.36826E-13
 -1       153-8.52458E-01-3.21690E+01-3.76487E+00-1.16633E+00-1.97904E-13-1.87374E-13
 -1       154-2.04442E+00-2.49739E+01-3.39048E+00-5.67761E+00-1.23757E-12-2.21573E-13
 -1       155-2.47178E+00-1.14905E+01-2.56087E+00-4.72827E+00-1.45217E-12-4.70624E-13
 -1       156 2.95130E+00 2.08463E+00-1.34667E+00 2.93610E+00-1.17817E-12-8.80740E-13
 -1       157 1.81591E+01 1.01310E+01 1.07935E-01 1.35616E+01-8.99225E-13-1.19504E-12
 -1       158 4.09868E+01 9.98771E+00 1.49747E+00 1.97626E+01-5.35627E-13-8.56537E-13
 -1       159 6.47103E+01 4.95312E+00 2.62293E+00 1.65416E+01-1.91736E-13-9.98424E-13
 -1       160 8.78799E+01 3.40483E+00 4.01409E+00-1.38847E+01 1.99951E-13-6.75959E-13
 -1       161 8.01828E+01 1.16450E+01 4.36159E+00-2.91180E+01 2.17902E-13-9.10688E-13
 -1       162 6.29672E+01 2.44633E+01 5.18144E+00-3.78458E+01-9.23150E-14 3.46334E-13
 -1       163 3.95160E+01 3.35601E+01 4.89135E+00-3.54366E+01-1.54721E-12 1.11910E-12
 -1       164 1.72499E+01 2.82217E+01 2.38429E+00-2.15960E+01-3.25229E-12 2.36533E-12
 -1       165 2.61627E+00-7.09242E-01-4.07797E+00-3.22495E+00-5.13545E-12 2.08200E-12
 -1       166-1.94445E+00-3.98697E+01-1.22078E+01 5.48755E+00-3.73024E-12 1.36346E-12
 -1       167 2.10150E+01 3.69395E+00-5.73267E-02-3.60944E+00-2.11983E-13 1.73684E-13
 -1       168 1.99920E+01 4.20787E+00-4.57116E-02-2.80849E+00-2.13672E-13-9.70439E-14
 -1       169 1.95095E+01 4.47715E+00-3.15944E-02-2.19337E+00-1.85651E-13-2.51557E-13
 -1       170 1.92671E+01 4.61533E+00-2.37672E-02-1.67460E+00-1.53185E-13-3.33250E-13
 -1       171 1.91365E+01 4.69699E+00-1.94982E-02-1.21842E+00-1.10681E-13-3.77143E-13
 -1       172 1.90622E+01 4.74805E+00-1.74095E-02-7.91553E-01-8.68722E-14-3.91702E-13
 -1       173 1.90247E+01 4.77593E+00-1.64152E-02-3.86614E-01-4.27833E-14-3.87282E-13
 -1       174 1.90138E+01 4.78447E+00-1.61276E-02 8.27321E-03-1.30144E-15-3.98938E-13
 -1       175 1.90264E+01 4.77465E+00-1.64612E-02 4.03499E-01 2.70958E-14-3.86272E-13
 -1       176 1.90659E+01 4.74510E+00-1.75155E-02 8.09509E-01 6.48962E-14-3.88130E-13
 -1       177 1.91409E+01 4.69267E+00-1.96843E-02 1.23081E+00 1.04418E-13-3.70960E-13
 -1       178 1.92770E+01 4.60551E+00-2.40045E-02 1.69738E+00 1.43525E-13-3.34585E-13
 -1       179 1.95244E+01 4.45968E+00-3.28484E-02 2.22568E+00 1.89306E-13-2.58316E-13
 -1       180 2.00145E+01 4.18390E+00-4.72074E-02 2.84595E+00 2.17906E-13-1.01072E-13
 -1       181 2.11366E+01 3.46364E+00-5.97704E-02 3.53601E+00 2.33310E-13 1.68220E-13
 -1       182 2.24211E+01 1.14328E+00-3.36460E-01 3.01430E+00 1.77314E-13 5.34850E-13
 -1       183 2.19736E+01 8.58188E-01 6.67054E-04-1.95843E+00-1.70600E-13 4.60486E-13
 -1       184 2.04496E+01 1.90181E-01-1.00039E-02-7.63646E-01-1.47108E-13 3.64107E-13
 -1       185 1.96746E+01 1.01716E-01 1.35362E-02-2.85044E-01-1.15027E-13 2.80927E-13
 -1       186 1.93355E+01 4.71971E-02 9.99122E-03-6.72711E-02-8.08336E-14 1.84411E-13
 -1       187 1.92065E+01 2.26010E-02 5.15996E-03 4.00831E-02-4.65299E-14 1.64380E-13
 -1       188 1.91938E+01 9.56229E-03 2.43249E-03 9.28001E-02-5.54262E-14 1.40602E-13
 -1       189 1.92432E+01 2.15918E-03 1.12793E-03 1.15269E-01-2.19781E-14 1.38208E-13
 -1       190 1.93231E+01-2.08737E-03 4.92135E-04 1.20255E-01-2.58244E-14 1.39010E-13
 -1       191 1.94148E+01-4.41131E-03 1.54879E-04 1.15152E-01-5.05417E-14 1.21590E-13
 -1       192 1.95071E+01-5.51620E-03-3.43722E-05 1.04537E-01-8.72866E-14 9.98275E-14
 -1       193 1.95934E+01-5.84333E-03-1.39014E-04 9.13268E-02-1.22868E-13-5.27338E-14
 -1       194 1.96705E+01-5.68495E-03-1.90748E-04 7.73833E-02-1.26967E-14-7.74708E-14
 -1       195 1.97368E+01-5.23886E-03-2.08433E-04 6.38659E-02 3.61731E-14-8.59619E-14
 -1       196 1.97923E+01-4.63789E-03-2.04332E-04 5.14619E-02-4.34701E-14-9.77809E-14
 -1       197 1.98377E+01-3.96790E-03-1.86562E-04 4.05443E-02-4.30127E-14 1.68440E-14
 -1       198 1.98739E+01-3.27984E-03-1.60360E-04 3.12874E-02 5.44576E-14-1.81338E-14
 -1       199 1.99025E+01-2.59833E-03-1.28864E-04 2.37517E-02 1.47550E-15 4.14013E-15
 -1       200 1.99250E+01-1.92785E-03-9.36506E-05 1.79490E-02-7.88103E-14-1.18752E-13
 -1       201 1.99429E+01-1.25731E-03-5.51119E-05 1.38910E-02-8.74028E-14-2.04194E-13
 -1       202 1.99581E+01-5.63108E-04-1.27366E-05 1.16285E-02 2.14657E-14-2.23829E-13
 -1       203 1.99724E+01 1.88558E-04 3.46720E-05 1.12821E-02 1.15845E-13-1.94966E-13
 -1       204 1.99879E+01 1.04015E-03 8.88065E-05 1.30673E-02 4.01466E-14-1.68072E-13
 -1       205 2.00069E+01 2.04137E-03 1.51662E-04 1.73149E-02 8.49816E-14 6.21567E-14
 -1       206 2.00321E+01 3.24745E-03 2.25297E-04 2.44872E-02 5.24777E-14 1.87311E-13
 -1       207 2.00668E+01 4.71654E-03 3.11498E-04 3.51869E-02-1.08126E-13 2.03517E-13
 -1       208 2.01149E+01 6.50505E-03 4.11262E-04 5.01560E-02-1.91797E-13 1.43738E-13
 -1       209 2.01809E+01 8.65952E-03 5.23991E-04 7.02564E-02-6.56254E-14-2.63980E-14
 -1       210 2.02703E+01 1.12025E-02 6.46241E-04 9.64212E-02 1.64978E-13-3.94592E-14
 -1       211 2.03889E+01 1.41087E-02 7.69801E-04 1.29554E-01 7.69132E-14-2.71596E-14
 -1       212 2.05433E+01 1.72646E-02 8.78858E-04 1.70348E-01-1.56327E-13-8.29873E-14
 -1       213 2.07402E+01 2.04036E-02 9.46085E-04 2.18966E-01-8.04013E-14-8.25836E-14
 -1       214 2.09855E+01 2.30014E-02 9.27837E-04 2.74518E-01-2.19467E-14-3.38948E-14
 -1       215 2.12828E+01 2.41193E-02 7.59724E-04 3.34211E-01 5.50288E-14-9.05548E-14
 -1       216 2.16312E+01 2.21837E-02 3.56089E-04 3.92065E-01 1.71800E-13-6.65867E-14
 -1       217 2.20218E+01 1.47275E-02-3.79130E-04 4.37071E-01-1.27811E-13-9.17894E-14
 -1       218 2.24329E+01-1.79174E-03-1.51830E-03 4.50893E-01-1.23644E-13-1.41916E-13
 -1       219 2.28237E+01-3.17670E-02-3.04059E-03 4.05723E-01 1.21989E-13-1.78353E-13
 -1       220 2.31280E+01-7.91209E-02-4.72656E-03 2.64112E-01 1.57452E-13 1.97780E-13
 -1       221 2.32508E+01-1.43830E-01-6.05019E-03-1.54167E-02-1.40265E-14 2.01425E-13
 -1       222 2.30728E+01-2.15309E-01-6.18704E-03-4.60916E-01-1.51355E-13 1.96799E-13
 -1       223 2.24738E+01-2.63896E-01-4.34335E-03-1.05193E+00-1.48431E-13 1.21266E-13
 -1       224 2.13836E+01-2.38484E-01-5.03055E-04-1.67142E+00-1.20909E-13 3.03932E-14
 -1       225 1.98622E+01-8.54790E-02 3.64178E-03-2.07667E+00-2.46368E-14-4.07487E-15
 -1       226 1.81783E+01 2.02269E-01 5.37145E-03-1.95056E+00 1.04012E-13 1.72274E-13
 -1       227 1.68104E+01 5.25277E-01 1.82356E-03-1.08319E+00 1.49925E-13 1.75338E-13
 -1       228 1.62849E+01 6.79124E-01-2.02129E-03 3.68550E-01 1.58276E-14-2.08057E-13
 -1       229 1.68453E+01 4.56902E-01-2.87207E-03 1.76214E+00-1.07481E-13-3.85926E-13
 -1       230 1.82828E+01-2.49099E-01 1.02753E-02 2.17247E+00-2.18213E-13-2.84932E-13
 -1       231 2.09655E+01 2.77005E-01-5.13265E-02 1.16438E+00 1.74347E-13 4.59507E-13
 -1       232 1.98713E+01 1.26848E-01 8.31259E-03 4.42684E-01 1.22216E-13 3.37323E-13
 -1       233 1.93656E+01 5.80872E-02 1.27343E-02 1.49594E-01 7.88124E-14 2.34817E-13
 -1       234 1.91566E+01 2.77511E-02 7.62715E-03 1.02365E-02 1.21608E-13 1.62453E-13
 -1       235 1.91075E+01 1.30988E-02 3.82159E-03-5.89780E-02 4.07683E-14 1.27445E-13
 -1       236 1.91441E+01 5.15671E-03 1.90417E-03-9.14872E-02 1.59713E-14 9.86827E-14
 -1       237 1.92241E+01 6.14981E-04 1.00052E-03-1.03334E-01 2.34055E-14 6.14371E-14
 -1       238 1.93226E+01-1.97820E-03 5.39561E-04-1.03214E-01 9.10528E-14 2.84903E-14
 -1       239 1.94251E+01-3.36618E-03 2.75466E-04-9.63081E-02 7.88163E-14-8.51308E-14
 -1       240 1.95229E+01-3.98512E-03 1.13655E-04-8.58702E-02 4.38745E-14-2.94172E-14
 -1       241 1.96113E+01-4.11459E-03 1.40683E-05-7.39796E-02 8.08922E-14-4.51624E-14
 -1       242 1.96884E+01-3.94179E-03-4.44411E-05-6.19517E-02 1.12312E-14-1.61776E-13
 -1       243 1.97534E+01-3.59334E-03-7.51537E-05-5.05901E-02 1.44237E-14-2.03885E-13
 -1       244 1.98069E+01-3.15356E-03-8.70260E-05-4.03546E-02 1.44622E-14-1.89713E-13
 -1       245 1.98499E+01-2.67604E-03-8.61659E-05-3.14798E-02-4.42792E-14-1.37328E-13
 -1       246 1.98838E+01-2.19147E-03-7.66699E-05-2.40620E-02 4.89529E-14-2.03776E-13
 -1       247 1.99102E+01-1.71302E-03-6.11766E-05-1.81238E-02 1.40111E-13-1.69434E-13
 -1       248 1.99308E+01-1.24044E-03-4.12374E-05-1.36640E-02-7.83293E-15-2.64818E-13
 -1       249 1.99474E+01-7.62910E-04-1.75825E-05-1.06958E-02-7.08401E-14-1.95915E-13
 -1       250 1.99617E+01-2.60994E-04 9.66971E-06-9.27712E-03-1.31430E-13-1.87099E-13
 -1       251 1.99758E+01 2.92112E-04 4.08410E-05-9.53576E-03 3.45502E-14-1.11541E-13
 -1       252 1.99920E+01 9.29784E-04 7.65350E-05-1.16907E-02 1.73007E-13-1.04554E-13
 -1       253 2.00128E+01 1.69141E-03 1.17469E-04-1.60712E-02 6.13094E-14-2.93170E-13
 -1       254 2.00413E+01 2.62178E-03 1.64264E-04-2.31326E-02-1.31441E-13-2.19917E-13
 -1       255 2.00813E+01 3.76993E-03 2.17151E-04-3.34694E-02-5.95428E-14-1.86143E-14
 -1       256 2.01373E+01 5.18696E-03 2.75528E-04-4.78215E-02-1.20454E-13 7.98494E-14
 -1       257 2.02146E+01 6.92150E-03 3.37272E-04-6.70680E-02 2.47259E-14 6.52887E-14
 -1       258 2.03196E+01 9.01120E-03 3.97670E-04-9.21995E-02 3.33721E-14 1.52219E-14
 -1       259 2.04598E+01 1.14666E-02 4.47792E-04-1.24249E-01 1.22716E-13 9.53392E-14
 -1       260 2.06435E+01 1.42417E-02 4.72167E-04-1.64150E-01 9.70734E-14-1.31992E-13
 -1       261 2.08795E+01 1.71817E-02 4.45809E-04-2.12467E-01-1.27273E-13-1.11797E-13
 -1       262 2.11762E+01 1.99312E-02 3.31404E-04-2.68907E-01-5.96957E-14-2.18822E-13
 -1       263 2.15398E+01 2.17817E-02 7.92597E-05-3.31472E-01 1.66719E-13-1.89861E-13
 -1       264 2.19717E+01 2.14337E-02-3.63632E-04-3.95048E-01 2.80333E-14-2.74097E-13
 -1       265 2.24634E+01 1.66666E-02-1.02336E-03-4.49210E-01 1.18035E-13-2.82685E-13
 -1       266 2.29893E+01 3.98841E-03-1.83191E-03-4.75147E-01-1.52877E-13-3.91188E-13
 -1       267 2.34971E+01-2.14393E-02-2.51737E-03-4.42162E-01-1.20350E-13-2.48337E-13
 -1       268 2.38966E+01-6.48249E-02-2.50247E-03-3.05745E-01 6.19500E-14-2.08322E-13
 -1       269 2.40511E+01-1.28193E-01-9.84289E-04-1.23038E-02 1.89319E-14 5.54092E-15
 -1       270 2.37837E+01-2.02484E-01 2.49009E-03 4.80016E-01-8.97190E-14 3.49515E-14
 -1       271 2.29147E+01-2.56302E-01 7.02893E-03 1.15396E+00-8.38617E-14 4.40975E-14
 -1       272 2.13512E+01-2.31734E-01 9.44352E-03 1.86462E+00-1.11155E-13 2.36868E-13
 -1       273 1.92239E+01-6.82053E-02 4.13159E-03 2.29732E+00 1.72506E-14 2.88760E-13
 -1       274 1.70055E+01 2.33932E-01-1.09878E-02 2.05113E+00 1.17239E-13 1.35881E-14
 -1       275 1.54557E+01 5.49664E-01-2.91765E-02 9.08985E-01-1.15290E-13 1.28004E-13
 -1       276 1.52765E+01 6.51688E-01-3.26458E-02-8.27550E-01-8.34801E-14 8.92481E-14
 -1       277 1.65724E+01 3.24058E-01 7.41605E-05-2.21764E+00-1.05517E-13 9.69259E-14
 -1       278 1.86293E+01-5.08805E-01 6.17819E-02-2.11401E+00 1.69222E-13 2.12420E-13
 -1       279 1.92487E+01-2.12473E+00 3.28084E-02-3.26816E+00 3.19546E-13 6.83360E-14
 -1       280 1.95303E+01-4.02281E+00 3.07572E-02-4.48996E+00 4.98528E-13 2.57917E-13
 -1       281 2.01353E+01-5.55470E+00-2.56545E-02-4.56220E+00 6.12430E-13-6.40141E-13
 -1       282 2.19834E+01-5.67361E+00-1.39187E-01-2.22842E+00 1.71852E-13-1.08068E-12
 -1       283 2.55155E+01-4.59410E+00-2.55252E-01 4.07106E+00-1.68570E-13-2.86382E-13
 -1       284 2.23485E+01 3.70966E+00-1.17555E-01 2.27331E+01-5.86198E-14-1.25758E-12
 -1       285 9.98054E+00 1.67655E+01 3.14043E-02-4.07259E+00-3.33300E-13 2.44227E-12
 -1       286 1.73106E+01 1.13396E+01 2.16006E-01-1.98741E+01 1.01493E-13 1.55292E-12
 -1       287 2.33386E+01 2.64243E+00-9.85529E-02-1.90335E+01 2.38004E-13-7.79987E-13
 -1       288 2.39276E+01-7.48301E+00-7.32935E-01-8.86191E+00 4.97241E-13-1.13549E-12
 -1       289 2.08828E+01-1.22604E+01-6.49187E-01 6.87374E-01 1.53576E-13-1.27690E-13
 -1       290 2.00815E+01-1.12806E+01-1.13034E-01 3.40553E+00-2.28151E-13-1.89890E-13
 -1       291 1.97827E+01-7.90420E+00 6.44276E-02 3.40469E+00-1.02293E-13 2.04744E-13
 -1       292 1.97415E+01-4.41524E+00 7.92396E-02 2.53077E+00 2.37754E-13-2.28081E-14
 -1       293 1.93019E+01-1.55166E+00 3.13753E-02 2.87001E+00 2.52090E-14 1.82144E-13
 -1       294 4.77192E+00-2.65415E+00-3.41780E+00 8.80213E+00 4.90941E-13 1.93812E-12
 -1       295 1.33967E+01-4.00164E+00-2.37780E+00 1.84573E+01 1.60527E-12-5.47895E-14
 -1       296 2.60326E+01 2.15471E+00-1.15137E-01 2.09175E+01 1.16329E-12-3.03702E-13
 -1       297 3.55545E+01 1.13909E+01 1.21429E+00 1.99001E+01 6.55642E-13 3.54272E-13
 -1       298 4.47893E+01 1.54212E+01 1.45121E+00 1.78197E+01 4.14959E-13 3.21243E-13
 -1       299 5.40723E+01 1.56453E+01 1.38571E+00 1.60447E+01 5.52752E-13-1.97897E-14
 -1       300 6.06829E+01 1.24300E+01 1.28635E+00 1.12504E+01 6.53672E-13-7.31387E-13
 -1       301 6.01406E+01 9.11593E+00 1.07613E+00 4.14254E+00 1.64813E-13-1.04133E-12
 -1       302 5.24229E+01 6.38028E+00 6.86842E-01-1.27175E+00 2.33993E-13-1.21914E-12
 -1       303 4.13708E+01 2.28677E+00 2.67262E-01-3.28484E+00 6.49363E-13-1.03223E-12
 -1       304 2.87721E+01-4.46332E-01 1.12419E-02-7.03996E+00 9.32671E-13-9.78717E-13
 -1       305 1.74139E+01-5.72779E+00-3.40954E-01-6.16294E+00 1.17206E-12-6.44873E-13
 -1       306 6.87212E+00-9.98756E+00-7.34278E-01-4.14394E+00 1.14037E-12-8.86027E-13
 -1       307 1.09989E+00-1.32570E+01-8.29795E-01-2.72412E+00 6.74572E-13-8.33306E-13
 -1       308-1.94421E+00-1.62485E+01-1.09451E+00-4.12276E-01 4.99510E-13-8.23092E-13
 -1       309-1.14923E+00-1.45437E+01-9.00957E-01 1.54118E+00 4.16334E-16-7.54258E-13
 -1       310 2.75968E+00-1.25235E+01-9.03540E-01 2.95908E+00-6.01186E-13-3.85886E-13
 -1       311 1.06940E+01-8.02148E+00-5.38198E-01 5.32029E+00-8.90954E-13-5.02903E-13
 -1       312 2.30003E+01-4.62717E+00-1.51938E-01 6.24623E+00-6.92751E-13-5.23498E-13
 -1       313 3.40687E+01 1.05416E+00 1.75843E-01 6.44494E+00-6.56697E-13-6.29941E-13
 -1       314 4.61423E+01 4.59133E+00 5.53010E-01 4.83545E+00-3.97762E-13-7.74103E-13
 -1       315 5.39182E+01 7.63365E+00 6.93919E-01-8.45886E-01 2.03726E-14-5.58414E-13
 -1       316 6.02019E+01 1.01813E+01 1.02525E+00-6.54840E+00 6.69742E-14-9.98673E-13
 -1       317 5.36666E+01 1.45639E+01 8.39734E-01-1.11226E+01 5.10425E-14-7.26467E-13
 -1       318 5.23195E+01 1.59069E+01 1.26538E+00-1.56967E+01-4.35402E-13-6.13704E-13
 -1       319 4.42428E+01 1.62991E+01 1.69716E+00-1.97414E+01-6.68632E-13-3.93019E-13
 -1       320 3.45997E+01 1.10189E+01 1.21227E+00-2.00428E+01-1.54426E-12-1.37890E-13
 -1       321 2.52439E+01 6.57935E-01-3.14007E-01-2.12851E+01-1.68210E-12 1.12133E-13
 -1       322 1.21157E+01-4.87181E+00-2.71642E+00-1.87671E+01-1.25044E-12 1.41712E-12
 -1       323 2.09153E+00-8.56071E+00-4.86668E+00-7.05692E+00-2.28317E-13 2.59093E-12
 -1       324 2.65466E+01-2.58646E+00-2.22032E-01 1.49655E+01-7.85302E-13-6.25583E-13
 -1       325 1.36401E+01 1.48437E+01 2.41977E-01 1.49618E+01-8.25333E-13 1.33027E-12
 -1       326 2.01462E+01 3.01536E+00-1.78525E-02-2.10912E+00-2.31952E-13-1.23520E-13
 -1       327 2.07575E+01 2.20819E+00-1.78122E-02-2.36239E+00-2.38872E-13 4.37705E-14
 -1       328 1.95834E+01 3.69229E+00-1.51399E-02-1.31622E+00-1.61721E-13-2.63422E-13
 -1       329 1.94593E+01 3.84908E+00-1.35853E-02-9.22915E-01-1.30709E-13-3.02717E-13
 -1       330 1.93898E+01 3.93998E+00-1.26802E-02-5.43439E-01-7.80428E-14-2.89332E-13
 -1       331 1.93591E+01 3.98131E+00-1.22820E-02-1.73104E-01-2.47389E-14-3.02155E-13
 -1       332 1.93604E+01 3.97970E+00-1.23046E-02 1.94254E-01 2.20678E-14-3.08894E-13
 -1       333 1.93940E+01 3.93476E+00-1.27515E-02 5.64945E-01 5.32681E-14-2.95717E-13
 -1       334 1.94652E+01 3.84141E+00-1.37615E-02 9.38656E-01 1.00753E-13-3.01098E-13
 -1       335 1.95927E+01 3.67906E+00-1.56503E-02 1.33252E+00 1.57194E-13-2.54000E-13
 -1       336 1.98089E+01 3.41026E+00-1.88291E-02 1.73769E+00 1.93200E-13-2.18517E-13
 -1       337 2.01801E+01 2.95534E+00-2.29381E-02 2.12622E+00 2.30378E-13-1.08912E-13
 -1       338 2.07505E+01 2.12943E+00-3.04663E-02 2.32128E+00 2.52938E-13 6.55951E-14
 -1       339 2.10973E+01 1.18769E+00-2.49177E-02 1.92119E+00 2.23628E-13 2.10510E-13
 -1       340 2.03940E+01 4.89299E-01 8.33554E-03 9.26567E-01 1.73279E-13 1.51193E-13
 -1       341 3.63062E+01 1.02780E+01 1.20069E-01-6.98278E+00-7.91589E-13-1.72168E-13
 -1       342 2.04600E+01 6.75800E-01 1.23564E-02-1.02438E+00-1.74542E-13 5.88138E-14
 -1       343 2.00392E+01 3.36856E-01 7.10884E-03-4.56762E-01-1.29323E-13 2.79770E-14
 -1       344 1.97852E+01 1.76634E-01 4.12788E-03-1.47689E-01-7.10184E-14 1.64357E-14
 -1       345 1.96502E+01 9.06208E-02 1.89810E-03 2.36555E-02-5.87626E-14-4.01274E-15
 -1       346 1.95952E+01 4.14735E-02 7.91076E-04 1.14934E-01-4.04542E-14 2.45277E-14
 -1       347 1.95903E+01 1.24624E-02 2.72163E-04 1.58183E-01-1.99664E-14 2.89577E-15
 -1       348 1.96146E+01-4.59486E-03 1.39513E-05 1.72269E-01-3.23856E-14 4.79588E-14
 -1       349 1.96542E+01-1.41622E-02-1.21772E-04 1.68908E-01-8.79948E-14-2.43744E-14
 -1       350 1.97001E+01-1.89150E-02-1.90780E-04 1.55632E-01-1.85318E-13-8.93647E-14
 -1       351 1.97466E+01-2.05695E-02-2.19251E-04 1.37353E-01-7.93545E-14-5.21234E-14
 -1       352 1.97902E+01-2.02712E-02-2.22294E-04 1.17263E-01 1.00488E-14-1.19740E-13
 -1       353 1.98292E+01-1.87946E-02-2.09705E-04 9.73884E-02 1.46532E-14-9.84465E-14
 -1       354 1.98630E+01-1.66565E-02-1.87981E-04 7.89697E-02 2.59971E-15-6.82763E-14
 -1       355 1.98914E+01-1.41869E-02-1.61297E-04 6.27236E-02-1.81601E-14-9.87290E-14
 -1       356 1.99149E+01-1.15777E-02-1.32130E-04 4.90381E-02 1.60010E-14-4.08487E-14
 -1       357 1.99343E+01-8.91642E-03-1.01682E-04 3.81162E-02-8.70893E-14-1.56038E-13
 -1       358 1.99506E+01-6.21094E-03-7.01880E-05 3.00847E-02-1.15886E-13-7.63422E-14
 -1       359 1.99647E+01-3.40722E-03-3.71339E-05 2.50775E-02-1.07092E-13-1.31166E-13
 -1       360 1.99780E+01-4.02007E-04-1.41951E-06 2.33004E-02 1.45456E-14-1.20863E-13
 -1       361 1.99918E+01 2.94774E-03 3.85202E-05 2.50820E-02 1.55015E-13-1.74404E-13
 -1       362 2.00078E+01 6.81701E-03 8.46057E-05 3.09139E-02 1.52605E-13-5.38900E-14
 -1       363 2.00278E+01 1.14046E-02 1.38993E-04 4.14800E-02 8.13349E-14-6.35163E-14
 -1       364 2.00540E+01 1.69223E-02 2.03908E-04 5.76738E-02 1.20554E-14-1.13769E-13
 -1       365 2.00888E+01 2.35777E-02 2.81383E-04 8.05985E-02-7.79262E-14-8.77414E-14
 -1       366 2.01352E+01 3.15462E-02 3.72833E-04 1.11541E-01-1.57296E-13 4.68059E-14
 -1       367 2.01965E+01 4.09241E-02 4.78341E-04 1.51903E-01-3.34078E-15 1.75994E-13
 -1       368 2.02763E+01 5.16516E-02 5.95502E-04 2.03064E-01 3.21774E-14-1.00974E-13
 -1       369 2.03787E+01 6.33879E-02 7.17574E-04 2.66142E-01-3.07780E-14-1.14117E-13
 -1       370 2.05075E+01 7.53128E-02 8.30618E-04 3.41581E-01 5.71247E-15 4.76536E-15
 -1       371 2.06666E+01 8.58179E-02 9.09307E-04 4.28500E-01-1.56500E-14 2.19615E-13
 -1       372 2.08588E+01 9.20472E-02 9.11296E-04 5.23669E-01 1.34495E-16 3.08944E-13
 -1       373 2.10852E+01 8.92550E-02 7.70878E-04 6.19980E-01-3.71389E-14-5.37296E-15
 -1       374 2.13445E+01 7.00204E-02 3.94628E-04 7.04280E-01-8.03304E-15-2.49975E-13
 -1       375 2.16313E+01 2.35575E-02-3.34063E-04 7.54573E-01-6.65722E-14-1.72497E-14
 -1       376 2.19348E+01-6.41554E-02-1.52988E-03 7.36971E-01 4.21573E-14 2.55174E-13
 -1       377 2.22365E+01-2.07776E-01-3.24576E-03 6.03780E-01 2.72253E-13 9.82298E-14
 -1       378 2.25065E+01-4.14631E-01-5.35485E-03 2.96049E-01 2.18034E-13 5.98023E-14
 -1       379 2.26979E+01-6.67993E-01-7.34230E-03-2.43256E-01 5.35433E-14 4.43955E-13
 -1       380 2.27381E+01-9.00441E-01-8.14721E-03-1.03658E+00-1.64155E-13 2.49639E-13
 -1       381 2.25219E+01-9.69406E-01-6.44339E-03-2.01117E+00-2.25279E-13 5.40281E-13
 -1       382 2.19322E+01-6.76916E-01-1.65662E-03-2.92404E+00 6.31697E-14 5.91196E-13
 -1       383 2.09142E+01 1.13742E-01 3.72027E-03-3.33965E+00 1.91920E-13 6.67000E-13
 -1       384 1.95988E+01 1.27297E+00 6.27569E-03-2.76893E+00-4.95515E-14 5.78942E-13
 -1       385 1.83923E+01 2.24181E+00 1.42619E-03-1.03040E+00-3.70169E-13 3.48136E-13
 -1       386 1.78297E+01 2.23960E+00 6.29094E-03 1.32111E+00-3.04358E-13 1.34247E-14
 -1       387 1.81820E+01 7.79329E-01-3.89496E-03 3.08965E+00-7.46590E-14-1.75969E-13
 -1       388 1.98928E+01 2.28546E-01 1.07963E-02 3.97850E-01 1.28953E-13 1.03073E-13
 -1       389 1.96046E+01 1.15434E-01 6.17471E-03 1.19053E-01 1.31041E-13 4.95927E-14
 -1       390 1.94706E+01 5.77071E-02 2.80558E-03-2.98678E-02 7.57227E-14 3.45643E-14
 -1       391 1.94313E+01 2.58181E-02 1.17669E-03-1.06794E-01 4.60690E-14-8.89756E-15
 -1       392 1.94476E+01 7.34862E-03 4.47770E-04-1.42044E-01 3.90381E-14-4.53352E-14
 -1       393 1.94942E+01-3.39961E-03 9.97371E-05-1.52510E-01 1.27193E-13-3.39182E-14
 -1       394 1.95549E+01-9.38290E-03-8.32141E-05-1.48366E-01 1.21979E-13-2.14641E-14
 -1       395 1.96197E+01-1.23255E-02-1.80703E-04-1.36034E-01 2.01225E-14-2.43585E-14
 -1       396 1.96826E+01-1.33202E-02-2.26647E-04-1.19657E-01 1.31232E-13-3.51915E-14
 -1       397 1.97400E+01-1.30923E-02-2.39753E-04-1.01901E-01 7.52530E-14-8.78258E-14
 -1       398 1.97903E+01-1.21312E-02-2.32160E-04-8.44488E-02 6.31953E-14-1.57387E-13
 -1       399 1.98330E+01-1.07636E-02-2.12051E-04-6.83154E-02 6.40505E-15-7.87145E-14
 -1       400 1.98685E+01-9.19995E-03-1.84809E-04-5.40762E-02-3.05006E-14-1.18397E-13
 -1       401 1.98973E+01-7.56411E-03-1.53753E-04-4.20271E-02 4.16853E-14-1.15466E-13
 -1       402 1.99205E+01-5.91472E-03-1.20671E-04-3.23051E-02 8.11471E-14-5.86856E-14
 -1       403 1.99393E+01-4.26034E-03-8.61820E-05-2.49801E-02 1.12364E-13-1.67592E-14
 -1       404 1.99551E+01-2.57061E-03-4.99886E-05-2.01251E-02-6.89957E-14-1.22368E-13
 -1       405 1.99693E+01-7.83798E-04-1.10798E-05-1.78704E-02-1.13438E-13-1.25112E-13
 -1       406 1.99835E+01 1.18795E-03 3.21344E-05-1.84490E-02-5.31211E-14-1.24975E-13
 -1       407 1.99996E+01 3.45508E-03 8.17123E-05-2.22326E-02 1.42175E-13-6.36497E-14
 -1       408 2.00197E+01 6.14768E-03 1.40077E-04-2.97625E-02 1.28258E-13 2.55828E-14
 -1       409 2.00463E+01 9.41222E-03 2.09890E-04-4.17745E-02-8.57639E-14-1.29454E-13
 -1       410 2.00823E+01 1.34062E-02 2.93848E-04-5.92155E-02-1.33239E-13-4.65510E-14
 -1       411 2.01314E+01 1.82888E-02 3.94344E-04-8.32474E-02-1.27169E-13-1.21945E-13
 -1       412 2.01975E+01 2.42028E-02 5.12870E-04-1.15229E-01 8.97992E-14-9.97357E-14
 -1       413 2.02856E+01 3.12429E-02 6.48957E-04-1.56656E-01-5.21785E-14-1.38697E-14
 -1       414 2.04009E+01 3.93981E-02 7.98376E-04-2.09041E-01 2.60787E-14 1.76042E-13
 -1       415 2.05495E+01 4.84501E-02 9.50121E-04-2.73667E-01 2.94395E-13 3.17354E-13
 -1       416 2.07373E+01 5.77990E-02 1.08162E-03-3.51155E-01-1.30716E-14 2.20814E-14
 -1       417 2.09699E+01 6.61701E-02 1.15165E-03-4.40707E-01 3.27655E-14-2.16522E-13
 -1       418 2.12510E+01 7.11421E-02 1.09128E-03-5.38844E-01-1.83360E-15-2.27531E-13
 -1       419 2.15816E+01 6.84427E-02 7.95282E-04-6.37387E-01 9.06174E-14-1.13950E-13
 -1       420 2.19563E+01 5.10221E-02 1.21842E-04-7.20424E-01 1.17473E-13-6.37990E-14
 -1       421 2.23612E+01 8.16795E-03-1.08352E-03-7.60207E-01-9.92118E-15-1.34351E-13
 -1       422 2.27683E+01-7.44396E-02-2.91567E-03-7.12638E-01-2.58316E-13-2.54208E-13
 -1       423 2.31308E+01-2.11525E-01-5.26251E-03-5.14895E-01-2.32518E-14-2.70336E-13
 -1       424 2.33773E+01-4.07800E-01-7.62143E-03-9.14390E-02-1.21687E-13-2.74726E-13
 -1       425 2.34068E+01-6.35577E-01-9.03910E-03 6.19845E-01-1.25973E-13 9.25779E-15
 -1       426 2.30907E+01-8.02812E-01-8.46909E-03 1.60637E+00-2.53439E-13 4.08455E-13
 -1       427 2.23010E+01-7.39400E-01-4.63658E-03 2.68516E+00-7.90305E-14 4.15184E-13
 -1       428 2.09888E+01-2.59149E-01 1.73113E-03 3.42931E+00-6.29605E-14 2.13901E-13
 -1       429 1.93235E+01 6.49947E-01 4.20087E-03 3.24794E+00 1.83271E-13 6.49420E-13
 -1       430 1.77858E+01 1.63451E+00 4.70016E-03 1.75499E+00 2.35176E-14 5.41175E-13
 -1       431 1.70035E+01 2.00380E+00-5.06198E-05-7.17970E-01-2.03689E-13 2.94821E-13
 -1       432 1.74103E+01 1.12915E+00 1.91147E-03-2.90287E+00 3.60727E-14 4.51921E-13
 -1       433 1.83179E+01-2.18502E-01 8.27010E-03-3.58542E+00 1.38901E-13 1.87732E-13
 -1       434 2.32086E+01 4.89414E+00-1.58899E-01-2.67981E+00 3.47763E-13-9.78218E-13
 -1       435 1.96350E+01 2.51657E+00-4.35464E-02-4.38247E+00 4.08909E-13 3.68733E-14
 -1       436 1.88312E+01 5.49835E-01-1.41570E-02-4.36845E+00 3.91090E-13 1.45530E-13
 -1       437 3.01733E+01 7.04553E+00-9.17944E-02 1.56373E+00 2.85313E-13-1.11336E-12
 -1       438 3.46901E+01 4.60715E+00 3.27334E-01 1.22098E+01 1.43344E-13-1.02307E-13
 -1       439 2.37323E+01 9.95629E-01-3.09522E-02 2.00764E+00-2.06973E-13-3.40200E-13
 -1       440 1.99092E+01-4.16935E-01-4.09398E-02 4.47206E+00-6.95858E-14 2.93470E-13
 -1       441 1.91453E+01-9.40945E-01-7.03762E-03 4.41294E+00 1.14318E-14 3.01745E-13
 -1       442 3.92596E+01 1.33197E+01 1.95922E-01-6.66339E+00-7.53841E-13-2.48981E-13
 -1       443 2.95778E+01 5.75837E-02 7.75019E-03-1.71208E+01-3.57089E-13-9.09717E-13
 -1       444 1.97875E+01 3.44012E+00-2.06932E-02-1.72502E+00-2.01602E-13-2.19181E-13
 -1       445 3.75872E+01 1.09499E+01 1.19827E-01 6.90122E+00 4.79575E-13-2.86049E-13
 -1       446 4.12155E+01 1.45331E+01 6.11268E-02 6.65501E+00 7.24532E-13-6.05835E-13
 -1       447 4.15906E+01 1.39081E+01-4.31992E-02 6.10954E+00 5.32407E-13-4.31287E-13
 -1       448 4.21140E+01 9.93918E+00-5.22477E-02 5.55691E+00 2.53630E-13-3.68955E-13
 -1       449 3.98014E+01 4.16907E+00-9.52650E-02 3.92359E+00 3.33109E-13-5.36821E-13
 -1       450 3.42099E+01-3.49955E+00-8.87028E-02-4.56068E-01 5.25448E-13-5.54279E-13
 -1       451 2.80346E+01-7.16916E+00 1.34715E-03-3.91615E+00 7.50899E-13-4.71082E-13
 -1       452 1.72849E+01-9.04636E+00-2.62428E-02-6.80718E+00 6.33160E-13-4.57801E-13
 -1       453 9.31533E+00-8.72982E+00 1.37540E-02-6.69238E+00 3.02536E-13-8.57162E-13
 -1       454 1.60127E+00-8.29161E+00-6.00945E-02-3.23750E+00 4.09839E-13-6.63303E-13
 -1       455 1.41712E-01-8.10599E+00-6.31665E-02 6.93781E-01 3.07499E-13-9.45161E-13
 -1       456 4.18100E+00-8.54791E+00-5.39170E-02 5.20256E+00 1.16726E-13-7.04520E-13
 -1       457 1.12954E+01-9.02884E+00-4.96358E-02 6.96579E+00-4.79450E-13-5.74589E-13
 -1       458 2.08969E+01-8.53888E+00-8.05095E-03 6.30031E+00-7.08711E-13-4.51170E-13
 -1       459 3.11414E+01-4.71080E+00-2.57156E-02 2.67422E+00-5.31658E-13-5.82090E-13
 -1       460 3.74828E+01 7.80725E-03-3.19342E-02-1.32458E+00-5.02145E-13-1.57679E-13
 -1       461 4.06975E+01 5.39450E+00-7.34119E-02-3.93524E+00-3.64250E-13-2.28956E-13
 -1       462 4.17267E+01 1.18152E+01-5.71240E-02-6.03654E+00 2.52826E-13 2.22114E-13
 -1       463 3.94349E+01 1.45250E+01-1.18114E-01-6.09050E+00 1.55959E-13 3.57174E-13
 -1       464 3.45230E+01 4.80286E+00 3.61142E-01-1.21966E+01-7.43738E-13-6.94611E-13
 -1       465 3.15282E+01 1.33958E+01-2.81673E-01-3.18836E+00-3.48194E-13 1.89876E-13
 -1       466 2.74144E+01-8.03471E+00 8.48089E-03 3.51405E+00-4.93119E-13-1.48520E-13
 -1       467 3.50706E+01-9.36137E-01-1.00016E-01 4.15795E+00 2.58359E-13-3.83527E-13
 -1       468 2.03749E+01 8.32090E-01 4.02359E-03 9.70891E-01 1.70508E-13-1.73201E-14
 -1       469 1.97313E+01 3.10475E+00-5.32648E-03-6.33349E-01-9.53997E-14-2.52030E-13
 -1       470 1.98282E+01 2.93142E+00-5.70406E-03-9.49298E-01-1.35568E-13-2.58888E-13
 -1       471 1.96633E+01 3.22741E+00-5.01747E-03 8.81547E-03-7.50058E-15-2.65540E-13
 -1       472 1.96819E+01 3.19439E+00-5.09944E-03 3.30125E-01 3.96195E-14-2.79167E-13
 -1       473 1.97360E+01 3.09749E+00-5.40931E-03 6.45230E-01 7.70021E-14-2.63991E-13
 -1       474 1.98351E+01 2.91953E+00-5.94873E-03 9.60652E-01 1.23970E-13-2.39649E-13
 -1       475 1.99911E+01 2.63433E+00-6.51964E-03 1.25573E+00 1.58139E-13-2.19368E-13
 -1       476 2.02339E+01 2.18810E+00-5.70096E-03 1.50036E+00 2.02472E-13-1.59292E-13
 -1       477 2.03461E+01 9.71491E-01 2.41790E-03-9.40996E-01-1.73205E-13-6.92934E-14
 -1       478 2.01133E+01 4.53830E-01 5.07173E-03 4.62931E-01 1.62854E-13-5.99847E-14
 -1       479 2.03951E+01 1.77298E+00-4.99331E-03-1.54785E+00-2.19348E-13-8.68649E-14
 -1       480 2.01729E+01 5.44288E-01 2.04621E-03-4.66392E-01-1.11292E-13-5.55377E-14
 -1       481 2.00258E+01 3.03944E-01 1.11451E-03-1.64982E-01-7.31403E-14-6.90077E-14
 -1       482 1.99252E+01 1.61897E-01 4.60923E-04 1.65860E-02-6.54416E-14-8.12162E-14
 -1       483 1.98665E+01 7.55368E-02 1.60507E-04 1.19263E-01-3.72214E-14-1.08033E-13
 -1       484 1.98392E+01 2.27041E-02 2.21957E-05 1.70606E-01-2.68893E-14-1.38039E-13
 -1       485 1.98330E+01-8.96837E-03-4.70432E-05 1.89155E-01-4.74397E-14-1.88362E-13
 -1       486 1.98401E+01-2.68952E-02-8.26523E-05 1.87412E-01-1.41125E-13-9.43164E-14
 -1       487 1.98545E+01-3.58057E-02-9.86008E-05 1.73833E-01-1.68109E-13-9.17398E-14
 -1       488 1.98724E+01-3.88505E-02-1.02074E-04 1.54113E-01-5.67653E-14-1.15495E-13
 -1       489 1.98912E+01-3.81735E-02-9.77259E-05 1.32025E-01-5.86664E-15-1.32756E-13
 -1       490 1.99092E+01-3.52321E-02-8.87426E-05 1.10011E-01 3.07818E-14-1.99301E-13
 -1       491 1.99257E+01-3.09940E-02-7.72369E-05 8.95974E-02 1.71222E-14-1.27569E-13
 -1       492 1.99404E+01-2.60674E-02-6.45233E-05 7.17060E-02-2.49928E-14-7.33130E-14
 -1       493 1.99533E+01-2.07915E-02-5.13116E-05 5.68787E-02-9.74199E-14-1.14507E-13
 -1       494 1.99646E+01-1.53026E-02-3.78423E-05 4.54518E-02-8.47744E-14-1.54411E-13
 -1       495 1.99748E+01-9.58093E-03-2.40016E-05 3.76859E-02-1.19166E-13-1.66680E-13
 -1       496 1.99847E+01-3.48521E-03-9.39692E-06 3.38663E-02 4.04930E-14-1.41410E-14
 -1       497 1.99947E+01 3.22178E-03 6.58476E-06 3.43805E-02 4.96748E-14-5.10176E-14
 -1       498 2.00060E+01 1.08528E-02 2.47327E-05 3.97772E-02 1.98207E-13-7.07303E-14
 -1       499 2.00194E+01 1.97775E-02 4.59695E-05 5.08106E-02 1.75733E-13-1.28157E-13
 -1       500 2.00362E+01 3.03999E-02 7.12979E-05 6.84676E-02 8.10212E-14-5.30705E-14
 -1       501 2.00576E+01 4.31275E-02 1.01720E-04 9.39754E-02-3.90699E-14-1.65282E-13
 -1       502 2.00851E+01 5.83233E-02 1.38107E-04 1.28781E-01 2.64646E-15-1.85490E-13
 -1       503 2.01205E+01 7.62278E-02 1.80974E-04 1.74487E-01-2.21668E-14-4.64311E-14
 -1       504 2.01657E+01 9.68357E-02 2.30117E-04 2.32727E-01-1.00524E-13-6.90302E-14
 -1       505 2.02224E+01 1.19700E-01 2.84005E-04 3.04946E-01-2.06949E-14-1.10811E-13
 -1       506 2.02930E+01 1.43629E-01 3.38820E-04 3.92032E-01 3.63410E-14-8.70034E-14
 -1       507 2.03794E+01 1.66217E-01 3.86970E-04 4.93758E-01 1.14099E-13-3.12507E-14
 -1       508 2.04839E+01 1.83159E-01 4.14905E-04 6.07924E-01-4.82304E-14-6.71832E-14
 -1       509 2.06090E+01 1.87270E-01 4.00195E-04 7.29106E-01-2.15758E-13-1.67834E-13
 -1       510 2.07582E+01 1.67235E-01 3.08192E-04 8.46898E-01-3.69995E-14-9.42752E-14
 -1       511 2.09364E+01 1.06250E-01 8.98016E-05 9.43541E-01 7.07726E-14-3.17441E-15
 -1       512 2.11520E+01-1.87354E-02-3.15066E-04 9.90950E-01 2.12075E-13 3.22008E-13
 -1       513 2.14180E+01-2.35423E-01-9.66704E-04 9.47391E-01 1.25708E-13 2.68360E-13
 -1       514 2.17518E+01-5.68459E-01-1.91932E-03 7.54896E-01 9.64032E-14 2.30021E-13
 -1       515 2.21682E+01-1.01940E+00-3.15548E-03 3.41004E-01 2.36805E-13-5.28059E-14
 -1       516 2.26605E+01-1.52936E+00-4.29241E-03-3.68601E-01 4.66261E-14 1.58281E-13
 -1       517 2.31593E+01-1.92101E+00-4.51902E-03-1.41304E+00-4.04787E-15 5.05910E-13
 -1       518 2.34782E+01-1.85550E+00-3.37349E-03-2.70415E+00-1.13140E-13 6.39399E-13
 -1       519 2.33280E+01-9.28195E-01-2.10388E-03-3.89306E+00-1.88825E-14 5.26080E-13
 -1       520 2.24402E+01 1.03271E+00-8.08870E-03-4.32011E+00-9.85449E-14 4.07783E-13
 -1       521 2.09129E+01 3.38702E+00 6.53923E-03-3.25375E+00-2.02600E-13 3.07547E-13
 -1       522 1.92751E+01 4.82402E+00-2.54935E-02-6.38475E-01-4.10220E-13 3.82566E-13
 -1       523 1.87028E+01 3.62456E+00-4.95108E-03 2.44500E+00-4.49632E-13 2.89475E-13
 -1       524 1.99262E+01 2.46483E-01 2.44424E-03 1.57329E-01 1.32493E-13-8.14555E-14
 -1       525 1.98116E+01 1.29093E-01 9.98512E-04-2.10917E-02 8.80829E-14-7.73399E-14
 -1       526 1.97539E+01 5.96959E-02 3.62753E-04-1.19709E-01 7.31874E-14-1.06582E-13
 -1       527 1.97352E+01 1.78858E-02 8.30473E-05-1.67911E-01 6.54411E-14-1.24160E-13
 -1       528 1.97413E+01-6.96959E-03-5.28738E-05-1.84551E-01 7.49554E-14-6.24372E-14
 -1       529 1.97617E+01-2.09745E-02-1.23083E-04-1.81931E-01 5.94337E-14-2.33544E-14
 -1       530 1.97892E+01-2.79255E-02-1.56226E-04-1.68205E-01 1.17340E-13-7.94132E-14
 -1       531 1.98189E+01-3.03130E-02-1.66169E-04-1.48788E-01 1.01899E-13-3.66470E-14
 -1       532 1.98481E+01-2.98160E-02-1.61580E-04-1.27236E-01 7.60577E-14 4.76393E-15
 -1       533 1.98750E+01-2.75714E-02-1.48302E-04-1.05831E-01-4.11565E-14 1.08860E-14
 -1       534 1.98988E+01-2.43356E-02-1.30210E-04-8.59875E-02 3.71206E-14 1.39209E-14
 -1       535 1.99193E+01-2.05882E-02-1.09716E-04-6.85423E-02-3.50781E-15 5.44525E-14
 -1       536 1.99367E+01-1.66016E-02-8.82001E-05-5.39707E-02-4.80462E-15-1.33148E-16
 -1       537 1.99515E+01-1.24916E-02-6.62523E-05-4.25489E-02 7.08307E-14 1.21304E-13
 -1       538 1.99644E+01-8.25329E-03-4.38359E-05-3.44774E-02-3.81090E-14 2.20957E-13
 -1       539 1.99762E+01-3.78774E-03-2.04483E-05-2.99749E-02-6.92679E-14 1.12680E-13
 -1       540 1.99880E+01 1.07999E-03 4.79214E-06-2.93532E-02-3.30707E-14 7.57375E-15
 -1       541 2.00008E+01 6.58763E-03 3.30744E-05-3.30760E-02 1.88654E-14-1.21340E-13
 -1       542 2.00159E+01 1.30252E-02 6.58357E-05-4.18064E-02 8.70097E-14-5.70167E-16
 -1       543 2.00349E+01 2.07249E-02 1.04699E-04-5.64424E-02 3.78637E-14 6.82814E-14
 -1       544 2.00595E+01 3.00468E-02 1.51390E-04-7.81413E-02-3.45824E-14 8.38662E-15
 -1       545 2.00918E+01 4.13573E-02 2.07589E-04-1.08325E-01-3.00276E-14-8.46737E-14
 -1       546 2.01341E+01 5.49911E-02 2.74686E-04-1.48661E-01 4.44403E-14-2.26455E-13
 -1       547 2.01890E+01 7.11860E-02 3.53337E-04-2.00991E-01-6.15704E-14-1.64957E-13
 -1       548 2.02594E+01 8.99701E-02 4.42688E-04-2.67202E-01-1.45421E-13-9.69886E-14
 -1       549 2.03483E+01 1.10971E-01 5.39061E-04-3.48971E-01 8.97309E-14-1.02388E-13
 -1       550 2.04588E+01 1.33096E-01 6.33756E-04-4.47328E-01 2.23902E-13 1.04839E-13
 -1       551 2.05939E+01 1.54005E-01 7.09578E-04-5.61942E-01 3.15043E-14 5.86821E-14
 -1       552 2.07562E+01 1.69278E-01 7.35709E-04-6.89957E-01-8.90997E-14 1.43391E-13
 -1       553 2.09479E+01 1.71159E-01 6.61030E-04-8.24199E-01 7.92569E-14 2.66845E-13
 -1       554 2.11713E+01 1.46841E-01 4.07538E-04-9.50488E-01 1.00781E-13 3.44046E-13
 -1       555 2.14289E+01 7.65530E-02-1.31027E-04-1.04389E+00 6.67478E-14 2.61229E-13
 -1       556 2.17255E+01-6.74882E-02-1.07492E-03-1.06398E+00-8.77839E-15 3.02998E-13
 -1       557 2.20685E+01-3.18364E-01-2.51007E-03-9.50004E-01-1.23900E-13 6.94864E-14
 -1       558 2.24665E+01-7.01799E-01-4.35131E-03-6.18962E-01-3.41383E-15 1.59770E-13
 -1       559 2.29173E+01-1.20370E+00-6.18922E-03 2.60968E-02-4.97558E-13 2.30756E-13
 -1       560 2.33759E+01-1.70924E+00-7.49297E-03 1.06212E+00-2.34206E-13 3.08159E-13
 -1       561 2.36949E+01-1.92823E+00-8.63424E-03 2.45578E+00-8.91674E-14 1.56790E-13
 -1       562 2.36064E+01-1.41842E+00-7.66037E-03 3.90876E+00 2.13483E-14 6.81998E-14
 -1       563 2.28198E+01 1.78479E-01-3.43310E-03 4.73057E+00 1.16879E-14-8.41348E-14
 -1       564 2.12875E+01 2.58376E+00-1.69902E-02 4.05916E+00-8.29163E-14 6.16328E-14
 -1       565 1.96073E+01 4.40825E+00-1.87253E-02 1.48585E+00-1.50266E-14 3.48689E-13
 -1       566 1.85118E+01 4.18602E+00-2.59807E-02-2.00695E+00 8.96852E-16 3.72376E-13
 -1       567 2.21202E+01 8.42193E+00-1.63607E-01-1.30232E+00 1.76199E-13-6.30494E-13
 -1       568 1.95687E+01 4.62437E+00-1.61338E-02 3.18230E+00-2.35270E-13 2.70062E-13
 -1       569 2.36892E+01 7.55594E+00-2.77038E-01 1.81765E+00-1.03639E-13 3.22110E-13
 -1       570 3.32800E+01 8.41558E+00-2.25796E-01-6.46748E+00-3.28029E-13-1.89189E-13
 -1       571 3.31514E+01-3.99161E+00-7.02870E-02-1.69044E+00-4.13351E-13 1.48492E-15
 -1       572 1.96790E+01 3.19880E+00-5.09005E-03-3.12601E-01-5.16625E-14-2.49185E-13
 -1       573 3.13430E+01 1.33724E+01-2.33435E-01 3.04861E+00 4.03594E-13-1.03547E-12
 -1       574 3.20693E+01 1.16025E+01-2.47253E-01 5.52389E+00 1.90820E-13-6.01866E-13
 -1       575 3.41147E+01 6.75914E+00-2.37873E-01 6.49045E+00 2.44055E-13-4.13267E-13
 -1       576 3.10697E+01-6.57051E+00-3.58208E-02-7.04662E-02 5.84990E-13-3.93907E-13
 -1       577 2.45959E+01-8.61923E+00 6.21357E-02-4.51594E+00 6.26367E-13-7.01726E-14
 -1       578 1.59994E+01-7.90272E+00 1.32069E-01-6.89378E+00 3.35842E-13-6.28435E-13
 -1       579 8.20413E+00-5.44769E+00 1.99445E-01-5.57900E+00 5.24490E-13-6.12996E-13
 -1       580 4.64922E+00-4.70556E+00 1.94222E-01 3.52787E+00 4.23259E-13-1.06429E-12
 -1       581 1.17536E+01-6.05878E+00 2.03478E-01 6.69397E+00 1.64084E-13-7.66116E-13
 -1       582 1.83600E+01-7.78888E+00 1.43851E-01 6.57439E+00-1.93429E-13-4.31516E-13
 -1       583 3.41326E+01 1.89706E+00-1.62981E-01-5.47894E+00-5.15449E-13-4.00388E-13
 -1       584 3.00473E+01 1.24451E+01-2.50148E-01-4.80801E+00 1.49422E-13-1.13937E-14
 -1       585 3.33259E+00-4.60365E+00 1.85705E-01-1.49797E+00 4.77566E-13-1.16807E-12
 -1       586 2.05866E+01 1.30528E+00-9.99256E-04 1.54691E+00 2.15511E-13 2.33437E-14
 -1       587 2.98700E+01 1.07773E+01-1.70220E-01 1.16595E+00 1.85532E-13-1.17853E-12
 -1       588 1.99777E+01 2.66811E+00-6.06706E-03-1.25388E+00-1.70661E-13-2.09310E-13
 -1       589 3.21326E+01 2.29046E+00-8.61993E-02 6.50003E+00 1.54439E-13-3.76088E-15
 -1       590 2.63502E+01 1.15772E+01-2.21508E-01-1.76992E+00-2.17062E-13 1.19599E-13
 -1       591 2.33044E+01-8.15117E+00 4.74126E-02 4.68292E+00-1.90493E-13 8.45461E-14
 -1       592 1.99583E+01 2.45009E+00-1.60017E-03 3.93626E-01 4.12369E-14-2.20328E-13
 -1       593 1.99264E+01 2.52496E+00-1.51409E-03 1.35611E-01 2.29335E-15-2.48184E-13
 -1       594 2.01194E+01 2.04666E+00-1.59994E-03 8.49334E-01 1.27808E-13-1.94031E-13
 -1       595 2.02388E+01 1.67620E+00-2.25640E-03 9.90849E-01 1.71798E-13-1.62359E-13
 -1       596 2.02935E+01 1.12081E+00 3.02123E-04-7.64351E-01-1.47213E-13-1.18571E-13
 -1       597 2.03200E+01 1.03694E+00 2.89536E-03 8.30210E-01 1.79388E-13-1.24431E-13
 -1       598 2.61215E+01 8.89413E+00-1.65066E-01-5.09959E+00-3.75963E-13-3.76638E-13
 -1       599 2.02398E+01 6.73908E-01 5.86223E-04-3.92196E-01-1.02506E-13-1.32509E-13
 -1       600 2.01676E+01 3.92121E-01 2.32194E-04-1.38325E-01-1.05610E-13-1.31539E-13
 -1       601 2.01021E+01 2.12568E-01 6.37780E-05 2.35551E-02-6.20484E-14-1.52324E-13
 -1       602 2.00517E+01 9.81718E-02 6.91748E-06 1.18497E-01-5.77497E-14-1.92388E-13
 -1       603 2.00165E+01 2.62768E-02-1.55643E-05 1.67130E-01-6.02015E-14-2.40837E-13
 -1       604 1.99938E+01-1.73495E-02-2.63636E-05 1.84969E-01-6.33307E-14-2.36854E-13
 -1       605 1.99805E+01-4.20087E-02-3.16934E-05 1.83284E-01-1.01345E-13-1.87834E-13
 -1       606 1.99738E+01-5.40039E-02-3.33638E-05 1.70054E-01-1.02350E-13-7.60702E-14
 -1       607 1.99715E+01-5.76874E-02-3.24808E-05 1.50801E-01-5.99882E-14-6.59994E-14
 -1       608 1.99721E+01-5.60728E-02-2.99654E-05 1.29253E-01-2.89072E-14-7.57583E-14
 -1       609 1.99744E+01-5.12174E-02-2.64773E-05 1.07857E-01 6.84138E-14-1.00772E-13
 -1       610 1.99777E+01-4.44758E-02-2.24873E-05 8.81739E-02-1.43783E-15-1.04809E-13
 -1       611 1.99816E+01-3.66786E-02-1.83159E-05 7.11763E-02-1.22155E-13-8.90955E-14
 -1       612 1.99857E+01-2.82621E-02-1.41032E-05 5.74770E-02-1.61736E-13-1.21836E-13
 -1       613 1.99901E+01-1.93616E-02-9.86325E-06 4.75023E-02-8.92322E-14-6.28167E-14
 -1       614 1.99947E+01-9.88138E-03-5.50257E-06 4.16249E-02 2.61290E-14 1.80487E-15
 -1       615 1.99997E+01 4.55098E-04-8.52393E-07 4.02652E-02-3.98295E-14-1.00161E-13
 -1       616 2.00053E+01 1.20646E-02 4.31641E-06 4.39693E-02 1.35681E-13-1.52728E-13
 -1       617 2.00118E+01 2.54704E-02 1.02821E-05 5.34662E-02 1.19103E-13-2.98107E-13
 -1       618 2.00194E+01 4.12666E-02 1.73603E-05 6.97068E-02 1.43929E-13-3.00370E-13
 -1       619 2.00286E+01 6.00740E-02 2.58876E-05 9.38817E-02-8.02652E-14-2.79200E-13
 -1       620 2.00397E+01 8.24763E-02 3.61959E-05 1.27413E-01-4.28949E-14-1.97207E-13
 -1       621 2.00531E+01 1.08921E-01 4.85698E-05 1.71913E-01 9.96030E-14-1.90308E-13
 -1       622 2.00691E+01 1.39571E-01 6.31744E-05 2.29086E-01-3.28285E-14 4.17710E-15
 -1       623 2.00882E+01 1.74066E-01 7.99369E-05 3.00569E-01-1.08676E-13 5.36733E-14
 -1       624 2.01107E+01 2.11169E-01 9.83533E-05 3.87665E-01-4.05395E-14-2.20759E-15
 -1       625 2.01373E+01 2.48237E-01 1.17179E-04 4.90956E-01 1.52967E-13 6.46355E-14
 -1       626 2.01691E+01 2.80430E-01 1.33939E-04 6.09735E-01-1.42223E-14-1.28413E-13
 -1       627 2.02084E+01 2.99610E-01 1.44167E-04 7.41226E-01-3.98644E-14-1.37197E-14
 -1       628 2.02597E+01 2.92850E-01 1.40231E-04 8.79522E-01-1.81363E-13 1.63682E-13
 -1       629 2.03316E+01 2.40629E-01 1.09678E-04 1.01416E+00 2.84352E-14 2.02928E-13
 -1       630 2.04403E+01 1.15086E-01 3.48545E-05 1.12820E+00 2.39871E-13 1.65499E-13
 -1       631 2.06133E+01-1.20556E-01-9.83720E-05 1.19543E+00 9.85753E-14 1.05979E-13
 -1       632 2.08941E+01-5.08657E-01-2.99726E-04 1.17594E+00-2.80371E-14 1.14090E-13
 -1       633 2.13441E+01-1.08368E+00-6.77677E-04 1.00843E+00 2.20957E-14-8.65183E-14
 -1       634 2.20288E+01-1.83601E+00-1.48704E-03 6.03897E-01 2.64026E-13-4.39950E-15
 -1       635 2.29897E+01-2.65437E+00-2.19893E-03-1.57938E-01 1.54712E-13 3.08261E-14
 -1       636 2.41509E+01-3.20311E+00-2.01790E-03-1.40647E+00 1.35315E-13 1.14692E-13
 -1       637 2.51962E+01-2.84551E+00-2.12708E-03-3.12434E+00-1.67333E-14 2.75761E-13
 -1       638 2.54675E+01-8.17155E-01-4.00251E-02-4.81186E+00-1.36591E-13 3.04049E-13
 -1       639 2.45222E+01 2.87694E+00-4.44696E-02-5.37808E+00-2.91742E-13 1.60635E-13
 -1       640 2.00275E+01 1.89539E-01 1.67325E-04-2.24408E-02 1.03384E-13-1.08572E-13
 -1       641 1.99738E+01 8.79840E-02 5.26543E-05-1.20947E-01 8.29492E-14-9.75159E-14
 -1       642 1.99418E+01 2.47464E-02 3.61962E-07-1.70842E-01 4.65893E-14-8.99754E-14
 -1       643 1.99260E+01-1.34519E-02-2.86770E-05-1.88932E-01 5.49278E-14-8.55055E-14
 -1       644 1.99211E+01-3.50560E-02-4.49340E-05-1.87060E-01 9.74485E-14-1.19491E-13
 -1       645 1.99233E+01-4.56612E-02-5.22119E-05-1.73455E-01 6.86189E-14-7.32457E-14
 -1       646 1.99295E+01-4.90759E-02-5.33902E-05-1.53744E-01 3.66841E-14-4.34804E-14
 -1       647 1.99377E+01-4.79167E-02-5.07535E-05-1.31700E-01 1.74944E-16 5.50590E-14
 -1       648 1.99467E+01-4.39649E-02-4.58807E-05-1.09785E-01-2.98173E-14 7.29215E-14
 -1       649 1.99556E+01-3.84014E-02-3.97234E-05-8.95565E-02 2.08671E-16 9.71770E-14
 -1       650 1.99640E+01-3.19594E-02-3.29247E-05-7.19698E-02 2.82890E-14 8.08375E-14
 -1       651 1.99719E+01-2.50331E-02-2.58612E-05-5.76092E-02-7.59833E-14 7.78798E-14
 -1       652 1.99794E+01-1.77599E-02-1.86048E-05-4.68645E-02 2.19040E-15 1.70914E-13
 -1       653 1.99865E+01-1.00793E-02-1.10760E-05-4.00632E-02 2.87634E-14 1.39608E-13
 -1       654 1.99938E+01-1.77459E-03-3.03641E-06-3.75741E-02 2.92180E-14 9.40362E-14
 -1       655 2.00017E+01 7.49643E-03 5.87623E-06-3.98875E-02 6.47816E-14 7.70399E-14
 -1       656 2.00108E+01 1.81777E-02 1.61263E-05-4.76772E-02 3.31842E-14 4.78763E-14
 -1       657 2.00216E+01 3.07934E-02 2.82621E-05-6.18476E-02 9.10989E-14 1.02742E-13
 -1       658 2.00349E+01 4.59237E-02 4.28959E-05-8.35643E-02-8.53845E-15 1.14514E-13
 -1       659 2.00516E+01 6.41699E-02 6.06718E-05-1.14266E-01 1.32643E-14 6.33711E-14
 -1       660 2.00725E+01 8.60997E-02 8.22111E-05-1.55647E-01 7.21168E-15 3.49169E-14
 -1       661 2.00984E+01 1.12157E-01 1.08015E-04-2.09603E-01-1.66035E-13 5.55454E-14
 -1       662 2.01304E+01 1.42514E-01 1.38292E-04-2.78119E-01-1.29908E-13 1.65362E-13
 -1       663 2.01693E+01 1.76826E-01 1.72658E-04-3.63060E-01 4.61873E-14-1.08394E-14
 -1       664 2.02160E+01 2.13836E-01 2.09626E-04-4.65845E-01-1.05372E-14 4.86634E-15
 -1       665 2.02712E+01 2.50742E-01 2.45763E-04-5.86929E-01 1.03167E-13 1.82701E-13
 -1       666 2.03361E+01 2.82196E-01 2.74342E-04-7.25022E-01-3.43039E-14 1.47076E-13
 -1       667 2.04129E+01 2.98805E-01 2.83247E-04-8.75948E-01-1.79664E-13-9.28214E-14
 -1       668 2.05063E+01 2.84987E-01 2.51791E-04-1.03101E+00-8.38678E-14 1.00108E-13
 -1       669 2.06259E+01 2.16272E-01 1.46884E-04-1.17466E+00 5.55624E-15 4.66477E-13
 -1       670 2.07910E+01 5.66634E-02-7.87459E-05-1.28128E+00 1.87102E-14 4.28842E-13
 -1       671 2.10365E+01-2.41857E-01-4.83345E-04-1.31057E+00-3.64561E-14 4.19322E-13
 -1       672 2.14185E+01-7.32395E-01-1.11420E-03-1.20085E+00-1.12626E-13 5.52553E-13
 -1       673 2.20128E+01-1.44757E+00-1.85115E-03-8.60338E-01-2.09812E-13 6.82297E-13
 -1       674 2.28938E+01-2.33909E+00-2.18422E-03-1.62063E-01-1.77975E-13 3.48303E-13
 -1       675 2.40556E+01-3.15633E+00-3.45100E-03 1.04570E+00 4.08720E-14 1.88479E-13
 -1       676 2.52852E+01-3.27878E+00-4.39106E-03 2.81959E+00-1.84601E-14 2.91425E-14
 -1       677 2.60320E+01-1.87845E+00-1.24329E-02 4.84691E+00 8.47575E-14-3.63511E-14
 -1       678 2.53537E+01 1.63380E+00-9.31765E-02 5.96459E+00-6.73437E-14 5.01887E-14
 -1       679 2.38093E+01 5.82703E+00-8.76215E-02 4.70410E+00-2.62356E-13-1.94601E-14
 -1       680 2.27106E+01 8.93705E+00-1.49748E-01 2.10167E+00-1.29917E-13-1.62861E-13
 -1       681 6.38534E+00-2.40966E+00 1.92812E-01 8.70824E-01 5.82676E-13-1.09555E-12
 -1       682 3.12397E+01-1.92894E+00-8.03616E-02-4.58397E+00-3.81226E-13-3.12944E-13
 -1       683 2.91101E+01 4.32069E+00-1.52252E-01-6.41405E+00-5.83145E-13-1.31551E-13
 -1       684 2.95756E+01-6.69612E+00-1.50134E-02-4.94955E-03-3.14318E-13 3.01703E-14
 -1       685 2.01059E+01 3.53012E-01 5.57010E-04 1.47808E-01 1.14956E-13-1.09897E-13
 -1       686 2.00229E+01 2.29529E+00-1.64710E-03 6.37100E-01 8.64072E-14-2.20445E-13
 -1       687 2.02062E+01 6.15196E-01 1.15083E-03 4.19171E-01 1.58924E-13-1.10054E-13
 -1       688 2.00174E+01 2.30557E+00-1.60291E-03-6.28687E-01-9.95084E-14-2.32225E-13
 -1       689 2.10976E+01-7.33468E+00 7.45493E-02-5.07371E+00 3.23869E-13-2.96764E-13
 -1       690 2.77699E+01-7.43446E+00 9.77495E-03-9.43701E-01 4.63976E-13 1.58163E-13
 -1       691 3.13414E+01-3.61504E+00-4.01165E-02 4.01801E+00 2.30973E-13 1.98036E-14
 -1       692 7.75459E+00-2.85194E+00 1.73319E-01-3.07944E+00 3.25549E-13-6.10872E-13
 -1       693 1.66001E+01-5.76339E+00 1.26283E-01 5.99170E+00 1.37151E-13-5.82302E-13
 -1       694 1.01137E+01-3.11961E+00 1.57344E-01 4.49120E+00 5.24653E-13-1.04276E-12
 -1       695 1.45661E+01-5.30829E+00 1.38079E-01-5.87150E+00 3.74305E-13-5.16198E-13
 -1       696 2.06760E+01 8.27738E+00-1.81355E-01 9.31202E-02-3.88696E-13 1.83374E-13
 -1       697 1.99254E+01 2.52667E+00-1.50142E-03-1.26421E-01-3.88959E-14-2.11092E-13
 -1       698 2.78030E+01 6.87274E+00-1.92760E-01 6.02701E+00-4.90441E-14-1.85540E-13
 -1       699 1.24062E+01-3.01860E+00 1.18143E-01-4.43048E+00 2.62582E-13-5.08187E-13
 -1       700 1.99555E+01 2.45568E+00-1.52756E-03-3.83958E-01-8.67301E-14-2.10101E-13
 -1       701 2.06162E+01-6.54368E+00 5.59339E-02 4.86845E+00 8.69964E-14 1.06859E-13
 -1       702 2.01164E+01 2.06464E+00-1.88799E-03-8.53092E-01-1.45091E-13-2.20595E-13
 -1       703 2.02642E+01 1.68921E+00-1.93384E-03-1.12799E+00-1.73841E-13-1.32750E-13
 -1       704 2.02652E+01 1.30426E+00-2.92199E-04 6.27828E-01 1.23077E-13-1.43872E-13
 -1       705 2.84268E+01-4.42194E+00-1.25522E-02-2.82812E+00-1.49995E-13-1.71695E-13
 -1       706 2.72417E+01 2.49925E+00-1.53682E-01 6.25199E+00-1.47223E-13 2.83612E-13
 -1       707 2.74912E+01 3.53058E-01-5.08122E-02-5.56914E+00-3.17611E-13 1.65567E-13
 -1       708 2.02886E+01 7.29745E-01-1.22557E-04-2.89848E-01-7.99545E-14-1.52966E-13
 -1       709 2.02613E+01 4.33081E-01-1.73286E-05-9.22834E-02-1.00840E-13-1.41277E-13
 -1       710 2.02209E+01 2.34202E-01-1.74276E-05 3.69699E-02-1.09680E-13-1.68802E-13
 -1       711 2.01792E+01 1.03578E-01-1.48807E-05 1.14054E-01-1.07150E-13-2.08456E-13
 -1       712 2.01414E+01 2.01505E-02-1.15926E-05 1.53418E-01-5.44135E-14-2.15621E-13
 -1       713 2.01092E+01-3.05753E-02-9.59689E-06 1.67069E-01-1.85006E-14-1.46563E-13
 -1       714 2.00829E+01-5.88499E-02-8.68346E-06 1.64232E-01-2.94244E-14-7.18367E-14
 -1       715 2.00619E+01-7.19578E-02-8.13866E-06 1.51637E-01-2.82864E-14-1.80666E-16
 -1       716 2.00457E+01-7.50614E-02-7.64837E-06 1.34036E-01-4.94929E-14 2.81041E-14
 -1       717 2.00333E+01-7.17774E-02-6.97529E-06 1.14677E-01-2.09775E-15-2.07932E-14
 -1       718 2.00242E+01-6.45717E-02-6.03025E-06 9.57186E-02-1.18243E-15-8.25034E-14
 -1       719 2.00177E+01-5.50435E-02-4.97214E-06 7.85578E-02-9.28256E-14-9.64322E-14
 -1       720 2.00133E+01-4.41390E-02-3.90747E-06 6.40948E-02-1.06020E-13-6.32361E-14
 -1       721 2.00105E+01-3.23082E-02-2.90125E-06 5.29321E-02-1.80839E-13-2.57846E-14
 -1       722 2.00089E+01-1.96200E-02-1.92739E-06 4.55310E-02-1.23374E-13-2.09786E-13
 -1       723 2.00081E+01-5.84923E-03-9.42797E-07 4.23311E-02 2.96568E-15-2.21536E-13
 -1       724 2.00078E+01 9.45690E-03 1.05102E-07 4.38422E-02 4.88334E-14-1.22289E-13
 -1       725 2.00077E+01 2.69247E-02 1.27922E-06 5.07121E-02 3.42751E-14-1.54480E-13
 -1       726 2.00074E+01 4.73032E-02 2.65315E-06 6.37747E-02 1.44276E-13-1.89801E-13
 -1       727 2.00064E+01 7.14082E-02 4.31078E-06 8.40789E-02-5.72940E-14-2.72230E-13
 -1       728 2.00043E+01 1.00047E-01 6.34565E-06 1.12895E-01-3.70196E-14-2.63614E-13
 -1       729 2.00003E+01 1.33910E-01 8.86018E-06 1.51693E-01 7.29391E-14-2.58807E-13
 -1       730 1.99936E+01 1.73410E-01 1.19647E-05 2.02088E-01 1.86307E-13-2.43044E-13
 -1       731 1.99834E+01 2.18442E-01 1.57766E-05 2.65732E-01 9.15541E-14-8.29147E-15
 -1       732 1.99686E+01 2.68020E-01 2.04205E-05 3.44163E-01-6.51676E-14 9.03854E-14
 -1       733 1.99484E+01 3.19760E-01 2.60324E-05 4.38573E-01 3.27445E-14 2.44655E-13
 -1       734 1.99225E+01 3.69123E-01 3.27717E-05 5.49519E-01-9.85396E-14 1.12038E-13
 -1       735 1.98914E+01 4.08362E-01 4.08216E-05 6.76572E-01-6.37711E-14-2.00343E-14
 -1       736 1.98581E+01 4.25090E-01 5.02280E-05 8.17917E-01-1.10248E-13-8.53249E-14
 -1       737 1.98297E+01 4.00429E-01 6.01595E-05 9.69925E-01 1.42300E-13 1.27979E-13
 -1       738 1.98207E+01 3.06852E-01 6.74714E-05 1.12663E+00-1.24833E-14 2.33506E-14
 -1       739 1.98578E+01 1.06093E-01 7.58185E-05 1.27883E+00 1.10210E-13-3.70209E-14
 -1       740 1.99870E+01-2.51732E-01 1.52724E-04 1.41173E+00-6.80528E-14-1.45166E-13
 -1       741 2.02824E+01-8.25063E-01 4.22586E-04 1.49929E+00 4.38022E-14-1.23600E-13
 -1       742 2.08626E+01-1.66893E+00 1.18994E-03 1.48288E+00 2.49175E-13 3.93679E-14
 -1       743 2.18522E+01-2.76282E+00 1.32756E-03 1.24966E+00 2.26002E-13 6.34714E-14
 -1       744 2.34062E+01-3.97875E+00 6.35413E-04 5.87624E-01 2.55546E-13 1.41562E-13
 -1       745 2.54975E+01-4.75563E+00 1.31081E-02-7.86067E-01 1.35598E-14-2.68492E-15
 -1       746 2.01700E+01 2.24177E-01-2.89393E-06-3.36314E-02 9.87360E-14-7.45018E-14
 -1       747 2.00604E+01-2.46560E-02-1.12463E-05-1.76727E-01 6.40932E-14-1.77060E-14
 -1       748 2.00397E+01-5.13111E-02-1.33725E-05-1.74174E-01 8.62623E-14-6.33815E-15
 -1       749 2.00247E+01-6.39351E-02-1.38244E-05-1.61069E-01 4.03112E-14-7.53662E-15
 -1       750 2.00144E+01-6.73238E-02-1.34882E-05-1.42514E-01-3.81283E-14 1.05132E-14
 -1       751 2.00075E+01-6.48147E-02-1.27548E-05-1.21975E-01-8.49942E-14 8.43177E-15
 -1       752 2.00033E+01-5.86882E-02-1.14053E-05-1.01755E-01-2.80851E-14 1.31202E-13
 -1       753 2.00009E+01-5.04439E-02-9.68597E-06-8.33270E-02 2.45494E-14 9.69733E-14
 -1       754 2.00000E+01-4.09776E-02-7.90801E-06-6.76244E-02-5.76980E-14 1.86911E-13
 -1       755 2.00002E+01-3.07332E-02-6.02605E-06-5.52593E-02-7.59823E-14 7.09383E-14
 -1       756 2.00013E+01-1.98097E-02-4.09800E-06-4.66835E-02-8.98964E-15 7.71109E-14
 -1       757 2.00030E+01-8.03700E-03-2.08999E-06-4.23158E-02 4.43708E-14 7.31695E-14
 -1       758 2.00053E+01 4.96679E-03 8.07569E-08-4.26395E-02-3.08030E-14 1.52521E-13
 -1       759 2.00080E+01 1.97521E-02 2.52879E-06-4.82772E-02 3.67416E-14 2.15525E-13
 -1       760 2.00111E+01 3.70013E-02 5.39431E-06-6.00467E-02 4.12223E-14 1.85467E-13
 -1       761 2.00145E+01 5.74910E-02 8.83983E-06-7.89982E-02 2.10238E-14 2.81536E-13
 -1       762 2.00179E+01 8.20464E-02 1.30468E-05-1.06432E-01 5.59620E-14 2.40651E-13
 -1       763 2.00212E+01 1.11473E-01 1.82106E-05-1.43893E-01 3.53506E-14 2.42828E-13
 -1       764 2.00238E+01 1.46455E-01 2.45320E-05-1.93128E-01-1.21028E-13 9.86473E-14
 -1       765 2.00253E+01 1.87387E-01 3.22038E-05-2.56005E-01-1.36761E-13-7.86130E-14
 -1       766 2.00249E+01 2.34120E-01 4.13887E-05-3.34373E-01 1.50835E-14-1.18556E-13
 -1       767 2.00214E+01 2.85555E-01 5.21847E-05-4.29836E-01 6.00488E-14-3.64900E-14
 -1       768 2.00139E+01 3.39021E-01 6.45739E-05-5.43458E-01-7.81959E-14-9.34084E-14
 -1       769 2.00016E+01 3.89314E-01 7.83478E-05-6.75348E-01-9.97822E-14 7.48009E-14
 -1       770 1.99849E+01 4.27270E-01 9.29477E-05-8.24168E-01 5.34640E-14 1.97235E-13
 -1       771 1.99668E+01 4.37694E-01 1.06840E-04-9.86546E-01-1.77846E-13 9.55550E-14
 -1       772 1.99557E+01 3.96547E-01 1.15029E-04-1.15639E+00-2.29185E-13 6.36311E-14
 -1       773 1.99705E+01 2.67544E-01 1.06468E-04-1.32397E+00-3.41189E-14 9.13011E-14
 -1       774 2.00481E+01-1.05840E-03 7.37861E-05-1.47425E+00-2.03958E-13 4.05697E-13
 -1       775 2.02547E+01-4.77169E-01 3.94169E-05-1.58254E+00-2.24590E-13 5.60964E-13
 -1       776 2.06984E+01-1.23631E+00 1.22635E-04-1.60314E+00-1.58754E-13 4.55976E-13
 -1       777 2.15382E+01-2.32493E+00 1.97987E-03-1.43907E+00-1.29002E-13 2.30825E-13
 -1       778 2.29571E+01-3.67109E+00 4.89307E-03-9.12603E-01-1.37848E-13 3.40399E-13
 -1       779 2.50802E+01-4.89146E+00 6.12756E-03 2.72448E-01 5.69733E-14 5.97662E-13
 -1       780 2.60340E+01-6.72588E+00 3.09618E-02 1.45519E+00 2.04697E-14 5.95557E-14
 -1       781 2.02202E+01 4.13960E-01-6.90658E-05 1.09954E-01 8.82602E-14-6.30561E-14
 -1       782 2.00885E+01 2.28586E-02-7.09539E-06-1.61452E-01 3.40950E-14-5.03987E-14
 -1       783 9.56444E+00-1.17374E+00 1.19345E-01-8.85002E-01 9.83871E-14-7.82048E-13
 -1       784 2.02841E+01 1.16737E+00 1.14489E-04-5.68218E-01-1.13583E-13-1.67832E-13
 -1       785 1.06773E+01-1.29757E+00 8.87361E-02 2.24578E+00 3.05184E-13-1.13203E-12
 -1       786 2.43659E+01-6.48542E+00 3.92744E-02-2.26812E+00 1.75858E-13 3.74452E-13
 -1       787 1.47276E+01-3.35357E+00 8.68057E-02 4.74674E+00 7.40147E-13-6.98455E-13
 -1       788 2.01370E+01 1.88920E+00-3.08587E-04 1.99251E-01-6.44563E-15-1.74337E-13
 -1       789 1.86506E+01-5.18129E+00 5.58113E-02-4.70083E+00 1.04345E-13-2.45221E-13
 -1       790 2.01251E+01 1.01038E-01-4.91493E-06-1.18245E-01 2.35028E-14-5.20775E-14
 -1       791 2.02777E+01 9.43616E-01 2.52761E-04 5.51447E-01 1.32560E-13-1.30725E-13
 -1       792 2.70739E+01-5.19352E+00 9.65406E-03 1.77524E+00 1.50803E-13 4.80567E-13
 -1       793 1.77460E+01-4.35064E+00 4.10281E-02 4.62869E+00 7.33550E-13-2.72780E-13
 -1       794 2.01250E+01 1.92774E+00-3.15794E-04 3.20315E-03-5.76795E-14-1.94160E-13
 -1       795 2.01697E+01 1.77613E+00-3.03263E-04 3.79942E-01 5.46524E-14-1.81572E-13
 -1       796 1.61473E+01-3.26292E+00 5.73172E-02-4.24578E+00 1.02080E-13-2.49290E-13
 -1       797 2.01670E+01 1.78252E+00-2.82412E-04-3.75249E-01-9.54753E-14-2.05981E-13
 -1       798 2.02120E+01 1.59414E+00-9.72620E-04-5.27521E-01-1.07091E-13-1.95340E-13
 -1       799 2.02180E+01 1.58320E+00-2.03800E-04 5.33417E-01 7.86490E-14-1.64632E-13
 -1       800 2.02487E+01 6.38532E-01 1.92392E-04 2.94135E-01 1.20131E-13-1.03707E-13
 -1       801 1.21091E+01-3.33185E-01 3.63059E-02 2.43045E-01-4.77222E-14-6.96302E-13
 -1       802 2.03286E+01 4.30508E-01-6.85838E-05-4.55754E-02-1.19426E-13-1.83500E-13
 -1       803 2.03025E+01 2.27345E-01-1.38106E-05 4.83160E-02-1.14291E-13-1.47514E-13
 -1       804 2.02659E+01 9.15718E-02-1.32129E-05 1.03940E-01-6.34316E-14-9.28391E-14
 -1       805 2.02264E+01 4.57763E-03-6.63623E-06 1.31370E-01-2.69645E-14-9.50273E-14
 -1       806 2.01881E+01-4.78129E-02-2.86661E-06 1.39500E-01 8.39611E-15-1.36913E-13
 -1       807 2.01532E+01-7.61555E-02-1.32621E-06 1.35258E-01 3.41863E-14-8.54156E-14
 -1       808 2.01228E+01-8.81655E-02-1.39749E-06 1.23788E-01-6.48465E-14-1.05896E-13
 -1       809 2.00971E+01-8.93945E-02-1.76344E-06 1.08770E-01-3.84198E-15-1.07179E-13
 -1       810 2.00759E+01-8.37520E-02-1.69315E-06 9.27365E-02-6.03664E-14-9.93598E-14
 -1       811 2.00589E+01-7.38753E-02-1.33782E-06 7.73798E-02-4.39526E-14-1.12796E-13
 -1       812 2.00455E+01-6.14348E-02-8.91363E-07 6.38166E-02-1.06289E-13-2.07770E-13
 -1       813 2.00351E+01-4.73681E-02-6.20482E-07 5.27878E-02-1.06888E-13-2.98023E-13
 -1       814 2.00268E+01-3.20471E-02-4.67884E-07 4.48204E-02-1.78437E-13-5.24462E-14
 -1       815 2.00202E+01-1.54080E-02-3.86234E-07 4.03555E-02-2.35327E-14 6.43004E-14
 -1       816 2.00143E+01 2.94805E-03-3.56265E-07 3.98448E-02 6.62082E-14 2.37682E-14
 -1       817 2.00084E+01 2.36762E-02-3.70939E-07 4.38235E-02 1.13551E-13-1.16581E-14
 -1       818 2.00016E+01 4.76205E-02-4.26665E-07 5.29632E-02-1.21258E-14 5.11821E-14
 -1       819 1.99929E+01 7.57450E-02-5.19884E-07 6.81077E-02-2.74284E-14-1.47526E-13
 -1       820 1.99810E+01 1.09053E-01-6.44769E-07 9.02911E-02-1.11990E-13-2.40449E-13
 -1       821 1.99645E+01 1.48474E-01-7.90023E-07 1.20735E-01 1.85075E-14-2.96614E-13
 -1       822 1.99418E+01 1.94710E-01-9.33609E-07 1.60824E-01 1.07223E-13-2.15299E-13
 -1       823 1.99108E+01 2.48000E-01-1.03415E-06 2.12053E-01 2.10885E-13-2.49728E-13
 -1       824 1.98696E+01 3.07795E-01-1.01626E-06 2.75946E-01 6.48589E-14-2.02756E-13
 -1       825 1.98160E+01 3.72283E-01-7.42193E-07 3.53956E-01 1.90757E-13 2.43291E-14
 -1       826 1.97477E+01 4.37745E-01 5.07224E-08 4.47357E-01-7.18966E-14 6.95613E-14
 -1       827 1.96636E+01 4.97657E-01 1.88344E-06 5.57175E-01-2.09081E-13-1.14585E-14
 -1       828 1.95635E+01 5.41514E-01 5.70505E-06 6.84230E-01-1.90298E-13-1.33750E-13
 -1       829 1.94504E+01 5.53284E-01 1.25511E-05 8.29385E-01 1.51565E-13-1.14567E-13
 -1       830 1.93322E+01 5.09481E-01 2.09116E-05 9.94100E-01 9.25213E-14-1.61035E-13
 -1       831 1.92252E+01 3.76903E-01 2.05553E-05 1.18128E+00-8.35780E-14-8.17666E-14
 -1       832 1.91603E+01 1.10076E-01 2.43560E-05 1.39627E+00-7.49693E-14-3.90102E-13
 -1       833 1.91933E+01-3.51488E-01 4.13541E-04 1.64530E+00 2.49727E-15-4.00787E-13
 -1       834 1.94091E+01-1.07722E+00 1.36858E-03 1.93278E+00 2.79044E-13-1.41392E-13
 -1       835 2.00125E+01-2.19717E+00-8.91001E-03 2.23926E+00 3.84387E-13-1.60729E-13
 -1       836 2.13030E+01-3.70316E+00 1.05311E-02 2.44487E+00 2.06977E-13-7.59074E-15
 -1       837 2.02292E+01 9.64686E-02 9.62889E-06-1.10741E-01 3.71617E-14-7.78071E-14
 -1       838 2.01549E+01-4.03314E-02 9.76725E-08-1.53217E-01 5.91174E-14 1.09951E-14
 -1       839 2.00757E+01-8.32008E-02-9.13417E-08-1.20704E-01-3.87909E-14 1.55665E-13
 -1       840 2.00582E+01-7.86005E-02-6.66620E-07-1.03023E-01-1.45152E-13 1.49826E-13
 -1       841 2.00446E+01-6.99208E-02-5.12491E-07-8.59438E-02-1.91416E-14 1.19262E-13
 -1       842 2.00341E+01-5.87950E-02-6.74301E-07-7.06964E-02-2.89891E-14 1.14547E-13
 -1       843 2.00262E+01-4.61610E-02-5.83596E-07-5.80979E-02-3.11612E-14 1.05028E-13
 -1       844 2.00204E+01-3.24253E-02-4.43724E-07-4.87144E-02-3.93570E-14 6.38593E-14
 -1       845 2.00160E+01-1.75802E-02-2.89676E-07-4.30028E-02-1.18446E-15-2.01549E-14
 -1       846 2.00124E+01-1.29627E-03-1.09460E-07-4.14195E-02 3.32582E-14 6.36614E-14
 -1       847 2.00092E+01 1.70087E-02 1.17701E-07-4.45023E-02 4.65330E-14-6.58122E-14
 -1       848 2.00056E+01 3.81129E-02 4.16691E-07-5.29311E-02 5.85596E-14 4.23979E-14
 -1       849 2.00009E+01 6.29391E-02 8.18117E-07-6.75697E-02-3.04868E-14 1.25682E-13
 -1       850 1.99941E+01 9.24967E-02 1.36074E-06-8.94892E-02-2.00755E-14 1.19406E-13
 -1       851 1.99841E+01 1.27806E-01 2.09471E-06-1.19970E-01 2.10878E-14 7.27306E-14
 -1       852 1.99696E+01 1.69787E-01 3.08680E-06-1.60476E-01 1.48933E-14 1.17403E-13
 -1       853 1.99489E+01 2.19097E-01 4.42937E-06-2.12601E-01-5.56194E-14-1.45057E-14
 -1       854 1.99198E+01 2.75880E-01 6.25582E-06-2.77977E-01-1.47475E-14 5.82148E-14
 -1       855 1.98801E+01 3.39398E-01 8.76751E-06-3.58138E-01 2.87490E-14-1.43896E-13
 -1       856 1.98270E+01 4.07476E-01 1.22842E-05-4.54363E-01-8.35781E-15-2.59298E-14
 -1       857 1.97579E+01 4.75708E-01 1.73508E-05-5.67519E-01-2.16805E-13 5.48797E-14
 -1       858 1.96707E+01 5.36288E-01 2.49679E-05-6.97971E-01-1.25099E-13 1.31765E-13
 -1       859 1.95646E+01 5.76370E-01 3.69130E-05-8.45687E-01-8.50546E-15 1.89799E-13
 -1       860 1.94428E+01 5.75774E-01 5.50527E-05-1.01070E+00-2.17023E-13 1.71024E-13
 -1       861 1.93150E+01 5.03943E-01 7.40248E-05-1.19405E+00-1.16255E-13 7.24340E-14
 -1       862 1.92038E+01 3.16287E-01 8.14488E-05-1.39914E+00-2.31649E-13 2.56582E-13
 -1       863 1.91539E+01-4.98119E-02 1.17216E-04-1.63318E+00-3.24076E-13 2.94185E-13
 -1       864 1.92499E+01-6.79646E-01 4.88863E-04-1.90469E+00-2.51057E-13 1.02875E-13
 -1       865 1.96355E+01-1.67498E+00 2.11048E-03-2.20983E+00-3.66875E-14 4.09406E-13
 -1       866 2.05676E+01-3.13337E+00 6.14243E-03-2.47656E+00-1.02993E-13 4.55912E-13
 -1       867 2.01354E+01 1.89261E+00-3.06461E-04-1.92279E-01-8.01088E-14-1.82330E-13
 -1       868 2.01905E+01 1.12495E-02 2.77080E-06-1.42969E-01 2.68869E-14-5.44641E-14
 -1       869 2.02999E+01 4.29478E-01-3.02134E-05 6.22936E-02 9.06589E-14-5.67742E-14
 -1       870 2.27404E+01-5.43791E+00 3.46319E-02 2.75835E+00 1.71410E-13 3.06981E-14
 -1       871 2.00974E+01-8.11162E-02 3.06659E-06-1.37081E-01-1.88594E-14 1.39159E-13
 -1       872 2.02948E+01 1.14797E+00 7.55114E-04-3.85924E-01-9.01854E-14-1.98070E-13
 -1       873 2.01238E+01-6.86263E-02 2.47298E-06-1.49301E-01 3.05330E-14 1.19910E-13
 -1       874 2.03326E+01 7.25848E-01-3.89007E-04-1.88498E-01-8.64538E-14-1.84738E-13
 -1       875 1.42232E+01-1.34337E+00 4.46689E-02 3.01850E+00 4.54417E-13-5.03515E-13
 -1       876 2.14857E+01-4.71967E+00 1.33173E-02-2.88702E+00-5.74180E-14 5.10984E-13
 -1       877 1.27635E+01-1.17834E+00 4.95672E-02-2.54506E+00-7.89776E-14-6.17520E-13
 -1       878 2.02675E+01 2.29467E-01-3.97562E-05-4.62752E-02 6.40839E-14-5.35379E-14
 -1       879 2.02731E+01 1.40684E+00 1.70562E-05 6.91331E-02-3.65602E-14-1.52151E-13
 -1       880 2.03101E+01 7.27207E-01-1.77648E-04 2.30137E-01 8.64714E-14-1.03868E-13
 -1       881 2.02850E+01 1.33651E+00-1.08264E-04 1.99430E-01 4.21796E-15-1.43188E-13
 -1       882 1.61731E+01-2.19063E+00 2.69999E-02 3.54538E+00 5.74599E-13-4.11419E-13
 -1       883 2.02821E+01 1.34234E+00 1.64917E-05-1.92924E-01-7.33791E-14-1.94611E-13
 -1       884 2.03006E+01 1.00282E+00-2.84179E-04 3.61596E-01 6.96796E-14-1.20685E-13
 -1       885 1.89172E+01-3.39672E+00 2.68870E-02-3.46123E+00-4.42571E-15 4.55755E-14
 -1       886 2.02888E+01 8.18640E-01-3.54714E-05 3.38568E-01 9.28197E-14-9.17033E-14
 -1       887 2.03595E+01 6.91858E-01-2.73537E-04 1.36604E-01 4.83567E-14-1.34096E-13
 -1       888 2.03345E+01 2.09527E-01 1.01785E-04-5.25899E-02 6.50811E-14-8.38253E-14
 -1       889 2.03569E+01 1.96666E-01 2.19314E-05 5.13728E-02-6.84484E-14-2.65466E-14
 -1       890 2.03211E+01 6.54963E-02-1.10891E-05 8.59179E-02-3.67094E-14-6.32267E-14
 -1       891 2.02793E+01-1.78635E-02-2.69014E-06 1.01831E-01-3.00558E-14-4.26411E-14
 -1       892 2.02364E+01-6.69582E-02 7.96911E-07 1.04965E-01 1.73248E-15-3.38852E-14
 -1       893 2.01960E+01-9.21670E-02 7.18287E-07 1.00014E-01-8.13871E-15-5.03840E-14
 -1       894 2.01596E+01-1.01135E-01 7.25041E-07 9.04710E-02-7.74071E-14-4.44042E-14
 -1       895 2.01281E+01-9.94473E-02 5.70733E-07 7.88685E-02-2.91480E-14-5.62107E-14
 -1       896 2.01015E+01-9.09921E-02 7.23121E-07 6.69322E-02 8.42711E-15-3.75341E-14
 -1       897 2.00796E+01-7.83362E-02 1.22804E-06 5.58341E-02-1.09662E-13-1.84688E-14
 -1       898 2.00618E+01-6.30665E-02 1.23775E-06 4.63561E-02-1.45027E-13 1.85654E-14
 -1       899 2.00472E+01-4.59908E-02 9.45061E-07 3.90299E-02-7.22762E-14-1.72620E-15
 -1       900 2.00350E+01-2.73193E-02 4.88754E-07 3.42635E-02 4.27777E-14 9.50344E-14
 -1       901 2.00242E+01-6.80450E-03-1.03734E-07 3.24295E-02-5.37699E-15 2.09133E-13
 -1       902 2.00136E+01 1.61518E-02-8.59916E-07 3.39327E-02 3.46315E-14 1.92587E-13
 -1       903 2.00020E+01 4.24122E-02-1.83108E-06 3.92612E-02 6.73888E-15 9.21860E-14
 -1       904 1.99880E+01 7.30231E-02-3.08311E-06 4.90231E-02-1.16661E-13-5.43576E-14
 -1       905 1.99698E+01 1.09128E-01-4.69426E-06 6.39703E-02-3.90302E-14-6.16691E-14
 -1       906 1.99457E+01 1.51860E-01-6.75443E-06 8.50083E-02-1.95922E-14 8.75888E-14
 -1       907 1.99132E+01 2.02190E-01-9.36479E-06 1.13193E-01 1.09613E-13 9.40728E-14
 -1       908 1.98698E+01 2.60725E-01-1.26393E-05 1.49712E-01 8.25723E-14 5.96841E-14
 -1       909 1.98125E+01 3.27410E-01-1.67108E-05 1.95858E-01 8.65030E-14-1.13950E-13
 -1       910 1.97381E+01 4.01132E-01-2.17468E-05 2.52995E-01 2.14111E-13-1.03788E-13
 -1       911 1.96432E+01 4.79182E-01-2.79750E-05 3.22551E-01 6.41155E-14-2.87012E-13
 -1       912 1.95246E+01 5.56551E-01-3.57041E-05 4.06075E-01-1.30482E-13-1.89943E-13
 -1       913 1.93793E+01 6.25049E-01-4.53226E-05 5.05446E-01-1.65173E-13 7.89866E-14
 -1       914 1.92058E+01 6.72211E-01-5.76116E-05 6.23369E-01-1.34470E-13 1.97873E-13
 -1       915 1.90043E+01 6.79963E-01-7.70090E-05 7.64367E-01 8.32576E-14-3.14920E-14
 -1       916 1.87790E+01 6.22963E-01-1.27495E-04 9.36457E-01 7.21993E-15-1.62559E-13
 -1       917 1.85402E+01 4.66620E-01-2.65308E-04 1.15347E+00-1.25618E-13-7.18844E-14
 -1       918 1.83072E+01 1.65499E-01-7.64301E-04 1.43959E+00 1.45835E-15-1.39574E-13
 -1       919 1.81288E+01-3.55297E-01-2.05275E-03 1.83191E+00 2.03830E-13-2.16675E-13
 -1       920 1.81565E+01-1.17038E+00 7.41004E-03 2.38681E+00 2.90885E-13-5.19534E-13
 -1       921 2.01155E+01-9.52748E-02 4.32460E-06-9.26051E-02-6.48591E-14 1.17146E-13
 -1       922 2.00554E+01-6.25743E-02 4.12471E-06-5.43365E-02 2.47237E-14 1.89569E-13
 -1       923 2.00425E+01-4.68234E-02 3.13638E-06-4.53852E-02 3.11149E-14 9.88761E-14
 -1       924 2.00321E+01-2.96295E-02 2.20354E-06-3.92712E-02-3.36958E-14 2.29009E-14
 -1       925 2.00231E+01-1.08192E-02 1.32267E-06-3.64033E-02 1.37954E-14-2.02211E-15
 -1       926 2.00147E+01 1.01317E-02 4.77973E-07-3.72150E-02 9.00009E-14-4.34748E-15
 -1       927 2.00057E+01 3.40190E-02-3.59395E-07-4.22246E-02 4.00184E-15-4.93515E-14
 -1       928 1.99950E+01 6.18417E-02-1.22361E-06-5.20771E-02-9.07492E-14-4.71791E-15
 -1       929 1.99810E+01 9.47333E-02-2.14912E-06-6.75692E-02-1.53736E-13-5.31168E-14
 -1       930 1.99622E+01 1.33879E-01-3.16699E-06-8.96573E-02 1.33421E-13-2.26745E-15
 -1       931 1.99365E+01 1.80406E-01-4.30120E-06-1.19445E-01 4.57951E-14-1.29942E-13
 -1       932 1.99015E+01 2.35221E-01-5.56465E-06-1.58148E-01-1.86011E-14-1.04638E-13
 -1       933 1.98542E+01 2.98786E-01-6.95599E-06-2.07034E-01-7.27756E-14 5.06575E-14
 -1       934 1.97913E+01 3.70788E-01-8.46096E-06-2.67343E-01 2.29928E-14 1.45233E-13
 -1       935 1.97090E+01 4.49682E-01-1.00654E-05-3.40202E-01-7.48935E-14 2.44536E-13
 -1       936 1.96032E+01 5.32058E-01-1.17867E-05-4.26576E-01-1.95615E-13 3.41432E-13
 -1       937 1.94695E+01 6.11783E-01-1.36951E-05-5.27333E-01-9.17931E-14 2.90098E-13
 -1       938 1.93038E+01 6.78868E-01-1.57949E-05-6.43570E-01-1.15777E-13 1.74471E-13
 -1       939 1.91032E+01 7.17992E-01-1.79006E-05-7.77469E-01-5.70171E-14 2.34529E-13
 -1       940 1.88670E+01 7.06511E-01-2.21940E-05-9.34025E-01-9.87757E-14-1.42805E-14
 -1       941 1.85993E+01 6.11724E-01-5.54770E-05-1.12383E+00-2.72782E-13-5.70614E-14
 -1       942 1.83134E+01 3.87701E-01-1.57251E-04-1.36705E+00-3.01589E-13-1.11374E-13
 -1       943 1.80374E+01-2.76899E-02 2.53666E-04-1.70034E+00-1.80636E-13-2.34941E-14
 -1       944 1.78301E+01-7.33965E-01 1.22145E-03-2.18196E+00-2.73430E-13-9.68909E-14
 -1       945 1.80457E+01-1.81011E+00 4.17451E-03-2.79047E+00-1.18217E-13-1.55516E-14
 -1       946 2.01447E+01-9.57951E-02 5.88766E-06-1.05946E-01-8.55022E-14 9.37177E-14
 -1       947 2.02977E+01 1.20935E+00 4.75906E-04-2.98924E-01-7.69169E-14-1.98628E-13
 -1       948 2.02724E+01 1.40809E+00-1.93352E-05-6.51930E-02-7.30521E-14-1.72492E-13
 -1       949 2.02574E+01-8.40510E-03 7.54573E-06-1.16628E-01-3.08053E-14-3.54464E-14
 -1       950 2.02987E+01 1.20844E+00 1.71667E-03 3.03458E-01 4.32826E-14-1.70982E-13
 -1       951 2.03580E+01 4.10498E-01 1.48830E-04 2.19096E-02 6.26548E-14-9.22012E-14
 -1       952 2.03725E+01 6.76086E-01 1.67077E-04-1.02190E-01-6.20224E-14-1.73690E-13
 -1       953 1.43974E+01-1.01611E-01 1.31744E-02 1.32666E+00 9.77363E-14-4.06866E-13
 -1       954 2.03577E+01 8.91675E-01-2.92808E-04-1.42405E-01-7.35545E-14-1.89301E-13
 -1       955 1.41296E+01-1.25395E-01 1.48710E-02-1.22650E+00-1.70478E-13-6.08396E-13
 -1       956 2.00912E+01-8.80410E-02 6.97073E-06-7.87343E-02-5.53773E-14 1.26392E-13
 -1       957 2.02980E+01 7.63320E-02 1.33536E-05-9.60338E-02 2.70027E-15-8.21545E-14
 -1       958 2.03774E+01 3.91462E-01-2.62098E-04-9.25078E-03-6.65062E-14-8.63525E-14
 -1       959 1.58230E+01-1.57809E+00 1.74808E-02-3.04184E+00-2.07184E-13-2.58982E-13
 -1       960 2.00714E+01-7.66028E-02 5.25683E-06-6.56619E-02-4.94537E-14 1.83024E-13
 -1       961 2.03668E+01 9.68887E-01 4.16080E-05-7.49586E-02-3.63803E-14-1.53269E-13
 -1       962 2.03645E+01 9.73173E-01 1.55606E-05 7.92772E-02-4.10690E-15-1.03245E-13
 -1       963 2.02166E+01-5.89848E-02 2.84024E-06-1.21590E-01-1.32858E-14 3.87055E-14
 -1       964 2.03675E+01 9.97458E-01 2.09959E-04 3.30002E-03-3.88115E-14-1.48433E-13
 -1       965 2.01785E+01-8.54753E-02 6.41092E-06-1.16563E-01 3.19034E-14 1.01712E-13
 -1       966 2.03492E+01 3.05304E-02-3.32181E-05 5.91669E-02-1.36766E-14-6.53910E-14
 -1       967 2.03045E+01-4.33747E-02-8.35452E-06 6.59898E-02-1.32609E-14-5.40982E-14
 -1       968 2.02585E+01-8.52508E-02 8.90370E-07 6.59456E-02 2.31497E-14-7.42750E-14
 -1       969 2.02150E+01-1.05006E-01 6.19823E-07 6.15781E-02 4.06871E-15-4.41414E-14
 -1       970 2.01755E+01-1.09574E-01 2.18103E-06 5.49808E-02-2.76049E-14 1.98275E-14
 -1       971 2.01413E+01-1.04432E-01 5.88332E-06 4.74753E-02-7.86712E-14-6.95250E-14
 -1       972 2.01121E+01-9.30249E-02 6.01400E-06 4.00792E-02-1.30092E-14-1.57595E-13
 -1       973 2.00879E+01-7.77627E-02 5.95348E-06 3.34591E-02-9.99020E-14-9.34152E-14
 -1       974 2.00677E+01-5.99885E-02 4.68996E-06 2.80406E-02-1.15533E-13 1.22270E-14
 -1       975 2.00508E+01-4.02792E-02 2.69937E-06 2.41429E-02-4.70407E-15 8.97995E-14
 -1       976 2.00360E+01-1.86275E-02 1.61436E-07 2.20316E-02 8.93646E-14 1.39693E-14
 -1       977 2.00219E+01 5.42370E-03-2.92144E-06 2.19689E-02 5.52040E-14 6.27618E-14
 -1       978 2.00072E+01 3.26752E-02-6.62553E-06 2.42539E-02 2.07876E-14 1.06906E-13
 -1       979 1.99903E+01 6.41793E-02-1.10696E-05 2.92533E-02-1.44815E-13 9.34260E-14
 -1       980 1.99691E+01 1.01149E-01-1.63977E-05 3.74235E-02-1.26486E-13 9.48164E-14
 -1       981 1.99415E+01 1.44853E-01-2.27656E-05 4.93250E-02 9.07620E-14 9.44500E-14
 -1       982 1.99049E+01 1.96482E-01-3.03294E-05 6.56308E-02 1.89299E-14 7.42177E-14
 -1       983 1.98563E+01 2.56964E-01-3.92379E-05 8.71281E-02 5.11065E-15 2.19199E-14
 -1       984 1.97923E+01 3.26717E-01-4.96404E-05 1.14719E-01 4.47046E-14-4.77922E-14
 -1       985 1.97090E+01 4.05306E-01-6.17265E-05 1.49425E-01-1.09369E-15-8.15550E-15
 -1       986 1.96022E+01 4.91004E-01-7.58351E-05 1.92413E-01 7.73974E-14-1.70981E-13
 -1       987 1.94671E+01 5.80246E-01-9.26875E-05 2.45076E-01 4.26921E-14-7.43522E-14
 -1       988 1.92991E+01 6.66965E-01-1.13825E-04 3.09221E-01 7.15991E-15-4.50662E-14
 -1       989 1.90932E+01 7.41874E-01-1.42416E-04 3.87477E-01-2.55209E-14 2.85307E-14
 -1       990 1.88442E+01 7.91711E-01-1.85524E-04 4.84087E-01-1.46729E-13 1.27453E-13
 -1       991 1.85465E+01 7.98490E-01-2.66397E-04 6.06423E-01-4.29643E-14 6.03478E-14
 -1       992 1.81939E+01 7.38498E-01-4.66716E-04 7.67617E-01-6.43669E-14-1.11606E-13
 -1       993 1.77788E+01 5.80497E-01-1.15749E-03 9.91080E-01-1.93583E-13-2.82220E-13
 -1       994 1.72874E+01 2.87386E-01-2.58886E-03 1.32575E+00 4.99450E-14-1.47008E-13
 -1       995 1.67511E+01-2.07569E-01 3.92613E-03 1.80252E+00 8.32281E-14-8.07917E-14
 -1       996 2.04105E+01 3.27211E-01 9.88642E-06 1.11382E-02-3.29097E-14-1.24396E-13
 -1       997 2.00658E+01-6.15605E-02 9.25212E-06-3.63300E-02 2.32637E-14 1.36531E-13
 -1       998 2.00234E+01-4.09999E-06 4.95369E-07-2.71663E-02 9.49779E-14-4.71728E-16
 -1       999 2.00105E+01 2.54583E-02-2.95436E-06-2.93557E-02 4.85486E-14 5.83434E-14
 -1      1000 1.99959E+01 5.48184E-02-6.76398E-06-3.48133E-02 2.44934E-14 9.45440E-14
 -1      1001 1.99778E+01 8.92621E-02-1.10283E-05-4.40517E-02 2.44494E-14-9.44994E-16
 -1      1002 1.99542E+01 1.30076E-01-1.58429E-05-5.76865E-02-7.28812E-14-1.04773E-13
 -1      1003 1.99227E+01 1.78535E-01-2.12903E-05-7.64303E-02 1.31669E-13 3.16037E-14
 -1      1004 1.98804E+01 2.35757E-01-2.74276E-05-1.01071E-01 9.04053E-14-1.13252E-13
 -1      1005 1.98241E+01 3.02491E-01-3.42823E-05-1.32435E-01-2.54745E-13-1.03703E-13
 -1      1006 1.97499E+01 3.78830E-01-4.18696E-05-1.71331E-01-1.34768E-13 3.80375E-14
 -1      1007 1.96532E+01 4.63829E-01-5.02597E-05-2.18496E-01-1.78843E-13 1.83027E-13
 -1      1008 1.95291E+01 5.54996E-01-5.97576E-05-2.74564E-01-1.43017E-13 2.36230E-13
 -1      1009 1.93719E+01 6.47670E-01-7.12990E-05-3.40121E-01-7.36272E-14 6.74790E-14
 -1      1010 1.91755E+01 7.34263E-01-8.71679E-05-4.15939E-01-4.07847E-15-5.32346E-14
 -1      1011 1.89329E+01 8.03436E-01-1.11786E-04-5.03602E-01-5.67268E-14-1.35706E-13
 -1      1012 1.86364E+01 8.39244E-01-1.52330E-04-6.06834E-01-4.15121E-14-1.06512E-13
 -1      1013 1.82761E+01 8.20115E-01-2.61389E-04-7.34369E-01-1.29235E-13-2.09455E-13
 -1      1014 1.78420E+01 7.15548E-01-3.60861E-04-9.03999E-01-2.06235E-13-2.52900E-13
 -1      1015 1.73148E+01 4.87903E-01-1.36379E-03-1.14336E+00-3.24752E-13-2.75701E-13
 -1      1016 1.66717E+01 8.93113E-02 1.01755E-04-1.51649E+00-8.01496E-14-1.40752E-13
 -1      1017 2.01697E+01-1.06307E-01 7.79402E-07-7.12068E-02 6.19948E-15 4.11867E-14
 -1      1018 2.00498E+01-4.29602E-02 6.59149E-06-3.09852E-02 9.50693E-14 2.30737E-13
 -1      1019 1.57348E+01-6.98790E-01 6.67312E-03 2.26442E+00 1.63435E-13-2.52912E-13
 -1      1020 1.52165E+01 3.97459E-01-1.26452E-03-7.01727E-02-2.41495E-13-2.62623E-13
 -1      1021 2.00361E+01-2.25669E-02 3.66343E-06-2.78258E-02 4.95275E-14 5.32498E-14
 -1      1022 2.01365E+01-1.02632E-01 1.61894E-05-6.17089E-02-8.44928E-14 3.95850E-14
 -1      1023 2.03873E+01 1.49260E-01-2.43560E-05 4.21789E-02-8.19905E-14-1.03934E-13
 -1      1024 2.01084E+01-9.24660E-02 1.35911E-05-5.21797E-02-7.15524E-14 6.59102E-14
 -1      1025 1.61639E+01-4.45071E-01 5.33672E-03-2.04085E+00-3.73791E-13-1.94111E-13
 -1      1026 2.00850E+01-7.82871E-02 1.15153E-05-4.35307E-02-1.21336E-13 1.07828E-13
 -1      1027 2.04170E+01 6.07094E-01-2.80037E-04 3.09616E-02 1.72695E-14-5.20816E-14
 -1      1028 2.03965E+01 6.48669E-01 1.03008E-04-6.04040E-02-1.13996E-14-1.39971E-13
 -1      1029 1.57988E+01 2.20253E-01 2.39411E-03 1.12632E+00-4.51837E-14-4.06889E-13
 -1      1030 2.02084E+01-1.00402E-01-1.09313E-04-7.97345E-02-2.51024E-14 1.28164E-13
 -1      1031 2.03758E+01 1.69164E-01-5.76167E-05-4.83425E-02 4.42977E-14-7.09825E-15
 -1      1032 2.04126E+01 3.53047E-01 8.20230E-05-5.59834E-03 3.06382E-14-2.71530E-14
 -1      1033 2.03384E+01 4.47886E-02-1.96892E-05-7.30222E-02-4.31917E-15 5.84019E-15
 -1      1034 1.57976E+01 3.08629E-01 2.94837E-03-9.10837E-01-2.45083E-13-3.67307E-13
 -1      1035 2.02951E+01-3.25574E-02 3.42160E-05-8.31742E-02-4.11848E-14 2.97584E-15
 -1      1036 2.03054E+01-6.73114E-02 2.18650E-05 2.60481E-02-5.67043E-14-1.07237E-13
 -1      1037 2.02578E+01-1.00014E-01 6.70316E-06 2.50396E-02-4.39931E-14-1.00068E-13
 -1      1038 2.02138E+01-1.13096E-01-4.32008E-05 2.24260E-02-1.59091E-14-1.66424E-13
 -1      1039 2.01747E+01-1.12723E-01 2.32357E-05 1.97875E-02-7.05932E-14-1.76691E-13
 -1      1040 2.01401E+01-1.03967E-01 2.20101E-05 1.70100E-02-7.23191E-14-1.31155E-13
 -1      1041 2.01108E+01-8.99535E-02 1.77547E-05 1.43264E-02-2.91938E-15-1.65834E-13
 -1      1042 2.00863E+01-7.25693E-02 1.31789E-05 1.20073E-02-6.27603E-15-1.44648E-13
 -1      1043 2.00657E+01-5.28254E-02 9.75446E-06 1.02212E-02 2.35063E-14-1.31400E-14
 -1      1044 2.00479E+01-3.10266E-02 7.60155E-06 9.09003E-03 6.43331E-14 5.94408E-14
 -1      1045 2.00316E+01-6.92953E-03 6.64234E-06 8.72215E-03 4.69435E-14 6.51154E-14
 -1      1046 2.00153E+01 2.01310E-02 6.80874E-06 9.23412E-03-2.85800E-15-8.15011E-14
 -1      1047 1.99973E+01 5.11372E-02 8.08454E-06 1.07665E-02-3.41098E-14-1.10847E-13
 -1      1048 1.99756E+01 8.72936E-02 1.05141E-05 1.34965E-02-8.27039E-14 1.15455E-13
 -1      1049 1.99479E+01 1.29927E-01 1.42057E-05 1.76491E-02-1.01385E-13 8.63742E-14
 -1      1050 1.99116E+01 1.80366E-01 1.93363E-05 2.35072E-02-5.62822E-14 6.06682E-15
 -1      1051 1.98636E+01 2.39783E-01 2.61642E-05 3.14227E-02-7.16252E-14-1.14291E-13
 -1      1052 1.98002E+01 3.08977E-01 3.50548E-05 4.18308E-02-8.58418E-15-1.17493E-13
 -1      1053 1.97175E+01 3.88094E-01 4.65329E-05 5.52720E-02 2.50514E-14-3.02484E-14
 -1      1054 1.96106E+01 4.76254E-01 6.13816E-05 7.24283E-02-3.47414E-14 9.83996E-14
 -1      1055 1.94743E+01 5.71099E-01 8.08153E-05 9.41884E-02 8.47842E-15-4.00823E-14
 -1      1056 1.93030E+01 6.68272E-01 1.06740E-04 1.21764E-01-5.48263E-14-2.91560E-13
 -1      1057 1.90898E+01 7.60876E-01 1.41998E-04 1.56894E-01 2.97719E-15-1.46405E-13
 -1      1058 1.88271E+01 8.39007E-01 1.89991E-04 2.02198E-01 5.62655E-14-6.36965E-14
 -1      1059 1.85048E+01 8.89485E-01 2.50501E-04 2.61746E-01-1.34898E-13-7.32828E-14
 -1      1060 1.81087E+01 8.95939E-01 2.89930E-04 3.41904E-01-9.28184E-14-1.29678E-13
 -1      1061 1.76159E+01 8.37179E-01-3.94450E-04 4.53443E-01-2.54476E-13 1.23852E-13
 -1      1062 1.70191E+01 6.86659E-01 3.45060E-03 6.09257E-01-4.33815E-14 9.83662E-14
 -1      1063 2.04242E+01 5.50048E-01 5.34538E-04-1.19973E-02-7.95671E-15-1.73812E-13
 -1      1064 2.01420E+01-1.04808E-01-1.22164E-05-3.09239E-02-1.05026E-13 2.22384E-15
 -1      1065 2.03956E+01 9.50359E-02 8.05606E-05 2.00057E-02 1.69006E-14-8.69005E-14
 -1      1066 2.01765E+01-1.12545E-01-6.61571E-05-3.60010E-02-1.39316E-14-4.88967E-14
 -1      1067 2.00185E+01 1.38721E-02-1.15246E-07-1.54933E-02-2.78718E-14-1.20474E-14
 -1      1068 1.99567E+01 1.18370E-01-3.06917E-07-2.75192E-02-6.29005E-14 6.60014E-14
 -1      1069 1.99238E+01 1.66401E-01-3.08906E-06-3.61056E-02-4.33147E-14 9.39703E-14
 -1      1070 1.98800E+01 2.23188E-01-8.00653E-06-4.75501E-02 8.65317E-14 2.41474E-13
 -1      1071 1.98220E+01 2.89705E-01-1.57172E-05-6.22130E-02-2.71955E-14 4.66566E-13
 -1      1072 1.97457E+01 3.66383E-01-2.70189E-05-8.04217E-02-9.59497E-14 1.48293E-13
 -1      1073 1.96464E+01 4.52774E-01-4.28511E-05-1.02426E-01-7.69329E-14-7.01905E-14
 -1      1074 1.95189E+01 5.47129E-01-6.43106E-05-1.28358E-01-2.11956E-13-2.47281E-13
 -1      1075 1.93571E+01 6.45893E-01-9.27473E-05-1.58216E-01-5.23844E-14-2.00627E-13
 -1      1076 1.91541E+01 7.43151E-01-1.30084E-04-1.91930E-01 8.90967E-14-1.59034E-13
 -1      1077 1.89017E+01 8.30100E-01-1.79417E-04-2.29563E-01-4.16239E-14-1.78308E-13
 -1      1078 1.85895E+01 8.94673E-01-2.43475E-04-2.71780E-01-6.30669E-14-1.48672E-13
 -1      1079 1.82034E+01 9.21594E-01-2.94867E-04-3.20625E-01-3.16963E-14-1.99568E-13
 -1      1080 1.77206E+01 8.94682E-01 7.11428E-05-3.80322E-01 6.17537E-14-2.95008E-13
 -1      1081 1.70920E+01 7.97199E-01-2.06300E-04-4.75952E-01-8.74590E-14-5.07145E-13
 -1      1082 1.65320E+01 6.03915E-01 3.37077E-03-6.58841E-01-3.67101E-13-7.10216E-13
 -1      1083 2.02511E+01-7.78135E-02-1.60121E-05-8.43378E-02-3.95226E-14 5.61222E-14
 -1      1084 2.00674E+01-5.62171E-02-6.32111E-06-1.84774E-02 7.05045E-14-1.38034E-13
 -1      1085 1.99819E+01 7.78362E-02 8.63806E-07-2.14338E-02 7.66753E-14-6.87076E-16
 -1      1086 2.00017E+01 4.34417E-02 8.26755E-07-1.75209E-02 2.20427E-14 5.39052E-14
 -1      1087 2.00498E+01-3.52038E-02-3.86001E-06-1.61637E-02 7.50151E-14-1.63327E-13
 -1      1088 2.00340E+01-1.20362E-02-1.73648E-06-1.51089E-02 4.35770E-14-7.24637E-14
 -1      1089 1.62672E+01 6.34071E-01-1.74432E-03 3.28665E-01-2.76333E-13 1.04044E-13
 -1      1090 2.04230E+01 5.91623E-01-4.13324E-04-8.45848E-04-1.86609E-14-1.46346E-13
 -1      1091 2.03531E+01-6.01362E-03 3.74392E-05 2.46603E-02 2.69299E-15-7.50797E-14
 -1      1092 2.04248E+01 2.49114E-01 1.87164E-04 1.02843E-02-1.65071E-14-1.52438E-13
 -1      1093 2.03945E+01 1.17344E-01-1.78345E-04-3.08111E-02-1.84501E-14 3.55057E-14
 -1      1094 2.01126E+01-9.18045E-02-1.12317E-05-2.61211E-02-1.32993E-13-2.28829E-14
 -1      1095 2.02151E+01-1.09826E-01 1.19186E-04-4.02498E-02 1.47568E-14-8.15376E-14
 -1      1096 2.04244E+01 2.71528E-01 9.07413E-05-6.99582E-03-2.33890E-14-2.73396E-14
 -1      1097 2.00880E+01-7.52240E-02-8.91017E-06-2.18690E-02-4.97547E-14-9.81911E-14
 -1      1098 2.04326E+01 4.14941E-01-1.39511E-04-3.84690E-04-7.67472E-15-8.77802E-14
 -1      1099 2.03550E+01 8.33857E-03 1.08613E-05-4.14388E-02-8.06293E-15-1.17116E-14
 -1      1100 2.02370E+01-1.08421E-01 1.91653E-04-1.47246E-02-6.07090E-14-7.71061E-14
 -1      1101 2.02851E+01-8.78566E-02-6.28703E-05-1.62802E-02-3.30547E-14-1.34925E-13
 -1      1102 2.03222E+01-5.01054E-02-5.42086E-05-3.06846E-02-4.01460E-14-8.38877E-14
 -1      1103 2.79641E+01 9.08689E+00 2.32531E+00-6.69795E+00-2.12053E-14 9.86961E-13
 -1      1104 2.05489E+01 6.22762E+00 2.09826E-01-3.90336E+00-1.50435E-14 2.33993E-13
 -1      1105 1.94358E+01 5.85337E+00 7.54319E-02-2.88716E+00-1.14214E-14-1.17654E-13
 -1      1106 1.90265E+01 5.72604E+00 6.03178E-02-2.23409E+00-7.53217E-15-3.06138E-13
 -1      1107 1.88394E+01 5.66909E+00 5.75008E-02-1.70067E+00-4.66641E-15-3.99186E-13
 -1      1108 1.87454E+01 5.64029E+00 5.55270E-02-1.23351E+00-3.78777E-15-4.42071E-13
 -1      1109 1.86961E+01 5.62497E+00 5.37554E-02-8.03855E-01-3.36623E-15-4.60416E-13
 -1      1110 1.86718E+01 5.61730E+00 5.24844E-02-3.92578E-01-1.00245E-15-4.63262E-13
 -1      1111 1.86649E+01 5.61509E+00 5.20786E-02 8.48397E-03-1.18612E-15-4.60122E-13
 -1      1112 1.86729E+01 5.61764E+00 5.25928E-02 4.09950E-01 1.27611E-15-4.59912E-13
 -1      1113 1.86983E+01 5.62568E+00 5.39897E-02 8.22551E-01 2.19963E-15-4.46964E-13
 -1      1114 1.87493E+01 5.64167E+00 5.62112E-02 1.25478E+00 4.17201E-15-4.27333E-13
 -1      1115 1.88450E+01 5.67105E+00 5.84403E-02 1.72646E+00 4.83120E-15-3.85787E-13
 -1      1116 1.90320E+01 5.72774E+00 6.04160E-02 2.26749E+00 8.14279E-15-3.08964E-13
 -1      1117 1.94322E+01 5.85044E+00 6.92654E-02 2.92772E+00 1.10606E-14-1.43162E-13
 -1      1118 2.04550E+01 6.18253E+00 1.53371E-01 3.87796E+00 1.36280E-14 1.96215E-13
 -1      1119 2.52186E+01 7.99475E+00 1.43045E+00 5.84611E+00 2.89768E-14 9.23844E-13
 -1      1120 2.88137E+01 3.61621E+00 1.27108E+00-4.21689E+00-9.30367E-14 1.46200E-12
 -1      1121 2.02299E+01-1.77742E-01-6.16336E-01-1.09831E-01-3.15026E-14 1.24636E-12
 -1      1122 1.88365E+01-9.63776E-02-2.36375E-01 6.25375E-02-9.15240E-15 9.41506E-13
 -1      1123 1.85034E+01-4.80862E-02-5.96387E-02 4.05336E-02-7.06466E-15 7.29590E-13
 -1      1124 1.84492E+01-2.46226E-02-1.52288E-02 2.68210E-02-3.87754E-15 5.67258E-13
 -1      1125 1.85319E+01-1.30665E-02-4.99835E-03 1.90964E-02-1.62899E-14 4.71928E-13
 -1      1126 1.86799E+01-6.61943E-03-1.49180E-03 1.41610E-02-5.74313E-15 4.22643E-13
 -1      1127 1.88537E+01-2.84368E-03 5.51062E-04 1.07418E-02-2.51557E-15 3.25876E-13
 -1      1128 1.90306E+01-6.01632E-04 1.87786E-03 8.21599E-03 1.08328E-14 2.93250E-13
 -1      1129 1.91979E+01 7.04980E-04 2.63560E-03 6.27459E-03 1.02528E-14 2.92022E-13
 -1      1130 1.93486E+01 1.41892E-03 2.96082E-03 4.75288E-03-5.14767E-15 1.06175E-13
 -1      1131 1.94796E+01 1.75127E-03 2.98886E-03 3.55213E-03-9.59790E-16 4.16559E-14
 -1      1132 1.95903E+01 1.83924E-03 2.82917E-03 2.60531E-03-2.50827E-15-9.24530E-14
 -1      1133 1.96815E+01 1.77472E-03 2.56137E-03 1.86216E-03-2.26384E-15 1.48555E-14
 -1      1134 1.97549E+01 1.61950E-03 2.24002E-03 1.28242E-03-2.13576E-14 1.40198E-14
 -1      1135 1.98125E+01 1.41421E-03 1.90021E-03 8.32841E-04-6.79978E-15-7.42314E-14
 -1      1136 1.98568E+01 1.18402E-03 1.56223E-03 4.85732E-04 2.10433E-14-2.81236E-14
 -1      1137 1.98901E+01 9.42642E-04 1.23502E-03 2.18311E-04 1.51269E-15 5.98046E-16
 -1      1138 1.99146E+01 6.95038E-04 9.18812E-04 1.23569E-05 9.15237E-15-1.47347E-13
 -1      1139 1.99327E+01 4.39500E-04 6.07007E-04-1.45948E-04-1.27818E-14-1.72582E-13
 -1      1140 1.99465E+01 1.69073E-04 2.87495E-04-2.66014E-04-1.41744E-14-2.91440E-13
 -1      1141 1.99584E+01-1.27372E-04-5.64524E-05-3.52679E-04-1.61428E-14-1.36153E-14
 -1      1142 1.99707E+01-4.64301E-04-4.45567E-04-4.05828E-04-2.14860E-14 1.39817E-13
 -1      1143 1.99865E+01-8.58731E-04-9.04082E-04-4.19754E-04-4.68624E-14 1.00530E-13
 -1      1144 2.00088E+01-1.32931E-03-1.45912E-03-3.82212E-04-7.58269E-15 2.71317E-14
 -1      1145 2.00418E+01-1.89495E-03-2.13970E-03-2.73114E-04-3.40596E-14 2.40455E-14
 -1      1146 2.00902E+01-2.57270E-03-2.97480E-03-6.28419E-05 4.17282E-15-2.92345E-13
 -1      1147 2.01601E+01-3.37417E-03-3.98994E-03 2.89782E-04 8.48952E-15-4.57078E-13
 -1      1148 2.02587E+01-4.29976E-03-5.20093E-03 8.39712E-04 1.19938E-14-2.29258E-13
 -1      1149 2.03944E+01-5.32927E-03-6.60290E-03 1.65762E-03-6.97012E-15 2.08415E-13
 -1      1150 2.05771E+01-6.40703E-03-8.15141E-03 2.83047E-03-3.98452E-14 1.83752E-13
 -1      1151 2.08175E+01-7.41877E-03-9.73056E-03 4.45834E-03-1.39968E-14-1.23521E-14
 -1      1152 2.11263E+01-8.15691E-03-1.11004E-02 6.64269E-03-9.71131E-15-6.16547E-14
 -1      1153 2.15126E+01-8.27143E-03-1.18140E-02 9.45666E-03 3.65502E-14 5.27339E-14
 -1      1154 2.19803E+01-7.20721E-03-1.10968E-02 1.28806E-02 2.55015E-14 1.14360E-13
 -1      1155 2.25236E+01-4.14118E-03-7.69750E-03 1.66763E-02 1.10193E-15 2.01353E-13
 -1      1156 2.31172E+01 2.03678E-03 2.26155E-04 2.01652E-02-1.88626E-14-2.25164E-13
 -1      1157 2.37053E+01 1.25932E-02 1.49999E-02 2.18940E-02-3.16266E-14-3.76921E-14
 -1      1158 2.41853E+01 2.84695E-02 3.87147E-02 1.92503E-02-1.43115E-16 2.71998E-13
 -1      1159 2.43947E+01 4.91813E-02 7.13098E-02 8.30792E-03-3.56134E-14 3.54435E-13
 -1      1160 2.41114E+01 7.09161E-02 1.07026E-01-1.54067E-02-8.13551E-14 7.60988E-14
 -1      1161 2.30924E+01 8.43055E-02 1.30230E-01-5.41050E-02-8.36831E-14-1.14395E-13
 -1      1162 2.11785E+01 7.42627E-02 1.14961E-01-1.02313E-01-2.57442E-14-4.83391E-13
 -1      1163 1.84701E+01 2.58401E-02 3.56487E-02-1.41236E-01 2.64025E-15-3.60628E-13
 -1      1164 1.55045E+01-6.10251E-02-1.08028E-01-1.39572E-01-1.07874E-14-5.52058E-13
 -1      1165 1.32636E+01-1.56598E-01-2.63489E-01-6.96166E-02 3.35409E-14-4.97907E-13
 -1      1166 1.28241E+01-1.98834E-01-3.28137E-01 6.46573E-02 5.63265E-14-1.53114E-13
 -1      1167 1.46600E+01-1.33968E-01-2.07565E-01 2.03151E-01 2.02182E-14 1.58040E-13
 -1      1168 1.79238E+01 3.12746E-02 1.00456E-01 2.43916E-01 1.16450E-14-3.81695E-13
 -1      1169 1.99102E+01 7.99736E-02 1.48588E-01 1.40896E-02-6.58258E-14-1.64584E-13
 -1      1170 2.77934E+01 5.25739E-01 3.76860E-01 1.96661E+00-1.66672E-14 1.52306E-12
 -1      1171 2.00875E+01-6.62552E-02-5.73637E-01 1.29439E-01 9.90180E-15 1.15982E-12
 -1      1172 1.89112E+01-4.06237E-02-1.93236E-01 1.94037E-02 8.74387E-15 8.52282E-13
 -1      1173 1.85323E+01-2.14430E-02-5.05844E-02 1.45422E-03 1.85615E-16 6.38368E-13
 -1      1174 1.84619E+01-1.24334E-02-1.34469E-02-4.08506E-03 5.81349E-15 5.00426E-13
 -1      1175 1.85383E+01-7.42841E-03-4.70543E-03-5.54717E-03 1.40425E-14 3.14106E-13
 -1      1176 1.86832E+01-4.35145E-03-1.97685E-03-5.74302E-03 2.45463E-16 2.55069E-13
 -1      1177 1.88552E+01-2.37589E-03-3.89843E-04-5.47287E-03-8.64369E-15 2.81964E-13
 -1      1178 1.90312E+01-1.09536E-03 7.34869E-04-4.99011E-03-1.07033E-14 1.97346E-13
 -1      1179 1.91979E+01-2.77430E-04 1.45804E-03-4.40864E-03 1.55861E-14 6.18759E-14
 -1      1180 1.93483E+01 2.25921E-04 1.84405E-03-3.79582E-03 2.08759E-14-1.49169E-13
 -1      1181 1.94792E+01 5.14420E-04 1.98217E-03-3.19482E-03-4.57344E-16-3.02128E-13
 -1      1182 1.95899E+01 6.57259E-04 1.95436E-03-2.63216E-03 1.23258E-14-3.00458E-13
 -1      1183 1.96811E+01 7.02849E-04 1.82381E-03-2.12222E-03-1.94362E-14-2.82357E-13
 -1      1184 1.97545E+01 6.84775E-04 1.63535E-03-1.67057E-03 2.00111E-14-3.95852E-13
 -1      1185 1.98122E+01 6.25613E-04 1.41873E-03-1.27652E-03-4.87057E-15-4.64090E-13
 -1      1186 1.98565E+01 5.39499E-04 1.19186E-03-9.34979E-04-3.77075E-14-3.00233E-13
 -1      1187 1.98898E+01 4.33915E-04 9.63217E-04-6.38018E-04 4.44172E-14-3.71733E-13
 -1      1188 1.99144E+01 3.10980E-04 7.33732E-04-3.75962E-04 1.19239E-14-5.87764E-13
 -1      1189 1.99324E+01 1.68337E-04 4.98095E-04-1.38280E-04 9.36704E-15-4.64493E-13
 -1      1190 1.99462E+01-2.68589E-07 2.45649E-04 8.57476E-05-3.81979E-14-2.44491E-13
 -1      1191 1.99580E+01-2.04641E-04-3.91400E-05 3.06496E-04-3.39818E-14-8.24302E-14
 -1      1192 1.99703E+01-4.57925E-04-3.76507E-04 5.33467E-04 1.92540E-14-2.96161E-13
 -1      1193 1.99859E+01-7.76461E-04-7.91426E-04 7.74663E-04 2.47954E-14-5.43319E-13
 -1      1194 2.00080E+01-1.17957E-03-1.31371E-03 1.03573E-03 2.25785E-14-5.56540E-13
 -1      1195 2.00408E+01-1.68905E-03-1.97801E-03 1.31866E-03 3.87020E-14-2.94438E-13
 -1      1196 2.00892E+01-2.32815E-03-2.82332E-03 1.61983E-03-5.29218E-14-1.51484E-13
 -1      1197 2.01592E+01-3.11931E-03-3.89153E-03 1.92692E-03-1.03656E-14-1.09867E-13
 -1      1198 2.02585E+01-4.07983E-03-5.22380E-03 2.21414E-03-5.26210E-14-1.69977E-14
 -1      1199 2.03962E+01-5.21377E-03-6.85288E-03 2.43476E-03 2.75195E-14-2.48939E-13
 -1      1200 2.05830E+01-6.49707E-03-8.78754E-03 2.50976E-03 1.61162E-14-7.45985E-13
 -1      1201 2.08314E+01-7.85137E-03-1.09825E-02 2.31073E-03 2.41925E-14-7.17807E-13
 -1      1202 2.11550E+01-9.09971E-03-1.32821E-02 1.63571E-03-3.49488E-14-2.59725E-13
 -1      1203 2.15668E+01-9.89537E-03-1.53206E-02 1.78593E-04-2.69084E-14-1.12129E-13
 -1      1204 2.20773E+01-9.61774E-03-1.63539E-02-2.50023E-03-2.62528E-14-3.79459E-13
 -1      1205 2.26884E+01-7.24359E-03-1.50072E-02-6.97607E-03 1.22198E-14-7.16663E-13
 -1      1206 2.33854E+01-1.24868E-03-8.96706E-03-1.38699E-02 1.81344E-14-7.77600E-13
 -1      1207 2.41218E+01 1.02971E-02 5.20054E-03-2.35328E-02-2.03557E-14-4.34163E-13
 -1      1208 2.47986E+01 2.90862E-02 3.15768E-02-3.52905E-02-1.54349E-14-4.61815E-13
 -1      1209 2.52398E+01 5.48312E-02 7.27048E-02-4.60713E-02 2.16879E-14-6.01979E-13
 -1      1210 2.51765E+01 8.20898E-02 1.24492E-01-4.87403E-02-5.36723E-15-4.07662E-13
 -1      1211 2.42718E+01 9.71053E-02 1.68895E-01-3.18650E-02-3.26978E-14-9.32865E-14
 -1      1212 2.22331E+01 7.92276E-02 1.70270E-01 1.56006E-02 1.18638E-14 3.61933E-14
 -1      1213 1.90479E+01 1.26938E-02 8.73838E-02 9.19804E-02-4.53916E-14-1.22041E-13
 -1      1214 1.52716E+01-9.08610E-02-9.02696E-02 1.68850E-01 1.61425E-14 1.42025E-13
 -1      1215 1.21302E+01-1.80257E-01-3.01073E-01 1.91183E-01 5.49751E-14-9.62425E-14
 -1      1216 1.11293E+01-1.82600E-01-4.07415E-01 1.07271E-01-1.00440E-14 1.76255E-13
 -1      1217 1.31089E+01-5.18103E-02-2.67431E-01-8.49077E-02-1.84523E-14 3.86524E-13
 -1      1218 1.71892E+01 1.96652E-01 1.41256E-01-2.86709E-01 5.23826E-14 4.52582E-13
 -1      1219 1.98574E+01 7.27888E-02 2.22486E-01-4.99901E-02 2.04975E-14 2.82802E-13
 -1      1220 2.00216E+01-2.22568E-01 2.99072E-01-9.64976E-02 2.65406E-13 4.27314E-14
 -1      1221 2.01706E+01-3.48267E+00 4.44885E-01-3.38643E-01 8.83293E-13-1.63741E-14
 -1      1222 2.00585E+01-1.00691E+01 2.31929E-01-5.62008E-01 8.97726E-13-9.72863E-14
 -1      1223 1.98151E+01-1.85994E+01-3.97692E-01-8.19698E-01 5.86864E-13-3.33414E-14
 -1      1224 1.93588E+01-2.60654E+01-1.83341E+00-6.93226E-01-9.14935E-13 1.00336E-14
 -1      1225 1.86255E+01-2.60800E+01-3.29069E+00 3.93249E-01-1.90969E-12 4.77396E-14
 -1      1226 1.84850E+01-1.30850E+01-3.08995E+00 1.89429E+00-1.80922E-12-2.06800E-13
 -1      1227 1.95414E+01 2.03538E+01 1.87297E+00 3.75745E+00-3.93774E-12-1.46799E-13
 -1      1228 2.13961E+01 6.01683E+01 9.61785E+00 2.65271E+00-5.38636E-12 1.58484E-13
 -1      1229 2.25634E+01 7.24210E+01 1.23726E+01-6.73987E-01-1.76370E-12 4.92828E-13
 -1      1230 2.07277E+01 4.69702E+01 6.94564E+00-2.86241E+00 3.33245E-12 3.02286E-13
 -1      1231 1.94696E+01 7.33383E+00-1.65258E-01-2.35879E+00 4.05542E-12-3.66360E-13
 -1      1232 1.90572E+01-1.89708E+01-3.18140E+00-9.46286E-01 1.00187E-12-3.21045E-13
 -1      1233 1.96238E+01-2.75182E+01-2.48768E+00-3.18421E-02-4.91801E-13 4.74273E-14
 -1      1234 1.99446E+01-2.27678E+01-7.77056E-01 3.04770E-01-3.46945E-13-1.10075E-13
 -1      1235 2.00322E+01-1.46351E+01 5.76158E-02 2.88470E-01-1.05249E-13 1.32844E-13
 -1      1236 2.01040E+01-7.47331E+00 3.01336E-01 3.02000E-01-9.42024E-14-8.41410E-14
 -1      1237 2.02230E+01-2.45175E+00 3.94522E-01 3.14071E-01 7.39991E-13 9.54271E-14
 -1      1238 1.99894E+01-2.01516E-01 1.68564E-01 1.03241E-01 4.72001E-13-2.73176E-14
 -1      1239-3.04150E+00-5.42696E+01-1.58513E+01-3.57366E+00 4.35429E-12 8.75383E-13
 -1      1240-9.44933E-02-1.83327E+01-8.13007E+00-1.38122E+00 5.05684E-12 1.68687E-12
 -1      1241 1.11718E+01 1.86220E+01 3.03783E-01 1.40553E+01 2.31015E-12 1.32694E-12
 -1      1242 3.16262E+01 3.35248E+01 4.78462E+00 3.10428E+01 1.08802E-12 9.98757E-13
 -1      1243 5.64541E+01 2.88417E+01 5.91118E+00 3.79125E+01 6.09734E-13 8.34888E-13
 -1      1244 7.77902E+01 1.63279E+01 5.63022E+00 3.26753E+01 1.35059E-13 3.58824E-13
 -1      1245 8.90686E+01 5.58971E+00 5.04021E+00 1.77311E+01-4.77118E-14-6.58862E-13
 -1      1246 8.62643E+01 1.76815E+00 4.37681E+00-8.99620E-01 3.43822E-14-1.81521E-12
 -1      1247 6.99660E+01 4.92752E+00 3.52396E+00-1.50522E+01 3.20077E-13-1.17706E-12
 -1      1248 4.50869E+01 9.79691E+00 2.11381E+00-1.92096E+01 8.21787E-13-1.40998E-12
 -1      1249 2.06969E+01 1.03369E+01 4.14166E-01-1.41186E+01 1.42530E-12-1.55853E-12
 -1      1250 4.35199E+00 2.74686E+00-1.35680E+00-3.84468E+00 2.29905E-12-1.90847E-12
 -1      1251-2.22375E+00-1.10062E+01-2.83938E+00 4.30571E+00 2.52420E-12-1.39078E-12
 -1      1252-2.48643E+00-2.46676E+01-3.78925E+00 5.93099E+00 1.89659E-12-6.26499E-13
 -1      1253-1.17110E+00-3.28503E+01-4.30534E+00 1.95268E+00 6.46566E-13-3.21458E-13
 -1      1254-1.62479E+00-3.03936E+01-4.10903E+00-3.82139E+00-7.75824E-13-1.39389E-13
 -1      1255-2.66616E+00-1.94802E+01-3.43212E+00-6.02459E+00-1.47393E-12-4.99767E-13
 -1      1256-4.35090E-01-4.85135E+00-2.15673E+00-1.55862E+00-1.20615E-12-5.89306E-13
 -1      1257 9.93628E+00 6.70927E+00-6.07787E-01 8.15306E+00-1.19416E-12-1.17639E-12
 -1      1258 2.96078E+01 1.09022E+01 1.04192E+00 1.72823E+01-7.14095E-13-1.15685E-12
 -1      1259 5.41243E+01 8.13154E+00 2.61960E+00 1.90984E+01-3.15636E-13-7.99361E-13
 -1      1260 7.58830E+01 3.44884E+00 3.74427E+00 1.07840E+01-1.80439E-13-1.33005E-12
 -1      1261 8.86469E+01 2.24024E+00 4.67224E+00-5.07557E+00-1.29022E-13-7.88480E-13
 -1      1262 8.66966E+01 8.33858E+00 5.16439E+00-2.21115E+01 2.70839E-13-8.19345E-13
 -1      1263 7.43405E+01 1.87562E+01 5.74744E+00-3.45779E+01-5.65659E-14-4.20330E-13
 -1      1264 5.28947E+01 3.07980E+01 6.01759E+00-3.81961E+01-5.97966E-13 6.94333E-13
 -1      1265 2.91316E+01 3.34671E+01 4.54400E+00-2.98418E+01-2.54152E-12 2.05569E-12
 -1      1266 9.72280E+00 1.56565E+01-3.67993E-01-1.23960E+01-4.29079E-12 2.25753E-12
 -1      1267-2.72830E-01-2.16322E+01-8.64254E+00 2.51940E+00-5.27711E-12 1.83809E-12
 -1      1268-2.30004E+00-5.58398E+01-1.60132E+01 3.39193E+00-5.38014E-13 6.40932E-13
 -1      1269 2.22683E+01 1.83828E+00-7.25840E-01-2.79030E+00-3.35287E-14 8.35332E-13
 -1      1270 2.03607E+01 4.69034E+00-4.86270E-02-3.30627E+00-1.12521E-13 7.23172E-14
 -1      1271 2.08683E+01 4.81082E+00-1.13305E-01-4.16059E+00-1.39028E-13 2.56649E-13
 -1      1272 1.95328E+01 4.99353E+00-1.95969E-02-2.65381E+00-1.16358E-13-1.99341E-13
 -1      1273 1.98309E+01 5.09048E+00 3.05036E-04-3.04488E+00-1.32817E-13-7.88050E-14
 -1      1274 2.05273E+01 3.95290E+00-2.58677E-02-3.07422E+00-2.01561E-13 5.78981E-14
 -1      1275 1.91844E+01 5.08426E+00-3.66025E-03-2.06951E+00-1.04493E-13-3.43205E-13
 -1      1276 1.93341E+01 5.13960E+00 1.06130E-02-2.36266E+00-1.14235E-13-2.78409E-13
 -1      1277 1.97551E+01 4.36619E+00-2.42450E-02-2.48881E+00-1.90811E-13-1.68650E-13
 -1      1278 1.90086E+01 5.13092E+00 3.24838E-03-1.56406E+00-8.58636E-14-4.18719E-13
 -1      1279 1.90864E+01 5.16090E+00 1.25613E-02-1.81394E+00-9.17686E-14-3.84699E-13
 -1      1280 1.93927E+01 4.55580E+00-1.95776E-02-1.93043E+00-1.58973E-13-2.90684E-13
 -1      1281 1.89149E+01 5.16059E+00 6.57855E-03-1.11646E+00-6.05011E-14-4.54602E-13
 -1      1282 1.89574E+01 5.17694E+00 1.27129E-02-1.33787E+00-7.05694E-14-4.35726E-13
 -1      1283 1.92053E+01 4.66155E+00-1.60698E-02-1.44426E+00-1.29065E-13-3.49026E-13
 -1      1284 1.88631E+01 5.18036E+00 8.18644E-03-6.93381E-01-4.73007E-14-4.64503E-13
 -1      1285 1.88862E+01 5.18927E+00 1.20204E-02-9.03491E-01-5.18396E-14-4.62365E-13
 -1      1286 1.91020E+01 4.72690E+00-1.39585E-02-1.00371E+00-9.18083E-14-3.83069E-13
 -1      1287 1.88389E+01 5.19227E+00 9.27292E-03-2.88960E-01-1.88606E-14-4.58779E-13
 -1      1288 1.88489E+01 5.19612E+00 1.10596E-02-4.90941E-01-2.90098E-14-4.55953E-13
 -1      1289 1.90459E+01 4.76588E+00-1.29106E-02-5.88412E-01-6.89515E-14-3.84231E-13
 -1      1290 1.88351E+01 5.19722E+00 1.02047E-02 1.08148E-01 9.62446E-16-4.64505E-13
 -1      1291 1.88348E+01 5.19708E+00 1.01335E-02-9.13754E-02-4.80096E-15-4.65433E-13
 -1      1292 1.90215E+01 4.78390E+00-1.24741E-02-1.88968E-01-1.53330E-14-3.92811E-13
 -1      1293 1.88506E+01 5.19576E+00 1.11465E-02 5.08297E-01 1.80776E-14-4.55533E-13
 -1      1294 1.88399E+01 5.19163E+00 9.20688E-03 3.05899E-01 1.21638E-14-4.59844E-13
 -1      1295 1.90224E+01 4.78326E+00-1.24937E-02 2.05646E-01 9.36233E-15-3.87863E-13
 -1      1296 1.88894E+01 5.18812E+00 1.20854E-02 9.22321E-01 4.02612E-14-4.52872E-13
 -1      1297 1.88655E+01 5.17905E+00 8.11530E-03 7.11258E-01 3.64149E-14-4.57769E-13
 -1      1298 1.90485E+01 4.76383E+00-1.29796E-02 6.05781E-01 4.61987E-14-3.86600E-13
 -1      1299 1.89618E+01 5.17519E+00 1.28971E-02 1.35536E+00 6.46722E-14-4.28770E-13
 -1      1300 1.89183E+01 5.15839E+00 6.43189E-03 1.13255E+00 5.48997E-14-4.42034E-13
 -1      1301 1.91063E+01 4.72340E+00-1.40018E-02 1.01889E+00 7.81311E-14-3.73465E-13
 -1      1302 1.90950E+01 5.15681E+00 1.28327E-02 1.83992E+00 9.09498E-14-3.81889E-13
 -1      1303 1.90152E+01 5.12638E+00 3.12966E-03 1.58715E+00 7.65403E-14-4.12224E-13
 -1      1304 1.92122E+01 4.65503E+00-1.61449E-02 1.46185E+00 1.17961E-13-3.49974E-13
 -1      1305 1.93442E+01 5.13361E+00 1.01872E-02 2.39700E+00 1.19359E-13-2.90542E-13
 -1      1306 1.91938E+01 5.07642E+00-4.38620E-03 2.09971E+00 1.07164E-13-3.44655E-13
 -1      1307 1.94054E+01 4.54258E+00-1.99807E-02 1.95745E+00 1.59030E-13-2.94841E-13
 -1      1308 1.98563E+01 5.09958E+00 6.07925E-03 3.08320E+00 1.37834E-13-9.91707E-14
 -1      1309 1.95441E+01 4.98453E+00-2.05424E-02 2.69576E+00 1.19786E-13-2.13760E-13
 -1      1310 1.97754E+01 4.34653E+00-2.45544E-02 2.52731E+00 1.94329E-13-1.71016E-13
 -1      1311 2.11044E+01 4.90708E+00 8.34217E-03 4.05346E+00 1.30618E-13 2.64289E-13
 -1      1312 2.03353E+01 4.73394E+00-4.79544E-02 3.41568E+00 1.24983E-13 4.29101E-14
 -1      1313 2.05656E+01 3.91598E+00-2.23979E-02 3.17775E+00 2.15116E-13 3.81362E-14
 -1      1314 2.72037E+01 3.20538E+00 9.28972E-01 4.58203E+00 6.68909E-14 9.74221E-13
 -1      1315 2.20212E+01 3.52223E+00-1.81985E-01 3.88462E+00 6.88338E-14 4.72927E-13
 -1      1316 2.21136E+01 2.56177E+00-3.25308E-02 3.45608E+00 2.20589E-13 3.63543E-13
 -1      1317 2.14282E+01 3.59552E-01-7.63526E-01 1.18360E+00 1.14048E-13 9.20486E-13
 -1      1318 2.20027E+01 1.31336E-01-4.00859E-01-1.28543E+00-1.02265E-13 8.68750E-13
 -1      1319 2.06804E+01 3.06689E-01-1.64805E-01-8.05522E-01-9.95315E-14 7.50781E-13
 -1      1320 2.00828E+01 1.53479E-01-7.35457E-02-4.01886E-01-7.76358E-14 6.95091E-13
 -1      1321 1.96133E+01 9.11986E-02-1.49447E-02-3.29735E-01-7.70738E-14 5.85622E-13
 -1      1322 2.09742E+01 3.69176E-01-1.04234E-01-1.27347E+00-1.73861E-13 4.21031E-13
 -1      1323 1.92562E+01 6.45330E-02 3.00818E-03-1.35067E-01-6.35950E-14 5.37632E-13
 -1      1324 1.91022E+01 4.12867E-02 1.31918E-02-1.17250E-01-5.21545E-14 4.52190E-13
 -1      1325 1.99238E+01 1.33869E-01-3.51987E-02-5.03481E-01-1.29646E-13 3.31093E-13
 -1      1326 1.89422E+01 3.15386E-02 1.32197E-02-2.76964E-02-3.26059E-14 3.89765E-13
 -1      1327 1.89231E+01 1.93894E-02 1.10457E-02-1.83166E-02-4.97909E-14 3.31402E-13
 -1      1328 1.94471E+01 5.55093E-02-8.53353E-03-1.69404E-01-9.63084E-14 2.41715E-13
 -1      1329 1.88673E+01 1.60265E-02 8.76531E-03 2.53489E-02-2.54586E-14 3.13584E-13
 -1      1330 1.89101E+01 9.09029E-03 6.43177E-03 2.99883E-02-3.08755E-14 2.91928E-13
 -1      1331 1.92388E+01 2.44120E-02-3.52054E-03-1.05319E-02-6.71086E-14 1.78283E-13
 -1      1332 1.89104E+01 7.87401E-03 4.66693E-03 5.11862E-02-2.82185E-14 2.83065E-13
 -1      1333 1.89813E+01 3.51604E-03 3.63956E-03 5.30862E-02-2.20573E-14 2.53794E-13
 -1      1334 1.91825E+01 1.02262E-02-2.22256E-03 6.82236E-02-4.98614E-14 1.57109E-13
 -1      1335 1.90111E+01 3.20334E-03 2.43792E-03 6.19120E-02-1.10335E-14 2.56323E-13
 -1      1336 1.90921E+01 3.38141E-04 2.20861E-03 6.21871E-02-1.61424E-14 2.12306E-13
 -1      1337 1.92093E+01 2.80589E-03-1.32497E-03 1.05131E-01-3.61128E-14 1.46219E-13
 -1      1338 1.91360E+01 4.53102E-04 1.32661E-03 6.38884E-02-1.15333E-14 2.21961E-13
 -1      1339 1.92174E+01-1.46491E-03 1.43586E-03 6.32098E-02 2.37646E-15 2.14633E-13
 -1      1340 1.92790E+01-1.28272E-03-5.58528E-04 1.18455E-01-3.32816E-14 1.45062E-13
 -1      1341 1.92662E+01-1.14028E-03 7.40036E-04 6.08220E-02-1.11190E-14 2.14742E-13
 -1      1342 1.93424E+01-2.42031E-03 9.65517E-04 5.96201E-02-5.27367E-14 1.64632E-13
 -1      1343 1.93678E+01-3.49820E-03 3.24329E-06 1.18138E-01-1.67914E-14 1.24384E-13
 -1      1344 1.93908E+01-2.00162E-03 4.01508E-04 5.50174E-02-7.10569E-14 1.31901E-13
 -1      1345 1.94588E+01-2.83739E-03 6.51877E-04 5.35736E-02-4.89621E-14 6.91617E-14
 -1      1346 1.94616E+01-4.57558E-03 3.59742E-04 1.10106E-01-7.72638E-14 1.11457E-13
 -1      1347 1.95037E+01-2.39118E-03 1.94970E-04 4.79482E-02-4.81820E-14 1.51897E-14
 -1      1348 1.95625E+01-2.91336E-03 4.33751E-04 4.64447E-02-7.07078E-14-7.26997E-14
 -1      1349 1.95519E+01-4.94061E-03 5.55592E-04 9.80759E-02-1.04021E-13 2.56580E-14
 -1      1350 1.96023E+01-2.47871E-03 6.79223E-05 4.05549E-02-3.96377E-14-6.68541E-14
 -1      1351 1.96516E+01-2.77957E-03 2.80682E-04 3.91059E-02-1.29632E-14-7.99126E-14
 -1      1352 1.96340E+01-4.86299E-03 6.39199E-04 8.44195E-02-6.65211E-14-7.03902E-14
 -1      1353 1.96857E+01-2.37860E-03-7.51088E-06 3.34226E-02 3.54252E-14-6.75135E-14
 -1      1354 1.97261E+01-2.52462E-03 1.74406E-04 3.20953E-02 1.20977E-14-4.36878E-14
 -1      1355 1.97059E+01-4.52158E-03 6.49101E-04 7.06361E-02 2.44018E-14-8.82852E-14
 -1      1356 1.97545E+01-2.16832E-03-4.83001E-05 2.68956E-02-1.40270E-14-2.50701E-14
 -1      1357 1.97868E+01-2.20737E-03 1.02660E-04 2.57253E-02-5.53314E-14-7.04144E-14
 -1      1358 1.97667E+01-4.03624E-03 6.12997E-04 5.76414E-02 4.45282E-16-8.22791E-14
 -1      1359 1.98099E+01-1.89921E-03-6.55686E-05 2.11579E-02-5.39264E-14-2.24639E-14
 -1      1360 1.98352E+01-1.86511E-03 5.67939E-05 2.01596E-02-1.47914E-14-5.27290E-14
 -1      1361 1.98170E+01-3.48552E-03 5.49855E-04 4.59597E-02-4.71025E-14-4.26705E-14
 -1      1362 1.98536E+01-1.60338E-03-6.68251E-05 1.62922E-02 5.45173E-14-5.88164E-14
 -1      1363 1.98729E+01-1.51908E-03 3.06139E-05 1.54685E-02 1.84494E-14-3.16757E-14
 -1      1364 1.98575E+01-2.91769E-03 4.72033E-04 3.58599E-02-2.87612E-16-3.53957E-15
 -1      1365 1.98874E+01-1.29847E-03-5.71695E-05 1.23224E-02-1.17284E-14 1.27775E-14
 -1      1366 1.99019E+01-1.17850E-03 1.97128E-05 1.16703E-02-1.77465E-14-1.31884E-14
 -1      1367 1.98896E+01-2.35831E-03 3.86918E-04 2.74562E-02 4.27774E-14-2.32322E-15
 -1      1368 1.99132E+01-9.91146E-04-4.00412E-05 9.24779E-03-3.06993E-14-7.63966E-14
 -1      1369 1.99240E+01-8.43432E-04 2.10385E-05 8.76339E-03-3.64678E-14-1.43449E-13
 -1      1370 1.99148E+01-1.81569E-03 2.98137E-04 2.07819E-02-4.55113E-14-5.78666E-14
 -1      1371 1.99329E+01-6.79472E-04-1.77348E-05 7.06725E-03-1.34072E-14-1.62909E-13
 -1      1372 1.99411E+01-5.06867E-04 3.25845E-05 6.74972E-03-7.59722E-14-2.45335E-13
 -1      1373 1.99347E+01-1.28485E-03 2.06441E-04 1.58467E-02-7.52545E-14-1.75044E-13
 -1      1374 1.99486E+01-3.54725E-04 8.21080E-06 5.79952E-03 1.39722E-14-2.60924E-13
 -1      1375 1.99553E+01-1.56219E-04 5.31406E-05 5.65412E-03 1.71502E-14-2.11593E-13
 -1      1376 1.99509E+01-7.50272E-04 1.10350E-04 1.26803E-02-5.94543E-14-1.95577E-13
 -1      1377 1.99624E+01-2.59124E-06 3.66878E-05 5.49882E-03 2.75641E-14-1.50258E-13
 -1      1378 1.99688E+01 2.25611E-04 8.20687E-05 5.53940E-03 6.41921E-14-5.36420E-14
 -1      1379 1.99653E+01-1.87833E-04 6.62750E-06 1.13670E-02 8.33658E-14-2.47968E-13
 -1      1380 1.99763E+01 3.95947E-04 6.67206E-05 6.26786E-03 4.43834E-14-5.63168E-14
 -1      1381 1.99838E+01 6.59390E-04 1.19071E-04 6.51904E-03 1.48263E-15-3.93110E-15
 -1      1382 1.99797E+01 4.33861E-04-1.09368E-04 1.20739E-02 6.76275E-14-2.03470E-13
 -1      1383 1.99931E+01 8.63897E-04 9.71574E-05 8.26851E-03-1.02890E-14 9.24235E-14
 -1      1384 2.00030E+01 1.16874E-03 1.63919E-04 8.76753E-03 1.17851E-14 2.16650E-14
 -1      1385 1.99964E+01 1.15249E-03-2.43385E-04 1.50734E-02 6.95296E-14-2.90529E-14
 -1      1386 2.00155E+01 1.42746E-03 1.26321E-04 1.17303E-02 1.97873E-14 9.12636E-14
 -1      1387 2.00298E+01 1.77908E-03 2.16105E-04 1.25285E-02 1.41614E-14 9.51464E-14
 -1      1388 2.00178E+01 2.01100E-03-4.01981E-04 2.07618E-02 4.17232E-14 1.45338E-13
 -1      1389 2.00470E+01 2.11490E-03 1.51587E-04 1.69559E-02-4.09253E-14 1.17941E-13
 -1      1390 2.00679E+01 2.51595E-03 2.74362E-04 1.81195E-02-1.17489E-13 2.19659E-14
 -1      1391 2.00471E+01 3.05610E-03-5.92149E-04 2.96716E-02-1.28218E-15 1.85612E-13
 -1      1392 2.00919E+01 2.95451E-03 1.68844E-04 2.43215E-02-1.33763E-13-2.56053E-14
 -1      1393 2.01219E+01 3.40221E-03 3.35989E-04 2.59316E-02-5.26954E-14-1.83170E-13
 -1      1394 2.00876E+01 4.33564E-03-8.20755E-04 4.24761E-02-1.67343E-13 2.19505E-13
 -1      1395 2.01550E+01 3.97123E-03 1.71819E-04 3.42691E-02-1.42517E-14-2.26261E-13
 -1      1396 2.01975E+01 4.45324E-03 3.95892E-04 3.64193E-02-4.87235E-15-2.34444E-13
 -1      1397 2.01437E+01 5.89374E-03-1.09366E-03 5.99790E-02-1.28719E-13 2.87132E-14
 -1      1398 2.02424E+01 5.18057E-03 1.51232E-04 4.72839E-02 8.03117E-14-2.14258E-13
 -1      1399 2.03012E+01 5.66892E-03 4.45269E-04 5.00755E-02 6.26332E-14-8.47601E-14
 -1      1400 2.02202E+01 7.76222E-03-1.41432E-03 8.30818E-02 7.64595E-14-6.91315E-14
 -1      1401 2.03611E+01 6.57842E-03 9.38481E-05 6.38481E-02 3.14009E-14-5.36345E-14
 -1      1402 2.04405E+01 7.02032E-03 4.69899E-04 6.73785E-02 2.64871E-16 9.63703E-14
 -1      1403 2.03228E+01 9.94538E-03-1.78152E-03 1.12709E-01 9.67928E-14-1.72007E-14
 -1      1404 2.05187E+01 8.12388E-03-1.83466E-05 8.43536E-02-7.99961E-14 7.40688E-14
 -1      1405 2.06239E+01 8.42805E-03 4.48228E-04 8.86963E-02-8.94834E-14-1.57617E-14
 -1      1406 2.04580E+01 1.23941E-02-2.18580E-03 1.49671E-01-1.32444E-14-7.97966E-14
 -1      1407 2.07239E+01 9.71117E-03-2.08188E-04 1.08949E-01-2.90671E-14-6.14630E-14
 -1      1408 2.08597E+01 9.72789E-03 3.49938E-04 1.14118E-01-1.75300E-14-6.74326E-14
 -1      1409 2.06324E+01 1.49624E-02-2.60378E-03 1.94414E-01-1.43954E-13-2.79140E-14
 -1      1410 2.09847E+01 1.11247E-02-5.01051E-04 1.37283E-01-2.52348E-14-6.26513E-14
 -1      1411 2.11557E+01 1.06180E-02 1.36871E-04 1.43169E-01-1.04799E-14-1.07884E-13
 -1      1412 2.08525E+01 1.73367E-02-2.98923E-03 2.46603E-01-5.08237E-14-7.45202E-14
 -1      1413 2.13077E+01 1.19705E-02-9.17035E-04 1.68086E-01 2.95723E-14-1.10772E-13
 -1      1414 2.15168E+01 1.05822E-02-2.29669E-04 1.74358E-01 2.26856E-14-9.62893E-14
 -1      1415 2.11234E+01 1.89249E-02-3.25900E-03 3.04445E-01 2.60579E-14-3.03778E-14
 -1      1416 2.16954E+01 1.15776E-02-1.45180E-03 1.98525E-01 8.71796E-14-1.67696E-14
 -1      1417 2.19414E+01 8.79082E-03-7.68048E-04 2.04469E-01 9.33951E-14 7.45957E-14
 -1      1418 2.14472E+01 1.86947E-02-3.27177E-03 3.63621E-01 6.58926E-14-8.81938E-14
 -1      1419 2.21425E+01 8.87657E-03-2.03767E-03 2.23266E-01-5.53474E-14 1.30208E-13
 -1      1420 2.24170E+01 4.00048E-03-1.43226E-03 2.27555E-01-7.30121E-14 1.90264E-14
 -1      1421 2.18197E+01 1.49655E-02-2.79786E-03 4.15729E-01 5.00263E-14-6.50508E-14
 -1      1422 2.26296E+01 2.29387E-03-2.47835E-03 2.33266E-01-1.01356E-13-1.03650E-13
 -1      1423 2.29119E+01-5.47021E-03-2.03960E-03 2.33657E-01-4.62982E-14-1.08068E-13
 -1      1424 2.22270E+01 5.21428E-03-1.48333E-03 4.46207E-01-1.48020E-13-1.58681E-13
 -1      1425 2.31151E+01-1.02111E-02-2.36733E-03 2.14564E-01 8.20119E-14-1.12904E-13
 -1      1426 2.33662E+01-2.15019E-02-2.18760E-03 2.07619E-01 2.20878E-14-5.42726E-14
 -1      1427 2.26389E+01-1.39110E-02 1.17271E-03 4.32062E-01 2.36005E-14-1.86069E-13
 -1      1428 2.35256E+01-3.06876E-02-1.04482E-03 1.47939E-01-5.76405E-15 1.90296E-13
 -1      1429 2.36813E+01-4.53268E-02-1.23238E-03 1.29018E-01 1.13531E-13 2.07086E-13
 -1      1430 2.30032E+01-4.59222E-02 5.77263E-03 3.40588E-01 9.89525E-14 1.32750E-14
 -1      1431 2.37469E+01-5.98506E-02 2.27106E-03 1.13101E-02 7.02390E-14 2.61547E-13
 -1      1432 2.37165E+01-7.56137E-02 1.51300E-03-2.45829E-02-1.15560E-13 1.76036E-13
 -1      1433 2.32390E+01-9.24229E-02 1.27922E-02 1.31853E-01 1.10029E-13 1.86204E-13
 -1      1434 2.36250E+01-9.43285E-02 7.94441E-03-2.11953E-01-1.30299E-13 1.61140E-13
 -1      1435 2.33009E+01-1.05269E-01 6.14266E-03-2.67555E-01-1.65534E-13-4.58297E-14
 -1      1436 2.32364E+01-1.48731E-01 2.20146E-02-2.30129E-01-8.05710E-14 2.18065E-13
 -1      1437 2.29874E+01-1.22670E-01 1.48210E-02-5.15496E-01-1.00808E-13-4.76980E-14
 -1      1438 2.22803E+01-1.18211E-01 1.10573E-02-5.86073E-01-9.61644E-14-1.38278E-13
 -1      1439 2.28678E+01-1.97417E-01 3.14797E-02-7.51385E-01-1.93973E-13 1.32753E-13
 -1      1440 2.17056E+01-1.22992E-01 1.90521E-02-8.44628E-01-1.74361E-13-1.32894E-13
 -1      1441 2.06084E+01-9.05990E-02 1.20846E-02-9.11435E-01-6.05314E-14-3.48346E-13
 -1      1442 2.20243E+01-2.04233E-01 3.62120E-02-1.36576E+00-1.76952E-13 1.21691E-13
 -1      1443 1.98030E+01-6.88650E-02 1.43484E-02-1.07812E+00-1.34615E-15-3.21451E-13
 -1      1444 1.84698E+01-2.97783E-03 3.73633E-03-1.10637E+00 3.45800E-14-2.77306E-13
 -1      1445 2.06844E+01-1.25959E-01 2.83301E-02-1.89380E+00-2.21463E-14-5.74055E-14
 -1      1446 1.75769E+01 5.11760E-02-3.97702E-03-1.04871E+00 4.57768E-14-2.80470E-13
 -1      1447 1.63607E+01 1.35691E-01-1.64226E-02-9.99050E-01 4.39059E-14-3.02113E-13
 -1      1448 1.90046E+01 5.99351E-02 1.03754E-03-2.05011E+00 3.62974E-14 5.78149E-14
 -1      1449 1.56389E+01 2.04684E-01-3.27728E-02-6.31398E-01 1.01291E-13-2.16577E-13
 -1      1450 1.50109E+01 2.66249E-01-4.03569E-02-4.90043E-01 1.02057E-13-1.29390E-13
 -1      1451 1.73754E+01 3.12031E-01-4.27193E-02-1.55794E+00 1.22367E-13 1.89786E-13
 -1      1452 1.47464E+01 3.06939E-01-5.38402E-02 1.19113E-01 2.03969E-14-2.36387E-13
 -1      1453 1.50546E+01 2.92760E-01-4.92892E-02 3.08565E-01 9.20167E-14-1.26434E-13
 -1      1454 1.63502E+01 5.00546E-01-8.22864E-02-3.77097E-01 8.16916E-14-9.84924E-14
 -1      1455 1.53836E+01 2.57135E-01-4.52751E-02 8.86823E-01 5.69995E-14-2.43028E-13
 -1      1456 1.65396E+01 1.29545E-01-2.81551E-02 1.02079E+00-8.43544E-14-2.10332E-13
 -1      1457 1.63783E+01 4.64722E-01-8.25937E-02 1.08905E+00-6.15653E-14-2.69340E-13
 -1      1458 1.73064E+01 1.43651E-02 1.16104E-02 1.14892E+00-1.22673E-13-1.97786E-13
 -1      1459 1.86522E+01-1.87788E-01 3.54535E-02 1.14891E+00-8.26685E-14-2.83967E-13
 -1      1460 1.74660E+01 7.10400E-02-3.00810E-02 2.01724E+00-1.18867E-13-2.40793E-13
 -1      1461 1.97024E+01-3.84792E-01 1.78668E-01 3.18528E-01 2.95305E-13-2.80144E-13
 -1      1462 1.93065E+01-8.30245E-01 8.55687E-02 1.32022E+00 1.31416E-13-3.13024E-13
 -1      1463 2.02614E+01 7.54711E-02-1.52081E-01 4.83653E-01 9.73284E-14 7.08798E-13
 -1      1464 2.15314E+01 2.16136E-01-2.29283E-01 7.20632E-01 8.79158E-14 8.61575E-13
 -1      1465 2.17300E+01 8.81710E-01-8.54812E-02 2.06444E+00 1.76234E-13 5.43177E-13
 -1      1466 1.93336E+01 3.23846E-02-2.13277E-02 1.85818E-01 7.25843E-14 5.17121E-13
 -1      1467 1.97540E+01 1.13625E-01-6.26926E-02 2.37830E-01 6.56523E-14 6.34368E-13
 -1      1468 2.03052E+01 1.87663E-01-5.51949E-02 7.85803E-01 1.44364E-13 4.09364E-13
 -1      1469 1.89524E+01 1.51144E-02 5.66566E-03 5.32914E-02 3.37230E-14 3.90313E-13
 -1      1470 1.90907E+01 5.16411E-02 9.81223E-04 7.96164E-02 4.06212E-14 4.63261E-13
 -1      1471 1.95605E+01 7.18449E-02-1.21620E-02 2.98594E-01 1.04226E-13 2.94731E-13
 -1      1472 1.88426E+01 7.13137E-03 6.97288E-03-9.24806E-03 7.59449E-14 2.81546E-13
 -1      1473 1.88568E+01 2.58810E-02 1.10894E-02 5.16882E-03 4.50044E-14 3.51389E-13
 -1      1474 1.92257E+01 3.10539E-02-2.47229E-03 8.30379E-02 8.91240E-14 1.94544E-13
 -1      1475 1.88693E+01 3.21755E-03 4.77992E-03-3.95407E-02 3.27193E-14 1.75453E-13
 -1      1476 1.88251E+01 1.38293E-02 8.52020E-03-3.14046E-02 2.78104E-14 2.38823E-13
 -1      1477 1.91097E+01 1.32825E-02-1.62820E-03-2.20190E-02 8.43982E-14 1.46910E-13
 -1      1478 1.89642E+01 1.06109E-03 3.29116E-03-5.30039E-02 7.65729E-15 1.72720E-13
 -1      1479 1.88933E+01 7.30075E-03 5.36716E-03-4.85135E-02 1.63699E-14 1.81610E-13
 -1      1480 1.91115E+01 4.55327E-03-1.64461E-03-7.35709E-02 2.55638E-14 1.27408E-13
 -1      1481 1.90893E+01-1.88120E-04 2.50825E-03-5.69848E-02 2.16024E-14 1.48010E-13
 -1      1482 1.90087E+01 3.46753E-03 3.43008E-03-5.47506E-02-7.49265E-16 1.50616E-13
 -1      1483 1.91748E+01-9.89315E-05-1.39000E-03-9.62647E-02 2.32193E-14 7.52137E-14
 -1      1484 1.92229E+01-8.98222E-04 2.04407E-03-5.55051E-02 5.66521E-14 6.41917E-14
 -1      1485 1.91422E+01 1.13364E-03 2.32717E-03-5.46910E-02 4.44376E-14 1.27558E-13
 -1      1486 1.92674E+01-2.62025E-03-1.01495E-03-1.02495E-01 3.99511E-14 6.21035E-14
 -1      1487 1.93523E+01-1.26503E-03 1.70092E-03-5.09885E-02 4.89374E-14-5.66409E-14
 -1      1488 1.92769E+01-2.78485E-04 1.64864E-03-5.10545E-02 4.81534E-14 2.26130E-14
 -1      1489 1.93702E+01-3.89785E-03-6.72349E-04-9.92413E-02 9.89793E-14-3.08449E-14
 -1      1490 1.94707E+01-1.40929E-03 1.41208E-03-4.49646E-02 2.05469E-14-9.17361E-14
 -1      1491 1.94034E+01-1.09326E-03 1.18791E-03-4.55515E-02 3.58245E-14-5.01036E-14
 -1      1492 1.94718E+01-4.41007E-03-4.07928E-04-9.07530E-02 5.55251E-14-6.90752E-14
 -1      1493 1.95747E+01-1.41158E-03 1.15987E-03-3.84097E-02 4.93979E-14-1.93504E-13
 -1      1494 1.95166E+01-1.51382E-03 8.55517E-04-3.92762E-02 3.65312E-14-1.28485E-13
 -1      1495 1.95660E+01-4.44768E-03-2.17983E-04-7.97180E-02 7.20754E-14-2.31577E-14
 -1      1496 1.96632E+01-1.32708E-03 9.40112E-04-3.19364E-02 1.89047E-14-2.13929E-13
 -1      1497 1.96145E+01-1.67558E-03 6.09749E-04-3.29220E-02 8.92531E-15-2.32446E-13
 -1      1498 1.96495E+01-4.19960E-03-8.69975E-05-6.78487E-02 4.01500E-14-1.31593E-13
 -1      1499 1.97365E+01-1.19338E-03 7.51068E-04-2.59122E-02-2.73148E-15-2.32428E-13
 -1      1500 1.96966E+01-1.67127E-03 4.27279E-04-2.69124E-02-3.04907E-15-2.30800E-13
 -1      1501 1.97209E+01-3.79165E-03-9.06630E-08-5.62153E-02 1.83843E-14-1.83643E-13
 -1      1502 1.97957E+01-1.03537E-03 5.90821E-04-2.05406E-02 8.58580E-15-3.11955E-13
 -1      1503 1.97639E+01-1.56442E-03 2.92755E-04-2.14899E-02 1.99952E-14-2.42189E-13
 -1      1504 1.97805E+01-3.30707E-03 5.45126E-05-4.54568E-02 3.27691E-14-2.06955E-13
 -1      1505 1.98425E+01-8.68506E-04 4.56820E-04-1.59182E-02-6.90790E-14-2.25896E-13
 -1      1506 1.98176E+01-1.39763E-03 1.95131E-04-1.67776E-02-1.91083E-14-2.91372E-13
 -1      1507 1.98288E+01-2.79896E-03 8.55809E-05-3.59261E-02-1.77726E-14-1.62884E-13
 -1      1508 1.98787E+01-7.01108E-04 3.45932E-04-1.20771E-02 2.79879E-14-2.34996E-13
 -1      1509 1.98597E+01-1.19784E-03 1.26137E-04-1.28244E-02-3.21471E-15-2.63083E-13
 -1      1510 1.98674E+01-2.29837E-03 9.93275E-05-2.77923E-02-3.84545E-15-1.70255E-13
 -1      1511 1.99063E+01-5.35989E-04 2.54575E-04-9.01634E-03 9.12513E-14-3.33071E-13
 -1      1512 1.98921E+01-9.80047E-04 7.94889E-05-9.63898E-03 7.22640E-14-2.29254E-13
 -1      1513 1.98975E+01-1.81994E-03 9.97892E-05-2.11172E-02 8.46697E-14-2.30223E-13
 -1      1514 1.99271E+01-3.71684E-04 1.78883E-04-6.72687E-03-2.31998E-14-4.08927E-13
 -1      1515 1.99166E+01-7.49850E-04 5.04160E-05-7.21584E-03 5.05387E-15-4.19113E-13
 -1      1516 1.99210E+01-1.36595E-03 8.91118E-05-1.59128E-02 8.76193E-14-1.76741E-13
 -1      1517 1.99433E+01-2.03323E-04 1.14833E-04-5.20993E-03-5.48132E-14-3.26166E-13
 -1      1518 1.99354E+01-5.05336E-04 3.53706E-05-5.55500E-03-2.00427E-14-3.50646E-13
 -1      1519 1.99394E+01-9.29292E-04 6.77468E-05-1.21852E-02-2.97517E-14-2.46392E-13
 -1      1520 1.99569E+01-2.32082E-05 5.83159E-05-4.49240E-03-9.32780E-14-1.41779E-13
 -1      1521 1.99504E+01-2.38339E-04 3.18143E-05-4.67791E-03-9.44507E-14-2.73057E-13
 -1      1522 1.99547E+01-4.95559E-04 3.45584E-05-9.96950E-03-1.03966E-13-1.51575E-13
 -1      1523 1.99699E+01 1.78814E-04 5.14186E-06-4.63928E-03 2.38994E-14-1.26215E-13
 -1      1524 1.99638E+01 6.47535E-05 3.80443E-05-4.64041E-03 1.32265E-14-1.22300E-13
 -1      1525 1.99687E+01-4.44937E-05-1.31462E-05-9.35699E-03-5.12112E-14-1.69835E-13
 -1      1526 1.99850E+01 4.15115E-04-4.89939E-05-5.76458E-03 1.03807E-13-2.57992E-13
 -1      1527 1.99779E+01 4.22534E-04 5.30384E-05-5.54378E-03 5.98822E-14-1.42317E-13
 -1      1528 1.99836E+01 4.49126E-04-7.96535E-05-1.05188E-02 8.78220E-14-6.63709E-14
 -1      1529 2.00049E+01 7.00083E-04-1.08584E-04-8.04107E-03 2.85052E-14-4.64097E-13
 -1      1530 1.99953E+01 8.58300E-04 7.62973E-05-7.54449E-03 8.92434E-14-3.83330E-13
 -1      1531 2.00017E+01 1.01486E-03-1.70934E-04-1.37257E-02 1.61979E-13-2.23071E-13
 -1      1532 2.00331E+01 1.04986E-03-1.78410E-04-1.17089E-02-4.86793E-14-2.60670E-13
 -1      1533 2.00191E+01 1.39983E-03 1.07663E-04-1.08628E-02-8.50251E-14-3.92718E-13
 -1      1534 2.00259E+01 1.68608E-03-2.94770E-04-1.93661E-02-7.24042E-14-2.43989E-13
 -1      1535 2.00735E+01 1.48181E-03-2.63661E-04-1.70827E-02-3.99886E-14-1.18105E-13
 -1      1536 2.00531E+01 2.07898E-03 1.47081E-04-1.57898E-02 2.28606E-14-1.42105E-13
 -1      1537 2.00595E+01 2.49922E-03-4.60879E-04-2.79602E-02-6.64023E-14-1.48225E-13
 -1      1538 2.01314E+01 2.01354E-03-3.70059E-04-2.45550E-02-6.65595E-14 4.68827E-14
 -1      1539 2.01016E+01 2.93070E-03 1.94253E-04-2.26913E-02-7.57742E-14-5.97128E-14
 -1      1540 2.01067E+01 3.49241E-03-6.80978E-04-4.01698E-02-1.20025E-13 6.64648E-14
 -1      1541 2.02128E+01 2.66086E-03-5.03952E-04-3.45950E-02-1.57307E-15-1.48547E-15
 -1      1542 2.01704E+01 3.99099E-03 2.48106E-04-3.20070E-02 1.02351E-14-1.92869E-15
 -1      1543 2.01723E+01 4.70292E-03-9.68669E-04-5.67987E-02-5.85480E-15 3.78101E-14
 -1      1544 2.03250E+01 3.43410E-03-6.72282E-04-4.77337E-02 3.16813E-14-4.33658E-14
 -1      1545 2.02659E+01 5.29259E-03 3.05981E-04-4.42388E-02-3.36974E-14-4.74821E-14
 -1      1546 2.02622E+01 6.16208E-03-1.33892E-03-7.87768E-02-2.45530E-14 3.65240E-14
 -1      1547 2.04769E+01 4.33119E-03-8.82167E-04-6.45300E-02 7.61363E-14-1.69285E-13
 -1      1548 2.03962E+01 6.85666E-03 3.62386E-04-5.99205E-02 8.11691E-14-3.08347E-15
 -1      1549 2.03833E+01 7.88590E-03-1.80672E-03-1.07113E-01 7.13529E-14 9.28806E-14
 -1      1550 2.06784E+01 5.32535E-03-1.13945E-03-8.54971E-02 2.55506E-14-4.61077E-13
 -1      1551 2.05705E+01 8.67704E-03 4.07252E-04-7.95545E-02 7.82110E-14-3.12601E-13
 -1      1552 2.05434E+01 9.85789E-03-2.38400E-03-1.42792E-01 1.67099E-13-1.04888E-14
 -1      1553 2.09405E+01 6.34338E-03-1.44474E-03-1.10960E-01-8.73726E-14-2.70135E-13
 -1      1554 2.07991E+01 1.06916E-02 4.23784E-04-1.03488E-01-6.76609E-14-3.96465E-13
 -1      1555 2.07512E+01 1.19979E-02-3.07337E-03-1.86577E-01-2.41352E-14-2.24422E-13
 -1      1556 2.12739E+01 7.22877E-03-1.78374E-03-1.40797E-01 7.95891E-15-1.29935E-13
 -1      1557 2.10926E+01 1.27312E-02 3.86688E-04-1.31687E-01-5.69629E-14-2.79104E-13
 -1      1558 2.10153E+01 1.41072E-02-3.85554E-03-2.38636E-01-1.18189E-13-1.12894E-13
 -1      1559 2.16876E+01 7.68178E-03-2.10560E-03-1.73978E-01 1.01826E-13-2.86549E-13
 -1      1560 2.14610E+01 1.44339E-02 2.63196E-04-1.63338E-01 6.59071E-14-1.64670E-13
 -1      1561 2.13434E+01 1.57745E-02-4.66562E-03-2.97892E-01 3.98566E-14-2.09142E-13
 -1      1562 2.21852E+01 7.16975E-03-2.27876E-03-2.07799E-01-4.34479E-14-3.79441E-13
 -1      1563 2.19107E+01 1.51067E-02 2.26251E-05-1.96181E-01 2.50045E-14-3.16712E-13
 -1      1564 2.17398E+01 1.62241E-02-5.35023E-03-3.60917E-01 1.19821E-13-2.62609E-13
 -1      1565 2.27587E+01 4.81117E-03-2.01091E-03-2.36663E-01 6.32983E-14-5.10531E-13
 -1      1566 2.24401E+01 1.35289E-02-3.34468E-04-2.25450E-01 3.76810E-14-3.98256E-13
 -1      1567 2.22019E+01 1.40907E-02-5.59630E-03-4.20162E-01 8.52894E-14-2.74474E-13
 -1      1568 2.33795E+01-7.25514E-04-7.30594E-04-2.50370E-01-5.27333E-14-4.59396E-13
 -1      1569 2.30326E+01 7.72488E-03-7.12101E-04-2.42357E-01-4.03099E-14-6.05148E-13
 -1      1570 2.27143E+01 7.14043E-03-4.82857E-03-4.61352E-01-1.32656E-14-3.28260E-13
 -1      1571 2.39840E+01-1.11731E-02 2.51915E-03-2.32127E-01-4.59975E-14-2.52964E-13
 -1      1572 2.36450E+01-5.14937E-03-8.11957E-04-2.32277E-01-1.17071E-13-3.83575E-13
 -1      1573 2.32404E+01-7.92819E-03-2.10586E-03-4.60189E-01-1.62070E-13-3.20878E-13
 -1      1574 2.44573E+01-2.81459E-02 8.98211E-03-1.57423E-01-4.09135E-14-3.64066E-13
 -1      1575 2.41935E+01-2.84124E-02-2.55711E-05-1.73476E-01 6.66559E-14-2.88800E-13
 -1      1576 2.37116E+01-3.51927E-02 3.86513E-03-3.79515E-01 1.53089E-14-3.13695E-13
 -1      1577 2.46195E+01-5.15866E-02 1.94571E-02 3.34288E-03 5.20833E-14-2.31173E-13
 -1      1578 2.45377E+01-6.41603E-02 2.50402E-03-3.86878E-02-2.59679E-14-3.11504E-13
 -1      1579 2.40164E+01-7.78179E-02 1.43071E-02-1.70326E-01 1.48007E-14-1.35846E-13
 -1      1580 2.42311E+01-7.66820E-02 3.24568E-02 2.73054E-01-7.14602E-14-4.26534E-14
 -1      1581 2.44749E+01-1.09257E-01 7.30456E-03 1.95995E-01-4.15640E-14-2.09916E-13
 -1      1582 2.39969E+01-1.33559E-01 2.91074E-02 2.16229E-01-2.14655E-14 6.51553E-14
 -1      1583 2.30473E+01-9.02457E-02 4.15814E-02 6.41079E-01-6.60721E-14 2.40086E-14
 -1      1584 2.37636E+01-1.49203E-01 1.32533E-02 5.29378E-01-5.40470E-14-3.22901E-14
 -1      1585 2.34660E+01-1.86944E-01 4.45927E-02 7.95640E-01-1.02949E-13 1.67089E-14
 -1      1586 2.09482E+01-7.09677E-02 3.44981E-02 1.02487E+00-7.68777E-14 9.63118E-14
 -1      1587 2.22060E+01-1.54327E-01 1.59945E-02 9.01136E-01 3.27863E-16 1.39000E-13
 -1      1588 2.22685E+01-2.01663E-01 5.19472E-02 1.49197E+00-8.98587E-14 1.40478E-13
 -1      1589 1.81382E+01-1.12547E-03-1.83145E-03 1.24802E+00 2.02338E-14 1.92929E-13
 -1      1590 1.98055E+01-8.86832E-02 7.76011E-03 1.16518E+00-8.68472E-14 9.08440E-14
 -1      1591 2.03982E+01-1.26446E-01 3.88169E-02 2.07947E+00-9.38026E-14 2.71907E-13
 -1      1592 1.53031E+01 1.09641E-01-6.57592E-02 1.08978E+00 8.79297E-14-4.72122E-14
 -1      1593 1.69542E+01 6.03580E-02-1.70703E-02 1.11678E+00 4.71567E-14 7.13041E-14
 -1      1594 1.81419E+01 6.93248E-02-2.10451E-03 2.19647E+00 1.14894E-13 1.65354E-13
 -1      1595 1.35113E+01 2.07470E-01-1.26848E-01 4.37175E-01-1.04996E-13-1.66603E-14
 -1      1596 1.44948E+01 2.45196E-01-5.20686E-02 6.13374E-01 2.20379E-14 4.20636E-14
 -1      1597 1.61359E+01 3.41510E-01-5.82601E-02 1.52047E+00 3.66651E-14 3.90105E-14
 -1      1598 1.37008E+01 2.09528E-01-1.31322E-01-5.30088E-01 5.55667E-14 1.86878E-13
 -1      1599 1.34614E+01 3.51946E-01-7.39484E-02-2.50828E-01-1.43864E-13-4.14876E-14
 -1      1600 1.51718E+01 5.35875E-01-9.69893E-02 7.52082E-02-1.81084E-13 9.62286E-14
 -1      1601 1.58874E+01 7.22488E-02-3.92425E-02-1.29295E+00-8.96349E-14 2.33480E-13
 -1      1602 1.44637E+01 2.59395E-01-4.86472E-02-1.04997E+00-3.39138E-14 1.65756E-13
 -1      1603 1.57325E+01 4.50121E-01-7.82487E-02-1.52327E+00-1.18728E-13 1.45932E-13
 -1      1604 1.86820E+01-2.52339E-01 7.87853E-02-1.18410E+00 1.20950E-13 2.92863E-13
 -1      1605 1.70316E+01-1.12586E-01 2.78986E-02-1.17038E+00 6.99649E-14 2.79832E-13
 -1      1606 1.75050E+01-1.13623E-01 2.04815E-03-2.22953E+00 1.01791E-13 1.00524E-13
 -1      1607 1.95680E+01-5.77103E-01 2.18998E-01-4.47399E-01 1.98827E-13 1.87017E-13
 -1      1608 1.97452E+01-4.38240E+00 1.03893E-01-1.88728E+00 6.65246E-13-2.11289E-15
 -1      1609 1.96130E+01-2.05414E+00 1.08403E-01-1.65161E+00 4.01262E-13 1.86188E-13
 -1      1610 1.98967E+01-8.90129E+00 5.55894E-02-2.56196E+00 7.46403E-13 1.83813E-14
 -1      1611 1.97331E+01-5.52684E+00 1.17595E-01-2.40956E+00 6.10623E-13 2.34643E-13
 -1      1612 1.94361E+01-3.01810E+00 6.12475E-02-3.90480E+00 4.92301E-13 5.46507E-14
 -1      1613 2.03195E+01-1.33997E+01-1.56893E-01-2.62560E+00 3.05256E-13-1.83492E-13
 -1      1614 1.99563E+01-9.93918E+00 4.94782E-02-2.63687E+00 6.82232E-13-3.86816E-13
 -1      1615 1.98052E+01-5.00970E+00-5.23961E-02-4.61206E+00 5.67338E-13-1.80161E-13
 -1      1616 2.13488E+01-1.49633E+01-5.86669E-01-1.09484E+00-7.03076E-13-5.63716E-13
 -1      1617 2.06956E+01-1.36578E+01-2.81626E-01-1.66802E+00 6.99441E-15-4.52277E-13
 -1      1618 2.07991E+01-6.24036E+00-3.16740E-01-3.58640E+00 4.47122E-13-8.24785E-13
 -1      1619 2.28034E+01-1.14493E+01-9.60389E-01 3.15321E+00-1.07864E-12 6.57807E-14
 -1      1620 2.22297E+01-1.43603E+01-8.18991E-01 1.71613E+00-8.99870E-13-3.13416E-13
 -1      1621 2.32127E+01-5.91728E+00-5.95360E-01 6.09420E-01-2.79499E-14-8.11129E-13
 -1      1622 1.98433E+01 2.07306E+01 1.98666E+00 1.37371E+01-2.49489E-12-5.69267E-13
 -1      1623 2.20312E+01 4.05264E+00-3.64104E-02 1.29933E+01-1.49836E-12-7.03798E-13
 -1      1624 1.63139E+01 3.89463E+01 4.49502E+00-3.81591E+00 7.18314E-14 1.36047E-12
 -1      1625 1.56652E+01 4.22072E+01 4.97965E+00-8.24041E-01-1.91219E-12 1.39178E-12
 -1      1626 1.99338E+01 1.90143E+01 1.64637E+00-1.18014E+01 2.21378E-12 5.36460E-13
 -1      1627 1.77163E+01 3.56483E+01 4.09128E+00-1.06265E+01 7.23865E-13 1.20159E-12
 -1      1628 1.40322E+01 1.61054E+01 8.58037E-01-1.26915E+01-1.23318E-13 2.42029E-12
 -1      1629 2.17487E+01-1.35051E+00-7.56707E-01-9.93811E+00 1.59583E-12-8.99544E-13
 -1      1630 2.08021E+01 1.33987E+01 1.00467E+00-1.09238E+01 2.34524E-12-1.35031E-13
 -1      1631 2.10513E+01 7.82717E+00 4.50963E-01-2.00251E+01 1.51809E-13 3.48277E-13
 -1      1632 2.13808E+01-1.58227E+01-1.74635E+00-4.01918E+00 3.61933E-14-5.35266E-13
 -1      1633 2.17721E+01-7.37138E+00-1.12988E+00-5.54561E+00 1.56009E-12-9.63674E-13
 -1      1634 2.36086E+01-2.74149E+00-6.05467E-01-1.40264E+01 4.38760E-13-1.27109E-12
 -1      1635 2.02073E+01-1.92261E+01-1.00710E+00 6.16607E-01-1.83520E-13-2.89213E-14
 -1      1636 2.11274E+01-1.82617E+01-1.27586E+00-4.29985E-01-1.79301E-14-4.34930E-14
 -1      1637 2.21050E+01-1.06480E+01-9.51093E-01-3.77507E+00 2.89629E-13-5.17641E-13
 -1      1638 1.98250E+01-1.49616E+01-1.63977E-01 1.90274E+00-4.53415E-13-1.19890E-13
 -1      1639 2.04965E+01-1.81286E+01-4.25877E-01 1.62162E+00-1.57818E-13-2.19408E-13
 -1      1640 2.04317E+01-1.25900E+01-6.05042E-01 2.16083E+00-1.99479E-13-1.83187E-13
 -1      1641 1.97958E+01-9.33724E+00 1.24903E-01 1.78316E+00 8.60423E-14 2.40277E-13
 -1      1642 2.01309E+01-1.29753E+01 5.27252E-02 1.74628E+00-3.25351E-13 1.99191E-13
 -1      1643 1.98947E+01-9.86512E+00-1.06005E-01 3.47487E+00-1.83908E-13 2.10637E-13
 -1      1644 1.98625E+01-4.78094E+00 9.16716E-02 1.39149E+00 9.92539E-14 4.99141E-14
 -1      1645 2.00005E+01-7.49592E+00 1.47491E-01 1.34175E+00 1.39277E-13-7.76532E-14
 -1      1646 1.97380E+01-6.22290E+00 3.74384E-02 3.02834E+00 6.67244E-14-7.87296E-14
 -1      1647 1.95943E+01-1.66051E+00 2.60932E-02 1.44954E+00 3.67539E-13 5.66248E-14
 -1      1648 1.97132E+01-3.27141E+00 5.90194E-02 1.68097E+00 1.68698E-13 2.96620E-13
 -1      1649 1.96918E+01-2.73332E+00 1.59049E-01 2.66943E+00 2.37040E-13 2.00971E-13
 -1      1650 1.89213E+01-6.42461E-01 1.19478E-01 2.51745E+00-2.07456E-13-1.99556E-13
 -1      1651 1.79603E+00-1.90344E+01-6.97589E+00 3.36137E+00 2.73914E-12 1.50824E-12
 -1      1652 1.66553E+00-2.74688E+01-8.60679E+00 3.22640E+00 1.49680E-12 1.06026E-12
 -1      1653 8.99131E+00-7.81996E-01-2.67020E+00 1.15429E+01 2.79066E-12 7.57838E-13
 -1      1654 5.99297E+00-1.73542E+01-6.09180E+00 7.03111E+00 3.23608E-12 9.51739E-13
 -1      1655 2.23502E+01 1.52114E+01 1.20737E+00 2.09511E+01 1.32383E-12 4.01679E-13
 -1      1656 1.49730E+01 3.48226E+00-1.59202E+00 1.36856E+01 2.30482E-12 6.01075E-13
 -1      1657 3.78793E+01 2.20214E+01 2.78344E+00 2.69829E+01 7.41851E-13 6.62581E-13
 -1      1658 2.68301E+01 1.94294E+01 1.40790E+00 2.16415E+01 9.01057E-13 8.88623E-13
 -1      1659 5.41057E+01 1.86897E+01 2.74870E+00 2.68472E+01 3.90077E-13 5.12479E-13
 -1      1660 4.31636E+01 2.20750E+01 2.41068E+00 2.66676E+01 6.75571E-13 6.11955E-13
 -1      1661 6.74887E+01 1.23823E+01 2.47071E+00 2.11813E+01 2.36033E-13-5.46230E-14
 -1      1662 5.95585E+01 1.72880E+01 2.45129E+00 2.58717E+01 3.44474E-13 3.27627E-13
 -1      1663 7.35413E+01 6.59257E+00 2.11906E+00 1.03079E+01 1.90570E-13-1.05105E-12
 -1      1664 7.13260E+01 9.88943E+00 2.31843E+00 1.80588E+01 2.64955E-13-4.06009E-13
 -1      1665 6.85165E+01 4.60761E+00 1.64764E+00-2.23135E+00 3.84692E-14-1.32705E-12
 -1      1666 7.34169E+01 5.06904E+00 2.13744E+00 5.62490E+00-5.21805E-15-1.32894E-12
 -1      1667 5.44411E+01 5.61444E+00 9.80301E-01-9.79635E+00 3.47500E-13-1.20348E-12
 -1      1668 6.41640E+01 4.39806E+00 1.73828E+00-5.57947E+00 1.22229E-13-1.29208E-12
 -1      1669 3.64047E+01 5.51817E+00 2.45306E-01-1.07299E+01 6.85674E-13-1.27365E-12
 -1      1670 4.82359E+01 4.82546E+00 1.06621E+00-1.06571E+01 6.42875E-13-1.03761E-12
 -1      1671 1.93885E+01 3.55594E+00-5.07386E-01-8.62873E+00 1.36002E-12-1.26366E-12
 -1      1672 2.92561E+01 5.46248E+00 4.16839E-01-1.20609E+01 9.16156E-13-1.16707E-12
 -1      1673 8.40787E+00-4.22857E+00-1.16262E+00-3.16535E+00 1.67755E-12-1.30751E-12
 -1      1674 1.44563E+01 1.13031E+00-2.59583E-01-7.33030E+00 1.56786E-12-1.18494E-12
 -1      1675 1.80971E+00-1.28558E+01-1.72904E+00 7.23494E-01 1.61116E-12-9.70446E-13
 -1      1676 3.80662E+00-6.34853E+00-1.03892E+00-1.45711E+00 1.79567E-12-1.37557E-12
 -1      1677-2.36552E-01-2.00832E+01-1.93388E+00 9.57307E-01 1.04705E-12-6.01380E-13
 -1      1678 2.29162E-02-1.49878E+01-1.51848E+00 1.29324E+00 1.42120E-12-9.01862E-13
 -1      1679-1.13519E+00-2.33076E+01-2.07982E+00-4.43421E-01 2.01419E-13-5.20028E-13
 -1      1680-1.25451E+00-2.19295E+01-1.98217E+00 1.74274E+00 9.42912E-13-5.94830E-13
 -1      1681-9.47629E-01-1.91853E+01-1.75079E+00-1.64737E+00-5.91083E-13-4.19137E-13
 -1      1682-8.72095E-01-2.22965E+01-1.98652E+00-5.38564E-02-4.92384E-14-4.71734E-13
 -1      1683 8.58578E-01-1.17202E+01-1.39296E+00-8.00101E-01-9.93872E-13-4.30989E-13
 -1      1684 2.11558E-01-1.77629E+01-1.92383E+00-1.34826E+00-8.95728E-13-3.67047E-13
 -1      1685 7.25855E+00-2.91798E+00-7.35013E-01 3.86610E+00-1.00586E-12-6.86562E-13
 -1      1686 3.82129E+00-9.19981E+00-1.51317E+00 6.62201E-01-1.18128E-12-4.48086E-13
 -1      1687 2.06505E+01 2.67954E+00 6.55657E-02 9.27953E+00-8.13349E-13-8.32667E-13
 -1      1688 1.31068E+01-1.27801E+00-7.95402E-01 5.26096E+00-9.74332E-13-7.04325E-13
 -1      1689 3.69461E+01 5.88000E+00 8.30135E-01 1.27012E+01-5.94191E-13-7.57394E-13
 -1      1690 2.60508E+01 5.08330E+00-9.81928E-02 1.03726E+01-6.54254E-13-8.30447E-13
 -1      1691 5.42434E+01 5.01707E+00 1.35186E+00 1.06543E+01-2.45692E-13-8.30891E-13
 -1      1692 4.32505E+01 6.37274E+00 5.98202E-01 1.22905E+01-3.60212E-13-7.27196E-13
 -1      1693 6.70209E+01 4.33088E+00 1.69728E+00 1.71232E+00-7.30249E-14-8.07687E-13
 -1      1694 5.88565E+01 5.24557E+00 1.14769E+00 7.34868E+00-6.14508E-14-8.10685E-13
 -1      1695 7.26780E+01 6.15506E+00 1.93387E+00-9.61508E+00 6.03406E-14-7.92366E-13
 -1      1696 7.05163E+01 4.92215E+00 1.68623E+00-1.80685E+00-1.09524E-13-9.22928E-13
 -1      1697 6.57315E+01 1.19954E+01 1.89590E+00-1.94242E+01 1.90015E-13-7.56450E-13
 -1      1698 6.93748E+01 8.72857E+00 1.88494E+00-1.28686E+01 2.34257E-13-8.18845E-13
 -1      1699 5.71257E+01 1.85285E+01 2.49602E+00-2.61565E+01-3.52704E-13-1.98730E-13
 -1      1700 6.46103E+01 1.35796E+01 2.28500E+00-2.20386E+01-1.31728E-13-7.80598E-13
 -1      1701 5.44502E+01 1.62120E+01 1.77025E+00-1.36460E+01-1.74194E-13-6.07403E-13
 -1      1702 4.12319E+01 2.33471E+01 2.57144E+00-2.74513E+01-1.05682E-12 2.99538E-13
 -1      1703 5.19947E+01 2.05670E+01 3.03871E+00-2.83619E+01-2.70284E-13 7.59393E-14
 -1      1704 2.56362E+01 1.88320E+01 1.35682E+00-2.11151E+01-2.24620E-12 1.21614E-12
 -1      1705 3.61343E+01 2.23036E+01 2.82878E+00-2.67634E+01-1.60782E-12 4.88054E-13
 -1      1706 1.43835E+01 8.66315E-01-2.02706E+00-1.31351E+01-3.28804E-12 1.19504E-12
 -1      1707 2.12895E+01 1.35473E+01 8.73544E-01-2.04001E+01-2.48868E-12 1.13287E-12
 -1      1708 5.26492E+00-1.95821E+01-6.74246E+00-6.86204E+00-2.45182E-12 1.48237E-12
 -1      1709 7.86060E+00-2.66906E+00-3.11133E+00-1.08509E+01-3.16236E-12 1.49275E-12
 -1      1710 1.51056E-01-3.12504E+01-9.66157E+00-2.94282E+00 8.83682E-13 1.37257E-12
 -1      1711 6.19394E-01-2.31409E+01-7.94511E+00-1.44310E+00-1.70863E-12 1.86229E-12
 -1      1712 6.37244E+00-7.67863E+00-4.30260E+00-1.29192E+01-7.98472E-13 2.07523E-12
 -1      1713 1.83567E+00-7.34930E+00-5.14110E+00 7.04337E-01 2.62235E-13 2.35856E-12
 -1      1714 1.95041E+01-1.10414E+00 1.75268E-01-1.28031E+00 2.99122E-13 1.96142E-13
 -1      1715 1.90062E+01-1.14456E+00 1.14224E-01-2.68304E+00 1.62599E-13 2.55608E-13
 -1      1716 2.46306E+01 6.87187E-01-2.71503E-01 1.93206E+01-4.56385E-13-9.06303E-13
 -1      1717 2.25659E+01 1.21911E-01-3.17057E-01 9.12374E+00-1.69109E-12-5.79009E-13
 -1      1718 2.26422E+01-9.80066E+00-1.16448E+00 7.68268E+00-1.24567E-12-2.23405E-13
 -1      1719 2.54519E+01-4.59742E+00-6.83938E-01 9.31058E+00-5.77316E-13-2.54796E-13
 -1      1720 1.64539E+01 4.08195E+01 4.83372E+00 7.38880E+00-2.43305E-12 1.10645E-12
 -1      1721 1.82150E+01 2.85834E+01 3.05589E+00 9.53690E+00-3.21121E-12 3.56826E-13
 -1      1722 7.83374E+00-5.31859E+00-3.76693E+00 1.44287E+01 1.13798E-12 1.08535E-12
 -1      1723 2.03055E+01-1.51798E+00-1.23277E+00 2.00329E+01 1.51190E-12-4.30628E-13
 -1      1724 1.78398E+01 8.71833E+00-2.29115E-02 1.98950E+01-3.44169E-13-3.37730E-13
 -1      1725 3.13659E+01 7.02695E+00 8.23682E-01 2.02745E+01 8.22453E-13 1.45994E-13
 -1      1726 4.13382E+01 1.48260E+01 2.02135E+00 1.93642E+01 6.24167E-13 2.10498E-13
 -1      1727 5.08440E+01 1.67785E+01 2.16811E+00 1.72774E+01 4.91773E-13 2.40585E-13
 -1      1728 5.92321E+01 1.50279E+01 2.12380E+00 1.40435E+01 6.15563E-13-4.27103E-13
 -1      1729 6.23236E+01 1.16222E+01 1.94173E+00 7.77920E+00 4.72289E-13-9.20597E-13
 -1      1730 5.78135E+01 8.48970E+00 1.51555E+00 1.29193E+00 1.25899E-13-1.12466E-12
 -1      1731 4.75163E+01 4.91442E+00 8.26389E-01-2.41720E+00 4.79602E-13-1.18761E-12
 -1      1732 3.62014E+01 1.45171E+00 5.51074E-01-5.75099E+00 7.94087E-13-1.00620E-12
 -1      1733 2.30044E+01-3.08267E+00-1.50906E-01-6.48035E+00 1.17995E-12-7.41740E-13
 -1      1734 1.18731E+01-8.06827E+00-6.78644E-01-5.21248E+00 1.23934E-12-8.93452E-13
 -1      1735 3.47990E+00-1.25297E+01-1.14991E+00-3.21833E+00 8.85403E-13-8.89025E-13
 -1      1736-9.91897E-01-1.56846E+01-1.37345E+00-1.49036E+00 6.15952E-13-8.01859E-13
 -1      1737-2.13193E+00-1.64431E+01-1.43933E+00 5.36517E-01 2.96776E-13-8.56704E-13
 -1      1738 2.98979E-01-1.45660E+01-1.30668E+00 2.12033E+00-4.09228E-13-4.70957E-13
 -1      1739 6.29245E+00-1.07405E+01-9.63056E-01 4.03949E+00-7.76712E-13-4.17499E-13
 -1      1740 1.68645E+01-6.15428E+00-3.06395E-01 6.06544E+00-7.52620E-13-5.57276E-13
 -1      1741 2.83538E+01-1.76665E+00 1.42660E-03 6.20292E+00-6.32383E-13-5.41012E-13
 -1      1742 4.07608E+01 3.35512E+00 7.05040E-01 5.80861E+00-5.80758E-13-7.48956E-13
 -1      1743 5.15728E+01 6.72232E+00 1.20678E+00 2.23682E+00-2.23682E-13-7.14984E-13
 -1      1744 5.86774E+01 9.72026E+00 1.55167E+00-3.58526E+00 5.02376E-14-7.35523E-13
 -1      1745 5.90853E+01 1.31514E+01 1.71707E+00-9.19042E+00 1.29230E-13-1.10628E-12
 -1      1746 4.03858E+01 1.49445E+01 2.10105E+00-2.01443E+01-1.32394E-12-4.19664E-13
 -1      1747 3.02459E+01 5.96390E+00 5.95427E-01-2.02957E+01-1.58140E-12 1.68643E-13
 -1      1748 1.89219E+01-1.47788E+00-1.25461E+00-2.03197E+01-1.73972E-12 6.10234E-13
 -1      1749 2.28613E+01 1.98489E+00-2.35576E-02-2.72194E+00-1.31131E-13 6.91974E-13
 -1      1750 5.00450E+01 1.72199E+01 2.21502E+00-1.83856E+01-4.28671E-13-5.03930E-13
 -1      1751 1.98261E+01 3.71377E+00-3.54325E-02-2.15195E+00-2.03834E-13-1.65312E-13
 -1      1752 2.00590E+01 3.56281E+00-4.02151E-02-2.44417E+00-2.28630E-13-9.10244E-14
 -1      1753 2.03649E+01 3.18152E+00-4.57906E-02-2.58398E+00-2.17691E-13 1.03806E-14
 -1      1754 2.05853E+01 2.80973E+00-1.42499E-01-2.85234E+00-2.24792E-13 1.38708E-13
 -1      1755 2.04255E+01 2.69295E+00-4.14064E-03-2.22335E+00-2.32616E-13-3.15026E-14
 -1      1756 1.93542E+01 4.18917E+00-2.00895E-02-1.26973E+00-1.37788E-13-2.92804E-13
 -1      1757 1.94285E+01 4.14972E+00-1.69102E-02-1.49402E+00-1.63249E-13-2.66669E-13
 -1      1758 1.92571E+01 4.29501E+00-1.67510E-02-8.58997E-01-1.06383E-13-3.12646E-13
 -1      1759 1.93001E+01 4.27108E+00-1.42481E-02-1.06966E+00-1.21878E-13-3.08611E-13
 -1      1760 1.95261E+01 3.78357E+00-8.98248E-03-1.11885E+00-1.47775E-13-2.88948E-13
 -1      1761 1.92052E+01 4.35548E+00-1.47886E-02-4.66405E-01-6.32017E-14-3.10866E-13
 -1      1762 1.92273E+01 4.34263E+00-1.32898E-02-6.66575E-01-8.40717E-14-3.08144E-13
 -1      1763 1.94282E+01 3.90381E+00-9.14669E-03-7.32596E-01-9.89279E-14-2.94558E-13
 -1      1764 1.91856E+01 4.38110E+00-1.36619E-02-8.35421E-02-1.21807E-14-3.20716E-13
 -1      1765 1.91921E+01 4.37718E+00-1.32074E-02-2.78850E-01-3.09095E-14-3.19106E-13
 -1      1766 1.93776E+01 3.96831E+00-9.14391E-03-3.57985E-01-5.00373E-14-2.98034E-13
 -1      1767 1.91937E+01 4.37581E+00-1.31639E-02 2.97913E-01 2.56256E-14-3.13864E-13
 -1      1768 1.91861E+01 4.38027E+00-1.37471E-02 1.02444E-01 8.93174E-15-3.16903E-13
 -1      1769 1.93627E+01 3.98772E+00-9.13968E-03 1.05633E-02-5.01883E-15-3.07475E-13
 -1      1770 1.92313E+01 4.33860E+00-1.33213E-02 6.86368E-01 6.20212E-14-3.09409E-13
 -1      1771 1.92079E+01 4.35229E+00-1.49134E-02 4.85690E-01 4.07325E-14-3.13484E-13
 -1      1772 1.93803E+01 3.96499E+00-9.18218E-03 3.79303E-01 3.62210E-14-3.06075E-13
 -1      1773 1.93053E+01 4.26516E+00-1.44028E-02 1.08380E+00 1.04844E-13-3.01804E-13
 -1      1774 1.92617E+01 4.28963E+00-1.69720E-02 8.75928E-01 8.04413E-14-3.09258E-13
 -1      1775 1.94334E+01 3.89745E+00-9.18915E-03 7.51189E-01 7.73830E-14-2.97486E-13
 -1      1776 1.94376E+01 4.13791E+00-1.73972E-02 1.51364E+00 1.53611E-13-2.63366E-13
 -1      1777 1.93608E+01 4.18049E+00-2.05030E-02 1.28417E+00 1.28990E-13-2.82396E-13
 -1      1778 1.95337E+01 3.77348E+00-9.23717E-03 1.13473E+00 1.26621E-13-2.75009E-13
 -1      1779 1.96676E+01 3.92131E+00-2.51875E-02 1.97861E+00 1.92309E-13-2.12285E-13
 -1      1780 1.95343E+01 3.99808E+00-2.69064E-02 1.72131E+00 1.68866E-13-2.47122E-13
 -1      1781 1.97078E+01 3.56632E+00-8.69373E-03 1.53428E+00 1.74188E-13-2.41761E-13
 -1      1782 2.00770E+01 3.52288E+00-4.51772E-02 2.47103E+00 2.27564E-13-7.93775E-14
 -1      1783 1.98366E+01 3.68336E+00-3.97278E-02 2.18192E+00 2.05727E-13-1.55907E-13
 -1      1784 2.00050E+01 3.22308E+00-5.26757E-03 1.93351E+00 2.10033E-13-1.61461E-13
 -1      1785 2.09230E+01 2.68180E+00-5.76398E-02 2.85687E+00 2.43877E-13 1.32096E-13
 -1      1786 2.04153E+01 3.09696E+00-5.04304E-02 2.61500E+00 2.33046E-13 8.50015E-15
 -1      1787 2.05190E+01 2.61000E+00 3.18768E-03 2.24351E+00 2.38790E-13-1.89015E-14
 -1      1788 2.17336E+01 1.21294E+00-1.22087E-01 2.32913E+00 2.05273E-13 3.96211E-13
 -1      1789 2.12770E+01 2.26301E+00 1.16177E-04 2.73962E+00 2.28036E-13 2.19283E-13
 -1      1790 2.09398E+01 1.68502E+00-2.29497E-02 2.13927E+00 2.38618E-13 1.38261E-13
 -1      1791 2.09552E+01 7.78658E-01-6.24363E-02 1.52344E+00 2.01131E-13 3.38630E-13
 -1      1792 2.17994E+01 2.45817E+00 9.09108E-02-3.04743E+00-1.79299E-13 3.50081E-13
 -1      1793 2.01049E+01 2.97964E-01-8.90576E-03 6.56280E-01 1.47639E-13 2.55391E-13
 -1      1794 2.06567E+01 4.40415E-01-1.24617E-02 1.03333E+00 1.69330E-13 3.03910E-13
 -1      1795 2.07476E+01 8.45117E-01 2.24412E-03 1.41426E+00 1.94785E-13 1.82816E-13
 -1      1796 4.06670E+01 1.21191E+01 5.94600E-01-1.33496E+01-7.16330E-13-1.80078E-13
 -1      1797 4.36101E+01 1.32231E+01 4.98515E-01-1.17839E+01-5.88585E-13-3.00426E-13
 -1      1798 2.15097E+01 1.74228E+00 7.94440E-02-2.33630E+00-2.02817E-13 2.47538E-13
 -1      1799 2.05238E+01 5.00746E-01 3.23924E-02-9.20804E-01-1.49651E-13 2.13185E-13
 -1      1800 2.00924E+01 3.52150E-01 7.53496E-03-6.28802E-01-1.38233E-13 1.64218E-13
 -1      1801 1.98983E+01 2.57362E-01 2.73852E-02-3.90354E-01-1.24881E-13 1.54535E-13
 -1      1802 1.97076E+01 1.78033E-01 1.03742E-02-2.52541E-01-9.96252E-14 1.10013E-13
 -1      1803 2.02021E+01 4.83841E-01-5.86969E-03-7.21452E-01-1.57267E-13 4.25662E-14
 -1      1804 1.95857E+01 1.32749E-01 1.66378E-02-1.19009E-01-7.41126E-14 1.15540E-13
 -1      1805 1.95079E+01 9.31092E-02 6.96481E-03-4.82000E-02-5.65498E-14 1.00452E-13
 -1      1806 1.98764E+01 2.43923E-01-5.80672E-03-2.94582E-01-9.87912E-14 2.86932E-14
 -1      1807 1.94432E+01 6.84197E-02 8.68350E-03 2.53428E-02-5.25021E-14 9.47068E-14
 -1      1808 1.94290E+01 4.67072E-02 4.11096E-03 6.15119E-02-5.50790E-14 8.06226E-14
 -1      1809 1.96940E+01 1.25291E-01-4.62810E-03-5.77040E-02-7.00212E-14 4.91924E-15
 -1      1810 1.94031E+01 3.23452E-02 4.23021E-03 1.00187E-01-5.56294E-14 8.89167E-14
 -1      1811 1.94231E+01 1.98778E-02 2.42858E-03 1.16923E-01-1.59193E-14 7.22454E-14
 -1      1812 1.96078E+01 6.08961E-02-3.45159E-03 7.18470E-02-5.69551E-14 6.53470E-15
 -1      1813 1.94214E+01 1.12096E-02 1.84541E-03 1.34762E-01-2.03959E-14 6.84294E-14
 -1      1814 1.94587E+01 3.99326E-03 1.44019E-03 1.40112E-01-2.10618E-14 7.89699E-14
 -1      1815 1.95838E+01 2.39307E-02-2.32789E-03 1.38114E-01-2.93997E-14 1.63012E-14
 -1      1816 1.94712E+01-1.23945E-03 5.41296E-04 1.45359E-01-3.40831E-14 1.00782E-13
 -1      1817 1.95155E+01-5.26981E-03 8.21124E-04 1.44019E-01-2.94928E-14 8.24691E-14
 -1      1818 1.95974E+01 2.29413E-03-1.42593E-03 1.66176E-01-2.68143E-14 3.28624E-14
 -1      1819 1.95354E+01-8.31060E-03-1.83708E-04 1.41783E-01-6.78476E-14 5.89567E-14
 -1      1820 1.95807E+01-1.03365E-02 4.17803E-04 1.36674E-01-6.94530E-14 6.28831E-14
 -1      1821 1.96320E+01-1.01040E-02-7.76660E-04 1.71151E-01-6.08941E-14 5.75603E-15
 -1      1822 1.96036E+01-1.19426E-02-5.74554E-04 1.30231E-01-1.23686E-13 1.42462E-14
 -1      1823 1.96464E+01-1.26954E-02 1.55293E-04 1.23225E-01-1.56203E-13-3.53984E-14
 -1      1824 1.96764E+01-1.66826E-02-3.38982E-04 1.62578E-01-1.38593E-13-7.25632E-14
 -1      1825 1.96694E+01-1.33606E-02-7.60995E-04 1.14707E-01-1.03563E-13-3.83886E-14
 -1      1826 1.97079E+01-1.33168E-02-9.84743E-06 1.07009E-01-2.23065E-14-6.64318E-14
 -1      1827 1.97235E+01-1.95345E-02-5.90068E-05 1.46633E-01-1.32271E-13-6.75138E-14
 -1      1828 1.97295E+01-1.33760E-02-8.19733E-04 9.77962E-02 1.08808E-14-9.52727E-14
 -1      1829 1.97628E+01-1.28539E-02-1.06529E-04 9.01676E-02 1.35998E-14-9.34365E-14
 -1      1830 1.97692E+01-2.00186E-02 1.08982E-04 1.27340E-01-2.60099E-14-9.42562E-14
 -1      1831 1.97821E+01-1.25367E-02-7.99745E-04 8.11320E-02 6.76388E-15-1.01550E-13
 -1      1832 1.98101E+01-1.17483E-02-1.54952E-04 7.40344E-02-1.13544E-14-9.80068E-14
 -1      1833 1.98108E+01-1.90440E-02 1.99277E-04 1.07289E-01-5.41743E-15-1.35880E-13
 -1      1834 1.98267E+01-1.12101E-02-7.33339E-04 6.57046E-02-1.28889E-14-8.87034E-14
 -1      1835 1.98497E+01-1.02923E-02-1.69114E-04 5.93999E-02-2.30203E-16-1.83908E-14
 -1      1836 1.98473E+01-1.72204E-02 2.36528E-04 8.81009E-02 2.16872E-14-6.63716E-14
 -1      1837 1.98637E+01-9.63418E-03-6.41799E-04 5.20777E-02-1.98574E-14-2.49229E-14
 -1      1838 1.98821E+01-8.66920E-03-1.58290E-04 4.66994E-02 2.79761E-14-2.59828E-14
 -1      1839 1.98783E+01-1.49465E-02 2.38034E-04 7.07452E-02-1.50617E-14-1.12002E-13
 -1      1840 1.98937E+01-7.95149E-03-5.38755E-04 4.05441E-02 4.09922E-14-1.97657E-14
 -1      1841 1.99083E+01-6.98066E-03-1.28061E-04 3.61514E-02 2.22797E-14-1.91657E-14
 -1      1842 1.99041E+01-1.24669E-02 2.15575E-04 5.57669E-02 1.18315E-14-6.41275E-14
 -1      1843 1.99178E+01-6.23278E-03-4.32403E-04 3.12430E-02-3.60426E-14-1.05630E-13
 -1      1844 1.99294E+01-5.26661E-03-8.10354E-05 2.78602E-02-7.63538E-14-1.31412E-13
 -1      1845 1.99254E+01-9.91082E-03 1.76789E-04 4.34562E-02-5.89537E-14-1.17518E-13
 -1      1846 1.99373E+01-4.49428E-03-3.27056E-04 2.42473E-02-1.10169E-13-1.11852E-13
 -1      1847 1.99466E+01-3.51954E-03-1.73727E-05 2.18947E-02-1.03158E-13-1.46249E-13
 -1      1848 1.99430E+01-7.32042E-03 1.26192E-04 3.39741E-02-9.30651E-14-7.91178E-14
 -1      1849 1.99535E+01-2.71004E-03-2.24282E-04 1.96310E-02-9.20968E-14-1.43406E-13
 -1      1850 1.99614E+01-1.69475E-03 6.48382E-05 1.83488E-02-6.11295E-14-1.44565E-13
 -1      1851 1.99579E+01-4.67056E-03 6.59327E-05 2.74475E-02-1.08326E-13-1.12323E-13
 -1      1852 1.99679E+01-8.20726E-04-1.23748E-04 1.75217E-02-4.36934E-15-1.74546E-13
 -1      1853 1.99754E+01 2.82279E-04 1.69281E-04 1.73885E-02 8.02541E-14-1.82938E-13
 -1      1854 1.99713E+01-1.88327E-03-3.61220E-06 2.40439E-02-5.59631E-14-1.16502E-13
 -1      1855 1.99822E+01 1.25983E-03-2.38680E-05 1.81416E-02 1.27288E-13-1.65309E-13
 -1      1856 1.99903E+01 2.51031E-03 3.01144E-04 1.92902E-02 8.01260E-14-1.37576E-13
 -1      1857 1.99846E+01 1.16192E-03-8.33670E-05 2.40286E-02 1.02007E-13-1.68708E-13
 -1      1858 1.99981E+01 3.63953E-03 7.76602E-05 2.18407E-02 6.01229E-14-4.35747E-14
 -1      1859 2.00081E+01 5.10749E-03 4.66809E-04 2.44698E-02 1.39237E-13 1.28434E-14
 -1      1860 1.99991E+01 4.61985E-03-1.75142E-04 2.78102E-02 1.43581E-13-6.70321E-14
 -1      1861 2.00179E+01 6.44307E-03 1.83377E-04 2.91225E-02 9.58819E-14 1.63665E-14
 -1      1862 2.00310E+01 8.20596E-03 6.73410E-04 3.35055E-02 6.41482E-14 5.33968E-14
 -1      1863 2.00167E+01 8.67234E-03-2.81235E-04 3.59754E-02 1.25434E-13-7.65221E-14
 -1      1864 2.00438E+01 9.80566E-03 2.95579E-04 4.06603E-02 6.00048E-14 5.15959E-14
 -1      1865 2.00619E+01 1.19441E-02 9.28127E-04 4.71504E-02-2.58723E-14 6.20395E-14
 -1      1866 2.00393E+01 1.35193E-02-4.04001E-04 4.93124E-02 5.71571E-14-9.98846E-14
 -1      1867 2.00789E+01 1.38635E-02 4.15760E-04 5.73031E-02-9.52418E-14 7.08060E-14
 -1      1868 2.01038E+01 1.64543E-02 1.23703E-03 6.63308E-02-1.55957E-13 4.59288E-14
 -1      1869 2.00692E+01 1.93657E-02-5.45328E-04 6.88201E-02-2.69117E-14-1.09679E-13
 -1      1870 2.01266E+01 1.87383E-02 5.43925E-04 8.00621E-02-2.00036E-13 9.36919E-14
 -1      1871 2.01606E+01 2.18420E-02 1.60315E-03 9.21222E-02-1.37334E-13 3.38128E-14
 -1      1872 2.01091E+01 2.63998E-02-7.05988E-04 9.56955E-02-1.37659E-13-4.76991E-14
 -1      1873 2.01906E+01 2.45108E-02 6.77688E-04 1.10068E-01-5.85350E-14 1.14125E-13
 -1      1874 2.02364E+01 2.81513E-02 2.02345E-03 1.25688E-01 1.00659E-13 9.87134E-14
 -1      1875 2.01622E+01 3.47575E-02-8.84804E-04 1.31287E-01-6.10680E-14 1.31541E-13
 -1      1876 2.02756E+01 3.11778E-02 8.11109E-04 1.48480E-01 9.34316E-14-2.98704E-15
 -1      1877 2.03363E+01 3.53083E-02 2.48387E-03 1.68159E-01 6.01187E-14-9.58283E-15
 -1      1878 2.02319E+01 4.44625E-02-1.07765E-03 1.76993E-01 2.23507E-14-4.25337E-15
 -1      1879 2.03866E+01 3.85814E-02 9.33261E-04 1.96317E-01 1.38920E-14-3.20681E-14
 -1      1880 2.04652E+01 4.30290E-02 2.95182E-03 2.20415E-01-1.02813E-13-1.04961E-13
 -1      1881 2.03222E+01 5.53285E-02-1.27629E-03 2.34076E-01-2.11569E-14-1.08478E-13
 -1      1882 2.05287E+01 4.62956E-02 1.02662E-03 2.54164E-01-1.29254E-13-6.03204E-14
 -1      1883 2.06286E+01 5.06733E-02 3.36493E-03 2.82716E-01-8.08737E-14 5.39580E-16
 -1      1884 2.04370E+01 6.68015E-02-1.46732E-03 3.03338E-01 2.02876E-15-8.83673E-14
 -1      1885 2.07071E+01 5.34483E-02 1.06564E-03 3.21696E-01-8.12033E-14 5.67437E-14
 -1      1886 2.08309E+01 5.70196E-02 3.61517E-03 3.54105E-01-1.86043E-14 1.56152E-13
 -1      1887 2.05804E+01 7.77119E-02-1.63143E-03 3.84598E-01-1.19696E-14 1.08561E-13
 -1      1888 2.09260E+01 5.84511E-02 1.01646E-03 3.96899E-01-4.60488E-14 1.56865E-13
 -1      1889 2.10753E+01 5.99320E-02 3.52864E-03 4.31455E-01 4.40544E-14 1.46554E-13
 -1      1890 2.07557E+01 8.58958E-02-1.74354E-03 4.75855E-01-1.53921E-14 2.80632E-13
 -1      1891 2.11878E+01 5.86126E-02 8.39257E-04 4.74898E-01 3.32876E-14 3.29908E-14
 -1      1892 2.13615E+01 5.59069E-02 2.84443E-03 5.08057E-01 8.74714E-14-2.51760E-14
 -1      1893 2.09653E+01 8.76512E-02-1.77428E-03 5.72021E-01-3.52035E-14 1.72845E-13
 -1      1894 2.14910E+01 4.96401E-02 4.96148E-04 5.46228E-01 7.62960E-14-1.44933E-13
 -1      1895 2.16840E+01 3.95465E-02 1.20353E-03 5.71605E-01-6.25541E-14-2.18441E-13
 -1      1896 2.12095E+01 7.70275E-02-1.69246E-03 6.63079E-01-4.67497E-15-1.51578E-13
 -1      1897 2.18284E+01 2.51385E-02-3.34451E-05 5.94523E-01-9.68911E-14-1.09266E-13
 -1      1898 2.20287E+01 3.18323E-03-1.82655E-03 6.01663E-01-5.89215E-14-5.79059E-14
 -1      1899 2.14850E+01 4.50862E-02-1.46535E-03 7.31600E-01-4.56728E-14-2.21655E-13
 -1      1900 2.21833E+01-2.35266E-02-7.33195E-04 5.93836E-01-6.55303E-14 6.07671E-14
 -1      1901 2.23694E+01-6.27289E-02-6.64365E-03 5.67117E-01 5.54665E-14 6.28820E-14
 -1      1902 2.17843E+01-2.03925E-02-1.04740E-03 7.49787E-01 1.39452E-14 1.56441E-13
 -1      1903 2.25259E+01-1.06104E-01-1.54528E-03 5.06607E-01 1.82886E-13 1.25793E-14
 -1      1904 2.26636E+01-1.67144E-01-1.33455E-02 4.25264E-01 2.29035E-13 1.73059E-13
 -1      1905 2.20930E+01-1.33567E-01-3.40226E-04 6.76907E-01 1.53049E-13 2.19147E-13
 -1      1906 2.28079E+01-2.29364E-01-2.41439E-03 2.84834E-01 2.20676E-13 1.77156E-13
 -1      1907 2.28498E+01-3.11796E-01-2.12424E-02 1.26153E-01 9.85999E-14 2.22339E-13
 -1      1908 2.23871E+01-3.05267E-01 8.96098E-04 4.59391E-01 2.26876E-13 1.36410E-14
 -1      1909 2.29584E+01-3.87791E-01-3.40895E-03-1.20560E-01 2.29244E-14 3.85287E-13
 -1      1910 2.28474E+01-4.78287E-01-2.81443E-02-3.71771E-01-2.96620E-14 4.21879E-13
 -1      1911 2.26283E+01-5.30756E-01 3.16052E-03 3.83562E-02 1.74184E-13 2.67030E-13
 -1      1912 2.28815E+01-5.47562E-01-4.93741E-03-7.34732E-01-1.09393E-13 3.04664E-13
 -1      1913 2.25647E+01-6.09836E-01-2.98022E-02-1.06737E+00-1.31430E-13 3.34338E-13
 -1      1914 2.27565E+01-7.67975E-01 7.33415E-03-6.28013E-01-9.23810E-14 2.96584E-13
 -1      1915 2.24659E+01-6.28784E-01-7.78254E-03-1.51158E+00-2.23556E-13 4.21416E-13
 -1      1916 2.19211E+01-6.00805E-01-2.08739E-02-1.86207E+00-1.59674E-13 3.70055E-13
 -1      1917 2.26811E+01-9.12134E-01 1.40894E-02-1.51830E+00-1.71538E-13 3.87924E-13
 -1      1918 2.16213E+01-5.08426E-01-1.22943E-02-2.27357E+00-8.10983E-15 3.18059E-13
 -1      1919 2.08927E+01-3.25036E-01 1.08041E-03-2.50897E+00 3.39928E-14 3.90004E-13
 -1      1920 2.22854E+01-7.95347E-01 2.16848E-02-2.47850E+00-1.51427E-13 5.21585E-13
 -1      1921 2.03565E+01-7.87256E-02-1.70829E-02-2.68666E+00 6.01369E-14 5.66006E-13
 -1      1922 1.95827E+01 2.69219E-01 2.98821E-02-2.63084E+00 1.55262E-13 6.47751E-13
 -1      1923 2.14724E+01-2.55021E-01 2.39066E-02-3.16855E+00 1.93337E-13 7.01365E-13
 -1      1924 1.88805E+01 6.28938E-01-1.65674E-02-2.35471E+00 3.51542E-14 6.49548E-13
 -1      1925 1.82775E+01 1.02259E+00 4.78843E-02-1.88653E+00 3.77788E-14 5.49900E-13
 -1      1926 2.02715E+01 7.01192E-01 1.08938E-02-3.11485E+00 5.55372E-14 5.50100E-13
 -1      1927 1.76302E+01 1.32359E+00-5.92554E-03-1.08159E+00-1.20723E-13 2.82033E-13
 -1      1928 1.74151E+01 1.51421E+00 3.83963E-02-2.80401E-01-1.44783E-13 5.65043E-14
 -1      1929 1.89541E+01 1.74303E+00-1.59458E-02-1.95653E+00-1.83551E-13 4.03040E-13
 -1      1930 1.71297E+01 1.51100E+00 2.44185E-02 7.93919E-01-1.56090E-13-1.42130E-13
 -1      1931 1.73707E+01 1.26149E+00 3.82360E-03 1.57040E+00-2.07154E-13-1.92454E-13
 -1      1932 1.80271E+01 2.18979E+00-4.14986E-02 1.34457E-01-3.54751E-13 1.86502E-13
 -1      1933 1.76270E+01 7.93516E-01 5.75482E-02 2.36893E+00-6.63029E-14-2.87229E-13
 -1      1934 1.81942E+01-2.66905E-02-5.54432E-02 2.60516E+00-8.57300E-14-2.58633E-13
 -1      1935 1.79432E+01 1.45758E+00-3.50285E-02 2.27716E+00-1.75472E-13-1.24361E-13
 -1      1936 1.96227E+01 1.42092E-01 7.88957E-03 2.58586E-01 1.13484E-13 1.66530E-13
 -1      1937 1.98945E+01 2.04140E-01 1.64368E-02 4.31628E-01 1.24577E-13 2.23231E-13
 -1      1938 2.01057E+01 3.50602E-01-1.53380E-03 6.54025E-01 1.55837E-13 1.36371E-13
 -1      1939 1.93810E+01 7.19870E-02 6.95234E-03 5.54964E-02 1.32867E-13 1.01043E-13
 -1      1940 1.94957E+01 1.01870E-01 1.41973E-02 1.44079E-01 1.01096E-13 1.38595E-13
 -1      1941 1.97135E+01 1.65272E-01-1.94952E-03 2.55159E-01 1.27128E-13 7.55316E-14
 -1      1942 1.92913E+01 3.62103E-02 4.43506E-03-5.00766E-02 4.92904E-14 8.92272E-14
 -1      1943 1.93210E+01 5.20304E-02 8.33738E-03-2.80758E-03 9.98895E-14 1.06169E-13
 -1      1944 1.95138E+01 8.07751E-02-2.82829E-03 4.30282E-02 1.12034E-13 4.49502E-14
 -1      1945 1.92904E+01 1.62768E-02 2.86771E-03-1.02675E-01 2.69958E-14 5.30340E-14
 -1      1946 1.92747E+01 2.51383E-02 4.35155E-03-7.79867E-02 4.04631E-14 9.17010E-14
 -1      1947 1.94354E+01 3.75688E-02-2.84434E-03-6.89933E-02 5.33120E-14 1.66635E-14
 -1      1948 1.93384E+01 4.63908E-03 1.99201E-03-1.24874E-01 2.98916E-14 1.83406E-14
 -1      1949 1.92995E+01 9.67860E-03 2.14636E-03-1.13377E-01 1.94671E-14 2.30111E-14
 -1      1950 1.94295E+01 1.37389E-02-2.31486E-03-1.24666E-01 4.44359E-14-3.25189E-14
 -1      1951 1.94106E+01-2.17144E-03 1.44875E-03-1.29164E-01 9.60674E-14 1.02711E-14
 -1      1952 1.93616E+01 5.87447E-04 9.46556E-04-1.25607E-01 6.69649E-14 2.47303E-14
 -1      1953 1.94647E+01 1.40331E-04-1.69343E-03-1.47315E-01 7.78681E-14-4.11747E-14
 -1      1954 1.94919E+01-5.97750E-03 1.06611E-03-1.23054E-01 9.13918E-14-7.06098E-14
 -1      1955 1.94404E+01-4.63720E-03 2.71640E-04-1.24239E-01 1.11066E-13-6.34150E-16
 -1      1956 1.95208E+01-7.50239E-03-1.16982E-03-1.50370E-01 1.29315E-13-1.83609E-14
 -1      1957 1.95729E+01-7.85515E-03 7.79122E-04-1.11283E-01 1.66611E-14-4.37257E-14
 -1      1958 1.95235E+01-7.40648E-03-1.14292E-04-1.15164E-01 4.26602E-14-5.83200E-14
 -1      1959 1.95853E+01-1.14631E-02-7.76207E-04-1.42079E-01 7.22600E-14-2.45789E-14
 -1      1960 1.96482E+01-8.49275E-03 5.60540E-04-9.68998E-02 9.85156E-14-2.07320E-14
 -1      1961 1.96034E+01-8.59455E-03-3.26640E-04-1.02142E-01 9.89686E-14-2.75997E-14
 -1      1962 1.96502E+01-1.30934E-02-4.93352E-04-1.27703E-01 8.66235E-14-1.87781E-14
 -1      1963 1.97152E+01-8.34997E-03 3.94826E-04-8.18541E-02 2.56740E-14-1.08373E-13
 -1      1964 1.96760E+01-8.77540E-03-4.29042E-04-8.75882E-02 5.65265E-14-5.81633E-14
 -1      1965 1.97110E+01-1.32577E-02-2.94988E-04-1.10633E-01 7.89178E-14-7.58346E-14
 -1      1966 1.97726E+01-7.73777E-03 2.70895E-04-6.73591E-02 4.74682E-14-1.72213E-13
 -1      1967 1.97395E+01-8.33576E-03-4.60951E-04-7.30318E-02 5.31311E-14-1.66351E-13
 -1      1968 1.97654E+01-1.25296E-02-1.59165E-04-9.30360E-02 8.38681E-14-1.45050E-13
 -1      1969 1.98206E+01-6.86407E-03 1.80293E-04-5.41326E-02 8.19304E-15-1.49685E-13
 -1      1970 1.97933E+01-7.53614E-03-4.48367E-04-5.94057E-02 1.54228E-14-1.55489E-13
 -1      1971 1.98121E+01-1.12921E-02-6.93131E-05-7.62547E-02 2.34187E-14-1.13785E-13
 -1      1972 1.98596E+01-5.86236E-03 1.16624E-04-4.25653E-02-3.69924E-14-1.67939E-13
 -1      1973 1.98376E+01-6.54754E-03-4.08611E-04-4.72438E-02-2.30322E-14-1.72710E-13
 -1      1974 1.98513E+01-9.79576E-03-1.32315E-05-6.10819E-02-1.88266E-15-1.06195E-13
 -1      1975 1.98909E+01-4.81076E-03 7.52360E-05-3.28437E-02 5.71707E-14-1.56736E-13
 -1      1976 1.98735E+01-5.47529E-03-3.52970E-04-3.68232E-02 1.63319E-14-1.46489E-13
 -1      1977 1.98834E+01-8.19501E-03 1.79200E-05-4.79502E-02-1.63964E-15-1.27009E-13
 -1      1978 1.99156E+01-3.74532E-03 5.29883E-05-2.50416E-02 9.49435E-14-1.45341E-13
 -1      1979 1.99020E+01-4.37534E-03-2.88358E-04-2.82687E-02 5.69374E-14-1.39198E-13
 -1      1980 1.99094E+01-6.57285E-03 3.03162E-05-3.70741E-02 7.59784E-14-8.34096E-14
 -1      1981 1.99353E+01-2.66979E-03 4.81115E-05-1.91906E-02 4.82861E-14-1.24354E-13
 -1      1982 1.99247E+01-3.26586E-03-2.18461E-04-2.16318E-02 1.32914E-13-6.73379E-14
 -1      1983 1.99303E+01-4.95798E-03 2.80251E-05-2.85554E-02 9.27597E-14-4.56713E-14
 -1      1984 1.99514E+01-1.56255E-03 6.01411E-05-1.53328E-02-7.68368E-14-1.81143E-13
 -1      1985 1.99429E+01-2.13572E-03-1.44546E-04-1.69506E-02-2.43317E-14-1.83843E-13
 -1      1986 1.99475E+01-3.33733E-03 1.34350E-05-2.24639E-02 2.12301E-14-9.60071E-14
 -1      1987 1.99657E+01-3.81425E-04 8.98765E-05-1.35639E-02-1.08607E-13-1.88954E-13
 -1      1988 1.99582E+01-9.50485E-04-6.60583E-05-1.42975E-02-9.70520E-14-1.46760E-13
 -1      1989 1.99622E+01-1.66495E-03-1.24546E-05-1.88997E-02-8.48530E-14-1.32788E-13
 -1      1990 1.99799E+01 9.33025E-04 1.39361E-04-1.40675E-02-1.69779E-14-1.35434E-13
 -1      1991 1.99726E+01 3.43588E-04 1.89382E-05-1.38158E-02-7.87665E-14-1.70116E-13
 -1      1992 1.99762E+01 1.31991E-04-4.98126E-05-1.80427E-02-7.92786E-14-1.34473E-13
 -1      1993 1.99961E+01 2.45530E-03 2.11860E-04-1.71438E-02 1.58377E-13-1.15351E-13
 -1      1994 1.99877E+01 1.81676E-03 1.13419E-04-1.57516E-02 4.59472E-14-7.16371E-14
 -1      1995 1.99911E+01 2.14905E-03-9.97972E-05-2.01932E-02 2.93680E-14-8.31397E-14
 -1      1996 2.00167E+01 4.27307E-03 3.11815E-04-2.32345E-02 9.53930E-14-1.45911E-13
 -1      1997 2.00060E+01 3.55374E-03 2.21095E-04-2.04794E-02 1.89720E-13-8.46691E-14
 -1      1998 2.00088E+01 4.50150E-03-1.64401E-04-2.58054E-02 1.55361E-13-4.17767E-14
 -1      1999 2.00445E+01 6.48498E-03 4.44715E-04-3.29431E-02-1.26202E-13-2.04858E-13
 -1      2000 2.00298E+01 5.65166E-03 3.46105E-04-2.85243E-02-7.49473E-14-1.78715E-13
 -1      2001 2.00317E+01 7.32151E-03-2.46297E-04-3.55154E-02-2.48147E-15-5.28625E-14
 -1      2002 2.00828E+01 9.19697E-03 6.16804E-04-4.70492E-02-1.16120E-13-4.34673E-14
 -1      2003 2.00623E+01 8.21700E-03 4.92614E-04-4.05783E-02-1.08477E-13-1.81279E-13
 -1      2004 2.00625E+01 1.07541E-02-3.48653E-04-5.01616E-02-9.48349E-14-1.09271E-13
 -1      2005 2.01356E+01 1.25156E-02 8.34477E-04-6.65135E-02-1.40578E-13-3.82430E-14
 -1      2006 2.01071E+01 1.13603E-02 6.64238E-04-5.75088E-02-9.91988E-14-5.39403E-14
 -1      2007 2.01044E+01 1.49502E-02-4.74898E-04-7.07958E-02-1.31464E-13-4.92095E-14
 -1      2008 2.02078E+01 1.65358E-02 1.10309E-03-9.24644E-02 7.91460E-14 3.61875E-14
 -1      2009 2.01685E+01 1.51863E-02 8.63138E-04-8.03533E-02-2.32920E-14-1.77547E-14
 -1      2010 2.01612E+01 2.00537E-02-6.28389E-04-9.86759E-02-2.53871E-14-1.57112E-13
 -1      2011 2.03050E+01 2.13180E-02 1.42473E-03-1.26154E-01 1.24240E-14-1.04517E-14
 -1      2012 2.02516E+01 1.97758E-02 1.08857E-03-1.10289E-01-3.47305E-14 1.81077E-14
 -1      2013 2.02374E+01 2.61782E-02-8.11968E-04-1.35229E-01 2.35023E-14-5.53943E-14
 -1      2014 2.04335E+01 2.68474E-02 1.79424E-03-1.68856E-01 5.19914E-14 1.48357E-13
 -1      2015 2.03624E+01 2.51530E-02 1.33456E-03-1.48556E-01 2.75236E-14 1.36885E-13
 -1      2016 2.03380E+01 3.33635E-02-1.02738E-03-1.81962E-01-4.68677E-14 1.04748E-13
 -1      2017 2.06005E+01 3.29631E-02 2.19234E-03-2.21675E-01 2.02926E-13 1.46851E-13
 -1      2018 2.05075E+01 3.12277E-02 1.58627E-03-1.96310E-01 2.00300E-13 1.93759E-13
 -1      2019 2.04689E+01 4.14999E-02-1.27452E-03-2.40281E-01 1.71034E-13 2.27613E-13
 -1      2020 2.08133E+01 3.92337E-02 2.57434E-03-2.85176E-01-8.41523E-14-1.03760E-13
 -1      2021 2.06941E+01 3.76947E-02 1.81443E-03-2.54337E-01 2.71285E-14-8.68048E-14
 -1      2022 2.06359E+01 5.01954E-02-1.55055E-03-3.11160E-01 1.79498E-13 1.53159E-13
 -1      2023 2.10787E+01 4.47511E-02 2.85296E-03-3.58758E-01-1.08273E-14-3.03764E-13
 -1      2024 2.09293E+01 4.38631E-02 1.96745E-03-3.22555E-01-2.46990E-14-1.81055E-13
 -1      2025 2.08449E+01 5.85496E-02-1.84857E-03-3.94552E-01-4.24313E-15-7.42571E-14
 -1      2026 2.14017E+01 4.77993E-02 2.87498E-03-4.39565E-01 9.64229E-14-1.46757E-13
 -1      2027 2.12193E+01 4.83779E-02 1.96138E-03-3.99153E-01-2.98507E-14-2.48698E-13
 -1      2028 2.11010E+01 6.47842E-02-2.15553E-03-4.88397E-01 2.97115E-15-2.23805E-13
 -1      2029 2.17828E+01 4.53628E-02 2.39647E-03-5.20744E-01 3.87494E-14-1.53274E-13
 -1      2030 2.15672E+01 4.87908E-02 1.67018E-03-4.79194E-01 1.18409E-13-7.97153E-14
 -1      2031 2.14068E+01 6.56734E-02-2.44721E-03-5.87002E-01 4.05179E-14-1.78154E-13
 -1      2032 2.22144E+01 3.24964E-02 1.07305E-03-5.88782E-01 1.11333E-13-1.73876E-13
 -1      2033 2.19710E+01 4.09685E-02 9.23382E-04-5.52432E-01 6.36823E-14-1.48167E-13
 -1      2034 2.17605E+01 5.57538E-02-2.67622E-03-6.78536E-01 8.66039E-14-8.91715E-14
 -1      2035 2.26758E+01 1.76133E-03-1.49572E-03-6.19869E-01-1.00952E-13-2.61674E-13
 -1      2036 2.24185E+01 1.84403E-02-4.74079E-04-6.00225E-01 5.93619E-14-2.21308E-13
 -1      2037 2.21534E+01 2.64492E-02-2.74412E-03-7.41484E-01 8.59986E-14-8.02466E-14
 -1      2038 2.31258E+01-5.65857E-02-5.59672E-03-5.75888E-01-1.98639E-13-2.58205E-13
 -1      2039 2.28823E+01-2.78755E-02-2.67791E-03-5.91793E-01-2.83299E-13-3.66123E-13
 -1      2040 2.25654E+01-3.43188E-02-2.44538E-03-7.40307E-01-1.67569E-13-1.69609E-13
 -1      2041 2.34952E+01-1.52034E-01-1.10216E-02-4.02387E-01 4.93702E-14-1.85720E-13
 -1      2042 2.33116E+01-1.08397E-01-5.67623E-03-4.81285E-01-5.62874E-14-2.10797E-13
 -1      2043 2.29600E+01-1.40512E-01-1.37675E-03-6.21840E-01-1.34677E-13-2.81302E-13
 -1      2044 2.36810E+01-2.86031E-01-1.64759E-02-3.43830E-02-7.69593E-14-1.27759E-13
 -1      2045 2.36242E+01-2.29693E-01-9.12648E-03-2.09641E-01-3.87260E-14-1.65742E-13
 -1      2046 2.32788E+01-3.01267E-01 1.14756E-03-3.16681E-01-5.89338E-14-2.69037E-13
 -1      2047 2.35492E+01-4.36097E-01-1.91167E-02 5.79193E-01-7.89611E-14 1.62583E-14
 -1      2048 2.37013E+01-3.82043E-01-1.22696E-02 2.80601E-01-7.94746E-14 5.88071E-15
 -1      2049 2.34351E+01-5.04783E-01 5.99705E-03 2.45614E-01-1.54904E-13-1.60602E-13
 -1      2050 2.29553E+01-5.35112E-01-1.51706E-02 1.41953E+00-1.67451E-13 2.32375E-13
 -1      2051 2.33927E+01-5.18978E-01-1.41049E-02 1.00575E+00-1.62675E-13 1.56436E-13
 -1      2052 2.33110E+01-6.91547E-01 1.35816E-02 1.09404E+00-1.38368E-13 2.29942E-13
 -1      2053 2.17988E+01-4.66831E-01-2.46516E-03 2.31522E+00-1.25277E-13 3.19442E-13
 -1      2054 2.25516E+01-5.41199E-01-1.32212E-02 1.87169E+00-7.97574E-14 2.37046E-13
 -1      2055 2.27708E+01-7.34295E-01 2.21613E-02 2.13724E+00-1.68459E-13 4.40094E-13
 -1      2056 2.01201E+01-1.16921E-01 1.35545E-02 2.88657E+00-2.69593E-14 2.47521E-13
 -1      2057 2.11183E+01-3.18600E-01-8.52012E-03 2.60309E+00-1.28101E-13 2.16206E-13
 -1      2058 2.17142E+01-4.61660E-01 2.69107E-02 3.07485E+00-6.92632E-14 2.82952E-13
 -1      2059 1.82210E+01 4.97763E-01 1.85875E-02 2.63684E+00 1.45989E-13 4.10151E-13
 -1      2060 1.92512E+01 2.09034E-01-1.49393E-03 2.75645E+00 1.78542E-13 4.32897E-13
 -1      2061 2.01897E+01 2.16480E-01 1.82949E-02 3.38979E+00 8.39155E-14 4.16771E-13
 -1      2062 1.66864E+01 1.11498E+00 3.26884E-03 1.28081E+00-3.05034E-14 3.37063E-13
 -1      2063 1.74255E+01 8.91254E-01 8.36758E-03 1.93474E+00 2.57121E-14 3.19557E-13
 -1      2064 1.85283E+01 1.12022E+00-8.69210E-03 2.56825E+00 7.16822E-14 7.10283E-13
 -1      2065 1.61632E+01 1.27307E+00-2.93340E-02-8.41250E-01-1.36526E-13 2.44388E-13
 -1      2066 1.63109E+01 1.32188E+00 1.59827E-02 1.67719E-01-1.82410E-13 1.81733E-13
 -1      2067 1.73204E+01 1.76925E+00-3.15919E-02 5.57520E-01-1.08882E-13 2.87960E-13
 -1      2068 1.69601E+01 5.94402E-01-3.89211E-02-2.55930E+00-2.53929E-14 2.60056E-13
 -1      2069 1.64344E+01 1.02761E+00 2.01481E-02-1.81349E+00-1.99563E-14 3.12805E-13
 -1      2070 1.71194E+01 1.51061E+00-3.74089E-02-1.87389E+00-8.46476E-14 4.07552E-13
 -1      2071 1.84101E+01-5.54767E-01 1.82220E-04-2.81141E+00 1.58805E-13 2.32397E-13
 -1      2072 1.74706E+01 2.44423E-01 3.81687E-02-2.88627E+00 2.88363E-14 1.19273E-13
 -1      2073 1.78216E+01 5.68954E-01 6.70514E-03-3.29964E+00 1.13384E-13 2.20275E-13
 -1      2074 1.87646E+01-1.21645E+00 1.54183E-02-3.44915E+00 1.83298E-13 1.85647E-13
 -1      2075 2.32088E+01-3.43970E-02 1.42490E-02-2.32622E+00 3.08149E-13-9.33364E-13
 -1      2076 2.14338E+01-1.46331E-01-7.25652E-02-3.72290E+00 5.57131E-13-7.76074E-13
 -1      2077 2.02129E+01-1.22348E+00 4.66910E-02-4.40151E+00 4.65350E-13-3.46619E-13
 -1      2078 1.94907E+01-6.53280E-01 3.67583E-02-4.50861E+00 4.47465E-13 1.89508E-13
 -1      2079 2.13344E+01 3.37145E+00-1.62690E-01-3.67917E+00 3.45529E-13-5.47784E-13
 -1      2080 1.92458E+01-1.67231E+00 1.95426E-02-4.36519E+00 3.80335E-13 6.43153E-14
 -1      2081 1.89384E+01-8.74548E-01 2.69675E-02-3.80770E+00 3.92138E-13 1.69517E-14
 -1      2082 1.85715E+01 6.04641E-02-8.64694E-03-3.93207E+00 3.14779E-13 1.76643E-13
 -1      2083 1.91745E+01 1.29220E+00-9.71983E-02-4.36753E+00 4.06718E-13 1.54324E-13
 -1      2084 2.85177E+01 1.48247E+00-4.43264E-02 2.74655E+00 1.17240E-13-6.69020E-13
 -1      2085 2.56113E+01 7.03823E-01-1.99692E-01-3.70671E-01 2.77250E-13-1.12321E-12
 -1      2086 2.62959E+01 5.67549E+00-2.50153E-01-7.18166E-01 3.40172E-13-1.09054E-12
 -1      2087 1.22492E+01 1.74069E+01 7.19648E-01 5.93458E+00-6.07819E-13 2.06768E-12
 -1      2088 3.08262E+01 2.71415E-01 1.38136E-01 1.34872E+01-3.05533E-13-3.88911E-13
 -1      2089 3.01399E+01-4.14379E-01-9.62674E-02 8.05003E+00-1.35864E-14-1.45217E-13
 -1      2090 2.13774E+01-4.96390E+00-1.28235E-01 2.95311E+00-1.76359E-13-2.83218E-13
 -1      2091 2.28282E+01-4.94087E+00-8.20549E-02 1.03594E+00-1.67991E-14-3.71758E-13
 -1      2092 1.97272E+01-4.13944E+00 2.71402E-02 4.02691E+00-1.33143E-13 2.64552E-13
 -1      2093 2.04102E+01-5.44449E+00 5.43971E-02 3.89467E+00-6.81399E-14 3.30291E-14
 -1      2094 2.14444E+01 3.92647E-02-1.74102E-01 3.54949E+00-8.44151E-14-4.85723E-14
 -1      2095 1.93476E+01-2.79541E+00 3.09739E-02 3.55434E+00 1.22027E-13 1.87026E-13
 -1      2096 1.96555E+01-4.31222E+00 6.08228E-02 3.89305E+00-4.34652E-14 1.83119E-13
 -1      2097 1.95520E+01-8.68862E-01-5.36748E-02 4.49280E+00-1.09711E-13 4.01321E-13
 -1      2098 2.32428E+01 3.07725E+00-2.25561E-01 2.15037E+01 5.49338E-13-7.19952E-13
 -1      2099 1.94803E+01 1.85762E-01-8.37075E-01 1.97025E+01 7.12985E-13-7.97085E-13
 -1      2100 1.14807E+01 4.97384E+00-1.55546E+00 1.70379E+01 4.60743E-13 6.43485E-13
 -1      2101 4.55714E+01 1.42436E+01 5.94275E-01-1.09154E+01-5.64104E-13-3.10640E-13
 -1      2102 4.60836E+01 1.41324E+01 4.27688E-01-9.10673E+00-4.27436E-13-2.81830E-13
 -1      2103 3.87047E+01 1.26755E+01 6.50840E-01-7.05606E+00-7.21423E-13-2.93099E-13
 -1      2104 2.75514E+01 1.31798E+00-4.61302E-02-1.91925E+01-8.56204E-13-4.24882E-13
 -1      2105 3.22229E+01 5.43521E+00 7.04660E-01-1.88805E+01-9.54237E-13-4.39537E-13
 -1      2106 1.95186E+01 4.01579E+00-2.70336E-02-1.70177E+00-1.77871E-13-2.47085E-13
 -1      2107 1.96470E+01 3.94612E+00-2.46144E-02-1.95329E+00-1.96737E-13-2.05835E-13
 -1      2108 1.99724E+01 3.24706E+00-1.37573E-02-1.91751E+00-2.06460E-13-1.73377E-13
 -1      2109 1.96974E+01 3.58570E+00-7.07475E-03-1.51965E+00-1.77913E-13-2.38188E-13
 -1      2110 3.90153E+01 1.02112E+01 7.93822E-01 1.49817E+01 3.18315E-13 7.01661E-14
 -1      2111 3.49733E+01 7.39793E+00 5.66016E-01 1.61908E+01 5.21361E-13-3.08642E-14
 -1      2112 4.49811E+01 1.35348E+01 6.36860E-01 1.14710E+01 5.46008E-13-1.21791E-13
 -1      2113 4.11534E+01 1.23301E+01 5.29422E-01 1.20189E+01 3.99764E-13 1.67866E-13
 -1      2114 4.99223E+01 1.35647E+01 4.20276E-01 9.15540E+00 7.15983E-13-5.81632E-13
 -1      2115 4.70735E+01 1.43521E+01 3.56192E-01 1.08637E+01 6.54865E-13-3.12972E-13
 -1      2116 4.98671E+01 1.12953E+01 1.57443E-01 5.66353E+00 4.72067E-13-6.89226E-13
 -1      2117 5.02891E+01 1.27727E+01 3.12175E-01 8.13308E+00 6.98996E-13-5.13763E-13
 -1      2118 4.67553E+01 7.70264E+00-6.01238E-03 2.54683E+00 2.20046E-13-7.03992E-13
 -1      2119 5.02704E+01 9.48709E+00 3.21305E-01 4.54839E+00 2.53242E-13-6.27665E-13
 -1      2120 4.06228E+01 3.07511E+00-1.23394E-02 3.74503E-01 4.64725E-13-8.64864E-13
 -1      2121 4.59655E+01 5.45608E+00 3.65281E-01 1.09091E+00 3.43642E-13-8.83071E-13
 -1      2122 3.17592E+01-2.46874E+00-1.74274E-01-3.46702E+00 6.81788E-13-8.57536E-13
 -1      2123 3.70877E+01-6.34791E-01-3.60781E-02-1.77057E+00 6.54088E-13-7.41740E-13
 -1      2124 2.26829E+01-6.53451E+00-2.87737E-01-5.01978E+00 9.30367E-13-5.53557E-13
 -1      2125 2.84394E+01-4.02153E+00 3.60056E-02-5.33810E+00 8.42160E-13-8.21010E-13
 -1      2126 3.15336E+01-5.19429E+00 1.05440E-01-2.12797E+00 6.34104E-13-5.38236E-13
 -1      2127 1.21325E+01-9.42484E+00-4.10088E-01-5.56179E+00 8.47766E-13-6.32272E-13
 -1      2128 1.74155E+01-7.31465E+00-8.00770E-02-6.54506E+00 8.95062E-13-5.41428E-13
 -1      2129 5.18621E+00-1.06238E+01-3.62667E-01-4.65600E+00 3.96183E-13-7.65166E-13
 -1      2130 8.52815E+00-9.33195E+00-2.13289E-01-5.64066E+00 6.74238E-13-7.41782E-13
 -1      2131 1.32423E+01-9.10302E+00-8.35946E-02-6.73254E+00 4.68403E-13-6.81677E-13
 -1      2132-9.65424E-02-1.19345E+01-5.00517E-01-1.62053E+00 3.99375E-13-7.77933E-13
 -1      2133 1.50325E+00-1.05010E+01-3.09518E-01-3.17546E+00 5.15532E-13-6.85230E-13
 -1      2134-3.79379E-01-1.10017E+01-3.57025E-01 1.33191E+00 2.10998E-13-9.25371E-13
 -1      2135-7.46728E-01-1.18730E+01-4.77789E-01-1.25589E-01 3.96128E-13-8.80129E-13
 -1      2136 3.81322E+00-1.04250E+01-3.39397E-01 4.35693E+00-2.97429E-13-4.93661E-13
 -1      2137 1.52210E+00-1.11878E+01-4.04854E-01 3.22044E+00 7.37188E-14-6.89393E-13
 -1      2138 1.11642E+01-8.47688E+00-1.81151E-01 6.19357E+00-6.72462E-13-5.61169E-13
 -1      2139 6.92830E+00-1.05643E+01-5.00009E-01 4.90959E+00-5.17919E-13-5.88446E-13
 -1      2140 2.15957E+01-6.69917E+00-1.52297E-01 6.13373E+00-7.10876E-13-4.91052E-13
 -1      2141 1.57901E+01-8.39963E+00-3.82201E-01 5.72982E+00-7.44627E-13-4.38649E-13
 -1      2142 3.26595E+01-1.78442E+00 1.70417E-01 4.62025E+00-6.36713E-13-6.05072E-13
 -1      2143 2.70902E+01-4.56965E+00-1.14168E-01 4.58915E+00-6.41265E-13-6.16784E-13
 -1      2144 4.13463E+01 2.28905E+00 2.09659E-01 1.67131E+00-4.96339E-13-5.36904E-13
 -1      2145 3.57712E+01 6.85264E-02-1.41870E-01 2.38067E+00-6.76958E-13-4.66960E-13
 -1      2146 4.65452E+01 6.44276E+00 1.28616E-01-2.12839E+00-2.38642E-13-4.20219E-13
 -1      2147 4.31059E+01 4.51373E+00-8.39754E-03 1.25755E-02-4.66377E-13-5.18696E-13
 -1      2148 3.96752E+01 3.10107E+00 2.46517E-01-2.64768E+00-3.97238E-13-2.28872E-13
 -1      2149 5.01990E+01 1.07327E+01 2.54384E-01-5.91044E+00 1.95566E-13-3.11140E-13
 -1      2150 4.72162E+01 9.45827E+00 2.60399E-02-3.85035E+00 1.94733E-13-2.45359E-13
 -1      2151 4.58494E+01 1.39292E+01-7.49336E-03-8.20863E+00 8.06022E-14-3.03674E-13
 -1      2152 4.93350E+01 1.24491E+01 3.28725E-01-6.82711E+00 2.01172E-13-4.33098E-13
 -1      2153 4.16485E+01 1.38192E+01 3.72161E-01-6.11588E+00 2.18270E-13 3.55771E-13
 -1      2154 3.45975E+01 7.38871E+00 5.34908E-01-1.60624E+01-1.15274E-12-5.63438E-13
 -1      2155 3.89302E+01 1.06320E+01 9.58665E-01-1.56324E+01-8.32112E-13-5.05596E-13
 -1      2156 2.72425E+01-4.80363E-01-2.40335E-01 1.79146E+01 1.56097E-13-3.56215E-13
 -1      2157 3.12482E+01 3.26704E+00 3.93986E-01 1.74920E+01 4.09672E-14-1.67255E-13
 -1      2158 3.21897E+01 2.07283E+00 1.28821E-01-1.48886E+01-5.97355E-13-9.08162E-13
 -1      2159 3.64845E+01 8.15790E+00 6.52616E-01-9.81936E+00-8.41049E-13-2.47691E-13
 -1      2160 2.07380E+01 1.10844E+00-2.07464E-02-1.61510E+00-1.94775E-13 1.95524E-13
 -1      2161 2.06284E+01 1.33018E+00-1.86251E-02-1.67684E+00-2.11782E-13 6.08680E-14
 -1      2162 1.86244E+01-3.70376E-01-6.24323E-04 3.11070E+00-3.87919E-14-7.64562E-14
 -1      2163 2.72125E+01-3.66616E+00-3.11438E-01-1.29682E+01 7.73132E-14-1.03939E-12
 -1      2164 2.61424E+01 6.37440E-01-2.44103E-01-1.78668E+01-1.02314E-13-8.88178E-13
 -1      2165 2.49911E+01 8.51291E-01-2.28030E-01-2.08423E+01-7.68385E-13-3.47999E-13
 -1      2166 1.97408E+01 4.13941E+00-5.49808E-01-2.03982E+01-8.25229E-13 6.82343E-13
 -1      2167 6.89099E+00 7.64357E+00-1.68392E+00 2.42424E+00 2.54241E-14 2.00728E-12
 -1      2168 1.06740E+01 6.61241E+00-1.06023E+00 1.14141E+01-2.33813E-13 1.93356E-12
 -1      2169 3.52746E+01 1.32795E+01-9.31834E-02-5.00544E+00-6.05183E-13-8.39329E-14
 -1      2170 4.20113E+01 1.41578E+01 2.68924E-01-7.07962E+00-3.09419E-13-1.19987E-13
 -1      2171 3.60405E+01 1.42416E+01 1.77419E-02-4.72720E+00-1.61426E-13 3.04756E-13
 -1      2172 2.90118E+01 5.07250E+00-2.76304E-01-2.12580E+00-5.16143E-13-3.55826E-13
 -1      2173 2.77878E+01-3.79539E-01-2.72266E-01-2.88832E+00-2.06252E-13-2.07390E-13
 -1      2174 1.50897E+01 2.08053E+00-1.40618E+00-1.96121E+01-5.44897E-13 1.49614E-12
 -1      2175 9.33482E+00 4.35955E+00-1.92600E+00-1.15480E+01-6.75793E-13 2.29106E-12
 -1      2176 1.91790E+01-1.57784E+00-3.21980E-02 3.58546E+00 1.05416E-13 2.10523E-13
 -1      2177 6.44122E+00 3.40365E+00-2.39478E+00-5.90412E+00-2.00839E-13 2.47646E-12
 -1      2178 2.91837E+01-1.34427E+00-1.06631E-01-1.07613E+01-2.88380E-14-8.41271E-13
 -1      2179 4.23619E+01 8.94414E+00 2.65984E-01-4.95739E+00-4.90163E-14-1.00198E-13
 -1      2180 3.48455E+01-2.32476E+00 1.09084E-01 7.74062E-01-5.35350E-13-3.01204E-13
 -1      2181 2.56023E+01-6.51434E+00-1.15482E-02 4.76391E+00-6.35436E-13-3.89910E-13
 -1      2182 2.45486E+01-7.96095E+00 1.81074E-01 5.05702E+00-6.62637E-13-2.93682E-13
 -1      2183 2.88078E+01-6.91146E+00-2.60092E-01 3.07895E+00-4.93022E-13-4.49030E-13
 -1      2184 1.61857E+01-8.83674E+00-9.26541E-03 6.75350E+00-6.00631E-13-4.67897E-13
 -1      2185 7.57443E+00-9.13988E+00-1.82053E-01 6.07742E+00-2.59792E-13-6.57918E-13
 -1      2186 1.81291E+00-8.75385E+00-2.01676E-01 2.97628E+00 3.36592E-13-8.38274E-13
 -1      2187 5.16018E+00-8.87633E+00-1.49563E-01-5.05143E+00 3.71037E-13-6.76237E-13
 -1      2188 2.27949E+01-8.26737E+00-1.07040E-04-5.49100E+00 7.93254E-13-4.26742E-13
 -1      2189 3.79788E+01 4.56928E-01 1.46288E-02 9.77645E-01 4.12715E-13-7.72604E-13
 -1      2190 3.69713E+01 1.42665E+00-2.35749E-01 4.13391E+00 2.92488E-13-4.47697E-13
 -1      2191 3.51744E+01-1.92173E+00 1.07401E-01 1.89639E+00 3.91458E-13-4.89053E-13
 -1      2192 4.17729E+01 7.33690E+00 1.94505E-01 4.71839E+00 3.27849E-13-4.91884E-13
 -1      2193 4.29180E+01 1.25045E+01 3.86117E-01 5.89858E+00 3.60711E-13-4.75842E-13
 -1      2194 4.25451E+01 1.48775E+01 4.79753E-01 6.49323E+00 6.80234E-13-4.05981E-13
 -1      2195 4.03274E+01 1.34845E+01 5.25575E-01 6.88121E+00 5.86586E-13-5.78260E-13
 -1      2196 3.73246E+01 8.39950E+00 6.45084E-01 9.65005E+00 2.91600E-13-1.77636E-15
 -1      2197 6.49459E-01-8.56442E+00-2.18872E-01-1.26750E+00 3.20202E-13-8.91676E-13
 -1      2198 2.01501E+01 5.06560E-01 3.74056E-03 6.76939E-01 1.47479E-13 4.48942E-14
 -1      2199 2.04178E+01 7.00061E-01 2.07871E-02 9.68593E-01 1.70019E-13 6.62725E-14
 -1      2200 1.95584E+01 3.51676E+00-1.10785E-02-5.91026E-01-8.49932E-14-2.64410E-13
 -1      2201 1.95941E+01 3.47085E+00-1.04280E-02-7.75280E-01-1.14171E-13-2.77967E-13
 -1      2202 1.96411E+01 3.38267E+00-1.26722E-02-9.39486E-01-1.34385E-13-2.82380E-13
 -1      2203 1.97028E+01 3.30203E+00-1.24781E-02-1.12881E+00-1.51061E-13-2.60808E-13
 -1      2204 1.97855E+01 3.03412E+00 3.43981E-04-7.91521E-01-1.15312E-13-2.53007E-13
 -1      2205 1.95107E+01 3.59928E+00-9.61335E-03 9.93934E-02 7.91329E-15-2.94348E-13
 -1      2206 1.95101E+01 3.60010E+00-9.61702E-03-7.99895E-02-2.05058E-14-2.82297E-13
 -1      2207 1.95370E+01 3.55985E+00-9.71412E-03 4.45223E-01 4.41761E-14-2.90242E-13
 -1      2208 1.95195E+01 3.58243E+00-1.01340E-02 2.64489E-01 2.93589E-14-3.02182E-13
 -1      2209 1.96768E+01 3.22209E+00-8.98210E-04 1.69463E-01 2.16591E-14-2.76782E-13
 -1      2210 1.95993E+01 3.46324E+00-1.06006E-02 7.89012E-01 8.79507E-14-2.89562E-13
 -1      2211 1.95628E+01 3.51028E+00-1.12069E-02 6.07647E-01 6.62210E-14-2.83017E-13
 -1      2212 1.97139E+01 3.15853E+00-4.93200E-04 4.87667E-01 5.59732E-14-2.69884E-13
 -1      2213 1.97106E+01 3.28940E+00-1.29439E-02 1.14224E+00 1.40797E-13-2.47445E-13
 -1      2214 1.96476E+01 3.37277E+00-1.28747E-02 9.53020E-01 1.10294E-13-2.76784E-13
 -1      2215 1.97914E+01 3.02476E+00 2.65990E-04 8.03171E-01 9.73191E-14-2.57558E-13
 -1      2216 1.98905E+01 3.00374E+00-1.81611E-02 1.48919E+00 1.81971E-13-2.16477E-13
 -1      2217 1.97906E+01 3.14506E+00-1.51786E-02 1.29882E+00 1.56520E-13-2.37248E-13
 -1      2218 1.99213E+01 2.79954E+00 1.96588E-03 1.10931E+00 1.34459E-13-2.30711E-13
 -1      2219 2.01698E+01 2.54406E+00-2.83905E-02 1.79347E+00 2.21341E-13-1.35931E-13
 -1      2220 2.00181E+01 2.78347E+00-1.70982E-02 1.61902E+00 1.93730E-13-1.86438E-13
 -1      2221 2.01167E+01 2.44878E+00 5.84590E-03 1.37496E+00 1.81995E-13-1.87246E-13
 -1      2222 2.04036E+01 8.54691E-01 1.30462E-02-9.99063E-01-1.69448E-13-1.37358E-14
 -1      2223 2.01915E+01 6.26526E-01-4.80347E-03-6.90403E-01-1.51591E-13-2.73258E-14
 -1      2224 1.98734E+01 2.68403E-01 4.73276E-03 2.84265E-01 1.46323E-13-8.24406E-15
 -1      2225 2.00338E+01 3.68140E-01 2.01672E-02 4.41491E-01 1.38814E-13 2.38546E-14
 -1      2226 2.02124E+01 6.34811E-01-2.22944E-03 7.03667E-01 1.68294E-13-3.04123E-14
 -1      2227 2.05487E+01 1.95509E+00-1.37203E-02-1.89721E+00-2.23592E-13-2.95805E-14
 -1      2228 2.04120E+01 1.21485E+00-7.17524E-03-1.28620E+00-1.97163E-13-9.07477E-15
 -1      2229 2.03845E+01 1.37995E+00 7.64747E-03-1.23476E+00-1.94678E-13-6.38894E-14
 -1      2230 2.02899E+01 2.38471E+00-5.07157E-03-1.84178E+00-2.24998E-13-1.03447E-13
 -1      2231 2.01266E+01 4.69703E-01 1.62344E-02-4.74122E-01-1.20935E-13-1.62389E-14
 -1      2232 1.99853E+01 3.44747E-01 3.03310E-05-3.02434E-01-8.62270E-14-2.88541E-14
 -1      2233 2.02451E+01 7.46466E-01-1.87843E-03-6.92763E-01-1.52181E-13-6.02716E-14
 -1      2234 1.99221E+01 2.59704E-01 1.08894E-02-1.64821E-01-7.57002E-14-3.58554E-14
 -1      2235 1.98435E+01 1.88163E-01 7.12367E-04-6.75807E-02-6.81529E-14-3.69768E-14
 -1      2236 2.00816E+01 4.16700E-01-3.63518E-03-3.09044E-01-9.09787E-14-6.21852E-14
 -1      2237 1.97991E+01 1.38644E-01 6.39339E-03 1.44880E-02-5.78068E-14-4.20332E-14
 -1      2238 1.97642E+01 9.62668E-02 7.16290E-04 6.77921E-02-4.67227E-14-3.08588E-14
 -1      2239 1.99610E+01 2.27381E-01-3.61479E-03-7.00771E-02-6.99716E-14-6.59513E-14
 -1      2240 1.97384E+01 6.63152E-02 3.57728E-03 1.13468E-01-4.43230E-14-3.51471E-14
 -1      2241 1.97311E+01 4.07206E-02 6.12656E-04 1.39982E-01-3.13034E-14-5.95593E-14
 -1      2242 1.98854E+01 1.14869E-01-2.91888E-03 7.05947E-02-5.74105E-14-9.03643E-14
 -1      2243 1.97194E+01 2.23988E-02 1.85318E-03 1.62134E-01-2.81921E-14-6.01233E-14
 -1      2244 1.97286E+01 7.06625E-03 4.87017E-04 1.72157E-01-2.24306E-14-4.06638E-14
 -1      2245 1.98457E+01 4.65650E-02-2.11253E-03 1.46649E-01-3.26813E-14-1.20297E-13
 -1      2246 1.97265E+01-3.94056E-03 7.90948E-04 1.79379E-01-3.37111E-14-8.29455E-14
 -1      2247 1.97446E+01-1.27418E-02 3.64942E-04 1.79388E-01-6.11774E-14-1.03382E-13
 -1      2248 1.98315E+01 5.25937E-03-1.42373E-03 1.80961E-01-3.88618E-14-1.80705E-13
 -1      2249 1.97486E+01-1.89929E-02 1.40423E-04 1.77448E-01-1.24510E-13-6.94442E-14
 -1      2250 1.97706E+01-2.35558E-02 2.60159E-04 1.71641E-01-1.73048E-13-9.64891E-14
 -1      2251 1.98337E+01-1.88703E-02-9.00801E-04 1.88935E-01-8.71746E-14-1.31267E-13
 -1      2252 1.97779E+01-2.66798E-02-2.43704E-04 1.64428E-01-1.61680E-13-9.54975E-14
 -1      2253 1.98007E+01-2.84936E-02 1.77682E-04 1.55568E-01-1.13170E-13-6.33496E-14
 -1      2254 1.98458E+01-3.18308E-02-5.27393E-04 1.80985E-01-1.58910E-13-9.74781E-14
 -1      2255 1.98095E+01-2.95766E-02-4.52168E-04 1.45687E-01-6.71450E-14-7.86913E-14
 -1      2256 1.98313E+01-2.96412E-02 1.17061E-04 1.35580E-01-4.91266E-16-9.77084E-14
 -1      2257 1.98628E+01-3.75065E-02-2.71873E-04 1.64141E-01-1.15073E-13-1.20556E-13
 -1      2258 1.98404E+01-2.94247E-02-5.45316E-04 1.24753E-01 5.83016E-15-1.23694E-13
 -1      2259 1.98601E+01-2.84180E-02 7.57287E-05 1.14561E-01 1.23270E-14-7.81829E-14
 -1      2260 1.98816E+01-3.85019E-02-1.04588E-04 1.43110E-01-2.95252E-14-1.31937E-13
 -1      2261 1.98688E+01-2.74075E-02-5.64508E-04 1.03891E-01 3.70278E-14-1.24304E-13
 -1      2262 1.98859E+01-2.57836E-02 5.09991E-05 9.43368E-02 1.36729E-14-1.15606E-13
 -1      2263 1.99003E+01-3.65851E-02-1.71822E-06 1.20977E-01 1.63375E-14-1.49690E-13
 -1      2264 1.98939E+01-2.43159E-02-5.38304E-04 8.45098E-02-1.30054E-14-9.93074E-14
 -1      2265 1.99084E+01-2.23667E-02 4.09404E-05 7.60202E-02-7.64804E-15-1.28231E-13
 -1      2266 1.99178E+01-3.29445E-02 5.48368E-05 9.97135E-02 1.26240E-14-1.65932E-13
 -1      2267 1.99154E+01-2.06541E-02-4.86299E-04 6.74428E-02-3.27206E-14-8.88879E-14
 -1      2268 1.99275E+01-1.85516E-02 4.46349E-05 6.02595E-02 3.91343E-16-5.92796E-14
 -1      2269 1.99335E+01-2.83512E-02 7.83344E-05 8.05316E-02 1.41035E-15-1.13787E-13
 -1      2270 1.99336E+01-1.67130E-02-4.21683E-04 5.31666E-02-3.55147E-14-9.71762E-14
 -1      2271 1.99437E+01-1.45394E-02 6.22244E-05 4.74241E-02-9.68650E-14-1.31907E-13
 -1      2272 1.99472E+01-2.32668E-02 7.81720E-05 6.41546E-02-6.23375E-14-1.19359E-13
 -1      2273 1.99491E+01-1.26230E-02-3.53070E-04 4.19582E-02-7.61152E-14-1.39751E-13
 -1      2274 1.99576E+01-1.03919E-02 9.49006E-05 3.77438E-02-7.57801E-14-1.06347E-13
 -1      2275 1.99592E+01-1.79213E-02 6.07753E-05 5.10156E-02-9.78272E-14-1.07302E-13
 -1      2276 1.99624E+01-8.39140E-03-2.85827E-04 3.40158E-02-1.18961E-13-1.26885E-13
 -1      2277 1.99699E+01-6.06351E-03 1.44861E-04 3.14160E-02-1.21907E-13-1.39953E-13
 -1      2278 1.99699E+01-1.23682E-02 3.02840E-05 4.14082E-02-1.00961E-13-1.97659E-13
 -1      2279 1.99745E+01-3.93003E-03-2.23063E-04 2.95513E-02-3.54308E-14-8.87283E-14
 -1      2280 1.99816E+01-1.42425E-03 2.15246E-04 2.86870E-02 2.66246E-14-5.20854E-14
 -1      2281 1.99797E+01-6.52453E-03-1.08846E-05 3.56016E-02-4.62551E-14-1.05653E-13
 -1      2282 1.99863E+01 9.24655E-04-1.66363E-04 2.88623E-02 2.21840E-14-6.85710E-14
 -1      2283 1.99937E+01 3.72286E-03 3.10042E-04 2.99167E-02 1.06804E-13-1.18244E-13
 -1      2284 1.99895E+01-2.00410E-04-6.15549E-05 3.39294E-02 4.58395E-14-3.86358E-14
 -1      2285 1.99989E+01 6.39606E-03-1.16348E-04 3.23871E-02 1.60038E-13-1.60584E-13
 -1      2286 2.00075E+01 9.62759E-03 4.33909E-04 3.56274E-02 1.91817E-13-1.14711E-13
 -1      2287 2.00000E+01 6.87871E-03-1.21373E-04 3.68575E-02 1.20335E-13-6.60432E-14
 -1      2288 2.00138E+01 1.27538E-02-7.30935E-05 4.07475E-02 1.74251E-13-1.33329E-13
 -1      2289 2.00245E+01 1.65787E-02 5.91881E-04 4.65401E-02 1.21527E-13-5.07907E-14
 -1      2290 2.00120E+01 1.50528E-02-1.90419E-04 4.50358E-02 1.99530E-13-1.17515E-13
 -1      2291 2.00323E+01 2.02985E-02-3.64349E-05 5.47774E-02 8.84239E-14-5.11082E-14
 -1      2292 2.00462E+01 2.48863E-02 7.88855E-04 6.35965E-02 4.18355E-14-5.63633E-14
 -1      2293 2.00268E+01 2.47074E-02-2.68816E-04 5.93340E-02 1.25861E-13-1.01209E-13
 -1      2294 2.00562E+01 2.93414E-02-6.17072E-06 7.55358E-02-1.48832E-14-1.46916E-13
 -1      2295 2.00746E+01 3.48569E-02 1.02875E-03 8.79621E-02-1.74547E-14-1.09147E-13
 -1      2296 2.00456E+01 3.62476E-02-3.56325E-04 8.08593E-02 6.98600E-15-5.16801E-14
 -1      2297 2.00876E+01 4.01726E-02 1.78533E-05 1.04296E-01-2.56907E-14-8.72010E-14
 -1      2298 2.01120E+01 4.67521E-02 1.31315E-03 1.21002E-01-5.86660E-14-2.84919E-14
 -1      2299 2.00697E+01 5.00585E-02-4.51915E-04 1.10950E-01-1.18118E-14-1.97439E-13
 -1      2300 2.01287E+01 5.30102E-02 3.58309E-05 1.42504E-01-5.71728E-14 2.30535E-14
 -1      2301 2.01607E+01 6.07235E-02 1.63924E-03 1.64212E-01-1.45957E-14 7.08859E-14
 -1      2302 2.01008E+01 6.64442E-02-5.53341E-04 1.51136E-01 1.80085E-14-1.49291E-13
 -1      2303 2.01821E+01 6.79180E-02 4.83678E-05 1.91677E-01-9.00345E-14 1.46036E-14
 -1      2304 2.02236E+01 7.67069E-02 1.99665E-03 2.19089E-01-2.89397E-14-1.27146E-13
 -1      2305 2.01406E+01 8.55270E-02-6.56852E-04 2.03042E-01-1.15890E-13 1.83860E-15
 -1      2306 2.02506E+01 8.46736E-02 5.73584E-05 2.53230E-01 3.84431E-15-1.29160E-13
 -1      2307 2.03035E+01 9.42548E-02 2.36279E-03 2.86895E-01-9.53122E-15-1.04646E-13
 -1      2308 2.01912E+01 1.07090E-01-7.57258E-04 2.68219E-01-3.56623E-14-1.20400E-13
 -1      2309 2.03372E+01 1.02561E-01 6.77285E-05 3.28170E-01 8.64976E-16-9.56920E-14
 -1      2310 2.04034E+01 1.12274E-01 2.69622E-03 3.68269E-01 4.98762E-14-4.34337E-14
 -1      2311 2.02545E+01 1.30325E-01-8.48810E-04 3.47852E-01-5.66585E-15-7.38019E-14
 -1      2312 2.04450E+01 1.20050E-01 9.06080E-05 4.16613E-01 6.01737E-14-1.43831E-14
 -1      2313 2.05263E+01 1.28625E-01 2.92743E-03 4.62617E-01 6.36340E-14 8.50213E-14
 -1      2314 2.03327E+01 1.53452E-01-9.27689E-04 4.42303E-01 6.90767E-14-6.34416E-14
 -1      2315 2.05770E+01 1.34310E-01 1.48672E-04 5.17021E-01-1.45642E-14 6.77724E-14
 -1      2316 2.06744E+01 1.39530E-01 2.94711E-03 5.67168E-01 5.26456E-15 1.53933E-13
 -1      2317 2.04280E+01 1.73131E-01-9.97230E-04 5.50401E-01 5.75631E-14-7.66132E-14
 -1      2318 2.07358E+01 1.40512E-01 2.84366E-04 6.25068E-01-7.97664E-14 4.36018E-14
 -1      2319 2.08496E+01 1.38751E-01 2.59256E-03 6.75594E-01-1.51319E-13-4.20706E-14
 -1      2320 2.05429E+01 1.83632E-01-1.07729E-03 6.68400E-01-1.50691E-13-1.37644E-13
 -1      2321 2.09239E+01 1.30898E-01 5.70902E-04 7.31981E-01-4.70052E-14-1.39107E-13
 -1      2322 2.10526E+01 1.16555E-01 1.63565E-03 7.76050E-01 4.66527E-15-1.69907E-13
 -1      2323 2.06801E+01 1.75700E-01-1.21852E-03 7.88474E-01-1.22247E-13-1.43390E-13
 -1      2324 2.11432E+01 9.37107E-02 1.12304E-03 8.22266E-01 2.45337E-14-1.43755E-13
 -1      2325 2.12833E+01 5.87159E-02-2.20382E-04 8.48608E-01-1.03266E-14-4.92969E-14
 -1      2326 2.08438E+01 1.35232E-01-1.51944E-03 8.96660E-01-1.03422E-14-5.00948E-14
 -1      2327 2.13954E+01 1.24301E-02 2.09667E-03 8.70800E-01 3.42455E-14 1.54050E-13
 -1      2328 2.15401E+01-5.37140E-02-3.31922E-03 8.62279E-01 1.46049E-13 2.46157E-13
 -1      2329 2.10403E+01 4.21915E-02-2.13461E-03 9.70182E-01 1.68603E-13 2.05390E-13
 -1      2330 2.16817E+01-1.33538E-01 3.64363E-03 8.39672E-01 8.39333E-14 2.67870E-13
 -1      2331 2.18203E+01-2.42056E-01-7.97464E-03 7.72413E-01 1.65626E-13 2.70933E-13
 -1      2332 2.12800E+01-1.28988E-01-3.24276E-03 9.74287E-01 1.57454E-13 2.21994E-13
 -1      2333 2.20015E+01-3.64166E-01 5.74767E-03 6.76029E-01 2.13428E-13 1.65736E-13
 -1      2334 2.21176E+01-5.21546E-01-1.42459E-02 5.20653E-01 1.80117E-13 1.50915E-13
 -1      2335 2.15776E+01-4.04711E-01-4.91752E-03 8.59235E-01 9.29070E-14 2.59283E-13
 -1      2336 2.23465E+01-6.85677E-01 7.89961E-03 3.14476E-01 2.34127E-13-2.17673E-14
 -1      2337 2.24160E+01-8.82047E-01-2.15039E-02 4.24331E-02 1.73775E-13 1.39297E-13
 -1      2338 2.19499E+01-7.97968E-01-6.78096E-03 5.59597E-01 1.53647E-13 1.11280E-13
 -1      2339 2.26872E+01-1.06479E+00 8.68613E-03-3.09545E-01 8.40560E-15 2.26537E-13
 -1      2340 2.26764E+01-1.25418E+00-2.74580E-02-7.10747E-01-1.01717E-13 2.10077E-13
 -1      2341 2.24033E+01-1.27965E+00-7.55421E-03 1.30135E-03 1.12697E-13-1.24994E-14
 -1      2342 2.29483E+01-1.38829E+00 5.24663E-03-1.22401E+00-1.25079E-13 3.77151E-13
 -1      2343 2.28146E+01-1.46639E+00-2.69585E-02-1.72228E+00-9.71358E-14 4.77760E-13
 -1      2344 2.29063E+01-1.72940E+00-4.11010E-03-8.74728E-01 3.25239E-14 4.12239E-13
 -1      2345 2.29798E+01-1.42748E+00-6.23350E-03-2.34518E+00-1.57185E-13 5.88899E-13
 -1      2346 2.26848E+01-1.23890E+00-1.36028E-02-2.82473E+00-4.88372E-14 6.24043E-13
 -1      2347 2.33385E+01-1.88382E+00 7.28242E-03-2.05033E+00-4.51939E-14 5.21934E-13
 -1      2348 2.25783E+01-8.82168E-01-2.70066E-02-3.37793E+00 8.43826E-14 5.43018E-13
 -1      2349 2.21206E+01-3.02622E-01 1.38159E-02-3.62240E+00 1.28419E-13 4.91616E-13
 -1      2350 2.34584E+01-1.36826E+00 2.46192E-02-3.31328E+00-1.04111E-13 5.88987E-13
 -1      2351 2.16047E+01 4.19552E-01-5.15664E-02-3.78484E+00 5.81596E-14 2.50784E-13
 -1      2352 2.10469E+01 1.31307E+00 3.89092E-02-3.53697E+00-1.62648E-14 3.10716E-13
 -1      2353 2.29751E+01 9.51310E-02 3.40041E-02-4.16552E+00-6.00908E-14 4.36122E-13
 -1      2354 2.02097E+01 2.17436E+00-5.94550E-02-2.99234E+00-1.22116E-13 3.08336E-13
 -1      2355 1.97085E+01 2.98459E+00 4.16364E-02-2.15648E+00-2.81924E-13 2.39789E-13
 -1      2356 2.18057E+01 2.26591E+00 2.58563E-02-3.87440E+00-1.53792E-13 4.52142E-13
 -1      2357 1.88370E+01 3.43181E+00-5.40589E-02-8.03567E-01-3.93834E-13 3.07743E-13
 -1      2358 1.86485E+01 3.50287E+00 8.63712E-03 3.67014E-01-3.64150E-13 2.36804E-13
 -1      2359 2.01501E+01 4.16355E+00 1.59833E-02-2.03252E+00-2.40646E-13 2.61253E-13
 -1      2360 1.83065E+01 3.06468E+00 3.79748E-02 1.85686E+00-4.09886E-13 1.76142E-13
 -1      2361 1.84254E+01 2.05644E+00-3.38239E-02 2.75678E+00-3.15857E-13 1.25896E-13
 -1      2362 1.90731E+01 4.23636E+00-1.80122E-02 9.28087E-01-4.63486E-13 3.78968E-13
 -1      2363 1.97073E+01 1.43463E-01 3.26505E-03 5.87399E-02 1.06895E-13-2.48059E-14
 -1      2364 1.97856E+01 1.98316E-01 1.23811E-02 1.45014E-01 1.29017E-13-1.36096E-14
 -1      2365 1.99966E+01 3.40393E-01-3.57366E-03 3.03282E-01 1.54852E-13-7.60056E-14
 -1      2366 1.96267E+01 7.27013E-02 2.07185E-03-6.74446E-02 6.30538E-14-6.12731E-14
 -1      2367 1.96538E+01 1.04420E-01 6.90691E-03-2.12421E-02 8.94796E-14-2.52922E-14
 -1      2368 1.98513E+01 1.81146E-01-3.85248E-03 6.39719E-02 1.11705E-13-8.28252E-14
 -1      2369 1.96035E+01 3.08435E-02 1.33685E-03-1.33235E-01 5.69609E-14-9.56755E-14
 -1      2370 1.96002E+01 4.97711E-02 3.67851E-03-1.10673E-01 6.12405E-14-8.67645E-14
 -1      2371 1.97705E+01 9.00216E-02-3.17545E-03-7.30121E-02 8.24667E-14-9.57267E-14
 -1      2372 1.96159E+01 5.74566E-03 8.67868E-04-1.61745E-01 9.19822E-14-1.07594E-13
 -1      2373 1.95956E+01 1.70309E-02 1.81298E-03-1.53477E-01 5.79897E-14-9.85837E-14
 -1      2374 1.97366E+01 3.60201E-02-2.28041E-03-1.45455E-01 7.60864E-14-1.11671E-13
 -1      2375 1.96483E+01-8.96222E-03 5.44119E-04-1.67410E-01 1.05977E-13-3.14907E-14
 -1      2376 1.96198E+01-2.47482E-03 7.13305E-04-1.67729E-01 1.14763E-13-5.42315E-14
 -1      2377 1.97334E+01 3.79980E-03-1.50668E-03-1.77261E-01 6.39931E-14-1.08567E-13
 -1      2378 1.96904E+01-1.69958E-02 3.15691E-04-1.59529E-01 5.27421E-14-3.16770E-14
 -1      2379 1.96589E+01-1.36004E-02 5.87807E-05-1.64797E-01 1.00418E-13-1.05240E-14
 -1      2380 1.97488E+01-1.48660E-02-9.26195E-04-1.83862E-01 7.38669E-14-2.47845E-14
 -1      2381 1.97352E+01-2.06950E-02 1.57819E-04-1.44204E-01 1.21526E-13-6.09427E-14
 -1      2382 1.97042E+01-1.92991E-02-3.18813E-04-1.52050E-01 7.68192E-14-4.73547E-14
 -1      2383 1.97741E+01-2.48346E-02-5.18328E-04-1.75416E-01 8.76270E-14-5.73712E-14
 -1      2384 1.97786E+01-2.16075E-02 5.34121E-05-1.25439E-01 9.68984E-14-7.30755E-14
 -1      2385 1.97501E+01-2.14834E-02-5.17663E-04-1.34322E-01 1.11565E-13-4.92332E-14
 -1      2386 1.98036E+01-2.91780E-02-2.43680E-04-1.58662E-01 1.19304E-13-6.19589E-14
 -1      2387 1.98184E+01-2.07798E-02-1.08460E-05-1.05827E-01 6.77732E-14-8.00049E-14
 -1      2388 1.97931E+01-2.14360E-02-6.00594E-04-1.14760E-01 1.10101E-13-6.11693E-14
 -1      2389 1.98337E+01-2.99277E-02-6.68975E-05-1.38057E-01 8.32002E-14-3.11743E-14
 -1      2390 1.98532E+01-1.89186E-02-4.50621E-05-8.69962E-02-2.47415E-14-3.01149E-14
 -1      2391 1.98317E+01-2.00254E-02-6.09762E-04-9.53719E-02 9.31753E-15-4.82877E-14
 -1      2392 1.98620E+01-2.84526E-02 3.95248E-05-1.16502E-01 1.63200E-14 3.18401E-14
 -1      2393 1.98829E+01-1.64891E-02-5.64073E-05-6.99289E-02 1.65733E-14-3.38652E-14
 -1      2394 1.98650E+01-1.78328E-02-5.73812E-04-7.73903E-02 3.37566E-14-9.06898E-15
 -1      2395 1.98875E+01-2.56711E-02 9.59489E-05-9.58311E-02-9.24776E-15-2.94570E-15
 -1      2396 1.99077E+01-1.37796E-02-4.94261E-05-5.51821E-02-1.02251E-14-2.96791E-14
 -1      2397 1.98930E+01-1.52319E-02-5.12085E-04-6.15334E-02-5.58364E-15-4.89715E-16
 -1      2398 1.99096E+01-2.21810E-02 1.17202E-04-7.71590E-02 3.06056E-14 1.33006E-14
 -1      2399 1.99282E+01-1.09449E-02-2.64576E-05-4.30563E-02 5.28367E-14 1.36989E-15
 -1      2400 1.99163E+01-1.24421E-02-4.37356E-04-4.81950E-02 1.66364E-14-9.27735E-15
 -1      2401 1.99285E+01-1.83447E-02 1.13649E-04-6.11344E-02-2.06562E-14 3.53583E-14
 -1      2402 1.99452E+01-8.03844E-03 1.20373E-05-3.37217E-02 8.86171E-14 4.86265E-14
 -1      2403 1.99354E+01-9.56586E-03-3.57639E-04-3.75870E-02 8.63078E-14 5.20136E-14
 -1      2404 1.99446E+01-1.43476E-02 9.21603E-05-4.81273E-02 3.50902E-14 4.70616E-14
 -1      2405 1.99597E+01-5.03533E-03 6.72640E-05-2.73142E-02-4.24182E-14 6.51962E-14
 -1      2406 1.99515E+01-6.61652E-03-2.77520E-04-2.98477E-02 6.37665E-14 1.17073E-13
 -1      2407 1.99583E+01-1.02401E-02 5.70314E-05-3.83715E-02 4.02452E-15 1.75795E-13
 -1      2408 1.99729E+01-1.84868E-03 1.41919E-04-2.40099E-02-8.61088E-14 6.10008E-15
 -1      2409 1.99654E+01-3.53767E-03-1.99156E-04-2.51248E-02-6.19733E-14 4.06598E-14
 -1      2410 1.99704E+01-5.96812E-03 1.05780E-05-3.20731E-02-5.45650E-14 1.42302E-13
 -1      2411 1.99861E+01 1.65895E-03 2.40060E-04-2.40839E-02-6.36987E-14-5.00044E-14
 -1      2412 1.99786E+01-2.17042E-04-1.23018E-04-2.36398E-02-7.93051E-14-4.61215E-14
 -1      2413 1.99820E+01-1.39473E-03-4.63725E-05-2.94946E-02-4.63408E-14 2.03648E-14
 -1      2414 2.00008E+01 5.66727E-03 3.66963E-04-2.79583E-02 7.45634E-14-9.86218E-14
 -1      2415 1.99923E+01 3.50374E-03-4.84545E-05-2.57410E-02-1.54954E-14-1.17881E-13
 -1      2416 1.99940E+01 3.68484E-03-1.14055E-04-3.10215E-02 6.29041E-15-6.47731E-14
 -1      2417 2.00187E+01 1.03915E-02 5.28931E-04-3.62408E-02 1.16195E-13 5.78727E-14
 -1      2418 2.00081E+01 7.82183E-03 2.58594E-05-3.19451E-02 1.35569E-13-1.37520E-14
 -1      2419 2.00076E+01 9.53183E-03-1.93382E-04-3.72155E-02 4.47729E-14-1.10706E-13
 -1      2420 2.00418E+01 1.60752E-02 7.32974E-04-4.97545E-02 3.23479E-14-2.39553E-14
 -1      2421 2.00279E+01 1.29664E-02 1.01539E-04-4.29710E-02 8.62422E-14 1.07180E-13
 -1      2422 2.00243E+01 1.64540E-02-2.85549E-04-4.88559E-02 5.27243E-14 8.33614E-14
 -1      2423 2.00726E+01 2.29796E-02 9.86258E-04-6.95580E-02-1.15095E-13 4.39498E-15
 -1      2424 2.00538E+01 1.91903E-02 1.80140E-04-5.97647E-02-5.28462E-14-1.81063E-14
 -1      2425 2.00457E+01 2.47943E-02-3.91616E-04-6.69696E-02-1.96295E-16-8.72597E-15
 -1      2426 2.01137E+01 3.13666E-02 1.29515E-03-9.69494E-02-1.00188E-13-5.66616E-14
 -1      2427 2.00883E+01 2.67567E-02 2.62796E-04-8.35107E-02-7.69321E-14-2.43588E-14
 -1      2428 2.00737E+01 3.49134E-02-5.11996E-04-9.28468E-02-3.94060E-14-5.19013E-14
 -1      2429 2.01684E+01 4.14682E-02 1.66358E-03-1.33445E-01 7.12812E-14-2.14490E-13
 -1      2430 2.01343E+01 3.59167E-02 3.49829E-04-1.15624E-01-2.34392E-14-1.96119E-13
 -1      2431 2.01104E+01 4.71608E-02-6.45864E-04-1.28033E-01 1.84015E-14-1.38975E-13
 -1      2432 2.02404E+01 5.34337E-02 2.09034E-03-1.80715E-01-5.27506E-14-1.52289E-13
 -1      2433 2.01953E+01 4.68699E-02 4.40323E-04-1.57707E-01 3.52399E-14-1.65855E-13
 -1      2434 2.01584E+01 6.18246E-02-7.90495E-04-1.74288E-01 4.88840E-15-1.89370E-13
 -1      2435 2.03338E+01 6.72379E-02 2.56454E-03-2.40450E-01-8.83451E-14 4.45785E-14
 -1      2436 2.02749E+01 5.96950E-02 5.31699E-04-2.11457E-01-1.28705E-13-9.97378E-15
 -1      2437 2.02204E+01 7.90441E-02-9.40638E-04-2.33483E-01-1.07350E-13-1.59611E-13
 -1      2438 2.04531E+01 8.25244E-02 3.05850E-03-3.14110E-01 1.74090E-13 1.12636E-13
 -1      2439 2.03775E+01 7.42322E-02 6.19423E-04-2.78472E-01 6.40895E-14 3.49728E-14
 -1      2440 2.02994E+01 9.86597E-02-1.08823E-03-3.07414E-01-4.33770E-14-8.18661E-14
 -1      2441 2.06025E+01 9.83421E-02 3.51645E-03-4.02479E-01 1.28090E-13 7.63602E-14
 -1      2442 2.05074E+01 8.98812E-02 6.97159E-04-3.59918E-01 2.62870E-13 1.67165E-13
 -1      2443 2.03986E+01 1.19960E-01-1.22300E-03-3.97458E-01 1.63264E-13-9.40261E-16
 -1      2444 2.07863E+01 1.12712E-01 3.83791E-03-5.04919E-01 2.35158E-14-6.52234E-14
 -1      2445 2.06692E+01 1.05267E-01 7.57979E-04-4.55949E-01 3.30740E-14 5.22092E-14
 -1      2446 2.05210E+01 1.41259E-01-1.33513E-03-5.04004E-01 1.24232E-13 7.45545E-14
 -1      2447 2.10074E+01 1.21943E-01 3.85476E-03-6.18141E-01-3.08109E-14-3.62689E-14
 -1      2448 2.08667E+01 1.17700E-01 7.97717E-04-5.64742E-01-1.92602E-14 5.52052E-15
 -1      2449 2.06695E+01 1.59217E-01-1.42148E-03-6.25518E-01-4.39838E-14 8.70648E-14
 -1      2450 2.12671E+01 1.19617E-01 3.30401E-03-7.34278E-01 9.34991E-14 6.48494E-15
 -1      2451 2.11030E+01 1.22338E-01 8.22129E-04-6.80963E-01 1.02138E-14 4.98210E-15
 -1      2452 2.08466E+01 1.67791E-01-1.49763E-03-7.57081E-01-1.81215E-14 2.03690E-13
 -1      2453 2.15637E+01 9.52552E-02 1.80474E-03-8.38014E-01 6.53539E-14 1.01690E-13
 -1      2454 2.13794E+01 1.11013E-01 8.59662E-04-7.93393E-01 9.93874E-14 8.33505E-14
 -1      2455 2.10547E+01 1.56737E-01-1.61651E-03-8.88155E-01 1.00593E-13 3.63898E-13
 -1      2456 2.18909E+01 3.29569E-02-1.13851E-03-9.02656E-01-6.94464E-15 7.27857E-14
 -1      2457 2.16945E+01 7.08036E-02 9.79356E-04-8.81512E-01 7.34989E-14 1.57096E-13
 -1      2458 2.12961E+01 1.09772E-01-1.88994E-03-9.99377E-01 8.87469E-14 2.27019E-13
 -1      2459 2.22372E+01-8.88695E-02-6.05965E-03-8.85546E-01-1.44376E-13 4.92893E-14
 -1      2460 2.20437E+01-1.70146E-02 1.30263E-03-9.11050E-01-5.61457E-14 7.77193E-14
 -1      2461 2.15743E+01 3.05045E-03-2.49358E-03-1.05830E+00-9.78682E-16 2.51399E-13
 -1      2462 2.25828E+01-2.93941E-01-1.32898E-02-7.24579E-01-9.31694E-14-2.19999E-13
 -1      2463 2.24167E+01-1.75920E-01 1.96888E-03-8.29324E-01-1.40961E-13-9.79802E-14
 -1      2464 2.18948E+01-1.94019E-01-3.60076E-03-1.01455E+00-4.01041E-14 2.13912E-13
 -1      2465 2.28971E+01-5.95275E-01-2.24295E-02-3.40481E-01-7.58820E-14-1.32107E-13
 -1      2466 2.27943E+01-4.27018E-01 2.98005E-03-5.63235E-01-4.06966E-15-7.43529E-14
 -1      2467 2.22654E+01-5.11033E-01-5.13224E-03-7.96263E-01-5.11184E-14 1.22336E-13
 -1      2468 2.31298E+01-9.65612E-01-3.14638E-02 3.45595E-01-3.31461E-13 1.04501E-13
 -1      2469 2.31389E+01-7.69119E-01 3.75101E-03-2.69163E-02-3.41553E-13-4.38044E-14
 -1      2470 2.26905E+01-9.53716E-01-6.21914E-03-3.12865E-01-2.67869E-13 1.59842E-13
 -1      2471 2.31977E+01-1.28846E+00-3.55407E-02 1.36399E+00-2.80392E-13 4.02791E-13
 -1      2472 2.33758E+01-1.13922E+00 2.24950E-03 8.47123E-01-2.15197E-13 2.27401E-13
 -1      2473 2.31502E+01-1.45656E+00-4.61200E-03 5.24726E-01-3.93588E-13 2.79265E-13
 -1      2474 2.29700E+01-1.31854E+00-2.71881E-02 2.60116E+00-3.71335E-14 2.92403E-13
 -1      2475 2.33656E+01-1.35951E+00-5.40949E-03 2.03143E+00-1.49158E-13 2.95109E-13
 -1      2476 2.35559E+01-1.81270E+00 2.92484E-03 1.74458E+00-1.54381E-13 2.72900E-13
 -1      2477 2.22953E+01-7.37876E-01 8.46032E-05 3.68901E+00 1.25854E-14 1.62943E-13
 -1      2478 2.29122E+01-1.13174E+00-2.03775E-02 3.28194E+00-5.57757E-15 2.75384E-13
 -1      2479 2.37003E+01-1.65688E+00 1.51933E-02 3.18740E+00-3.14310E-14 8.67013E-14
 -1      2480 2.11086E+01 5.95336E-01 3.55255E-02 3.98080E+00 3.79185E-14 1.58863E-13
 -1      2481 2.18518E+01-1.70257E-01-3.82041E-02 4.04764E+00-8.61737E-14 4.59736E-14
 -1      2482 2.32871E+01-5.82474E-01 2.93245E-02 4.36836E+00-5.50124E-15 2.81572E-14
 -1      2483 1.96097E+01 2.27332E+00 4.81149E-02 2.86250E+00 5.41962E-14 3.29928E-13
 -1      2484 2.02805E+01 1.43266E+00-5.14423E-02 3.61298E+00 6.18030E-14 3.83043E-13
 -1      2485 2.21406E+01 1.42105E+00 2.21797E-02 4.49485E+00-3.21080E-14 3.01825E-14
 -1      2486 1.83795E+01 3.23914E+00 2.48978E-02 3.61093E-01-1.05482E-13 3.28005E-13
 -1      2487 1.87290E+01 2.90893E+00-3.11701E-02 1.61072E+00 4.75280E-14 4.60836E-13
 -1      2488 2.05134E+01 3.53514E+00-7.35996E-03 2.85418E+00-2.40294E-14 1.84551E-13
 -1      2489 1.79499E+01 2.41855E+00-4.95552E-02-2.45631E+00-3.35114E-14 4.15796E-13
 -1      2490 1.78569E+01 3.09873E+00 3.13953E-03-1.33520E+00-1.54345E-13 3.26343E-13
 -1      2491 1.91406E+01 4.33381E+00-4.25317E-03-2.33126E-01-5.22620E-14 3.44579E-13
 -1      2492 1.82038E+01 1.09365E+00 4.77184E-02-3.62904E+00 2.56268E-13 3.48149E-13
 -1      2493 3.27503E+01 5.71213E+00-1.54615E-02 6.71575E+00 1.16407E-13-3.59601E-13
 -1      2494 2.32812E+01 6.99231E+00 2.94147E-02-1.85741E+00 2.39614E-13-8.55108E-13
 -1      2495 2.07044E+01 5.54710E+00-1.16163E-01-2.91834E+00 2.65885E-13-2.68958E-13
 -1      2496 1.91697E+01 1.89757E+00-3.20370E-02 3.77242E+00-2.06217E-13 2.43056E-13
 -1      2497 2.00483E+01 2.22358E+00 3.75860E-02 3.70776E+00-1.93168E-13 3.91697E-13
 -1      2498 1.87828E+01 2.53572E-01 6.58289E-02 3.66825E+00-6.03857E-15 1.61636E-13
 -1      2499 2.13879E+01 3.49991E+00-2.03598E-01 2.99031E+00-5.74818E-14 2.68327E-13
 -1      2500 2.45250E+01 4.29916E+00 3.26305E-02 1.90669E+00-2.29955E-13 1.06165E-13
 -1      2501 2.97214E+01 8.68412E+00-1.69582E-01-1.92808E+00-4.84945E-13-1.32061E-13
 -1      2502 2.15267E+01 5.88258E+00-1.59490E-01 2.41786E+00-9.51739E-14 2.06529E-13
 -1      2503 3.70308E+01 9.86667E+00-3.02390E-01-6.05346E+00-1.03584E-13 3.70814E-14
 -1      2504 3.69374E+01 6.96636E+00-1.89499E-01-5.45446E+00-3.22631E-13-1.92846E-13
 -1      2505 3.48666E+01-2.20243E+00-1.89924E-01-1.39078E+00-4.57837E-13-1.27676E-14
 -1      2506 3.24016E+01-4.32682E+00-4.83153E-03 2.83915E-01-4.56871E-13-2.38420E-13
 -1      2507 1.95174E+01 3.58547E+00-1.00816E-02-2.45100E-01-3.57066E-14-2.78067E-13
 -1      2508 1.95336E+01 3.56478E+00-9.64538E-03-4.25721E-01-6.85362E-14-2.72133E-13
 -1      2509 1.97099E+01 3.16430E+00-5.52189E-04-4.72984E-01-7.07544E-14-2.45712E-13
 -1      2510 1.96754E+01 3.22421E+00-9.08305E-04-1.51885E-01-3.21926E-14-2.58003E-13
 -1      2511 3.61411E+01 1.36152E+01-2.69170E-01 4.78922E+00 3.82527E-13-8.24629E-13
 -1      2512 3.61225E+01 1.35604E+01-2.29411E-01 4.60681E+00 5.29798E-13-8.56037E-13
 -1      2513 3.68575E+01 1.07457E+01-2.35715E-01 5.74972E+00 2.80886E-13-5.22360E-13
 -1      2514 3.65927E+01 1.24723E+01-2.54417E-01 5.47237E+00 3.26683E-13-5.64923E-13
 -1      2515 3.69092E+01 5.45153E+00-2.15770E-01 5.35662E+00 3.01287E-13-4.24161E-13
 -1      2516 3.78840E+01 8.20130E+00-2.01637E-01 5.83570E+00 2.80942E-13-4.36789E-13
 -1      2517 2.96632E+01-6.73546E+00 7.08492E-03-1.82234E+00 6.46622E-13-4.22190E-13
 -1      2518 3.24488E+01-5.17102E+00-1.17814E-01-4.60633E-01 5.23470E-13-4.57662E-13
 -1      2519 2.11800E+01-8.68732E+00 6.14759E-02-5.58734E+00 6.54754E-13-2.94573E-13
 -1      2520 2.59714E+01-8.08371E+00-6.03464E-02-4.31022E+00 7.38992E-13-1.91930E-13
 -1      2521 1.27661E+01-8.19371E+00 9.54927E-02-6.63841E+00 3.73590E-13-7.85566E-13
 -1      2522 1.64660E+01-8.51830E+00 7.14894E-04-6.92403E+00 4.77729E-13-5.09065E-13
 -1      2523 5.01499E+00-6.68378E+00 1.20526E-01-4.35917E+00 5.04569E-13-5.28577E-13
 -1      2524 8.54068E+00-7.12903E+00 7.60364E-02-6.20711E+00 5.10758E-13-7.89091E-13
 -1      2525 4.30461E+00-6.60457E+00 5.21152E-02 4.44703E+00 3.16358E-13-1.00125E-12
 -1      2526 2.44113E+00-6.27352E+00 1.01136E-01 2.03090E+00 3.96475E-13-8.80740E-13
 -1      2527 1.15152E+01-7.54839E+00 7.96164E-02 6.92516E+00-1.77580E-13-5.97855E-13
 -1      2528 8.19629E+00-7.06394E+00 1.34468E-01 5.93148E+00 1.14797E-13-7.50788E-13
 -1      2529 1.93783E+01-8.29941E+00 1.85294E-02 6.43914E+00-4.22551E-13-3.68129E-13
 -1      2530 1.50248E+01-8.34713E+00 6.04179E-02 6.73480E+00-3.30846E-13-3.94920E-13
 -1      2531 1.51635E+01-7.06966E+00 1.76873E-01 6.64786E+00-6.89171E-14-5.86420E-13
 -1      2532 3.69634E+01 3.40064E+00-2.40943E-01-4.56381E+00-4.44172E-13-2.61624E-13
 -1      2533 3.57589E+01 9.97548E-01-1.20722E-01-3.60499E+00-4.92509E-13-1.95011E-13
 -1      2534 3.41262E+01 1.30414E+01-4.50021E-01-5.09519E+00 1.76914E-13 1.85484E-13
 -1      2535 3.55841E+01 1.21535E+01-2.14772E-01-5.63325E+00 1.95177E-13 7.77711E-14
 -1      2536 1.78613E+00-6.25070E+00 7.69612E-02-2.91405E-01 3.21009E-13-1.10251E-12
 -1      2537 2.46426E+00-6.37386E+00 6.13889E-02-2.46374E+00 4.54220E-13-9.09328E-13
 -1      2538 2.04923E+01 8.74980E-01-7.30759E-03 1.22588E+00 1.91928E-13 7.99363E-14
 -1      2539 2.08426E+01 1.25695E+00-6.04944E-03 1.72661E+00 2.14578E-13 1.07629E-13
 -1      2540 2.06483E+01 1.71566E+00-1.57912E-02 1.92068E+00 2.33344E-13 4.48842E-14
 -1      2541 2.04506E+01 1.05810E+00-9.39583E-03 1.24048E+00 2.00479E-13 6.41826E-15
 -1      2542 2.70499E+01-3.95191E+00-3.34559E-01-5.13740E+00-1.80630E-13-3.32068E-13
 -1      2543 3.13429E+01 1.24406E+01 8.23279E-02 2.09229E+00 3.24851E-13-1.15261E-12
 -1      2544 3.50675E+01 1.26099E+01-1.70093E-01 4.12216E+00 5.10758E-13-9.45077E-13
 -1      2545 1.99132E+01 2.81437E+00 2.09446E-03-1.09791E+00-1.53189E-13-2.35722E-13
 -1      2546 1.97798E+01 3.15986E+00-1.54660E-02-1.28484E+00-1.59395E-13-2.34752E-13
 -1      2547 1.98762E+01 3.03933E+00-1.70405E-02-1.48167E+00-1.88891E-13-2.17246E-13
 -1      2548 2.04236E+01 2.11586E+00-1.27812E-02 1.87363E+00 2.19441E-13-3.99975E-14
 -1      2549 2.04375E+01 1.80821E+00 1.25420E-02 1.56129E+00 2.06470E-13-6.48240E-14
 -1      2550 2.01143E+01 2.61993E+00-1.19278E-02-1.67760E+00-2.06796E-13-1.61210E-13
 -1      2551 3.57228E+01 3.02875E+00-1.25420E-01 5.42161E+00 2.77472E-13-3.15858E-13
 -1      2552 3.30193E+01 4.45733E+00-1.79982E-01 6.49546E+00 2.25209E-13-9.43412E-14
 -1      2553 3.35416E+01 9.77157E-01-3.98131E-02 5.22532E+00 2.61541E-13-2.53075E-13
 -1      2554 1.86854E+01 2.57526E+00-1.43512E-02-3.32165E+00 2.29825E-13 3.08574E-13
 -1      2555 1.89402E+01 1.53838E+00-1.53230E-02 3.53219E+00-2.32635E-13 2.74229E-13
 -1      2556 1.91505E+01 4.21656E+00 1.69946E-02 2.76867E+00-3.45224E-13 2.38795E-13
 -1      2557 2.84959E+01 1.23451E+01-4.32618E-01-2.25995E+00-1.92346E-13 1.27148E-13
 -1      2558 3.26680E+01 1.32105E+01-7.76980E-02-4.01910E+00-6.81122E-14 2.80744E-13
 -1      2559 2.85391E+01 1.23127E+01-3.57672E-02-3.42915E+00-8.65974E-15 6.46063E-14
 -1      2560 3.41668E+01 5.34740E+00-3.86682E-02-6.07929E+00-4.62907E-13-3.94934E-13
 -1      2561 3.08391E+01 9.07034E+00 1.56963E-01 1.47742E+00 1.74083E-13-1.18661E-12
 -1      2562 2.59731E+01 7.65155E+00-3.29045E-01-7.27354E-01 1.63036E-13-9.95676E-13
 -1      2563 1.93373E+01 3.70089E+00 5.85052E-02-3.05913E+00 2.85612E-13 2.02581E-13
 -1      2564 3.23156E+01 1.06394E+01-6.81582E-02-5.63274E+00-1.02918E-13-2.50355E-14
 -1      2565 2.01894E+01 6.04313E+00-1.51532E-01-1.78851E+00 8.32216E-14 1.10051E-14
 -1      2566 3.39979E+01-9.99966E-01-3.43530E-02-3.58681E+00-4.64150E-13-1.51296E-13
 -1      2567 3.06510E+01-6.01032E+00 4.75771E-02 1.05159E+00-4.23717E-13-1.32450E-13
 -1      2568 2.23833E+01-8.34913E+00 8.69099E-02 5.45306E+00-4.41286E-13-2.58082E-13
 -1      2569 2.09781E+01-7.81170E+00 1.72148E-01 5.72047E+00-1.54654E-13-2.15758E-13
 -1      2570 2.47723E+01-8.35744E+00-1.64748E-01 4.11823E+00-3.58408E-13 5.90829E-14
 -1      2571 8.13077E+00-5.48943E+00 1.71418E-01 5.29353E+00 3.11640E-13-9.89292E-13
 -1      2572 5.64358E+00-5.08361E+00 1.77151E-01-3.61430E+00 4.74551E-13-7.71716E-13
 -1      2573 1.19554E+01-6.83133E+00 1.45789E-01-6.34993E+00 4.68736E-13-6.84952E-13
 -1      2574 3.32544E+01-3.82453E+00-4.58746E-02 2.11464E+00 4.50640E-13-3.94434E-13
 -1      2575 2.04674E+01-8.32587E+00 1.22879E-01-5.83328E+00 4.43756E-13-3.16386E-13
 -1      2576 2.80821E+01-7.70226E+00 7.14607E-02-2.32721E+00 6.18894E-13-2.04572E-13
 -1      2577 3.36291E+01 9.34928E+00-9.87273E-02 6.04805E+00 2.14884E-13-5.80369E-13
 -1      2578 3.23578E+01 1.28787E+01-1.40304E-02 4.32847E+00 3.06866E-13-7.89750E-13
 -1      2579 3.33720E+01 1.05531E+01-2.31584E-01 3.87196E+00 3.94740E-13-8.94396E-13
 -1      2580 3.34491E+01 8.71696E+00-1.65854E-01 4.35967E+00 3.24962E-13-7.56561E-13
 -1      2581 3.80998E+00-4.73958E+00 1.69413E-01 1.03071E+00 4.73808E-13-9.66782E-13
 -1      2582 2.54983E+01 9.45391E+00-3.03966E-01-2.26486E-01 1.59039E-13-9.60121E-13
 -1      2583 1.98434E+01 2.76571E+00-6.29134E-03 5.15711E-01 6.25840E-14-2.40751E-13
 -1      2584 1.98184E+01 2.81550E+00-5.70030E-03 3.64995E-01 3.74717E-14-2.50464E-13
 -1      2585 1.98014E+01 2.85300E+00-5.61786E-03 2.29665E-01 2.46500E-14-2.64135E-13
 -1      2586 1.97928E+01 2.86991E+00-5.43085E-03 7.51609E-02 1.21305E-15-2.55473E-13
 -1      2587 1.99477E+01 2.50176E+00 3.63230E-03 2.64939E-01 2.10976E-14-2.37127E-13
 -1      2588 2.00432E+01 2.32446E+00-1.07103E-02 1.04507E+00 1.42150E-13-2.15487E-13
 -1      2589 1.99787E+01 2.47346E+00-6.31264E-03 9.09590E-01 1.25193E-13-2.11207E-13
 -1      2590 2.02171E+01 1.90881E+00-1.19616E-02 1.22627E+00 1.88996E-13-1.65346E-13
 -1      2591 2.01242E+01 2.14670E+00-4.82855E-03 1.13300E+00 1.60433E-13-1.87915E-13
 -1      2592 2.01889E+01 1.88699E+00 6.35128E-03 9.25515E-01 1.45083E-13-1.75308E-13
 -1      2593 2.01813E+01 2.27426E+00 1.57328E-04-1.42400E+00-1.92624E-13-1.57605E-13
 -1      2594 2.03224E+01 1.06014E+00 6.04715E-03-8.55980E-01-1.55087E-13-8.58993E-14
 -1      2595 2.02283E+01 8.15689E-01-5.44450E-03-6.12527E-01-1.25373E-13-8.44548E-14
 -1      2596 2.02140E+01 7.27067E-01-3.48811E-03 6.41646E-01 1.70706E-13-8.99014E-14
 -1      2597 2.03559E+01 9.51886E-01 9.16311E-03 9.05435E-01 1.70787E-13-6.96828E-14
 -1      2598 3.03623E+01 1.01453E+01-2.92865E-01-2.23004E+00-4.43368E-13-9.93927E-14
 -1      2599 2.73726E+01 1.04468E+01-3.34206E-01-6.54448E-01-1.77469E-13 2.92627E-13
 -1      2600 2.78982E+01 1.05760E+01-3.19142E-01-4.89248E+00-1.29979E-13-1.96461E-13
 -1      2601 2.97743E+01 8.74343E+00-1.78446E-01-5.94216E+00-3.12528E-13-1.84103E-13
 -1      2602 2.02175E+01 6.28214E-01 8.71069E-03-4.35523E-01-1.03816E-13-9.44266E-14
 -1      2603 2.01331E+01 4.75724E-01-3.28921E-03-2.77006E-01-8.35775E-14-1.13435E-13
 -1      2604 2.02631E+01 8.94398E-01 1.41056E-03-5.71529E-01-1.28589E-13-1.18712E-13
 -1      2605 2.01071E+01 3.62918E-01 6.68145E-03-1.57184E-01-8.60877E-14-1.05955E-13
 -1      2606 2.00479E+01 2.68129E-01-1.75414E-03-5.94513E-02-8.91929E-14-1.17708E-13
 -1      2607 2.01956E+01 5.29387E-01-1.48816E-03-2.60513E-01-1.04593E-13-1.29978E-13
 -1      2608 2.00218E+01 1.97846E-01 4.53384E-03 1.59138E-02-7.19038E-14-1.31446E-13
 -1      2609 1.99860E+01 1.38260E-01-8.33647E-04 7.25341E-02-4.41406E-14-1.39431E-13
 -1      2610 2.01267E+01 2.99087E-01-2.04565E-03-5.39696E-02-8.97654E-14-1.41364E-13
 -1      2611 1.99650E+01 9.40836E-02 2.89924E-03 1.15926E-01-4.07943E-14-1.47423E-13
 -1      2612 1.99469E+01 5.67536E-02-2.98606E-04 1.45381E-01-4.22386E-14-1.75760E-13
 -1      2613 2.00701E+01 1.52783E-01-1.88684E-03 7.33972E-02-6.10986E-14-1.74058E-13
 -1      2614 1.99319E+01 2.92337E-02 1.73439E-03 1.66851E-01-4.47767E-14-2.00506E-13
 -1      2615 1.99259E+01 6.39069E-03-4.14505E-06 1.78721E-01-5.93096E-14-2.14599E-13
 -1      2616 2.00288E+01 6.02907E-02-1.51456E-03 1.44408E-01-5.71362E-14-2.19459E-13
 -1      2617 1.99160E+01-1.01876E-02 9.30596E-04 1.85740E-01-4.81841E-14-2.09901E-13
 -1      2618 1.99178E+01-2.34291E-02 1.48829E-04 1.86578E-01-8.53612E-14-1.64659E-13
 -1      2619 2.00013E+01 3.08235E-03-1.13179E-03 1.77082E-01-5.58217E-14-2.44768E-13
 -1      2620 1.99119E+01-3.27185E-02 3.93140E-04 1.84524E-01-1.23417E-13-1.40183E-13
 -1      2621 1.99181E+01-3.95733E-02 2.20576E-04 1.78807E-01-1.49968E-13-1.39963E-13
 -1      2622 1.99844E+01-3.06310E-02-8.08814E-04 1.84759E-01-8.78729E-14-2.00747E-13
 -1      2623 1.99150E+01-4.40172E-02 4.86383E-05 1.71468E-01-1.54989E-13-7.51883E-14
 -1      2624 1.99235E+01-4.66703E-02 2.46383E-04 1.62235E-01-9.36995E-14-1.09398E-13
 -1      2625 1.99753E+01-4.86376E-02-5.57430E-04 1.77022E-01-1.00522E-13-1.16664E-13
 -1      2626 1.99224E+01-4.79445E-02-1.59351E-04 1.52217E-01-6.85283E-14-8.51319E-14
 -1      2627 1.99317E+01-4.79001E-02 2.47132E-04 1.41501E-01-4.08068E-14-1.29050E-13
 -1      2628 1.99715E+01-5.62457E-02-3.70740E-04 1.60590E-01-7.80394E-14-6.92111E-14
 -1      2629 1.99317E+01-4.71607E-02-2.73234E-04 1.30554E-01-2.80551E-14-1.22261E-13
 -1      2630 1.99409E+01-4.54500E-02 2.35678E-04 1.19681E-01 8.70648E-17-1.48622E-13
 -1      2631 1.99711E+01-5.71192E-02-2.37269E-04 1.40063E-01-4.60313E-14-7.76234E-14
 -1      2632 1.99417E+01-4.34845E-02-3.24332E-04 1.08945E-01 4.56338E-14-1.69960E-13
 -1      2633 1.99503E+01-4.07971E-02 2.20475E-04 9.87570E-02 5.19982E-14-1.32168E-13
 -1      2634 1.99729E+01-5.37769E-02-1.45570E-04 1.18510E-01 2.21441E-14-7.67924E-14
 -1      2635 1.99515E+01-3.81231E-02-3.35528E-04 8.89512E-02 9.90031E-15-1.30992E-13
 -1      2636 1.99592E+01-3.48965E-02 2.07439E-04 7.99650E-02-2.00528E-14-1.02421E-13
 -1      2637 1.99759E+01-4.79115E-02-8.58475E-05 9.79192E-02 3.60545E-14-1.24348E-13
 -1      2638 1.99608E+01-3.18303E-02-3.23348E-04 7.15319E-02-7.42257E-14-5.26205E-14
 -1      2639 1.99676E+01-2.83130E-02 2.00986E-04 6.40600E-02-1.10159E-13-1.02987E-13
 -1      2640 1.99795E+01-4.06056E-02-5.03872E-05 7.95470E-02-6.64155E-14-9.61934E-14
 -1      2641 1.99693E+01-2.50194E-02-2.99600E-04 5.72739E-02-1.34674E-13-9.97883E-14
 -1      2642 1.99753E+01-2.13175E-02 2.04728E-04 5.15148E-02-1.41529E-13-1.47394E-13
 -1      2643 1.99836E+01-3.24847E-02-3.32374E-05 6.41778E-02-1.24746E-13-1.04696E-13
 -1      2644 1.99771E+01-1.78454E-02-2.72701E-04 4.65650E-02-9.88375E-14-1.15347E-13
 -1      2645 1.99827E+01-1.39556E-02 2.21895E-04 4.26722E-02-9.63758E-14-1.42308E-13
 -1      2646 1.99878E+01-2.38293E-02-2.99248E-05 5.23249E-02-1.37391E-13-8.86726E-14
 -1      2647 1.99846E+01-1.02650E-02-2.48662E-04 3.97264E-02-3.14025E-14-6.29642E-14
 -1      2648 1.99900E+01-6.09898E-03 2.55585E-04 3.78611E-02 3.37406E-14 5.57934E-15
 -1      2649 1.99923E+01-1.46551E-02-3.71632E-05 4.43829E-02-2.21875E-14-4.62318E-14
 -1      2650 1.99920E+01-2.07998E-03-2.31845E-04 3.71141E-02 3.92770E-15-3.81749E-14
 -1      2651 1.99976E+01 2.51697E-03 3.08897E-04 3.74856E-02 2.13327E-14-9.46209E-14
 -1      2652 1.99970E+01-4.77321E-03-5.25253E-05 4.07445E-02-1.52108E-14-4.01605E-14
 -1      2653 1.99999E+01 7.02858E-03-2.25520E-04 3.91968E-02 1.07966E-13-9.84194E-14
 -1      2654 2.00061E+01 1.22632E-02 3.84954E-04 4.20935E-02 1.81768E-13-9.52529E-14
 -1      2655 2.00022E+01 6.16493E-03-7.41402E-05 4.18902E-02 5.72976E-14-1.36179E-13
 -1      2656 2.00088E+01 1.74730E-02-2.32270E-04 4.66147E-02 1.65133E-13-1.53736E-13
 -1      2657 2.00162E+01 2.35902E-02 4.86787E-04 5.24266E-02 1.51462E-13-2.46249E-13
 -1      2658 2.00082E+01 1.86309E-02-1.00413E-04 4.84555E-02 1.26602E-13-2.30815E-13
 -1      2659 2.00194E+01 2.97316E-02-2.54217E-04 6.02213E-02 1.81040E-13-2.52131E-13
 -1      2660 2.00286E+01 3.69991E-02 6.17067E-04 6.94532E-02 1.26542E-13-1.87702E-13
 -1      2661 2.00151E+01 3.31851E-02-1.29761E-04 6.12792E-02 1.37858E-13-3.34204E-13
 -1      2662 2.00324E+01 4.43159E-02-2.93079E-04 8.11060E-02-4.62748E-15-1.77917E-13
 -1      2663 2.00441E+01 5.30022E-02 7.77600E-04 9.43809E-02-9.39360E-14-2.17327E-13
 -1      2664 2.00234E+01 5.04368E-02-1.60364E-04 8.14317E-02 2.50815E-14-2.52606E-13
 -1      2665 2.00487E+01 6.17240E-02-3.50003E-04 1.10595E-01-5.87902E-14-2.21819E-13
 -1      2666 2.00637E+01 7.20659E-02 9.68566E-04 1.28641E-01-9.61132E-15-2.25528E-13
 -1      2667 2.00335E+01 7.09908E-02-1.89969E-04 1.10221E-01-7.47509E-14-2.46540E-13
 -1      2668 2.00692E+01 8.23689E-02-4.25099E-04 1.50217E-01 3.17833E-14-2.15939E-13
 -1      2669 2.00883E+01 9.45201E-02 1.18741E-03 1.73836E-01 5.96467E-14-1.60743E-13
 -1      2670 2.00456E+01 9.53667E-02-2.15803E-04 1.49166E-01 2.69683E-14-2.07314E-13
 -1      2671 2.00949E+01 1.06467E-01-5.16514E-04 2.01628E-01-1.49508E-14-5.28025E-14
 -1      2672 2.01190E+01 1.20417E-01 1.42731E-03 2.31625E-01-5.00144E-14-2.13164E-14
 -1      2673 2.00602E+01 1.23874E-01-2.34755E-04 1.99930E-01 6.92649E-14-1.07217E-13
 -1      2674 2.01270E+01 1.33862E-01-6.18801E-04 2.66463E-01-8.07334E-14-4.42680E-14
 -1      2675 2.01571E+01 1.49314E-01 1.67525E-03 3.03538E-01-6.70879E-14-6.51638E-14
 -1      2676 2.00777E+01 1.56419E-01-2.44098E-04 2.64194E-01-8.77790E-14 5.94234E-14
 -1      2677 2.01666E+01 1.63757E-01-7.20181E-04 3.46096E-01-2.32146E-14-7.36150E-14
 -1      2678 2.02038E+01 1.79935E-01 1.90964E-03 3.90654E-01 1.33622E-14-4.74479E-14
 -1      2679 2.00985E+01 1.92211E-01-2.43249E-04 3.43441E-01-7.03718E-14-8.88435E-15
 -1      2680 2.02152E+01 1.94302E-01-7.98124E-04 4.41256E-01 8.72465E-14-3.44271E-14
 -1      2681 2.02603E+01 2.09666E-01 2.09764E-03 4.93133E-01 1.20746E-13 2.95802E-14
 -1      2682 2.01231E+01 2.29310E-01-2.37405E-04 4.38634E-01 4.63309E-14 5.51062E-15
 -1      2683 2.02743E+01 2.21983E-01-8.12438E-04 5.51463E-01 5.16695E-14-9.62756E-14
 -1      2684 2.03284E+01 2.33814E-01 2.19237E-03 6.09504E-01-8.22774E-16-1.13764E-13
 -1      2685 2.01524E+01 2.63970E-01-2.44285E-04 5.49738E-01 3.54304E-14-2.35156E-14
 -1      2686 2.03464E+01 2.40737E-01-6.94980E-04 6.74196E-01-8.23702E-14-2.84580E-14
 -1      2687 2.04104E+01 2.44556E-01 2.13034E-03 7.35660E-01-1.70030E-13-2.45014E-14
 -1      2688 2.01880E+01 2.89678E-01-3.05696E-04 6.75052E-01 8.46716E-15-1.64086E-13
 -1      2689 2.04352E+01 2.40742E-01-3.35335E-04 8.03728E-01-1.87189E-13 5.16404E-15
 -1      2690 2.05103E+01 2.29564E-01 1.82849E-03 8.63462E-01-7.25100E-14 4.14119E-14
 -1      2691 2.02330E+01 2.95836E-01-5.05618E-04 8.10286E-01-1.13195E-13 9.65856E-14
 -1      2692 2.05468E+01 2.06911E-01 4.37034E-04 9.29506E-01-2.61657E-14 1.23409E-13
 -1      2693 2.06351E+01 1.70417E-01 1.17854E-03 9.78865E-01 2.02719E-14 8.23709E-14
 -1      2694 2.02938E+01 2.66094E-01-9.95285E-04 9.47323E-01-6.01220E-14 1.70417E-13
 -1      2695 2.06925E+01 1.17368E-01 1.87093E-03 1.03398E+00 1.72854E-13 1.42162E-13
 -1      2696 2.07971E+01 4.13361E-02 3.14272E-05 1.05949E+00 2.56065E-13 2.51790E-13
 -1      2697 2.03820E+01 1.76527E-01-2.02075E-03 1.07256E+00 1.34175E-13 1.90355E-13
 -1      2698 2.08905E+01-5.72077E-02 4.30015E-03 1.08969E+00 1.89214E-13 2.11314E-13
 -1      2699 2.10168E+01-1.90337E-01-1.84498E-03 1.07159E+00 1.57029E-13 1.53696E-13
 -1      2700 2.05184E+01-5.56705E-03-3.93279E-03 1.16455E+00 1.72242E-13 1.01160E-13
 -1      2701 2.11698E+01-3.51167E-01 8.08057E-03 1.05542E+00 8.77600E-14 1.99893E-13
 -1      2702 2.13246E+01-5.58632E-01-4.89225E-03 9.66468E-01 2.81861E-14 1.45498E-13
 -1      2703 2.07373E+01-3.20292E-01-7.12965E-03 1.19047E+00 2.24727E-14 1.01303E-13
 -1      2704 2.15697E+01-7.93779E-01 1.32677E-02 8.71344E-01-3.93419E-15 4.92577E-14
 -1      2705 2.17577E+01-1.08136E+00-9.65588E-03 6.77108E-01 1.13172E-13-6.16307E-14
 -1      2706 2.10903E+01-8.06863E-01-1.18933E-02 1.10026E+00-3.98000E-15-1.79056E-15
 -1      2707 2.21287E+01-1.38248E+00 1.90203E-02 4.57174E-01 2.70446E-13-3.50468E-14
 -1      2708 2.23440E+01-1.72357E+00-1.67389E-02 1.21589E-01 1.95732E-13 4.40531E-14
 -1      2709 2.16421E+01-1.47709E+00-1.75330E-02 8.18688E-01 1.34074E-13-7.06224E-14
 -1      2710 2.28579E+01-2.03606E+00 2.29870E-02-2.81932E-01 1.38312E-13 7.32966E-14
 -1      2711 2.30653E+01-2.33388E+00-2.50994E-02-7.81799E-01 1.13699E-13 2.18310E-13
 -1      2712 2.24504E+01-2.26991E+00-2.21672E-02 2.42623E-01 2.20445E-13 1.03764E-13
 -1      2713 2.36745E+01-2.51400E+00 1.92888E-02-1.42257E+00 7.23792E-14 2.88502E-13
 -1      2714 2.37908E+01-2.55525E+00-2.87437E-02-2.05692E+00-3.00975E-16 3.76503E-13
 -1      2715 2.35133E+01-2.96037E+00-2.00181E-02-7.55490E-01 1.24688E-13-2.16788E-14
 -1      2716 2.43073E+01-2.34682E+00-2.54575E-03-2.89672E+00-4.93327E-14 4.21143E-13
 -1      2717 2.42277E+01-1.83349E+00-1.48897E-02-3.51069E+00-6.00041E-14 4.10613E-13
 -1      2718 2.46450E+01-3.04694E+00-7.13099E-03-2.24123E+00 5.42479E-14 2.10188E-13
 -1      2719 2.43202E+01-9.98007E-01-5.56340E-02-4.28380E+00-2.80743E-14 4.53313E-13
 -1      2720 2.39590E+01 2.55948E-01 4.40231E-03-4.56595E+00-1.52368E-13 4.65791E-13
 -1      2721 2.53989E+01-1.78167E+00 2.31084E-02-4.00079E+00-1.71790E-14 3.22489E-13
 -1      2722 2.33696E+01 1.75125E+00-1.03809E-01-4.76094E+00-2.58418E-13 4.01143E-13
 -1      2723 2.26028E+01 3.29498E+00-1.12694E-03-4.23943E+00-2.44502E-13 3.12882E-13
 -1      2724 2.51920E+01 1.01679E+00 2.31839E-03-5.15410E+00-2.96659E-13 2.05348E-13
 -1      2725 2.31393E+01 5.80748E+00-1.16294E-01-4.04634E+00-2.95503E-13 2.14950E-14
 -1      2726 2.23681E+01 6.99627E+00-5.97646E-02-2.80481E+00-3.92117E-13 8.03090E-15
 -1      2727 1.98933E+01 1.18982E-01-2.62735E-04-7.25207E-02 8.84069E-14-8.98466E-14
 -1      2728 1.99289E+01 1.70598E-01 5.19364E-03-1.69643E-02 1.02569E-13-7.73231E-14
 -1      2729 1.98565E+01 4.94190E-02 4.04459E-05-1.45411E-01 8.28781E-14-8.09955E-14
 -1      2730 1.98704E+01 8.13585E-02 3.15889E-03-1.17076E-01 8.43818E-14-7.76992E-14
 -1      2731 1.99923E+01 1.35693E-01-2.33550E-03-7.41982E-02 8.93258E-14-1.11799E-13
 -1      2732 2.03390E+01 1.50045E+00-1.90554E-03 1.26599E+00 1.86943E-13-8.86652E-14
 -1      2733 1.98430E+01 6.76001E-03 1.82385E-04-1.78319E-01 4.16188E-14-7.97783E-14
 -1      2734 1.98428E+01 2.61534E-02 1.78348E-03-1.67252E-01 5.56381E-14-8.82542E-14
 -1      2735 1.99518E+01 5.41792E-02-1.76502E-03-1.47549E-01 6.95610E-14-9.29103E-14
 -1      2736 1.98448E+01-1.84335E-02 2.31511E-04-1.85795E-01 4.61588E-14-6.52270E-14
 -1      2737 1.98363E+01-7.23026E-03 8.79127E-04-1.85416E-01 6.18394E-14-6.89921E-14
 -1      2738 1.99298E+01 4.17347E-03-1.24834E-03-1.80946E-01 5.60928E-14-7.76990E-14
 -1      2739 1.98557E+01-3.21142E-02 2.34685E-04-1.77819E-01 1.09610E-13-9.38268E-14
 -1      2740 1.98430E+01-2.63067E-02 2.95395E-04-1.83723E-01 7.89999E-14-7.29471E-14
 -1      2741 1.99208E+01-2.51997E-02-8.40008E-04-1.88641E-01 6.70899E-14-1.09406E-13
 -1      2742 1.98714E+01-3.82205E-02 2.17926E-04-1.61193E-01 9.00581E-14-4.26105E-14
 -1      2743 1.98570E+01-3.59421E-02-6.64234E-05-1.70433E-01 1.07823E-13-6.20500E-14
 -1      2744 1.99205E+01-4.09258E-02-5.36600E-04-1.80617E-01 9.33171E-14-9.33397E-14
 -1      2745 1.98890E+01-3.94285E-02 1.94489E-04-1.40492E-01 5.31618E-14 5.30341E-16
 -1      2746 1.98745E+01-3.94073E-02-2.75659E-04-1.51116E-01 7.30630E-14 2.26835E-16
 -1      2747 1.99254E+01-4.76749E-02-3.20840E-04-1.63766E-01 5.49420E-14-6.21826E-14
 -1      2748 1.99064E+01-3.75689E-02 1.71362E-04-1.18730E-01-1.46531E-14 3.80891E-14
 -1      2749 1.98928E+01-3.89375E-02-3.81856E-04-1.29473E-01 4.95562E-14 5.92419E-14
 -1      2750 1.99331E+01-4.86302E-02-1.73510E-04-1.42761E-01 2.17493E-14-1.26142E-14
 -1      2751 1.99227E+01-3.38779E-02 1.52539E-04-9.78375E-02 4.13695E-15 2.67732E-14
 -1      2752 1.99106E+01-3.60556E-02-4.20426E-04-1.07903E-01-2.84111E-14 3.61163E-14
 -1      2753 1.99420E+01-4.59676E-02-7.80436E-05-1.20699E-01-1.77499E-14 8.86649E-14
 -1      2754 1.99374E+01-2.91617E-02 1.40843E-04-7.90044E-02-2.49785E-15 7.82935E-14
 -1      2755 1.99268E+01-3.17768E-02-4.16458E-04-8.79115E-02 2.20879E-14 6.00662E-14
 -1      2756 1.99511E+01-4.11505E-02-2.10476E-05-9.95760E-02-1.04237E-14 6.36628E-14
 -1      2757 1.99504E+01-2.39045E-02 1.38679E-04-6.29423E-02 2.43155E-15 2.28467E-14
 -1      2758 1.99413E+01-2.67421E-02-3.87780E-04-7.04096E-02 1.53972E-14 7.88742E-14
 -1      2759 1.99599E+01-3.51224E-02 7.87959E-06-8.06374E-02 1.05884E-14 9.21690E-14
 -1      2760 1.99618E+01-1.83467E-02 1.48341E-04-5.00792E-02-6.23518E-16 8.83326E-14
 -1      2761 1.99540E+01-2.13107E-02-3.46852E-04-5.59367E-02-4.23046E-14 1.09762E-14
 -1      2762 1.99681E+01-2.84381E-02 1.59898E-05-6.46443E-02-3.65368E-14 8.04150E-14
 -1      2763 1.99720E+01-1.25431E-02 1.72344E-04-4.07092E-02-3.63512E-14 2.06435E-13
 -1      2764 1.99651E+01-1.56281E-02-3.02157E-04-4.48328E-02 3.24962E-14 1.54563E-13
 -1      2765 1.99757E+01-2.13569E-02 8.54759E-06-5.20774E-02-4.30922E-14 1.33133E-13
 -1      2766 1.99816E+01-6.40433E-03 2.13557E-04-3.51055E-02-2.07649E-14 1.36497E-13
 -1      2767 1.99752E+01-9.67576E-03-2.59458E-04-3.73662E-02-3.41615E-15 1.62308E-13
 -1      2768 1.99829E+01-1.39129E-02-1.08462E-05-4.32903E-02 2.15786E-14 1.42434E-13
 -1      2769 1.99913E+01 2.73496E-04 2.75312E-04-3.36091E-02-7.54202E-15 2.44140E-14
 -1      2770 1.99849E+01-3.30636E-03-2.22652E-04-3.38336E-02-2.38626E-14 8.18918E-14
 -1      2771 1.99901E+01-5.96519E-03-3.98545E-05-3.86275E-02 2.98119E-14 1.20952E-13
 -1      2772 2.00017E+01 7.78736E-03 3.61405E-04-3.66982E-02 3.86845E-14 1.38119E-14
 -1      2773 1.99948E+01 3.73078E-03-1.94416E-04-3.46374E-02 3.57083E-14 3.44577E-14
 -1      2774 1.99975E+01 2.76718E-03-7.69945E-05-3.85155E-02 4.71071E-14 6.19534E-14
 -1      2775 2.00140E+01 1.65101E-02 4.76019E-04-4.50425E-02 5.34801E-14-5.07956E-15
 -1      2776 2.00058E+01 1.17706E-02-1.76717E-04-4.03470E-02 3.66697E-14-9.47015E-15
 -1      2777 2.00058E+01 1.26778E-02-1.21272E-04-4.35341E-02 6.58431E-14 6.78706E-14
 -1      2778 2.00291E+01 2.68742E-02 6.23503E-04-5.95441E-02 5.47927E-14 5.82497E-14
 -1      2779 2.00188E+01 2.12161E-02-1.71178E-04-5.17460E-02 8.22901E-14 3.59968E-14
 -1      2780 2.00156E+01 2.42512E-02-1.71818E-04-5.44707E-02 3.67335E-14 8.93055E-14
 -1      2781 2.00483E+01 3.93518E-02 8.07971E-04-8.13649E-02-5.21876E-15 2.44777E-14
 -1      2782 2.00351E+01 3.25209E-02-1.79336E-04-6.98663E-02-1.51723E-15 7.43254E-14
 -1      2783 2.00274E+01 3.80400E-02-2.27518E-04-7.23594E-02 5.19514E-14 1.44877E-13
 -1      2784 2.00731E+01 5.44251E-02 1.03262E-03-1.11934E-01-8.20335E-15-4.59122E-14
 -1      2785 2.00558E+01 4.61655E-02-2.02763E-04-9.60056E-02 3.71215E-14 5.75943E-14
 -1      2786 2.00422E+01 5.46362E-02-2.86597E-04-9.85022E-02-1.65560E-14 6.91519E-14
 -1      2787 2.01050E+01 7.25380E-02 1.29865E-03-1.52927E-01 3.16832E-14-1.08040E-13
 -1      2788 2.00825E+01 6.26202E-02-2.43017E-04-1.31723E-01 6.22609E-14-4.99572E-14
 -1      2789 2.00608E+01 7.46271E-02-3.46217E-04-1.34467E-01 1.94452E-14 3.96808E-14
 -1      2790 2.01457E+01 9.40146E-02 1.60363E-03-2.06209E-01-7.14744E-14-6.87938E-15
 -1      2791 2.01167E+01 8.22826E-02-3.01299E-04-1.78801E-01-2.47352E-14-5.38370E-14
 -1      2792 2.00840E+01 9.85233E-02-4.02130E-04-1.82053E-01-6.35154E-14 2.44264E-14
 -1      2793 2.01972E+01 1.18924E-01 1.93908E-03-2.73702E-01-1.28549E-13 4.39047E-14
 -1      2794 2.01602E+01 1.05374E-01-3.77630E-04-2.39155E-01-1.28147E-13 8.33211E-14
 -1      2795 2.01128E+01 1.26640E-01-4.48591E-04-2.43207E-01-1.81862E-13 9.25273E-14
 -1      2796 2.02614E+01 1.46858E-01 2.28705E-03-3.57157E-01 5.55357E-14-1.12538E-13
 -1      2797 2.02149E+01 1.31767E-01-4.69130E-04-3.14664E-01-4.03510E-14-6.12863E-14
 -1      2798 2.01481E+01 1.58902E-01-4.78931E-04-3.19863E-01-5.74848E-15 9.99279E-14
 -1      2799 2.03401E+01 1.76558E-01 2.61535E-03-4.57776E-01 1.03771E-13 8.39410E-14
 -1      2800 2.02827E+01 1.60699E-01-5.66771E-04-4.06879E-01 6.07494E-14-7.76774E-14
 -1      2801 2.01908E+01 1.94520E-01-4.87561E-04-4.13683E-01 1.92953E-14-6.18559E-14
 -1      2802 2.04353E+01 2.05328E-01 2.87126E-03-5.75587E-01 6.14210E-14 1.18433E-13
 -1      2803 2.03656E+01 1.90310E-01-6.49516E-04-5.16543E-01 1.80429E-13 1.77508E-13
 -1      2804 2.02417E+01 2.31478E-01-4.74767E-04-5.25630E-01 5.75450E-14 1.44539E-13
 -1      2805 2.05487E+01 2.28100E-01 2.97368E-03-7.08483E-01-8.00399E-14 8.39956E-14
 -1      2806 2.04656E+01 2.16901E-01-6.74333E-04-6.42835E-01 2.17079E-14 1.05384E-13
 -1      2807 2.03019E+01 2.65703E-01-4.56502E-04-6.55326E-01 4.07625E-14 1.18083E-13
 -1      2808 2.06826E+01 2.36039E-01 2.80385E-03-8.50760E-01-3.08059E-14 6.12487E-14
 -1      2809 2.05854E+01 2.33791E-01-5.60205E-04-7.82211E-01-1.32301E-13 3.06280E-14
 -1      2810 2.03730E+01 2.89807E-01-4.82291E-04-8.00099E-01-1.27190E-13 3.55252E-14
 -1      2811 2.08402E+01 2.14594E-01 2.19536E-03-9.90980E-01 4.34042E-14 3.27113E-13
 -1      2812 2.07285E+01 2.29659E-01-1.64857E-04-9.26657E-01 4.95234E-15 2.05930E-13
 -1      2813 2.04580E+01 2.91234E-01-6.64547E-04-9.53592E-01-1.37310E-13-5.16816E-14
 -1      2814 2.10280E+01 1.41186E-01 9.22864E-04-1.10897E+00 5.89227E-14 3.13820E-13
 -1      2815 2.09012E+01 1.86376E-01 7.44576E-04-1.06116E+00 9.19776E-14 3.90782E-13
 -1      2816 2.05637E+01 2.49793E-01-1.22008E-03-1.10380E+00 5.75787E-15 3.48009E-13
 -1      2817 2.12581E+01-1.66324E-02-1.31650E-03-1.17190E+00-1.24974E-14 3.49412E-13
 -1      2818 2.11152E+01 7.67530E-02 2.51760E-03-1.16017E+00 6.24013E-14 3.78801E-13
 -1      2819 2.07036E+01 1.34923E-01-2.51519E-03-1.23031E+00 6.32789E-15 4.58783E-13
 -1      2820 2.15518E+01-2.99994E-01-4.93512E-03-1.12954E+00-3.97175E-14 2.82287E-13
 -1      2821 2.13909E+01-1.36278E-01 5.60706E-03-1.18287E+00 7.29915E-14 4.50734E-13
 -1      2822 2.09033E+01-9.59482E-02-5.07719E-03-1.30038E+00-2.09569E-14 4.05220E-13
 -1      2823 2.19413E+01-7.48595E-01-1.04246E-02-9.09886E-01-1.24996E-14 3.66995E-13
 -1      2824 2.17607E+01-4.95139E-01 1.04177E-02-1.06756E+00-8.82914E-14 3.90390E-13
 -1      2825 2.12067E+01-4.94180E-01-9.45385E-03-1.26340E+00-1.11849E-13 4.42469E-13
 -1      2826 2.24624E+01-1.37064E+00-1.80994E-02-4.18563E-01-3.12527E-13 4.59108E-13
 -1      2827 2.22664E+01-1.02951E+00 1.68803E-02-7.26743E-01-8.86978E-14 4.66599E-13
 -1      2828 2.16790E+01-1.10347E+00-1.56719E-02-1.04313E+00-1.41328E-13 6.07813E-13
 -1      2829 2.31260E+01-2.07918E+00-2.76243E-02 4.47300E-01-1.74931E-13 2.81671E-13
 -1      2830 2.29391E+01-1.71154E+00 2.32821E-02-4.97182E-02-3.56139E-13 3.42162E-13
 -1      2831 2.23971E+01-1.91500E+00-2.20218E-02-5.30768E-01-2.02069E-13 5.13534E-13
 -1      2832 2.38548E+01-2.58681E+00-3.61002E-02 1.75039E+00-8.67457E-14 1.14062E-13
 -1      2833 2.37448E+01-2.37242E+00 2.35181E-02 1.07182E+00-5.87539E-14 1.82577E-13
 -1      2834 2.34088E+01-2.78038E+00-2.46937E-02 4.14662E-01-8.03333E-14 2.91641E-13
 -1      2835 2.43907E+01-2.34191E+00-3.67499E-02 3.35428E+00 2.09264E-14-2.31061E-14
 -1      2836 2.44770E+01-2.58034E+00 7.82545E-03 2.63432E+00-4.86798E-14 2.04715E-14
 -1      2837 2.46151E+01-3.26287E+00-1.91550E-02 1.90479E+00 1.06859E-14 4.39644E-14
 -1      2838 2.43519E+01-6.83593E-01-1.44662E-03 4.75273E+00 9.29482E-14-1.31639E-13
 -1      2839 2.47265E+01-1.70649E+00-2.90520E-02 4.31499E+00 4.19736E-14-6.32116E-14
 -1      2840 2.56128E+01-2.65831E+00-3.02029E-02 3.80742E+00 5.07389E-14 7.84442E-14
 -1      2841 2.33572E+01 2.32018E+00 4.37833E-03 4.94913E+00-6.51840E-14-7.65098E-14
 -1      2842 2.40163E+01 6.49145E-01-9.91483E-02 5.20417E+00 7.81636E-14-4.32467E-14
 -1      2843 2.58138E+01-4.96679E-02-3.70707E-03 5.48516E+00 1.41970E-14-5.42622E-15
 -1      2844 2.15680E+01 5.33704E+00-2.14546E-02 3.05761E+00-1.55521E-13 8.89302E-14
 -1      2845 2.23800E+01 3.99179E+00-1.28773E-01 4.30793E+00-1.89695E-13-5.93033E-14
 -1      2846 2.48142E+01 3.71063E+00-2.07021E-02 5.37130E+00-1.57527E-13-6.59819E-14
 -1      2847 2.03680E+01 6.48072E+00-1.05370E-01 2.30982E-02-5.04180E-14 4.10314E-14
 -1      2848 2.10800E+01 6.40741E+00-1.30902E-01 1.73027E+00-9.55555E-14 1.19838E-13
 -1      2849 2.35161E+01 7.48394E+00-8.04634E-02 3.54418E+00-1.70142E-13 7.41837E-14
 -1      2850 2.29374E+01 8.88643E+00 2.02748E-02 3.97122E-01-1.83603E-14-4.96668E-13
 -1      2851 5.34891E+00-3.58225E+00 1.34497E-01 2.18044E+00 4.85549E-13-1.05532E-12
 -1      2852 4.84025E+00-3.49232E+00 1.77405E-01-3.34092E-01 5.69229E-13-1.06742E-12
 -1      2853 3.23145E+01-2.88132E-01-2.73532E-01-4.89594E+00-3.91062E-13-4.07202E-13
 -1      2854 3.24145E+01-2.69302E+00 4.97482E-02-3.32335E+00-4.02303E-13-1.29896E-13
 -1      2855 2.60706E+01 1.07199E+01-3.26010E-01 9.95784E-01 3.42004E-13-9.04471E-13
 -1      2856 3.08759E+01 6.12120E+00-2.98585E-01-6.25248E+00-4.89109E-13-2.19408E-13
 -1      2857 3.16961E+01 3.39594E+00-8.25371E-02-6.12929E+00-5.30395E-13-3.53551E-13
 -1      2858 3.08858E+01-5.64262E+00-2.25621E-01-7.15592E-01-3.95642E-13 5.50948E-15
 -1      2859 2.87573E+01-7.05303E+00 1.24197E-01 1.62538E+00-4.13392E-13-3.48332E-14
 -1      2860 1.99626E+01 2.31285E-01-8.12462E-04 6.12418E-02 8.85254E-14-9.06639E-14
 -1      2861 2.00282E+01 3.15175E-01 7.83979E-03 1.58957E-01 1.21344E-13-8.54955E-14
 -1      2862 2.00569E+01 2.66101E-01-2.74100E-03 5.90871E-02 1.08935E-13-1.13711E-13
 -1      2863 1.99225E+01 2.59642E+00-7.88916E-03 7.93775E-01 1.13217E-13-2.27534E-13
 -1      2864 1.98784E+01 2.68864E+00-6.12312E-03 6.44823E-01 8.04238E-14-2.35793E-13
 -1      2865 1.99968E+01 2.38906E+00 4.30981E-03 5.16085E-01 5.93476E-14-2.25070E-13
 -1      2866 2.00788E+01 2.19117E+00 5.58325E-03 7.44987E-01 1.11180E-13-2.06291E-13
 -1      2867 2.00711E+01 4.15924E-01-1.59499E-03 2.86451E-01 1.56628E-13-9.15022E-14
 -1      2868 2.01723E+01 5.54342E-01 1.04851E-02 4.49490E-01 1.61077E-13-8.15899E-14
 -1      2869 2.02546E+01 8.22331E-01 8.56698E-04 6.16203E-01 1.68869E-13-1.16943E-13
 -1      2870 2.01468E+01 4.78091E-01-1.88882E-03 2.78954E-01 1.42628E-13-1.10041E-13
 -1      2871 1.98734E+01 2.69742E+00-6.04369E-03-6.34637E-01-9.64930E-14-2.48832E-13
 -1      2872 1.99165E+01 2.60767E+00-7.68023E-03-7.83915E-01-1.16940E-13-2.45012E-13
 -1      2873 2.64607E+01 1.10311E+01-2.90942E-01 2.36287E+00 1.58346E-13-6.26513E-13
 -1      2874 2.68332E+01 1.02280E+01-3.00855E-01 3.92423E+00-2.94209E-14-4.11025E-13
 -1      2875 1.88006E+01-7.45213E+00 1.73750E-01-5.86967E+00 2.96624E-13-4.65933E-13
 -1      2876 2.24343E+01-8.16204E+00-7.36662E-02-4.89201E+00 4.76896E-13-1.16185E-13
 -1      2877 2.64554E+01-7.76218E+00 1.45187E-01-2.58100E+00 4.83072E-13 5.12784E-15
 -1      2878 2.90713E+01-7.29342E+00-1.62031E-01-6.51074E-01 4.77632E-13-1.21916E-13
 -1      2879 3.13215E+01-4.86420E+00 3.93034E-02 1.96987E+00 4.68837E-13-3.13957E-13
 -1      2880 3.28013E+01-2.58318E+00-2.12121E-01 3.72469E+00 2.96750E-13-2.59376E-13
 -1      2881 5.65856E+00-3.69883E+00 1.90017E-01-2.29496E+00 3.85400E-13-9.45605E-13
 -1      2882 7.83549E+00-4.12995E+00 1.51378E-01-4.24031E+00 4.00360E-13-5.93164E-13
 -1      2883 7.11483E+00-2.64644E+00 2.26643E-01-1.17360E+00 4.36842E-13-8.51347E-13
 -1      2884 1.72771E+01-6.85128E+00 6.15133E-02 6.28460E+00-7.09433E-14-5.09287E-13
 -1      2885 1.43800E+01-5.87176E+00 2.08404E-01 6.24420E+00 1.40957E-13-7.37466E-13
 -1      2886 1.05569E+01-4.68234E+00 7.03157E-02 5.57443E+00 3.79502E-13-9.11604E-13
 -1      2887 7.69186E+00-3.79543E+00 2.39228E-01 3.96909E+00 4.59549E-13-1.06018E-12
 -1      2888 1.15019E+01-5.30424E+00 1.86265E-01-5.74605E+00 4.23300E-13-5.59386E-13
 -1      2889 1.50408E+01-6.65500E+00 7.86916E-02-6.45326E+00 3.75339E-13-6.03129E-13
 -1      2890 1.78828E+01-6.34821E+00 1.39329E-01-5.58709E+00 3.50817E-13-5.28536E-13
 -1      2891 2.58289E+01 9.98731E+00-4.12557E-02 5.42371E-03-1.62786E-13 3.12000E-13
 -1      2892 2.36860E+01 8.94312E+00-7.55142E-02-2.46106E+00-3.76255E-13-2.06349E-13
 -1      2893 1.99523E+01 6.50864E+00-1.07463E-01-2.64084E-01-4.71671E-13 3.87447E-13
 -1      2894 1.99311E+01 2.53932E+00 3.44103E-03 4.59257E-03-1.59102E-14-2.18968E-13
 -1      2895 1.97922E+01 2.87076E+00-5.48017E-03-6.18245E-02-2.00341E-14-2.41584E-13
 -1      2896 1.97997E+01 2.85612E+00-5.53228E-03-2.16410E-01-4.40132E-14-2.37581E-13
 -1      2897 3.17562E+01-7.44040E-01-8.69095E-02 5.32121E+00 2.11248E-13-1.45439E-14
 -1      2898 2.79298E+01 6.70689E+00-1.00364E-01-5.78043E+00-5.03236E-13-2.03601E-13
 -1      2899 1.97599E+01 5.71264E+00-6.77160E-02 1.21948E+00-3.70818E-13 3.08030E-13
 -1      2900 8.29967E+00-2.73330E+00 2.13458E-01 2.78852E+00 5.52801E-13-1.10792E-12
 -1      2901 2.96370E+01 9.22447E+00-2.73227E-01 5.77099E+00 3.36953E-14-3.66346E-13
 -1      2902 2.55297E+01 8.23447E+00-9.81788E-02 4.13071E+00-5.92859E-14-9.32275E-14
 -1      2903 2.58111E+01 6.33319E+00-1.41318E-01 5.37699E+00-1.78829E-13-9.54375E-14
 -1      2904 3.10194E+01 6.83140E+00-1.92192E-01 6.43728E+00 1.12910E-13-2.74517E-13
 -1      2905 1.33184E+01-4.49116E+00 1.66206E-01 5.37497E+00 3.34649E-13-9.34683E-13
 -1      2906 2.02181E+01 6.46026E+00-8.46155E-02 1.75167E+00-2.74877E-13 2.38864E-13
 -1      2907 1.06418E+01-4.20573E+00 1.75513E-01-4.96776E+00 3.62418E-13-6.12232E-13
 -1      2908 1.34407E+01-4.14273E+00 1.19953E-01-5.02257E+00 3.36689E-13-5.43843E-13
 -1      2909 1.00903E+01-2.94863E+00 1.28725E-01-3.85069E+00 2.89234E-13-5.03653E-13
 -1      2910 2.26117E+01 8.35856E+00-1.04362E-01 7.39701E-01-2.41973E-13 2.15966E-13
 -1      2911 2.67358E+01-7.49949E+00 9.33578E-02 2.46998E+00-3.22603E-13 1.15637E-13
 -1      2912 1.98154E+01 2.82059E+00-5.68103E-03-3.51423E-01-6.82513E-14-2.21179E-13
 -1      2913 1.98397E+01 2.77229E+00-6.16213E-03-5.04949E-01-9.22318E-14-2.32129E-13
 -1      2914 1.99927E+01 2.39679E+00 4.33948E-03-5.07104E-01-9.52540E-14-2.24655E-13
 -1      2915 1.99459E+01 2.50530E+00 3.66726E-03-2.55457E-01-6.39022E-14-2.14303E-13
 -1      2916 2.15994E+01-7.45834E+00-7.98476E-02 4.79764E+00-5.60663E-14 3.96419E-14
 -1      2917 1.96483E+01-7.06276E+00 1.46771E-01 5.61539E+00-3.57908E-14-2.84155E-13
 -1      2918 1.86062E+01-6.09864E+00 9.79491E-02 5.44313E+00 1.30063E-13-1.62509E-13
 -1      2919 2.00723E+01 2.20474E+00 5.77104E-03-7.38069E-01-1.19885E-13-2.23722E-13
 -1      2920 1.99712E+01 2.48789E+00-6.15434E-03-9.00475E-01-1.39629E-13-2.41454E-13
 -1      2921 2.00260E+01 2.35133E+00-1.16762E-02-1.04044E+00-1.65343E-13-2.09785E-13
 -1      2922 2.02910E+01 1.58798E+00-1.19626E-03 1.16475E+00 1.93843E-13-1.30979E-13
 -1      2923 3.01414E+01 4.68734E+00-1.32137E-01 6.23166E+00 3.83027E-14-3.26406E-14
 -1      2924 2.97425E+01-5.78798E+00 5.99710E-03 1.41598E+00 3.37154E-13-7.36355E-14
 -1      2925 2.46473E+01-7.44657E+00 9.50418E-02-3.13780E+00 4.60104E-13 2.34222E-14
 -1      2926 2.52595E+01 1.05562E+01-9.81141E-02-2.42902E+00-1.21236E-13 1.08715E-14
 -1      2927 3.04424E+01 1.31093E+00-7.15924E-02-5.63558E+00-4.61485E-13-2.99080E-13
 -1      2928 2.02799E+01 1.36673E+00 2.07210E-03 9.18483E-01 1.78607E-13-1.44346E-13
 -1      2929 2.03027E+01 1.73039E+00-9.29400E-03-1.32191E+00-2.01158E-13-1.05642E-13
 -1      2930 2.02887E+01 1.32809E+00-6.62496E-03-1.03771E+00-1.81547E-13-8.99178E-14
 -1      2931 2.02780E+01 1.41285E+00 2.19385E-03-9.41919E-01-1.62532E-13-1.22644E-13
 -1      2932 3.06522E+01-4.37508E+00-1.91922E-02-2.28817E+00-3.56579E-13-1.38820E-13
 -1      2933 2.01405E+01 2.18120E+00-3.74218E-04-1.20811E+00-1.65498E-13-1.75695E-13
 -1      2934 2.02398E+01 1.47996E+00-6.68936E-03 8.01545E-01 1.50240E-13-1.61647E-13
 -1      2935 2.02002E+01 1.67018E+00-3.86317E-04 7.45259E-01 1.22328E-13-1.64774E-13
 -1      2936 2.94563E+01-3.47287E+00-1.88909E-01-3.54962E+00-3.14186E-13-1.68157E-13
 -1      2937 2.92032E+01-5.28559E+00 9.73191E-02-1.56630E+00-2.02915E-13-1.28293E-13
 -1      2938 2.98017E+01 2.41533E+00-8.90319E-02 6.35145E+00-4.95715E-14 1.51462E-13
 -1      2939 2.74789E+01 4.56318E+00-1.72243E-01 6.04323E+00-9.45355E-14 5.40540E-14
 -1      2940 2.80948E+01 2.20845E+00-1.60523E-01-5.94060E+00-4.20004E-13 6.75709E-14
 -1      2941 2.95138E+01-5.57369E-01 2.85016E-02-5.24808E+00-3.01661E-13-1.13382E-13
 -1      2942 2.53346E+01 5.74772E+00-9.29870E-02-5.32301E+00-3.06588E-13-6.04239E-14
 -1      2943 2.02695E+01 7.13855E-01 4.38753E-03-3.44598E-01-9.56400E-14-1.39226E-13
 -1      2944 2.02262E+01 5.51120E-01-3.68747E-03-2.13970E-01-9.03809E-14-1.27965E-13
 -1      2945 2.02208E+01 4.23377E-01 4.15336E-03-1.18782E-01-1.08548E-13-1.26566E-13
 -1      2946 2.01814E+01 3.15345E-01-2.31634E-03-3.39821E-02-8.66639E-14-1.35704E-13
 -1      2947 2.02714E+01 5.80014E-01-3.43257E-04-1.87685E-01-8.67731E-14-1.30486E-13
 -1      2948 2.01670E+01 2.31656E-01 3.16953E-03 2.73825E-02-8.13972E-14-1.46321E-13
 -1      2949 2.01367E+01 1.60991E-01-1.31412E-03 7.82621E-02-8.18583E-14-1.80643E-13
 -1      2950 2.02368E+01 3.31881E-01-8.58523E-04-2.50690E-02-1.04281E-13-1.51373E-13
 -1      2951 2.01198E+01 1.06848E-01 2.23694E-03 1.14042E-01-8.43585E-14-1.85579E-13
 -1      2952 2.00985E+01 6.15047E-02-6.39576E-04 1.41105E-01-9.32421E-14-2.20105E-13
 -1      2953 2.01958E+01 1.67265E-01-1.01799E-03 7.74200E-02-1.01470E-13-1.85584E-13
 -1      2954 2.00822E+01 2.73167E-02 1.47117E-03 1.58626E-01-6.72062E-14-2.33800E-13
 -1      2955 2.00684E+01-7.16545E-04-2.08890E-04 1.69650E-01-7.05261E-14-2.29037E-13
 -1      2956 2.01566E+01 6.04802E-02-9.64686E-04 1.35062E-01-9.18877E-14-2.30602E-13
 -1      2957 2.00538E+01-2.12895E-02 8.90065E-04 1.74844E-01-5.53979E-14-1.74794E-13
 -1      2958 2.00456E+01-3.74854E-02 5.35547E-05 1.75566E-01-5.89840E-14-1.62451E-13
 -1      2959 2.01222E+01-6.34184E-03-8.35329E-04 1.61114E-01-3.43986E-14-1.86201E-13
 -1      2960 2.00332E+01-4.88005E-02 4.74636E-04 1.72946E-01-6.02038E-14-1.39168E-13
 -1      2961 2.00290E+01-5.69872E-02 2.03382E-04 1.67468E-01-5.38047E-14-7.55332E-14
 -1      2962 2.00936E+01-4.56052E-02-6.88868E-04 1.66186E-01-2.62934E-14-1.09252E-13
 -1      2963 2.00189E+01-6.20899E-02 1.91296E-04 1.60306E-01-6.32138E-14-5.36667E-14
 -1      2964 2.00173E+01-6.49617E-02 2.80038E-04 1.51487E-01-4.61373E-14-3.57753E-14
 -1      2965 2.00705E+01-6.60940E-02-5.51558E-04 1.58231E-01-2.23645E-14-3.58609E-14
 -1      2966 2.00092E+01-6.59897E-02 7.14021E-06 1.42075E-01-6.70034E-14-1.66721E-14
 -1      2967 2.00094E+01-6.54354E-02 3.10689E-04 1.31864E-01-3.32853E-14-2.71940E-14
 -1      2968 2.00524E+01-7.40347E-02-4.33140E-04 1.42968E-01-4.97531E-14 3.31984E-14
 -1      2969 2.00031E+01-6.38772E-02-1.05686E-04 1.21761E-01-2.34520E-14-2.19144E-14
 -1      2970 2.00044E+01-6.11979E-02 3.14273E-04 1.11450E-01 1.47838E-14-3.60533E-14
 -1      2971 2.00384E+01-7.38144E-02-3.35764E-04 1.24377E-01-1.45521E-14 4.12161E-15
 -1      2972 1.99995E+01-5.80637E-02-1.69531E-04 1.01679E-01 4.15543E-14-6.51304E-14
 -1      2973 2.00014E+01-5.41234E-02 3.04178E-04 9.21014E-02 1.44006E-14-5.68284E-14
 -1      2974 2.00280E+01-6.84695E-02-2.57858E-04 1.05147E-01-7.24510E-15-9.31077E-14
 -1      2975 1.99978E+01-5.00656E-02-2.01813E-04 8.33205E-02-5.19511E-14-7.39510E-14
 -1      2976 2.00000E+01-4.53992E-02 2.89797E-04 7.50042E-02-1.17983E-13-9.14278E-14
 -1      2977 2.00204E+01-6.00278E-02-1.97046E-04 8.70406E-02-5.33768E-14-8.75908E-14
 -1      2978 1.99974E+01-4.08011E-02-2.15753E-04 6.76304E-02-1.38978E-13-9.66244E-14
 -1      2979 1.99998E+01-3.56960E-02 2.77902E-04 6.09141E-02-1.45048E-13-8.74970E-14
 -1      2980 2.00151E+01-4.97570E-02-1.50566E-04 7.11986E-02-9.19441E-14-1.18094E-13
 -1      2981 1.99980E+01-3.07365E-02-2.21413E-04 5.52238E-02-1.62382E-13-5.26969E-14
 -1      2982 2.00006E+01-2.52906E-02 2.73543E-04 5.03450E-02-1.34008E-13-2.27112E-14
 -1      2983 2.00116E+01-3.83509E-02-1.15525E-04 5.83645E-02-1.41009E-13-2.05540E-14
 -1      2984 1.99993E+01-1.99920E-02-2.26513E-04 4.65500E-02-1.20252E-13-9.07616E-14
 -1      2985 2.00021E+01-1.41576E-02 2.80618E-04 4.37134E-02-6.45890E-14-1.07912E-13
 -1      2986 2.00094E+01-2.60651E-02-8.91883E-05 4.90646E-02-1.59609E-13-1.17244E-13
 -1      2987 2.00012E+01-8.42076E-03-2.37094E-04 4.20194E-02 1.74106E-14-1.25935E-13
 -1      2988 2.00042E+01-2.03694E-03 3.02203E-04 4.14490E-02-1.85843E-14-1.27503E-13
 -1      2989 2.00083E+01-1.28180E-02-6.89077E-05 4.37448E-02-4.15003E-14-2.61257E-13
 -1      2990 2.00036E+01 4.33118E-03-2.58064E-04 4.21007E-02-4.08892E-15-1.05635E-13
 -1      2991 2.00070E+01 1.15128E-02 3.40783E-04 4.40788E-02 8.52301E-14-1.29917E-13
 -1      2992 2.00078E+01 1.73251E-03-5.20486E-05 4.28766E-02 5.03612E-15-1.56555E-13
 -1      2993 2.00063E+01 1.87773E-02-2.93588E-04 4.73939E-02 6.26703E-14-1.50454E-13
 -1      2994 2.00102E+01 2.70707E-02 3.98339E-04 5.22902E-02 8.18910E-14-2.11108E-13
 -1      2995 2.00076E+01 1.81294E-02-3.58963E-05 4.70363E-02 4.12235E-14-1.09588E-13
 -1      2996 2.00094E+01 3.55478E-02-3.47296E-04 5.86830E-02 1.24471E-13-2.23629E-13
 -1      2997 2.00140E+01 4.53104E-02 4.76285E-04 6.69739E-02 1.19921E-13-2.42213E-13
 -1      2998 2.00074E+01 3.70639E-02-1.75543E-05 5.69632E-02 9.43227E-14-1.83930E-13
 -1      2999 2.00127E+01 5.53444E-02-4.22320E-04 7.69705E-02 2.80609E-14-2.67295E-13
 -1      3000 2.00182E+01 6.69490E-02 5.75262E-04 8.92471E-02-5.35778E-14-2.35418E-13
 -1      3001 2.00068E+01 5.93222E-02 6.13807E-06 7.35979E-02 5.15705E-14-2.26452E-13
 -1      3002 2.00161E+01 7.88806E-02-5.21116E-04 1.03489E-01-4.17225E-14-2.45776E-13
 -1      3003 2.00227E+01 9.26767E-02 6.94782E-04 1.20453E-01-4.62512E-14-1.68302E-13
 -1      3004 2.00053E+01 8.57202E-02 3.86243E-05 9.81003E-02-4.12746E-14-3.17667E-13
 -1      3005 2.00195E+01 1.06797E-01-6.45002E-04 1.39688E-01-1.33913E-15-2.48858E-13
 -1      3006 2.00275E+01 1.23052E-01 8.32765E-04 1.62125E-01 9.58430E-14-2.62253E-13
 -1      3007 2.00024E+01 1.17012E-01 8.35107E-05 1.31842E-01-1.57705E-15-2.42523E-13
 -1      3008 2.00227E+01 1.39535E-01-7.93326E-04 1.87181E-01 1.54180E-13-1.87914E-13
 -1      3009 2.00322E+01 1.58346E-01 9.85045E-04 2.15919E-01 6.42425E-14-8.88814E-14
 -1      3010 1.99972E+01 1.53755E-01 1.44173E-04 1.76369E-01 1.50326E-13-2.63119E-13
 -1      3011 2.00255E+01 1.77138E-01-9.62083E-04 2.47649E-01-1.77847E-14 7.10256E-14
 -1      3012 2.00367E+01 1.98297E-01 1.14501E-03 2.83469E-01-1.24075E-14 1.03181E-13
 -1      3013 1.99890E+01 1.96107E-01 2.22852E-04 2.33321E-01 1.25024E-13-1.47121E-13
 -1      3014 2.00274E+01 2.18965E-01-1.14176E-03 3.22676E-01-7.97605E-14 9.63047E-14
 -1      3015 2.00405E+01 2.41760E-01 1.30371E-03 3.66188E-01-5.00209E-14 1.18585E-13
 -1      3016 1.99768E+01 2.43527E-01 3.18853E-04 3.04301E-01 1.38896E-14 1.83550E-15
 -1      3017 2.00284E+01 2.63251E-01-1.31403E-03 4.13505E-01-1.68350E-14 1.03715E-13
 -1      3018 2.00437E+01 2.86171E-01 1.45094E-03 4.64956E-01 1.39124E-13 1.65298E-13
 -1      3019 1.99597E+01 2.94330E-01 4.25186E-04 3.90684E-01-1.97254E-14 1.64053E-13
 -1      3020 2.00286E+01 3.06470E-01-1.44678E-03 5.20690E-01 2.69448E-14 1.21311E-13
 -1      3021 2.00465E+01 3.26788E-01 1.57795E-03 5.79700E-01-7.94604E-14 7.71180E-14
 -1      3022 1.99370E+01 3.45042E-01 5.22646E-04 4.93361E-01-2.01025E-14 1.81878E-13
 -1      3023 2.00290E+01 3.42427E-01-1.48654E-03 6.43629E-01-5.18618E-14-2.24286E-15
 -1      3024 2.00506E+01 3.55608E-01 1.68248E-03 7.08835E-01-3.89536E-14 3.35617E-14
 -1      3025 1.99088E+01 3.89491E-01 5.69806E-04 6.12410E-01-9.09793E-14 4.80508E-14
 -1      3026 2.00322E+01 3.60999E-01-1.34720E-03 7.79964E-01-3.82803E-14-3.52489E-14
 -1      3027 2.00596E+01 3.59913E-01 1.77555E-03 8.48553E-01-1.66567E-13 6.24887E-14
 -1      3028 1.98767E+01 4.17543E-01 4.86823E-04 7.46728E-01-5.54921E-14-1.05499E-13
 -1      3029 2.00445E+01 3.46486E-01-8.92965E-04 9.24808E-01-7.72802E-14 1.30944E-13
 -1      3030 2.00818E+01 3.20447E-01 1.88719E-03 9.91920E-01 1.02931E-13 1.65358E-13
 -1      3031 1.98453E+01 4.13438E-01 1.30620E-04 8.93610E-01-2.66173E-14 3.62060E-14
 -1      3032 2.00779E+01 2.75673E-01 8.82192E-05 1.06975E+00 3.03435E-14 1.21681E-13
 -1      3033 2.01328E+01 2.09430E-01 2.06147E-03 1.12768E+00 1.07994E-13 9.33743E-14
 -1      3034 1.98247E+01 3.53744E-01-7.40074E-04 1.04828E+00 9.07440E-14 9.85572E-14
 -1      3035 2.01544E+01 1.16012E-01 1.93352E-03 1.20136E+00 1.61059E-13 6.14123E-14
 -1      3036 2.02403E+01-1.08917E-02 2.31960E-03 1.23843E+00 9.52875E-14 9.86595E-14
 -1      3037 1.98345E+01 2.05186E-01-2.50630E-03 1.20319E+00 2.76048E-14-6.63104E-14
 -1      3038 2.03119E+01-1.74936E-01 5.19917E-03 1.29860E+00-3.22672E-14 5.26773E-14
 -1      3039 2.04497E+01-3.87274E-01 2.57442E-03 1.29725E+00-7.93948E-14-2.73517E-14
 -1      3040 1.99093E+01-7.69650E-02-5.71386E-03 1.34648E+00 3.14719E-14-1.65024E-14
 -1      3041 2.06106E+01-6.45865E-01 1.07398E-02 1.32753E+00-5.35134E-14-2.64036E-14
 -1      3042 2.08285E+01-9.68454E-01 1.90075E-03 1.26119E+00 3.87333E-14-1.15847E-13
 -1      3043 2.01066E+01-5.47525E-01-1.09956E-02 1.45790E+00-1.00671E-14-1.75165E-13
 -1      3044 2.11392E+01-1.33801E+00 1.93385E-02 1.22779E+00 1.59095E-13-2.18778E-14
 -1      3045 2.14659E+01-1.77655E+00-8.36860E-04 1.05553E+00 2.53628E-13-2.05544E-14
 -1      3046 2.05182E+01-1.26516E+00-1.93829E-02 1.49797E+00 1.51528E-13-5.29169E-14
 -1      3047 2.19966E+01-2.24032E+00 3.05612E-02 8.98295E-01 2.28598E-13 7.88641E-14
 -1      3048 2.24467E+01-2.75420E+00-7.86641E-03 5.63813E-01 1.58320E-13 1.30916E-13
 -1      3049 2.12721E+01-2.24911E+00-3.00494E-02 1.37645E+00 2.61892E-13 8.37984E-14
 -1      3050 2.32572E+01-3.22381E+00 4.20627E-02 1.83940E-01 1.54990E-13 8.29762E-14
 -1      3051 2.37908E+01-3.65916E+00-2.09302E-02-3.75107E-01 2.19397E-13 2.01928E-13
 -1      3052 2.24873E+01-3.41927E+00-4.44013E-02 9.45491E-01 1.66317E-13 2.87730E-14
 -1      3053 2.48900E+01-3.87067E+00 5.43174E-02-1.14126E+00 1.28597E-13 1.13713E-13
 -1      3054 2.53356E+01-3.85956E+00-2.66123E-02-1.93291E+00-3.46320E-14 1.53411E-13
 -1      3055 2.42869E+01-4.47731E+00-5.88890E-02-5.53031E-02 1.73208E-13 1.25296E-13
 -1      3056 2.67384E+01-3.59485E+00-2.18943E-03-3.01530E+00-4.56143E-14 1.15985E-13
 -1      3057 2.70576E+01-2.40815E+00 1.42181E-03-3.94358E+00-1.22978E-13 2.19529E-14
 -1      3058 2.00728E+01 1.50601E-01-1.15106E-03-7.80550E-02 8.84131E-14-1.03939E-13
 -1      3059 2.01054E+01 2.16096E-01 3.70882E-03-2.46439E-02 1.04628E-13-9.55744E-14
 -1      3060 1.99916E+01-3.11095E-02 9.34115E-05-1.82279E-01 6.35872E-14-6.77252E-14
 -1      3061 1.99956E+01-1.62483E-02 9.16183E-04-1.81593E-01 5.91364E-14-5.51036E-14
 -1      3062 1.99821E+01-4.90987E-02 2.13332E-04-1.74105E-01 6.62089E-14-4.86164E-14
 -1      3063 1.99820E+01-4.15064E-02 4.49127E-04-1.79800E-01 1.00256E-13-7.36363E-14
 -1      3064 2.00475E+01-3.88980E-02-7.31317E-04-1.76029E-01 8.31846E-14-8.52557E-15
 -1      3065 1.99777E+01-5.66925E-02 2.70483E-04-1.57625E-01 3.20370E-14-3.49864E-14
 -1      3066 1.99750E+01-5.39078E-02 1.38744E-04-1.66749E-01 4.84268E-14-4.29101E-14
 -1      3067 2.00304E+01-5.82854E-02-5.46873E-04-1.67943E-01 4.87326E-14-6.24994E-15
 -1      3068 1.99765E+01-5.75323E-02 2.89517E-04-1.37272E-01-3.28489E-14 5.14483E-15
 -1      3069 1.99725E+01-5.78417E-02-5.67417E-05-1.47829E-01-5.10533E-15-4.57307E-14
 -1      3070 2.00183E+01-6.61010E-02-4.01317E-04-1.51937E-01 1.10678E-14 2.60216E-15
 -1      3071 1.99775E+01-5.41297E-02 2.87131E-04-1.16008E-01-6.40000E-14 5.80582E-14
 -1      3072 1.99729E+01-5.63568E-02-1.71375E-04-1.26684E-01-5.88426E-14 4.27719E-14
 -1      3073 2.00100E+01-6.63982E-02-2.89776E-04-1.32272E-01-7.26706E-14 4.57576E-15
 -1      3074 1.99797E+01-4.81803E-02 2.74764E-04-9.57597E-02-2.21663E-14 1.02870E-13
 -1      3075 1.99750E+01-5.15379E-02-2.30872E-04-1.05711E-01-2.73217E-14 9.61491E-14
 -1      3076 2.00047E+01-6.19789E-02-2.07845E-04-1.11815E-01-4.94248E-14 5.73482E-14
 -1      3077 1.99827E+01-4.07726E-02 2.60752E-04-7.77402E-02 5.46390E-14 8.78394E-14
 -1      3078 1.99782E+01-4.47671E-02-2.54838E-04-8.64425E-02 3.34060E-14 8.90207E-14
 -1      3079 2.00016E+01-5.47221E-02-1.48570E-04-9.24427E-02-2.66269E-15 1.16700E-13
 -1      3080 1.99862E+01-3.25307E-02 2.51037E-04-6.27072E-02-8.07415E-14 1.32125E-13
 -1      3081 1.99819E+01-3.68917E-02-2.58230E-04-6.98314E-02-1.86699E-14 1.49490E-13
 -1      3082 2.00002E+01-4.58207E-02-1.08034E-04-7.53463E-02-1.28943E-14 1.55714E-13
 -1      3083 1.99901E+01-2.37296E-02 2.50230E-04-5.11605E-02-3.85414E-14 1.11052E-13
 -1      3084 1.99859E+01-2.83551E-02-2.51753E-04-5.64843E-02-5.94051E-14 1.00688E-13
 -1      3085 1.99999E+01-3.59383E-02-8.20051E-05-6.12913E-02-5.54324E-14 1.32903E-13
 -1      3086 1.99942E+01-1.43761E-02 2.62024E-04-4.34893E-02-8.65392E-15 1.08330E-13
 -1      3087 1.99902E+01-1.92940E-02-2.43465E-04-4.68280E-02 3.10746E-15 1.03528E-13
 -1      3088 2.00006E+01-2.53416E-02-6.69888E-05-5.08035E-02-5.50841E-14 5.45145E-14
 -1      3089 1.99988E+01-4.26719E-03 2.89637E-04-4.00871E-02 2.91125E-14 1.08924E-13
 -1      3090 1.99946E+01-9.60740E-03-2.39530E-04-4.12400E-02 2.52631E-14 1.09976E-13
 -1      3091 2.00019E+01-1.39918E-02-6.01330E-05-4.43135E-02 1.64223E-14 7.09539E-14
 -1      3092 2.00039E+01 6.96691E-03 3.35980E-04-4.14405E-02-2.49803E-15 1.09423E-13
 -1      3093 1.99994E+01 9.93042E-04-2.44797E-04-4.01497E-02-4.35345E-15 1.56206E-13
 -1      3094 2.00039E+01-1.60966E-03-5.89189E-05-4.22687E-02 4.02873E-15 1.29894E-13
 -1      3095 2.00099E+01 1.98290E-02 4.03726E-04-4.81974E-02 3.50988E-14 1.39649E-13
 -1      3096 2.00047E+01 1.29451E-02-2.63318E-04-4.41162E-02 6.59942E-14 1.49388E-13
 -1      3097 2.00064E+01 1.22737E-02-6.09449E-05-4.52195E-02 8.04910E-15 1.48426E-13
 -1      3098 2.00170E+01 3.49260E-02 4.95242E-04-6.12180E-02 7.28066E-14 1.62021E-13
 -1      3099 2.00108E+01 2.68053E-02-2.98700E-04-5.38875E-02 2.77818E-14 1.39396E-13
 -1      3100 2.00093E+01 2.82774E-02-6.36995E-05-5.38841E-02 2.77391E-14 2.12241E-13
 -1      3101 2.00254E+01 5.29376E-02 6.12366E-04-8.16086E-02-5.91705E-16 2.26589E-13
 -1      3102 2.00179E+01 4.32195E-02-3.54318E-04-7.04429E-02 5.23082E-14 1.96820E-13
 -1      3103 2.00125E+01 4.71342E-02-6.43138E-05-6.91953E-02 5.86588E-14 2.10756E-13
 -1      3104 2.00356E+01 7.45744E-02 7.56005E-04-1.10736E-01 2.00166E-14 1.68092E-13
 -1      3105 2.00262E+01 6.28881E-02-4.33365E-04-9.50178E-02 2.84288E-14 1.65156E-13
 -1      3106 2.00159E+01 6.96490E-02-5.93102E-05-9.23282E-02 1.29379E-14 2.87314E-13
 -1      3107 2.00479E+01 1.00516E-01 9.25529E-04-1.50214E-01-4.04983E-14 1.69623E-13
 -1      3108 2.00361E+01 8.65153E-02-5.38696E-04-1.29106E-01 3.93376E-14 1.22303E-13
 -1      3109 2.00192E+01 9.66424E-02-4.43806E-05-1.24706E-01 7.02568E-14 2.34960E-13
 -1      3110 2.00623E+01 1.31312E-01 1.11799E-03-2.01858E-01-1.81177E-13 6.31430E-14
 -1      3111 2.00478E+01 1.14731E-01-6.72372E-04-1.74431E-01-7.39094E-14 7.81726E-14
 -1      3112 2.00223E+01 1.28866E-01-1.42825E-05-1.67977E-01-3.62344E-14 1.78047E-13
 -1      3113 2.00792E+01 1.67221E-01 1.32720E-03-2.67583E-01-1.72568E-13-1.41728E-14
 -1      3114 2.00614E+01 1.47968E-01-8.34744E-04-2.32879E-01-2.41278E-13-1.33376E-14
 -1      3115 2.00245E+01 1.66866E-01 3.69662E-05-2.23954E-01-1.45382E-13 5.12539E-14
 -1      3116 2.00984E+01 2.07962E-01 1.54290E-03-3.49233E-01 4.58830E-14-3.76901E-14
 -1      3117 2.00770E+01 1.86258E-01-1.02281E-03-3.06368E-01 9.77969E-15-4.57305E-14
 -1      3118 2.00252E+01 2.10777E-01 1.15243E-04-2.94503E-01-5.45808E-14-1.84032E-13
 -1      3119 2.01200E+01 2.52304E-01 1.75036E-03-4.48305E-01 2.84285E-14-7.37915E-14
 -1      3120 2.00945E+01 2.28916E-01-1.22734E-03-3.96636E-01 7.05504E-14-9.56185E-15
 -1      3121 2.00236E+01 2.59983E-01 2.24181E-04-3.81361E-01 3.68385E-14 8.29928E-15
 -1      3122 2.01438E+01 2.97441E-01 1.93118E-03-5.65542E-01 1.03446E-15 6.99205E-14
 -1      3123 2.01139E+01 2.74036E-01-1.42813E-03-5.04919E-01-5.90423E-14-2.32330E-14
 -1      3124 2.00186E+01 3.12605E-01 3.60600E-04-4.85879E-01-3.41576E-14-1.18817E-13
 -1      3125 2.01699E+01 3.38012E-01 2.06626E-03-7.00350E-01-4.04384E-14 1.73486E-13
 -1      3126 2.01352E+01 3.17704E-01-1.58603E-03-6.31486E-01 4.17605E-14 1.28769E-13
 -1      3127 2.00092E+01 3.64700E-01 5.05654E-04-6.08661E-01-5.62291E-14-3.14889E-15
 -1      3128 2.01998E+01 3.64640E-01 2.14178E-03-8.49989E-01-7.98690E-14 4.35365E-14
 -1      3129 2.01593E+01 3.52800E-01-1.63021E-03-7.74983E-01 2.64166E-14 2.04594E-13
 -1      3130 1.99952E+01 4.09052E-01 6.08773E-04-7.49119E-01-3.78324E-14 1.23605E-13
 -1      3131 2.02373E+01 3.61824E-01 2.15748E-03-1.00849E+00-1.38101E-13 2.16378E-14
 -1      3132 2.01889E+01 3.67240E-01-1.43817E-03-9.31551E-01-1.74460E-13-1.21282E-14
 -1      3133 1.99780E+01 4.33398E-01 5.60277E-04-9.04922E-01-7.84306E-14 1.81738E-13
 -1      3134 2.02919E+01 3.05185E-01 2.13277E-03-1.16520E+00-1.45803E-13 2.49848E-13
 -1      3135 2.02312E+01 3.41533E-01-8.06004E-04-1.09362E+00-1.88718E-13 3.26490E-14
 -1      3136 1.99628E+01 4.17939E-01 1.48105E-04-1.07137E+00-1.82431E-13 3.40190E-14
 -1      3137 2.03834E+01 1.58393E-01 2.09490E-03-1.30274E+00 2.07476E-14 2.78200E-13
 -1      3138 2.03010E+01 2.45803E-01 5.96095E-04-1.24825E+00-2.86883E-15 3.16029E-13
 -1      3139 1.99621E+01 3.32169E-01-1.00221E-03-1.24059E+00-1.42904E-13 1.12855E-13
 -1      3140 2.05483E+01-1.28888E-01 1.99073E-03-1.39395E+00-1.24520E-13 4.33777E-13
 -1      3141 2.04276E+01 3.70202E-02 3.29570E-03-1.37454E+00-3.11586E-14 4.52464E-13
 -1      3142 2.00022E+01 1.31479E-01-3.49879E-03-1.40026E+00-1.11039E-13 2.23222E-13
 -1      3143 2.08484E+01-6.18308E-01 1.44281E-03-1.39630E+00-2.01743E-13 4.93688E-13
 -1      3144 2.06630E+01-3.41335E-01 8.10435E-03-1.43911E+00-1.43427E-13 4.66995E-13
 -1      3145 2.01319E+01-2.44992E-01-8.23766E-03-1.53079E+00-2.08553E-13 4.88154E-13
 -1      3146 2.13751E+01-1.36656E+00-7.30054E-04-1.24151E+00-2.60028E-13 5.43737E-13
 -1      3147 2.10909E+01-9.51304E-01 1.60887E-02-1.38692E+00-2.09595E-13 4.54900E-13
 -1      3148 2.04347E+01-8.70287E-01-1.62035E-02-1.59759E+00-2.17628E-13 4.70934E-13
 -1      3149 2.22436E+01-2.37236E+00-4.33182E-03-8.17171E-01-1.28826E-13 3.23342E-13
 -1      3150 2.18275E+01-1.83021E+00 2.84088E-02-1.12336E+00-1.39649E-13 3.91668E-13
 -1      3151 2.10413E+01-1.80853E+00-2.75482E-02-1.53211E+00-1.23875E-13 3.18845E-13
 -1      3152 2.35310E+01-3.48672E+00-1.67836E-02 3.47254E-02 1.81626E-14 3.49506E-13
 -1      3153 2.29899E+01-2.92045E+00 4.23333E-02-5.02858E-01-1.44854E-13 3.48142E-13
 -1      3154 2.21087E+01-3.03854E+00-4.13820E-02-1.19507E+00-1.49250E-13 3.16382E-13
 -1      3155 2.52181E+01-4.14010E+00-2.08426E-02 1.54547E+00-2.26772E-14 3.14205E-13
 -1      3156 2.46408E+01-3.90217E+00 5.87943E-02 7.17691E-01 1.31106E-13 3.89224E-13
 -1      3157 2.38331E+01-4.38658E+00-5.92766E-02-3.70410E-01 1.13798E-15 4.17770E-13
 -1      3158 2.85802E+01-5.79672E-01-5.54990E-02 5.33415E+00 3.88994E-14 2.81858E-13
 -1      3159 2.85360E+01-2.69705E+00-3.64546E-02 4.57058E+00 9.56041E-14 1.68920E-13
 -1      3160 2.73809E+01-6.95572E+00-1.35873E-01 8.50515E-01-9.83658E-14 7.40727E-14
 -1      3161 2.49674E+01-7.15543E+00 1.59760E-01 2.96449E+00-7.37743E-14 1.91852E-13
 -1      3162 2.01242E+01 2.94013E-01-2.01945E-03 4.28206E-02 9.14290E-14-9.30836E-14
 -1      3163 2.01700E+01 3.95055E-01 4.50361E-03 1.33499E-01 1.08338E-13-9.10211E-14
 -1      3164 2.01891E+01 3.16589E-01-1.43068E-03 3.47948E-02 9.88716E-14-7.47066E-14
 -1      3165 2.00082E+01 2.50655E-03-1.27805E-04-1.75694E-01 4.82565E-14-6.71976E-14
 -1      3166 2.00187E+01 2.81848E-02 1.58810E-03-1.64349E-01 4.47625E-14-7.13626E-14
 -1      3167 2.00711E+01-2.12999E-03-9.49220E-04-1.70030E-01 4.66662E-14-4.96806E-14
 -1      3168 7.96940E+00-1.81638E+00 1.17823E-01-1.78442E-02 3.81358E-13-9.61953E-13
 -1      3169 8.62385E+00-2.00171E+00 1.38727E-01-1.98396E+00 2.79381E-13-6.64135E-13
 -1      3170 2.02859E+01 1.14835E+00 1.65449E-04-6.68874E-01-1.39667E-13-1.46257E-13
 -1      3171 2.02543E+01 9.10313E-01-5.16609E-03-4.77795E-01-1.18284E-13-1.44768E-13
 -1      3172 2.02845E+01 9.46639E-01 7.17180E-04-4.22683E-01-1.00510E-13-1.63857E-13
 -1      3173 1.01905E+01-2.29851E+00 2.99842E-02 3.33187E+00 4.44214E-13-1.08563E-12
 -1      3174 8.69406E+00-1.78671E+00 1.63076E-01 1.56836E+00 4.60611E-13-1.19055E-12
 -1      3175 1.02287E+01-1.20981E+00 1.50861E-01 7.36028E-01 1.74971E-13-9.96606E-13
 -1      3176 2.30013E+01-6.73318E+00 1.55945E-01-3.57225E+00 2.26645E-13 1.06205E-13
 -1      3177 2.56624E+01-7.12858E+00-1.12100E-01-1.71227E+00 4.19845E-13 3.75410E-13
 -1      3178 1.54832E+01-4.63781E+00 4.78657E-02 5.38019E+00 4.53061E-13-6.92127E-13
 -1      3179 1.25798E+01-3.20993E+00 1.59666E-01 4.63006E+00 6.13683E-13-8.29919E-13
 -1      3180 2.67377E+01 3.52632E+00-9.55020E-02-5.94389E+00-3.91798E-13 2.96568E-14
 -1      3181 2.00428E+01 2.16133E+00-4.32798E-03 2.92394E-01 1.90203E-14-1.94082E-13
 -1      3182 2.00298E+01 2.20008E+00-3.31844E-03 1.70740E-01-7.23434E-15-2.23460E-13
 -1      3183 1.67359E+01-5.18002E+00 1.30272E-01-5.23710E+00 2.74482E-13-4.12809E-13
 -1      3184 1.95600E+01-6.37206E+00-3.93395E-02-4.96174E+00 2.17257E-13-3.85594E-13
 -1      3185 2.02014E+01 1.89906E+00 4.85775E-03-1.00080E+00-1.53251E-13-1.84715E-13
 -1      3186 2.00345E+01 5.93345E-02-5.13091E-04-1.45179E-01 3.42819E-14-7.16341E-14
 -1      3187 2.00544E+01 1.01015E-01 2.50531E-03-1.17074E-01 4.78768E-14-8.36934E-14
 -1      3188 2.01423E+01 1.60582E-01-1.37204E-03-7.80573E-02 5.62036E-14-7.36361E-14
 -1      3189 2.02913E+01 9.89275E-01-6.04362E-04 6.88934E-01 1.52214E-13-1.37565E-13
 -1      3190 2.02678E+01 1.30873E+00 3.48410E-03 7.70341E-01 1.56866E-13-1.42752E-13
 -1      3191 2.02739E+01 1.12851E+00 1.45390E-03 5.93525E-01 1.37203E-13-1.40143E-13
 -1      3192 2.02329E+01 7.76416E-01-3.66238E-03 4.83592E-01 1.36920E-13-1.24206E-13
 -1      3193 2.87791E+01-4.69187E+00-8.48235E-02 2.72518E+00 1.17403E-13 1.82415E-13
 -1      3194 2.66803E+01-3.62574E+00-1.95278E-02 3.32460E+00 1.38578E-13 3.06874E-13
 -1      3195 2.63064E+01-4.09172E+00 6.26346E-02 2.36881E+00 4.50404E-14 3.54244E-13
 -1      3196 2.76220E+01-6.07288E+00 1.20260E-01 6.10340E-01 2.86743E-13 2.71720E-13
 -1      3197 1.88299E+01-5.51107E+00-4.60035E-02 4.74875E+00 4.21663E-13-6.39558E-14
 -1      3198 1.72743E+01-4.96057E+00 1.29452E-01 5.19832E+00 4.68861E-13-4.25410E-13
 -1      3199 1.61651E+01-3.85925E+00 4.43469E-02 4.75115E+00 7.53397E-13-5.62307E-13
 -1      3200 2.59454E+01-5.90761E+00 4.25938E-02-2.36606E-01 2.27648E-13 3.87728E-13
 -1      3201 2.74166E+01-5.72813E+00 1.81590E-02-6.45465E-01-1.02279E-13-1.56840E-13
 -1      3202 2.35506E+01-6.69920E+00 7.90592E-02 3.28717E+00 2.88380E-14 1.80380E-13
 -1      3203 2.82444E+01-2.05745E+00 9.97539E-03-4.32956E+00-1.99700E-13-4.61367E-14
 -1      3204 2.01367E+01 1.92312E+00 5.00195E-03 1.01349E-01-3.57714E-14-1.95412E-13
 -1      3205 2.00227E+01 2.21893E+00-3.66278E-03 6.58721E-02-2.71595E-14-2.21279E-13
 -1      3206 2.00222E+01 2.21981E+00-3.63428E-03-5.80586E-02-5.06412E-14-1.95096E-13
 -1      3207 2.66737E+01-4.71997E+00-6.30170E-02-1.69727E+00-5.75104E-14-5.26627E-14
 -1      3208 2.01025E+01 6.03451E-02-1.18076E-03-1.41293E-01 3.33553E-14-5.01370E-14
 -1      3209 2.63349E+01-4.33082E-01-1.35819E-01-5.14279E+00-3.09742E-13 2.06670E-13
 -1      3210 2.60283E+01 1.76166E+00-1.55092E-02-5.41887E+00-3.58415E-13 1.58119E-13
 -1      3211 2.00893E+01 2.02531E+00-5.41347E-03 5.03713E-01 6.67830E-14-1.99032E-13
 -1      3212 2.00635E+01 2.10587E+00-3.07486E-03 3.90398E-01 4.39620E-14-1.96407E-13
 -1      3213 2.01595E+01 1.84851E+00 5.43894E-03 2.90556E-01 2.39568E-14-1.70636E-13
 -1      3214 1.08000E+01-2.04506E+00 1.43115E-01-2.72862E+00 1.61319E-13-5.52669E-13
 -1      3215 2.58010E+01-5.16877E+00-1.02297E-01 9.56596E-01 9.47094E-14 6.11389E-13
 -1      3216 2.65077E+01 4.01254E+00-1.24589E-01 5.95914E+00-1.19155E-13-2.13822E-14
 -1      3217 2.97753E+01-2.28045E-01-5.49569E-03 5.47554E+00 5.00294E-14 2.40419E-13
 -1      3218 2.30653E+01 9.56428E+00-4.09960E-01-8.12395E-01-2.88769E-13 4.24383E-14
 -1      3219 1.54656E+01-4.29007E+00 9.40835E-02-5.01788E+00 2.18645E-13-4.09145E-13
 -1      3220 1.73766E+01-4.15243E+00 7.73130E-02-4.38285E+00 9.28216E-14-1.69552E-13
 -1      3221 1.42646E+01-3.17187E+00 6.18716E-02-4.34638E+00 2.21021E-13-4.76327E-13
 -1      3222 2.00607E+01 2.11179E+00-3.06636E-03-3.83090E-01-8.58320E-14-2.08072E-13
 -1      3223 2.00852E+01 2.03377E+00-5.34016E-03-4.97226E-01-1.03071E-13-2.14907E-13
 -1      3224 2.01186E+01 1.94084E+00-2.55337E-03-5.82874E-01-1.01447E-13-2.10906E-13
 -1      3225 2.01535E+01 1.81303E+00-7.22723E-03-6.81431E-01-1.26138E-13-2.05131E-13
 -1      3226 2.01970E+01 1.70372E+00 5.27192E-03-4.53016E-01-1.06665E-13-2.07554E-13
 -1      3227 2.01576E+01 1.80212E+00-6.95944E-03 6.84750E-01 1.05680E-13-1.77296E-13
 -1      3228 2.01226E+01 1.93156E+00-2.43750E-03 5.89206E-01 7.97063E-14-1.90780E-13
 -1      3229 2.02008E+01 1.69654E+00 5.79587E-03 4.58509E-01 6.39380E-14-1.73640E-13
 -1      3230 2.02499E+01 1.46196E+00 5.85283E-03 5.84599E-01 9.94090E-14-1.48919E-13
 -1      3231 1.27015E+01-2.28805E+00 1.37126E-01 3.58700E+00 5.51566E-13-8.80157E-13
 -1      3232 2.16088E+01-5.90406E+00 7.23233E-02-3.63806E+00 9.54098E-14 4.85775E-14
 -1      3233 2.02175E+01 1.59685E+00-1.12983E-03-8.27975E-01-1.47134E-13-1.81869E-13
 -1      3234 2.02137E+01 1.60873E+00 1.43524E-03-7.17154E-01-1.24437E-13-1.91643E-13
 -1      3235 2.01761E+01 4.86870E-01-2.81697E-03 2.19346E-01 1.27796E-13-1.16048E-13
 -1      3236 2.02311E+01 6.35802E-01 3.78885E-03 3.59377E-01 1.39460E-13-1.19826E-13
 -1      3237 2.02605E+01 7.94981E-01 1.51593E-03 4.20633E-01 1.25718E-13-1.19568E-13
 -1      3238 2.02295E+01 5.23175E-01-1.54710E-03 1.98673E-01 1.03107E-13-7.27175E-14
 -1      3239 1.12406E+01-8.99171E-01-1.23500E-02 1.20187E+00 7.52905E-14-8.73329E-13
 -1      3240 1.09870E+01-7.49500E-01 9.48334E-02-3.20865E-01-7.40801E-14-8.00270E-13
 -1      3241 2.02988E+01 4.39123E-01 2.51535E-03-7.11006E-02-1.06221E-13-1.81865E-13
 -1      3242 2.02738E+01 3.26542E-01-2.14837E-03-4.35484E-03-1.20156E-13-1.81108E-13
 -1      3243 2.02654E+01 2.36836E-01 2.14861E-03 4.07092E-02-1.19549E-13-1.68851E-13
 -1      3244 2.02406E+01 1.61269E-01-1.30126E-03 8.13952E-02-9.88997E-14-1.75495E-13
 -1      3245 2.03134E+01 3.28111E-01-1.15789E-04 3.30733E-03-1.18338E-13-1.62773E-13
 -1      3246 2.02257E+01 1.02142E-01 1.62157E-03 1.07382E-01-8.72523E-14-1.62992E-13
 -1      3247 2.02040E+01 5.30727E-02-6.71050E-04 1.29016E-01-6.25629E-14-1.44598E-13
 -1      3248 2.02816E+01 1.58519E-01-4.26095E-04 7.75565E-02-8.09920E-14-1.16550E-13
 -1      3249 2.01864E+01 1.55927E-02 1.13511E-03 1.41102E-01-2.58138E-14-1.39358E-13
 -1      3250 2.01684E+01-1.46959E-02-2.36985E-04 1.49612E-01-1.22903E-14-1.29939E-13
 -1      3251 2.02435E+01 4.70747E-02-5.86041E-04 1.18648E-01-4.67834E-14-8.63000E-14
 -1      3252 2.01505E+01-3.70294E-02 7.44356E-04 1.52288E-01-4.32673E-15-1.54709E-13
 -1      3253 2.01362E+01-5.42411E-02 4.13688E-05 1.52265E-01-1.72394E-14-1.19658E-13
 -1      3254 2.02048E+01-2.25507E-02-6.23494E-04 1.36089E-01-9.16896E-15-1.25216E-13
 -1      3255 2.01194E+01-6.61408E-02 4.49283E-04 1.48996E-01-9.86978E-15-8.61982E-14
 -1      3256 2.01083E+01-7.44212E-02 2.07215E-04 1.43826E-01 2.01185E-14-6.00291E-14
 -1      3257 2.01684E+01-6.28132E-02-5.98787E-04 1.37778E-01 8.66988E-15-1.16391E-13
 -1      3258 2.00933E+01-7.92832E-02 2.36792E-04 1.37164E-01-4.75950E-14-4.38407E-14
 -1      3259 2.00849E+01-8.16158E-02 2.95730E-04 1.29257E-01-6.05195E-14-2.66577E-14
 -1      3260 2.01361E+01-8.28709E-02-5.42741E-04 1.29739E-01 1.55116E-15-9.51060E-14
 -1      3261 2.00721E+01-8.18607E-02 8.98951E-05 1.21010E-01-3.68277E-14-4.86579E-14
 -1      3262 2.00659E+01-8.03588E-02 3.33519E-04 1.12030E-01 1.46240E-14-4.22092E-14
 -1      3263 2.01083E+01-8.93751E-02-4.74564E-04 1.16366E-01-5.25633E-14-9.49230E-14
 -1      3264 2.00551E+01-7.76794E-02-7.91433E-06 1.03432E-01-2.34804E-14-6.45650E-14
 -1      3265 2.00507E+01-7.37960E-02 3.40494E-04 9.44956E-02-3.46556E-14-9.21416E-14
 -1      3266 2.00852E+01-8.70618E-02-4.03130E-04 1.00754E-01-3.12369E-14-1.12500E-13
 -1      3267 2.00419E+01-6.93288E-02-7.16487E-05 8.63645E-02-3.06923E-14-1.01450E-13
 -1      3268 2.00389E+01-6.40128E-02 3.30743E-04 7.82021E-02-8.10090E-14-8.43088E-14
 -1      3269 2.00664E+01-7.92083E-02-3.34092E-04 8.50024E-02-1.80566E-14-1.22788E-13
 -1      3270 2.00318E+01-5.84739E-02-1.13580E-04 7.10695E-02-8.01019E-14-1.58509E-13
 -1      3271 2.00299E+01-5.22932E-02 3.14157E-04 6.41595E-02-6.51389E-14-1.47991E-13
 -1      3272 2.00514E+01-6.79692E-02-2.70340E-04 7.05049E-02-1.07234E-13-1.36920E-13
 -1      3273 2.00243E+01-4.60804E-02-1.43662E-04 5.83743E-02-1.06217E-13-1.70112E-13
 -1      3274 2.00232E+01-3.93123E-02 2.97820E-04 5.30403E-02-1.63387E-13-1.57326E-13
 -1      3275 2.00397E+01-5.46465E-02-2.12225E-04 5.81836E-02-9.64731E-14-2.84052E-13
 -1      3276 2.00187E+01-3.25787E-02-1.69998E-04 4.88491E-02-2.04187E-13-7.43488E-14
 -1      3277 2.00182E+01-2.52764E-02 2.86890E-04 4.53386E-02-1.63520E-13-1.42585E-13
 -1      3278 2.00305E+01-3.98931E-02-1.59129E-04 4.86662E-02-1.45997E-13-1.80869E-13
 -1      3279 2.00144E+01-1.79865E-02-1.99132E-04 4.29495E-02-5.54442E-14-1.31598E-13
 -1      3280 2.00145E+01-1.00309E-02 2.84937E-04 4.14942E-02 6.96662E-15-1.28177E-13
 -1      3281 2.00231E+01-2.38603E-02-1.09333E-04 4.24321E-02-1.08656E-13 2.54340E-14
 -1      3282 2.00111E+01-2.00380E-03-2.36615E-04 4.11256E-02 1.32817E-14-9.48064E-14
 -1      3283 2.00114E+01 6.85740E-03 2.94370E-04 4.19866E-02 5.65023E-14-9.93736E-14
 -1      3284 2.00170E+01-6.31315E-03-6.03420E-05 3.99242E-02 3.27730E-14 5.75762E-14
 -1      3285 2.00079E+01 1.59138E-02-2.87344E-04 4.39037E-02 9.07971E-14-6.95783E-14
 -1      3286 2.00084E+01 2.60338E-02 3.16710E-04 4.74055E-02 7.38006E-14-6.61806E-14
 -1      3287 2.00113E+01 1.32792E-02-9.04871E-06 4.16333E-02 8.91941E-14-3.69672E-14
 -1      3288 2.00044E+01 3.64940E-02-3.55752E-04 5.19472E-02 1.77448E-14-9.04374E-14
 -1      3289 2.00049E+01 4.82970E-02 3.52725E-04 5.85012E-02 8.47134E-14-1.20028E-13
 -1      3290 2.00051E+01 3.56710E-02 4.81819E-05 4.81609E-02 5.00422E-14 5.62976E-14
 -1      3291 1.99997E+01 6.05881E-02-4.45847E-04 6.60988E-02 9.95280E-14-1.99284E-13
 -1      3292 2.00000E+01 7.45367E-02 4.02431E-04 7.62167E-02-2.24071E-14-2.08326E-13
 -1      3293 1.99975E+01 6.17715E-02 1.15447E-04 6.02638E-02-5.12164E-15-3.80340E-14
 -1      3294 1.99931E+01 8.91022E-02-5.61101E-04 8.74038E-02-1.28228E-13-2.74279E-13
 -1      3295 1.99930E+01 1.05654E-01 4.65023E-04 1.01700E-01-9.11138E-14-3.07154E-13
 -1      3296 1.99874E+01 9.25700E-02 1.97196E-04 7.88805E-02-8.01832E-14-1.54347E-13
 -1      3297 1.99836E+01 1.22905E-01-7.04128E-04 1.17112E-01-1.99853E-14-2.85455E-13
 -1      3298 1.99827E+01 1.42454E-01 5.38789E-04 1.36292E-01 3.76466E-14-2.51266E-13
 -1      3299 1.99734E+01 1.29039E-01 2.98018E-04 1.05140E-01-4.53798E-14-2.76291E-13
 -1      3300 1.99700E+01 1.62697E-01-8.76135E-04 1.56653E-01 8.62704E-14-2.22014E-13
 -1      3301 1.99679E+01 1.85480E-01 6.21124E-04 1.81485E-01 1.50320E-13-1.82251E-13
 -1      3302 1.99542E+01 1.72002E-01 4.22213E-04 1.40346E-01 4.84688E-14-2.51808E-13
 -1      3303 1.99509E+01 2.08812E-01-1.07607E-03 2.07585E-01 1.81580E-13-2.52448E-13
 -1      3304 1.99472E+01 2.34785E-01 7.08901E-04 2.38848E-01 1.55660E-13-1.64430E-13
 -1      3305 1.99278E+01 2.21934E-01 5.73015E-04 1.85941E-01 1.65187E-13-2.48309E-13
 -1      3306 1.99249E+01 2.60938E-01-1.29947E-03 2.71497E-01 9.39179E-14-1.57598E-13
 -1      3307 1.99191E+01 2.89583E-01 7.99559E-04 3.09905E-01-4.82857E-15-1.18122E-13
 -1      3308 1.98922E+01 2.78686E-01 7.51222E-04 2.43441E-01 1.43231E-13-2.34676E-13
 -1      3309 1.98903E+01 3.17699E-01-1.53685E-03 3.49881E-01 4.40544E-14 3.90506E-14
 -1      3310 1.98820E+01 3.47757E-01 8.93568E-04 3.95976E-01 1.05699E-13 1.26890E-13
 -1      3311 1.98454E+01 3.41078E-01 9.52861E-04 3.14337E-01 1.22771E-13-5.74953E-14
 -1      3312 1.98458E+01 3.76074E-01-1.77163E-03 4.43960E-01-6.91833E-14 1.51400E-13
 -1      3313 1.98347E+01 4.05163E-01 9.99212E-04 4.97982E-01-9.66439E-14 7.48572E-14
 -1      3314 1.97852E+01 4.06338E-01 1.16535E-03 3.99998E-01 4.98598E-14 1.67213E-14
 -1      3315 1.97904E+01 4.30567E-01-1.97725E-03 5.54508E-01-1.23590E-13-1.16865E-15
 -1      3316 1.97770E+01 4.54675E-01 1.14083E-03 6.16243E-01-1.22729E-13-7.14933E-14
 -1      3317 1.97098E+01 4.69327E-01 1.36121E-03 5.01575E-01-1.24684E-13 3.26480E-14
 -1      3318 1.97247E+01 4.72097E-01-2.11255E-03 6.81677E-01-1.25208E-13-1.30875E-13
 -1      3319 1.97103E+01 4.84885E-01 1.37127E-03 7.50314E-01-1.61297E-13-1.73651E-13
 -1      3320 1.96183E+01 5.21486E-01 1.48789E-03 6.19988E-01-2.21465E-13-7.52598E-14
 -1      3321 1.96517E+01 4.86511E-01-2.11357E-03 8.24916E-01-1.76424E-15-4.16463E-14
 -1      3322 1.96400E+01 4.78428E-01 1.78722E-03 8.98915E-01 1.68964E-13 3.17386E-14
 -1      3323 1.95120E+01 5.49467E-01 1.45078E-03 7.56061E-01-2.42467E-14-1.29828E-13
 -1      3324 1.95792E+01 4.52716E-01-1.87769E-03 9.83006E-01 9.84014E-14 8.49384E-15
 -1      3325 1.95775E+01 4.09944E-01 2.54343E-03 1.05997E+00 7.86183E-15-8.35780E-14
 -1      3326 1.93959E+01 5.33358E-01 1.08456E-03 9.10920E-01 1.18742E-13-1.11582E-13
 -1      3327 1.95232E+01 3.40531E-01-1.22783E-03 1.15417E+00-4.49807E-14-2.58359E-14
 -1      3328 1.95453E+01 2.43863E-01 3.86596E-03 1.23063E+00 3.74874E-14-6.93780E-14
 -1      3329 1.92812E+01 4.44554E-01 1.08259E-04 1.08670E+00 6.56760E-15-1.16863E-13
 -1      3330 1.95135E+01 1.08573E-01 2.02224E-04 1.33603E+00 3.30273E-14-1.96606E-13
 -1      3331 1.95826E+01-6.76658E-02 5.99580E-03 1.40665E+00-3.74097E-14-2.77218E-13
 -1      3332 1.91903E+01 2.43342E-01-1.92932E-03 1.28742E+00-8.91978E-14-2.33782E-13
 -1      3333 1.96023E+01-2.97163E-01 3.27691E-03 1.52351E+00-1.93952E-14-3.03093E-13
 -1      3334 1.97557E+01-5.84374E-01 9.48765E-03 1.57840E+00 6.25920E-14-2.86598E-13
 -1      3335 1.91642E+01-1.24377E-01-5.72803E-03 1.51919E+00-4.72259E-14-3.78667E-13
 -1      3336 1.98751E+01-9.39614E-01 9.79053E-03 1.70413E+00 1.71672E-13-2.08537E-13
 -1      3337 2.01726E+01-1.37420E+00 1.46590E-02 1.72204E+00 2.72590E-13-1.12596E-13
 -1      3338 1.92723E+01-7.25099E-01-1.17009E-02 1.78575E+00 1.45885E-13-2.91221E-13
 -1      3339 2.04801E+01-1.88937E+00 2.20293E-02 1.83962E+00 3.18431E-13 3.92451E-14
 -1      3340 2.09957E+01-2.48390E+00 2.11777E-02 1.77358E+00 3.10859E-13 3.22802E-14
 -1      3341 1.96181E+01-1.64357E+00-2.54707E-02 2.08550E+00 3.81880E-13-1.16216E-13
 -1      3342 2.16353E+01-3.14488E+00 4.88150E-02 1.77056E+00 1.78357E-13 3.41329E-14
 -1      3343 2.24179E+01-3.84668E+00 2.70719E-02 1.50403E+00 2.02408E-13 4.37684E-14
 -1      3344 2.04988E+01-3.04032E+00-6.19738E-02 2.35777E+00 2.45931E-13-1.19363E-13
 -1      3345 2.01593E+01 5.66056E-02-6.51341E-04-1.36484E-01 3.45169E-14-4.77558E-14
 -1      3346 2.01807E+01 1.03923E-01 1.88716E-03-1.12618E-01 2.53882E-14-5.57170E-14
 -1      3347 2.00980E+01-4.68594E-02 4.63939E-05-1.64085E-01 7.47356E-14 2.27230E-14
 -1      3348 2.01098E+01-3.01112E-02 8.11953E-04-1.63902E-01 6.67459E-14 1.11142E-14
 -1      3349 2.00422E+01-7.38172E-02 3.28719E-04-1.21610E-01-6.32796E-14 5.01597E-14
 -1      3350 2.00457E+01-7.48885E-02 5.82696E-05-1.31239E-01-4.48324E-14 7.23874E-14
 -1      3351 2.00313E+01-6.83024E-02 3.34376E-04-1.02622E-01-1.15434E-13 1.17360E-13
 -1      3352 2.00333E+01-7.16428E-02-4.73009E-05-1.12254E-01-1.24379E-13 7.74958E-14
 -1      3353 2.00658E+01-8.13517E-02-3.71800E-04-1.11869E-01-8.41762E-14 1.66054E-13
 -1      3354 2.00232E+01-5.97503E-02 3.24585E-04-8.48373E-02-1.14793E-14 1.21274E-13
 -1      3355 2.00241E+01-6.44405E-02-1.11146E-04-9.36969E-02-2.00105E-14 1.24700E-13
 -1      3356 2.00505E+01-7.46132E-02-2.99390E-04-9.44283E-02-9.52976E-14 8.63720E-14
 -1      3357 2.00175E+01-4.93997E-02 3.08982E-04-6.93384E-02-5.75293E-14 1.53699E-13
 -1      3358 2.00176E+01-5.48883E-02-1.49633E-04-7.69242E-02-4.57315E-14 9.14931E-14
 -1      3359 2.00386E+01-6.46339E-02-2.38410E-04-7.82233E-02-3.11147E-16 1.19088E-13
 -1      3360 2.00136E+01-3.79226E-02 2.94853E-04-5.68401E-02-6.67660E-14 1.00001E-13
 -1      3361 2.00131E+01-4.39281E-02-1.73307E-04-6.28194E-02-3.65128E-14 1.39054E-13
 -1      3362 2.00296E+01-5.26922E-02-1.86824E-04-6.42726E-02-2.81112E-14 1.20291E-13
 -1      3363 2.00112E+01-2.55566E-02 2.87264E-04-4.78512E-02-2.24080E-14 5.32892E-14
 -1      3364 2.00103E+01-3.20061E-02-1.91104E-04-5.19778E-02-6.34490E-14 7.94271E-14
 -1      3365 2.00228E+01-3.94577E-02-1.42745E-04-5.32612E-02-4.54217E-14 1.28323E-13
 -1      3366 2.00098E+01-1.22016E-02 2.89996E-04-4.28090E-02 3.23660E-14 1.91285E-14
 -1      3367 2.00085E+01-1.91845E-02-2.10289E-04-4.48586E-02 2.61000E-15 3.61070E-14
 -1      3368 2.00178E+01-2.51268E-02-1.04194E-04-4.56953E-02-2.90844E-15-1.88334E-14
 -1      3369 2.00092E+01 2.50643E-03 3.05815E-04-4.21826E-02 8.29773E-15 1.50741E-13
 -1      3370 2.00076E+01-5.22662E-03-2.36774E-04-4.19038E-02 4.55349E-14 1.23070E-13
 -1      3371 2.00140E+01-9.52752E-03-6.86557E-05-4.20276E-02 1.06524E-15 3.88860E-14
 -1      3372 2.00090E+01 1.91394E-02 3.36703E-04-4.65509E-02 5.77032E-15 9.45662E-14
 -1      3373 2.00070E+01 1.03394E-02-2.75654E-04-4.36277E-02 7.47905E-15 5.55867E-14
 -1      3374 2.00107E+01 7.79976E-03-3.31473E-05-4.27523E-02 5.48254E-14-1.23198E-14
 -1      3375 2.00088E+01 3.84310E-02 3.83942E-04-5.66606E-02 4.85426E-14 8.40819E-14
 -1      3376 2.00066E+01 2.81697E-02-3.31546E-04-5.06851E-02 6.72792E-14 1.20841E-13
 -1      3377 2.00074E+01 2.75394E-02 5.80030E-06-4.84760E-02 4.53973E-14 1.03512E-16
 -1      3378 2.00081E+01 6.12316E-02 4.48055E-04-7.34659E-02 1.21486E-14 1.66667E-13
 -1      3379 2.00057E+01 4.90605E-02-4.08778E-04-6.39205E-02-1.07472E-15 1.42380E-13
 -1      3380 2.00033E+01 5.05468E-02 5.22228E-05-5.99693E-02 2.26059E-14 7.72652E-14
 -1      3381 2.00065E+01 8.84562E-02 5.28622E-04-9.81486E-02-2.17192E-14 1.21629E-13
 -1      3382 2.00038E+01 7.39009E-02-5.11421E-04-8.43981E-02-2.24116E-14 1.56173E-13
 -1      3383 1.99977E+01 7.77936E-02 1.10824E-04-7.81990E-02-2.18310E-14 1.08866E-13
 -1      3384 2.00031E+01 1.21011E-01 6.23976E-04-1.32115E-01 4.55997E-14 1.72986E-13
 -1      3385 2.00004E+01 1.03612E-01-6.43166E-04-1.13412E-01 5.69132E-14 1.52032E-13
 -1      3386 1.99895E+01 1.10301E-01 1.87055E-04-1.04341E-01-9.31151E-15 6.33735E-14
 -1      3387 1.99972E+01 1.59687E-01 7.30892E-04-1.76964E-01-5.54871E-14 6.42261E-14
 -1      3388 1.99946E+01 1.39059E-01-8.06982E-04-1.52471E-01 3.69321E-14 2.03094E-13
 -1      3389 1.99775E+01 1.49048E-01 2.87094E-04-1.39770E-01 4.00451E-14 1.20575E-13
 -1      3390 1.99875E+01 2.04993E-01 8.44407E-04-2.34418E-01-5.27069E-14-2.35310E-14
 -1      3391 1.99853E+01 1.80918E-01-1.00450E-03-2.03251E-01-1.12313E-13 3.32948E-14
 -1      3392 1.99602E+01 1.94832E-01 4.17606E-04-1.86018E-01-4.03984E-14 2.84922E-14
 -1      3393 1.99727E+01 2.56901E-01 9.58127E-04-3.06205E-01-3.88219E-14-5.91381E-14
 -1      3394 1.99712E+01 2.29471E-01-1.23503E-03-2.67505E-01-1.63310E-14-4.94695E-14
 -1      3395 1.99358E+01 2.48064E-01 5.85064E-04-2.44702E-01-1.09659E-14 9.33773E-15
 -1      3396 1.99509E+01 3.14465E-01 1.06563E-03-3.93883E-01 3.41575E-14-7.35933E-14
 -1      3397 1.99508E+01 2.84295E-01-1.49407E-03-3.46926E-01 6.41417E-15-7.87986E-14
 -1      3398 1.99021E+01 3.08455E-01 7.94223E-04-3.17412E-01-6.95915E-15-2.40233E-14
 -1      3399 1.99203E+01 3.75231E-01 1.16404E-03-4.98615E-01-5.37856E-14-9.75654E-14
 -1      3400 1.99221E+01 3.43783E-01-1.77118E-03-4.42959E-01-2.06501E-14-5.21869E-14
 -1      3401 1.98564E+01 3.74558E-01 1.04510E-03-4.05562E-01-4.72426E-15-8.33174E-14
 -1      3402 1.98793E+01 4.34373E-01 1.26137E-03-6.20893E-01-2.05446E-13 2.48122E-14
 -1      3403 1.98834E+01 4.04431E-01-2.04671E-03-5.56560E-01-1.29746E-13-5.94824E-14
 -1      3404 1.97963E+01 4.43080E-01 1.32740E-03-5.10233E-01-9.09803E-14-5.12722E-15
 -1      3405 1.98271E+01 4.83413E-01 1.38979E-03-7.60254E-01-6.35845E-14 1.44208E-13
 -1      3406 1.98332E+01 4.59784E-01-2.28683E-03-6.87944E-01-1.70760E-13 9.64714E-14
 -1      3407 1.97191E+01 5.07898E-01 1.61055E-03-6.32041E-01-2.07721E-13 7.83253E-14
 -1      3408 1.97649E+01 5.08391E-01 1.62572E-03-9.15070E-01-1.09764E-13 1.93147E-13
 -1      3409 1.97716E+01 4.98892E-01-2.43484E-03-8.36373E-01 3.75586E-14 2.07921E-13
 -1      3410 1.96234E+01 5.58635E-01 1.82638E-03-7.71144E-01-3.46204E-14 1.50028E-13
 -1      3411 1.96989E+01 4.87330E-01 2.11297E-03-1.08247E+00-1.59473E-13 1.55891E-13
 -1      3412 1.97019E+01 5.04147E-01-2.39515E-03-1.00007E+00-1.64617E-13 1.20750E-13
 -1      3413 1.95100E+01 5.78667E-01 1.83880E-03-9.27511E-01-1.28609E-13 1.97433E-13
 -1      3414 1.96441E+01 3.87023E-01 3.08504E-03-1.25838E+00-1.14831E-13 1.23937E-13
 -1      3415 1.96336E+01 4.48393E-01-2.00471E-03-1.17629E+00-1.69465E-13 8.54569E-14
 -1      3416 1.93845E+01 5.42396E-01 1.39139E-03-1.10162E+00-1.70070E-13 4.30096E-14
 -1      3417 1.96313E+01 1.59512E-01 4.88552E-03-1.43749E+00-2.75036E-13 2.68401E-13
 -1      3418 1.95885E+01 2.91506E-01-9.65322E-04-1.36149E+00-1.34510E-13 9.21453E-14
 -1      3419 1.92621E+01 4.11845E-01 3.78175E-05-1.29561E+00-1.57832E-13 1.92079E-13
 -1      3420 1.97176E+01-2.60876E-01 7.82698E-03-1.61189E+00-2.91299E-13 3.99330E-13
 -1      3421 1.96090E+01-2.28470E-02 1.36349E-03-1.55098E+00-2.95725E-13 3.02045E-13
 -1      3422 1.91740E+01 1.32765E-01-2.95235E-03-1.51466E+00-2.92180E-13 3.44451E-13
 -1      3423 2.00011E+01-9.56209E-01 1.19657E-02-1.76388E+00-1.84450E-13 2.70781E-13
 -1      3424 1.97730E+01-5.68896E-01 6.37376E-03-1.73525E+00-2.72229E-13 3.80726E-13
 -1      3425 1.91806E+01-3.70154E-01-8.80169E-03-1.76701E+00-2.50762E-13 1.70046E-13
 -1      3426 2.06363E+01-2.00891E+00 1.63134E-02-1.84354E+00-7.95757E-14 3.63634E-13
 -1      3427 2.02134E+01-1.43243E+00 1.64556E-02-1.88649E+00 1.50654E-14 4.20791E-13
 -1      3428 1.93925E+01-1.19168E+00-1.82821E-02-2.05530E+00-1.58550E-13 2.04325E-13
 -1      3429 2.18856E+01-3.41433E+00 3.47686E-02-1.70343E+00-1.66326E-13 4.06162E-13
 -1      3430 2.11487E+01-2.68544E+00 3.63045E-02-1.91934E+00-1.51968E-13 2.84492E-13
 -1      3431 2.00027E+01-2.43046E+00-2.92120E-02-2.35020E+00-6.21781E-14 3.79915E-13
 -1      3432 2.50026E+01-5.51392E+00 1.27344E-01-8.76165E-01 9.92093E-14 4.63495E-13
 -1      3433 2.00409E+01 2.16576E+00-4.22267E-03-2.84132E-01-8.44681E-14-1.97722E-13
 -1      3434 2.01572E+01 1.85303E+00 5.28682E-03-2.84474E-01-8.37144E-14-1.94345E-13
 -1      3435 2.00285E+01 2.20250E+00-3.34267E-03-1.62732E-01-6.31585E-14-1.89878E-13
 -1      3436 2.01262E+01-8.58617E-03-2.24231E-04-1.60262E-01 3.25986E-14-3.63497E-14
 -1      3437 2.01423E+01 2.06492E-02 1.28310E-03-1.50773E-01 2.61321E-14-3.94318E-14
 -1      3438 2.01700E+01-1.55526E-02-7.00653E-04-1.48841E-01 2.77106E-14-4.61661E-14
 -1      3439 2.02341E+01 3.20525E-01-2.20020E-03 1.42704E-02 8.86556E-14-5.56094E-14
 -1      3440 2.02653E+01 4.30405E-01 3.28902E-03 8.81633E-02 8.88463E-14-6.60438E-14
 -1      3441 2.59934E+01-5.55121E+00 1.24836E-01 2.03155E-01-1.38138E-14-8.33708E-14
 -1      3442 2.39924E+01-6.22620E+00-9.23033E-02 2.18994E+00 1.01506E-13-1.62093E-14
 -1      3443 2.19812E+01-5.83777E+00 1.57712E-01 3.77589E+00 1.87045E-13 1.52482E-13
 -1      3444 2.00566E+01-7.42832E-02 2.93590E-04-1.40110E-01-3.09488E-14 8.75005E-14
 -1      3445 2.00621E+01-7.17028E-02 2.22166E-04-1.48532E-01 5.01047E-15 6.01486E-14
 -1      3446 2.00850E+01-8.27216E-02-4.49342E-04-1.29001E-01-2.15754E-14 1.44029E-13
 -1      3447 2.02863E+01 1.16015E+00-3.73680E-04-4.76619E-01-9.79117E-14-1.86713E-13
 -1      3448 2.02873E+01 9.31036E-01-3.77691E-03-3.37661E-01-8.34409E-14-1.88457E-13
 -1      3449 2.00750E+01-6.67328E-02 2.08547E-04-1.55538E-01 2.65800E-14 3.16386E-14
 -1      3450 2.00832E+01-5.84942E-02 4.65512E-04-1.60965E-01 5.79889E-14 4.51701E-14
 -1      3451 2.01371E+01-5.53266E-02-6.23882E-04-1.51717E-01 5.83635E-14 6.96796E-14
 -1      3452 2.01087E+01-7.55662E-02-5.33588E-04-1.43440E-01-4.88565E-15 1.10035E-13
 -1      3453 2.03142E+01 7.36561E-01 2.82495E-03-2.41069E-01-7.79565E-14-1.81006E-13
 -1      3454 2.02947E+01 5.72999E-01-2.91245E-03-1.40219E-01-8.64184E-14-1.76994E-13
 -1      3455 2.03126E+01 9.30655E-01-5.72739E-04-2.83251E-01-8.42971E-14-1.89124E-13
 -1      3456 1.43565E+01-2.38375E+00 2.21278E-02 3.84972E+00 6.06633E-13-5.32428E-13
 -1      3457 1.25517E+01-1.29477E+00 9.39487E-02 2.67735E+00 3.95926E-13-7.64042E-13
 -1      3458 2.02449E+01-4.87108E+00 8.78493E-02-3.75472E+00 2.60920E-14 1.64525E-13
 -1      3459 2.25956E+01-5.75808E+00-9.04376E-02-2.66373E+00-4.32640E-15 3.93994E-13
 -1      3460 1.10703E+01-1.23222E+00 3.42847E-02-1.76445E+00-8.31783E-14-6.22946E-13
 -1      3461 1.25036E+01-2.08914E+00 7.27145E-02-3.47076E+00 8.56641E-14-5.02778E-13
 -1      3462 1.24652E+01-6.92318E-01 8.54271E-02-1.11230E+00-1.23421E-13-6.80012E-13
 -1      3463 2.01963E+01 1.60674E-01-1.30910E-03-8.25461E-02 3.88094E-14-4.07453E-14
 -1      3464 2.02232E+01 2.33821E-01 2.54517E-03-3.76434E-02 7.13014E-14-4.24458E-14
 -1      3465 2.02804E+01 3.28207E-01-5.38399E-04 5.97072E-03 7.72469E-14-5.78397E-14
 -1      3466 2.34601E+01-4.89916E+00 3.38839E-02-1.38958E+00-6.54303E-14 5.22002E-13
 -1      3467 2.42544E+01-5.20687E+00 1.61715E-02 9.99334E-01 4.51028E-16-1.05779E-13
 -1      3468 2.02013E+01 1.63996E+00-3.25079E-03 1.30163E-01-2.37207E-14-1.57294E-13
 -1      3469 2.01966E+01 1.66006E+00-2.66494E-03 3.97891E-02-5.21580E-14-1.83306E-13
 -1      3470 2.16989E+01-4.66605E+00-9.51071E-02 2.60634E+00 2.09156E-13 7.26502E-14
 -1      3471 2.32096E+01-4.58986E+00 6.89947E-02 1.55856E+00 1.84656E-13-9.07217E-15
 -1      3472 2.02451E+01 1.61736E-01-6.80733E-04-8.01110E-02 4.25657E-14-6.84612E-14
 -1      3473 2.02068E+01 5.26924E-02-7.25497E-04-1.27978E-01 4.26950E-14-6.64336E-14
 -1      3474 2.03031E+01 5.76686E-01-1.97480E-06 1.42051E-01 8.87651E-14-9.11560E-14
 -1      3475 2.02657E+01 5.63401E-01-2.36950E-03 1.70819E-01 8.37304E-14-8.08479E-14
 -1      3476 2.02180E+01 1.54694E+00-5.12913E-03 2.82422E-01 3.44143E-14-1.75502E-13
 -1      3477 2.02077E+01 1.60739E+00-2.43311E-03 2.01603E-01 3.38510E-15-1.53367E-13
 -1      3478 2.02849E+01 1.38859E+00 6.01291E-03 1.35047E-01-1.04085E-14-1.34106E-13
 -1      3479 1.31259E+01-7.75514E-01 7.80452E-02 1.70016E+00 2.35550E-13-6.01522E-13
 -1      3480 2.24129E+01-4.12425E+00 6.51585E-02-1.85573E+00-1.20328E-13 3.93915E-13
 -1      3481 2.08801E+01-3.97567E+00-4.65932E-02-2.68429E+00-5.70290E-14 5.12304E-13
 -1      3482 2.05089E+01-4.91616E+00 1.03444E-01 3.75867E+00 4.59688E-13 2.44869E-14
 -1      3483 1.66896E+01-3.33599E+00-4.39574E-02 4.12032E+00 6.95978E-13-3.65902E-13
 -1      3484 1.55620E+01-2.67682E+00 1.09110E-01 4.00068E+00 6.55082E-13-4.92478E-13
 -1      3485 1.51527E+01-1.78436E+00 2.56471E-02 3.25679E+00 4.80144E-13-3.49741E-13
 -1      3486 2.01359E+01 1.92470E+00 4.97837E-03-9.47587E-02-6.81930E-14-1.83491E-13
 -1      3487 1.44282E+01-2.17829E+00 8.90930E-02-3.45492E+00 5.25743E-14-5.04714E-13
 -1      3488 2.02080E+01 1.61070E+00-2.08893E-03-1.96055E-01-7.42285E-14-1.91591E-13
 -1      3489 2.02186E+01 1.55361E+00-4.00369E-03-2.79562E-01-7.87719E-14-2.01496E-13
 -1      3490 2.02754E+01 1.14721E+00-3.66952E-03 4.90555E-01 9.61322E-14-1.24874E-13
 -1      3491 2.02639E+01 1.28824E+00-8.90951E-05 4.53423E-01 6.83190E-14-1.40592E-13
 -1      3492 2.03293E+01 5.77079E-01 1.47529E-04-1.13875E-01-1.01436E-13-1.81722E-13
 -1      3493 2.02536E+01 1.39223E+00 2.81036E-03-5.54150E-01-1.03295E-13-1.85950E-13
 -1      3494 2.02537E+01 1.37261E+00 5.35204E-04-4.59421E-01-9.89896E-14-1.92797E-13
 -1      3495 1.87655E+01-4.29233E+00 1.93436E-02-4.06065E+00 2.94278E-14-7.87009E-14
 -1      3496 2.02507E+01-3.98899E+00 5.98146E-02-3.13131E+00 1.34059E-14 3.28296E-13
 -1      3497 1.97459E+01-3.25201E+00 1.68158E-02-2.92397E+00-1.77998E-14 3.88382E-13
 -1      3498 1.75107E+01-3.35293E+00 2.01915E-02-3.84760E+00 4.30923E-14-9.80604E-14
 -1      3499 2.02803E+01 8.80490E-01-1.07100E-03 4.43688E-01 1.16324E-13-1.20925E-13
 -1      3500 2.02801E+01 1.05969E+00 1.78875E-03 4.81151E-01 1.06805E-13-1.15475E-13
 -1      3501 2.02963E+01 9.16839E-01 1.96942E-03 3.51189E-01 8.82790E-14-9.92949E-14
 -1      3502 2.02670E+01 7.28813E-01-1.02233E-03 3.17518E-01 1.06359E-13-9.97040E-14
 -1      3503 2.02827E+01 6.90963E-01 1.83377E-03 2.65406E-01 9.64759E-14-8.97607E-14
 -1      3504 2.03251E+01 5.55595E-01-2.77719E-03 9.89051E-02 6.45656E-14-9.86402E-14
 -1      3505 2.03350E+01 7.21194E-01 3.53585E-03 1.80741E-01 6.46050E-14-1.29037E-13
 -1      3506 2.02814E+01 1.49425E-01-1.02835E-03-8.19669E-02 4.79139E-14-9.76801E-14
 -1      3507 2.03038E+01 2.24206E-01 1.75449E-03-4.77966E-02 6.18407E-14-6.23333E-14
 -1      3508 2.03321E+01 2.16318E-01 1.42388E-03 4.86509E-02-8.53644E-14-8.17755E-14
 -1      3509 2.03110E+01 1.41074E-01-1.06722E-03 7.77503E-02-6.01648E-14-7.06496E-14
 -1      3510 2.02957E+01 8.17240E-02 1.06811E-03 9.37738E-02-3.53539E-14-6.46527E-14
 -1      3511 2.02740E+01 3.30578E-02-5.30016E-04 1.08938E-01-3.58404E-14-6.61012E-14
 -1      3512 2.03373E+01 1.30493E-01-1.05387E-04 6.95376E-02-5.31714E-14-4.36853E-14
 -1      3513 2.02547E+01-4.32064E-03 8.04496E-04 1.15600E-01-3.16392E-14-6.45949E-14
 -1      3514 2.02342E+01-3.39842E-02-1.55192E-04 1.21055E-01-7.63881E-15-6.62794E-14
 -1      3515 2.02981E+01 2.30451E-02-3.76930E-04 9.45364E-02-4.08010E-14-5.25286E-14
 -1      3516 2.02138E+01-5.57853E-02 5.71690E-04 1.21399E-01 1.16789E-14-6.07588E-14
 -1      3517 2.01955E+01-7.21027E-02 8.68297E-05 1.20539E-01 2.47408E-14-3.70530E-14
 -1      3518 2.02557E+01-4.32273E-02-5.06115E-04 1.03828E-01-1.26569E-14-3.90900E-14
 -1      3519 2.01758E+01-8.31193E-02 3.84530E-04 1.16961E-01 3.85237E-15-5.83388E-14
 -1      3520 2.01602E+01-9.02979E-02 2.30550E-04 1.12324E-01-3.69824E-14-8.65418E-14
 -1      3521 2.02141E+01-8.03516E-02-5.50892E-04 1.02750E-01-1.56962E-14-4.86270E-14
 -1      3522 2.01421E+01-9.40305E-02 2.40131E-04 1.06597E-01-6.60295E-14-8.52574E-14
 -1      3523 2.01291E+01-9.51290E-02 3.05687E-04 1.00018E-01-2.63799E-14-7.95447E-14
 -1      3524 2.01759E+01-9.73663E-02-5.38761E-04 9.53728E-02-4.20535E-14-3.63223E-14
 -1      3525 2.01133E+01-9.41043E-02 1.33645E-04 9.34072E-02-1.95063E-14-1.16435E-13
 -1      3526 2.01027E+01-9.12996E-02 3.35027E-04 8.61613E-02-5.89028E-14-1.12867E-13
 -1      3527 2.01422E+01-1.00921E-01-4.97302E-04 8.47136E-02-5.87664E-14-4.56783E-14
 -1      3528 2.00893E+01-8.72704E-02 5.57469E-05 7.95230E-02-2.89792E-14-4.47622E-14
 -1      3529 2.00809E+01-8.20378E-02 3.36310E-04 7.24719E-02-2.04706E-14-7.63237E-14
 -1      3530 2.01134E+01-9.57557E-02-4.38551E-04 7.28864E-02 9.32412E-15-4.66097E-14
 -1      3531 2.00697E+01-7.61586E-02-2.19991E-06 6.63778E-02-8.76536E-14-6.83972E-14
 -1      3532 2.00631E+01-6.94390E-02 3.21709E-04 6.00982E-02-1.41059E-13-7.52215E-14
 -1      3533 2.00894E+01-8.51105E-02-3.72962E-04 6.13285E-02-5.38954E-14-5.90312E-14
 -1      3534 2.00539E+01-6.24162E-02-4.78334E-05 5.49260E-02-1.38199E-13-6.99645E-14
 -1      3535 2.00489E+01-5.47454E-02 2.99832E-04 4.98040E-02-1.05947E-13-1.13707E-13
 -1      3536 2.00698E+01-7.10599E-02-3.03606E-04 5.10145E-02-1.47635E-13 1.75462E-14
 -1      3537 2.00413E+01-4.69348E-02-8.84876E-05 4.58072E-02-5.43565E-14-1.57053E-13
 -1      3538 2.00374E+01-3.85310E-02 2.77183E-04 4.21201E-02-8.42938E-14-2.47338E-14
 -1      3539 2.00538E+01-5.48050E-02-2.33930E-04 4.25937E-02-1.05980E-13-1.67892E-14
 -1      3540 2.00309E+01-3.00199E-02-1.29856E-04 3.94927E-02-4.71292E-14 2.56954E-14
 -1      3541 2.00279E+01-2.08588E-02 2.57950E-04 3.74707E-02-2.47184E-14 1.32145E-13
 -1      3542 2.00406E+01-3.68533E-02-1.64145E-04 3.65317E-02 4.43087E-15 2.66873E-14
 -1      3543 2.00221E+01-1.15275E-02-1.77098E-04 3.63935E-02-1.33127E-14 1.67019E-13
 -1      3544 2.00195E+01-1.39818E-03 2.44644E-04 3.62667E-02 4.59087E-14 1.48722E-13
 -1      3545 2.00292E+01-1.71836E-02-9.26966E-05 3.32156E-02 7.57661E-15 1.72588E-13
 -1      3546 2.00138E+01 9.03111E-03-2.35054E-04 3.69421E-02 3.59077E-14 1.27107E-13
 -1      3547 2.00112E+01 2.04821E-02 2.38554E-04 3.89760E-02 7.47652E-14 5.67855E-14
 -1      3548 2.00187E+01 4.63100E-03-1.68260E-05 3.30319E-02-1.20741E-15 1.99994E-13
 -1      3549 2.00049E+01 3.24068E-02-3.08322E-04 4.16543E-02 7.16690E-14 1.54369E-14
 -1      3550 2.00020E+01 4.56376E-02 2.40032E-04 4.61755E-02-6.19747E-15 2.87128E-14
 -1      3551 2.00079E+01 2.93258E-02 6.71830E-05 3.64250E-02 3.16712E-14 1.41254E-13
 -1      3552 1.99943E+01 5.95383E-02-4.01288E-04 5.11745E-02-7.64244E-14 4.03233E-14
 -1      3553 1.99905E+01 7.50737E-02 2.48652E-04 5.85875E-02-1.05060E-13-8.66266E-14
 -1      3554 1.99953E+01 5.78610E-02 1.63817E-04 4.39419E-02-5.82132E-14 3.67626E-14
 -1      3555 1.99807E+01 9.14746E-02-5.18053E-04 6.63051E-02-8.73807E-14-9.09566E-14
 -1      3556 1.99754E+01 1.09862E-01 2.63306E-04 7.71003E-02-4.02692E-14-1.41690E-13
 -1      3557 1.99796E+01 9.13383E-02 2.78132E-04 5.62618E-02-1.00753E-13-7.31456E-14
 -1      3558 1.99624E+01 1.29280E-01-6.62254E-04 8.80207E-02-3.09965E-14-1.02823E-13
 -1      3559 1.99550E+01 1.51028E-01 2.82318E-04 1.02772E-01 1.03170E-14-1.05989E-13
 -1      3560 1.99588E+01 1.30903E-01 4.15492E-04 7.42133E-02 4.08789E-15-3.27391E-14
 -1      3561 1.99377E+01 1.73906E-01-8.36762E-04 1.17465E-01 7.60572E-14-1.00389E-13
 -1      3562 1.99272E+01 1.99403E-01 3.03664E-04 1.36817E-01 1.09343E-13-5.09332E-14
 -1      3563 1.99309E+01 1.77615E-01 5.81194E-04 9.87776E-02 3.80793E-14 1.39131E-13
 -1      3564 1.99042E+01 2.26006E-01-1.04328E-03 1.55928E-01 1.04437E-13-8.28000E-14
 -1      3565 1.98898E+01 2.55401E-01 3.25504E-04 1.80571E-01 1.49175E-13-6.93890E-14
 -1      3566 1.98935E+01 2.32270E-01 7.79890E-04 1.31078E-01 9.74224E-14 5.89226E-14
 -1      3567 1.98597E+01 2.85679E-01-1.28194E-03 2.04806E-01 1.61043E-13-1.36075E-13
 -1      3568 1.98404E+01 3.18711E-01 3.47331E-04 2.35436E-01 6.27459E-14-1.76485E-13
 -1      3569 1.98438E+01 2.95152E-01 1.01474E-03 1.72356E-01 7.04780E-14 4.71793E-15
 -1      3570 1.98015E+01 3.52098E-01-1.55100E-03 2.65546E-01 1.29537E-13-1.30530E-13
 -1      3571 1.97760E+01 3.87866E-01 3.72262E-04 3.02817E-01 2.28697E-13-2.62935E-14
 -1      3572 1.97788E+01 3.65681E-01 1.28614E-03 2.23940E-01 1.47199E-13-1.62316E-13
 -1      3573 1.97267E+01 4.23009E-01-1.84706E-03 3.39587E-01 1.15808E-13-1.62130E-13
 -1      3574 1.96941E+01 4.59657E-01 4.11269E-04 3.84069E-01 2.06359E-14-6.90249E-14
 -1      3575 1.96952E+01 4.41948E-01 1.59000E-03 2.87229E-01 1.37710E-13-1.83475E-13
 -1      3576 1.96327E+01 4.94046E-01-2.16589E-03 4.28334E-01-5.06673E-14-4.58656E-14
 -1      3577 1.95924E+01 5.28350E-01 4.90603E-04 4.80491E-01-1.66920E-13-7.41356E-15
 -1      3578 1.95895E+01 5.20088E-01 1.91527E-03 3.63705E-01-3.01613E-14-2.46568E-13
 -1      3579 1.95174E+01 5.57833E-01-2.50435E-03 5.33226E-01-1.96715E-13-2.03685E-15
 -1      3580 1.94695E+01 5.84673E-01 6.64029E-04 5.93464E-01-1.30519E-13-2.75662E-14
 -1      3581 1.94588E+01 5.93489E-01 2.24054E-03 4.55070E-01-1.51035E-13-7.84237E-14
 -1      3582 1.93801E+01 6.02840E-01-2.86277E-03 6.56002E-01-1.31947E-13 5.74226E-14
 -1      3583 1.93261E+01 6.14526E-01 1.03096E-03 7.24836E-01-2.02076E-15-1.59448E-14
 -1      3584 1.93006E+01 6.51795E-01 2.52844E-03 5.63586E-01-1.24986E-13 2.16354E-13
 -1      3585 1.92225E+01 6.11926E-01-3.24593E-03 7.99302E-01 1.04245E-13-1.36087E-13
 -1      3586 1.91667E+01 5.97381E-01 1.75675E-03 8.77714E-01 1.25659E-13-1.39751E-13
 -1      3587 1.91141E+01 6.79689E-01 2.71371E-03 6.92810E-01-4.99425E-14 8.13078E-14
 -1      3588 1.90507E+01 5.60572E-01-3.65946E-03 9.67765E-01 9.43149E-14-2.19605E-13
 -1      3589 1.90020E+01 5.04322E-01 3.08146E-03 1.05776E+00-5.05665E-14-1.36018E-13
 -1      3590 1.89013E+01 6.55370E-01 2.67119E-03 8.48918E-01 9.03771E-14-1.51111E-13
 -1      3591 1.88787E+01 4.14814E-01-4.08604E-03 1.16961E+00-1.44521E-13-1.87808E-13
 -1      3592 1.88535E+01 2.95963E-01 5.42882E-03 1.27485E+00-1.44962E-13-2.34505E-13
 -1      3593 1.86689E+01 5.48663E-01 2.15488E-03 1.04275E+00-5.86268E-14-9.94617E-14
 -1      3594 1.87332E+01 1.29013E-01-4.28445E-03 1.41920E+00-3.35790E-14-2.63293E-13
 -1      3595 1.87599E+01-8.13302E-02 9.18896E-03 1.54519E+00 2.31995E-14-2.72392E-13
 -1      3596 1.84311E+01 3.19064E-01 7.31585E-04 1.29265E+00-1.00398E-13-5.97344E-14
 -1      3597 1.86673E+01-3.61261E-01-3.45938E-03 1.73663E+00 9.75130E-14-2.58722E-13
 -1      3598 1.87859E+01-6.99996E-01 1.31448E-02 1.88666E+00 2.36711E-13-1.44026E-13
 -1      3599 1.82172E+01-9.26850E-02-2.92665E-03 1.63119E+00 9.85463E-14-1.27470E-13
 -1      3600 1.87721E+01-1.12812E+00 1.52699E-03 2.13211E+00 2.84321E-13-1.86958E-13
 -1      3601 1.91128E+01-1.65238E+00 1.65175E-02 2.29348E+00 3.43667E-13-3.25972E-13
 -1      3602 1.81153E+01-7.61734E-01-1.14921E-03 2.09786E+00 2.78370E-13-3.98412E-13
 -1      3603 1.83512E+01-2.22078E+00 3.45934E-02 2.94469E+00 4.73408E-13-4.27309E-13
 -1      3604 1.88865E+01-2.99836E+00 5.08839E-02 3.17483E+00 4.64920E-13-2.85876E-13
 -1      3605 1.98583E+01-3.95016E+00 9.95183E-02 3.50471E+00 4.88998E-13-9.25705E-14
 -1      3606 2.00876E+01-8.66663E-02 3.40222E-04-9.81524E-02-9.75336E-14 1.86664E-13
 -1      3607 2.00963E+01-8.89127E-02 1.16135E-04-1.06248E-01-6.58820E-14 1.87472E-13
 -1      3608 2.00413E+01-5.38784E-02 3.12457E-04-5.64403E-02 1.14119E-14 9.96360E-14
 -1      3609 2.00450E+01-6.08855E-02-7.47882E-05-6.23738E-02 9.53588E-15 1.51905E-13
 -1      3610 2.00319E+01-3.91110E-02 2.92643E-04-4.72422E-02-3.24844E-14 7.35142E-14
 -1      3611 2.00345E+01-4.67841E-02-1.11487E-04-5.16537E-02-1.61237E-15 8.60551E-14
 -1      3612 2.00483E+01-5.49647E-02-2.23777E-04-4.97506E-02 3.15842E-14 1.57743E-13
 -1      3613 2.00244E+01-2.30669E-02 2.77323E-04-4.13033E-02-1.23324E-14-1.00949E-14
 -1      3614 2.00262E+01-3.13979E-02-1.47003E-04-4.39516E-02-4.94572E-15 2.52886E-14
 -1      3615 2.00368E+01-3.84228E-02-1.62558E-04-4.22005E-02 8.63597E-16 3.64075E-14
 -1      3616 2.00181E+01-5.48621E-03 2.69474E-04-3.90552E-02 2.10751E-14-3.49510E-14
 -1      3617 2.00195E+01-1.46500E-02-1.87195E-04-3.97045E-02-6.01395E-15-2.77710E-15
 -1      3618 2.00273E+01-2.03550E-02-1.01512E-04-3.76926E-02-2.77134E-14 2.61470E-14
 -1      3619 2.00122E+01 1.41900E-02 2.70810E-04-4.09818E-02 6.23267E-14-6.76954E-14
 -1      3620 2.00134E+01 3.87581E-03-2.37304E-04-3.93617E-02 5.70423E-14-5.74508E-14
 -1      3621 2.00187E+01-4.08504E-04-3.79538E-05-3.66450E-02 6.03640E-14-1.96331E-14
 -1      3622 2.00059E+01 3.67518E-02 2.82021E-04-4.76796E-02 1.06650E-14 1.46087E-14
 -1      3623 2.00072E+01 2.48597E-02-3.02207E-04-4.34554E-02 5.07615E-14-8.12375E-14
 -1      3624 2.00102E+01 2.20812E-02 3.17569E-05-3.95316E-02 4.74196E-14-2.46130E-14
 -1      3625 1.99981E+01 6.31607E-02 3.02862E-04-5.98994E-02-6.65191E-14 8.09675E-14
 -1      3626 1.99999E+01 4.91834E-02-3.86544E-04-5.26525E-02-2.21915E-14 2.58787E-14
 -1      3627 2.00005E+01 4.80172E-02 1.12116E-04-4.69327E-02-2.75505E-14-2.26686E-14
 -1      3628 1.99877E+01 9.44859E-02 3.32111E-04-7.85704E-02-5.68312E-14 1.07184E-13
 -1      3629 1.99904E+01 7.78697E-02-4.94744E-04-6.77878E-02-9.43502E-14 6.55157E-14
 -1      3630 1.99885E+01 7.84724E-02 2.08436E-04-5.95684E-02-1.27450E-13-9.87079E-15
 -1      3631 1.99733E+01 1.31825E-01 3.67468E-04-1.04805E-01 4.94334E-14 7.72362E-14
 -1      3632 1.99774E+01 1.12013E-01-6.30933E-04-8.98800E-02 5.57995E-14 1.14956E-13
 -1      3633 1.99724E+01 1.14614E-01 3.26803E-04-7.83153E-02-1.70770E-14-7.19465E-14
 -1      3634 1.99530E+01 1.76191E-01 4.05450E-04-1.39880E-01 1.24257E-14-4.65733E-14
 -1      3635 1.99593E+01 1.52685E-01-7.98716E-04-1.20126E-01 4.24223E-14 9.26752E-16
 -1      3636 1.99506E+01 1.57606E-01 4.73992E-04-1.04204E-01 1.13661E-13-2.65307E-15
 -1      3637 1.99250E+01 2.28355E-01 4.41459E-04-1.85191E-01-3.57577E-14-4.43136E-14
 -1      3638 1.99342E+01 2.00804E-01-1.00084E-03-1.59872E-01 1.25908E-15 1.99819E-14
 -1      3639 1.99207E+01 2.08476E-01 6.57264E-04-1.38398E-01 9.69914E-16-1.61441E-13
 -1      3640 1.98865E+01 2.88601E-01 4.70323E-04-2.42177E-01-5.38396E-14 9.33217E-14
 -1      3641 1.98998E+01 2.56932E-01-1.23879E-03-2.10554E-01-7.36322E-14 3.40356E-14
 -1      3642 1.98801E+01 2.67918E-01 8.83954E-04-1.82140E-01-6.07732E-14-5.64539E-14
 -1      3643 1.98349E+01 3.56387E-01 4.87821E-04-3.12216E-01 3.43808E-14-3.65488E-14
 -1      3644 1.98534E+01 3.20997E-01-1.51243E-03-2.73613E-01 1.62956E-14 1.45874E-13
 -1      3645 1.98259E+01 3.36018E-01 1.16070E-03-2.36688E-01-1.65297E-14 1.40776E-13
 -1      3646 1.97668E+01 4.29842E-01 4.94116E-04-3.96503E-01-9.19001E-15 1.46347E-13
 -1      3647 1.97918E+01 3.91864E-01-1.81989E-03-3.50384E-01-1.72746E-14 1.00074E-13
 -1      3648 1.97543E+01 4.11859E-01 1.49212E-03-3.03232E-01-4.99307E-14 1.89415E-13
 -1      3649 1.96789E+01 5.05060E-01 5.00541E-04-4.95951E-01-1.85753E-13 2.80894E-13
 -1      3650 1.97117E+01 4.66748E-01-2.15817E-03-4.41992E-01-8.47746E-14 2.06074E-13
 -1      3651 1.96615E+01 4.92968E-01 1.87860E-03-3.82817E-01-1.07354E-13 2.54881E-13
 -1      3652 1.95678E+01 5.75119E-01 5.42051E-04-6.11191E-01-1.12779E-13 2.00320E-13
 -1      3653 1.96096E+01 5.40370E-01-2.52491E-03-5.49300E-01-1.38232E-13 2.39953E-13
 -1      3654 1.95431E+01 5.74576E-01 2.31280E-03-4.76354E-01-1.19602E-13 3.04077E-13
 -1      3655 1.94315E+01 6.28723E-01 6.98682E-04-7.42796E-01-1.23946E-13 1.34631E-13
 -1      3656 1.94824E+01 6.03794E-01-2.92155E-03-6.73031E-01-1.09381E-13 1.14520E-13
 -1      3657 1.93950E+01 6.48612E-01 2.77426E-03-5.84805E-01-9.43144E-14 1.98411E-13
 -1      3658 1.92701E+01 6.48368E-01 1.12763E-03-8.91967E-01-1.55581E-13 2.10619E-13
 -1      3659 1.93284E+01 6.42841E-01-3.35627E-03-8.14229E-01-3.62183E-14 2.16689E-13
 -1      3660 1.92136E+01 7.02396E-01 3.22009E-03-7.09759E-01-1.10867E-13 2.72069E-13
 -1      3661 1.90887E+01 6.07846E-01 2.08799E-03-1.06191E+00-8.65503E-14 1.94802E-14
 -1      3662 1.91489E+01 6.35946E-01-3.84075E-03-9.75337E-01-1.61654E-13 8.89963E-14
 -1      3663 1.89968E+01 7.16889E-01 3.56296E-03-8.54699E-01-6.48611E-14 8.60519E-14
 -1      3664 1.89014E+01 4.69120E-01 3.98600E-03-1.25993E+00-2.80514E-13 1.26152E-13
 -1      3665 1.89514E+01 5.51294E-01-4.38041E-03-1.16201E+00-1.96080E-13 5.84506E-14
 -1      3666 1.87459E+01 6.64237E-01 3.60772E-03-1.02728E+00-2.06465E-13-4.71044E-14
 -1      3667 1.87386E+01 1.78867E-01 7.57313E-03-1.50016E+00-3.02818E-13 1.50398E-13
 -1      3668 1.87543E+01 3.43479E-01-4.91070E-03-1.38578E+00-2.14188E-13 1.49380E-13
 -1      3669 1.84687E+01 5.04930E-01 3.04079E-03-1.24268E+00-2.58202E-13-5.58601E-14
 -1      3670 1.86591E+01-3.36492E-01 1.42049E-02-1.80669E+00-1.92756E-13 5.24955E-14
 -1      3671 1.85962E+01-4.97454E-02-4.75995E-03-1.66788E+00-2.15248E-13 1.50081E-13
 -1      3672 1.81842E+01 1.84264E-01 1.45732E-03-1.52869E+00-2.51348E-13-1.16000E-13
 -1      3673 1.87650E+01-1.17983E+00 2.35320E-02-2.20868E+00-2.02655E-13 1.78899E-13
 -1      3674 1.85549E+01-7.18150E-01-2.73087E-03-2.04028E+00-2.64273E-13 9.60178E-14
 -1      3675 1.79327E+01-3.77478E-01-2.32796E-03-1.93280E+00-2.41532E-13-6.50055E-15
 -1      3676 1.93296E+01-2.44777E+00 2.87072E-02-2.66399E+00-7.04289E-14 2.79274E-13
 -1      3677 1.88691E+01-1.74592E+00 4.06422E-03-2.48646E+00-7.66720E-14 2.32297E-13
 -1      3678 1.79110E+01-1.26755E+00-5.57430E-03-2.47569E+00-1.89910E-13-1.56570E-13
 -1      3679 1.84029E+01-2.62661E+00-9.20326E-03-3.12374E+00-8.84674E-14 5.11154E-14
 -1      3680 2.01109E+01-8.93906E-02 3.07490E-04-1.13687E-01-6.00276E-14 1.39468E-13
 -1      3681 2.01220E+01-8.77330E-02 2.47429E-04-1.20970E-01-3.41568E-14 1.24026E-13
 -1      3682 2.01285E+01-9.61388E-02-4.86724E-04-9.93102E-02-7.78807E-14 8.59099E-14
 -1      3683 2.02328E+01 1.49064E+00-1.15339E-03-3.41135E-01-8.65441E-14-2.07109E-13
 -1      3684 2.02469E+01 1.39562E+00-3.60961E-03-4.06824E-01-9.59612E-14-2.00277E-13
 -1      3685 2.01999E+01 1.64246E+00-3.28574E-03-1.24907E-01-7.58930E-14-1.74853E-13
 -1      3686 2.02829E+01 1.38926E+00 5.08254E-03-1.29642E-01-7.89379E-14-1.75216E-13
 -1      3687 2.01963E+01 1.66069E+00-2.68795E-03-3.44897E-02-6.17278E-14-1.80146E-13
 -1      3688 2.60171E+01 2.00534E+00-2.22039E-01 6.13731E+00-1.67380E-13 2.26347E-13
 -1      3689 2.02067E+01-2.57599E-02-1.88225E-04-1.35316E-01 3.95301E-15 2.89157E-15
 -1      3690 2.02261E+01 4.13217E-03 9.58623E-04-1.28685E-01 7.12593E-15-1.64610E-14
 -1      3691 2.03020E+01 1.11652E+00 3.58211E-03 3.33261E-01 5.50110E-14-1.48720E-13
 -1      3692 2.02503E+01 1.38372E+00-4.59978E-03 4.13363E-01 6.61754E-14-1.71401E-13
 -1      3693 2.02374E+01 1.48347E+00-7.16238E-04 3.44748E-01 5.07121E-14-1.80599E-13
 -1      3694 2.03111E+01 3.14259E-01-1.69725E-03-1.27115E-02 6.67790E-14-7.93462E-14
 -1      3695 2.03315E+01 4.25099E-01 2.22189E-03 4.40396E-02 7.70025E-14-7.10548E-14
 -1      3696 2.03551E+01 5.54105E-01 5.22856E-04 7.68378E-02 5.71432E-14-1.03778E-13
 -1      3697 2.03445E+01 3.08707E-01 2.45102E-04-1.70592E-02 6.70546E-14-7.78003E-14
 -1      3698 2.03520E+01 7.05856E-01 2.53233E-04-1.44874E-01-8.16342E-14-1.67579E-13
 -1      3699 2.03485E+01 5.48322E-01-2.18749E-03-7.38910E-02-9.85787E-14-1.63319E-13
 -1      3700 1.41968E+01-7.60513E-01-1.31443E-02 2.14274E+00 2.65431E-13-4.77115E-13
 -1      3701 1.33274E+01-1.89181E-01 4.78022E-02 8.24593E-01 8.65679E-14-4.99885E-13
 -1      3702 2.02783E+01 1.42125E+00 5.00680E-03 2.08085E-03-5.40230E-14-1.75691E-13
 -1      3703 2.02954E+01 1.29083E+00 5.31235E-03-2.47863E-01-7.15736E-14-1.97500E-13
 -1      3704 2.03214E+01 1.10975E+00-1.26458E-03-1.70719E-01-7.43309E-14-1.90050E-13
 -1      3705 2.03234E+01 1.04258E+00-3.15302E-03-2.17359E-01-7.70481E-14-1.97000E-13
 -1      3706 2.03018E+01 1.18784E+00 4.92050E-03-3.42608E-01-8.36143E-14-1.96120E-13
 -1      3707 1.30047E+01-2.99650E-01-3.14905E-02-5.31243E-01-4.88427E-14-6.72429E-13
 -1      3708 1.35289E+01-6.33436E-01 4.67636E-02-1.86822E+00-1.10998E-13-6.70481E-13
 -1      3709 2.00685E+01-7.85935E-02 3.45036E-04-8.26356E-02-5.33283E-14 1.09367E-13
 -1      3710 2.00752E+01-8.32302E-02 3.23040E-05-9.05841E-02-6.84728E-14 1.61376E-13
 -1      3711 2.01020E+01-9.21692E-02-4.15344E-04-8.56642E-02-4.59369E-14 1.37245E-13
 -1      3712 2.02446E+01 4.14595E-02-5.70155E-04-1.19815E-01 2.53080E-14-5.56879E-14
 -1      3713 2.02662E+01 9.01081E-02 1.31875E-03-1.02027E-01 3.05671E-14-7.54187E-14
 -1      3714 2.03139E+01 1.41761E-01-2.44039E-04-7.55734E-02 2.91153E-14-9.49942E-14
 -1      3715 2.02754E+01 3.31284E-02-4.32056E-04-1.07159E-01-1.01729E-14-6.14765E-14
 -1      3716 2.03155E+01 9.58640E-01-2.08513E-03-2.47156E-01-7.76284E-14-1.79808E-13
 -1      3717 2.03558E+01 4.16507E-01 1.58419E-03-2.87501E-02-9.77124E-14-1.27309E-13
 -1      3718 2.03387E+01 3.05824E-01-1.81667E-03 1.92524E-02-9.42793E-14-1.14704E-13
 -1      3719 2.03748E+01 5.30993E-01 5.03796E-05-5.31485E-02-7.01402E-14-1.36557E-13
 -1      3720 1.42564E+01-1.43991E+00-5.20601E-03-2.82396E+00-1.09962E-13-4.83016E-13
 -1      3721 1.59332E+01-2.42847E+00 2.45018E-02-3.63194E+00-2.05044E-14-2.18593E-13
 -1      3722 2.00533E+01-6.72458E-02 3.32125E-04-6.84374E-02-1.78030E-14 1.81557E-13
 -1      3723 2.00583E+01-7.33422E-02-2.97070E-05-7.55929E-02-2.86798E-14 1.69528E-13
 -1      3724 2.00625E+01-6.99303E-02-2.86625E-04-5.99106E-02-1.39557E-14 2.16839E-13
 -1      3725 2.03478E+01 8.20063E-01 2.05083E-03-1.67802E-01-8.27093E-14-1.86268E-13
 -1      3726 1.73792E+01-2.46064E+00 4.94847E-02-3.30042E+00-1.00911E-13-1.68851E-13
 -1      3727 2.03187E+01 1.14997E+00-3.07902E-03-1.31686E-01-7.21351E-14-1.70296E-13
 -1      3728 2.03662E+01 9.42839E-01 3.92216E-03-1.10918E-01-5.86017E-14-1.61109E-13
 -1      3729 2.03172E+01 1.18331E+00-2.02742E-03-7.48197E-02-6.50671E-14-1.58003E-13
 -1      3730 1.72545E+01-1.68370E+00 7.02960E-03 2.92636E+00 3.97938E-13-5.25612E-13
 -1      3731 2.02989E+01 1.28363E+00 5.42423E-03 2.53849E-01 1.44796E-14-1.59166E-13
 -1      3732 2.03223E+01 1.14401E+00-3.63434E-03 1.37298E-01 4.42780E-15-1.15985E-13
 -1      3733 2.03189E+01 1.18113E+00-1.82010E-03 7.70297E-02-2.30974E-14-1.29401E-13
 -1      3734 2.03662E+01 2.95240E-01 4.79517E-04 2.25922E-02-6.43831E-14-4.18756E-14
 -1      3735 1.49654E+01-7.98631E-01 4.52420E-02-2.14901E+00-2.54200E-13-4.63589E-13
 -1      3736 2.01875E+01-4.77898E-02 6.52540E-04-1.36512E-01 3.05248E-14 4.41729E-14
 -1      3737 2.02347E+01-3.45732E-02-5.59340E-04-1.19657E-01-2.52083E-14 8.13531E-15
 -1      3738 2.01709E+01-6.44862E-02 7.08836E-05-1.35852E-01 1.49100E-14 1.23292E-13
 -1      3739 1.41573E+01-3.91985E-02 3.26017E-02 7.47290E-02 1.71664E-14-5.07757E-13
 -1      3740 2.03163E+01 1.19555E+00-2.69721E-03 3.22362E-02-3.99638E-14-1.50065E-13
 -1      3741 2.03162E+01 1.19607E+00-2.67664E-03-2.83454E-02-6.13234E-14-1.75844E-13
 -1      3742 2.03719E+01 9.96499E-01 4.65899E-03-3.55603E-02-3.54913E-14-1.59716E-13
 -1      3743 2.03706E+01 9.96199E-01 4.33135E-03 4.23599E-02-3.09754E-14-1.27732E-13
 -1      3744 2.01597E+01-9.13668E-02-5.53785E-04-1.11450E-01-2.52367E-14 1.07245E-13
 -1      3745 2.01387E+01-8.35195E-02 2.29395E-04-1.27219E-01-3.35346E-15 1.19661E-13
 -1      3746 2.01525E+01-7.58742E-02 4.21263E-04-1.32240E-01 2.78027E-14 1.34822E-13
 -1      3747 2.00802E+01-8.27473E-02-3.50665E-04-7.21410E-02-7.57162E-14 1.14923E-13
 -1      3748 2.03366E+01 5.00697E-02 6.17689E-04 7.17008E-02-3.64794E-14-8.90844E-14
 -1      3749 2.03146E+01 5.26267E-03-2.96716E-04 8.08032E-02-3.23509E-14-6.40668E-14
 -1      3750 2.02933E+01-2.90903E-02 5.24912E-04 8.31077E-02-2.61151E-14-6.88897E-14
 -1      3751 2.02711E+01-5.57098E-02-1.59913E-05 8.58908E-02-7.07501E-15-7.64116E-14
 -1      3752 2.03250E+01-7.19735E-03-3.80261E-04 6.29017E-02-1.21047E-14-5.73945E-14
 -1      3753 2.02487E+01-7.50195E-02 4.21564E-04 8.47402E-02 2.12964E-15-7.28860E-14
 -1      3754 2.02281E+01-8.88916E-02 1.57468E-04 8.34423E-02 1.23642E-14-6.99947E-14
 -1      3755 2.02795E+01-6.51009E-02-4.90647E-04 6.61780E-02 4.60186E-15-5.85707E-14
 -1      3756 2.02065E+01-9.78233E-02 3.21771E-04 8.02018E-02 1.70846E-14-2.39830E-14
 -1      3757 2.01881E+01-1.02954E-01 2.64116E-04 7.64882E-02-3.65749E-14-1.56767E-14
 -1      3758 2.02347E+01-9.58719E-02-5.37592E-04 6.39166E-02 1.24954E-14-6.44199E-14
 -1      3759 2.01685E+01-1.04878E-01 2.36687E-04 7.22230E-02-6.95849E-14-2.92217E-14
 -1      3760 2.01526E+01-1.04256E-01 3.13401E-04 6.73459E-02-2.71655E-14 4.62353E-16
 -1      3761 2.01934E+01-1.08026E-01-5.60271E-04 5.83152E-02-1.94926E-14-1.19922E-14
 -1      3762 2.01354E+01-1.01646E-01 1.68157E-04 6.27631E-02-2.95839E-14-2.91236E-14
 -1      3763 2.01221E+01-9.73506E-02 3.24696E-04 5.75798E-02-1.85941E-14-5.40221E-14
 -1      3764 2.01567E+01-1.07675E-01-5.22070E-04 5.12478E-02-3.71348E-14 8.53131E-15
 -1      3765 2.01074E+01-9.18750E-02 1.07899E-04 5.31787E-02 4.88867E-15-9.84407E-14
 -1      3766 2.00965E+01-8.52811E-02 3.13013E-04 4.82833E-02-3.68151E-14-7.99192E-14
 -1      3767 2.01252E+01-9.93011E-02-4.65733E-04 4.37490E-02-5.91538E-14-1.26079E-13
 -1      3768 2.00842E+01-7.80330E-02 5.73621E-05 4.43970E-02-9.67030E-14-5.50329E-14
 -1      3769 2.00754E+01-7.00044E-02 2.88181E-04 4.01826E-02-1.34109E-13-7.80903E-14
 -1      3770 2.00988E+01-8.58650E-02-3.91105E-04 3.67233E-02-4.27905E-14-1.30233E-13
 -1      3771 2.00650E+01-6.16065E-02 9.20404E-06 3.70186E-02-1.24009E-13-2.46326E-14
 -1      3772 2.00579E+01-5.25814E-02 2.57611E-04 3.37599E-02-1.15284E-13-9.18108E-15
 -1      3773 2.00768E+01-6.92484E-02-3.11623E-04 3.06897E-02-1.26407E-13-3.88989E-14
 -1      3774 2.00492E+01-4.32982E-02-3.93793E-05 3.14712E-02-4.12122E-14 6.29955E-14
 -1      3775 2.00433E+01-3.33968E-02 2.25777E-04 2.93789E-02 4.68602E-14 4.43684E-14
 -1      3776 2.00586E+01-5.04104E-02-2.29867E-04 2.60203E-02-5.12456E-14 4.88929E-14
 -1      3777 2.00355E+01-2.32192E-02-9.20650E-05 2.80947E-02 5.95217E-14 7.57725E-14
 -1      3778 2.00303E+01-1.23173E-02 1.95133E-04 2.73576E-02 3.16006E-14 8.63125E-14
 -1      3779 2.00429E+01-2.96343E-02-1.45281E-04 2.30051E-02 4.32843E-14 4.05114E-14
 -1      3780 2.00230E+01-1.02586E-03-1.52855E-04 2.72103E-02 1.73578E-15 1.07723E-13
 -1      3781 2.00179E+01 1.11885E-02 1.66681E-04 2.80276E-02 4.81049E-14 1.07964E-13
 -1      3782 2.00287E+01-6.68453E-03-5.56748E-05 2.19060E-02 5.89931E-14-1.04344E-14
 -1      3783 2.00102E+01 2.39738E-02-2.25904E-04 2.91741E-02 3.50853E-14 1.57037E-13
 -1      3784 2.00047E+01 3.79540E-02 1.40337E-04 3.17793E-02 1.31356E-14 1.36732E-13
 -1      3785 2.00146E+01 1.90728E-02 4.24960E-05 2.30023E-02 5.06296E-14 9.07111E-14
 -1      3786 1.99957E+01 5.27303E-02-3.15471E-04 3.44181E-02-7.81995E-14 1.29649E-13
 -1      3787 1.99891E+01 6.90282E-02 1.15185E-04 3.90963E-02-1.30248E-13 7.71909E-14
 -1      3788 1.99991E+01 4.85703E-02 1.53894E-04 2.66258E-02-5.63396E-14 6.98139E-14
 -1      3789 1.99779E+01 8.63672E-02-4.25861E-04 4.34797E-02-1.16725E-13-1.66075E-14
 -1      3790 1.99693E+01 1.05588E-01 8.96716E-05 5.05779E-02-8.75968E-14 6.29483E-15
 -1      3791 1.99804E+01 8.29477E-02 2.84058E-04 3.31874E-02-1.35296E-13 1.32405E-13
 -1      3792 1.99548E+01 1.26086E-01-5.61311E-04 5.70202E-02 3.60962E-14 4.96164E-14
 -1      3793 1.99432E+01 1.48829E-01 6.18037E-05 6.69516E-02 2.83688E-14 8.18499E-14
 -1      3794 1.99564E+01 1.23454E-01 4.39150E-04 4.31949E-02-2.06787E-14 9.68246E-14
 -1      3795 1.99241E+01 1.73043E-01-7.25839E-04 7.58345E-02-2.54964E-14 1.15300E-13
 -1      3796 1.99084E+01 1.99830E-01 2.94113E-05 8.90759E-02 4.76561E-14 9.27754E-14
 -1      3797 1.99248E+01 1.71328E-01 6.25657E-04 5.72650E-02 5.78267E-14 6.98732E-14
 -1      3798 1.98832E+01 2.28186E-01-9.23087E-04 1.00850E-01 3.25028E-14 7.10104E-15
 -1      3799 1.98622E+01 2.59352E-01-9.40083E-06 1.17932E-01 5.41356E-14 1.95625E-14
 -1      3800 1.98829E+01 2.27638E-01 8.50021E-04 7.61276E-02-2.94151E-15 4.85895E-14
 -1      3801 1.98290E+01 2.92023E-01-1.15629E-03 1.33116E-01 8.53936E-14 7.80161E-16
 -1      3802 1.98012E+01 3.27571E-01-5.54455E-05 1.54611E-01 6.98189E-14-6.92914E-16
 -1      3803 1.98274E+01 2.93066E-01 1.11818E-03 1.00628E-01 3.88856E-14-3.13395E-14
 -1      3804 1.97582E+01 3.64306E-01-1.42861E-03 1.73795E-01 5.88236E-14-3.03804E-14
 -1      3805 1.97220E+01 4.03712E-01-1.07017E-04 2.00301E-01 1.00876E-13-2.97733E-14
 -1      3806 1.97547E+01 3.67611E-01 1.43511E-03 1.31726E-01 6.74453E-15-4.62959E-14
 -1      3807 1.96670E+01 4.43607E-01-1.74425E-03 2.24157E-01 1.35073E-13-1.36076E-13
 -1      3808 1.96206E+01 4.85565E-01-1.57404E-04 2.56297E-01 9.74453E-14-2.18612E-13
 -1      3809 1.96607E+01 4.50203E-01 1.80444E-03 1.70516E-01 3.51200E-14-7.77096E-14
 -1      3810 1.95513E+01 5.26768E-01-2.11110E-03 2.85618E-01 4.13784E-14-2.27248E-13
 -1      3811 1.94933E+01 5.68868E-01-1.90677E-04 3.24071E-01-9.38217E-14-2.06736E-13
 -1      3812 1.95412E+01 5.38201E-01 2.22856E-03 2.18273E-01 9.13294E-14-1.34287E-13
 -1      3813 1.94072E+01 6.08213E-01-2.54596E-03 3.59860E-01-8.09554E-14-1.68539E-13
 -1      3814 1.93361E+01 6.46556E-01-1.74652E-04 4.05475E-01-1.07742E-13-2.48513E-15
 -1      3815 1.93912E+01 6.26798E-01 2.70968E-03 2.76585E-01-8.63350E-16-2.69826E-14
 -1      3816 1.92306E+01 6.79119E-01-3.08381E-03 4.49146E-01-6.89617E-14 1.52207E-13
 -1      3817 1.91458E+01 7.07873E-01-4.90305E-05 5.03194E-01-5.04334E-14 1.49262E-13
 -1      3818 1.92061E+01 7.08330E-01 3.25291E-03 3.47647E-01 2.39593E-14-3.00864E-14
 -1      3819 1.90182E+01 7.26464E-01-3.79256E-03 5.56969E-01-1.76239E-13 1.89773E-13
 -1      3820 1.89201E+01 7.37377E-01 2.94260E-04 6.21642E-01-6.62185E-14 1.42191E-13
 -1      3821 1.89809E+01 7.71542E-01 3.87168E-03 4.34849E-01-1.15700E-13 7.56682E-14
 -1      3822 1.87672E+01 7.31947E-01-4.79389E-03 6.89304E-01 3.69559E-14 6.15037E-14
 -1      3823 1.86585E+01 7.13765E-01 1.03044E-03 7.68584E-01 1.62381E-15-4.21035E-14
 -1      3824 1.87103E+01 8.00862E-01 4.59046E-03 5.43906E-01-9.27477E-14 7.73131E-14
 -1      3825 1.84767E+01 6.70686E-01-6.28639E-03 8.56761E-01-1.53303E-15-9.36359E-14
 -1      3826 1.83635E+01 6.08442E-01 2.42808E-03 9.57693E-01-2.11874E-14-5.63914E-14
 -1      3827 1.83885E+01 7.75523E-01 5.40822E-03 6.84946E-01-3.04354E-14-5.63689E-14
 -1      3828 1.81485E+01 5.09406E-01-8.52529E-03 1.07775E+00-1.75110E-13-1.76690E-13
 -1      3829 1.80405E+01 3.83024E-01 4.04296E-03 1.21259E+00-1.27447E-13-1.86726E-13
 -1      3830 1.80086E+01 6.68303E-01 6.15697E-03 8.75791E-01-1.53462E-13-2.41537E-13
 -1      3831 1.77906E+01 2.09887E-01-9.54780E-03 1.38067E+00 3.21099E-14-1.96428E-13
 -1      3832 1.77046E+01-1.61787E-02 6.06646E-03 1.57283E+00 1.44880E-13-2.04277E-13
 -1      3833 1.75704E+01 4.41755E-01 8.60192E-03 1.14859E+00-7.09626E-14-2.10905E-13
 -1      3834 1.74074E+01-3.02589E-01-1.60692E-02 1.81751E+00 1.80516E-13-2.19371E-13
 -1      3835 1.73931E+01-6.70479E-01 6.05479E-03 2.11442E+00 2.19268E-13-3.66448E-13
 -1      3836 1.70257E+01 2.88805E-02-6.91876E-03 1.55949E+00 9.79790E-14-8.84800E-14
 -1      3837 2.03305E+01 1.00544E+00-2.83376E-04 1.78606E-01 2.28642E-14-1.35087E-13
 -1      3838 2.03656E+01 8.45192E-01 1.56689E-03 1.14162E-01 3.53356E-14-1.15587E-13
 -1      3839 2.03970E+01 3.65228E-01 1.99135E-03 9.06523E-04-4.54631E-14-1.08369E-13
 -1      3840 2.03823E+01 2.59102E-01-1.59097E-03 3.05354E-02-5.24637E-14-7.54396E-14
 -1      3841 2.03634E+01 7.84423E-01-5.87895E-04-1.24355E-01-6.07372E-14-1.86241E-13
 -1      3842 2.00547E+01-5.37425E-02 2.85667E-04-4.10873E-02 3.93362E-14 1.45305E-13
 -1      3843 2.00609E+01-6.21869E-02-1.29810E-05-4.51617E-02 1.46468E-14 1.83650E-13
 -1      3844 2.00193E+01 5.53287E-03 2.07582E-04-3.22937E-02 8.48199E-14 5.49616E-14
 -1      3845 2.00232E+01-5.79053E-03-1.63889E-04-3.17909E-02 5.40777E-14-7.13055E-15
 -1      3846 2.00083E+01 3.02288E-02 1.88966E-04-3.58484E-02 3.06508E-14 4.20575E-14
 -1      3847 2.00124E+01 1.73139E-02-2.31346E-04-3.33536E-02 1.06363E-13 3.69218E-14
 -1      3848 2.00169E+01 1.27135E-02 1.43756E-05-2.81330E-02 7.99921E-14 3.35379E-14
 -1      3849 1.99955E+01 5.88505E-02 1.73669E-04-4.34516E-02-4.53710E-14 1.76966E-14
 -1      3850 2.00004E+01 4.38144E-02-3.14861E-04-3.86582E-02 1.21639E-14 3.47795E-14
 -1      3851 2.00034E+01 4.02307E-02 1.14370E-04-3.19380E-02 4.28192E-14 9.14465E-14
 -1      3852 1.99794E+01 9.25552E-02 1.59902E-04-5.57534E-02-6.69638E-14-8.68352E-14
 -1      3853 1.99858E+01 7.47976E-02-4.18841E-04-4.82884E-02-4.64740E-14-3.76854E-14
 -1      3854 1.99874E+01 7.22572E-02 2.31723E-04-3.92632E-02 4.90322E-15 7.94097E-14
 -1      3855 1.99580E+01 1.32574E-01 1.44890E-04-7.35336E-02 2.98220E-14-1.31959E-13
 -1      3856 1.99669E+01 1.11469E-01-5.47545E-04-6.29556E-02-1.23882E-13-1.39666E-13
 -1      3857 1.99669E+01 1.10037E-01 3.72996E-04-5.06724E-02-4.88372E-15-6.74885E-14
 -1      3858 1.99292E+01 1.80099E-01 1.24860E-04-9.76931E-02 9.26534E-14-6.43099E-15
 -1      3859 1.99414E+01 1.55056E-01-7.04930E-04-8.35001E-02 1.49440E-13 4.45512E-15
 -1      3860 1.99398E+01 1.54861E-01 5.45540E-04-6.68301E-02-2.25882E-15-4.88386E-14
 -1      3861 1.98903E+01 2.36133E-01 9.51267E-05-1.29225E-01 1.00455E-14-1.57627E-13
 -1      3862 1.99071E+01 2.06679E-01-8.94457E-04-1.10874E-01 4.65372E-14-1.16115E-13
 -1      3863 1.99036E+01 2.07937E-01 7.57347E-04-8.84881E-02 1.43788E-13-2.18447E-15
 -1      3864 1.98382E+01 3.01267E-01 5.04530E-05-1.69167E-01-2.11071E-13-1.89990E-14
 -1      3865 1.98610E+01 2.67168E-01-1.11896E-03-1.46104E-01-1.81761E-13-1.31072E-13
 -1      3866 1.98550E+01 2.70207E-01 1.01684E-03-1.16455E-01-9.38685E-14-2.08889E-13
 -1      3867 1.97692E+01 3.75377E-01-1.40148E-05-2.18534E-01-6.83139E-14 1.17539E-13
 -1      3868 1.97997E+01 3.36803E-01-1.38078E-03-1.90235E-01-8.16996E-14 7.17527E-14
 -1      3869 1.97907E+01 3.42107E-01 1.33263E-03-1.51551E-01-1.91607E-13 1.75551E-14
 -1      3870 1.96792E+01 4.57208E-01-1.00719E-04-2.78247E-01-1.31513E-13 2.31023E-13
 -1      3871 1.97193E+01 4.14954E-01-1.68257E-03-2.44263E-01-8.59287E-14 2.09335E-13
 -1      3872 1.97063E+01 4.23222E-01 1.71332E-03-1.94551E-01-1.69963E-13 1.09849E-13
 -1      3873 1.95635E+01 5.43814E-01-2.05794E-04-3.49098E-01-1.76943E-13 2.49494E-13
 -1      3874 1.96154E+01 4.99596E-01-2.02946E-03-3.09077E-01-1.36825E-13 1.67249E-13
 -1      3875 1.95973E+01 5.11849E-01 2.16752E-03-2.46142E-01-1.65946E-13 1.86131E-13
 -1      3876 1.94173E+01 6.29828E-01-3.12100E-04-4.31811E-01-1.24150E-13 1.55329E-13
 -1      3877 1.94830E+01 5.86666E-01-2.43392E-03-3.85461E-01-1.65357E-13 1.61071E-13
 -1      3878 1.94584E+01 6.04426E-01 2.70455E-03-3.06928E-01-5.86733E-14 1.71284E-13
 -1      3879 1.92354E+01 7.06557E-01-3.77107E-04-5.27327E-01-2.33138E-14 6.80769E-14
 -1      3880 1.93169E+01 6.69237E-01-2.92498E-03-4.74251E-01-5.61633E-14 1.46535E-13
 -1      3881 1.92836E+01 6.94848E-01 3.33659E-03-3.77573E-01-4.78034E-14-9.99342E-15
 -1      3882 1.90129E+01 7.60871E-01-3.10503E-04-6.37547E-01-7.67808E-14 5.03887E-14
 -1      3883 1.91116E+01 7.36499E-01-3.56439E-03-5.76812E-01-5.22102E-14 6.67274E-14
 -1      3884 1.90667E+01 7.73677E-01 4.08429E-03-4.59220E-01-2.06245E-14-9.61229E-14
 -1      3885 1.87458E+01 7.73876E-01 7.43750E-05-7.66870E-01-4.66585E-14-9.15913E-14
 -1      3886 1.88614E+01 7.72532E-01-4.47041E-03-6.96148E-01-2.62937E-14 3.58641E-14
 -1      3887 1.88003E+01 8.27316E-01 4.98848E-03-5.54447E-01-7.09891E-14-1.53091E-13
 -1      3888 1.84314E+01 7.18904E-01 1.00850E-03-9.25128E-01-2.16410E-13-1.68525E-13
 -1      3889 1.85613E+01 7.54762E-01-5.83861E-03-8.39179E-01-1.54896E-13-1.05803E-13
 -1      3890 1.84760E+01 8.37140E-01 6.11072E-03-6.69274E-01-8.05193E-14-1.43777E-13
 -1      3891 1.80715E+01 5.58962E-01 2.94804E-03-1.13149E+00-2.86250E-13-2.20583E-13
 -1      3892 1.82075E+01 6.51479E-01-7.94321E-03-1.02010E+00-1.86171E-13-1.91534E-13
 -1      3893 1.80833E+01 7.77308E-01 7.38027E-03-8.17073E-01-1.48629E-13-2.51927E-13
 -1      3894 1.76728E+01 2.46763E-01 7.24486E-03-1.41948E+00-2.87258E-13-1.92262E-13
 -1      3895 1.77988E+01 4.19718E-01-1.12494E-02-1.26458E+00-3.75645E-13-2.64324E-13
 -1      3896 1.76095E+01 6.13067E-01 8.48285E-03-1.01988E+00-2.83280E-13-2.52103E-13
 -1      3897 1.72509E+01-2.93287E-01 1.53021E-02-1.85163E+00-1.80617E-13-1.76432E-13
 -1      3898 1.73412E+01 3.31678E-03-1.40447E-02-1.62284E+00-1.42820E-13-1.13125E-13
 -1      3899 1.70353E+01 3.00663E-01 9.80695E-03-1.32048E+00-2.00247E-13-2.01830E-13
 -1      3900 2.01434E+01-1.00566E-01 3.11327E-04-8.23106E-02-1.86992E-14 3.28525E-14
 -1      3901 2.01581E+01-1.00501E-01 2.59896E-04-8.80294E-02-4.85169E-14 5.82295E-14
 -1      3902 1.69305E+01-1.73214E+00-9.33421E-03-2.91766E+00-1.81024E-13-1.03616E-13
 -1      3903 2.00413E+01-3.58425E-02 2.56854E-04-3.53147E-02 1.75001E-14 1.23572E-13
 -1      3904 2.00463E+01-4.50991E-02-5.92385E-05-3.80753E-02 7.66953E-14 1.56203E-13
 -1      3905 2.00571E+01-5.25448E-02-2.32609E-04-3.35684E-02 6.24886E-14 1.87613E-13
 -1      3906 1.69391E+01-9.77794E-01-1.29666E-02 2.39266E+00 2.16155E-13-4.34357E-13
 -1      3907 1.58040E+01-1.40991E+00-1.04697E-02 2.83233E+00 3.19154E-13-3.03785E-13
 -1      3908 1.51181E+01-9.83159E-01 6.39720E-02 2.56354E+00 3.21387E-13-4.12181E-13
 -1      3909 1.62953E+01-4.22454E-01 2.42354E-02 2.02372E+00 1.13413E-13-1.23207E-13
 -1      3910 2.03258E+01 8.44038E-01-1.26118E-03 2.39889E-01 5.24197E-14-1.36975E-13
 -1      3911 2.03282E+01 9.36053E-01-1.72490E-03 2.18169E-01 4.16935E-14-1.53505E-13
 -1      3912 1.50609E+01-4.53720E-01-4.25256E-03 1.83155E+00 1.36370E-13-3.57695E-13
 -1      3913 2.02959E+01 7.72720E-01-1.80812E-03 2.84483E-01 9.02246E-14-8.67236E-14
 -1      3914 1.47342E+01 1.36712E-01-1.29827E-02 5.89818E-01-2.99561E-14-3.42903E-13
 -1      3915 1.46983E+01 1.68459E-01 2.05485E-02-5.89360E-01-1.58273E-13-4.06539E-13
 -1      3916 2.00299E+01-1.62358E-02 2.30307E-04-3.22594E-02-3.65067E-15 4.30836E-14
 -1      3917 2.00341E+01-2.63887E-02-1.08023E-04-3.34966E-02-2.36766E-14 3.96426E-14
 -1      3918 2.00295E+01-1.13935E-02-7.39059E-05-2.73827E-02 7.04156E-14-1.30758E-14
 -1      3919 2.01146E+01-9.49863E-02 3.41606E-04-7.05878E-02-7.36237E-14 7.22811E-14
 -1      3920 2.01267E+01-9.86442E-02 1.57806E-04-7.67549E-02-6.09284E-14 5.70150E-14
 -1      3921 2.01514E+01-1.05119E-01-5.11044E-04-6.64939E-02-3.27534E-14 3.51998E-14
 -1      3922 2.03042E+01 8.60193E-01-1.42293E-03 2.94792E-01 8.21192E-14-1.19100E-13
 -1      3923 2.03735E+01 1.75798E-01 8.20505E-04 4.59724E-02-7.44000E-14-7.83123E-14
 -1      3924 2.03540E+01 1.05606E-01-7.13777E-04 6.41219E-02-6.23507E-14-1.00150E-13
 -1      3925 2.03975E+01 2.39546E-01 3.96453E-04 2.69394E-02-5.27876E-14-1.18994E-13
 -1      3926 2.00905E+01-8.41193E-02 3.35127E-04-5.92426E-02-5.23928E-14 8.44588E-14
 -1      3927 2.01004E+01-9.01330E-02 9.09031E-05-6.51390E-02-6.03913E-14 9.61391E-14
 -1      3928 2.01210E+01-9.81148E-02-4.51464E-04-5.69169E-02-8.43907E-14 5.45935E-14
 -1      3929 1.51067E+01-3.55050E-01-2.45650E-02-1.68857E+00-3.28708E-13-3.68509E-13
 -1      3930 1.60054E+01-9.79877E-01 1.88587E-02-2.51690E+00-3.38668E-13-2.68736E-13
 -1      3931 2.00708E+01-6.99897E-02 3.13569E-04-4.92087E-02-4.31418E-14 1.84976E-13
 -1      3932 2.00786E+01-7.74603E-02 3.52784E-05-5.43559E-02-7.49702E-14 1.37183E-13
 -1      3933 2.00955E+01-8.58439E-02-3.82911E-04-4.77983E-02-1.06051E-13 5.95368E-14
 -1      3934 2.00744E+01-7.02980E-02-3.08523E-04-3.98550E-02-5.14915E-14 1.25245E-13
 -1      3935 2.03897E+01 6.58665E-01-1.06976E-04 8.23576E-02 3.57064E-14-9.45174E-14
 -1      3936 2.03893E+01 7.88999E-01-1.45473E-04 5.42829E-02 8.51954E-15-7.53435E-14
 -1      3937 2.03897E+01 5.12439E-01-7.79068E-04 2.76927E-02 3.68993E-14-7.92146E-14
 -1      3938 2.03740E+01 7.68482E-01-1.27499E-03-9.89582E-02-4.12310E-14-1.72314E-13
 -1      3939 2.03871E+01 6.69546E-01 2.85041E-03-8.16437E-02-2.76907E-14-1.73939E-13
 -1      3940 2.03841E+01 5.13066E-01-2.59533E-03-3.58712E-02-3.59358E-14-1.15300E-13
 -1      3941 2.03808E+01 8.04242E-01-1.66827E-03-7.12812E-02-1.92634E-14-1.46692E-13
 -1      3942 1.56954E+01-2.43170E-01-1.35997E-02 1.66528E+00 3.13625E-14-3.45700E-13
 -1      3943 1.52069E+01 8.85096E-02 3.67764E-02 1.19405E+00-1.31084E-14-4.38338E-13
 -1      3944 1.62745E+01-5.48752E-03 1.42693E-03 1.47647E+00 6.96058E-16-1.91911E-13
 -1      3945 2.01769E+01-9.76985E-02 2.44543E-04-9.29792E-02-6.25899E-14 1.00265E-13
 -1      3946 2.01947E+01-9.16481E-02 5.01790E-04-9.69671E-02 9.55799E-16 8.82516E-14
 -1      3947 2.01863E+01-1.03960E-01-7.69714E-04-7.56215E-02-1.21058E-14 1.04068E-13
 -1      3948 2.03362E+01 1.20428E-01-8.15441E-04-7.26622E-02 1.52936E-14-6.03452E-14
 -1      3949 2.03563E+01 1.90947E-01 4.29442E-04-4.93790E-02 5.59881E-14-5.46695E-14
 -1      3950 2.03668E+01 8.92767E-02-1.38403E-04 5.10530E-02-5.19301E-14-8.74738E-14
 -1      3951 1.69726E+01-6.34686E-01-1.77536E-02-2.12773E+00-2.74425E-13-2.28123E-13
 -1      3952 1.64669E+01-1.52537E-01 2.07858E-02-1.76275E+00-1.82392E-13-1.60381E-13
 -1      3953 1.71148E+01-1.08173E+00 3.09019E-02-2.42422E+00-2.60596E-13-1.55452E-13
 -1      3954 2.01955E+01-7.30677E-02-5.76795E-04-1.19382E-01 2.11442E-14 7.54759E-14
 -1      3955 2.00424E+01-3.29603E-02-1.55088E-04-2.93045E-02 8.12668E-14 1.40042E-13
 -1      3956 2.03739E+01 2.79760E-01-9.82001E-04-2.90803E-02 5.46444E-14-5.28476E-14
 -1      3957 2.03864E+01 3.82900E-01-4.60118E-04 8.78138E-03 4.54483E-14-7.36814E-14
 -1      3958 2.04143E+01 4.80091E-01 5.72345E-04 1.38665E-02 2.21850E-14-3.53819E-14
 -1      3959 2.03933E+01 2.59963E-01 1.71823E-04-2.66780E-02 3.84435E-14-2.06770E-14
 -1      3960 2.04036E+01 4.85058E-01 3.18044E-04-2.16551E-02-2.73657E-14-1.27476E-13
 -1      3961 2.03902E+01 7.93900E-01-2.24596E-03 2.16919E-02-3.92133E-15-1.04460E-13
 -1      3962 1.54909E+01 3.12237E-01 6.03982E-03 5.64766E-01-1.39257E-13-3.58552E-13
 -1      3963 2.02981E+01 1.67947E-02-3.90310E-04-9.51093E-02-2.20917E-14-5.49853E-14
 -1      3964 2.03199E+01 6.31335E-02 8.19466E-04-8.36027E-02 1.36563E-15-5.95555E-14
 -1      3965 2.03551E+01 1.06023E-01-1.76854E-04-6.18145E-02 1.72819E-14 5.80750E-15
 -1      3966 1.50644E+01 8.52949E-02 1.60846E-02-1.03816E+00-1.96649E-13-4.71541E-13
 -1      3967 1.59344E+01-4.16766E-02 2.71786E-03-1.45652E+00-2.83854E-13-1.99238E-13
 -1      3968 1.61615E+01 1.70748E-01-2.31859E-02-1.22372E+00-1.66627E-13-1.82536E-13
 -1      3969 1.55411E+01 3.38640E-01 5.23621E-03-5.09607E-01-2.54500E-13-3.61024E-13
 -1      3970 2.02564E+01-4.66874E-02-5.08111E-05-1.03049E-01-2.89524E-14-5.90924E-15
 -1      3971 2.02776E+01-1.86624E-02 6.59335E-04-9.91651E-02-3.42648E-14-4.16969E-14
 -1      3972 2.03144E+01 5.26086E-03-4.24965E-04-7.85498E-02-2.86933E-14-7.18289E-15
 -1      3973 2.03059E+01-5.46092E-02 3.41601E-04 4.51072E-02-3.32103E-14-6.06531E-14
 -1      3974 2.02826E+01-7.63592E-02 1.37983E-04 4.63652E-02-1.08358E-14-8.33912E-14
 -1      3975 2.02592E+01-9.19325E-02 3.23402E-04 4.48910E-02-1.64226E-15-1.02559E-13
 -1      3976 2.02373E+01-1.02356E-01 2.50671E-04 4.38333E-02-2.33144E-14-9.04760E-14
 -1      3977 2.02793E+01-8.46005E-02-5.64044E-04 2.56425E-02-3.62832E-14-1.03881E-13
 -1      3978 2.02150E+01-1.08279E-01 2.61085E-04 4.17462E-02-8.28123E-15-1.23722E-13
 -1      3979 2.01956E+01-1.10755E-01 4.16137E-04 3.96852E-02-5.03444E-15-9.24058E-14
 -1      3980 2.02331E+01-1.07320E-01-7.50483E-04 2.37326E-02-3.65784E-14-1.17013E-13
 -1      3981 2.01755E+01-1.10640E-01 2.68917E-04 3.69325E-02-5.21468E-14-9.24749E-14
 -1      3982 2.01584E+01-1.08043E-01 3.74454E-04 3.43169E-02-9.01667E-14-1.54311E-13
 -1      3983 2.01919E+01-1.14201E-01-8.99482E-04 2.08938E-02-3.22027E-14-1.61224E-13
 -1      3984 2.01410E+01-1.03773E-01 2.41620E-04 3.18232E-02-1.03400E-13-1.41478E-13
 -1      3985 2.01265E+01-9.79581E-02 3.44597E-04 2.90949E-02-5.99585E-14-1.29279E-13
 -1      3986 2.01545E+01-1.09593E-01-9.65273E-04 1.82529E-02-7.17061E-14-1.83389E-13
 -1      3987 2.01118E+01-9.11747E-02 1.89546E-04 2.68679E-02 6.61982E-15-1.76462E-13
 -1      3988 2.00997E+01-8.33576E-02 3.03296E-04 2.43414E-02-2.28021E-14-1.19792E-13
 -1      3989 2.01230E+01-9.80092E-02-8.33020E-04 1.55444E-02-3.38504E-14-1.44455E-13
 -1      3990 2.00873E+01-7.49631E-02 1.35211E-04 2.24707E-02-4.70133E-14-1.01181E-13
 -1      3991 2.00773E+01-6.58332E-02 2.58461E-04 2.03763E-02-5.73140E-14-1.49129E-14
 -1      3992 2.00966E+01-8.20926E-02-6.77362E-04 1.30620E-02-1.64653E-14-1.82418E-13
 -1      3993 2.00669E+01-5.63151E-02 7.83033E-05 1.89290E-02-5.24568E-14 2.15323E-14
 -1      3994 2.00585E+01-4.61694E-02 2.13429E-04 1.74406E-02-1.06498E-14 9.14766E-14
 -1      3995 2.00745E+01-6.33225E-02-5.16440E-04 1.10210E-02 1.31729E-14-6.76823E-14
 -1      3996 2.00494E+01-3.56762E-02 1.70217E-05 1.64659E-02 9.80423E-15 1.09477E-13
 -1      3997 2.00421E+01-2.45106E-02 1.69484E-04 1.57256E-02 8.88730E-14 9.63144E-14
 -1      3998 2.00558E+01-4.23565E-02-3.51748E-04 9.56726E-03 2.93917E-14 1.91060E-14
 -1      3999 2.00337E+01-1.29277E-02-5.12535E-05 1.52718E-02 5.24107E-14 1.09370E-13
 -1      4000 2.00269E+01-5.05176E-04 1.26449E-04 1.54127E-02 4.51501E-14 9.96660E-14
 -1      4001 2.00391E+01-1.92176E-02-1.79652E-04 8.81714E-03 6.37897E-14 9.59995E-14
 -1      4002 2.00185E+01 1.24846E-02-1.29895E-04 1.55398E-02 4.67629E-14 8.64784E-14
 -1      4003 2.00113E+01 2.65784E-02 8.30624E-05 1.67044E-02 7.93916E-15 3.24287E-14
 -1      4004 2.00233E+01 6.55918E-03 6.81393E-06 8.88476E-03 4.18340E-14-1.54411E-14
 -1      4005 2.00020E+01 4.14442E-02-2.22920E-04 1.74945E-02-3.20707E-14-1.02935E-16
 -1      4006 1.99938E+01 5.77541E-02 3.72362E-05 1.98476E-02-8.76122E-14-5.23585E-14
 -1      4007 2.00067E+01 3.58103E-02 2.17231E-04 9.90049E-03-3.18858E-14-1.10756E-13
 -1      4008 1.99825E+01 7.50710E-02-3.34871E-04 2.14128E-02-1.06887E-13 1.03505E-13
 -1      4009 1.99723E+01 9.42259E-02-1.37587E-05 2.51514E-02-1.15829E-13 1.46712E-13
 -1      4010 1.99875E+01 6.96444E-02 4.63363E-04 1.20254E-02-4.68264E-14-5.97135E-15
 -1      4011 1.99580E+01 1.14626E-01-4.70702E-04 2.76411E-02-7.13985E-14 1.03448E-13
 -1      4012 1.99446E+01 1.37286E-01-7.31313E-05 3.29995E-02 3.28833E-14 9.23817E-14
 -1      4013 1.99636E+01 1.09344E-01 7.58831E-04 1.54633E-02-9.80320E-14 9.48869E-14
 -1      4014 1.99258E+01 1.61399E-01-6.35661E-04 3.66076E-02 8.64416E-14 2.61668E-14
 -1      4015 1.99081E+01 1.88187E-01-1.44378E-04 4.38600E-02 6.11025E-14 4.14972E-14
 -1      4016 1.99325E+01 1.56256E-01 1.11883E-03 2.04713E-02-8.32293E-14 6.20876E-14
 -1      4017 1.98833E+01 2.16561E-01-8.35204E-04 4.88319E-02-1.12359E-14-1.56071E-14
 -1      4018 1.98597E+01 2.47971E-01-2.31005E-04 5.82914E-02-9.72833E-15-2.08382E-14
 -1      4019 1.98915E+01 2.11652E-01 1.55988E-03 2.73711E-02-8.12813E-14-3.80648E-14
 -1      4020 1.98271E+01 2.80968E-01-1.07506E-03 6.49331E-02-1.27912E-15-6.01023E-14
 -1      4021 1.97959E+01 3.17242E-01-3.36100E-04 7.69505E-02 1.33812E-15-2.83702E-14
 -1      4022 1.98373E+01 2.76540E-01 2.09966E-03 3.65613E-02-3.09673E-14-1.88566E-13
 -1      4023 1.97534E+01 3.54886E-01-1.36161E-03 8.56406E-02-5.03694E-15-5.87751E-14
 -1      4024 1.97127E+01 3.95848E-01-4.61674E-04 1.00605E-01-1.98867E-15-5.90781E-14
 -1      4025 1.97660E+01 3.51419E-01 2.75722E-03 4.85355E-02-7.60657E-15-1.04522E-14
 -1      4026 1.96580E+01 4.37644E-01-1.70310E-03 1.11814E-01-4.01720E-14 2.33843E-14
 -1      4027 1.96057E+01 4.82487E-01-6.07693E-04 1.30165E-01-1.44990E-14-3.23704E-14
 -1      4028 1.96734E+01 4.35950E-01 3.55413E-03 6.39113E-02-8.04342E-16 1.77121E-14
 -1      4029 1.95361E+01 5.27171E-01-2.11231E-03 1.44490E-01 2.38581E-14-4.84430E-14
 -1      4030 1.94699E+01 5.74201E-01-7.70722E-04 1.66750E-01 5.95247E-14-4.59597E-14
 -1      4031 1.95545E+01 5.28549E-01 4.51759E-03 8.34805E-02-2.47241E-15 1.43700E-13
 -1      4032 1.93825E+01 6.19456E-01-2.61202E-03 1.84974E-01 3.03822E-14-1.17220E-13
 -1      4033 1.93000E+01 6.65797E-01-9.42188E-04 2.11842E-01-4.07113E-14-1.18207E-13
 -1      4034 1.94040E+01 6.25908E-01 5.68754E-03 1.08298E-01-3.12527E-15-2.59544E-13
 -1      4035 1.91915E+01 7.07922E-01-3.24545E-03 2.35046E-01 1.58789E-14-1.16570E-13
 -1      4036 1.90903E+01 7.49214E-01-1.10656E-03 2.67576E-01-1.26158E-14-1.13231E-13
 -1      4037 1.92158E+01 7.22479E-01 7.13066E-03 1.39841E-01-7.13023E-14-2.67146E-13
 -1      4038 1.89565E+01 7.82798E-01-4.09514E-03 2.97336E-01-6.99618E-14-3.54361E-14
 -1      4039 1.88343E+01 8.12932E-01-1.24064E-03 3.37301E-01-5.40020E-14-3.79690E-15
 -1      4040 1.89831E+01 8.09988E-01 8.96486E-03 1.80287E-01 6.18710E-14-7.55179E-14
 -1      4041 1.86700E+01 8.30570E-01-5.31573E-03 3.76043E-01-8.38538E-14 2.29691E-14
 -1      4042 1.85243E+01 8.41498E-01-1.31551E-03 4.26621E-01-8.52712E-14 1.92050E-15
 -1      4043 1.86976E+01 8.77104E-01 1.13916E-02 2.32971E-01-3.46752E-14-7.13972E-14
 -1      4044 1.83216E+01 8.33661E-01-7.18102E-03 4.78286E-01-7.69863E-14-5.58525E-14
 -1      4045 1.81498E+01 8.15261E-01-1.25816E-03 5.45315E-01-1.04251E-13-1.45702E-13
 -1      4046 1.83479E+01 9.09324E-01 1.46772E-02 3.03088E-01-1.31029E-13-1.33206E-13
 -1      4047 1.78959E+01 7.70104E-01-1.01862E-02 6.16907E-01-2.34206E-13-2.38991E-14
 -1      4048 1.76941E+01 7.08459E-01-1.68303E-03 7.11752E-01-2.24436E-13-1.17143E-13
 -1      4049 1.79154E+01 8.88415E-01 1.85454E-02 3.98633E-01-1.62232E-13-7.89438E-14
 -1      4050 1.73676E+01 6.20625E-01-1.34773E-02 8.12988E-01-1.20207E-13-9.06291E-14
 -1      4051 1.71080E+01 4.79520E-01-1.01004E-02 9.70279E-01-4.42802E-14-5.59581E-14
 -1      4052 1.73657E+01 7.80997E-01 1.72510E-02 5.28156E-01-1.42498E-13 1.26699E-13
 -1      4053 1.65940E+01 2.60050E-01 8.37124E-03 1.23253E+00 4.02226E-14-1.71780E-13
 -1      4054 2.04126E+01 6.06040E-01 2.30416E-03-3.65948E-02-1.54452E-14-1.38568E-13
 -1      4055 2.04157E+01 4.31477E-01-2.19534E-03-1.83742E-03-2.89224E-14-1.37727E-13
 -1      4056 2.01256E+01-9.80197E-02 3.76683E-04-4.18992E-02-1.04167E-13 5.06671E-14
 -1      4057 2.01396E+01-1.03240E-01 2.32048E-04-4.56844E-02-1.00921E-13 2.95733E-14
 -1      4058 2.03911E+01 1.23078E-01 2.10837E-04 2.98116E-02-3.99204E-14-7.17485E-14
 -1      4059 2.03724E+01 6.21717E-02 2.38034E-06 4.01101E-02 3.45630E-16-4.00431E-14
 -1      4060 2.01570E+01-1.06817E-01 3.84948E-04-4.93010E-02-5.31533E-14 2.16727E-14
 -1      4061 2.01738E+01-1.08498E-01 3.50987E-04-5.29615E-02-1.07153E-14 1.37103E-14
 -1      4062 2.01564E+01-1.09704E-01-1.02784E-03-3.36279E-02-5.69474E-14-3.36295E-14
 -1      4063 2.00146E+01 1.99435E-02 1.12984E-04-2.24471E-02-1.93800E-14 5.78083E-14
 -1      4064 2.00208E+01 6.63560E-03-1.28194E-04-2.12854E-02 5.27347E-14 3.94234E-14
 -1      4065 1.99552E+01 1.24235E-01-6.42454E-05-4.24368E-02-4.79233E-14 3.51852E-14
 -1      4066 1.99669E+01 1.02973E-01-4.10034E-04-3.61139E-02 1.69525E-16 5.39488E-14
 -1      4067 1.99229E+01 1.72354E-01-1.44256E-04-5.59940E-02 3.29344E-14 4.19440E-14
 -1      4068 1.99384E+01 1.47140E-01-5.50815E-04-4.74012E-02-4.87132E-14 5.17715E-14
 -1      4069 1.99426E+01 1.43232E-01 9.08675E-04-3.17248E-02-4.69628E-14 1.05908E-13
 -1      4070 1.98797E+01 2.29197E-01-2.43019E-04-7.38922E-02 1.37179E-13 8.89173E-14
 -1      4071 1.99007E+01 1.99460E-01-7.23460E-04-6.27139E-02 1.39326E-13 1.24811E-13
 -1      4072 1.99053E+01 1.96059E-01 1.29631E-03-4.17103E-02 1.53942E-14 1.27033E-13
 -1      4073 1.98224E+01 2.95613E-01-3.66673E-04-9.67131E-02-8.87291E-14 1.36003E-13
 -1      4074 1.98503E+01 2.60975E-01-9.33004E-04-8.26374E-02 6.30923E-14 2.27907E-13
 -1      4075 1.98557E+01 2.58238E-01 1.77058E-03-5.47236E-02 4.48449E-14 3.93366E-13
 -1      4076 1.97469E+01 3.71849E-01-5.21789E-04-1.25013E-01-1.36643E-13 4.24594E-14
 -1      4077 1.97838E+01 3.32270E-01-1.18464E-03-1.07760E-01-1.49884E-13 1.05204E-13
 -1      4078 1.97902E+01 3.30497E-01 2.34952E-03-7.11054E-02-8.91617E-14 3.37034E-13
 -1      4079 1.96486E+01 4.57196E-01-7.14794E-04-1.59270E-01-1.73589E-13-9.75087E-15
 -1      4080 1.96967E+01 4.13164E-01-1.48450E-03-1.38625E-01-1.28841E-13 1.05446E-14
 -1      4081 1.97044E+01 4.12858E-01 3.05296E-03-9.11402E-02-8.36240E-14 1.74017E-14
 -1      4082 1.95225E+01 5.49526E-01-9.50986E-04-1.99853E-01-1.69802E-13 1.50180E-15
 -1      4083 1.95843E+01 5.02298E-01-1.84171E-03-1.75683E-01-2.04939E-13-3.93660E-14
 -1      4084 1.95935E+01 5.04256E-01 3.90440E-03-1.15013E-01-1.46907E-13-1.51093E-13
 -1      4085 1.93626E+01 6.44731E-01-1.23309E-03-2.47034E-01 3.01855E-15-5.98638E-15
 -1      4086 1.94409E+01 5.96619E-01-2.27281E-03-2.19272E-01-4.86472E-14 7.40642E-14
 -1      4087 1.94519E+01 6.02083E-01 4.93550E-03-1.42778E-01-1.57692E-13-2.83548E-13
 -1      4088 1.91624E+01 7.36078E-01-1.55961E-03-3.01139E-01 2.38496E-14-1.21898E-13
 -1      4089 1.92603E+01 6.90775E-01-2.81057E-03-2.69679E-01 2.95215E-14-3.13956E-14
 -1      4090 1.92733E+01 7.01662E-01 6.19562E-03-1.74385E-01 5.35009E-14-1.67771E-13
 -1      4091 1.89144E+01 8.13546E-01-1.92425E-03-3.62960E-01-4.22472E-14-1.47889E-13
 -1      4092 1.90353E+01 7.76440E-01-3.52018E-03-3.27376E-01-4.51374E-14-1.26589E-13
 -1      4093 1.90504E+01 7.95728E-01 7.77004E-03-2.09799E-01 1.72014E-15-1.83839E-13
 -1      4094 1.86094E+01 8.63232E-01-2.31899E-03-4.34641E-01-9.19785E-14-8.66394E-14
 -1      4095 1.87571E+01 8.41658E-01-4.52785E-03-3.93583E-01-5.82842E-14-1.00441E-13
 -1      4096 1.87744E+01 8.73999E-01 9.81174E-03-2.49341E-01-3.65440E-14-1.38000E-13
 -1      4097 1.82352E+01 8.66991E-01-2.73018E-03-5.21481E-01-8.10500E-14-2.13398E-13
 -1      4098 1.84142E+01 8.70383E-01-6.06510E-03-4.71410E-01-9.52430E-14-9.16003E-14
 -1      4099 1.84339E+01 9.23018E-01 1.25880E-02-2.94300E-01-7.54448E-14-2.43613E-13
 -1      4100 1.77756E+01 8.03141E-01-2.17367E-03-6.35484E-01-8.80847E-14-2.87506E-13
 -1      4101 1.79897E+01 8.42958E-01-8.41789E-03-5.68487E-01-4.94857E-15-2.77226E-13
 -1      4102 1.80115E+01 9.26579E-01 1.64516E-02-3.47938E-01 1.52121E-14-1.93172E-13
 -1      4103 1.72044E+01 6.33235E-01-2.07265E-03-8.04711E-01-2.09617E-13-4.49363E-13
 -1      4104 1.74590E+01 7.28969E-01-1.30150E-02-7.06784E-01-1.86320E-13-3.84881E-13
 -1      4105 1.74701E+01 8.66516E-01 1.96524E-02-4.20348E-01-1.66355E-14-4.30631E-13
 -1      4106 1.65663E+01 3.52068E-01-3.08167E-03-1.07480E+00-2.26151E-13-3.70466E-13
 -1      4107 1.68806E+01 5.25606E-01-1.57701E-02-9.08830E-01-2.86473E-13-4.39296E-13
 -1      4108 1.68707E+01 7.06024E-01 1.71366E-02-5.68330E-01-1.94727E-13-6.72876E-13
 -1      4109 1.62059E+01 4.64785E-01 1.51213E-02-7.83543E-01-3.82368E-13-5.38467E-13
 -1      4110 2.02153E+01-8.20467E-02 1.58606E-04-1.01121E-01-5.81405E-15 5.16528E-14
 -1      4111 2.02348E+01-6.70764E-02 5.17153E-04-1.02197E-01-1.99804E-14 9.74690E-15
 -1      4112 2.02702E+01-5.65092E-02-7.93225E-04-8.42311E-02-2.89002E-14 3.33022E-14
 -1      4113 2.02275E+01-9.04968E-02-8.77290E-04-8.25998E-02-4.04672E-14 1.08022E-13
 -1      4114 2.00588E+01-4.90945E-02 2.60777E-04-2.48761E-02 5.68574E-14 5.58142E-14
 -1      4115 2.00666E+01-5.88151E-02 4.56337E-05-2.70678E-02 4.61248E-14 1.95116E-14
 -1      4116 1.99797E+01 8.36633E-02 2.41992E-06-3.26569E-02 5.53811E-14 5.97250E-14
 -1      4117 1.99886E+01 6.56982E-02-2.96041E-04-2.83073E-02 5.54987E-14 7.52922E-14
 -1      4118 1.99708E+01 9.86172E-02 5.90833E-04-2.44109E-02 4.26831E-15 4.24008E-14
 -1      4119 1.99988E+01 4.93305E-02 6.02881E-05-2.61418E-02 4.21190E-14 8.53208E-14
 -1      4120 2.00059E+01 3.39999E-02-2.03759E-04-2.35004E-02 2.03550E-14 7.72202E-14
 -1      4121 2.00103E+01 2.86777E-02 1.03475E-04-1.64720E-02-2.79538E-14 4.94659E-14
 -1      4122 1.99926E+01 6.08839E-02 3.27174E-04-1.94284E-02 6.67640E-14 1.61621E-14
 -1      4123 2.00431E+01-2.84611E-02 2.12327E-04-2.20975E-02 9.09880E-14 7.47541E-16
 -1      4124 2.00498E+01-3.91269E-02-8.07021E-06-2.33360E-02 8.05215E-14 4.30597E-14
 -1      4125 2.00573E+01-4.62432E-02-4.43908E-04-1.73376E-02 6.58606E-14-2.05533E-13
 -1      4126 2.00288E+01-5.66804E-03 1.63148E-04-2.12012E-02 8.07471E-14-5.35057E-14
 -1      4127 2.00350E+01-1.74677E-02-6.45136E-05-2.13246E-02 9.74771E-14 3.75110E-15
 -1      4128 2.00259E+01 7.43239E-04-9.28577E-05-1.52795E-02 1.66724E-14-6.32075E-14
 -1      4129 1.59990E+01 3.95398E-01-1.90601E-02 7.33739E-01-1.26197E-13-1.39126E-13
 -1      4130 1.57890E+01 5.30688E-01 1.05534E-02 1.32425E-01-3.47265E-13-9.26776E-15
 -1      4131 2.04226E+01 6.08875E-01 2.81218E-03 1.50431E-02-1.35445E-15-9.44907E-14
 -1      4132 2.03957E+01 7.87328E-01-1.21315E-03-1.96902E-03-2.12018E-14-1.37982E-13
 -1      4133 2.03516E+01 1.29046E-02 2.70413E-04 4.07253E-02 1.60791E-15-3.90109E-14
 -1      4134 2.03290E+01-2.51126E-02 6.56508E-05 4.57216E-02-8.38649E-15-3.17278E-14
 -1      4135 2.03718E+01 4.24470E-02-6.57557E-04 2.19740E-02 1.60578E-14-5.37155E-14
 -1      4136 2.04181E+01 2.92110E-01 1.18999E-03 1.02302E-02-2.42270E-14-1.22083E-13
 -1      4137 2.04055E+01 1.97873E-01-5.74738E-04 2.67960E-02-4.98775E-14-1.08327E-13
 -1      4138 2.04076E+01 1.70880E-01-4.56278E-04 1.44400E-02 1.26773E-15-1.26078E-13
 -1      4139 2.03951E+01 7.73230E-01-1.62258E-03-3.26721E-02-1.62220E-14-1.54691E-13
 -1      4140 2.03654E+01 7.96843E-02-5.39824E-04-5.31805E-02-2.63601E-14 5.32679E-14
 -1      4141 2.03864E+01 1.44447E-01 5.35685E-04-3.93626E-02 2.21471E-15 2.97574E-14
 -1      4142 1.67607E+01 4.64924E-01 2.28829E-03 8.58121E-01-6.81083E-14-4.24889E-14
 -1      4143 2.01107E+01-9.17995E-02 1.62859E-04-3.86073E-02-1.13278E-13 4.22081E-14
 -1      4144 2.01247E+01-9.94023E-02-9.36815E-04-2.86894E-02-1.14947E-13 1.07800E-15
 -1      4145 2.00991E+01-8.44400E-02 3.48037E-04-3.50825E-02-1.38239E-13 4.07087E-14
 -1      4146 2.01938E+01-1.12293E-01-5.87171E-04-3.85826E-02-4.73016E-15-8.77739E-14
 -1      4147 2.01937E+01-1.08158E-01 2.73168E-04-5.64192E-02 2.53047E-14-2.39470E-15
 -1      4148 2.02137E+01-1.04912E-01 3.65937E-04-5.97199E-02 1.60773E-14 4.12313E-14
 -1      4149 2.00411E+01-2.39755E-02-2.72512E-04-1.56310E-02 7.19456E-14-7.78001E-14
 -1      4150 2.04008E+01 2.20593E-01-4.14488E-04-2.82946E-02 1.49104E-14 1.63426E-15
 -1      4151 2.04188E+01 3.11094E-01-2.60659E-04-7.15423E-03 5.93387E-16-1.47613E-14
 -1      4152 2.04079E+01 1.93096E-01-3.71814E-04-1.89713E-02-1.78382E-14 5.21913E-15
 -1      4153 2.00760E+01-6.64354E-02-6.12580E-04-2.02228E-02 2.63852E-14-1.22850E-13
 -1      4154 2.00772E+01-6.78345E-02 3.07152E-04-2.92937E-02 5.53433E-15 2.64931E-14
 -1      4155 2.00866E+01-7.65572E-02 1.01061E-04-3.22621E-02-7.84248E-14 4.07249E-14
 -1      4156 1.66710E+01 6.69696E-01 1.15605E-02 4.70198E-01-9.64562E-14 6.50450E-14
 -1      4157 2.03266E+01-3.81976E-02-6.55667E-04 2.53970E-02-3.80117E-14-9.67657E-14
 -1      4158 2.04246E+01 3.93958E-01 1.20575E-04-4.95435E-04-2.51440E-14-1.59010E-13
 -1      4159 2.04238E+01 3.88355E-01 9.39709E-04-3.44221E-03 1.25994E-14-5.13008E-14
 -1      4160 2.04227E+01 5.09500E-01-7.90494E-04 1.14653E-02 8.15512E-15-5.56235E-14
 -1      4161 2.04265E+01 5.05340E-01-1.10665E-04 4.18980E-04-1.32584E-14-1.15333E-13
 -1      4162 2.04281E+01 3.42433E-01-1.14750E-04-1.65662E-03-2.27062E-14-7.77247E-14
 -1      4163 1.58850E+01 4.90975E-01-6.21483E-03-3.80700E-01-3.68408E-13-5.20850E-13
 -1      4164 2.03476E+01 2.81906E-02 7.66662E-04-5.61989E-02 6.96680E-15 4.40780E-14
 -1      4165 2.03714E+01 6.12745E-02-7.48700E-04-3.77653E-02-3.40801E-15 4.08649E-14
 -1      4166 2.03252E+01-1.24741E-02 1.43953E-04-6.25075E-02-2.29722E-14 1.20725E-14
 -1      4167 2.03956E+01 7.53693E-01-2.27598E-04-4.09058E-02-6.96724E-15-1.60030E-13
 -1      4168 1.64024E+01 6.18775E-01 5.49029E-03-1.67426E-01-3.73631E-13-3.11264E-13
 -1      4169 2.02488E+01-1.04248E-01 2.67313E-04 4.35303E-03-6.62897E-14-6.94023E-14
 -1      4170 2.02274E+01-1.10645E-01 4.82662E-04 4.03102E-03-5.25543E-14-1.14660E-13
 -1      4171 2.01982E+01-1.12554E-01 5.20385E-04-7.44807E-03-2.55116E-14-9.09144E-14
 -1      4172 2.01788E+01-1.11848E-01 5.88170E-04-7.44354E-03-2.87635E-14-6.06204E-14
 -1      4173 2.01614E+01-1.08392E-01 6.80263E-04-6.09972E-03-7.13589E-14-7.55978E-14
 -1      4174 2.01440E+01-1.03973E-01 5.83180E-04-6.55462E-03-6.89486E-14-3.97317E-14
 -1      4175 2.01290E+01-9.75243E-02 6.35053E-04-5.05794E-03-8.56441E-14-8.99040E-14
 -1      4176 2.01141E+01-9.06095E-02 4.89298E-04-5.59464E-03-8.05654E-14-1.05166E-13
 -1      4177 2.01016E+01-8.22701E-02 5.34810E-04-4.21618E-03-6.46567E-14-1.40832E-13
 -1      4178 2.00891E+01-7.37155E-02 3.85803E-04-4.70467E-03-4.65436E-14-1.97625E-13
 -1      4179 2.00785E+01-6.41333E-02 4.18820E-04-3.59261E-03 4.15963E-14-1.37807E-13
 -1      4180 2.00680E+01-5.43855E-02 2.84415E-04-3.96305E-03 7.17249E-14-1.27581E-13
 -1      4181 2.00590E+01-4.38238E-02 2.95564E-04-3.21915E-03 4.84757E-14-1.27240E-13
 -1      4182 2.00498E+01-3.29928E-02 1.84862E-04-3.42294E-03 5.84616E-14-9.95701E-14
 -1      4183 2.00417E+01-2.14184E-02 1.65190E-04-3.12922E-03 3.90462E-14-4.26332E-14
 -1      4184 2.00333E+01-9.35058E-03 8.33905E-05-3.12561E-03 3.74449E-14-5.61965E-14
 -1      4185 2.00253E+01 3.49702E-03 2.41603E-05-3.35915E-03 2.81536E-14-5.91375E-14
 -1      4186 2.00169E+01 1.71594E-02-2.55369E-05-3.10819E-03-6.33422E-15-9.93666E-14
 -1      4187 2.00082E+01 3.17128E-02-1.33443E-04-3.95033E-03-2.02985E-14-6.48254E-14
 -1      4188 1.99989E+01 4.74817E-02-1.48762E-04-3.40792E-03 1.89863E-14-3.87813E-14
 -1      4189 1.99887E+01 6.42977E-02-3.15360E-04-4.94946E-03 2.49170E-14-6.64554E-14
 -1      4190 1.99774E+01 8.27939E-02-2.94239E-04-4.06341E-03-8.52243E-15 2.46132E-14
 -1      4191 1.99645E+01 1.02506E-01-5.30810E-04-6.40593E-03-7.87574E-14 6.86948E-14
 -1      4192 1.99502E+01 1.24409E-01-4.70934E-04-5.11242E-03-1.21010E-13 1.44542E-14
 -1      4193 1.99333E+01 1.47673E-01-7.90240E-04-8.36550E-03-1.11571E-13 6.76444E-14
 -1      4194 1.99145E+01 1.73661E-01-6.88747E-04-6.58531E-03-1.17039E-13 2.63813E-14
 -1      4195 1.98921E+01 2.01086E-01-1.10514E-03-1.08590E-02-7.01589E-14 1.33586E-13
 -1      4196 1.98674E+01 2.31756E-01-9.58469E-04-8.49287E-03-3.10549E-14 8.77794E-14
 -1      4197 1.98376E+01 2.63808E-01-1.48796E-03-1.38847E-02-5.48234E-14 1.74934E-13
 -1      4198 1.98051E+01 2.99564E-01-1.29187E-03-1.08066E-02-3.50083E-14 1.22302E-13
 -1      4199 1.97660E+01 3.36445E-01-1.95237E-03-1.73832E-02-1.23960E-14 5.56212E-14
 -1      4200 1.97236E+01 3.77358E-01-1.70212E-03-1.34297E-02 2.51661E-15 4.19592E-14
 -1      4201 1.96727E+01 4.18834E-01-2.51418E-03-2.12040E-02 2.06634E-14-3.18668E-14
 -1      4202 1.96180E+01 4.64453E-01-2.20504E-03-1.61564E-02-8.79465E-15 9.59438E-16
 -1      4203 1.95527E+01 5.09646E-01-3.19380E-03-2.50653E-02-8.90009E-14-5.46101E-14
 -1      4204 1.94831E+01 5.58769E-01-2.82200E-03-1.86197E-02-8.65346E-14-1.45021E-13
 -1      4205 1.94002E+01 6.05903E-01-4.02162E-03-2.85102E-02-6.20810E-14-2.00510E-13
 -1      4206 1.93126E+01 6.56323E-01-3.58595E-03-2.02281E-02-7.51747E-14-2.37858E-13
 -1      4207 1.92087E+01 7.02440E-01-5.04841E-03-3.08698E-02 6.60591E-15-2.07587E-13
 -1      4208 1.90997E+01 7.50679E-01-4.55244E-03-2.00966E-02 2.08654E-14-1.20596E-13
 -1      4209 1.89702E+01 7.91355E-01-6.36327E-03-3.12479E-02-1.32297E-14-1.09732E-13
 -1      4210 1.88357E+01 8.32452E-01-5.81673E-03-1.69852E-02 5.41124E-14-1.13184E-13
 -1      4211 1.86753E+01 8.61577E-01-8.11580E-03-2.85412E-02 2.44295E-14-1.18038E-13
 -1      4212 1.85099E+01 8.88992E-01-7.52439E-03-9.26857E-03-1.10245E-13-1.45150E-13
 -1      4213 1.83111E+01 8.98739E-01-1.04946E-02-2.14690E-02-7.34356E-14-1.81835E-13
 -1      4214 1.81073E+01 9.04498E-01-9.76383E-03 5.02591E-03-3.14390E-14-8.61108E-14
 -1      4215 1.78593E+01 8.86091E-01-1.33087E-02-8.24199E-03-8.70072E-15-1.29972E-13
 -1      4216 1.76075E+01 8.61111E-01-1.17168E-02 2.89961E-02-6.42110E-14-8.52698E-14
 -1      4217 1.72942E+01 8.16280E-01-1.15131E-02 1.78711E-02-1.18650E-13-4.03779E-14
 -1      4218 1.70007E+01 7.51828E-01-2.13239E-03 6.09073E-02-4.22608E-14-8.72143E-14
 -1      4219 1.66510E+01 7.18067E-01-9.16494E-03-1.00766E-01-1.99423E-13-2.17523E-13
 -1      4220 2.03790E+01 5.12129E-02 1.05443E-04-9.71682E-03 4.03484E-15-9.47793E-14
 -1      4221 2.03575E+01 3.69491E-03 6.18357E-04-7.30010E-03-8.74721E-15-9.15871E-14
 -1      4222 2.02965E+01-7.67056E-02 4.16221E-04 4.81702E-03-3.77396E-14-1.02840E-13
 -1      4223 2.02725E+01-9.30630E-02 4.60929E-04 5.34526E-03-2.94926E-14-9.26030E-14
 -1      4224 2.02590E+01-9.96306E-02-4.60303E-04-1.57839E-02-3.69461E-14-7.26856E-14
 -1      4225 2.03401E+01-2.78874E-02 3.52543E-04-2.68989E-03-1.05795E-14-1.21632E-13
 -1      4226 2.03154E+01-5.77035E-02 3.30319E-04-1.36065E-03-5.29181E-14-1.20303E-13
 -1      4227 2.03007E+01-6.98511E-02-9.86689E-04-2.40707E-02-4.43094E-14-1.27520E-13
 -1      4228 2.03352E+01-2.18229E-02-9.56782E-04-3.73429E-02-2.22753E-14-4.22463E-14
 -1      4229 2.03989E+01 1.09872E-01 8.55759E-04-4.08779E-03 1.84360E-14-7.19045E-14
 -1      4230 2.00981E+01-8.44197E-02-7.79753E-04-2.40926E-02-1.08461E-13-3.13148E-14
 -1      4231 2.04127E+01 1.83915E-01-5.58497E-05-8.06937E-03-2.30106E-15-9.33403E-14
 -1      4232 2.02495E+01-9.42729E-02 2.93462E-04-4.87326E-02-3.71896E-14-3.62419E-14
 -1      4233 2.02714E+01-8.09056E-02 5.48781E-04-4.94731E-02-4.80555E-14-5.04215E-14
 -1      4234 2.04214E+01 5.73134E-01-2.17404E-04-5.25498E-03-1.78403E-15-1.73318E-13
 -1      4235 2.04298E+01 4.84043E-01 8.51633E-04-5.57494E-03-4.92964E-15-1.40603E-13
 -1      4236 2.04269E+01 2.64616E-01 1.35701E-03 1.66703E-03-1.23254E-14-1.18961E-13
 -1      4237 2.03105E+01-3.94734E-02 6.23407E-04-5.59079E-02-3.94708E-14 8.51703E-15
 -1      4238 2.04268E+01 3.28815E-01-1.02792E-03 3.18286E-03-1.58999E-14-1.22731E-13
 -1      4239 2.02048E+01-1.11612E-01-4.44224E-04-2.54686E-02-1.95713E-14-9.16480E-14
 -1      4240 2.02888E+01-6.40413E-02 4.53355E-04-5.74402E-02-5.10465E-14-1.04350E-14
 -1      4241 2.02479E+01-1.00388E-01-4.47414E-04-2.85171E-02-1.95951E-14-1.16598E-13
 -1      4242 2.02250E+01-1.08013E-01 3.22430E-04-2.71566E-02-3.60254E-14-9.73469E-14
 -3
    1PSTEP                         3           1           1          
  100CL  101 1.000000000        4242                     0    1           1
 -4  TOSTRAIN    6    1
 -5  EXX         1    4    1    1
 -5  EYY         1    4    2    2
 -5  EZZ         1    4    3    3
 -5  EXY         1    4    1    2
 -5  EYZ         1    4    2    3
 -5  EZX         1    4    3    1
 -1         1 3.88354E-04-1.18374E-04-1.03493E-04 2.31563E-05-1.14887E-18-7.06468E-18
 -1         2 9.68263E-05-2.54581E-04 1.06998E-05-4.50658E-06 1.51711E-17 1.26674E-18
 -1         3 9.57663E-05-2.77210E-05-2.81600E-05 1.98889E-06 6.75106E-19 8.97603E-19
 -1         4 9.56757E-05-2.79726E-05-2.85272E-05-1.30534E-06 1.29854E-19 4.73243E-19
 -1         5 1.43348E-04-2.14780E-05-4.25293E-05 3.85304E-05-1.13608E-19 9.35569E-18
 -1         6 1.45408E-04 2.57584E-10-4.41882E-05-5.35250E-05-5.06420E-19 9.93750E-18
 -1         7 9.06133E-05-5.11453E-07-3.90696E-05-2.92493E-05-8.24798E-20 2.47249E-18
 -1         8 8.51294E-05 8.63113E-08-3.63405E-05-2.02668E-05-1.19061E-19-4.23632E-20
 -1         9 8.28187E-05 7.59458E-08-3.53523E-05-1.56342E-05-8.86076E-20-1.54530E-18
 -1        10 8.17725E-05 3.96308E-08-3.48821E-05-1.20723E-05-8.49680E-20-2.31303E-18
 -1        11 8.12517E-05 1.93286E-08-3.46527E-05-9.00891E-06-7.71958E-20-2.70461E-18
 -1        12 8.09808E-05 9.18983E-09-3.45374E-05-6.28016E-06-4.28513E-20-2.89616E-18
 -1        13 8.08378E-05 4.65189E-09-3.44791E-05-3.68276E-06-2.21370E-20-2.90205E-18
 -1        14 8.07778E-05 2.81787E-09-3.44552E-05-1.18266E-06-1.21918E-20-2.91226E-18
 -1        15 8.07799E-05 2.80867E-09-3.44560E-05 1.28794E-06 1.01663E-20-2.91096E-18
 -1        16 8.08442E-05 4.58849E-09-3.44814E-05 3.79312E-06 2.35176E-20-2.84529E-18
 -1        17 8.09924E-05 8.45254E-09-3.45412E-05 6.40249E-06 3.25413E-20-2.79477E-18
 -1        18 8.12692E-05 1.81916E-08-3.46577E-05 9.15044E-06 5.23374E-20-2.61811E-18
 -1        19 8.17981E-05 3.81787E-08-3.48904E-05 1.22520E-05 9.23597E-20-2.27441E-18
 -1        20 8.28389E-05 8.14547E-08-3.53647E-05 1.58649E-05 1.03497E-19-1.65763E-18
 -1        21 8.50947E-05 1.69296E-07-3.63791E-05 2.04776E-05 1.43043E-19-2.30912E-19
 -1        22 9.16501E-05-9.99849E-08-3.87413E-05 2.79963E-05 2.94344E-20 2.64972E-18
 -1        23 1.12983E-04-3.81294E-05-3.53996E-05-4.40143E-06-3.19173E-19 8.05867E-18
 -1        24 9.28204E-05-2.77018E-05-2.90039E-05 3.91468E-07-9.34846E-20 6.58437E-18
 -1        25 8.91403E-05-2.68584E-05-2.69357E-05 3.75989E-07-5.63906E-20 5.06465E-18
 -1        26 8.80424E-05-2.64964E-05-2.63999E-05 2.04289E-07 5.03389E-20 3.87990E-18
 -1        27 8.80748E-05-2.64765E-05-2.63937E-05 1.40077E-07-6.65194E-20 3.10307E-18
 -1        28 8.86149E-05-2.66148E-05-2.65652E-05 1.01121E-07-9.49622E-20 2.76460E-18
 -1        29 8.93767E-05-2.68296E-05-2.67998E-05 7.54982E-08 2.17144E-20 2.32879E-18
 -1        30 9.02089E-05-2.70715E-05-2.70521E-05 5.72582E-08 1.65041E-20 1.80107E-18
 -1        31 9.10264E-05-2.73123E-05-2.72987E-05 4.35666E-08 1.57845E-19 1.89511E-18
 -1        32 9.17819E-05-2.75363E-05-2.75264E-05 3.29831E-08-1.64408E-19 1.24577E-18
 -1        33 9.24516E-05-2.77356E-05-2.77282E-05 2.46963E-08 1.20108E-19 5.00924E-19
 -1        34 9.30263E-05-2.79071E-05-2.79016E-05 1.81895E-08-1.87532E-19-3.75772E-19
 -1        35 9.35063E-05-2.80506E-05-2.80466E-05 1.30943E-08 1.19514E-19-3.08867E-19
 -1        36 9.38976E-05-2.81678E-05-2.81648E-05 9.12603E-09-6.86665E-20 2.40197E-19
 -1        37 9.42092E-05-2.82613E-05-2.82591E-05 6.05384E-09-3.24398E-19-2.35846E-19
 -1        38 9.44517E-05-2.83341E-05-2.83325E-05 3.68683E-09 2.73941E-19-5.08966E-19
 -1        39 9.46361E-05-2.83897E-05-2.83885E-05 1.86739E-09-7.07581E-20 2.63856E-20
 -1        40 9.47736E-05-2.84312E-05-2.84303E-05 4.67689E-10 1.30609E-20-3.17486E-19
 -1        41 9.48750E-05-2.84619E-05-2.84612E-05-6.12196E-10 1.46212E-19-9.31823E-19
 -1        42 9.49508E-05-2.84850E-05-2.84844E-05-1.44512E-09-2.60347E-19-1.87285E-18
 -1        43 9.50119E-05-2.85037E-05-2.85031E-05-2.07664E-09-2.78740E-19-8.75219E-19
 -1        44 9.50695E-05-2.85215E-05-2.85209E-05-2.52358E-09 1.08395E-19 5.15244E-19
 -1        45 9.51363E-05-2.85420E-05-2.85415E-05-2.77110E-09-3.86418E-19 1.09253E-18
 -1        46 9.52269E-05-2.85698E-05-2.85694E-05-2.76790E-09-2.68118E-20 8.18611E-20
 -1        47 9.53585E-05-2.86100E-05-2.86097E-05-2.41931E-09 1.11065E-21 3.63842E-19
 -1        48 9.55521E-05-2.86689E-05-2.86689E-05-1.57776E-09-5.67391E-19-8.87621E-19
 -1        49 9.58337E-05-2.87543E-05-2.87548E-05-3.07581E-11 2.15732E-19-2.56063E-18
 -1        50 9.62343E-05-2.88754E-05-2.88768E-05 2.51360E-09 7.89291E-20-2.42323E-18
 -1        51 9.67915E-05-2.90436E-05-2.90462E-05 6.44218E-09 4.83514E-20-2.12632E-19
 -1        52 9.75487E-05-2.92717E-05-2.92761E-05 1.22497E-08-3.64092E-19 1.90640E-18
 -1        53 9.85548E-05-2.95742E-05-2.95811E-05 2.05402E-08-2.24022E-19-8.94976E-20
 -1        54 9.98607E-05-2.99661E-05-2.99764E-05 3.19979E-08-1.08245E-19-1.55535E-19
 -1        55 1.01513E-04-3.04612E-05-3.04756E-05 4.72869E-08 2.03007E-20-5.25829E-19
 -1        56 1.03545E-04-3.10683E-05-3.10872E-05 6.68040E-08 1.81786E-19 4.01285E-19
 -1        57 1.05950E-04-3.17856E-05-3.18081E-05 9.01467E-08 8.94966E-20 1.45736E-18
 -1        58 1.08656E-04-3.25905E-05-3.26132E-05 1.15084E-07-2.17280E-19-2.47095E-20
 -1        59 1.11473E-04-3.34258E-05-3.34405E-05 1.35787E-07 1.11534E-19-8.32441E-19
 -1        60 1.14027E-04-3.41802E-05-3.41712E-05 1.40286E-07-5.47014E-19 8.09466E-19
 -1        61 1.15691E-04-3.46685E-05-3.46120E-05 1.07931E-07 6.43364E-19 2.10421E-18
 -1        62 1.15555E-04-3.46216E-05-3.44909E-05 9.60668E-09-9.15853E-19 1.59338E-18
 -1        63 1.12505E-04-3.37116E-05-3.34942E-05-1.83069E-07-5.98473E-19-2.69277E-19
 -1        64 1.05563E-04-3.16468E-05-3.13767E-05-4.71243E-07-6.98418E-19-1.69730E-18
 -1        65 9.45423E-05-2.83665E-05-2.81553E-05-7.86400E-07-1.06293E-20-3.40679E-18
 -1        66 8.09112E-05-2.42964E-05-2.43234E-05-9.61002E-07 2.82895E-19-2.84508E-18
 -1        67 6.82854E-05-2.05054E-05-2.09249E-05-7.70706E-07 2.06133E-19-3.76731E-18
 -1        68 6.16657E-05-1.84931E-05-1.92607E-05-9.28570E-08 8.99212E-20-1.78219E-18
 -1        69 6.49387E-05-1.94417E-05-2.02220E-05 9.00031E-07 9.91151E-19-3.50619E-19
 -1        70 7.74507E-05-2.32498E-05-2.34265E-05 1.56936E-06-6.72915E-19-6.87579E-19
 -1        71 9.18537E-05-2.79214E-05-2.69019E-05 1.23249E-06-2.67972E-19-2.35295E-18
 -1        72 1.02187E-04-3.05900E-05-3.41528E-05-1.92941E-06 1.50401E-19 8.24608E-18
 -1        73 9.25768E-05-2.75179E-05-2.89122E-05-3.33333E-07 4.86316E-20 6.04426E-18
 -1        74 8.91280E-05-2.67079E-05-2.69788E-05-1.25980E-07 4.62080E-20 4.41104E-18
 -1        75 8.80725E-05-2.64473E-05-2.64438E-05-9.56504E-08-6.75314E-20 3.48099E-18
 -1        76 8.81094E-05-2.64565E-05-2.64203E-05-7.66928E-08 1.18330E-19 2.44959E-18
 -1        77 8.86488E-05-2.66092E-05-2.65823E-05-6.26667E-08 1.14758E-19 1.54242E-18
 -1        78 8.94081E-05-2.68309E-05-2.68122E-05-5.19325E-08-1.13908E-19 1.60836E-18
 -1        79 9.02368E-05-2.70761E-05-2.70616E-05-4.31236E-08 5.31958E-20 1.57505E-18
 -1        80 9.10507E-05-2.73183E-05-2.73061E-05-3.55742E-08 2.62222E-20 7.94032E-19
 -1        81 9.18026E-05-2.75428E-05-2.75321E-05-2.90201E-08 1.99151E-19-3.66448E-19
 -1        82 9.24690E-05-2.77419E-05-2.77327E-05-2.33486E-08-5.34690E-20-1.33669E-18
 -1        83 9.30406E-05-2.79129E-05-2.79050E-05-1.84888E-08 7.57874E-20-1.90753E-18
 -1        84 9.35179E-05-2.80558E-05-2.80491E-05-1.43725E-08 6.54867E-20-1.73648E-18
 -1        85 9.39068E-05-2.81722E-05-2.81667E-05-1.09237E-08-2.37533E-20-1.77591E-18
 -1        86 9.42162E-05-2.82650E-05-2.82604E-05-8.05819E-09 1.60471E-19-2.97395E-18
 -1        87 9.44569E-05-2.83371E-05-2.83334E-05-5.68674E-09-3.80249E-19-2.13450E-18
 -1        88 9.46398E-05-2.83920E-05-2.83890E-05-3.71915E-09 4.07320E-20-1.58788E-18
 -1        89 9.47758E-05-2.84328E-05-2.84305E-05-2.06772E-09 2.67524E-19-3.34866E-18
 -1        90 9.48758E-05-2.84629E-05-2.84611E-05-6.50558E-10 6.64428E-20-3.18885E-18
 -1        91 9.49504E-05-2.84854E-05-2.84840E-05 6.05906E-10-1.74559E-19-2.66579E-18
 -1        92 9.50101E-05-2.85035E-05-2.85025E-05 1.76467E-09-2.37037E-19-6.47894E-19
 -1        93 9.50663E-05-2.85206E-05-2.85199E-05 2.87569E-09-1.25142E-19-8.55636E-19
 -1        94 9.51315E-05-2.85404E-05-2.85402E-05 3.97261E-09 2.94329E-19-2.54059E-18
 -1        95 9.52202E-05-2.85673E-05-2.85677E-05 5.06806E-09-1.53478E-21-3.92040E-18
 -1        96 9.53500E-05-2.86066E-05-2.86076E-05 6.14655E-09 3.99946E-19-2.04177E-18
 -1        97 9.55421E-05-2.86647E-05-2.86666E-05 7.15389E-09-1.08581E-19-1.69933E-18
 -1        98 9.58230E-05-2.87494E-05-2.87526E-05 7.98140E-09-2.54962E-19-1.23185E-19
 -1        99 9.62253E-05-2.88705E-05-2.88755E-05 8.44232E-09-3.40334E-19-6.07032E-19
 -1       100 9.67888E-05-2.90400E-05-2.90474E-05 8.23699E-09 1.55563E-19-4.29149E-19
 -1       101 9.75613E-05-2.92720E-05-2.92826E-05 6.90197E-09 7.04224E-20-3.04940E-18
 -1       102 9.85984E-05-2.95831E-05-2.95979E-05 3.73771E-09-2.76909E-20-4.85206E-18
 -1       103 9.99623E-05-2.99917E-05-3.00119E-05-2.28809E-09-1.52572E-19-3.11893E-18
 -1       104 1.01717E-04-3.05167E-05-3.05436E-05-1.26532E-08-2.41367E-20-3.76394E-19
 -1       105 1.03921E-04-3.11747E-05-3.12093E-05-2.93684E-08 8.28639E-20-1.78999E-18
 -1       106 1.06603E-04-3.19744E-05-3.20162E-05-5.49201E-08-4.37330E-19-3.24761E-18
 -1       107 1.09734E-04-3.29067E-05-3.29521E-05-9.17770E-08 1.44941E-19-5.22513E-18
 -1       108 1.13172E-04-3.39287E-05-3.39671E-05-1.40870E-07-1.69200E-19-3.54235E-18
 -1       109 1.16570E-04-3.49390E-05-3.49476E-05-1.98052E-07 2.77714E-19-1.79421E-18
 -1       110 1.19273E-04-3.57465E-05-3.56852E-05-2.47486E-07-6.38574E-19-3.54301E-18
 -1       111 1.20217E-04-3.60407E-05-3.58544E-05-2.52593E-07 3.85102E-19-3.24090E-18
 -1       112 1.17940E-04-3.53930E-05-3.50340E-05-1.51538E-07-7.36968E-20-1.19912E-18
 -1       113 1.10900E-04-3.33409E-05-3.28250E-05 1.24405E-07-7.01251E-20 1.53234E-19
 -1       114 9.82999E-05-2.96204E-05-2.91042E-05 5.87157E-07-6.03559E-19-8.92402E-19
 -1       115 8.13796E-05-2.45485E-05-2.43555E-05 1.09505E-06-3.04737E-20 5.98482E-19
 -1       116 6.44514E-05-1.93666E-05-1.98509E-05 1.31567E-06 7.65913E-19 1.23667E-19
 -1       117 5.42847E-05-1.61196E-05-1.73534E-05 8.73579E-07-6.60421E-19-9.25595E-19
 -1       118 5.68386E-05-1.67333E-05-1.81828E-05-3.13655E-07 8.03831E-19 2.06427E-18
 -1       119 7.21447E-05-2.13265E-05-2.20258E-05-1.83762E-06-4.53837E-19 2.98314E-18
 -1       120 9.02468E-05-2.74370E-05-2.63897E-05-2.12596E-06 3.06639E-19 2.27111E-18
 -1       121 9.71476E-05-3.57253E-05-2.52137E-05-2.09497E-06 3.14233E-18 2.22108E-19
 -1       122 1.04480E-04-6.01556E-05-1.79704E-05-2.78709E-06 5.47882E-18 1.41127E-19
 -1       123 1.14871E-04-9.55510E-05-8.05124E-06-4.32140E-06 5.66411E-18-1.58896E-18
 -1       124 1.26980E-04-1.33870E-04 4.21274E-07-5.80767E-06-3.74389E-19 1.06116E-18
 -1       125 1.33707E-04-1.51109E-04 3.04171E-07-2.80412E-06-1.05443E-17-5.63674E-19
 -1       126 1.25297E-04-1.22020E-04-1.18183E-05 7.47164E-06-1.06502E-17 1.64361E-18
 -1       127 9.46190E-05-2.07625E-05-3.44545E-05 1.83916E-05-1.63782E-17-2.38583E-18
 -1       128 2.84277E-05 1.62255E-04-6.19203E-05 2.46269E-05-3.38144E-17-6.39298E-19
 -1       129-1.85636E-05 2.91522E-04-7.75839E-05 6.56438E-06-2.45419E-17 3.79577E-18
 -1       130-5.92358E-06 2.58785E-04-7.39753E-05-1.36362E-05 5.75305E-18 3.15372E-18
 -1       131 5.63334E-05 8.87303E-05-5.23619E-05-1.99818E-05 2.85332E-17-1.54848E-20
 -1       132 1.08074E-04-6.29236E-05-2.63943E-05-1.01535E-05 1.73760E-17-4.78031E-18
 -1       133 1.34457E-04-1.46099E-04-5.38909E-06-1.60746E-06-2.40134E-18 4.87573E-20
 -1       134 1.33551E-04-1.51171E-04 2.74047E-06 3.00373E-06-1.23868E-18-1.42771E-19
 -1       135 1.21664E-04-1.16757E-04-2.64094E-06 2.39490E-06-4.06258E-18-3.19158E-19
 -1       136 1.10156E-04-7.97403E-05-1.22650E-05 1.50586E-06 1.35674E-18 9.24330E-19
 -1       137 1.02151E-04-5.18183E-05-2.07979E-05 2.51840E-06 4.05729E-19 1.04476E-18
 -1       138 9.68599E-05-3.40747E-05-2.61428E-05 1.86860E-06 4.87375E-18-9.93397E-19
 -1       139 5.88434E-05-1.56334E-04 3.28883E-07-2.85357E-05 3.23482E-17 9.35707E-18
 -1       140 1.61332E-05 1.64223E-05-2.55835E-05 3.07956E-05 2.36509E-17 1.00124E-17
 -1       141 4.46284E-05 1.08908E-04-5.62486E-05 1.42643E-04 8.37207E-18 7.27771E-18
 -1       142 1.49038E-04 8.65975E-05-8.36311E-05 2.22643E-04 5.77973E-18 5.95379E-18
 -1       143 2.79031E-04 2.27442E-06-1.02986E-04 2.28384E-04 1.80714E-18 4.36307E-18
 -1       144 3.79859E-04-8.23983E-05-1.11669E-04 1.61696E-04 1.02332E-19 1.17923E-19
 -1       145 4.14907E-04-1.24839E-04-1.10256E-04 5.17178E-05-8.97378E-19-9.34913E-18
 -1       146 3.66171E-04-1.07820E-04-9.90158E-05-5.88116E-05 4.54168E-19-9.52023E-18
 -1       147 2.60724E-04-5.24801E-05-8.10038E-05-1.16587E-04 4.14707E-18-6.83301E-18
 -1       148 1.31141E-04 5.69979E-06-5.53676E-05-1.11019E-04 5.38459E-18-9.33854E-18
 -1       149 4.02136E-05 2.37909E-05-2.94192E-05-5.81302E-05 1.20304E-17-1.07959E-17
 -1       150 4.89630E-06-1.15294E-05-4.06068E-06 6.05650E-06 1.51932E-17-1.13269E-17
 -1       151 1.62112E-05-7.46317E-05 1.44729E-05 3.67852E-05 1.39705E-17-5.80482E-18
 -1       152 3.94080E-05-1.31039E-04 2.64597E-05 2.86494E-05 8.79093E-18-2.08516E-18
 -1       153 4.72747E-05-1.46589E-04 2.92455E-05-7.22012E-06-1.22523E-18-1.15993E-18
 -1       154 3.07852E-05-1.11159E-04 2.24524E-05-3.51471E-05-7.66141E-18-1.37156E-18
 -1       155 8.30296E-06-4.75270E-05 7.75145E-06-2.92702E-05-8.99210E-18-2.91337E-18
 -1       156 1.29996E-05 7.63448E-06-1.36069E-05 1.81758E-05-7.29592E-18-5.45235E-18
 -1       157 7.18448E-05 2.21470E-05-3.99004E-05 8.39526E-05-5.56585E-18-7.39756E-18
 -1       158 1.78768E-04-1.31313E-05-6.56899E-05 1.22340E-04-3.31635E-18-5.30497E-18
 -1       159 2.97322E-04-7.26041E-05-8.70291E-05 1.02400E-04-1.18733E-18-6.17741E-18
 -1       160 4.07877E-04-1.15064E-04-1.11292E-04-8.59531E-05 1.23778E-18-4.18392E-18
 -1       161 3.58956E-04-6.53251E-05-1.10413E-04-1.80254E-04 1.34894E-18-5.63785E-18
 -1       162 2.57494E-04 1.91367E-05-1.00227E-04-2.34283E-04-5.70265E-19 2.14172E-18
 -1       163 1.33241E-04 9.63708E-05-8.11021E-05-2.19370E-04-9.57698E-18 6.92619E-18
 -1       164 3.84196E-05 1.06340E-04-5.36057E-05-1.33689E-04-2.01314E-17 1.46435E-17
 -1       165 1.92973E-05-1.28921E-06-2.21432E-05-1.99640E-05-3.17875E-17 1.28855E-17
 -1       166 6.51371E-05-1.69638E-04 1.60233E-06 3.39705E-05-2.30935E-17 8.44037E-18
 -1       167 9.48762E-05-1.23493E-05-3.55715E-05-2.23442E-05-1.31227E-18 1.07526E-18
 -1       168 8.92543E-05-8.45728E-06-3.47890E-05-1.73859E-05-1.32273E-18-6.00785E-19
 -1       169 8.65514E-05-6.50574E-06-3.44170E-05-1.35780E-05-1.14926E-18-1.55728E-18
 -1       170 8.51888E-05-5.51274E-06-3.42309E-05-1.03665E-05-9.48283E-19-2.06299E-18
 -1       171 8.44442E-05-4.94342E-06-3.41407E-05-7.54257E-06-6.85168E-19-2.33470E-18
 -1       172 8.40145E-05-4.59715E-06-3.40976E-05-4.90009E-06-5.37780E-19-2.42484E-18
 -1       173 8.37947E-05-4.41223E-06-3.40791E-05-2.39333E-06-2.64849E-19-2.39747E-18
 -1       174 8.37298E-05-4.35631E-06-3.40743E-05 5.12151E-08-8.05629E-21-2.46962E-18
 -1       175 8.38046E-05-4.42064E-06-3.40799E-05 2.49785E-06 1.67737E-19-2.39121E-18
 -1       176 8.40362E-05-4.61622E-06-3.40991E-05 5.01125E-06 4.01738E-19-2.40271E-18
 -1       177 8.44713E-05-4.96994E-06-3.41416E-05 7.61929E-06 6.46400E-19-2.29645E-18
 -1       178 8.52501E-05-5.57324E-06-3.42321E-05 1.05076E-05 8.88488E-19-2.07125E-18
 -1       179 8.66494E-05-6.60852E-06-3.44194E-05 1.37780E-05 1.17190E-18-1.59917E-18
 -1       180 8.93976E-05-8.60139E-06-3.47939E-05 1.76178E-05 1.34895E-18-6.25666E-19
 -1       181 9.57880E-05-1.36163E-05-3.54279E-05 2.18896E-05 1.44427E-18 1.04140E-18
 -1       182 1.05614E-04-2.61053E-05-3.52656E-05 1.86600E-05 1.09768E-18 3.31100E-18
 -1       183 1.03409E-04-2.73052E-05-3.26137E-05-1.21236E-05-1.05609E-18 2.85069E-18
 -1       184 9.71218E-05-2.82938E-05-2.95331E-05-4.72733E-06-9.10693E-19 2.25400E-18
 -1       185 9.35240E-05-2.76416E-05-2.81875E-05-1.76456E-06-7.12067E-19 1.73906E-18
 -1       186 9.19923E-05-2.74117E-05-2.76420E-05-4.16440E-07-5.00406E-19 1.14159E-18
 -1       187 9.14199E-05-2.73376E-05-2.74456E-05 2.48133E-07-2.88042E-19 1.01759E-18
 -1       188 9.13819E-05-2.73776E-05-2.74218E-05 5.74477E-07-3.43113E-19 8.70392E-19
 -1       189 9.16295E-05-2.74816E-05-2.74880E-05 7.13573E-07-1.36055E-19 8.55575E-19
 -1       190 9.20172E-05-2.76151E-05-2.75992E-05 7.44434E-07-1.59865E-19 8.60540E-19
 -1       191 9.24577E-05-2.77567E-05-2.77285E-05 7.12844E-07-3.12877E-19 7.52699E-19
 -1       192 9.28989E-05-2.78935E-05-2.78596E-05 6.47132E-07-5.40345E-19 6.17979E-19
 -1       193 9.33106E-05-2.80182E-05-2.79829E-05 5.65357E-07-7.60613E-19-3.26447E-19
 -1       194 9.36773E-05-2.81275E-05-2.80935E-05 4.79039E-07-7.85980E-20-4.79581E-19
 -1       195 9.39926E-05-2.82201E-05-2.81890E-05 3.95361E-07 2.23929E-19-5.32145E-19
 -1       196 9.42561E-05-2.82965E-05-2.82691E-05 3.18574E-07-2.69100E-19-6.05310E-19
 -1       197 9.44710E-05-2.83581E-05-2.83347E-05 2.50989E-07-2.66269E-19 1.04272E-19
 -1       198 9.46426E-05-2.84067E-05-2.83874E-05 1.93684E-07 3.37118E-19-1.12257E-19
 -1       199 9.47778E-05-2.84444E-05-2.84291E-05 1.47035E-07 9.13399E-21 2.56293E-20
 -1       200 9.48837E-05-2.84733E-05-2.84619E-05 1.11113E-07-4.87873E-19-7.35130E-19
 -1       201 9.49683E-05-2.84958E-05-2.84884E-05 8.59917E-08-5.41065E-19-1.26406E-18
 -1       202 9.50396E-05-2.85143E-05-2.85109E-05 7.19861E-08 1.32883E-19-1.38561E-18
 -1       203 9.51065E-05-2.85312E-05-2.85322E-05 6.98418E-08 7.17135E-19-1.20693E-18
 -1       204 9.51788E-05-2.85493E-05-2.85552E-05 8.08927E-08 2.48527E-19-1.04044E-18
 -1       205 9.52676E-05-2.85717E-05-2.85834E-05 1.07187E-07 5.26077E-19 3.84780E-19
 -1       206 9.53859E-05-2.86021E-05-2.86208E-05 1.51587E-07 3.24862E-19 1.15954E-18
 -1       207 9.55491E-05-2.86449E-05-2.86721E-05 2.17824E-07-6.69350E-19 1.25987E-18
 -1       208 9.57754E-05-2.87052E-05-2.87429E-05 3.10489E-07-1.18731E-18 8.89805E-19
 -1       209 9.60866E-05-2.87894E-05-2.88398E-05 4.34921E-07-4.06253E-19-1.63416E-19
 -1       210 9.65081E-05-2.89051E-05-2.89704E-05 5.96893E-07 1.02129E-18-2.44271E-19
 -1       211 9.70685E-05-2.90608E-05-2.91434E-05 8.02002E-07 4.76129E-19-1.68131E-19
 -1       212 9.77994E-05-2.92666E-05-2.93681E-05 1.05453E-06-9.67736E-19-5.13730E-19
 -1       213 9.87326E-05-2.95331E-05-2.96536E-05 1.35550E-06-4.97723E-19-5.11232E-19
 -1       214 9.98969E-05-2.98711E-05-3.00078E-05 1.69940E-06-1.35859E-19-2.09825E-19
 -1       215 1.01311E-04-3.02902E-05-3.04348E-05 2.06893E-06 3.40654E-19-5.60577E-19
 -1       216 1.02973E-04-3.07965E-05-3.09316E-05 2.42707E-06 1.06352E-18-4.12204E-19
 -1       217 1.04845E-04-3.13890E-05-3.14825E-05 2.70568E-06-7.91211E-19-5.68218E-19
 -1       218 1.06828E-04-3.20533E-05-3.20516E-05 2.79124E-06-7.65413E-19-8.78533E-19
 -1       219 1.08734E-04-3.27522E-05-3.25743E-05 2.51162E-06 7.55168E-19-1.10409E-18
 -1       220 1.10253E-04-3.34101E-05-3.29495E-05 1.63498E-06 9.74708E-19 1.22435E-18
 -1       221 1.10932E-04-3.38917E-05-3.30388E-05-9.54365E-08-8.68242E-20 1.24691E-18
 -1       222 1.10187E-04-3.39777E-05-3.26831E-05-2.85329E-06-9.36944E-19 1.21828E-18
 -1       223 1.07402E-04-3.33559E-05-3.17492E-05-6.51193E-06-9.18869E-19 7.50699E-19
 -1       224 1.02168E-04-3.16829E-05-3.02097E-05-1.03469E-05-7.48483E-19 1.88157E-19
 -1       225 9.46987E-05-2.87868E-05-2.82351E-05-1.28556E-05-1.52514E-19-2.52588E-20
 -1       226 8.62665E-05-2.50134E-05-2.62323E-05-1.20749E-05 6.43867E-19 1.06647E-18
 -1       227 7.92965E-05-2.15161E-05-2.47566E-05-6.70547E-06 9.28130E-19 1.08544E-18
 -1       228 7.65798E-05-2.00273E-05-2.42439E-05 2.28150E-06 9.79779E-20-1.28797E-18
 -1       229 7.95669E-05-2.18848E-05-2.47311E-05 1.09085E-05-6.65358E-19-2.38907E-18
 -1       230 8.74021E-05-2.73191E-05-2.57135E-05 1.34486E-05-1.35086E-18-1.76391E-18
 -1       231 9.95135E-05-2.85584E-05-3.05909E-05 7.20805E-06 1.07936E-18 2.84456E-18
 -1       232 9.44323E-05-2.77955E-05-2.85293E-05 2.74043E-06 7.56566E-19 2.08819E-18
 -1       233 9.21159E-05-2.74067E-05-2.76875E-05 9.26058E-07 4.87898E-19 1.45363E-18
 -1       234 9.11713E-05-2.72453E-05-2.73699E-05 6.33688E-08 7.52805E-19 1.00567E-18
 -1       235 9.09641E-05-2.72396E-05-2.72970E-05-3.65102E-07 2.52377E-19 7.88938E-19
 -1       236 9.11525E-05-2.73269E-05-2.73471E-05-5.66349E-07 9.88704E-20 6.10890E-19
 -1       237 9.15410E-05-2.74615E-05-2.74591E-05-6.39689E-07 1.44892E-19 3.80325E-19
 -1       238 9.20146E-05-2.76139E-05-2.75984E-05-6.38944E-07 5.63660E-19 1.76368E-19
 -1       239 9.25047E-05-2.77665E-05-2.77440E-05-5.96193E-07 4.87910E-19-5.27000E-19
 -1       240 9.29715E-05-2.79089E-05-2.78836E-05-5.31578E-07 2.71604E-19-1.82107E-19
 -1       241 9.33932E-05-2.80358E-05-2.80103E-05-4.57969E-07 5.00761E-19-2.79577E-19
 -1       242 9.37599E-05-2.81450E-05-2.81208E-05-3.83511E-07 6.95265E-20-1.00147E-18
 -1       243 9.40691E-05-2.82362E-05-2.82144E-05-3.13177E-07 8.92893E-20-1.26215E-18
 -1       244 9.43232E-05-2.83105E-05-2.82915E-05-2.49814E-07 8.95275E-20-1.17442E-18
 -1       245 9.45273E-05-2.83696E-05-2.83536E-05-1.94875E-07-2.74110E-19-8.50128E-19
 -1       246 9.46881E-05-2.84158E-05-2.84027E-05-1.48955E-07 3.03042E-19-1.26147E-18
 -1       247 9.48132E-05-2.84513E-05-2.84410E-05-1.12195E-07 8.67353E-19-1.04888E-18
 -1       248 9.49106E-05-2.84785E-05-2.84711E-05-8.45866E-08-4.84897E-20-1.63935E-18
 -1       249 9.49886E-05-2.84999E-05-2.84952E-05-6.62121E-08-4.38534E-19-1.21280E-18
 -1       250 9.50561E-05-2.85180E-05-2.85163E-05-5.74298E-08-8.13617E-19-1.15823E-18
 -1       251 9.51225E-05-2.85355E-05-2.85371E-05-5.90309E-08 2.13882E-19-6.90491E-19
 -1       252 9.51984E-05-2.85556E-05-2.85609E-05-7.23712E-08 1.07099E-18-6.47241E-19
 -1       253 9.52964E-05-2.85818E-05-2.85916E-05-9.94883E-08 3.79534E-19-1.81486E-18
 -1       254 9.54310E-05-2.86182E-05-2.86334E-05-1.43202E-07-8.13684E-19-1.36139E-18
 -1       255 9.56197E-05-2.86700E-05-2.86920E-05-2.07192E-07-3.68598E-19-1.15231E-19
 -1       256 9.58840E-05-2.87432E-05-2.87736E-05-2.96038E-07-7.45665E-19 4.94306E-19
 -1       257 9.62495E-05-2.88455E-05-2.88862E-05-4.15183E-07 1.53065E-19 4.04168E-19
 -1       258 9.67465E-05-2.89857E-05-2.90390E-05-5.70759E-07 2.06589E-19 9.42308E-20
 -1       259 9.74106E-05-2.91743E-05-2.92425E-05-7.69160E-07 7.59671E-19 5.90195E-19
 -1       260 9.82814E-05-2.94236E-05-2.95088E-05-1.01616E-06 6.00930E-19-8.17095E-19
 -1       261 9.94010E-05-2.97467E-05-2.98503E-05-1.31527E-06-7.87880E-19-6.92076E-19
 -1       262 1.00810E-04-3.01573E-05-3.02786E-05-1.66466E-06-3.69544E-19-1.35461E-18
 -1       263 1.02539E-04-3.06676E-05-3.08019E-05-2.05197E-06 1.03207E-18-1.17533E-18
 -1       264 1.04597E-04-3.12856E-05-3.14205E-05-2.44554E-06 1.73540E-19-1.69679E-18
 -1       265 1.06946E-04-3.20097E-05-3.21192E-05-2.78083E-06 7.30695E-19-1.74996E-18
 -1       266 1.09470E-04-3.28202E-05-3.28562E-05-2.94139E-06-9.46383E-19-2.42164E-18
 -1       267 1.11925E-04-3.36658E-05-3.35487E-05-2.73720E-06-7.45023E-19-1.53734E-18
 -1       268 1.13890E-04-3.44431E-05-3.40573E-05-1.89271E-06 3.83501E-19-1.28961E-18
 -1       269 1.14714E-04-3.49678E-05-3.41803E-05-7.61662E-08 1.17195E-19 3.42949E-20
 -1       270 1.13542E-04-3.49445E-05-3.36756E-05 2.97153E-06-5.55409E-19 2.16367E-19
 -1       271 1.09474E-04-3.39658E-05-3.23357E-05 7.14359E-06-5.19172E-19 2.72970E-19
 -1       272 1.01990E-04-3.16188E-05-3.01258E-05 1.15429E-05-6.88079E-19 1.46629E-18
 -1       273 9.16337E-05-2.77934E-05-2.73456E-05 1.42215E-05 1.06791E-19 1.78758E-18
 -1       274 8.06601E-05-2.31639E-05-2.46801E-05 1.26975E-05 7.25782E-19 8.40945E-20
 -1       275 7.28550E-05-1.94204E-05-2.30037E-05 5.62705E-06-7.13678E-19 7.92421E-19
 -1       276 7.18609E-05-1.86737E-05-2.29100E-05-5.12293E-06-5.16796E-19 5.52411E-19
 -1       277 7.84533E-05-2.21319E-05-2.41375E-05-1.37282E-05-6.53188E-19 5.99964E-19
 -1       278 8.93496E-05-2.91244E-05-2.55922E-05-1.30867E-05 1.04759E-18 1.31498E-18
 -1       279 9.46492E-05-3.76629E-05-2.43066E-05-2.02315E-05 1.97814E-18 4.23000E-19
 -1       280 9.87042E-05-4.71005E-05-2.20070E-05-2.77950E-05 3.08622E-18 1.59665E-18
 -1       281 1.03855E-04-5.51791E-05-2.09517E-05-2.82422E-05 3.79124E-18-3.96279E-18
 -1       282 1.12987E-04-5.82232E-05-2.39625E-05-1.37950E-05 1.06385E-18-6.68965E-18
 -1       283 1.28430E-04-5.79628E-05-3.11032E-05 2.52018E-05-1.04352E-18-1.77295E-18
 -1       284 1.01290E-04-1.40934E-05-3.77857E-05 1.40728E-04-3.62636E-19-7.78561E-18
 -1       285 2.35308E-05 6.55330E-05-3.80591E-05-2.52113E-05-2.06316E-18 1.51204E-17
 -1       286 6.59232E-05 2.89603E-05-3.99003E-05-1.23030E-04 6.28644E-19 9.61255E-18
 -1       287 1.07502E-04-2.06170E-05-3.75850E-05-1.17826E-04 1.47320E-18-4.82841E-18
 -1       288 1.25678E-04-6.87686E-05-2.69825E-05-5.48594E-05 3.07812E-18-7.02931E-18
 -1       289 1.17884E-04-8.72881E-05-1.54091E-05 4.25517E-06 9.50649E-19-7.90176E-19
 -1       290 1.11903E-04-8.22438E-05-1.31110E-05 2.10818E-05-1.41264E-18-1.17552E-18
 -1       291 1.05403E-04-6.59921E-05-1.66626E-05 2.10766E-05-6.33051E-19 1.26749E-18
 -1       292 1.00202E-04-4.93403E-05-2.15174E-05 1.56667E-05 1.47167E-18-1.41193E-19
 -1       293 9.40855E-05-3.50078E-05-2.52080E-05 1.77667E-05 1.56066E-19 1.12760E-18
 -1       294 3.13977E-05-1.45733E-05-1.93006E-05 5.44894E-05 3.03937E-18 1.19986E-17
 -1       295 7.29075E-05-3.47968E-05-2.47444E-05 1.14260E-04 9.93570E-18-3.39872E-19
 -1       296 1.21051E-04-2.67644E-05-4.08158E-05 1.29490E-04 7.20147E-18-1.87872E-18
 -1       297 1.51300E-04 1.71554E-06-6.12826E-05 1.23191E-04 4.05729E-18 2.19339E-18
 -1       298 1.89179E-04 7.37619E-06-7.91045E-05 1.10313E-04 2.56879E-18 1.98883E-18
 -1       299 2.33157E-04-4.72455E-06-9.29980E-05 9.93241E-05 3.42159E-18-1.22185E-19
 -1       300 2.69372E-04-2.93371E-05-9.83216E-05 6.96452E-05 4.04670E-18-4.52760E-18
 -1       301 2.71824E-04-4.40433E-05-9.38135E-05 2.56443E-05 1.02025E-18-6.44613E-18
 -1       302 2.39537E-04-4.54887E-05-8.07339E-05-7.87271E-06 1.44853E-18-7.54516E-18
 -1       303 1.93355E-04-4.85936E-05-6.10954E-05-2.03347E-05 4.01991E-18-6.38959E-18
 -1       304 1.37631E-04-4.32444E-05-4.04118E-05-4.35807E-05 5.77401E-18-6.05904E-18
 -1       305 9.15931E-05-5.16651E-05-1.83181E-05-3.81515E-05 7.25568E-18-3.99249E-18
 -1       306 4.80413E-05-5.63282E-05 9.54066E-07-2.56529E-05 7.05917E-18-5.48486E-18
 -1       307 2.53616E-05-6.35144E-05 1.34159E-05-1.68636E-05 4.17587E-18-5.15864E-18
 -1       308 1.55176E-05-7.30327E-05 2.07776E-05-2.55218E-06 3.09225E-18-5.09501E-18
 -1       309 1.65913E-05-6.63271E-05 1.81283E-05 9.54066E-06 2.43522E-21-4.66927E-18
 -1       310 3.23228E-05-6.22874E-05 9.64575E-06 1.83181E-05-3.72186E-18-2.38890E-18
 -1       311 6.31520E-05-5.27058E-05-6.38077E-06 3.29351E-05-5.51546E-18-3.11348E-18
 -1       312 1.16353E-04-5.46747E-05-2.69709E-05 3.86672E-05-4.28853E-18-3.24054E-18
 -1       313 1.60475E-04-4.39010E-05-4.93382E-05 3.98972E-05-4.06459E-18-3.89995E-18
 -1       314 2.12376E-04-4.48441E-05-6.98432E-05 2.99337E-05-2.46222E-18-4.79378E-18
 -1       315 2.44857E-04-4.16666E-05-8.46269E-05-5.23644E-06 1.26843E-19-3.45653E-18
 -1       316 2.70666E-04-3.89849E-05-9.56653E-05-4.05377E-05 4.14623E-19-6.18239E-18
 -1       317 2.33550E-04-8.51444E-06-9.34734E-05-6.88544E-05 3.15732E-19-4.49716E-18
 -1       318 2.24609E-04-8.02788E-07-9.14406E-05-9.71698E-05-2.69526E-18-3.79915E-18
 -1       319 1.84971E-04 1.19863E-05-7.84068E-05-1.22208E-04-4.13924E-18-2.43437E-18
 -1       320 1.47287E-04 1.31119E-06-5.93968E-05-1.24075E-04-9.55919E-18-8.54233E-19
 -1       321 1.19718E-04-3.24811E-05-3.84979E-05-1.31765E-04-1.04117E-17 6.94461E-19
 -1       322 6.85343E-05-3.66267E-05-2.32838E-05-1.16177E-04-7.74103E-18 8.77208E-18
 -1       323 2.91417E-05-3.68008E-05-1.39330E-05-4.36857E-05-1.41243E-18 1.60398E-17
 -1       324 1.30425E-04-4.99231E-05-3.52861E-05 9.26438E-05-4.86144E-18-3.87274E-18
 -1       325 4.34021E-05 5.08527E-05-3.95389E-05 9.26205E-05-5.10891E-18 8.23528E-18
 -1       326 9.16524E-05-1.43960E-05-3.31730E-05-1.30565E-05-1.43590E-18-7.64626E-19
 -1       327 9.57161E-05-1.91129E-05-3.28929E-05-1.46243E-05-1.47873E-18 2.70984E-19
 -1       328 8.80013E-05-1.03723E-05-3.33231E-05-8.14803E-06-1.00113E-18-1.63071E-18
 -1       329 8.71840E-05-9.45062E-06-3.33624E-05-5.71328E-06-8.09151E-19-1.87396E-18
 -1       330 8.67222E-05-8.91987E-06-3.33887E-05-3.36415E-06-4.83121E-19-1.79110E-18
 -1       331 8.65161E-05-8.67966E-06-3.34019E-05-1.07160E-06-1.53145E-19-1.87049E-18
 -1       332 8.65247E-05-8.68919E-06-3.34016E-05 1.20253E-06 1.36610E-19-1.91218E-18
 -1       333 8.67496E-05-8.95055E-06-3.33876E-05 3.49728E-06 3.29755E-19-1.83063E-18
 -1       334 8.72236E-05-9.49542E-06-3.33607E-05 5.81073E-06 6.23707E-19-1.86394E-18
 -1       335 8.80652E-05-1.04479E-05-3.33199E-05 8.24892E-06 9.73106E-19-1.57236E-18
 -1       336 8.94832E-05-1.20322E-05-3.32599E-05 1.07571E-05 1.19600E-18-1.35272E-18
 -1       337 9.19067E-05-1.47229E-05-3.31599E-05 1.31623E-05 1.42615E-18-6.74205E-19
 -1       338 9.58133E-05-1.94599E-05-3.28307E-05 1.43698E-05 1.56581E-18 4.06040E-19
 -1       339 9.88023E-05-2.44478E-05-3.19544E-05 1.18931E-05 1.38434E-18 1.30314E-18
 -1       340 9.64032E-05-2.68161E-05-2.97935E-05 5.73589E-06 1.07269E-18 9.35965E-19
 -1       341 1.58032E-04-3.09485E-06-6.59770E-05-4.32268E-05-4.90019E-18-1.06578E-18
 -1       342 9.64453E-05-2.60281E-05-3.01351E-05-6.34138E-06-1.08050E-18 3.64083E-19
 -1       343 9.49335E-05-2.70335E-05-2.90748E-05-2.82758E-06-8.00569E-19 1.73196E-19
 -1       344 9.39570E-05-2.74294E-05-2.84973E-05-9.14263E-07-4.39637E-19 1.01744E-19
 -1       345 9.34400E-05-2.76428E-05-2.81921E-05 1.46439E-07-3.63768E-19-2.48402E-20
 -1       346 9.32500E-05-2.77967E-05-2.80486E-05 7.11498E-07-2.50430E-19 1.51838E-19
 -1       347 9.32688E-05-2.79271E-05-2.80026E-05 9.79225E-07-1.23602E-19 1.79261E-20
 -1       348 9.34094E-05-2.80428E-05-2.80142E-05 1.06643E-06-2.00482E-19 2.96888E-19
 -1       349 9.36120E-05-2.81447E-05-2.80578E-05 1.04562E-06-5.44730E-19-1.50890E-19
 -1       350 9.38374E-05-2.82328E-05-2.81169E-05 9.63434E-07-1.14720E-18-5.53210E-19
 -1       351 9.40609E-05-2.83070E-05-2.81810E-05 8.50281E-07-4.91242E-19-3.22669E-19
 -1       352 9.42683E-05-2.83679E-05-2.82438E-05 7.25913E-07 6.22069E-20-7.41247E-19
 -1       353 9.44521E-05-2.84167E-05-2.83016E-05 6.02881E-07 9.07105E-20-6.09431E-19
 -1       354 9.46097E-05-2.84547E-05-2.83528E-05 4.88860E-07 1.60934E-20-4.22663E-19
 -1       355 9.47414E-05-2.84836E-05-2.83968E-05 3.88289E-07-1.12420E-19-6.11179E-19
 -1       356 9.48497E-05-2.85048E-05-2.84340E-05 3.03569E-07 9.90536E-20-2.52873E-19
 -1       357 9.49383E-05-2.85199E-05-2.84654E-05 2.35957E-07-5.39124E-19-9.65949E-19
 -1       358 9.50116E-05-2.85303E-05-2.84922E-05 1.86239E-07-7.17387E-19-4.72594E-19
 -1       359 9.50748E-05-2.85371E-05-2.85163E-05 1.55242E-07-6.62951E-19-8.11979E-19
 -1       360 9.51337E-05-2.85419E-05-2.85394E-05 1.44240E-07 9.00441E-20-7.48198E-19
 -1       361 9.51948E-05-2.85457E-05-2.85637E-05 1.55270E-07 9.59615E-19-1.07964E-18
 -1       362 9.52654E-05-2.85502E-05-2.85919E-05 1.91372E-07 9.44700E-19-3.33605E-19
 -1       363 9.53541E-05-2.85571E-05-2.86268E-05 2.56781E-07 5.03502E-19-3.93196E-19
 -1       364 9.54708E-05-2.85683E-05-2.86718E-05 3.57028E-07 7.46289E-20-7.04284E-19
 -1       365 9.56271E-05-2.85865E-05-2.87307E-05 4.98943E-07-4.82400E-19-5.43161E-19
 -1       366 9.58365E-05-2.86149E-05-2.88079E-05 6.90492E-07-9.73738E-19 2.89751E-19
 -1       367 9.61147E-05-2.86580E-05-2.89083E-05 9.40352E-07-2.06812E-20 1.08949E-18
 -1       368 9.64794E-05-2.87211E-05-2.90372E-05 1.25706E-06 1.99193E-19-6.25077E-19
 -1       369 9.69498E-05-2.88116E-05-2.91995E-05 1.64754E-06-1.90530E-19-7.06439E-19
 -1       370 9.75462E-05-2.89390E-05-2.94001E-05 2.11455E-06 3.53620E-20 2.95000E-20
 -1       371 9.82886E-05-2.91164E-05-2.96420E-05 2.65262E-06-9.68815E-20 1.35952E-18
 -1       372 9.91946E-05-2.93612E-05-2.99254E-05 3.24176E-06 8.32764E-22 1.91251E-18
 -1       373 1.00277E-04-2.96978E-05-3.02455E-05 3.83797E-06-2.29907E-19-3.32611E-20
 -1       374 1.01540E-04-3.01592E-05-3.05903E-05 4.35983E-06-4.97287E-20-1.54746E-18
 -1       375 1.02973E-04-3.07892E-05-3.09371E-05 4.67116E-06-4.12114E-19-1.06784E-19
 -1       376 1.04545E-04-3.16388E-05-3.12511E-05 4.56220E-06 2.60975E-19 1.57965E-18
 -1       377 1.06190E-04-3.27512E-05-3.14850E-05 3.73768E-06 1.68538E-18 6.08089E-19
 -1       378 1.07774E-04-3.41189E-05-3.15853E-05 1.83268E-06 1.34973E-18 3.70207E-19
 -1       379 1.09050E-04-3.55961E-05-3.15063E-05-1.50587E-06 3.31460E-19 2.74829E-18
 -1       380 1.09574E-04-3.67591E-05-3.12354E-05-6.41693E-06-1.01620E-18 1.54539E-18
 -1       381 1.08641E-04-3.67812E-05-3.08200E-05-1.24501E-05-1.39458E-18 3.34460E-18
 -1       382 1.05408E-04-3.45527E-05-3.03725E-05-1.81012E-05 3.91046E-19 3.65978E-18
 -1       383 9.94236E-05-2.93411E-05-3.00222E-05-2.06740E-05 1.18808E-18 4.12904E-18
 -1       384 9.15002E-05-2.19455E-05-2.97869E-05-1.71410E-05-3.06748E-19 3.58393E-18
 -1       385 8.43779E-05-1.56015E-05-2.94706E-05-6.37866E-06-2.29152E-18 2.15512E-18
 -1       386 8.16949E-05-1.48152E-05-2.86405E-05 8.17830E-06-1.88412E-18 8.31110E-20
 -1       387 8.54732E-05-2.22576E-05-2.71062E-05 1.91264E-05-4.62164E-19-1.08932E-18
 -1       388 9.43856E-05-2.73454E-05-2.86933E-05 2.46288E-06 7.98282E-19 6.38069E-19
 -1       389 9.31817E-05-2.74658E-05-2.81421E-05 7.36994E-07 8.11203E-19 3.07006E-19
 -1       390 9.26306E-05-2.75443E-05-2.78842E-05-1.84896E-07 4.68759E-19 2.13971E-19
 -1       391 9.24914E-05-2.76377E-05-2.77903E-05-6.61106E-07 2.85188E-19-5.50797E-20
 -1       392 9.25965E-05-2.77479E-05-2.77906E-05-8.79318E-07 2.41664E-19-2.80646E-19
 -1       393 9.28340E-05-2.78651E-05-2.78435E-05-9.44107E-07 7.87387E-19-2.09970E-19
 -1       394 9.31321E-05-2.79801E-05-2.79226E-05-9.18455E-07 7.55108E-19-1.32873E-19
 -1       395 9.34451E-05-2.80866E-05-2.80114E-05-8.42117E-07 1.24568E-19-1.50791E-19
 -1       396 9.37458E-05-2.81810E-05-2.81000E-05-7.40734E-07 8.12385E-19-2.17852E-19
 -1       397 9.40189E-05-2.82619E-05-2.81824E-05-6.30818E-07 4.65852E-19-5.43683E-19
 -1       398 9.42572E-05-2.83293E-05-2.82556E-05-5.22778E-07 3.91209E-19-9.74299E-19
 -1       399 9.44588E-05-2.83839E-05-2.83186E-05-4.22905E-07 3.96502E-20-4.87280E-19
 -1       400 9.46252E-05-2.84271E-05-2.83713E-05-3.34757E-07-1.88813E-19-7.32934E-19
 -1       401 9.47600E-05-2.84605E-05-2.84146E-05-2.60167E-07 2.58052E-19-7.14788E-19
 -1       402 9.48682E-05-2.84859E-05-2.84500E-05-1.99984E-07 5.02339E-19-3.63292E-19
 -1       403 9.49554E-05-2.85049E-05-2.84791E-05-1.54639E-07 6.95586E-19-1.03747E-19
 -1       404 9.50280E-05-2.85194E-05-2.85038E-05-1.24584E-07-4.27116E-19-7.57515E-19
 -1       405 9.50929E-05-2.85312E-05-2.85265E-05-1.10626E-07-7.02235E-19-7.74505E-19
 -1       406 9.51577E-05-2.85422E-05-2.85494E-05-1.14208E-07-3.28845E-19-7.73655E-19
 -1       407 9.52310E-05-2.85545E-05-2.85754E-05-1.37630E-07 8.80129E-19-3.94022E-19
 -1       408 9.53227E-05-2.85704E-05-2.86076E-05-1.84244E-07 7.93980E-19 1.58370E-19
 -1       409 9.54447E-05-2.85930E-05-2.86500E-05-2.58604E-07-5.30919E-19-8.01384E-19
 -1       410 9.56106E-05-2.86256E-05-2.87068E-05-3.66572E-07-8.24814E-19-2.88173E-19
 -1       411 9.58370E-05-2.86726E-05-2.87833E-05-5.15341E-07-7.87239E-19-7.54898E-19
 -1       412 9.61433E-05-2.87391E-05-2.88857E-05-7.13320E-07 5.55900E-19-6.17412E-19
 -1       413 9.65524E-05-2.88315E-05-2.90209E-05-9.69777E-07-3.23010E-19-8.58598E-20
 -1       414 9.70899E-05-2.89577E-05-2.91967E-05-1.29407E-06 1.61440E-19 1.08978E-18
 -1       415 9.77843E-05-2.91271E-05-2.94211E-05-1.69413E-06 1.82244E-18 1.96457E-18
 -1       416 9.86651E-05-2.93511E-05-2.97022E-05-2.17382E-06-8.09189E-20 1.36694E-19
 -1       417 9.97603E-05-2.96435E-05-3.00460E-05-2.72819E-06 2.02833E-19-1.34038E-18
 -1       418 1.01092E-04-3.00214E-05-3.04551E-05-3.33570E-06-1.13514E-20-1.40853E-18
 -1       419 1.02670E-04-3.05060E-05-3.09248E-05-3.94573E-06 5.60965E-19-7.05403E-19
 -1       420 1.04481E-04-3.11234E-05-3.14385E-05-4.45977E-06 7.27214E-19-3.94944E-19
 -1       421 1.06472E-04-3.19041E-05-3.19614E-05-4.70604E-06-6.14161E-20-8.31694E-19
 -1       422 1.08531E-04-3.28764E-05-3.24336E-05-4.41157E-06-1.59910E-18-1.57366E-18
 -1       423 1.10456E-04-3.40438E-05-3.27669E-05-3.18744E-06-1.43941E-19-1.67351E-18
 -1       424 1.11914E-04-3.53272E-05-3.28499E-05-5.66051E-07-7.53305E-19-1.70068E-18
 -1       425 1.12382E-04-3.64519E-05-3.25734E-05 3.83714E-06-7.79833E-19 5.73124E-20
 -1       426 1.11115E-04-3.67975E-05-3.18802E-05 9.94418E-06-1.56892E-18 2.52853E-18
 -1       427 1.07258E-04-3.53728E-05-3.08243E-05 1.66224E-05-4.89231E-19 2.57018E-18
 -1       428 1.00314E-04-3.12205E-05-2.96055E-05 2.12291E-05-3.89754E-19 1.32414E-18
 -1       429 9.10823E-05-2.45161E-05-2.85135E-05 2.01063E-05 1.13453E-18 4.02023E-18
 -1       430 8.23524E-05-1.76316E-05-2.77209E-05 1.08642E-05 1.45590E-19 3.35013E-18
 -1       431 7.81067E-05-1.47488E-05-2.71536E-05-4.44457E-06-1.26099E-18 1.82508E-18
 -1       432 8.12905E-05-1.94977E-05-2.64759E-05-1.79702E-05 2.23292E-19 2.79762E-18
 -1       433 8.75284E-05-2.72207E-05-2.58169E-05-2.21955E-05 8.59891E-19 1.16215E-18
 -1       434 1.03753E-04-9.62272E-06-4.09035E-05-1.65893E-05 2.15273E-18-6.05554E-18
 -1       435 8.99669E-05-1.60041E-05-3.18524E-05-2.71296E-05 2.53136E-18 2.28222E-19
 -1       436 8.89069E-05-2.42632E-05-2.77545E-05-2.70428E-05 2.42105E-18 9.00899E-19
 -1       437 1.33748E-04-9.42338E-06-5.36068E-05 9.68024E-06 1.76638E-18-6.89178E-18
 -1       438 1.58142E-04-2.80861E-05-5.45802E-05 7.55843E-05 8.87452E-19-6.32522E-19
 -1       439 1.11633E-04-2.91180E-05-3.54731E-05 1.24282E-05-1.28123E-18-2.10551E-18
 -1       440 9.54598E-05-3.03686E-05-2.80410E-05 2.76842E-05-4.30723E-19 1.81679E-18
 -1       441 9.25224E-05-3.18211E-05-2.60398E-05 2.73182E-05 7.07405E-20 1.86794E-18
 -1       442 1.67642E-04 7.06211E-06-7.41803E-05-4.12496E-05-4.66694E-18-1.54128E-18
 -1       443 1.40753E-04-4.19909E-05-4.22994E-05-1.05986E-04-2.20980E-18-5.63213E-18
 -1       444 8.93413E-05-1.18568E-05-3.32809E-05-1.06787E-05-1.24802E-18-1.35684E-18
 -1       445 1.63173E-04-1.72466E-06-6.87681E-05 4.27219E-05 2.96864E-18-1.77072E-18
 -1       446 1.75415E-04 1.02387E-05-7.93498E-05 4.11977E-05 4.48419E-18-3.75045E-18
 -1       447 1.78243E-04 6.87553E-06-7.94895E-05 3.78209E-05 3.29623E-18-2.66976E-18
 -1       448 1.86419E-04-1.27588E-05-7.46105E-05 3.43999E-05 1.57008E-18-2.28424E-18
 -1       449 1.83711E-04-3.68703E-05-6.32686E-05 2.42889E-05 2.06215E-18-3.32344E-18
 -1       450 1.68030E-04-6.54091E-05-4.42943E-05-2.82328E-06 3.25287E-18-3.43154E-18
 -1       451 1.43738E-04-7.41902E-05-2.98014E-05-2.42428E-05 4.64873E-18-2.91612E-18
 -1       452 9.52699E-05-6.77331E-05-1.18943E-05-4.21397E-05 3.91986E-18-2.83399E-18
 -1       453 5.68102E-05-5.48978E-05-7.70952E-07-4.14290E-05 1.87268E-18-5.30624E-18
 -1       454 1.95561E-05-4.16855E-05 9.27146E-06-2.00417E-05 2.53702E-18-4.10631E-18
 -1       455 1.23450E-05-3.87122E-05 1.10767E-05 4.29484E-06 1.90357E-18-5.85130E-18
 -1       456 3.21979E-05-4.66002E-05 5.98168E-06 3.22063E-05 7.22625E-19-4.36116E-18
 -1       457 6.67569E-05-5.90598E-05-3.47431E-06 4.31215E-05-2.96800E-18-3.55717E-18
 -1       458 1.11719E-04-7.05025E-05-1.76927E-05 3.90019E-05-4.38752E-18-2.79291E-18
 -1       459 1.55059E-04-6.68834E-05-3.78805E-05 1.65547E-05-3.29120E-18-3.60349E-18
 -1       460 1.78524E-04-5.34641E-05-5.37101E-05-8.19978E-06-3.10854E-18-9.76100E-19
 -1       461 1.86196E-04-3.23463E-05-6.61953E-05-2.43610E-05-2.25512E-18-1.41666E-18
 -1       462 1.81901E-04-3.26517E-06-7.67605E-05-3.73691E-05 1.56511E-18 1.37505E-18
 -1       463 1.67204E-04 1.30000E-05-7.76481E-05-3.77031E-05 9.64771E-19 2.21104E-18
 -1       464 1.57018E-04-2.69637E-05-5.44600E-05-7.55025E-05-4.60421E-18-4.30017E-18
 -1       465 1.31400E-04 1.91514E-05-6.55184E-05-1.97375E-05-2.15538E-18 1.17542E-18
 -1       466 1.42011E-04-7.74360E-05-2.76448E-05 2.17536E-05-3.05276E-18-9.19454E-19
 -1       467 1.68483E-04-5.44158E-05-4.92398E-05 2.57397E-05 1.59925E-18-2.37466E-18
 -1       468 9.58287E-05-2.51503E-05-3.02765E-05 6.01028E-06 1.05554E-18-1.07222E-19
 -1       469 8.95310E-05-1.33955E-05-3.26483E-05-3.92073E-06-5.90569E-19-1.56019E-18
 -1       470 9.02405E-05-1.43587E-05-3.25409E-05-5.87661E-06-8.39233E-19-1.60264E-18
 -1       471 8.90313E-05-1.27146E-05-3.27249E-05 5.45720E-08-4.64322E-20-1.64382E-18
 -1       472 8.91670E-05-1.28983E-05-3.27046E-05 2.04363E-06 2.45264E-19-1.72818E-18
 -1       473 8.95636E-05-1.34366E-05-3.26450E-05 3.99428E-06 4.76680E-19-1.63423E-18
 -1       474 9.02905E-05-1.44248E-05-3.25349E-05 5.94689E-06 7.67435E-19-1.48354E-18
 -1       475 9.14418E-05-1.60050E-05-3.23531E-05 7.77359E-06 9.78954E-19-1.35799E-18
 -1       476 9.32343E-05-1.84779E-05-3.20586E-05 9.28795E-06 1.25340E-18-9.86089E-19
 -1       477 9.54951E-05-2.44432E-05-3.04423E-05-5.82521E-06-1.07222E-18-4.28960E-19
 -1       478 9.51221E-05-2.65794E-05-2.93575E-05 2.86577E-06 1.00814E-18-3.71332E-19
 -1       479 9.45939E-05-2.06860E-05-3.16925E-05-9.58192E-06-1.35787E-18-5.37734E-19
 -1       480 9.52811E-05-2.62295E-05-2.95863E-05-2.88719E-06-6.88951E-19-3.43805E-19
 -1       481 9.49254E-05-2.71626E-05-2.90373E-05-1.02132E-06-4.52774E-19-4.27190E-19
 -1       482 9.46499E-05-2.76943E-05-2.86936E-05 1.02675E-07-4.05115E-19-5.02768E-19
 -1       483 9.44944E-05-2.80213E-05-2.84879E-05 7.38295E-07-2.30418E-19-6.68774E-19
 -1       484 9.44398E-05-2.82336E-05-2.83740E-05 1.05613E-06-1.66458E-19-8.54526E-19
 -1       485 9.44558E-05-2.83755E-05-2.83203E-05 1.17096E-06-2.93674E-19-1.16605E-18
 -1       486 9.45150E-05-2.84709E-05-2.83049E-05 1.16017E-06-8.73628E-19-5.83863E-19
 -1       487 9.45966E-05-2.85340E-05-2.83129E-05 1.07611E-06-1.04067E-18-5.67913E-19
 -1       488 9.46861E-05-2.85740E-05-2.83341E-05 9.54033E-07-3.51404E-19-7.14969E-19
 -1       489 9.47745E-05-2.85976E-05-2.83619E-05 8.17297E-07-3.63173E-20-8.21824E-19
 -1       490 9.48562E-05-2.86094E-05-2.83918E-05 6.81018E-07 1.90554E-19-1.23377E-18
 -1       491 9.49288E-05-2.86128E-05-2.84214E-05 5.54651E-07 1.05994E-19-7.89715E-19
 -1       492 9.49917E-05-2.86103E-05-2.84494E-05 4.43894E-07-1.54717E-19-4.53842E-19
 -1       493 9.50453E-05-2.86036E-05-2.84752E-05 3.52106E-07-6.03076E-19-7.08854E-19
 -1       494 9.50914E-05-2.85937E-05-2.84992E-05 2.81368E-07-5.24794E-19-9.55878E-19
 -1       495 9.51320E-05-2.85811E-05-2.85219E-05 2.33294E-07-7.37697E-19-1.03183E-18
 -1       496 9.51700E-05-2.85661E-05-2.85446E-05 2.09649E-07 2.50671E-19-8.75395E-20
 -1       497 9.52085E-05-2.85486E-05-2.85685E-05 2.12831E-07 3.07511E-19-3.15823E-19
 -1       498 9.52511E-05-2.85284E-05-2.85954E-05 2.46240E-07 1.22700E-18-4.37854E-19
 -1       499 9.53022E-05-2.85051E-05-2.86272E-05 3.14542E-07 1.08787E-18-7.93354E-19
 -1       500 9.53668E-05-2.84784E-05-2.86662E-05 4.23847E-07 5.01560E-19-3.28532E-19
 -1       501 9.54504E-05-2.84484E-05-2.87148E-05 5.81752E-07-2.41861E-19-1.02317E-18
 -1       502 9.55600E-05-2.84155E-05-2.87757E-05 7.97213E-07 1.63828E-20-1.14827E-18
 -1       503 9.57030E-05-2.83809E-05-2.88517E-05 1.08015E-06-1.37223E-19-2.87431E-19
 -1       504 9.58883E-05-2.83473E-05-2.89453E-05 1.44069E-06-6.22291E-19-4.27330E-19
 -1       505 9.61260E-05-2.83196E-05-2.90589E-05 1.88776E-06-1.28111E-19-6.85973E-19
 -1       506 9.64275E-05-2.83065E-05-2.91935E-05 2.42686E-06 2.24968E-19-5.38593E-19
 -1       507 9.68066E-05-2.83224E-05-2.93490E-05 3.05660E-06 7.06324E-19-1.93456E-19
 -1       508 9.72800E-05-2.83911E-05-2.95224E-05 3.76334E-06-2.98569E-19-4.15896E-19
 -1       509 9.78701E-05-2.85503E-05-2.97071E-05 4.51351E-06-1.33565E-18-1.03897E-18
 -1       510 9.86091E-05-2.88586E-05-2.98920E-05 5.24270E-06-2.29044E-19-5.83609E-19
 -1       511 9.95452E-05-2.94033E-05-3.00605E-05 5.84097E-06 4.38116E-19-1.96511E-20
 -1       512 1.00751E-04-3.03059E-05-3.01919E-05 6.13445E-06 1.31285E-18 1.99338E-18
 -1       513 1.02328E-04-3.17169E-05-3.02655E-05 5.86480E-06 7.78191E-19 1.66127E-18
 -1       514 1.04395E-04-3.37782E-05-3.02711E-05 4.67316E-06 5.96780E-19 1.42394E-18
 -1       515 1.07024E-04-3.65186E-05-3.02276E-05 2.11098E-06 1.46593E-18-3.26894E-19
 -1       516 1.10098E-04-3.96486E-05-3.02077E-05-2.28182E-06 2.88636E-19 9.79831E-19
 -1       517 1.13033E-04-4.22260E-05-3.03620E-05-8.74738E-06-2.50553E-20 3.13182E-18
 -1       518 1.14456E-04-4.23711E-05-3.09056E-05-1.67400E-05-7.00386E-19 3.95818E-18
 -1       519 1.12415E-04-3.77427E-05-3.20098E-05-2.40999E-05-1.16899E-19 3.25669E-18
 -1       520 1.05394E-04-2.71282E-05-3.35712E-05-2.67435E-05-6.10041E-19 2.52436E-18
 -1       521 9.47374E-05-1.37563E-05-3.46831E-05-2.01423E-05-1.25416E-18 1.90384E-18
 -1       522 8.49312E-05-4.52794E-06-3.45487E-05-3.95246E-06-2.53946E-18 2.36828E-18
 -1       523 8.38902E-05-9.45142E-06-3.19198E-05 1.51357E-05-2.78343E-18 1.79198E-18
 -1       524 9.45312E-05-2.72958E-05-2.88065E-05 9.73940E-07 8.20194E-19-5.04249E-19
 -1       525 9.41552E-05-2.76890E-05-2.84820E-05-1.30568E-07 5.45275E-19-4.78771E-19
 -1       526 9.39803E-05-2.79361E-05-2.83034E-05-7.41058E-07 4.53066E-19-6.59790E-19
 -1       527 9.39517E-05-2.81081E-05-2.82184E-05-1.03945E-06 4.05112E-19-7.68610E-19
 -1       528 9.40164E-05-2.82350E-05-2.81922E-05-1.14246E-06 4.64009E-19-3.86516E-19
 -1       529 9.41335E-05-2.83307E-05-2.82016E-05-1.12624E-06 3.67923E-19-1.44575E-19
 -1       530 9.42742E-05-2.84030E-05-2.82311E-05-1.04127E-06 7.26389E-19-4.91605E-19
 -1       531 9.44194E-05-2.84569E-05-2.82702E-05-9.21068E-07 6.30803E-19-2.26863E-19
 -1       532 9.45576E-05-2.84962E-05-2.83126E-05-7.87651E-07 4.70833E-19 2.94910E-20
 -1       533 9.46823E-05-2.85239E-05-2.83541E-05-6.55145E-07-2.54778E-19 6.73893E-20
 -1       534 9.47909E-05-2.85425E-05-2.83927E-05-5.32304E-07 2.29794E-19 8.61771E-20
 -1       535 9.48832E-05-2.85540E-05-2.84272E-05-4.24309E-07-2.17150E-20 3.37087E-19
 -1       536 9.49604E-05-2.85599E-05-2.84577E-05-3.34104E-07-2.97429E-20-8.24253E-22
 -1       537 9.50251E-05-2.85615E-05-2.84846E-05-2.63398E-07 4.38476E-19 7.50927E-19
 -1       538 9.50805E-05-2.85598E-05-2.85090E-05-2.13431E-07-2.35913E-19 1.36783E-18
 -1       539 9.51304E-05-2.85555E-05-2.85322E-05-1.85559E-07-4.28801E-19 6.97542E-19
 -1       540 9.51793E-05-2.85491E-05-2.85558E-05-1.81710E-07-2.04723E-19 4.68851E-20
 -1       541 9.52322E-05-2.85412E-05-2.85818E-05-2.04756E-07 1.16786E-19-7.51150E-19
 -1       542 9.52950E-05-2.85322E-05-2.86124E-05-2.58801E-07 5.38632E-19-3.52956E-21
 -1       543 9.53744E-05-2.85227E-05-2.86504E-05-3.49405E-07 2.34394E-19 4.22695E-19
 -1       544 9.54783E-05-2.85136E-05-2.86986E-05-4.83732E-07-2.14081E-19 5.19172E-20
 -1       545 9.56159E-05-2.85059E-05-2.87607E-05-6.70586E-07-1.85885E-19-5.24171E-19
 -1       546 9.57977E-05-2.85015E-05-2.88402E-05-9.20279E-07 2.75107E-19-1.40187E-18
 -1       547 9.60359E-05-2.85030E-05-2.89414E-05-1.24423E-06-3.81150E-19-1.02116E-18
 -1       548 9.63441E-05-2.85142E-05-2.90684E-05-1.65411E-06-9.00226E-19-6.00406E-19
 -1       549 9.67374E-05-2.85414E-05-2.92250E-05-2.16030E-06 5.55477E-19-6.33831E-19
 -1       550 9.72320E-05-2.85940E-05-2.94140E-05-2.76917E-06 1.38606E-18 6.49000E-19
 -1       551 9.78452E-05-2.86875E-05-2.96365E-05-3.47869E-06 1.95027E-19 3.63270E-19
 -1       552 9.85961E-05-2.88466E-05-2.98900E-05-4.27116E-06-5.51570E-19 8.87657E-19
 -1       553 9.95065E-05-2.91115E-05-3.01670E-05-5.10218E-06 4.90638E-19 1.65190E-18
 -1       554 1.00605E-04-2.95460E-05-3.04525E-05-5.88397E-06 6.23881E-19 2.12981E-18
 -1       555 1.01933E-04-3.02481E-05-3.07228E-05-6.46219E-06 4.13201E-19 1.61713E-18
 -1       556 1.03553E-04-3.13563E-05-3.09452E-05-6.58654E-06-5.43424E-20 1.87570E-18
 -1       557 1.05547E-04-3.30389E-05-3.10836E-05-5.88098E-06-7.66997E-19 4.30155E-19
 -1       558 1.07992E-04-3.54307E-05-3.11132E-05-3.83167E-06-2.11341E-20 9.89052E-19
 -1       559 1.10859E-04-3.84621E-05-3.10490E-05 1.61552E-07-3.08012E-18 1.42849E-18
 -1       560 1.13766E-04-4.15227E-05-3.09880E-05 6.57503E-06-1.44984E-18 1.90765E-18
 -1       561 1.15600E-04-4.30197E-05-3.11364E-05 1.52024E-05-5.51991E-19 9.70606E-19
 -1       562 1.14449E-04-4.04669E-05-3.17336E-05 2.41971E-05 1.32158E-19 4.22192E-19
 -1       563 1.08416E-04-3.17449E-05-3.28711E-05 2.92845E-05 7.23585E-20-5.20830E-19
 -1       564 9.77023E-05-1.80828E-05-3.41827E-05 2.51281E-05-5.13335E-19 3.81536E-19
 -1       565 8.70974E-05-6.99205E-06-3.43971E-05 9.19814E-06-9.30380E-20 2.15853E-18
 -1       566 8.22084E-05-6.47482E-06-3.25491E-05-1.24240E-05 5.54542E-21 2.30519E-18
 -1       567 9.35366E-05 8.73788E-06-4.44107E-05-8.06198E-06 1.09082E-18-3.90306E-18
 -1       568 8.66010E-05-5.91139E-06-3.46383E-05 1.96999E-05-1.45643E-18 1.67187E-18
 -1       569 1.02407E-04 2.53475E-06-4.59551E-05 1.12522E-05-6.41575E-19 1.99407E-18
 -1       570 1.46776E-04-7.14612E-06-6.06403E-05-4.00368E-05-2.03076E-18-1.17129E-18
 -1       571 1.63667E-04-6.62664E-05-4.19916E-05-1.04646E-05-2.55890E-18 9.31736E-21
 -1       572 8.91471E-05-1.28732E-05-3.27068E-05-1.93515E-06-3.19815E-19-1.54258E-18
 -1       573 1.30482E-04 1.92357E-05-6.49907E-05 1.88723E-05 2.49854E-18-6.41000E-18
 -1       574 1.36489E-04 9.79002E-06-6.35658E-05 3.41955E-05 1.18108E-18-3.72581E-18
 -1       575 1.53135E-04-1.62091E-05-5.95240E-05 4.01790E-05 1.51058E-18-2.55846E-18
 -1       576 1.57388E-04-7.56222E-05-3.51694E-05-4.36220E-07 3.62146E-18-2.43866E-18
 -1       577 1.29348E-04-7.62697E-05-2.25279E-05-2.79558E-05 3.87766E-18-4.34458E-19
 -1       578 8.72886E-05-6.06770E-05-1.09378E-05-4.26758E-05 2.07883E-18-3.89032E-18
 -1       579 4.65648E-05-3.79465E-05-2.98804E-06-3.45366E-05 3.24710E-18-3.79481E-18
 -1       580 2.85839E-05-2.93266E-05 1.00536E-06 2.18392E-05 2.62030E-18-6.58812E-18
 -1       581 6.43340E-05-4.59328E-05-7.16645E-06 4.14389E-05 1.01570E-18-4.74280E-18
 -1       582 9.83499E-05-6.35239E-05-1.44166E-05 4.06986E-05-1.19733E-18-2.67128E-18
 -1       583 1.60059E-04-3.94943E-05-5.22470E-05-3.39172E-05-3.19088E-18-2.47842E-18
 -1       584 1.25661E-04 1.66952E-05-6.18946E-05-2.97639E-05 9.25807E-19-7.05949E-20
 -1       585 2.21808E-05-2.69483E-05 2.70012E-06-9.27317E-06 2.95637E-18-7.23080E-18
 -1       586 9.61684E-05-2.31924E-05-3.12789E-05 9.57610E-06 1.33412E-18 1.44507E-19
 -1       587 1.27085E-04 8.89210E-06-5.88781E-05 7.21777E-06 1.14826E-18-7.29587E-18
 -1       588 9.13290E-05-1.58256E-05-3.23800E-05-7.76209E-06-1.05648E-18-1.29572E-18
 -1       589 1.49863E-04-3.48736E-05-4.95862E-05 4.02383E-05 9.56221E-19-2.32934E-20
 -1       590 1.09255E-04 1.78029E-05-5.52368E-05-1.09566E-05-1.34361E-18 7.40386E-19
 -1       591 1.22550E-04-7.21748E-05-2.14217E-05 2.89895E-05-1.17923E-18 5.23367E-19
 -1       592 9.15415E-05-1.68424E-05-3.20196E-05 2.43673E-06 2.55276E-19-1.36394E-18
 -1       593 9.12826E-05-1.64405E-05-3.20805E-05 8.39498E-07 1.41969E-20-1.53638E-18
 -1       594 9.28853E-05-1.89937E-05-3.16735E-05 5.25778E-06 7.91193E-19-1.20114E-18
 -1       595 9.39839E-05-2.09275E-05-3.13179E-05 6.13382E-06 1.06351E-18-1.00508E-18
 -1       596 9.50339E-05-2.36539E-05-3.05904E-05-4.73170E-06-9.11320E-19-7.34008E-19
 -1       597 9.52765E-05-2.40949E-05-3.04962E-05 5.13940E-06 1.11050E-18-7.70286E-19
 -1       598 1.11918E-04 5.27243E-06-5.08083E-05-3.15689E-05-2.32722E-18-2.33158E-18
 -1       599 9.54166E-05-2.57058E-05-2.98740E-05-2.42788E-06-6.34563E-19-8.20292E-19
 -1       600 9.54756E-05-2.69439E-05-2.93699E-05-8.56300E-07-6.53777E-19-8.14286E-19
 -1       601 9.54204E-05-2.77051E-05-2.90206E-05 1.45817E-07-3.84109E-19-9.42961E-19
 -1       602 9.53439E-05-2.81778E-05-2.87855E-05 7.33552E-07-3.57498E-19-1.19097E-18
 -1       603 9.52790E-05-2.84698E-05-2.86326E-05 1.03461E-06-3.72676E-19-1.49089E-18
 -1       604 9.52333E-05-2.86451E-05-2.85379E-05 1.14505E-06-3.92047E-19-1.46624E-18
 -1       605 9.52051E-05-2.87435E-05-2.84837E-05 1.13461E-06-6.27377E-19-1.16278E-18
 -1       606 9.51904E-05-2.87911E-05-2.84570E-05 1.05271E-06-6.33594E-19-4.70911E-19
 -1       607 9.51849E-05-2.88054E-05-2.84485E-05 9.33528E-07-3.71355E-19-4.08568E-19
 -1       608 9.51855E-05-2.87986E-05-2.84516E-05 8.00135E-07-1.78949E-19-4.68980E-19
 -1       609 9.51896E-05-2.87788E-05-2.84619E-05 6.67686E-07 4.23514E-19-6.23824E-19
 -1       610 9.51957E-05-2.87514E-05-2.84762E-05 5.45839E-07-8.90085E-21-6.48819E-19
 -1       611 9.52028E-05-2.87198E-05-2.84928E-05 4.40615E-07-7.56198E-19-5.51543E-19
 -1       612 9.52105E-05-2.86856E-05-2.85107E-05 3.55810E-07-1.00122E-18-7.54223E-19
 -1       613 9.52185E-05-2.86494E-05-2.85296E-05 2.94062E-07-5.52390E-19-3.88865E-19
 -1       614 9.52269E-05-2.86109E-05-2.85497E-05 2.57678E-07 1.61751E-19 1.11730E-20
 -1       615 9.52359E-05-2.85688E-05-2.85716E-05 2.49261E-07-2.46563E-19-6.20047E-19
 -1       616 9.52460E-05-2.85215E-05-2.85962E-05 2.72191E-07 8.39931E-19-9.45458E-19
 -1       617 9.52578E-05-2.84670E-05-2.86246E-05 3.30981E-07 7.37303E-19-1.84542E-18
 -1       618 9.52717E-05-2.84027E-05-2.86581E-05 4.31518E-07 8.90987E-19-1.85943E-18
 -1       619 9.52886E-05-2.83263E-05-2.86980E-05 5.81172E-07-4.96880E-19-1.72838E-18
 -1       620 9.53095E-05-2.82355E-05-2.87458E-05 7.88750E-07-2.65540E-19-1.22081E-18
 -1       621 9.53353E-05-2.81287E-05-2.88027E-05 1.06422E-06 6.16590E-19-1.17810E-18
 -1       622 9.53678E-05-2.80056E-05-2.88693E-05 1.41815E-06-2.03224E-19 2.58582E-20
 -1       623 9.54092E-05-2.78686E-05-2.89457E-05 1.86066E-06-6.72757E-19 3.32263E-19
 -1       624 9.54634E-05-2.77241E-05-2.90308E-05 2.39983E-06-2.50959E-19-1.36661E-20
 -1       625 9.55371E-05-2.75856E-05-2.91216E-05 3.03925E-06 9.46936E-19 4.00125E-19
 -1       626 9.56426E-05-2.74778E-05-2.92130E-05 3.77455E-06-8.80428E-20-7.94939E-19
 -1       627 9.58023E-05-2.74426E-05-2.92965E-05 4.58854E-06-2.46779E-19-8.49313E-20
 -1       628 9.60560E-05-2.75480E-05-2.93601E-05 5.44466E-06-1.12272E-18 1.01327E-18
 -1       629 9.64734E-05-2.78995E-05-2.93884E-05 6.27814E-06 1.76027E-19 1.25622E-18
 -1       630 9.71704E-05-2.86525E-05-2.93647E-05 6.98412E-06 1.48491E-18 1.02452E-18
 -1       631 9.83308E-05-3.00215E-05-2.92758E-05 7.40030E-06 6.10228E-19 6.56060E-19
 -1       632 1.00223E-04-3.22705E-05-2.91235E-05 7.27961E-06-1.73562E-19 7.06273E-19
 -1       633 1.03188E-04-3.56509E-05-2.89467E-05 6.24264E-06 1.36785E-19-5.35590E-19
 -1       634 1.07524E-04-4.02105E-05-2.88539E-05 3.73841E-06 1.63445E-18-2.72355E-20
 -1       635 1.13270E-04-4.54791E-05-2.90609E-05-9.77714E-07 9.57738E-19 1.90831E-19
 -1       636 1.19583E-04-4.97513E-05-2.99350E-05-8.70669E-06 8.37664E-19 7.09999E-19
 -1       637 1.24050E-04-4.95416E-05-3.19397E-05-1.93412E-05-1.03594E-19 1.70709E-18
 -1       638 1.22498E-04-4.02162E-05-3.54054E-05-2.97877E-05-8.45557E-19 1.88222E-18
 -1       639 1.12726E-04-2.12685E-05-3.93534E-05-3.32929E-05-1.80599E-18 9.94400E-19
 -1       640 9.50979E-05-2.77083E-05-2.88807E-05-1.38919E-07 6.39996E-19-6.72113E-19
 -1       641 9.49874E-05-2.81150E-05-2.86594E-05-7.48721E-07 5.13495E-19-6.03670E-19
 -1       642 9.49257E-05-2.83705E-05-2.85237E-05-1.05759E-06 2.88410E-19-5.56991E-19
 -1       643 9.49048E-05-2.85297E-05-2.84466E-05-1.16958E-06 3.40029E-19-5.29320E-19
 -1       644 9.49127E-05-2.86256E-05-2.84089E-05-1.15799E-06 6.03253E-19-7.39708E-19
 -1       645 9.49381E-05-2.86792E-05-2.83968E-05-1.07377E-06 4.24784E-19-4.53426E-19
 -1       646 9.49725E-05-2.87043E-05-2.84008E-05-9.51750E-07 2.27092E-19-2.69164E-19
 -1       647 9.50100E-05-2.87105E-05-2.84142E-05-8.15287E-07 1.08299E-21 3.40842E-19
 -1       648 9.50470E-05-2.87045E-05-2.84327E-05-6.79621E-07-1.84583E-19 4.51419E-19
 -1       649 9.50815E-05-2.86908E-05-2.84533E-05-5.54397E-07 1.29178E-21 6.01572E-19
 -1       650 9.51126E-05-2.86722E-05-2.84746E-05-4.45527E-07 1.75122E-19 5.00422E-19
 -1       651 9.51402E-05-2.86505E-05-2.84957E-05-3.56629E-07-4.70373E-19 4.82113E-19
 -1       652 9.51652E-05-2.86265E-05-2.85167E-05-2.90113E-07 1.35596E-20 1.05804E-18
 -1       653 9.51884E-05-2.86002E-05-2.85378E-05-2.48010E-07 1.78059E-19 8.64238E-19
 -1       654 9.52113E-05-2.85711E-05-2.85601E-05-2.32602E-07 1.80873E-19 5.82129E-19
 -1       655 9.52356E-05-2.85382E-05-2.85846E-05-2.46922E-07 4.01029E-19 4.76914E-19
 -1       656 9.52634E-05-2.85003E-05-2.86127E-05-2.95144E-07 2.05426E-19 2.96377E-19
 -1       657 9.52968E-05-2.84557E-05-2.86461E-05-3.82866E-07 5.63946E-19 6.36024E-19
 -1       658 9.53387E-05-2.84027E-05-2.86867E-05-5.17303E-07-5.28571E-20 7.08899E-19
 -1       659 9.53920E-05-2.83396E-05-2.87365E-05-7.07359E-07 8.21122E-20 3.92297E-19
 -1       660 9.54600E-05-2.82651E-05-2.87976E-05-9.63526E-07 4.46436E-20 2.16152E-19
 -1       661 9.55465E-05-2.81781E-05-2.88718E-05-1.29754E-06-1.02783E-18 3.43852E-19
 -1       662 9.56554E-05-2.80793E-05-2.89607E-05-1.72169E-06-8.04191E-19 1.02367E-18
 -1       663 9.57916E-05-2.79716E-05-2.90651E-05-2.24751E-06 2.85921E-19-6.71013E-20
 -1       664 9.59607E-05-2.78620E-05-2.91844E-05-2.88380E-06-6.52303E-20 3.01250E-20
 -1       665 9.61707E-05-2.77651E-05-2.93158E-05-3.63337E-06 6.38653E-19 1.13100E-18
 -1       666 9.64350E-05-2.77082E-05-2.94534E-05-4.48823E-06-2.12358E-19 9.10473E-19
 -1       667 9.67771E-05-2.77388E-05-2.95868E-05-5.42254E-06-1.11221E-18-5.74608E-19
 -1       668 9.72414E-05-2.79379E-05-2.97006E-05-6.38243E-06-5.19182E-19 6.19719E-19
 -1       669 9.79093E-05-2.84359E-05-2.97738E-05-7.27169E-06 3.43961E-20 2.88772E-18
 -1       670 9.89241E-05-2.94315E-05-2.97828E-05-7.93174E-06 1.15825E-19 2.65474E-18
 -1       671 1.00520E-04-3.12032E-05-2.97090E-05-8.11307E-06-2.25680E-19 2.59580E-18
 -1       672 1.03041E-04-3.40839E-05-2.95569E-05-7.43380E-06-6.97211E-19 3.42057E-18
 -1       673 1.06894E-04-3.83374E-05-2.93878E-05-5.32590E-06-1.29884E-18 4.22375E-18
 -1       674 1.12363E-04-4.38408E-05-2.93742E-05-1.00325E-06-1.10176E-18 2.15616E-18
 -1       675 1.19065E-04-4.93904E-05-2.98726E-05 6.47337E-06 2.53022E-19 1.16677E-18
 -1       676 1.25096E-04-5.17286E-05-3.14586E-05 1.74546E-05-1.14283E-19 1.80405E-19
 -1       677 1.26663E-04-4.61158E-05-3.45643E-05 3.00047E-05 5.24691E-19-2.25006E-19
 -1       678 1.18531E-04-2.83065E-05-3.89973E-05 3.69236E-05-4.16859E-19 3.10698E-19
 -1       679 1.05178E-04-6.14027E-06-4.27548E-05 2.91206E-05-1.62408E-18-1.20451E-19
 -1       680 9.55925E-05 1.03276E-05-4.59241E-05 1.30104E-05-8.04258E-19-1.00820E-18
 -1       681 3.35733E-05-2.08719E-05-4.76139E-06 5.39082E-06 3.60703E-18-6.78198E-18
 -1       682 1.51631E-04-5.36987E-05-4.22551E-05-2.83770E-05-2.35999E-18-1.93722E-18
 -1       683 1.32665E-04-2.07937E-05-4.84833E-05-3.97060E-05-3.60990E-18-8.14369E-19
 -1       684 1.50424E-04-7.41157E-05-3.27565E-05-3.06401E-08-1.94575E-18 1.86877E-19
 -1       685 9.52375E-05-2.70426E-05-2.92244E-05 9.15004E-07 7.11634E-19-6.80311E-19
 -1       686 9.20704E-05-1.76718E-05-3.18909E-05 3.94395E-06 5.34902E-19-1.36466E-18
 -1       687 9.53397E-05-2.59382E-05-2.97394E-05 2.59487E-06 9.83814E-19-6.81285E-19
 -1       688 9.20294E-05-1.76150E-05-3.18975E-05-3.89187E-06-6.16004E-19-1.43758E-18
 -1       689 1.10836E-04-6.51729E-05-1.93063E-05-3.14087E-05 2.00495E-18-1.83714E-18
 -1       690 1.42844E-04-7.50875E-05-2.90041E-05-5.84196E-06 2.87214E-18 9.79077E-19
 -1       691 1.54467E-04-6.19307E-05-3.98002E-05 2.48734E-05 1.42986E-18 1.22661E-19
 -1       692 4.07532E-05-2.49062E-05-6.17847E-06-1.90632E-05 2.01534E-18-3.78168E-18
 -1       693 8.71013E-05-5.13396E-05-1.48797E-05 3.70915E-05 8.48992E-19-3.60476E-18
 -1       694 5.23924E-05-2.95282E-05-9.24234E-06 2.78027E-05 3.24779E-18-6.45540E-18
 -1       695 7.67485E-05-4.62836E-05-1.25680E-05-3.63474E-05 2.31706E-18-3.19562E-18
 -1       696 8.68916E-05 1.01380E-05-4.22256E-05 5.76459E-07-2.40626E-18 1.13521E-18
 -1       697 9.12756E-05-1.64310E-05-3.20816E-05-7.82608E-07-2.40784E-19-1.30676E-18
 -1       698 1.22852E-04-6.71581E-06-5.04546E-05 3.73100E-05-3.03661E-19-1.14861E-18
 -1       699 6.32205E-05-3.22661E-05-1.28482E-05-2.74268E-05 1.62554E-18-3.14596E-18
 -1       700 9.15201E-05-1.68119E-05-3.20232E-05-2.37688E-06-5.36900E-19-1.30062E-18
 -1       701 1.07441E-04-6.06920E-05-1.98372E-05 3.01380E-05 5.38541E-19 6.61533E-19
 -1       702 9.28456E-05-1.89034E-05-3.16962E-05-5.28104E-06-8.98184E-19-1.36559E-18
 -1       703 9.40856E-05-2.09022E-05-3.13712E-05-6.98282E-06-1.07616E-18-8.21783E-19
 -1       704 9.46382E-05-2.27391E-05-3.08149E-05 3.88655E-06 7.61907E-19-8.90634E-19
 -1       705 1.41701E-04-6.16487E-05-3.43525E-05-1.75074E-05-9.28554E-19-1.06285E-18
 -1       706 1.26371E-04-2.67960E-05-4.32189E-05 3.87028E-05-9.11407E-19 1.75569E-18
 -1       707 1.30479E-04-3.75194E-05-4.00195E-05-3.44757E-05-1.96620E-18 1.02492E-18
 -1       708 9.55699E-05-2.55085E-05-3.00267E-05-1.79429E-06-4.94956E-19-9.46930E-19
 -1       709 9.58636E-05-2.68823E-05-2.95634E-05-5.71278E-07-6.24246E-19-8.74572E-19
 -1       710 9.59554E-05-2.77717E-05-2.92216E-05 2.28862E-07-6.78970E-19-1.04497E-18
 -1       711 9.59433E-05-2.83341E-05-2.89754E-05 7.06050E-07-6.63312E-19-1.29044E-18
 -1       712 9.58824E-05-2.86774E-05-2.88022E-05 9.49731E-07-3.36845E-19-1.33479E-18
 -1       713 9.58017E-05-2.88730E-05-2.86838E-05 1.03424E-06-1.14527E-19-9.07298E-19
 -1       714 9.57168E-05-2.89700E-05-2.86058E-05 1.01667E-06-1.82151E-19-4.44703E-19
 -1       715 9.56358E-05-2.90026E-05-2.85571E-05 9.38707E-07-1.75106E-19-1.11840E-21
 -1       716 9.55629E-05-2.89941E-05-2.85295E-05 8.29745E-07-3.06384E-19 1.73978E-19
 -1       717 9.54995E-05-2.89609E-05-2.85166E-05 7.09906E-07-1.29861E-20-1.28720E-19
 -1       718 9.54458E-05-2.89135E-05-2.85139E-05 5.92544E-07-7.31980E-21-5.10735E-19
 -1       719 9.54012E-05-2.88589E-05-2.85182E-05 4.86310E-07-5.74635E-19-5.96961E-19
 -1       720 9.53646E-05-2.88006E-05-2.85274E-05 3.96777E-07-6.56317E-19-3.91461E-19
 -1       721 9.53342E-05-2.87403E-05-2.85403E-05 3.27675E-07-1.11948E-18-1.59619E-19
 -1       722 9.53083E-05-2.86775E-05-2.85561E-05 2.81858E-07-7.63742E-19-1.29868E-18
 -1       723 9.52850E-05-2.86108E-05-2.85746E-05 2.62050E-07 1.83589E-20-1.37141E-18
 -1       724 9.52619E-05-2.85376E-05-2.85961E-05 2.71404E-07 3.02302E-19-7.57026E-19
 -1       725 9.52365E-05-2.84543E-05-2.86209E-05 3.13932E-07 2.12179E-19-9.56306E-19
 -1       726 9.52059E-05-2.83568E-05-2.86496E-05 3.94795E-07 8.93139E-19-1.17496E-18
 -1       727 9.51668E-05-2.82406E-05-2.86826E-05 5.20488E-07-3.54677E-19-1.68524E-18
 -1       728 9.51155E-05-2.81011E-05-2.87204E-05 6.98874E-07-2.29169E-19-1.63190E-18
 -1       729 9.50480E-05-2.79341E-05-2.87630E-05 9.39054E-07 4.51528E-19-1.60214E-18
 -1       730 9.49598E-05-2.77365E-05-2.88099E-05 1.25102E-06 1.15333E-18-1.50456E-18
 -1       731 9.48467E-05-2.75075E-05-2.88596E-05 1.64501E-06 5.66763E-19-5.13282E-20
 -1       732 9.47056E-05-2.72503E-05-2.89094E-05 2.13053E-06-4.03418E-19 5.59529E-19
 -1       733 9.45358E-05-2.69752E-05-2.89545E-05 2.71498E-06 2.02704E-19 1.51453E-18
 -1       734 9.43416E-05-2.67030E-05-2.89879E-05 3.40179E-06-6.10007E-19 6.93569E-19
 -1       735 9.41375E-05-2.64718E-05-2.89995E-05 4.18830E-06-3.94773E-19-1.24022E-19
 -1       736 9.39550E-05-2.63445E-05-2.89757E-05 5.06330E-06-6.82489E-19-5.28202E-19
 -1       737 9.38551E-05-2.64214E-05-2.88999E-05 6.00430E-06 8.80905E-19 7.92250E-19
 -1       738 9.39459E-05-2.68542E-05-2.87534E-05 6.97438E-06-7.72775E-20 1.44552E-19
 -1       739 9.44094E-05-2.78632E-05-2.85195E-05 7.91657E-06 6.82253E-19-2.29176E-19
 -1       740 9.55354E-05-2.97518E-05-2.81925E-05 8.73928E-06-4.21280E-19-8.98645E-19
 -1       741 9.77608E-05-3.29043E-05-2.77941E-05 9.28133E-06 2.71157E-19-7.65143E-19
 -1       742 1.01728E-04-3.77527E-05-2.74139E-05 9.17976E-06 1.54251E-18 2.43703E-19
 -1       743 1.08003E-04-4.43757E-05-2.72643E-05 7.73602E-06 1.39906E-18 3.92915E-19
 -1       744 1.17141E-04-5.23848E-05-2.77505E-05 3.63767E-06 1.58195E-18 8.76355E-19
 -1       745 1.28192E-04-5.90896E-05-2.95689E-05-4.86613E-06 8.39332E-20-1.66131E-20
 -1       746 9.57275E-05-2.77468E-05-2.91346E-05-2.08194E-07 6.11223E-19-4.61202E-19
 -1       747 9.55612E-05-2.87752E-05-2.86226E-05-1.09402E-06 3.96767E-19-1.09608E-19
 -1       748 9.55003E-05-2.88724E-05-2.85548E-05-1.07822E-06 5.34005E-19-3.92361E-20
 -1       749 9.54473E-05-2.89112E-05-2.85155E-05-9.97094E-07 2.49545E-19-4.66553E-20
 -1       750 9.54029E-05-2.89126E-05-2.84959E-05-8.82228E-07-2.36033E-19 6.50819E-20
 -1       751 9.53666E-05-2.88908E-05-2.84897E-05-7.55086E-07-5.26155E-19 5.21966E-20
 -1       752 9.53374E-05-2.88555E-05-2.84923E-05-6.29913E-07-1.73860E-19 8.12201E-19
 -1       753 9.53146E-05-2.88129E-05-2.85007E-05-5.15834E-07 1.51973E-19 6.00311E-19
 -1       754 9.52968E-05-2.87666E-05-2.85130E-05-4.18627E-07-3.57178E-19 1.15707E-18
 -1       755 9.52831E-05-2.87181E-05-2.85279E-05-3.42081E-07-4.70367E-19 4.39142E-19
 -1       756 9.52725E-05-2.86676E-05-2.85450E-05-2.88993E-07-5.56501E-20 4.77353E-19
 -1       757 9.52638E-05-2.86140E-05-2.85642E-05-2.61955E-07 2.74676E-19 4.52954E-19
 -1       758 9.52560E-05-2.85553E-05-2.85860E-05-2.63959E-07-1.90685E-19 9.44177E-19
 -1       759 9.52479E-05-2.84888E-05-2.86110E-05-2.98859E-07 2.27448E-19 1.33420E-18
 -1       760 9.52380E-05-2.84111E-05-2.86401E-05-3.71718E-07 2.55186E-19 1.14813E-18
 -1       761 9.52248E-05-2.83183E-05-2.86742E-05-4.89037E-07 1.30147E-19 1.74284E-18
 -1       762 9.52061E-05-2.82063E-05-2.87142E-05-6.58866E-07 3.46431E-19 1.48974E-18
 -1       763 9.51796E-05-2.80709E-05-2.87608E-05-8.90764E-07 2.18837E-19 1.50322E-18
 -1       764 9.51424E-05-2.79081E-05-2.88146E-05-1.19555E-06-7.49221E-19 6.10674E-19
 -1       765 9.50910E-05-2.77154E-05-2.88752E-05-1.58480E-06-8.46613E-19-4.86652E-19
 -1       766 9.50219E-05-2.74921E-05-2.89412E-05-2.06993E-06 9.33740E-20-7.33920E-19
 -1       767 9.49320E-05-2.72423E-05-2.90097E-05-2.66089E-06 3.71731E-19-2.25891E-19
 -1       768 9.48199E-05-2.69770E-05-2.90753E-05-3.36426E-06-4.84070E-19-5.78242E-19
 -1       769 9.46896E-05-2.67200E-05-2.91296E-05-4.18072E-06-6.17699E-19 4.63053E-19
 -1       770 9.45558E-05-2.65154E-05-2.91598E-05-5.10199E-06 3.30967E-19 1.22098E-18
 -1       771 9.44544E-05-2.64398E-05-2.91487E-05-6.10719E-06-1.10095E-18 5.91531E-19
 -1       772 9.44603E-05-2.66199E-05-2.90740E-05-7.15860E-06-1.41876E-18 3.93907E-19
 -1       773 9.47151E-05-2.72554E-05-2.89109E-05-8.19600E-06-2.11212E-19 5.65197E-19
 -1       774 9.54686E-05-2.86453E-05-2.86383E-05-9.12630E-06-1.26260E-18 2.51146E-18
 -1       775 9.71323E-05-3.12075E-05-2.82534E-05-9.79670E-06-1.39032E-18 3.47264E-18
 -1       776 1.00330E-04-3.54565E-05-2.78024E-05-9.92418E-06-9.82760E-19 2.82271E-18
 -1       777 1.05881E-04-4.18428E-05-2.74381E-05-8.90856E-06-7.98586E-19 1.42892E-18
 -1       778 1.14557E-04-5.02842E-05-2.75282E-05-5.64945E-06-8.53346E-19 2.10723E-18
 -1       779 1.26409E-04-5.91303E-05-2.88119E-05 1.68658E-06 3.52692E-19 3.69980E-18
 -1       780 1.33536E-04-6.92636E-05-2.74356E-05 9.00832E-06 1.26717E-19 3.68689E-19
 -1       781 9.56954E-05-2.69147E-05-2.94777E-05 6.80668E-07 5.46373E-19-3.90348E-19
 -1       782 9.56271E-05-2.85890E-05-2.87306E-05-9.99465E-07 2.11064E-19-3.11992E-19
 -1       783 4.70513E-05-1.94232E-05-1.14184E-05-5.47858E-06 6.09060E-19-4.84127E-18
 -1       784 9.49229E-05-2.34185E-05-3.06443E-05-3.51754E-06-7.03135E-19-1.03896E-18
 -1       785 5.25712E-05-2.15590E-05-1.29771E-05 1.39024E-05 1.88925E-18-7.00787E-18
 -1       786 1.25237E-04-6.57475E-05-2.53566E-05-1.40407E-05 1.08861E-18 2.31805E-18
 -1       787 7.47983E-05-3.71328E-05-1.58353E-05 2.93846E-05 4.58183E-18-4.32379E-18
 -1       788 9.31921E-05-1.97705E-05-3.14675E-05 1.23346E-06-3.99016E-20-1.07923E-18
 -1       789 9.61347E-05-5.13963E-05-1.89762E-05-2.91004E-05 6.45916E-19-1.51800E-18
 -1       790 9.56893E-05-2.82690E-05-2.88945E-05-7.31992E-07 1.45493E-19-3.22384E-19
 -1       791 9.52121E-05-2.44751E-05-3.03150E-05 3.41372E-06 8.20611E-19-8.09252E-19
 -1       792 1.36329E-04-6.34219E-05-3.12117E-05 1.09896E-05 9.33552E-19 2.97496E-18
 -1       793 9.06613E-05-4.61274E-05-1.89408E-05 2.86538E-05 4.54105E-18-1.68863E-18
 -1       794 9.30798E-05-1.95698E-05-3.15054E-05 1.98290E-08-3.57064E-19-1.20194E-18
 -1       795 9.35093E-05-2.03557E-05-3.13526E-05 2.35202E-06 3.38325E-19-1.12402E-18
 -1       796 8.14714E-05-3.86872E-05-1.81333E-05-2.62834E-05 6.31906E-19-1.54321E-18
 -1       797 9.34875E-05-2.03215E-05-3.13579E-05-2.32297E-06-5.91038E-19-1.27512E-18
 -1       798 9.39718E-05-2.12818E-05-3.11563E-05-3.26561E-06-6.62947E-19-1.20925E-18
 -1       799 9.40150E-05-2.13436E-05-3.11456E-05 3.30211E-06 4.86875E-19-1.01915E-18
 -1       800 9.55100E-05-2.58864E-05-2.98380E-05 1.82084E-06 7.43669E-19-6.41997E-19
 -1       801 5.80866E-05-1.89372E-05-1.66499E-05 1.50456E-06-2.95430E-19-4.31048E-18
 -1       802 9.61879E-05-2.69907E-05-2.96562E-05-2.82133E-07-7.39302E-19-1.13596E-18
 -1       803 9.63536E-05-2.79209E-05-2.93284E-05 2.99099E-07-7.07517E-19-9.13185E-19
 -1       804 9.63737E-05-2.85153E-05-2.90822E-05 6.43437E-07-3.92672E-19-5.74718E-19
 -1       805 9.63097E-05-2.88731E-05-2.89014E-05 8.13244E-07-1.66923E-19-5.88264E-19
 -1       806 9.62019E-05-2.90678E-05-2.87718E-05 8.63571E-07 5.19759E-20-8.47559E-19
 -1       807 9.60763E-05-2.91529E-05-2.86815E-05 8.37308E-07 2.11629E-19-5.28763E-19
 -1       808 9.59486E-05-2.91666E-05-2.86208E-05 7.66306E-07-4.01431E-19-6.55548E-19
 -1       809 9.58280E-05-2.91358E-05-2.85824E-05 6.73338E-07-2.37837E-20-6.63487E-19
 -1       810 9.57194E-05-2.90787E-05-2.85603E-05 5.74083E-07-3.73697E-19-6.15084E-19
 -1       811 9.56243E-05-2.90074E-05-2.85501E-05 4.79018E-07-2.72088E-19-6.98258E-19
 -1       812 9.55427E-05-2.89290E-05-2.85487E-05 3.95055E-07-6.57979E-19-1.28619E-18
 -1       813 9.54727E-05-2.88471E-05-2.85538E-05 3.26782E-07-6.61686E-19-1.84490E-18
 -1       814 9.54116E-05-2.87624E-05-2.85640E-05 2.77460E-07-1.10461E-18-3.24667E-19
 -1       815 9.53561E-05-2.86736E-05-2.85782E-05 2.49820E-07-1.45679E-19 3.98050E-19
 -1       816 9.53020E-05-2.85778E-05-2.85961E-05 2.46659E-07 4.09861E-19 1.47136E-19
 -1       817 9.52444E-05-2.84707E-05-2.86173E-05 2.71288E-07 7.02938E-19-7.21689E-20
 -1       818 9.51778E-05-2.83470E-05-2.86418E-05 3.27867E-07-7.50648E-20 3.16842E-19
 -1       819 9.50961E-05-2.82006E-05-2.86695E-05 4.21619E-07-1.69795E-19-9.13254E-19
 -1       820 9.49918E-05-2.80250E-05-2.87001E-05 5.58945E-07-6.93270E-19-1.48850E-18
 -1       821 9.48570E-05-2.78137E-05-2.87328E-05 7.47408E-07 1.14570E-19-1.83618E-18
 -1       822 9.46826E-05-2.75610E-05-2.87664E-05 9.95579E-07 6.63764E-19-1.33280E-18
 -1       823 9.44593E-05-2.72631E-05-2.87984E-05 1.31271E-06 1.30548E-18-1.54594E-18
 -1       824 9.41776E-05-2.69195E-05-2.88249E-05 1.70824E-06 4.01508E-19-1.25515E-18
 -1       825 9.38298E-05-2.65357E-05-2.88403E-05 2.19116E-06 1.18087E-18 1.50609E-19
 -1       826 9.34115E-05-2.61266E-05-2.88364E-05 2.76935E-06-4.45074E-19 4.30617E-19
 -1       827 9.29252E-05-2.57210E-05-2.88018E-05 3.44918E-06-1.29431E-18-7.09335E-20
 -1       828 9.23861E-05-2.53693E-05-2.87215E-05 4.23571E-06-1.17803E-18-8.27973E-19
 -1       829 9.18307E-05-2.51517E-05-2.85767E-05 5.13429E-06 9.38260E-19-7.09225E-19
 -1       830 9.13301E-05-2.51913E-05-2.83451E-05 6.15395E-06 5.72751E-19-9.96883E-19
 -1       831 9.10100E-05-2.56698E-05-2.80029E-05 7.31268E-06-5.17388E-19-5.06174E-19
 -1       832 9.10825E-05-2.68478E-05-2.75291E-05 8.64359E-06-4.64096E-19-2.41492E-18
 -1       833 9.18980E-05-2.90933E-05-2.69148E-05 1.01852E-05 1.54604E-20-2.48107E-18
 -1       834 9.39612E-05-3.28589E-05-2.61819E-05 1.19648E-05 1.72741E-18-8.75289E-19
 -1       835 9.84491E-05-3.90392E-05-2.54929E-05 1.38621E-05 2.37954E-18-9.94986E-19
 -1       836 1.06718E-04-4.80820E-05-2.50925E-05 1.51349E-05 1.28130E-18-4.69772E-20
 -1       837 9.61915E-05-2.84394E-05-2.90366E-05-6.85537E-07 2.30049E-19-4.81663E-19
 -1       838 9.60335E-05-2.89848E-05-2.87352E-05-9.48489E-07 3.65965E-19 6.80649E-20
 -1       839 9.57173E-05-2.90757E-05-2.85607E-05-7.47213E-07-2.40134E-19 9.63638E-19
 -1       840 9.56277E-05-2.90289E-05-2.85423E-05-6.37760E-07-8.98562E-19 9.27494E-19
 -1       841 9.55503E-05-2.89681E-05-2.85352E-05-5.32033E-07-1.18496E-19 7.38288E-19
 -1       842 9.54845E-05-2.89001E-05-2.85361E-05-4.37645E-07-1.79457E-19 7.09102E-19
 -1       843 9.54289E-05-2.88287E-05-2.85429E-05-3.59654E-07-1.92903E-19 6.50171E-19
 -1       844 9.53813E-05-2.87549E-05-2.85542E-05-3.01565E-07-2.43638E-19 3.95319E-19
 -1       845 9.53392E-05-2.86779E-05-2.85691E-05-2.66208E-07-7.33236E-21-1.24768E-19
 -1       846 9.52992E-05-2.85954E-05-2.85874E-05-2.56406E-07 2.05884E-19 3.94095E-19
 -1       847 9.52577E-05-2.85036E-05-2.86089E-05-2.75490E-07 2.88061E-19-4.07409E-19
 -1       848 9.52104E-05-2.83980E-05-2.86339E-05-3.27668E-07 3.62512E-19 2.62464E-19
 -1       849 9.51524E-05-2.82730E-05-2.86626E-05-4.18289E-07-1.88728E-19 7.78034E-19
 -1       850 9.50778E-05-2.81225E-05-2.86951E-05-5.53981E-07-1.24277E-19 7.39177E-19
 -1       851 9.49800E-05-2.79402E-05-2.87313E-05-7.42669E-07 1.30543E-19 4.50237E-19
 -1       852 9.48509E-05-2.77195E-05-2.87706E-05-9.93420E-07 9.21966E-20 7.26781E-19
 -1       853 9.46816E-05-2.74551E-05-2.88113E-05-1.31610E-06-3.44310E-19-8.97972E-20
 -1       854 9.44621E-05-2.71432E-05-2.88510E-05-1.72081E-06-9.12938E-20 3.60377E-19
 -1       855 9.41822E-05-2.67840E-05-2.88849E-05-2.21704E-06 1.77970E-19-8.90786E-19
 -1       856 9.38322E-05-2.63840E-05-2.89064E-05-2.81272E-06-5.17388E-20-1.60518E-19
 -1       857 9.34058E-05-2.59604E-05-2.89051E-05-3.51321E-06-1.34213E-18 3.39731E-19
 -1       858 9.29036E-05-2.55472E-05-2.88670E-05-4.32077E-06-7.74420E-19 8.15689E-19
 -1       859 9.23415E-05-2.52049E-05-2.87727E-05-5.23521E-06-5.26528E-20 1.17495E-18
 -1       860 9.17620E-05-2.50337E-05-2.85977E-05-6.25672E-06-1.34348E-18 1.05872E-18
 -1       861 9.12560E-05-2.51932E-05-2.83124E-05-7.39174E-06-7.19675E-19 4.48401E-19
 -1       862 9.09946E-05-2.59280E-05-2.78854E-05-8.66136E-06-1.43402E-18 1.58836E-18
 -1       863 9.12801E-05-2.76001E-05-2.72910E-05-1.01101E-05-2.00618E-18 1.82115E-18
 -1       864 9.26363E-05-3.07369E-05-2.65266E-05-1.17910E-05-1.55416E-18 6.36847E-19
 -1       865 9.58923E-05-3.60299E-05-2.56479E-05-1.36799E-05-2.27112E-19 2.53442E-18
 -1       866 1.02408E-04-4.43118E-05-2.48767E-05-1.53311E-05-6.37578E-19 2.82231E-18
 -1       867 9.31795E-05-1.97520E-05-3.14700E-05-1.19030E-06-4.95911E-19-1.12871E-18
 -1       868 9.61294E-05-2.87901E-05-2.88597E-05-8.85048E-07 1.66443E-19-3.37159E-19
 -1       869 9.60526E-05-2.69547E-05-2.96135E-05 3.85627E-07 5.61221E-19-3.51459E-19
 -1       870 1.16007E-04-5.84306E-05-2.45529E-05 1.70755E-05 1.06109E-18 1.90035E-19
 -1       871 9.58176E-05-2.90968E-05-2.85946E-05-8.48595E-07-1.16749E-19 8.61458E-19
 -1       872 9.50011E-05-2.35272E-05-3.06290E-05-2.38906E-06-5.58290E-19-1.22615E-18
 -1       873 9.59255E-05-2.90750E-05-2.86502E-05-9.24246E-07 1.89014E-19 7.42303E-19
 -1       874 9.57857E-05-2.55896E-05-3.00854E-05-1.16689E-06-5.35190E-19-1.14362E-18
 -1       875 6.95848E-05-2.67797E-05-1.81870E-05 1.86859E-05 2.81306E-18-3.11701E-18
 -1       876 1.09036E-04-5.31874E-05-2.38880E-05-1.78720E-05-3.55463E-19 3.16325E-18
 -1       877 6.23909E-05-2.39155E-05-1.63141E-05-1.57551E-05-4.88920E-19-3.82273E-18
 -1       878 9.61843E-05-2.78608E-05-2.92816E-05-2.86465E-07 3.96710E-19-3.31425E-19
 -1       879 9.45288E-05-2.22624E-05-3.09713E-05 4.27967E-07-2.26325E-19-9.41890E-19
 -1       880 9.56763E-05-2.55513E-05-3.00542E-05 1.42466E-06 5.35299E-19-6.42990E-19
 -1       881 9.46861E-05-2.26141E-05-3.08884E-05 1.23456E-06 2.61109E-20-8.86402E-19
 -1       882 8.01057E-05-3.35746E-05-1.98464E-05 2.19476E-05 3.55705E-18-2.54690E-18
 -1       883 9.46639E-05-2.25824E-05-3.08920E-05-1.19429E-06-4.54252E-19-1.20473E-18
 -1       884 9.52372E-05-2.42251E-05-3.04348E-05 2.23845E-06 4.31349E-19-7.47100E-19
 -1       885 9.48958E-05-4.32378E-05-2.20440E-05-2.14267E-05-2.73896E-20 2.82143E-19
 -1       886 9.54439E-05-2.50857E-05-3.01537E-05 2.09590E-06 5.74598E-19-5.67687E-19
 -1       887 9.59619E-05-2.57900E-05-3.00746E-05 8.45641E-07 2.99351E-19-8.30117E-19
 -1       888 9.65317E-05-2.80517E-05-2.93482E-05-3.25557E-07 4.02883E-19-5.18918E-19
 -1       889 9.66565E-05-2.81448E-05-2.93621E-05 3.18022E-07-4.23728E-19-1.64336E-19
 -1       890 9.66737E-05-2.87183E-05-2.91238E-05 5.31873E-07-2.27249E-19-3.91403E-19
 -1       891 9.65934E-05-2.90554E-05-2.89449E-05 6.30381E-07-1.86060E-19-2.63969E-19
 -1       892 9.64596E-05-2.92280E-05-2.88135E-05 6.49786E-07 1.07249E-20-2.09765E-19
 -1       893 9.63029E-05-2.92903E-05-2.87197E-05 6.19136E-07-5.03825E-20-3.11901E-19
 -1       894 9.61424E-05-2.92810E-05-2.86549E-05 5.60058E-07-4.79187E-19-2.74883E-19
 -1       895 9.59899E-05-2.92279E-05-2.86123E-05 4.88234E-07-1.80440E-19-3.47971E-19
 -1       896 9.58515E-05-2.91497E-05-2.85864E-05 4.14342E-07 5.21679E-20-2.32354E-19
 -1       897 9.57291E-05-2.90582E-05-2.85732E-05 3.45639E-07-6.78857E-19-1.14331E-19
 -1       898 9.56222E-05-2.89600E-05-2.85695E-05 2.86966E-07-8.97785E-19 1.14929E-19
 -1       899 9.55284E-05-2.88578E-05-2.85731E-05 2.41614E-07-4.47424E-19-1.06860E-20
 -1       900 9.54437E-05-2.87515E-05-2.85824E-05 2.12107E-07 2.64815E-19 5.88308E-19
 -1       901 9.53628E-05-2.86383E-05-2.85962E-05 2.00754E-07-3.32861E-20 1.29463E-18
 -1       902 9.52797E-05-2.85139E-05-2.86139E-05 2.10060E-07 2.14385E-19 1.19220E-18
 -1       903 9.51870E-05-2.83723E-05-2.86349E-05 2.43046E-07 4.17169E-20 5.70675E-19
 -1       904 9.50765E-05-2.82065E-05-2.86586E-05 3.03477E-07-7.22188E-19-3.36500E-19
 -1       905 9.49386E-05-2.80087E-05-2.86843E-05 3.96007E-07-2.41616E-19-3.81761E-19
 -1       906 9.47624E-05-2.77706E-05-2.87108E-05 5.26242E-07-1.21285E-19 5.42216E-19
 -1       907 9.45357E-05-2.74845E-05-2.87363E-05 7.00718E-07 6.78560E-19 5.82356E-19
 -1       908 9.42454E-05-2.71438E-05-2.87579E-05 9.26789E-07 5.11162E-19 3.69473E-19
 -1       909 9.38774E-05-2.67444E-05-2.87713E-05 1.21245E-06 5.35495E-19-7.05406E-19
 -1       910 9.34179E-05-2.62871E-05-2.87704E-05 1.56616E-06 1.32545E-18-6.42495E-19
 -1       911 9.28547E-05-2.57799E-05-2.87465E-05 1.99674E-06 3.96906E-19-1.77674E-18
 -1       912 9.21792E-05-2.52420E-05-2.86875E-05 2.51380E-06-8.07748E-19-1.17584E-18
 -1       913 9.13897E-05-2.47083E-05-2.85779E-05 3.12895E-06-1.02250E-18 4.88965E-19
 -1       914 9.04960E-05-2.42358E-05-2.83974E-05 3.85895E-06-8.32435E-19 1.22493E-18
 -1       915 8.95255E-05-2.39110E-05-2.81208E-05 4.73180E-06 5.15404E-19-1.94951E-19
 -1       916 8.85339E-05-2.38604E-05-2.77177E-05 5.79711E-06 4.46949E-20-1.00632E-18
 -1       917 8.76206E-05-2.42637E-05-2.71539E-05 7.14055E-06-7.77638E-19-4.44999E-19
 -1       918 8.69417E-05-2.53639E-05-2.63932E-05 8.91172E-06 9.02826E-21-8.64029E-19
 -1       919 8.68380E-05-2.75872E-05-2.54004E-05 1.13404E-05 1.26180E-18-1.34132E-18
 -1       920 8.81208E-05-3.15217E-05-2.42306E-05 1.47755E-05 1.80071E-18-3.21616E-18
 -1       921 9.59242E-05-2.91901E-05-2.86003E-05-5.73270E-07-4.01509E-19 7.25189E-19
 -1       922 9.55912E-05-2.89485E-05-2.85611E-05-3.36369E-07 1.53051E-19 1.17352E-18
 -1       923 9.55076E-05-2.88552E-05-2.85653E-05-2.80956E-07 1.92616E-19 6.12090E-19
 -1       924 9.54332E-05-2.87583E-05-2.85749E-05-2.43108E-07-2.08593E-19 1.41767E-19
 -1       925 9.53636E-05-2.86560E-05-2.85890E-05-2.25354E-07 8.53999E-20-1.25178E-20
 -1       926 9.52935E-05-2.85441E-05-2.86069E-05-2.30378E-07 5.57149E-19-2.69130E-20
 -1       927 9.52166E-05-2.84176E-05-2.86282E-05-2.61391E-07 2.47733E-20-3.05509E-19
 -1       928 9.51258E-05-2.82698E-05-2.86526E-05-3.22382E-07-5.61781E-19-2.92061E-20
 -1       929 9.50125E-05-2.80932E-05-2.86797E-05-4.18286E-07-9.51700E-19-3.28819E-19
 -1       930 9.48671E-05-2.78800E-05-2.87088E-05-5.55021E-07 8.25937E-19-1.40366E-20
 -1       931 9.46781E-05-2.76217E-05-2.87385E-05-7.39421E-07 2.83494E-19-8.04404E-19
 -1       932 9.44328E-05-2.73105E-05-2.87667E-05-9.79010E-07-1.15149E-19-6.47757E-19
 -1       933 9.41168E-05-2.69403E-05-2.87900E-05-1.28164E-06-4.50516E-19 3.13594E-19
 -1       934 9.37146E-05-2.65076E-05-2.88030E-05-1.65498E-06 1.42336E-19 8.99059E-19
 -1       935 9.32102E-05-2.60144E-05-2.87982E-05-2.10601E-06-4.63626E-19 1.51379E-18
 -1       936 9.25885E-05-2.54709E-05-2.87647E-05-2.64071E-06-1.21095E-18 2.11363E-18
 -1       937 9.18378E-05-2.49003E-05-2.86876E-05-3.26444E-06-5.68243E-19 1.79585E-18
 -1       938 9.09531E-05-2.43441E-05-2.85468E-05-3.98401E-06-7.16712E-19 1.08006E-18
 -1       939 8.99419E-05-2.38712E-05-2.83161E-05-4.81290E-06-3.52963E-19 1.45185E-18
 -1       940 8.88335E-05-2.35885E-05-2.79622E-05-5.78206E-06-6.11469E-19-8.84032E-20
 -1       941 8.76945E-05-2.36574E-05-2.74447E-05-6.95706E-06-1.68865E-18-3.53237E-19
 -1       942 8.66528E-05-2.43155E-05-2.67165E-05-8.46267E-06-1.86698E-18-6.89460E-19
 -1       943 8.59317E-05-2.59000E-05-2.57270E-05-1.05259E-05-1.11822E-18-1.45439E-19
 -1       944 8.59521E-05-2.89684E-05-2.44173E-05-1.35074E-05-1.69266E-18-5.99799E-19
 -1       945 8.85118E-05-3.44051E-05-2.31738E-05-1.72743E-05-7.31818E-19-9.62689E-20
 -1       946 9.60639E-05-2.92343E-05-2.86412E-05-6.55859E-07-5.29299E-19 5.80157E-19
 -1       947 9.49274E-05-2.32386E-05-3.07221E-05-1.85048E-06-4.76152E-19-1.22960E-18
 -1       948 9.45235E-05-2.22553E-05-3.09722E-05-4.03576E-07-4.52227E-19-1.06781E-18
 -1       949 9.64756E-05-2.89791E-05-2.89270E-05-7.21985E-07-1.90700E-19-2.19430E-19
 -1       950 9.49317E-05-2.32461E-05-3.07163E-05 1.87855E-06 2.67940E-19-1.05846E-18
 -1       951 9.63564E-05-2.71284E-05-2.96686E-05 1.35631E-07 3.87863E-19-5.70769E-19
 -1       952 9.60458E-05-2.58844E-05-3.00686E-05-6.32604E-07-3.83948E-19-1.07523E-18
 -1       953 6.86853E-05-2.10704E-05-2.03598E-05 8.21263E-06 6.05034E-19-2.51870E-18
 -1       954 9.56680E-05-2.48359E-05-3.03576E-05-8.81553E-07-4.55338E-19-1.17186E-18
 -1       955 6.74417E-05-2.08035E-05-1.99352E-05-7.59263E-06-1.05534E-18-3.76626E-18
 -1       956 9.57983E-05-2.91210E-05-2.85760E-05-4.87403E-07-3.42812E-19 7.82426E-19
 -1       957 9.65481E-05-2.86337E-05-2.91061E-05-5.94495E-07 1.67160E-20-5.08575E-19
 -1       958 9.64765E-05-2.72461E-05-2.96711E-05-5.72667E-08-4.11705E-19-5.34563E-19
 -1       959 7.75770E-05-3.01439E-05-2.02666E-05-1.88304E-05-1.28257E-18-1.60322E-18
 -1       960 9.56874E-05-2.90382E-05-2.85639E-05-4.06478E-07-3.06142E-19 1.13301E-18
 -1       961 9.56004E-05-2.44817E-05-3.04793E-05-4.64030E-07-2.25211E-19-9.48808E-19
 -1       962 9.55836E-05-2.44580E-05-3.04823E-05 4.90764E-07-2.54237E-20-6.39134E-19
 -1       963 9.63540E-05-2.91618E-05-2.87966E-05-7.52702E-07-8.22456E-20 2.39605E-19
 -1       964 9.55629E-05-2.43469E-05-3.05204E-05 2.04287E-08-2.40262E-19-9.18872E-19
 -1       965 9.62104E-05-2.92335E-05-2.87043E-05-7.21579E-07 1.97497E-19 6.29647E-19
 -1       966 9.68575E-05-2.89249E-05-2.91141E-05 3.66271E-07-8.46648E-20-4.04801E-19
 -1       967 9.67500E-05-2.92129E-05-2.89445E-05 4.08508E-07-8.20912E-20-3.34894E-19
 -1       968 9.65909E-05-2.93467E-05-2.88190E-05 4.08234E-07 1.43308E-19-4.59798E-19
 -1       969 9.64117E-05-2.93785E-05-2.87285E-05 3.81198E-07 2.51873E-20-2.73256E-19
 -1       970 9.62305E-05-2.93440E-05-2.86656E-05 3.40357E-07-1.70888E-19 1.22742E-19
 -1       971 9.60599E-05-2.92705E-05-2.86240E-05 2.93895E-07-4.87012E-19-4.30393E-19
 -1       972 9.59049E-05-2.91746E-05-2.85987E-05 2.48110E-07-8.05329E-20-9.75589E-19
 -1       973 9.57675E-05-2.90672E-05-2.85858E-05 2.07128E-07-6.18441E-19-5.78284E-19
 -1       974 9.56463E-05-2.89539E-05-2.85825E-05 1.73585E-07-7.15204E-19 7.56909E-20
 -1       975 9.55376E-05-2.88358E-05-2.85865E-05 1.49456E-07-2.91204E-20 5.55901E-19
 -1       976 9.54359E-05-2.87115E-05-2.85962E-05 1.36386E-07 5.53209E-19 8.64769E-20
 -1       977 9.53347E-05-2.85769E-05-2.86105E-05 1.35998E-07 3.41739E-19 3.88525E-19
 -1       978 9.52259E-05-2.84262E-05-2.86285E-05 1.50143E-07 1.28685E-19 6.61800E-19
 -1       979 9.51000E-05-2.82519E-05-2.86493E-05 1.81092E-07-8.96474E-19 5.78351E-19
 -1       980 9.49464E-05-2.80456E-05-2.86718E-05 2.31669E-07-7.83006E-19 5.86958E-19
 -1       981 9.47526E-05-2.77980E-05-2.86949E-05 3.05346E-07 5.61860E-19 5.84690E-19
 -1       982 9.45046E-05-2.74999E-05-2.87164E-05 4.06286E-07 1.17185E-19 4.59443E-19
 -1       983 9.41869E-05-2.71425E-05-2.87334E-05 5.39364E-07 3.16374E-20 1.35695E-19
 -1       984 9.37825E-05-2.67189E-05-2.87417E-05 7.10164E-07 2.76743E-19-2.95857E-19
 -1       985 9.32736E-05-2.62256E-05-2.87350E-05 9.25009E-07-6.77056E-21-5.04865E-20
 -1       986 9.26423E-05-2.56649E-05-2.87049E-05 1.19113E-06 4.79127E-19-1.05845E-18
 -1       987 9.18719E-05-2.50470E-05-2.86396E-05 1.51713E-06 2.64285E-19-4.60276E-19
 -1       988 9.09480E-05-2.43940E-05-2.85235E-05 1.91423E-06 4.43233E-20-2.78981E-19
 -1       989 8.98603E-05-2.37431E-05-2.83365E-05 2.39867E-06-1.57987E-19 1.76619E-19
 -1       990 8.86034E-05-2.31499E-05-2.80521E-05 2.99673E-06-9.08321E-19 7.88997E-19
 -1       991 8.71764E-05-2.26923E-05-2.76370E-05 3.75405E-06-2.65970E-19 3.73581E-19
 -1       992 8.55831E-05-2.24739E-05-2.70485E-05 4.75191E-06-3.98462E-19-6.90893E-19
 -1       993 8.38332E-05-2.26323E-05-2.62330E-05 6.13526E-06-1.19837E-18-1.74708E-18
 -1       994 8.19141E-05-2.33241E-05-2.51192E-05 8.20704E-06 3.09183E-19-9.10048E-19
 -1       995 8.00583E-05-2.49242E-05-2.36150E-05 1.11585E-05 5.15224E-19-5.00138E-19
 -1       996 9.67255E-05-2.75998E-05-2.96253E-05 6.89509E-08-2.03727E-19-7.70070E-19
 -1       997 9.56393E-05-2.89586E-05-2.85774E-05-2.24900E-07 1.44013E-19 8.45192E-19
 -1       998 9.53496E-05-2.86049E-05-2.86049E-05-1.68172E-07 5.87958E-19-2.92022E-21
 -1       999 9.52519E-05-2.84652E-05-2.86229E-05-1.81726E-07 3.00539E-19 3.61173E-19
 -1      1000 9.51403E-05-2.83045E-05-2.86439E-05-2.15511E-07 1.51626E-19 5.85272E-19
 -1      1001 9.50049E-05-2.81146E-05-2.86673E-05-2.72701E-07 1.51354E-19-5.84998E-21
 -1      1002 9.48342E-05-2.78866E-05-2.86919E-05-3.57107E-07-4.51170E-19-6.48595E-19
 -1      1003 9.46149E-05-2.76108E-05-2.87161E-05-4.73140E-07 8.15093E-19 1.95642E-19
 -1      1004 9.43320E-05-2.72779E-05-2.87376E-05-6.25681E-07 5.59652E-19-7.01081E-19
 -1      1005 9.39685E-05-2.68797E-05-2.87525E-05-8.19838E-07-1.57699E-18-6.41973E-19
 -1      1006 9.35059E-05-2.64101E-05-2.87555E-05-1.06062E-06-8.34277E-19 2.35470E-19
 -1      1007 9.29241E-05-2.58672E-05-2.87389E-05-1.35259E-06-1.10713E-18 1.13302E-18
 -1      1008 9.22028E-05-2.52558E-05-2.86918E-05-1.69968E-06-8.85342E-19 1.46238E-18
 -1      1009 9.13220E-05-2.45899E-05-2.85997E-05-2.10551E-06-4.55788E-19 4.17728E-19
 -1      1010 9.02629E-05-2.38969E-05-2.84429E-05-2.57486E-06-2.52474E-20-3.29548E-19
 -1      1011 8.90091E-05-2.32210E-05-2.81953E-05-3.11754E-06-3.51166E-19-8.40085E-19
 -1      1012 8.75459E-05-2.26268E-05-2.78230E-05-3.75659E-06-2.56980E-19-6.59357E-19
 -1      1013 8.58577E-05-2.22030E-05-2.72815E-05-4.54609E-06-8.00024E-19-1.29662E-18
 -1      1014 8.39403E-05-2.20807E-05-2.65125E-05-5.59619E-06-1.27669E-18-1.56557E-18
 -1      1015 8.17562E-05-2.24101E-05-2.54389E-05-7.07794E-06-2.01037E-18-1.70672E-18
 -1      1016 7.92613E-05-2.33916E-05-2.39438E-05-9.38781E-06-4.96164E-19-8.71321E-19
 -1      1017 9.61979E-05-2.93200E-05-2.86619E-05-4.40804E-07 3.83777E-20 2.54966E-19
 -1      1018 9.55367E-05-2.88472E-05-2.85812E-05-1.91813E-07 5.88524E-19 1.42837E-18
 -1      1019 7.59163E-05-2.58154E-05-2.14482E-05 1.40179E-05 1.01173E-18-1.56566E-18
 -1      1020 7.18935E-05-1.98434E-05-2.23117E-05-4.34402E-07-1.49497E-18-1.62577E-18
 -1      1021 9.54421E-05-2.87304E-05-2.85907E-05-1.72255E-07 3.06599E-19 3.29642E-19
 -1      1022 9.60348E-05-2.92552E-05-2.86198E-05-3.82007E-07-5.23051E-19 2.45050E-19
 -1      1023 9.68691E-05-2.84139E-05-2.93380E-05 2.61107E-07-5.07560E-19-6.43399E-19
 -1      1024 9.58862E-05-2.91666E-05-2.85941E-05-3.23017E-07-4.42943E-19 4.08015E-19
 -1      1025 7.75994E-05-2.52184E-05-2.24301E-05-1.26338E-05-2.31394E-18-1.20164E-18
 -1      1026 9.57547E-05-2.90657E-05-2.85810E-05-2.69476E-07-7.51127E-19 6.67505E-19
 -1      1027 9.63567E-05-2.62758E-05-3.00357E-05 1.91667E-07 1.06906E-19-3.22410E-19
 -1      1028 9.61991E-05-2.60490E-05-3.00640E-05-3.73930E-07-7.05692E-20-8.66489E-19
 -1      1029 7.49143E-05-2.15243E-05-2.28730E-05 6.97243E-06-2.79710E-19-2.51883E-18
 -1      1030 9.63740E-05-2.93471E-05-2.87262E-05-4.93594E-07-1.55395E-19 7.93395E-19
 -1      1031 9.67859E-05-2.83026E-05-2.93502E-05-2.99263E-07 2.74224E-19-4.39415E-20
 -1      1032 9.66982E-05-2.74798E-05-2.96648E-05-3.46564E-08 1.89665E-19-1.68090E-19
 -1      1033 9.67856E-05-2.88416E-05-2.91189E-05-4.52042E-07-2.67378E-20 3.61537E-20
 -1      1034 7.47816E-05-2.11026E-05-2.29949E-05-5.63852E-06-1.51718E-18-2.27381E-18
 -1      1035 9.66896E-05-2.91480E-05-2.89463E-05-5.14888E-07-2.54954E-19 1.84218E-20
 -1      1036 9.67886E-05-2.93283E-05-2.89115E-05 1.61250E-07-3.51027E-19-6.63848E-19
 -1      1037 9.66088E-05-2.94160E-05-2.87969E-05 1.55007E-07-2.72338E-19-6.19466E-19
 -1      1038 9.64179E-05-2.94154E-05-2.87155E-05 1.38828E-07-9.84851E-20-1.03025E-18
 -1      1039 9.62310E-05-2.93578E-05-2.86599E-05 1.22494E-07-4.37006E-19-1.09380E-18
 -1      1040 9.60538E-05-2.92667E-05-2.86230E-05 1.05300E-07-4.47690E-19-8.11909E-19
 -1      1041 9.58944E-05-2.91582E-05-2.86012E-05 8.86873E-08-1.80723E-20-1.02659E-18
 -1      1042 9.57529E-05-2.90404E-05-2.85910E-05 7.43309E-08-3.88516E-20-8.95439E-19
 -1      1043 9.56265E-05-2.89169E-05-2.85898E-05 6.32743E-08 1.45515E-19-8.13430E-20
 -1      1044 9.55106E-05-2.87876E-05-2.85955E-05 5.62716E-08 3.98253E-19 3.67967E-19
 -1      1045 9.53984E-05-2.86496E-05-2.86066E-05 5.39943E-08 2.90603E-19 4.03096E-19
 -1      1046 9.52821E-05-2.84974E-05-2.86220E-05 5.71636E-08-1.76924E-20-5.04530E-19
 -1      1047 9.51520E-05-2.83240E-05-2.86405E-05 6.66497E-08-2.11156E-19-6.86193E-19
 -1      1048 9.49970E-05-2.81208E-05-2.86612E-05 8.35499E-08-5.11976E-19 7.14724E-19
 -1      1049 9.48043E-05-2.78783E-05-2.86825E-05 1.09257E-07-6.27622E-19 5.34698E-19
 -1      1050 9.45595E-05-2.75863E-05-2.87027E-05 1.45521E-07-3.48413E-19 3.75565E-20
 -1      1051 9.42459E-05-2.72348E-05-2.87190E-05 1.94521E-07-4.43394E-19-7.07518E-19
 -1      1052 9.38455E-05-2.68148E-05-2.87273E-05 2.58953E-07-5.31404E-20-7.27337E-19
 -1      1053 9.33382E-05-2.63198E-05-2.87220E-05 3.42160E-07 1.55081E-19-1.87252E-19
 -1      1054 9.27032E-05-2.57473E-05-2.86952E-05 4.48366E-07-2.15066E-19 6.09140E-19
 -1      1055 9.19190E-05-2.51011E-05-2.86360E-05 5.83071E-07 5.24862E-20-2.48129E-19
 -1      1056 9.09640E-05-2.43936E-05-2.85298E-05 7.53775E-07-3.39400E-19-1.80490E-18
 -1      1057 8.98166E-05-2.36481E-05-2.83574E-05 9.71246E-07 1.84306E-20-9.06317E-19
 -1      1058 8.84538E-05-2.29008E-05-2.80935E-05 1.25170E-06 3.48310E-19-3.94311E-19
 -1      1059 8.68472E-05-2.22002E-05-2.77050E-05 1.62033E-06-8.35085E-19-4.53655E-19
 -1      1060 8.49516E-05-2.16036E-05-2.71481E-05 2.11655E-06-5.74589E-19-8.02769E-19
 -1      1061 8.26898E-05-2.11784E-05-2.63634E-05 2.80703E-06-1.57533E-18 7.66701E-19
 -1      1062 8.00575E-05-2.10481E-05-2.52775E-05 3.77159E-06-2.68552E-19 6.08935E-19
 -1      1063 9.64715E-05-2.65589E-05-2.99607E-05-7.42687E-08-4.92559E-20-1.07598E-18
 -1      1064 9.60642E-05-2.92734E-05-2.86247E-05-1.91433E-07-6.50162E-19 1.37666E-20
 -1      1065 9.69858E-05-2.86841E-05-2.92719E-05 1.23845E-07 1.04623E-19-5.37955E-19
 -1      1066 9.62393E-05-2.93594E-05-2.86631E-05-2.22864E-07-8.62434E-20-3.02694E-19
 -1      1067 9.53063E-05-2.85318E-05-2.86176E-05-9.59111E-08-1.72540E-19-7.45789E-20
 -1      1068 9.48629E-05-2.79459E-05-2.86787E-05-1.70357E-07-3.89384E-19 4.08580E-19
 -1      1069 9.46373E-05-2.76701E-05-2.87002E-05-2.23511E-07-2.68139E-19 5.81721E-19
 -1      1070 9.43479E-05-2.73372E-05-2.87189E-05-2.94358E-07 5.35673E-19 1.49484E-18
 -1      1071 9.39766E-05-2.69375E-05-2.87311E-05-3.85128E-07-1.68353E-19 2.88827E-18
 -1      1072 9.35036E-05-2.64634E-05-2.87316E-05-4.97849E-07-5.93974E-19 9.18002E-19
 -1      1073 9.29075E-05-2.59102E-05-2.87133E-05-6.34066E-07-4.76251E-19-4.34512E-19
 -1      1074 9.21655E-05-2.52786E-05-2.86660E-05-7.94595E-07-1.31211E-18-1.53078E-18
 -1      1075 9.12540E-05-2.45771E-05-2.85761E-05-9.79433E-07-3.24284E-19-1.24198E-18
 -1      1076 9.01484E-05-2.38239E-05-2.84252E-05-1.18814E-06 5.51551E-19-9.84495E-19
 -1      1077 8.88223E-05-2.30492E-05-2.81891E-05-1.42111E-06-2.57672E-19-1.10381E-18
 -1      1078 8.72438E-05-2.22958E-05-2.78357E-05-1.68245E-06-3.90414E-19-9.20349E-19
 -1      1079 8.53668E-05-2.16159E-05-2.73229E-05-1.98482E-06-1.96215E-19-1.23542E-18
 -1      1080 8.31054E-05-2.10548E-05-2.65929E-05-2.35438E-06 3.82285E-19-1.82624E-18
 -1      1081 8.02518E-05-2.06206E-05-2.55570E-05-2.94637E-06-5.41413E-19-3.13947E-18
 -1      1082 7.78565E-05-2.07462E-05-2.44639E-05-4.07854E-06-2.27253E-18-4.39657E-18
 -1      1083 9.65449E-05-2.93006E-05-2.88190E-05-5.22091E-07-2.44664E-19 3.47423E-19
 -1      1084 9.56392E-05-2.89354E-05-2.85874E-05-1.14384E-07 4.36456E-19-8.54498E-19
 -1      1085 9.50406E-05-2.81749E-05-2.86567E-05-1.32686E-07 4.74656E-19-4.25333E-21
 -1      1086 9.51843E-05-2.83670E-05-2.86360E-05-1.08463E-07 1.36455E-19 3.33699E-19
 -1      1087 9.55254E-05-2.88102E-05-2.85923E-05-1.00061E-07 4.64379E-19-1.01107E-18
 -1      1088 9.54170E-05-2.86772E-05-2.86027E-05-9.35315E-08 2.69762E-19-4.48585E-19
 -1      1089 7.65594E-05-2.02169E-05-2.41529E-05 2.03459E-06-1.71063E-18 6.44086E-19
 -1      1090 9.64078E-05-2.63579E-05-3.00229E-05-5.23620E-09-1.15520E-19-9.05952E-19
 -1      1091 9.69279E-05-2.91045E-05-2.90670E-05 1.52659E-07 1.66709E-20-4.64779E-19
 -1      1092 9.69048E-05-2.79923E-05-2.95333E-05 6.36648E-08-1.02187E-19-9.43662E-19
 -1      1093 9.69494E-05-2.85760E-05-2.93035E-05-1.90736E-07-1.14215E-19 2.19798E-19
 -1      1094 9.59053E-05-2.91694E-05-2.86011E-05-1.61702E-07-8.23292E-19-1.41656E-19
 -1      1095 9.64190E-05-2.94018E-05-2.87212E-05-2.49166E-07 9.13518E-20-5.04757E-19
 -1      1096 9.68711E-05-2.78849E-05-2.95652E-05-4.33075E-08-1.44789E-19-1.69245E-19
 -1      1097 9.57644E-05-2.90553E-05-2.85897E-05-1.35380E-07-3.08005E-19-6.07849E-19
 -1      1098 9.67056E-05-2.72133E-05-2.97829E-05-2.38141E-09-4.75102E-20-5.43401E-19
 -1      1099 9.69168E-05-2.90389E-05-2.90905E-05-2.56526E-07-4.99135E-20-7.25003E-20
 -1      1100 9.65214E-05-2.94266E-05-2.87542E-05-9.11526E-08-3.75818E-19-4.77323E-19
 -1      1101 9.67212E-05-2.93970E-05-2.88535E-05-1.00782E-07-2.04625E-19-8.35248E-19
 -1      1102 9.68441E-05-2.92703E-05-2.89604E-05-1.89952E-07-2.48523E-19-5.19305E-19
 -1      1103 1.16859E-04 2.57584E-10-4.18572E-05-4.14635E-05-1.30867E-19 6.10986E-18
 -1      1104 8.86554E-05 7.19311E-11-3.72530E-05-2.41637E-05-9.31736E-20 1.44859E-18
 -1      1105 8.40815E-05 4.14595E-11-3.57681E-05-1.78729E-05-7.05684E-20-7.28342E-19
 -1      1106 8.23359E-05 3.20267E-11-3.50735E-05-1.38301E-05-4.65868E-20-1.89514E-18
 -1      1107 8.15308E-05 2.73239E-11-3.47384E-05-1.05280E-05-2.88785E-20-2.47117E-18
 -1      1108 8.11270E-05 2.46000E-11-3.45723E-05-7.63602E-06-2.34522E-20-2.73663E-18
 -1      1109 8.09167E-05 2.29403E-11-3.44884E-05-4.97625E-06-2.08416E-20-2.85019E-18
 -1      1110 8.08138E-05 2.20429E-11-3.44488E-05-2.43025E-06-6.20551E-21-2.86782E-18
 -1      1111 8.07844E-05 2.17715E-11-3.44377E-05 5.25198E-08-7.34206E-21-2.84837E-18
 -1      1112 8.08181E-05 2.20867E-11-3.44503E-05 2.53779E-06 7.90454E-21-2.84707E-18
 -1      1113 8.09255E-05 2.30389E-11-3.44914E-05 5.09198E-06 1.36187E-20-2.76693E-18
 -1      1114 8.11427E-05 2.47586E-11-3.45766E-05 7.76771E-06 2.58213E-20-2.64540E-18
 -1      1115 8.15533E-05 2.76360E-11-3.47447E-05 1.06876E-05 2.99241E-20-2.38820E-18
 -1      1116 8.23599E-05 3.25003E-11-3.50834E-05 1.40368E-05 5.03985E-20-1.91262E-18
 -1      1117 8.40774E-05 4.19313E-11-3.57882E-05 1.81240E-05 6.83979E-20-8.86261E-19
 -1      1118 8.83535E-05 6.67574E-11-3.73233E-05 2.40064E-05 8.44915E-20 1.21465E-18
 -1      1119 1.06624E-04 1.63941E-10-4.06360E-05 3.61902E-05 1.79783E-19 5.71906E-18
 -1      1120 1.30226E-04-2.57583E-05-4.02757E-05-2.61045E-05-5.76088E-19 9.05055E-18
 -1      1121 9.74671E-05-2.88657E-05-3.15808E-05-6.79906E-07-1.95135E-19 7.71552E-18
 -1      1122 9.01732E-05-2.70306E-05-2.78973E-05 3.87137E-07-5.66850E-20 5.82838E-18
 -1      1123 8.82652E-05-2.65772E-05-2.66487E-05 2.50923E-07-4.37281E-20 4.51649E-18
 -1      1124 8.79102E-05-2.64515E-05-2.63933E-05 1.66035E-07-2.39982E-20 3.51159E-18
 -1      1125 8.82732E-05-2.65293E-05-2.64793E-05 1.18216E-07-1.00843E-19 2.92139E-18
 -1      1126 8.89636E-05-2.67150E-05-2.66833E-05 8.76631E-08-3.55526E-20 2.61641E-18
 -1      1127 8.97827E-05-2.69481E-05-2.69271E-05 6.64970E-08-1.55723E-20 2.01733E-18
 -1      1128 9.06201E-05-2.71921E-05-2.71768E-05 5.08609E-08 6.70604E-20 1.81536E-18
 -1      1129 9.14136E-05-2.74259E-05-2.74140E-05 3.88427E-08 6.34695E-20 1.80775E-18
 -1      1130 9.21297E-05-2.76383E-05-2.76287E-05 2.94226E-08-3.18664E-20 6.57281E-19
 -1      1131 9.27532E-05-2.78239E-05-2.78163E-05 2.19894E-08-5.94164E-21 2.57875E-19
 -1      1132 9.32805E-05-2.79814E-05-2.79753E-05 1.61281E-08-1.55272E-20-5.72326E-19
 -1      1133 9.37152E-05-2.81116E-05-2.81068E-05 1.15276E-08-1.40142E-20 9.19593E-20
 -1      1134 9.40652E-05-2.82167E-05-2.82129E-05 7.93880E-09-1.32213E-19 8.67894E-20
 -1      1135 9.43406E-05-2.82996E-05-2.82966E-05 5.15568E-09-4.20936E-20-4.59528E-19
 -1      1136 9.45523E-05-2.83635E-05-2.83611E-05 3.00691E-09 1.30268E-19-1.74098E-19
 -1      1137 9.47116E-05-2.84117E-05-2.84099E-05 1.35145E-09 9.36430E-21 3.70225E-21
 -1      1138 9.48293E-05-2.84475E-05-2.84461E-05 7.64949E-11 5.66575E-20-9.12148E-19
 -1      1139 9.49161E-05-2.84740E-05-2.84730E-05-9.03486E-10-7.91255E-20-1.06836E-18
 -1      1140 9.49827E-05-2.84946E-05-2.84939E-05-1.64675E-09-8.77465E-20-1.80415E-18
 -1      1141 9.50401E-05-2.85125E-05-2.85120E-05-2.18325E-09-9.99315E-20-8.42852E-20
 -1      1142 9.51001E-05-2.85312E-05-2.85311E-05-2.51227E-09-1.33009E-19 8.65533E-19
 -1      1143 9.51761E-05-2.85549E-05-2.85552E-05-2.59848E-09-2.90101E-19 6.22331E-19
 -1      1144 9.52840E-05-2.85882E-05-2.85890E-05-2.36607E-09-4.69405E-20 1.67959E-19
 -1      1145 9.54428E-05-2.86371E-05-2.86386E-05-1.69070E-09-2.10845E-19 1.48853E-19
 -1      1146 9.56757E-05-2.87083E-05-2.87108E-05-3.89021E-10 2.58312E-20-1.80976E-18
 -1      1147 9.60112E-05-2.88106E-05-2.88144E-05 1.79389E-09 5.25543E-20-2.82953E-18
 -1      1148 9.64836E-05-2.89540E-05-2.89596E-05 5.19822E-09 7.42477E-20-1.41921E-18
 -1      1149 9.71334E-05-2.91508E-05-2.91587E-05 1.02615E-08-4.31486E-20 1.29019E-18
 -1      1150 9.80072E-05-2.94148E-05-2.94256E-05 1.75219E-08-2.46659E-19 1.13752E-18
 -1      1151 9.91555E-05-2.97607E-05-2.97751E-05 2.75992E-08-8.66472E-20-7.64580E-20
 -1      1152 1.00629E-04-3.02034E-05-3.02217E-05 4.11214E-08-6.01178E-20-3.81681E-19
 -1      1153 1.02469E-04-3.07547E-05-3.07767E-05 5.85412E-08 2.26265E-19 3.26452E-19
 -1      1154 1.04694E-04-3.14190E-05-3.14430E-05 7.97372E-08 1.57867E-19 7.07934E-19
 -1      1155 1.07272E-04-3.21852E-05-3.22073E-05 1.03234E-07 6.82052E-21 1.24650E-18
 -1      1156 1.10079E-04-3.30153E-05-3.30265E-05 1.24832E-07-1.16768E-19-1.39385E-18
 -1      1157 1.12843E-04-3.38262E-05-3.38113E-05 1.35534E-07-1.95783E-19-2.33331E-19
 -1      1158 1.15072E-04-3.44702E-05-3.44068E-05 1.19169E-07-8.83429E-22 1.68377E-18
 -1      1159 1.15993E-04-3.47172E-05-3.45803E-05 5.14300E-08-2.20473E-19 2.19413E-18
 -1      1160 1.14562E-04-3.42601E-05-3.40365E-05-9.53748E-08-5.03627E-19 4.71083E-19
 -1      1161 1.09657E-04-3.27738E-05-3.24895E-05-3.34936E-07-5.18033E-19-7.08225E-19
 -1      1162 1.00580E-04-3.00656E-05-2.98136E-05-6.33365E-07-1.59368E-19-2.99225E-18
 -1      1163 8.78649E-05-2.63137E-05-2.62530E-05-8.74316E-07 1.63434E-20-2.23257E-18
 -1      1164 7.40724E-05-2.22855E-05-2.25765E-05-8.64016E-07-6.67766E-20-3.41788E-18
 -1      1165 6.37602E-05-1.93173E-05-1.99790E-05-4.30960E-07 2.07655E-19-3.08225E-18
 -1      1166 6.18199E-05-1.87982E-05-1.95986E-05 4.00260E-07 3.48686E-19-9.47671E-19
 -1      1167 7.02975E-05-2.12843E-05-2.17399E-05 1.25760E-06 1.25162E-19 9.78111E-19
 -1      1168 8.51631E-05-2.56000E-05-2.51717E-05 1.50995E-06 7.20855E-20-2.36301E-18
 -1      1169 9.44839E-05-2.82746E-05-2.78498E-05 8.72213E-08-4.07515E-19-1.01887E-18
 -1      1170 1.31060E-04-3.77397E-05-3.86613E-05 1.21743E-05-1.03338E-19 9.42832E-18
 -1      1171 9.65687E-05-2.81924E-05-3.13333E-05 8.01290E-07 6.13305E-20 7.17977E-18
 -1      1172 9.03873E-05-2.69334E-05-2.78781E-05 1.20118E-07 5.41307E-20 5.27602E-18
 -1      1173 8.83520E-05-2.65046E-05-2.66850E-05 9.00232E-09 1.16136E-21 3.95181E-18
 -1      1174 8.79506E-05-2.64141E-05-2.64204E-05-2.52885E-08 3.59857E-20 3.09781E-18
 -1      1175 8.82949E-05-2.65119E-05-2.64951E-05-3.43396E-08 8.69301E-20 1.94447E-18
 -1      1176 8.89766E-05-2.67082E-05-2.66935E-05-3.55520E-08 1.51994E-21 1.57899E-18
 -1      1177 8.97908E-05-2.69468E-05-2.69345E-05-3.38797E-08-5.35087E-20 1.74551E-18
 -1      1178 9.06253E-05-2.71937E-05-2.71824E-05-3.08912E-08-6.62583E-20 1.22166E-18
 -1      1179 9.14170E-05-2.74290E-05-2.74183E-05-2.72916E-08 9.64851E-20 3.83038E-19
 -1      1180 9.21319E-05-2.76420E-05-2.76320E-05-2.34979E-08 1.29231E-19-9.23428E-19
 -1      1181 9.27546E-05-2.78278E-05-2.78188E-05-1.97775E-08-2.83113E-21-1.87032E-18
 -1      1182 9.32814E-05-2.79852E-05-2.79772E-05-1.62943E-08 7.63027E-20-1.85998E-18
 -1      1183 9.37158E-05-2.81151E-05-2.81081E-05-1.31375E-08-1.20320E-19-1.74793E-18
 -1      1184 9.40655E-05-2.82197E-05-2.82138E-05-1.03416E-08 1.23878E-19-2.45051E-18
 -1      1185 9.43407E-05-2.83021E-05-2.82972E-05-7.90224E-09-3.01511E-20-2.87294E-18
 -1      1186 9.45523E-05-2.83656E-05-2.83615E-05-5.78796E-09-2.33428E-19-1.85859E-18
 -1      1187 9.47114E-05-2.84133E-05-2.84100E-05-3.94964E-09 2.74964E-19-2.30121E-18
 -1      1188 9.48289E-05-2.84487E-05-2.84461E-05-2.32738E-09 7.38147E-20-3.63854E-18
 -1      1189 9.49155E-05-2.84748E-05-2.84728E-05-8.56021E-10 5.79865E-20-2.87543E-18
 -1      1190 9.49817E-05-2.84950E-05-2.84934E-05 5.30819E-10-2.36463E-19-1.51352E-18
 -1      1191 9.50386E-05-2.85124E-05-2.85114E-05 1.89736E-09-2.10363E-19-5.10282E-19
 -1      1192 9.50979E-05-2.85306E-05-2.85301E-05 3.30241E-09 1.19191E-19-1.83338E-18
 -1      1193 9.51730E-05-2.85538E-05-2.85539E-05 4.79553E-09 1.53495E-19-3.36340E-18
 -1      1194 9.52799E-05-2.85866E-05-2.85875E-05 6.41165E-09 1.39772E-19-3.44525E-18
 -1      1195 9.54377E-05-2.86349E-05-2.86367E-05 8.16313E-09 2.39584E-19-1.82271E-18
 -1      1196 9.56701E-05-2.87059E-05-2.87089E-05 1.00275E-08-3.27611E-19-9.37759E-19
 -1      1197 9.60064E-05-2.88082E-05-2.88130E-05 1.19286E-08-6.41671E-20-6.80128E-19
 -1      1198 9.64825E-05-2.89527E-05-2.89598E-05 1.37066E-08-3.25749E-19-1.05224E-19
 -1      1199 9.71419E-05-2.91524E-05-2.91626E-05 1.50723E-08 1.70359E-19-1.54106E-18
 -1      1200 9.80361E-05-2.94227E-05-2.94369E-05 1.55366E-08 9.97667E-20-4.61800E-18
 -1      1201 9.92243E-05-2.97809E-05-2.98003E-05 1.43045E-08 1.49762E-19-4.44357E-18
 -1      1202 1.00770E-04-3.02458E-05-3.02717E-05 1.01258E-08-2.16348E-19-1.60783E-18
 -1      1203 1.02735E-04-3.08350E-05-3.08686E-05 1.10558E-09-1.66576E-19-6.94150E-19
 -1      1204 1.05167E-04-3.15614E-05-3.16031E-05-1.54776E-08-1.62515E-19-2.34902E-18
 -1      1205 1.08072E-04-3.24251E-05-3.24732E-05-4.31852E-08 7.56473E-20-4.43647E-18
 -1      1206 1.11374E-04-3.34009E-05-3.34487E-05-8.58616E-08 1.12260E-19-4.81369E-18
 -1      1207 1.14843E-04-3.44181E-05-3.44496E-05-1.45679E-07-1.26010E-19-2.68774E-18
 -1      1208 1.18002E-04-3.53331E-05-3.53177E-05-2.18465E-07-9.55526E-20-2.85882E-18
 -1      1209 1.20007E-04-3.58996E-05-3.57889E-05-2.85203E-07 1.34258E-19-3.72655E-18
 -1      1210 1.19593E-04-3.57534E-05-3.54909E-05-3.01726E-07-3.32262E-20-2.52360E-18
 -1      1211 1.15200E-04-3.44528E-05-3.40084E-05-1.97259E-07-2.02421E-19-5.77518E-19
 -1      1212 1.05516E-04-3.16276E-05-3.10640E-05 9.65751E-08 7.34272E-20 2.24146E-19
 -1      1213 9.05613E-05-2.72757E-05-2.68133E-05 5.69403E-07-2.80993E-19-7.55977E-19
 -1      1214 7.29807E-05-2.21203E-05-2.21166E-05 1.04526E-06 9.99400E-20 8.79008E-19
 -1      1215 5.84507E-05-1.77572E-05-1.85051E-05 1.18351E-06 3.40309E-19-5.95782E-19
 -1      1216 5.38397E-05-1.61865E-05-1.75783E-05 6.64057E-07-6.21775E-20 1.09108E-18
 -1      1217 6.28795E-05-1.85917E-05-1.99265E-05-5.25619E-07-1.14204E-19 2.39287E-18
 -1      1218 8.13706E-05-2.38213E-05-2.41643E-05-1.77487E-06 3.24295E-19 2.80156E-18
 -1      1219 9.41374E-05-2.83390E-05-2.74123E-05-3.09463E-07 1.26896E-19 1.75071E-18
 -1      1220 9.52314E-05-3.00893E-05-2.68601E-05-5.97366E-07 1.64298E-18 2.64526E-19
 -1      1221 1.00390E-04-4.60348E-05-2.17214E-05-2.09636E-06 5.46760E-18-1.01386E-19
 -1      1222 1.09570E-04-7.69346E-05-1.31661E-05-3.47910E-06 5.55696E-18-6.02250E-19
 -1      1223 1.21496E-04-1.16308E-04-3.63047E-06-5.07432E-06 3.63335E-18-2.06411E-19
 -1      1224 1.32040E-04-1.49157E-04 8.50304E-07-4.29140E-06-5.66453E-18 6.19922E-20
 -1      1225 1.30651E-04-1.46098E-04-5.02063E-06 2.43440E-06-1.18216E-17 2.95614E-19
 -1      1226 1.11131E-04-8.43026E-05-2.24282E-05 1.17265E-05-1.11995E-17-1.28024E-18
 -1      1227 6.13017E-05 6.63311E-05-4.80743E-05 2.32604E-05-2.43759E-17-9.08443E-19
 -1      1228 2.19180E-06 2.42210E-04-7.07213E-05 1.64215E-05-3.33409E-17 9.80229E-19
 -1      1229-1.36889E-05 2.94953E-04-7.67747E-05-4.17230E-06-1.09174E-17 3.05059E-18
 -1      1230 2.16808E-05 1.84134E-04-6.36368E-05-1.77197E-05 2.06303E-17 1.87173E-18
 -1      1231 8.24713E-05 7.34543E-06-3.90775E-05-1.46020E-05 2.51061E-17-2.26793E-18
 -1      1232 1.22395E-04-1.13017E-04-1.52730E-05-5.85796E-06 6.20028E-18-1.98743E-18
 -1      1233 1.36312E-04-1.55519E-04-5.68390E-07-1.97118E-07-3.04487E-18 2.93497E-19
 -1      1234 1.28610E-04-1.35800E-04 3.32813E-07 1.88667E-06-2.14681E-18-6.81385E-19
 -1      1235 1.16216E-04-9.83907E-05-7.43581E-06 1.78577E-06-6.51792E-19 8.22370E-19
 -1      1236 1.05979E-04-6.47377E-05-1.66089E-05 1.86953E-06-5.83606E-19-5.20872E-19
 -1      1237 9.92389E-05-4.11286E-05-2.35088E-05 1.94425E-06 4.58075E-18 5.90739E-19
 -1      1238 9.52345E-05-2.97566E-05-2.74657E-05 6.39110E-07 2.92187E-18-1.69069E-19
 -1      1239 8.56894E-05-2.31437E-04 6.39086E-06-2.21226E-05 2.69577E-17 5.41911E-18
 -1      1240 3.73540E-05-7.55492E-05-1.23901E-05-8.55042E-06 3.13097E-17 1.04414E-17
 -1      1241 2.61623E-05 7.22825E-05-4.11160E-05 8.70087E-05 1.43013E-17 8.21453E-18
 -1      1242 9.58730E-05 1.07627E-04-7.02889E-05 1.92170E-04 6.74069E-18 6.18673E-18
 -1      1243 2.19182E-04 4.82480E-05-9.37026E-05 2.34696E-04 3.77438E-18 5.17029E-18
 -1      1244 3.39061E-04-4.14200E-05-1.07644E-04 2.02276E-04 8.35810E-19 2.22177E-18
 -1      1245 4.08951E-04-1.07823E-04-1.11225E-04 1.09764E-04-2.95191E-19-4.07846E-18
 -1      1246 4.02004E-04-1.21068E-04-1.04919E-04-5.56908E-06 2.12579E-19-1.12359E-17
 -1      1247 3.21098E-04-8.15212E-05-9.02099E-05-9.31803E-05 1.98079E-18-7.28618E-18
 -1      1248 1.97684E-04-2.07776E-05-6.83397E-05-1.18917E-04 5.08559E-18-8.73122E-18
 -1      1249 8.31979E-05 1.90648E-05-4.23618E-05-8.74006E-05 8.82100E-18-9.64940E-18
 -1      1250 1.87380E-05 8.80145E-06-1.66021E-05-2.38004E-05 1.42318E-17-1.18127E-17
 -1      1251 9.19017E-06-4.51776E-05 5.37914E-06 2.66544E-05 1.56227E-17-8.60840E-18
 -1      1252 2.88125E-05-1.08500E-04 2.07474E-05 3.67156E-05 1.17407E-17-3.87835E-18
 -1      1253 4.75029E-05-1.48607E-04 2.81005E-05 1.20880E-05 4.00287E-18-1.99005E-18
 -1      1254 4.15523E-05-1.36540E-04 2.61737E-05-2.36562E-05-4.80225E-18-8.62994E-19
 -1      1255 2.00359E-05-8.40510E-05 1.52942E-05-3.72951E-05-9.12678E-18-3.09379E-18
 -1      1256 7.93968E-06-1.93991E-05-2.71808E-06-9.64860E-06-7.47083E-18-3.64732E-18
 -1      1257 3.85992E-05 1.86225E-05-2.66736E-05 5.04713E-05-7.39121E-18-7.28279E-18
 -1      1258 1.23927E-04 8.12972E-06-5.29098E-05 1.06986E-04-4.42066E-18-7.15912E-18
 -1      1259 2.42376E-04-4.23411E-05-7.64626E-05 1.18228E-04-1.95495E-18-4.94837E-18
 -1      1260 3.51072E-04-9.73302E-05-9.55014E-05 6.67584E-05-1.11702E-18-8.23485E-18
 -1      1261 4.12253E-04-1.22645E-04-1.07590E-04-3.14202E-05-7.98964E-19-4.88060E-18
 -1      1262 3.93551E-04-9.15225E-05-1.11172E-04-1.36880E-04 1.67670E-18-5.07225E-18
 -1      1263 3.18997E-04-2.50962E-05-1.05626E-04-2.14054E-04-3.49825E-19-2.60293E-18
 -1      1264 1.99286E-04 6.24966E-05-9.09058E-05-2.36452E-04-3.69984E-18 4.29276E-18
 -1      1265 8.44202E-05 1.11259E-04-6.77886E-05-1.84735E-04-1.57311E-17 1.27292E-17
 -1      1266 2.44583E-05 6.11907E-05-3.80085E-05-7.67370E-05-2.65630E-17 1.39760E-17
 -1      1267 4.19504E-05-9.02741E-05-9.86209E-06 1.55963E-05-3.26684E-17 1.13765E-17
 -1      1268 9.16946E-05-2.39742E-04 6.80352E-06 2.09977E-05-3.33053E-18 3.96750E-18
 -1      1269 1.04450E-04-2.20212E-05-3.78944E-05-1.72733E-05-2.07523E-19 5.17135E-18
 -1      1270 9.03248E-05-6.68233E-06-3.60188E-05-2.04674E-05-6.96473E-19 4.47710E-19
 -1      1271 9.26623E-05-6.74139E-06-3.72241E-05-2.57560E-05-8.60585E-19 1.58872E-18
 -1      1272 8.59076E-05-4.09725E-06-3.51309E-05-1.64284E-05-7.20322E-19-1.23402E-18
 -1      1273 8.71605E-05-4.08997E-06-3.56006E-05-1.88493E-05-8.22257E-19-4.87785E-19
 -1      1274 9.21389E-05-1.04644E-05-3.50949E-05-1.90309E-05-1.24773E-18 3.58454E-19
 -1      1275 8.40964E-05-3.19036E-06-3.46870E-05-1.28112E-05-6.46829E-19-2.12460E-18
 -1      1276 8.47095E-05-3.16096E-06-3.49118E-05-1.46260E-05-7.07167E-19-1.72347E-18
 -1      1277 8.78691E-05-7.39558E-06-3.45744E-05-1.54069E-05-1.18123E-18-1.04402E-18
 -1      1278 8.31826E-05-2.72685E-06-3.44696E-05-9.68225E-06-5.31533E-19-2.59208E-18
 -1      1279 8.34970E-05-2.70853E-06-3.45792E-05-1.12292E-05-5.68094E-19-2.38147E-18
 -1      1280 8.58657E-05-5.98155E-06-3.43053E-05-1.19503E-05-9.84107E-19-1.79952E-18
 -1      1281 8.26892E-05-2.45640E-06-3.43622E-05-6.91141E-06-3.74524E-19-2.81420E-18
 -1      1282 8.28595E-05-2.44804E-06-3.44171E-05-8.28202E-06-4.36851E-19-2.69735E-18
 -1      1283 8.48174E-05-5.21533E-06-3.41720E-05-8.94065E-06-7.98970E-19-2.16060E-18
 -1      1284 8.24119E-05-2.29054E-06-3.43088E-05-4.29236E-06-2.92815E-19-2.87548E-18
 -1      1285 8.25038E-05-2.28665E-06-3.43363E-05-5.59304E-06-3.20913E-19-2.86227E-18
 -1      1286 8.42292E-05-4.75960E-06-3.41078E-05-6.21342E-06-5.68338E-19-2.37137E-18
 -1      1287 8.22783E-05-2.20087E-06-3.42861E-05-1.78880E-06-1.16756E-19-2.84008E-18
 -1      1288 8.23177E-05-2.19931E-06-3.42973E-05-3.03916E-06-1.79584E-19-2.82257E-18
 -1      1289 8.39048E-05-4.49530E-06-3.40783E-05-3.64255E-06-4.26842E-19-2.37855E-18
 -1      1290 8.22520E-05-2.17327E-06-3.42833E-05 6.69490E-07 5.95735E-21-2.87552E-18
 -1      1291 8.22506E-05-2.17331E-06-3.42830E-05-5.65657E-07-2.97206E-20-2.88126E-18
 -1      1292 8.37624E-05-4.37534E-06-3.40672E-05-1.16980E-06-9.49184E-20-2.43167E-18
 -1      1293 8.23262E-05-2.20359E-06-3.42988E-05 3.14660E-06 1.11914E-19-2.81996E-18
 -1      1294 8.22840E-05-2.20522E-06-3.42869E-05 1.89366E-06 7.52999E-20-2.84665E-18
 -1      1295 8.37673E-05-4.37953E-06-3.40675E-05 1.27305E-06 5.79572E-20-2.40106E-18
 -1      1296 8.25209E-05-2.29684E-06-3.43390E-05 5.70961E-06 2.49236E-19-2.80349E-18
 -1      1297 8.24255E-05-2.30019E-06-3.43107E-05 4.40303E-06 2.25427E-19-2.83379E-18
 -1      1298 8.39202E-05-4.50872E-06-3.40794E-05 3.75007E-06 2.85992E-19-2.39324E-18
 -1      1299 8.28825E-05-2.46288E-06-3.44199E-05 8.39033E-06 4.00355E-19-2.65431E-18
 -1      1300 8.27087E-05-2.47154E-06-3.43646E-05 7.01101E-06 3.39852E-19-2.73642E-18
 -1      1301 8.42545E-05-4.78231E-06-3.41091E-05 6.30739E-06 4.83667E-19-2.31195E-18
 -1      1302 8.35432E-05-2.74062E-06-3.45843E-05 1.13900E-05 5.63012E-19-2.36410E-18
 -1      1303 8.32206E-05-2.75769E-06-3.44730E-05 9.82524E-06 4.73836E-19-2.55187E-18
 -1      1304 8.48598E-05-5.25618E-06-3.41730E-05 9.04954E-06 7.30235E-19-2.16647E-18
 -1      1305 8.47670E-05-3.20336E-06-3.49198E-05 1.48386E-05 7.38851E-19-1.79862E-18
 -1      1306 8.41534E-05-3.24004E-06-3.46926E-05 1.29982E-05 6.63386E-19-2.13357E-18
 -1      1307 8.59460E-05-6.06218E-06-3.43066E-05 1.21175E-05 9.84477E-19-1.82520E-18
 -1      1308 8.72601E-05-4.09113E-06-3.56223E-05 1.90865E-05 8.53227E-19-6.13887E-19
 -1      1309 8.59756E-05-4.15491E-06-3.51387E-05 1.66881E-05 7.41551E-19-1.32328E-18
 -1      1310 8.79941E-05-7.51767E-06-3.45768E-05 1.56453E-05 1.20297E-18-1.05869E-18
 -1      1311 9.34752E-05-6.79404E-06-3.71196E-05 2.50928E-05 8.08599E-19 1.63615E-18
 -1      1312 9.01407E-05-6.43939E-06-3.60416E-05 2.11447E-05 7.73870E-19 2.65651E-19
 -1      1313 9.23692E-05-1.06999E-05-3.50804E-05 1.96718E-05 1.33167E-18 2.36110E-19
 -1      1314 1.23635E-04-2.49258E-05-3.90179E-05 2.83649E-05 4.13881E-19 6.03172E-18
 -1      1315 1.00091E-04-1.44264E-05-3.73572E-05 2.40476E-05 4.26375E-19 2.92777E-18
 -1      1316 1.01690E-04-1.93455E-05-3.54055E-05 2.13948E-05 1.36550E-18 2.25057E-18
 -1      1317 1.02616E-04-2.78088E-05-3.47612E-05 7.32703E-06 7.06002E-19 5.69799E-18
 -1      1318 1.05160E-04-3.02344E-05-3.35290E-05-7.95740E-06-6.33157E-19 5.37845E-18
 -1      1319 9.82752E-05-2.78475E-05-3.07663E-05-4.98656E-06-6.16164E-19 4.64772E-18
 -1      1320 9.55183E-05-2.78538E-05-2.92592E-05-2.48786E-06-4.80612E-19 4.30294E-18
 -1      1321 9.32879E-05-2.75634E-05-2.82205E-05-2.04122E-06-4.77144E-19 3.62527E-18
 -1      1322 9.94986E-05-2.80562E-05-3.09869E-05-7.88336E-06-1.07631E-18 2.60637E-18
 -1      1323 9.15997E-05-2.72058E-05-2.75867E-05-8.36130E-07-3.93685E-19 3.32818E-18
 -1      1324 9.08851E-05-2.71111E-05-2.72850E-05-7.25833E-07-3.22859E-19 2.79926E-18
 -1      1325 9.47344E-05-2.77748E-05-2.88215E-05-3.11679E-06-8.02617E-19 2.04962E-18
 -1      1326 9.01368E-05-2.69289E-05-2.70423E-05-1.71454E-07-2.01849E-19 2.41283E-18
 -1      1327 9.00666E-05-2.69565E-05-2.70081E-05-1.13388E-07-3.08227E-19 2.05157E-18
 -1      1328 9.25382E-05-2.75051E-05-2.79015E-05-1.04869E-06-5.96199E-19 1.49632E-18
 -1      1329 8.98090E-05-2.68895E-05-2.69345E-05 1.56922E-07-1.57598E-19 1.94121E-18
 -1      1330 9.00260E-05-2.69804E-05-2.69968E-05 1.85642E-07-1.91132E-19 1.80718E-18
 -1      1331 9.15833E-05-2.73627E-05-2.75356E-05-6.51974E-08-4.15437E-19 1.10364E-18
 -1      1332 9.00318E-05-2.69841E-05-2.70040E-05 3.16867E-07-1.74686E-19 1.75233E-18
 -1      1333 9.03768E-05-2.71046E-05-2.71038E-05 3.28629E-07-1.36544E-19 1.57111E-18
 -1      1334 9.13338E-05-2.73517E-05-2.74288E-05 4.22337E-07-3.08664E-19 9.72582E-19
 -1      1335 9.05208E-05-2.71469E-05-2.71516E-05 3.83265E-07-6.83028E-20 1.58676E-18
 -1      1336 9.09112E-05-2.72760E-05-2.72644E-05 3.84968E-07-9.99292E-20 1.31427E-18
 -1      1337 9.14706E-05-2.74266E-05-2.74521E-05 6.50811E-07-2.23555E-19 9.05164E-19
 -1      1338 9.11213E-05-2.73369E-05-2.73315E-05 3.95500E-07-7.13969E-20 1.37405E-18
 -1      1339 9.15113E-05-2.74624E-05-2.74444E-05 3.91299E-07 1.47112E-20 1.32868E-18
 -1      1340 9.18072E-05-2.75467E-05-2.75422E-05 7.33295E-07-2.06028E-19 8.98001E-19
 -1      1341 9.17445E-05-2.75297E-05-2.75180E-05 3.76517E-07-6.88320E-20 1.32935E-18
 -1      1342 9.21085E-05-2.76448E-05-2.76239E-05 3.69077E-07-3.26466E-19 1.01915E-18
 -1      1343 9.22326E-05-2.76849E-05-2.76633E-05 7.31332E-07-1.03947E-19 7.69998E-19
 -1      1344 9.23393E-05-2.77112E-05-2.76963E-05 3.40584E-07-4.39876E-19 8.16533E-19
 -1      1345 9.26641E-05-2.78127E-05-2.77911E-05 3.31646E-07-3.03099E-19 4.28140E-19
 -1      1346 9.26801E-05-2.78245E-05-2.77940E-05 6.81610E-07-4.78300E-19 6.89970E-19
 -1      1347 9.28779E-05-2.78741E-05-2.78581E-05 2.96822E-07-2.98270E-19 9.40355E-20
 -1      1348 9.31582E-05-2.79609E-05-2.79402E-05 2.87515E-07-4.37715E-19-4.50046E-19
 -1      1349 9.31103E-05-2.79555E-05-2.79215E-05 6.07137E-07-6.43937E-19 1.58835E-19
 -1      1350 9.33476E-05-2.80152E-05-2.79994E-05 2.51054E-07-2.45376E-19-4.13855E-19
 -1      1351 9.35827E-05-2.80874E-05-2.80684E-05 2.42084E-07-8.02481E-20-4.94697E-19
 -1      1352 9.35014E-05-2.80727E-05-2.80386E-05 5.22597E-07-4.11797E-19-4.35748E-19
 -1      1353 9.37449E-05-2.81338E-05-2.81191E-05 2.06902E-07 2.19299E-19-4.17940E-19
 -1      1354 9.39372E-05-2.81924E-05-2.81757E-05 1.98685E-07 7.48900E-20-2.70448E-19
 -1      1355 9.38430E-05-2.81737E-05-2.81417E-05 4.37271E-07 1.51059E-19-5.46528E-19
 -1      1356 9.40724E-05-2.82310E-05-2.82179E-05 1.66496E-07-8.68337E-20-1.55196E-19
 -1      1357 9.42260E-05-2.82776E-05-2.82633E-05 1.59252E-07-3.42527E-19-4.35898E-19
 -1      1358 9.41323E-05-2.82583E-05-2.82295E-05 3.56828E-07 2.75699E-21-5.09347E-19
 -1      1359 9.43359E-05-2.83089E-05-2.82975E-05 1.30978E-07-3.33830E-19-1.39061E-19
 -1      1360 9.44559E-05-2.83450E-05-2.83331E-05 1.24798E-07-9.15658E-20-3.26417E-19
 -1      1361 9.43708E-05-2.83274E-05-2.83024E-05 2.84512E-07-2.91587E-19-2.64151E-19
 -1      1362 9.45434E-05-2.83699E-05-2.83603E-05 1.00856E-07 3.37488E-19-3.64102E-19
 -1      1363 9.46352E-05-2.83972E-05-2.83876E-05 9.57572E-08 1.14211E-19-1.96088E-19
 -1      1364 9.45631E-05-2.83824E-05-2.83615E-05 2.21990E-07-1.78071E-21-2.19115E-20
 -1      1365 9.47038E-05-2.84167E-05-2.84090E-05 7.62817E-08-7.26046E-20 7.90987E-20
 -1      1366 9.47726E-05-2.84369E-05-2.84295E-05 7.22448E-08-1.09859E-19-8.16422E-20
 -1      1367 9.47154E-05-2.84256E-05-2.84086E-05 1.69967E-07 2.64813E-19-1.43818E-20
 -1      1368 9.48261E-05-2.84521E-05-2.84462E-05 5.72483E-08-1.90044E-19-4.72931E-19
 -1      1369 9.48772E-05-2.84669E-05-2.84615E-05 5.42496E-08-2.25753E-19-8.88020E-19
 -1      1370 9.48348E-05-2.84589E-05-2.84458E-05 1.28650E-07-2.81737E-19-3.58222E-19
 -1      1371 9.49197E-05-2.84788E-05-2.84747E-05 4.37496E-08-8.29970E-20-1.00849E-18
 -1      1372 9.49584E-05-2.84898E-05-2.84864E-05 4.17840E-08-4.70304E-19-1.51874E-18
 -1      1373 9.49287E-05-2.84846E-05-2.84753E-05 9.80987E-08-4.65861E-19-1.08361E-18
 -1      1374 9.49940E-05-2.84998E-05-2.84975E-05 3.59018E-08 8.64944E-20-1.61524E-18
 -1      1375 9.50256E-05-2.85084E-05-2.85072E-05 3.50017E-08 1.06168E-19-1.30986E-18
 -1      1376 9.50053E-05-2.85050E-05-2.84997E-05 7.84970E-08-3.68050E-19-1.21072E-18
 -1      1377 9.50589E-05-2.85177E-05-2.85175E-05 3.40403E-08 1.70635E-19-9.30167E-19
 -1      1378 9.50889E-05-2.85259E-05-2.85267E-05 3.42915E-08 3.97380E-19-3.32069E-19
 -1      1379 9.50729E-05-2.85227E-05-2.85215E-05 7.03672E-08 5.16074E-19-1.53504E-18
 -1      1380 9.51248E-05-2.85358E-05-2.85379E-05 3.88010E-08 2.74754E-19-3.48628E-19
 -1      1381 9.51597E-05-2.85453E-05-2.85486E-05 4.03560E-08 9.17814E-21-2.43352E-20
 -1      1382 9.51409E-05-2.85402E-05-2.85435E-05 7.47431E-08 4.18646E-19-1.25958E-18
 -1      1383 9.52038E-05-2.85576E-05-2.85623E-05 5.11860E-08-6.36938E-20 5.72146E-19
 -1      1384 9.52506E-05-2.85704E-05-2.85767E-05 5.42752E-08 7.29555E-20 1.34117E-19
 -1      1385 9.52195E-05-2.85604E-05-2.85690E-05 9.33116E-08 4.30421E-19-1.79851E-19
 -1      1386 9.53097E-05-2.85869E-05-2.85950E-05 7.26162E-08 1.22493E-19 5.64965E-19
 -1      1387 9.53771E-05-2.86058E-05-2.86155E-05 7.75573E-08 8.76658E-20 5.89002E-19
 -1      1388 9.53208E-05-2.85868E-05-2.86017E-05 1.28525E-07 2.58286E-19 8.99711E-19
 -1      1389 9.54588E-05-2.86288E-05-2.86409E-05 1.04965E-07-2.53347E-19 7.30110E-19
 -1      1390 9.55573E-05-2.86568E-05-2.86707E-05 1.12168E-07-7.27313E-19 1.35980E-19
 -1      1391 9.54588E-05-2.86233E-05-2.86459E-05 1.83681E-07-7.93742E-21 1.14902E-18
 -1      1392 9.56711E-05-2.86889E-05-2.87061E-05 1.50562E-07-8.28056E-19-1.58508E-19
 -1      1393 9.58134E-05-2.87299E-05-2.87489E-05 1.60529E-07-3.26209E-19-1.13391E-18
 -1      1394 9.56504E-05-2.86748E-05-2.87067E-05 2.62947E-07-1.03593E-18 1.35884E-18
 -1      1395 9.59704E-05-2.87742E-05-2.87977E-05 2.12142E-07-8.82242E-20-1.40066E-18
 -1      1396 9.61717E-05-2.88329E-05-2.88581E-05 2.25453E-07-3.01623E-20-1.45132E-18
 -1      1397 9.59154E-05-2.87471E-05-2.87903E-05 3.71299E-07-7.96835E-19 1.77748E-19
 -1      1398 9.63849E-05-2.88933E-05-2.89244E-05 2.92710E-07 4.97167E-19-1.32636E-18
 -1      1399 9.66636E-05-2.89754E-05-2.90077E-05 3.09991E-07 3.87729E-19-5.24705E-19
 -1      1400 9.62775E-05-2.88470E-05-2.89038E-05 5.14316E-07 4.73320E-19-4.27957E-19
 -1      1401 9.69479E-05-2.90560E-05-2.90962E-05 3.95250E-07 1.94386E-19-3.32023E-19
 -1      1402 9.73252E-05-2.91680E-05-2.92086E-05 4.17105E-07 1.63947E-21 5.96577E-19
 -1      1403 9.67637E-05-2.89827E-05-2.90553E-05 6.97724E-07 5.99194E-19-1.06480E-19
 -1      1404 9.76967E-05-2.92738E-05-2.93242E-05 5.22189E-07-4.95213E-19 4.58523E-19
 -1      1405 9.81962E-05-2.94232E-05-2.94726E-05 5.49073E-07-5.53944E-19-9.75742E-20
 -1      1406 9.74044E-05-2.91635E-05-2.92538E-05 9.26535E-07-8.19885E-20-4.93979E-19
 -1      1407 9.86715E-05-2.95590E-05-2.96204E-05 6.74447E-07-1.79939E-19-3.80488E-19
 -1      1408 9.93176E-05-2.97538E-05-2.98118E-05 7.06442E-07-1.08520E-19-4.17435E-19
 -1      1409 9.82317E-05-2.93999E-05-2.95086E-05 1.20351E-06-8.91145E-19-1.72802E-19
 -1      1410 9.99117E-05-2.99244E-05-2.99964E-05 8.49847E-07-1.56216E-19-3.87842E-19
 -1      1411 1.00726E-04-3.01721E-05-3.02370E-05 8.86283E-07-6.48741E-20-6.67846E-19
 -1      1412 9.92770E-05-2.97024E-05-2.98282E-05 1.52659E-06-3.14623E-19-4.61316E-19
 -1      1413 1.01449E-04-3.03812E-05-3.04610E-05 1.04053E-06 1.83067E-19-6.85733E-19
 -1      1414 1.02446E-04-3.06875E-05-3.07544E-05 1.07936E-06 1.40435E-19-5.96073E-19
 -1      1415 1.00565E-04-3.00815E-05-3.02188E-05 1.88466E-06 1.61312E-19-1.88053E-19
 -1      1416 1.03297E-04-3.09363E-05-3.10169E-05 1.22896E-06 5.39682E-19-1.03814E-19
 -1      1417 1.04471E-04-3.13019E-05-3.13611E-05 1.26576E-06 5.78160E-19 4.61798E-19
 -1      1418 1.02107E-04-3.05451E-05-3.06811E-05 2.25098E-06 4.07908E-19-5.45961E-19
 -1      1419 1.05431E-04-3.15870E-05-3.16546E-05 1.38212E-06-3.42627E-19 8.06084E-19
 -1      1420 1.06744E-04-3.20032E-05-3.20368E-05 1.40867E-06-4.51979E-19 1.17784E-19
 -1      1421 1.03886E-04-3.10958E-05-3.12058E-05 2.57356E-06 3.09687E-19-4.02695E-19
 -1      1422 1.07760E-04-3.23135E-05-3.23431E-05 1.44403E-06-6.27443E-19-6.41654E-19
 -1      1423 1.09115E-04-3.27545E-05-3.27332E-05 1.44645E-06-2.86609E-19-6.68984E-19
 -1      1424 1.05837E-04-3.17259E-05-3.17673E-05 2.76224E-06-9.16314E-19-9.82310E-19
 -1      1425 1.10090E-04-3.30669E-05-3.30183E-05 1.32826E-06 5.07694E-19-6.98908E-19
 -1      1426 1.11301E-04-3.34795E-05-3.33599E-05 1.28526E-06 1.36733E-19-3.35981E-19
 -1      1427 1.07823E-04-3.24092E-05-3.23158E-05 2.67467E-06 1.46098E-19-1.15186E-18
 -1      1428 1.12072E-04-3.37526E-05-3.35691E-05 9.15813E-07-3.56813E-20 1.17800E-18
 -1      1429 1.12835E-04-3.40445E-05-3.37716E-05 7.98682E-07 7.02812E-19 1.28194E-18
 -1      1430 1.09596E-04-3.30886E-05-3.27686E-05 2.10840E-06 6.12560E-19 8.21787E-20
 -1      1431 1.13163E-04-3.42124E-05-3.38279E-05 7.00148E-08 4.34806E-19 1.61909E-18
 -1      1432 1.13042E-04-3.42429E-05-3.37655E-05-1.52180E-07-7.15379E-19 1.08974E-18
 -1      1433 1.10776E-04-3.36570E-05-3.30056E-05 8.16230E-07 6.81140E-19 1.15270E-18
 -1      1434 1.12623E-04-3.42105E-05-3.35773E-05-1.31209E-06-8.06594E-19 9.97527E-19
 -1      1435 1.11098E-04-3.37971E-05-3.31074E-05-1.65629E-06-1.02472E-18-2.83703E-19
 -1      1436 1.10830E-04-3.39345E-05-3.28775E-05-1.42461E-06-4.98770E-19 1.34993E-18
 -1      1437 1.09618E-04-3.34444E-05-3.25933E-05-3.19117E-06-6.24032E-19-2.95297E-19
 -1      1438 1.06250E-04-3.24077E-05-3.16074E-05-3.62807E-06-5.95305E-19-8.56006E-19
 -1      1439 1.09131E-04-3.36534E-05-3.22364E-05-4.65143E-06-1.20079E-18 8.21804E-19
 -1      1440 1.03508E-04-3.16209E-05-3.07416E-05-5.22865E-06-1.07937E-18-8.22734E-19
 -1      1441 9.82474E-05-2.98893E-05-2.92536E-05-5.64222E-06-3.74719E-19-2.15649E-18
 -1      1442 1.05118E-04-3.24876E-05-3.09991E-05-8.45470E-06-1.09543E-18 7.53323E-19
 -1      1443 9.43779E-05-2.86384E-05-2.81233E-05-6.67409E-06-8.33467E-21-1.98995E-18
 -1      1444 8.79502E-05-2.64049E-05-2.63633E-05-6.84897E-06 2.14064E-19-1.71672E-18
 -1      1445 9.86368E-05-3.01895E-05-2.92343E-05-1.17235E-05-1.37100E-19-3.55396E-19
 -1      1446 8.36319E-05-2.48604E-05-2.52019E-05-6.49204E-06 2.83385E-19-1.73626E-18
 -1      1447 7.77378E-05-2.27028E-05-2.36445E-05-6.18460E-06 2.71785E-19-1.87035E-18
 -1      1448 9.04109E-05-2.68655E-05-2.72301E-05-1.26911E-05 2.24705E-19 3.57898E-19
 -1      1449 7.42252E-05-2.13197E-05-2.27897E-05-3.90865E-06 6.27016E-19-1.34069E-18
 -1      1450 7.11579E-05-2.01187E-05-2.20167E-05-3.03360E-06 6.31807E-19-8.00969E-19
 -1      1451 8.23552E-05-2.32751E-05-2.54712E-05-9.64438E-06 7.57486E-19 1.17486E-18
 -1      1452 6.98594E-05-1.95278E-05-2.17612E-05 7.37368E-07 1.26287E-19-1.46336E-18
 -1      1453 7.13409E-05-2.00421E-05-2.21596E-05 1.91017E-06 5.69656E-19-7.82606E-19
 -1      1454 7.72607E-05-2.08564E-05-2.44644E-05-2.33441E-06 5.05679E-19-6.09698E-19
 -1      1455 7.29526E-05-2.06874E-05-2.25595E-05 5.48986E-06 3.52855E-19-1.50454E-18
 -1      1456 7.86151E-05-2.29709E-05-2.39471E-05 6.31916E-06-5.22183E-19-1.30210E-18
 -1      1457 7.74460E-05-2.10666E-05-2.44548E-05 6.74174E-06-3.81112E-19-1.66736E-18
 -1      1458 8.23743E-05-2.46716E-05-2.46887E-05 7.11239E-06-7.59398E-19-1.22470E-18
 -1      1459 8.90374E-05-2.75908E-05-2.62088E-05 7.11227E-06-5.11770E-19-1.75791E-18
 -1      1460 8.31128E-05-2.45701E-05-2.51961E-05 1.24877E-05-7.35807E-19-1.49062E-18
 -1      1461 9.41154E-05-3.02339E-05-2.67458E-05 1.97184E-06 1.82803E-18-1.73430E-18
 -1      1462 9.29994E-05-3.16565E-05-2.59872E-05 8.17281E-06 8.13522E-19-1.93773E-18
 -1      1463 9.65924E-05-2.83682E-05-2.97769E-05 2.99404E-06 6.02505E-19 4.38779E-18
 -1      1464 1.02549E-04-2.94024E-05-3.21597E-05 4.46105E-06 5.44219E-19 5.33345E-18
 -1      1465 1.02339E-04-2.67221E-05-3.27095E-05 1.27799E-05 1.09103E-18 3.36230E-18
 -1      1466 9.20491E-05-2.74348E-05-2.77673E-05 1.15030E-06 4.49325E-19 3.20123E-18
 -1      1467 9.39939E-05-2.75894E-05-2.86809E-05 1.47228E-06 4.06443E-19 3.92703E-18
 -1      1468 9.65021E-05-2.80349E-05-2.95383E-05 4.86449E-06 8.93699E-19 2.53415E-18
 -1      1469 9.02199E-05-2.70110E-05-2.70695E-05 3.29899E-07 2.08761E-19 2.41621E-18
 -1      1470 9.08329E-05-2.70279E-05-2.73415E-05 4.92864E-07 2.51463E-19 2.86779E-18
 -1      1471 9.30602E-05-2.75841E-05-2.81042E-05 1.84844E-06 6.45201E-19 1.82451E-18
 -1      1472 8.97063E-05-2.68940E-05-2.68949E-05-5.72499E-08 4.70136E-19 1.74293E-18
 -1      1473 8.97415E-05-2.68309E-05-2.69225E-05 3.19974E-08 2.78594E-19 2.17527E-18
 -1      1474 9.15100E-05-2.73138E-05-2.75214E-05 5.14044E-07 5.51723E-19 1.20432E-18
 -1      1475 8.98424E-05-2.69477E-05-2.69380E-05-2.44776E-07 2.02547E-19 1.08615E-18
 -1      1476 8.96115E-05-2.68393E-05-2.68722E-05-1.94409E-07 1.72161E-19 1.47843E-18
 -1      1477 9.09817E-05-2.72339E-05-2.73262E-05-1.36308E-07 5.22464E-19 9.09435E-19
 -1      1478 9.02995E-05-2.70914E-05-2.70776E-05-3.28120E-07 4.74024E-20 1.06922E-18
 -1      1479 8.99500E-05-2.69633E-05-2.69753E-05-3.00321E-07 1.01337E-19 1.12425E-18
 -1      1480 9.10028E-05-2.72780E-05-2.73164E-05-4.55439E-07 1.58253E-19 7.88717E-19
 -1      1481 9.08982E-05-2.72749E-05-2.72582E-05-3.52763E-07 1.33729E-19 9.16265E-19
 -1      1482 9.05079E-05-2.71437E-05-2.71440E-05-3.38932E-07-4.63800E-21 9.32398E-19
 -1      1483 9.13108E-05-2.73911E-05-2.73991E-05-5.95924E-07 1.43739E-19 4.65607E-19
 -1      1484 9.15359E-05-2.74685E-05-2.74502E-05-3.43603E-07 3.50704E-19 3.97364E-19
 -1      1485 9.11485E-05-2.73439E-05-2.73366E-05-3.38563E-07 2.75090E-19 7.89653E-19
 -1      1486 9.17548E-05-2.75359E-05-2.75260E-05-6.34492E-07 2.47316E-19 3.84450E-19
 -1      1487 9.21533E-05-2.76546E-05-2.76363E-05-3.15643E-07 3.02946E-19-3.50642E-19
 -1      1488 9.17930E-05-2.75422E-05-2.75302E-05-3.16052E-07 2.98092E-19 1.39979E-19
 -1      1489 9.22454E-05-2.76893E-05-2.76693E-05-6.14351E-07 6.12729E-19-1.90945E-19
 -1      1490 9.27178E-05-2.78241E-05-2.78066E-05-2.78352E-07 1.27195E-19-5.67889E-19
 -1      1491 9.23971E-05-2.77261E-05-2.77120E-05-2.81985E-07 2.21770E-19-3.10170E-19
 -1      1492 9.27298E-05-2.78373E-05-2.78125E-05-5.61804E-07 3.43727E-19-4.27608E-19
 -1      1493 9.32133E-05-2.79723E-05-2.79564E-05-2.37775E-07 3.05796E-19-1.19788E-18
 -1      1494 9.29373E-05-2.78893E-05-2.78747E-05-2.43139E-07 2.26146E-19-7.95380E-19
 -1      1495 9.31781E-05-2.79723E-05-2.79461E-05-4.93493E-07 4.46181E-19-1.43357E-19
 -1      1496 9.36349E-05-2.80980E-05-2.80839E-05-1.97701E-07 1.17029E-19-1.32432E-18
 -1      1497 9.34038E-05-2.80295E-05-2.80154E-05-2.03803E-07 5.52521E-20-1.43895E-18
 -1      1498 9.35750E-05-2.80905E-05-2.80651E-05-4.20016E-07 2.48547E-19-8.14623E-19
 -1      1499 9.39839E-05-2.82017E-05-2.81897E-05-1.60409E-07-1.69092E-20-1.43884E-18
 -1      1500 9.37952E-05-2.81466E-05-2.81336E-05-1.66601E-07-1.88754E-20-1.42877E-18
 -1      1501 9.39146E-05-2.81908E-05-2.81673E-05-3.47999E-07 1.13808E-19-1.13684E-18
 -1      1502 9.42659E-05-2.82854E-05-2.82753E-05-1.27156E-07 5.31501E-20-1.93115E-18
 -1      1503 9.41154E-05-2.82420E-05-2.82305E-05-1.33033E-07 1.23779E-19-1.49927E-18
 -1      1504 9.41973E-05-2.82736E-05-2.82528E-05-2.81399E-07 2.02857E-19-1.28115E-18
 -1      1505 9.44887E-05-2.83512E-05-2.83430E-05-9.85413E-08-4.27632E-19-1.39840E-18
 -1      1506 9.43714E-05-2.83178E-05-2.83080E-05-1.03861E-07-1.18289E-19-1.80373E-18
 -1      1507 9.44270E-05-2.83404E-05-2.83225E-05-2.22400E-07-1.10021E-19-1.00833E-18
 -1      1508 9.46610E-05-2.84020E-05-2.83955E-05-7.47628E-08 1.73258E-19-1.45473E-18
 -1      1509 9.45716E-05-2.83769E-05-2.83687E-05-7.93890E-08-1.99006E-20-1.62861E-18
 -1      1510 9.46096E-05-2.83930E-05-2.83782E-05-1.72048E-07-2.38054E-20-1.05396E-18
 -1      1511 9.47922E-05-2.84404E-05-2.84356E-05-5.58155E-08 5.64889E-19-2.06187E-18
 -1      1512 9.47253E-05-2.84220E-05-2.84154E-05-5.96699E-08 4.47349E-19-1.41919E-18
 -1      1513 9.47525E-05-2.84338E-05-2.84220E-05-1.30726E-07 5.24146E-19-1.42519E-18
 -1      1514 9.48914E-05-2.84694E-05-2.84660E-05-4.16425E-08-1.43617E-19-2.53145E-18
 -1      1515 9.48420E-05-2.84559E-05-2.84510E-05-4.46695E-08 3.12857E-20-2.59451E-18
 -1      1516 9.48636E-05-2.84652E-05-2.84561E-05-9.85075E-08 5.42405E-19-1.09411E-18
 -1      1517 9.49683E-05-2.84916E-05-2.84896E-05-3.22519E-08-3.39320E-19-2.01912E-18
 -1      1518 9.49310E-05-2.84816E-05-2.84782E-05-3.43881E-08-1.24074E-19-2.17067E-18
 -1      1519 9.49509E-05-2.84894E-05-2.84832E-05-7.54323E-08-1.84177E-19-1.52529E-18
 -1      1520 9.50326E-05-2.85100E-05-2.85095E-05-2.78101E-08-5.77435E-19-8.77679E-19
 -1      1521 9.50022E-05-2.85017E-05-2.85001E-05-2.89585E-08-5.84695E-19-1.69036E-18
 -1      1522 9.50230E-05-2.85091E-05-2.85058E-05-6.17160E-08-6.43601E-19-9.38323E-19
 -1      1523 9.50947E-05-2.85276E-05-2.85287E-05-2.87194E-08 1.47949E-19-7.81330E-19
 -1      1524 9.50655E-05-2.85194E-05-2.85196E-05-2.87264E-08 8.18785E-20-7.57093E-19
 -1      1525 9.50891E-05-2.85269E-05-2.85267E-05-5.79242E-08-3.17022E-19-1.05136E-18
 -1      1526 9.51662E-05-2.85480E-05-2.85509E-05-3.56855E-08 6.42612E-19-1.59709E-18
 -1      1527 9.51321E-05-2.85379E-05-2.85402E-05-3.43186E-08 3.70699E-19-8.81012E-19
 -1      1528 9.51593E-05-2.85457E-05-2.85490E-05-6.51161E-08 5.43660E-19-4.10868E-19
 -1      1529 9.52607E-05-2.85750E-05-2.85800E-05-4.97781E-08 1.76461E-19-2.87298E-18
 -1      1530 9.52143E-05-2.85607E-05-2.85656E-05-4.67040E-08 5.52459E-19-2.37300E-18
 -1      1531 9.52449E-05-2.85688E-05-2.85761E-05-8.49686E-08 1.00272E-18-1.38091E-18
 -1      1532 9.53943E-05-2.86134E-05-2.86210E-05-7.24838E-08-3.01348E-19-1.61367E-18
 -1      1533 9.53269E-05-2.85922E-05-2.86002E-05-6.72460E-08-5.26346E-19-2.43111E-18
 -1      1534 9.53594E-05-2.86000E-05-2.86122E-05-1.19886E-07-4.48217E-19-1.51041E-18
 -1      1535 9.55866E-05-2.86691E-05-2.86799E-05-1.05750E-07-2.47548E-19-7.31124E-19
 -1      1536 9.54876E-05-2.86375E-05-2.86495E-05-9.77462E-08 1.41518E-19-8.79698E-19
 -1      1537 9.55187E-05-2.86439E-05-2.86623E-05-1.73087E-07-4.11062E-19-9.17583E-19
 -1      1538 9.58614E-05-2.87490E-05-2.87638E-05-1.52007E-07-4.12035E-19 2.90226E-19
 -1      1539 9.57176E-05-2.87029E-05-2.87199E-05-1.40470E-07-4.69078E-19-3.69651E-19
 -1      1540 9.57423E-05-2.87063E-05-2.87321E-05-2.48670E-07-7.43015E-19 4.11449E-19
 -1      1541 9.62481E-05-2.88620E-05-2.88816E-05-2.14159E-07-9.73798E-21-9.19556E-21
 -1      1542 9.60433E-05-2.87962E-05-2.88193E-05-1.98139E-07 6.33604E-20-1.19395E-20
 -1      1543 9.60534E-05-2.87938E-05-2.88290E-05-3.51611E-07-3.62437E-20 2.34062E-19
 -1      1544 9.67818E-05-2.90184E-05-2.90438E-05-2.95494E-07 1.96122E-19-2.68456E-19
 -1      1545 9.64964E-05-2.89265E-05-2.89574E-05-2.73859E-07-2.08603E-19-2.93937E-19
 -1      1546 9.64800E-05-2.89148E-05-2.89612E-05-4.87666E-07-1.51994E-19 2.26101E-19
 -1      1547 9.75041E-05-2.92308E-05-2.92631E-05-3.99472E-07 4.71320E-19-1.04796E-18
 -1      1548 9.71145E-05-2.91053E-05-2.91455E-05-3.70936E-07 5.02475E-19-1.90888E-20
 -1      1549 9.70547E-05-2.90789E-05-2.91389E-05-6.63080E-07 4.41707E-19 5.74975E-19
 -1      1550 9.84627E-05-2.95136E-05-2.95536E-05-5.29268E-07 1.58169E-19-2.85429E-18
 -1      1551 9.79418E-05-2.93457E-05-2.93969E-05-4.92480E-07 4.84164E-19-1.93515E-18
 -1      1552 9.78152E-05-2.92974E-05-2.93732E-05-8.83953E-07 1.03442E-18-6.49302E-20
 -1      1553 9.97096E-05-2.98827E-05-2.99309E-05-6.86898E-07-5.40877E-19-1.67226E-18
 -1      1554 9.90273E-05-2.96626E-05-2.97262E-05-6.40640E-07-4.18854E-19-2.45431E-18
 -1      1555 9.88025E-05-2.95830E-05-2.96763E-05-1.15500E-06-1.49407E-19-1.38928E-18
 -1      1556 1.01297E-04-3.03543E-05-3.04101E-05-8.71602E-07 4.92702E-20-8.04364E-19
 -1      1557 1.00422E-04-3.00723E-05-3.01487E-05-8.15205E-07-3.52626E-19-1.72779E-18
 -1      1558 1.00058E-04-2.99492E-05-3.00604E-05-1.47727E-06-7.31648E-19-6.98868E-19
 -1      1559 1.03266E-04-3.09427E-05-3.10033E-05-1.07701E-06 6.30351E-19-1.77389E-18
 -1      1560 1.02174E-04-3.05903E-05-3.06780E-05-1.01114E-06 4.07997E-19-1.01938E-18
 -1      1561 1.01619E-04-3.04088E-05-3.05353E-05-1.84409E-06 2.46731E-19-1.29469E-18
 -1      1562 1.05637E-04-3.16557E-05-3.17142E-05-1.28637E-06-2.68964E-19-2.34893E-18
 -1      1563 1.04315E-04-3.12291E-05-3.13225E-05-1.21445E-06 1.54790E-19-1.96060E-18
 -1      1564 1.03507E-04-3.09720E-05-3.11055E-05-2.23425E-06 7.41748E-19-1.62567E-18
 -1      1565 1.08371E-04-3.24867E-05-3.25289E-05-1.46506E-06 3.91845E-19-3.16040E-18
 -1      1566 1.06839E-04-3.19924E-05-3.20782E-05-1.39564E-06 2.33264E-19-2.46540E-18
 -1      1567 1.05711E-04-3.16419E-05-3.17638E-05-2.60100E-06 5.27984E-19-1.69913E-18
 -1      1568 1.11333E-04-3.34016E-05-3.34017E-05-1.54991E-06-3.26443E-19-2.84387E-18
 -1      1569 1.09669E-04-3.28659E-05-3.29181E-05-1.50031E-06-2.49538E-19-3.74611E-18
 -1      1570 1.08160E-04-3.24081E-05-3.24822E-05-2.85599E-06-8.21201E-20-2.03208E-18
 -1      1571 1.14222E-04-3.43196E-05-3.42349E-05-1.43698E-06-2.84744E-19-1.56598E-18
 -1      1572 1.12604E-04-3.38020E-05-3.37751E-05-1.43791E-06-7.24719E-19-2.37455E-18
 -1      1573 1.10683E-04-3.32353E-05-3.31993E-05-2.84879E-06-1.00329E-18-1.98639E-18
 -1      1574 1.16491E-04-3.50859E-05-3.48561E-05-9.74521E-07-2.53273E-19-2.25374E-18
 -1      1575 1.15248E-04-3.46974E-05-3.45217E-05-1.07390E-06 4.12637E-19-1.78781E-18
 -1      1576 1.12957E-04-3.40468E-05-3.38050E-05-2.34938E-06 9.47750E-20-1.94194E-18
 -1      1577 1.17282E-04-3.54441E-05-3.50043E-05 2.06940E-08 3.22415E-19-1.43108E-18
 -1      1578 1.16934E-04-3.53629E-05-3.49503E-05-2.39496E-07-1.60744E-19-1.92836E-18
 -1      1579 1.14454E-04-3.47001E-05-3.41298E-05-1.05440E-06 9.16251E-20-8.40945E-19
 -1      1580 1.15450E-04-3.50274E-05-3.43518E-05 1.69033E-06-4.42376E-19-2.64036E-19
 -1      1581 1.16693E-04-3.54949E-05-3.47733E-05 1.21330E-06-2.57299E-19-1.29947E-18
 -1      1582 1.14420E-04-3.49588E-05-3.39518E-05 1.33856E-06-1.32878E-19 4.03340E-19
 -1      1583 1.09818E-04-3.34138E-05-3.25978E-05 3.96858E-06-4.09011E-19 1.48654E-19
 -1      1584 1.13354E-04-3.46775E-05-3.36718E-05 3.27710E-06-3.34604E-19-1.99900E-19
 -1      1585 1.11946E-04-3.44767E-05-3.30434E-05 4.92539E-06-6.37339E-19 1.03431E-19
 -1      1586 9.98054E-05-3.03132E-05-2.96603E-05 6.34441E-06-4.75907E-19 5.95994E-19
 -1      1587 1.05941E-04-3.24806E-05-3.14262E-05 5.57846E-06 2.03817E-21 8.60585E-19
 -1      1588 1.06255E-04-3.28467E-05-3.12768E-05 9.23600E-06-5.56249E-19 8.69585E-19
 -1      1589 8.63765E-05-2.59144E-05-2.59188E-05 7.72584E-06 1.25257E-19 1.19421E-18
 -1      1590 9.44275E-05-2.87270E-05-2.81299E-05 7.21302E-06-5.37628E-19 5.62218E-19
 -1      1591 9.72597E-05-2.97979E-05-2.87749E-05 1.28729E-05-5.80681E-19 1.68321E-18
 -1      1592 7.28090E-05-2.12455E-05-2.23313E-05 6.74628E-06 5.44351E-19-2.92332E-19
 -1      1593 8.06725E-05-2.39085E-05-2.43878E-05 6.91338E-06 2.91935E-19 4.41198E-19
 -1      1594 8.62942E-05-2.55839E-05-2.60261E-05 1.35972E-05 7.11269E-19 1.02364E-18
 -1      1595 6.42243E-05-1.81327E-05-2.02023E-05 2.70632E-06-6.49965E-19-1.03100E-19
 -1      1596 6.87472E-05-1.94649E-05-2.13051E-05 3.79708E-06 1.36452E-19 2.60569E-19
 -1      1597 7.64329E-05-2.13418E-05-2.38166E-05 9.41246E-06 2.26978E-19 2.41484E-19
 -1      1598 6.51303E-05-1.83873E-05-2.04973E-05-3.28150E-06 3.43975E-19 1.15673E-18
 -1      1599 6.37045E-05-1.74489E-05-2.00854E-05-1.55275E-06-8.90655E-19-2.56810E-19
 -1      1600 7.16196E-05-1.89836E-05-2.29014E-05 4.65574E-07-1.12110E-18 5.95663E-19
 -1      1601 7.56072E-05-2.22962E-05-2.29864E-05-8.00398E-06-5.54879E-19 1.44546E-18
 -1      1602 6.85736E-05-1.93577E-05-2.12646E-05-6.49982E-06-2.09932E-19 1.02607E-18
 -1      1603 7.43856E-05-2.02198E-05-2.34907E-05-9.42977E-06-7.34960E-19 9.03308E-19
 -1      1604 8.92098E-05-2.80027E-05-2.59529E-05-7.33017E-06 7.48757E-19 1.81286E-18
 -1      1605 8.12237E-05-2.49068E-05-2.40371E-05-7.24518E-06 4.33118E-19 1.73218E-18
 -1      1606 8.35167E-05-2.55512E-05-2.48351E-05-1.38019E-05 6.30140E-19 6.22305E-19
 -1      1607 9.36927E-05-3.10153E-05-2.60871E-05-2.76961E-06 1.23084E-18 1.15768E-18
 -1      1608 1.00137E-04-4.92244E-05-2.14521E-05-1.16832E-05 4.11827E-18-1.31290E-20
 -1      1609 9.61749E-05-3.79551E-05-2.45679E-05-1.02242E-05 2.48414E-18 1.15260E-18
 -1      1610 1.07383E-04-7.08904E-05-1.54430E-05-1.58598E-05 4.62099E-18 1.13777E-19
 -1      1611 1.01694E-04-5.46764E-05-1.97346E-05-1.49163E-05 3.78052E-18 1.45254E-18
 -1      1612 9.67770E-05-4.22253E-05-2.31626E-05-2.41726E-05 3.04762E-18 3.38310E-19
 -1      1613 1.16126E-04-9.26119E-05-1.06325E-05-1.62537E-05 1.88973E-18-1.13592E-18
 -1      1614 1.09158E-04-7.59091E-05-1.40745E-05-1.63235E-05 4.22373E-18-2.39456E-18
 -1      1615 1.01542E-04-5.20741E-05-2.13860E-05-2.85509E-05 3.51212E-18-1.11522E-18
 -1      1616 1.23875E-04-1.00914E-04-1.19159E-05-6.77758E-06-4.35253E-18-3.48978E-18
 -1      1617 1.18464E-04-9.42002E-05-1.13950E-05-1.03259E-05 4.29869E-20-2.79987E-18
 -1      1618 1.08411E-04-5.89765E-05-2.23065E-05-2.22015E-05 2.76794E-18-5.10549E-18
 -1      1619 1.26316E-04-8.57249E-05-2.07934E-05 1.95199E-05-6.67716E-18 4.07846E-19
 -1      1620 1.27540E-04-9.89689E-05-1.51420E-05 1.06237E-05-5.57064E-18-1.94034E-18
 -1      1621 1.19840E-04-6.04880E-05-2.75427E-05 3.77260E-06-1.73112E-19-5.02121E-18
 -1      1622 6.20386E-05 6.75314E-05-4.85023E-05 8.50391E-05-1.54440E-17-3.52450E-18
 -1      1623 9.91728E-05-1.21228E-05-3.74360E-05 8.04349E-05-9.27840E-18-4.35693E-18
 -1      1624 1.56260E-05 1.55732E-04-5.75383E-05-2.36223E-05 4.46386E-19 8.42120E-18
 -1      1625 7.18662E-06 1.71494E-04-5.89623E-05-5.10121E-06-1.18375E-17 8.61433E-18
 -1      1626 6.54076E-05 5.97153E-05-4.78002E-05-7.30563E-05 1.37050E-17 3.32037E-18
 -1      1627 2.75924E-05 1.38600E-04-5.67529E-05-6.57833E-05 4.48335E-18 7.43780E-18
 -1      1628 4.25867E-05 5.54205E-05-3.89679E-05-7.85665E-05-7.63494E-19 1.49840E-17
 -1      1629 1.06575E-04-3.64195E-05-3.27436E-05-6.15217E-05 9.87640E-18-5.56861E-18
 -1      1630 7.84814E-05 3.26510E-05-4.40742E-05-6.76236E-05 1.45165E-17-8.35810E-19
 -1      1631 8.84183E-05 6.55473E-06-3.91075E-05-1.23965E-04 9.39995E-19 2.15485E-18
 -1      1632 1.26912E-04-1.03396E-04-1.62561E-05-2.48807E-05 2.24464E-19-3.31328E-18
 -1      1633 1.15821E-04-6.45907E-05-2.59529E-05-3.43300E-05 9.65448E-18-5.96565E-18
 -1      1634 1.17203E-04-4.59164E-05-3.26934E-05-8.68300E-05 2.71643E-18-7.86883E-18
 -1      1635 1.25130E-04-1.18982E-04-6.19752E-06 3.81709E-06-1.13651E-18-1.79253E-19
 -1      1636 1.28518E-04-1.15320E-04-1.01693E-05-2.66181E-06-1.11597E-19-2.69356E-19
 -1      1637 1.21832E-04-8.09244E-05-2.08962E-05-2.33695E-05 1.79296E-18-3.20433E-18
 -1      1638 1.16013E-04-9.93329E-05-7.72855E-06 1.17789E-05-2.80664E-18-7.42107E-19
 -1      1639 1.24109E-04-1.14999E-04-5.41082E-06 1.00386E-05-9.77053E-19-1.35838E-18
 -1      1640 1.16144E-04-8.82763E-05-1.40835E-05 1.33766E-05-1.23497E-18-1.13418E-18
 -1      1641 1.07426E-04-7.29211E-05-1.43460E-05 1.10386E-05 5.32360E-19 1.48740E-18
 -1      1642 1.14322E-04-9.06210E-05-9.97114E-06 1.08103E-05-2.01382E-18 1.23309E-18
 -1      1643 1.08981E-04-7.52462E-05-1.48327E-05 2.15111E-05-1.13841E-18 1.30395E-18
 -1      1644 1.01282E-04-5.12724E-05-2.11086E-05 8.61398E-06 6.14522E-19 3.08985E-19
 -1      1645 1.05738E-04-6.44777E-05-1.71614E-05 8.30609E-06 8.62068E-19-4.80718E-19
 -1      1646 1.02827E-04-5.78834E-05-1.91289E-05 1.87469E-05 4.13140E-19-4.87390E-19
 -1      1647 9.56411E-05-3.59363E-05-2.54955E-05 8.97336E-06 2.27524E-18 3.50526E-19
 -1      1648 9.84617E-05-4.38242E-05-2.32073E-05 1.04060E-05 1.04439E-18 1.83624E-18
 -1      1649 9.74482E-05-4.13742E-05-2.34691E-05 1.65250E-05 1.46733E-18 1.24413E-18
 -1      1650 9.08485E-05-3.02604E-05-2.55437E-05 1.55842E-05-1.28430E-18-1.23534E-18
 -1      1651 4.57101E-05-8.32401E-05-8.59232E-06 2.08085E-05 1.69559E-17 9.33684E-18
 -1      1652 5.94677E-05-1.20888E-04-4.12282E-06 1.99730E-05 9.26612E-18 6.56281E-18
 -1      1653 4.77475E-05-1.27540E-05-2.44428E-05 7.14563E-05 1.72795E-17 4.69002E-18
 -1      1654 6.20323E-05-8.24981E-05-1.27782E-05 4.35259E-05 2.00340E-17 5.89191E-18
 -1      1655 8.29739E-05 3.87817E-05-4.79100E-05 1.29698E-04 8.19589E-18 2.48519E-18
 -1      1656 6.85998E-05-2.53354E-06-3.39458E-05 8.47204E-05 1.42674E-17 3.72356E-18
 -1      1657 1.44942E-04 4.67743E-05-7.23180E-05 1.67037E-04 4.59092E-18 4.10303E-18
 -1      1658 9.79950E-05 5.21809E-05-5.93807E-05 1.33971E-04 5.57686E-18 5.49894E-18
 -1      1659 2.27020E-04 7.77796E-06-9.09043E-05 1.66197E-04 2.41468E-18 3.17214E-18
 -1      1660 1.70561E-04 4.00128E-05-8.17185E-05 1.65085E-04 4.18265E-18 3.78963E-18
 -1      1661 3.00156E-04-4.09787E-05-1.02336E-04 1.31122E-04 1.46092E-18-3.37966E-19
 -1      1662 2.55413E-04-6.26150E-06-9.81080E-05 1.60158E-04 2.13241E-18 2.02780E-18
 -1      1663 3.37752E-04-7.66931E-05-1.04386E-04 6.38111E-05 1.17992E-18-6.50648E-18
 -1      1664 3.22208E-04-5.81138E-05-1.04982E-04 1.11793E-04 1.63986E-18-2.51331E-18
 -1      1665 3.17333E-04-7.82935E-05-9.66171E-05-1.38131E-05 2.38016E-19-8.21368E-18
 -1      1666 3.39309E-04-8.37965E-05-1.01945E-04 3.48208E-05-3.21873E-20-8.22638E-18
 -1      1667 2.49822E-04-5.24380E-05-8.11255E-05-6.06441E-05 2.15072E-18-7.45050E-18
 -1      1668 2.96777E-04-7.32029E-05-8.96682E-05-3.45396E-05 7.56586E-19-7.99938E-18
 -1      1669 1.65122E-04-2.60802E-05-5.87217E-05-6.64229E-05 4.24364E-18-7.88588E-18
 -1      1670 2.21278E-04-4.74532E-05-7.07247E-05-6.59723E-05 3.97936E-18-6.42390E-18
 -1      1671 8.79711E-05-1.00400E-05-3.51939E-05-5.34159E-05 8.41781E-18-7.82150E-18
 -1      1672 1.30916E-04-1.63781E-05-4.76131E-05-7.46625E-05 5.67173E-18-7.22519E-18
 -1      1673 4.77392E-05-3.04864E-05-1.15067E-05-1.95950E-05 1.03872E-17-8.09425E-18
 -1      1674 6.75955E-05-1.48986E-05-2.35026E-05-4.53780E-05 9.70530E-18-7.33361E-18
 -1      1675 2.94531E-05-6.13332E-05 7.54657E-06 4.47877E-06 9.97381E-18-6.00716E-18
 -1      1676 2.86803E-05-3.41850E-05-1.31593E-06-9.02023E-06 1.11173E-17-8.51480E-18
 -1      1677 3.03265E-05-9.25335E-05 1.98192E-05 5.92618E-06 6.48150E-18-3.72313E-18
 -1      1678 2.36896E-05-6.92341E-05 1.41476E-05 8.00574E-06 8.79728E-18-5.58301E-18
 -1      1679 3.08620E-05-1.06396E-04 2.50143E-05-2.74499E-06 1.24686E-18-3.21873E-18
 -1      1680 2.81857E-05-9.98023E-05 2.36811E-05 1.07884E-05 5.83690E-18-3.68205E-18
 -1      1681 2.53962E-05-8.75037E-05 2.04242E-05-1.01980E-05-3.65876E-18-2.59446E-18
 -1      1682 3.05373E-05-1.02090E-04 2.36384E-05-3.33397E-07-3.04932E-19-2.92036E-18
 -1      1683 2.28215E-05-5.50470E-05 8.88345E-06-4.95301E-06-6.15369E-18-2.66815E-18
 -1      1684 2.91313E-05-8.21391E-05 1.59122E-05-8.34637E-06-5.54552E-18-2.27201E-18
 -1      1685 3.97831E-05-2.32145E-05-9.70088E-06 2.39330E-05-6.22908E-18-4.24956E-18
 -1      1686 3.35009E-05-4.71059E-05 4.78031E-07 4.09934E-06-7.31413E-18-2.77361E-18
 -1      1687 9.44141E-05-1.68347E-05-3.30164E-05 5.74447E-05-5.03307E-18-5.15420E-18
 -1      1688 6.53754E-05-2.36735E-05-2.06859E-05 3.25679E-05-6.03172E-18-4.36053E-18
 -1      1689 1.66348E-04-2.59660E-05-5.72271E-05 7.86264E-05-3.67866E-18-4.68748E-18
 -1      1690 1.16930E-04-1.28689E-05-4.49448E-05 6.42114E-05-4.05051E-18-5.13810E-18
 -1      1691 2.49203E-04-5.55309E-05-7.82203E-05 6.59555E-05-1.52085E-18-5.14318E-18
 -1      1692 1.95996E-04-3.22946E-05-6.80417E-05 7.60841E-05-2.23024E-18-4.50452E-18
 -1      1693 3.10535E-04-7.75456E-05-9.38488E-05 1.06001E-05-4.51892E-19-5.00088E-18
 -1      1694 2.71136E-04-6.07413E-05-8.61091E-05 4.54918E-05-3.80318E-19-5.01782E-18
 -1      1695 3.34530E-04-7.72786E-05-1.03410E-04-5.95219E-05 3.73118E-19-4.90474E-18
 -1      1696 3.26351E-04-7.97077E-05-9.97395E-05-1.11853E-05-6.77626E-19-5.71239E-18
 -1      1697 2.93162E-04-3.94898E-05-1.02010E-04-1.20245E-04 1.17695E-18-4.68303E-18
 -1      1698 3.15194E-04-6.02350E-05-1.02600E-04-7.96630E-05 1.45097E-18-5.06843E-18
 -1      1699 2.41992E-04 3.05715E-06-9.61917E-05-1.61921E-04-2.18291E-18-1.23159E-18
 -1      1700 2.85004E-04-3.09000E-05-1.00819E-04-1.36429E-04-8.15481E-19-4.83232E-18
 -1      1701 2.33598E-04-3.11507E-06-9.25162E-05-8.44755E-05-1.07827E-18-3.75977E-18
 -1      1702 1.59316E-04 4.86003E-05-8.00107E-05-1.69937E-04-6.54248E-18 1.85331E-18
 -1      1703 2.13871E-04 1.93192E-05-8.91896E-05-1.75573E-04-1.67204E-18 4.69256E-19
 -1      1704 9.32361E-05 5.11147E-05-5.70650E-05-1.30713E-04-1.39032E-17 7.52843E-18
 -1      1705 1.36165E-04 5.05462E-05-7.00123E-05-1.65678E-04-9.95264E-18 3.01713E-18
 -1      1706 7.01512E-05-1.35268E-05-3.14382E-05-8.13123E-05-2.03559E-17 7.39544E-18
 -1      1707 8.07776E-05 3.28493E-05-4.56072E-05-1.26286E-04-1.54041E-17 7.01513E-18
 -1      1708 6.26776E-05-9.11374E-05-1.16538E-05-4.24793E-05-1.51805E-17 9.17612E-18
 -1      1709 4.56891E-05-1.94945E-05-2.22323E-05-6.71722E-05-1.95732E-17 9.23859E-18
 -1      1710 5.91650E-05-1.35225E-04-1.57984E-06-1.82175E-05 5.47099E-18 8.49574E-18
 -1      1711 4.73581E-05-9.97296E-05-5.66024E-06-8.93350E-06-1.05744E-17 1.15290E-17
 -1      1712 4.74610E-05-3.95218E-05-1.86226E-05-7.99761E-05-4.94328E-18 1.28461E-17
 -1      1713 2.65847E-05-3.02746E-05-1.66048E-05 4.36018E-06 1.62313E-18 1.46012E-17
 -1      1714 9.42036E-05-3.33712E-05-2.54510E-05-7.92576E-06 1.85177E-18 1.21418E-18
 -1      1715 9.19777E-05-3.27652E-05-2.49727E-05-1.66093E-05 1.00657E-18 1.58236E-18
 -1      1716 1.16695E-04-3.15265E-05-3.74612E-05 1.19604E-04-2.82533E-18-5.61064E-18
 -1      1717 1.07735E-04-3.12035E-05-3.39209E-05 5.64803E-05-1.04693E-17-3.58443E-18
 -1      1718 1.23484E-04-7.73523E-05-2.38902E-05 4.75594E-05-7.71054E-18-1.38289E-18
 -1      1719 1.28744E-04-5.72753E-05-3.30490E-05 5.76369E-05-3.57374E-18-1.57718E-18
 -1      1720 1.31332E-05 1.63967E-04-5.88014E-05 4.57402E-05-1.50619E-17 6.84996E-18
 -1      1721 4.15390E-05 1.05724E-04-5.23030E-05 5.90380E-05-1.98765E-17 2.20737E-18
 -1      1722 5.02828E-05-3.11363E-05-2.15308E-05 8.93208E-05 7.04308E-18 6.72205E-18
 -1      1723 1.00622E-04-3.44752E-05-3.27096E-05 1.24013E-04 9.35802E-18-2.66572E-18
 -1      1724 7.25295E-05 1.60631E-05-3.80493E-05 1.23160E-04-2.13071E-18-2.09048E-18
 -1      1725 1.38146E-04-1.25235E-05-5.09246E-05 1.25509E-04 5.08897E-18 9.04631E-19
 -1      1726 1.72781E-04 8.65786E-06-7.06090E-05 1.19874E-04 3.86332E-18 1.30274E-18
 -1      1727 2.15048E-04 4.16616E-06-8.62792E-05 1.06956E-04 3.04445E-18 1.48908E-18
 -1      1728 2.57555E-04-1.60899E-05-9.59724E-05 8.69361E-05 3.81038E-18-2.64380E-18
 -1      1729 2.77402E-04-3.64640E-05-9.63905E-05 4.81570E-05 2.92396E-18-5.69905E-18
 -1      1730 2.61009E-04-4.43286E-05-8.75020E-05 7.99767E-06 7.78847E-19-6.96092E-18
 -1      1731 2.18067E-04-4.56590E-05-7.09659E-05-1.49636E-05 2.96925E-18-7.34970E-18
 -1      1732 1.69526E-04-4.55906E-05-5.11659E-05-3.56014E-05 4.91576E-18-6.22908E-18
 -1      1733 1.14164E-04-4.73273E-05-2.91783E-05-4.01165E-05 7.30397E-18-4.59261E-18
 -1      1734 6.90340E-05-5.44124E-05-8.66707E-06-3.22677E-05 7.67242E-18-5.53134E-18
 -1      1735 3.61132E-05-6.29937E-05 7.45249E-06-1.99230E-05 5.48115E-18-5.50317E-18
 -1      1736 1.96454E-05-7.13097E-05 1.72834E-05-9.22605E-06 3.81292E-18-4.96361E-18
 -1      1737 1.53942E-05-7.31985E-05 1.96818E-05 3.32129E-06 1.83721E-18-5.30370E-18
 -1      1738 2.40989E-05-6.79222E-05 1.41591E-05 1.31259E-05-2.53390E-18-2.91549E-18
 -1      1739 4.66835E-05-5.87588E-05 1.76840E-06 2.50064E-05-4.80776E-18-2.58477E-18
 -1      1740 8.95369E-05-5.29606E-05-1.67594E-05 3.75480E-05-4.65868E-18-3.45039E-18
 -1      1741 1.37540E-04-4.89202E-05-3.79749E-05 3.83990E-05-3.91456E-18-3.35002E-18
 -1      1742 1.88299E-04-4.32601E-05-5.96654E-05 3.59580E-05-3.59481E-18-4.63581E-18
 -1      1743 2.34257E-04-4.33883E-05-7.75321E-05 1.38470E-05-1.38479E-18-4.42490E-18
 -1      1744 2.63314E-04-3.97546E-05-9.03221E-05-2.21945E-05 3.11708E-19-4.55280E-18
 -1      1745 2.60118E-04-2.42348E-05-9.50187E-05-5.68931E-05 7.99599E-19-6.84837E-18
 -1      1746 1.67963E-04 1.04688E-05-6.90383E-05-1.24703E-04-8.19589E-18-2.59954E-18
 -1      1747 1.34658E-04-1.56596E-05-4.88930E-05-1.25640E-04-9.78831E-18 1.04524E-18
 -1      1748 9.40079E-05-3.22765E-05-3.08944E-05-1.25789E-04-1.07709E-17 3.77724E-18
 -1      1749 1.06061E-04-2.31735E-05-3.56068E-05-1.68501E-05-8.11788E-19 4.28387E-18
 -1      1750 2.10545E-04 7.34245E-06-8.55450E-05-1.13816E-04-2.65344E-18-3.11962E-18
 -1      1751 8.91550E-05-1.05877E-05-3.37970E-05-1.33216E-05-1.26183E-18-1.02337E-18
 -1      1752 9.04870E-05-1.16325E-05-3.39370E-05-1.51306E-05-1.41531E-18-5.63436E-19
 -1      1753 9.24959E-05-1.38771E-05-3.38557E-05-1.59960E-05-1.34762E-18 6.43216E-20
 -1      1754 9.42151E-05-1.58244E-05-3.41001E-05-1.76574E-05-1.39157E-18 8.58627E-19
 -1      1755 9.34233E-05-1.63498E-05-3.30461E-05-1.37636E-05-1.44000E-18-1.94976E-19
 -1      1756 8.62072E-05-7.67178E-06-3.37291E-05-7.86023E-06-8.52975E-19-1.81260E-18
 -1      1757 8.66125E-05-7.97022E-06-3.37637E-05-9.24868E-06-1.01058E-18-1.65080E-18
 -1      1758 8.55885E-05-7.03371E-06-3.37256E-05-5.31760E-06-6.58564E-19-1.93543E-18
 -1      1759 8.58240E-05-7.21270E-06-3.37409E-05-6.62173E-06-7.54480E-19-1.91046E-18
 -1      1760 8.75892E-05-9.86459E-06-3.33423E-05-6.92624E-06-9.14798E-19-1.78870E-18
 -1      1761 8.52522E-05-6.67446E-06-3.37285E-05-2.88727E-06-3.91248E-19-1.92441E-18
 -1      1762 8.53736E-05-6.76933E-06-3.37346E-05-4.12642E-06-5.20443E-19-1.90756E-18
 -1      1763 8.69515E-05-9.15195E-06-3.33750E-05-4.53512E-06-6.12411E-19-1.82346E-18
 -1      1764 8.51208E-05-6.52609E-06-3.37318E-05-5.17165E-07-7.54039E-20-1.98539E-18
 -1      1765 8.51566E-05-6.55467E-06-3.37333E-05-1.72622E-06-1.91344E-19-1.97544E-18
 -1      1766 8.66182E-05-8.77249E-06-3.33948E-05-2.21610E-06-3.09755E-19-1.84496E-18
 -1      1767 8.51663E-05-6.56364E-06-3.37334E-05 1.84423E-06 1.58634E-19-1.94299E-18
 -1      1768 8.51244E-05-6.53064E-06-3.37317E-05 6.34177E-07 5.52925E-20-1.96178E-18
 -1      1769 8.65196E-05-8.65879E-06-3.34013E-05 6.53918E-08-3.10689E-20-1.90342E-18
 -1      1770 8.53987E-05-6.79425E-06-3.37347E-05 4.24895E-06 3.83942E-19-1.91541E-18
 -1      1771 8.52700E-05-6.69337E-06-3.37284E-05 3.00665E-06 2.52154E-19-1.94059E-18
 -1      1772 8.66358E-05-8.79205E-06-3.33941E-05 2.34807E-06 2.24225E-19-1.89475E-18
 -1      1773 8.58576E-05-7.24815E-06-3.37407E-05 6.70923E-06 6.49037E-19-1.86832E-18
 -1      1774 8.56185E-05-7.06565E-06-3.37255E-05 5.42241E-06 4.97970E-19-1.91445E-18
 -1      1775 8.69855E-05-9.18964E-06-3.33736E-05 4.65022E-06 4.79037E-19-1.84158E-18
 -1      1776 8.66735E-05-8.03880E-06-3.37621E-05 9.37013E-06 9.50924E-19-1.63037E-18
 -1      1777 8.62513E-05-7.72185E-06-3.37280E-05 7.94963E-06 7.98512E-19-1.74816E-18
 -1      1778 8.76400E-05-9.92310E-06-3.33399E-05 7.02449E-06 7.83847E-19-1.70243E-18
 -1      1779 8.80892E-05-9.38765E-06-3.38183E-05 1.22485E-05 1.19049E-18-1.31415E-18
 -1      1780 8.73475E-05-8.82928E-06-3.37458E-05 1.06557E-05 1.04536E-18-1.52979E-18
 -1      1781 8.87642E-05-1.11591E-05-3.32901E-05 9.49793E-06 1.07831E-18-1.49660E-18
 -1      1782 9.06367E-05-1.18413E-05-3.39293E-05 1.52969E-05 1.40872E-18-4.91411E-19
 -1      1783 8.92546E-05-1.07414E-05-3.37891E-05 1.35071E-05 1.27354E-18-9.65168E-19
 -1      1784 9.06651E-05-1.32231E-05-3.32081E-05 1.19694E-05 1.30021E-18-9.99525E-19
 -1      1785 9.58846E-05-1.70372E-05-3.39956E-05 1.76854E-05 1.50969E-18 8.17704E-19
 -1      1786 9.28636E-05-1.43453E-05-3.38291E-05 1.61881E-05 1.44267E-18 5.26219E-20
 -1      1787 9.39763E-05-1.68888E-05-3.30262E-05 1.38884E-05 1.47823E-18-1.17049E-19
 -1      1788 1.01935E-04-2.50977E-05-3.33621E-05 1.44185E-05 1.27076E-18 2.45280E-18
 -1      1789 9.80859E-05-1.96196E-05-3.36280E-05 1.69595E-05 1.41163E-18 1.35732E-18
 -1      1790 9.73387E-05-2.18572E-05-3.24304E-05 1.32431E-05 1.47717E-18 8.55874E-19
 -1      1791 9.87635E-05-2.61389E-05-3.13457E-05 9.43083E-06 1.24514E-18 2.09630E-18
 -1      1792 1.00165E-04-1.95663E-05-3.42208E-05-1.88650E-05-1.10993E-18 2.16724E-18
 -1      1793 9.53246E-05-2.72897E-05-2.91893E-05 4.06268E-06 9.13922E-19 1.58100E-18
 -1      1794 9.77537E-05-2.73945E-05-3.01980E-05 6.39681E-06 1.04823E-18 1.88135E-18
 -1      1795 9.75876E-05-2.56183E-05-3.08361E-05 8.75495E-06 1.20580E-18 1.13172E-18
 -1      1796 1.75490E-04-1.23511E-06-7.25774E-05-8.26403E-05-4.43464E-18-1.11470E-18
 -1      1797 1.88065E-04-4.50481E-08-7.88165E-05-7.29480E-05-3.64351E-18-1.86008E-18
 -1      1798 9.98248E-05-2.25451E-05-3.28388E-05-1.44628E-05-1.25551E-18 1.53239E-18
 -1      1799 9.69710E-05-2.69816E-05-2.98809E-05-5.70021E-06-9.26442E-19 1.31971E-18
 -1      1800 9.51644E-05-2.70373E-05-2.91707E-05-3.89258E-06-8.55728E-19 1.01659E-18
 -1      1801 9.43471E-05-2.72397E-05-2.86634E-05-2.41648E-06-7.73083E-19 9.56658E-19
 -1      1802 9.35766E-05-2.73208E-05-2.83587E-05-1.56335E-06-6.16719E-19 6.81041E-19
 -1      1803 9.55178E-05-2.65478E-05-2.95793E-05-4.46613E-06-9.73552E-19 2.63512E-19
 -1      1804 9.30519E-05-2.73712E-05-2.80900E-05-7.36724E-07-4.58794E-19 7.15253E-19
 -1      1805 9.27517E-05-2.74350E-05-2.79683E-05-2.98381E-07-3.50069E-19 6.21843E-19
 -1      1806 9.43092E-05-2.72250E-05-2.87709E-05-1.82360E-06-6.11558E-19 1.77625E-19
 -1      1807 9.24765E-05-2.74626E-05-2.78324E-05 1.56884E-07-3.25014E-19 5.86286E-19
 -1      1808 9.24463E-05-2.75391E-05-2.78028E-05 3.80788E-07-3.40964E-19 4.99091E-19
 -1      1809 9.36086E-05-2.75311E-05-2.83353E-05-3.57215E-07-4.33462E-19 3.04535E-20
 -1      1810 9.23432E-05-2.75707E-05-2.77447E-05 6.20205E-07-3.44372E-19 5.50437E-19
 -1      1811 9.24590E-05-2.76561E-05-2.77641E-05 7.23810E-07-9.85474E-20 4.47234E-19
 -1      1812 9.32884E-05-2.77162E-05-2.81146E-05 4.44767E-07-3.52577E-19 4.04516E-20
 -1      1813 9.24644E-05-2.76942E-05-2.77522E-05 8.34242E-07-1.26261E-19 4.23609E-19
 -1      1814 9.26527E-05-2.77812E-05-2.77970E-05 8.67359E-07-1.30383E-19 4.88862E-19
 -1      1815 9.32253E-05-2.78596E-05-2.80221E-05 8.54991E-07-1.81998E-19 1.00912E-19
 -1      1816 9.27210E-05-2.78227E-05-2.78117E-05 8.99843E-07-2.10991E-19 6.23890E-19
 -1      1817 9.29374E-05-2.79056E-05-2.78679E-05 8.91547E-07-1.82574E-19 5.10523E-19
 -1      1818 9.33198E-05-2.79834E-05-2.80064E-05 1.02871E-06-1.65993E-19 2.03434E-19
 -1      1819 9.30378E-05-2.79470E-05-2.78967E-05 8.77703E-07-4.20009E-19 3.64970E-19
 -1      1820 9.32557E-05-2.80223E-05-2.79557E-05 8.46074E-07-4.29947E-19 3.89276E-19
 -1      1821 9.35011E-05-2.80927E-05-2.80349E-05 1.05951E-06-3.76963E-19 3.56325E-20
 -1      1822 9.33682E-05-2.80611E-05-2.79908E-05 8.06190E-07-7.65673E-19 8.81903E-20
 -1      1823 9.35722E-05-2.81270E-05-2.80474E-05 7.62818E-07-9.66970E-19-2.19133E-19
 -1      1824 9.37213E-05-2.81881E-05-2.80869E-05 1.00644E-06-8.57958E-19-4.49201E-19
 -1      1825 9.36841E-05-2.81617E-05-2.80837E-05 7.10090E-07-6.41102E-19-2.37644E-19
 -1      1826 9.38663E-05-2.82176E-05-2.81352E-05 6.62436E-07-1.38088E-19-4.11244E-19
 -1      1827 9.39496E-05-2.82694E-05-2.81489E-05 9.07727E-07-8.18823E-19-4.17943E-19
 -1      1828 9.39703E-05-2.82475E-05-2.81698E-05 6.05405E-07 6.73575E-20-5.89783E-19
 -1      1829 9.41271E-05-2.82936E-05-2.82147E-05 5.58180E-07 8.41892E-20-5.78417E-19
 -1      1830 9.41673E-05-2.83371E-05-2.82125E-05 7.88292E-07-1.61013E-19-5.83491E-19
 -1      1831 9.42195E-05-2.83187E-05-2.82460E-05 5.02245E-07 4.18715E-20-6.28643E-19
 -1      1832 9.43507E-05-2.83558E-05-2.82841E-05 4.58308E-07-7.02888E-20-6.06709E-19
 -1      1833 9.43639E-05-2.83921E-05-2.82730E-05 6.64168E-07-3.35366E-20-8.41160E-19
 -1      1834 9.44300E-05-2.83762E-05-2.83114E-05 4.06743E-07-7.97886E-20-5.49116E-19
 -1      1835 9.45372E-05-2.84054E-05-2.83428E-05 3.67713E-07-1.42523E-21-1.13848E-19
 -1      1836 9.45350E-05-2.84356E-05-2.83275E-05 5.45387E-07 1.34254E-19-4.10872E-19
 -1      1837 9.46036E-05-2.84216E-05-2.83660E-05 3.22386E-07-1.22927E-19-1.54285E-19
 -1      1838 9.46893E-05-2.84441E-05-2.83914E-05 2.89092E-07 1.73185E-19-1.60846E-19
 -1      1839 9.46795E-05-2.84691E-05-2.83751E-05 4.37946E-07-9.32392E-20-6.93346E-19
 -1      1840 9.47439E-05-2.84566E-05-2.84108E-05 2.50987E-07 2.53761E-19-1.22359E-19
 -1      1841 9.48115E-05-2.84735E-05-2.84311E-05 2.23794E-07 1.37922E-19-1.18645E-19
 -1      1842 9.47991E-05-2.84942E-05-2.84157E-05 3.45224E-07 7.32427E-20-3.96980E-19
 -1      1843 9.48563E-05-2.84831E-05-2.84472E-05 1.93409E-07-2.23121E-19-6.53899E-19
 -1      1844 9.49093E-05-2.84955E-05-2.84634E-05 1.72468E-07-4.72666E-19-8.13503E-19
 -1      1845 9.48969E-05-2.85123E-05-2.84499E-05 2.69015E-07-3.64951E-19-7.27493E-19
 -1      1846 9.49464E-05-2.85028E-05-2.84770E-05 1.50102E-07-6.81996E-19-6.92419E-19
 -1      1847 9.49889E-05-2.85119E-05-2.84902E-05 1.35538E-07-6.38597E-19-9.05351E-19
 -1      1848 9.49770E-05-2.85251E-05-2.84790E-05 2.10316E-07-5.76117E-19-4.89777E-19
 -1      1849 9.50209E-05-2.85176E-05-2.85022E-05 1.21525E-07-5.70123E-19-8.87748E-19
 -1      1850 9.50568E-05-2.85245E-05-2.85136E-05 1.13588E-07-3.78421E-19-8.94927E-19
 -1      1851 9.50443E-05-2.85337E-05-2.85043E-05 1.69913E-07-6.70590E-19-6.95335E-19
 -1      1852 9.50867E-05-2.85293E-05-2.85250E-05 1.08468E-07-2.70483E-20-1.08052E-18
 -1      1853 9.51204E-05-2.85352E-05-2.85359E-05 1.07643E-07 4.96811E-19-1.13247E-18
 -1      1854 9.51043E-05-2.85395E-05-2.85278E-05 1.48843E-07-3.46438E-19-7.21204E-19
 -1      1855 9.51515E-05-2.85399E-05-2.85479E-05 1.12305E-07 7.87976E-19-1.02334E-18
 -1      1856 9.51880E-05-2.85461E-05-2.85597E-05 1.19415E-07 4.96018E-19-8.51660E-19
 -1      1857 9.51631E-05-2.85437E-05-2.85514E-05 1.48749E-07 6.31469E-19-1.04438E-18
 -1      1858 9.52239E-05-2.85515E-05-2.85736E-05 1.35205E-07 3.72189E-19-2.69748E-19
 -1      1859 9.52686E-05-2.85593E-05-2.85881E-05 1.51480E-07 8.61942E-19 7.95065E-20
 -1      1860 9.52276E-05-2.85479E-05-2.85776E-05 1.72159E-07 8.88832E-19-4.14961E-19
 -1      1861 9.53137E-05-2.85665E-05-2.86053E-05 1.80282E-07 5.93554E-19 1.01317E-19
 -1      1862 9.53732E-05-2.85777E-05-2.86243E-05 2.07415E-07 3.97108E-19 3.30551E-19
 -1      1863 9.53056E-05-2.85536E-05-2.86090E-05 2.22705E-07 7.76496E-19-4.73709E-19
 -1      1864 9.54324E-05-2.85878E-05-2.86466E-05 2.51707E-07 3.71458E-19 3.19403E-19
 -1      1865 9.55144E-05-2.86043E-05-2.86725E-05 2.91884E-07-1.60161E-19 3.84054E-19
 -1      1866 9.54064E-05-2.85626E-05-2.86488E-05 3.05267E-07 3.53830E-19-6.18333E-19
 -1      1867 9.55936E-05-2.86188E-05-2.87020E-05 3.54734E-07-5.89592E-19 4.38323E-19
 -1      1868 9.57072E-05-2.86431E-05-2.87374E-05 4.10619E-07-9.65451E-19 2.84322E-19
 -1      1869 9.55407E-05-2.85773E-05-2.87005E-05 4.26029E-07-1.66596E-19-6.78967E-19
 -1      1870 9.58132E-05-2.86638E-05-2.87764E-05 4.95623E-07-1.23832E-18 5.79998E-19
 -1      1871 9.59692E-05-2.86991E-05-2.88244E-05 5.70280E-07-8.50164E-19 2.09317E-19
 -1      1872 9.57211E-05-2.86006E-05-2.87684E-05 5.92401E-07-8.52175E-19-2.95280E-19
 -1      1873 9.61098E-05-2.87280E-05-2.88755E-05 6.81373E-07-3.62360E-19 7.06489E-19
 -1      1874 9.63209E-05-2.87780E-05-2.89398E-05 7.78070E-07 6.23125E-19 6.11083E-19
 -1      1875 9.59621E-05-2.86364E-05-2.88570E-05 8.12729E-07-3.78040E-19 8.14302E-19
 -1      1876 9.65050E-05-2.88179E-05-2.90059E-05 9.19161E-07 5.78386E-19-1.84913E-20
 -1      1877 9.67854E-05-2.88872E-05-2.90904E-05 1.04098E-06 3.72163E-19-5.93221E-20
 -1      1878 9.62806E-05-2.86895E-05-2.89714E-05 1.09567E-06 1.38361E-19-2.63304E-20
 -1      1879 9.70226E-05-2.89413E-05-2.91744E-05 1.21529E-06 8.59987E-20-1.98517E-19
 -1      1880 9.73878E-05-2.90354E-05-2.92835E-05 1.36447E-06-6.36463E-19-6.49759E-19
 -1      1881 9.66951E-05-2.87664E-05-2.91168E-05 1.44904E-06-1.30970E-19-6.71528E-19
 -1      1882 9.76882E-05-2.91078E-05-2.93880E-05 1.57340E-06-8.00143E-19-3.73412E-19
 -1      1883 9.81542E-05-2.92329E-05-2.95258E-05 1.75015E-06-5.00649E-19 3.34026E-21
 -1      1884 9.72257E-05-2.88755E-05-2.92981E-05 1.87781E-06 1.25578E-20-5.47036E-19
 -1      1885 9.85274E-05-2.93286E-05-2.96529E-05 1.99145E-06-5.02688E-19 3.51271E-19
 -1      1886 9.91084E-05-2.94921E-05-2.98227E-05 2.19208E-06-1.15168E-19 9.66653E-19
 -1      1887 9.78930E-05-2.90281E-05-2.95193E-05 2.38085E-06-7.40988E-20 6.72046E-19
 -1      1888 9.95628E-05-2.96175E-05-2.99730E-05 2.45700E-06-2.85061E-19 9.71070E-19
 -1      1889 1.00268E-04-2.98272E-05-3.01764E-05 2.67091E-06 2.72719E-19 9.07240E-19
 -1      1890 9.87165E-05-2.92395E-05-2.97820E-05 2.94577E-06-9.52829E-20 1.73724E-18
 -1      1891 1.00809E-04-2.99903E-05-3.03480E-05 2.93984E-06 2.06066E-19 2.04229E-19
 -1      1892 1.01638E-04-3.02543E-05-3.05828E-05 3.14511E-06 5.41491E-19-1.55852E-19
 -1      1893 9.97123E-05-2.95306E-05-3.00842E-05 3.54108E-06-2.17926E-19 1.06999E-18
 -1      1894 1.02266E-04-3.04658E-05-3.07700E-05 3.38141E-06 4.72309E-19-8.97202E-19
 -1      1895 1.03199E-04-3.07905E-05-3.10279E-05 3.53851E-06-3.87240E-19-1.35226E-18
 -1      1896 1.00890E-04-2.99300E-05-3.04173E-05 4.10477E-06-2.89410E-20-9.38338E-19
 -1      1897 1.03909E-04-3.10636E-05-3.12194E-05 3.68038E-06-5.99802E-19-6.76412E-19
 -1      1898 1.04897E-04-3.14518E-05-3.14828E-05 3.72458E-06-3.64752E-19-3.58465E-19
 -1      1899 1.02247E-04-3.04761E-05-3.07643E-05 4.52895E-06-2.82737E-19-1.37215E-18
 -1      1900 1.05669E-04-3.18014E-05-3.16603E-05 3.67613E-06-4.05663E-19 3.76174E-19
 -1      1901 1.06620E-04-3.22455E-05-3.18983E-05 3.51073E-06 3.43363E-19 3.89268E-19
 -1      1902 1.03766E-04-3.12161E-05-3.10963E-05 4.64154E-06 8.63275E-20 9.68445E-19
 -1      1903 1.07420E-04-3.26829E-05-3.20356E-05 3.13614E-06 1.13215E-18 7.78675E-20
 -1      1904 1.08180E-04-3.31535E-05-3.22014E-05 2.63259E-06 1.41784E-18 1.07132E-18
 -1      1905 1.05396E-04-3.21970E-05-3.13723E-05 4.19038E-06 9.47443E-19 1.35663E-18
 -1      1906 1.08940E-04-3.36715E-05-3.22666E-05 1.76326E-06 1.36609E-18 1.09668E-18
 -1      1907 1.09284E-04-3.40970E-05-3.22983E-05 7.80950E-07 6.10393E-19 1.37638E-18
 -1      1908 1.07040E-04-3.34365E-05-3.15412E-05 2.84385E-06 1.40447E-18 8.44469E-20
 -1      1909 1.09884E-04-3.46394E-05-3.22599E-05-7.46325E-07 1.41918E-19 2.38511E-18
 -1      1910 1.09521E-04-3.48765E-05-3.20899E-05-2.30144E-06-1.83614E-19 2.61163E-18
 -1      1911 1.08507E-04-3.48581E-05-3.15529E-05 2.37443E-07 1.07829E-18 1.65304E-18
 -1      1912 1.09749E-04-3.52882E-05-3.19291E-05-4.54834E-06-6.77203E-19 1.88602E-18
 -1      1913 1.08365E-04-3.50967E-05-3.15061E-05-6.60751E-06-8.13615E-19 2.06972E-18
 -1      1914 1.09451E-04-3.61767E-05-3.13772E-05-3.88770E-06-5.71886E-19 1.83600E-18
 -1      1915 1.07890E-04-3.50772E-05-3.12329E-05-9.35741E-06-1.38393E-18 2.60877E-18
 -1      1916 1.05274E-04-3.41470E-05-3.05570E-05-1.15271E-05-9.88461E-19 2.29081E-18
 -1      1917 1.09288E-04-3.67652E-05-3.10315E-05-9.39902E-06-1.06190E-18 2.40143E-18
 -1      1918 1.03702E-04-3.32910E-05-3.02198E-05-1.40745E-05-5.01999E-20 1.96893E-18
 -1      1919 9.99520E-05-3.13961E-05-2.93773E-05-1.55317E-05 2.10441E-19 2.41431E-18
 -1      1920 1.07226E-04-3.56547E-05-3.05968E-05-1.53431E-05-9.37407E-19 3.22886E-18
 -1      1921 9.70727E-05-2.94312E-05-2.90496E-05-1.66317E-05 3.72273E-19 3.50383E-18
 -1      1922 9.28237E-05-2.67360E-05-2.82176E-05-1.62861E-05 9.61144E-19 4.00988E-18
 -1      1923 1.02580E-04-3.19234E-05-3.01967E-05-1.96148E-05 1.19684E-18 4.34177E-18
 -1      1924 8.90324E-05-2.39536E-05-2.79495E-05-1.45767E-05 2.17595E-19 4.02102E-18
 -1      1925 8.55067E-05-2.13097E-05-2.73436E-05-1.16785E-05 2.33874E-19 3.40415E-18
 -1      1926 9.55138E-05-2.56359E-05-2.99091E-05-1.92824E-05 3.43803E-19 3.40539E-18
 -1      1927 8.20712E-05-1.88748E-05-2.71051E-05-6.69554E-06-7.47321E-19 1.74595E-18
 -1      1928 8.07111E-05-1.77230E-05-2.68590E-05-1.73581E-06-8.96293E-19 3.49785E-19
 -1      1929 8.77905E-05-1.87544E-05-2.96433E-05-1.21119E-05-1.13628E-18 2.49500E-18
 -1      1930 7.93764E-05-1.73106E-05-2.65132E-05 4.91474E-06-9.66279E-19-8.79859E-19
 -1      1931 8.09102E-05-1.88137E-05-2.65993E-05 9.72154E-06-1.28238E-18-1.19139E-18
 -1      1932 8.27742E-05-1.52661E-05-2.90788E-05 8.32351E-07-2.19605E-18 1.15454E-18
 -1      1933 8.27223E-05-2.14850E-05-2.60410E-05 1.46648E-05-4.10434E-19-1.77808E-18
 -1      1934 8.67562E-05-2.60396E-05-2.62176E-05 1.61272E-05-5.30706E-19-1.60105E-18
 -1      1935 8.34117E-05-1.86423E-05-2.78822E-05 1.40967E-05-1.08626E-18-7.69860E-19
 -1      1936 9.32274E-05-2.73671E-05-2.81979E-05 1.60077E-06 7.02528E-19 1.03091E-18
 -1      1937 9.44205E-05-2.74721E-05-2.86341E-05 2.67198E-06 7.71184E-19 1.38189E-18
 -1      1938 9.52430E-05-2.70508E-05-2.92306E-05 4.04873E-06 9.64691E-19 8.44201E-19
 -1      1939 9.21779E-05-2.73543E-05-2.77569E-05 3.43549E-07 8.22502E-19 6.25494E-19
 -1      1940 9.26707E-05-2.73861E-05-2.79289E-05 8.91916E-07 6.25848E-19 8.57965E-19
 -1      1941 9.36406E-05-2.73724E-05-2.84075E-05 1.57955E-06 7.86980E-19 4.67569E-19
 -1      1942 9.18053E-05-2.73929E-05-2.75896E-05-3.09998E-07 3.05134E-19 5.52361E-19
 -1      1943 9.19187E-05-2.73656E-05-2.76361E-05-1.73803E-08 6.18357E-19 6.57231E-19
 -1      1944 9.28117E-05-2.74882E-05-2.80058E-05 2.66365E-07 6.93541E-19 2.78260E-19
 -1      1945 9.18315E-05-2.74842E-05-2.75672E-05-6.35610E-07 1.67118E-19 3.28306E-19
 -1      1946 9.17421E-05-2.74218E-05-2.75504E-05-4.82775E-07 2.50485E-19 5.67673E-19
 -1      1947 9.24999E-05-2.75819E-05-2.78321E-05-4.27101E-07 3.30024E-19 1.03154E-19
 -1      1948 9.20779E-05-2.76070E-05-2.76234E-05-7.73032E-07 1.85043E-19 1.13536E-19
 -1      1949 9.18857E-05-2.75277E-05-2.75744E-05-7.01860E-07 1.20511E-19 1.42449E-19
 -1      1950 9.25051E-05-2.76877E-05-2.77871E-05-7.71744E-07 2.75078E-19-2.01308E-19
 -1      1951 9.24326E-05-2.77419E-05-2.77195E-05-7.99587E-07 5.94703E-19 6.35837E-20
 -1      1952 9.21961E-05-2.76580E-05-2.76558E-05-7.77564E-07 4.14545E-19 1.53091E-19
 -1      1953 9.26911E-05-2.78036E-05-2.78149E-05-9.11950E-07 4.82040E-19-2.54892E-19
 -1      1954 9.28255E-05-2.78755E-05-2.78319E-05-7.61761E-07 5.65758E-19-4.37109E-19
 -1      1955 9.25798E-05-2.77945E-05-2.77642E-05-7.69097E-07 6.87552E-19-3.92621E-21
 -1      1956 9.29687E-05-2.79209E-05-2.78817E-05-9.30859E-07 8.00523E-19-1.13662E-19
 -1      1957 9.32142E-05-2.79997E-05-2.79463E-05-6.88895E-07 1.03140E-19-2.70682E-19
 -1      1958 9.29797E-05-2.79258E-05-2.78807E-05-7.12922E-07 2.64087E-19-3.61028E-19
 -1      1959 9.32807E-05-2.80325E-05-2.79663E-05-8.79540E-07 4.47324E-19-1.52155E-19
 -1      1960 9.35743E-05-2.81101E-05-2.80541E-05-5.99856E-07 6.09859E-19-1.28341E-19
 -1      1961 9.33622E-05-2.80453E-05-2.79941E-05-6.32308E-07 6.12662E-19-1.70855E-19
 -1      1962 9.35919E-05-2.81334E-05-2.80554E-05-7.90545E-07 5.36241E-19-1.16245E-19
 -1      1963 9.38932E-05-2.82049E-05-2.81507E-05-5.06716E-07 1.58934E-19-6.70879E-19
 -1      1964 9.37085E-05-2.81498E-05-2.80981E-05-5.42212E-07 3.49926E-19-3.60059E-19
 -1      1965 9.38815E-05-2.82214E-05-2.81411E-05-6.84874E-07 4.88539E-19-4.69453E-19
 -1      1966 9.41661E-05-2.82839E-05-2.82343E-05-4.16985E-07 2.93851E-19-1.06608E-18
 -1      1967 9.40102E-05-2.82383E-05-2.81896E-05-4.52102E-07 3.28907E-19-1.02979E-18
 -1      1968 9.41388E-05-2.82957E-05-2.82191E-05-5.75937E-07 5.19183E-19-8.97929E-19
 -1      1969 9.43932E-05-2.83480E-05-2.83044E-05-3.35107E-07 5.07186E-20-9.26620E-19
 -1      1970 9.42650E-05-2.83113E-05-2.82675E-05-3.67750E-07 9.54744E-20-9.62553E-19
 -1      1971 9.43597E-05-2.83567E-05-2.82872E-05-4.72053E-07 1.44973E-19-7.04386E-19
 -1      1972 9.45779E-05-2.83990E-05-2.83620E-05-2.63500E-07-2.29000E-19-1.03962E-18
 -1      1973 9.44749E-05-2.83701E-05-2.83321E-05-2.92462E-07-1.42581E-19-1.06915E-18
 -1      1974 9.45441E-05-2.84057E-05-2.83451E-05-3.78126E-07-1.16546E-20-6.57400E-19
 -1      1975 9.47253E-05-2.84386E-05-2.84083E-05-2.03318E-07 3.53914E-19-9.70273E-19
 -1      1976 9.46440E-05-2.84163E-05-2.83846E-05-2.27953E-07 1.01102E-19-9.06834E-19
 -1      1977 9.46948E-05-2.84440E-05-2.83931E-05-2.96834E-07-1.01501E-20-7.86247E-19
 -1      1978 9.48416E-05-2.84688E-05-2.84453E-05-1.55020E-07 5.87745E-19-8.99732E-19
 -1      1979 9.47783E-05-2.84519E-05-2.84266E-05-1.74997E-07 3.52470E-19-8.61703E-19
 -1      1980 9.48160E-05-2.84734E-05-2.84325E-05-2.29506E-07 4.70343E-19-5.16345E-19
 -1      1981 9.49337E-05-2.84918E-05-2.84749E-05-1.18799E-07 2.98914E-19-7.69809E-19
 -1      1982 9.48843E-05-2.84790E-05-2.84602E-05-1.33911E-07 8.22801E-19-4.16854E-19
 -1      1983 9.49133E-05-2.84955E-05-2.84647E-05-1.76772E-07 5.74227E-19-2.82727E-19
 -1      1984 9.50088E-05-2.85095E-05-2.84995E-05-9.49170E-08-4.75657E-19-1.12136E-18
 -1      1985 9.49692E-05-2.84998E-05-2.84874E-05-1.04933E-07-1.50625E-19-1.13807E-18
 -1      1986 9.49927E-05-2.85123E-05-2.84915E-05-1.39062E-07 1.31425E-19-5.94329E-19
 -1      1987 9.50750E-05-2.85243E-05-2.85214E-05-8.39670E-08-6.72331E-19-1.16971E-18
 -1      1988 9.50407E-05-2.85162E-05-2.85107E-05-8.85081E-08-6.00798E-19-9.08514E-19
 -1      1989 9.50607E-05-2.85254E-05-2.85152E-05-1.16998E-07-5.25280E-19-8.22022E-19
 -1      1990 9.51407E-05-2.85384E-05-2.85433E-05-8.70845E-08-1.05101E-19-8.38403E-19
 -1      1991 9.51069E-05-2.85306E-05-2.85326E-05-8.55262E-08-4.87602E-19-1.05310E-18
 -1      1992 9.51246E-05-2.85367E-05-2.85378E-05-1.11693E-07-4.90772E-19-8.32452E-19
 -1      1993 9.52156E-05-2.85544E-05-2.85683E-05-1.06128E-07 9.80428E-19-7.14080E-19
 -1      1994 9.51769E-05-2.85454E-05-2.85560E-05-9.75098E-08 2.84435E-19-4.43468E-19
 -1      1995 9.51926E-05-2.85483E-05-2.85622E-05-1.25005E-07 1.81802E-19-5.14674E-19
 -1      1996 9.53110E-05-2.85754E-05-2.85999E-05-1.43833E-07 5.90528E-19-9.03260E-19
 -1      1997 9.52611E-05-2.85634E-05-2.85840E-05-1.26777E-07 1.17446E-18-5.24142E-19
 -1      1998 9.52738E-05-2.85623E-05-2.85912E-05-1.59748E-07 9.61759E-19-2.58618E-19
 -1      1999 9.54399E-05-2.86047E-05-2.86421E-05-2.03934E-07-7.81252E-19-1.26817E-18
 -1      2000 9.53715E-05-2.85876E-05-2.86205E-05-1.76579E-07-4.63960E-19-1.10633E-18
 -1      2001 9.53790E-05-2.85815E-05-2.86284E-05-2.19857E-07-1.53618E-20-3.27244E-19
 -1      2002 9.56182E-05-2.86467E-05-2.86999E-05-2.91257E-07-7.18838E-19-2.69083E-19
 -1      2003 9.55224E-05-2.86220E-05-2.86699E-05-2.51199E-07-6.71522E-19-1.12220E-18
 -1      2004 9.55208E-05-2.86090E-05-2.86777E-05-3.10524E-07-5.87073E-19-6.76440E-19
 -1      2005 9.58649E-05-2.87068E-05-2.87791E-05-4.11751E-07-8.70244E-19-2.36742E-19
 -1      2006 9.57309E-05-2.86713E-05-2.87375E-05-3.56007E-07-6.14088E-19-3.33916E-19
 -1      2007 9.57146E-05-2.86487E-05-2.87442E-05-4.38260E-07-8.13827E-19-3.04630E-19
 -1      2008 9.62025E-05-2.87911E-05-2.88867E-05-5.72399E-07 4.89951E-19 2.24018E-19
 -1      2009 9.60175E-05-2.87411E-05-2.88297E-05-4.97425E-07-1.44189E-19-1.09910E-19
 -1      2010 9.59780E-05-2.87053E-05-2.88334E-05-6.10851E-07-1.57159E-19-9.72596E-19
 -1      2011 9.66578E-05-2.89076E-05-2.90307E-05-7.80951E-07 7.69113E-20-6.47012E-20
 -1      2012 9.64064E-05-2.88383E-05-2.89539E-05-6.82739E-07-2.14999E-19 1.12095E-19
 -1      2013 9.63323E-05-2.87847E-05-2.89518E-05-8.37133E-07 1.45489E-19-3.42917E-19
 -1      2014 9.72613E-05-2.90654E-05-2.92205E-05-1.04530E-06 3.21851E-19 9.18402E-19
 -1      2015 9.69259E-05-2.89712E-05-2.91187E-05-9.19632E-07 1.70385E-19 8.47383E-19
 -1      2016 9.68016E-05-2.88940E-05-2.91069E-05-1.12643E-06-2.90132E-19 6.48442E-19
 -1      2017 9.80472E-05-2.92754E-05-2.94659E-05-1.37227E-06 1.25621E-18 9.09080E-19
 -1      2018 9.76078E-05-2.91500E-05-2.93335E-05-1.21525E-06 1.23995E-18 1.19946E-18
 -1      2019 9.74133E-05-2.90418E-05-2.93066E-05-1.48745E-06 1.05878E-18 1.40903E-18
 -1      2020 9.90511E-05-2.95501E-05-2.97770E-05-1.76538E-06-5.20944E-19-6.42324E-19
 -1      2021 9.84868E-05-2.93861E-05-2.96082E-05-1.57447E-06 1.67938E-19-5.37363E-19
 -1      2022 9.81965E-05-2.92386E-05-2.95589E-05-1.92623E-06 1.11118E-18 9.48128E-19
 -1      2023 1.00307E-04-2.99035E-05-3.01628E-05-2.22088E-06-6.70248E-20-1.88044E-18
 -1      2024 9.95979E-05-2.96930E-05-2.99523E-05-1.99677E-06-1.52898E-19-1.12081E-18
 -1      2025 9.91806E-05-2.94970E-05-2.98709E-05-2.44246E-06-2.62679E-20-4.59687E-19
 -1      2026 1.01841E-04-3.03504E-05-3.06285E-05-2.72112E-06 5.96903E-19-9.08496E-19
 -1      2027 1.00972E-04-3.00857E-05-3.03730E-05-2.47095E-06-1.84789E-19-1.53956E-18
 -1      2028 1.00392E-04-2.98327E-05-3.02471E-05-3.02341E-06 1.83915E-20-1.38546E-18
 -1      2029 1.03659E-04-3.09057E-05-3.11717E-05-3.22365E-06 2.39877E-19-9.48837E-19
 -1      2030 1.02629E-04-3.05804E-05-3.08721E-05-2.96644E-06 7.33009E-19-4.93479E-19
 -1      2031 1.01847E-04-3.02649E-05-3.06866E-05-3.63382E-06 2.50825E-19-1.10286E-18
 -1      2032 1.05735E-04-3.15817E-05-3.17762E-05-3.64484E-06 6.89206E-19-1.07638E-18
 -1      2033 1.04564E-04-3.11933E-05-3.14412E-05-3.41982E-06 3.94224E-19-9.17221E-19
 -1      2034 1.03546E-04-3.08172E-05-3.11789E-05-4.20046E-06 5.36119E-19-5.52014E-19
 -1      2035 1.07980E-04-3.23835E-05-3.24037E-05-3.83728E-06-6.24939E-19-1.61989E-18
 -1      2036 1.06729E-04-3.19380E-05-3.20551E-05-3.71568E-06 3.67479E-19-1.37001E-18
 -1      2037 1.05459E-04-3.15179E-05-3.16986E-05-4.59014E-06 5.32373E-19-4.96765E-19
 -1      2038 1.10212E-04-3.32984E-05-3.29827E-05-3.56502E-06-1.22967E-18-1.59841E-18
 -1      2039 1.09007E-04-3.28180E-05-3.26620E-05-3.66348E-06-1.75376E-18-2.26647E-18
 -1      2040 1.07507E-04-3.23962E-05-3.21989E-05-4.58285E-06-1.03733E-18-1.04996E-18
 -1      2041 1.12115E-04-3.42728E-05-3.33998E-05-2.49097E-06 3.05627E-19-1.14970E-18
 -1      2042 1.11171E-04-3.38104E-05-3.31745E-05-2.97938E-06-3.48445E-19-1.30493E-18
 -1      2043 1.09536E-04-3.34672E-05-3.26059E-05-3.84948E-06-8.33715E-19-1.74140E-18
 -1      2044 1.13199E-04-3.51685E-05-3.34998E-05-2.12847E-07-4.76416E-19-7.90894E-19
 -1      2045 1.12838E-04-3.48297E-05-3.34642E-05-1.29778E-06-2.39737E-19-1.02602E-18
 -1      2046 1.11280E-04-3.46917E-05-3.28197E-05-1.96041E-06-3.64833E-19-1.66547E-18
 -1      2047 1.12789E-04-3.56911E-05-3.31098E-05 3.58548E-06-4.88804E-19 1.00645E-19
 -1      2048 1.13427E-04-3.56608E-05-3.33717E-05 1.73705E-06-4.91981E-19 3.64009E-20
 -1      2049 1.12308E-04-3.58910E-05-3.27290E-05 1.52047E-06-9.58907E-19-9.94202E-19
 -1      2050 1.10097E-04-3.53197E-05-3.21010E-05 8.78759E-06-1.03661E-18 1.43850E-18
 -1      2051 1.12155E-04-3.58693E-05-3.27439E-05 6.22609E-06-1.00706E-18 9.68410E-19
 -1      2052 1.11973E-04-3.66139E-05-3.22489E-05 6.77262E-06-8.56575E-19 1.42345E-18
 -1      2053 1.04474E-04-3.33606E-05-3.04859E-05 1.43323E-05-7.75518E-19 1.97750E-18
 -1      2054 1.08181E-04-3.47748E-05-3.15064E-05 1.15867E-05-4.93754E-19 1.46746E-18
 -1      2055 1.09450E-04-3.60580E-05-3.13751E-05 1.32306E-05-1.04283E-18 2.72440E-18
 -1      2056 9.59578E-05-2.93192E-05-2.85115E-05 1.78692E-05-1.66892E-19 1.53226E-18
 -1      2057 1.01031E-04-3.16739E-05-2.97544E-05 1.61144E-05-7.92988E-19 1.33844E-18
 -1      2058 1.04022E-04-3.32571E-05-3.02326E-05 1.90348E-05-4.28771E-19 1.75160E-18
 -1      2059 8.60289E-05-2.36862E-05-2.66525E-05 1.63233E-05 9.03758E-19 2.53903E-18
 -1      2060 9.13760E-05-2.65042E-05-2.78075E-05 1.70638E-05 1.10526E-18 2.67991E-18
 -1      2061 9.58060E-05-2.78377E-05-2.90645E-05 2.09844E-05 5.19489E-19 2.58001E-18
 -1      2062 7.78617E-05-1.85330E-05-2.54150E-05 7.92883E-06-1.88809E-19 2.08658E-18
 -1      2063 8.16932E-05-2.06614E-05-2.61269E-05 1.19769E-05 1.59163E-19 1.97822E-18
 -1      2064 8.66420E-05-2.11222E-05-2.81107E-05 1.58987E-05 4.43739E-19 4.39699E-18
 -1      2065 7.51910E-05-1.69862E-05-2.50487E-05-5.20774E-06-8.45180E-19 1.51283E-18
 -1      2066 7.57595E-05-1.70294E-05-2.51135E-05 1.03826E-06-1.12920E-18 1.12502E-18
 -1      2067 7.99956E-05-1.62733E-05-2.74213E-05 3.45132E-06-6.74026E-19 1.78261E-18
 -1      2068 7.99687E-05-2.13426E-05-2.52632E-05-1.58433E-05-1.57178E-19 1.60984E-18
 -1      2069 7.67621E-05-1.86131E-05-2.48497E-05-1.12263E-05-1.23587E-19 1.93642E-18
 -1      2070 7.94166E-05-1.72095E-05-2.67925E-05-1.16003E-05-5.23996E-19 2.52294E-18
 -1      2071 8.84593E-05-2.89421E-05-2.55067E-05-1.74040E-05 9.83061E-19 1.43869E-18
 -1      2072 8.27896E-05-2.38486E-05-2.51254E-05-1.78674E-05 1.78512E-19 7.38295E-19
 -1      2073 8.40426E-05-2.27598E-05-2.62404E-05-2.04263E-05 7.01922E-19 1.36362E-18
 -1      2074 9.10709E-05-3.26212E-05-2.49953E-05-2.13519E-05 1.13471E-18 1.14924E-18
 -1      2075 1.10547E-04-3.33395E-05-3.30384E-05-1.44004E-05 1.90757E-18-5.77761E-18
 -1      2076 1.02378E-04-3.12128E-05-3.07562E-05-2.30465E-05 3.44895E-18-4.80416E-18
 -1      2077 9.79328E-05-3.47683E-05-2.69053E-05-2.72474E-05 2.88076E-18-2.14564E-18
 -1      2078 9.36938E-05-3.10073E-05-2.67356E-05-2.79105E-05 2.77002E-18 1.17317E-18
 -1      2079 9.70082E-05-1.41907E-05-3.60687E-05-2.27758E-05 2.13886E-18-3.39088E-18
 -1      2080 9.40076E-05-3.54852E-05-2.50119E-05-2.70226E-05 2.35449E-18 3.98152E-19
 -1      2081 9.13938E-05-3.12579E-05-2.56771E-05-2.35715E-05 2.42754E-18 1.04939E-19
 -1      2082 8.83615E-05-2.62304E-05-2.66582E-05-2.43414E-05 1.94871E-18 1.09352E-18
 -1      2083 8.96000E-05-2.11000E-05-2.97010E-05-2.70371E-05 2.51779E-18 9.55341E-19
 -1      2084 1.33744E-04-3.36169E-05-4.30685E-05 1.70025E-05 7.26119E-19-4.14157E-18
 -1      2085 1.21238E-04-3.29508E-05-3.85440E-05-2.29463E-06 1.71630E-18-6.95287E-18
 -1      2086 1.17468E-04-1.01821E-05-4.68646E-05-4.44579E-06 2.10572E-18-6.75106E-18
 -1      2087 3.24343E-05 6.43633E-05-3.89390E-05 3.67379E-05-3.76263E-18 1.28021E-17
 -1      2088 1.46206E-04-4.29423E-05-4.37674E-05 8.34923E-05-1.89116E-18-2.40727E-18
 -1      2089 1.44253E-04-4.48927E-05-4.29235E-05 4.98335E-05-8.41210E-20-8.99125E-19
 -1      2090 1.09072E-04-5.39936E-05-2.40585E-05 1.82812E-05-1.09193E-18-1.75336E-18
 -1      2091 1.15882E-04-5.60225E-05-2.59441E-05 6.41294E-06-1.03987E-19-2.30075E-18
 -1      2092 9.98138E-05-4.79321E-05-2.21390E-05 2.49285E-05-8.24057E-19 1.63784E-18
 -1      2093 1.04892E-04-5.51613E-05-2.11206E-05 2.41099E-05-4.21928E-19 2.04558E-19
 -1      2094 1.02309E-04-3.01992E-05-3.15201E-05 2.19730E-05-5.22487E-19-3.00908E-19
 -1      2095 9.60807E-05-4.09952E-05-2.34985E-05 2.20031E-05 7.55289E-19 1.15780E-18
 -1      2096 9.96712E-05-4.87006E-05-2.16294E-05 2.40998E-05-2.68933E-19 1.13358E-18
 -1      2097 9.44227E-05-3.19922E-05-2.69458E-05 2.78126E-05-6.79135E-19 2.48437E-18
 -1      2098 1.06606E-04-1.82282E-05-3.86741E-05 1.33118E-04 3.40084E-18-4.45677E-18
 -1      2099 9.36939E-05-2.57486E-05-3.20805E-05 1.21968E-04 4.41304E-18-4.93481E-18
 -1      2100 4.97868E-05 9.50601E-06-3.09135E-05 1.05473E-04 2.85111E-18 3.98275E-18
 -1      2101 1.95810E-04 1.87570E-06-8.26201E-05-6.75715E-05-3.49147E-18-1.92276E-18
 -1      2102 1.98646E-04 8.52597E-07-8.39864E-05-5.63750E-05-2.64655E-18-1.74446E-18
 -1      2103 1.65271E-04 4.13706E-06-7.03010E-05-4.36803E-05-4.46598E-18-1.81434E-18
 -1      2104 1.29380E-04-3.30171E-05-4.14616E-05-1.18811E-04-5.29819E-18-2.63088E-18
 -1      2105 1.44671E-04-2.11575E-05-5.04418E-05-1.16879E-04-5.90551E-18-2.72067E-18
 -1      2106 8.72476E-05-8.72230E-06-3.37493E-05-1.05348E-05-1.10111E-18-1.52961E-18
 -1      2107 8.79551E-05-9.24099E-06-3.38217E-05-1.20918E-05-1.21789E-18-1.27424E-18
 -1      2108 9.04878E-05-1.30502E-05-3.32362E-05-1.18703E-05-1.27809E-18-1.07327E-18
 -1      2109 8.86847E-05-1.10542E-05-3.32952E-05-9.40738E-06-1.10137E-18-1.47451E-18
 -1      2110 1.70066E-04-8.24565E-06-6.65434E-05 9.27438E-05 1.97062E-18 4.34528E-19
 -1      2111 1.55163E-04-1.55422E-05-5.78350E-05 1.00229E-04 3.22677E-18-1.88888E-19
 -1      2112 1.93950E-04-7.16913E-07-8.05615E-05 7.10108E-05 3.37966E-18-7.54283E-19
 -1      2113 1.77598E-04-8.32412E-07-7.38839E-05 7.44027E-05 2.47461E-18 1.04016E-18
 -1      2114 2.17747E-04-7.32419E-06-8.86944E-05 5.66763E-05 4.43210E-18-3.60053E-18
 -1      2115 2.03148E-04 5.86470E-07-8.60547E-05 6.72514E-05 4.05305E-18-1.93716E-18
 -1      2116 2.21101E-04-1.76764E-05-8.66251E-05 3.50599E-05 2.92269E-18-4.26650E-18
 -1      2117 2.20779E-04-1.14652E-05-8.86018E-05 5.03476E-05 4.32791E-18-3.18040E-18
 -1      2118 2.11649E-04-3.01054E-05-7.78256E-05 1.57661E-05 1.36203E-18-4.35883E-18
 -1      2119 2.25371E-04-2.70972E-05-8.38378E-05 2.81567E-05 1.56786E-18-3.88576E-18
 -1      2120 1.89067E-04-4.33716E-05-6.24844E-05 2.31835E-06 2.87684E-18-5.35282E-18
 -1      2121 2.10567E-04-4.02055E-05-7.17200E-05 6.75323E-06 2.12732E-18-5.46506E-18
 -1      2122 1.55010E-04-5.68773E-05-4.26734E-05-2.14625E-05 4.22034E-18-5.31005E-18
 -1      2123 1.77566E-04-5.59536E-05-5.22473E-05-1.09606E-05 4.04914E-18-4.59177E-18
 -1      2124 1.17760E-04-6.31098E-05-2.44393E-05-3.10749E-05 5.75982E-18-3.42667E-18
 -1      2125 1.41119E-04-5.98293E-05-3.47112E-05-3.30454E-05 5.21264E-18-5.08177E-18
 -1      2126 1.57430E-04-6.99334E-05-3.71255E-05-1.31732E-05 3.92536E-18-3.33265E-18
 -1      2127 7.18236E-05-6.16265E-05-5.82085E-06-3.44301E-05 5.24737E-18-3.91414E-18
 -1      2128 9.34950E-05-5.95966E-05-1.48111E-05-4.05171E-05 5.54087E-18-3.35171E-18
 -1      2129 4.03912E-05-5.74802E-05 6.04098E-06-2.88229E-05 2.45258E-18-4.73640E-18
 -1      2130 5.42463E-05-5.63162E-05 1.32633E-07-3.49184E-05 4.17333E-18-4.59187E-18
 -1      2131 7.61824E-05-6.21459E-05-6.31135E-06-4.16776E-05 2.89939E-18-4.21981E-18
 -1      2132 1.73046E-05-5.59781E-05 1.48038E-05-1.00319E-05 2.47238E-18-4.81623E-18
 -1      2133 2.26019E-05-5.17101E-05 1.13800E-05-1.96576E-05 3.19120E-18-4.24194E-18
 -1      2134 1.44202E-05-5.13371E-05 1.45586E-05 8.24514E-06 1.30612E-18-5.72891E-18
 -1      2135 1.40881E-05-5.47887E-05 1.57530E-05-7.77457E-07 2.45216E-18-5.44896E-18
 -1      2136 3.35359E-05-5.46054E-05 7.82921E-06 2.69715E-05-1.84103E-18-3.05588E-18
 -1      2137 2.38090E-05-5.48713E-05 1.18803E-05 1.99361E-05 4.56551E-19-4.26735E-18
 -1      2138 6.55315E-05-5.60562E-05-4.70166E-06 3.83412E-05-4.16232E-18-3.47395E-18
 -1      2139 4.87981E-05-5.94896E-05 2.81335E-06 3.03927E-05-3.20560E-18-3.64288E-18
 -1      2140 1.12624E-04-6.25342E-05-2.20060E-05 3.79707E-05-4.40034E-18-3.03979E-18
 -1      2141 8.77366E-05-6.20096E-05-1.23779E-05 3.54703E-05-4.61040E-18-2.71538E-18
 -1      2142 1.57827E-04-5.53971E-05-4.32957E-05 2.86015E-05-3.94167E-18-3.74685E-18
 -1      2143 1.35692E-04-6.02974E-05-3.27159E-05 2.84090E-05-3.96962E-18-3.81800E-18
 -1      2144 1.93317E-04-4.84654E-05-6.13378E-05 1.03462E-05-3.07256E-18-3.32460E-18
 -1      2145 1.70444E-04-5.05728E-05-5.18752E-05 1.47375E-05-4.19112E-18-2.89177E-18
 -1      2146 2.12256E-04-3.59970E-05-7.50846E-05-1.31757E-05-1.47680E-18-2.60081E-18
 -1      2147 1.98830E-04-4.00739E-05-6.80681E-05 7.78482E-08-2.88754E-18-3.21110E-18
 -1      2148 1.84147E-04-4.22641E-05-5.99351E-05-1.63904E-05-2.45936E-18-1.41666E-18
 -1      2149 2.23347E-04-2.09680E-05-8.58340E-05-3.65885E-05 1.20956E-18-1.92594E-18
 -1      2150 2.11290E-04-2.24496E-05-8.08396E-05-2.38355E-05 1.20660E-18-1.51788E-18
 -1      2151 1.98442E-04 8.41119E-07-8.54336E-05-5.08153E-05 4.98055E-19-1.87994E-18
 -1      2152 2.16674E-04-1.16666E-05-8.66977E-05-4.22631E-05 1.24471E-18-2.68128E-18
 -1      2153 1.78053E-04 5.77603E-06-7.74674E-05-3.78602E-05 1.35059E-18 2.20250E-18
 -1      2154 1.53431E-04-1.50048E-05-5.74332E-05-9.94340E-05-7.13541E-18-3.48893E-18
 -1      2155 1.68824E-04-6.35537E-06-6.62382E-05-9.67719E-05-5.15102E-18-3.12809E-18
 -1      2156 1.30756E-04-4.08619E-05-3.93760E-05 1.10900E-04 9.65618E-19-2.20483E-18
 -1      2157 1.43571E-04-2.96458E-05-4.74314E-05 1.08284E-04 2.53686E-19-1.03507E-18
 -1      2158 1.50139E-04-3.62987E-05-4.83330E-05-9.21675E-05-3.69730E-18-5.62176E-18
 -1      2159 1.61149E-04-1.42059E-05-6.06672E-05-6.07865E-05-5.20671E-18-1.53313E-18
 -1      2160 9.71988E-05-2.43178E-05-3.13081E-05-9.99825E-06-1.20572E-18 1.21044E-18
 -1      2161 9.63566E-05-2.31083E-05-3.14580E-05-1.03804E-05-1.31105E-18 3.76811E-19
 -1      2162 8.92175E-05-2.83691E-05-2.60801E-05 1.92567E-05-2.40147E-19-4.73293E-19
 -1      2163 1.35265E-04-5.58879E-05-3.51206E-05-8.02791E-05 4.79103E-19-6.43491E-18
 -1      2164 1.23926E-04-3.39622E-05-3.94193E-05-1.10604E-04-6.33078E-19-5.49809E-18
 -1      2165 1.18115E-04-3.13220E-05-3.80036E-05-1.29024E-04-4.75609E-18-2.15422E-18
 -1      2166 8.88758E-05-7.70423E-06-3.67327E-05-1.26274E-04-5.10846E-18 4.22204E-18
 -1      2167 2.43004E-05 2.89593E-05-2.87823E-05 1.50072E-05 1.57548E-19 1.24260E-17
 -1      2168 4.28969E-05 1.77537E-05-2.97436E-05 7.06585E-05-1.44716E-18 1.19703E-17
 -1      2169 1.49137E-04 1.29764E-05-6.98066E-05-3.09860E-05-3.74643E-18-5.19655E-19
 -1      2170 1.79444E-04 7.01774E-06-7.89610E-05-4.38262E-05-1.91514E-18-7.42848E-19
 -1      2171 1.51251E-04 1.63052E-05-7.17471E-05-2.92636E-05-9.98652E-19 1.88645E-18
 -1      2172 1.31299E-04-1.68959E-05-5.00075E-05-1.31597E-05-3.19522E-18-2.20229E-18
 -1      2173 1.33254E-04-4.11153E-05-4.04512E-05-1.78801E-05-1.27690E-18-1.28325E-18
 -1      2174 7.08925E-05-9.64065E-06-3.12250E-05-1.21408E-04-3.37289E-18 9.26231E-18
 -1      2175 4.09751E-05 1.01757E-05-2.87348E-05-7.14873E-05-4.18434E-18 1.41827E-17
 -1      2176 9.36286E-05-3.48661E-05-2.52978E-05 2.21957E-05 6.52559E-19 1.30324E-18
 -1      2177 2.92312E-05 1.04272E-05-2.54678E-05-3.65493E-05-1.24302E-18 1.53330E-17
 -1      2178 1.41043E-04-4.79400E-05-4.02784E-05-6.66176E-05-1.78512E-19-5.20798E-18
 -1      2179 1.88566E-04-1.83058E-05-7.20277E-05-3.06886E-05-3.03238E-19-6.19605E-19
 -1      2180 1.69096E-04-6.10054E-05-4.59387E-05 4.79181E-06-3.31402E-18-1.86517E-18
 -1      2181 1.31238E-04-6.75789E-05-2.73235E-05 2.94909E-05-3.93362E-18-2.41320E-18
 -1      2182 1.28012E-04-7.32374E-05-2.28343E-05 3.13054E-05-4.10176E-18-1.81816E-18
 -1      2183 1.47425E-04-7.36941E-05-3.25190E-05 1.90602E-05-3.05186E-18-2.77975E-18
 -1      2184 8.97118E-05-6.51889E-05-1.05426E-05 4.18074E-05-3.71805E-18-2.89660E-18
 -1      2185 4.93858E-05-5.40838E-05 1.36943E-06 3.76221E-05-1.60809E-18-4.07296E-18
 -1      2186 2.14265E-05-4.39868E-05 8.95527E-06 1.84246E-05 2.08391E-18-5.18935E-18
 -1      2187 3.74664E-05-4.94262E-05 4.59658E-06-3.12708E-05 2.29715E-18-4.18604E-18
 -1      2188 1.20358E-04-7.19324E-05-2.07541E-05-3.39919E-05 4.91025E-18-2.64179E-18
 -1      2189 1.80178E-04-5.21004E-05-5.48385E-05 6.05209E-06 2.55489E-18-4.78277E-18
 -1      2190 1.74352E-04-4.56858E-05-5.59768E-05 2.55909E-05 1.81064E-18-2.77149E-18
 -1      2191 1.70089E-04-5.95537E-05-4.69924E-05 1.17396E-05 2.42328E-18-3.02751E-18
 -1      2192 1.88160E-04-2.50159E-05-6.92307E-05 2.92091E-05 2.02949E-18-3.04508E-18
 -1      2193 1.85956E-04-2.31769E-06-7.73365E-05 3.65150E-05 2.23278E-18-2.94556E-18
 -1      2194 1.80657E-04 9.38134E-06-7.97479E-05 4.01962E-05 4.21060E-18-2.51315E-18
 -1      2195 1.72021E-04 5.85053E-06-7.43715E-05 4.25980E-05 3.63038E-18-3.58041E-18
 -1      2196 1.64815E-04-1.42448E-05-6.22483E-05 5.97384E-05 1.80534E-18-1.18585E-20
 -1      2197 1.56402E-05-4.13981E-05 1.02648E-05-7.84640E-06 1.98227E-18-5.52011E-18
 -1      2198 9.52241E-05-2.63791E-05-2.94918E-05 4.19058E-06 9.12976E-19 2.77919E-19
 -1      2199 9.61979E-05-2.58644E-05-3.00694E-05 5.99605E-06 1.05249E-18 4.10265E-19
 -1      2200 8.81270E-05-1.11782E-05-3.30172E-05-3.65873E-06-5.26148E-19-1.63682E-18
 -1      2201 8.83619E-05-1.14488E-05-3.29996E-05-4.79935E-06-7.06774E-19-1.72075E-18
 -1      2202 8.87147E-05-1.19326E-05-3.29514E-05-5.81586E-06-8.31909E-19-1.74806E-18
 -1      2203 8.91234E-05-1.24051E-05-3.29234E-05-6.98786E-06-9.35141E-19-1.61451E-18
 -1      2204 8.98819E-05-1.38174E-05-3.25979E-05-4.89989E-06-7.13836E-19-1.56624E-18
 -1      2205 8.77802E-05-1.07194E-05-3.30601E-05 6.15292E-07 4.89871E-20-1.82214E-18
 -1      2206 8.77758E-05-1.07144E-05-3.30603E-05-4.95173E-07-1.26941E-19-1.74755E-18
 -1      2207 8.79619E-05-1.09445E-05-3.30418E-05 2.75614E-06 2.73471E-19-1.79674E-18
 -1      2208 8.78466E-05-1.08113E-05-3.30510E-05 1.63731E-06 1.81746E-19-1.87065E-18
 -1      2209 8.90974E-05-1.27652E-05-3.27170E-05 1.04906E-06 1.34080E-19-1.71341E-18
 -1      2210 8.83978E-05-1.14923E-05-3.29970E-05 4.88436E-06 5.44457E-19-1.79253E-18
 -1      2211 8.81574E-05-1.12152E-05-3.30149E-05 3.76162E-06 4.09939E-19-1.75202E-18
 -1      2212 8.93642E-05-1.31214E-05-3.26772E-05 3.01889E-06 3.46501E-19-1.67071E-18
 -1      2213 8.91794E-05-1.24757E-05-3.29188E-05 7.07101E-06 8.71602E-19-1.53179E-18
 -1      2214 8.87603E-05-1.19888E-05-3.29476E-05 5.89965E-06 6.82773E-19-1.71342E-18
 -1      2215 8.99233E-05-1.38702E-05-3.25932E-05 4.97201E-06 6.02452E-19-1.59441E-18
 -1      2216 9.04518E-05-1.40856E-05-3.27926E-05 9.21881E-06 1.12648E-18-1.34009E-18
 -1      2217 8.97699E-05-1.32742E-05-3.28375E-05 8.04033E-06 9.68934E-19-1.46867E-18
 -1      2218 9.08612E-05-1.51307E-05-3.24490E-05 6.86716E-06 8.32367E-19-1.42821E-18
 -1      2219 9.24527E-05-1.66588E-05-3.25835E-05 1.11025E-05 1.37021E-18-8.41481E-19
 -1      2220 9.13724E-05-1.53183E-05-3.26551E-05 1.00225E-05 1.19928E-18-1.15412E-18
 -1      2221 9.22874E-05-1.70857E-05-3.22086E-05 8.51163E-06 1.12663E-18-1.15913E-18
 -1      2222 9.59203E-05-2.50967E-05-3.03068E-05-6.18468E-06-1.04896E-18-8.50342E-20
 -1      2223 9.52618E-05-2.58547E-05-2.97629E-05-4.27392E-06-9.38420E-19-1.69159E-19
 -1      2224 9.42448E-05-2.71192E-05-2.87514E-05 1.75973E-06 9.05806E-19-5.10321E-20
 -1      2225 9.48445E-05-2.68955E-05-2.90497E-05 2.73304E-06 8.59328E-19 1.47675E-19
 -1      2226 9.53458E-05-2.58487E-05-2.97923E-05 4.35604E-06 1.04182E-18-1.88263E-19
 -1      2227 9.50777E-05-2.00258E-05-3.22136E-05-1.17446E-05-1.38413E-18-1.83105E-19
 -1      2228 9.54748E-05-2.33648E-05-3.09297E-05-7.96219E-06-1.22053E-18-5.61792E-20
 -1      2229 9.50867E-05-2.25604E-05-3.10556E-05-7.64373E-06-1.20515E-18-3.95508E-19
 -1      2230 9.32190E-05-1.76225E-05-3.24164E-05-1.14015E-05-1.39284E-18-6.40370E-19
 -1      2231 9.51465E-05-2.65387E-05-2.93459E-05-2.93504E-06-7.48637E-19-1.00524E-19
 -1      2232 9.46754E-05-2.69088E-05-2.90427E-05-1.87221E-06-5.33788E-19-1.78618E-19
 -1      2233 9.53415E-05-2.53643E-05-2.99969E-05-4.28853E-06-9.42071E-19-3.73109E-19
 -1      2234 9.44805E-05-2.72390E-05-2.87793E-05-1.02032E-06-4.68620E-19-2.21961E-19
 -1      2235 9.42229E-05-2.74528E-05-2.86132E-05-4.18357E-07-4.21897E-19-2.28904E-19
 -1      2236 9.50366E-05-2.66985E-05-2.93006E-05-1.91313E-06-5.63202E-19-3.84955E-19
 -1      2237 9.40744E-05-2.76334E-05-2.84521E-05 8.96876E-08-3.57851E-19-2.60206E-19
 -1      2238 9.39768E-05-2.77772E-05-2.83687E-05 4.19665E-07-2.89235E-19-1.91031E-19
 -1      2239 9.47329E-05-2.74279E-05-2.88578E-05-4.33811E-07-4.33158E-19-4.08270E-19
 -1      2240 9.38923E-05-2.78870E-05-2.82753E-05 7.02424E-07-2.74381E-19-2.17577E-19
 -1      2241 9.38986E-05-2.79943E-05-2.82426E-05 8.66557E-07-1.93783E-19-3.68701E-19
 -1      2242 9.45323E-05-2.78565E-05-2.85857E-05 4.37015E-07-3.55398E-19-5.59398E-19
 -1      2243 9.38672E-05-2.80666E-05-2.81937E-05 1.00368E-06-1.74523E-19-3.72192E-19
 -1      2244 9.39349E-05-2.81508E-05-2.81915E-05 1.06574E-06-1.38856E-19-2.51728E-19
 -1      2245 9.44398E-05-2.81262E-05-2.84276E-05 9.07829E-07-2.02313E-19-7.44694E-19
 -1      2246 9.39404E-05-2.82007E-05-2.81714E-05 1.11044E-06-2.08688E-19-5.13472E-19
 -1      2247 9.40397E-05-2.82678E-05-2.81867E-05 1.11049E-06-3.78717E-19-6.39987E-19
 -1      2248 9.44301E-05-2.83036E-05-2.83450E-05 1.12023E-06-2.40573E-19-1.11865E-18
 -1      2249 9.40678E-05-2.83029E-05-2.81845E-05 1.09849E-06-7.70775E-19-4.29893E-19
 -1      2250 9.41790E-05-2.83563E-05-2.82088E-05 1.06254E-06-1.07125E-18-5.97313E-19
 -1      2251 9.44746E-05-2.84225E-05-2.83112E-05 1.16960E-06-5.39652E-19-8.12604E-19
 -1      2252 9.42189E-05-2.83808E-05-2.82172E-05 1.01789E-06-1.00087E-18-5.91175E-19
 -1      2253 9.43296E-05-2.84227E-05-2.82452E-05 9.63037E-07-7.00578E-19-3.92164E-19
 -1      2254 9.45498E-05-2.85019E-05-2.83081E-05 1.12038E-06-9.83728E-19-6.03436E-19
 -1      2255 9.43740E-05-2.84395E-05-2.82592E-05 9.01873E-07-4.15659E-19-4.87137E-19
 -1      2256 9.44769E-05-2.84717E-05-2.82875E-05 8.39307E-07-3.04123E-21-6.04861E-19
 -1      2257 9.46386E-05-2.85536E-05-2.83231E-05 1.01611E-06-7.12360E-19-7.46300E-19
 -1      2258 9.45210E-05-2.84828E-05-2.83040E-05 7.72278E-07 3.60914E-20-7.65728E-19
 -1      2259 9.46123E-05-2.85070E-05-2.83306E-05 7.09188E-07 7.63099E-20-4.83990E-19
 -1      2260 9.47296E-05-2.85855E-05-2.83478E-05 8.85916E-07-1.82775E-19-8.16753E-19
 -1      2261 9.46533E-05-2.85137E-05-2.83475E-05 6.43137E-07 2.29219E-19-7.69498E-19
 -1      2262 9.47317E-05-2.85313E-05-2.83714E-05 5.83990E-07 8.46420E-20-7.15657E-19
 -1      2263 9.48158E-05-2.86033E-05-2.83768E-05 7.48906E-07 1.01137E-19-9.26654E-19
 -1      2264 9.47682E-05-2.85348E-05-2.83876E-05 5.23156E-07-8.05099E-20-6.14760E-19
 -1      2265 9.48338E-05-2.85471E-05-2.84084E-05 4.70601E-07-4.73449E-20-7.93813E-19
 -1      2266 9.48936E-05-2.86110E-05-2.84067E-05 6.17274E-07 7.81487E-20-1.02720E-18
 -1      2267 9.48655E-05-2.85482E-05-2.84234E-05 4.17503E-07-2.02556E-19-5.50258E-19
 -1      2268 9.49195E-05-2.85563E-05-2.84412E-05 3.73035E-07 2.42266E-21-3.66969E-19
 -1      2269 9.49616E-05-2.86115E-05-2.84355E-05 4.98529E-07 8.73074E-21-7.04397E-19
 -1      2270 9.49466E-05-2.85556E-05-2.84548E-05 3.29127E-07-2.19853E-19-6.01567E-19
 -1      2271 9.49908E-05-2.85604E-05-2.84700E-05 2.93578E-07-5.99640E-19-8.16566E-19
 -1      2272 9.50198E-05-2.86069E-05-2.84624E-05 3.97148E-07-3.85899E-19-7.38887E-19
 -1      2273 9.50142E-05-2.85583E-05-2.84823E-05 2.59741E-07-4.71189E-19-8.65126E-19
 -1      2274 9.50508E-05-2.85605E-05-2.84955E-05 2.33652E-07-4.69115E-19-6.58339E-19
 -1      2275 9.50693E-05-2.85986E-05-2.84873E-05 3.15811E-07-6.05597E-19-6.64251E-19
 -1      2276 9.50715E-05-2.85573E-05-2.85071E-05 2.10574E-07-7.36426E-19-7.85479E-19
 -1      2277 9.51032E-05-2.85575E-05-2.85191E-05 1.94480E-07-7.54663E-19-8.66374E-19
 -1      2278 9.51122E-05-2.85873E-05-2.85106E-05 2.56336E-07-6.24996E-19-1.22360E-18
 -1      2279 9.51225E-05-2.85534E-05-2.85304E-05 1.82937E-07-2.19334E-19-5.49271E-19
 -1      2280 9.51520E-05-2.85522E-05-2.85420E-05 1.77586E-07 1.64819E-19-3.22434E-19
 -1      2281 9.51510E-05-2.85735E-05-2.85332E-05 2.20391E-07-2.86341E-19-6.54041E-19
 -1      2282 9.51717E-05-2.85472E-05-2.85539E-05 1.78671E-07 1.37330E-19-4.24487E-19
 -1      2283 9.52023E-05-2.85451E-05-2.85663E-05 1.85199E-07 6.61166E-19-7.31989E-19
 -1      2284 9.51885E-05-2.85573E-05-2.85564E-05 2.10039E-07 2.83768E-19-2.39174E-19
 -1      2285 9.52241E-05-2.85393E-05-2.85796E-05 2.00491E-07 9.90709E-19-9.94094E-19
 -1      2286 9.52595E-05-2.85369E-05-2.85939E-05 2.20551E-07 1.18744E-18-7.10114E-19
 -1      2287 9.52282E-05-2.85384E-05-2.85818E-05 2.28165E-07 7.44934E-19-4.08839E-19
 -1      2288 9.52856E-05-2.85303E-05-2.86097E-05 2.52246E-07 1.07870E-18-8.25368E-19
 -1      2289 9.53301E-05-2.85283E-05-2.86272E-05 2.88105E-07 7.52311E-19-3.14418E-19
 -1      2290 9.52741E-05-2.85167E-05-2.86110E-05 2.78793E-07 1.23519E-18-7.27475E-19
 -1      2291 9.53630E-05-2.85209E-05-2.86467E-05 3.39098E-07 5.47386E-19-3.16384E-19
 -1      2292 9.54214E-05-2.85201E-05-2.86692E-05 3.93693E-07 2.58982E-19-3.48916E-19
 -1      2293 9.53309E-05-2.84917E-05-2.86463E-05 3.67306E-07 7.79138E-19-6.26532E-19
 -1      2294 9.54640E-05-2.85120E-05-2.86937E-05 4.67603E-07-9.21343E-20-9.09479E-19
 -1      2295 9.55423E-05-2.85135E-05-2.87230E-05 5.44527E-07-1.08053E-19-6.75671E-19
 -1      2296 9.54038E-05-2.84634E-05-2.86900E-05 5.00558E-07 4.32467E-20-3.19925E-19
 -1      2297 9.55979E-05-2.85053E-05-2.87539E-05 6.45645E-07-1.59037E-19-5.39816E-19
 -1      2298 9.57027E-05-2.85106E-05-2.87919E-05 7.49058E-07-3.63170E-19-1.76378E-19
 -1      2299 9.54990E-05-2.84319E-05-2.87446E-05 6.86836E-07-7.31206E-20-1.22224E-18
 -1      2300 9.57752E-05-2.85029E-05-2.88308E-05 8.82168E-07-3.53927E-19 1.42712E-19
 -1      2301 9.59143E-05-2.85142E-05-2.88799E-05 1.01655E-06-9.03544E-20 4.38817E-19
 -1      2302 9.56239E-05-2.83982E-05-2.88130E-05 9.35605E-07 1.11482E-19-9.24181E-19
 -1      2303 9.60080E-05-2.85082E-05-2.89283E-05 1.18657E-06-5.57356E-19 9.04029E-20
 -1      2304 9.61902E-05-2.85284E-05-2.89909E-05 1.35627E-06-1.79151E-19-7.87092E-19
 -1      2305 9.57866E-05-2.83641E-05-2.88977E-05 1.25693E-06-7.17414E-19 1.13818E-20
 -1      2306 9.63103E-05-2.85263E-05-2.90501E-05 1.56761E-06 2.37980E-20-7.99564E-19
 -1      2307 9.65452E-05-2.85595E-05-2.91284E-05 1.77602E-06-5.90024E-20-6.47808E-19
 -1      2308 9.59967E-05-2.83335E-05-2.90012E-05 1.66040E-06-2.20766E-19-7.45333E-19
 -1      2309 9.66972E-05-2.85648E-05-2.91993E-05 2.03153E-06 5.35434E-21-5.92379E-19
 -1      2310 9.69949E-05-2.86170E-05-2.92953E-05 2.27976E-06 3.08757E-19-2.68875E-19
 -1      2311 9.62651E-05-2.83132E-05-2.91252E-05 2.15337E-06-3.50745E-20-4.56869E-19
 -1      2312 9.71855E-05-2.86356E-05-2.93782E-05 2.57903E-06 3.72503E-19-8.90381E-20
 -1      2313 9.75562E-05-2.87149E-05-2.94930E-05 2.86382E-06 3.93925E-19 5.26322E-19
 -1      2314 9.66045E-05-2.83147E-05-2.92704E-05 2.73807E-06 4.27618E-19-3.92734E-19
 -1      2315 9.77935E-05-2.87563E-05-2.95868E-05 3.20061E-06-9.01586E-20 4.19543E-19
 -1      2316 9.82459E-05-2.88746E-05-2.97201E-05 3.51104E-06 3.25909E-20 9.52920E-19
 -1      2317 9.70304E-05-2.83570E-05-2.94350E-05 3.40725E-06 3.56343E-19-4.74272E-19
 -1      2318 9.85409E-05-2.89539E-05-2.98220E-05 3.86947E-06-4.93792E-19 2.69916E-19
 -1      2319 9.90818E-05-2.91281E-05-2.99710E-05 4.18225E-06-9.36737E-19-2.60437E-19
 -1      2320 9.75623E-05-2.84710E-05-2.96144E-05 4.13771E-06-9.32846E-19-8.52082E-19
 -1      2321 9.94498E-05-2.92688E-05-3.00756E-05 4.53131E-06-2.90985E-19-8.61138E-19
 -1      2322 1.00082E-04-2.95225E-05-3.02339E-05 4.80412E-06 2.88802E-20-1.05181E-18
 -1      2323 9.82273E-05-2.87046E-05-2.97998E-05 4.88103E-06-7.56769E-19-8.87653E-19
 -1      2324 1.00546E-04-2.97599E-05-3.03331E-05 5.09022E-06 1.51875E-19-8.89910E-19
 -1      2325 1.01265E-04-3.01247E-05-3.04896E-05 5.25329E-06-6.39264E-20-3.05172E-19
 -1      2326 9.90651E-05-2.91307E-05-2.99773E-05 5.55075E-06-6.40234E-20-3.10111E-19
 -1      2327 1.01862E-04-3.05086E-05-3.05726E-05 5.39067E-06 2.11996E-19 9.53645E-19
 -1      2328 1.02653E-04-3.10226E-05-3.07107E-05 5.33792E-06 9.04112E-19 1.52383E-18
 -1      2329 1.00135E-04-2.98537E-05-3.01281E-05 6.00589E-06 1.04373E-18 1.27146E-18
 -1      2330 1.03432E-04-3.16149E-05-3.07657E-05 5.19797E-06 5.19587E-19 1.65824E-18
 -1      2331 1.04263E-04-3.23131E-05-3.08641E-05 4.78160E-06 1.02530E-18 1.67720E-18
 -1      2332 1.01522E-04-3.10096E-05-3.02312E-05 6.03130E-06 9.74714E-19 1.37425E-18
 -1      2333 1.05281E-04-3.31731E-05-3.08831E-05 4.18494E-06 1.32122E-18 1.02598E-18
 -1      2334 1.06087E-04-3.40598E-05-3.09194E-05 3.22309E-06 1.11501E-18 9.34238E-19
 -1      2335 1.03336E-04-3.27453E-05-3.02704E-05 5.31907E-06 5.75138E-19 1.60509E-18
 -1      2336 1.07380E-04-3.51999E-05-3.09064E-05 1.94676E-06 1.44936E-18-1.34751E-19
 -1      2337 1.08034E-04-3.61924E-05-3.08652E-05 2.62681E-07 1.07576E-18 8.62318E-19
 -1      2338 1.05673E-04-3.51471E-05-3.02493E-05 3.46417E-06 9.51145E-19 6.88875E-19
 -1      2339 1.09543E-04-3.74932E-05-3.08479E-05-1.91623E-06 5.20330E-20 1.40237E-18
 -1      2340 1.09814E-04-3.83279E-05-3.07339E-05-4.39986E-06-6.29676E-19 1.30048E-18
 -1      2341 1.08521E-04-3.80876E-05-3.02127E-05 8.05595E-09 6.97647E-19-7.73767E-20
 -1      2342 1.11254E-04-3.94017E-05-3.07751E-05-7.57723E-06-7.74301E-19 2.33475E-18
 -1      2343 1.10774E-04-3.95365E-05-3.06258E-05-1.06617E-05-6.01317E-19 2.95756E-18
 -1      2344 1.11554E-04-4.09526E-05-3.02723E-05-5.41498E-06 2.01342E-19 2.55195E-18
 -1      2345 1.11476E-04-3.96169E-05-3.08187E-05-1.45178E-05-9.73046E-19 3.64557E-18
 -1      2346 1.09812E-04-3.82869E-05-3.07018E-05-1.74864E-05-3.02331E-19 3.86312E-18
 -1      2347 1.13817E-04-4.23217E-05-3.06149E-05-1.26925E-05-2.79769E-19 3.23102E-18
 -1      2348 1.08814E-04-3.64169E-05-3.11230E-05-2.09110E-05 5.22361E-19 3.36154E-18
 -1      2349 1.05749E-04-3.30616E-05-3.11027E-05-2.24244E-05 7.94975E-19 3.04334E-18
 -1      2350 1.13626E-04-4.00627E-05-3.14401E-05-2.05108E-05-6.44494E-19 3.64611E-18
 -1      2351 1.02354E-04-2.87923E-05-3.17088E-05-2.34300E-05 3.60044E-19 1.55247E-18
 -1      2352 9.82920E-05-2.38699E-05-3.17575E-05-2.18955E-05-1.00691E-19 1.92347E-18
 -1      2353 1.09221E-04-3.24171E-05-3.27955E-05-2.57866E-05-3.71990E-19 2.69981E-18
 -1      2354 9.32156E-05-1.84321E-05-3.22604E-05-1.85240E-05-7.55964E-19 1.90874E-18
 -1      2355 8.95270E-05-1.40022E-05-3.22205E-05-1.33496E-05-1.74521E-18 1.48441E-18
 -1      2356 1.00563E-04-2.03979E-05-3.42649E-05-2.39844E-05-9.52058E-19 2.79895E-18
 -1      2357 8.48745E-05-1.04908E-05-3.20700E-05-4.97446E-06-2.43800E-18 1.90510E-18
 -1      2358 8.37859E-05-9.97271E-06-3.16037E-05 2.27199E-06-2.25427E-18 1.46595E-18
 -1      2359 8.99819E-05-8.98221E-06-3.46576E-05-1.25823E-05-1.48969E-18 1.61725E-18
 -1      2360 8.27415E-05-1.16127E-05-3.03494E-05 1.14948E-05-2.53739E-18 1.09041E-18
 -1      2361 8.48507E-05-1.64811E-05-2.94209E-05 1.70658E-05-1.95530E-18 7.79376E-19
 -1      2362 8.47979E-05-7.04839E-06-3.33850E-05 5.74530E-06-2.86920E-18 2.34596E-18
 -1      2363 9.36347E-05-2.74748E-05-2.83427E-05 3.63628E-07 6.61728E-19-1.53560E-19
 -1      2364 9.39161E-05-2.73385E-05-2.84895E-05 8.97705E-07 7.98673E-19-8.42467E-20
 -1      2365 9.47407E-05-2.69406E-05-2.90699E-05 1.87746E-06 9.58606E-19-4.70512E-19
 -1      2366 9.33536E-05-2.76949E-05-2.81321E-05-4.17514E-07 3.90333E-19-3.79310E-19
 -1      2367 9.34304E-05-2.75895E-05-2.81931E-05-1.31499E-07 5.53922E-19-1.56570E-19
 -1      2368 9.42765E-05-2.74908E-05-2.86361E-05 3.96016E-07 6.91511E-19-5.12726E-19
 -1      2369 9.33041E-05-2.78600E-05-2.80427E-05-8.24787E-07 3.52616E-19-5.92277E-19
 -1      2370 9.32577E-05-2.77685E-05-2.80538E-05-6.85119E-07 3.79108E-19-5.37114E-19
 -1      2371 9.40214E-05-2.78104E-05-2.83874E-05-4.51980E-07 5.10510E-19-5.92593E-19
 -1      2372 9.33996E-05-2.79966E-05-2.80268E-05-1.00128E-06 5.69414E-19-6.66057E-19
 -1      2373 9.32855E-05-2.79152E-05-2.80094E-05-9.50095E-07 3.58984E-19-6.10281E-19
 -1      2374 9.39357E-05-2.80204E-05-2.82575E-05-9.00434E-07 4.71011E-19-6.91295E-19
 -1      2375 9.35756E-05-2.81125E-05-2.80537E-05-1.03634E-06 6.56048E-19-1.94942E-19
 -1      2376 9.34300E-05-2.80410E-05-2.80213E-05-1.03832E-06 7.10440E-19-3.35718E-19
 -1      2377 9.39653E-05-2.81703E-05-2.82032E-05-1.09733E-06 3.96148E-19-6.72084E-19
 -1      2378 9.37875E-05-2.82105E-05-2.81033E-05-9.87562E-07 3.26499E-19-1.96096E-19
 -1      2379 9.36334E-05-2.81491E-05-2.80645E-05-1.02017E-06 6.21634E-19-6.51487E-20
 -1      2380 9.40643E-05-2.82820E-05-2.81957E-05-1.13820E-06 4.57271E-19-1.53428E-19
 -1      2381 9.40064E-05-2.82919E-05-2.81628E-05-8.92693E-07 7.52305E-19-3.77264E-19
 -1      2382 9.38578E-05-2.82404E-05-2.81229E-05-9.41262E-07 4.75548E-19-2.93148E-19
 -1      2383 9.41986E-05-2.83662E-05-2.82157E-05-1.08591E-06 5.42453E-19-3.55155E-19
 -1      2384 9.42148E-05-2.83582E-05-2.82241E-05-7.76529E-07 5.99847E-19-4.52372E-19
 -1      2385 9.40794E-05-2.83160E-05-2.81862E-05-8.31515E-07 6.90638E-19-3.04777E-19
 -1      2386 9.43450E-05-2.84295E-05-2.82504E-05-9.82192E-07 7.38549E-19-3.83555E-19
 -1      2387 9.44029E-05-2.84109E-05-2.82823E-05-6.55117E-07 4.19548E-19-4.95268E-19
 -1      2388 9.42845E-05-2.83771E-05-2.82481E-05-7.10419E-07 6.81578E-19-3.78667E-19
 -1      2389 9.44889E-05-2.84762E-05-2.82914E-05-8.54641E-07 5.15049E-19-1.92984E-19
 -1      2390 9.45663E-05-2.84518E-05-2.83350E-05-5.38548E-07-1.53162E-19-1.86425E-19
 -1      2391 9.44659E-05-2.84254E-05-2.83052E-05-5.90398E-07 5.76797E-20-2.98924E-19
 -1      2392 9.46215E-05-2.85098E-05-2.83335E-05-7.21205E-07 1.01028E-19 1.97105E-19
 -1      2393 9.47043E-05-2.84826E-05-2.83809E-05-4.32893E-07 1.02597E-19-2.09642E-19
 -1      2394 9.46213E-05-2.84626E-05-2.83558E-05-4.79083E-07 2.08969E-19-5.61413E-20
 -1      2395 9.47388E-05-2.85331E-05-2.83735E-05-5.93240E-07-5.72480E-20-1.82353E-20
 -1      2396 9.48184E-05-2.85052E-05-2.84202E-05-3.41604E-07-6.32982E-20-1.83728E-19
 -1      2397 9.47511E-05-2.84904E-05-2.83993E-05-3.80921E-07-3.45652E-20-3.03158E-21
 -1      2398 9.48393E-05-2.85481E-05-2.84101E-05-4.77651E-07 1.89463E-19 8.23370E-20
 -1      2399 9.49118E-05-2.85209E-05-2.84533E-05-2.66539E-07 3.27084E-19 8.48031E-21
 -1      2400 9.48577E-05-2.85104E-05-2.84361E-05-2.98350E-07 1.02987E-19-5.74312E-20
 -1      2401 9.49239E-05-2.85569E-05-2.84426E-05-3.78451E-07-1.27872E-19 2.18885E-19
 -1      2402 9.49885E-05-2.85314E-05-2.84816E-05-2.08754E-07 5.48582E-19 3.01021E-19
 -1      2403 9.49448E-05-2.85242E-05-2.84672E-05-2.32681E-07 5.34286E-19 3.21989E-19
 -1      2404 9.49944E-05-2.85607E-05-2.84713E-05-2.97931E-07 2.17225E-19 2.91334E-19
 -1      2405 9.50533E-05-2.85379E-05-2.85063E-05-1.69088E-07-2.62589E-19 4.03595E-19
 -1      2406 9.50168E-05-2.85332E-05-2.84939E-05-1.84772E-07 3.94745E-19 7.24740E-19
 -1      2407 9.50539E-05-2.85606E-05-2.84969E-05-2.37538E-07 2.49136E-20 1.08825E-18
 -1      2408 9.51115E-05-2.85417E-05-2.85294E-05-1.48633E-07-5.33054E-19 3.77624E-20
 -1      2409 9.50788E-05-2.85386E-05-2.85179E-05-1.55534E-07-3.83644E-19 2.51704E-19
 -1      2410 9.51058E-05-2.85576E-05-2.85206E-05-1.98548E-07-3.37783E-19 8.80918E-19
 -1      2411 9.51692E-05-2.85440E-05-2.85528E-05-1.49091E-07-3.94325E-19-3.09551E-19
 -1      2412 9.51365E-05-2.85417E-05-2.85411E-05-1.46342E-07-4.90937E-19-2.85514E-19
 -1      2413 9.51543E-05-2.85523E-05-2.85439E-05-1.82585E-07-2.86872E-19 1.26068E-19
 -1      2414 9.52332E-05-2.85461E-05-2.85789E-05-1.73075E-07 4.61583E-19-6.10516E-19
 -1      2415 9.51963E-05-2.85436E-05-2.85656E-05-1.59349E-07-9.59237E-20-7.29738E-19
 -1      2416 9.52043E-05-2.85451E-05-2.85686E-05-1.92038E-07 3.89406E-20-4.00976E-19
 -1      2417 9.53115E-05-2.85494E-05-2.86105E-05-2.24348E-07 7.19304E-19 3.58259E-19
 -1      2418 9.52655E-05-2.85458E-05-2.85941E-05-1.97755E-07 8.39236E-19-8.51316E-20
 -1      2419 9.52609E-05-2.85366E-05-2.85968E-05-2.30382E-07 2.77166E-19-6.85322E-19
 -1      2420 9.54133E-05-2.85557E-05-2.86507E-05-3.08004E-07 2.00249E-19-1.48295E-19
 -1      2421 9.53523E-05-2.85497E-05-2.86293E-05-2.66011E-07 5.33880E-19 6.63493E-19
 -1      2422 9.53307E-05-2.85274E-05-2.86310E-05-3.02441E-07 3.26388E-19 5.16047E-19
 -1      2423 9.55495E-05-2.85671E-05-2.87033E-05-4.30597E-07-7.12491E-19 2.72070E-20
 -1      2424 9.54666E-05-2.85572E-05-2.86748E-05-3.69972E-07-3.27143E-19-1.12086E-19
 -1      2425 9.54208E-05-2.85181E-05-2.86740E-05-4.14574E-07-1.21497E-21-5.40180E-20
 -1      2426 9.57329E-05-2.85864E-05-2.87725E-05-6.00163E-07-6.20210E-19-3.50762E-19
 -1      2427 9.56200E-05-2.85705E-05-2.87346E-05-5.16971E-07-4.76247E-19-1.50793E-19
 -1      2428 9.55397E-05-2.85097E-05-2.87290E-05-5.74766E-07-2.43942E-19-3.21294E-19
 -1      2429 9.59785E-05-2.86169E-05-2.88634E-05-8.26087E-07 4.41265E-19-1.32779E-18
 -1      2430 9.58260E-05-2.85928E-05-2.88130E-05-7.15766E-07-1.45100E-19-1.21407E-18
 -1      2431 9.56973E-05-2.85036E-05-2.87996E-05-7.92586E-07 1.13914E-19-8.60323E-19
 -1      2432 9.63037E-05-2.86635E-05-2.89813E-05-1.11871E-06-3.26551E-19-9.42744E-19
 -1      2433 9.61004E-05-2.86278E-05-2.89152E-05-9.76283E-07 2.18152E-19-1.02672E-18
 -1      2434 9.59051E-05-2.85022E-05-2.88898E-05-1.07892E-06 3.02618E-20-1.17229E-18
 -1      2435 9.67281E-05-2.87318E-05-2.91322E-05-1.48850E-06-5.46899E-19 2.75963E-19
 -1      2436 9.64612E-05-2.86807E-05-2.90469E-05-1.30902E-06-7.96745E-19-6.17425E-20
 -1      2437 9.61761E-05-2.85085E-05-2.90037E-05-1.44537E-06-6.64549E-19-9.88071E-19
 -1      2438 9.72732E-05-2.88300E-05-2.93220E-05-1.94449E-06 1.07770E-18 6.97269E-19
 -1      2439 9.69288E-05-2.87581E-05-2.92138E-05-1.72387E-06 3.96744E-19 2.16498E-19
 -1      2440 9.65246E-05-2.85278E-05-2.91453E-05-1.90304E-06-2.68524E-19-5.06790E-19
 -1      2441 9.79616E-05-2.89689E-05-2.95559E-05-2.49154E-06 7.92940E-19 4.72706E-19
 -1      2442 9.75251E-05-2.88693E-05-2.94214E-05-2.22807E-06 1.62729E-18 1.03483E-18
 -1      2443 9.69665E-05-2.85679E-05-2.93180E-05-2.46046E-06 1.01068E-18-5.82082E-21
 -1      2444 9.88157E-05-2.91634E-05-2.98374E-05-3.12569E-06 1.45573E-19-4.03764E-19
 -1      2445 9.82732E-05-2.90272E-05-2.96742E-05-2.82254E-06 2.04745E-19 3.23200E-19
 -1      2446 9.75190E-05-2.86411E-05-2.95238E-05-3.12002E-06 7.69058E-19 4.61528E-19
 -1      2447 9.98556E-05-2.94354E-05-3.01664E-05-3.82659E-06-1.90735E-19-2.24522E-19
 -1      2448 9.91960E-05-2.92502E-05-2.99739E-05-3.49602E-06-1.19230E-19 3.41748E-20
 -1      2449 9.82006E-05-2.87676E-05-2.97620E-05-3.87225E-06-2.72281E-19 5.38972E-19
 -1      2450 1.01096E-04-2.98167E-05-3.05368E-05-4.54553E-06 5.78805E-19 4.01447E-20
 -1      2451 1.00315E-04-2.95657E-05-3.03180E-05-4.21549E-06 6.32280E-20 3.08415E-20
 -1      2452 9.90321E-05-2.89797E-05-3.00277E-05-4.68669E-06-1.12180E-19 1.26094E-18
 -1      2453 1.02545E-04-3.03542E-05-3.09327E-05-5.18771E-06 4.04572E-19 6.29512E-19
 -1      2454 1.01647E-04-3.00145E-05-3.06964E-05-4.91148E-06 6.15255E-19 5.15980E-19
 -1      2455 1.00039E-04-2.93295E-05-3.03098E-05-5.49810E-06 6.22721E-19 2.25270E-18
 -1      2456 1.04197E-04-3.11142E-05-3.13253E-05-5.58787E-06-4.29904E-20 4.50578E-19
 -1      2457 1.03205E-04-3.06565E-05-3.10887E-05-5.45698E-06 4.54993E-19 9.72498E-19
 -1      2458 1.01256E-04-2.98976E-05-3.05889E-05-6.18662E-06 5.49386E-19 1.40536E-18
 -1      2459 1.06027E-04-3.21819E-05-3.16693E-05-5.48195E-06-8.93755E-19 3.05127E-19
 -1      2460 1.04992E-04-3.15739E-05-3.14605E-05-5.63983E-06-3.47568E-19 4.81118E-19
 -1      2461 1.02734E-04-3.08023E-05-3.08366E-05-6.55137E-06-6.05827E-21 1.55628E-18
 -1      2462 1.07976E-04-3.36419E-05-3.19046E-05-4.48549E-06-5.76760E-19-1.36190E-18
 -1      2463 1.06995E-04-3.28644E-05-3.17631E-05-5.13391E-06-8.72616E-19-6.06545E-19
 -1      2464 1.04543E-04-3.21970E-05-3.10182E-05-6.28052E-06-2.48263E-19 1.32422E-18
 -1      2465 1.09916E-04-3.55127E-05-3.19665E-05-2.10774E-06-4.69746E-19-8.17807E-19
 -1      2466 1.09150E-04-3.46009E-05-3.19390E-05-3.48669E-06-2.51893E-20-4.60283E-19
 -1      2467 1.06763E-04-3.42339E-05-3.11022E-05-4.92925E-06-3.16446E-19 7.57318E-19
 -1      2468 1.11566E-04-3.75958E-05-3.18129E-05 2.13940E-06-2.05190E-18 6.46913E-19
 -1      2469 1.11279E-04-3.67234E-05-3.19390E-05-1.66625E-07-2.11438E-18-2.71170E-19
 -1      2470 1.09421E-04-3.69476E-05-3.10821E-05-1.93678E-06-1.65824E-18 9.89497E-19
 -1      2471 1.12357E-04-3.92243E-05-3.14681E-05 8.44373E-06-1.73576E-18 2.49347E-18
 -1      2472 1.12938E-04-3.88221E-05-3.17559E-05 5.24409E-06-1.33217E-18 1.40772E-18
 -1      2473 1.12327E-04-4.00012E-05-3.10129E-05 3.24831E-06-2.43650E-18 1.72878E-18
 -1      2474 1.11303E-04-3.90542E-05-3.10601E-05 1.61024E-05-2.29883E-19 1.81013E-18
 -1      2475 1.13215E-04-3.98455E-05-3.14630E-05 1.25755E-05-9.23372E-19 1.82687E-18
 -1      2476 1.14756E-04-4.22874E-05-3.10478E-05 1.07998E-05-9.55691E-19 1.68938E-18
 -1      2477 1.07222E-04-3.53642E-05-3.07959E-05 2.28367E-05 7.79105E-20 1.00867E-18
 -1      2478 1.10751E-04-3.80918E-05-3.12119E-05 2.03168E-05-3.45265E-20 1.70476E-18
 -1      2479 1.15204E-04-4.17691E-05-3.14182E-05 1.97315E-05-1.94571E-19 5.36724E-19
 -1      2480 9.96160E-05-2.73710E-05-3.08365E-05 2.46431E-05 2.34734E-19 9.83452E-19
 -1      2481 1.04354E-04-3.19731E-05-3.11556E-05 2.50568E-05-5.33452E-19 2.84590E-19
 -1      2482 1.11681E-04-3.60828E-05-3.22955E-05 2.70422E-05-3.40534E-20 1.74307E-19
 -1      2483 9.00633E-05-1.72573E-05-3.10324E-05 1.77202E-05 3.35531E-19 2.04240E-18
 -1      2484 9.46006E-05-2.20765E-05-3.12638E-05 2.23661E-05 3.82568E-19 2.37123E-18
 -1      2485 1.03370E-04-2.48943E-05-3.35539E-05 2.78252E-05-1.98788E-19 1.86850E-19
 -1      2486 8.28583E-05-1.08675E-05-3.07651E-05 2.23534E-06-6.53009E-19 2.03051E-18
 -1      2487 8.50747E-05-1.28592E-05-3.10598E-05 9.97111E-06 2.94225E-19 2.85279E-18
 -1      2488 9.26431E-05-1.24603E-05-3.43901E-05 1.76687E-05-1.48760E-19 1.14246E-18
 -1      2489 8.20914E-05-1.40550E-05-2.93338E-05-1.52057E-05-2.07444E-19 2.57395E-18
 -1      2490 8.06017E-05-1.07585E-05-2.99217E-05-8.26553E-06-9.55480E-19 2.02022E-18
 -1      2491 8.49607E-05-6.70048E-06-3.35552E-05-1.44316E-06-3.23527E-19 2.13311E-18
 -1      2492 8.50545E-05-2.08658E-05-2.73406E-05-2.24655E-05 1.58640E-18 2.15520E-18
 -1      2493 1.47816E-04-1.95634E-05-5.50199E-05 4.15737E-05 7.20825E-19-2.22558E-18
 -1      2494 1.00832E-04-4.17559E-09-4.31078E-05-1.14982E-05 1.48337E-18-5.29364E-18
 -1      2495 9.08339E-05-2.99700E-06-3.80553E-05-1.80659E-05 1.64600E-18-1.66500E-18
 -1      2496 8.86193E-05-1.83035E-05-3.02487E-05 2.33531E-05-1.27661E-18 1.50462E-18
 -1      2497 9.22380E-05-1.81057E-05-3.16380E-05 2.29528E-05-1.19579E-18 2.42482E-18
 -1      2498 8.89854E-05-2.57191E-05-2.68813E-05 2.27082E-05-3.73886E-20 1.00062E-18
 -1      2499 9.71380E-05-1.35970E-05-3.65235E-05 1.85115E-05-3.55807E-19 1.66135E-18
 -1      2500 1.10598E-04-1.46102E-05-4.10220E-05 1.18033E-05-1.42344E-18 6.57721E-19
 -1      2501 1.29367E-04-8.64002E-07-5.56726E-05-1.19357E-05-3.00231E-18-8.17387E-19
 -1      2502 9.43324E-05-2.51236E-06-3.99156E-05 1.49677E-05-5.89111E-19 1.27860E-18
 -1      2503 1.62674E-04-5.48501E-06-6.84363E-05-3.74738E-05-6.40780E-19 2.29546E-19
 -1      2504 1.66211E-04-1.93238E-05-6.36220E-05-3.37657E-05-1.99752E-18-1.19326E-18
 -1      2505 1.69449E-04-6.00258E-05-4.75675E-05-8.60959E-06-2.83426E-18-7.89858E-20
 -1      2506 1.60482E-04-6.68850E-05-4.01299E-05 1.75757E-06-2.82856E-18-1.47595E-18
 -1      2507 8.78325E-05-1.07940E-05-3.30522E-05-1.51729E-06-2.21041E-19-1.72138E-18
 -1      2508 8.79382E-05-1.09162E-05-3.30436E-05-2.63541E-06-4.24271E-19-1.68463E-18
 -1      2509 8.93370E-05-1.30881E-05-3.26801E-05-2.92800E-06-4.38003E-19-1.52108E-18
 -1      2510 8.90877E-05-1.27531E-05-3.27181E-05-9.40243E-07-1.99288E-19-1.59717E-18
 -1      2511 1.53035E-04 1.35887E-05-7.23623E-05 2.96476E-05 2.36830E-18-5.10478E-18
 -1      2512 1.52968E-04 1.32976E-05-7.20680E-05 2.85183E-05 3.27929E-18-5.29936E-18
 -1      2513 1.60498E-04-1.14696E-06-6.91269E-05 3.55935E-05 1.73896E-18-3.23355E-18
 -1      2514 1.56797E-04 7.48004E-06-7.13044E-05 3.38766E-05 2.02271E-18-3.49708E-18
 -1      2515 1.68278E-04-2.64595E-05-6.15428E-05 3.31600E-05 1.86517E-18-2.62580E-18
 -1      2516 1.68972E-04-1.47781E-05-6.67963E-05 3.61258E-05 1.73938E-18-2.70394E-18
 -1      2517 1.50865E-04-7.44598E-05-3.27202E-05-1.12812E-05 4.00276E-18-2.61394E-18
 -1      2518 1.62073E-04-7.08110E-05-3.95292E-05-2.85154E-06 3.24043E-18-2.83333E-18
 -1      2519 1.13180E-04-7.17132E-05-1.75539E-05-3.45883E-05 4.05284E-18-1.82358E-18
 -1      2520 1.35308E-04-7.55096E-05-2.58412E-05-2.66823E-05 4.57482E-18-1.18818E-18
 -1      2521 7.23597E-05-5.73913E-05-6.07722E-06-4.10949E-05 2.31261E-18-4.86292E-18
 -1      2522 9.05776E-05-6.40872E-05-1.13505E-05-4.28630E-05 2.95742E-18-3.15117E-18
 -1      2523 3.32570E-05-3.91640E-05 2.95792E-06-2.69853E-05 3.12365E-18-3.27209E-18
 -1      2524 5.07456E-05-4.62574E-05-1.65455E-06-3.84250E-05 3.16155E-18-4.88484E-18
 -1      2525 2.98588E-05-3.76742E-05 3.53384E-06 2.75292E-05 1.95813E-18-6.19816E-18
 -1      2526 2.04421E-05-3.35057E-05 5.95644E-06 1.25723E-05 2.45438E-18-5.45193E-18
 -1      2527 6.55037E-05-5.25087E-05-5.28768E-06 4.28700E-05-1.09966E-18-3.70111E-18
 -1      2528 4.89292E-05-4.55389E-05-9.77317E-07 3.67187E-05 7.10661E-19-4.64788E-18
 -1      2529 1.04107E-04-6.72307E-05-1.57387E-05 3.98613E-05-2.61564E-18-2.27900E-18
 -1      2530 8.33848E-05-6.12985E-05-9.25182E-06 4.16916E-05-2.04791E-18-2.44496E-18
 -1      2531 8.20539E-05-5.55799E-05-1.07203E-05 4.11534E-05-4.26905E-19-3.62996E-18
 -1      2532 1.71502E-04-3.62671E-05-5.88103E-05-2.82522E-05-2.74936E-18-1.61932E-18
 -1      2533 1.69028E-04-4.61614E-05-5.30841E-05-2.23166E-05-3.04868E-18-1.20745E-18
 -1      2534 1.44518E-04 1.39931E-05-6.95253E-05-3.15416E-05 1.09479E-18 1.14823E-18
 -1      2535 1.52393E-04 7.34591E-06-6.92193E-05-3.48725E-05 1.20872E-18 4.81538E-19
 -1      2536 1.73250E-05-3.24268E-05 6.74443E-06-1.80394E-06 1.98721E-18-6.82539E-18
 -1      2537 2.07524E-05-3.39598E-05 5.87748E-06-1.52517E-05 2.81194E-18-5.62938E-18
 -1      2538 9.63426E-05-2.50976E-05-3.05594E-05 7.58876E-06 1.18815E-18 4.94844E-19
 -1      2539 9.74635E-05-2.37810E-05-3.15996E-05 1.06885E-05 1.32831E-18 6.66284E-19
 -1      2540 9.58969E-05-2.13052E-05-3.20237E-05 1.18899E-05 1.44452E-18 2.77867E-19
 -1      2541 9.58857E-05-2.41632E-05-3.07715E-05 7.67918E-06 1.24106E-18 3.97353E-20
 -1      2542 1.34933E-04-5.69834E-05-3.45903E-05-3.18030E-05-1.11822E-18-2.05575E-18
 -1      2543 1.31362E-04 1.43477E-05-6.21557E-05 1.29523E-05 2.01086E-18-7.13509E-18
 -1      2544 1.49217E-04 1.01936E-05-6.89205E-05 2.55181E-05 3.16113E-18-5.85067E-18
 -1      2545 9.08012E-05-1.50486E-05-3.24580E-05-6.79657E-06-9.48312E-19-1.45923E-18
 -1      2546 8.96976E-05-1.31878E-05-3.28446E-05-7.95374E-06-9.86732E-19-1.45324E-18
 -1      2547 9.03311E-05-1.38973E-05-3.28176E-05-9.17227E-06-1.16933E-18-1.34487E-18
 -1      2548 9.42510E-05-1.90828E-05-3.22601E-05 1.15987E-05 1.35845E-18-2.47585E-19
 -1      2549 9.47201E-05-2.06038E-05-3.17198E-05 9.66514E-06 1.27814E-18-4.01288E-19
 -1      2550 9.20567E-05-1.62418E-05-3.25343E-05-1.03851E-05-1.28017E-18-9.97977E-19
 -1      2551 1.65961E-04-3.64308E-05-5.59567E-05 3.35623E-05 1.71768E-18-1.95495E-18
 -1      2552 1.51124E-04-2.56880E-05-5.43951E-05 4.02100E-05 1.39400E-18-5.84029E-19
 -1      2553 1.58383E-04-4.32066E-05-4.95021E-05 3.23472E-05 1.61900E-18-1.56680E-18
 -1      2554 8.53196E-05-1.44098E-05-3.04407E-05-2.05626E-05 1.42275E-18 1.91022E-18
 -1      2555 8.80156E-05-1.97099E-05-2.93281E-05 2.18659E-05-1.44011E-18 1.69761E-18
 -1      2556 8.51449E-05-7.30326E-06-3.33006E-05 1.71394E-05-2.13709E-18 1.47822E-18
 -1      2557 1.18677E-04 1.86957E-05-6.04044E-05-1.39902E-05-1.19093E-18 7.86999E-19
 -1      2558 1.36801E-04 1.63497E-05-6.59108E-05-2.48801E-05-4.21822E-19 1.73794E-18
 -1      2559 1.18362E-04 1.79130E-05-5.85301E-05-2.12281E-05-5.33631E-20 3.99958E-19
 -1      2560 1.55115E-04-2.32907E-05-5.66330E-05-3.76337E-05-2.86594E-18-2.44454E-18
 -1      2561 1.33671E-04-1.08802E-06-5.62661E-05 9.14596E-06 1.07743E-18-7.34568E-18
 -1      2562 1.13221E-04-1.98438E-07-4.96021E-05-4.50267E-06 1.00903E-18-6.16365E-18
 -1      2563 8.67118E-05-1.00850E-05-3.26331E-05-1.89374E-05 1.76808E-18 1.25409E-18
 -1      2564 1.38782E-04 4.59605E-06-6.16889E-05-3.48693E-05-6.36757E-19-1.55113E-19
 -1      2565 8.77233E-05 1.51309E-07-3.81966E-05-1.10717E-05 5.15155E-19 6.81332E-20
 -1      2566 1.63372E-04-5.32811E-05-4.73035E-05-2.22041E-05-2.87332E-18-9.36607E-19
 -1      2567 1.54475E-04-7.24757E-05-3.49745E-05 6.50984E-06-2.62294E-18-8.19504E-19
 -1      2568 1.18390E-04-7.18580E-05-1.96349E-05 3.37571E-05-2.73168E-18-1.59765E-18
 -1      2569 1.10809E-04-6.74132E-05-1.79894E-05 3.54124E-05-9.57253E-19-1.33567E-18
 -1      2570 1.30138E-04-7.49509E-05-2.42343E-05 2.54938E-05-2.21870E-18 3.65733E-19
 -1      2571 4.63151E-05-3.80004E-05-2.95707E-06 3.27695E-05 1.92912E-18-6.12405E-18
 -1      2572 3.38834E-05-3.25230E-05 4.36256E-08-2.23742E-05 2.93783E-18-4.77727E-18
 -1      2573 6.64813E-05-4.98176E-05-6.62587E-06-3.93091E-05 2.90172E-18-4.24025E-18
 -1      2574 1.63883E-04-6.56528E-05-4.22611E-05 1.30907E-05 2.78960E-18-2.44200E-18
 -1      2575 1.09182E-04-6.90616E-05-1.67598E-05-3.61108E-05 2.74735E-18-1.95863E-18
 -1      2576 1.44625E-04-7.68968E-05-2.87738E-05-1.44065E-05 3.83134E-18-1.26653E-18
 -1      2577 1.46924E-04-3.38019E-06-6.18678E-05 3.74403E-05 1.33005E-18-3.59269E-18
 -1      2578 1.35707E-04 1.51216E-05-6.46904E-05 2.67953E-05 1.89947E-18-4.88892E-18
 -1      2579 1.44170E-04 2.90921E-06-6.38529E-05 2.39693E-05 2.44369E-18-5.53663E-18
 -1      2580 1.47065E-04-6.03813E-06-6.10270E-05 2.69884E-05 2.01149E-18-4.68325E-18
 -1      2581 2.46716E-05-2.82543E-05 2.13472E-06 6.38062E-06 2.93306E-18-5.98471E-18
 -1      2582 1.08349E-04 9.02665E-06-5.13792E-05-1.40206E-06 9.84676E-19-5.94352E-18
 -1      2583 9.05504E-05-1.51687E-05-3.23287E-05 3.19249E-06 3.87425E-19-1.49036E-18
 -1      2584 9.03592E-05-1.48967E-05-3.23613E-05 2.25949E-06 2.31967E-19-1.55049E-18
 -1      2585 9.02246E-05-1.46939E-05-3.23902E-05 1.42174E-06 1.52596E-19-1.63512E-18
 -1      2586 9.01594E-05-1.46015E-05-3.24012E-05 4.65282E-07 7.50940E-21-1.58150E-18
 -1      2587 9.14101E-05-1.65888E-05-3.20534E-05 1.64010E-06 1.30604E-19-1.46793E-18
 -1      2588 9.21385E-05-1.75490E-05-3.20048E-05 6.46950E-06 8.79978E-19-1.33397E-18
 -1      2589 9.16120E-05-1.67535E-05-3.21045E-05 5.63079E-06 7.75003E-19-1.30748E-18
 -1      2590 9.35619E-05-1.97748E-05-3.16653E-05 7.59120E-06 1.16997E-18-1.02356E-18
 -1      2591 9.27698E-05-1.85196E-05-3.18386E-05 7.01383E-06 9.93156E-19-1.16328E-18
 -1      2592 9.34326E-05-1.98646E-05-3.15067E-05 5.72938E-06 8.98135E-19-1.08524E-18
 -1      2593 9.28521E-05-1.80008E-05-3.20786E-05-8.81523E-06-1.19243E-18-9.75656E-19
 -1      2594 9.52503E-05-2.39924E-05-3.05177E-05-5.29892E-06-9.60064E-19-5.31758E-19
 -1      2595 9.51676E-05-2.50055E-05-3.00887E-05-3.79183E-06-7.76120E-19-5.22815E-19
 -1      2596 9.52234E-05-2.54099E-05-2.99324E-05 3.97209E-06 1.05675E-18-5.56533E-19
 -1      2597 9.55599E-05-2.45601E-05-3.03960E-05 5.60508E-06 1.05726E-18-4.31369E-19
 -1      2598 1.30508E-04 5.35455E-06-5.92626E-05-1.38050E-05-2.74481E-18-6.15369E-19
 -1      2599 1.15899E-04 1.11203E-05-5.56192E-05-4.05134E-06-1.09903E-18 1.81149E-18
 -1      2600 1.18196E-04 1.09632E-05-5.64829E-05-3.02868E-05-8.04046E-19-1.21623E-18
 -1      2601 1.29547E-04-6.44433E-07-5.58751E-05-3.67848E-05-1.93441E-18-1.13979E-18
 -1      2602 9.53637E-05-2.59030E-05-2.97380E-05-2.69609E-06-6.42668E-19-5.84545E-19
 -1      2603 9.51972E-05-2.64916E-05-2.94569E-05-1.71480E-06-5.17385E-19-7.02218E-19
 -1      2604 9.52113E-05-2.46903E-05-3.02183E-05-3.53803E-06-7.96030E-19-7.34885E-19
 -1      2605 9.52203E-05-2.70058E-05-2.92111E-05-9.73046E-07-5.32924E-19-6.55910E-19
 -1      2606 9.50858E-05-2.73606E-05-2.90313E-05-3.68032E-07-5.52147E-19-7.28671E-19
 -1      2607 9.54156E-05-2.63279E-05-2.96143E-05-1.61270E-06-6.47481E-19-8.04625E-19
 -1      2608 9.50529E-05-2.76669E-05-2.88636E-05 9.85143E-08-4.45119E-19-8.13714E-19
 -1      2609 9.49753E-05-2.78919E-05-2.87530E-05 4.49021E-07-2.73252E-19-8.63145E-19
 -1      2610 9.54170E-05-2.73252E-05-2.91894E-05-3.34098E-07-5.55690E-19-8.75111E-19
 -1      2611 9.49330E-05-2.80776E-05-2.86421E-05 7.17634E-07-2.52536E-19-9.12619E-19
 -1      2612 9.49047E-05-2.82249E-05-2.85781E-05 8.99975E-07-2.61477E-19-1.08804E-18
 -1      2613 9.53561E-05-2.79413E-05-2.88988E-05 4.54364E-07-3.78230E-19-1.07750E-18
 -1      2614 9.48694E-05-2.83374E-05-2.85076E-05 1.03289E-06-2.77189E-19-1.24123E-18
 -1      2615 9.48762E-05-2.84352E-05-2.84748E-05 1.10637E-06-3.67155E-19-1.32847E-18
 -1      2616 9.52914E-05-2.83234E-05-2.87060E-05 8.93955E-07-3.53700E-19-1.35856E-18
 -1      2617 9.48515E-05-2.85013E-05-2.84325E-05 1.14982E-06-2.98282E-19-1.29939E-18
 -1      2618 9.48799E-05-2.85658E-05-2.84198E-05 1.15501E-06-5.28426E-19-1.01932E-18
 -1      2619 9.52415E-05-2.85570E-05-2.85831E-05 1.09622E-06-3.45563E-19-1.51523E-18
 -1      2620 9.48646E-05-2.86019E-05-2.83969E-05 1.14229E-06-7.64012E-19-8.67797E-19
 -1      2621 9.49044E-05-2.86432E-05-2.83969E-05 1.10690E-06-9.28375E-19-8.66436E-19
 -1      2622 9.52089E-05-2.86939E-05-2.85093E-05 1.14374E-06-5.43975E-19-1.24272E-18
 -1      2623 9.48963E-05-2.86597E-05-2.83869E-05 1.06147E-06-9.59458E-19-4.65452E-19
 -1      2624 9.49403E-05-2.86848E-05-2.83944E-05 1.00431E-06-5.80045E-19-6.77225E-19
 -1      2625 9.51908E-05-2.87670E-05-2.84693E-05 1.09585E-06-6.22279E-19-7.22205E-19
 -1      2626 9.49372E-05-2.86886E-05-2.83928E-05 9.42297E-07-4.24223E-19-5.27007E-19
 -1      2627 9.49807E-05-2.87022E-05-2.84042E-05 8.75959E-07-2.52613E-19-7.98879E-19
 -1      2628 9.51831E-05-2.87980E-05-2.84521E-05 9.94131E-07-4.83101E-19-4.28450E-19
 -1      2629 9.49808E-05-2.86981E-05-2.84078E-05 8.08191E-07-1.73675E-19-7.56856E-19
 -1      2630 9.50212E-05-2.87038E-05-2.84209E-05 7.40883E-07 5.38986E-22-9.20043E-19
 -1      2631 9.51824E-05-2.88018E-05-2.84497E-05 8.67059E-07-2.84955E-19-4.80526E-19
 -1      2632 9.50232E-05-2.86948E-05-2.84276E-05 6.74421E-07 2.82495E-19-1.05213E-18
 -1      2633 9.50592E-05-2.86950E-05-2.84410E-05 6.11353E-07 3.21894E-19-8.18183E-19
 -1      2634 9.51859E-05-2.87885E-05-2.84565E-05 7.33632E-07 1.37083E-19-4.75381E-19
 -1      2635 9.50623E-05-2.86833E-05-2.84494E-05 5.50650E-07 6.12876E-20-8.10901E-19
 -1      2636 9.50935E-05-2.86797E-05-2.84623E-05 4.95022E-07-1.24136E-19-6.34033E-19
 -1      2637 9.51917E-05-2.87650E-05-2.84689E-05 6.06167E-07 2.23194E-19-7.69774E-19
 -1      2638 9.50972E-05-2.86665E-05-2.84714E-05 4.42816E-07-4.59492E-19-3.25746E-19
 -1      2639 9.51239E-05-2.86602E-05-2.84837E-05 3.96562E-07-6.81937E-19-6.37537E-19
 -1      2640 9.51988E-05-2.87355E-05-2.84844E-05 4.92434E-07-4.11144E-19-5.95483E-19
 -1      2641 9.51278E-05-2.86462E-05-2.84932E-05 3.54553E-07-8.33695E-19-6.17737E-19
 -1      2642 9.51508E-05-2.86380E-05-2.85048E-05 3.18901E-07-8.76131E-19-9.12436E-19
 -1      2643 9.52064E-05-2.87026E-05-2.85017E-05 3.97291E-07-7.72237E-19-6.48120E-19
 -1      2644 9.51550E-05-2.86233E-05-2.85145E-05 2.88260E-07-6.11851E-19-7.14054E-19
 -1      2645 9.51752E-05-2.86135E-05-2.85257E-05 2.64162E-07-5.96612E-19-8.80951E-19
 -1      2646 9.52142E-05-2.86675E-05-2.85201E-05 3.23916E-07-8.50514E-19-5.48925E-19
 -1      2647 9.51797E-05-2.85979E-05-2.85359E-05 2.45926E-07-1.94396E-19-3.89779E-19
 -1      2648 9.51986E-05-2.85865E-05-2.85471E-05 2.34378E-07 2.08870E-19 3.45387E-20
 -1      2649 9.52222E-05-2.86301E-05-2.85396E-05 2.74751E-07-1.37351E-19-2.86197E-19
 -1      2650 9.52034E-05-2.85696E-05-2.85582E-05 2.29754E-07 2.43143E-20-2.36321E-19
 -1      2651 9.52226E-05-2.85565E-05-2.85701E-05 2.32054E-07 1.32060E-19-5.85748E-19
 -1      2652 9.52307E-05-2.85898E-05-2.85606E-05 2.52228E-07-9.41621E-20-2.48613E-19
 -1      2653 9.52280E-05-2.85375E-05-2.85824E-05 2.42647E-07 6.68364E-19-6.09263E-19
 -1      2654 9.52493E-05-2.85224E-05-2.85959E-05 2.60579E-07 1.12523E-18-5.89661E-19
 -1      2655 9.52400E-05-2.85452E-05-2.85838E-05 2.59320E-07 3.54699E-19-8.43015E-19
 -1      2656 9.52555E-05-2.85005E-05-2.86101E-05 2.88567E-07 1.02225E-18-9.51701E-19
 -1      2657 9.52810E-05-2.84830E-05-2.86260E-05 3.24545E-07 9.37622E-19-1.52440E-18
 -1      2658 9.52505E-05-2.84942E-05-2.86102E-05 2.99963E-07 7.83727E-19-1.42886E-18
 -1      2659 9.52884E-05-2.84572E-05-2.86428E-05 3.72798E-07 1.12073E-18-1.56081E-18
 -1      2660 9.53206E-05-2.84370E-05-2.86622E-05 4.29948E-07 7.83354E-19-1.16197E-18
 -1      2661 9.52629E-05-2.84348E-05-2.86411E-05 3.79347E-07 8.53409E-19-2.06888E-18
 -1      2662 9.53296E-05-2.84063E-05-2.86824E-05 5.02085E-07-2.86463E-20-1.10139E-18
 -1      2663 9.53713E-05-2.83832E-05-2.87065E-05 5.84263E-07-5.81508E-19-1.34536E-18
 -1      2664 9.52779E-05-2.83645E-05-2.86777E-05 5.04101E-07 1.55267E-19-1.56375E-18
 -1      2665 9.53823E-05-2.83466E-05-2.87308E-05 6.84633E-07-3.63939E-19-1.37317E-18
 -1      2666 9.54369E-05-2.83206E-05-2.87607E-05 7.96350E-07-5.94987E-20-1.39613E-18
 -1      2667 9.52964E-05-2.82809E-05-2.87216E-05 6.82318E-07-4.62743E-19-1.52620E-18
 -1      2668 9.54504E-05-2.82774E-05-2.87899E-05 9.29913E-07 1.96754E-19-1.33677E-18
 -1      2669 9.55217E-05-2.82491E-05-2.88269E-05 1.07613E-06 3.69241E-19-9.95078E-19
 -1      2670 9.53193E-05-2.81821E-05-2.87738E-05 9.23406E-07 1.66947E-19-1.28337E-18
 -1      2671 9.55386E-05-2.81993E-05-2.88615E-05 1.24817E-06-9.25528E-20-3.26872E-19
 -1      2672 9.56309E-05-2.81701E-05-2.89067E-05 1.43387E-06-3.09613E-19-1.31959E-19
 -1      2673 9.53482E-05-2.80672E-05-2.88355E-05 1.23766E-06 4.28783E-19-6.63725E-19
 -1      2674 9.56523E-05-2.81145E-05-2.89470E-05 1.64953E-06-4.99778E-19-2.74040E-19
 -1      2675 9.57707E-05-2.80873E-05-2.90012E-05 1.87904E-06-4.15306E-19-4.03395E-19
 -1      2676 9.53850E-05-2.79372E-05-2.89071E-05 1.63549E-06-5.43394E-19 3.67859E-19
 -1      2677 9.57985E-05-2.80286E-05-2.90468E-05 2.14250E-06-1.43709E-19-4.55712E-19
 -1      2678 9.59487E-05-2.80084E-05-2.91105E-05 2.41834E-06 8.27181E-20-2.93725E-19
 -1      2679 9.54329E-05-2.77965E-05-2.89879E-05 2.12606E-06-4.35635E-19-5.49984E-20
 -1      2680 9.59862E-05-2.79524E-05-2.91602E-05 2.73158E-06 5.40097E-19-2.13120E-19
 -1      2681 9.61752E-05-2.79479E-05-2.92328E-05 3.05273E-06 7.47475E-19 1.83115E-19
 -1      2682 9.54971E-05-2.76550E-05-2.90760E-05 2.71535E-06 2.86810E-19 3.41133E-20
 -1      2683 9.62284E-05-2.79051E-05-2.92843E-05 3.41382E-06 3.19859E-19-5.95992E-19
 -1      2684 9.64647E-05-2.79303E-05-2.93641E-05 3.77312E-06-5.09336E-21-7.04253E-19
 -1      2685 9.55871E-05-2.75318E-05-2.91674E-05 3.40314E-06 2.19331E-19-1.45573E-19
 -1      2686 9.65449E-05-2.79190E-05-2.94135E-05 4.17360E-06-5.09911E-19-1.76169E-19
 -1      2687 9.68399E-05-2.79962E-05-2.94969E-05 4.55409E-06-1.05257E-18-1.51675E-19
 -1      2688 9.57199E-05-2.74601E-05-2.92553E-05 4.17889E-06 5.24158E-20-1.01577E-18
 -1      2689 9.69669E-05-2.80462E-05-2.95386E-05 4.97546E-06-1.15879E-18 3.19678E-20
 -1      2690 9.73374E-05-2.82098E-05-2.96196E-05 5.34524E-06-4.48871E-19 2.56359E-19
 -1      2691 9.59259E-05-2.74949E-05-2.93294E-05 5.01605E-06-7.00729E-19 5.97911E-19
 -1      2692 9.75459E-05-2.83680E-05-2.96461E-05 5.75409E-06-1.61978E-19 7.63960E-19
 -1      2693 9.80171E-05-2.86688E-05-2.97165E-05 6.05964E-06 1.25493E-19 5.09915E-19
 -1      2694 9.62584E-05-2.77226E-05-2.93760E-05 5.86438E-06-3.72184E-19 1.05496E-18
 -1      2695 9.83651E-05-2.90044E-05-2.97194E-05 6.40084E-06 1.07005E-18 8.80050E-19
 -1      2696 9.89747E-05-2.95133E-05-2.97690E-05 6.55876E-06 1.58517E-18 1.55870E-18
 -1      2697 9.68077E-05-2.82736E-05-2.93789E-05 6.63964E-06 8.30605E-19 1.17839E-18
 -1      2698 9.95541E-05-3.01221E-05-2.97414E-05 6.74572E-06 1.17133E-18 1.30814E-18
 -1      2699 1.00355E-04-3.09278E-05-2.97609E-05 6.63364E-06 9.72083E-19 9.51452E-19
 -1      2700 9.77201E-05-2.93328E-05-2.93227E-05 7.20910E-06 1.06626E-18 6.26232E-19
 -1      2701 1.01299E-04-3.19264E-05-2.97025E-05 6.53354E-06 5.43277E-19 1.23743E-18
 -1      2702 1.02351E-04-3.31169E-05-2.96890E-05 5.98290E-06 1.74485E-19 9.00701E-19
 -1      2703 9.92166E-05-3.11397E-05-2.92011E-05 7.36956E-06 1.39117E-19 6.27116E-19
 -1      2704 1.03828E-04-3.46127E-05-2.96167E-05 5.39404E-06-2.43539E-20 3.04929E-19
 -1      2705 1.05167E-04-3.62180E-05-2.95836E-05 4.19162E-06 7.00591E-19-3.81523E-19
 -1      2706 1.01599E-04-3.39541E-05-2.90329E-05 6.81116E-06-2.46374E-20-1.10834E-20
 -1      2707 1.07322E-04-3.82228E-05-2.95469E-05 2.83013E-06 1.67419E-18-2.16956E-19
 -1      2708 1.08886E-04-4.01035E-05-2.95374E-05 7.52693E-07 1.21167E-18 2.72709E-19
 -1      2709 1.05193E-04-3.79261E-05-2.88907E-05 5.06807E-06 8.29981E-19-4.37187E-19
 -1      2710 1.11723E-04-4.23825E-05-2.96360E-05-1.74529E-06 8.56219E-19 4.53740E-19
 -1      2711 1.13205E-04-4.40282E-05-2.97358E-05-4.83971E-06 7.03851E-19 1.35144E-18
 -1      2712 1.10181E-04-4.28495E-05-2.89349E-05 1.50195E-06 1.36466E-18 6.42349E-19
 -1      2713 1.16300E-04-4.58197E-05-3.01375E-05-8.80640E-06 4.48064E-19 1.78597E-18
 -1      2714 1.16981E-04-4.61137E-05-3.04734E-05-1.27333E-05-1.86612E-21 2.33073E-18
 -1      2715 1.16226E-04-4.76588E-05-2.94566E-05-4.67684E-06 7.71873E-19-1.34203E-19
 -1      2716 1.19106E-04-4.58965E-05-3.13843E-05-1.79321E-05-3.05392E-19 2.60707E-18
 -1      2717 1.18011E-04-4.33207E-05-3.20627E-05-2.17328E-05-3.71455E-19 2.54188E-18
 -1      2718 1.21720E-04-4.97063E-05-3.08884E-05-1.38743E-05 3.35820E-19 1.30116E-18
 -1      2719 1.17316E-04-3.94162E-05-3.35824E-05-2.65188E-05-1.73804E-19 2.80622E-18
 -1      2720 1.13719E-04-3.30147E-05-3.45719E-05-2.82654E-05-9.43211E-19 2.88346E-18
 -1      2721 1.23459E-04-4.48013E-05-3.36289E-05-2.47668E-05-1.06329E-19 1.99636E-18
 -1      2722 1.08931E-04-2.48976E-05-3.63813E-05-2.94725E-05-1.59974E-18 2.48325E-18
 -1      2723 1.02927E-04-1.65977E-05-3.70022E-05-2.62441E-05-1.51352E-18 1.93685E-18
 -1      2724 1.18506E-04-3.11500E-05-3.74300E-05-3.19063E-05-1.83647E-18 1.27121E-18
 -1      2725 1.02057E-04-5.23540E-06-4.19064E-05-2.50488E-05-1.82925E-18 1.33034E-19
 -1      2726 9.66054E-05 1.44655E-06-4.22337E-05-1.73631E-05-2.42749E-18 4.96970E-20
 -1      2727 9.45604E-05-2.78521E-05-2.85902E-05-4.48938E-07 5.47281E-19-5.56193E-19
 -1      2728 9.46484E-05-2.76649E-05-2.86888E-05-1.05017E-07 6.34949E-19-4.78667E-19
 -1      2729 9.44840E-05-2.81311E-05-2.84368E-05-9.00165E-07 5.13055E-19-5.01401E-19
 -1      2730 9.45001E-05-2.80033E-05-2.84874E-05-7.24759E-07 5.22364E-19-4.80995E-19
 -1      2731 9.50110E-05-2.79110E-05-2.87654E-05-4.59322E-07 5.52969E-19-6.92088E-19
 -1      2732 9.47114E-05-2.19079E-05-3.12082E-05 7.83705E-06 1.15727E-18-5.48874E-19
 -1      2733 9.44803E-05-2.83151E-05-2.83559E-05-1.10388E-06 2.57640E-19-4.93865E-19
 -1      2734 9.44497E-05-2.82249E-05-2.83758E-05-1.03537E-06 3.44426E-19-5.46336E-19
 -1      2735 9.49336E-05-2.82420E-05-2.85884E-05-9.13400E-07 4.30615E-19-5.75159E-19
 -1      2736 9.45248E-05-2.84378E-05-2.83222E-05-1.15016E-06 2.85745E-19-4.03786E-19
 -1      2737 9.44678E-05-2.83733E-05-2.83231E-05-1.14781E-06 3.82815E-19-4.27094E-19
 -1      2738 9.48994E-05-2.84494E-05-2.84830E-05-1.12014E-06 3.47241E-19-4.80994E-19
 -1      2739 9.45965E-05-2.85186E-05-2.83183E-05-1.10079E-06 6.78539E-19-5.80833E-19
 -1      2740 9.45274E-05-2.84728E-05-2.83081E-05-1.13733E-06 4.89047E-19-4.51577E-19
 -1      2741 9.48983E-05-2.85771E-05-2.84263E-05-1.16778E-06 4.15319E-19-6.77275E-19
 -1      2742 9.46801E-05-2.85701E-05-2.83321E-05-9.97861E-07 5.57503E-19-2.63779E-19
 -1      2743 9.46085E-05-2.85382E-05-2.83161E-05-1.05506E-06 6.67476E-19-3.84119E-19
 -1      2744 9.49188E-05-2.86520E-05-2.84020E-05-1.11810E-06 5.77677E-19-5.77817E-19
 -1      2745 9.47654E-05-2.86008E-05-2.83555E-05-8.69712E-07 3.29097E-19 3.28308E-21
 -1      2746 9.46970E-05-2.85793E-05-2.83371E-05-9.35479E-07 4.52295E-19 1.40421E-21
 -1      2747 9.49515E-05-2.86914E-05-2.83983E-05-1.01379E-06 3.40117E-19-3.84940E-19
 -1      2748 9.48459E-05-2.86169E-05-2.83832E-05-7.34997E-07-9.07100E-20 2.35790E-19
 -1      2749 9.47840E-05-2.86032E-05-2.83645E-05-8.01498E-07 3.06776E-19 3.66736E-19
 -1      2750 9.49893E-05-2.87072E-05-2.84072E-05-8.83756E-07 1.34639E-19-7.80877E-20
 -1      2751 9.49184E-05-2.86226E-05-2.84119E-05-6.05661E-07 2.56097E-20 1.65739E-19
 -1      2752 9.48644E-05-2.86148E-05-2.83942E-05-6.67969E-07-1.75878E-19 2.23577E-19
 -1      2753 9.50278E-05-2.87074E-05-2.84233E-05-7.47183E-07-1.09880E-19 5.48878E-19
 -1      2754 9.49816E-05-2.86211E-05-2.84397E-05-4.89075E-07-1.54628E-20 4.84674E-19
 -1      2755 9.49357E-05-2.86176E-05-2.84235E-05-5.44214E-07 1.36735E-19 3.71838E-19
 -1      2756 9.50642E-05-2.86975E-05-2.84429E-05-6.16423E-07-6.45276E-20 3.94103E-19
 -1      2757 9.50358E-05-2.86146E-05-2.84657E-05-3.89643E-07 1.50525E-20 1.41432E-19
 -1      2758 9.49973E-05-2.86144E-05-2.84512E-05-4.35869E-07 9.53162E-20 4.88269E-19
 -1      2759 9.50973E-05-2.86814E-05-2.84639E-05-4.99184E-07 6.55471E-20 5.70570E-19
 -1      2760 9.50821E-05-2.86044E-05-2.84899E-05-3.10014E-07-3.85986E-21 5.46821E-19
 -1      2761 9.50499E-05-2.86067E-05-2.84769E-05-3.46275E-07-2.61885E-19 6.79479E-20
 -1      2762 9.51267E-05-2.86613E-05-2.84851E-05-4.00179E-07-2.26180E-19 4.97807E-19
 -1      2763 9.51225E-05-2.85914E-05-2.85127E-05-2.52009E-07-2.25031E-19 1.27793E-18
 -1      2764 9.50949E-05-2.85956E-05-2.85007E-05-2.77536E-07 2.01167E-19 9.56822E-19
 -1      2765 9.51529E-05-2.86384E-05-2.85062E-05-3.22384E-07-2.66761E-19 8.24156E-19
 -1      2766 9.51594E-05-2.85760E-05-2.85350E-05-2.17320E-07-1.28545E-19 8.44980E-19
 -1      2767 9.51344E-05-2.85818E-05-2.85235E-05-2.31315E-07-2.11476E-20 1.00477E-18
 -1      2768 9.51767E-05-2.86133E-05-2.85272E-05-2.67988E-07 1.33582E-19 8.81736E-19
 -1      2769 9.51956E-05-2.85580E-05-2.85580E-05-2.08056E-07-4.66887E-20 1.51134E-19
 -1      2770 9.51712E-05-2.85653E-05-2.85462E-05-2.09446E-07-1.47721E-19 5.06949E-19
 -1      2771 9.51994E-05-2.85856E-05-2.85489E-05-2.39123E-07 1.84550E-19 7.48754E-19
 -1      2772 9.52347E-05-2.85373E-05-2.85833E-05-2.27180E-07 2.39476E-19 8.55020E-20
 -1      2773 9.52082E-05-2.85459E-05-2.85702E-05-2.14422E-07 2.21051E-19 2.13310E-19
 -1      2774 9.52225E-05-2.85546E-05-2.85722E-05-2.38429E-07 2.91615E-19 3.83521E-19
 -1      2775 9.52804E-05-2.85135E-05-2.86127E-05-2.78834E-07 3.31067E-19-3.14449E-20
 -1      2776 9.52490E-05-2.85234E-05-2.85973E-05-2.49767E-07 2.27003E-19-5.86247E-20
 -1      2777 9.52479E-05-2.85192E-05-2.85984E-05-2.69497E-07 4.07600E-19 4.20151E-19
 -1      2778 9.53374E-05-2.84859E-05-2.86484E-05-3.68607E-07 3.39193E-19 3.60593E-19
 -1      2779 9.52977E-05-2.84970E-05-2.86294E-05-3.20333E-07 5.09415E-19 2.22837E-19
 -1      2780 9.52778E-05-2.84779E-05-2.86291E-05-3.37199E-07 2.27398E-19 5.52844E-19
 -1      2781 9.54108E-05-2.84542E-05-2.86928E-05-5.03687E-07-3.23067E-20 1.51528E-19
 -1      2782 9.53589E-05-2.84664E-05-2.86688E-05-4.32506E-07-9.39227E-21 4.60110E-19
 -1      2783 9.53148E-05-2.84292E-05-2.86661E-05-4.47939E-07 3.21604E-19 8.96857E-19
 -1      2784 9.55069E-05-2.84181E-05-2.87487E-05-6.92923E-07-5.07826E-20-2.84218E-19
 -1      2785 9.54382E-05-2.84310E-05-2.87181E-05-5.94321E-07 2.29800E-19 3.56536E-19
 -1      2786 9.53615E-05-2.83712E-05-2.87112E-05-6.09775E-07-1.02490E-19 4.28083E-19
 -1      2787 9.56324E-05-2.83778E-05-2.88188E-05-9.46693E-07 1.96134E-19-6.68818E-19
 -1      2788 9.55417E-05-2.83907E-05-2.87799E-05-8.15428E-07 3.85425E-19-3.09259E-19
 -1      2789 9.54213E-05-2.83024E-05-2.87665E-05-8.32415E-07 1.20375E-19 2.45643E-19
 -1      2790 9.57954E-05-2.83342E-05-2.89063E-05-1.27653E-06-4.42461E-19-4.25866E-20
 -1      2791 9.56766E-05-2.83459E-05-2.88571E-05-1.10686E-06-1.53123E-19-3.33277E-19
 -1      2792 9.54977E-05-2.82216E-05-2.88340E-05-1.12700E-06-3.93191E-19 1.51211E-19
 -1      2793 9.60046E-05-2.82896E-05-2.90138E-05-1.69434E-06-7.95781E-19 2.71791E-19
 -1      2794 9.58509E-05-2.82980E-05-2.89526E-05-1.48048E-06-7.93289E-19 5.15797E-19
 -1      2795 9.55947E-05-2.81288E-05-2.89156E-05-1.50556E-06-1.12581E-18 5.72788E-19
 -1      2796 9.62698E-05-2.82488E-05-2.91438E-05-2.21097E-06 3.43793E-19-6.96663E-19
 -1      2797 9.60738E-05-2.82503E-05-2.90689E-05-1.94792E-06-2.49792E-19-3.79391E-19
 -1      2798 9.57168E-05-2.80256E-05-2.90122E-05-1.98011E-06-3.55861E-20 6.18601E-19
 -1      2799 9.66018E-05-2.82203E-05-2.92971E-05-2.83385E-06 6.42389E-19 5.19634E-19
 -1      2800 9.63555E-05-2.82092E-05-2.92075E-05-2.51878E-06 3.76067E-19-4.80860E-19
 -1      2801 9.58693E-05-2.79170E-05-2.91241E-05-2.56089E-06 1.19447E-19-3.82917E-19
 -1      2802 9.70135E-05-2.82196E-05-2.94729E-05-3.56316E-06 3.80226E-19 7.33157E-19
 -1      2803 9.67080E-05-2.81865E-05-2.93686E-05-3.19765E-06 1.11694E-18 1.09886E-18
 -1      2804 9.60591E-05-2.78138E-05-2.92497E-05-3.25390E-06 3.56231E-19 8.94765E-19
 -1      2805 9.75209E-05-2.82734E-05-2.96670E-05-4.38585E-06-4.95485E-19 5.19973E-19
 -1      2806 9.71465E-05-2.82028E-05-2.95497E-05-3.97946E-06 1.34383E-19 6.52375E-19
 -1      2807 9.62969E-05-2.77368E-05-2.93845E-05-4.05678E-06 2.52339E-19 7.30989E-19
 -1      2808 9.81472E-05-2.84265E-05-2.98704E-05-5.26661E-06-1.90703E-19 3.79158E-19
 -1      2809 9.76924E-05-2.82936E-05-2.97443E-05-4.84226E-06-8.19007E-19 1.89602E-19
 -1      2810 9.66008E-05-2.77235E-05-2.95206E-05-4.95299E-06-7.87370E-19 2.19918E-19
 -1      2811 9.89295E-05-2.87530E-05-3.00679E-05-6.13464E-06 2.68693E-19 2.02499E-18
 -1      2812 9.83791E-05-2.85182E-05-2.99410E-05-5.73645E-06 3.06576E-20 1.27481E-18
 -1      2813 9.70040E-05-2.78379E-05-2.96449E-05-5.90319E-06-8.50015E-19-3.19934E-19
 -1      2814 9.99305E-05-2.93691E-05-3.02374E-05-6.86508E-06 3.64760E-19 1.94269E-18
 -1      2815 9.92622E-05-2.89724E-05-3.01216E-05-6.56909E-06 5.69385E-19 2.41913E-18
 -1      2816 9.75672E-05-2.81855E-05-2.97393E-05-6.83306E-06 3.56443E-20 2.15434E-18
 -1      2817 1.01255E-04-3.04461E-05-3.03513E-05-7.25462E-06-7.73652E-20 2.16302E-18
 -1      2818 1.00435E-04-2.98026E-05-3.02622E-05-7.18198E-06 3.86293E-19 2.34496E-18
 -1      2819 9.83994E-05-2.89305E-05-2.97813E-05-7.61619E-06 3.91726E-20 2.84009E-18
 -1      2820 1.03063E-04-3.22098E-05-3.03833E-05-6.99241E-06-2.45868E-19 1.74749E-18
 -1      2821 1.02048E-04-3.12154E-05-3.03370E-05-7.32254E-06 4.51852E-19 2.79026E-18
 -1      2822 9.96840E-05-3.03115E-05-2.97490E-05-8.04999E-06-1.29733E-19 2.50851E-18
 -1      2823 1.05567E-04-3.48946E-05-3.03249E-05-5.63263E-06-7.73778E-20 2.27187E-18
 -1      2824 1.04315E-04-3.34595E-05-3.03298E-05-6.60873E-06-5.46566E-19 2.41670E-18
 -1      2825 1.01704E-04-3.26350E-05-2.96343E-05-7.82104E-06-6.92398E-19 2.73909E-18
 -1      2826 1.08948E-04-3.85901E-05-3.02172E-05-2.59111E-06-1.93469E-18 2.84210E-18
 -1      2827 1.07477E-04-3.67357E-05-3.02580E-05-4.49889E-06-5.49080E-19 2.88847E-18
 -1      2828 1.04832E-04-3.62022E-05-2.94683E-05-6.45747E-06-8.74890E-19 3.76265E-18
 -1      2829 1.13134E-04-4.28986E-05-3.01985E-05 2.76900E-06-1.08292E-18 1.74368E-18
 -1      2830 1.11645E-04-4.09536E-05-3.02142E-05-3.07779E-07-2.20467E-18 2.11814E-18
 -1      2831 1.09420E-04-4.10835E-05-2.93651E-05-3.28570E-06-1.25091E-18 3.17902E-18
 -1      2832 1.17341E-04-4.63449E-05-3.05548E-05 1.08357E-05-5.36996E-19 7.06101E-19
 -1      2833 1.16426E-04-4.52520E-05-3.04200E-05 6.63509E-06-3.63713E-19 1.13024E-18
 -1      2834 1.15478E-04-4.66459E-05-2.95868E-05 2.56696E-06-4.97308E-19 1.80539E-18
 -1      2835 1.19544E-04-4.59434E-05-3.16733E-05 2.07646E-05 1.29543E-19-1.43036E-19
 -1      2836 1.20232E-04-4.72657E-05-3.12437E-05 1.63077E-05-3.01352E-19 1.26724E-19
 -1      2837 1.21903E-04-5.06745E-05-3.05944E-05 1.17916E-05 6.61546E-20 2.72162E-19
 -1      2838 1.16940E-04-3.80416E-05-3.38188E-05 2.94217E-05 5.75380E-19-8.14892E-19
 -1      2839 1.20225E-04-4.34082E-05-3.30241E-05 2.67118E-05 2.59830E-19-3.91290E-19
 -1      2840 1.25807E-04-4.92052E-05-3.29360E-05 2.35698E-05 3.14094E-19 4.85615E-19
 -1      2841 1.07904E-04-2.23252E-05-3.66612E-05 3.06375E-05-4.03532E-19-4.73627E-19
 -1      2842 1.13578E-04-3.10762E-05-3.57085E-05 3.22163E-05 4.83868E-19-2.67719E-19
 -1      2843 1.22999E-04-3.71081E-05-3.68236E-05 3.39557E-05 8.79326E-20-3.35902E-20
 -1      2844 9.51109E-05-5.36626E-06-3.85379E-05 1.89281E-05-9.62759E-19 5.50485E-19
 -1      2845 1.01053E-04-1.27790E-05-3.82872E-05 2.66681E-05-1.17431E-18-3.67109E-19
 -1      2846 1.12892E-04-1.77496E-05-4.08483E-05 3.32509E-05-9.75173E-19-4.08482E-19
 -1      2847 8.78827E-05 1.91400E-06-3.88570E-05 1.42989E-07-3.12238E-19 2.54004E-19
 -1      2848 9.14147E-05 5.84150E-07-3.98911E-05 1.07112E-05-5.91547E-19 7.41816E-19
 -1      2849 1.01405E-04 2.15830E-06-4.46690E-05 2.19402E-05-1.05329E-18 4.59251E-19
 -1      2850 9.65018E-05 9.51967E-06-4.53661E-05 2.45838E-06-1.13714E-19-3.07460E-18
 -1      2851 3.03963E-05-2.48918E-05-1.88333E-06 1.34980E-05 3.00580E-18-6.53317E-18
 -1      2852 2.77844E-05-2.37982E-05-1.08082E-06-2.06819E-06 3.52382E-18-6.60792E-18
 -1      2853 1.54681E-04-4.71448E-05-4.70545E-05-3.03082E-05-2.42093E-18-2.52088E-18
 -1      2854 1.58131E-04-5.92013E-05-4.22223E-05-2.05731E-05-2.49049E-18-8.04046E-19
 -1      2855 1.09297E-04 1.42689E-05-5.41102E-05 6.16437E-06 2.11716E-18-5.59910E-18
 -1      2856 1.38710E-04-1.45334E-05-5.42749E-05-3.87058E-05-3.02783E-18-1.35811E-18
 -1      2857 1.46201E-04-2.89912E-05-5.05246E-05-3.79432E-05-3.28331E-18-2.18852E-18
 -1      2858 1.55458E-04-7.06698E-05-3.71360E-05-4.42986E-06-2.44925E-18 3.44107E-20
 -1      2859 1.46838E-04-7.48452E-05-3.04147E-05 1.00618E-05-2.55931E-18-2.15464E-19
 -1      2860 9.47305E-05-2.74154E-05-2.88522E-05 3.79116E-07 5.48015E-19-5.61253E-19
 -1      2861 9.49107E-05-2.71220E-05-2.90246E-05 9.84017E-07 7.51182E-19-5.29257E-19
 -1      2862 9.51330E-05-2.73817E-05-2.90460E-05 3.65778E-07 6.74360E-19-7.03926E-19
 -1      2863 9.11712E-05-1.60856E-05-3.22075E-05 4.91384E-06 7.00867E-19-1.40855E-18
 -1      2864 9.08271E-05-1.55860E-05-3.22678E-05 3.99176E-06 4.97862E-19-1.45968E-18
 -1      2865 9.18038E-05-1.71965E-05-3.19593E-05 3.19481E-06 3.67390E-19-1.39329E-18
 -1      2866 9.24752E-05-1.82578E-05-3.17877E-05 4.61183E-06 6.88255E-19-1.27704E-18
 -1      2867 9.49846E-05-2.66901E-05-2.92747E-05 1.77327E-06 9.69603E-19-5.66443E-19
 -1      2868 9.52518E-05-2.61929E-05-2.95596E-05 2.78256E-06 9.97146E-19-5.05081E-19
 -1      2869 9.52747E-05-2.50206E-05-3.01059E-05 3.81459E-06 1.04538E-18-7.23936E-19
 -1      2870 9.52568E-05-2.65018E-05-2.94731E-05 1.72686E-06 8.82934E-19-6.81206E-19
 -1      2871 9.07904E-05-1.55371E-05-3.22728E-05-3.92870E-06-5.97338E-19-1.54039E-18
 -1      2872 9.11262E-05-1.60237E-05-3.22139E-05-4.85281E-06-7.23915E-19-1.51674E-18
 -1      2873 1.10661E-04 1.51435E-05-5.49452E-05 1.46273E-05 9.80229E-19-3.87846E-18
 -1      2874 1.13596E-04 1.08013E-05-5.43771E-05 2.42929E-05-1.82324E-19-2.54449E-18
 -1      2875 9.99243E-05-6.25925E-05-1.53847E-05-3.63360E-05 1.83616E-18-2.88436E-18
 -1      2876 1.18595E-04-7.08106E-05-2.07397E-05-3.02838E-05 2.95244E-18-7.19343E-19
 -1      2877 1.36860E-04-7.49636E-05-2.60133E-05-1.59776E-05 2.99045E-18 3.16314E-20
 -1      2878 1.49085E-04-7.60295E-05-3.18828E-05-4.03046E-06 2.95678E-18-7.54706E-19
 -1      2879 1.56043E-04-6.79640E-05-3.76090E-05 1.21944E-05 2.90229E-18-1.94352E-18
 -1      2880 1.60190E-04-5.88569E-05-4.41789E-05 2.30576E-05 1.83697E-18-1.60555E-18
 -1      2881 3.19581E-05-2.59686E-05-1.89477E-06-1.42069E-05 2.38583E-18-5.85342E-18
 -1      2882 4.29955E-05-3.10762E-05-4.57277E-06-2.62495E-05 2.47858E-18-3.67189E-18
 -1      2883 3.73370E-05-2.30899E-05-5.30416E-06-7.26516E-06 2.70423E-18-5.27003E-18
 -1      2884 9.19718E-05-5.73946E-05-1.46012E-05 3.89046E-05-4.39187E-19-3.15244E-18
 -1      2885 7.65667E-05-4.88013E-05-1.11622E-05 3.86546E-05 8.72550E-19-4.56540E-18
 -1      2886 5.68594E-05-3.74785E-05-8.05734E-06 3.45084E-05 2.34925E-18-5.64336E-18
 -1      2887 4.17082E-05-2.94036E-05-4.42715E-06 2.45706E-05 2.84497E-18-6.56281E-18
 -1      2888 6.20822E-05-4.19556E-05-7.96677E-06-3.55708E-05 2.62051E-18-3.46246E-18
 -1      2889 8.10177E-05-5.32898E-05-1.16050E-05-3.99488E-05 2.32352E-18-3.73383E-18
 -1      2890 9.40259E-05-5.59754E-05-1.58145E-05-3.45868E-05 2.17169E-18-3.27188E-18
 -1      2891 1.08786E-04 1.07192E-05-5.13624E-05 3.35754E-08-1.00776E-18 1.93134E-18
 -1      2892 1.00123E-04 8.85701E-06-4.69727E-05-1.52352E-05-2.32913E-18-1.27741E-18
 -1      2893 8.58662E-05 2.64381E-06-3.83130E-05-1.63481E-06-2.91988E-18 2.39851E-18
 -1      2894 9.12775E-05-1.63859E-05-3.20842E-05 2.84302E-08-9.84915E-20-1.35551E-18
 -1      2895 9.01552E-05-1.45964E-05-3.24017E-05-3.82723E-07-1.24020E-19-1.49552E-18
 -1      2896 9.02120E-05-1.46768E-05-3.23918E-05-1.33968E-06-2.72462E-19-1.47074E-18
 -1      2897 1.52407E-04-4.87849E-05-4.47170E-05 3.29408E-05 1.30792E-18-8.97855E-20
 -1      2898 1.23561E-04-7.81871E-06-4.99588E-05-3.57836E-05-3.11518E-18-1.26039E-18
 -1      2899 8.60305E-05-9.28647E-07-3.67118E-05 7.54917E-06-2.29549E-18 1.90685E-18
 -1      2900 4.31220E-05-2.51773E-05-6.93548E-06 1.72622E-05 3.42217E-18-6.85864E-18
 -1      2901 1.28341E-04 1.97786E-06-5.68174E-05 3.57252E-05 2.08370E-19-2.26782E-18
 -1      2902 1.09947E-04 2.88098E-06-4.87021E-05 2.55710E-05-3.66871E-19-5.77147E-19
 -1      2903 1.14065E-04-6.51309E-06-4.65934E-05 3.32862E-05-1.10707E-18-5.90805E-19
 -1      2904 1.38227E-04-1.15085E-05-5.49878E-05 3.98498E-05 6.98802E-19-1.69936E-18
 -1      2905 6.95995E-05-4.06502E-05-1.18189E-05 3.32736E-05 2.07152E-18-5.78608E-18
 -1      2906 8.71687E-05 2.00099E-06-3.85149E-05 1.08437E-05-1.70169E-18 1.47871E-18
 -1      2907 5.64325E-05-3.54806E-05-8.35856E-06-3.07528E-05 2.24368E-18-3.79005E-18
 -1      2908 6.97502E-05-3.90996E-05-1.27116E-05-3.10921E-05 2.08426E-18-3.36653E-18
 -1      2909 5.20774E-05-2.86396E-05-9.58939E-06-2.38376E-05 1.79057E-18-3.11803E-18
 -1      2910 9.58828E-05 7.64939E-06-4.47401E-05 4.57910E-06-1.49798E-18 1.33704E-18
 -1      2911 1.37894E-04-7.40392E-05-2.70359E-05 1.52903E-05-1.99720E-18 7.15902E-19
 -1      2912 9.03379E-05-1.48683E-05-3.23642E-05-2.17548E-06-4.22508E-19-1.36920E-18
 -1      2913 9.05232E-05-1.51323E-05-3.23322E-05-3.12587E-06-5.70959E-19-1.43698E-18
 -1      2914 9.17732E-05-1.71539E-05-3.19643E-05-3.13921E-06-5.89667E-19-1.39072E-18
 -1      2915 9.13963E-05-1.65694E-05-3.20557E-05-1.58140E-06-3.95585E-19-1.32664E-18
 -1      2916 1.13623E-04-6.62581E-05-2.05817E-05 2.96997E-05-3.46966E-19 2.45375E-19
 -1      2917 1.03443E-04-6.19108E-05-1.72804E-05 3.47619E-05-2.21711E-19-1.75892E-18
 -1      2918 9.71736E-05-5.57614E-05-1.74016E-05 3.36955E-05 8.05105E-19-1.00596E-18
 -1      2919 9.24244E-05-1.81842E-05-3.17968E-05-4.56900E-06-7.42143E-19-1.38495E-18
 -1      2920 9.15556E-05-1.66744E-05-3.21137E-05-5.57437E-06-8.64372E-19-1.49471E-18
 -1      2921 9.20196E-05-1.73951E-05-3.20233E-05-6.44082E-06-1.02355E-18-1.29867E-18
 -1      2922 9.43570E-05-2.14237E-05-3.12614E-05 7.21035E-06 1.19998E-18-8.10819E-19
 -1      2923 1.37023E-04-2.05497E-05-5.03846E-05 3.85769E-05 2.37169E-19-2.02123E-19
 -1      2924 1.49891E-04-7.00597E-05-3.41922E-05 8.76558E-06 2.08714E-18-4.55704E-19
 -1      2925 1.27870E-04-7.08060E-05-2.41199E-05-1.94245E-05 2.84804E-18 1.44949E-19
 -1      2926 1.05343E-04 1.43229E-05-5.16326E-05-1.50368E-05-7.50259E-19 6.73126E-20
 -1      2927 1.43193E-04-3.71443E-05-4.57028E-05-3.48869E-05-2.85683E-18-1.85140E-18
 -1      2928 9.46157E-05-2.24661E-05-3.09139E-05 5.68585E-06 1.10566E-18-8.93574E-19
 -1      2929 9.42208E-05-2.07506E-05-3.15201E-05-8.18327E-06-1.24527E-18-6.53977E-19
 -1      2930 9.47252E-05-2.26502E-05-3.09127E-05-6.42389E-06-1.12386E-18-5.56635E-19
 -1      2931 9.45405E-05-2.22439E-05-3.09765E-05-5.83093E-06-1.00615E-18-7.59225E-19
 -1      2932 1.52241E-04-6.45952E-05-3.76302E-05-1.41648E-05-2.20737E-18-8.59103E-19
 -1      2933 9.27919E-05-1.83850E-05-3.18900E-05-7.47875E-06-1.02451E-18-1.08764E-18
 -1      2934 9.42754E-05-2.18570E-05-3.10601E-05 4.96194E-06 9.30060E-19-1.00067E-18
 -1      2935 9.38059E-05-2.09036E-05-3.12452E-05 4.61351E-06 7.57270E-19-1.02003E-18
 -1      2936 1.45499E-04-5.83481E-05-3.80188E-05-2.19738E-05-1.94495E-18-1.04098E-18
 -1      2937 1.46475E-04-6.70273E-05-3.37046E-05-9.69615E-06-1.25612E-18-7.94146E-19
 -1      2938 1.38589E-04-3.09450E-05-4.64482E-05 3.93185E-05-3.06785E-19 9.37665E-19
 -1      2939 1.24579E-04-1.72801E-05-4.65947E-05 3.74104E-05-5.85088E-19 3.34631E-19
 -1      2940 1.30859E-04-2.93897E-05-4.40548E-05-3.67751E-05-2.60013E-18 4.18223E-19
 -1      2941 1.41297E-04-4.48574E-05-4.12306E-05-3.24881E-05-1.86739E-18-7.01979E-19
 -1      2942 1.12563E-04-8.68938E-06-4.48461E-05-3.29520E-05-1.89788E-18-3.74018E-19
 -1      2943 9.54954E-05-2.55634E-05-2.99553E-05-2.13323E-06-5.92057E-19-8.61877E-19
 -1      2944 9.55333E-05-2.62650E-05-2.96995E-05-1.32457E-06-5.59501E-19-7.92165E-19
 -1      2945 9.56787E-05-2.68767E-05-2.94719E-05-7.35317E-07-6.71964E-19-7.83503E-19
 -1      2946 9.56545E-05-2.73256E-05-2.92920E-05-2.10365E-07-5.36491E-19-8.40072E-19
 -1      2947 9.57025E-05-2.61967E-05-2.97894E-05-1.16186E-06-5.37167E-19-8.07771E-19
 -1      2948 9.56981E-05-2.77115E-05-2.91259E-05 1.69511E-07-5.03887E-19-9.05799E-19
 -1      2949 9.56609E-05-2.79982E-05-2.90030E-05 4.84480E-07-5.06741E-19-1.11827E-18
 -1      2950 9.58927E-05-2.73281E-05-2.93879E-05-1.55189E-07-6.45551E-19-9.37073E-19
 -1      2951 9.56528E-05-2.82370E-05-2.88846E-05 7.05975E-07-5.22219E-19-1.14882E-18
 -1      2952 9.56203E-05-2.84184E-05-2.88031E-05 8.73509E-07-5.77213E-19-1.36255E-18
 -1      2953 9.59329E-05-2.80532E-05-2.90949E-05 4.79267E-07-6.28150E-19-1.14886E-18
 -1      2954 9.55882E-05-2.85608E-05-2.87208E-05 9.81968E-07-4.16038E-19-1.44733E-18
 -1      2955 9.55649E-05-2.86722E-05-2.86691E-05 1.05021E-06-4.36590E-19-1.41785E-18
 -1      2956 9.58986E-05-2.85057E-05-2.88861E-05 8.36101E-07-5.68828E-19-1.42754E-18
 -1      2957 9.55233E-05-2.87509E-05-2.86136E-05 1.08237E-06-3.42939E-19-1.08206E-18
 -1      2958 9.55087E-05-2.88151E-05-2.85828E-05 1.08684E-06-3.65139E-19-1.00565E-18
 -1      2959 9.58303E-05-2.87750E-05-2.87409E-05 9.97370E-07-2.12944E-19-1.15267E-18
 -1      2960 9.54653E-05-2.88519E-05-2.85469E-05 1.07062E-06-3.72691E-19-8.61516E-19
 -1      2961 9.54574E-05-2.88845E-05-2.85305E-05 1.03670E-06-3.33076E-19-4.67587E-19
 -1      2962 9.57499E-05-2.89213E-05-2.86433E-05 1.02877E-06-1.62769E-19-6.76322E-19
 -1      2963 9.54163E-05-2.88943E-05-2.85088E-05 9.92368E-07-3.91324E-19-3.32223E-19
 -1      2964 9.54131E-05-2.89059E-05-2.85021E-05 9.37774E-07-2.85612E-19-2.21466E-19
 -1      2965 9.56691E-05-2.89861E-05-2.85804E-05 9.79526E-07-1.38447E-19-2.21996E-19
 -1      2966 9.53762E-05-2.88988E-05-2.84903E-05 8.79513E-07-4.14783E-19-1.03209E-19
 -1      2967 9.53760E-05-2.88969E-05-2.84899E-05 8.16303E-07-2.06052E-19-1.68344E-19
 -1      2968 9.55939E-05-2.89982E-05-2.85425E-05 8.85041E-07-3.07996E-19 2.05514E-19
 -1      2969 9.53441E-05-2.88798E-05-2.84851E-05 7.53757E-07-1.45179E-19-1.35661E-19
 -1      2970 9.53458E-05-2.88695E-05-2.84887E-05 6.89927E-07 9.15187E-20-2.23187E-19
 -1      2971 9.55270E-05-2.89774E-05-2.85225E-05 7.69955E-07-9.00841E-20 2.55147E-20
 -1      2972 9.53189E-05-2.88470E-05-2.84886E-05 6.29442E-07 2.57241E-19-4.03188E-19
 -1      2973 9.53216E-05-2.88316E-05-2.84947E-05 5.70152E-07 8.91465E-20-3.51795E-19
 -1      2974 9.54696E-05-2.89371E-05-2.85148E-05 6.50908E-07-4.48507E-20-5.76381E-19
 -1      2975 9.52993E-05-2.88064E-05-2.84977E-05 5.15794E-07-3.21602E-19-4.57792E-19
 -1      2976 9.53026E-05-2.87881E-05-2.85052E-05 4.64312E-07-7.30371E-19-5.65981E-19
 -1      2977 9.54213E-05-2.88861E-05-2.85157E-05 5.38823E-07-3.30428E-19-5.42229E-19
 -1      2978 9.52843E-05-2.87617E-05-2.85105E-05 4.18665E-07-8.60342E-19-5.98151E-19
 -1      2979 9.52879E-05-2.87416E-05-2.85189E-05 3.77087E-07-8.97919E-19-5.41648E-19
 -1      2980 9.53812E-05-2.88297E-05-2.85226E-05 4.40753E-07-5.69178E-19-7.31057E-19
 -1      2981 9.52728E-05-2.87146E-05-2.85257E-05 3.41862E-07-1.00522E-18-3.26219E-19
 -1      2982 9.52767E-05-2.86931E-05-2.85348E-05 3.11659E-07-8.29571E-19-1.40593E-19
 -1      2983 9.53481E-05-2.87704E-05-2.85337E-05 3.61304E-07-8.72915E-19-1.27239E-19
 -1      2984 9.52639E-05-2.86654E-05-2.85430E-05 2.88166E-07-7.44417E-19-5.61858E-19
 -1      2985 9.52679E-05-2.86422E-05-2.85529E-05 2.70607E-07-3.99837E-19-6.68027E-19
 -1      2986 9.53202E-05-2.87088E-05-2.85480E-05 3.03733E-07-9.88054E-19-7.25797E-19
 -1      2987 9.52564E-05-2.86130E-05-2.85623E-05 2.60120E-07 1.07780E-19-7.79597E-19
 -1      2988 9.52608E-05-2.85876E-05-2.85731E-05 2.56589E-07-1.15045E-19-7.89305E-19
 -1      2989 9.52958E-05-2.86442E-05-2.85652E-05 2.70801E-07-2.56906E-19-1.61730E-18
 -1      2990 9.52494E-05-2.85556E-05-2.85840E-05 2.60624E-07-2.53123E-20-6.53933E-19
 -1      2991 9.52543E-05-2.85270E-05-2.85962E-05 2.72869E-07 5.27615E-19-8.04246E-19
 -1      2992 9.52727E-05-2.85742E-05-2.85852E-05 2.65427E-07 3.11760E-20-9.69152E-19
 -1      2993 9.52418E-05-2.84906E-05-2.86087E-05 2.93391E-07 3.87959E-19-9.31380E-19
 -1      2994 9.52475E-05-2.84577E-05-2.86228E-05 3.23701E-07 5.06944E-19-1.30686E-18
 -1      2995 9.52485E-05-2.84959E-05-2.86084E-05 2.91177E-07 2.55193E-19-6.78403E-19
 -1      2996 9.52324E-05-2.84150E-05-2.86373E-05 3.63276E-07 7.70535E-19-1.38437E-18
 -1      2997 9.52393E-05-2.83763E-05-2.86539E-05 4.14600E-07 7.42367E-19-1.49942E-18
 -1      2998 9.52206E-05-2.84055E-05-2.86351E-05 3.52629E-07 5.83902E-19-1.13861E-18
 -1      2999 9.52199E-05-2.83254E-05-2.86706E-05 4.76484E-07 1.73710E-19-1.65469E-18
 -1      3000 9.52282E-05-2.82794E-05-2.86903E-05 5.52482E-07-3.31672E-19-1.45735E-18
 -1      3001 9.51859E-05-2.82987E-05-2.86659E-05 4.55606E-07 3.19246E-19-1.40184E-18
 -1      3002 9.52028E-05-2.82181E-05-2.87096E-05 6.40647E-07-2.58282E-19-1.52147E-18
 -1      3003 9.52129E-05-2.81636E-05-2.87330E-05 7.45658E-07-2.86317E-19-1.04187E-18
 -1      3004 9.51410E-05-2.81709E-05-2.87013E-05 6.07288E-07-2.55510E-19-1.96651E-18
 -1      3005 9.51795E-05-2.80899E-05-2.87550E-05 8.64734E-07-8.28985E-21-1.54055E-18
 -1      3006 9.51920E-05-2.80259E-05-2.87825E-05 1.00363E-06 5.93314E-19-1.62347E-18
 -1      3007 9.50820E-05-2.80177E-05-2.87416E-05 8.16167E-07-9.76266E-21-1.50133E-18
 -1      3008 9.51482E-05-2.79383E-05-2.88070E-05 1.15874E-06 9.54445E-19-1.16327E-18
 -1      3009 9.51639E-05-2.78648E-05-2.88390E-05 1.33664E-06 3.97692E-19-5.50218E-19
 -1      3010 9.50048E-05-2.78354E-05-2.87863E-05 1.09181E-06 9.30587E-19-1.62883E-18
 -1      3011 9.51077E-05-2.77629E-05-2.88655E-05 1.53306E-06-1.10096E-19 4.39683E-19
 -1      3012 9.51278E-05-2.76812E-05-2.89016E-05 1.75481E-06-7.68084E-20 6.38742E-19
 -1      3013 9.49050E-05-2.76221E-05-2.88347E-05 1.44437E-06 7.73957E-19-9.10751E-19
 -1      3014 9.50575E-05-2.75663E-05-2.89289E-05 1.99752E-06-4.93756E-19 5.96172E-19
 -1      3015 9.50839E-05-2.74800E-05-2.89685E-05 2.26688E-06-3.09653E-19 7.34098E-19
 -1      3016 9.47791E-05-2.73790E-05-2.88846E-05 1.88377E-06 8.59833E-20 1.13626E-20
 -1      3017 9.49992E-05-2.73566E-05-2.89944E-05 2.55979E-06-1.04217E-19 6.42047E-19
 -1      3018 9.50353E-05-2.72732E-05-2.90358E-05 2.87830E-06 8.61245E-19 1.02328E-18
 -1      3019 9.46250E-05-2.71129E-05-2.89323E-05 2.41852E-06-1.22110E-19 1.01557E-18
 -1      3020 9.49386E-05-2.71508E-05-2.90570E-05 3.22332E-06 1.66801E-19 7.50973E-19
 -1      3021 9.49906E-05-2.70840E-05-2.90972E-05 3.58862E-06-4.91898E-19 4.77397E-19
 -1      3022 9.44446E-05-2.68392E-05-2.89719E-05 3.05414E-06-1.24444E-19 1.12591E-18
 -1      3023 9.48889E-05-2.69801E-05-2.91091E-05 3.98437E-06-3.21049E-19-1.38844E-20
 -1      3024 9.49684E-05-2.69527E-05-2.91436E-05 4.38803E-06-2.41141E-19 2.07763E-19
 -1      3025 9.42468E-05-2.65873E-05-2.89949E-05 3.79111E-06-5.63205E-19 2.97457E-19
 -1      3026 9.48778E-05-2.68965E-05-2.91396E-05 4.82835E-06-2.36973E-19-2.18207E-19
 -1      3027 9.50051E-05-2.69452E-05-2.91623E-05 5.25295E-06-1.03113E-18 3.86835E-19
 -1      3028 9.40538E-05-2.64077E-05-2.89895E-05 4.62260E-06-3.43523E-19-6.53091E-19
 -1      3029 9.49564E-05-2.69838E-05-2.91343E-05 5.72500E-06-4.78401E-19 8.10609E-19
 -1      3030 9.51671E-05-2.71650E-05-2.91371E-05 6.14045E-06 6.37189E-19 1.02365E-18
 -1      3031 9.39106E-05-2.63819E-05-2.89404E-05 5.53187E-06-1.64774E-19 2.24133E-19
 -1      3032 9.52151E-05-2.73701E-05-2.90761E-05 6.62223E-06 1.87841E-19 7.53262E-19
 -1      3033 9.55685E-05-2.77668E-05-2.90506E-05 6.98086E-06 6.68533E-19 5.78032E-19
 -1      3034 9.38992E-05-2.66355E-05-2.88299E-05 6.48935E-06 5.61748E-19 6.10116E-19
 -1      3035 9.58049E-05-2.82423E-05-2.89485E-05 7.43698E-06 9.97032E-19 3.80171E-19
 -1      3036 9.63948E-05-2.89699E-05-2.88881E-05 7.66650E-06 5.89875E-19 6.10750E-19
 -1      3037 9.41606E-05-2.73544E-05-2.86401E-05 7.44831E-06 1.70887E-19-4.10493E-19
 -1      3038 9.69656E-05-2.98574E-05-2.87423E-05 8.03893E-06-1.99749E-19 3.26097E-19
 -1      3039 9.79292E-05-3.10617E-05-2.86484E-05 8.03061E-06-4.91492E-19-1.69319E-19
 -1      3040 9.49243E-05-2.88002E-05-2.83591E-05 8.33532E-06 1.94826E-19-1.02158E-19
 -1      3041 9.90531E-05-3.25346E-05-2.84699E-05 8.21804E-06-3.31273E-19-1.63450E-19
 -1      3042 1.00564E-04-3.43694E-05-2.83625E-05 7.80739E-06 2.39781E-19-7.17147E-19
 -1      3043 9.65437E-05-3.13153E-05-2.79939E-05 9.02512E-06-6.23202E-20-1.08435E-18
 -1      3044 1.02547E-04-3.65980E-05-2.81954E-05 7.60058E-06 9.84877E-19-1.35436E-19
 -1      3045 1.04758E-04-3.91242E-05-2.81317E-05 6.53422E-06 1.57007E-18-1.27244E-19
 -1      3046 9.95407E-05-3.53086E-05-2.75966E-05 9.27312E-06 9.38034E-19-3.27580E-19
 -1      3047 1.07903E-04-4.21356E-05-2.80778E-05 5.56087E-06 1.41513E-18 4.88204E-19
 -1      3048 1.10835E-04-4.51707E-05-2.81696E-05 3.49027E-06 9.80075E-19 8.10429E-19
 -1      3049 1.04551E-04-4.10558E-05-2.73187E-05 8.52087E-06 1.62123E-18 5.18751E-19
 -1      3050 1.15294E-04-4.86362E-05-2.84188E-05 1.13867E-06 9.59460E-19 5.13669E-19
 -1      3051 1.18547E-04-5.13816E-05-2.88592E-05-2.32209E-06 1.35817E-18 1.25004E-18
 -1      3052 1.12031E-04-4.83435E-05-2.74515E-05 5.85304E-06 1.02958E-18 1.78115E-19
 -1      3053 1.23976E-04-5.40664E-05-2.97689E-05-7.06491E-06 7.96078E-19 7.03946E-19
 -1      3054 1.26197E-04-5.45346E-05-3.08068E-05-1.19656E-05-2.14405E-19 9.49681E-19
 -1      3055 1.22132E-04-5.59320E-05-2.85799E-05-3.42353E-07 1.07223E-18 7.75644E-19
 -1      3056 1.32464E-04-5.53129E-05-3.30726E-05-1.86661E-05-2.82381E-19 7.18006E-19
 -1      3057 1.32284E-04-5.01231E-05-3.52068E-05-2.44126E-05-7.61297E-19 1.35936E-19
 -1      3058 9.53714E-05-2.79567E-05-2.88961E-05-4.83198E-07 5.47319E-19-6.43435E-19
 -1      3059 9.54261E-05-2.76983E-05-2.90131E-05-1.52557E-07 6.47700E-19-5.91651E-19
 -1      3060 9.52424E-05-2.87077E-05-2.85145E-05-1.12839E-06 3.93635E-19-4.19251E-19
 -1      3061 9.52393E-05-2.86439E-05-2.85376E-05-1.12415E-06 3.66083E-19-3.41117E-19
 -1      3062 9.52229E-05-2.87800E-05-2.84748E-05-1.07779E-06 4.09865E-19-3.00959E-19
 -1      3063 9.52109E-05-2.87440E-05-2.84842E-05-1.11305E-06 6.20634E-19-4.55844E-19
 -1      3064 9.55210E-05-2.88235E-05-2.85872E-05-1.08970E-06 5.14952E-19-5.27772E-20
 -1      3065 9.52123E-05-2.88099E-05-2.84572E-05-9.75775E-07 1.98324E-19-2.16582E-19
 -1      3066 9.51957E-05-2.87926E-05-2.84580E-05-1.03226E-06 2.99785E-19-2.65634E-19
 -1      3067 9.54667E-05-2.88916E-05-2.85341E-05-1.03965E-06 3.01678E-19-3.86901E-20
 -1      3068 9.52080E-05-2.88122E-05-2.84543E-05-8.49777E-07-2.03350E-19 3.18490E-20
 -1      3069 9.51897E-05-2.88074E-05-2.84497E-05-9.15134E-07-3.16046E-20-2.83095E-19
 -1      3070 9.54200E-05-2.89117E-05-2.85050E-05-9.40561E-07 6.85148E-20 1.61086E-20
 -1      3071 9.52077E-05-2.87974E-05-2.84605E-05-7.18143E-07-3.96190E-19 3.59408E-19
 -1      3072 9.51896E-05-2.88008E-05-2.84530E-05-7.84234E-07-3.64264E-19 2.64779E-19
 -1      3073 9.53811E-05-2.89015E-05-2.84923E-05-8.18825E-07-4.49866E-19 2.83261E-20
 -1      3074 9.52100E-05-2.87723E-05-2.84723E-05-5.92798E-07-1.37220E-19 6.36815E-19
 -1      3075 9.51931E-05-2.87808E-05-2.84632E-05-6.54404E-07-1.69134E-19 5.95209E-19
 -1      3076 9.53495E-05-2.88730E-05-2.84907E-05-6.92190E-07-3.05963E-19 3.55012E-19
 -1      3077 9.52138E-05-2.87413E-05-2.84873E-05-4.81249E-07 3.38241E-19 5.43768E-19
 -1      3078 9.51985E-05-2.87531E-05-2.84775E-05-5.35120E-07 2.06799E-19 5.51081E-19
 -1      3079 9.53243E-05-2.88341E-05-2.84963E-05-5.72265E-07-1.64833E-20 7.22430E-19
 -1      3080 9.52187E-05-2.87070E-05-2.85041E-05-3.88187E-07-4.99828E-19 8.17915E-19
 -1      3081 9.52050E-05-2.87209E-05-2.84941E-05-4.32290E-07-1.15576E-19 9.25416E-19
 -1      3082 9.53045E-05-2.87897E-05-2.85067E-05-4.66430E-07-7.98217E-20 9.63947E-19
 -1      3083 9.52243E-05-2.86706E-05-2.85221E-05-3.16708E-07-2.38590E-19 6.87464E-19
 -1      3084 9.52120E-05-2.86860E-05-2.85120E-05-3.49665E-07-3.67746E-19 6.23305E-19
 -1      3085 9.52890E-05-2.87423E-05-2.85203E-05-3.79422E-07-3.43153E-19 8.22735E-19
 -1      3086 9.52306E-05-2.86320E-05-2.85414E-05-2.69219E-07-5.35719E-20 6.70614E-19
 -1      3087 9.52191E-05-2.86489E-05-2.85310E-05-2.89887E-07 1.92366E-20 6.40885E-19
 -1      3088 9.52770E-05-2.86928E-05-2.85363E-05-3.14498E-07-3.40997E-19 3.37471E-19
 -1      3089 9.52379E-05-2.85904E-05-2.85622E-05-2.48158E-07 1.80220E-19 6.74293E-19
 -1      3090 9.52265E-05-2.86091E-05-2.85511E-05-2.55295E-07 1.56390E-19 6.80803E-19
 -1      3091 9.52674E-05-2.86407E-05-2.85545E-05-2.74322E-07 1.01662E-19 4.39238E-19
 -1      3092 9.52463E-05-2.85443E-05-2.85854E-05-2.56536E-07-1.54640E-20 6.77383E-19
 -1      3093 9.52342E-05-2.85655E-05-2.85732E-05-2.48545E-07-2.69499E-20 9.66990E-19
 -1      3094 9.52592E-05-2.85846E-05-2.85750E-05-2.61664E-07 2.49397E-20 8.04106E-19
 -1      3095 9.52562E-05-2.84917E-05-2.86119E-05-2.98365E-07 2.17278E-19 8.64493E-19
 -1      3096 9.52425E-05-2.85162E-05-2.85979E-05-2.73100E-07 4.08536E-19 9.24781E-19
 -1      3097 9.52511E-05-2.85220E-05-2.85984E-05-2.79930E-07 4.98278E-20 9.18827E-19
 -1      3098 9.52682E-05-2.84300E-05-2.86432E-05-3.78968E-07 4.50708E-19 1.00299E-18
 -1      3099 9.52516E-05-2.84588E-05-2.86266E-05-3.33589E-07 1.71983E-19 8.62927E-19
 -1      3100 9.52420E-05-2.84499E-05-2.86254E-05-3.33568E-07 1.71718E-19 1.31387E-18
 -1      3101 9.52827E-05-2.83566E-05-2.86805E-05-5.05196E-07-3.66294E-21 1.40269E-18
 -1      3102 9.52619E-05-2.83906E-05-2.86604E-05-4.36075E-07 3.23812E-19 1.21841E-18
 -1      3103 9.52303E-05-2.83647E-05-2.86569E-05-4.28352E-07 3.63126E-19 1.30468E-18
 -1      3104 9.53002E-05-2.82683E-05-2.87253E-05-6.85506E-07 1.23912E-19 1.04057E-18
 -1      3105 9.52738E-05-2.83088E-05-2.87008E-05-5.88205E-07 1.75988E-19 1.02239E-18
 -1      3106 9.52143E-05-2.82624E-05-2.86939E-05-5.71555E-07 8.00915E-20 1.77861E-18
 -1      3107 9.53210E-05-2.81625E-05-2.87790E-05-9.29894E-07-2.50704E-19 1.05005E-18
 -1      3108 9.52874E-05-2.82103E-05-2.87492E-05-7.99225E-07 2.43519E-19 7.57117E-19
 -1      3109 9.51918E-05-2.81387E-05-2.87372E-05-7.71989E-07 4.34923E-19 1.45452E-18
 -1      3110 9.53457E-05-2.80368E-05-2.88427E-05-1.24960E-06-1.12157E-18 3.90885E-19
 -1      3111 9.53029E-05-2.80924E-05-2.88069E-05-1.07981E-06-4.57534E-19 4.83925E-19
 -1      3112 9.51601E-05-2.79896E-05-2.87874E-05-1.03986E-06-2.24308E-19 1.10220E-18
 -1      3113 9.53744E-05-2.78901E-05-2.89171E-05-1.65647E-06-1.06828E-18-8.77364E-20
 -1      3114 9.53205E-05-2.79534E-05-2.88746E-05-1.44163E-06-1.49363E-18-8.25662E-20
 -1      3115 9.51163E-05-2.78119E-05-2.88446E-05-1.38638E-06-8.99984E-19 3.17286E-19
 -1      3116 9.54076E-05-2.77240E-05-2.90018E-05-2.16192E-06 2.84037E-19-2.33320E-19
 -1      3117 9.53403E-05-2.77931E-05-2.89524E-05-1.89656E-06 6.05409E-20-2.83094E-19
 -1      3118 9.50569E-05-2.76039E-05-2.89080E-05-1.82311E-06-3.37881E-19-1.13924E-18
 -1      3119 9.54466E-05-2.75439E-05-2.90950E-05-2.77522E-06 1.75986E-19-4.56805E-19
 -1      3120 9.53631E-05-2.76147E-05-2.90394E-05-2.45536E-06 4.36740E-19-5.91924E-20
 -1      3121 9.49787E-05-2.73674E-05-2.89754E-05-2.36081E-06 2.28048E-19 5.13765E-20
 -1      3122 9.54950E-05-2.73632E-05-2.91925E-05-3.50098E-06 6.40393E-21 4.32841E-19
 -1      3123 9.53910E-05-2.74272E-05-2.91324E-05-3.12569E-06-3.65500E-19-1.43824E-19
 -1      3124 9.48794E-05-2.71099E-05-2.90428E-05-3.00782E-06-2.11452E-19-7.35534E-19
 -1      3125 9.55613E-05-2.72075E-05-2.92872E-05-4.33550E-06-2.50333E-19 1.07396E-18
 -1      3126 9.54303E-05-2.72494E-05-2.92260E-05-3.90920E-06 2.58518E-19 7.97139E-19
 -1      3127 9.47603E-05-2.68487E-05-2.91032E-05-3.76790E-06-3.48085E-19-1.94932E-20
 -1      3128 9.56653E-05-2.71235E-05-2.93675E-05-5.26184E-06-4.94427E-19 2.69512E-19
 -1      3129 9.54949E-05-2.71166E-05-2.93107E-05-4.79751E-06 1.63531E-19 1.26653E-18
 -1      3130 9.46302E-05-2.66176E-05-2.91461E-05-4.63740E-06-2.34201E-19 7.65174E-19
 -1      3131 9.58480E-05-2.71905E-05-2.94170E-05-6.24304E-06-8.54912E-19 1.33949E-19
 -1      3132 9.56153E-05-2.70905E-05-2.93728E-05-5.76674E-06-1.07999E-18-7.50795E-20
 -1      3133 9.45135E-05-2.64770E-05-2.91565E-05-5.60190E-06-4.85523E-19 1.12504E-18
 -1      3134 9.61893E-05-2.75383E-05-2.94143E-05-7.21313E-06-9.02591E-19 1.54668E-18
 -1      3135 9.58523E-05-2.72742E-05-2.93934E-05-6.77004E-06-1.16825E-18 2.02113E-19
 -1      3136 9.44635E-05-2.65283E-05-2.91146E-05-6.63228E-06-1.12934E-18 2.10594E-19
 -1      3137 9.68345E-05-2.83679E-05-2.93354E-05-8.06458E-06 1.28437E-19 1.72219E-18
 -1      3138 9.63195E-05-2.78318E-05-2.93498E-05-7.72724E-06-1.77591E-20 1.95637E-18
 -1      3139 9.45846E-05-2.69341E-05-2.89966E-05-7.67981E-06-8.84644E-19 6.98625E-19
 -1      3140 9.80303E-05-2.99713E-05-2.91611E-05-8.62920E-06-7.70841E-19 2.68529E-18
 -1      3141 9.72168E-05-2.90107E-05-2.92195E-05-8.50906E-06-1.92887E-19 2.80097E-18
 -1      3142 9.50659E-05-2.79435E-05-2.87791E-05-8.66830E-06-6.87387E-19 1.38185E-18
 -1      3143 1.00159E-04-3.27298E-05-2.88932E-05-8.64374E-06-1.24888E-18 3.05616E-18
 -1      3144 9.88712E-05-3.11555E-05-2.89923E-05-8.90876E-06-8.87882E-19 2.89092E-18
 -1      3145 9.62279E-05-2.99147E-05-2.84491E-05-9.47631E-06-1.29104E-18 3.02191E-18
 -1      3146 1.03739E-04-3.70422E-05-2.85871E-05-7.68557E-06-1.60970E-18 3.36599E-18
 -1      3147 1.01769E-04-3.46828E-05-2.86942E-05-8.58569E-06-1.29749E-18 2.81605E-18
 -1      3148 9.85746E-05-3.33135E-05-2.80263E-05-9.88982E-06-1.34722E-18 2.91531E-18
 -1      3149 1.09317E-04-4.30674E-05-2.84082E-05-5.05868E-06-7.97495E-19 2.00164E-18
 -1      3150 1.06514E-04-3.99380E-05-2.84323E-05-6.95414E-06-8.64493E-19 2.42461E-18
 -1      3151 1.02820E-04-3.86317E-05-2.76066E-05-9.48448E-06-7.66843E-19 1.97380E-18
 -1      3152 1.17058E-04-5.01952E-05-2.87147E-05 2.14967E-07 1.12444E-19 2.16361E-18
 -1      3153 1.13587E-04-4.68100E-05-2.84690E-05-3.11293E-06-8.96720E-19 2.15516E-18
 -1      3154 1.09679E-04-4.59940E-05-2.74402E-05-7.39808E-06-9.23926E-19 1.95855E-18
 -1      3155 1.26030E-04-5.57108E-05-3.02106E-05 9.56722E-06-1.40382E-19 1.94509E-18
 -1      3156 1.22828E-04-5.38669E-05-2.93466E-05 4.44285E-06 8.11611E-19 2.40948E-18
 -1      3157 1.19842E-04-5.48511E-05-2.80630E-05-2.29301E-06 7.04758E-21 2.58620E-18
 -1      3158 1.37003E-04-4.35099E-05-4.02650E-05 3.30209E-05 2.40822E-19 1.74489E-18
 -1      3159 1.39791E-04-5.35568E-05-3.70864E-05 2.82941E-05 5.91864E-19 1.04566E-18
 -1      3160 1.40516E-04-7.20439E-05-2.98258E-05 5.26509E-06-6.08858E-19 4.58510E-19
 -1      3161 1.28886E-04-6.99694E-05-2.46849E-05 1.83516E-05-4.56763E-19 1.18770E-18
 -1      3162 9.54123E-05-2.73459E-05-2.91785E-05 2.65080E-07 5.65989E-19-5.76232E-19
 -1      3163 9.54768E-05-2.69395E-05-2.93572E-05 8.26424E-07 6.70661E-19-5.63464E-19
 -1      3164 9.56881E-05-2.73319E-05-2.93006E-05 2.15396E-07 6.12063E-19-4.62469E-19
 -1      3165 9.52737E-05-2.85710E-05-2.85873E-05-1.08763E-06 2.98731E-19-4.15985E-19
 -1      3166 9.52848E-05-2.84663E-05-2.86309E-05-1.01740E-06 2.77101E-19-4.41769E-19
 -1      3167 9.55813E-05-2.86818E-05-2.86745E-05-1.05257E-06 2.88886E-19-3.07547E-19
 -1      3168 4.03760E-05-2.02026E-05-8.22897E-06-1.10464E-07 2.36078E-18-5.95475E-18
 -1      3169 4.37273E-05-2.20499E-05-8.79960E-06-1.22816E-05 1.72948E-18-4.11118E-18
 -1      3170 9.49589E-05-2.35118E-05-3.06196E-05-4.14065E-06-8.64604E-19-9.05404E-19
 -1      3171 9.51558E-05-2.45925E-05-3.02597E-05-2.95778E-06-7.32231E-19-8.96180E-19
 -1      3172 9.52396E-05-2.44711E-05-3.03268E-05-2.61661E-06-6.22203E-19-1.01435E-18
 -1      3173 5.17671E-05-2.55460E-05-1.11315E-05 2.06259E-05 2.74995E-18-6.72057E-18
 -1      3174 4.37198E-05-2.11612E-05-9.09109E-06 9.70890E-06 2.85139E-18-7.37025E-18
 -1      3175 5.02208E-05-2.05889E-05-1.21657E-05 4.55636E-06 1.08316E-18-6.16942E-18
 -1      3176 1.18926E-04-6.51445E-05-2.24975E-05-2.21140E-05 1.40292E-18 6.57430E-19
 -1      3177 1.32546E-04-7.04460E-05-2.70107E-05-1.05998E-05 2.59888E-18 2.32396E-18
 -1      3178 8.02865E-05-4.42720E-05-1.52655E-05 3.33060E-05 2.80463E-18-4.28450E-18
 -1      3179 6.42612E-05-3.34846E-05-1.26252E-05 2.86623E-05 3.79902E-18-5.13768E-18
 -1      3180 1.22421E-04-2.12682E-05-4.36890E-05-3.67955E-05-2.42543E-18 1.83489E-19
 -1      3181 9.23605E-05-1.83343E-05-3.17408E-05 1.81006E-06 1.17745E-19-1.20146E-18
 -1      3182 9.22417E-05-1.81327E-05-3.17727E-05 1.05696E-06-4.47839E-20-1.38333E-18
 -1      3183 8.69089E-05-4.87614E-05-1.58881E-05-3.24201E-05 1.69910E-18-2.55550E-18
 -1      3184 1.02302E-04-5.82298E-05-1.90272E-05-3.07155E-05 1.34498E-18-2.38699E-18
 -1      3185 9.34775E-05-1.98230E-05-3.15490E-05-6.19544E-06-9.48695E-19-1.14348E-18
 -1      3186 9.53181E-05-2.83374E-05-2.87079E-05-8.98726E-07 2.12221E-19-4.43449E-19
 -1      3187 9.53493E-05-2.81717E-05-2.87815E-05-7.24743E-07 2.96381E-19-5.18102E-19
 -1      3188 9.56883E-05-2.80081E-05-2.90107E-05-4.83212E-07 3.47927E-19-4.55843E-19
 -1      3189 9.52128E-05-2.42759E-05-3.04037E-05 4.26483E-06 9.42278E-19-8.51594E-19
 -1      3190 9.46388E-05-2.27269E-05-3.08070E-05 4.76878E-06 9.71074E-19-8.83704E-19
 -1      3191 9.49282E-05-2.35910E-05-3.05680E-05 3.67421E-06 8.49354E-19-8.67551E-19
 -1      3192 9.52431E-05-2.52017E-05-3.00307E-05 2.99367E-06 8.47599E-19-7.68896E-19
 -1      3193 1.43867E-04-6.33340E-05-3.48142E-05 1.68702E-05 7.26807E-19 1.12925E-18
 -1      3194 1.32257E-04-5.53523E-05-3.30281E-05 2.05809E-05 8.57872E-19 1.89972E-18
 -1      3195 1.31024E-04-5.71544E-05-3.14370E-05 1.46640E-05 2.78819E-19 2.19294E-18
 -1      3196 1.40037E-04-6.85503E-05-3.02119E-05 3.77829E-06 1.77508E-18 1.68213E-18
 -1      3197 9.76048E-05-5.30773E-05-1.92459E-05 2.93971E-05 2.61037E-18-3.95988E-19
 -1      3198 8.91602E-05-4.84843E-05-1.69746E-05 3.21801E-05 2.90241E-18-2.63348E-18
 -1      3199 8.24266E-05-4.15338E-05-1.73686E-05 2.94119E-05 4.66387E-18-3.48093E-18
 -1      3200 1.31928E-04-6.52571E-05-2.84225E-05-1.46470E-06 1.40922E-18 2.40022E-18
 -1      3201 1.38712E-04-6.64693E-05-3.08971E-05-3.99573E-06-6.33184E-19-9.70885E-19
 -1      3202 1.21603E-04-6.56576E-05-2.36970E-05 2.03491E-05 1.78512E-19 1.11667E-18
 -1      3203 1.37422E-04-5.01607E-05-3.73624E-05-2.68020E-05-1.23627E-18-2.85556E-19
 -1      3204 9.31346E-05-1.96162E-05-3.14902E-05 6.27400E-07-2.21442E-19-1.20969E-18
 -1      3205 9.21813E-05-1.80322E-05-3.17911E-05 4.07780E-07-1.68130E-19-1.36982E-18
 -1      3206 9.21779E-05-1.80274E-05-3.17916E-05-3.59411E-07-3.13493E-19-1.20774E-18
 -1      3207 1.33851E-04-6.04914E-05-3.16626E-05-1.05069E-05-3.56055E-19-3.25989E-19
 -1      3208 9.56416E-05-2.84288E-05-2.88097E-05-8.74670E-07 2.06485E-19-3.10372E-19
 -1      3209 1.26217E-04-3.94895E-05-3.76493E-05-3.18363E-05-1.91747E-18 1.27940E-18
 -1      3210 1.21450E-04-2.87723E-05-3.97738E-05-3.35454E-05-2.21880E-18 9.78866E-19
 -1      3211 9.27777E-05-1.90469E-05-3.16181E-05 3.11822E-06 4.13419E-19-1.23211E-18
 -1      3212 9.25363E-05-1.86298E-05-3.16851E-05 2.41675E-06 2.72146E-19-1.21585E-18
 -1      3213 9.33489E-05-2.00046E-05-3.14141E-05 1.79868E-06 1.48304E-19-1.05631E-18
 -1      3214 5.41458E-05-2.53714E-05-1.18256E-05-1.68914E-05 9.98692E-19-3.42138E-18
 -1      3215 1.30392E-04-6.13257E-05-2.99618E-05 5.92179E-06 5.86282E-19 3.78478E-18
 -1      3216 1.20673E-04-1.85829E-05-4.41937E-05 3.68899E-05-7.37607E-19-1.32349E-19
 -1      3217 1.42121E-04-4.36142E-05-4.22365E-05 3.38962E-05 3.09643E-19 1.48834E-18
 -1      3218 9.67573E-05 1.31794E-05-4.85659E-05-5.02911E-06-1.78756E-18 2.62818E-19
 -1      3219 7.96398E-05-4.26570E-05-1.55170E-05-3.10631E-05 1.35351E-18-2.53273E-18
 -1      3220 8.85673E-05-4.47076E-05-1.85235E-05-2.71319E-05 5.74593E-19-1.04958E-18
 -1      3221 7.23697E-05-3.55706E-05-1.55522E-05-2.69062E-05 1.36822E-18-2.94879E-18
 -1      3222 9.25148E-05-1.85977E-05-3.16896E-05-2.37151E-06-5.31341E-19-1.28806E-18
 -1      3223 9.27459E-05-1.90008E-05-3.16239E-05-3.07807E-06-6.38058E-19-1.33038E-18
 -1      3224 9.30338E-05-1.94951E-05-3.15256E-05-3.60827E-06-6.28005E-19-1.30561E-18
 -1      3225 9.33894E-05-2.01470E-05-3.14152E-05-4.21838E-06-7.80854E-19-1.26986E-18
 -1      3226 9.37348E-05-2.07475E-05-3.12617E-05-2.80438E-06-6.60308E-19-1.28486E-18
 -1      3227 9.34242E-05-2.02052E-05-3.14042E-05 4.23893E-06 6.54207E-19-1.09755E-18
 -1      3228 9.30660E-05-1.95452E-05-3.15175E-05 3.64747E-06 4.93420E-19-1.18102E-18
 -1      3229 9.37624E-05-2.07878E-05-3.12543E-05 2.83839E-06 3.95807E-19-1.07491E-18
 -1      3230 9.43310E-05-2.19750E-05-3.09890E-05 3.61895E-06 6.15389E-19-9.21877E-19
 -1      3231 6.35559E-05-2.92363E-05-1.42233E-05 2.22053E-05 3.41444E-18-5.44859E-18
 -1      3232 1.11230E-04-5.90876E-05-2.20909E-05-2.25213E-05 5.90594E-19 3.00763E-19
 -1      3233 9.39943E-05-2.12765E-05-3.11688E-05-5.12556E-06-9.10830E-19-1.12586E-18
 -1      3234 9.39554E-05-2.12181E-05-3.11681E-05-4.43952E-06-7.70327E-19-1.18636E-18
 -1      3235 9.53849E-05-2.65005E-05-2.95319E-05 1.35786E-06 7.91118E-19-7.18390E-19
 -1      3236 9.54247E-05-2.58793E-05-2.97918E-05 2.22471E-06 8.63325E-19-7.41778E-19
 -1      3237 9.53407E-05-2.51601E-05-3.00720E-05 2.60392E-06 7.78252E-19-7.40181E-19
 -1      3238 9.55858E-05-2.64058E-05-2.96540E-05 1.22988E-06 6.38279E-19-4.50156E-19
 -1      3239 5.48287E-05-2.03221E-05-1.48322E-05 7.44017E-06 4.66083E-19-5.40635E-18
 -1      3240 5.32542E-05-1.94002E-05-1.41734E-05-1.98631E-06-4.58602E-19-4.95408E-18
 -1      3241 9.60301E-05-2.69108E-05-2.96137E-05-4.40146E-07-6.57561E-19-1.12583E-18
 -1      3242 9.60784E-05-2.74045E-05-2.94393E-05-2.69585E-08-7.43825E-19-1.12114E-18
 -1      3243 9.61603E-05-2.78258E-05-2.92786E-05 2.52010E-07-7.40067E-19-1.04527E-18
 -1      3244 9.61554E-05-2.81454E-05-2.91518E-05 5.03875E-07-6.12236E-19-1.08640E-18
 -1      3245 9.62620E-05-2.74566E-05-2.94885E-05 2.04740E-08-7.32566E-19-1.00764E-18
 -1      3246 9.61645E-05-2.84098E-05-2.90320E-05 6.64748E-07-5.40133E-19-1.00900E-18
 -1      3247 9.61346E-05-2.86091E-05-2.89418E-05 7.98670E-07-3.87294E-19-8.95132E-19
 -1      3248 9.63531E-05-2.82182E-05-2.92022E-05 4.80111E-07-5.01379E-19-7.21499E-19
 -1      3249 9.61016E-05-2.87650E-05-2.88545E-05 8.73489E-07-1.59800E-19-8.62692E-19
 -1      3250 9.60613E-05-2.88816E-05-2.87921E-05 9.26169E-07-7.60825E-20-8.04387E-19
 -1      3251 9.63313E-05-2.86943E-05-2.89894E-05 7.34485E-07-2.89611E-19-5.34238E-19
 -1      3252 9.60067E-05-2.89639E-05-2.87300E-05 9.42737E-07-2.67844E-20-9.57725E-19
 -1      3253 9.59640E-05-2.90243E-05-2.86883E-05 9.42593E-07-1.06720E-19-7.40739E-19
 -1      3254 9.62462E-05-2.89704E-05-2.88347E-05 8.42456E-07-5.67602E-20-7.75147E-19
 -1      3255 9.59006E-05-2.90576E-05-2.86454E-05 9.22358E-07-6.10988E-20-5.33608E-19
 -1      3256 9.58598E-05-2.90808E-05-2.86188E-05 8.90353E-07 1.24543E-19-3.71608E-19
 -1      3257 9.61307E-05-2.91103E-05-2.87251E-05 8.52913E-07 5.36707E-20-7.20515E-19
 -1      3258 9.57955E-05-2.90827E-05-2.85904E-05 8.49111E-07-2.94636E-19-2.71395E-19
 -1      3259 9.57587E-05-2.90818E-05-2.85748E-05 8.00162E-07-3.74644E-19-1.65024E-19
 -1      3260 9.60053E-05-2.91597E-05-2.86500E-05 8.03144E-07 9.60244E-21-5.88751E-19
 -1      3261 9.56981E-05-2.90643E-05-2.85570E-05 7.49108E-07-2.27981E-19-3.01215E-19
 -1      3262 9.56661E-05-2.90487E-05-2.85491E-05 6.93520E-07 9.05293E-20-2.61295E-19
 -1      3263 9.58824E-05-2.91511E-05-2.86008E-05 7.20363E-07-3.25392E-19-5.87619E-19
 -1      3264 9.56115E-05-2.90201E-05-2.85392E-05 6.40296E-07-1.45355E-19-3.99688E-19
 -1      3265 9.55844E-05-2.89957E-05-2.85368E-05 5.84973E-07-2.14535E-19-5.70401E-19
 -1      3266 9.57688E-05-2.91072E-05-2.85707E-05 6.23718E-07-1.93372E-19-6.96430E-19
 -1      3267 9.55367E-05-2.89613E-05-2.85326E-05 5.34637E-07-1.90000E-19-6.28022E-19
 -1      3268 9.55142E-05-2.89323E-05-2.85339E-05 4.84109E-07-5.01484E-19-5.21912E-19
 -1      3269 9.56680E-05-2.90430E-05-2.85547E-05 5.26205E-07-1.11779E-19-7.60116E-19
 -1      3270 9.54733E-05-2.88952E-05-2.85339E-05 4.39954E-07-4.95869E-19-9.81247E-19
 -1      3271 9.54547E-05-2.88636E-05-2.85379E-05 3.97178E-07-4.03241E-19-9.16132E-19
 -1      3272 9.55804E-05-2.89682E-05-2.85491E-05 4.36459E-07-6.63828E-19-8.47598E-19
 -1      3273 9.54196E-05-2.88253E-05-2.85409E-05 3.61365E-07-6.57536E-19-1.05307E-18
 -1      3274 9.54042E-05-2.87922E-05-2.85470E-05 3.28345E-07-1.01144E-18-9.73921E-19
 -1      3275 9.55053E-05-2.88880E-05-2.85510E-05 3.60184E-07-5.97214E-19-1.75842E-18
 -1      3276 9.53737E-05-2.87530E-05-2.85523E-05 3.02399E-07-1.26402E-18-4.60255E-19
 -1      3277 9.53606E-05-2.87182E-05-2.85600E-05 2.80667E-07-1.01227E-18-8.82666E-19
 -1      3278 9.54403E-05-2.88047E-05-2.85587E-05 3.01267E-07-9.03792E-19-1.11966E-18
 -1      3279 9.53328E-05-2.86774E-05-2.85673E-05 2.65878E-07-3.43226E-19-8.14655E-19
 -1      3280 9.53210E-05-2.86403E-05-2.85764E-05 2.56869E-07 4.31267E-20-7.93474E-19
 -1      3281 9.53826E-05-2.87180E-05-2.85709E-05 2.62675E-07-6.72635E-19 1.57449E-19
 -1      3282 9.52939E-05-2.85964E-05-2.85855E-05 2.54587E-07 8.22202E-20-5.86897E-19
 -1      3283 9.52822E-05-2.85555E-05-2.85961E-05 2.59917E-07 3.49776E-19-6.15170E-19
 -1      3284 9.53282E-05-2.86257E-05-2.85870E-05 2.47150E-07 2.02881E-19 3.56424E-19
 -1      3285 9.52534E-05-2.85065E-05-2.86068E-05 2.71785E-07 5.62077E-19-4.30723E-19
 -1      3286 9.52405E-05-2.84599E-05-2.86191E-05 2.93463E-07 4.56861E-19-4.09689E-19
 -1      3287 9.52728E-05-2.85243E-05-2.86065E-05 2.57730E-07 5.52154E-19-2.28845E-19
 -1      3288 9.52073E-05-2.84034E-05-2.86315E-05 3.21578E-07 1.09849E-19-5.59850E-19
 -1      3289 9.51917E-05-2.83489E-05-2.86457E-05 3.62150E-07 5.24416E-19-7.43030E-19
 -1      3290 9.52112E-05-2.84089E-05-2.86294E-05 2.98139E-07 3.09785E-19 3.48509E-19
 -1      3291 9.51509E-05-2.82819E-05-2.86597E-05 4.09183E-07 6.16126E-19-1.23366E-18
 -1      3292 9.51310E-05-2.82171E-05-2.86760E-05 4.71818E-07-1.38710E-19-1.28964E-18
 -1      3293 9.51377E-05-2.82738E-05-2.86555E-05 3.73062E-07-3.17054E-20-2.35449E-19
 -1      3294 9.50790E-05-2.81365E-05-2.86916E-05 5.41071E-07-7.93795E-19-1.69792E-18
 -1      3295 9.50529E-05-2.80589E-05-2.87101E-05 6.29571E-07-5.64038E-19-1.90143E-18
 -1      3296 9.50454E-05-2.81129E-05-2.86847E-05 4.88308E-07-4.96372E-19-9.55480E-19
 -1      3297 9.49856E-05-2.79618E-05-2.87270E-05 7.24977E-07-1.23718E-19-1.76710E-18
 -1      3298 9.49513E-05-2.78691E-05-2.87476E-05 8.43712E-07 2.33051E-19-1.55545E-18
 -1      3299 9.49269E-05-2.79194E-05-2.87164E-05 6.50864E-07-2.80922E-19-1.71037E-18
 -1      3300 9.48641E-05-2.77526E-05-2.87652E-05 9.69758E-07 5.34055E-19-1.37437E-18
 -1      3301 9.48194E-05-2.76432E-05-2.87876E-05 1.12348E-06 9.30550E-19-1.12822E-18
 -1      3302 9.47735E-05-2.76875E-05-2.87497E-05 8.68807E-07 3.00045E-19-1.55881E-18
 -1      3303 9.47077E-05-2.75055E-05-2.88048E-05 1.28505E-06 1.12407E-18-1.56278E-18
 -1      3304 9.46504E-05-2.73790E-05-2.88281E-05 1.47858E-06 9.63608E-19-1.01790E-18
 -1      3305 9.45763E-05-2.74122E-05-2.87826E-05 1.15107E-06 1.02259E-18-1.53715E-18
 -1      3306 9.45096E-05-2.72197E-05-2.88431E-05 1.68070E-06 5.81397E-19-9.75605E-19
 -1      3307 9.44381E-05-2.70781E-05-2.88658E-05 1.91846E-06-2.98912E-20-7.31233E-19
 -1      3308 9.43258E-05-2.70915E-05-2.88120E-05 1.50701E-06 8.86669E-19-1.45275E-18
 -1      3309 9.42642E-05-2.68997E-05-2.88759E-05 2.16593E-06 2.72718E-19 2.41742E-19
 -1      3310 9.41782E-05-2.67482E-05-2.88954E-05 2.45128E-06 6.54325E-19 7.85508E-19
 -1      3311 9.40134E-05-2.67278E-05-2.88333E-05 1.94589E-06 7.60008E-19-3.55923E-19
 -1      3312 9.39690E-05-2.65578E-05-2.88968E-05 2.74833E-06-4.28278E-19 9.37236E-19
 -1      3313 9.38709E-05-2.64074E-05-2.89094E-05 3.08275E-06-5.98272E-19 4.63402E-19
 -1      3314 9.36331E-05-2.63313E-05-2.88395E-05 2.47618E-06 3.08656E-19 1.03512E-19
 -1      3315 9.36278E-05-2.62189E-05-2.88965E-05 3.43267E-06-7.65083E-19-7.23442E-21
 -1      3316 9.35248E-05-2.60893E-05-2.88969E-05 3.81484E-06-7.59753E-19-4.42578E-19
 -1      3317 9.31836E-05-2.59239E-05-2.88208E-05 3.10499E-06-7.71852E-19 2.02107E-19
 -1      3318 9.32557E-05-2.59270E-05-2.88626E-05 4.21990E-06-7.75095E-19-8.10180E-19
 -1      3319 9.31638E-05-2.58505E-05-2.88437E-05 4.64480E-06-9.98503E-19-1.07498E-18
 -1      3320 9.26734E-05-2.55450E-05-2.87640E-05 3.83802E-06-1.37098E-18-4.65894E-19
 -1      3321 9.28874E-05-2.57541E-05-2.87789E-05 5.10662E-06-1.09216E-20-2.57811E-19
 -1      3322 9.28376E-05-2.57814E-05-2.87320E-05 5.56471E-06 1.04597E-18 1.96477E-19
 -1      3323 9.21274E-05-2.52599E-05-2.86524E-05 4.68038E-06-1.50098E-19-8.03699E-19
 -1      3324 9.25900E-05-2.58118E-05-2.86259E-05 6.08527E-06 6.09151E-19 5.25810E-20
 -1      3325 9.26371E-05-2.60194E-05-2.85414E-05 6.56173E-06 4.86685E-20-5.17387E-19
 -1      3326 9.15977E-05-2.51701E-05-2.84651E-05 5.63903E-06 7.35067E-19-6.90747E-19
 -1      3327 9.24828E-05-2.62669E-05-2.83826E-05 7.14488E-06-2.78452E-19-1.59936E-19
 -1      3328 9.27190E-05-2.67661E-05-2.82518E-05 7.61817E-06 2.32065E-19-4.29483E-19
 -1      3329 9.11799E-05-2.54278E-05-2.81791E-05 6.72716E-06 4.06571E-20-7.23435E-19
 -1      3330 9.27659E-05-2.73597E-05-2.80305E-05 8.27065E-06 2.04455E-19-1.21708E-18
 -1      3331 9.33383E-05-2.83059E-05-2.78499E-05 8.70785E-06-2.31585E-19-1.71611E-18
 -1      3332 9.10377E-05-2.62533E-05-2.77716E-05 7.96976E-06-5.52177E-19-1.44722E-18
 -1      3333 9.37640E-05-2.94230E-05-2.75631E-05 9.43124E-06-1.20066E-19-1.87629E-18
 -1      3334 9.48959E-05-3.10187E-05-2.73424E-05 9.77107E-06 3.87475E-19-1.77418E-18
 -1      3335 9.14440E-05-2.79615E-05-2.72270E-05 9.40448E-06-2.92351E-19-2.34413E-18
 -1      3336 9.59717E-05-3.28814E-05-2.70041E-05 1.05494E-05 1.06273E-18-1.29094E-18
 -1      3337 9.80022E-05-3.53828E-05-2.67850E-05 1.06603E-05 1.68746E-18-6.97030E-19
 -1      3338 9.28253E-05-3.09680E-05-2.65517E-05 1.10547E-05 9.03097E-19-1.80280E-18
 -1      3339 1.00192E-04-3.82857E-05-2.64532E-05 1.13881E-05 1.97123E-18 2.42943E-19
 -1      3340 1.03498E-04-4.18523E-05-2.63446E-05 1.09793E-05 1.92438E-18 1.99830E-19
 -1      3341 9.58041E-05-3.58160E-05-2.57993E-05 1.29103E-05 2.36402E-18-7.19435E-19
 -1      3342 1.07448E-04-4.59529E-05-2.61824E-05 1.09606E-05 1.10412E-18 2.11300E-19
 -1      3343 1.12209E-04-5.03818E-05-2.64014E-05 9.31065E-06 1.25299E-18 2.70958E-19
 -1      3344 1.02045E-04-4.36732E-05-2.52358E-05 1.45957E-05 1.52243E-18-7.38917E-19
 -1      3345 9.59168E-05-2.85285E-05-2.88830E-05-8.44904E-07 2.13676E-19-2.95631E-19
 -1      3346 9.59476E-05-2.83374E-05-2.89691E-05-6.97158E-07 1.57165E-19-3.44915E-19
 -1      3347 9.57718E-05-2.89347E-05-2.86443E-05-1.01576E-06 4.62649E-19 1.40666E-19
 -1      3348 9.58026E-05-2.88728E-05-2.86813E-05-1.01463E-06 4.13189E-19 6.88022E-20
 -1      3349 9.55440E-05-2.89837E-05-2.85247E-05-7.52823E-07-3.91731E-19 3.10512E-19
 -1      3350 9.55626E-05-2.89934E-05-2.85294E-05-8.12430E-07-2.77534E-19 4.48113E-19
 -1      3351 9.54842E-05-2.89418E-05-2.85170E-05-6.35281E-07-7.14594E-19 7.26517E-19
 -1      3352 9.54990E-05-2.89601E-05-2.85169E-05-6.94908E-07-7.69967E-19 4.79736E-19
 -1      3353 9.56680E-05-2.90522E-05-2.85509E-05-6.92525E-07-5.21090E-19 1.02796E-18
 -1      3354 9.54336E-05-2.88896E-05-2.85177E-05-5.25183E-07-7.10621E-20 7.50744E-19
 -1      3355 9.54453E-05-2.89126E-05-2.85144E-05-5.80028E-07-1.23874E-19 7.71953E-19
 -1      3356 9.55854E-05-2.89984E-05-2.85384E-05-5.84556E-07-5.89938E-19 5.34684E-19
 -1      3357 9.53915E-05-2.88321E-05-2.85244E-05-4.29238E-07-3.56134E-19 9.51471E-19
 -1      3358 9.54006E-05-2.88578E-05-2.85189E-05-4.76198E-07-2.83100E-19 5.66386E-19
 -1      3359 9.55146E-05-2.89340E-05-2.85354E-05-4.84239E-07-1.92619E-21 7.37211E-19
 -1      3360 9.53567E-05-2.87719E-05-2.85353E-05-3.51867E-07-4.13314E-19 6.19055E-19
 -1      3361 9.53637E-05-2.87991E-05-2.85283E-05-3.88882E-07-2.26032E-19 8.60808E-19
 -1      3362 9.54545E-05-2.88643E-05-2.85393E-05-3.97878E-07-1.74022E-19 7.44656E-19
 -1      3363 9.53274E-05-2.87095E-05-2.85495E-05-2.96222E-07-1.38716E-19 3.29886E-19
 -1      3364 9.53329E-05-2.87382E-05-2.85413E-05-3.21767E-07-3.92780E-19 4.91692E-19
 -1      3365 9.54035E-05-2.87918E-05-2.85484E-05-3.29712E-07-2.81182E-19 7.94382E-19
 -1      3366 9.53019E-05-2.86440E-05-2.85667E-05-2.65008E-07 2.00361E-19 1.18414E-19
 -1      3367 9.53064E-05-2.86747E-05-2.85572E-05-2.77696E-07 1.61572E-20 2.23519E-19
 -1      3368 9.53590E-05-2.87164E-05-2.85615E-05-2.82876E-07-1.80046E-20-1.16588E-19
 -1      3369 9.52779E-05-2.85731E-05-2.85867E-05-2.61131E-07 5.13669E-20 9.33156E-19
 -1      3370 9.52820E-05-2.86068E-05-2.85759E-05-2.59404E-07 2.81883E-19 7.61860E-19
 -1      3371 9.53183E-05-2.86366E-05-2.85781E-05-2.60171E-07 6.59436E-21 2.40723E-19
 -1      3372 9.52531E-05-2.84936E-05-2.86100E-05-2.88172E-07 3.57210E-20 5.85410E-19
 -1      3373 9.52573E-05-2.85319E-05-2.85976E-05-2.70076E-07 4.62989E-20 3.44108E-19
 -1      3374 9.52778E-05-2.85495E-05-2.85980E-05-2.64657E-07 3.39395E-19-7.62654E-20
 -1      3375 9.52244E-05-2.84015E-05-2.86370E-05-3.50756E-07 3.00502E-19 5.20507E-19
 -1      3376 9.52295E-05-2.84462E-05-2.86226E-05-3.13765E-07 4.16490E-19 7.48063E-19
 -1      3377 9.52338E-05-2.84508E-05-2.86212E-05-3.00089E-07 2.81031E-19 6.40784E-22
 -1      3378 9.51886E-05-2.82921E-05-2.86684E-05-4.54789E-07 7.52055E-20 1.03175E-18
 -1      3379 9.51955E-05-2.83453E-05-2.86515E-05-3.95698E-07-6.65304E-21 8.81400E-19
 -1      3380 9.51815E-05-2.83355E-05-2.86481E-05-3.71238E-07 1.39941E-19 4.78308E-19
 -1      3381 9.51418E-05-2.81602E-05-2.87045E-05-6.07587E-07-1.34452E-19 7.52939E-19
 -1      3382 9.51515E-05-2.82243E-05-2.86849E-05-5.22464E-07-1.38738E-19 9.66782E-19
 -1      3383 9.51157E-05-2.81978E-05-2.86787E-05-4.84089E-07-1.35144E-19 6.73929E-19
 -1      3384 9.50793E-05-2.80006E-05-2.87458E-05-8.17855E-07 2.82284E-19 1.07086E-18
 -1      3385 9.50930E-05-2.80777E-05-2.87231E-05-7.02075E-07 3.52320E-19 9.41150E-19
 -1      3386 9.50302E-05-2.80314E-05-2.87131E-05-6.45922E-07-5.76427E-20 3.92312E-19
 -1      3387 9.49957E-05-2.78081E-05-2.87921E-05-1.09549E-06-3.43492E-19 3.97590E-19
 -1      3388 9.50149E-05-2.79004E-05-2.87662E-05-9.43869E-07 2.28627E-19 1.25725E-18
 -1      3389 9.49177E-05-2.78300E-05-2.87509E-05-8.65242E-07 2.47898E-19 7.46419E-19
 -1      3390 9.48847E-05-2.75787E-05-2.88425E-05-1.45116E-06-3.26281E-19-1.45668E-19
 -1      3391 9.49112E-05-2.76875E-05-2.88137E-05-1.25822E-06-6.95271E-19 2.06110E-19
 -1      3392 9.47698E-05-2.75875E-05-2.87910E-05-1.15154E-06-2.50085E-19 1.76380E-19
 -1      3393 9.47396E-05-2.73104E-05-2.88948E-05-1.89555E-06-2.40326E-19-3.66093E-19
 -1      3394 9.47751E-05-2.74359E-05-2.88640E-05-1.65598E-06-1.01096E-19-3.06240E-19
 -1      3395 9.45773E-05-2.72993E-05-2.88313E-05-1.51482E-06-6.78840E-20 5.78050E-20
 -1      3396 9.45535E-05-2.70053E-05-2.89454E-05-2.43832E-06 2.11451E-19-4.55578E-19
 -1      3397 9.45996E-05-2.71452E-05-2.89143E-05-2.14764E-06 3.97068E-20-4.87801E-19
 -1      3398 9.43299E-05-2.69638E-05-2.88684E-05-1.96493E-06-4.30805E-20-1.48715E-19
 -1      3399 9.43211E-05-2.66725E-05-2.89881E-05-3.08666E-06-3.32958E-19-6.03976E-19
 -1      3400 9.43785E-05-2.68205E-05-2.89597E-05-2.74213E-06-1.27834E-19-3.23062E-19
 -1      3401 9.40179E-05-2.65842E-05-2.88965E-05-2.51062E-06-2.92454E-20-5.15774E-19
 -1      3402 9.40412E-05-2.63324E-05-2.90136E-05-3.84362E-06-1.27181E-18 1.53599E-19
 -1      3403 9.41078E-05-2.64760E-05-2.89923E-05-3.44537E-06-8.03189E-19-3.68224E-19
 -1      3404 9.36332E-05-2.61724E-05-2.89071E-05-3.15858E-06-5.63212E-19-3.17401E-20
 -1      3405 9.37220E-05-2.60244E-05-2.90083E-05-4.70634E-06-3.93618E-19 8.92715E-19
 -1      3406 9.37902E-05-2.61404E-05-2.90009E-05-4.25870E-06-1.05709E-18 5.97204E-19
 -1      3407 9.31728E-05-2.57539E-05-2.88881E-05-3.91264E-06-1.28589E-18 4.84871E-19
 -1      3408 9.33898E-05-2.58169E-05-2.89540E-05-5.66472E-06-6.79493E-19 1.19567E-18
 -1      3409 9.34414E-05-2.58660E-05-2.89695E-05-5.17755E-06 2.32505E-19 1.28713E-18
 -1      3410 9.26442E-05-2.53759E-05-2.88228E-05-4.77375E-06-2.14317E-19 9.28745E-19
 -1      3411 9.31049E-05-2.58236E-05-2.88273E-05-6.70099E-06-9.87212E-19 9.65040E-19
 -1      3412 9.31016E-05-2.57414E-05-2.88771E-05-6.19091E-06-1.01906E-18 7.47502E-19
 -1      3413 9.20754E-05-2.51185E-05-2.86893E-05-5.74174E-06-7.96150E-19 1.22220E-18
 -1      3414 9.29859E-05-2.62244E-05-2.86012E-05-7.79000E-06-7.10856E-19 7.67226E-19
 -1      3415 9.28558E-05-2.59100E-05-2.86981E-05-7.28181E-06-1.04907E-18 5.29019E-19
 -1      3416 9.15305E-05-2.51113E-05-2.84604E-05-6.81956E-06-1.05281E-18 2.66250E-19
 -1      3417 9.32477E-05-2.72922E-05-2.82494E-05-8.89874E-06-1.70260E-18 1.66153E-18
 -1      3418 9.28636E-05-2.65941E-05-2.84046E-05-8.42826E-06-8.32680E-19 5.70423E-19
 -1      3419 9.11358E-05-2.55561E-05-2.81054E-05-8.02046E-06-9.77055E-19 1.18906E-18
 -1      3420 9.42549E-05-2.94215E-05-2.77581E-05-9.97835E-06-1.80328E-18 2.47204E-18
 -1      3421 9.34069E-05-2.81236E-05-2.79737E-05-9.60131E-06-1.83068E-18 1.86980E-18
 -1      3422 9.11193E-05-2.67550E-05-2.75952E-05-9.37644E-06-1.80873E-18 2.13232E-18
 -1      3423 9.65921E-05-3.31434E-05-2.71500E-05-1.09192E-05-1.14183E-18 1.67627E-18
 -1      3424 9.49610E-05-3.09653E-05-2.74041E-05-1.07420E-05-1.68523E-18 2.35687E-18
 -1      3425 9.18776E-05-2.91509E-05-2.69140E-05-1.09386E-05-1.55233E-18 1.05266E-18
 -1      3426 1.01115E-04-3.90700E-05-2.65329E-05-1.14124E-05-4.92611E-19 2.25107E-18
 -1      3427 9.82770E-05-3.57209E-05-2.67516E-05-1.16783E-05 9.32654E-20 2.60490E-18
 -1      3428 9.40739E-05-3.33522E-05-2.60883E-05-1.27233E-05-9.81497E-19 1.26487E-18
 -1      3429 1.09045E-04-4.75735E-05-2.62219E-05-1.05450E-05-1.02964E-18 2.51433E-18
 -1      3430 1.04493E-04-4.30521E-05-2.62032E-05-1.18816E-05-9.40766E-19 1.76114E-18
 -1      3431 9.87646E-05-4.01071E-05-2.52423E-05-1.45489E-05-3.84910E-19 2.35186E-18
 -1      3432 1.26755E-04-6.21567E-05-2.72346E-05-5.42388E-06 6.14144E-19 2.86925E-18
 -1      3433 9.23451E-05-1.83107E-05-3.17440E-05-1.75891E-06-5.22898E-19-1.22399E-18
 -1      3434 9.33321E-05-1.99796E-05-3.14181E-05-1.76103E-06-5.18232E-19-1.20309E-18
 -1      3435 9.22322E-05-1.81193E-05-3.17745E-05-1.00739E-06-3.90981E-19-1.17543E-18
 -1      3436 9.58514E-05-2.87922E-05-2.87405E-05-9.92097E-07 2.01801E-19-2.25022E-19
 -1      3437 9.58845E-05-2.86783E-05-2.87981E-05-9.33354E-07 1.61771E-19-2.44102E-19
 -1      3438 9.60710E-05-2.88874E-05-2.87955E-05-9.21396E-07 1.71541E-19-2.85790E-19
 -1      3439 9.58981E-05-2.73764E-05-2.93742E-05 8.83404E-08 5.48820E-19-3.44249E-19
 -1      3440 9.58817E-05-2.69055E-05-2.95496E-05 5.45773E-07 5.50001E-19-4.08843E-19
 -1      3441 1.31530E-04-6.37461E-05-2.86086E-05 1.25763E-06-8.55321E-20-5.16101E-19
 -1      3442 1.23276E-04-6.37915E-05-2.58198E-05 1.35568E-05 6.28393E-19-1.00373E-19
 -1      3443 1.12787E-04-5.94259E-05-2.23110E-05 2.33746E-05 1.15792E-18 9.43959E-19
 -1      3444 9.56131E-05-2.90064E-05-2.85447E-05-8.67345E-07-1.91588E-19 5.41670E-19
 -1      3445 9.56357E-05-2.90018E-05-2.85566E-05-9.19481E-07 3.10172E-20 3.72349E-19
 -1      3446 9.57617E-05-2.90861E-05-2.85768E-05-7.98576E-07-1.33562E-19 8.91609E-19
 -1      3447 9.49446E-05-2.34554E-05-3.06395E-05-2.95050E-06-6.06120E-19-1.15585E-18
 -1      3448 9.52817E-05-2.45430E-05-3.03299E-05-2.09028E-06-5.16539E-19-1.16664E-18
 -1      3449 9.56901E-05-2.89966E-05-2.85822E-05-9.62853E-07 1.64543E-19 1.95858E-19
 -1      3450 9.57170E-05-2.89695E-05-2.86045E-05-9.96453E-07 3.58979E-19 2.79624E-19
 -1      3451 9.59708E-05-2.90298E-05-2.86912E-05-9.39202E-07 3.61298E-19 4.31350E-19
 -1      3452 9.58644E-05-2.90858E-05-2.86213E-05-8.87962E-07-3.02445E-20 6.81168E-19
 -1      3453 9.56781E-05-2.55169E-05-3.00591E-05-1.49233E-06-4.82588E-19-1.12051E-18
 -1      3454 9.58271E-05-2.62597E-05-2.98249E-05-8.68020E-07-5.34971E-19-1.09568E-18
 -1      3455 9.53978E-05-2.45854E-05-3.03502E-05-1.75346E-06-5.21839E-19-1.17077E-18
 -1      3456 7.17379E-05-3.18921E-05-1.69985E-05 2.38316E-05 3.75531E-18-3.29602E-18
 -1      3457 6.14853E-05-2.42308E-05-1.56339E-05 1.65741E-05 2.45098E-18-4.72973E-18
 -1      3458 1.03237E-04-5.22423E-05-2.15442E-05-2.32435E-05 1.61505E-19 1.01850E-18
 -1      3459 1.15953E-04-5.95697E-05-2.44843E-05-1.64898E-05-2.67874E-20 2.43903E-18
 -1      3460 5.44271E-05-2.17314E-05-1.38912E-05-1.09228E-05-5.14917E-19-3.85633E-18
 -1      3461 6.24217E-05-2.79145E-05-1.45316E-05-2.14857E-05 5.30349E-19-3.11242E-18
 -1      3462 6.02252E-05-2.12262E-05-1.64116E-05-6.88564E-06-7.64033E-19-4.20959E-18
 -1      3463 9.59454E-05-2.80849E-05-2.90877E-05-5.11000E-07 2.40249E-19-2.52232E-19
 -1      3464 9.59632E-05-2.77805E-05-2.92122E-05-2.33031E-07 4.41389E-19-2.62760E-19
 -1      3465 9.61052E-05-2.74083E-05-2.94434E-05 3.69616E-08 4.78195E-19-3.58055E-19
 -1      3466 1.18665E-04-5.68922E-05-2.63543E-05-8.60218E-06-4.05054E-19 3.23144E-18
 -1      3467 1.22912E-04-5.94668E-05-2.71337E-05 6.18635E-06 2.75286E-21-6.54816E-19
 -1      3468 9.38584E-05-2.10450E-05-3.12172E-05 8.05773E-07-1.46843E-19-9.73723E-19
 -1      3469 9.38067E-05-2.09435E-05-3.12365E-05 2.46314E-07-3.22883E-19-1.13475E-18
 -1      3470 1.10130E-04-5.30818E-05-2.47855E-05 1.61345E-05 1.29476E-18 4.49748E-19
 -1      3471 1.16981E-04-5.51117E-05-2.62711E-05 9.64825E-06 1.14308E-18-5.61391E-20
 -1      3472 9.61749E-05-2.81504E-05-2.91558E-05-4.95925E-07 2.63502E-19-4.23808E-19
 -1      3473 9.61485E-05-2.86149E-05-2.89455E-05-7.92243E-07 2.64303E-19-4.11256E-19
 -1      3474 9.58574E-05-2.62582E-05-2.98282E-05 8.79365E-07 5.49498E-19-5.64299E-19
 -1      3475 9.57019E-05-2.62648E-05-2.97672E-05 1.05745E-06 5.18331E-19-5.00487E-19
 -1      3476 9.40735E-05-2.15091E-05-3.11172E-05 1.74833E-06 2.13041E-19-1.08644E-18
 -1      3477 9.39342E-05-2.12104E-05-3.11760E-05 1.24802E-06 2.09550E-20-9.49412E-19
 -1      3478 9.46026E-05-2.23747E-05-3.09335E-05 8.36008E-07-6.44339E-20-8.30180E-19
 -1      3479 6.35008E-05-2.25557E-05-1.72718E-05 1.05248E-05 1.45817E-18-3.72374E-18
 -1      3480 1.12527E-04-5.17508E-05-2.58164E-05-1.14878E-05-7.44896E-19 2.43852E-18
 -1      3481 1.05175E-04-4.86940E-05-2.43711E-05-1.66171E-05-3.53021E-19 3.17141E-18
 -1      3482 1.04537E-04-5.28565E-05-2.17828E-05 2.32680E-05 2.84571E-18 1.51592E-19
 -1      3483 8.43028E-05-3.96652E-05-1.92859E-05 2.55067E-05 4.30845E-18-2.26512E-18
 -1      3484 7.77728E-05-3.51340E-05-1.78878E-05 2.47661E-05 4.05528E-18-3.04868E-18
 -1      3485 7.46679E-05-3.01802E-05-1.89754E-05 2.01611E-05 2.97231E-18-2.16506E-18
 -1      3486 9.31284E-05-1.96074E-05-3.14914E-05-5.86602E-07-4.22147E-19-1.13590E-18
 -1      3487 7.16902E-05-3.11118E-05-1.70756E-05-2.13876E-05 3.25433E-19-3.12444E-18
 -1      3488 9.39303E-05-2.11955E-05-3.11795E-05-1.21367E-06-4.59509E-19-1.18604E-18
 -1      3489 9.40653E-05-2.14798E-05-3.11222E-05-1.73062E-06-4.87636E-19-1.24736E-18
 -1      3490 9.49159E-05-2.34967E-05-3.06212E-05 3.03677E-06 5.95105E-19-7.73032E-19
 -1      3491 9.46543E-05-2.28138E-05-3.07891E-05 2.80691E-06 4.22927E-19-8.70333E-19
 -1      3492 9.59817E-05-2.62941E-05-2.98656E-05-7.04940E-07-6.27937E-19-1.12495E-18
 -1      3493 9.44526E-05-2.23080E-05-3.09092E-05-3.43045E-06-6.39444E-19-1.15112E-18
 -1      3494 9.44848E-05-2.23984E-05-3.08923E-05-2.84404E-06-6.12793E-19-1.19351E-18
 -1      3495 9.54637E-05-4.72751E-05-2.05838E-05-2.51373E-05 1.82178E-19-4.87176E-19
 -1      3496 1.02045E-04-4.80102E-05-2.29462E-05-1.93843E-05 8.29927E-20 2.03232E-18
 -1      3497 9.86497E-05-4.37182E-05-2.34826E-05-1.81008E-05-1.10189E-19 2.40428E-18
 -1      3498 8.81456E-05-4.10105E-05-2.01293E-05-2.38185E-05 2.66762E-19-6.06965E-19
 -1      3499 9.53167E-05-2.47776E-05-3.02348E-05 2.74664E-06 7.20098E-19-7.48581E-19
 -1      3500 9.50557E-05-2.39280E-05-3.04769E-05 2.97855E-06 6.61176E-19-7.14846E-19
 -1      3501 9.53364E-05-2.46316E-05-3.02951E-05 2.17403E-06 5.46489E-19-6.14683E-19
 -1      3502 9.54696E-05-2.54808E-05-2.99988E-05 1.96559E-06 6.58411E-19-6.17215E-19
 -1      3503 9.55946E-05-2.56876E-05-2.99537E-05 1.64299E-06 5.97232E-19-5.55661E-19
 -1      3504 9.59966E-05-2.63862E-05-2.98428E-05 6.12269E-07 3.99691E-19-6.10629E-19
 -1      3505 9.57982E-05-2.56209E-05-3.00635E-05 1.11887E-06 3.99936E-19-7.98801E-19
 -1      3506 9.63659E-05-2.82604E-05-2.91917E-05-5.07414E-07 2.96610E-19-6.04687E-19
 -1      3507 9.63619E-05-2.79403E-05-2.93173E-05-2.95884E-07 3.82823E-19-3.85873E-19
 -1      3508 9.65083E-05-2.80178E-05-2.93480E-05 3.01172E-07-5.28446E-19-5.06229E-19
 -1      3509 9.65192E-05-2.83424E-05-2.92224E-05 4.81311E-07-3.72449E-19-4.37354E-19
 -1      3510 9.65279E-05-2.86062E-05-2.91055E-05 5.80505E-07-2.18858E-19-4.00231E-19
 -1      3511 9.64965E-05-2.88047E-05-2.90126E-05 6.74379E-07-2.21869E-19-4.09198E-19
 -1      3512 9.66579E-05-2.84317E-05-2.92402E-05 4.30471E-07-3.29157E-19-2.70433E-19
 -1      3513 9.64560E-05-2.89570E-05-2.89253E-05 7.15616E-07-1.95862E-19-3.99873E-19
 -1      3514 9.64023E-05-2.90677E-05-2.88582E-05 7.49391E-07-4.72877E-20-4.10301E-19
 -1      3515 9.66254E-05-2.88871E-05-2.90321E-05 5.85225E-07-2.52577E-19-3.25177E-19
 -1      3516 9.63350E-05-2.91433E-05-2.87944E-05 7.51517E-07 7.22978E-20-3.76126E-19
 -1      3517 9.62722E-05-2.91943E-05-2.87474E-05 7.46195E-07 1.53157E-19-2.29376E-19
 -1      3518 9.65182E-05-2.91418E-05-2.88774E-05 6.42745E-07-7.83522E-20-2.41986E-19
 -1      3519 9.61934E-05-2.92189E-05-2.87020E-05 7.24047E-07 2.38480E-20-3.61145E-19
 -1      3520 9.61294E-05-2.92305E-05-2.86701E-05 6.95336E-07-2.28939E-19-5.35735E-19
 -1      3521 9.63734E-05-2.92592E-05-2.87652E-05 6.36069E-07-9.71667E-20-3.01024E-19
 -1      3522 9.60489E-05-2.92226E-05-2.86390E-05 6.59886E-07-4.08754E-19-5.27784E-19
 -1      3523 9.59883E-05-2.92093E-05-2.86185E-05 6.19159E-07-1.63304E-19-4.92419E-19
 -1      3524 9.62156E-05-2.92856E-05-2.86862E-05 5.90403E-07-2.60331E-19-2.24852E-19
 -1      3525 9.59118E-05-2.91816E-05-2.85982E-05 5.78235E-07-1.20754E-19-7.20789E-19
 -1      3526 9.58572E-05-2.91534E-05-2.85862E-05 5.33379E-07-3.64637E-19-6.98699E-19
 -1      3527 9.60601E-05-2.92544E-05-2.86328E-05 5.24418E-07-3.63792E-19-2.82770E-19
 -1      3528 9.57878E-05-2.91146E-05-2.85740E-05 4.92285E-07-1.79395E-19-2.77099E-19
 -1      3529 9.57400E-05-2.90781E-05-2.85682E-05 4.48635E-07-1.26723E-19-4.72480E-19
 -1      3530 9.59155E-05-2.91888E-05-2.85987E-05 4.51202E-07 5.77208E-20-2.88536E-19
 -1      3531 9.56786E-05-2.90336E-05-2.85622E-05 4.10910E-07-5.42617E-19-4.23411E-19
 -1      3532 9.56375E-05-2.89928E-05-2.85609E-05 3.72036E-07-8.73222E-19-4.65657E-19
 -1      3533 9.57860E-05-2.91039E-05-2.85794E-05 3.79653E-07-3.33638E-19-3.65431E-19
 -1      3534 9.55840E-05-2.89456E-05-2.85595E-05 3.40018E-07-8.55516E-19-4.33113E-19
 -1      3535 9.55487E-05-2.89024E-05-2.85617E-05 3.08311E-07-6.55865E-19-7.03902E-19
 -1      3536 9.56722E-05-2.90090E-05-2.85710E-05 3.15804E-07-9.13933E-19 1.08620E-19
 -1      3537 9.55017E-05-2.88537E-05-2.85637E-05 2.83568E-07-3.36493E-19-9.72234E-19
 -1      3538 9.54710E-05-2.88088E-05-2.85685E-05 2.60743E-07-5.21819E-19-1.53114E-19
 -1      3539 9.55727E-05-2.89089E-05-2.85710E-05 2.63675E-07-6.56066E-19-1.03933E-19
 -1      3540 9.54285E-05-2.87584E-05-2.85734E-05 2.44479E-07-2.91752E-19 1.59067E-19
 -1      3541 9.54005E-05-2.87110E-05-2.85803E-05 2.31961E-07-1.53019E-19 8.18040E-19
 -1      3542 9.54842E-05-2.88046E-05-2.85775E-05 2.26148E-07 2.74292E-20 1.65207E-19
 -1      3543 9.53600E-05-2.86576E-05-2.85874E-05 2.25293E-07-8.24120E-20 1.03393E-18
 -1      3544 9.53327E-05-2.86063E-05-2.85962E-05 2.24508E-07 2.84197E-19 9.20657E-19
 -1      3545 9.54021E-05-2.86949E-05-2.85891E-05 2.05621E-07 4.69028E-20 1.06840E-18
 -1      3546 9.52911E-05-2.85477E-05-2.86051E-05 2.28689E-07 2.22286E-19 7.86851E-19
 -1      3547 9.52620E-05-2.84903E-05-2.86156E-05 2.41280E-07 4.62832E-19 3.51530E-19
 -1      3548 9.53208E-05-2.85761E-05-2.86049E-05 2.04483E-07-7.47442E-21 1.23806E-18
 -1      3549 9.52156E-05-2.84237E-05-2.86262E-05 2.57860E-07 4.43665E-19 9.55615E-20
 -1      3550 9.51820E-05-2.83573E-05-2.86383E-05 2.85848E-07-3.83653E-20 1.77746E-19
 -1      3551 9.52337E-05-2.84431E-05-2.86243E-05 2.25488E-07 1.96060E-19 8.74432E-19
 -1      3552 9.51267E-05-2.82793E-05-2.86503E-05 3.16794E-07-4.73103E-19 2.49621E-19
 -1      3553 9.50854E-05-2.82008E-05-2.86640E-05 3.62685E-07-6.50372E-19-5.36260E-19
 -1      3554 9.51330E-05-2.82895E-05-2.86466E-05 2.72021E-07-3.60367E-19 2.27578E-19
 -1      3555 9.50163E-05-2.81075E-05-2.86770E-05 4.10460E-07-5.40928E-19-5.63064E-19
 -1      3556 9.49638E-05-2.80136E-05-2.86920E-05 4.77288E-07-2.49286E-19-8.77127E-19
 -1      3557 9.50098E-05-2.81077E-05-2.86714E-05 3.48287E-07-6.23711E-19-4.52806E-19
 -1      3558 9.48755E-05-2.79012E-05-2.87056E-05 5.44890E-07-1.91883E-19-6.36524E-19
 -1      3559 9.48075E-05-2.77883E-05-2.87215E-05 6.36209E-07 6.38669E-20-6.56121E-19
 -1      3560 9.48541E-05-2.78898E-05-2.86975E-05 4.59416E-07 2.53060E-20-2.02671E-19
 -1      3561 9.46940E-05-2.76531E-05-2.87348E-05 7.27163E-07 4.70831E-19-6.21456E-19
 -1      3562 9.46062E-05-2.75183E-05-2.87509E-05 8.46965E-07 6.76888E-19-3.15301E-19
 -1      3563 9.46544E-05-2.76277E-05-2.87237E-05 6.11481E-07 2.35729E-19 8.61287E-19
 -1      3564 9.44607E-05-2.73569E-05-2.87625E-05 9.65267E-07 6.46515E-19-5.12571E-19
 -1      3565 9.43482E-05-2.71983E-05-2.87774E-05 1.11782E-06 9.23464E-19-4.29551E-19
 -1      3566 9.43980E-05-2.73143E-05-2.87474E-05 8.11435E-07 6.03091E-19 3.64759E-19
 -1      3567 9.41639E-05-2.70088E-05-2.87853E-05 1.26785E-06 9.96935E-19-8.42369E-19
 -1      3568 9.40221E-05-2.68262E-05-2.87970E-05 1.45746E-06 3.88427E-19-1.09252E-18
 -1      3569 9.40714E-05-2.69443E-05-2.87652E-05 1.06696E-06 4.36292E-19 2.92062E-20
 -1      3570 9.37920E-05-2.66089E-05-2.87982E-05 1.64386E-06 8.01897E-19-8.08043E-19
 -1      3571 9.36169E-05-2.64050E-05-2.88038E-05 1.87458E-06 1.41574E-18-1.62769E-19
 -1      3572 9.36607E-05-2.65160E-05-2.87718E-05 1.38630E-06 9.11231E-19-1.00481E-18
 -1      3573 9.33349E-05-2.61640E-05-2.87941E-05 2.10220E-06 7.16907E-19-1.00366E-18
 -1      3574 9.31243E-05-2.59462E-05-2.87892E-05 2.37757E-06 1.27746E-19-4.27297E-19
 -1      3575 9.31530E-05-2.60338E-05-2.87598E-05 1.77808E-06 8.52490E-19-1.13580E-18
 -1      3576 9.27862E-05-2.56910E-05-2.87628E-05 2.65159E-06-3.13654E-19-2.83930E-19
 -1      3577 9.25416E-05-2.54739E-05-2.87416E-05 2.97447E-06-1.03331E-18-4.58935E-20
 -1      3578 9.25378E-05-2.55112E-05-2.87189E-05 2.25151E-06-1.86712E-19-1.52637E-18
 -1      3579 9.21466E-05-2.52221E-05-2.86908E-05 3.30092E-06-1.21776E-18-1.26091E-20
 -1      3580 9.18755E-05-2.50303E-05-2.86456E-05 3.67383E-06-8.07974E-19-1.70648E-19
 -1      3581 9.18098E-05-2.49753E-05-2.86354E-05 2.81710E-06-9.34976E-19-4.85480E-19
 -1      3582 9.14290E-05-2.48111E-05-2.85607E-05 4.06096E-06-8.16812E-19 3.55473E-19
 -1      3583 9.11497E-05-2.46839E-05-2.84817E-05 4.48708E-06-1.25095E-20-9.87058E-20
 -1      3584 9.09728E-05-2.44721E-05-2.84914E-05 3.48887E-06-7.73722E-19 1.33934E-18
 -1      3585 9.06660E-05-2.45421E-05-2.83503E-05 4.94806E-06 6.45328E-19-8.42444E-19
 -1      3586 9.04142E-05-2.45389E-05-2.82261E-05 5.43347E-06 7.77890E-19-8.65124E-19
 -1      3587 9.00449E-05-2.40732E-05-2.82640E-05 4.28883E-06-3.09168E-19 5.03334E-19
 -1      3588 8.99221E-05-2.45407E-05-2.80336E-05 5.99093E-06 5.83854E-19-1.35946E-18
 -1      3589 8.97610E-05-2.47486E-05-2.78515E-05 6.54804E-06-3.13031E-19-8.42015E-19
 -1      3590 8.90664E-05-2.38849E-05-2.79254E-05 5.25521E-06 5.59477E-19-9.35452E-19
 -1      3591 8.93120E-05-2.49885E-05-2.75817E-05 7.24042E-06-8.94656E-19-1.16262E-18
 -1      3592 8.93480E-05-2.55320E-05-2.73305E-05 7.89192E-06-8.97386E-19-1.45170E-18
 -1      3593 8.81126E-05-2.40602E-05-2.74434E-05 6.45512E-06-3.62927E-19-6.15715E-19
 -1      3594 8.90277E-05-2.61413E-05-2.69665E-05 8.78554E-06-2.07870E-19-1.62991E-18
 -1      3595 8.94360E-05-2.72003E-05-2.66399E-05 9.56548E-06 1.43617E-19-1.68623E-18
 -1      3596 8.73103E-05-2.48118E-05-2.67825E-05 8.00210E-06-6.21513E-19-3.69785E-19
 -1      3597 8.94130E-05-2.83829E-05-2.61680E-05 1.07506E-05 6.03652E-19-1.60162E-18
 -1      3598 9.04378E-05-3.01891E-05-2.57744E-05 1.16793E-05 1.46535E-18-8.91594E-19
 -1      3599 8.68851E-05-2.64617E-05-2.59061E-05 1.00978E-05 6.10049E-19-7.89102E-19
 -1      3600 9.10005E-05-3.21915E-05-2.51985E-05 1.31988E-05 1.76008E-18-1.15735E-18
 -1      3601 9.33503E-05-3.51961E-05-2.48648E-05 1.41977E-05 2.12747E-18-2.01792E-18
 -1      3602 8.73532E-05-2.95047E-05-2.47963E-05 1.29867E-05 1.72324E-18-2.46636E-18
 -1      3603 9.05097E-05-3.68405E-05-2.28787E-05 1.82290E-05 2.93061E-18-2.64524E-18
 -1      3604 9.41466E-05-4.13314E-05-2.24551E-05 1.96537E-05 2.87809E-18-1.76971E-18
 -1      3605 1.00064E-04-4.73214E-05-2.22520E-05 2.16958E-05 3.02716E-18-5.73031E-19
 -1      3606 9.57785E-05-2.91097E-05-2.85711E-05-6.07610E-07-6.03780E-19 1.15554E-18
 -1      3607 9.58236E-05-2.91326E-05-2.85814E-05-6.57727E-07-4.07841E-19 1.16054E-18
 -1      3608 9.55112E-05-2.88874E-05-2.85520E-05-3.49392E-07 7.06451E-20 6.16794E-19
 -1      3609 9.55393E-05-2.89255E-05-2.85490E-05-3.86123E-07 5.90316E-20 9.40364E-19
 -1      3610 9.54453E-05-2.88036E-05-2.85597E-05-2.92452E-07-2.01094E-19 4.55088E-19
 -1      3611 9.54693E-05-2.88433E-05-2.85544E-05-3.19761E-07-9.98132E-21 5.32722E-19
 -1      3612 9.55468E-05-2.89018E-05-2.85629E-05-3.07980E-07 1.95521E-19 9.76502E-19
 -1      3613 9.53868E-05-2.87165E-05-2.85720E-05-2.55687E-07-7.63432E-20-6.24924E-20
 -1      3614 9.54081E-05-2.87582E-05-2.85648E-05-2.72081E-07-3.06164E-20 1.56549E-19
 -1      3615 9.54685E-05-2.88067E-05-2.85699E-05-2.61241E-07 5.34606E-21 2.25380E-19
 -1      3616 9.53318E-05-2.86238E-05-2.85882E-05-2.41770E-07 1.30465E-19-2.16363E-19
 -1      3617 9.53520E-05-2.86687E-05-2.85792E-05-2.45790E-07-3.72292E-20-1.71916E-20
 -1      3618 9.53971E-05-2.87071E-05-2.85818E-05-2.33335E-07-1.71559E-19 1.61862E-19
 -1      3619 9.52757E-05-2.85217E-05-2.86079E-05-2.53697E-07 3.85832E-19-4.19067E-19
 -1      3620 9.52967E-05-2.85718E-05-2.85972E-05-2.43668E-07 3.53119E-19-3.55648E-19
 -1      3621 9.53278E-05-2.86001E-05-2.85978E-05-2.26850E-07 3.73682E-19-1.21538E-19
 -1      3622 9.52133E-05-2.84053E-05-2.86310E-05-2.95160E-07 6.60217E-20 9.04347E-20
 -1      3623 9.52373E-05-2.84629E-05-2.86187E-05-2.69010E-07 3.14238E-19-5.02899E-19
 -1      3624 9.52550E-05-2.84809E-05-2.86174E-05-2.44720E-07 2.93550E-19-1.52366E-19
 -1      3625 9.51386E-05-2.82684E-05-2.86576E-05-3.70806E-07-4.11785E-19 5.01228E-19
 -1      3626 9.51679E-05-2.83365E-05-2.86434E-05-3.25944E-07-1.37376E-19 1.60201E-19
 -1      3627 9.51719E-05-2.83437E-05-2.86403E-05-2.90536E-07-1.70551E-19-1.40329E-19
 -1      3628 9.50442E-05-2.81044E-05-2.86873E-05-4.86388E-07-3.51812E-19 6.63518E-19
 -1      3629 9.50819E-05-2.81862E-05-2.86713E-05-4.19639E-07-5.84073E-19 4.05573E-19
 -1      3630 9.50708E-05-2.81816E-05-2.86661E-05-3.68757E-07-7.88975E-19-6.11049E-20
 -1      3631 9.49220E-05-2.79060E-05-2.87198E-05-6.48793E-07 3.06016E-19 4.78129E-19
 -1      3632 9.49714E-05-2.80049E-05-2.87022E-05-5.56400E-07 3.45425E-19 7.11635E-19
 -1      3633 9.49425E-05-2.79867E-05-2.86942E-05-4.84809E-07-1.05715E-19-4.45383E-19
 -1      3634 9.47622E-05-2.76659E-05-2.87541E-05-8.65922E-07 7.69208E-20-2.88311E-19
 -1      3635 9.48274E-05-2.77851E-05-2.87352E-05-7.43638E-07 2.62614E-19 5.73707E-21
 -1      3636 9.47768E-05-2.77510E-05-2.87237E-05-6.45075E-07 7.03618E-19-1.64238E-20
 -1      3637 9.45539E-05-2.73774E-05-2.87883E-05-1.14642E-06-2.21357E-19-2.74322E-19
 -1      3638 9.46393E-05-2.75198E-05-2.87691E-05-9.89684E-07 7.79430E-21 1.23698E-19
 -1      3639 9.45615E-05-2.74663E-05-2.87528E-05-8.56747E-07 6.00417E-21-9.99395E-19
 -1      3640 9.42849E-05-2.70357E-05-2.88194E-05-1.49919E-06-3.33292E-19 5.77705E-19
 -1      3641 9.43956E-05-2.72030E-05-2.88012E-05-1.30343E-06-4.55818E-19 2.10697E-19
 -1      3642 9.42833E-05-2.71256E-05-2.87787E-05-1.12753E-06-3.76215E-19-3.49477E-19
 -1      3643 9.39422E-05-2.66392E-05-2.88424E-05-1.93277E-06 2.12834E-19-2.26254E-19
 -1      3644 9.40834E-05-2.68312E-05-2.88277E-05-1.69379E-06 1.00878E-19 9.03028E-19
 -1      3645 9.39272E-05-2.67242E-05-2.87972E-05-1.46521E-06-1.02326E-19 8.71471E-19
 -1      3646 9.35130E-05-2.61922E-05-2.88500E-05-2.45454E-06-5.68905E-20 9.05959E-19
 -1      3647 9.36895E-05-2.64054E-05-2.88425E-05-2.16905E-06-1.06938E-19 6.19505E-19
 -1      3648 9.34776E-05-2.62613E-05-2.88017E-05-1.87715E-06-3.09095E-19 1.17257E-18
 -1      3649 9.29866E-05-2.57083E-05-2.88318E-05-3.07018E-06-1.14990E-18 1.73887E-18
 -1      3650 9.32016E-05-2.59339E-05-2.88367E-05-2.73614E-06-5.24795E-19 1.27570E-18
 -1      3651 9.29191E-05-2.57430E-05-2.87831E-05-2.36982E-06-6.64575E-19 1.57783E-18
 -1      3652 9.23577E-05-2.52161E-05-2.87730E-05-3.78356E-06-6.98157E-19 1.24008E-18
 -1      3653 9.26108E-05-2.54369E-05-2.87977E-05-3.40043E-06-8.55719E-19 1.48542E-18
 -1      3654 9.22384E-05-2.51860E-05-2.87286E-05-2.94886E-06-7.40393E-19 1.88238E-18
 -1      3655 9.16318E-05-2.47664E-05-2.86541E-05-4.59826E-06-7.67287E-19 8.33432E-19
 -1      3656 9.19150E-05-2.49526E-05-2.87085E-05-4.16638E-06-6.77120E-19 7.08935E-19
 -1      3657 9.14268E-05-2.46225E-05-2.86206E-05-3.62022E-06-5.83851E-19 1.22826E-18
 -1      3658 9.08346E-05-2.44429E-05-2.84496E-05-5.52170E-06-9.63119E-19 1.30383E-18
 -1      3659 9.11266E-05-2.45461E-05-2.85464E-05-5.04046E-06-2.24209E-19 1.34141E-18
 -1      3660 9.04854E-05-2.41079E-05-2.84361E-05-4.39374E-06-6.86322E-19 1.68424E-18
 -1      3661 9.00273E-05-2.43781E-05-2.81280E-05-6.57373E-06-5.35788E-19 1.20592E-19
 -1      3662 9.02824E-05-2.43218E-05-2.82824E-05-6.03780E-06-1.00071E-18 5.50929E-19
 -1      3663 8.94317E-05-2.37296E-05-2.81454E-05-5.29099E-06-4.01521E-19 5.32702E-19
 -1      3664 8.93310E-05-2.47738E-05-2.76533E-05-7.79958E-06-1.73652E-18 7.80938E-19
 -1      3665 8.94634E-05-2.44419E-05-2.78818E-05-7.19340E-06-1.21383E-18 3.61837E-19
 -1      3666 8.83121E-05-2.36220E-05-2.77116E-05-6.35934E-06-1.27812E-18-2.91599E-19
 -1      3667 8.89652E-05-2.59285E-05-2.69889E-05-9.28672E-06-1.87459E-18 9.31033E-19
 -1      3668 8.88226E-05-2.51493E-05-2.73060E-05-8.57864E-06-1.32593E-18 9.24735E-19
 -1      3669 8.72204E-05-2.39837E-05-2.70907E-05-7.69279E-06-1.59840E-18-3.45801E-19
 -1      3670 8.93134E-05-2.82785E-05-2.61076E-05-1.11843E-05-1.19325E-18 3.24972E-19
 -1      3671 8.86310E-05-2.67960E-05-2.65175E-05-1.03250E-05-1.33249E-18 9.29074E-19
 -1      3672 8.63262E-05-2.51021E-05-2.62338E-05-9.46335E-06-1.55596E-18-7.18094E-19
 -1      3673 9.10091E-05-3.24590E-05-2.50096E-05-1.36728E-05-1.25453E-18 1.10747E-18
 -1      3674 8.93866E-05-2.99229E-05-2.54941E-05-1.26303E-05-1.63598E-18 5.94398E-19
 -1      3675 8.59366E-05-2.74124E-05-2.50900E-05-1.19650E-05-1.49520E-18-4.02415E-20
 -1      3676 9.55013E-05-3.93107E-05-2.39801E-05-1.64914E-05-4.35990E-19 1.72885E-18
 -1      3677 9.23410E-05-3.52755E-05-2.44423E-05-1.53924E-05-4.74634E-19 1.43803E-18
 -1      3678 8.71092E-05-3.16151E-05-2.38029E-05-1.53257E-05-1.17563E-18-9.69241E-19
 -1      3679 9.13985E-05-3.87844E-05-2.25814E-05-1.93374E-05-5.47653E-19 3.16446E-19
 -1      3680 9.58935E-05-2.91560E-05-2.86007E-05-7.03778E-07-3.71600E-19 8.63372E-19
 -1      3681 9.59439E-05-2.91638E-05-2.86192E-05-7.48863E-07-2.11447E-19 7.67783E-19
 -1      3682 9.59878E-05-2.92121E-05-2.86199E-05-6.14778E-07-4.82119E-19 5.31823E-19
 -1      3683 9.42188E-05-2.18041E-05-3.10390E-05-2.11179E-06-5.35749E-19-1.28210E-18
 -1      3684 9.44253E-05-2.22732E-05-3.09351E-05-2.51843E-06-5.94046E-19-1.23981E-18
 -1      3685 9.38481E-05-2.10310E-05-3.12190E-05-7.73236E-07-4.69814E-19-1.08243E-18
 -1      3686 9.45935E-05-2.23674E-05-3.09361E-05-8.02548E-07-4.88663E-19-1.08467E-18
 -1      3687 9.38042E-05-2.09399E-05-3.12370E-05-2.13508E-07-3.82125E-19-1.11519E-18
 -1      3688 1.21343E-04-2.73008E-05-4.10893E-05 3.79929E-05-1.03608E-18 1.40123E-18
 -1      3689 9.62596E-05-2.89891E-05-2.88308E-05-8.37671E-07 2.44711E-20 1.79002E-20
 -1      3690 9.63074E-05-2.88761E-05-2.88957E-05-7.96624E-07 4.41130E-20-1.01901E-19
 -1      3691 9.50759E-05-2.36912E-05-3.05808E-05 2.06304E-06 3.40544E-19-9.20650E-19
 -1      3692 9.44600E-05-2.23333E-05-3.09277E-05 2.55891E-06 4.09657E-19-1.06105E-18
 -1      3693 9.42506E-05-2.18455E-05-3.10333E-05 2.13416E-06 3.13932E-19-1.11799E-18
 -1      3694 9.62729E-05-2.75169E-05-2.94729E-05-7.86900E-08 4.13394E-19-4.91191E-19
 -1      3695 9.62063E-05-2.70239E-05-2.96417E-05 2.72626E-07 4.76682E-19-4.39863E-19
 -1      3696 9.61367E-05-2.64409E-05-2.98678E-05 4.75662E-07 3.53743E-19-6.42433E-19
 -1      3697 9.64372E-05-2.75939E-05-2.95034E-05-1.05604E-07 4.15100E-19-4.81621E-19
 -1      3698 9.59056E-05-2.57134E-05-3.00815E-05-8.96836E-07-5.05355E-19-1.03739E-18
 -1      3699 9.61176E-05-2.64552E-05-2.98631E-05-4.57421E-07-6.10249E-19-1.01102E-18
 -1      3700 6.87090E-05-2.38838E-05-1.92573E-05 1.32646E-05 1.64315E-18-2.95360E-18
 -1      3701 6.36659E-05-2.00083E-05-1.85413E-05 5.10462E-06 5.35901E-19-3.09453E-18
 -1      3702 9.45258E-05-2.22083E-05-3.09755E-05 1.28814E-08-3.34428E-19-1.08761E-18
 -1      3703 9.47929E-05-2.28541E-05-3.08121E-05-1.53439E-06-4.43074E-19-1.22262E-18
 -1      3704 9.51848E-05-2.37442E-05-3.06219E-05-1.05683E-06-4.60144E-19-1.17650E-18
 -1      3705 9.52933E-05-2.40643E-05-3.05379E-05-1.34556E-06-4.76965E-19-1.21952E-18
 -1      3706 9.49712E-05-2.33532E-05-3.06760E-05-2.12091E-06-5.17612E-19-1.21408E-18
 -1      3707 6.24004E-05-1.99601E-05-1.83001E-05-3.28865E-06-3.02359E-19-4.16266E-18
 -1      3708 6.52617E-05-2.24102E-05-1.81995E-05-1.15652E-05-6.87132E-19-4.15061E-18
 -1      3709 9.56763E-05-2.90441E-05-2.85554E-05-5.11554E-07-3.30127E-19 6.77032E-19
 -1      3710 9.57153E-05-2.90753E-05-2.85599E-05-5.60758E-07-4.23879E-19 9.98992E-19
 -1      3711 9.58562E-05-2.91555E-05-2.85875E-05-5.30302E-07-2.84371E-19 8.49609E-19
 -1      3712 9.63443E-05-2.87226E-05-2.89828E-05-7.41715E-07 1.56668E-19-3.44735E-19
 -1      3713 9.63750E-05-2.85245E-05-2.90741E-05-6.31595E-07 1.89225E-19-4.66878E-19
 -1      3714 9.65306E-05-2.83444E-05-2.92235E-05-4.67835E-07 1.80238E-19-5.88059E-19
 -1      3715 9.65029E-05-2.88065E-05-2.90143E-05-6.63363E-07-6.29748E-20-3.80569E-19
 -1      3716 9.53741E-05-2.44543E-05-3.04016E-05-1.53002E-06-4.80557E-19-1.11310E-18
 -1      3717 9.63351E-05-2.70986E-05-2.96672E-05-1.77977E-07-6.04886E-19-7.88103E-19
 -1      3718 9.64168E-05-2.75964E-05-2.95009E-05 1.19182E-07-5.83634E-19-7.10070E-19
 -1      3719 9.62644E-05-2.65785E-05-2.98652E-05-3.29015E-07-4.34201E-19-8.45354E-19
 -1      3720 6.99518E-05-2.72155E-05-1.83340E-05-1.74817E-05-6.80737E-19-2.99013E-18
 -1      3721 7.93065E-05-3.43608E-05-1.91758E-05-2.24834E-05-1.26949E-19-1.35316E-18
 -1      3722 9.55875E-05-2.89683E-05-2.85499E-05-4.23660E-07-1.10209E-19 1.12393E-18
 -1      3723 9.56206E-05-2.90040E-05-2.85501E-05-4.67956E-07-1.77542E-19 1.04946E-18
 -1      3724 9.56360E-05-2.89933E-05-2.85622E-05-3.70875E-07-8.63927E-20 1.34233E-18
 -1      3725 9.57198E-05-2.51662E-05-3.02300E-05-1.03877E-06-5.12010E-19-1.15309E-18
 -1      3726 8.62025E-05-3.66154E-05-2.10766E-05-2.04312E-05-6.24687E-19-1.04527E-18
 -1      3727 9.51174E-05-2.35463E-05-3.06842E-05-8.15197E-07-4.46550E-19-1.05421E-18
 -1      3728 9.56294E-05-2.46105E-05-3.04228E-05-6.86633E-07-3.62772E-19-9.97340E-19
 -1      3729 9.50608E-05-2.33868E-05-3.07246E-05-4.63170E-07-4.02796E-19-9.78113E-19
 -1      3730 8.45593E-05-3.26769E-05-2.22105E-05 1.81155E-05 2.46341E-18-3.25378E-18
 -1      3731 9.48200E-05-2.28937E-05-3.08064E-05 1.57145E-06 8.96358E-20-9.85313E-19
 -1      3732 9.51437E-05-2.35790E-05-3.06835E-05 8.49941E-07 2.74099E-20-7.18001E-19
 -1      3733 9.50719E-05-2.34000E-05-3.07230E-05 4.76851E-07-1.42984E-19-8.01051E-19
 -1      3734 9.65592E-05-2.76893E-05-2.95140E-05 1.39857E-07-3.98562E-19-2.59230E-19
 -1      3735 7.23402E-05-2.52468E-05-2.00228E-05-1.33034E-05-1.57362E-18-2.86984E-18
 -1      3736 9.61981E-05-2.90677E-05-2.87679E-05-8.45075E-07 1.88963E-19 2.73451E-19
 -1      3737 9.64059E-05-2.90705E-05-2.88600E-05-7.40733E-07-1.56051E-19 5.03615E-20
 -1      3738 9.61440E-05-2.91228E-05-2.87231E-05-8.40988E-07 9.23003E-20 7.63238E-19
 -1      3739 6.74252E-05-2.04580E-05-2.00135E-05 4.62608E-07 1.06268E-19-3.14326E-18
 -1      3740 9.50402E-05-2.33264E-05-3.07441E-05 1.99558E-07-2.47395E-19-9.28977E-19
 -1      3741 9.50391E-05-2.33238E-05-3.07446E-05-1.75472E-07-3.79621E-19-1.08856E-18
 -1      3742 9.55790E-05-2.43642E-05-3.05041E-05-2.20135E-07-2.19708E-19-9.88716E-19
 -1      3743 9.55737E-05-2.43633E-05-3.05034E-05 2.62228E-07-1.91752E-19-7.90725E-19
 -1      3744 9.61299E-05-2.92339E-05-2.86717E-05-6.89929E-07-1.56227E-19 6.63896E-19
 -1      3745 9.60177E-05-2.91676E-05-2.86492E-05-7.87545E-07-2.07596E-20 7.40761E-19
 -1      3746 9.60719E-05-2.91511E-05-2.86788E-05-8.18628E-07 1.72112E-19 8.34613E-19
 -1      3747 9.57387E-05-2.90795E-05-2.85695E-05-4.46587E-07-4.68719E-19 7.11426E-19
 -1      3748 9.67686E-05-2.88147E-05-2.91209E-05 4.43862E-07-2.25825E-19-5.51475E-19
 -1      3749 9.67292E-05-2.89954E-05-2.90298E-05 5.00210E-07-2.00268E-19-3.96604E-19
 -1      3750 9.66754E-05-2.91296E-05-2.89463E-05 5.14476E-07-1.61665E-19-4.26460E-19
 -1      3751 9.66088E-05-2.92240E-05-2.88792E-05 5.31705E-07-4.37976E-20-4.73024E-19
 -1      3752 9.67964E-05-2.90694E-05-2.90272E-05 3.89391E-07-7.49340E-20-3.55299E-19
 -1      3753 9.65292E-05-2.92846E-05-2.88176E-05 5.24582E-07 1.31834E-20-4.51199E-19
 -1      3754 9.64508E-05-2.93207E-05-2.87695E-05 5.16548E-07 7.65403E-20-4.33301E-19
 -1      3755 9.66627E-05-2.92800E-05-2.88800E-05 4.09673E-07 2.84876E-20-3.62581E-19
 -1      3756 9.63609E-05-2.93328E-05-2.87252E-05 4.96487E-07 1.05762E-19-1.48466E-19
 -1      3757 9.62806E-05-2.93308E-05-2.86918E-05 4.73498E-07-2.26416E-19-9.70460E-20
 -1      3758 9.64937E-05-2.93625E-05-2.87724E-05 3.95674E-07 7.73527E-20-3.98790E-19
 -1      3759 9.61898E-05-2.93118E-05-2.86611E-05 4.47095E-07-4.30764E-19-1.80896E-19
 -1      3760 9.61134E-05-2.92864E-05-2.86390E-05 4.16903E-07-1.68168E-19 2.86217E-21
 -1      3761 9.63140E-05-2.93613E-05-2.86960E-05 3.60999E-07-1.20668E-19-7.42377E-20
 -1      3762 9.60278E-05-2.92491E-05-2.86188E-05 3.88534E-07-1.83139E-19-1.80289E-19
 -1      3763 9.59583E-05-2.92099E-05-2.86053E-05 3.56447E-07-1.15106E-19-3.34422E-19
 -1      3764 9.61390E-05-2.93073E-05-2.86440E-05 3.17248E-07-2.29882E-19 5.28128E-20
 -1      3765 9.58806E-05-2.91625E-05-2.85931E-05 3.29202E-07 3.02632E-20-6.09395E-19
 -1      3766 9.58191E-05-2.91159E-05-2.85860E-05 2.98897E-07-2.27903E-19-4.94738E-19
 -1      3767 9.59770E-05-2.92225E-05-2.86107E-05 2.70827E-07-3.66190E-19-7.80487E-19
 -1      3768 9.57503E-05-2.90633E-05-2.85799E-05 2.74838E-07-5.98638E-19-3.40680E-19
 -1      3769 9.56966E-05-2.90129E-05-2.85777E-05 2.48750E-07-8.30200E-19-4.83416E-19
 -1      3770 9.58318E-05-2.91209E-05-2.85918E-05 2.27335E-07-2.64893E-19-8.06202E-19
 -1      3771 9.56358E-05-2.89577E-05-2.85763E-05 2.29163E-07-7.67675E-19-1.52488E-19
 -1      3772 9.55887E-05-2.89049E-05-2.85778E-05 2.08990E-07-7.13665E-19-5.68352E-20
 -1      3773 9.57034E-05-2.90105E-05-2.85838E-05 1.89984E-07-7.82517E-19-2.40803E-19
 -1      3774 9.55341E-05-2.88478E-05-2.85800E-05 1.94822E-07-2.55123E-19 3.89972E-19
 -1      3775 9.54915E-05-2.87926E-05-2.85845E-05 1.81869E-07 2.90087E-19 2.74661E-19
 -1      3776 9.55893E-05-2.88948E-05-2.85842E-05 1.61078E-07-3.17235E-19 3.02670E-19
 -1      3777 9.54405E-05-2.87326E-05-2.85894E-05 1.73920E-07 3.68468E-19 4.69068E-19
 -1      3778 9.53999E-05-2.86737E-05-2.85962E-05 1.69357E-07 1.95623E-19 5.34315E-19
 -1      3779 9.54850E-05-2.87736E-05-2.85911E-05 1.42412E-07 2.67951E-19 2.50785E-19
 -1      3780 9.53491E-05-2.86089E-05-2.86035E-05 1.68445E-07 1.07453E-20 6.66859E-19
 -1      3781 9.53072E-05-2.85440E-05-2.86122E-05 1.73504E-07 2.97793E-19 6.68351E-19
 -1      3782 9.53845E-05-2.86442E-05-2.86032E-05 1.35608E-07 3.65196E-19-6.45937E-20
 -1      3783 9.52526E-05-2.84715E-05-2.86213E-05 1.80601E-07 2.17195E-19 9.72135E-19
 -1      3784 9.52060E-05-2.83976E-05-2.86317E-05 1.96729E-07 8.13154E-20 8.46433E-19
 -1      3785 9.52804E-05-2.85016E-05-2.86194E-05 1.42395E-07 3.13421E-19 5.61545E-19
 -1      3786 9.51429E-05-2.83138E-05-2.86422E-05 2.13065E-07-4.84092E-19 8.02591E-19
 -1      3787 9.50873E-05-2.82273E-05-2.86539E-05 2.42025E-07-8.06298E-19 4.77849E-19
 -1      3788 9.51641E-05-2.83391E-05-2.86388E-05 1.64826E-07-3.48769E-19 4.32181E-19
 -1      3789 9.50102E-05-2.81280E-05-2.86653E-05 2.69160E-07-7.22584E-19-1.02808E-19
 -1      3790 9.49408E-05-2.80249E-05-2.86779E-05 3.13101E-07-5.42266E-19 3.89680E-20
 -1      3791 9.50257E-05-2.81488E-05-2.86605E-05 2.05446E-07-8.37548E-19 8.19650E-19
 -1      3792 9.48435E-05-2.79057E-05-2.86897E-05 3.52982E-07 2.23453E-19 3.07149E-19
 -1      3793 9.47549E-05-2.77817E-05-2.87026E-05 4.14462E-07 1.75617E-19 5.06690E-19
 -1      3794 9.48535E-05-2.79219E-05-2.86834E-05 2.67397E-07-1.28011E-19 5.99390E-19
 -1      3795 9.46305E-05-2.76380E-05-2.87137E-05 4.69452E-07-1.57835E-19 7.13764E-19
 -1      3796 9.45166E-05-2.74891E-05-2.87260E-05 5.51422E-07 2.95014E-19 5.74324E-19
 -1      3797 9.46345E-05-2.76491E-05-2.87058E-05 3.54497E-07 3.57975E-19 4.32548E-19
 -1      3798 9.43573E-05-2.73167E-05-2.87350E-05 6.24307E-07 2.01208E-19 4.39587E-20
 -1      3799 9.42113E-05-2.71395E-05-2.87451E-05 7.30056E-07 3.35125E-19 1.21101E-19
 -1      3800 9.43540E-05-2.73213E-05-2.87253E-05 4.71266E-07-1.82093E-20 3.00792E-19
 -1      3801 9.40085E-05-2.69350E-05-2.87499E-05 8.24051E-07 5.28627E-19 4.82960E-21
 -1      3802 9.38236E-05-2.67275E-05-2.87557E-05 9.57116E-07 4.32212E-19-4.28954E-21
 -1      3803 9.39958E-05-2.69309E-05-2.87382E-05 6.22932E-07 2.40721E-19-1.94006E-19
 -1      3804 9.35684E-05-2.64892E-05-2.87533E-05 1.07587E-06 3.64146E-19-1.88069E-19
 -1      3805 9.33376E-05-2.62517E-05-2.87515E-05 1.23996E-06 6.24469E-19-1.84311E-19
 -1      3806 9.35427E-05-2.64725E-05-2.87393E-05 8.15447E-07 4.17519E-20-2.86594E-19
 -1      3807 9.30211E-05-2.59808E-05-2.87377E-05 1.38764E-06 8.36166E-19-8.42377E-19
 -1      3808 9.27382E-05-2.57171E-05-2.87239E-05 1.58660E-06 6.03233E-19-1.35331E-18
 -1      3809 9.29768E-05-2.59455E-05-2.87213E-05 1.05558E-06 2.17410E-19-4.81059E-19
 -1      3810 9.23521E-05-2.54190E-05-2.86931E-05 1.76811E-06 2.56152E-19-1.40677E-18
 -1      3811 9.20127E-05-2.51384E-05-2.86611E-05 2.00615E-06-5.80801E-19-1.27980E-18
 -1      3812 9.22811E-05-2.53563E-05-2.86742E-05 1.35121E-06 5.65373E-19-8.31301E-19
 -1      3813 9.15499E-05-2.48246E-05-2.86055E-05 2.22770E-06-5.01153E-19-1.04333E-18
 -1      3814 9.11532E-05-2.45439E-05-2.85475E-05 2.51008E-06-6.66973E-19-1.53839E-20
 -1      3815 9.14399E-05-2.47209E-05-2.85843E-05 1.71219E-06-5.34426E-21-1.67035E-19
 -1      3816 9.06085E-05-2.42340E-05-2.84571E-05 2.78043E-06-4.26906E-19 9.42235E-19
 -1      3817 9.01593E-05-2.39802E-05-2.83626E-05 3.11501E-06-3.12206E-19 9.24000E-19
 -1      3818 9.04413E-05-2.40690E-05-2.84338E-05 2.15210E-06 1.48319E-19-1.86249E-19
 -1      3819 8.95303E-05-2.37040E-05-2.82247E-05 3.44790E-06-1.09101E-18 1.17479E-18
 -1      3820 8.90419E-05-2.35178E-05-2.80807E-05 3.84826E-06-4.09924E-19 8.80232E-19
 -1      3821 8.92775E-05-2.34471E-05-2.81993E-05 2.69192E-06-7.16238E-19 4.68422E-19
 -1      3822 8.83290E-05-2.33180E-05-2.78788E-05 4.26712E-06 2.28775E-19 3.80737E-19
 -1      3823 8.78289E-05-2.32576E-05-2.76698E-05 4.75790E-06 1.00523E-20-2.60642E-19
 -1      3824 8.79461E-05-2.29219E-05-2.78512E-05 3.36704E-06-5.74152E-19 4.78605E-19
 -1      3825 8.70350E-05-2.31925E-05-2.73833E-05 5.30376E-06-9.48983E-21-5.79651E-19
 -1      3826 8.65724E-05-2.33397E-05-2.70912E-05 5.92858E-06-1.31160E-19-3.49089E-19
 -1      3827 8.64488E-05-2.25841E-05-2.73515E-05 4.24014E-06-1.88410E-19-3.48950E-19
 -1      3828 8.57057E-05-2.34885E-05-2.66947E-05 6.67177E-06-1.08401E-18-1.09379E-18
 -1      3829 8.53541E-05-2.39540E-05-2.63000E-05 7.50652E-06-7.88954E-19-1.15592E-18
 -1      3830 8.47918E-05-2.25530E-05-2.66520E-05 5.42156E-06-9.50002E-19-1.49523E-18
 -1      3831 8.44307E-05-2.44020E-05-2.57604E-05 8.54699E-06 1.98775E-19-1.21598E-18
 -1      3832 8.43219E-05-2.53779E-05-2.52402E-05 9.73657E-06 8.96878E-19-1.26457E-18
 -1      3833 8.30250E-05-2.30092E-05-2.56906E-05 7.11033E-06-4.39292E-19-1.30560E-18
 -1      3834 8.33475E-05-2.62856E-05-2.45119E-05 1.12513E-05 1.11748E-18-1.35801E-18
 -1      3835 8.37733E-05-2.80487E-05-2.38606E-05 1.30892E-05 1.35737E-18-2.26849E-18
 -1      3836 8.10434E-05-2.41750E-05-2.43966E-05 9.65397E-06 6.06538E-19-5.47733E-19
 -1      3837 9.53761E-05-2.42554E-05-3.04813E-05 1.10566E-06 1.41540E-19-8.36255E-19
 -1      3838 9.57694E-05-2.50712E-05-3.02937E-05 7.06716E-07 2.18744E-19-7.15536E-19
 -1      3839 9.66039E-05-2.74022E-05-2.96508E-05 5.61181E-09-2.81438E-19-6.70858E-19
 -1      3840 9.66908E-05-2.78815E-05-2.94953E-05 1.89029E-07-3.24776E-19-4.67007E-19
 -1      3841 9.58489E-05-2.53544E-05-3.02140E-05-7.69815E-07-3.75992E-19-1.15292E-18
 -1      3842 9.55747E-05-2.89058E-05-2.85714E-05-2.54350E-07 2.43510E-19 8.99510E-19
 -1      3843 9.56168E-05-2.89545E-05-2.85696E-05-2.79573E-07 9.06710E-20 1.13688E-18
 -1      3844 9.53217E-05-2.85729E-05-2.86059E-05-1.99914E-07 5.25076E-19 3.40239E-19
 -1      3845 9.53570E-05-2.86319E-05-2.85971E-05-1.96801E-07 3.34767E-19-4.41415E-20
 -1      3846 9.52340E-05-2.84396E-05-2.86255E-05-2.21918E-07 1.89743E-19 2.60356E-19
 -1      3847 9.52727E-05-2.85064E-05-2.86150E-05-2.06475E-07 6.58438E-19 2.28564E-19
 -1      3848 9.53006E-05-2.85351E-05-2.86137E-05-1.74156E-07 4.95189E-19 2.07616E-19
 -1      3849 9.51323E-05-2.82850E-05-2.86482E-05-2.68986E-07-2.80868E-19 1.09551E-19
 -1      3850 9.51781E-05-2.83630E-05-2.86362E-05-2.39313E-07 7.53003E-20 2.15301E-19
 -1      3851 9.51969E-05-2.83849E-05-2.86333E-05-1.97712E-07 2.65072E-19 5.66097E-19
 -1      3852 9.50073E-05-2.81014E-05-2.86734E-05-3.45140E-07-4.14538E-19-5.37551E-19
 -1      3853 9.50644E-05-2.81944E-05-2.86601E-05-2.98928E-07-2.87696E-19-2.33291E-19
 -1      3854 9.50745E-05-2.82097E-05-2.86555E-05-2.43058E-07 3.03533E-20 4.91584E-19
 -1      3855 9.48485E-05-2.78803E-05-2.87001E-05-4.55208E-07 1.84613E-19-8.16891E-19
 -1      3856 9.49218E-05-2.79925E-05-2.86859E-05-3.89725E-07-7.66888E-19-8.64600E-19
 -1      3857 9.49229E-05-2.80007E-05-2.86796E-05-3.13686E-07-3.02325E-20-4.17786E-19
 -1      3858 9.46435E-05-2.76128E-05-2.87270E-05-6.04767E-07 5.73568E-19-3.98109E-20
 -1      3859 9.47386E-05-2.77484E-05-2.87126E-05-5.16905E-07 9.25102E-19 2.75793E-20
 -1      3860 9.47296E-05-2.77488E-05-2.87041E-05-4.13710E-07-1.39831E-20-3.02334E-19
 -1      3861 9.43782E-05-2.72904E-05-2.87516E-05-7.99967E-07 6.21865E-20-9.75784E-19
 -1      3862 9.45017E-05-2.74532E-05-2.87382E-05-6.86362E-07 2.88088E-19-7.18806E-19
 -1      3863 9.44807E-05-2.74446E-05-2.87271E-05-5.47784E-07 8.90116E-19-1.35229E-20
 -1      3864 9.40370E-05-2.69057E-05-2.87704E-05-1.04723E-06-1.30663E-18-1.17612E-19
 -1      3865 9.41960E-05-2.70990E-05-2.87598E-05-9.04452E-07-1.12519E-18-8.11397E-19
 -1      3866 9.41602E-05-2.70791E-05-2.87455E-05-7.20913E-07-5.81091E-19-1.29312E-18
 -1      3867 9.36027E-05-2.64541E-05-2.87780E-05-1.35283E-06-4.22896E-19 7.27624E-19
 -1      3868 9.38051E-05-2.66795E-05-2.87730E-05-1.17765E-06-5.05759E-19 4.44183E-19
 -1      3869 9.37506E-05-2.66452E-05-2.87547E-05-9.38173E-07-1.18614E-18 1.08674E-19
 -1      3870 9.30573E-05-2.59358E-05-2.87667E-05-1.72248E-06-8.14131E-19 1.43014E-18
 -1      3871 9.33111E-05-2.61921E-05-2.87712E-05-1.51211E-06-5.31940E-19 1.29588E-18
 -1      3872 9.32326E-05-2.61390E-05-2.87483E-05-1.20436E-06-1.05215E-18 6.80018E-19
 -1      3873 9.23832E-05-2.53580E-05-2.87258E-05-2.16109E-06-1.09536E-18 1.54449E-18
 -1      3874 9.26958E-05-2.56401E-05-2.87454E-05-1.91334E-06-8.47012E-19 1.03535E-18
 -1      3875 9.25863E-05-2.55619E-05-2.87171E-05-1.52374E-06-1.02729E-18 1.15224E-18
 -1      3876 9.15641E-05-2.47394E-05-2.86403E-05-2.67312E-06-7.68550E-19 9.61561E-19
 -1      3877 9.19417E-05-2.50358E-05-2.86826E-05-2.38619E-06-1.02364E-18 9.97107E-19
 -1      3878 9.17916E-05-2.49233E-05-2.86483E-05-1.90003E-06-3.63216E-19 1.06033E-18
 -1      3879 9.05883E-05-2.41140E-05-2.84903E-05-3.26441E-06-1.44324E-19 4.21429E-19
 -1      3880 9.10334E-05-2.44046E-05-2.85656E-05-2.93584E-06-3.47677E-19 9.07120E-19
 -1      3881 9.08294E-05-2.42440E-05-2.85248E-05-2.33736E-06-2.95926E-19-6.18636E-20
 -1      3882 8.94511E-05-2.35377E-05-2.82497E-05-3.94672E-06-4.75310E-19 3.11930E-19
 -1      3883 8.99603E-05-2.37900E-05-2.83713E-05-3.57074E-06-3.23206E-19 4.13075E-19
 -1      3884 8.96825E-05-2.35597E-05-2.83239E-05-2.84279E-06-1.27675E-19-5.95046E-19
 -1      3885 8.81599E-05-2.30946E-05-2.78848E-05-4.74729E-06-2.88838E-19-5.66993E-19
 -1      3886 8.87190E-05-2.32598E-05-2.80698E-05-4.30949E-06-1.62771E-19 2.22016E-19
 -1      3887 8.83361E-05-2.29251E-05-2.80157E-05-3.43229E-06-4.39456E-19-9.47708E-19
 -1      3888 8.67403E-05-2.29087E-05-2.73528E-05-5.72698E-06-1.33968E-18-1.04325E-18
 -1      3889 8.73171E-05-2.29137E-05-2.76221E-05-5.19491E-06-9.58878E-19-6.54974E-19
 -1      3890 8.67761E-05-2.24166E-05-2.75610E-05-4.14312E-06-4.98453E-19-8.90048E-19
 -1      3891 8.52518E-05-2.31589E-05-2.66009E-05-7.00445E-06-1.77202E-18-1.36551E-18
 -1      3892 8.57831E-05-2.28971E-05-2.69793E-05-6.31488E-06-1.15249E-18-1.18568E-18
 -1      3893 8.49901E-05-2.21424E-05-2.69086E-05-5.05807E-06-9.20080E-19-1.55954E-18
 -1      3894 8.37933E-05-2.40821E-05-2.55649E-05-8.78725E-06-1.77827E-18-1.19019E-18
 -1      3895 8.41727E-05-2.34121E-05-2.60800E-05-7.82838E-06-2.32542E-18-1.63629E-18
 -1      3896 8.29666E-05-2.22491E-05-2.59918E-05-6.31353E-06-1.75363E-18-1.56064E-18
 -1      3897 8.25443E-05-2.60626E-05-2.41523E-05-1.14625E-05-1.11811E-18-1.09219E-18
 -1      3898 8.25923E-05-2.47372E-05-2.48447E-05-1.00461E-05-8.84127E-19-7.00300E-19
 -1      3899 8.06770E-05-2.29184E-05-2.47190E-05-8.17442E-06-1.23962E-18-1.24942E-18
 -1      3900 9.60640E-05-2.92556E-05-2.86311E-05-5.09542E-07-1.15757E-19 2.03373E-19
 -1      3901 9.61344E-05-2.92763E-05-2.86525E-05-5.44944E-07-3.00343E-19 3.60468E-19
 -1      3902 8.31090E-05-3.24213E-05-2.17563E-05-1.80617E-05-1.12062E-18-6.41436E-19
 -1      3903 9.54858E-05-2.88015E-05-2.85781E-05-2.18615E-07 1.08334E-19 7.64971E-19
 -1      3904 9.55233E-05-2.88523E-05-2.85735E-05-2.35705E-07 4.74781E-19 9.66969E-19
 -1      3905 9.55853E-05-2.89028E-05-2.85790E-05-2.07805E-07 3.86834E-19 1.16141E-18
 -1      3906 8.20779E-05-2.88364E-05-2.28637E-05 1.48117E-05 1.33809E-18-2.68888E-18
 -1      3907 7.72863E-05-2.92761E-05-2.06128E-05 1.75335E-05 1.97569E-18-1.88059E-18
 -1      3908 7.33041E-05-2.63704E-05-1.98882E-05 1.58695E-05 1.98952E-18-2.55159E-18
 -1      3909 7.81654E-05-2.53253E-05-2.25600E-05 1.25278E-05 7.02076E-19-7.62707E-19
 -1      3910 9.55855E-05-2.50158E-05-3.02486E-05 1.48503E-06 3.24503E-19-8.47939E-19
 -1      3911 9.54663E-05-2.45805E-05-3.03857E-05 1.35057E-06 2.58102E-19-9.50271E-19
 -1      3912 7.23727E-05-2.36700E-05-2.08876E-05 1.13382E-05 8.44196E-19-2.21434E-18
 -1      3913 9.55460E-05-2.53120E-05-3.01067E-05 1.76108E-06 5.58533E-19-5.36861E-19
 -1      3914 6.99862E-05-2.03793E-05-2.13060E-05 3.65125E-06-1.85441E-19-2.12272E-18
 -1      3915 6.97219E-05-2.02247E-05-2.11404E-05-3.64842E-06-9.79786E-19-2.51667E-18
 -1      3916 9.54034E-05-2.86918E-05-2.85899E-05-1.99701E-07-2.25994E-20 2.66708E-19
 -1      3917 9.54385E-05-2.87457E-05-2.85830E-05-2.07360E-07-1.46570E-19 2.45406E-19
 -1      3918 9.53949E-05-2.86677E-05-2.85976E-05-1.69512E-07 4.35906E-19-8.09457E-20
 -1      3919 9.59191E-05-2.91880E-05-2.85978E-05-4.36972E-07-4.55766E-19 4.47454E-19
 -1      3920 9.59822E-05-2.92224E-05-2.86108E-05-4.75149E-07-3.77176E-19 3.52950E-19
 -1      3921 9.61101E-05-2.92876E-05-2.86400E-05-4.11629E-07-2.02759E-19 2.17904E-19
 -1      3922 9.54596E-05-2.49077E-05-3.02416E-05 1.82490E-06 5.08357E-19-7.37284E-19
 -1      3923 9.67644E-05-2.82690E-05-2.93522E-05 2.84591E-07-4.60572E-19-4.84790E-19
 -1      3924 9.67741E-05-2.85733E-05-2.92314E-05 3.96945E-07-3.85981E-19-6.19976E-19
 -1      3925 9.67884E-05-2.79992E-05-2.94797E-05 1.66768E-07-3.26780E-19-7.36627E-19
 -1      3926 9.57889E-05-2.91018E-05-2.85790E-05-3.66740E-07-3.24336E-19 5.22840E-19
 -1      3927 9.58446E-05-2.91441E-05-2.85856E-05-4.03242E-07-3.73851E-19 5.95147E-19
 -1      3928 9.59551E-05-2.92109E-05-2.86063E-05-3.52343E-07-5.22419E-19 3.37959E-19
 -1      3929 7.24787E-05-2.32366E-05-2.11907E-05-1.04531E-05-2.03486E-18-2.28124E-18
 -1      3930 7.75892E-05-2.75579E-05-2.13753E-05-1.55808E-05-2.09652E-18-1.66361E-18
 -1      3931 9.56746E-05-2.90063E-05-2.85711E-05-3.04625E-07-2.67068E-19 1.14509E-18
 -1      3932 9.57230E-05-2.90526E-05-2.85729E-05-3.36489E-07-4.64101E-19 8.49226E-19
 -1      3933 9.58160E-05-2.91161E-05-2.85870E-05-2.95894E-07-6.56505E-19 3.68561E-19
 -1      3934 9.56935E-05-2.90121E-05-2.85788E-05-2.46721E-07-3.18757E-19 7.75325E-19
 -1      3935 9.61532E-05-2.59915E-05-3.00697E-05 5.09833E-07 2.21040E-19-5.85107E-19
 -1      3936 9.59652E-05-2.53703E-05-3.02555E-05 3.36037E-07 5.27400E-20-4.66412E-19
 -1      3937 9.63630E-05-2.66869E-05-2.98640E-05 1.71431E-07 2.28424E-19-4.90376E-19
 -1      3938 9.59231E-05-2.54445E-05-3.02096E-05-6.12598E-07-2.55239E-19-1.06671E-18
 -1      3939 9.61207E-05-2.59401E-05-3.00673E-05-5.05413E-07-1.71418E-19-1.07677E-18
 -1      3940 9.63381E-05-2.66733E-05-2.98655E-05-2.22060E-07-2.22459E-19-7.13761E-19
 -1      3941 9.59048E-05-2.52833E-05-3.02723E-05-4.41265E-07-1.19250E-19-9.08096E-19
 -1      3942 7.51070E-05-2.35606E-05-2.21394E-05 1.03089E-05 1.94148E-19-2.14006E-18
 -1      3943 7.22346E-05-2.13551E-05-2.16754E-05 7.39172E-06-8.11530E-20-2.71352E-18
 -1      3944 7.75035E-05-2.32775E-05-2.32347E-05 9.14007E-06 4.31127E-21-1.18802E-18
 -1      3945 9.62198E-05-2.92898E-05-2.86834E-05-5.75585E-07-3.87461E-19 6.20686E-19
 -1      3946 9.62954E-05-2.92867E-05-2.87162E-05-6.00272E-07 5.91698E-21 5.46319E-19
 -1      3947 9.62748E-05-2.93315E-05-2.86927E-05-4.68133E-07-7.49404E-20 6.44230E-19
 -1      3948 9.66681E-05-2.84771E-05-2.92276E-05-4.49813E-07 9.46747E-20-3.73566E-19
 -1      3949 9.66614E-05-2.81718E-05-2.93512E-05-3.05679E-07 3.46593E-19-3.38430E-19
 -1      3950 9.68572E-05-2.86700E-05-2.92236E-05 3.16043E-07-3.21472E-19-5.41505E-19
 -1      3951 8.17539E-05-2.72435E-05-2.34244E-05-1.31716E-05-1.69882E-18-1.41218E-18
 -1      3952 7.86020E-05-2.42802E-05-2.32073E-05-1.09122E-05-1.12909E-18-9.92837E-19
 -1      3953 8.30001E-05-2.96449E-05-2.27572E-05-1.50071E-05-1.61321E-18-9.62329E-19
 -1      3954 9.62741E-05-2.91978E-05-2.87490E-05-7.39030E-07 1.30893E-19 4.67232E-19
 -1      3955 9.54875E-05-2.87888E-05-2.85857E-05-1.81409E-07 5.03080E-19 8.66924E-19
 -1      3956 9.66202E-05-2.77719E-05-2.95099E-05-1.80021E-07 3.38275E-19-3.27152E-19
 -1      3957 9.65319E-05-2.72995E-05-2.96727E-05 5.43609E-08 2.81347E-19-4.56123E-19
 -1      3958 9.65243E-05-2.68779E-05-2.98464E-05 8.58404E-08 1.37336E-19-2.19031E-19
 -1      3959 9.67393E-05-2.78956E-05-2.95038E-05-1.65149E-07 2.37983E-19-1.28001E-19
 -1      3960 9.64667E-05-2.68387E-05-2.98395E-05-1.34056E-07-1.69407E-19-7.89135E-19
 -1      3961 9.59652E-05-2.53452E-05-3.02737E-05 1.34283E-07-2.42748E-20-6.46657E-19
 -1      3962 7.33115E-05-2.06516E-05-2.25471E-05 3.49617E-06-8.62064E-19-2.21960E-18
 -1      3963 9.66344E-05-2.89168E-05-2.90232E-05-5.88772E-07-1.36758E-19-3.40385E-19
 -1      3964 9.66700E-05-2.87289E-05-2.91147E-05-5.17541E-07 8.45384E-21-3.68677E-19
 -1      3965 9.67781E-05-2.85737E-05-2.92311E-05-3.82661E-07 1.06983E-19 3.59512E-20
 -1      3966 7.15906E-05-2.11374E-05-2.15659E-05-6.42669E-06-1.21736E-18-2.91906E-18
 -1      3967 7.59337E-05-2.29658E-05-2.26909E-05-9.01655E-06-1.75719E-18-1.23338E-18
 -1      3968 7.67488E-05-2.22417E-05-2.34422E-05-7.57540E-06-1.03150E-18-1.12999E-18
 -1      3969 7.35142E-05-2.05965E-05-2.26605E-05-3.15471E-06-1.57547E-18-2.23491E-18
 -1      3970 9.65256E-05-2.91599E-05-2.88712E-05-6.37924E-07-1.79229E-19-3.65811E-20
 -1      3971 9.65856E-05-2.90578E-05-2.89382E-05-6.13879E-07-2.12115E-19-2.58124E-19
 -1      3972 9.67285E-05-2.89950E-05-2.90302E-05-4.86261E-07-1.77626E-19-4.44657E-20
 -1      3973 9.67723E-05-2.92690E-05-2.89288E-05 2.79235E-07-2.05588E-19-3.75472E-19
 -1      3974 9.66925E-05-2.93389E-05-2.88653E-05 2.87023E-07-6.70788E-20-5.16231E-19
 -1      3975 9.66035E-05-2.93800E-05-2.88089E-05 2.77896E-07-1.01664E-20-6.34888E-19
 -1      3976 9.65141E-05-2.93982E-05-2.87630E-05 2.71349E-07-1.44327E-19-5.60089E-19
 -1      3977 9.66900E-05-2.93725E-05-2.88523E-05 1.58739E-07-2.24611E-19-6.43071E-19
 -1      3978 9.64161E-05-2.93945E-05-2.87226E-05 2.58429E-07-5.12648E-20-7.65896E-19
 -1      3979 9.63272E-05-2.93789E-05-2.86907E-05 2.45670E-07-3.11656E-20-5.72036E-19
 -1      3980 9.65026E-05-2.94144E-05-2.87547E-05 1.46916E-07-2.26438E-19-7.24366E-19
 -1      3981 9.62315E-05-2.93494E-05-2.86628E-05 2.28630E-07-3.22813E-19-5.72464E-19
 -1      3982 9.61462E-05-2.93127E-05-2.86416E-05 2.12438E-07-5.58175E-19-9.55256E-19
 -1      3983 9.63162E-05-2.93880E-05-2.86867E-05 1.29342E-07-1.99350E-19-9.98056E-19
 -1      3984 9.60575E-05-2.92674E-05-2.86235E-05 1.97001E-07-6.40095E-19-8.75814E-19
 -1      3985 9.59798E-05-2.92191E-05-2.86105E-05 1.80111E-07-3.71172E-19-8.00300E-19
 -1      3986 9.61319E-05-2.93127E-05-2.86402E-05 1.12994E-07-4.43895E-19-1.13527E-18
 -1      3987 9.59003E-05-2.91655E-05-2.85999E-05 1.66325E-07 4.09799E-20-1.09238E-18
 -1      3988 9.58313E-05-2.91112E-05-2.85933E-05 1.50685E-07-1.41156E-19-7.41567E-19
 -1      3989 9.59652E-05-2.92127E-05-2.86111E-05 9.62274E-08-2.09550E-19-8.94245E-19
 -1      3990 9.57607E-05-2.90533E-05-2.85884E-05 1.39104E-07-2.91035E-19-6.26361E-19
 -1      3991 9.56999E-05-2.89957E-05-2.85866E-05 1.26139E-07-3.54801E-19-9.23178E-20
 -1      3992 9.58164E-05-2.90994E-05-2.85954E-05 8.08597E-08-1.01928E-19-1.12926E-18
 -1      3993 9.56369E-05-2.89352E-05-2.85861E-05 1.17180E-07-3.24733E-19 1.33295E-19
 -1      3994 9.55823E-05-2.88751E-05-2.85880E-05 1.07966E-07-6.59274E-20 5.66284E-19
 -1      3995 9.56841E-05-2.89787E-05-2.85899E-05 6.82254E-08 8.15466E-20-4.18986E-19
 -1      3996 9.55244E-05-2.88119E-05-2.85910E-05 1.01932E-07 6.06929E-20 6.77715E-19
 -1      3997 9.54734E-05-2.87485E-05-2.85958E-05 9.73491E-08 5.50166E-19 5.96232E-19
 -1      3998 9.55646E-05-2.88523E-05-2.85922E-05 5.92259E-08 1.81949E-19 1.18275E-19
 -1      3999 9.54173E-05-2.86811E-05-2.86014E-05 9.45395E-08 3.24447E-19 6.77053E-19
 -1      4000 9.53667E-05-2.86124E-05-2.86085E-05 9.54119E-08 2.79501E-19 6.16980E-19
 -1      4001 9.54522E-05-2.87186E-05-2.86008E-05 5.45823E-08 3.94889E-19 5.94283E-19
 -1      4002 9.53084E-05-2.85382E-05-2.86163E-05 9.61990E-08 2.89485E-19 5.35342E-19
 -1      4003 9.52540E-05-2.84612E-05-2.86252E-05 1.03408E-07 4.91472E-20 2.00749E-19
 -1      4004 9.53398E-05-2.85735E-05-2.86141E-05 5.50009E-08 2.58972E-19-9.55877E-20
 -1      4005 9.51887E-05-2.83766E-05-2.86346E-05 1.08299E-07-1.98533E-19-6.37226E-22
 -1      4006 9.51259E-05-2.82876E-05-2.86449E-05 1.22866E-07-5.42361E-19-3.24124E-19
 -1      4007 9.52185E-05-2.84108E-05-2.86311E-05 6.12887E-08-1.97389E-19-6.85632E-19
 -1      4008 9.50481E-05-2.81885E-05-2.86553E-05 1.32555E-07-6.61684E-19 6.40747E-19
 -1      4009 9.49716E-05-2.80831E-05-2.86665E-05 1.55699E-07-7.17040E-19 9.08217E-19
 -1      4010 9.50783E-05-2.82226E-05-2.86508E-05 7.44430E-08-2.89878E-19-3.69654E-20
 -1      4011 9.48748E-05-2.79649E-05-2.86774E-05 1.71112E-07-4.41991E-19 6.40393E-19
 -1      4012 9.47782E-05-2.78384E-05-2.86887E-05 2.04283E-07 2.03563E-19 5.71887E-19
 -1      4013 9.49073E-05-2.79998E-05-2.86720E-05 9.57251E-08-6.06865E-19 5.87395E-19
 -1      4014 9.46552E-05-2.76960E-05-2.86991E-05 2.26619E-07 5.35115E-19 1.61985E-19
 -1      4015 9.45317E-05-2.75438E-05-2.87096E-05 2.71514E-07 3.78253E-19 2.56888E-19
 -1      4016 9.46920E-05-2.77326E-05-2.86929E-05 1.26727E-07-5.15229E-19 3.84352E-19
 -1      4017 9.43743E-05-2.73723E-05-2.87181E-05 3.02293E-07-6.95555E-20-9.66156E-20
 -1      4018 9.42160E-05-2.71898E-05-2.87263E-05 3.60851E-07-6.02230E-20-1.28998E-19
 -1      4019 9.44171E-05-2.74109E-05-2.87114E-05 1.69440E-07-5.03170E-19-2.35639E-19
 -1      4020 9.40150E-05-2.69850E-05-2.87309E-05 4.01967E-07-7.91837E-21-3.72062E-19
 -1      4021 9.38134E-05-2.67687E-05-2.87346E-05 4.76360E-07 8.28359E-21-1.75625E-19
 -1      4022 9.40654E-05-2.70252E-05-2.87241E-05 2.26332E-07-1.91703E-19-1.16732E-18
 -1      4023 9.35590E-05-2.65273E-05-2.87327E-05 5.30156E-07-3.11810E-20-3.63846E-19
 -1      4024 9.33052E-05-2.62754E-05-2.87287E-05 6.22794E-07-1.23107E-20-3.65722E-19
 -1      4025 9.36180E-05-2.65677E-05-2.87261E-05 3.00458E-07-4.70886E-20-6.47040E-20
 -1      4026 9.29869E-05-2.59964E-05-2.87162E-05 6.92184E-07-2.48684E-19 1.44760E-19
 -1      4027 9.26719E-05-2.57097E-05-2.87003E-05 8.05783E-07-8.97559E-20-2.00388E-19
 -1      4028 9.30550E-05-2.60340E-05-2.87107E-05 3.95642E-07-4.97839E-21 1.09646E-19
 -1      4029 9.22791E-05-2.53954E-05-2.86719E-05 8.94460E-07 1.47693E-19-2.99885E-19
 -1      4030 9.18945E-05-2.50787E-05-2.86381E-05 1.03226E-06 3.68486E-19-2.84512E-19
 -1      4031 9.23553E-05-2.54246E-05-2.86686E-05 5.16784E-07-1.53051E-20 8.89571E-19
 -1      4032 9.14165E-05-2.47358E-05-2.85867E-05 1.14508E-06 1.88080E-19-7.25651E-19
 -1      4033 9.09550E-05-2.43996E-05-2.85271E-05 1.31140E-06-2.52022E-19-7.31759E-19
 -1      4034 9.14978E-05-2.47476E-05-2.85871E-05 6.70417E-07-1.93455E-20-1.60670E-18
 -1      4035 9.03812E-05-2.40407E-05-2.84431E-05 1.45505E-06 9.82980E-20-7.21623E-19
 -1      4036 8.98375E-05-2.37026E-05-2.83474E-05 1.65642E-06-7.80978E-20-7.00952E-19
 -1      4037 9.04617E-05-2.40210E-05-2.84493E-05 8.65685E-07-4.41394E-19-1.65376E-18
 -1      4038 8.91567E-05-2.33473E-05-2.82185E-05 1.84065E-06-4.33097E-19-2.19366E-19
 -1      4039 8.85278E-05-2.30333E-05-2.80735E-05 2.08806E-06-3.34298E-19-2.35045E-20
 -1      4040 8.92259E-05-2.32745E-05-2.82332E-05 1.11606E-06 3.83011E-19-4.67491E-19
 -1      4041 8.77258E-05-2.27087E-05-2.78833E-05 2.32789E-06-5.19095E-19 1.42190E-19
 -1      4042 8.70108E-05-2.24543E-05-2.76717E-05 2.64099E-06-5.27869E-19 1.18884E-20
 -1      4043 8.77669E-05-2.25504E-05-2.79096E-05 1.44220E-06-2.14656E-19-4.41983E-19
 -1      4044 8.60650E-05-2.21936E-05-2.73988E-05 2.96082E-06-4.76581E-19-3.45753E-19
 -1      4045 8.52647E-05-2.20443E-05-2.70989E-05 3.37576E-06-6.45364E-19-9.01964E-19
 -1      4046 8.60510E-05-2.19021E-05-2.74404E-05 1.87626E-06-8.11134E-19-8.24607E-19
 -1      4047 8.41330E-05-2.18839E-05-2.67142E-05 3.81895E-06-1.44985E-18-1.47948E-19
 -1      4048 8.32478E-05-2.19012E-05-2.62973E-05 4.40609E-06-1.38937E-18-7.25174E-19
 -1      4049 8.40160E-05-2.13894E-05-2.67744E-05 2.46773E-06-1.00429E-18-4.88699E-19
 -1      4050 8.18357E-05-2.18363E-05-2.57617E-05 5.03278E-06-7.44141E-19-5.61036E-19
 -1      4051 8.07963E-05-2.21422E-05-2.51732E-05 6.00649E-06-2.74118E-19-3.46408E-19
 -1      4052 8.15533E-05-2.11137E-05-2.58417E-05 3.26954E-06-8.82133E-19 7.84324E-19
 -1      4053 7.86355E-05-2.24793E-05-2.40373E-05 7.62997E-06 2.48999E-19-1.06340E-18
 -1      4054 9.63337E-05-2.62782E-05-3.00156E-05-2.26539E-07-9.56134E-20-8.57804E-19
 -1      4055 9.66043E-05-2.71075E-05-2.97921E-05-1.13745E-08-1.79044E-19-8.52598E-19
 -1      4056 9.59755E-05-2.92181E-05-2.86090E-05-2.59376E-07-6.44844E-19 3.13654E-19
 -1      4057 9.60499E-05-2.92628E-05-2.86222E-05-2.82808E-07-6.24750E-19 1.83073E-19
 -1      4058 9.69244E-05-2.85444E-05-2.93050E-05 1.84548E-07-2.47126E-19-4.44158E-19
 -1      4059 9.69224E-05-2.88073E-05-2.91922E-05 2.48301E-07 2.13966E-21-2.47886E-19
 -1      4060 9.61380E-05-2.93050E-05-2.86413E-05-3.05197E-07-3.29044E-19 1.34164E-19
 -1      4061 9.62203E-05-2.93369E-05-2.86631E-05-3.27857E-07-6.63328E-20 8.48733E-20
 -1      4062 9.61412E-05-2.93158E-05-2.86431E-05-2.08173E-07-3.52531E-19-2.08183E-19
 -1      4063 9.52788E-05-2.84974E-05-2.86202E-05-1.38958E-07-1.19971E-19 3.57861E-19
 -1      4064 9.53280E-05-2.85694E-05-2.86113E-05-1.31767E-07 3.26453E-19 2.44050E-19
 -1      4065 9.48476E-05-2.79158E-05-2.86853E-05-2.62704E-07-2.96668E-19 2.17813E-19
 -1      4066 9.49338E-05-2.80332E-05-2.86732E-05-2.23562E-07 1.04945E-21 3.33968E-19
 -1      4067 9.46249E-05-2.76403E-05-2.87082E-05-3.46630E-07 2.03880E-19 2.59654E-19
 -1      4068 9.47356E-05-2.77820E-05-2.86963E-05-2.93436E-07-3.01558E-19 3.20490E-19
 -1      4069 9.47589E-05-2.78087E-05-2.86897E-05-1.96391E-07-2.90722E-19 6.55623E-19
 -1      4070 9.43383E-05-2.73079E-05-2.87282E-05-4.57428E-07 8.49206E-19 5.50440E-19
 -1      4071 9.44811E-05-2.74787E-05-2.87179E-05-3.88229E-07 8.62492E-19 7.72640E-19
 -1      4072 9.45052E-05-2.75044E-05-2.87101E-05-2.58207E-07 9.52975E-20 7.86396E-19
 -1      4073 9.39705E-05-2.69095E-05-2.87417E-05-5.98700E-07-5.49275E-19 8.41922E-19
 -1      4074 9.41539E-05-2.71135E-05-2.87349E-05-5.11565E-07 3.90571E-19 1.41086E-18
 -1      4075 9.41797E-05-2.71382E-05-2.87258E-05-3.38765E-07 2.77611E-19 2.43512E-18
 -1      4076 9.35022E-05-2.64383E-05-2.87435E-05-7.73888E-07-8.45887E-19 2.62844E-19
 -1      4077 9.37355E-05-2.66786E-05-2.87428E-05-6.67087E-07-9.27853E-19 6.51263E-19
 -1      4078 9.37635E-05-2.67013E-05-2.87327E-05-4.40176E-07-5.51953E-19 2.08640E-18
 -1      4079 9.29127E-05-2.58913E-05-2.87260E-05-9.85959E-07-1.07460E-18-6.03626E-20
 -1      4080 9.32058E-05-2.61686E-05-2.87355E-05-8.58156E-07-7.97587E-19 6.52760E-20
 -1      4081 9.32364E-05-2.61875E-05-2.87244E-05-5.64201E-07-5.17672E-19 1.07725E-19
 -1      4082 9.21805E-05-2.52711E-05-2.86788E-05-1.23719E-06-1.05116E-18 9.29699E-21
 -1      4083 9.25436E-05-2.55830E-05-2.87039E-05-1.08756E-06-1.26867E-18-2.43694E-19
 -1      4084 9.25764E-05-2.55951E-05-2.86925E-05-7.11982E-07-9.09421E-19-9.35339E-19
 -1      4085 9.12835E-05-2.45889E-05-2.85878E-05-1.52926E-06 1.86862E-20-3.70586E-20
 -1      4086 9.17268E-05-2.49285E-05-2.86359E-05-1.35740E-06-3.01150E-19 4.58492E-19
 -1      4087 9.17609E-05-2.49284E-05-2.86250E-05-8.83866E-07-9.76191E-19-1.75529E-18
 -1      4088 9.02003E-05-2.38675E-05-2.84338E-05-1.86419E-06 1.47641E-19-7.54609E-19
 -1      4089 9.07331E-05-2.42214E-05-2.85150E-05-1.66944E-06 1.82752E-19-1.94353E-19
 -1      4090 9.07662E-05-2.42008E-05-2.85061E-05-1.07952E-06 3.31195E-19-1.03858E-18
 -1      4091 8.89092E-05-2.31438E-05-2.81920E-05-2.24690E-06-2.61531E-19-9.15500E-19
 -1      4092 8.95401E-05-2.34909E-05-2.83192E-05-2.02661E-06-2.79422E-19-7.83646E-19
 -1      4093 8.95682E-05-2.34367E-05-2.83146E-05-1.29876E-06 1.06493E-20-1.13805E-18
 -1      4094 8.73865E-05-2.24710E-05-2.78291E-05-2.69063E-06-5.69391E-19-5.36339E-19
 -1      4095 8.81234E-05-2.27814E-05-2.80197E-05-2.43647E-06-3.60807E-19-6.21778E-19
 -1      4096 8.81393E-05-2.26727E-05-2.80224E-05-1.54354E-06-2.26225E-19-8.54286E-19
 -1      4097 8.55994E-05-2.19178E-05-2.73018E-05-3.22822E-06-5.01737E-19-1.32103E-18
 -1      4098 8.64521E-05-2.21527E-05-2.75783E-05-2.91825E-06-5.89600E-19-5.67049E-19
 -1      4099 8.64437E-05-2.19568E-05-2.75928E-05-1.82185E-06-4.67038E-19-1.50808E-18
 -1      4100 8.35016E-05-2.15662E-05-2.65515E-05-3.93395E-06-5.45287E-19-1.77980E-18
 -1      4101 8.44732E-05-2.16735E-05-2.69439E-05-3.51921E-06-3.06336E-20-1.71616E-18
 -1      4102 8.44219E-05-2.13419E-05-2.69761E-05-2.15390E-06 9.41695E-20-1.19583E-18
 -1      4103 8.10241E-05-2.15594E-05-2.54922E-05-4.98154E-06-1.29763E-18-2.78177E-18
 -1      4104 8.21153E-05-2.14516E-05-2.60448E-05-4.37533E-06-1.15341E-18-2.38260E-18
 -1      4105 8.19251E-05-2.08591E-05-2.61016E-05-2.60216E-06-1.02980E-19-2.66581E-18
 -1      4106 7.83885E-05-2.19852E-05-2.41837E-05-6.65352E-06-1.39998E-18-2.29336E-18
 -1      4107 7.96554E-05-2.15897E-05-2.49411E-05-5.62609E-06-1.77340E-18-2.71945E-18
 -1      4108 7.93035E-05-2.07634E-05-2.50280E-05-3.51824E-06-1.20546E-18-4.16543E-18
 -1      4109 7.64856E-05-2.09597E-05-2.37433E-05-4.85051E-06-2.36704E-18-3.33337E-18
 -1      4110 9.63802E-05-2.92699E-05-2.87610E-05-6.25989E-07-3.59917E-20 3.19755E-19
 -1      4111 9.64515E-05-2.92271E-05-2.88086E-05-6.32649E-07-1.23688E-19 6.03379E-20
 -1      4112 9.66066E-05-2.92254E-05-2.88805E-05-5.21430E-07-1.78906E-19 2.06157E-19
 -1      4113 9.64521E-05-2.93261E-05-2.87714E-05-5.11332E-07-2.50511E-19 6.68705E-19
 -1      4114 9.55880E-05-2.88896E-05-2.85841E-05-1.53995E-07 3.51974E-19 3.45516E-19
 -1      4115 9.56394E-05-2.89468E-05-2.85824E-05-1.67562E-07 2.85534E-19 1.20786E-19
 -1      4116 9.50220E-05-2.81441E-05-2.86620E-05-2.02162E-07 3.42835E-19 3.69726E-19
 -1      4117 9.50904E-05-2.82419E-05-2.86504E-05-1.75236E-07 3.43564E-19 4.66095E-19
 -1      4118 9.49574E-05-2.80610E-05-2.86678E-05-1.51115E-07 2.64229E-20 2.62481E-19
 -1      4119 9.51618E-05-2.83349E-05-2.86399E-05-1.61830E-07 2.60737E-19 5.28176E-19
 -1      4120 9.52181E-05-2.84177E-05-2.86295E-05-1.45478E-07 1.26007E-19 4.78030E-19
 -1      4121 9.52461E-05-2.84498E-05-2.86266E-05-1.01969E-07-1.73047E-19 3.06218E-19
 -1      4122 9.51155E-05-2.82714E-05-2.86463E-05-1.20271E-07 4.13301E-19 1.00051E-19
 -1      4123 9.54838E-05-2.87689E-05-2.85914E-05-1.36794E-07 5.63259E-19 4.62761E-21
 -1      4124 9.55311E-05-2.88289E-05-2.85867E-05-1.44461E-07 4.98466E-19 2.66560E-19
 -1      4125 9.55778E-05-2.88729E-05-2.85894E-05-1.07328E-07 4.07708E-19-1.27235E-18
 -1      4126 9.53832E-05-2.86398E-05-2.86037E-05-1.31245E-07 4.99863E-19-3.31226E-19
 -1      4127 9.54296E-05-2.87045E-05-2.85967E-05-1.32010E-07 6.03430E-19 2.32211E-20
 -1      4128 9.53606E-05-2.86048E-05-2.86099E-05-9.45875E-08 1.03210E-19-3.91285E-19
 -1      4129 7.56483E-05-2.09457E-05-2.35114E-05 4.54219E-06-7.81223E-19-8.61254E-19
 -1      4130 7.44127E-05-2.00437E-05-2.32636E-05 8.19775E-07-2.14974E-18-5.73766E-20
 -1      4131 9.63766E-05-2.62797E-05-3.00316E-05 9.31239E-08-8.38477E-21-5.84943E-19
 -1      4132 9.59994E-05-2.53858E-05-3.02673E-05-1.21891E-08-1.31249E-19-8.54175E-19
 -1      4133 9.68935E-05-2.90126E-05-2.90909E-05 2.52109E-07 9.95383E-21-2.41496E-19
 -1      4134 9.68406E-05-2.91611E-05-2.90053E-05 2.83038E-07-5.19164E-20-1.96410E-19
 -1      4135 9.69487E-05-2.88994E-05-2.91663E-05 1.36029E-07 9.94055E-20-3.32524E-19
 -1      4136 9.68099E-05-2.77794E-05-2.95803E-05 6.33299E-08-1.49977E-19-7.55750E-19
 -1      4137 9.68874E-05-2.82077E-05-2.94362E-05 1.65880E-07-3.08766E-19-6.70594E-19
 -1      4138 9.69354E-05-2.83393E-05-2.93999E-05 8.93903E-08 7.84780E-21-7.80483E-19
 -1      4139 9.60170E-05-2.54514E-05-3.02481E-05-2.02256E-07-1.00422E-19-9.57610E-19
 -1      4140 9.68651E-05-2.87132E-05-2.92099E-05-3.29213E-07-1.63182E-19 3.29753E-19
 -1      4141 9.68708E-05-2.84363E-05-2.93272E-05-2.43673E-07 1.37100E-20 1.84212E-19
 -1      4142 7.91455E-05-2.17332E-05-2.45971E-05 5.31217E-06-4.21617E-19-2.63025E-19
 -1      4143 9.58960E-05-2.91669E-05-2.85976E-05-2.38998E-07-7.01243E-19 2.61288E-19
 -1      4144 9.59750E-05-2.92215E-05-2.86120E-05-1.77601E-07-7.11578E-19 6.67328E-21
 -1      4145 9.58302E-05-2.91156E-05-2.85907E-05-2.17177E-07-8.55764E-19 2.52006E-19
 -1      4146 9.63221E-05-2.93822E-05-2.86906E-05-2.38845E-07-2.92820E-20-5.43362E-19
 -1      4147 9.63145E-05-2.93635E-05-2.86923E-05-3.49262E-07 1.56648E-19-1.48243E-20
 -1      4148 9.64049E-05-2.93768E-05-2.87250E-05-3.69695E-07 9.95261E-20 2.55241E-19
 -1      4149 9.54684E-05-2.87439E-05-2.85972E-05-9.67631E-08 4.45378E-19-4.81619E-19
 -1      4150 9.68322E-05-2.80930E-05-2.94611E-05-1.75157E-07 9.23026E-20 1.01169E-20
 -1      4151 9.67882E-05-2.76879E-05-2.96153E-05-4.42881E-08 3.67341E-21-9.13794E-20
 -1      4152 9.69051E-05-2.82341E-05-2.94317E-05-1.17441E-07-1.10427E-19 3.23088E-20
 -1      4153 9.56956E-05-2.89954E-05-2.85880E-05-1.25189E-07 1.63337E-19-7.60500E-19
 -1      4154 9.57020E-05-2.90051E-05-2.85833E-05-1.81342E-07 3.42601E-20 1.64005E-19
 -1      4155 9.57598E-05-2.90599E-05-2.85853E-05-1.99718E-07-4.85487E-19 2.52106E-19
 -1      4156 7.84126E-05-2.06432E-05-2.47174E-05 2.91075E-06-5.97109E-19 4.02660E-19
 -1      4157 9.68489E-05-2.92190E-05-2.89866E-05 1.57219E-07-2.35311E-19-5.99026E-19
 -1      4158 9.66970E-05-2.73022E-05-2.97402E-05-3.06698E-09-1.55653E-19-9.84350E-19
 -1      4159 9.66999E-05-2.73288E-05-2.97271E-05-2.13089E-08 7.79965E-20-3.17576E-19
 -1      4160 9.65241E-05-2.67479E-05-2.99069E-05 7.09757E-08 5.04840E-20-3.44336E-19
 -1      4161 9.65475E-05-2.67742E-05-2.99032E-05 2.59368E-09-8.20760E-20-7.13966E-19
 -1      4162 9.67875E-05-2.75522E-05-2.96727E-05-1.02552E-08-1.40562E-19-4.81153E-19
 -1      4163 7.49505E-05-2.03461E-05-2.34239E-05-2.35672E-06-2.28062E-18-3.22431E-18
 -1      4164 9.68521E-05-2.89349E-05-2.91047E-05-3.47898E-07 4.31276E-20 2.72864E-19
 -1      4165 9.69201E-05-2.88091E-05-2.91931E-05-2.33785E-07-2.10974E-20 2.52973E-19
 -1      4166 9.68045E-05-2.90957E-05-2.90176E-05-3.86951E-07-1.42209E-19 7.47342E-20
 -1      4167 9.60453E-05-2.55472E-05-3.02143E-05-2.53226E-07-4.31305E-20-9.90664E-19
 -1      4168 7.72150E-05-2.04933E-05-2.42899E-05-1.03645E-06-2.31295E-18-1.92687E-18
 -1      4169 9.65714E-05-2.94236E-05-2.87766E-05 2.69473E-08-4.10365E-19-4.29633E-19
 -1      4170 9.64781E-05-2.94238E-05-2.87359E-05 2.49539E-08-3.25336E-19-7.09801E-19
 -1      4171 9.63419E-05-2.93913E-05-2.86913E-05-4.61071E-08-1.57929E-19-5.62803E-19
 -1      4172 9.62484E-05-2.93603E-05-2.86643E-05-4.60790E-08-1.78060E-19-3.75269E-19
 -1      4173 9.61605E-05-2.93191E-05-2.86439E-05-3.77602E-08-4.41746E-19-4.67987E-19
 -1      4174 9.60713E-05-2.92730E-05-2.86258E-05-4.05762E-08-4.26825E-19-2.45958E-19
 -1      4175 9.59908E-05-2.92210E-05-2.86134E-05-3.13111E-08-5.30177E-19-5.56549E-19
 -1      4176 9.59103E-05-2.91667E-05-2.86027E-05-3.46335E-08-4.98738E-19-6.51025E-19
 -1      4177 9.58386E-05-2.91091E-05-2.85965E-05-2.61001E-08-4.00256E-19-8.71816E-19
 -1      4178 9.57670E-05-2.90503E-05-2.85915E-05-2.91242E-08-2.88127E-19-1.22339E-18
 -1      4179 9.57031E-05-2.89896E-05-2.85900E-05-2.22399E-08 2.57501E-19-8.53089E-19
 -1      4180 9.56392E-05-2.89280E-05-2.85895E-05-2.45331E-08 4.44011E-19-7.89784E-19
 -1      4181 9.55811E-05-2.88648E-05-2.85917E-05-1.99281E-08 3.00088E-19-7.87679E-19
 -1      4182 9.55222E-05-2.88000E-05-2.85946E-05-2.11896E-08 3.61905E-19-6.16386E-19
 -1      4183 9.54669E-05-2.87332E-05-2.85996E-05-1.93714E-08 2.41715E-19-2.63920E-19
 -1      4184 9.54098E-05-2.86636E-05-2.86052E-05-1.93490E-08 2.31802E-19-3.47883E-19
 -1      4185 9.53535E-05-2.85909E-05-2.86124E-05-2.07947E-08 1.74284E-19-3.66089E-19
 -1      4186 9.52939E-05-2.85138E-05-2.86202E-05-1.92412E-08-3.92118E-20-6.15127E-19
 -1      4187 9.52322E-05-2.84320E-05-2.86291E-05-2.44544E-08-1.25657E-19-4.01300E-19
 -1      4188 9.51652E-05-2.83435E-05-2.86384E-05-2.10967E-08 1.17534E-19-2.40075E-19
 -1      4189 9.50927E-05-2.82486E-05-2.86486E-05-3.06395E-08 1.54248E-19-4.11391E-19
 -1      4190 9.50128E-05-2.81445E-05-2.86589E-05-2.51545E-08-5.27579E-20 1.52367E-19
 -1      4191 9.49233E-05-2.80318E-05-2.86697E-05-3.96558E-08-4.87546E-19 4.25254E-19
 -1      4192 9.48239E-05-2.79072E-05-2.86803E-05-3.16483E-08-7.49109E-19 8.94781E-20
 -1      4193 9.47104E-05-2.77717E-05-2.86908E-05-5.17865E-08-6.90679E-19 4.18751E-19
 -1      4194 9.45841E-05-2.76214E-05-2.87007E-05-4.07662E-08-7.24528E-19 1.63313E-19
 -1      4195 9.44385E-05-2.74581E-05-2.87098E-05-6.72223E-08-4.34317E-19 8.26958E-19
 -1      4196 9.42769E-05-2.72770E-05-2.87176E-05-5.25749E-08-1.92245E-19 5.43396E-19
 -1      4197 9.40901E-05-2.70811E-05-2.87234E-05-8.59528E-08-3.39383E-19 1.08292E-18
 -1      4198 9.38839E-05-2.68647E-05-2.87271E-05-6.68982E-08-2.16718E-19 7.57105E-19
 -1      4199 9.36459E-05-2.66322E-05-2.87270E-05-1.07610E-07-7.67374E-20 3.44321E-19
 -1      4200 9.33850E-05-2.63771E-05-2.87237E-05-8.31362E-08 1.55790E-20 2.59747E-19
 -1      4201 9.30848E-05-2.61058E-05-2.87142E-05-1.31263E-07 1.27917E-19-1.97271E-19
 -1      4202 9.27587E-05-2.58109E-05-2.86997E-05-1.00016E-07-5.44424E-20 5.93916E-21
 -1      4203 9.23847E-05-2.55010E-05-2.86757E-05-1.55166E-07-5.50958E-19-3.38063E-19
 -1      4204 9.19823E-05-2.51681E-05-2.86446E-05-1.15265E-07-5.35690E-19-8.97749E-19
 -1      4205 9.15222E-05-2.48236E-05-2.85993E-05-1.76491E-07-3.84310E-19-1.24125E-18
 -1      4206 9.10324E-05-2.44590E-05-2.85441E-05-1.25222E-07-4.65366E-19-1.47245E-18
 -1      4207 9.04735E-05-2.40888E-05-2.84685E-05-1.91099E-07 4.08941E-20-1.28506E-18
 -1      4208 8.98848E-05-2.37040E-05-2.83793E-05-1.24407E-07 1.29167E-19-7.46545E-19
 -1      4209 8.92130E-05-2.33229E-05-2.82611E-05-1.93439E-07-8.18983E-20-6.79293E-19
 -1      4210 8.85128E-05-2.29358E-05-2.81250E-05-1.05146E-07 3.34980E-19-7.00661E-19
 -1      4211 8.77110E-05-2.25647E-05-2.79485E-05-1.76684E-07 1.51230E-19-7.30713E-19
 -1      4212 8.68830E-05-2.21986E-05-2.77485E-05-5.73769E-08-6.82466E-19-8.98546E-19
 -1      4213 8.59268E-05-2.18640E-05-2.74926E-05-1.32903E-07-4.54601E-19-1.12564E-18
 -1      4214 8.49468E-05-2.15464E-05-2.72061E-05 3.11128E-08-1.94623E-19-5.33067E-19
 -1      4215 8.37976E-05-2.12748E-05-2.68425E-05-5.10218E-08-5.38615E-20-8.04589E-19
 -1      4216 8.26320E-05-2.10364E-05-2.64396E-05 1.79499E-07-3.97496E-19-5.27861E-19
 -1      4217 8.12037E-05-2.08025E-05-2.59269E-05 1.10630E-07-7.34502E-19-2.49959E-19
 -1      4218 7.98849E-05-2.07036E-05-2.53710E-05 3.77045E-07-2.61614E-19-5.39898E-19
 -1      4219 7.82777E-05-2.03547E-05-2.48566E-05-6.23787E-07-1.23452E-18-1.34657E-18
 -1      4220 9.69696E-05-2.88692E-05-2.91855E-05-6.01517E-08 2.49773E-20-5.86729E-19
 -1      4221 9.69343E-05-2.90654E-05-2.90845E-05-4.51911E-08-5.41494E-20-5.66968E-19
 -1      4222 9.67589E-05-2.93608E-05-2.88834E-05 2.98197E-08-2.33626E-19-6.36630E-19
 -1      4223 9.66679E-05-2.94045E-05-2.88255E-05 3.30897E-08-1.82573E-19-5.73257E-19
 -1      4224 9.66145E-05-2.94152E-05-2.88013E-05-9.77100E-08-2.28714E-19-4.49958E-19
 -1      4225 9.68970E-05-2.91906E-05-2.90158E-05-1.66517E-08-6.54919E-20-7.52960E-19
 -1      4226 9.68219E-05-2.92972E-05-2.89380E-05-8.42304E-09-3.27588E-19-7.44732E-19
 -1      4227 9.67713E-05-2.93322E-05-2.89059E-05-1.49009E-07-2.74296E-19-7.89412E-19
 -1      4228 9.68669E-05-2.91529E-05-2.90237E-05-2.31171E-07-1.37895E-19-2.61525E-19
 -1      4229 9.69796E-05-2.86194E-05-2.92942E-05-2.53054E-08 1.14128E-19-4.45123E-19
 -1      4230 9.58269E-05-2.91124E-05-2.85947E-05-1.49144E-07-6.71428E-19-1.93854E-19
 -1      4231 9.69408E-05-2.82852E-05-2.94240E-05-4.99532E-08-1.42448E-20-5.77821E-19
 -1      4232 9.65605E-05-2.93772E-05-2.87918E-05-3.01678E-07-2.30221E-19-2.24354E-19
 -1      4233 9.66452E-05-2.93452E-05-2.88409E-05-3.06262E-07-2.97486E-19-3.12133E-19
 -1      4234 9.64262E-05-2.64439E-05-2.99932E-05-3.25308E-08-1.10440E-20-1.07292E-18
 -1      4235 9.65922E-05-2.68817E-05-2.98729E-05-3.45115E-08-3.05168E-20-8.70400E-19
 -1      4236 9.68909E-05-2.79231E-05-2.95528E-05 1.03197E-08-7.63002E-20-7.36427E-19
 -1      4237 9.67723E-05-2.92039E-05-2.89557E-05-3.46096E-07-2.44343E-19 5.27244E-20
 -1      4238 9.68023E-05-2.76139E-05-2.96558E-05 1.97034E-08-9.84278E-20-7.59765E-19
 -1      4239 9.63736E-05-2.93949E-05-2.87067E-05-1.57663E-07-1.21156E-19-5.67345E-19
 -1      4240 9.67041E-05-2.92896E-05-2.88903E-05-3.55582E-07-3.16003E-19-6.45975E-20
 -1      4241 9.65626E-05-2.94030E-05-2.87843E-05-1.76534E-07-1.21303E-19-7.21797E-19
 -1      4242 9.64634E-05-2.94077E-05-2.87370E-05-1.68112E-07-2.23014E-19-6.02624E-19
 -3
    1PSTEP                         4           1           1          
  100CL  101 1.000000000        4242                     0    1           1
 -4  ERROR       1    1
 -5  STR(%)      1    1    0    0
 -1         1 1.28494E+01
 -1         2 3.26303E+01
 -1         3 1.18370E+00
 -1         4 8.58464E-01
 -1         5 1.40384E+01
 -1         6 1.31426E+01
 -1         7 1.31426E+01
 -1         8 3.66357E+00
 -1         9 1.82404E+00
 -1        10 1.29197E+00
 -1        11 1.04617E+00
 -1        12 8.99394E-01
 -1        13 8.08800E-01
 -1        14 7.53640E-01
 -1        15 7.55583E-01
 -1        16 8.13090E-01
 -1        17 9.00879E-01
 -1        18 1.05275E+00
 -1        19 1.30798E+00
 -1        20 1.83598E+00
 -1        21 3.50537E+00
 -1        22 8.64057E+00
 -1        23 1.31426E+01
 -1        24 4.31734E+00
 -1        25 3.34014E+00
 -1        26 2.11044E+00
 -1        27 1.36150E+00
 -1        28 1.01366E+00
 -1        29 7.74573E-01
 -1        30 5.94548E-01
 -1        31 4.53975E-01
 -1        32 3.45934E-01
 -1        33 2.66502E-01
 -1        34 2.02378E-01
 -1        35 1.51464E-01
 -1        36 1.11743E-01
 -1        37 8.13748E-02
 -1        38 6.33305E-02
 -1        39 4.87560E-02
 -1        40 3.67211E-02
 -1        41 2.71841E-02
 -1        42 2.34845E-02
 -1        43 2.44024E-02
 -1        44 3.18626E-02
 -1        45 4.16940E-02
 -1        46 5.37115E-02
 -1        47 6.76214E-02
 -1        48 8.29011E-02
 -1        49 1.09080E-01
 -1        50 1.48524E-01
 -1        51 1.97414E-01
 -1        52 2.55988E-01
 -1        53 3.23305E-01
 -1        54 3.96441E-01
 -1        55 4.69384E-01
 -1        56 6.12328E-01
 -1        57 7.79215E-01
 -1        58 9.88444E-01
 -1        59 1.21322E+00
 -1        60 1.39051E+00
 -1        61 1.43187E+00
 -1        62 1.72401E+00
 -1        63 1.76133E+00
 -1        64 2.49552E+00
 -1        65 3.44677E+00
 -1        66 6.09000E+00
 -1        67 7.59821E+00
 -1        68 7.59821E+00
 -1        69 7.21351E+00
 -1        70 6.00843E+00
 -1        71 3.76605E+00
 -1        72 1.40384E+01
 -1        73 3.39447E+00
 -1        74 2.41268E+00
 -1        75 1.66538E+00
 -1        76 1.14417E+00
 -1        77 9.06120E-01
 -1        78 7.31370E-01
 -1        79 5.87782E-01
 -1        80 4.67981E-01
 -1        81 3.68071E-01
 -1        82 2.93269E-01
 -1        83 2.30755E-01
 -1        84 1.78758E-01
 -1        85 1.36417E-01
 -1        86 1.02663E-01
 -1        87 7.63885E-02
 -1        88 5.65474E-02
 -1        89 4.22125E-02
 -1        90 3.26099E-02
 -1        91 2.71327E-02
 -1        92 2.83304E-02
 -1        93 3.60761E-02
 -1        94 4.77941E-02
 -1        95 6.35013E-02
 -1        96 8.34404E-02
 -1        97 1.07781E-01
 -1        98 1.36478E-01
 -1        99 1.69060E-01
 -1       100 2.04330E-01
 -1       101 2.64626E-01
 -1       102 3.38423E-01
 -1       103 4.21651E-01
 -1       104 5.09576E-01
 -1       105 5.92885E-01
 -1       106 6.55529E-01
 -1       107 6.88290E-01
 -1       108 9.51314E-01
 -1       109 1.23772E+00
 -1       110 1.48746E+00
 -1       111 1.94075E+00
 -1       112 2.49930E+00
 -1       113 2.72928E+00
 -1       114 3.90108E+00
 -1       115 5.42819E+00
 -1       116 8.34324E+00
 -1       117 8.96620E+00
 -1       118 8.96620E+00
 -1       119 8.85537E+00
 -1       120 4.69076E+00
 -1       121 2.66216E+00
 -1       122 1.10257E+00
 -1       123 1.69906E+00
 -1       124 2.60179E+01
 -1       125 2.60179E+01
 -1       126 1.57485E+01
 -1       127 1.67015E+01
 -1       128 2.11194E+01
 -1       129 2.38759E+01
 -1       130 2.38759E+01
 -1       131 1.70554E+01
 -1       132 1.57355E+01
 -1       133 1.72878E+01
 -1       134 1.72878E+01
 -1       135 1.70931E+01
 -1       136 8.31118E-01
 -1       137 1.24503E+00
 -1       138 2.44500E+00
 -1       139 3.26303E+01
 -1       140 3.21964E+01
 -1       141 2.49474E+01
 -1       142 1.36206E+01
 -1       143 1.36206E+01
 -1       144 1.28685E+01
 -1       145 1.22029E+01
 -1       146 1.24713E+01
 -1       147 1.24713E+01
 -1       148 1.41719E+01
 -1       149 3.67810E+01
 -1       150 3.67810E+01
 -1       151 2.48203E+01
 -1       152 2.33085E+01
 -1       153 2.29711E+01
 -1       154 2.29711E+01
 -1       155 3.28105E+01
 -1       156 3.28105E+01
 -1       157 2.31706E+01
 -1       158 1.18847E+01
 -1       159 1.28494E+01
 -1       160 1.39240E+01
 -1       161 1.39240E+01
 -1       162 1.33181E+01
 -1       163 1.27027E+01
 -1       164 2.78959E+01
 -1       165 3.09616E+01
 -1       166 2.94243E+01
 -1       167 6.07758E+00
 -1       168 2.29825E+00
 -1       169 1.50863E+00
 -1       170 1.15778E+00
 -1       171 9.73353E-01
 -1       172 8.64126E-01
 -1       173 7.95905E-01
 -1       174 7.55583E-01
 -1       175 7.99305E-01
 -1       176 8.67196E-01
 -1       177 9.81098E-01
 -1       178 1.17269E+00
 -1       179 1.52783E+00
 -1       180 2.26104E+00
 -1       181 3.93096E+00
 -1       182 1.40384E+01
 -1       183 4.31734E+00
 -1       184 3.34014E+00
 -1       185 2.11044E+00
 -1       186 1.44619E+00
 -1       187 1.02439E+00
 -1       188 7.74573E-01
 -1       189 5.94548E-01
 -1       190 4.66660E-01
 -1       191 3.66171E-01
 -1       192 2.87703E-01
 -1       193 2.30419E-01
 -1       194 1.81630E-01
 -1       195 1.41159E-01
 -1       196 1.08371E-01
 -1       197 8.24267E-02
 -1       198 6.24224E-02
 -1       199 4.74761E-02
 -1       200 3.67719E-02
 -1       201 2.95774E-02
 -1       202 2.52437E-02
 -1       203 2.64283E-02
 -1       204 3.18626E-02
 -1       205 4.16940E-02
 -1       206 5.37115E-02
 -1       207 6.76214E-02
 -1       208 8.79771E-02
 -1       209 1.17889E-01
 -1       210 1.54797E-01
 -1       211 1.98844E-01
 -1       212 2.55988E-01
 -1       213 3.45950E-01
 -1       214 4.54311E-01
 -1       215 5.76001E-01
 -1       216 7.01719E-01
 -1       217 8.21647E-01
 -1       218 9.88444E-01
 -1       219 1.21322E+00
 -1       220 1.39051E+00
 -1       221 1.43187E+00
 -1       222 1.72401E+00
 -1       223 1.76133E+00
 -1       224 2.49552E+00
 -1       225 3.91205E+00
 -1       226 6.09000E+00
 -1       227 7.59821E+00
 -1       228 7.21351E+00
 -1       229 6.00843E+00
 -1       230 3.76605E+00
 -1       231 3.39447E+00
 -1       232 2.41268E+00
 -1       233 1.66538E+00
 -1       234 1.14417E+00
 -1       235 9.06120E-01
 -1       236 7.31370E-01
 -1       237 5.87782E-01
 -1       238 4.67981E-01
 -1       239 3.68071E-01
 -1       240 2.93269E-01
 -1       241 2.30755E-01
 -1       242 1.81608E-01
 -1       243 1.41411E-01
 -1       244 1.08648E-01
 -1       245 8.25887E-02
 -1       246 6.24427E-02
 -1       247 4.74425E-02
 -1       248 3.68987E-02
 -1       249 3.02283E-02
 -1       250 2.83304E-02
 -1       251 3.39278E-02
 -1       252 4.26560E-02
 -1       253 5.45236E-02
 -1       254 6.95260E-02
 -1       255 8.75552E-02
 -1       256 1.08275E-01
 -1       257 1.37851E-01
 -1       258 1.81374E-01
 -1       259 2.33642E-01
 -1       260 2.94160E-01
 -1       261 3.60894E-01
 -1       262 4.31165E-01
 -1       263 5.09576E-01
 -1       264 5.92885E-01
 -1       265 6.55529E-01
 -1       266 8.36237E-01
 -1       267 1.02690E+00
 -1       268 1.23772E+00
 -1       269 1.48746E+00
 -1       270 1.94075E+00
 -1       271 2.49930E+00
 -1       272 2.72928E+00
 -1       273 3.90108E+00
 -1       274 5.60159E+00
 -1       275 8.34324E+00
 -1       276 8.96620E+00
 -1       277 8.85537E+00
 -1       278 4.69076E+00
 -1       279 1.36724E+00
 -1       280 1.68227E+00
 -1       281 4.66883E+00
 -1       282 2.60179E+01
 -1       283 1.17209E+01
 -1       284 1.67015E+01
 -1       285 3.56149E+01
 -1       286 2.22865E+01
 -1       287 1.57355E+01
 -1       288 1.47898E+01
 -1       289 1.72878E+01
 -1       290 1.70931E+01
 -1       291 1.70798E+00
 -1       292 1.13678E+00
 -1       293 1.67200E+00
 -1       294 3.56149E+01
 -1       295 3.21964E+01
 -1       296 2.81255E+01
 -1       297 1.25324E+01
 -1       298 1.36206E+01
 -1       299 1.32995E+01
 -1       300 1.32995E+01
 -1       301 1.31052E+01
 -1       302 1.24713E+01
 -1       303 1.21054E+01
 -1       304 1.41719E+01
 -1       305 3.67810E+01
 -1       306 3.50333E+01
 -1       307 2.33085E+01
 -1       308 2.50571E+01
 -1       309 2.50571E+01
 -1       310 2.27688E+01
 -1       311 3.28105E+01
 -1       312 2.62078E+01
 -1       313 1.18847E+01
 -1       314 1.17306E+01
 -1       315 1.28494E+01
 -1       316 1.33921E+01
 -1       317 1.42388E+01
 -1       318 1.33181E+01
 -1       319 1.27141E+01
 -1       320 1.24201E+01
 -1       321 3.09616E+01
 -1       322 3.09616E+01
 -1       323 3.56149E+01
 -1       324 1.57485E+01
 -1       325 2.62080E+01
 -1       326 1.04697E+00
 -1       327 2.48010E+00
 -1       328 7.91962E-01
 -1       329 6.94230E-01
 -1       330 6.31723E-01
 -1       331 5.87518E-01
 -1       332 5.90749E-01
 -1       333 6.34528E-01
 -1       334 7.01345E-01
 -1       335 7.96603E-01
 -1       336 9.32085E-01
 -1       337 1.16048E+00
 -1       338 1.32935E+00
 -1       339 2.20022E+00
 -1       340 1.91359E+00
 -1       341 1.54032E+01
 -1       342 1.72831E+00
 -1       343 1.26637E+00
 -1       344 9.05846E-01
 -1       345 6.54515E-01
 -1       346 5.37541E-01
 -1       347 4.40096E-01
 -1       348 3.54101E-01
 -1       349 2.88169E-01
 -1       350 2.32387E-01
 -1       351 1.84315E-01
 -1       352 1.48757E-01
 -1       353 1.18987E-01
 -1       354 9.39937E-02
 -1       355 7.35930E-02
 -1       356 5.73800E-02
 -1       357 4.48393E-02
 -1       358 3.54092E-02
 -1       359 2.85140E-02
 -1       360 2.35745E-02
 -1       361 2.53451E-02
 -1       362 2.92120E-02
 -1       363 3.55106E-02
 -1       364 4.74103E-02
 -1       365 6.44731E-02
 -1       366 8.79771E-02
 -1       367 1.25743E-01
 -1       368 1.76761E-01
 -1       369 2.41238E-01
 -1       370 3.20136E-01
 -1       371 4.12939E-01
 -1       372 5.16529E-01
 -1       373 6.23629E-01
 -1       374 7.20881E-01
 -1       375 8.29175E-01
 -1       376 9.51598E-01
 -1       377 1.03422E+00
 -1       378 1.00265E+00
 -1       379 9.41927E-01
 -1       380 7.95552E-01
 -1       381 1.54956E+00
 -1       382 2.75301E+00
 -1       383 3.63458E+00
 -1       384 4.47813E+00
 -1       385 4.68929E+00
 -1       386 3.39663E+00
 -1       387 2.63011E+00
 -1       388 1.12995E+00
 -1       389 8.90202E-01
 -1       390 7.02459E-01
 -1       391 5.43414E-01
 -1       392 4.36456E-01
 -1       393 3.69562E-01
 -1       394 3.05316E-01
 -1       395 2.49316E-01
 -1       396 2.03422E-01
 -1       397 1.63098E-01
 -1       398 1.28844E-01
 -1       399 1.00805E-01
 -1       400 7.80329E-02
 -1       401 6.00303E-02
 -1       402 4.63885E-02
 -1       403 3.64306E-02
 -1       404 2.98007E-02
 -1       405 2.62122E-02
 -1       406 2.75201E-02
 -1       407 3.22633E-02
 -1       408 3.90385E-02
 -1       409 4.79756E-02
 -1       410 6.51114E-02
 -1       411 8.73356E-02
 -1       412 1.15344E-01
 -1       413 1.58324E-01
 -1       414 2.23709E-01
 -1       415 3.06978E-01
 -1       416 4.09667E-01
 -1       417 5.31334E-01
 -1       418 6.67852E-01
 -1       419 8.08925E-01
 -1       420 9.34851E-01
 -1       421 1.06700E+00
 -1       422 1.13713E+00
 -1       423 1.13713E+00
 -1       424 1.07117E+00
 -1       425 1.05947E+00
 -1       426 1.15267E+00
 -1       427 2.43880E+00
 -1       428 3.99443E+00
 -1       429 4.90685E+00
 -1       430 5.20120E+00
 -1       431 4.39540E+00
 -1       432 4.49954E+00
 -1       433 2.93232E+00
 -1       434 1.00339E+01
 -1       435 5.97386E+00
 -1       436 3.09697E+00
 -1       437 1.00339E+01
 -1       438 1.17209E+01
 -1       439 1.15489E+01
 -1       440 6.76202E+00
 -1       441 2.61473E+00
 -1       442 1.54032E+01
 -1       443 1.13760E+01
 -1       444 9.18789E-01
 -1       445 1.32706E+01
 -1       446 1.32995E+01
 -1       447 1.31052E+01
 -1       448 1.16324E+01
 -1       449 8.41354E+00
 -1       450 6.61196E+00
 -1       451 1.32845E+01
 -1       452 2.26042E+01
 -1       453 1.93942E+01
 -1       454 2.53581E+01
 -1       455 2.53581E+01
 -1       456 2.15332E+01
 -1       457 2.15332E+01
 -1       458 1.79657E+01
 -1       459 1.07065E+01
 -1       460 7.30105E+00
 -1       461 9.53980E+00
 -1       462 1.21180E+01
 -1       463 1.37712E+01
 -1       464 1.53185E+01
 -1       465 1.47474E+01
 -1       466 9.94429E+00
 -1       467 5.32227E+00
 -1       468 1.04697E+00
 -1       469 4.86321E-01
 -1       470 5.10183E-01
 -1       471 4.31503E-01
 -1       472 4.57505E-01
 -1       473 4.87227E-01
 -1       474 5.11370E-01
 -1       475 5.11370E-01
 -1       476 6.09828E-01
 -1       477 8.02454E-01
 -1       478 8.90202E-01
 -1       479 8.73501E-01
 -1       480 7.01161E-01
 -1       481 5.87513E-01
 -1       482 4.74919E-01
 -1       483 3.75948E-01
 -1       484 3.21264E-01
 -1       485 2.70794E-01
 -1       486 2.22954E-01
 -1       487 1.84173E-01
 -1       488 1.50090E-01
 -1       489 1.20359E-01
 -1       490 9.52666E-02
 -1       491 7.67735E-02
 -1       492 6.12798E-02
 -1       493 4.85727E-02
 -1       494 3.83400E-02
 -1       495 3.01643E-02
 -1       496 2.35745E-02
 -1       497 2.14679E-02
 -1       498 2.08372E-02
 -1       499 2.68021E-02
 -1       500 3.55106E-02
 -1       501 5.37756E-02
 -1       502 7.95177E-02
 -1       503 1.13299E-01
 -1       504 1.56781E-01
 -1       505 2.11519E-01
 -1       506 2.78670E-01
 -1       507 3.58540E-01
 -1       508 4.49894E-01
 -1       509 5.48985E-01
 -1       510 6.48322E-01
 -1       511 7.52496E-01
 -1       512 8.35498E-01
 -1       513 8.97926E-01
 -1       514 9.69800E-01
 -1       515 1.00522E+00
 -1       516 1.18250E+00
 -1       517 1.59288E+00
 -1       518 2.12807E+00
 -1       519 3.03204E+00
 -1       520 3.84037E+00
 -1       521 6.80448E+00
 -1       522 1.03377E+01
 -1       523 3.93737E+00
 -1       524 7.02459E-01
 -1       525 5.43414E-01
 -1       526 4.36456E-01
 -1       527 3.69562E-01
 -1       528 3.05316E-01
 -1       529 2.49316E-01
 -1       530 2.04233E-01
 -1       531 1.64516E-01
 -1       532 1.30502E-01
 -1       533 1.05439E-01
 -1       534 8.42952E-02
 -1       535 6.67665E-02
 -1       536 5.26124E-02
 -1       537 4.14448E-02
 -1       538 3.27927E-02
 -1       539 2.61359E-02
 -1       540 2.28701E-02
 -1       541 2.35633E-02
 -1       542 2.61542E-02
 -1       543 3.52094E-02
 -1       544 4.79756E-02
 -1       545 7.16620E-02
 -1       546 1.05023E-01
 -1       547 1.49035E-01
 -1       548 2.05891E-01
 -1       549 2.77650E-01
 -1       550 3.65815E-01
 -1       551 4.70618E-01
 -1       552 5.89897E-01
 -1       553 7.17446E-01
 -1       554 8.40846E-01
 -1       555 9.66108E-01
 -1       556 1.06700E+00
 -1       557 1.13713E+00
 -1       558 1.16108E+00
 -1       559 1.13693E+00
 -1       560 1.52084E+00
 -1       561 2.00506E+00
 -1       562 3.24476E+00
 -1       563 4.33585E+00
 -1       564 5.32681E+00
 -1       565 6.89304E+00
 -1       566 7.90674E+00
 -1       567 1.30604E+01
 -1       568 5.93404E+00
 -1       569 1.54032E+01
 -1       570 8.06700E+00
 -1       571 7.12354E+00
 -1       572 4.57397E-01
 -1       573 1.30604E+01
 -1       574 1.22790E+01
 -1       575 6.90653E+00
 -1       576 7.56057E+00
 -1       577 1.12567E+01
 -1       578 1.53694E+01
 -1       579 1.82384E+01
 -1       580 2.78088E+01
 -1       581 2.15332E+01
 -1       582 1.37280E+01
 -1       583 4.99070E+00
 -1       584 1.32116E+01
 -1       585 2.78088E+01
 -1       586 1.32762E+00
 -1       587 1.30604E+01
 -1       588 7.22002E-01
 -1       589 5.09931E+00
 -1       590 1.37712E+01
 -1       591 8.35415E+00
 -1       592 3.58610E-01
 -1       593 3.42646E-01
 -1       594 3.62045E-01
 -1       595 3.38266E-01
 -1       596 4.04920E-01
 -1       597 5.43652E-01
 -1       598 1.03377E+01
 -1       599 3.96165E-01
 -1       600 3.82751E-01
 -1       601 3.41762E-01
 -1       602 2.91950E-01
 -1       603 2.42074E-01
 -1       604 2.10910E-01
 -1       605 1.78280E-01
 -1       606 1.47196E-01
 -1       607 1.19236E-01
 -1       608 9.56795E-02
 -1       609 7.69142E-02
 -1       610 6.12798E-02
 -1       611 4.85727E-02
 -1       612 3.83400E-02
 -1       613 3.01643E-02
 -1       614 2.35560E-02
 -1       615 1.90628E-02
 -1       616 1.52650E-02
 -1       617 1.87589E-02
 -1       618 2.79642E-02
 -1       619 4.40252E-02
 -1       620 6.49906E-02
 -1       621 9.21985E-02
 -1       622 1.27097E-01
 -1       623 1.71183E-01
 -1       624 2.25897E-01
 -1       625 2.92442E-01
 -1       626 3.71529E-01
 -1       627 4.64709E-01
 -1       628 5.73551E-01
 -1       629 6.89765E-01
 -1       630 8.03752E-01
 -1       631 8.97938E-01
 -1       632 1.05869E+00
 -1       633 1.27850E+00
 -1       634 1.50441E+00
 -1       635 1.81672E+00
 -1       636 2.68555E+00
 -1       637 3.50614E+00
 -1       638 3.51027E+00
 -1       639 6.16394E+00
 -1       640 3.94877E-01
 -1       641 3.26000E-01
 -1       642 2.71473E-01
 -1       643 2.31338E-01
 -1       644 1.93719E-01
 -1       645 1.59562E-01
 -1       646 1.31375E-01
 -1       647 1.06374E-01
 -1       648 8.49863E-02
 -1       649 6.72242E-02
 -1       650 5.36086E-02
 -1       651 4.26666E-02
 -1       652 3.36277E-02
 -1       653 2.61359E-02
 -1       654 2.14771E-02
 -1       655 1.86858E-02
 -1       656 2.03870E-02
 -1       657 2.61542E-02
 -1       658 4.11440E-02
 -1       659 6.21769E-02
 -1       660 8.99328E-02
 -1       661 1.26126E-01
 -1       662 1.72610E-01
 -1       663 2.31282E-01
 -1       664 3.03900E-01
 -1       665 3.91784E-01
 -1       666 4.95347E-01
 -1       667 6.13414E-01
 -1       668 7.46853E-01
 -1       669 8.88921E-01
 -1       670 1.01835E+00
 -1       671 1.14027E+00
 -1       672 1.33242E+00
 -1       673 1.59208E+00
 -1       674 1.86240E+00
 -1       675 2.59143E+00
 -1       676 2.98669E+00
 -1       677 4.32289E+00
 -1       678 5.32681E+00
 -1       679 6.89304E+00
 -1       680 1.22790E+01
 -1       681 2.78088E+01
 -1       682 4.38485E+00
 -1       683 5.01054E+00
 -1       684 7.74491E+00
 -1       685 4.62795E-01
 -1       686 3.62045E-01
 -1       687 5.14180E-01
 -1       688 3.62424E-01
 -1       689 9.12390E+00
 -1       690 7.96166E+00
 -1       691 5.20987E+00
 -1       692 1.82384E+01
 -1       693 1.20560E+01
 -1       694 1.62452E+01
 -1       695 1.40572E+01
 -1       696 1.32116E+01
 -1       697 3.42300E-01
 -1       698 8.13087E+00
 -1       699 1.22930E+01
 -1       700 3.57729E-01
 -1       701 6.84986E+00
 -1       702 4.17945E-01
 -1       703 4.28529E-01
 -1       704 2.40790E-01
 -1       705 4.36228E+00
 -1       706 5.20987E+00
 -1       707 4.18617E+00
 -1       708 2.33163E-01
 -1       709 2.54378E-01
 -1       710 2.47347E-01
 -1       711 2.25369E-01
 -1       712 1.96894E-01
 -1       713 1.70382E-01
 -1       714 1.49117E-01
 -1       715 1.26816E-01
 -1       716 1.05420E-01
 -1       717 8.60005E-02
 -1       718 6.90421E-02
 -1       719 5.46404E-02
 -1       720 4.26325E-02
 -1       721 3.26950E-02
 -1       722 2.43971E-02
 -1       723 1.72314E-02
 -1       724 1.17907E-02
 -1       725 1.04153E-02
 -1       726 1.87333E-02
 -1       727 3.09970E-02
 -1       728 4.80584E-02
 -1       729 7.03016E-02
 -1       730 9.99767E-02
 -1       731 1.39027E-01
 -1       732 1.88275E-01
 -1       733 2.48999E-01
 -1       734 3.21885E-01
 -1       735 4.06461E-01
 -1       736 5.00162E-01
 -1       737 6.01151E-01
 -1       738 7.46387E-01
 -1       739 9.13159E-01
 -1       740 1.11700E+00
 -1       741 1.37713E+00
 -1       742 1.82371E+00
 -1       743 2.18150E+00
 -1       744 2.94866E+00
 -1       745 4.38064E+00
 -1       746 2.85163E-01
 -1       747 1.87225E-01
 -1       748 1.61412E-01
 -1       749 1.35569E-01
 -1       750 1.11499E-01
 -1       751 9.01202E-02
 -1       752 7.17694E-02
 -1       753 5.64196E-02
 -1       754 4.38158E-02
 -1       755 3.36277E-02
 -1       756 2.61163E-02
 -1       757 2.03439E-02
 -1       758 1.54180E-02
 -1       759 1.31515E-02
 -1       760 1.81984E-02
 -1       761 3.09311E-02
 -1       762 4.73449E-02
 -1       763 6.86156E-02
 -1       764 9.60782E-02
 -1       765 1.31230E-01
 -1       766 1.75727E-01
 -1       767 2.32646E-01
 -1       768 3.08799E-01
 -1       769 4.00880E-01
 -1       770 5.08339E-01
 -1       771 6.32763E-01
 -1       772 7.89230E-01
 -1       773 9.69689E-01
 -1       774 1.16764E+00
 -1       775 1.42386E+00
 -1       776 1.72926E+00
 -1       777 2.32092E+00
 -1       778 3.00312E+00
 -1       779 4.79313E+00
 -1       780 6.84986E+00
 -1       781 3.04600E-01
 -1       782 2.15581E-01
 -1       783 1.26993E+01
 -1       784 2.65521E-01
 -1       785 1.26993E+01
 -1       786 6.89757E+00
 -1       787 9.74936E+00
 -1       788 2.88235E-01
 -1       789 7.46015E+00
 -1       790 2.52485E-01
 -1       791 2.82196E-01
 -1       792 4.56669E+00
 -1       793 6.99012E+00
 -1       794 2.81450E-01
 -1       795 2.88235E-01
 -1       796 6.93097E+00
 -1       797 2.88869E-01
 -1       798 2.82022E-01
 -1       799 2.80525E-01
 -1       800 2.69336E-01
 -1       801 7.79300E+00
 -1       802 1.73815E-01
 -1       803 1.81506E-01
 -1       804 1.74169E-01
 -1       805 1.58407E-01
 -1       806 1.38727E-01
 -1       807 1.22232E-01
 -1       808 1.05830E-01
 -1       809 8.93166E-02
 -1       810 7.38029E-02
 -1       811 5.98909E-02
 -1       812 4.77971E-02
 -1       813 3.74919E-02
 -1       814 2.87763E-02
 -1       815 2.13309E-02
 -1       816 1.47503E-02
 -1       817 1.50809E-02
 -1       818 1.79294E-02
 -1       819 2.98252E-02
 -1       820 4.52869E-02
 -1       821 6.67082E-02
 -1       822 9.47281E-02
 -1       823 1.30766E-01
 -1       824 1.76441E-01
 -1       825 2.33413E-01
 -1       826 3.03278E-01
 -1       827 3.87393E-01
 -1       828 4.86595E-01
 -1       829 6.00671E-01
 -1       830 7.27414E-01
 -1       831 8.73735E-01
 -1       832 1.10227E+00
 -1       833 1.47755E+00
 -1       834 2.09068E+00
 -1       835 4.54728E+00
 -1       836 6.99012E+00
 -1       837 1.95360E-01
 -1       838 1.50916E-01
 -1       839 9.64119E-02
 -1       840 7.92570E-02
 -1       841 6.40265E-02
 -1       842 5.09341E-02
 -1       843 3.98653E-02
 -1       844 3.05752E-02
 -1       845 2.26967E-02
 -1       846 1.57773E-02
 -1       847 1.23006E-02
 -1       848 1.42647E-02
 -1       849 2.51758E-02
 -1       850 4.00210E-02
 -1       851 5.94411E-02
 -1       852 8.61553E-02
 -1       853 1.21327E-01
 -1       854 1.66650E-01
 -1       855 2.24220E-01
 -1       856 2.96238E-01
 -1       857 3.84881E-01
 -1       858 4.92064E-01
 -1       859 6.18981E-01
 -1       860 7.65154E-01
 -1       861 9.26689E-01
 -1       862 1.13702E+00
 -1       863 1.44385E+00
 -1       864 2.00998E+00
 -1       865 2.65920E+00
 -1       866 3.00312E+00
 -1       867 2.88869E-01
 -1       868 1.74523E-01
 -1       869 2.06732E-01
 -1       870 6.65965E+00
 -1       871 1.14947E-01
 -1       872 1.44791E-01
 -1       873 1.33738E-01
 -1       874 1.41747E-01
 -1       875 7.79300E+00
 -1       876 4.79313E+00
 -1       877 7.69913E+00
 -1       878 2.08411E-01
 -1       879 2.15989E-01
 -1       880 1.79308E-01
 -1       881 2.15989E-01
 -1       882 6.99012E+00
 -1       883 2.17154E-01
 -1       884 1.63519E-01
 -1       885 4.07800E+00
 -1       886 1.18689E-01
 -1       887 1.42330E-01
 -1       888 1.54995E-01
 -1       889 1.35233E-01
 -1       890 1.34608E-01
 -1       891 1.25765E-01
 -1       892 1.12502E-01
 -1       893 9.74148E-02
 -1       894 8.48682E-02
 -1       895 7.20842E-02
 -1       896 5.98852E-02
 -1       897 4.88068E-02
 -1       898 3.90872E-02
 -1       899 3.07577E-02
 -1       900 2.36896E-02
 -1       901 1.78366E-02
 -1       902 1.83407E-02
 -1       903 2.07390E-02
 -1       904 2.56386E-02
 -1       905 3.88681E-02
 -1       906 5.69793E-02
 -1       907 8.06484E-02
 -1       908 1.11245E-01
 -1       909 1.50335E-01
 -1       910 1.99702E-01
 -1       911 2.61412E-01
 -1       912 3.37929E-01
 -1       913 4.32362E-01
 -1       914 5.48899E-01
 -1       915 6.93365E-01
 -1       916 8.73735E-01
 -1       917 1.10227E+00
 -1       918 1.38243E+00
 -1       919 2.01855E+00
 -1       920 4.00810E+00
 -1       921 7.96994E-02
 -1       922 4.29854E-02
 -1       923 3.37497E-02
 -1       924 2.59024E-02
 -1       925 1.91713E-02
 -1       926 1.64909E-02
 -1       927 1.82846E-02
 -1       928 2.29297E-02
 -1       929 3.55807E-02
 -1       930 5.31751E-02
 -1       931 7.65967E-02
 -1       932 1.07093E-01
 -1       933 1.46366E-01
 -1       934 1.96369E-01
 -1       935 2.59368E-01
 -1       936 3.38045E-01
 -1       937 4.35728E-01
 -1       938 5.56842E-01
 -1       939 7.07651E-01
 -1       940 8.96969E-01
 -1       941 1.13702E+00
 -1       942 1.44385E+00
 -1       943 1.86541E+00
 -1       944 2.66854E+00
 -1       945 3.89997E+00
 -1       946 9.41467E-02
 -1       947 2.04344E-01
 -1       948 2.17154E-01
 -1       949 1.39649E-01
 -1       950 2.09389E-01
 -1       951 1.44219E-01
 -1       952 9.19947E-02
 -1       953 5.17638E+00
 -1       954 1.41803E-01
 -1       955 5.17638E+00
 -1       956 6.60418E-02
 -1       957 1.51365E-01
 -1       958 1.23126E-01
 -1       959 5.66048E+00
 -1       960 5.37688E-02
 -1       961 1.53107E-01
 -1       962 1.55439E-01
 -1       963 1.23804E-01
 -1       964 1.55439E-01
 -1       965 1.08243E-01
 -1       966 1.02713E-01
 -1       967 9.73177E-02
 -1       968 8.79730E-02
 -1       969 7.68239E-02
 -1       970 6.52671E-02
 -1       971 5.45095E-02
 -1       972 4.52466E-02
 -1       973 3.68761E-02
 -1       974 2.96260E-02
 -1       975 2.35073E-02
 -1       976 2.03376E-02
 -1       977 2.01344E-02
 -1       978 2.19273E-02
 -1       979 2.59522E-02
 -1       980 3.28318E-02
 -1       981 4.41707E-02
 -1       982 6.16959E-02
 -1       983 8.52442E-02
 -1       984 1.15614E-01
 -1       985 1.54403E-01
 -1       986 2.03591E-01
 -1       987 2.65768E-01
 -1       988 3.44583E-01
 -1       989 4.45620E-01
 -1       990 5.78118E-01
 -1       991 7.57973E-01
 -1       992 1.01339E+00
 -1       993 1.35611E+00
 -1       994 2.37461E+00
 -1       995 2.96575E+00
 -1       996 8.98211E-02
 -1       997 3.38225E-02
 -1       998 1.91153E-02
 -1       999 2.01185E-02
 -1      1000 2.32011E-02
 -1      1001 2.86934E-02
 -1      1002 4.27209E-02
 -1      1003 6.12146E-02
 -1      1004 8.53397E-02
 -1      1005 1.16457E-01
 -1      1006 1.56167E-01
 -1      1007 2.06390E-01
 -1      1008 2.69543E-01
 -1      1009 3.48897E-01
 -1      1010 4.49325E-01
 -1      1011 5.78848E-01
 -1      1012 7.51991E-01
 -1      1013 9.92949E-01
 -1      1014 1.34498E+00
 -1      1015 1.86541E+00
 -1      1016 2.31436E+00
 -1      1017 7.26921E-02
 -1      1018 2.66751E-02
 -1      1019 3.56553E+00
 -1      1020 2.80001E+00
 -1      1021 2.06605E-02
 -1      1022 6.23175E-02
 -1      1023 1.01021E-01
 -1      1024 5.18546E-02
 -1      1025 3.38802E+00
 -1      1026 4.22132E-02
 -1      1027 1.11032E-01
 -1      1028 9.92186E-02
 -1      1029 2.45348E+00
 -1      1030 1.10028E-01
 -1      1031 1.16064E-01
 -1      1032 1.21618E-01
 -1      1033 1.16694E-01
 -1      1034 3.04495E+00
 -1      1035 1.09691E-01
 -1      1036 7.15151E-02
 -1      1037 6.50374E-02
 -1      1038 7.86660E-02
 -1      1039 5.70035E-02
 -1      1040 4.83916E-02
 -1      1041 3.99093E-02
 -1      1042 3.24180E-02
 -1      1043 2.61696E-02
 -1      1044 2.23461E-02
 -1      1045 2.03376E-02
 -1      1046 2.19273E-02
 -1      1047 2.59522E-02
 -1      1048 3.28181E-02
 -1      1049 4.37979E-02
 -1      1050 5.87552E-02
 -1      1051 7.84350E-02
 -1      1052 1.04052E-01
 -1      1053 1.37590E-01
 -1      1054 1.80093E-01
 -1      1055 2.33861E-01
 -1      1056 3.02248E-01
 -1      1057 3.90510E-01
 -1      1058 5.07252E-01
 -1      1059 6.66277E-01
 -1      1060 8.84880E-01
 -1      1061 1.16418E+00
 -1      1062 1.32639E+00
 -1      1063 9.92186E-02
 -1      1064 5.70035E-02
 -1      1065 7.97369E-02
 -1      1066 7.86660E-02
 -1      1067 2.01185E-02
 -1      1068 3.81972E-02
 -1      1069 5.14936E-02
 -1      1070 6.92796E-02
 -1      1071 9.24265E-02
 -1      1072 1.21943E-01
 -1      1073 1.59007E-01
 -1      1074 2.05047E-01
 -1      1075 2.61923E-01
 -1      1076 3.32317E-01
 -1      1077 4.20521E-01
 -1      1078 5.33995E-01
 -1      1079 6.91365E-01
 -1      1080 9.78285E-01
 -1      1081 1.49947E+00
 -1      1082 2.14413E+00
 -1      1083 1.10028E-01
 -1      1084 3.24180E-02
 -1      1085 2.86453E-02
 -1      1086 2.32011E-02
 -1      1087 2.61696E-02
 -1      1088 2.12280E-02
 -1      1089 2.37461E+00
 -1      1090 1.11032E-01
 -1      1091 7.55795E-02
 -1      1092 6.66530E-02
 -1      1093 8.66109E-02
 -1      1094 4.83916E-02
 -1      1095 8.79232E-02
 -1      1096 8.39475E-02
 -1      1097 3.99093E-02
 -1      1098 5.35012E-02
 -1      1099 8.90142E-02
 -1      1100 8.79232E-02
 -1      1101 1.10028E-01
 -1      1102 1.04360E-01
 -1      1103 1.31426E+01
 -1      1104 8.40307E+00
 -1      1105 2.74381E+00
 -1      1106 1.55801E+00
 -1      1107 1.16907E+00
 -1      1108 9.72783E-01
 -1      1109 8.54097E-01
 -1      1110 7.81220E-01
 -1      1111 7.54612E-01
 -1      1112 7.84336E-01
 -1      1113 8.56985E-01
 -1      1114 9.76816E-01
 -1      1115 1.18037E+00
 -1      1116 1.57198E+00
 -1      1117 2.67067E+00
 -1      1118 6.07297E+00
 -1      1119 1.13395E+01
 -1      1120 1.31426E+01
 -1      1121 8.72996E+00
 -1      1122 3.82874E+00
 -1      1123 2.72529E+00
 -1      1124 1.73597E+00
 -1      1125 1.18758E+00
 -1      1126 8.94114E-01
 -1      1127 6.84560E-01
 -1      1128 5.24261E-01
 -1      1129 3.99955E-01
 -1      1130 3.06218E-01
 -1      1131 2.34440E-01
 -1      1132 1.76921E-01
 -1      1133 1.31604E-01
 -1      1134 9.65590E-02
 -1      1135 7.23526E-02
 -1      1136 5.60432E-02
 -1      1137 4.27386E-02
 -1      1138 3.19526E-02
 -1      1139 2.53343E-02
 -1      1140 2.39434E-02
 -1      1141 2.81325E-02
 -1      1142 3.67783E-02
 -1      1143 4.77027E-02
 -1      1144 6.06664E-02
 -1      1145 7.52613E-02
 -1      1146 9.59908E-02
 -1      1147 1.28802E-01
 -1      1148 1.72969E-01
 -1      1149 2.26701E-01
 -1      1150 2.89647E-01
 -1      1151 3.59873E-01
 -1      1152 4.32913E-01
 -1      1153 5.40856E-01
 -1      1154 6.95771E-01
 -1      1155 8.83829E-01
 -1      1156 1.10083E+00
 -1      1157 1.30187E+00
 -1      1158 1.41119E+00
 -1      1159 1.57794E+00
 -1      1160 1.74267E+00
 -1      1161 2.12842E+00
 -1      1162 2.97114E+00
 -1      1163 4.76838E+00
 -1      1164 6.84410E+00
 -1      1165 7.59821E+00
 -1      1166 7.40586E+00
 -1      1167 6.61097E+00
 -1      1168 4.88724E+00
 -1      1169 2.31226E+00
 -1      1170 1.40384E+01
 -1      1171 8.71644E+00
 -1      1172 2.90358E+00
 -1      1173 2.03903E+00
 -1      1174 1.40477E+00
 -1      1175 1.02514E+00
 -1      1176 8.18745E-01
 -1      1177 6.59576E-01
 -1      1178 5.27881E-01
 -1      1179 4.18026E-01
 -1      1180 3.30670E-01
 -1      1181 2.62012E-01
 -1      1182 2.04756E-01
 -1      1183 1.57587E-01
 -1      1184 1.19540E-01
 -1      1185 8.95256E-02
 -1      1186 6.64679E-02
 -1      1187 4.93799E-02
 -1      1188 3.74112E-02
 -1      1189 2.98713E-02
 -1      1190 2.77315E-02
 -1      1191 3.22032E-02
 -1      1192 4.19351E-02
 -1      1193 5.56477E-02
 -1      1194 7.34708E-02
 -1      1195 9.56108E-02
 -1      1196 1.22130E-01
 -1      1197 1.52769E-01
 -1      1198 1.86695E-01
 -1      1199 2.34478E-01
 -1      1200 3.01524E-01
 -1      1201 3.80037E-01
 -1      1202 4.65613E-01
 -1      1203 5.51230E-01
 -1      1204 6.24207E-01
 -1      1205 6.71909E-01
 -1      1206 8.19802E-01
 -1      1207 1.09452E+00
 -1      1208 1.36259E+00
 -1      1209 1.71411E+00
 -1      1210 2.22003E+00
 -1      1211 2.61429E+00
 -1      1212 3.31518E+00
 -1      1213 4.66464E+00
 -1      1214 6.88571E+00
 -1      1215 8.65472E+00
 -1      1216 8.96620E+00
 -1      1217 8.91079E+00
 -1      1218 6.77307E+00
 -1      1219 2.93723E+00
 -1      1220 1.92293E+00
 -1      1221 1.88236E+00
 -1      1222 1.40082E+00
 -1      1223 1.38585E+01
 -1      1224 2.60179E+01
 -1      1225 2.08832E+01
 -1      1226 1.62250E+01
 -1      1227 1.89105E+01
 -1      1228 2.24976E+01
 -1      1229 2.38759E+01
 -1      1230 2.04657E+01
 -1      1231 1.63955E+01
 -1      1232 1.65116E+01
 -1      1233 1.72878E+01
 -1      1234 1.71904E+01
 -1      1235 8.96211E+00
 -1      1236 1.03807E+00
 -1      1237 1.84502E+00
 -1      1238 1.65173E+00
 -1      1239 3.26303E+01
 -1      1240 3.24133E+01
 -1      1241 2.85719E+01
 -1      1242 1.92840E+01
 -1      1243 1.36206E+01
 -1      1244 1.32445E+01
 -1      1245 1.25357E+01
 -1      1246 1.23371E+01
 -1      1247 1.24713E+01
 -1      1248 1.33216E+01
 -1      1249 2.54764E+01
 -1      1250 3.67810E+01
 -1      1251 3.08007E+01
 -1      1252 2.40644E+01
 -1      1253 2.31398E+01
 -1      1254 2.29711E+01
 -1      1255 2.78908E+01
 -1      1256 3.28105E+01
 -1      1257 2.79906E+01
 -1      1258 1.75277E+01
 -1      1259 1.23670E+01
 -1      1260 1.28494E+01
 -1      1261 1.33867E+01
 -1      1262 1.39240E+01
 -1      1263 1.36210E+01
 -1      1264 1.30104E+01
 -1      1265 2.02993E+01
 -1      1266 2.94288E+01
 -1      1267 3.01929E+01
 -1      1268 3.10273E+01
 -1      1269 1.31426E+01
 -1      1270 4.87058E+00
 -1      1271 9.61008E+00
 -1      1272 2.06115E+00
 -1      1273 2.98091E+00
 -1      1274 4.18792E+00
 -1      1275 1.40030E+00
 -1      1276 1.66634E+00
 -1      1277 1.90344E+00
 -1      1278 1.10198E+00
 -1      1279 1.22488E+00
 -1      1280 1.33321E+00
 -1      1281 9.36374E-01
 -1      1282 1.00976E+00
 -1      1283 1.06557E+00
 -1      1284 8.36463E-01
 -1      1285 8.81760E-01
 -1      1286 9.18740E-01
 -1      1287 7.74773E-01
 -1      1288 8.02353E-01
 -1      1289 8.30016E-01
 -1      1290 7.55583E-01
 -1      1291 7.54612E-01
 -1      1292 7.75744E-01
 -1      1293 8.06198E-01
 -1      1294 7.77444E-01
 -1      1295 7.77444E-01
 -1      1296 8.84037E-01
 -1      1297 8.40143E-01
 -1      1298 8.33250E-01
 -1      1299 1.01693E+00
 -1      1300 9.40989E-01
 -1      1301 9.24147E-01
 -1      1302 1.24034E+00
 -1      1303 1.11272E+00
 -1      1304 1.07690E+00
 -1      1305 1.68191E+00
 -1      1306 1.41791E+00
 -1      1307 1.35026E+00
 -1      1308 2.88320E+00
 -1      1309 2.04851E+00
 -1      1310 1.89444E+00
 -1      1311 6.28577E+00
 -1      1312 3.71816E+00
 -1      1313 3.09600E+00
 -1      1314 1.40384E+01
 -1      1315 1.13395E+01
 -1      1316 8.98468E+00
 -1      1317 1.40384E+01
 -1      1318 8.72996E+00
 -1      1319 4.31734E+00
 -1      1320 3.82874E+00
 -1      1321 3.34014E+00
 -1      1322 3.82874E+00
 -1      1323 2.72529E+00
 -1      1324 2.11044E+00
 -1      1325 2.72529E+00
 -1      1326 1.77831E+00
 -1      1327 1.40385E+00
 -1      1328 1.77831E+00
 -1      1329 1.19295E+00
 -1      1330 1.01902E+00
 -1      1331 1.23529E+00
 -1      1332 8.94114E-01
 -1      1333 7.74573E-01
 -1      1334 8.99483E-01
 -1      1335 6.84560E-01
 -1      1336 5.94548E-01
 -1      1337 6.84560E-01
 -1      1338 5.30604E-01
 -1      1339 4.60317E-01
 -1      1340 5.30604E-01
 -1      1341 4.10073E-01
 -1      1342 3.56053E-01
 -1      1343 4.16416E-01
 -1      1344 3.16819E-01
 -1      1345 2.77103E-01
 -1      1346 3.26937E-01
 -1      1347 2.48461E-01
 -1      1348 2.16398E-01
 -1      1349 2.59061E-01
 -1      1350 1.92004E-01
 -1      1351 1.66547E-01
 -1      1352 2.06025E-01
 -1      1353 1.46311E-01
 -1      1354 1.26451E-01
 -1      1355 1.61395E-01
 -1      1356 1.10057E-01
 -1      1357 9.48729E-02
 -1      1358 1.24765E-01
 -1      1359 8.19007E-02
 -1      1360 7.28786E-02
 -1      1361 9.53989E-02
 -1      1362 6.28764E-02
 -1      1363 5.55892E-02
 -1      1364 7.24245E-02
 -1      1365 4.81161E-02
 -1      1366 4.20986E-02
 -1      1367 5.49492E-02
 -1      1368 3.67465E-02
 -1      1369 3.19780E-02
 -1      1370 4.21240E-02
 -1      1371 2.83808E-02
 -1      1372 2.65310E-02
 -1      1373 3.31746E-02
 -1      1374 2.43641E-02
 -1      1375 2.48230E-02
 -1      1376 2.74106E-02
 -1      1377 2.54153E-02
 -1      1378 2.91454E-02
 -1      1379 2.58360E-02
 -1      1380 3.18626E-02
 -1      1381 3.67783E-02
 -1      1382 2.91454E-02
 -1      1383 4.16940E-02
 -1      1384 4.77027E-02
 -1      1385 3.67783E-02
 -1      1386 5.37115E-02
 -1      1387 6.06664E-02
 -1      1388 4.77027E-02
 -1      1389 6.76214E-02
 -1      1390 7.52613E-02
 -1      1391 6.06664E-02
 -1      1392 8.54391E-02
 -1      1393 9.85288E-02
 -1      1394 7.77993E-02
 -1      1395 1.13485E-01
 -1      1396 1.33207E-01
 -1      1397 1.02933E-01
 -1      1398 1.51661E-01
 -1      1399 1.76106E-01
 -1      1400 1.36343E-01
 -1      1401 1.98129E-01
 -1      1402 2.27416E-01
 -1      1403 1.76821E-01
 -1      1404 2.55988E-01
 -1      1405 2.89647E-01
 -1      1406 2.27416E-01
 -1      1407 3.34627E-01
 -1      1408 3.71196E-01
 -1      1409 3.00969E-01
 -1      1410 4.25376E-01
 -1      1411 4.61848E-01
 -1      1412 4.00130E-01
 -1      1413 5.22692E-01
 -1      1414 5.94164E-01
 -1      1415 5.15156E-01
 -1      1416 6.57023E-01
 -1      1417 7.40467E-01
 -1      1418 6.38860E-01
 -1      1419 8.00431E-01
 -1      1420 9.05046E-01
 -1      1421 7.61683E-01
 -1      1422 9.88444E-01
 -1      1423 1.10083E+00
 -1      1424 9.05046E-01
 -1      1425 1.21322E+00
 -1      1426 1.30187E+00
 -1      1427 1.10083E+00
 -1      1428 1.39051E+00
 -1      1429 1.41119E+00
 -1      1430 1.30187E+00
 -1      1431 1.43187E+00
 -1      1432 1.57794E+00
 -1      1433 1.41119E+00
 -1      1434 1.72401E+00
 -1      1435 1.74267E+00
 -1      1436 1.57794E+00
 -1      1437 1.76133E+00
 -1      1438 2.12842E+00
 -1      1439 1.74267E+00
 -1      1440 2.49552E+00
 -1      1441 2.97114E+00
 -1      1442 2.12842E+00
 -1      1443 3.67941E+00
 -1      1444 5.00102E+00
 -1      1445 3.20378E+00
 -1      1446 6.09000E+00
 -1      1447 6.84410E+00
 -1      1448 5.00102E+00
 -1      1449 7.59821E+00
 -1      1450 7.59821E+00
 -1      1451 6.84410E+00
 -1      1452 7.40586E+00
 -1      1453 7.21351E+00
 -1      1454 7.40586E+00
 -1      1455 6.61097E+00
 -1      1456 6.00843E+00
 -1      1457 6.61097E+00
 -1      1458 4.88724E+00
 -1      1459 3.76605E+00
 -1      1460 4.88724E+00
 -1      1461 3.10553E+00
 -1      1462 3.10553E+00
 -1      1463 3.39447E+00
 -1      1464 8.71644E+00
 -1      1465 8.71644E+00
 -1      1466 2.41268E+00
 -1      1467 2.90358E+00
 -1      1468 2.90358E+00
 -1      1469 1.66538E+00
 -1      1470 2.03903E+00
 -1      1471 2.03903E+00
 -1      1472 1.14417E+00
 -1      1473 1.40477E+00
 -1      1474 1.40477E+00
 -1      1475 9.06120E-01
 -1      1476 1.02514E+00
 -1      1477 1.02514E+00
 -1      1478 7.31370E-01
 -1      1479 8.18745E-01
 -1      1480 8.18745E-01
 -1      1481 5.87782E-01
 -1      1482 6.59576E-01
 -1      1483 6.59576E-01
 -1      1484 4.67981E-01
 -1      1485 5.27881E-01
 -1      1486 5.27881E-01
 -1      1487 3.68071E-01
 -1      1488 4.18026E-01
 -1      1489 4.18026E-01
 -1      1490 2.93269E-01
 -1      1491 3.30670E-01
 -1      1492 3.30670E-01
 -1      1493 2.30755E-01
 -1      1494 2.62012E-01
 -1      1495 2.62012E-01
 -1      1496 1.80183E-01
 -1      1497 2.06181E-01
 -1      1498 2.06181E-01
 -1      1499 1.38914E-01
 -1      1500 1.60085E-01
 -1      1501 1.61509E-01
 -1      1502 1.05655E-01
 -1      1503 1.22532E-01
 -1      1504 1.25029E-01
 -1      1505 7.94886E-02
 -1      1506 9.26257E-02
 -1      1507 9.56182E-02
 -1      1508 5.94950E-02
 -1      1509 6.94156E-02
 -1      1510 7.25157E-02
 -1      1511 4.48275E-02
 -1      1512 5.19949E-02
 -1      1513 5.49426E-02
 -1      1514 3.47543E-02
 -1      1515 3.95556E-02
 -1      1516 4.21706E-02
 -1      1517 2.86805E-02
 -1      1518 3.14191E-02
 -1      1519 3.35635E-02
 -1      1520 2.83304E-02
 -1      1521 2.77315E-02
 -1      1522 2.92793E-02
 -1      1523 3.50019E-02
 -1      1524 3.11291E-02
 -1      1525 3.11291E-02
 -1      1526 4.52250E-02
 -1      1527 3.93660E-02
 -1      1528 3.82919E-02
 -1      1529 5.90125E-02
 -1      1530 5.11589E-02
 -1      1531 4.85898E-02
 -1      1532 7.64832E-02
 -1      1533 6.65136E-02
 -1      1534 6.20248E-02
 -1      1535 9.76682E-02
 -1      1536 8.54978E-02
 -1      1537 7.85406E-02
 -1      1538 1.22376E-01
 -1      1539 1.08028E-01
 -1      1540 9.79150E-02
 -1      1541 1.53455E-01
 -1      1542 1.37164E-01
 -1      1543 1.23063E-01
 -1      1544 1.92852E-01
 -1      1545 1.75217E-01
 -1      1546 1.59612E-01
 -1      1547 2.49134E-01
 -1      1548 2.18986E-01
 -1      1549 2.07508E-01
 -1      1550 3.16291E-01
 -1      1551 2.79393E-01
 -1      1552 2.63901E-01
 -1      1553 3.91272E-01
 -1      1554 3.49658E-01
 -1      1555 3.27527E-01
 -1      1556 4.70370E-01
 -1      1557 4.26408E-01
 -1      1558 3.96029E-01
 -1      1559 5.51230E-01
 -1      1560 5.09576E-01
 -1      1561 4.70370E-01
 -1      1562 6.24207E-01
 -1      1563 5.92885E-01
 -1      1564 5.51230E-01
 -1      1565 6.71909E-01
 -1      1566 6.55529E-01
 -1      1567 6.24207E-01
 -1      1568 8.93775E-01
 -1      1569 7.62263E-01
 -1      1570 7.45883E-01
 -1      1571 1.13231E+00
 -1      1572 9.89109E-01
 -1      1573 9.31571E-01
 -1      1574 1.36259E+00
 -1      1575 1.23772E+00
 -1      1576 1.13231E+00
 -1      1577 1.71411E+00
 -1      1578 1.48746E+00
 -1      1579 1.36259E+00
 -1      1580 2.22003E+00
 -1      1581 1.94075E+00
 -1      1582 1.71411E+00
 -1      1583 2.61429E+00
 -1      1584 2.49930E+00
 -1      1585 2.22003E+00
 -1      1586 3.31518E+00
 -1      1587 2.72928E+00
 -1      1588 2.61429E+00
 -1      1589 4.66464E+00
 -1      1590 3.90108E+00
 -1      1591 3.31518E+00
 -1      1592 6.97241E+00
 -1      1593 5.51489E+00
 -1      1594 4.75134E+00
 -1      1595 8.65472E+00
 -1      1596 8.34324E+00
 -1      1597 6.97241E+00
 -1      1598 8.96620E+00
 -1      1599 8.96620E+00
 -1      1600 8.65472E+00
 -1      1601 8.85537E+00
 -1      1602 8.91079E+00
 -1      1603 8.91079E+00
 -1      1604 4.69076E+00
 -1      1605 6.77307E+00
 -1      1606 6.77307E+00
 -1      1607 3.67646E+00
 -1      1608 1.23491E+00
 -1      1609 2.01470E+00
 -1      1610 1.69066E+00
 -1      1611 1.39242E+00
 -1      1612 1.52475E+00
 -1      1613 1.53434E+01
 -1      1614 3.18394E+00
 -1      1615 3.17555E+00
 -1      1616 2.60179E+01
 -1      1617 2.60179E+01
 -1      1618 1.53434E+01
 -1      1619 1.37347E+01
 -1      1620 1.88694E+01
 -1      1621 1.88694E+01
 -1      1622 1.89105E+01
 -1      1623 1.67015E+01
 -1      1624 2.97454E+01
 -1      1625 2.97454E+01
 -1      1626 1.96710E+01
 -1      1627 2.30812E+01
 -1      1628 2.89507E+01
 -1      1629 1.57355E+01
 -1      1630 1.63955E+01
 -1      1631 1.90110E+01
 -1      1632 1.60388E+01
 -1      1633 1.52626E+01
 -1      1634 1.52626E+01
 -1      1635 1.72878E+01
 -1      1636 1.72878E+01
 -1      1637 1.60388E+01
 -1      1638 1.70931E+01
 -1      1639 1.71904E+01
 -1      1640 1.71904E+01
 -1      1641 1.26955E+00
 -1      1642 9.40054E+00
 -1      1643 9.40054E+00
 -1      1644 1.19091E+00
 -1      1645 9.83950E-01
 -1      1646 1.42238E+00
 -1      1647 2.05850E+00
 -1      1648 1.45851E+00
 -1      1649 1.40439E+00
 -1      1650 2.71902E+00
 -1      1651 3.41226E+01
 -1      1652 3.41226E+01
 -1      1653 3.21964E+01
 -1      1654 3.24133E+01
 -1      1655 2.65364E+01
 -1      1656 3.01609E+01
 -1      1657 1.30765E+01
 -1      1658 1.87399E+01
 -1      1659 1.36206E+01
 -1      1660 1.36206E+01
 -1      1661 1.30840E+01
 -1      1662 1.34600E+01
 -1      1663 1.27512E+01
 -1      1664 1.30840E+01
 -1      1665 1.27882E+01
 -1      1666 1.26540E+01
 -1      1667 1.24713E+01
 -1      1668 1.24713E+01
 -1      1669 1.31386E+01
 -1      1670 1.22884E+01
 -1      1671 2.54764E+01
 -1      1672 1.41719E+01
 -1      1673 3.67810E+01
 -1      1674 3.67810E+01
 -1      1675 2.99268E+01
 -1      1676 3.59072E+01
 -1      1677 2.33085E+01
 -1      1678 2.40644E+01
 -1      1679 2.40141E+01
 -1      1680 2.41828E+01
 -1      1681 2.40141E+01
 -1      1682 2.40141E+01
 -1      1683 2.77897E+01
 -1      1684 2.28700E+01
 -1      1685 3.28105E+01
 -1      1686 3.28105E+01
 -1      1687 2.46892E+01
 -1      1688 2.95091E+01
 -1      1689 1.18847E+01
 -1      1690 1.75277E+01
 -1      1691 1.22900E+01
 -1      1692 1.18077E+01
 -1      1693 1.28494E+01
 -1      1694 1.28494E+01
 -1      1695 1.36580E+01
 -1      1696 1.31207E+01
 -1      1697 1.40814E+01
 -1      1698 1.40814E+01
 -1      1699 1.33181E+01
 -1      1700 1.36210E+01
 -1      1701 1.37785E+01
 -1      1702 1.27084E+01
 -1      1703 1.30161E+01
 -1      1704 2.01580E+01
 -1      1705 1.25614E+01
 -1      1706 3.09616E+01
 -1      1707 2.94288E+01
 -1      1708 3.01929E+01
 -1      1709 3.09616E+01
 -1      1710 3.41226E+01
 -1      1711 3.25196E+01
 -1      1712 3.32882E+01
 -1      1713 3.56149E+01
 -1      1714 3.67646E+00
 -1      1715 3.02900E+00
 -1      1716 1.62250E+01
 -1      1717 1.62250E+01
 -1      1718 1.57485E+01
 -1      1719 1.37347E+01
 -1      1720 2.50420E+01
 -1      1721 2.36637E+01
 -1      1722 3.39056E+01
 -1      1723 3.01609E+01
 -1      1724 2.14548E+01
 -1      1725 2.03289E+01
 -1      1726 1.30765E+01
 -1      1727 1.34600E+01
 -1      1728 1.32995E+01
 -1      1729 1.32023E+01
 -1      1730 1.27882E+01
 -1      1731 1.22884E+01
 -1      1732 1.31386E+01
 -1      1733 2.54764E+01
 -1      1734 3.59072E+01
 -1      1735 2.91709E+01
 -1      1736 2.41828E+01
 -1      1737 2.50571E+01
 -1      1738 2.39130E+01
 -1      1739 2.77897E+01
 -1      1740 2.95091E+01
 -1      1741 1.90462E+01
 -1      1742 1.18077E+01
 -1      1743 1.22900E+01
 -1      1744 1.31207E+01
 -1      1745 1.38154E+01
 -1      1746 1.25671E+01
 -1      1747 2.16909E+01
 -1      1748 3.09616E+01
 -1      1749 9.61008E+00
 -1      1750 1.30161E+01
 -1      1751 1.27780E+00
 -1      1752 1.67261E+00
 -1      1753 2.38917E+00
 -1      1754 4.27884E+00
 -1      1755 1.76353E+00
 -1      1756 8.82657E-01
 -1      1757 9.74873E-01
 -1      1758 7.79178E-01
 -1      1759 8.33791E-01
 -1      1760 7.43096E-01
 -1      1761 7.13814E-01
 -1      1762 7.47925E-01
 -1      1763 6.62976E-01
 -1      1764 6.71550E-01
 -1      1765 6.91712E-01
 -1      1766 6.09620E-01
 -1      1767 6.95027E-01
 -1      1768 6.73166E-01
 -1      1769 5.89133E-01
 -1      1770 7.50862E-01
 -1      1771 7.16917E-01
 -1      1772 6.12638E-01
 -1      1773 8.41222E-01
 -1      1774 7.84270E-01
 -1      1775 6.67936E-01
 -1      1776 9.84649E-01
 -1      1777 8.88850E-01
 -1      1778 7.48974E-01
 -1      1779 1.22996E+00
 -1      1780 1.05239E+00
 -1      1781 8.64344E-01
 -1      1782 1.71076E+00
 -1      1783 1.34415E+00
 -1      1784 1.04628E+00
 -1      1785 2.63015E+00
 -1      1786 1.79520E+00
 -1      1787 1.24491E+00
 -1      1788 8.11931E+00
 -1      1789 3.06559E+00
 -1      1790 1.76478E+00
 -1      1791 2.79735E+00
 -1      1792 5.19746E+00
 -1      1793 2.16313E+00
 -1      1794 2.65403E+00
 -1      1795 2.05690E+00
 -1      1796 1.40586E+01
 -1      1797 1.43607E+01
 -1      1798 3.39872E+00
 -1      1799 2.53423E+00
 -1      1800 1.91938E+00
 -1      1801 1.68841E+00
 -1      1802 1.35628E+00
 -1      1803 1.49734E+00
 -1      1804 1.17602E+00
 -1      1805 9.65119E-01
 -1      1806 1.08611E+00
 -1      1807 8.39454E-01
 -1      1808 7.14544E-01
 -1      1809 7.80180E-01
 -1      1810 6.56057E-01
 -1      1811 5.66044E-01
 -1      1812 5.96028E-01
 -1      1813 5.17322E-01
 -1      1814 4.53378E-01
 -1      1815 4.88818E-01
 -1      1816 4.10380E-01
 -1      1817 3.60136E-01
 -1      1818 3.97098E-01
 -1      1819 3.27170E-01
 -1      1820 2.87936E-01
 -1      1821 3.21135E-01
 -1      1822 2.60045E-01
 -1      1823 2.31403E-01
 -1      1824 2.60278E-01
 -1      1825 2.07367E-01
 -1      1826 1.82973E-01
 -1      1827 2.08351E-01
 -1      1828 1.65194E-01
 -1      1829 1.44958E-01
 -1      1830 1.66536E-01
 -1      1831 1.30073E-01
 -1      1832 1.13679E-01
 -1      1833 1.33872E-01
 -1      1834 1.01182E-01
 -1      1835 8.82102E-02
 -1      1836 1.06490E-01
 -1      1837 7.80098E-02
 -1      1838 6.80077E-02
 -1      1839 8.37934E-02
 -1      1840 5.99012E-02
 -1      1841 5.24281E-02
 -1      1842 6.54865E-02
 -1      1843 4.61577E-02
 -1      1844 4.08056E-02
 -1      1845 5.11097E-02
 -1      1846 3.60905E-02
 -1      1847 3.24933E-02
 -1      1848 4.01243E-02
 -1      1849 2.90457E-02
 -1      1850 2.68789E-02
 -1      1851 3.19616E-02
 -1      1852 2.44091E-02
 -1      1853 2.50014E-02
 -1      1854 2.60443E-02
 -1      1855 2.58867E-02
 -1      1856 2.86039E-02
 -1      1857 2.44598E-02
 -1      1858 3.05373E-02
 -1      1859 3.54530E-02
 -1      1860 2.72786E-02
 -1      1861 3.86023E-02
 -1      1862 4.46110E-02
 -1      1863 3.23613E-02
 -1      1864 5.05609E-02
 -1      1865 5.75158E-02
 -1      1866 4.14604E-02
 -1      1867 6.60472E-02
 -1      1868 7.62251E-02
 -1      1869 5.59417E-02
 -1      1870 8.79771E-02
 -1      1871 1.02933E-01
 -1      1872 7.62251E-02
 -1      1873 1.21816E-01
 -1      1874 1.40270E-01
 -1      1875 1.06860E-01
 -1      1876 1.65779E-01
 -1      1877 1.87803E-01
 -1      1878 1.51252E-01
 -1      1879 2.20041E-01
 -1      1880 2.48613E-01
 -1      1881 2.09000E-01
 -1      1882 2.88062E-01
 -1      1883 3.33043E-01
 -1      1884 2.80687E-01
 -1      1885 3.79444E-01
 -1      1886 4.33625E-01
 -1      1887 3.66538E-01
 -1      1888 4.85420E-01
 -1      1889 5.46265E-01
 -1      1890 4.64734E-01
 -1      1891 5.99815E-01
 -1      1892 6.62674E-01
 -1      1893 5.70079E-01
 -1      1894 7.11300E-01
 -1      1895 7.71264E-01
 -1      1896 6.72255E-01
 -1      1897 8.25411E-01
 -1      1898 9.08810E-01
 -1      1899 7.75028E-01
 -1      1900 9.70021E-01
 -1      1901 1.08241E+00
 -1      1902 8.90386E-01
 -1      1903 1.12372E+00
 -1      1904 1.21237E+00
 -1      1905 9.92910E-01
 -1      1906 1.19658E+00
 -1      1907 1.21726E+00
 -1      1908 1.01843E+00
 -1      1909 1.18690E+00
 -1      1910 1.33297E+00
 -1      1911 9.72286E-01
 -1      1912 1.25978E+00
 -1      1913 1.27844E+00
 -1      1914 8.68740E-01
 -1      1915 1.65544E+00
 -1      1916 2.02254E+00
 -1      1917 1.17255E+00
 -1      1918 2.62426E+00
 -1      1919 3.33253E+00
 -1      1920 2.15128E+00
 -1      1921 3.77331E+00
 -1      1922 4.86229E+00
 -1      1923 3.19379E+00
 -1      1924 5.28406E+00
 -1      1925 6.03817E+00
 -1      1926 4.05635E+00
 -1      1927 6.14375E+00
 -1      1928 5.95140E+00
 -1      1929 4.58371E+00
 -1      1930 5.30507E+00
 -1      1931 4.70253E+00
 -1      1932 4.04296E+00
 -1      1933 4.31927E+00
 -1      1934 3.19808E+00
 -1      1935 3.01337E+00
 -1      1936 1.39766E+00
 -1      1937 1.77131E+00
 -1      1938 1.52177E+00
 -1      1939 1.01718E+00
 -1      1940 1.27779E+00
 -1      1941 1.01008E+00
 -1      1942 8.04289E-01
 -1      1943 9.23312E-01
 -1      1944 7.96330E-01
 -1      1945 6.37392E-01
 -1      1946 7.24767E-01
 -1      1947 6.22937E-01
 -1      1948 5.12119E-01
 -1      1949 5.83913E-01
 -1      1950 4.89935E-01
 -1      1951 4.18772E-01
 -1      1952 4.78672E-01
 -1      1953 4.03009E-01
 -1      1954 3.36694E-01
 -1      1955 3.86649E-01
 -1      1956 3.37439E-01
 -1      1957 2.71293E-01
 -1      1958 3.08694E-01
 -1      1959 2.77316E-01
 -1      1960 2.17089E-01
 -1      1961 2.48346E-01
 -1      1962 2.26369E-01
 -1      1963 1.72353E-01
 -1      1964 1.96926E-01
 -1      1965 1.83260E-01
 -1      1966 1.35127E-01
 -1      1967 1.55226E-01
 -1      1968 1.45971E-01
 -1      1969 1.04726E-01
 -1      1970 1.21108E-01
 -1      1971 1.14824E-01
 -1      1972 8.03108E-02
 -1      1973 9.33403E-02
 -1      1974 8.94191E-02
 -1      1975 6.12365E-02
 -1      1976 7.13095E-02
 -1      1977 6.90316E-02
 -1      1978 4.69155E-02
 -1      1979 5.44156E-02
 -1      1980 5.32094E-02
 -1      1981 3.66646E-02
 -1      1982 4.19365E-02
 -1      1983 4.14095E-02
 -1      1984 3.00145E-02
 -1      1985 3.33497E-02
 -1      1986 3.31157E-02
 -1      1987 2.72713E-02
 -1      1988 2.82203E-02
 -1      1989 2.80065E-02
 -1      1990 3.07239E-02
 -1      1991 2.79252E-02
 -1      1992 2.68661E-02
 -1      1993 3.74597E-02
 -1      1994 3.30955E-02
 -1      1995 2.98917E-02
 -1      1996 4.67811E-02
 -1      1997 4.08472E-02
 -1      1998 3.56509E-02
 -1      1999 5.87508E-02
 -1      2000 5.12496E-02
 -1      2001 4.35070E-02
 -1      2002 7.63333E-02
 -1      2003 6.73187E-02
 -1      2004 5.65435E-02
 -1      2005 9.78052E-02
 -1      2006 8.74454E-02
 -1      2007 7.62235E-02
 -1      2008 1.26598E-01
 -1      2009 1.11810E-01
 -1      2010 1.01340E-01
 -1      2011 1.69849E-01
 -1      2012 1.48088E-01
 -1      2013 1.36834E-01
 -1      2014 2.28676E-01
 -1      2015 2.02541E-01
 -1      2016 1.91017E-01
 -1      2017 3.00569E-01
 -1      2018 2.70310E-01
 -1      2019 2.65344E-01
 -1      2020 3.85280E-01
 -1      2021 3.51913E-01
 -1      2022 3.58323E-01
 -1      2023 4.81249E-01
 -1      2024 4.46114E-01
 -1      2025 4.70500E-01
 -1      2026 5.88714E-01
 -1      2027 5.49508E-01
 -1      2028 5.99593E-01
 -1      2029 7.00905E-01
 -1      2030 6.59251E-01
 -1      2031 7.38389E-01
 -1      2032 7.95190E-01
 -1      2033 7.63868E-01
 -1      2034 8.71888E-01
 -1      2035 9.51620E-01
 -1      2036 8.61266E-01
 -1      2037 1.00093E+00
 -1      2038 1.08202E+00
 -1      2039 9.86683E-01
 -1      2040 1.10207E+00
 -1      2041 1.18743E+00
 -1      2042 1.08202E+00
 -1      2043 1.13713E+00
 -1      2044 1.27931E+00
 -1      2045 1.15444E+00
 -1      2046 1.10415E+00
 -1      2047 1.50011E+00
 -1      2048 1.27347E+00
 -1      2049 1.06532E+00
 -1      2050 1.82599E+00
 -1      2051 1.54671E+00
 -1      2052 1.10607E+00
 -1      2053 2.58404E+00
 -1      2054 2.46905E+00
 -1      2055 1.79573E+00
 -1      2056 3.94775E+00
 -1      2057 3.36185E+00
 -1      2058 3.21661E+00
 -1      2059 5.25422E+00
 -1      2060 4.40397E+00
 -1      2061 4.45064E+00
 -1      2062 6.77222E+00
 -1      2063 5.40140E+00
 -1      2064 5.05403E+00
 -1      2065 6.68080E+00
 -1      2066 6.36932E+00
 -1      2067 4.79830E+00
 -1      2068 6.67746E+00
 -1      2069 6.73287E+00
 -1      2070 4.44747E+00
 -1      2071 3.81154E+00
 -1      2072 5.89385E+00
 -1      2073 3.71593E+00
 -1      2074 2.14978E+00
 -1      2075 1.80259E+01
 -1      2076 7.35138E+00
 -1      2077 5.32135E+00
 -1      2078 3.82806E+00
 -1      2079 8.00390E+00
 -1      2080 2.38962E+00
 -1      2081 2.23211E+00
 -1      2082 3.01465E+00
 -1      2083 4.53542E+00
 -1      2084 1.08774E+01
 -1      2085 1.80259E+01
 -1      2086 1.00339E+01
 -1      2087 3.09115E+01
 -1      2088 1.37347E+01
 -1      2089 1.17209E+01
 -1      2090 1.43210E+01
 -1      2091 1.44183E+01
 -1      2092 4.23500E+00
 -1      2093 1.19276E+01
 -1      2094 9.15544E+00
 -1      2095 1.87575E+00
 -1      2096 2.16135E+00
 -1      2097 4.68837E+00
 -1      2098 2.24135E+01
 -1      2099 2.44489E+01
 -1      2100 2.92022E+01
 -1      2101 1.43607E+01
 -1      2102 1.48210E+01
 -1      2103 1.54032E+01
 -1      2104 2.11688E+01
 -1      2105 1.18981E+01
 -1      2106 1.03829E+00
 -1      2107 1.21371E+00
 -1      2108 9.82879E-01
 -1      2109 8.55375E-01
 -1      2110 1.26708E+01
 -1      2111 1.21266E+01
 -1      2112 1.32850E+01
 -1      2113 1.34456E+01
 -1      2114 1.32995E+01
 -1      2115 1.32995E+01
 -1      2116 1.31052E+01
 -1      2117 1.32023E+01
 -1      2118 1.20519E+01
 -1      2119 1.23688E+01
 -1      2120 1.02595E+01
 -1      2121 1.04424E+01
 -1      2122 1.03919E+01
 -1      2123 9.35867E+00
 -1      2124 2.50328E+01
 -1      2125 1.37282E+01
 -1      2126 9.94825E+00
 -1      2127 2.88187E+01
 -1      2128 2.96926E+01
 -1      2129 2.13513E+01
 -1      2130 2.72137E+01
 -1      2131 2.09992E+01
 -1      2132 2.52076E+01
 -1      2133 2.43333E+01
 -1      2134 2.52076E+01
 -1      2135 2.52076E+01
 -1      2136 2.21510E+01
 -1      2137 2.32952E+01
 -1      2138 2.71719E+01
 -1      2139 2.21510E+01
 -1      2140 2.20867E+01
 -1      2141 2.53881E+01
 -1      2142 1.12956E+01
 -1      2143 1.84571E+01
 -1      2144 9.51583E+00
 -1      2145 9.59288E+00
 -1      2146 1.11946E+01
 -1      2147 1.06352E+01
 -1      2148 8.42043E+00
 -1      2149 1.27550E+01
 -1      2150 1.24837E+01
 -1      2151 1.40050E+01
 -1      2152 1.35816E+01
 -1      2153 1.29446E+01
 -1      2154 1.38693E+01
 -1      2155 1.40163E+01
 -1      2156 2.19370E+01
 -1      2157 1.41404E+01
 -1      2158 1.33473E+01
 -1      2159 1.53609E+01
 -1      2160 2.91012E+00
 -1      2161 2.10421E+00
 -1      2162 2.15106E+00
 -1      2163 1.30829E+01
 -1      2164 1.35557E+01
 -1      2165 2.33485E+01
 -1      2166 2.66240E+01
 -1      2167 3.56149E+01
 -1      2168 3.09115E+01
 -1      2169 1.50753E+01
 -1      2170 1.44931E+01
 -1      2171 1.42593E+01
 -1      2172 1.34760E+01
 -1      2173 1.63455E+01
 -1      2174 2.66240E+01
 -1      2175 3.32882E+01
 -1      2176 2.14336E+00
 -1      2177 3.56149E+01
 -1      2178 1.50542E+01
 -1      2179 1.08289E+01
 -1      2180 9.00377E+00
 -1      2181 1.80760E+01
 -1      2182 1.39550E+01
 -1      2183 1.03254E+01
 -1      2184 1.97495E+01
 -1      2185 2.15332E+01
 -1      2186 2.34456E+01
 -1      2187 2.23761E+01
 -1      2188 1.79444E+01
 -1      2189 8.71383E+00
 -1      2190 6.86790E+00
 -1      2191 5.96711E+00
 -1      2192 1.00230E+01
 -1      2193 1.23688E+01
 -1      2194 1.32023E+01
 -1      2195 1.32850E+01
 -1      2196 1.24958E+01
 -1      2197 2.53581E+01
 -1      2198 1.08846E+00
 -1      2199 1.48028E+00
 -1      2200 5.59022E-01
 -1      2201 5.90275E-01
 -1      2202 6.02206E-01
 -1      2203 6.51072E-01
 -1      2204 4.98252E-01
 -1      2205 5.11126E-01
 -1      2206 5.09510E-01
 -1      2207 5.46016E-01
 -1      2208 5.24127E-01
 -1      2209 4.44504E-01
 -1      2210 5.94286E-01
 -1      2211 5.60877E-01
 -1      2212 4.72366E-01
 -1      2213 6.53986E-01
 -1      2214 6.06357E-01
 -1      2215 4.99298E-01
 -1      2216 7.21727E-01
 -1      2217 6.53986E-01
 -1      2218 5.11370E-01
 -1      2219 8.85153E-01
 -1      2220 7.70956E-01
 -1      2221 5.60599E-01
 -1      2222 1.26538E+00
 -1      2223 1.03441E+00
 -1      2224 8.90202E-01
 -1      2225 1.01008E+00
 -1      2226 9.68587E-01
 -1      2227 1.67680E+00
 -1      2228 1.30091E+00
 -1      2229 8.37977E-01
 -1      2230 9.60235E-01
 -1      2231 9.83767E-01
 -1      2232 8.03503E-01
 -1      2233 7.51807E-01
 -1      2234 7.46679E-01
 -1      2235 6.21014E-01
 -1      2236 6.44337E-01
 -1      2237 5.64717E-01
 -1      2238 5.06230E-01
 -1      2239 5.31216E-01
 -1      2240 4.56745E-01
 -1      2241 4.08022E-01
 -1      2242 4.25434E-01
 -1      2243 3.80680E-01
 -1      2244 3.37682E-01
 -1      2245 3.48606E-01
 -1      2246 3.12447E-01
 -1      2247 2.79481E-01
 -1      2248 2.96029E-01
 -1      2249 2.55562E-01
 -1      2250 2.27670E-01
 -1      2251 2.46874E-01
 -1      2252 2.08280E-01
 -1      2253 1.84244E-01
 -1      2254 2.03564E-01
 -1      2255 1.67202E-01
 -1      2256 1.49423E-01
 -1      2257 1.67132E-01
 -1      2258 1.34558E-01
 -1      2259 1.19673E-01
 -1      2260 1.35224E-01
 -1      2261 1.07127E-01
 -1      2262 9.46302E-02
 -1      2263 1.07813E-01
 -1      2264 8.53836E-02
 -1      2265 7.51832E-02
 -1      2266 8.60201E-02
 -1      2267 6.74364E-02
 -1      2268 5.93299E-02
 -1      2269 6.90267E-02
 -1      2270 5.29763E-02
 -1      2271 4.67060E-02
 -1      2272 5.49263E-02
 -1      2273 4.15897E-02
 -1      2274 3.68746E-02
 -1      2275 4.34564E-02
 -1      2276 3.27868E-02
 -1      2277 2.93392E-02
 -1      2278 3.42522E-02
 -1      2279 2.60443E-02
 -1      2280 2.35745E-02
 -1      2281 2.68694E-02
 -1      2282 2.25212E-02
 -1      2283 2.34065E-02
 -1      2284 2.25212E-02
 -1      2285 2.30912E-02
 -1      2286 2.50246E-02
 -1      2287 2.11526E-02
 -1      2288 2.80070E-02
 -1      2289 3.11563E-02
 -1      2290 2.38196E-02
 -1      2291 3.55106E-02
 -1      2292 4.14604E-02
 -1      2293 3.11563E-02
 -1      2294 5.05930E-02
 -1      2295 5.91244E-02
 -1      2296 4.46431E-02
 -1      2297 7.19954E-02
 -1      2298 8.37474E-02
 -1      2299 6.66467E-02
 -1      2300 1.00638E-01
 -1      2301 1.19521E-01
 -1      2302 9.64082E-02
 -1      2303 1.41262E-01
 -1      2304 1.66771E-01
 -1      2305 1.35040E-01
 -1      2306 1.94140E-01
 -1      2307 2.26379E-01
 -1      2308 1.84150E-01
 -1      2309 2.59954E-01
 -1      2310 2.99403E-01
 -1      2311 2.45094E-01
 -1      2312 3.39338E-01
 -1      2313 3.85740E-01
 -1      2314 3.18605E-01
 -1      2315 4.31417E-01
 -1      2316 4.83211E-01
 -1      2317 4.04217E-01
 -1      2318 5.32757E-01
 -1      2319 5.86307E-01
 -1      2320 4.99440E-01
 -1      2321 6.35975E-01
 -1      2322 6.84601E-01
 -1      2323 5.98654E-01
 -1      2324 7.36689E-01
 -1      2325 7.90836E-01
 -1      2326 7.00409E-01
 -1      2327 8.32336E-01
 -1      2328 8.93548E-01
 -1      2329 7.93997E-01
 -1      2330 9.24762E-01
 -1      2331 9.66074E-01
 -1      2332 8.66712E-01
 -1      2333 1.00201E+00
 -1      2334 9.86223E-01
 -1      2335 9.33863E-01
 -1      2336 1.00393E+00
 -1      2337 9.73571E-01
 -1      2338 9.87508E-01
 -1      2339 1.06221E+00
 -1      2340 9.89024E-01
 -1      2341 1.09386E+00
 -1      2342 1.19422E+00
 -1      2343 1.57122E+00
 -1      2344 1.38769E+00
 -1      2345 1.83881E+00
 -1      2346 2.44054E+00
 -1      2347 1.86047E+00
 -1      2348 2.89253E+00
 -1      2349 3.33331E+00
 -1      2350 2.58006E+00
 -1      2351 3.73747E+00
 -1      2352 4.15925E+00
 -1      2353 3.43621E+00
 -1      2354 5.64130E+00
 -1      2355 5.74688E+00
 -1      2356 5.32243E+00
 -1      2357 7.51352E+00
 -1      2358 6.86719E+00
 -1      2359 8.57111E+00
 -1      2360 3.66700E+00
 -1      2361 3.28374E+00
 -1      2362 7.13756E+00
 -1      2363 7.02459E-01
 -1      2364 7.96330E-01
 -1      2365 7.96330E-01
 -1      2366 5.43414E-01
 -1      2367 6.22937E-01
 -1      2368 6.22937E-01
 -1      2369 4.36456E-01
 -1      2370 4.89935E-01
 -1      2371 4.89935E-01
 -1      2372 3.69562E-01
 -1      2373 4.03009E-01
 -1      2374 4.03009E-01
 -1      2375 3.05316E-01
 -1      2376 3.37439E-01
 -1      2377 3.37439E-01
 -1      2378 2.49316E-01
 -1      2379 2.77316E-01
 -1      2380 2.77316E-01
 -1      2381 2.03828E-01
 -1      2382 2.26775E-01
 -1      2383 2.26775E-01
 -1      2384 1.63807E-01
 -1      2385 1.83969E-01
 -1      2386 1.84375E-01
 -1      2387 1.29673E-01
 -1      2388 1.46800E-01
 -1      2389 1.47509E-01
 -1      2390 1.03122E-01
 -1      2391 1.17141E-01
 -1      2392 1.17971E-01
 -1      2393 8.11641E-02
 -1      2394 9.25502E-02
 -1      2395 9.48671E-02
 -1      2396 6.33984E-02
 -1      2397 7.23997E-02
 -1      2398 7.55308E-02
 -1      2399 4.95004E-02
 -1      2400 5.63213E-02
 -1      2401 5.96894E-02
 -1      2402 3.89377E-02
 -1      2403 4.39166E-02
 -1      2404 4.70286E-02
 -1      2405 3.12967E-02
 -1      2406 3.46116E-02
 -1      2407 3.71187E-02
 -1      2408 2.61741E-02
 -1      2409 2.79683E-02
 -1      2410 2.94643E-02
 -1      2411 2.51951E-02
 -1      2412 2.45412E-02
 -1      2413 2.45030E-02
 -1      2414 2.79133E-02
 -1      2415 2.55417E-02
 -1      2416 2.32167E-02
 -1      2417 3.25964E-02
 -1      2418 2.92088E-02
 -1      2419 2.48588E-02
 -1      2420 4.15925E-02
 -1      2421 3.71240E-02
 -1      2422 3.06818E-02
 -1      2423 5.65435E-02
 -1      2424 4.79756E-02
 -1      2425 4.15925E-02
 -1      2426 7.94988E-02
 -1      2427 6.83867E-02
 -1      2428 5.98188E-02
 -1      2429 1.10184E-01
 -1      2430 9.61795E-02
 -1      2431 8.83427E-02
 -1      2432 1.53680E-01
 -1      2433 1.32190E-01
 -1      2434 1.27029E-01
 -1      2435 2.14800E-01
 -1      2436 1.82108E-01
 -1      2437 1.77463E-01
 -1      2438 2.92314E-01
 -1      2439 2.50680E-01
 -1      2440 2.41771E-01
 -1      2441 3.87741E-01
 -1      2442 3.36397E-01
 -1      2443 3.21733E-01
 -1      2444 5.00975E-01
 -1      2445 4.40142E-01
 -1      2446 4.18216E-01
 -1      2447 6.28875E-01
 -1      2448 5.60615E-01
 -1      2449 5.30257E-01
 -1      2450 7.63185E-01
 -1      2451 6.92649E-01
 -1      2452 6.53671E-01
 -1      2453 8.87849E-01
 -1      2454 8.24886E-01
 -1      2455 7.79146E-01
 -1      2456 1.01656E+00
 -1      2457 9.50480E-01
 -1      2458 9.03477E-01
 -1      2459 1.10207E+00
 -1      2460 1.06700E+00
 -1      2461 1.01656E+00
 -1      2462 1.13713E+00
 -1      2463 1.13713E+00
 -1      2464 1.10207E+00
 -1      2465 1.11612E+00
 -1      2466 1.14910E+00
 -1      2467 1.14910E+00
 -1      2468 1.09820E+00
 -1      2469 1.10405E+00
 -1      2470 1.14901E+00
 -1      2471 1.33675E+00
 -1      2472 1.29016E+00
 -1      2473 1.32889E+00
 -1      2474 2.22193E+00
 -1      2475 1.57886E+00
 -1      2476 1.76295E+00
 -1      2477 3.61959E+00
 -1      2478 2.84178E+00
 -1      2479 2.62491E+00
 -1      2480 4.62135E+00
 -1      2481 4.16514E+00
 -1      2482 3.79031E+00
 -1      2483 5.26400E+00
 -1      2484 5.11683E+00
 -1      2485 4.83133E+00
 -1      2486 5.64422E+00
 -1      2487 6.04712E+00
 -1      2488 6.10992E+00
 -1      2489 6.20314E+00
 -1      2490 6.15107E+00
 -1      2491 7.39989E+00
 -1      2492 3.79826E+00
 -1      2493 1.08774E+01
 -1      2494 1.15472E+01
 -1      2495 9.51714E+00
 -1      2496 4.27438E+00
 -1      2497 6.34803E+00
 -1      2498 2.62242E+00
 -1      2499 1.10826E+01
 -1      2500 1.34760E+01
 -1      2501 1.54032E+01
 -1      2502 1.06686E+01
 -1      2503 1.00925E+01
 -1      2504 8.80340E+00
 -1      2505 7.21230E+00
 -1      2506 8.91501E+00
 -1      2507 5.22457E-01
 -1      2508 5.44560E-01
 -1      2509 4.71859E-01
 -1      2510 4.44450E-01
 -1      2511 1.30828E+01
 -1      2512 1.31799E+01
 -1      2513 1.19557E+01
 -1      2514 1.26921E+01
 -1      2515 7.66003E+00
 -1      2516 9.26947E+00
 -1      2517 1.04226E+01
 -1      2518 7.08626E+00
 -1      2519 1.69304E+01
 -1      2520 1.22706E+01
 -1      2521 1.73818E+01
 -1      2522 1.89868E+01
 -1      2523 2.17982E+01
 -1      2524 1.88163E+01
 -1      2525 2.46710E+01
 -1      2526 2.65834E+01
 -1      2527 2.15332E+01
 -1      2528 2.15332E+01
 -1      2529 1.58469E+01
 -1      2530 1.76306E+01
 -1      2531 1.76306E+01
 -1      2532 7.26525E+00
 -1      2533 6.14587E+00
 -1      2534 1.34914E+01
 -1      2535 1.26648E+01
 -1      2536 2.65834E+01
 -1      2537 2.65834E+01
 -1      2538 1.62060E+00
 -1      2539 1.76392E+00
 -1      2540 1.32849E+00
 -1      2541 1.18730E+00
 -1      2542 1.63032E+01
 -1      2543 1.30604E+01
 -1      2544 1.31799E+01
 -1      2545 6.16092E-01
 -1      2546 7.56982E-01
 -1      2547 8.20395E-01
 -1      2548 1.24405E+00
 -1      2549 9.68725E-01
 -1      2550 8.96145E-01
 -1      2551 6.75642E+00
 -1      2552 6.00292E+00
 -1      2553 5.21079E+00
 -1      2554 5.50185E+00
 -1      2555 3.27605E+00
 -1      2556 4.93570E+00
 -1      2557 1.42593E+01
 -1      2558 1.37712E+01
 -1      2559 1.34914E+01
 -1      2560 6.52885E+00
 -1      2561 1.15472E+01
 -1      2562 1.15472E+01
 -1      2563 6.94030E+00
 -1      2564 1.06393E+01
 -1      2565 1.04836E+01
 -1      2566 6.05712E+00
 -1      2567 8.53392E+00
 -1      2568 1.31599E+01
 -1      2569 1.10411E+01
 -1      2570 9.14922E+00
 -1      2571 2.46710E+01
 -1      2572 2.30236E+01
 -1      2573 1.68039E+01
 -1      2574 6.44142E+00
 -1      2575 1.33130E+01
 -1      2576 9.40863E+00
 -1      2577 9.59278E+00
 -1      2578 1.26697E+01
 -1      2579 1.31655E+01
 -1      2580 1.16523E+01
 -1      2581 2.78088E+01
 -1      2582 1.30604E+01
 -1      2583 4.22918E-01
 -1      2584 4.08057E-01
 -1      2585 4.00075E-01
 -1      2586 3.87074E-01
 -1      2587 3.50628E-01
 -1      2588 4.36707E-01
 -1      2589 4.36707E-01
 -1      2590 4.74047E-01
 -1      2591 4.24818E-01
 -1      2592 3.50155E-01
 -1      2593 7.97751E-01
 -1      2594 6.03687E-01
 -1      2595 5.53040E-01
 -1      2596 7.16927E-01
 -1      2597 7.95312E-01
 -1      2598 1.54032E+01
 -1      2599 1.50753E+01
 -1      2600 1.17747E+01
 -1      2601 9.20237E+00
 -1      2602 5.48663E-01
 -1      2603 4.91839E-01
 -1      2604 4.00542E-01
 -1      2605 4.85132E-01
 -1      2606 4.28835E-01
 -1      2607 3.89458E-01
 -1      2608 4.08340E-01
 -1      2609 3.58855E-01
 -1      2610 3.62257E-01
 -1      2611 3.33949E-01
 -1      2612 3.06607E-01
 -1      2613 3.16856E-01
 -1      2614 2.81669E-01
 -1      2615 2.56434E-01
 -1      2616 2.67012E-01
 -1      2617 2.40852E-01
 -1      2618 2.16932E-01
 -1      2619 2.26492E-01
 -1      2620 2.00617E-01
 -1      2621 1.81227E-01
 -1      2622 1.94595E-01
 -1      2623 1.65684E-01
 -1      2624 1.48643E-01
 -1      2625 1.62738E-01
 -1      2626 1.34663E-01
 -1      2627 1.19797E-01
 -1      2628 1.33216E-01
 -1      2629 1.08019E-01
 -1      2630 9.54731E-02
 -1      2631 1.07458E-01
 -1      2632 8.60904E-02
 -1      2633 7.68439E-02
 -1      2634 8.62969E-02
 -1      2635 6.90267E-02
 -1      2636 6.12798E-02
 -1      2637 6.90970E-02
 -1      2638 5.49263E-02
 -1      2639 4.85727E-02
 -1      2640 5.49263E-02
 -1      2641 4.34564E-02
 -1      2642 3.83400E-02
 -1      2643 4.34564E-02
 -1      2644 3.42522E-02
 -1      2645 3.01643E-02
 -1      2646 3.42522E-02
 -1      2647 2.68602E-02
 -1      2648 2.35652E-02
 -1      2649 2.68602E-02
 -1      2650 2.13186E-02
 -1      2651 2.02654E-02
 -1      2652 2.13094E-02
 -1      2653 1.83665E-02
 -1      2654 1.80511E-02
 -1      2655 1.71639E-02
 -1      2656 1.97980E-02
 -1      2657 2.27805E-02
 -1      2658 1.70119E-02
 -1      2659 2.73831E-02
 -1      2660 3.17374E-02
 -1      2661 2.33615E-02
 -1      2662 3.97679E-02
 -1      2663 4.89004E-02
 -1      2664 3.59947E-02
 -1      2665 5.93831E-02
 -1      2666 7.22542E-02
 -1      2667 5.45079E-02
 -1      2668 8.58581E-02
 -1      2669 1.02749E-01
 -1      2670 7.85946E-02
 -1      2671 1.20198E-01
 -1      2672 1.41939E-01
 -1      2673 1.09648E-01
 -1      2674 1.63982E-01
 -1      2675 1.91351E-01
 -1      2676 1.49140E-01
 -1      2677 2.18708E-01
 -1      2678 2.52283E-01
 -1      2679 1.98540E-01
 -1      2680 2.85556E-01
 -1      2681 3.25491E-01
 -1      2682 2.59169E-01
 -1      2683 3.65034E-01
 -1      2684 4.10711E-01
 -1      2685 3.31985E-01
 -1      2686 4.57302E-01
 -1      2687 5.06847E-01
 -1      2688 4.18119E-01
 -1      2689 5.61268E-01
 -1      2690 6.10937E-01
 -1      2691 5.19130E-01
 -1      2692 6.69044E-01
 -1      2693 7.21131E-01
 -1      2694 6.31658E-01
 -1      2695 7.78124E-01
 -1      2696 8.19625E-01
 -1      2697 7.46758E-01
 -1      2698 8.66718E-01
 -1      2699 8.97932E-01
 -1      2700 8.50845E-01
 -1      2701 9.78310E-01
 -1      2702 1.01425E+00
 -1      2703 9.78316E-01
 -1      2704 1.12415E+00
 -1      2705 1.14186E+00
 -1      2706 1.16860E+00
 -1      2707 1.25481E+00
 -1      2708 1.34345E+00
 -1      2709 1.39146E+00
 -1      2710 1.49961E+00
 -1      2711 1.70480E+00
 -1      2712 1.66057E+00
 -1      2713 2.13921E+00
 -1      2714 2.40681E+00
 -1      2715 2.25113E+00
 -1      2716 2.81710E+00
 -1      2717 3.26909E+00
 -1      2718 3.09584E+00
 -1      2719 3.27116E+00
 -1      2720 3.67532E+00
 -1      2721 3.50820E+00
 -1      2722 5.00215E+00
 -1      2723 6.48421E+00
 -1      2724 4.83710E+00
 -1      2725 8.57111E+00
 -1      2726 1.03377E+01
 -1      2727 4.15666E-01
 -1      2728 4.69146E-01
 -1      2729 3.47781E-01
 -1      2730 3.81228E-01
 -1      2731 3.60438E-01
 -1      2732 8.28400E-01
 -1      2733 2.88395E-01
 -1      2734 3.20517E-01
 -1      2735 2.98736E-01
 -1      2736 2.40327E-01
 -1      2737 2.68327E-01
 -1      2738 2.51405E-01
 -1      2739 1.98976E-01
 -1      2740 2.21518E-01
 -1      2741 2.12528E-01
 -1      2742 1.62039E-01
 -1      2743 1.81898E-01
 -1      2744 1.76641E-01
 -1      2745 1.30939E-01
 -1      2746 1.47945E-01
 -1      2747 1.45469E-01
 -1      2748 1.05906E-01
 -1      2749 1.18438E-01
 -1      2750 1.18874E-01
 -1      2751 8.46407E-02
 -1      2752 9.52126E-02
 -1      2753 9.56800E-02
 -1      2754 6.69953E-02
 -1      2755 7.57597E-02
 -1      2756 7.61052E-02
 -1      2757 5.31105E-02
 -1      2758 6.01876E-02
 -1      2759 6.04164E-02
 -1      2760 4.20557E-02
 -1      2761 4.76395E-02
 -1      2762 4.81376E-02
 -1      2763 3.32102E-02
 -1      2764 3.75362E-02
 -1      2765 3.81472E-02
 -1      2766 2.61359E-02
 -1      2767 2.94643E-02
 -1      2768 2.98818E-02
 -1      2769 2.21736E-02
 -1      2770 2.38065E-02
 -1      2771 2.38065E-02
 -1      2772 2.11245E-02
 -1      2773 2.07779E-02
 -1      2774 2.00815E-02
 -1      2775 2.32706E-02
 -1      2776 2.19751E-02
 -1      2777 1.95364E-02
 -1      2778 3.06818E-02
 -1      2779 2.61542E-02
 -1      2780 2.32706E-02
 -1      2781 4.45598E-02
 -1      2782 3.81767E-02
 -1      2783 3.36491E-02
 -1      2784 6.69194E-02
 -1      2785 5.50762E-02
 -1      2786 5.16604E-02
 -1      2787 9.74781E-02
 -1      2788 8.07974E-02
 -1      2789 7.60549E-02
 -1      2790 1.37580E-01
 -1      2791 1.15574E-01
 -1      2792 1.08029E-01
 -1      2793 1.89250E-01
 -1      2794 1.60822E-01
 -1      2795 1.49368E-01
 -1      2796 2.54466E-01
 -1      2797 2.18587E-01
 -1      2798 2.01946E-01
 -1      2799 3.34857E-01
 -1      2800 2.90775E-01
 -1      2801 2.67591E-01
 -1      2802 4.31201E-01
 -1      2803 3.78799E-01
 -1      2804 3.47842E-01
 -1      2805 5.42622E-01
 -1      2806 4.82982E-01
 -1      2807 4.43566E-01
 -1      2808 6.65430E-01
 -1      2809 6.01655E-01
 -1      2810 5.54381E-01
 -1      2811 7.93849E-01
 -1      2812 7.32149E-01
 -1      2813 6.80133E-01
 -1      2814 9.27514E-01
 -1      2815 8.64884E-01
 -1      2816 8.17887E-01
 -1      2817 1.04268E+00
 -1      2818 9.92230E-01
 -1      2819 9.53637E-01
 -1      2820 1.13870E+00
 -1      2821 1.10364E+00
 -1      2822 1.07931E+00
 -1      2823 1.24675E+00
 -1      2824 1.23478E+00
 -1      2825 1.23635E+00
 -1      2826 1.36451E+00
 -1      2827 1.37658E+00
 -1      2828 1.46225E+00
 -1      2829 1.69162E+00
 -1      2830 1.49967E+00
 -1      2831 1.72724E+00
 -1      2832 2.29824E+00
 -1      2833 2.05613E+00
 -1      2834 2.22691E+00
 -1      2835 3.11573E+00
 -1      2836 2.49587E+00
 -1      2837 2.78906E+00
 -1      2838 4.32937E+00
 -1      2839 3.78383E+00
 -1      2840 3.65479E+00
 -1      2841 5.32681E+00
 -1      2842 4.83133E+00
 -1      2843 4.82485E+00
 -1      2844 6.89304E+00
 -1      2845 6.10992E+00
 -1      2846 6.10992E+00
 -1      2847 1.00929E+01
 -1      2848 9.58603E+00
 -1      2849 9.58603E+00
 -1      2850 1.26697E+01
 -1      2851 2.78088E+01
 -1      2852 2.78088E+01
 -1      2853 4.68778E+00
 -1      2854 5.75420E+00
 -1      2855 1.30604E+01
 -1      2856 6.53877E+00
 -1      2857 5.00062E+00
 -1      2858 7.43423E+00
 -1      2859 8.84460E+00
 -1      2860 5.03105E-01
 -1      2861 5.82627E-01
 -1      2862 4.28836E-01
 -1      2863 4.36707E-01
 -1      2864 4.24636E-01
 -1      2865 3.60327E-01
 -1      2866 3.62045E-01
 -1      2867 6.08319E-01
 -1      2868 7.02191E-01
 -1      2869 5.28916E-01
 -1      2870 4.88487E-01
 -1      2871 4.24373E-01
 -1      2872 4.36303E-01
 -1      2873 1.26697E+01
 -1      2874 1.22790E+01
 -1      2875 1.22467E+01
 -1      2876 1.01903E+01
 -1      2877 9.60917E+00
 -1      2878 7.76111E+00
 -1      2879 6.38522E+00
 -1      2880 5.26607E+00
 -1      2881 2.30236E+01
 -1      2882 1.82384E+01
 -1      2883 2.30236E+01
 -1      2884 1.28920E+01
 -1      2885 1.67946E+01
 -1      2886 1.88892E+01
 -1      2887 2.20270E+01
 -1      2888 1.61478E+01
 -1      2889 1.47133E+01
 -1      2890 1.15905E+01
 -1      2891 1.45872E+01
 -1      2892 1.17747E+01
 -1      2893 1.17747E+01
 -1      2894 3.42473E-01
 -1      2895 3.86901E-01
 -1      2896 3.99848E-01
 -1      2897 5.15459E+00
 -1      2898 7.67414E+00
 -1      2899 8.57449E+00
 -1      2900 2.20270E+01
 -1      2901 1.02050E+01
 -1      2902 1.02050E+01
 -1      2903 7.51195E+00
 -1      2904 7.51870E+00
 -1      2905 1.41506E+01
 -1      2906 9.57282E+00
 -1      2907 1.52657E+01
 -1      2908 1.31751E+01
 -1      2909 1.52657E+01
 -1      2910 1.43074E+01
 -1      2911 8.04953E+00
 -1      2912 4.07563E-01
 -1      2913 4.22025E-01
 -1      2914 3.60077E-01
 -1      2915 3.50014E-01
 -1      2916 7.60201E+00
 -1      2917 1.02889E+01
 -1      2918 9.45292E+00
 -1      2919 3.90185E-01
 -1      2920 4.64064E-01
 -1      2921 5.69973E-01
 -1      2922 5.76740E-01
 -1      2923 6.61509E+00
 -1      2924 6.58576E+00
 -1      2925 8.54278E+00
 -1      2926 1.32116E+01
 -1      2927 4.69770E+00
 -1      2928 4.40959E-01
 -1      2929 6.51015E-01
 -1      2930 6.15492E-01
 -1      2931 4.16725E-01
 -1      2932 6.06488E+00
 -1      2933 5.75266E-01
 -1      2934 2.89528E-01
 -1      2935 3.01417E-01
 -1      2936 4.37357E+00
 -1      2937 6.05360E+00
 -1      2938 5.15459E+00
 -1      2939 6.67037E+00
 -1      2940 4.59835E+00
 -1      2941 4.28551E+00
 -1      2942 8.25084E+00
 -1      2943 3.14664E-01
 -1      2944 3.07957E-01
 -1      2945 3.18565E-01
 -1      2946 2.98070E-01
 -1      2947 2.43771E-01
 -1      2948 2.94555E-01
 -1      2949 2.69648E-01
 -1      2950 2.50863E-01
 -1      2951 2.58660E-01
 -1      2952 2.33722E-01
 -1      2953 2.36358E-01
 -1      2954 2.19484E-01
 -1      2955 2.03902E-01
 -1      2956 2.11132E-01
 -1      2957 1.90646E-01
 -1      2958 1.74331E-01
 -1      2959 1.83638E-01
 -1      2960 1.63699E-01
 -1      2961 1.48156E-01
 -1      2962 1.59749E-01
 -1      2963 1.37006E-01
 -1      2964 1.23026E-01
 -1      2965 1.37967E-01
 -1      2966 1.12328E-01
 -1      2967 1.00550E-01
 -1      2968 1.16118E-01
 -1      2969 9.08400E-02
 -1      2970 8.14574E-02
 -1      2971 9.57105E-02
 -1      2972 7.29782E-02
 -1      2973 6.51610E-02
 -1      2974 7.75213E-02
 -1      2975 5.79601E-02
 -1      2976 5.16065E-02
 -1      2977 6.18412E-02
 -1      2978 4.56026E-02
 -1      2979 4.04863E-02
 -1      2980 4.86364E-02
 -1      2981 3.55175E-02
 -1      2982 3.14297E-02
 -1      2983 3.76637E-02
 -1      2984 2.72807E-02
 -1      2985 2.39765E-02
 -1      2986 2.85460E-02
 -1      2987 2.03937E-02
 -1      2988 1.81471E-02
 -1      2989 2.08142E-02
 -1      2990 1.54267E-02
 -1      2991 1.35278E-02
 -1      2992 1.45110E-02
 -1      2993 1.28401E-02
 -1      2994 1.45871E-02
 -1      2995 1.11030E-02
 -1      2996 1.87461E-02
 -1      2997 2.33487E-02
 -1      2998 1.45743E-02
 -1      2999 2.94806E-02
 -1      3000 3.75111E-02
 -1      3001 2.48651E-02
 -1      3002 4.60418E-02
 -1      3003 5.65245E-02
 -1      3004 3.95277E-02
 -1      3005 6.76461E-02
 -1      3006 8.12500E-02
 -1      3007 5.91800E-02
 -1      3008 9.60876E-02
 -1      3009 1.13537E-01
 -1      3010 8.51391E-02
 -1      3011 1.33062E-01
 -1      3012 1.55105E-01
 -1      3013 1.19502E-01
 -1      3014 1.79729E-01
 -1      3015 2.07086E-01
 -1      3016 1.63651E-01
 -1      3017 2.37448E-01
 -1      3018 2.70720E-01
 -1      3019 2.18637E-01
 -1      3020 3.07163E-01
 -1      3021 3.46707E-01
 -1      3022 2.85442E-01
 -1      3023 3.88995E-01
 -1      3024 4.35585E-01
 -1      3025 3.64173E-01
 -1      3026 4.82435E-01
 -1      3027 5.36856E-01
 -1      3028 4.53311E-01
 -1      3029 5.87351E-01
 -1      3030 6.45458E-01
 -1      3031 5.50656E-01
 -1      3032 7.18076E-01
 -1      3033 7.75070E-01
 -1      3034 6.73769E-01
 -1      3035 8.58455E-01
 -1      3036 9.05549E-01
 -1      3037 8.29773E-01
 -1      3038 1.00747E+00
 -1      3039 1.08785E+00
 -1      3040 1.01508E+00
 -1      3041 1.21791E+00
 -1      3042 1.32781E+00
 -1      3043 1.24707E+00
 -1      3044 1.55110E+00
 -1      3045 1.66406E+00
 -1      3046 1.60042E+00
 -1      3047 1.84296E+00
 -1      3048 1.99911E+00
 -1      3049 2.00260E+00
 -1      3050 2.38269E+00
 -1      3051 2.81711E+00
 -1      3052 2.56508E+00
 -1      3053 3.53310E+00
 -1      3054 3.94339E+00
 -1      3055 3.66465E+00
 -1      3056 3.93421E+00
 -1      3057 3.93628E+00
 -1      3058 3.05581E-01
 -1      3059 3.40020E-01
 -1      3060 1.90472E-01
 -1      3061 2.09281E-01
 -1      3062 1.60487E-01
 -1      3063 1.77566E-01
 -1      3064 1.74318E-01
 -1      3065 1.33472E-01
 -1      3066 1.47566E-01
 -1      3067 1.48491E-01
 -1      3068 1.08936E-01
 -1      3069 1.21437E-01
 -1      3070 1.23534E-01
 -1      3071 8.75532E-02
 -1      3072 9.82469E-02
 -1      3073 1.00810E-01
 -1      3074 6.94968E-02
 -1      3075 7.83778E-02
 -1      3076 8.09448E-02
 -1      3077 5.50141E-02
 -1      3078 6.18219E-02
 -1      3079 6.40945E-02
 -1      3080 4.32412E-02
 -1      3081 4.87122E-02
 -1      3082 5.01177E-02
 -1      3083 3.36277E-02
 -1      3084 3.81472E-02
 -1      3085 3.87217E-02
 -1      3086 2.61261E-02
 -1      3087 2.98720E-02
 -1      3088 2.98720E-02
 -1      3089 2.09105E-02
 -1      3090 2.32399E-02
 -1      3091 2.32301E-02
 -1      3092 1.70519E-02
 -1      3093 1.84476E-02
 -1      3094 1.78809E-02
 -1      3095 1.67692E-02
 -1      3096 1.59186E-02
 -1      3097 1.42847E-02
 -1      3098 2.21763E-02
 -1      3099 1.92927E-02
 -1      3100 1.56750E-02
 -1      3101 3.60375E-02
 -1      3102 2.85427E-02
 -1      3103 2.45648E-02
 -1      3104 5.47609E-02
 -1      3105 4.42444E-02
 -1      3106 3.91380E-02
 -1      3107 7.92742E-02
 -1      3108 6.53962E-02
 -1      3109 5.79802E-02
 -1      3110 1.11102E-01
 -1      3111 9.30055E-02
 -1      3112 8.23469E-02
 -1      3113 1.51920E-01
 -1      3114 1.28678E-01
 -1      3115 1.13654E-01
 -1      3116 2.03504E-01
 -1      3117 1.74168E-01
 -1      3118 1.53478E-01
 -1      3119 2.68273E-01
 -1      3120 2.31964E-01
 -1      3121 2.04186E-01
 -1      3122 3.50291E-01
 -1      3123 3.06349E-01
 -1      3124 2.70722E-01
 -1      3125 4.48113E-01
 -1      3126 3.96332E-01
 -1      3127 3.54839E-01
 -1      3128 5.60876E-01
 -1      3129 5.01843E-01
 -1      3130 4.54609E-01
 -1      3131 6.89808E-01
 -1      3132 6.23088E-01
 -1      3133 5.70551E-01
 -1      3134 8.39075E-01
 -1      3135 7.68041E-01
 -1      3136 7.10996E-01
 -1      3137 9.94021E-01
 -1      3138 9.29305E-01
 -1      3139 8.79459E-01
 -1      3140 1.15396E+00
 -1      3141 1.09300E+00
 -1      3142 1.06866E+00
 -1      3143 1.37814E+00
 -1      3144 1.28206E+00
 -1      3145 1.29575E+00
 -1      3146 1.66067E+00
 -1      3147 1.53084E+00
 -1      3148 1.57656E+00
 -1      3149 2.09166E+00
 -1      3150 1.95650E+00
 -1      3151 2.02509E+00
 -1      3152 2.79727E+00
 -1      3153 2.43276E+00
 -1      3154 2.66202E+00
 -1      3155 3.88991E+00
 -1      3156 3.69228E+00
 -1      3157 3.89813E+00
 -1      3158 5.26834E+00
 -1      3159 4.76638E+00
 -1      3160 7.29739E+00
 -1      3161 7.60201E+00
 -1      3162 3.49739E-01
 -1      3163 3.83698E-01
 -1      3164 2.94882E-01
 -1      3165 2.23459E-01
 -1      3166 2.43527E-01
 -1      3167 2.01403E-01
 -1      3168 2.02540E+01
 -1      3169 1.54688E+01
 -1      3170 3.35220E-01
 -1      3171 3.30843E-01
 -1      3172 2.49342E-01
 -1      3173 1.44722E+01
 -1      3174 2.02540E+01
 -1      3175 1.26993E+01
 -1      3176 8.01073E+00
 -1      3177 7.42961E+00
 -1      3178 1.09027E+01
 -1      3179 1.29973E+01
 -1      3180 5.58724E+00
 -1      3181 3.23422E-01
 -1      3182 3.15441E-01
 -1      3183 1.07587E+01
 -1      3184 8.29203E+00
 -1      3185 4.23237E-01
 -1      3186 2.61979E-01
 -1      3187 2.89242E-01
 -1      3188 2.68824E-01
 -1      3189 4.12924E-01
 -1      3190 3.10231E-01
 -1      3191 2.61493E-01
 -1      3192 3.98188E-01
 -1      3193 4.88828E+00
 -1      3194 4.44479E+00
 -1      3195 3.77669E+00
 -1      3196 6.26417E+00
 -1      3197 6.91999E+00
 -1      3198 9.52305E+00
 -1      3199 8.36974E+00
 -1      3200 5.73213E+00
 -1      3201 5.60607E+00
 -1      3202 6.84986E+00
 -1      3203 4.27422E+00
 -1      3204 2.84843E-01
 -1      3205 3.12048E-01
 -1      3206 3.11875E-01
 -1      3207 4.37146E+00
 -1      3208 2.34033E-01
 -1      3209 3.84822E+00
 -1      3210 5.17505E+00
 -1      3211 3.25140E-01
 -1      3212 3.23422E-01
 -1      3213 2.88235E-01
 -1      3214 1.24961E+01
 -1      3215 4.67991E+00
 -1      3216 6.72884E+00
 -1      3217 5.20987E+00
 -1      3218 1.34914E+01
 -1      3219 1.04941E+01
 -1      3220 7.19556E+00
 -1      3221 9.61199E+00
 -1      3222 3.23299E-01
 -1      3223 3.25647E-01
 -1      3224 3.22223E-01
 -1      3225 3.49984E-01
 -1      3226 2.85446E-01
 -1      3227 3.21285E-01
 -1      3228 3.21285E-01
 -1      3229 2.84380E-01
 -1      3230 2.60658E-01
 -1      3231 1.12243E+01
 -1      3232 7.17886E+00
 -1      3233 4.11432E-01
 -1      3234 3.41733E-01
 -1      3235 3.66065E-01
 -1      3236 3.91758E-01
 -1      3237 2.75766E-01
 -1      3238 2.86968E-01
 -1      3239 1.02461E+01
 -1      3240 1.02461E+01
 -1      3241 2.14097E-01
 -1      3242 2.10581E-01
 -1      3243 2.14427E-01
 -1      3244 2.03438E-01
 -1      3245 1.77661E-01
 -1      3246 1.99769E-01
 -1      3247 1.85532E-01
 -1      3248 1.77838E-01
 -1      3249 1.77651E-01
 -1      3250 1.64394E-01
 -1      3251 1.66288E-01
 -1      3252 1.54554E-01
 -1      3253 1.43922E-01
 -1      3254 1.48567E-01
 -1      3255 1.35675E-01
 -1      3256 1.24524E-01
 -1      3257 1.30480E-01
 -1      3258 1.16323E-01
 -1      3259 1.05625E-01
 -1      3260 1.14031E-01
 -1      3261 9.73685E-02
 -1      3262 8.76586E-02
 -1      3263 9.75734E-02
 -1      3264 7.99017E-02
 -1      3265 7.14225E-02
 -1      3266 8.15597E-02
 -1      3267 6.44665E-02
 -1      3268 5.72656E-02
 -1      3269 6.68469E-02
 -1      3270 5.12187E-02
 -1      3271 4.52148E-02
 -1      3272 5.38440E-02
 -1      3273 4.00622E-02
 -1      3274 3.50935E-02
 -1      3275 4.26445E-02
 -1      3276 3.07356E-02
 -1      3277 2.65867E-02
 -1      3278 3.31341E-02
 -1      3279 2.28640E-02
 -1      3280 1.92811E-02
 -1      3281 2.50536E-02
 -1      3282 1.59908E-02
 -1      3283 1.32705E-02
 -1      3284 1.80406E-02
 -1      3285 1.34358E-02
 -1      3286 1.27481E-02
 -1      3287 1.49156E-02
 -1      3288 1.41723E-02
 -1      3289 1.83313E-02
 -1      3290 1.65052E-02
 -1      3291 2.42793E-02
 -1      3292 3.04111E-02
 -1      3293 2.38773E-02
 -1      3294 3.81419E-02
 -1      3295 4.66726E-02
 -1      3296 3.75560E-02
 -1      3297 5.73833E-02
 -1      3298 6.85049E-02
 -1      3299 5.59975E-02
 -1      3300 8.25148E-02
 -1      3301 9.73524E-02
 -1      3302 8.07181E-02
 -1      3303 1.15371E-01
 -1      3304 1.34896E-01
 -1      3305 1.12747E-01
 -1      3306 1.57734E-01
 -1      3307 1.82358E-01
 -1      3308 1.53604E-01
 -1      3309 2.10844E-01
 -1      3310 2.41206E-01
 -1      3311 2.04927E-01
 -1      3312 2.76138E-01
 -1      3313 3.12581E-01
 -1      3314 2.68346E-01
 -1      3315 3.54639E-01
 -1      3316 3.96927E-01
 -1      3317 3.45336E-01
 -1      3318 4.46528E-01
 -1      3319 4.93378E-01
 -1      3320 4.36994E-01
 -1      3321 5.50416E-01
 -1      3322 6.00911E-01
 -1      3323 5.43633E-01
 -1      3324 6.64282E-01
 -1      3325 7.36901E-01
 -1      3326 6.64043E-01
 -1      3327 8.10061E-01
 -1      3328 8.93447E-01
 -1      3329 8.00575E-01
 -1      3330 1.00771E+00
 -1      3331 1.10964E+00
 -1      3332 9.88002E-01
 -1      3333 1.29727E+00
 -1      3334 1.42734E+00
 -1      3335 1.28991E+00
 -1      3336 1.73390E+00
 -1      3337 1.95719E+00
 -1      3338 1.78411E+00
 -1      3339 3.18549E+00
 -1      3340 3.36439E+00
 -1      3341 3.31898E+00
 -1      3342 4.58581E+00
 -1      3343 4.96939E+00
 -1      3344 5.76870E+00
 -1      3345 2.05471E-01
 -1      3346 2.23922E-01
 -1      3347 1.56164E-01
 -1      3348 1.69070E-01
 -1      3349 9.32660E-02
 -1      3350 1.03955E-01
 -1      3351 7.55132E-02
 -1      3352 8.46886E-02
 -1      3353 8.78344E-02
 -1      3354 6.02231E-02
 -1      3355 6.78980E-02
 -1      3356 7.16418E-02
 -1      3357 4.73749E-02
 -1      3358 5.36768E-02
 -1      3359 5.74803E-02
 -1      3360 3.67465E-02
 -1      3361 4.18405E-02
 -1      3362 4.53997E-02
 -1      3363 2.83457E-02
 -1      3364 3.21015E-02
 -1      3365 3.52202E-02
 -1      3366 2.15203E-02
 -1      3367 2.44065E-02
 -1      3368 2.66360E-02
 -1      3369 1.55976E-02
 -1      3370 1.80606E-02
 -1      3371 1.92370E-02
 -1      3372 1.27260E-02
 -1      3373 1.38593E-02
 -1      3374 1.40389E-02
 -1      3375 1.62316E-02
 -1      3376 1.37081E-02
 -1      3377 1.32827E-02
 -1      3378 2.80535E-02
 -1      3379 2.16871E-02
 -1      3380 1.97203E-02
 -1      3381 4.36829E-02
 -1      3382 3.54761E-02
 -1      3383 3.25984E-02
 -1      3384 6.40283E-02
 -1      3385 5.33930E-02
 -1      3386 4.97310E-02
 -1      3387 9.11167E-02
 -1      3388 7.73854E-02
 -1      3389 7.27982E-02
 -1      3390 1.26278E-01
 -1      3391 1.08702E-01
 -1      3392 1.03741E-01
 -1      3393 1.71188E-01
 -1      3394 1.48940E-01
 -1      3395 1.43988E-01
 -1      3396 2.28433E-01
 -1      3397 1.99973E-01
 -1      3398 1.95435E-01
 -1      3399 3.02518E-01
 -1      3400 2.64442E-01
 -1      3401 2.60229E-01
 -1      3402 3.92880E-01
 -1      3403 3.46840E-01
 -1      3404 3.40559E-01
 -1      3405 5.00201E-01
 -1      3406 4.46472E-01
 -1      3407 4.38473E-01
 -1      3408 6.25872E-01
 -1      3409 5.63660E-01
 -1      3410 5.55523E-01
 -1      3411 7.77192E-01
 -1      3412 6.98958E-01
 -1      3413 6.92067E-01
 -1      3414 9.48189E-01
 -1      3415 8.57959E-01
 -1      3416 8.45922E-01
 -1      3417 1.15233E+00
 -1      3418 1.05335E+00
 -1      3419 1.03185E+00
 -1      3420 1.43386E+00
 -1      3421 1.30575E+00
 -1      3422 1.29044E+00
 -1      3423 1.86962E+00
 -1      3424 1.71692E+00
 -1      3425 1.72692E+00
 -1      3426 2.49006E+00
 -1      3427 2.19423E+00
 -1      3428 2.33459E+00
 -1      3429 3.00312E+00
 -1      3430 2.66202E+00
 -1      3431 2.83116E+00
 -1      3432 5.84535E+00
 -1      3433 3.23299E-01
 -1      3434 2.88869E-01
 -1      3435 3.15585E-01
 -1      3436 1.80874E-01
 -1      3437 1.95052E-01
 -1      3438 1.62720E-01
 -1      3439 2.45948E-01
 -1      3440 2.55666E-01
 -1      3441 5.61525E+00
 -1      3442 6.75476E+00
 -1      3443 6.75476E+00
 -1      3444 1.13223E-01
 -1      3445 1.25258E-01
 -1      3446 1.05679E-01
 -1      3447 2.05156E-01
 -1      3448 1.88977E-01
 -1      3449 1.34653E-01
 -1      3450 1.47575E-01
 -1      3451 1.42327E-01
 -1      3452 1.24342E-01
 -1      3453 1.87455E-01
 -1      3454 1.98063E-01
 -1      3455 1.43269E-01
 -1      3456 8.77118E+00
 -1      3457 1.02461E+01
 -1      3458 6.12664E+00
 -1      3459 5.84535E+00
 -1      3460 1.01992E+01
 -1      3461 9.99607E+00
 -1      3462 7.74607E+00
 -1      3463 2.30448E-01
 -1      3464 2.46787E-01
 -1      3465 2.07571E-01
 -1      3466 4.79313E+00
 -1      3467 5.52015E+00
 -1      3468 2.52112E-01
 -1      3469 2.48720E-01
 -1      3470 6.82489E+00
 -1      3471 4.80416E+00
 -1      3472 2.01885E-01
 -1      3473 1.84942E-01
 -1      3474 1.93020E-01
 -1      3475 2.41954E-01
 -1      3476 2.52112E-01
 -1      3477 2.52112E-01
 -1      3478 2.15989E-01
 -1      3479 7.79300E+00
 -1      3480 3.89813E+00
 -1      3481 3.89813E+00
 -1      3482 6.82489E+00
 -1      3483 6.99012E+00
 -1      3484 8.36974E+00
 -1      3485 7.39156E+00
 -1      3486 2.85160E-01
 -1      3487 7.31505E+00
 -1      3488 2.53012E-01
 -1      3489 2.53012E-01
 -1      3490 2.02155E-01
 -1      3491 2.22022E-01
 -1      3492 1.57781E-01
 -1      3493 2.73772E-01
 -1      3494 2.13407E-01
 -1      3495 5.76908E+00
 -1      3496 4.43557E+00
 -1      3497 3.54056E+00
 -1      3498 5.50449E+00
 -1      3499 2.00443E-01
 -1      3500 1.79740E-01
 -1      3501 1.41104E-01
 -1      3502 1.94013E-01
 -1      3503 2.24322E-01
 -1      3504 1.74531E-01
 -1      3505 1.60819E-01
 -1      3506 1.75178E-01
 -1      3507 1.81703E-01
 -1      3508 1.58370E-01
 -1      3509 1.54701E-01
 -1      3510 1.54388E-01
 -1      3511 1.46507E-01
 -1      3512 1.34920E-01
 -1      3513 1.42086E-01
 -1      3514 1.32246E-01
 -1      3515 1.30186E-01
 -1      3516 1.25614E-01
 -1      3517 1.17367E-01
 -1      3518 1.19133E-01
 -1      3519 1.09824E-01
 -1      3520 1.01622E-01
 -1      3521 1.04958E-01
 -1      3522 9.53492E-02
 -1      3523 8.70924E-02
 -1      3524 9.11415E-02
 -1      3525 8.07004E-02
 -1      3526 7.29435E-02
 -1      3527 7.84762E-02
 -1      3528 6.68440E-02
 -1      3529 5.98880E-02
 -1      3530 6.59847E-02
 -1      3531 5.43489E-02
 -1      3532 4.83020E-02
 -1      3533 5.43460E-02
 -1      3534 4.34422E-02
 -1      3535 3.82896E-02
 -1      3536 4.39470E-02
 -1      3537 3.41248E-02
 -1      3538 2.97670E-02
 -1      3539 3.49225E-02
 -1      3540 2.62329E-02
 -1      3541 2.25103E-02
 -1      3542 2.72237E-02
 -1      3543 1.95838E-02
 -1      3544 1.62934E-02
 -1      3545 2.07631E-02
 -1      3546 1.65455E-02
 -1      3547 1.67108E-02
 -1      3548 1.80887E-02
 -1      3549 1.79100E-02
 -1      3550 1.93342E-02
 -1      3551 1.95399E-02
 -1      3552 2.17840E-02
 -1      3553 2.77319E-02
 -1      3554 2.31888E-02
 -1      3555 3.43467E-02
 -1      3556 4.20775E-02
 -1      3557 3.22534E-02
 -1      3558 5.11331E-02
 -1      3559 6.18437E-02
 -1      3560 4.79237E-02
 -1      3561 7.36783E-02
 -1      3562 8.76883E-02
 -1      3563 6.88139E-02
 -1      3564 1.02987E-01
 -1      3565 1.21006E-01
 -1      3566 9.59469E-02
 -1      3567 1.40550E-01
 -1      3568 1.63388E-01
 -1      3569 1.30790E-01
 -1      3570 1.88072E-01
 -1      3571 2.16558E-01
 -1      3572 1.75019E-01
 -1      3573 2.47413E-01
 -1      3574 2.82345E-01
 -1      3575 2.30557E-01
 -1      3576 3.20603E-01
 -1      3577 3.62661E-01
 -1      3578 2.99670E-01
 -1      3579 4.09878E-01
 -1      3580 4.59478E-01
 -1      3581 3.85145E-01
 -1      3582 5.17747E-01
 -1      3583 5.74785E-01
 -1      3584 4.90630E-01
 -1      3585 6.47018E-01
 -1      3586 7.10390E-01
 -1      3587 6.21132E-01
 -1      3588 8.00575E-01
 -1      3589 8.73735E-01
 -1      3590 7.83550E-01
 -1      3591 9.88002E-01
 -1      3592 1.10227E+00
 -1      3593 9.88002E-01
 -1      3594 1.24235E+00
 -1      3595 1.42999E+00
 -1      3596 1.24235E+00
 -1      3597 1.74805E+00
 -1      3598 2.05461E+00
 -1      3599 1.70049E+00
 -1      3600 3.04939E+00
 -1      3601 4.27769E+00
 -1      3602 3.01332E+00
 -1      3603 5.76870E+00
 -1      3604 6.99012E+00
 -1      3605 6.99012E+00
 -1      3606 7.94782E-02
 -1      3607 8.80557E-02
 -1      3608 4.14254E-02
 -1      3609 4.69598E-02
 -1      3610 3.21625E-02
 -1      3611 3.68075E-02
 -1      3612 3.83676E-02
 -1      3613 2.42996E-02
 -1      3614 2.82388E-02
 -1      3615 2.98261E-02
 -1      3616 1.74743E-02
 -1      3617 2.09340E-02
 -1      3618 2.25369E-02
 -1      3619 1.43957E-02
 -1      3620 1.61341E-02
 -1      3621 1.78311E-02
 -1      3622 1.62747E-02
 -1      3623 1.52926E-02
 -1      3624 1.73877E-02
 -1      3625 2.40527E-02
 -1      3626 1.85972E-02
 -1      3627 2.06071E-02
 -1      3628 3.78009E-02
 -1      3629 3.03782E-02
 -1      3630 2.92552E-02
 -1      3631 5.63081E-02
 -1      3632 4.65981E-02
 -1      3633 4.43779E-02
 -1      3634 8.13760E-02
 -1      3635 6.80189E-02
 -1      3636 6.48859E-02
 -1      3637 1.14210E-01
 -1      3638 9.66244E-02
 -1      3639 9.18451E-02
 -1      3640 1.56508E-01
 -1      3641 1.33846E-01
 -1      3642 1.26730E-01
 -1      3643 2.10295E-01
 -1      3644 1.81510E-01
 -1      3645 1.71367E-01
 -1      3646 2.77803E-01
 -1      3647 2.41794E-01
 -1      3648 2.27869E-01
 -1      3649 3.61463E-01
 -1      3650 3.17141E-01
 -1      3651 2.98707E-01
 -1      3652 4.63896E-01
 -1      3653 4.10304E-01
 -1      3654 3.86886E-01
 -1      3655 5.87911E-01
 -1      3656 5.24453E-01
 -1      3657 4.96285E-01
 -1      3658 7.36403E-01
 -1      3659 6.63316E-01
 -1      3660 6.32247E-01
 -1      3661 9.11829E-01
 -1      3662 8.31061E-01
 -1      3663 8.02310E-01
 -1      3664 1.13702E+00
 -1      3665 1.03185E+00
 -1      3666 1.01699E+00
 -1      3667 1.44385E+00
 -1      3668 1.29044E+00
 -1      3669 1.29044E+00
 -1      3670 1.93770E+00
 -1      3671 1.65463E+00
 -1      3672 1.65463E+00
 -1      3673 2.66387E+00
 -1      3674 2.33926E+00
 -1      3675 2.26698E+00
 -1      3676 3.45154E+00
 -1      3677 3.27958E+00
 -1      3678 3.28425E+00
 -1      3679 3.98898E+00
 -1      3680 9.52793E-02
 -1      3681 1.04547E-01
 -1      3682 8.69231E-02
 -1      3683 2.46607E-01
 -1      3684 2.43183E-01
 -1      3685 2.53012E-01
 -1      3686 2.17154E-01
 -1      3687 2.49302E-01
 -1      3688 5.26834E+00
 -1      3689 1.45283E-01
 -1      3690 1.57086E-01
 -1      3691 1.86454E-01
 -1      3692 2.44957E-01
 -1      3693 2.48812E-01
 -1      3694 1.76315E-01
 -1      3695 1.75476E-01
 -1      3696 1.43275E-01
 -1      3697 1.49607E-01
 -1      3698 1.16871E-01
 -1      3699 1.32905E-01
 -1      3700 6.48469E+00
 -1      3701 6.48469E+00
 -1      3702 2.16571E-01
 -1      3703 2.10749E-01
 -1      3704 1.79478E-01
 -1      3705 1.73073E-01
 -1      3706 1.74567E-01
 -1      3707 6.48469E+00
 -1      3708 6.43776E+00
 -1      3709 6.50342E-02
 -1      3710 7.26494E-02
 -1      3711 7.28706E-02
 -1      3712 1.62944E-01
 -1      3713 1.73362E-01
 -1      3714 1.53180E-01
 -1      3715 1.45507E-01
 -1      3716 1.73045E-01
 -1      3717 1.48470E-01
 -1      3718 1.52316E-01
 -1      3719 1.07560E-01
 -1      3720 6.67980E+00
 -1      3721 6.29573E+00
 -1      3722 5.23515E-02
 -1      3723 5.88977E-02
 -1      3724 4.83771E-02
 -1      3725 1.41775E-01
 -1      3726 4.86924E+00
 -1      3727 1.85130E-01
 -1      3728 1.47455E-01
 -1      3729 1.85130E-01
 -1      3730 5.49911E+00
 -1      3731 2.12689E-01
 -1      3732 1.85714E-01
 -1      3733 1.85714E-01
 -1      3734 1.29179E-01
 -1      3735 5.41843E+00
 -1      3736 1.37360E-01
 -1      3737 1.31727E-01
 -1      3738 1.28771E-01
 -1      3739 5.17638E+00
 -1      3740 1.85714E-01
 -1      3741 1.86297E-01
 -1      3742 1.54273E-01
 -1      3743 1.55439E-01
 -1      3744 1.01195E-01
 -1      3745 1.11595E-01
 -1      3746 1.20990E-01
 -1      3747 5.99053E-02
 -1      3748 1.18661E-01
 -1      3749 1.14239E-01
 -1      3750 1.11541E-01
 -1      3751 1.04910E-01
 -1      3752 1.00016E-01
 -1      3753 1.00237E-01
 -1      3754 9.26939E-02
 -1      3755 9.26453E-02
 -1      3756 8.71193E-02
 -1      3757 8.08461E-02
 -1      3758 8.23984E-02
 -1      3759 7.50677E-02
 -1      3760 6.86756E-02
 -1      3761 7.10455E-02
 -1      3762 6.32969E-02
 -1      3763 5.71974E-02
 -1      3764 5.98883E-02
 -1      3765 5.25659E-02
 -1      3766 4.70267E-02
 -1      3767 4.98781E-02
 -1      3768 4.28414E-02
 -1      3769 3.79816E-02
 -1      3770 4.10614E-02
 -1      3771 3.43566E-02
 -1      3772 3.01918E-02
 -1      3773 3.32510E-02
 -1      3774 2.71325E-02
 -1      3775 2.35985E-02
 -1      3776 2.65667E-02
 -1      3777 2.20136E-02
 -1      3778 1.90871E-02
 -1      3779 2.19225E-02
 -1      3780 1.89855E-02
 -1      3781 1.92376E-02
 -1      3782 2.02360E-02
 -1      3783 2.01340E-02
 -1      3784 2.13331E-02
 -1      3785 2.10308E-02
 -1      3786 2.33456E-02
 -1      3787 2.57954E-02
 -1      3788 2.39397E-02
 -1      3789 2.92352E-02
 -1      3790 3.58500E-02
 -1      3791 2.93920E-02
 -1      3792 4.15194E-02
 -1      3793 5.05750E-02
 -1      3794 3.85013E-02
 -1      3795 5.93376E-02
 -1      3796 7.11722E-02
 -1      3797 5.29333E-02
 -1      3798 8.29463E-02
 -1      3799 9.82448E-02
 -1      3800 7.34700E-02
 -1      3801 1.13430E-01
 -1      3802 1.32975E-01
 -1      3803 1.00429E-01
 -1      3804 1.52369E-01
 -1      3805 1.77053E-01
 -1      3806 1.35009E-01
 -1      3807 2.01647E-01
 -1      3808 2.32502E-01
 -1      3809 1.78997E-01
 -1      3810 2.63590E-01
 -1      3811 3.01849E-01
 -1      3812 2.34680E-01
 -1      3813 3.41256E-01
 -1      3814 3.88473E-01
 -1      3815 3.05176E-01
 -1      3816 4.38991E-01
 -1      3817 4.97259E-01
 -1      3818 3.95102E-01
 -1      3819 5.63508E-01
 -1      3820 6.35742E-01
 -1      3821 5.11869E-01
 -1      3822 7.25669E-01
 -1      3823 8.15854E-01
 -1      3824 6.68046E-01
 -1      3825 9.43562E-01
 -1      3826 1.05783E+00
 -1      3827 8.85681E-01
 -1      3828 1.22919E+00
 -1      3829 1.36927E+00
 -1      3830 1.18475E+00
 -1      3831 1.87852E+00
 -1      3832 2.19658E+00
 -1      3833 1.86536E+00
 -1      3834 2.49215E+00
 -1      3835 3.48692E+00
 -1      3836 2.67018E+00
 -1      3837 1.79160E-01
 -1      3838 1.48885E-01
 -1      3839 1.06473E-01
 -1      3840 1.12527E-01
 -1      3841 1.16899E-01
 -1      3842 3.37861E-02
 -1      3843 3.84040E-02
 -1      3844 1.78031E-02
 -1      3845 1.91433E-02
 -1      3846 1.92015E-02
 -1      3847 1.83047E-02
 -1      3848 1.96169E-02
 -1      3849 2.30654E-02
 -1      3850 2.07429E-02
 -1      3851 2.16598E-02
 -1      3852 3.21370E-02
 -1      3853 2.58115E-02
 -1      3854 2.59473E-02
 -1      3855 4.79480E-02
 -1      3856 3.91508E-02
 -1      3857 3.57071E-02
 -1      3858 6.89056E-02
 -1      3859 5.71948E-02
 -1      3860 5.19678E-02
 -1      3861 9.62166E-02
 -1      3862 8.09682E-02
 -1      3863 7.32772E-02
 -1      3864 1.31412E-01
 -1      3865 1.11775E-01
 -1      3866 1.00899E-01
 -1      3867 1.76268E-01
 -1      3868 1.51266E-01
 -1      3869 1.36312E-01
 -1      3870 2.32879E-01
 -1      3871 2.01380E-01
 -1      3872 1.81279E-01
 -1      3873 3.03794E-01
 -1      3874 2.64455E-01
 -1      3875 2.37966E-01
 -1      3876 3.92312E-01
 -1      3877 3.43471E-01
 -1      3878 3.09220E-01
 -1      3879 5.03084E-01
 -1      3880 4.42527E-01
 -1      3881 3.99111E-01
 -1      3882 6.43250E-01
 -1      3883 5.67845E-01
 -1      3884 5.14087E-01
 -1      3885 8.24480E-01
 -1      3886 7.29821E-01
 -1      3887 6.65419E-01
 -1      3888 1.06498E+00
 -1      3889 9.44959E-01
 -1      3890 8.72470E-01
 -1      3891 1.39442E+00
 -1      3892 1.24100E+00
 -1      3893 1.16896E+00
 -1      3894 1.86541E+00
 -1      3895 1.65463E+00
 -1      3896 1.60520E+00
 -1      3897 2.49145E+00
 -1      3898 2.08989E+00
 -1      3899 2.08989E+00
 -1      3900 7.61957E-02
 -1      3901 8.34194E-02
 -1      3902 4.78022E+00
 -1      3903 2.62888E-02
 -1      3904 3.02124E-02
 -1      3905 3.02488E-02
 -1      3906 3.78682E+00
 -1      3907 5.27783E+00
 -1      3908 5.67927E+00
 -1      3909 3.26564E+00
 -1      3910 1.52925E-01
 -1      3911 1.75860E-01
 -1      3912 4.37096E+00
 -1      3913 1.48998E-01
 -1      3914 3.98820E+00
 -1      3915 3.98820E+00
 -1      3916 1.99159E-02
 -1      3917 2.32815E-02
 -1      3918 1.98879E-02
 -1      3919 6.41797E-02
 -1      3920 7.10085E-02
 -1      3921 6.75048E-02
 -1      3922 1.71413E-01
 -1      3923 1.18127E-01
 -1      3924 1.17814E-01
 -1      3925 9.54212E-02
 -1      3926 5.28117E-02
 -1      3927 5.89482E-02
 -1      3928 5.70861E-02
 -1      3929 4.28220E+00
 -1      3930 4.52425E+00
 -1      3931 4.25993E-02
 -1      3932 4.79910E-02
 -1      3933 4.70339E-02
 -1      3934 3.80178E-02
 -1      3935 1.26681E-01
 -1      3936 1.33236E-01
 -1      3937 1.27625E-01
 -1      3938 1.20511E-01
 -1      3939 9.56066E-02
 -1      3940 1.11172E-01
 -1      3941 1.26163E-01
 -1      3942 3.00951E+00
 -1      3943 3.81493E+00
 -1      3944 2.70961E+00
 -1      3945 1.02087E-01
 -1      3946 1.09136E-01
 -1      3947 9.13601E-02
 -1      3948 1.33715E-01
 -1      3949 1.35530E-01
 -1      3950 1.01867E-01
 -1      3951 3.02828E+00
 -1      3952 2.85119E+00
 -1      3953 3.64399E+00
 -1      3954 1.16024E-01
 -1      3955 2.36678E-02
 -1      3956 1.38307E-01
 -1      3957 1.32919E-01
 -1      3958 1.16325E-01
 -1      3959 1.18841E-01
 -1      3960 9.45199E-02
 -1      3961 1.33236E-01
 -1      3962 2.62674E+00
 -1      3963 1.28171E-01
 -1      3964 1.34029E-01
 -1      3965 1.16379E-01
 -1      3966 4.11067E+00
 -1      3967 3.21648E+00
 -1      3968 2.67966E+00
 -1      3969 2.92248E+00
 -1      3970 1.16748E-01
 -1      3971 1.24670E-01
 -1      3972 1.13192E-01
 -1      3973 8.44164E-02
 -1      3974 7.97441E-02
 -1      3975 7.65052E-02
 -1      3976 7.09306E-02
 -1      3977 6.82762E-02
 -1      3978 7.77450E-02
 -1      3979 7.19666E-02
 -1      3980 7.18517E-02
 -1      3981 6.11353E-02
 -1      3982 5.57565E-02
 -1      3983 6.78348E-02
 -1      3984 5.14506E-02
 -1      3985 4.68191E-02
 -1      3986 5.26976E-02
 -1      3987 4.25780E-02
 -1      3988 3.83927E-02
 -1      3989 4.41504E-02
 -1      3990 3.46470E-02
 -1      3991 3.10220E-02
 -1      3992 3.61636E-02
 -1      3993 2.78978E-02
 -1      3994 2.48385E-02
 -1      3995 2.92938E-02
 -1      3996 2.29267E-02
 -1      3997 2.13418E-02
 -1      3998 2.42578E-02
 -1      3999 2.03376E-02
 -1      4000 2.02360E-02
 -1      4001 2.13418E-02
 -1      4002 2.10308E-02
 -1      4003 2.19273E-02
 -1      4004 2.11324E-02
 -1      4005 2.39397E-02
 -1      4006 2.59522E-02
 -1      4007 2.39397E-02
 -1      4008 2.93851E-02
 -1      4009 3.28250E-02
 -1      4010 2.93851E-02
 -1      4011 3.83149E-02
 -1      4012 4.39843E-02
 -1      4013 3.83080E-02
 -1      4014 5.14629E-02
 -1      4015 6.02255E-02
 -1      4016 5.12765E-02
 -1      4017 7.00655E-02
 -1      4018 8.18396E-02
 -1      4019 6.85951E-02
 -1      4020 9.46479E-02
 -1      4021 1.09833E-01
 -1      4022 9.12433E-02
 -1      4023 1.26602E-01
 -1      4024 1.45996E-01
 -1      4025 1.20821E-01
 -1      4026 1.67248E-01
 -1      4027 1.91842E-01
 -1      4028 1.58841E-01
 -1      4029 2.18726E-01
 -1      4030 2.49815E-01
 -1      4031 2.06977E-01
 -1      4032 2.84008E-01
 -1      4033 3.23416E-01
 -1      4034 2.68054E-01
 -1      4035 3.67547E-01
 -1      4036 4.18065E-01
 -1      4037 3.46379E-01
 -1      4038 4.76436E-01
 -1      4039 5.42685E-01
 -1      4040 4.48881E-01
 -1      4041 6.22198E-01
 -1      4042 7.12125E-01
 -1      4043 5.86765E-01
 -1      4044 8.21426E-01
 -1      4045 9.49134E-01
 -1      4046 7.75578E-01
 -1      4047 1.08879E+00
 -1      4048 1.26015E+00
 -1      4049 1.02453E+00
 -1      4050 1.34125E+00
 -1      4051 1.85050E+00
 -1      4052 1.24528E+00
 -1      4053 2.41405E+00
 -1      4054 9.92186E-02
 -1      4055 9.45199E-02
 -1      4056 5.44291E-02
 -1      4057 5.96605E-02
 -1      4058 9.03791E-02
 -1      4059 9.12252E-02
 -1      4060 7.04918E-02
 -1      4061 7.56790E-02
 -1      4062 6.78348E-02
 -1      4063 2.01185E-02
 -1      4064 1.96169E-02
 -1      4065 4.04590E-02
 -1      4066 3.34453E-02
 -1      4067 5.63541E-02
 -1      4068 4.71072E-02
 -1      4069 4.48454E-02
 -1      4070 7.73097E-02
 -1      4071 6.52471E-02
 -1      4072 6.03866E-02
 -1      4073 1.04442E-01
 -1      4074 8.88831E-02
 -1      4075 8.08531E-02
 -1      4076 1.39055E-01
 -1      4077 1.19200E-01
 -1      4078 1.07185E-01
 -1      4079 1.82699E-01
 -1      4080 1.57587E-01
 -1      4081 1.40475E-01
 -1      4082 2.37295E-01
 -1      4083 2.05719E-01
 -1      4084 1.82027E-01
 -1      4085 3.05410E-01
 -1      4086 2.65733E-01
 -1      4087 2.33485E-01
 -1      4088 3.90821E-01
 -1      4089 3.40607E-01
 -1      4090 2.97120E-01
 -1      4091 4.99684E-01
 -1      4092 4.34923E-01
 -1      4093 3.76419E-01
 -1      4094 6.42993E-01
 -1      4095 5.56422E-01
 -1      4096 4.77258E-01
 -1      4097 8.42157E-01
 -1      4098 7.21678E-01
 -1      4099 6.12680E-01
 -1      4100 1.16163E+00
 -1      4101 9.85617E-01
 -1      4102 8.34825E-01
 -1      4103 1.68244E+00
 -1      4104 1.42222E+00
 -1      4105 1.23888E+00
 -1      4106 2.22925E+00
 -1      4107 2.00477E+00
 -1      4108 1.82180E+00
 -1      4109 2.59454E+00
 -1      4110 1.09136E-01
 -1      4111 1.16916E-01
 -1      4112 1.09859E-01
 -1      4113 1.10028E-01
 -1      4114 2.95465E-02
 -1      4115 3.31202E-02
 -1      4116 2.86694E-02
 -1      4117 2.59232E-02
 -1      4118 3.34213E-02
 -1      4119 2.32011E-02
 -1      4120 2.16598E-02
 -1      4121 2.16598E-02
 -1      4122 2.59232E-02
 -1      4123 2.34151E-02
 -1      4124 2.64223E-02
 -1      4125 2.92938E-02
 -1      4126 2.01717E-02
 -1      4127 2.09443E-02
 -1      4128 2.06732E-02
 -1      4129 2.41405E+00
 -1      4130 2.58731E+00
 -1      4131 1.11032E-01
 -1      4132 1.33236E-01
 -1      4133 8.91465E-02
 -1      4134 8.64486E-02
 -1      4135 7.76582E-02
 -1      4136 7.82370E-02
 -1      4137 8.38371E-02
 -1      4138 7.31949E-02
 -1      4139 1.32069E-01
 -1      4140 1.01652E-01
 -1      4141 1.01338E-01
 -1      4142 2.37461E+00
 -1      4143 5.01231E-02
 -1      4144 5.26976E-02
 -1      4145 4.53024E-02
 -1      4146 8.32946E-02
 -1      4147 8.03076E-02
 -1      4148 9.89756E-02
 -1      4149 2.36988E-02
 -1      4150 1.00006E-01
 -1      4151 1.02783E-01
 -1      4152 8.52792E-02
 -1      4153 3.61636E-02
 -1      4154 3.68659E-02
 -1      4155 4.10612E-02
 -1      4156 1.85050E+00
 -1      4157 7.35473E-02
 -1      4158 8.29358E-02
 -1      4159 8.75598E-02
 -1      4160 8.22665E-02
 -1      4161 8.22665E-02
 -1      4162 6.87243E-02
 -1      4163 2.47207E+00
 -1      4164 1.02854E-01
 -1      4165 8.78126E-02
 -1      4166 9.93524E-02
 -1      4167 1.26163E-01
 -1      4168 2.25937E+00
 -1      4169 7.64803E-02
 -1      4170 8.32946E-02
 -1      4171 7.86660E-02
 -1      4172 6.78348E-02
 -1      4173 5.70035E-02
 -1      4174 5.26976E-02
 -1      4175 4.83916E-02
 -1      4176 4.41504E-02
 -1      4177 3.99093E-02
 -1      4178 3.61636E-02
 -1      4179 3.24180E-02
 -1      4180 2.92938E-02
 -1      4181 2.61696E-02
 -1      4182 2.42578E-02
 -1      4183 2.17870E-02
 -1      4184 2.07828E-02
 -1      4185 2.02280E-02
 -1      4186 2.10229E-02
 -1      4187 2.25642E-02
 -1      4188 2.45766E-02
 -1      4189 2.72987E-02
 -1      4190 3.07317E-02
 -1      4191 3.55076E-02
 -1      4192 4.09975E-02
 -1      4193 4.76457E-02
 -1      4194 5.51244E-02
 -1      4195 6.40174E-02
 -1      4196 7.38573E-02
 -1      4197 8.54308E-02
 -1      4198 9.82390E-02
 -1      4199 1.12997E-01
 -1      4200 1.29766E-01
 -1      4201 1.48298E-01
 -1      4202 1.69550E-01
 -1      4203 1.92570E-01
 -1      4204 2.19454E-01
 -1      4205 2.47892E-01
 -1      4206 2.82085E-01
 -1      4207 3.17282E-01
 -1      4208 3.61413E-01
 -1      4209 4.05515E-01
 -1      4210 4.63886E-01
 -1      4211 5.20624E-01
 -1      4212 6.00136E-01
 -1      4213 6.78821E-01
 -1      4214 7.88122E-01
 -1      4215 9.31583E-01
 -1      4216 1.07123E+00
 -1      4217 1.33183E+00
 -1      4218 1.41293E+00
 -1      4219 1.93704E+00
 -1      4220 8.43756E-02
 -1      4221 8.22969E-02
 -1      4222 9.07716E-02
 -1      4223 8.75327E-02
 -1      4224 9.89756E-02
 -1      4225 8.99696E-02
 -1      4226 8.79374E-02
 -1      4227 1.07194E-01
 -1      4228 9.66869E-02
 -1      4229 8.31739E-02
 -1      4230 4.41504E-02
 -1      4231 7.66319E-02
 -1      4232 1.10028E-01
 -1      4233 1.10028E-01
 -1      4234 1.05125E-01
 -1      4235 7.63599E-02
 -1      4236 7.53002E-02
 -1      4237 1.07025E-01
 -1      4238 6.00771E-02
 -1      4239 8.32946E-02
 -1      4240 1.07194E-01
 -1      4241 9.89756E-02
 -1      4242 8.79232E-02
 -3
 9999
