    1C
    1UUSER                                                              
    1UDATE              27.october.2022                                 
    1UTIME              00:15:34                                        
    1UHOST                                                              
    1UPGM               CalculiX                                        
    1UVERSION           Version 2.17                             
    1UCOMPILETIME       Thu Jul 23 21:43:50 CEST 2020                    
    1UDIR                                                               
    1UDBN                                                               
    1UMAT    1SOLIDMATERIAL                                             
    2C                          4296                                     1
 -1         1 1.74644E+01 3.11379E+01 0.00000E+00
 -1         2 2.44366E+01 2.41379E+01 0.00000E+00
 -1         3 1.50000E+02 0.00000E+00 0.00000E+00
 -1         4 1.50000E+02 5.00000E+01 0.00000E+00
 -1         5 0.00000E+00 0.00000E+00 0.00000E+00
 -1         6 0.00000E+00 5.00000E+01 0.00000E+00
 -1         7 0.00000E+00 4.69500E+01 0.00000E+00
 -1         8 0.00000E+00 4.39000E+01 0.00000E+00
 -1         9 0.00000E+00 4.09000E+01 0.00000E+00
 -1        10 0.00000E+00 3.78500E+01 0.00000E+00
 -1        11 0.00000E+00 3.48000E+01 0.00000E+00
 -1        12 0.00000E+00 3.18000E+01 0.00000E+00
 -1        13 0.00000E+00 2.88000E+01 0.00000E+00
 -1        14 0.00000E+00 2.58000E+01 0.00000E+00
 -1        15 0.00000E+00 2.33000E+01 0.00000E+00
 -1        16 0.00000E+00 2.08000E+01 0.00000E+00
 -1        17 0.00000E+00 1.81500E+01 0.00000E+00
 -1        18 0.00000E+00 1.51500E+01 0.00000E+00
 -1        19 0.00000E+00 1.21000E+01 0.00000E+00
 -1        20 0.00000E+00 9.05000E+00 0.00000E+00
 -1        21 0.00000E+00 6.05000E+00 0.00000E+00
 -1        22 0.00000E+00 3.00000E+00 0.00000E+00
 -1        23 3.15000E+00 5.00000E+01 0.00000E+00
 -1        24 6.15000E+00 5.00000E+01 0.00000E+00
 -1        25 9.15000E+00 5.00000E+01 0.00000E+00
 -1        26 1.21500E+01 5.00000E+01 0.00000E+00
 -1        27 1.51500E+01 5.00000E+01 0.00000E+00
 -1        28 1.81500E+01 5.00000E+01 0.00000E+00
 -1        29 2.11500E+01 5.00000E+01 0.00000E+00
 -1        30 2.41500E+01 5.00000E+01 0.00000E+00
 -1        31 2.71500E+01 5.00000E+01 0.00000E+00
 -1        32 3.01500E+01 5.00000E+01 0.00000E+00
 -1        33 3.31500E+01 5.00000E+01 0.00000E+00
 -1        34 3.61500E+01 5.00000E+01 0.00000E+00
 -1        35 3.91500E+01 5.00000E+01 0.00000E+00
 -1        36 4.21500E+01 5.00000E+01 0.00000E+00
 -1        37 4.51500E+01 5.00000E+01 0.00000E+00
 -1        38 4.81500E+01 5.00000E+01 0.00000E+00
 -1        39 5.11500E+01 5.00000E+01 0.00000E+00
 -1        40 5.41500E+01 5.00000E+01 0.00000E+00
 -1        41 5.71500E+01 5.00000E+01 0.00000E+00
 -1        42 6.01500E+01 5.00000E+01 0.00000E+00
 -1        43 6.31500E+01 5.00000E+01 0.00000E+00
 -1        44 6.61500E+01 5.00000E+01 0.00000E+00
 -1        45 6.91500E+01 5.00000E+01 0.00000E+00
 -1        46 7.21500E+01 5.00000E+01 0.00000E+00
 -1        47 7.51500E+01 5.00000E+01 0.00000E+00
 -1        48 7.81500E+01 5.00000E+01 0.00000E+00
 -1        49 8.11500E+01 5.00000E+01 0.00000E+00
 -1        50 8.41500E+01 5.00000E+01 0.00000E+00
 -1        51 8.71500E+01 5.00000E+01 0.00000E+00
 -1        52 9.01500E+01 5.00000E+01 0.00000E+00
 -1        53 9.31500E+01 5.00000E+01 0.00000E+00
 -1        54 9.61500E+01 5.00000E+01 0.00000E+00
 -1        55 9.91500E+01 5.00000E+01 0.00000E+00
 -1        56 1.02150E+02 5.00000E+01 0.00000E+00
 -1        57 1.05150E+02 5.00000E+01 0.00000E+00
 -1        58 1.08150E+02 5.00000E+01 0.00000E+00
 -1        59 1.11150E+02 5.00000E+01 0.00000E+00
 -1        60 1.14150E+02 5.00000E+01 0.00000E+00
 -1        61 1.17150E+02 5.00000E+01 0.00000E+00
 -1        62 1.20150E+02 5.00000E+01 0.00000E+00
 -1        63 1.23150E+02 5.00000E+01 0.00000E+00
 -1        64 1.26150E+02 5.00000E+01 0.00000E+00
 -1        65 1.29150E+02 5.00000E+01 0.00000E+00
 -1        66 1.32150E+02 5.00000E+01 0.00000E+00
 -1        67 1.35150E+02 5.00000E+01 0.00000E+00
 -1        68 1.38150E+02 5.00000E+01 0.00000E+00
 -1        69 1.41150E+02 5.00000E+01 0.00000E+00
 -1        70 1.44150E+02 5.00000E+01 0.00000E+00
 -1        71 1.47150E+02 5.00000E+01 0.00000E+00
 -1        72 3.15000E+00 0.00000E+00 0.00000E+00
 -1        73 6.15000E+00 0.00000E+00 0.00000E+00
 -1        74 9.15000E+00 0.00000E+00 0.00000E+00
 -1        75 1.21500E+01 0.00000E+00 0.00000E+00
 -1        76 1.51500E+01 0.00000E+00 0.00000E+00
 -1        77 1.81500E+01 0.00000E+00 0.00000E+00
 -1        78 2.11500E+01 0.00000E+00 0.00000E+00
 -1        79 2.41500E+01 0.00000E+00 0.00000E+00
 -1        80 2.71500E+01 0.00000E+00 0.00000E+00
 -1        81 3.01500E+01 0.00000E+00 0.00000E+00
 -1        82 3.31500E+01 0.00000E+00 0.00000E+00
 -1        83 3.61500E+01 0.00000E+00 0.00000E+00
 -1        84 3.91500E+01 0.00000E+00 0.00000E+00
 -1        85 4.21500E+01 0.00000E+00 0.00000E+00
 -1        86 4.51500E+01 0.00000E+00 0.00000E+00
 -1        87 4.81500E+01 0.00000E+00 0.00000E+00
 -1        88 5.11500E+01 0.00000E+00 0.00000E+00
 -1        89 5.41500E+01 0.00000E+00 0.00000E+00
 -1        90 5.71500E+01 0.00000E+00 0.00000E+00
 -1        91 6.01500E+01 0.00000E+00 0.00000E+00
 -1        92 6.31500E+01 0.00000E+00 0.00000E+00
 -1        93 6.61500E+01 0.00000E+00 0.00000E+00
 -1        94 6.91500E+01 0.00000E+00 0.00000E+00
 -1        95 7.21500E+01 0.00000E+00 0.00000E+00
 -1        96 7.51500E+01 0.00000E+00 0.00000E+00
 -1        97 7.81500E+01 0.00000E+00 0.00000E+00
 -1        98 8.11500E+01 0.00000E+00 0.00000E+00
 -1        99 8.41500E+01 0.00000E+00 0.00000E+00
 -1       100 8.71500E+01 0.00000E+00 0.00000E+00
 -1       101 9.01500E+01 0.00000E+00 0.00000E+00
 -1       102 9.31500E+01 0.00000E+00 0.00000E+00
 -1       103 9.61500E+01 0.00000E+00 0.00000E+00
 -1       104 9.91500E+01 0.00000E+00 0.00000E+00
 -1       105 1.02150E+02 0.00000E+00 0.00000E+00
 -1       106 1.05150E+02 0.00000E+00 0.00000E+00
 -1       107 1.08150E+02 0.00000E+00 0.00000E+00
 -1       108 1.11150E+02 0.00000E+00 0.00000E+00
 -1       109 1.14150E+02 0.00000E+00 0.00000E+00
 -1       110 1.17150E+02 0.00000E+00 0.00000E+00
 -1       111 1.20150E+02 0.00000E+00 0.00000E+00
 -1       112 1.23150E+02 0.00000E+00 0.00000E+00
 -1       113 1.26150E+02 0.00000E+00 0.00000E+00
 -1       114 1.29150E+02 0.00000E+00 0.00000E+00
 -1       115 1.32150E+02 0.00000E+00 0.00000E+00
 -1       116 1.35150E+02 0.00000E+00 0.00000E+00
 -1       117 1.38150E+02 0.00000E+00 0.00000E+00
 -1       118 1.41150E+02 0.00000E+00 0.00000E+00
 -1       119 1.44150E+02 0.00000E+00 0.00000E+00
 -1       120 1.47150E+02 0.00000E+00 0.00000E+00
 -1       121 1.50000E+02 2.95000E+00 0.00000E+00
 -1       122 1.50000E+02 5.90000E+00 0.00000E+00
 -1       123 1.50000E+02 8.85000E+00 0.00000E+00
 -1       124 1.50000E+02 1.18000E+01 0.00000E+00
 -1       125 1.50000E+02 1.47500E+01 0.00000E+00
 -1       126 1.50000E+02 1.76500E+01 0.00000E+00
 -1       127 1.50000E+02 2.06000E+01 0.00000E+00
 -1       128 1.50000E+02 2.35500E+01 0.00000E+00
 -1       129 1.50000E+02 2.65000E+01 0.00000E+00
 -1       130 1.50000E+02 2.94500E+01 0.00000E+00
 -1       131 1.50000E+02 3.24000E+01 0.00000E+00
 -1       132 1.50000E+02 3.53000E+01 0.00000E+00
 -1       133 1.50000E+02 3.82500E+01 0.00000E+00
 -1       134 1.50000E+02 4.12000E+01 0.00000E+00
 -1       135 1.50000E+02 4.41500E+01 0.00000E+00
 -1       136 1.50000E+02 4.71000E+01 0.00000E+00
 -1       137 2.42800E+01 2.26654E+01 0.00000E+00
 -1       138 2.38398E+01 2.13095E+01 0.00000E+00
 -1       139 2.30052E+01 1.98964E+01 0.00000E+00
 -1       140 2.19804E+01 1.88130E+01 0.00000E+00
 -1       141 2.07428E+01 1.79679E+01 0.00000E+00
 -1       142 1.93565E+01 1.74063E+01 0.00000E+00
 -1       143 1.79235E+01 1.71549E+01 0.00000E+00
 -1       144 1.64494E+01 1.72079E+01 0.00000E+00
 -1       145 1.50207E+01 1.75680E+01 0.00000E+00
 -1       146 1.35310E+01 1.83288E+01 0.00000E+00
 -1       147 1.24180E+01 1.92580E+01 0.00000E+00
 -1       148 1.15035E+01 2.04234E+01 0.00000E+00
 -1       149 1.08710E+01 2.17104E+01 0.00000E+00
 -1       150 1.05087E+01 2.31358E+01 0.00000E+00
 -1       151 1.04508E+01 2.45838E+01 0.00000E+00
 -1       152 1.07611E+01 2.62445E+01 0.00000E+00
 -1       153 1.13233E+01 2.75479E+01 0.00000E+00
 -1       154 1.22058E+01 2.87897E+01 0.00000E+00
 -1       155 1.33139E+01 2.97950E+01 0.00000E+00
 -1       156 1.45502E+01 3.05151E+01 0.00000E+00
 -1       157 1.59252E+01 3.09728E+01 0.00000E+00
 -1       158 1.88175E+01 3.10004E+01 0.00000E+00
 -1       159 2.01456E+01 3.05925E+01 0.00000E+00
 -1       160 2.13111E+01 2.99679E+01 0.00000E+00
 -1       161 2.23435E+01 2.91302E+01 0.00000E+00
 -1       162 2.32012E+01 2.81090E+01 0.00000E+00
 -1       163 2.38933E+01 2.68418E+01 0.00000E+00
 -1       164 2.42867E+01 2.55787E+01 0.00000E+00
 -1       165 2.59800E+00 4.54250E+01 0.00000E+00
 -1       166 2.59800E+00 4.24250E+01 0.00000E+00
 -1       167 2.59800E+00 3.93750E+01 0.00000E+00
 -1       168 2.59800E+00 3.63250E+01 0.00000E+00
 -1       169 2.59800E+00 3.33250E+01 0.00000E+00
 -1       170 2.59800E+00 3.03250E+01 0.00000E+00
 -1       171 2.59800E+00 2.73250E+01 0.00000E+00
 -1       172 2.59800E+00 2.48250E+01 0.00000E+00
 -1       173 2.59800E+00 2.23250E+01 0.00000E+00
 -1       174 2.59800E+00 1.96750E+01 0.00000E+00
 -1       175 2.59800E+00 1.66750E+01 0.00000E+00
 -1       176 2.59800E+00 1.36250E+01 0.00000E+00
 -1       177 2.59800E+00 1.05750E+01 0.00000E+00
 -1       178 2.59800E+00 7.57500E+00 0.00000E+00
 -1       179 2.59800E+00 4.52500E+00 0.00000E+00
 -1       180 2.87400E+00 2.26250E+00 0.00000E+00
 -1       181 4.65000E+00 4.74020E+01 0.00000E+00
 -1       182 7.65000E+00 4.74020E+01 0.00000E+00
 -1       183 1.06500E+01 4.74020E+01 0.00000E+00
 -1       184 1.36500E+01 4.74020E+01 0.00000E+00
 -1       185 1.66500E+01 4.74020E+01 0.00000E+00
 -1       186 1.96500E+01 4.74020E+01 0.00000E+00
 -1       187 2.26500E+01 4.74020E+01 0.00000E+00
 -1       188 2.56500E+01 4.74020E+01 0.00000E+00
 -1       189 2.86500E+01 4.74020E+01 0.00000E+00
 -1       190 3.16500E+01 4.74020E+01 0.00000E+00
 -1       191 3.46500E+01 4.74020E+01 0.00000E+00
 -1       192 3.76500E+01 4.74020E+01 0.00000E+00
 -1       193 4.06500E+01 4.74020E+01 0.00000E+00
 -1       194 4.36500E+01 4.74020E+01 0.00000E+00
 -1       195 4.66500E+01 4.74020E+01 0.00000E+00
 -1       196 4.96500E+01 4.74020E+01 0.00000E+00
 -1       197 5.26500E+01 4.74020E+01 0.00000E+00
 -1       198 5.56500E+01 4.74020E+01 0.00000E+00
 -1       199 5.86500E+01 4.74020E+01 0.00000E+00
 -1       200 6.16500E+01 4.74020E+01 0.00000E+00
 -1       201 6.46500E+01 4.74020E+01 0.00000E+00
 -1       202 6.76500E+01 4.74020E+01 0.00000E+00
 -1       203 7.06500E+01 4.74020E+01 0.00000E+00
 -1       204 7.36500E+01 4.74020E+01 0.00000E+00
 -1       205 7.66500E+01 4.74020E+01 0.00000E+00
 -1       206 7.96500E+01 4.74020E+01 0.00000E+00
 -1       207 8.26500E+01 4.74020E+01 0.00000E+00
 -1       208 8.56500E+01 4.74020E+01 0.00000E+00
 -1       209 8.86500E+01 4.74020E+01 0.00000E+00
 -1       210 9.16500E+01 4.74020E+01 0.00000E+00
 -1       211 9.46500E+01 4.74020E+01 0.00000E+00
 -1       212 9.76500E+01 4.74020E+01 0.00000E+00
 -1       213 1.00650E+02 4.74020E+01 0.00000E+00
 -1       214 1.03650E+02 4.74020E+01 0.00000E+00
 -1       215 1.06650E+02 4.74020E+01 0.00000E+00
 -1       216 1.09650E+02 4.74020E+01 0.00000E+00
 -1       217 1.12650E+02 4.74020E+01 0.00000E+00
 -1       218 1.15650E+02 4.74020E+01 0.00000E+00
 -1       219 1.18650E+02 4.74020E+01 0.00000E+00
 -1       220 1.21650E+02 4.74020E+01 0.00000E+00
 -1       221 1.24650E+02 4.74020E+01 0.00000E+00
 -1       222 1.27650E+02 4.74020E+01 0.00000E+00
 -1       223 1.30650E+02 4.74020E+01 0.00000E+00
 -1       224 1.33650E+02 4.74020E+01 0.00000E+00
 -1       225 1.36650E+02 4.74020E+01 0.00000E+00
 -1       226 1.39650E+02 4.74020E+01 0.00000E+00
 -1       227 1.42650E+02 4.74020E+01 0.00000E+00
 -1       228 1.45650E+02 4.74020E+01 0.00000E+00
 -1       229 5.87400E+00 2.26250E+00 0.00000E+00
 -1       230 8.87400E+00 2.26250E+00 0.00000E+00
 -1       231 1.18740E+01 2.26250E+00 0.00000E+00
 -1       232 1.48740E+01 2.26250E+00 0.00000E+00
 -1       233 1.78740E+01 2.26250E+00 0.00000E+00
 -1       234 2.08740E+01 2.26250E+00 0.00000E+00
 -1       235 2.38740E+01 2.26250E+00 0.00000E+00
 -1       236 2.68740E+01 2.26250E+00 0.00000E+00
 -1       237 2.98740E+01 2.26250E+00 0.00000E+00
 -1       238 3.28740E+01 2.26250E+00 0.00000E+00
 -1       239 3.58740E+01 2.26250E+00 0.00000E+00
 -1       240 3.88740E+01 2.26250E+00 0.00000E+00
 -1       241 4.18740E+01 2.26250E+00 0.00000E+00
 -1       242 4.48740E+01 2.26250E+00 0.00000E+00
 -1       243 4.78740E+01 2.26250E+00 0.00000E+00
 -1       244 5.08740E+01 2.26250E+00 0.00000E+00
 -1       245 5.38740E+01 2.26250E+00 0.00000E+00
 -1       246 5.68740E+01 2.26250E+00 0.00000E+00
 -1       247 5.98740E+01 2.26250E+00 0.00000E+00
 -1       248 6.28740E+01 2.26250E+00 0.00000E+00
 -1       249 6.58740E+01 2.26250E+00 0.00000E+00
 -1       250 6.88740E+01 2.26250E+00 0.00000E+00
 -1       251 7.18740E+01 2.26250E+00 0.00000E+00
 -1       252 7.48740E+01 2.26250E+00 0.00000E+00
 -1       253 7.78740E+01 2.26250E+00 0.00000E+00
 -1       254 8.08740E+01 2.26250E+00 0.00000E+00
 -1       255 8.38740E+01 2.26250E+00 0.00000E+00
 -1       256 8.68740E+01 2.26250E+00 0.00000E+00
 -1       257 8.98740E+01 2.26250E+00 0.00000E+00
 -1       258 9.28740E+01 2.26250E+00 0.00000E+00
 -1       259 9.58740E+01 2.26250E+00 0.00000E+00
 -1       260 9.88740E+01 2.26250E+00 0.00000E+00
 -1       261 1.01874E+02 2.26250E+00 0.00000E+00
 -1       262 1.04874E+02 2.26250E+00 0.00000E+00
 -1       263 1.07874E+02 2.26250E+00 0.00000E+00
 -1       264 1.10874E+02 2.26250E+00 0.00000E+00
 -1       265 1.13874E+02 2.26250E+00 0.00000E+00
 -1       266 1.16874E+02 2.26250E+00 0.00000E+00
 -1       267 1.19874E+02 2.26250E+00 0.00000E+00
 -1       268 1.22874E+02 2.26250E+00 0.00000E+00
 -1       269 1.25874E+02 2.26250E+00 0.00000E+00
 -1       270 1.28874E+02 2.26250E+00 0.00000E+00
 -1       271 1.31874E+02 2.26250E+00 0.00000E+00
 -1       272 1.34874E+02 2.26250E+00 0.00000E+00
 -1       273 1.37874E+02 2.26250E+00 0.00000E+00
 -1       274 1.40874E+02 2.26250E+00 0.00000E+00
 -1       275 1.43874E+02 2.26250E+00 0.00000E+00
 -1       276 1.46874E+02 2.26250E+00 0.00000E+00
 -1       277 1.47402E+02 4.42500E+00 0.00000E+00
 -1       278 1.47402E+02 7.37500E+00 0.00000E+00
 -1       279 1.47402E+02 1.03250E+01 0.00000E+00
 -1       280 1.47402E+02 1.32750E+01 0.00000E+00
 -1       281 1.47402E+02 1.61750E+01 0.00000E+00
 -1       282 1.47402E+02 1.91250E+01 0.00000E+00
 -1       283 1.47402E+02 2.20750E+01 0.00000E+00
 -1       284 1.47402E+02 2.50250E+01 0.00000E+00
 -1       285 1.47402E+02 2.79750E+01 0.00000E+00
 -1       286 1.47402E+02 3.09250E+01 0.00000E+00
 -1       287 1.47402E+02 3.38250E+01 0.00000E+00
 -1       288 1.47402E+02 3.67750E+01 0.00000E+00
 -1       289 1.47402E+02 3.97250E+01 0.00000E+00
 -1       290 1.47402E+02 4.26750E+01 0.00000E+00
 -1       291 1.46526E+02 4.50385E+01 0.00000E+00
 -1       292 2.55639E+01 2.32734E+01 0.00000E+00
 -1       293 2.52130E+01 2.16131E+01 0.00000E+00
 -1       294 2.47550E+01 1.98160E+01 0.00000E+00
 -1       295 2.33735E+01 1.85215E+01 0.00000E+00
 -1       296 2.20926E+01 1.73201E+01 0.00000E+00
 -1       297 2.05363E+01 1.64858E+01 0.00000E+00
 -1       298 1.88496E+01 1.60865E+01 0.00000E+00
 -1       299 1.71429E+01 1.59698E+01 0.00000E+00
 -1       300 1.54182E+01 1.61311E+01 0.00000E+00
 -1       301 1.35720E+01 1.65702E+01 0.00000E+00
 -1       302 1.21975E+01 1.78627E+01 0.00000E+00
 -1       303 1.10069E+01 1.90922E+01 0.00000E+00
 -1       304 1.00991E+01 2.05322E+01 0.00000E+00
 -1       305 9.51482E+00 2.21244E+01 0.00000E+00
 -1       306 9.26833E+00 2.38114E+01 0.00000E+00
 -1       307 9.00239E+00 2.57138E+01 0.00000E+00
 -1       308 9.92899E+00 2.73764E+01 0.00000E+00
 -1       309 1.07080E+01 2.89196E+01 0.00000E+00
 -1       310 1.18888E+01 3.02523E+01 0.00000E+00
 -1       311 1.33219E+01 3.12027E+01 0.00000E+00
 -1       312 1.48548E+01 3.18943E+01 0.00000E+00
 -1       313 1.65566E+01 3.23441E+01 0.00000E+00
 -1       314 1.82635E+01 3.22753E+01 0.00000E+00
 -1       315 1.98867E+01 3.21156E+01 0.00000E+00
 -1       316 2.13010E+01 3.13488E+01 0.00000E+00
 -1       317 2.25912E+01 3.04905E+01 0.00000E+00
 -1       318 2.37007E+01 2.93994E+01 0.00000E+00
 -1       319 2.47584E+01 2.81369E+01 0.00000E+00
 -1       320 2.52476E+01 2.65708E+01 0.00000E+00
 -1       321 2.57342E+01 2.50011E+01 0.00000E+00
 -1       322 3.38220E+00 4.66086E+01 0.00000E+00
 -1       323 5.19600E+00 4.09000E+01 0.00000E+00
 -1       324 5.19600E+00 4.39000E+01 0.00000E+00
 -1       325 5.19600E+00 3.48250E+01 0.00000E+00
 -1       326 5.19600E+00 3.18250E+01 0.00000E+00
 -1       327 5.19600E+00 2.88250E+01 0.00000E+00
 -1       328 5.19600E+00 2.63250E+01 0.00000E+00
 -1       329 4.98339E+00 2.10000E+01 0.00000E+00
 -1       330 4.98339E+00 1.80000E+01 0.00000E+00
 -1       331 4.98339E+00 1.49500E+01 0.00000E+00
 -1       332 4.98339E+00 1.19000E+01 0.00000E+00
 -1       333 4.98339E+00 8.90000E+00 0.00000E+00
 -1       334 4.98339E+00 5.85000E+00 0.00000E+00
 -1       335 5.42870E+00 4.05625E+00 0.00000E+00
 -1       336 8.42870E+00 4.05625E+00 0.00000E+00
 -1       337 9.15000E+00 4.48040E+01 0.00000E+00
 -1       338 1.21500E+01 4.48040E+01 0.00000E+00
 -1       339 1.51500E+01 4.48040E+01 0.00000E+00
 -1       340 1.81500E+01 4.48040E+01 0.00000E+00
 -1       341 2.11500E+01 4.48040E+01 0.00000E+00
 -1       342 2.41500E+01 4.48040E+01 0.00000E+00
 -1       343 2.71500E+01 4.48040E+01 0.00000E+00
 -1       344 3.01500E+01 4.48040E+01 0.00000E+00
 -1       345 3.31500E+01 4.48040E+01 0.00000E+00
 -1       346 3.61500E+01 4.48040E+01 0.00000E+00
 -1       347 3.91500E+01 4.48040E+01 0.00000E+00
 -1       348 4.21500E+01 4.48040E+01 0.00000E+00
 -1       349 4.51500E+01 4.48040E+01 0.00000E+00
 -1       350 4.81500E+01 4.48040E+01 0.00000E+00
 -1       351 5.11500E+01 4.48040E+01 0.00000E+00
 -1       352 5.41500E+01 4.48040E+01 0.00000E+00
 -1       353 5.71500E+01 4.48040E+01 0.00000E+00
 -1       354 6.01500E+01 4.48040E+01 0.00000E+00
 -1       355 6.31500E+01 4.48040E+01 0.00000E+00
 -1       356 6.61500E+01 4.48040E+01 0.00000E+00
 -1       357 6.91500E+01 4.48040E+01 0.00000E+00
 -1       358 7.21500E+01 4.48040E+01 0.00000E+00
 -1       359 7.51500E+01 4.48040E+01 0.00000E+00
 -1       360 7.81500E+01 4.48040E+01 0.00000E+00
 -1       361 8.11500E+01 4.48040E+01 0.00000E+00
 -1       362 8.41500E+01 4.48040E+01 0.00000E+00
 -1       363 8.71500E+01 4.48040E+01 0.00000E+00
 -1       364 9.01500E+01 4.48040E+01 0.00000E+00
 -1       365 9.31500E+01 4.48040E+01 0.00000E+00
 -1       366 9.61500E+01 4.48040E+01 0.00000E+00
 -1       367 9.91500E+01 4.48040E+01 0.00000E+00
 -1       368 1.02150E+02 4.48040E+01 0.00000E+00
 -1       369 1.05150E+02 4.48040E+01 0.00000E+00
 -1       370 1.08150E+02 4.48040E+01 0.00000E+00
 -1       371 1.11150E+02 4.48040E+01 0.00000E+00
 -1       372 1.14150E+02 4.48040E+01 0.00000E+00
 -1       373 1.17150E+02 4.48040E+01 0.00000E+00
 -1       374 1.20150E+02 4.48040E+01 0.00000E+00
 -1       375 1.23150E+02 4.48040E+01 0.00000E+00
 -1       376 1.26150E+02 4.48040E+01 0.00000E+00
 -1       377 1.29150E+02 4.48040E+01 0.00000E+00
 -1       378 1.32150E+02 4.48040E+01 0.00000E+00
 -1       379 1.35150E+02 4.48040E+01 0.00000E+00
 -1       380 1.38150E+02 4.48040E+01 0.00000E+00
 -1       381 1.41150E+02 4.48040E+01 0.00000E+00
 -1       382 1.43838E+02 4.49212E+01 0.00000E+00
 -1       383 1.14287E+01 4.05625E+00 0.00000E+00
 -1       384 1.44287E+01 4.05625E+00 0.00000E+00
 -1       385 1.74287E+01 4.05625E+00 0.00000E+00
 -1       386 2.04287E+01 4.05625E+00 0.00000E+00
 -1       387 2.34287E+01 4.05625E+00 0.00000E+00
 -1       388 2.64287E+01 4.05625E+00 0.00000E+00
 -1       389 2.94287E+01 4.05625E+00 0.00000E+00
 -1       390 3.24287E+01 4.05625E+00 0.00000E+00
 -1       391 3.54287E+01 4.05625E+00 0.00000E+00
 -1       392 3.84287E+01 4.05625E+00 0.00000E+00
 -1       393 4.14287E+01 4.05625E+00 0.00000E+00
 -1       394 4.44287E+01 4.05625E+00 0.00000E+00
 -1       395 4.74287E+01 4.05625E+00 0.00000E+00
 -1       396 5.04287E+01 4.05625E+00 0.00000E+00
 -1       397 5.34287E+01 4.05625E+00 0.00000E+00
 -1       398 5.64287E+01 4.05625E+00 0.00000E+00
 -1       399 5.94287E+01 4.05625E+00 0.00000E+00
 -1       400 6.24287E+01 4.05625E+00 0.00000E+00
 -1       401 6.54287E+01 4.05625E+00 0.00000E+00
 -1       402 6.84287E+01 4.05625E+00 0.00000E+00
 -1       403 7.14287E+01 4.05625E+00 0.00000E+00
 -1       404 7.44287E+01 4.05625E+00 0.00000E+00
 -1       405 7.74287E+01 4.05625E+00 0.00000E+00
 -1       406 8.04287E+01 4.05625E+00 0.00000E+00
 -1       407 8.34287E+01 4.05625E+00 0.00000E+00
 -1       408 8.64287E+01 4.05625E+00 0.00000E+00
 -1       409 8.94287E+01 4.05625E+00 0.00000E+00
 -1       410 9.24287E+01 4.05625E+00 0.00000E+00
 -1       411 9.54287E+01 4.05625E+00 0.00000E+00
 -1       412 9.84287E+01 4.05625E+00 0.00000E+00
 -1       413 1.01429E+02 4.05625E+00 0.00000E+00
 -1       414 1.04429E+02 4.05625E+00 0.00000E+00
 -1       415 1.07429E+02 4.05625E+00 0.00000E+00
 -1       416 1.10429E+02 4.05625E+00 0.00000E+00
 -1       417 1.13429E+02 4.05625E+00 0.00000E+00
 -1       418 1.16429E+02 4.05625E+00 0.00000E+00
 -1       419 1.19429E+02 4.05625E+00 0.00000E+00
 -1       420 1.22429E+02 4.05625E+00 0.00000E+00
 -1       421 1.25429E+02 4.05625E+00 0.00000E+00
 -1       422 1.28429E+02 4.05625E+00 0.00000E+00
 -1       423 1.31429E+02 4.05625E+00 0.00000E+00
 -1       424 1.34429E+02 4.05625E+00 0.00000E+00
 -1       425 1.37429E+02 4.05625E+00 0.00000E+00
 -1       426 1.40429E+02 4.05625E+00 0.00000E+00
 -1       427 1.43429E+02 4.05625E+00 0.00000E+00
 -1       428 1.45415E+02 4.24062E+00 0.00000E+00
 -1       429 1.44804E+02 1.18000E+01 0.00000E+00
 -1       430 1.44804E+02 8.85000E+00 0.00000E+00
 -1       431 1.45110E+02 6.54531E+00 0.00000E+00
 -1       432 1.44804E+02 1.47000E+01 0.00000E+00
 -1       433 1.44804E+02 1.76500E+01 0.00000E+00
 -1       434 1.44804E+02 2.06000E+01 0.00000E+00
 -1       435 1.44804E+02 2.35500E+01 0.00000E+00
 -1       436 1.44804E+02 2.65000E+01 0.00000E+00
 -1       437 1.44804E+02 2.94500E+01 0.00000E+00
 -1       438 1.44804E+02 3.23500E+01 0.00000E+00
 -1       439 1.44804E+02 3.53000E+01 0.00000E+00
 -1       440 1.44804E+02 3.82500E+01 0.00000E+00
 -1       441 1.44804E+02 4.12000E+01 0.00000E+00
 -1       442 2.65648E+01 2.03117E+01 0.00000E+00
 -1       443 2.71891E+01 2.39854E+01 0.00000E+00
 -1       444 2.68770E+01 2.21485E+01 0.00000E+00
 -1       445 2.50078E+01 1.81618E+01 0.00000E+00
 -1       446 2.36771E+01 1.69143E+01 0.00000E+00
 -1       447 5.19600E+00 3.78625E+01 0.00000E+00
 -1       448 2.00687E+01 1.46987E+01 0.00000E+00
 -1       449 1.80904E+01 1.46514E+01 0.00000E+00
 -1       450 1.61364E+01 1.45096E+01 0.00000E+00
 -1       451 1.41371E+01 1.48451E+01 0.00000E+00
 -1       452 1.18246E+01 1.60891E+01 0.00000E+00
 -1       453 1.06108E+01 1.75175E+01 0.00000E+00
 -1       454 9.24394E+00 1.89869E+01 0.00000E+00
 -1       455 8.19685E+00 2.07374E+01 0.00000E+00
 -1       456 7.86030E+00 2.27442E+01 0.00000E+00
 -1       457 7.59436E+00 2.46466E+01 0.00000E+00
 -1       458 8.26028E+00 2.72169E+01 0.00000E+00
 -1       459 9.03931E+00 2.87601E+01 0.00000E+00
 -1       460 1.03283E+01 3.04456E+01 0.00000E+00
 -1       461 1.18889E+01 3.18077E+01 0.00000E+00
 -1       462 1.34520E+01 3.29592E+01 0.00000E+00
 -1       463 1.52888E+01 3.36964E+01 0.00000E+00
 -1       464 1.74724E+01 3.38560E+01 0.00000E+00
 -1       465 1.90956E+01 3.36963E+01 0.00000E+00
 -1       466 2.12915E+01 3.30190E+01 0.00000E+00
 -1       467 2.25817E+01 3.21607E+01 0.00000E+00
 -1       468 2.39961E+01 3.08094E+01 0.00000E+00
 -1       469 2.52231E+01 2.96005E+01 0.00000E+00
 -1       470 2.65601E+01 2.78402E+01 0.00000E+00
 -1       471 2.70467E+01 2.62705E+01 0.00000E+00
 -1       472 2.19268E+01 1.57605E+01 0.00000E+00
 -1       473 4.98339E+00 2.35000E+01 0.00000E+00
 -1       474 2.68176E+01 1.86574E+01 0.00000E+00
 -1       475 1.23896E+01 1.43640E+01 0.00000E+00
 -1       476 7.41382E+00 3.03250E+01 0.00000E+00
 -1       477 7.41382E+00 3.33250E+01 0.00000E+00
 -1       478 7.20121E+00 1.64750E+01 0.00000E+00
 -1       479 6.86607E+00 1.95000E+01 0.00000E+00
 -1       480 7.58139E+00 1.04000E+01 0.00000E+00
 -1       481 7.58139E+00 7.35000E+00 0.00000E+00
 -1       482 8.00504E+00 5.70313E+00 0.00000E+00
 -1       483 1.06500E+01 4.22060E+01 0.00000E+00
 -1       484 1.10050E+01 5.70313E+00 0.00000E+00
 -1       485 1.40050E+01 5.70313E+00 0.00000E+00
 -1       486 1.36500E+01 4.22060E+01 0.00000E+00
 -1       487 1.66500E+01 4.22060E+01 0.00000E+00
 -1       488 1.96500E+01 4.22060E+01 0.00000E+00
 -1       489 2.26500E+01 4.22060E+01 0.00000E+00
 -1       490 2.56500E+01 4.22060E+01 0.00000E+00
 -1       491 2.86500E+01 4.22060E+01 0.00000E+00
 -1       492 3.16500E+01 4.22060E+01 0.00000E+00
 -1       493 3.46500E+01 4.22060E+01 0.00000E+00
 -1       494 3.76500E+01 4.22060E+01 0.00000E+00
 -1       495 4.06500E+01 4.22060E+01 0.00000E+00
 -1       496 4.36500E+01 4.22060E+01 0.00000E+00
 -1       497 4.66500E+01 4.22060E+01 0.00000E+00
 -1       498 4.96500E+01 4.22060E+01 0.00000E+00
 -1       499 5.26500E+01 4.22060E+01 0.00000E+00
 -1       500 5.56500E+01 4.22060E+01 0.00000E+00
 -1       501 5.86500E+01 4.22060E+01 0.00000E+00
 -1       502 6.16500E+01 4.22060E+01 0.00000E+00
 -1       503 6.46500E+01 4.22060E+01 0.00000E+00
 -1       504 6.76500E+01 4.22060E+01 0.00000E+00
 -1       505 7.06500E+01 4.22060E+01 0.00000E+00
 -1       506 7.36500E+01 4.22060E+01 0.00000E+00
 -1       507 7.66500E+01 4.22060E+01 0.00000E+00
 -1       508 7.96500E+01 4.22060E+01 0.00000E+00
 -1       509 8.26500E+01 4.22060E+01 0.00000E+00
 -1       510 8.56500E+01 4.22060E+01 0.00000E+00
 -1       511 8.86500E+01 4.22060E+01 0.00000E+00
 -1       512 9.16500E+01 4.22060E+01 0.00000E+00
 -1       513 9.46500E+01 4.22060E+01 0.00000E+00
 -1       514 9.76500E+01 4.22060E+01 0.00000E+00
 -1       515 1.00650E+02 4.22060E+01 0.00000E+00
 -1       516 1.03650E+02 4.22060E+01 0.00000E+00
 -1       517 1.06650E+02 4.22060E+01 0.00000E+00
 -1       518 1.09650E+02 4.22060E+01 0.00000E+00
 -1       519 1.12650E+02 4.22060E+01 0.00000E+00
 -1       520 1.15650E+02 4.22060E+01 0.00000E+00
 -1       521 1.18650E+02 4.22060E+01 0.00000E+00
 -1       522 1.21650E+02 4.22060E+01 0.00000E+00
 -1       523 1.24650E+02 4.22060E+01 0.00000E+00
 -1       524 1.27650E+02 4.22060E+01 0.00000E+00
 -1       525 1.30650E+02 4.22060E+01 0.00000E+00
 -1       526 1.33650E+02 4.22060E+01 0.00000E+00
 -1       527 1.36650E+02 4.22060E+01 0.00000E+00
 -1       528 1.39650E+02 4.22060E+01 0.00000E+00
 -1       529 1.89287E+01 6.65425E+00 0.00000E+00
 -1       530 2.19287E+01 6.65425E+00 0.00000E+00
 -1       531 2.49287E+01 6.65425E+00 0.00000E+00
 -1       532 2.79287E+01 6.65425E+00 0.00000E+00
 -1       533 3.09287E+01 6.65425E+00 0.00000E+00
 -1       534 3.39287E+01 6.65425E+00 0.00000E+00
 -1       535 3.69287E+01 6.65425E+00 0.00000E+00
 -1       536 3.99287E+01 6.65425E+00 0.00000E+00
 -1       537 4.29287E+01 6.65425E+00 0.00000E+00
 -1       538 4.59287E+01 6.65425E+00 0.00000E+00
 -1       539 4.89287E+01 6.65425E+00 0.00000E+00
 -1       540 5.19287E+01 6.65425E+00 0.00000E+00
 -1       541 5.49287E+01 6.65425E+00 0.00000E+00
 -1       542 5.79287E+01 6.65425E+00 0.00000E+00
 -1       543 6.09287E+01 6.65425E+00 0.00000E+00
 -1       544 6.39287E+01 6.65425E+00 0.00000E+00
 -1       545 6.69287E+01 6.65425E+00 0.00000E+00
 -1       546 6.99287E+01 6.65425E+00 0.00000E+00
 -1       547 7.29287E+01 6.65425E+00 0.00000E+00
 -1       548 7.59287E+01 6.65425E+00 0.00000E+00
 -1       549 7.89287E+01 6.65425E+00 0.00000E+00
 -1       550 8.19287E+01 6.65425E+00 0.00000E+00
 -1       551 8.49287E+01 6.65425E+00 0.00000E+00
 -1       552 8.79287E+01 6.65425E+00 0.00000E+00
 -1       553 9.09287E+01 6.65425E+00 0.00000E+00
 -1       554 9.39287E+01 6.65425E+00 0.00000E+00
 -1       555 9.69287E+01 6.65425E+00 0.00000E+00
 -1       556 9.99287E+01 6.65425E+00 0.00000E+00
 -1       557 1.02929E+02 6.65425E+00 0.00000E+00
 -1       558 1.05929E+02 6.65425E+00 0.00000E+00
 -1       559 1.08929E+02 6.65425E+00 0.00000E+00
 -1       560 1.11929E+02 6.65425E+00 0.00000E+00
 -1       561 1.14929E+02 6.65425E+00 0.00000E+00
 -1       562 1.17929E+02 6.65425E+00 0.00000E+00
 -1       563 1.20929E+02 6.65425E+00 0.00000E+00
 -1       564 1.23929E+02 6.65425E+00 0.00000E+00
 -1       565 1.26929E+02 6.65425E+00 0.00000E+00
 -1       566 1.29929E+02 6.65425E+00 0.00000E+00
 -1       567 1.32929E+02 6.65425E+00 0.00000E+00
 -1       568 1.35929E+02 6.65425E+00 0.00000E+00
 -1       569 1.38929E+02 6.65425E+00 0.00000E+00
 -1       570 1.41929E+02 6.65425E+00 0.00000E+00
 -1       571 1.42206E+02 1.61750E+01 0.00000E+00
 -1       572 1.42206E+02 1.91250E+01 0.00000E+00
 -1       573 1.42206E+02 1.03250E+01 0.00000E+00
 -1       574 1.42206E+02 1.32500E+01 0.00000E+00
 -1       575 1.42206E+02 2.20750E+01 0.00000E+00
 -1       576 1.42206E+02 2.50250E+01 0.00000E+00
 -1       577 1.42206E+02 2.79750E+01 0.00000E+00
 -1       578 1.42206E+02 3.08750E+01 0.00000E+00
 -1       579 1.42206E+02 3.38250E+01 0.00000E+00
 -1       580 1.42206E+02 3.67750E+01 0.00000E+00
 -1       581 1.42206E+02 3.97250E+01 0.00000E+00
 -1       582 2.86625E+01 2.52242E+01 0.00000E+00
 -1       583 1.64669E+01 6.17869E+00 0.00000E+00
 -1       584 2.38381E+01 1.47655E+01 0.00000E+00
 -1       585 2.70573E+01 2.96057E+01 0.00000E+00
 -1       586 1.62556E+01 3.54867E+01 0.00000E+00
 -1       587 6.50236E+00 2.14848E+01 0.00000E+00
 -1       588 7.58139E+00 1.34500E+01 0.00000E+00
 -1       589 6.91110E+00 2.75750E+01 0.00000E+00
 -1       590 2.55155E+01 1.62868E+01 0.00000E+00
 -1       591 2.19800E+01 1.37036E+01 0.00000E+00
 -1       592 9.98080E+00 3.24188E+01 0.00000E+00
 -1       593 1.91185E+01 1.30442E+01 0.00000E+00
 -1       594 1.48807E+01 1.31511E+01 0.00000E+00
 -1       595 1.00384E+01 1.58012E+01 0.00000E+00
 -1       596 8.67153E+00 1.72706E+01 0.00000E+00
 -1       597 2.59309E+01 3.15461E+01 0.00000E+00
 -1       598 8.52109E+00 3.04921E+01 0.00000E+00
 -1       599 1.18023E+01 3.35619E+01 0.00000E+00
 -1       600 1.36692E+01 3.50750E+01 0.00000E+00
 -1       601 1.84519E+01 3.54830E+01 0.00000E+00
 -1       602 2.06990E+01 3.49966E+01 0.00000E+00
 -1       603 2.28401E+01 3.39481E+01 0.00000E+00
 -1       604 2.43855E+01 3.27471E+01 0.00000E+00
 -1       605 2.82815E+01 2.75136E+01 0.00000E+00
 -1       606 1.71646E+01 1.29024E+01 0.00000E+00
 -1       607 7.92300E+00 4.15530E+01 0.00000E+00
 -1       608 7.41382E+00 3.63625E+01 0.00000E+00
 -1       609 2.84118E+01 2.09428E+01 0.00000E+00
 -1       610 2.73253E+01 1.67824E+01 0.00000E+00
 -1       611 1.41678E+02 4.22645E+01 0.00000E+00
 -1       612 2.91374E+01 2.31638E+01 0.00000E+00
 -1       613 2.86646E+01 1.92885E+01 0.00000E+00
 -1       614 1.31333E+01 1.26700E+01 0.00000E+00
 -1       615 2.10298E+01 1.20491E+01 0.00000E+00
 -1       616 1.06034E+01 1.40762E+01 0.00000E+00
 -1       617 7.66841E+00 3.89577E+01 0.00000E+00
 -1       618 1.01344E+01 8.87500E+00 0.00000E+00
 -1       619 1.25050E+01 8.25609E+00 0.00000E+00
 -1       620 1.39206E+02 1.03250E+01 0.00000E+00
 -1       621 2.64287E+01 9.25225E+00 0.00000E+00
 -1       622 1.51500E+01 3.96530E+01 0.00000E+00
 -1       623 1.81500E+01 3.96530E+01 0.00000E+00
 -1       624 2.11500E+01 3.96530E+01 0.00000E+00
 -1       625 2.41500E+01 3.96530E+01 0.00000E+00
 -1       626 2.71500E+01 3.96530E+01 0.00000E+00
 -1       627 3.01500E+01 3.96530E+01 0.00000E+00
 -1       628 3.31500E+01 3.96530E+01 0.00000E+00
 -1       629 3.61500E+01 3.96530E+01 0.00000E+00
 -1       630 3.91500E+01 3.96530E+01 0.00000E+00
 -1       631 4.21500E+01 3.96530E+01 0.00000E+00
 -1       632 4.51500E+01 3.96530E+01 0.00000E+00
 -1       633 4.81500E+01 3.96530E+01 0.00000E+00
 -1       634 5.11500E+01 3.96530E+01 0.00000E+00
 -1       635 5.41500E+01 3.96530E+01 0.00000E+00
 -1       636 5.71500E+01 3.96530E+01 0.00000E+00
 -1       637 6.01500E+01 3.96530E+01 0.00000E+00
 -1       638 6.31500E+01 3.96530E+01 0.00000E+00
 -1       639 6.61500E+01 3.96530E+01 0.00000E+00
 -1       640 6.91500E+01 3.96530E+01 0.00000E+00
 -1       641 7.21500E+01 3.96530E+01 0.00000E+00
 -1       642 7.51500E+01 3.96530E+01 0.00000E+00
 -1       643 7.81500E+01 3.96530E+01 0.00000E+00
 -1       644 8.11500E+01 3.96530E+01 0.00000E+00
 -1       645 8.41500E+01 3.96530E+01 0.00000E+00
 -1       646 8.71500E+01 3.96530E+01 0.00000E+00
 -1       647 9.01500E+01 3.96530E+01 0.00000E+00
 -1       648 9.31500E+01 3.96530E+01 0.00000E+00
 -1       649 9.61500E+01 3.96530E+01 0.00000E+00
 -1       650 9.91500E+01 3.96530E+01 0.00000E+00
 -1       651 1.02150E+02 3.96530E+01 0.00000E+00
 -1       652 1.05150E+02 3.96530E+01 0.00000E+00
 -1       653 1.08150E+02 3.96530E+01 0.00000E+00
 -1       654 1.11150E+02 3.96530E+01 0.00000E+00
 -1       655 1.14150E+02 3.96530E+01 0.00000E+00
 -1       656 1.17150E+02 3.96530E+01 0.00000E+00
 -1       657 1.20150E+02 3.96530E+01 0.00000E+00
 -1       658 1.23150E+02 3.96530E+01 0.00000E+00
 -1       659 1.26150E+02 3.96530E+01 0.00000E+00
 -1       660 1.29150E+02 3.96530E+01 0.00000E+00
 -1       661 1.32150E+02 3.96530E+01 0.00000E+00
 -1       662 1.35150E+02 3.96530E+01 0.00000E+00
 -1       663 1.38150E+02 3.96530E+01 0.00000E+00
 -1       664 2.34287E+01 9.25225E+00 0.00000E+00
 -1       665 3.08978E+01 2.46545E+01 0.00000E+00
 -1       666 2.04287E+01 9.25225E+00 0.00000E+00
 -1       667 2.94287E+01 9.25225E+00 0.00000E+00
 -1       668 3.24287E+01 9.25225E+00 0.00000E+00
 -1       669 3.54287E+01 9.25225E+00 0.00000E+00
 -1       670 3.84287E+01 9.25225E+00 0.00000E+00
 -1       671 4.14287E+01 9.25225E+00 0.00000E+00
 -1       672 4.44287E+01 9.25225E+00 0.00000E+00
 -1       673 4.74287E+01 9.25225E+00 0.00000E+00
 -1       674 5.04287E+01 9.25225E+00 0.00000E+00
 -1       675 5.34287E+01 9.25225E+00 0.00000E+00
 -1       676 5.64287E+01 9.25225E+00 0.00000E+00
 -1       677 5.94287E+01 9.25225E+00 0.00000E+00
 -1       678 6.24287E+01 9.25225E+00 0.00000E+00
 -1       679 6.54287E+01 9.25225E+00 0.00000E+00
 -1       680 6.84287E+01 9.25225E+00 0.00000E+00
 -1       681 7.14287E+01 9.25225E+00 0.00000E+00
 -1       682 7.44287E+01 9.25225E+00 0.00000E+00
 -1       683 7.74287E+01 9.25225E+00 0.00000E+00
 -1       684 8.04287E+01 9.25225E+00 0.00000E+00
 -1       685 8.34287E+01 9.25225E+00 0.00000E+00
 -1       686 8.64287E+01 9.25225E+00 0.00000E+00
 -1       687 8.94287E+01 9.25225E+00 0.00000E+00
 -1       688 9.24287E+01 9.25225E+00 0.00000E+00
 -1       689 9.54287E+01 9.25225E+00 0.00000E+00
 -1       690 9.84287E+01 9.25225E+00 0.00000E+00
 -1       691 1.01429E+02 9.25225E+00 0.00000E+00
 -1       692 1.04429E+02 9.25225E+00 0.00000E+00
 -1       693 1.07429E+02 9.25225E+00 0.00000E+00
 -1       694 1.10429E+02 9.25225E+00 0.00000E+00
 -1       695 1.13429E+02 9.25225E+00 0.00000E+00
 -1       696 1.16429E+02 9.25225E+00 0.00000E+00
 -1       697 1.19429E+02 9.25225E+00 0.00000E+00
 -1       698 1.22429E+02 9.25225E+00 0.00000E+00
 -1       699 1.25429E+02 9.25225E+00 0.00000E+00
 -1       700 1.28429E+02 9.25225E+00 0.00000E+00
 -1       701 1.31429E+02 9.25225E+00 0.00000E+00
 -1       702 1.34429E+02 9.25225E+00 0.00000E+00
 -1       703 1.36817E+02 9.78862E+00 0.00000E+00
 -1       704 1.73570E+01 3.73676E+01 0.00000E+00
 -1       705 1.39608E+02 2.35500E+01 0.00000E+00
 -1       706 1.40178E+02 3.96890E+01 0.00000E+00
 -1       707 1.39608E+02 1.76500E+01 0.00000E+00
 -1       708 1.39608E+02 2.65000E+01 0.00000E+00
 -1       709 1.39608E+02 2.06000E+01 0.00000E+00
 -1       710 1.39608E+02 2.94000E+01 0.00000E+00
 -1       711 1.39608E+02 3.23500E+01 0.00000E+00
 -1       712 1.39608E+02 3.53000E+01 0.00000E+00
 -1       713 2.90774E+01 2.93836E+01 0.00000E+00
 -1       714 2.79510E+01 3.13240E+01 0.00000E+00
 -1       715 2.26713E+01 3.63137E+01 0.00000E+00
 -1       716 3.05169E+01 2.69440E+01 0.00000E+00
 -1       717 1.03954E+01 3.96107E+01 0.00000E+00
 -1       718 2.39263E+01 1.24545E+01 0.00000E+00
 -1       719 1.00244E+01 3.43721E+01 0.00000E+00
 -1       720 2.60542E+01 1.40075E+01 0.00000E+00
 -1       721 8.90233E+00 1.52756E+01 0.00000E+00
 -1       722 1.18913E+01 3.58852E+01 0.00000E+00
 -1       723 1.46664E+01 3.71401E+01 0.00000E+00
 -1       724 1.58007E+01 1.09886E+01 0.00000E+00
 -1       725 1.99738E+01 3.70799E+01 0.00000E+00
 -1       726 1.27727E+01 3.96319E+01 0.00000E+00
 -1       727 1.82596E+01 1.13462E+01 0.00000E+00
 -1       728 3.05642E+01 2.14686E+01 0.00000E+00
 -1       729 1.39608E+02 1.47250E+01 0.00000E+00
 -1       730 3.23246E+01 2.29593E+01 0.00000E+00
 -1       731 1.77580E+01 9.06218E+00 0.00000E+00
 -1       732 2.91722E+01 1.74135E+01 0.00000E+00
 -1       733 2.78640E+01 1.45031E+01 0.00000E+00
 -1       734 1.38879E+02 3.74765E+01 0.00000E+00
 -1       735 3.08170E+01 1.98144E+01 0.00000E+00
 -1       736 2.71650E+01 3.34730E+01 0.00000E+00
 -1       737 1.51315E+01 8.65914E+00 0.00000E+00
 -1       738 2.48008E+01 3.52769E+01 0.00000E+00
 -1       739 1.13471E+01 1.23822E+01 0.00000E+00
 -1       740 3.09287E+01 1.18503E+01 0.00000E+00
 -1       741 2.86500E+01 3.70550E+01 0.00000E+00
 -1       742 3.16500E+01 3.70550E+01 0.00000E+00
 -1       743 3.46500E+01 3.70550E+01 0.00000E+00
 -1       744 3.76500E+01 3.70550E+01 0.00000E+00
 -1       745 4.06500E+01 3.70550E+01 0.00000E+00
 -1       746 4.36500E+01 3.70550E+01 0.00000E+00
 -1       747 4.66500E+01 3.70550E+01 0.00000E+00
 -1       748 4.96500E+01 3.70550E+01 0.00000E+00
 -1       749 5.26500E+01 3.70550E+01 0.00000E+00
 -1       750 5.56500E+01 3.70550E+01 0.00000E+00
 -1       751 5.86500E+01 3.70550E+01 0.00000E+00
 -1       752 6.16500E+01 3.70550E+01 0.00000E+00
 -1       753 6.46500E+01 3.70550E+01 0.00000E+00
 -1       754 6.76500E+01 3.70550E+01 0.00000E+00
 -1       755 7.06500E+01 3.70550E+01 0.00000E+00
 -1       756 7.36500E+01 3.70550E+01 0.00000E+00
 -1       757 7.66500E+01 3.70550E+01 0.00000E+00
 -1       758 7.96500E+01 3.70550E+01 0.00000E+00
 -1       759 8.26500E+01 3.70550E+01 0.00000E+00
 -1       760 8.56500E+01 3.70550E+01 0.00000E+00
 -1       761 8.86500E+01 3.70550E+01 0.00000E+00
 -1       762 9.16500E+01 3.70550E+01 0.00000E+00
 -1       763 9.46500E+01 3.70550E+01 0.00000E+00
 -1       764 9.76500E+01 3.70550E+01 0.00000E+00
 -1       765 1.00650E+02 3.70550E+01 0.00000E+00
 -1       766 1.03650E+02 3.70550E+01 0.00000E+00
 -1       767 1.06650E+02 3.70550E+01 0.00000E+00
 -1       768 1.09650E+02 3.70550E+01 0.00000E+00
 -1       769 1.12650E+02 3.70550E+01 0.00000E+00
 -1       770 1.15650E+02 3.70550E+01 0.00000E+00
 -1       771 1.18650E+02 3.70550E+01 0.00000E+00
 -1       772 1.21650E+02 3.70550E+01 0.00000E+00
 -1       773 1.24650E+02 3.70550E+01 0.00000E+00
 -1       774 1.27650E+02 3.70550E+01 0.00000E+00
 -1       775 1.30650E+02 3.70550E+01 0.00000E+00
 -1       776 1.33650E+02 3.70550E+01 0.00000E+00
 -1       777 1.36264E+02 3.72658E+01 0.00000E+00
 -1       778 3.39287E+01 1.18503E+01 0.00000E+00
 -1       779 3.69287E+01 1.18503E+01 0.00000E+00
 -1       780 3.99287E+01 1.18503E+01 0.00000E+00
 -1       781 4.29287E+01 1.18503E+01 0.00000E+00
 -1       782 4.59287E+01 1.18503E+01 0.00000E+00
 -1       783 4.89287E+01 1.18503E+01 0.00000E+00
 -1       784 5.19287E+01 1.18503E+01 0.00000E+00
 -1       785 5.49287E+01 1.18503E+01 0.00000E+00
 -1       786 5.79287E+01 1.18503E+01 0.00000E+00
 -1       787 6.09287E+01 1.18503E+01 0.00000E+00
 -1       788 6.39287E+01 1.18503E+01 0.00000E+00
 -1       789 6.69287E+01 1.18503E+01 0.00000E+00
 -1       790 6.99287E+01 1.18503E+01 0.00000E+00
 -1       791 7.29287E+01 1.18503E+01 0.00000E+00
 -1       792 7.59287E+01 1.18503E+01 0.00000E+00
 -1       793 7.89287E+01 1.18503E+01 0.00000E+00
 -1       794 8.19287E+01 1.18503E+01 0.00000E+00
 -1       795 8.49287E+01 1.18503E+01 0.00000E+00
 -1       796 8.79287E+01 1.18503E+01 0.00000E+00
 -1       797 9.09287E+01 1.18503E+01 0.00000E+00
 -1       798 9.39287E+01 1.18503E+01 0.00000E+00
 -1       799 9.69287E+01 1.18503E+01 0.00000E+00
 -1       800 9.99287E+01 1.18503E+01 0.00000E+00
 -1       801 1.02929E+02 1.18503E+01 0.00000E+00
 -1       802 1.05929E+02 1.18503E+01 0.00000E+00
 -1       803 1.08929E+02 1.18503E+01 0.00000E+00
 -1       804 1.11929E+02 1.18503E+01 0.00000E+00
 -1       805 1.14929E+02 1.18503E+01 0.00000E+00
 -1       806 1.17929E+02 1.18503E+01 0.00000E+00
 -1       807 1.20929E+02 1.18503E+01 0.00000E+00
 -1       808 1.23929E+02 1.18503E+01 0.00000E+00
 -1       809 1.26929E+02 1.18503E+01 0.00000E+00
 -1       810 1.29929E+02 1.18503E+01 0.00000E+00
 -1       811 1.32929E+02 1.18503E+01 0.00000E+00
 -1       812 1.37010E+02 2.79500E+01 0.00000E+00
 -1       813 9.77984E+00 3.74215E+01 0.00000E+00
 -1       814 1.37010E+02 3.09000E+01 0.00000E+00
 -1       815 1.37010E+02 2.50000E+01 0.00000E+00
 -1       816 2.77414E+01 1.16299E+01 0.00000E+00
 -1       817 3.04322E+01 3.14672E+01 0.00000E+00
 -1       818 2.96462E+01 3.36163E+01 0.00000E+00
 -1       819 3.28951E+01 2.61633E+01 0.00000E+00
 -1       820 1.28191E+01 1.04631E+01 0.00000E+00
 -1       821 1.37010E+02 3.38500E+01 0.00000E+00
 -1       822 3.18717E+01 2.90276E+01 0.00000E+00
 -1       823 2.59754E+01 3.74650E+01 0.00000E+00
 -1       824 2.78108E+01 3.55406E+01 0.00000E+00
 -1       825 1.37010E+02 1.61875E+01 0.00000E+00
 -1       826 2.97109E+01 1.51342E+01 0.00000E+00
 -1       827 3.25774E+01 2.13051E+01 0.00000E+00
 -1       828 1.35317E+02 1.23866E+01 0.00000E+00
 -1       829 1.37010E+02 2.20500E+01 0.00000E+00
 -1       830 1.37010E+02 1.91187E+01 0.00000E+00
 -1       831 1.36637E+02 3.55579E+01 0.00000E+00
 -1       832 1.36914E+02 1.29881E+01 0.00000E+00
 -1       833 1.34412E+02 3.23750E+01 0.00000E+00
 -1       834 3.31500E+01 3.44570E+01 0.00000E+00
 -1       835 3.61500E+01 3.44570E+01 0.00000E+00
 -1       836 3.91500E+01 3.44570E+01 0.00000E+00
 -1       837 4.21500E+01 3.44570E+01 0.00000E+00
 -1       838 4.51500E+01 3.44570E+01 0.00000E+00
 -1       839 4.81500E+01 3.44570E+01 0.00000E+00
 -1       840 5.11500E+01 3.44570E+01 0.00000E+00
 -1       841 5.41500E+01 3.44570E+01 0.00000E+00
 -1       842 5.71500E+01 3.44570E+01 0.00000E+00
 -1       843 6.01500E+01 3.44570E+01 0.00000E+00
 -1       844 6.31500E+01 3.44570E+01 0.00000E+00
 -1       845 6.61500E+01 3.44570E+01 0.00000E+00
 -1       846 6.91500E+01 3.44570E+01 0.00000E+00
 -1       847 7.21500E+01 3.44570E+01 0.00000E+00
 -1       848 7.51500E+01 3.44570E+01 0.00000E+00
 -1       849 7.81500E+01 3.44570E+01 0.00000E+00
 -1       850 8.11500E+01 3.44570E+01 0.00000E+00
 -1       851 8.41500E+01 3.44570E+01 0.00000E+00
 -1       852 8.71500E+01 3.44570E+01 0.00000E+00
 -1       853 9.01500E+01 3.44570E+01 0.00000E+00
 -1       854 9.31500E+01 3.44570E+01 0.00000E+00
 -1       855 9.61500E+01 3.44570E+01 0.00000E+00
 -1       856 9.91500E+01 3.44570E+01 0.00000E+00
 -1       857 1.02150E+02 3.44570E+01 0.00000E+00
 -1       858 1.05150E+02 3.44570E+01 0.00000E+00
 -1       859 1.08150E+02 3.44570E+01 0.00000E+00
 -1       860 1.11150E+02 3.44570E+01 0.00000E+00
 -1       861 1.14150E+02 3.44570E+01 0.00000E+00
 -1       862 1.17150E+02 3.44570E+01 0.00000E+00
 -1       863 1.20150E+02 3.44570E+01 0.00000E+00
 -1       864 1.23150E+02 3.44570E+01 0.00000E+00
 -1       865 1.26150E+02 3.44570E+01 0.00000E+00
 -1       866 1.29150E+02 3.44570E+01 0.00000E+00
 -1       867 1.32150E+02 3.44570E+01 0.00000E+00
 -1       868 3.32064E+01 3.14596E+01 0.00000E+00
 -1       869 3.24287E+01 1.44482E+01 0.00000E+00
 -1       870 4.14287E+01 1.44482E+01 0.00000E+00
 -1       871 4.44287E+01 1.44482E+01 0.00000E+00
 -1       872 4.74287E+01 1.44482E+01 0.00000E+00
 -1       873 5.04287E+01 1.44482E+01 0.00000E+00
 -1       874 5.34287E+01 1.44482E+01 0.00000E+00
 -1       875 5.64287E+01 1.44482E+01 0.00000E+00
 -1       876 5.94287E+01 1.44482E+01 0.00000E+00
 -1       877 6.24287E+01 1.44482E+01 0.00000E+00
 -1       878 6.54287E+01 1.44482E+01 0.00000E+00
 -1       879 6.84287E+01 1.44482E+01 0.00000E+00
 -1       880 7.14287E+01 1.44482E+01 0.00000E+00
 -1       881 7.44287E+01 1.44482E+01 0.00000E+00
 -1       882 7.74287E+01 1.44482E+01 0.00000E+00
 -1       883 8.04287E+01 1.44482E+01 0.00000E+00
 -1       884 8.34287E+01 1.44482E+01 0.00000E+00
 -1       885 8.64287E+01 1.44482E+01 0.00000E+00
 -1       886 8.94287E+01 1.44482E+01 0.00000E+00
 -1       887 9.24287E+01 1.44482E+01 0.00000E+00
 -1       888 9.54287E+01 1.44482E+01 0.00000E+00
 -1       889 9.84287E+01 1.44482E+01 0.00000E+00
 -1       890 1.01429E+02 1.44482E+01 0.00000E+00
 -1       891 1.04429E+02 1.44482E+01 0.00000E+00
 -1       892 1.07429E+02 1.44482E+01 0.00000E+00
 -1       893 1.10429E+02 1.44482E+01 0.00000E+00
 -1       894 1.13429E+02 1.44482E+01 0.00000E+00
 -1       895 1.16429E+02 1.44482E+01 0.00000E+00
 -1       896 1.19429E+02 1.44482E+01 0.00000E+00
 -1       897 1.22429E+02 1.44482E+01 0.00000E+00
 -1       898 1.25429E+02 1.44482E+01 0.00000E+00
 -1       899 1.28429E+02 1.44482E+01 0.00000E+00
 -1       900 1.31429E+02 1.44482E+01 0.00000E+00
 -1       901 1.34412E+02 2.64750E+01 0.00000E+00
 -1       902 3.44719E+01 2.83416E+01 0.00000E+00
 -1       903 3.47933E+01 2.41725E+01 0.00000E+00
 -1       904 3.84287E+01 1.44482E+01 0.00000E+00
 -1       905 3.54287E+01 1.44482E+01 0.00000E+00
 -1       906 3.16860E+01 1.74552E+01 0.00000E+00
 -1       907 1.34412E+02 2.94250E+01 0.00000E+00
 -1       908 3.34464E+01 1.89459E+01 0.00000E+00
 -1       909 1.34394E+02 3.50075E+01 0.00000E+00
 -1       910 1.34412E+02 2.35250E+01 0.00000E+00
 -1       911 1.33817E+02 1.49846E+01 0.00000E+00
 -1       912 1.34412E+02 1.76531E+01 0.00000E+00
 -1       913 3.50461E+01 2.25183E+01 0.00000E+00
 -1       914 3.63702E+01 2.63508E+01 0.00000E+00
 -1       915 3.76500E+01 3.18590E+01 0.00000E+00
 -1       916 4.06500E+01 3.18590E+01 0.00000E+00
 -1       917 4.36500E+01 3.18590E+01 0.00000E+00
 -1       918 4.66500E+01 3.18590E+01 0.00000E+00
 -1       919 4.96500E+01 3.18590E+01 0.00000E+00
 -1       920 5.26500E+01 3.18590E+01 0.00000E+00
 -1       921 5.56500E+01 3.18590E+01 0.00000E+00
 -1       922 5.86500E+01 3.18590E+01 0.00000E+00
 -1       923 6.16500E+01 3.18590E+01 0.00000E+00
 -1       924 6.46500E+01 3.18590E+01 0.00000E+00
 -1       925 6.76500E+01 3.18590E+01 0.00000E+00
 -1       926 7.06500E+01 3.18590E+01 0.00000E+00
 -1       927 7.36500E+01 3.18590E+01 0.00000E+00
 -1       928 7.66500E+01 3.18590E+01 0.00000E+00
 -1       929 7.96500E+01 3.18590E+01 0.00000E+00
 -1       930 8.26500E+01 3.18590E+01 0.00000E+00
 -1       931 8.56500E+01 3.18590E+01 0.00000E+00
 -1       932 8.86500E+01 3.18590E+01 0.00000E+00
 -1       933 9.16500E+01 3.18590E+01 0.00000E+00
 -1       934 9.46500E+01 3.18590E+01 0.00000E+00
 -1       935 9.76500E+01 3.18590E+01 0.00000E+00
 -1       936 1.00650E+02 3.18590E+01 0.00000E+00
 -1       937 1.03650E+02 3.18590E+01 0.00000E+00
 -1       938 1.06650E+02 3.18590E+01 0.00000E+00
 -1       939 1.09650E+02 3.18590E+01 0.00000E+00
 -1       940 1.12650E+02 3.18590E+01 0.00000E+00
 -1       941 1.15650E+02 3.18590E+01 0.00000E+00
 -1       942 1.18650E+02 3.18590E+01 0.00000E+00
 -1       943 1.21650E+02 3.18590E+01 0.00000E+00
 -1       944 1.24650E+02 3.18590E+01 0.00000E+00
 -1       945 1.27650E+02 3.18590E+01 0.00000E+00
 -1       946 1.30650E+02 3.18590E+01 0.00000E+00
 -1       947 3.39287E+01 1.70462E+01 0.00000E+00
 -1       948 4.29287E+01 1.70462E+01 0.00000E+00
 -1       949 5.19287E+01 1.70462E+01 0.00000E+00
 -1       950 5.49287E+01 1.70462E+01 0.00000E+00
 -1       951 5.79287E+01 1.70462E+01 0.00000E+00
 -1       952 6.09287E+01 1.70462E+01 0.00000E+00
 -1       953 6.39287E+01 1.70462E+01 0.00000E+00
 -1       954 6.69287E+01 1.70462E+01 0.00000E+00
 -1       955 6.99287E+01 1.70462E+01 0.00000E+00
 -1       956 7.29287E+01 1.70462E+01 0.00000E+00
 -1       957 7.59287E+01 1.70462E+01 0.00000E+00
 -1       958 7.89287E+01 1.70462E+01 0.00000E+00
 -1       959 8.19287E+01 1.70462E+01 0.00000E+00
 -1       960 8.49287E+01 1.70462E+01 0.00000E+00
 -1       961 8.79287E+01 1.70462E+01 0.00000E+00
 -1       962 9.09287E+01 1.70462E+01 0.00000E+00
 -1       963 9.39287E+01 1.70462E+01 0.00000E+00
 -1       964 9.69287E+01 1.70462E+01 0.00000E+00
 -1       965 9.99287E+01 1.70462E+01 0.00000E+00
 -1       966 1.02929E+02 1.70462E+01 0.00000E+00
 -1       967 1.05929E+02 1.70462E+01 0.00000E+00
 -1       968 1.08929E+02 1.70462E+01 0.00000E+00
 -1       969 1.11929E+02 1.70462E+01 0.00000E+00
 -1       970 1.14929E+02 1.70462E+01 0.00000E+00
 -1       971 1.17929E+02 1.70462E+01 0.00000E+00
 -1       972 1.20929E+02 1.70462E+01 0.00000E+00
 -1       973 1.23929E+02 1.70462E+01 0.00000E+00
 -1       974 1.26929E+02 1.70462E+01 0.00000E+00
 -1       975 1.29929E+02 1.70462E+01 0.00000E+00
 -1       976 1.32170E+02 1.73497E+01 0.00000E+00
 -1       977 1.34412E+02 2.05844E+01 0.00000E+00
 -1       978 4.89287E+01 1.70462E+01 0.00000E+00
 -1       979 3.99287E+01 1.70462E+01 0.00000E+00
 -1       980 3.69287E+01 1.70462E+01 0.00000E+00
 -1       981 4.59287E+01 1.70462E+01 0.00000E+00
 -1       982 1.32170E+02 2.02809E+01 0.00000E+00
 -1       983 3.59151E+01 2.01591E+01 0.00000E+00
 -1       984 3.71121E+01 2.36804E+01 0.00000E+00
 -1       985 1.31814E+02 2.50000E+01 0.00000E+00
 -1       986 1.31814E+02 2.79500E+01 0.00000E+00
 -1       987 3.85101E+01 2.91049E+01 0.00000E+00
 -1       988 5.64287E+01 1.96443E+01 0.00000E+00
 -1       989 1.31992E+02 2.26405E+01 0.00000E+00
 -1       990 3.64219E+01 1.86027E+01 0.00000E+00
 -1       991 4.21500E+01 2.92610E+01 0.00000E+00
 -1       992 4.51500E+01 2.92610E+01 0.00000E+00
 -1       993 4.81500E+01 2.92610E+01 0.00000E+00
 -1       994 5.11500E+01 2.92610E+01 0.00000E+00
 -1       995 5.41500E+01 2.92610E+01 0.00000E+00
 -1       996 5.71500E+01 2.92610E+01 0.00000E+00
 -1       997 6.01500E+01 2.92610E+01 0.00000E+00
 -1       998 6.31500E+01 2.92610E+01 0.00000E+00
 -1       999 6.61500E+01 2.92610E+01 0.00000E+00
 -1      1000 6.91500E+01 2.92610E+01 0.00000E+00
 -1      1001 7.21500E+01 2.92610E+01 0.00000E+00
 -1      1002 7.51500E+01 2.92610E+01 0.00000E+00
 -1      1003 7.81500E+01 2.92610E+01 0.00000E+00
 -1      1004 8.11500E+01 2.92610E+01 0.00000E+00
 -1      1005 8.41500E+01 2.92610E+01 0.00000E+00
 -1      1006 8.71500E+01 2.92610E+01 0.00000E+00
 -1      1007 9.01500E+01 2.92610E+01 0.00000E+00
 -1      1008 9.31500E+01 2.92610E+01 0.00000E+00
 -1      1009 9.61500E+01 2.92610E+01 0.00000E+00
 -1      1010 9.91500E+01 2.92610E+01 0.00000E+00
 -1      1011 1.02150E+02 2.92610E+01 0.00000E+00
 -1      1012 1.05150E+02 2.92610E+01 0.00000E+00
 -1      1013 1.08150E+02 2.92610E+01 0.00000E+00
 -1      1014 1.11150E+02 2.92610E+01 0.00000E+00
 -1      1015 1.14150E+02 2.92610E+01 0.00000E+00
 -1      1016 1.17150E+02 2.92610E+01 0.00000E+00
 -1      1017 1.20150E+02 2.92610E+01 0.00000E+00
 -1      1018 1.23150E+02 2.92610E+01 0.00000E+00
 -1      1019 1.26150E+02 2.92610E+01 0.00000E+00
 -1      1020 1.29150E+02 2.92610E+01 0.00000E+00
 -1      1021 5.34287E+01 1.96443E+01 0.00000E+00
 -1      1022 6.24287E+01 1.96443E+01 0.00000E+00
 -1      1023 6.54287E+01 1.96443E+01 0.00000E+00
 -1      1024 6.84287E+01 1.96443E+01 0.00000E+00
 -1      1025 7.14287E+01 1.96443E+01 0.00000E+00
 -1      1026 7.44287E+01 1.96443E+01 0.00000E+00
 -1      1027 7.74287E+01 1.96443E+01 0.00000E+00
 -1      1028 8.04287E+01 1.96443E+01 0.00000E+00
 -1      1029 8.34287E+01 1.96443E+01 0.00000E+00
 -1      1030 8.64287E+01 1.96443E+01 0.00000E+00
 -1      1031 8.94287E+01 1.96443E+01 0.00000E+00
 -1      1032 9.24287E+01 1.96443E+01 0.00000E+00
 -1      1033 9.54287E+01 1.96443E+01 0.00000E+00
 -1      1034 9.84287E+01 1.96443E+01 0.00000E+00
 -1      1035 1.01429E+02 1.96443E+01 0.00000E+00
 -1      1036 1.04429E+02 1.96443E+01 0.00000E+00
 -1      1037 1.07429E+02 1.96443E+01 0.00000E+00
 -1      1038 1.10429E+02 1.96443E+01 0.00000E+00
 -1      1039 1.13429E+02 1.96443E+01 0.00000E+00
 -1      1040 1.16429E+02 1.96443E+01 0.00000E+00
 -1      1041 1.19429E+02 1.96443E+01 0.00000E+00
 -1      1042 1.22429E+02 1.96443E+01 0.00000E+00
 -1      1043 1.25429E+02 1.96443E+01 0.00000E+00
 -1      1044 1.28429E+02 1.96443E+01 0.00000E+00
 -1      1045 1.30300E+02 1.99626E+01 0.00000E+00
 -1      1046 4.14287E+01 1.96443E+01 0.00000E+00
 -1      1047 3.79811E+01 2.13213E+01 0.00000E+00
 -1      1048 3.92520E+01 2.64346E+01 0.00000E+00
 -1      1049 5.04287E+01 1.96443E+01 0.00000E+00
 -1      1050 3.89253E+01 1.91235E+01 0.00000E+00
 -1      1051 4.74287E+01 1.96443E+01 0.00000E+00
 -1      1052 4.44287E+01 1.96443E+01 0.00000E+00
 -1      1053 5.94287E+01 1.96443E+01 0.00000E+00
 -1      1054 1.29312E+02 2.36246E+01 0.00000E+00
 -1      1055 4.01210E+01 2.40754E+01 0.00000E+00
 -1      1056 1.29231E+02 2.64428E+01 0.00000E+00
 -1      1057 1.29806E+02 2.17936E+01 0.00000E+00
 -1      1058 6.99287E+01 2.22423E+01 0.00000E+00
 -1      1059 4.36500E+01 2.66630E+01 0.00000E+00
 -1      1060 4.59287E+01 2.22423E+01 0.00000E+00
 -1      1061 4.66500E+01 2.66630E+01 0.00000E+00
 -1      1062 4.96500E+01 2.66630E+01 0.00000E+00
 -1      1063 5.26500E+01 2.66630E+01 0.00000E+00
 -1      1064 5.56500E+01 2.66630E+01 0.00000E+00
 -1      1065 5.86500E+01 2.66630E+01 0.00000E+00
 -1      1066 6.16500E+01 2.66630E+01 0.00000E+00
 -1      1067 6.46500E+01 2.66630E+01 0.00000E+00
 -1      1068 6.76500E+01 2.66630E+01 0.00000E+00
 -1      1069 7.06500E+01 2.66630E+01 0.00000E+00
 -1      1070 7.36500E+01 2.66630E+01 0.00000E+00
 -1      1071 7.66500E+01 2.66630E+01 0.00000E+00
 -1      1072 7.96500E+01 2.66630E+01 0.00000E+00
 -1      1073 8.26500E+01 2.66630E+01 0.00000E+00
 -1      1074 8.56500E+01 2.66630E+01 0.00000E+00
 -1      1075 8.86500E+01 2.66630E+01 0.00000E+00
 -1      1076 9.16500E+01 2.66630E+01 0.00000E+00
 -1      1077 9.46500E+01 2.66630E+01 0.00000E+00
 -1      1078 9.76500E+01 2.66630E+01 0.00000E+00
 -1      1079 1.00650E+02 2.66630E+01 0.00000E+00
 -1      1080 1.03650E+02 2.66630E+01 0.00000E+00
 -1      1081 1.06650E+02 2.66630E+01 0.00000E+00
 -1      1082 1.09650E+02 2.66630E+01 0.00000E+00
 -1      1083 1.12650E+02 2.66630E+01 0.00000E+00
 -1      1084 1.15650E+02 2.66630E+01 0.00000E+00
 -1      1085 1.18650E+02 2.66630E+01 0.00000E+00
 -1      1086 1.21650E+02 2.66630E+01 0.00000E+00
 -1      1087 1.24650E+02 2.66630E+01 0.00000E+00
 -1      1088 1.26941E+02 2.65529E+01 0.00000E+00
 -1      1089 5.49287E+01 2.22423E+01 0.00000E+00
 -1      1090 4.89287E+01 2.22423E+01 0.00000E+00
 -1      1091 6.69287E+01 2.22423E+01 0.00000E+00
 -1      1092 6.39287E+01 2.22423E+01 0.00000E+00
 -1      1093 7.29287E+01 2.22423E+01 0.00000E+00
 -1      1094 7.59287E+01 2.22423E+01 0.00000E+00
 -1      1095 7.89287E+01 2.22423E+01 0.00000E+00
 -1      1096 8.19287E+01 2.22423E+01 0.00000E+00
 -1      1097 8.49287E+01 2.22423E+01 0.00000E+00
 -1      1098 8.79287E+01 2.22423E+01 0.00000E+00
 -1      1099 9.09287E+01 2.22423E+01 0.00000E+00
 -1      1100 9.39287E+01 2.22423E+01 0.00000E+00
 -1      1101 9.69287E+01 2.22423E+01 0.00000E+00
 -1      1102 9.99287E+01 2.22423E+01 0.00000E+00
 -1      1103 1.02929E+02 2.22423E+01 0.00000E+00
 -1      1104 1.05929E+02 2.22423E+01 0.00000E+00
 -1      1105 1.08929E+02 2.22423E+01 0.00000E+00
 -1      1106 1.11929E+02 2.22423E+01 0.00000E+00
 -1      1107 1.14929E+02 2.22423E+01 0.00000E+00
 -1      1108 1.17929E+02 2.22423E+01 0.00000E+00
 -1      1109 1.20929E+02 2.22423E+01 0.00000E+00
 -1      1110 1.23929E+02 2.22423E+01 0.00000E+00
 -1      1111 5.19287E+01 2.22423E+01 0.00000E+00
 -1      1112 4.29287E+01 2.22423E+01 0.00000E+00
 -1      1113 1.26929E+02 2.22423E+01 0.00000E+00
 -1      1114 5.79287E+01 2.22423E+01 0.00000E+00
 -1      1115 6.09287E+01 2.22423E+01 0.00000E+00
 -1      1116 0.00000E+00 4.84750E+01 0.00000E+00
 -1      1117 0.00000E+00 4.54250E+01 0.00000E+00
 -1      1118 0.00000E+00 4.24000E+01 0.00000E+00
 -1      1119 0.00000E+00 3.93750E+01 0.00000E+00
 -1      1120 0.00000E+00 3.63250E+01 0.00000E+00
 -1      1121 0.00000E+00 3.33000E+01 0.00000E+00
 -1      1122 0.00000E+00 3.03000E+01 0.00000E+00
 -1      1123 0.00000E+00 2.73000E+01 0.00000E+00
 -1      1124 0.00000E+00 2.45500E+01 0.00000E+00
 -1      1125 0.00000E+00 2.20500E+01 0.00000E+00
 -1      1126 0.00000E+00 1.94750E+01 0.00000E+00
 -1      1127 0.00000E+00 1.66500E+01 0.00000E+00
 -1      1128 0.00000E+00 1.36250E+01 0.00000E+00
 -1      1129 0.00000E+00 1.05750E+01 0.00000E+00
 -1      1130 0.00000E+00 7.55000E+00 0.00000E+00
 -1      1131 0.00000E+00 4.52500E+00 0.00000E+00
 -1      1132 0.00000E+00 1.50000E+00 0.00000E+00
 -1      1133 1.57500E+00 5.00000E+01 0.00000E+00
 -1      1134 4.65000E+00 5.00000E+01 0.00000E+00
 -1      1135 7.65000E+00 5.00000E+01 0.00000E+00
 -1      1136 1.06500E+01 5.00000E+01 0.00000E+00
 -1      1137 1.36500E+01 5.00000E+01 0.00000E+00
 -1      1138 1.66500E+01 5.00000E+01 0.00000E+00
 -1      1139 1.96500E+01 5.00000E+01 0.00000E+00
 -1      1140 2.26500E+01 5.00000E+01 0.00000E+00
 -1      1141 2.56500E+01 5.00000E+01 0.00000E+00
 -1      1142 2.86500E+01 5.00000E+01 0.00000E+00
 -1      1143 3.16500E+01 5.00000E+01 0.00000E+00
 -1      1144 3.46500E+01 5.00000E+01 0.00000E+00
 -1      1145 3.76500E+01 5.00000E+01 0.00000E+00
 -1      1146 4.06500E+01 5.00000E+01 0.00000E+00
 -1      1147 4.36500E+01 5.00000E+01 0.00000E+00
 -1      1148 4.66500E+01 5.00000E+01 0.00000E+00
 -1      1149 4.96500E+01 5.00000E+01 0.00000E+00
 -1      1150 5.26500E+01 5.00000E+01 0.00000E+00
 -1      1151 5.56500E+01 5.00000E+01 0.00000E+00
 -1      1152 5.86500E+01 5.00000E+01 0.00000E+00
 -1      1153 6.16500E+01 5.00000E+01 0.00000E+00
 -1      1154 6.46500E+01 5.00000E+01 0.00000E+00
 -1      1155 6.76500E+01 5.00000E+01 0.00000E+00
 -1      1156 7.06500E+01 5.00000E+01 0.00000E+00
 -1      1157 7.36500E+01 5.00000E+01 0.00000E+00
 -1      1158 7.66500E+01 5.00000E+01 0.00000E+00
 -1      1159 7.96500E+01 5.00000E+01 0.00000E+00
 -1      1160 8.26500E+01 5.00000E+01 0.00000E+00
 -1      1161 8.56500E+01 5.00000E+01 0.00000E+00
 -1      1162 8.86500E+01 5.00000E+01 0.00000E+00
 -1      1163 9.16500E+01 5.00000E+01 0.00000E+00
 -1      1164 9.46500E+01 5.00000E+01 0.00000E+00
 -1      1165 9.76500E+01 5.00000E+01 0.00000E+00
 -1      1166 1.00650E+02 5.00000E+01 0.00000E+00
 -1      1167 1.03650E+02 5.00000E+01 0.00000E+00
 -1      1168 1.06650E+02 5.00000E+01 0.00000E+00
 -1      1169 1.09650E+02 5.00000E+01 0.00000E+00
 -1      1170 1.12650E+02 5.00000E+01 0.00000E+00
 -1      1171 1.15650E+02 5.00000E+01 0.00000E+00
 -1      1172 1.18650E+02 5.00000E+01 0.00000E+00
 -1      1173 1.21650E+02 5.00000E+01 0.00000E+00
 -1      1174 1.24650E+02 5.00000E+01 0.00000E+00
 -1      1175 1.27650E+02 5.00000E+01 0.00000E+00
 -1      1176 1.30650E+02 5.00000E+01 0.00000E+00
 -1      1177 1.33650E+02 5.00000E+01 0.00000E+00
 -1      1178 1.36650E+02 5.00000E+01 0.00000E+00
 -1      1179 1.39650E+02 5.00000E+01 0.00000E+00
 -1      1180 1.42650E+02 5.00000E+01 0.00000E+00
 -1      1181 1.45650E+02 5.00000E+01 0.00000E+00
 -1      1182 1.48575E+02 5.00000E+01 0.00000E+00
 -1      1183 1.57500E+00 0.00000E+00 0.00000E+00
 -1      1184 4.65000E+00 0.00000E+00 0.00000E+00
 -1      1185 7.65000E+00 0.00000E+00 0.00000E+00
 -1      1186 1.06500E+01 0.00000E+00 0.00000E+00
 -1      1187 1.36500E+01 0.00000E+00 0.00000E+00
 -1      1188 1.66500E+01 0.00000E+00 0.00000E+00
 -1      1189 1.96500E+01 0.00000E+00 0.00000E+00
 -1      1190 2.26500E+01 0.00000E+00 0.00000E+00
 -1      1191 2.56500E+01 0.00000E+00 0.00000E+00
 -1      1192 2.86500E+01 0.00000E+00 0.00000E+00
 -1      1193 3.16500E+01 0.00000E+00 0.00000E+00
 -1      1194 3.46500E+01 0.00000E+00 0.00000E+00
 -1      1195 3.76500E+01 0.00000E+00 0.00000E+00
 -1      1196 4.06500E+01 0.00000E+00 0.00000E+00
 -1      1197 4.36500E+01 0.00000E+00 0.00000E+00
 -1      1198 4.66500E+01 0.00000E+00 0.00000E+00
 -1      1199 4.96500E+01 0.00000E+00 0.00000E+00
 -1      1200 5.26500E+01 0.00000E+00 0.00000E+00
 -1      1201 5.56500E+01 0.00000E+00 0.00000E+00
 -1      1202 5.86500E+01 0.00000E+00 0.00000E+00
 -1      1203 6.16500E+01 0.00000E+00 0.00000E+00
 -1      1204 6.46500E+01 0.00000E+00 0.00000E+00
 -1      1205 6.76500E+01 0.00000E+00 0.00000E+00
 -1      1206 7.06500E+01 0.00000E+00 0.00000E+00
 -1      1207 7.36500E+01 0.00000E+00 0.00000E+00
 -1      1208 7.66500E+01 0.00000E+00 0.00000E+00
 -1      1209 7.96500E+01 0.00000E+00 0.00000E+00
 -1      1210 8.26500E+01 0.00000E+00 0.00000E+00
 -1      1211 8.56500E+01 0.00000E+00 0.00000E+00
 -1      1212 8.86500E+01 0.00000E+00 0.00000E+00
 -1      1213 9.16500E+01 0.00000E+00 0.00000E+00
 -1      1214 9.46500E+01 0.00000E+00 0.00000E+00
 -1      1215 9.76500E+01 0.00000E+00 0.00000E+00
 -1      1216 1.00650E+02 0.00000E+00 0.00000E+00
 -1      1217 1.03650E+02 0.00000E+00 0.00000E+00
 -1      1218 1.06650E+02 0.00000E+00 0.00000E+00
 -1      1219 1.09650E+02 0.00000E+00 0.00000E+00
 -1      1220 1.12650E+02 0.00000E+00 0.00000E+00
 -1      1221 1.15650E+02 0.00000E+00 0.00000E+00
 -1      1222 1.18650E+02 0.00000E+00 0.00000E+00
 -1      1223 1.21650E+02 0.00000E+00 0.00000E+00
 -1      1224 1.24650E+02 0.00000E+00 0.00000E+00
 -1      1225 1.27650E+02 0.00000E+00 0.00000E+00
 -1      1226 1.30650E+02 0.00000E+00 0.00000E+00
 -1      1227 1.33650E+02 0.00000E+00 0.00000E+00
 -1      1228 1.36650E+02 0.00000E+00 0.00000E+00
 -1      1229 1.39650E+02 0.00000E+00 0.00000E+00
 -1      1230 1.42650E+02 0.00000E+00 0.00000E+00
 -1      1231 1.45650E+02 0.00000E+00 0.00000E+00
 -1      1232 1.48575E+02 0.00000E+00 0.00000E+00
 -1      1233 1.50000E+02 1.47500E+00 0.00000E+00
 -1      1234 1.50000E+02 4.42500E+00 0.00000E+00
 -1      1235 1.50000E+02 7.37500E+00 0.00000E+00
 -1      1236 1.50000E+02 1.03250E+01 0.00000E+00
 -1      1237 1.50000E+02 1.32750E+01 0.00000E+00
 -1      1238 1.50000E+02 1.62000E+01 0.00000E+00
 -1      1239 1.50000E+02 1.91250E+01 0.00000E+00
 -1      1240 1.50000E+02 2.20750E+01 0.00000E+00
 -1      1241 1.50000E+02 2.50250E+01 0.00000E+00
 -1      1242 1.50000E+02 2.79750E+01 0.00000E+00
 -1      1243 1.50000E+02 3.09250E+01 0.00000E+00
 -1      1244 1.50000E+02 3.38500E+01 0.00000E+00
 -1      1245 1.50000E+02 3.67750E+01 0.00000E+00
 -1      1246 1.50000E+02 3.97250E+01 0.00000E+00
 -1      1247 1.50000E+02 4.26750E+01 0.00000E+00
 -1      1248 1.50000E+02 4.56250E+01 0.00000E+00
 -1      1249 1.50000E+02 4.85500E+01 0.00000E+00
 -1      1250 2.43973E+01 2.33975E+01 0.00000E+00
 -1      1251 2.40945E+01 2.19762E+01 0.00000E+00
 -1      1252 2.34640E+01 2.05784E+01 0.00000E+00
 -1      1253 2.25217E+01 1.93274E+01 0.00000E+00
 -1      1254 2.13843E+01 1.83573E+01 0.00000E+00
 -1      1255 2.00647E+01 1.76500E+01 0.00000E+00
 -1      1256 1.86465E+01 1.72433E+01 0.00000E+00
 -1      1257 1.71851E+01 1.71424E+01 0.00000E+00
 -1      1258 1.57256E+01 1.73503E+01 0.00000E+00
 -1      1259 1.42530E+01 1.79038E+01 0.00000E+00
 -1      1260 1.29504E+01 1.87645E+01 0.00000E+00
 -1      1261 1.19298E+01 1.98165E+01 0.00000E+00
 -1      1262 1.11542E+01 2.10506E+01 0.00000E+00
 -1      1263 1.06523E+01 2.24136E+01 0.00000E+00
 -1      1264 1.04422E+01 2.38583E+01 0.00000E+00
 -1      1265 1.05557E+01 2.54236E+01 0.00000E+00
 -1      1266 1.10091E+01 2.69105E+01 0.00000E+00
 -1      1267 1.17307E+01 2.81929E+01 0.00000E+00
 -1      1268 1.27329E+01 2.93220E+01 0.00000E+00
 -1      1269 1.39136E+01 3.01868E+01 0.00000E+00
 -1      1270 1.52259E+01 3.07797E+01 0.00000E+00
 -1      1271 1.66902E+01 3.10980E+01 0.00000E+00
 -1      1272 1.81443E+01 3.11021E+01 0.00000E+00
 -1      1273 1.94917E+01 3.08295E+01 0.00000E+00
 -1      1274 2.07431E+01 3.03078E+01 0.00000E+00
 -1      1275 2.18472E+01 2.95736E+01 0.00000E+00
 -1      1276 2.27967E+01 2.86401E+01 0.00000E+00
 -1      1277 2.35800E+01 2.74933E+01 0.00000E+00
 -1      1278 2.41199E+01 2.62195E+01 0.00000E+00
 -1      1279 2.43990E+01 2.48622E+01 0.00000E+00
 -1      1280 1.57500E+00 4.84750E+01 0.00000E+00
 -1      1281 1.29900E+00 4.46625E+01 0.00000E+00
 -1      1282 1.29900E+00 4.61875E+01 0.00000E+00
 -1      1283 1.29900E+00 4.16625E+01 0.00000E+00
 -1      1284 1.29900E+00 4.31625E+01 0.00000E+00
 -1      1285 2.59800E+00 4.39250E+01 0.00000E+00
 -1      1286 1.29900E+00 3.86125E+01 0.00000E+00
 -1      1287 1.29900E+00 4.01375E+01 0.00000E+00
 -1      1288 2.59800E+00 4.09000E+01 0.00000E+00
 -1      1289 1.29900E+00 3.55625E+01 0.00000E+00
 -1      1290 1.29900E+00 3.70875E+01 0.00000E+00
 -1      1291 2.59800E+00 3.78500E+01 0.00000E+00
 -1      1292 1.29900E+00 3.25625E+01 0.00000E+00
 -1      1293 1.29900E+00 3.40625E+01 0.00000E+00
 -1      1294 2.59800E+00 3.48250E+01 0.00000E+00
 -1      1295 1.29900E+00 2.95625E+01 0.00000E+00
 -1      1296 1.29900E+00 3.10625E+01 0.00000E+00
 -1      1297 2.59800E+00 3.18250E+01 0.00000E+00
 -1      1298 1.29900E+00 2.65625E+01 0.00000E+00
 -1      1299 1.29900E+00 2.80625E+01 0.00000E+00
 -1      1300 2.59800E+00 2.88250E+01 0.00000E+00
 -1      1301 1.29900E+00 2.40625E+01 0.00000E+00
 -1      1302 1.29900E+00 2.53125E+01 0.00000E+00
 -1      1303 2.59800E+00 2.60750E+01 0.00000E+00
 -1      1304 1.29900E+00 2.15625E+01 0.00000E+00
 -1      1305 1.29900E+00 2.28125E+01 0.00000E+00
 -1      1306 2.59800E+00 2.35750E+01 0.00000E+00
 -1      1307 1.29900E+00 1.89125E+01 0.00000E+00
 -1      1308 1.29900E+00 2.02375E+01 0.00000E+00
 -1      1309 2.59800E+00 2.10000E+01 0.00000E+00
 -1      1310 1.29900E+00 1.59125E+01 0.00000E+00
 -1      1311 1.29900E+00 1.74125E+01 0.00000E+00
 -1      1312 2.59800E+00 1.81750E+01 0.00000E+00
 -1      1313 1.29900E+00 1.28625E+01 0.00000E+00
 -1      1314 1.29900E+00 1.43875E+01 0.00000E+00
 -1      1315 2.59800E+00 1.51500E+01 0.00000E+00
 -1      1316 1.29900E+00 9.81250E+00 0.00000E+00
 -1      1317 1.29900E+00 1.13375E+01 0.00000E+00
 -1      1318 2.59800E+00 1.21000E+01 0.00000E+00
 -1      1319 1.29900E+00 6.81250E+00 0.00000E+00
 -1      1320 1.29900E+00 8.31250E+00 0.00000E+00
 -1      1321 2.59800E+00 9.07500E+00 0.00000E+00
 -1      1322 1.29900E+00 3.76250E+00 0.00000E+00
 -1      1323 1.29900E+00 5.28750E+00 0.00000E+00
 -1      1324 2.59800E+00 6.05000E+00 0.00000E+00
 -1      1325 1.43700E+00 1.13125E+00 0.00000E+00
 -1      1326 1.43700E+00 2.63125E+00 0.00000E+00
 -1      1327 2.73600E+00 3.39375E+00 0.00000E+00
 -1      1328 3.01200E+00 1.13125E+00 0.00000E+00
 -1      1329 3.90000E+00 4.87010E+01 0.00000E+00
 -1      1330 5.40000E+00 4.87010E+01 0.00000E+00
 -1      1331 6.90000E+00 4.87010E+01 0.00000E+00
 -1      1332 8.40000E+00 4.87010E+01 0.00000E+00
 -1      1333 6.15000E+00 4.74020E+01 0.00000E+00
 -1      1334 9.90000E+00 4.87010E+01 0.00000E+00
 -1      1335 1.14000E+01 4.87010E+01 0.00000E+00
 -1      1336 9.15000E+00 4.74020E+01 0.00000E+00
 -1      1337 1.29000E+01 4.87010E+01 0.00000E+00
 -1      1338 1.44000E+01 4.87010E+01 0.00000E+00
 -1      1339 1.21500E+01 4.74020E+01 0.00000E+00
 -1      1340 1.59000E+01 4.87010E+01 0.00000E+00
 -1      1341 1.74000E+01 4.87010E+01 0.00000E+00
 -1      1342 1.51500E+01 4.74020E+01 0.00000E+00
 -1      1343 1.89000E+01 4.87010E+01 0.00000E+00
 -1      1344 2.04000E+01 4.87010E+01 0.00000E+00
 -1      1345 1.81500E+01 4.74020E+01 0.00000E+00
 -1      1346 2.19000E+01 4.87010E+01 0.00000E+00
 -1      1347 2.34000E+01 4.87010E+01 0.00000E+00
 -1      1348 2.11500E+01 4.74020E+01 0.00000E+00
 -1      1349 2.49000E+01 4.87010E+01 0.00000E+00
 -1      1350 2.64000E+01 4.87010E+01 0.00000E+00
 -1      1351 2.41500E+01 4.74020E+01 0.00000E+00
 -1      1352 2.79000E+01 4.87010E+01 0.00000E+00
 -1      1353 2.94000E+01 4.87010E+01 0.00000E+00
 -1      1354 2.71500E+01 4.74020E+01 0.00000E+00
 -1      1355 3.09000E+01 4.87010E+01 0.00000E+00
 -1      1356 3.24000E+01 4.87010E+01 0.00000E+00
 -1      1357 3.01500E+01 4.74020E+01 0.00000E+00
 -1      1358 3.39000E+01 4.87010E+01 0.00000E+00
 -1      1359 3.54000E+01 4.87010E+01 0.00000E+00
 -1      1360 3.31500E+01 4.74020E+01 0.00000E+00
 -1      1361 3.69000E+01 4.87010E+01 0.00000E+00
 -1      1362 3.84000E+01 4.87010E+01 0.00000E+00
 -1      1363 3.61500E+01 4.74020E+01 0.00000E+00
 -1      1364 3.99000E+01 4.87010E+01 0.00000E+00
 -1      1365 4.14000E+01 4.87010E+01 0.00000E+00
 -1      1366 3.91500E+01 4.74020E+01 0.00000E+00
 -1      1367 4.29000E+01 4.87010E+01 0.00000E+00
 -1      1368 4.44000E+01 4.87010E+01 0.00000E+00
 -1      1369 4.21500E+01 4.74020E+01 0.00000E+00
 -1      1370 4.59000E+01 4.87010E+01 0.00000E+00
 -1      1371 4.74000E+01 4.87010E+01 0.00000E+00
 -1      1372 4.51500E+01 4.74020E+01 0.00000E+00
 -1      1373 4.89000E+01 4.87010E+01 0.00000E+00
 -1      1374 5.04000E+01 4.87010E+01 0.00000E+00
 -1      1375 4.81500E+01 4.74020E+01 0.00000E+00
 -1      1376 5.19000E+01 4.87010E+01 0.00000E+00
 -1      1377 5.34000E+01 4.87010E+01 0.00000E+00
 -1      1378 5.11500E+01 4.74020E+01 0.00000E+00
 -1      1379 5.49000E+01 4.87010E+01 0.00000E+00
 -1      1380 5.64000E+01 4.87010E+01 0.00000E+00
 -1      1381 5.41500E+01 4.74020E+01 0.00000E+00
 -1      1382 5.79000E+01 4.87010E+01 0.00000E+00
 -1      1383 5.94000E+01 4.87010E+01 0.00000E+00
 -1      1384 5.71500E+01 4.74020E+01 0.00000E+00
 -1      1385 6.09000E+01 4.87010E+01 0.00000E+00
 -1      1386 6.24000E+01 4.87010E+01 0.00000E+00
 -1      1387 6.01500E+01 4.74020E+01 0.00000E+00
 -1      1388 6.39000E+01 4.87010E+01 0.00000E+00
 -1      1389 6.54000E+01 4.87010E+01 0.00000E+00
 -1      1390 6.31500E+01 4.74020E+01 0.00000E+00
 -1      1391 6.69000E+01 4.87010E+01 0.00000E+00
 -1      1392 6.84000E+01 4.87010E+01 0.00000E+00
 -1      1393 6.61500E+01 4.74020E+01 0.00000E+00
 -1      1394 6.99000E+01 4.87010E+01 0.00000E+00
 -1      1395 7.14000E+01 4.87010E+01 0.00000E+00
 -1      1396 6.91500E+01 4.74020E+01 0.00000E+00
 -1      1397 7.29000E+01 4.87010E+01 0.00000E+00
 -1      1398 7.44000E+01 4.87010E+01 0.00000E+00
 -1      1399 7.21500E+01 4.74020E+01 0.00000E+00
 -1      1400 7.59000E+01 4.87010E+01 0.00000E+00
 -1      1401 7.74000E+01 4.87010E+01 0.00000E+00
 -1      1402 7.51500E+01 4.74020E+01 0.00000E+00
 -1      1403 7.89000E+01 4.87010E+01 0.00000E+00
 -1      1404 8.04000E+01 4.87010E+01 0.00000E+00
 -1      1405 7.81500E+01 4.74020E+01 0.00000E+00
 -1      1406 8.19000E+01 4.87010E+01 0.00000E+00
 -1      1407 8.34000E+01 4.87010E+01 0.00000E+00
 -1      1408 8.11500E+01 4.74020E+01 0.00000E+00
 -1      1409 8.49000E+01 4.87010E+01 0.00000E+00
 -1      1410 8.64000E+01 4.87010E+01 0.00000E+00
 -1      1411 8.41500E+01 4.74020E+01 0.00000E+00
 -1      1412 8.79000E+01 4.87010E+01 0.00000E+00
 -1      1413 8.94000E+01 4.87010E+01 0.00000E+00
 -1      1414 8.71500E+01 4.74020E+01 0.00000E+00
 -1      1415 9.09000E+01 4.87010E+01 0.00000E+00
 -1      1416 9.24000E+01 4.87010E+01 0.00000E+00
 -1      1417 9.01500E+01 4.74020E+01 0.00000E+00
 -1      1418 9.39000E+01 4.87010E+01 0.00000E+00
 -1      1419 9.54000E+01 4.87010E+01 0.00000E+00
 -1      1420 9.31500E+01 4.74020E+01 0.00000E+00
 -1      1421 9.69000E+01 4.87010E+01 0.00000E+00
 -1      1422 9.84000E+01 4.87010E+01 0.00000E+00
 -1      1423 9.61500E+01 4.74020E+01 0.00000E+00
 -1      1424 9.99000E+01 4.87010E+01 0.00000E+00
 -1      1425 1.01400E+02 4.87010E+01 0.00000E+00
 -1      1426 9.91500E+01 4.74020E+01 0.00000E+00
 -1      1427 1.02900E+02 4.87010E+01 0.00000E+00
 -1      1428 1.04400E+02 4.87010E+01 0.00000E+00
 -1      1429 1.02150E+02 4.74020E+01 0.00000E+00
 -1      1430 1.05900E+02 4.87010E+01 0.00000E+00
 -1      1431 1.07400E+02 4.87010E+01 0.00000E+00
 -1      1432 1.05150E+02 4.74020E+01 0.00000E+00
 -1      1433 1.08900E+02 4.87010E+01 0.00000E+00
 -1      1434 1.10400E+02 4.87010E+01 0.00000E+00
 -1      1435 1.08150E+02 4.74020E+01 0.00000E+00
 -1      1436 1.11900E+02 4.87010E+01 0.00000E+00
 -1      1437 1.13400E+02 4.87010E+01 0.00000E+00
 -1      1438 1.11150E+02 4.74020E+01 0.00000E+00
 -1      1439 1.14900E+02 4.87010E+01 0.00000E+00
 -1      1440 1.16400E+02 4.87010E+01 0.00000E+00
 -1      1441 1.14150E+02 4.74020E+01 0.00000E+00
 -1      1442 1.17900E+02 4.87010E+01 0.00000E+00
 -1      1443 1.19400E+02 4.87010E+01 0.00000E+00
 -1      1444 1.17150E+02 4.74020E+01 0.00000E+00
 -1      1445 1.20900E+02 4.87010E+01 0.00000E+00
 -1      1446 1.22400E+02 4.87010E+01 0.00000E+00
 -1      1447 1.20150E+02 4.74020E+01 0.00000E+00
 -1      1448 1.23900E+02 4.87010E+01 0.00000E+00
 -1      1449 1.25400E+02 4.87010E+01 0.00000E+00
 -1      1450 1.23150E+02 4.74020E+01 0.00000E+00
 -1      1451 1.26900E+02 4.87010E+01 0.00000E+00
 -1      1452 1.28400E+02 4.87010E+01 0.00000E+00
 -1      1453 1.26150E+02 4.74020E+01 0.00000E+00
 -1      1454 1.29900E+02 4.87010E+01 0.00000E+00
 -1      1455 1.31400E+02 4.87010E+01 0.00000E+00
 -1      1456 1.29150E+02 4.74020E+01 0.00000E+00
 -1      1457 1.32900E+02 4.87010E+01 0.00000E+00
 -1      1458 1.34400E+02 4.87010E+01 0.00000E+00
 -1      1459 1.32150E+02 4.74020E+01 0.00000E+00
 -1      1460 1.35900E+02 4.87010E+01 0.00000E+00
 -1      1461 1.37400E+02 4.87010E+01 0.00000E+00
 -1      1462 1.35150E+02 4.74020E+01 0.00000E+00
 -1      1463 1.38900E+02 4.87010E+01 0.00000E+00
 -1      1464 1.40400E+02 4.87010E+01 0.00000E+00
 -1      1465 1.38150E+02 4.74020E+01 0.00000E+00
 -1      1466 1.41900E+02 4.87010E+01 0.00000E+00
 -1      1467 1.43400E+02 4.87010E+01 0.00000E+00
 -1      1468 1.41150E+02 4.74020E+01 0.00000E+00
 -1      1469 1.44900E+02 4.87010E+01 0.00000E+00
 -1      1470 1.46400E+02 4.87010E+01 0.00000E+00
 -1      1471 1.44150E+02 4.74020E+01 0.00000E+00
 -1      1472 1.48575E+02 4.85500E+01 0.00000E+00
 -1      1473 1.47825E+02 4.72510E+01 0.00000E+00
 -1      1474 6.01200E+00 1.13125E+00 0.00000E+00
 -1      1475 4.51200E+00 1.13125E+00 0.00000E+00
 -1      1476 4.37400E+00 2.26250E+00 0.00000E+00
 -1      1477 9.01200E+00 1.13125E+00 0.00000E+00
 -1      1478 7.51200E+00 1.13125E+00 0.00000E+00
 -1      1479 7.37400E+00 2.26250E+00 0.00000E+00
 -1      1480 1.20120E+01 1.13125E+00 0.00000E+00
 -1      1481 1.05120E+01 1.13125E+00 0.00000E+00
 -1      1482 1.03740E+01 2.26250E+00 0.00000E+00
 -1      1483 1.50120E+01 1.13125E+00 0.00000E+00
 -1      1484 1.35120E+01 1.13125E+00 0.00000E+00
 -1      1485 1.33740E+01 2.26250E+00 0.00000E+00
 -1      1486 1.80120E+01 1.13125E+00 0.00000E+00
 -1      1487 1.65120E+01 1.13125E+00 0.00000E+00
 -1      1488 1.63740E+01 2.26250E+00 0.00000E+00
 -1      1489 2.10120E+01 1.13125E+00 0.00000E+00
 -1      1490 1.95120E+01 1.13125E+00 0.00000E+00
 -1      1491 1.93740E+01 2.26250E+00 0.00000E+00
 -1      1492 2.40120E+01 1.13125E+00 0.00000E+00
 -1      1493 2.25120E+01 1.13125E+00 0.00000E+00
 -1      1494 2.23740E+01 2.26250E+00 0.00000E+00
 -1      1495 2.70120E+01 1.13125E+00 0.00000E+00
 -1      1496 2.55120E+01 1.13125E+00 0.00000E+00
 -1      1497 2.53740E+01 2.26250E+00 0.00000E+00
 -1      1498 3.00120E+01 1.13125E+00 0.00000E+00
 -1      1499 2.85120E+01 1.13125E+00 0.00000E+00
 -1      1500 2.83740E+01 2.26250E+00 0.00000E+00
 -1      1501 3.30120E+01 1.13125E+00 0.00000E+00
 -1      1502 3.15120E+01 1.13125E+00 0.00000E+00
 -1      1503 3.13740E+01 2.26250E+00 0.00000E+00
 -1      1504 3.60120E+01 1.13125E+00 0.00000E+00
 -1      1505 3.45120E+01 1.13125E+00 0.00000E+00
 -1      1506 3.43740E+01 2.26250E+00 0.00000E+00
 -1      1507 3.90120E+01 1.13125E+00 0.00000E+00
 -1      1508 3.75120E+01 1.13125E+00 0.00000E+00
 -1      1509 3.73740E+01 2.26250E+00 0.00000E+00
 -1      1510 4.20120E+01 1.13125E+00 0.00000E+00
 -1      1511 4.05120E+01 1.13125E+00 0.00000E+00
 -1      1512 4.03740E+01 2.26250E+00 0.00000E+00
 -1      1513 4.50120E+01 1.13125E+00 0.00000E+00
 -1      1514 4.35120E+01 1.13125E+00 0.00000E+00
 -1      1515 4.33740E+01 2.26250E+00 0.00000E+00
 -1      1516 4.80120E+01 1.13125E+00 0.00000E+00
 -1      1517 4.65120E+01 1.13125E+00 0.00000E+00
 -1      1518 4.63740E+01 2.26250E+00 0.00000E+00
 -1      1519 5.10120E+01 1.13125E+00 0.00000E+00
 -1      1520 4.95120E+01 1.13125E+00 0.00000E+00
 -1      1521 4.93740E+01 2.26250E+00 0.00000E+00
 -1      1522 5.40120E+01 1.13125E+00 0.00000E+00
 -1      1523 5.25120E+01 1.13125E+00 0.00000E+00
 -1      1524 5.23740E+01 2.26250E+00 0.00000E+00
 -1      1525 5.70120E+01 1.13125E+00 0.00000E+00
 -1      1526 5.55120E+01 1.13125E+00 0.00000E+00
 -1      1527 5.53740E+01 2.26250E+00 0.00000E+00
 -1      1528 6.00120E+01 1.13125E+00 0.00000E+00
 -1      1529 5.85120E+01 1.13125E+00 0.00000E+00
 -1      1530 5.83740E+01 2.26250E+00 0.00000E+00
 -1      1531 6.30120E+01 1.13125E+00 0.00000E+00
 -1      1532 6.15120E+01 1.13125E+00 0.00000E+00
 -1      1533 6.13740E+01 2.26250E+00 0.00000E+00
 -1      1534 6.60120E+01 1.13125E+00 0.00000E+00
 -1      1535 6.45120E+01 1.13125E+00 0.00000E+00
 -1      1536 6.43740E+01 2.26250E+00 0.00000E+00
 -1      1537 6.90120E+01 1.13125E+00 0.00000E+00
 -1      1538 6.75120E+01 1.13125E+00 0.00000E+00
 -1      1539 6.73740E+01 2.26250E+00 0.00000E+00
 -1      1540 7.20120E+01 1.13125E+00 0.00000E+00
 -1      1541 7.05120E+01 1.13125E+00 0.00000E+00
 -1      1542 7.03740E+01 2.26250E+00 0.00000E+00
 -1      1543 7.50120E+01 1.13125E+00 0.00000E+00
 -1      1544 7.35120E+01 1.13125E+00 0.00000E+00
 -1      1545 7.33740E+01 2.26250E+00 0.00000E+00
 -1      1546 7.80120E+01 1.13125E+00 0.00000E+00
 -1      1547 7.65120E+01 1.13125E+00 0.00000E+00
 -1      1548 7.63740E+01 2.26250E+00 0.00000E+00
 -1      1549 8.10120E+01 1.13125E+00 0.00000E+00
 -1      1550 7.95120E+01 1.13125E+00 0.00000E+00
 -1      1551 7.93740E+01 2.26250E+00 0.00000E+00
 -1      1552 8.40120E+01 1.13125E+00 0.00000E+00
 -1      1553 8.25120E+01 1.13125E+00 0.00000E+00
 -1      1554 8.23740E+01 2.26250E+00 0.00000E+00
 -1      1555 8.70120E+01 1.13125E+00 0.00000E+00
 -1      1556 8.55120E+01 1.13125E+00 0.00000E+00
 -1      1557 8.53740E+01 2.26250E+00 0.00000E+00
 -1      1558 9.00120E+01 1.13125E+00 0.00000E+00
 -1      1559 8.85120E+01 1.13125E+00 0.00000E+00
 -1      1560 8.83740E+01 2.26250E+00 0.00000E+00
 -1      1561 9.30120E+01 1.13125E+00 0.00000E+00
 -1      1562 9.15120E+01 1.13125E+00 0.00000E+00
 -1      1563 9.13740E+01 2.26250E+00 0.00000E+00
 -1      1564 9.60120E+01 1.13125E+00 0.00000E+00
 -1      1565 9.45120E+01 1.13125E+00 0.00000E+00
 -1      1566 9.43740E+01 2.26250E+00 0.00000E+00
 -1      1567 9.90120E+01 1.13125E+00 0.00000E+00
 -1      1568 9.75120E+01 1.13125E+00 0.00000E+00
 -1      1569 9.73740E+01 2.26250E+00 0.00000E+00
 -1      1570 1.02012E+02 1.13125E+00 0.00000E+00
 -1      1571 1.00512E+02 1.13125E+00 0.00000E+00
 -1      1572 1.00374E+02 2.26250E+00 0.00000E+00
 -1      1573 1.05012E+02 1.13125E+00 0.00000E+00
 -1      1574 1.03512E+02 1.13125E+00 0.00000E+00
 -1      1575 1.03374E+02 2.26250E+00 0.00000E+00
 -1      1576 1.08012E+02 1.13125E+00 0.00000E+00
 -1      1577 1.06512E+02 1.13125E+00 0.00000E+00
 -1      1578 1.06374E+02 2.26250E+00 0.00000E+00
 -1      1579 1.11012E+02 1.13125E+00 0.00000E+00
 -1      1580 1.09512E+02 1.13125E+00 0.00000E+00
 -1      1581 1.09374E+02 2.26250E+00 0.00000E+00
 -1      1582 1.14012E+02 1.13125E+00 0.00000E+00
 -1      1583 1.12512E+02 1.13125E+00 0.00000E+00
 -1      1584 1.12374E+02 2.26250E+00 0.00000E+00
 -1      1585 1.17012E+02 1.13125E+00 0.00000E+00
 -1      1586 1.15512E+02 1.13125E+00 0.00000E+00
 -1      1587 1.15374E+02 2.26250E+00 0.00000E+00
 -1      1588 1.20012E+02 1.13125E+00 0.00000E+00
 -1      1589 1.18512E+02 1.13125E+00 0.00000E+00
 -1      1590 1.18374E+02 2.26250E+00 0.00000E+00
 -1      1591 1.23012E+02 1.13125E+00 0.00000E+00
 -1      1592 1.21512E+02 1.13125E+00 0.00000E+00
 -1      1593 1.21374E+02 2.26250E+00 0.00000E+00
 -1      1594 1.26012E+02 1.13125E+00 0.00000E+00
 -1      1595 1.24512E+02 1.13125E+00 0.00000E+00
 -1      1596 1.24374E+02 2.26250E+00 0.00000E+00
 -1      1597 1.29012E+02 1.13125E+00 0.00000E+00
 -1      1598 1.27512E+02 1.13125E+00 0.00000E+00
 -1      1599 1.27374E+02 2.26250E+00 0.00000E+00
 -1      1600 1.32012E+02 1.13125E+00 0.00000E+00
 -1      1601 1.30512E+02 1.13125E+00 0.00000E+00
 -1      1602 1.30374E+02 2.26250E+00 0.00000E+00
 -1      1603 1.35012E+02 1.13125E+00 0.00000E+00
 -1      1604 1.33512E+02 1.13125E+00 0.00000E+00
 -1      1605 1.33374E+02 2.26250E+00 0.00000E+00
 -1      1606 1.38012E+02 1.13125E+00 0.00000E+00
 -1      1607 1.36512E+02 1.13125E+00 0.00000E+00
 -1      1608 1.36374E+02 2.26250E+00 0.00000E+00
 -1      1609 1.41012E+02 1.13125E+00 0.00000E+00
 -1      1610 1.39512E+02 1.13125E+00 0.00000E+00
 -1      1611 1.39374E+02 2.26250E+00 0.00000E+00
 -1      1612 1.44012E+02 1.13125E+00 0.00000E+00
 -1      1613 1.42512E+02 1.13125E+00 0.00000E+00
 -1      1614 1.42374E+02 2.26250E+00 0.00000E+00
 -1      1615 1.47012E+02 1.13125E+00 0.00000E+00
 -1      1616 1.45512E+02 1.13125E+00 0.00000E+00
 -1      1617 1.45374E+02 2.26250E+00 0.00000E+00
 -1      1618 1.48575E+02 1.47500E+00 0.00000E+00
 -1      1619 1.48701E+02 5.16250E+00 0.00000E+00
 -1      1620 1.48701E+02 3.68750E+00 0.00000E+00
 -1      1621 1.48701E+02 8.11250E+00 0.00000E+00
 -1      1622 1.48701E+02 6.63750E+00 0.00000E+00
 -1      1623 1.47402E+02 5.90000E+00 0.00000E+00
 -1      1624 1.48701E+02 1.10625E+01 0.00000E+00
 -1      1625 1.48701E+02 9.58750E+00 0.00000E+00
 -1      1626 1.47402E+02 8.85000E+00 0.00000E+00
 -1      1627 1.48701E+02 1.40125E+01 0.00000E+00
 -1      1628 1.48701E+02 1.25375E+01 0.00000E+00
 -1      1629 1.47402E+02 1.18000E+01 0.00000E+00
 -1      1630 1.48701E+02 1.69125E+01 0.00000E+00
 -1      1631 1.48701E+02 1.54625E+01 0.00000E+00
 -1      1632 1.47402E+02 1.47250E+01 0.00000E+00
 -1      1633 1.48701E+02 1.98625E+01 0.00000E+00
 -1      1634 1.48701E+02 1.83875E+01 0.00000E+00
 -1      1635 1.47402E+02 1.76500E+01 0.00000E+00
 -1      1636 1.48701E+02 2.28125E+01 0.00000E+00
 -1      1637 1.48701E+02 2.13375E+01 0.00000E+00
 -1      1638 1.47402E+02 2.06000E+01 0.00000E+00
 -1      1639 1.48701E+02 2.57625E+01 0.00000E+00
 -1      1640 1.48701E+02 2.42875E+01 0.00000E+00
 -1      1641 1.47402E+02 2.35500E+01 0.00000E+00
 -1      1642 1.48701E+02 2.87125E+01 0.00000E+00
 -1      1643 1.48701E+02 2.72375E+01 0.00000E+00
 -1      1644 1.47402E+02 2.65000E+01 0.00000E+00
 -1      1645 1.48701E+02 3.16625E+01 0.00000E+00
 -1      1646 1.48701E+02 3.01875E+01 0.00000E+00
 -1      1647 1.47402E+02 2.94500E+01 0.00000E+00
 -1      1648 1.48701E+02 3.45625E+01 0.00000E+00
 -1      1649 1.48701E+02 3.31125E+01 0.00000E+00
 -1      1650 1.47402E+02 3.23750E+01 0.00000E+00
 -1      1651 1.48701E+02 3.75125E+01 0.00000E+00
 -1      1652 1.48701E+02 3.60375E+01 0.00000E+00
 -1      1653 1.47402E+02 3.53000E+01 0.00000E+00
 -1      1654 1.48701E+02 4.04625E+01 0.00000E+00
 -1      1655 1.48701E+02 3.89875E+01 0.00000E+00
 -1      1656 1.47402E+02 3.82500E+01 0.00000E+00
 -1      1657 1.48701E+02 4.34125E+01 0.00000E+00
 -1      1658 1.48701E+02 4.19375E+01 0.00000E+00
 -1      1659 1.47402E+02 4.12000E+01 0.00000E+00
 -1      1660 1.48263E+02 4.60692E+01 0.00000E+00
 -1      1661 1.48263E+02 4.45942E+01 0.00000E+00
 -1      1662 1.46964E+02 4.38568E+01 0.00000E+00
 -1      1663 1.46088E+02 4.62202E+01 0.00000E+00
 -1      1664 2.49219E+01 2.29694E+01 0.00000E+00
 -1      1665 2.50002E+01 2.37057E+01 0.00000E+00
 -1      1666 2.45264E+01 2.14613E+01 0.00000E+00
 -1      1667 2.47465E+01 2.21392E+01 0.00000E+00
 -1      1668 2.38801E+01 1.98562E+01 0.00000E+00
 -1      1669 2.42974E+01 2.05628E+01 0.00000E+00
 -1      1670 2.26769E+01 1.86673E+01 0.00000E+00
 -1      1671 2.31894E+01 1.92090E+01 0.00000E+00
 -1      1672 2.14177E+01 1.76440E+01 0.00000E+00
 -1      1673 2.20365E+01 1.80666E+01 0.00000E+00
 -1      1674 1.99464E+01 1.69461E+01 0.00000E+00
 -1      1675 2.06395E+01 1.72268E+01 0.00000E+00
 -1      1676 1.83865E+01 1.66207E+01 0.00000E+00
 -1      1677 1.91030E+01 1.67464E+01 0.00000E+00
 -1      1678 1.67962E+01 1.65888E+01 0.00000E+00
 -1      1679 1.75332E+01 1.65623E+01 0.00000E+00
 -1      1680 1.52195E+01 1.68496E+01 0.00000E+00
 -1      1681 1.59338E+01 1.66695E+01 0.00000E+00
 -1      1682 1.35515E+01 1.74495E+01 0.00000E+00
 -1      1683 1.42964E+01 1.70691E+01 0.00000E+00
 -1      1684 1.23077E+01 1.85604E+01 0.00000E+00
 -1      1685 1.28642E+01 1.80958E+01 0.00000E+00
 -1      1686 1.12552E+01 1.97578E+01 0.00000E+00
 -1      1687 1.17125E+01 1.91751E+01 0.00000E+00
 -1      1688 1.04851E+01 2.11213E+01 0.00000E+00
 -1      1689 1.08013E+01 2.04778E+01 0.00000E+00
 -1      1690 1.00118E+01 2.26301E+01 0.00000E+00
 -1      1691 1.01929E+01 2.19174E+01 0.00000E+00
 -1      1692 9.85958E+00 2.41976E+01 0.00000E+00
 -1      1693 9.88852E+00 2.34736E+01 0.00000E+00
 -1      1694 9.88175E+00 2.59791E+01 0.00000E+00
 -1      1695 9.72660E+00 2.51488E+01 0.00000E+00
 -1      1696 1.06262E+01 2.74622E+01 0.00000E+00
 -1      1697 1.03450E+01 2.68105E+01 0.00000E+00
 -1      1698 1.14569E+01 2.88547E+01 0.00000E+00
 -1      1699 1.10157E+01 2.82338E+01 0.00000E+00
 -1      1700 1.26014E+01 3.00237E+01 0.00000E+00
 -1      1701 1.20473E+01 2.95210E+01 0.00000E+00
 -1      1702 1.39361E+01 3.08589E+01 0.00000E+00
 -1      1703 1.33179E+01 3.04989E+01 0.00000E+00
 -1      1704 1.53900E+01 3.14336E+01 0.00000E+00
 -1      1705 1.47025E+01 3.12047E+01 0.00000E+00
 -1      1706 1.70105E+01 3.17410E+01 0.00000E+00
 -1      1707 1.62409E+01 3.16585E+01 0.00000E+00
 -1      1708 1.85405E+01 3.16378E+01 0.00000E+00
 -1      1709 1.78640E+01 3.17066E+01 0.00000E+00
 -1      1710 2.00161E+01 3.13540E+01 0.00000E+00
 -1      1711 1.93521E+01 3.15580E+01 0.00000E+00
 -1      1712 2.13061E+01 3.06583E+01 0.00000E+00
 -1      1713 2.07233E+01 3.09706E+01 0.00000E+00
 -1      1714 2.24673E+01 2.98103E+01 0.00000E+00
 -1      1715 2.19512E+01 3.02292E+01 0.00000E+00
 -1      1716 2.34510E+01 2.87542E+01 0.00000E+00
 -1      1717 2.30221E+01 2.92648E+01 0.00000E+00
 -1      1718 2.43258E+01 2.74893E+01 0.00000E+00
 -1      1719 2.39798E+01 2.81229E+01 0.00000E+00
 -1      1720 2.47672E+01 2.60747E+01 0.00000E+00
 -1      1721 2.45704E+01 2.67063E+01 0.00000E+00
 -1      1722 2.50854E+01 2.45695E+01 0.00000E+00
 -1      1723 2.50105E+01 2.52899E+01 0.00000E+00
 -1      1724 2.27330E+01 1.79208E+01 0.00000E+00
 -1      1725 2.40643E+01 1.91688E+01 0.00000E+00
 -1      1726 1.48437E+02 2.60625E+00 0.00000E+00
 -1      1727 1.47138E+02 3.34375E+00 0.00000E+00
 -1      1728 2.53884E+01 2.24432E+01 0.00000E+00
 -1      1729 2.49840E+01 2.07146E+01 0.00000E+00
 -1      1730 2.56491E+01 2.41372E+01 0.00000E+00
 -1      1731 2.13144E+01 1.69029E+01 0.00000E+00
 -1      1732 1.96929E+01 1.62861E+01 0.00000E+00
 -1      1733 1.79962E+01 1.60281E+01 0.00000E+00
 -1      1734 1.62806E+01 1.60504E+01 0.00000E+00
 -1      1735 1.44951E+01 1.63506E+01 0.00000E+00
 -1      1736 1.28847E+01 1.72165E+01 0.00000E+00
 -1      1737 1.16022E+01 1.84775E+01 0.00000E+00
 -1      1738 1.05530E+01 1.98122E+01 0.00000E+00
 -1      1739 9.80697E+00 2.13283E+01 0.00000E+00
 -1      1740 9.39157E+00 2.29679E+01 0.00000E+00
 -1      1741 9.13536E+00 2.47626E+01 0.00000E+00
 -1      1742 9.46569E+00 2.65451E+01 0.00000E+00
 -1      1743 1.03185E+01 2.81480E+01 0.00000E+00
 -1      1744 1.12984E+01 2.95860E+01 0.00000E+00
 -1      1745 1.26054E+01 3.07275E+01 0.00000E+00
 -1      1746 1.40883E+01 3.15485E+01 0.00000E+00
 -1      1747 1.57057E+01 3.21192E+01 0.00000E+00
 -1      1748 1.74101E+01 3.23097E+01 0.00000E+00
 -1      1749 1.90751E+01 3.21954E+01 0.00000E+00
 -1      1750 2.05938E+01 3.17322E+01 0.00000E+00
 -1      1751 2.19461E+01 3.09196E+01 0.00000E+00
 -1      1752 2.31460E+01 2.99449E+01 0.00000E+00
 -1      1753 2.42295E+01 2.87681E+01 0.00000E+00
 -1      1754 2.50030E+01 2.73538E+01 0.00000E+00
 -1      1755 2.54909E+01 2.57859E+01 0.00000E+00
 -1      1756 1.69110E+00 4.67793E+01 0.00000E+00
 -1      1757 3.26610E+00 4.83043E+01 0.00000E+00
 -1      1758 3.89700E+00 4.01375E+01 0.00000E+00
 -1      1759 3.89700E+00 4.16625E+01 0.00000E+00
 -1      1760 3.89700E+00 4.31625E+01 0.00000E+00
 -1      1761 3.89700E+00 4.46625E+01 0.00000E+00
 -1      1762 5.19600E+00 4.24000E+01 0.00000E+00
 -1      1763 3.89700E+00 3.40750E+01 0.00000E+00
 -1      1764 3.89700E+00 3.55750E+01 0.00000E+00
 -1      1765 3.89700E+00 3.10750E+01 0.00000E+00
 -1      1766 3.89700E+00 3.25750E+01 0.00000E+00
 -1      1767 5.19600E+00 3.33250E+01 0.00000E+00
 -1      1768 3.89700E+00 2.80750E+01 0.00000E+00
 -1      1769 3.89700E+00 2.95750E+01 0.00000E+00
 -1      1770 5.19600E+00 3.03250E+01 0.00000E+00
 -1      1771 3.89700E+00 2.55750E+01 0.00000E+00
 -1      1772 3.89700E+00 2.68250E+01 0.00000E+00
 -1      1773 5.19600E+00 2.75750E+01 0.00000E+00
 -1      1774 3.79070E+00 2.03375E+01 0.00000E+00
 -1      1775 3.79070E+00 2.16625E+01 0.00000E+00
 -1      1776 3.79070E+00 1.73375E+01 0.00000E+00
 -1      1777 3.79070E+00 1.88375E+01 0.00000E+00
 -1      1778 4.98339E+00 1.95000E+01 0.00000E+00
 -1      1779 3.79070E+00 1.42875E+01 0.00000E+00
 -1      1780 3.79070E+00 1.58125E+01 0.00000E+00
 -1      1781 4.98339E+00 1.64750E+01 0.00000E+00
 -1      1782 3.79070E+00 1.12375E+01 0.00000E+00
 -1      1783 3.79070E+00 1.27625E+01 0.00000E+00
 -1      1784 4.98339E+00 1.34250E+01 0.00000E+00
 -1      1785 3.79070E+00 8.23750E+00 0.00000E+00
 -1      1786 3.79070E+00 9.73750E+00 0.00000E+00
 -1      1787 4.98339E+00 1.04000E+01 0.00000E+00
 -1      1788 3.79070E+00 5.18750E+00 0.00000E+00
 -1      1789 3.79070E+00 6.71250E+00 0.00000E+00
 -1      1790 4.98339E+00 7.37500E+00 0.00000E+00
 -1      1791 4.15135E+00 3.15937E+00 0.00000E+00
 -1      1792 4.01335E+00 4.29063E+00 0.00000E+00
 -1      1793 5.20604E+00 4.95313E+00 0.00000E+00
 -1      1794 5.65135E+00 3.15937E+00 0.00000E+00
 -1      1795 4.01610E+00 4.70053E+01 0.00000E+00
 -1      1796 8.65135E+00 3.15937E+00 0.00000E+00
 -1      1797 7.15135E+00 3.15937E+00 0.00000E+00
 -1      1798 6.92870E+00 4.05625E+00 0.00000E+00
 -1      1799 8.40000E+00 4.61030E+01 0.00000E+00
 -1      1800 9.90000E+00 4.61030E+01 0.00000E+00
 -1      1801 1.14000E+01 4.61030E+01 0.00000E+00
 -1      1802 1.29000E+01 4.61030E+01 0.00000E+00
 -1      1803 1.06500E+01 4.48040E+01 0.00000E+00
 -1      1804 1.44000E+01 4.61030E+01 0.00000E+00
 -1      1805 1.59000E+01 4.61030E+01 0.00000E+00
 -1      1806 1.36500E+01 4.48040E+01 0.00000E+00
 -1      1807 1.74000E+01 4.61030E+01 0.00000E+00
 -1      1808 1.89000E+01 4.61030E+01 0.00000E+00
 -1      1809 1.66500E+01 4.48040E+01 0.00000E+00
 -1      1810 2.04000E+01 4.61030E+01 0.00000E+00
 -1      1811 2.19000E+01 4.61030E+01 0.00000E+00
 -1      1812 1.96500E+01 4.48040E+01 0.00000E+00
 -1      1813 2.34000E+01 4.61030E+01 0.00000E+00
 -1      1814 2.49000E+01 4.61030E+01 0.00000E+00
 -1      1815 2.26500E+01 4.48040E+01 0.00000E+00
 -1      1816 2.64000E+01 4.61030E+01 0.00000E+00
 -1      1817 2.79000E+01 4.61030E+01 0.00000E+00
 -1      1818 2.56500E+01 4.48040E+01 0.00000E+00
 -1      1819 2.94000E+01 4.61030E+01 0.00000E+00
 -1      1820 3.09000E+01 4.61030E+01 0.00000E+00
 -1      1821 2.86500E+01 4.48040E+01 0.00000E+00
 -1      1822 3.24000E+01 4.61030E+01 0.00000E+00
 -1      1823 3.39000E+01 4.61030E+01 0.00000E+00
 -1      1824 3.16500E+01 4.48040E+01 0.00000E+00
 -1      1825 3.54000E+01 4.61030E+01 0.00000E+00
 -1      1826 3.69000E+01 4.61030E+01 0.00000E+00
 -1      1827 3.46500E+01 4.48040E+01 0.00000E+00
 -1      1828 3.84000E+01 4.61030E+01 0.00000E+00
 -1      1829 3.99000E+01 4.61030E+01 0.00000E+00
 -1      1830 3.76500E+01 4.48040E+01 0.00000E+00
 -1      1831 4.14000E+01 4.61030E+01 0.00000E+00
 -1      1832 4.29000E+01 4.61030E+01 0.00000E+00
 -1      1833 4.06500E+01 4.48040E+01 0.00000E+00
 -1      1834 4.44000E+01 4.61030E+01 0.00000E+00
 -1      1835 4.59000E+01 4.61030E+01 0.00000E+00
 -1      1836 4.36500E+01 4.48040E+01 0.00000E+00
 -1      1837 4.74000E+01 4.61030E+01 0.00000E+00
 -1      1838 4.89000E+01 4.61030E+01 0.00000E+00
 -1      1839 4.66500E+01 4.48040E+01 0.00000E+00
 -1      1840 5.04000E+01 4.61030E+01 0.00000E+00
 -1      1841 5.19000E+01 4.61030E+01 0.00000E+00
 -1      1842 4.96500E+01 4.48040E+01 0.00000E+00
 -1      1843 5.34000E+01 4.61030E+01 0.00000E+00
 -1      1844 5.49000E+01 4.61030E+01 0.00000E+00
 -1      1845 5.26500E+01 4.48040E+01 0.00000E+00
 -1      1846 5.64000E+01 4.61030E+01 0.00000E+00
 -1      1847 5.79000E+01 4.61030E+01 0.00000E+00
 -1      1848 5.56500E+01 4.48040E+01 0.00000E+00
 -1      1849 5.94000E+01 4.61030E+01 0.00000E+00
 -1      1850 6.09000E+01 4.61030E+01 0.00000E+00
 -1      1851 5.86500E+01 4.48040E+01 0.00000E+00
 -1      1852 6.24000E+01 4.61030E+01 0.00000E+00
 -1      1853 6.39000E+01 4.61030E+01 0.00000E+00
 -1      1854 6.16500E+01 4.48040E+01 0.00000E+00
 -1      1855 6.54000E+01 4.61030E+01 0.00000E+00
 -1      1856 6.69000E+01 4.61030E+01 0.00000E+00
 -1      1857 6.46500E+01 4.48040E+01 0.00000E+00
 -1      1858 6.84000E+01 4.61030E+01 0.00000E+00
 -1      1859 6.99000E+01 4.61030E+01 0.00000E+00
 -1      1860 6.76500E+01 4.48040E+01 0.00000E+00
 -1      1861 7.14000E+01 4.61030E+01 0.00000E+00
 -1      1862 7.29000E+01 4.61030E+01 0.00000E+00
 -1      1863 7.06500E+01 4.48040E+01 0.00000E+00
 -1      1864 7.44000E+01 4.61030E+01 0.00000E+00
 -1      1865 7.59000E+01 4.61030E+01 0.00000E+00
 -1      1866 7.36500E+01 4.48040E+01 0.00000E+00
 -1      1867 7.74000E+01 4.61030E+01 0.00000E+00
 -1      1868 7.89000E+01 4.61030E+01 0.00000E+00
 -1      1869 7.66500E+01 4.48040E+01 0.00000E+00
 -1      1870 8.04000E+01 4.61030E+01 0.00000E+00
 -1      1871 8.19000E+01 4.61030E+01 0.00000E+00
 -1      1872 7.96500E+01 4.48040E+01 0.00000E+00
 -1      1873 8.34000E+01 4.61030E+01 0.00000E+00
 -1      1874 8.49000E+01 4.61030E+01 0.00000E+00
 -1      1875 8.26500E+01 4.48040E+01 0.00000E+00
 -1      1876 8.64000E+01 4.61030E+01 0.00000E+00
 -1      1877 8.79000E+01 4.61030E+01 0.00000E+00
 -1      1878 8.56500E+01 4.48040E+01 0.00000E+00
 -1      1879 8.94000E+01 4.61030E+01 0.00000E+00
 -1      1880 9.09000E+01 4.61030E+01 0.00000E+00
 -1      1881 8.86500E+01 4.48040E+01 0.00000E+00
 -1      1882 9.24000E+01 4.61030E+01 0.00000E+00
 -1      1883 9.39000E+01 4.61030E+01 0.00000E+00
 -1      1884 9.16500E+01 4.48040E+01 0.00000E+00
 -1      1885 9.54000E+01 4.61030E+01 0.00000E+00
 -1      1886 9.69000E+01 4.61030E+01 0.00000E+00
 -1      1887 9.46500E+01 4.48040E+01 0.00000E+00
 -1      1888 9.84000E+01 4.61030E+01 0.00000E+00
 -1      1889 9.99000E+01 4.61030E+01 0.00000E+00
 -1      1890 9.76500E+01 4.48040E+01 0.00000E+00
 -1      1891 1.01400E+02 4.61030E+01 0.00000E+00
 -1      1892 1.02900E+02 4.61030E+01 0.00000E+00
 -1      1893 1.00650E+02 4.48040E+01 0.00000E+00
 -1      1894 1.04400E+02 4.61030E+01 0.00000E+00
 -1      1895 1.05900E+02 4.61030E+01 0.00000E+00
 -1      1896 1.03650E+02 4.48040E+01 0.00000E+00
 -1      1897 1.07400E+02 4.61030E+01 0.00000E+00
 -1      1898 1.08900E+02 4.61030E+01 0.00000E+00
 -1      1899 1.06650E+02 4.48040E+01 0.00000E+00
 -1      1900 1.10400E+02 4.61030E+01 0.00000E+00
 -1      1901 1.11900E+02 4.61030E+01 0.00000E+00
 -1      1902 1.09650E+02 4.48040E+01 0.00000E+00
 -1      1903 1.13400E+02 4.61030E+01 0.00000E+00
 -1      1904 1.14900E+02 4.61030E+01 0.00000E+00
 -1      1905 1.12650E+02 4.48040E+01 0.00000E+00
 -1      1906 1.16400E+02 4.61030E+01 0.00000E+00
 -1      1907 1.17900E+02 4.61030E+01 0.00000E+00
 -1      1908 1.15650E+02 4.48040E+01 0.00000E+00
 -1      1909 1.19400E+02 4.61030E+01 0.00000E+00
 -1      1910 1.20900E+02 4.61030E+01 0.00000E+00
 -1      1911 1.18650E+02 4.48040E+01 0.00000E+00
 -1      1912 1.22400E+02 4.61030E+01 0.00000E+00
 -1      1913 1.23900E+02 4.61030E+01 0.00000E+00
 -1      1914 1.21650E+02 4.48040E+01 0.00000E+00
 -1      1915 1.25400E+02 4.61030E+01 0.00000E+00
 -1      1916 1.26900E+02 4.61030E+01 0.00000E+00
 -1      1917 1.24650E+02 4.48040E+01 0.00000E+00
 -1      1918 1.28400E+02 4.61030E+01 0.00000E+00
 -1      1919 1.29900E+02 4.61030E+01 0.00000E+00
 -1      1920 1.27650E+02 4.48040E+01 0.00000E+00
 -1      1921 1.31400E+02 4.61030E+01 0.00000E+00
 -1      1922 1.32900E+02 4.61030E+01 0.00000E+00
 -1      1923 1.30650E+02 4.48040E+01 0.00000E+00
 -1      1924 1.34400E+02 4.61030E+01 0.00000E+00
 -1      1925 1.35900E+02 4.61030E+01 0.00000E+00
 -1      1926 1.33650E+02 4.48040E+01 0.00000E+00
 -1      1927 1.37400E+02 4.61030E+01 0.00000E+00
 -1      1928 1.38900E+02 4.61030E+01 0.00000E+00
 -1      1929 1.36650E+02 4.48040E+01 0.00000E+00
 -1      1930 1.40400E+02 4.61030E+01 0.00000E+00
 -1      1931 1.41900E+02 4.61030E+01 0.00000E+00
 -1      1932 1.39650E+02 4.48040E+01 0.00000E+00
 -1      1933 1.43244E+02 4.61616E+01 0.00000E+00
 -1      1934 1.44744E+02 4.61616E+01 0.00000E+00
 -1      1935 1.45182E+02 4.49799E+01 0.00000E+00
 -1      1936 1.42494E+02 4.48626E+01 0.00000E+00
 -1      1937 1.16513E+01 3.15937E+00 0.00000E+00
 -1      1938 1.01513E+01 3.15937E+00 0.00000E+00
 -1      1939 9.92870E+00 4.05625E+00 0.00000E+00
 -1      1940 1.46513E+01 3.15937E+00 0.00000E+00
 -1      1941 1.31513E+01 3.15937E+00 0.00000E+00
 -1      1942 1.29287E+01 4.05625E+00 0.00000E+00
 -1      1943 1.76513E+01 3.15937E+00 0.00000E+00
 -1      1944 1.61513E+01 3.15937E+00 0.00000E+00
 -1      1945 1.59287E+01 4.05625E+00 0.00000E+00
 -1      1946 2.06513E+01 3.15937E+00 0.00000E+00
 -1      1947 1.91513E+01 3.15937E+00 0.00000E+00
 -1      1948 1.89287E+01 4.05625E+00 0.00000E+00
 -1      1949 2.36513E+01 3.15937E+00 0.00000E+00
 -1      1950 2.21513E+01 3.15937E+00 0.00000E+00
 -1      1951 2.19287E+01 4.05625E+00 0.00000E+00
 -1      1952 2.66513E+01 3.15937E+00 0.00000E+00
 -1      1953 2.51513E+01 3.15937E+00 0.00000E+00
 -1      1954 2.49287E+01 4.05625E+00 0.00000E+00
 -1      1955 2.96513E+01 3.15937E+00 0.00000E+00
 -1      1956 2.81513E+01 3.15937E+00 0.00000E+00
 -1      1957 2.79287E+01 4.05625E+00 0.00000E+00
 -1      1958 3.26513E+01 3.15937E+00 0.00000E+00
 -1      1959 3.11513E+01 3.15937E+00 0.00000E+00
 -1      1960 3.09287E+01 4.05625E+00 0.00000E+00
 -1      1961 3.56513E+01 3.15937E+00 0.00000E+00
 -1      1962 3.41513E+01 3.15937E+00 0.00000E+00
 -1      1963 3.39287E+01 4.05625E+00 0.00000E+00
 -1      1964 3.86513E+01 3.15937E+00 0.00000E+00
 -1      1965 3.71513E+01 3.15937E+00 0.00000E+00
 -1      1966 3.69287E+01 4.05625E+00 0.00000E+00
 -1      1967 4.16513E+01 3.15937E+00 0.00000E+00
 -1      1968 4.01513E+01 3.15937E+00 0.00000E+00
 -1      1969 3.99287E+01 4.05625E+00 0.00000E+00
 -1      1970 4.46513E+01 3.15937E+00 0.00000E+00
 -1      1971 4.31513E+01 3.15937E+00 0.00000E+00
 -1      1972 4.29287E+01 4.05625E+00 0.00000E+00
 -1      1973 4.76513E+01 3.15937E+00 0.00000E+00
 -1      1974 4.61513E+01 3.15937E+00 0.00000E+00
 -1      1975 4.59287E+01 4.05625E+00 0.00000E+00
 -1      1976 5.06513E+01 3.15937E+00 0.00000E+00
 -1      1977 4.91513E+01 3.15937E+00 0.00000E+00
 -1      1978 4.89287E+01 4.05625E+00 0.00000E+00
 -1      1979 5.36513E+01 3.15937E+00 0.00000E+00
 -1      1980 5.21513E+01 3.15937E+00 0.00000E+00
 -1      1981 5.19287E+01 4.05625E+00 0.00000E+00
 -1      1982 5.66513E+01 3.15937E+00 0.00000E+00
 -1      1983 5.51513E+01 3.15937E+00 0.00000E+00
 -1      1984 5.49287E+01 4.05625E+00 0.00000E+00
 -1      1985 5.96513E+01 3.15937E+00 0.00000E+00
 -1      1986 5.81513E+01 3.15937E+00 0.00000E+00
 -1      1987 5.79287E+01 4.05625E+00 0.00000E+00
 -1      1988 6.26513E+01 3.15937E+00 0.00000E+00
 -1      1989 6.11513E+01 3.15937E+00 0.00000E+00
 -1      1990 6.09287E+01 4.05625E+00 0.00000E+00
 -1      1991 6.56514E+01 3.15937E+00 0.00000E+00
 -1      1992 6.41514E+01 3.15937E+00 0.00000E+00
 -1      1993 6.39287E+01 4.05625E+00 0.00000E+00
 -1      1994 6.86514E+01 3.15937E+00 0.00000E+00
 -1      1995 6.71514E+01 3.15937E+00 0.00000E+00
 -1      1996 6.69287E+01 4.05625E+00 0.00000E+00
 -1      1997 7.16514E+01 3.15937E+00 0.00000E+00
 -1      1998 7.01514E+01 3.15937E+00 0.00000E+00
 -1      1999 6.99287E+01 4.05625E+00 0.00000E+00
 -1      2000 7.46514E+01 3.15937E+00 0.00000E+00
 -1      2001 7.31514E+01 3.15937E+00 0.00000E+00
 -1      2002 7.29287E+01 4.05625E+00 0.00000E+00
 -1      2003 7.76514E+01 3.15937E+00 0.00000E+00
 -1      2004 7.61514E+01 3.15937E+00 0.00000E+00
 -1      2005 7.59287E+01 4.05625E+00 0.00000E+00
 -1      2006 8.06514E+01 3.15937E+00 0.00000E+00
 -1      2007 7.91514E+01 3.15937E+00 0.00000E+00
 -1      2008 7.89287E+01 4.05625E+00 0.00000E+00
 -1      2009 8.36514E+01 3.15937E+00 0.00000E+00
 -1      2010 8.21514E+01 3.15937E+00 0.00000E+00
 -1      2011 8.19287E+01 4.05625E+00 0.00000E+00
 -1      2012 8.66514E+01 3.15937E+00 0.00000E+00
 -1      2013 8.51514E+01 3.15937E+00 0.00000E+00
 -1      2014 8.49287E+01 4.05625E+00 0.00000E+00
 -1      2015 8.96514E+01 3.15937E+00 0.00000E+00
 -1      2016 8.81514E+01 3.15937E+00 0.00000E+00
 -1      2017 8.79287E+01 4.05625E+00 0.00000E+00
 -1      2018 9.26514E+01 3.15937E+00 0.00000E+00
 -1      2019 9.11514E+01 3.15937E+00 0.00000E+00
 -1      2020 9.09287E+01 4.05625E+00 0.00000E+00
 -1      2021 9.56514E+01 3.15937E+00 0.00000E+00
 -1      2022 9.41514E+01 3.15937E+00 0.00000E+00
 -1      2023 9.39287E+01 4.05625E+00 0.00000E+00
 -1      2024 9.86514E+01 3.15937E+00 0.00000E+00
 -1      2025 9.71514E+01 3.15937E+00 0.00000E+00
 -1      2026 9.69287E+01 4.05625E+00 0.00000E+00
 -1      2027 1.01651E+02 3.15937E+00 0.00000E+00
 -1      2028 1.00151E+02 3.15937E+00 0.00000E+00
 -1      2029 9.99287E+01 4.05625E+00 0.00000E+00
 -1      2030 1.04651E+02 3.15937E+00 0.00000E+00
 -1      2031 1.03151E+02 3.15937E+00 0.00000E+00
 -1      2032 1.02929E+02 4.05625E+00 0.00000E+00
 -1      2033 1.07651E+02 3.15937E+00 0.00000E+00
 -1      2034 1.06151E+02 3.15937E+00 0.00000E+00
 -1      2035 1.05929E+02 4.05625E+00 0.00000E+00
 -1      2036 1.10651E+02 3.15937E+00 0.00000E+00
 -1      2037 1.09151E+02 3.15937E+00 0.00000E+00
 -1      2038 1.08929E+02 4.05625E+00 0.00000E+00
 -1      2039 1.13651E+02 3.15937E+00 0.00000E+00
 -1      2040 1.12151E+02 3.15937E+00 0.00000E+00
 -1      2041 1.11929E+02 4.05625E+00 0.00000E+00
 -1      2042 1.16651E+02 3.15937E+00 0.00000E+00
 -1      2043 1.15151E+02 3.15937E+00 0.00000E+00
 -1      2044 1.14929E+02 4.05625E+00 0.00000E+00
 -1      2045 1.19651E+02 3.15937E+00 0.00000E+00
 -1      2046 1.18151E+02 3.15937E+00 0.00000E+00
 -1      2047 1.17929E+02 4.05625E+00 0.00000E+00
 -1      2048 1.22651E+02 3.15937E+00 0.00000E+00
 -1      2049 1.21151E+02 3.15937E+00 0.00000E+00
 -1      2050 1.20929E+02 4.05625E+00 0.00000E+00
 -1      2051 1.25651E+02 3.15937E+00 0.00000E+00
 -1      2052 1.24151E+02 3.15937E+00 0.00000E+00
 -1      2053 1.23929E+02 4.05625E+00 0.00000E+00
 -1      2054 1.28651E+02 3.15937E+00 0.00000E+00
 -1      2055 1.27151E+02 3.15937E+00 0.00000E+00
 -1      2056 1.26929E+02 4.05625E+00 0.00000E+00
 -1      2057 1.31651E+02 3.15937E+00 0.00000E+00
 -1      2058 1.30151E+02 3.15937E+00 0.00000E+00
 -1      2059 1.29929E+02 4.05625E+00 0.00000E+00
 -1      2060 1.34651E+02 3.15937E+00 0.00000E+00
 -1      2061 1.33151E+02 3.15937E+00 0.00000E+00
 -1      2062 1.32929E+02 4.05625E+00 0.00000E+00
 -1      2063 1.37651E+02 3.15937E+00 0.00000E+00
 -1      2064 1.36151E+02 3.15937E+00 0.00000E+00
 -1      2065 1.35929E+02 4.05625E+00 0.00000E+00
 -1      2066 1.40651E+02 3.15937E+00 0.00000E+00
 -1      2067 1.39151E+02 3.15937E+00 0.00000E+00
 -1      2068 1.38929E+02 4.05625E+00 0.00000E+00
 -1      2069 1.43651E+02 3.15937E+00 0.00000E+00
 -1      2070 1.42151E+02 3.15937E+00 0.00000E+00
 -1      2071 1.41929E+02 4.05625E+00 0.00000E+00
 -1      2072 1.46145E+02 3.25156E+00 0.00000E+00
 -1      2073 1.44645E+02 3.25156E+00 0.00000E+00
 -1      2074 1.44422E+02 4.14844E+00 0.00000E+00
 -1      2075 1.46409E+02 4.33281E+00 0.00000E+00
 -1      2076 1.46103E+02 1.25375E+01 0.00000E+00
 -1      2077 1.46103E+02 1.10625E+01 0.00000E+00
 -1      2078 1.46103E+02 9.58750E+00 0.00000E+00
 -1      2079 1.46103E+02 8.11250E+00 0.00000E+00
 -1      2080 1.44804E+02 1.03250E+01 0.00000E+00
 -1      2081 1.46256E+02 6.96016E+00 0.00000E+00
 -1      2082 1.46256E+02 5.48516E+00 0.00000E+00
 -1      2083 1.45263E+02 5.39297E+00 0.00000E+00
 -1      2084 1.44957E+02 7.69766E+00 0.00000E+00
 -1      2085 1.46103E+02 1.54375E+01 0.00000E+00
 -1      2086 1.46103E+02 1.39875E+01 0.00000E+00
 -1      2087 1.44804E+02 1.32500E+01 0.00000E+00
 -1      2088 1.46103E+02 1.83875E+01 0.00000E+00
 -1      2089 1.46103E+02 1.69125E+01 0.00000E+00
 -1      2090 1.44804E+02 1.61750E+01 0.00000E+00
 -1      2091 1.46103E+02 2.13375E+01 0.00000E+00
 -1      2092 1.46103E+02 1.98625E+01 0.00000E+00
 -1      2093 1.44804E+02 1.91250E+01 0.00000E+00
 -1      2094 1.46103E+02 2.42875E+01 0.00000E+00
 -1      2095 1.46103E+02 2.28125E+01 0.00000E+00
 -1      2096 1.44804E+02 2.20750E+01 0.00000E+00
 -1      2097 1.46103E+02 2.72375E+01 0.00000E+00
 -1      2098 1.46103E+02 2.57625E+01 0.00000E+00
 -1      2099 1.44804E+02 2.50250E+01 0.00000E+00
 -1      2100 1.46103E+02 3.01875E+01 0.00000E+00
 -1      2101 1.46103E+02 2.87125E+01 0.00000E+00
 -1      2102 1.44804E+02 2.79750E+01 0.00000E+00
 -1      2103 1.46103E+02 3.30875E+01 0.00000E+00
 -1      2104 1.46103E+02 3.16375E+01 0.00000E+00
 -1      2105 1.44804E+02 3.09000E+01 0.00000E+00
 -1      2106 1.46103E+02 3.60375E+01 0.00000E+00
 -1      2107 1.46103E+02 3.45625E+01 0.00000E+00
 -1      2108 1.44804E+02 3.38250E+01 0.00000E+00
 -1      2109 1.46103E+02 3.89875E+01 0.00000E+00
 -1      2110 1.46103E+02 3.75125E+01 0.00000E+00
 -1      2111 1.44804E+02 3.67750E+01 0.00000E+00
 -1      2112 1.46103E+02 4.19375E+01 0.00000E+00
 -1      2113 1.46103E+02 4.04625E+01 0.00000E+00
 -1      2114 1.44804E+02 3.97250E+01 0.00000E+00
 -1      2115 2.56599E+01 2.00639E+01 0.00000E+00
 -1      2116 2.58889E+01 2.09624E+01 0.00000E+00
 -1      2117 2.63765E+01 2.36294E+01 0.00000E+00
 -1      2118 2.64617E+01 2.44932E+01 0.00000E+00
 -1      2119 2.60450E+01 2.18808E+01 0.00000E+00
 -1      2120 2.62204E+01 2.27110E+01 0.00000E+00
 -1      2121 2.70330E+01 2.30670E+01 0.00000E+00
 -1      2122 2.67209E+01 2.12301E+01 0.00000E+00
 -1      2123 2.41907E+01 1.83417E+01 0.00000E+00
 -1      2124 2.48814E+01 1.89889E+01 0.00000E+00
 -1      2125 2.28848E+01 1.71172E+01 0.00000E+00
 -1      2126 2.35253E+01 1.77179E+01 0.00000E+00
 -1      2127 3.89700E+00 3.70938E+01 0.00000E+00
 -1      2128 3.89700E+00 3.86188E+01 0.00000E+00
 -1      2129 5.19600E+00 3.93812E+01 0.00000E+00
 -1      2130 5.19600E+00 3.63438E+01 0.00000E+00
 -1      2131 1.94591E+01 1.53926E+01 0.00000E+00
 -1      2132 2.03025E+01 1.55922E+01 0.00000E+00
 -1      2133 1.76166E+01 1.53106E+01 0.00000E+00
 -1      2134 1.84700E+01 1.53689E+01 0.00000E+00
 -1      2135 1.57773E+01 1.53204E+01 0.00000E+00
 -1      2136 1.66397E+01 1.52397E+01 0.00000E+00
 -1      2137 1.38545E+01 1.57076E+01 0.00000E+00
 -1      2138 1.47776E+01 1.54881E+01 0.00000E+00
 -1      2139 1.20110E+01 1.69759E+01 0.00000E+00
 -1      2140 1.26983E+01 1.63296E+01 0.00000E+00
 -1      2141 1.08089E+01 1.83049E+01 0.00000E+00
 -1      2142 1.14041E+01 1.76901E+01 0.00000E+00
 -1      2143 9.67153E+00 1.97595E+01 0.00000E+00
 -1      2144 1.01254E+01 1.90396E+01 0.00000E+00
 -1      2145 8.85583E+00 2.14309E+01 0.00000E+00
 -1      2146 9.14799E+00 2.06348E+01 0.00000E+00
 -1      2147 8.56432E+00 2.32778E+01 0.00000E+00
 -1      2148 8.68756E+00 2.24343E+01 0.00000E+00
 -1      2149 8.29837E+00 2.51802E+01 0.00000E+00
 -1      2150 8.43134E+00 2.42290E+01 0.00000E+00
 -1      2151 7.72733E+00 2.36954E+01 0.00000E+00
 -1      2152 9.09464E+00 2.72967E+01 0.00000E+00
 -1      2153 8.63133E+00 2.64653E+01 0.00000E+00
 -1      2154 9.87366E+00 2.88399E+01 0.00000E+00
 -1      2155 9.48415E+00 2.80683E+01 0.00000E+00
 -1      2156 8.64979E+00 2.79885E+01 0.00000E+00
 -1      2157 1.11086E+01 3.03489E+01 0.00000E+00
 -1      2158 1.05182E+01 2.96826E+01 0.00000E+00
 -1      2159 1.26054E+01 3.15052E+01 0.00000E+00
 -1      2160 1.18889E+01 3.10300E+01 0.00000E+00
 -1      2161 1.41534E+01 3.24267E+01 0.00000E+00
 -1      2162 1.33869E+01 3.20810E+01 0.00000E+00
 -1      2163 1.59227E+01 3.30203E+01 0.00000E+00
 -1      2164 1.50718E+01 3.27954E+01 0.00000E+00
 -1      2165 1.78680E+01 3.30657E+01 0.00000E+00
 -1      2166 1.70145E+01 3.31001E+01 0.00000E+00
 -1      2167 1.94911E+01 3.29059E+01 0.00000E+00
 -1      2168 1.86795E+01 3.29858E+01 0.00000E+00
 -1      2169 1.82840E+01 3.37761E+01 0.00000E+00
 -1      2170 2.12963E+01 3.21839E+01 0.00000E+00
 -1      2171 2.05891E+01 3.25673E+01 0.00000E+00
 -1      2172 2.25864E+01 3.13256E+01 0.00000E+00
 -1      2173 2.19413E+01 3.17548E+01 0.00000E+00
 -1      2174 2.19366E+01 3.25899E+01 0.00000E+00
 -1      2175 2.38484E+01 3.01044E+01 0.00000E+00
 -1      2176 2.32936E+01 3.06499E+01 0.00000E+00
 -1      2177 2.49907E+01 2.88687E+01 0.00000E+00
 -1      2178 2.44619E+01 2.94999E+01 0.00000E+00
 -1      2179 2.59038E+01 2.72055E+01 0.00000E+00
 -1      2180 2.56592E+01 2.79885E+01 0.00000E+00
 -1      2181 2.63905E+01 2.56358E+01 0.00000E+00
 -1      2182 2.61472E+01 2.64207E+01 0.00000E+00
 -1      2183 2.68034E+01 2.70554E+01 0.00000E+00
 -1      2184 2.12316E+01 1.61232E+01 0.00000E+00
 -1      2185 2.20097E+01 1.65403E+01 0.00000E+00
 -1      2186 4.98339E+00 2.22500E+01 0.00000E+00
 -1      2187 3.79070E+00 2.29125E+01 0.00000E+00
 -1      2188 3.79070E+00 2.41625E+01 0.00000E+00
 -1      2189 5.08970E+00 2.49125E+01 0.00000E+00
 -1      2190 6.42300E+00 4.56510E+01 0.00000E+00
 -1      2191 7.17300E+00 4.43520E+01 0.00000E+00
 -1      2192 4.92300E+00 4.56510E+01 0.00000E+00
 -1      2193 2.99010E+00 4.60168E+01 0.00000E+00
 -1      2194 2.43425E+01 1.75380E+01 0.00000E+00
 -1      2195 2.59127E+01 1.84096E+01 0.00000E+00
 -1      2196 2.57863E+01 1.92367E+01 0.00000E+00
 -1      2197 2.66912E+01 1.94846E+01 0.00000E+00
 -1      2198 1.45665E+02 4.31193E+01 0.00000E+00
 -1      2199 2.71179E+01 2.51280E+01 0.00000E+00
 -1      2200 2.28020E+01 1.63374E+01 0.00000E+00
 -1      2201 2.58916E+01 2.87204E+01 0.00000E+00
 -1      2202 2.32889E+01 3.14850E+01 0.00000E+00
 -1      2203 2.01935E+01 3.33577E+01 0.00000E+00
 -1      2204 1.63806E+01 3.37762E+01 0.00000E+00
 -1      2205 1.43704E+01 3.33278E+01 0.00000E+00
 -1      2206 1.26704E+01 3.23834E+01 0.00000E+00
 -1      2207 9.68380E+00 2.96028E+01 0.00000E+00
 -1      2208 7.92732E+00 2.59317E+01 0.00000E+00
 -1      2209 8.02858E+00 2.17408E+01 0.00000E+00
 -1      2210 8.72040E+00 1.98622E+01 0.00000E+00
 -1      2211 9.92738E+00 1.82522E+01 0.00000E+00
 -1      2212 1.12177E+01 1.68033E+01 0.00000E+00
 -1      2213 1.29808E+01 1.54671E+01 0.00000E+00
 -1      2214 1.32633E+01 1.46045E+01 0.00000E+00
 -1      2215 1.21071E+01 1.52265E+01 0.00000E+00
 -1      2216 1.51367E+01 1.46774E+01 0.00000E+00
 -1      2217 1.90795E+01 1.46750E+01 0.00000E+00
 -1      2218 2.09978E+01 1.52296E+01 0.00000E+00
 -1      2219 1.71134E+01 1.45805E+01 0.00000E+00
 -1      2220 1.11086E+01 3.11266E+01 0.00000E+00
 -1      2221 2.46096E+01 3.02049E+01 0.00000E+00
 -1      2222 4.28910E+00 4.52543E+01 0.00000E+00
 -1      2223 6.30491E+00 2.95750E+01 0.00000E+00
 -1      2224 6.30491E+00 3.10750E+01 0.00000E+00
 -1      2225 6.30491E+00 3.25750E+01 0.00000E+00
 -1      2226 6.30491E+00 3.40750E+01 0.00000E+00
 -1      2227 7.41382E+00 3.18250E+01 0.00000E+00
 -1      2228 6.09230E+00 1.57125E+01 0.00000E+00
 -1      2229 6.09230E+00 1.72375E+01 0.00000E+00
 -1      2230 6.28887E+00 2.40733E+01 0.00000E+00
 -1      2231 6.39518E+00 2.54858E+01 0.00000E+00
 -1      2232 5.92473E+00 1.87500E+01 0.00000E+00
 -1      2233 5.92473E+00 2.02500E+01 0.00000E+00
 -1      2234 6.28239E+00 9.65000E+00 0.00000E+00
 -1      2235 6.28239E+00 1.11500E+01 0.00000E+00
 -1      2236 6.28239E+00 6.60000E+00 0.00000E+00
 -1      2237 6.28239E+00 8.12500E+00 0.00000E+00
 -1      2238 7.58139E+00 8.87500E+00 0.00000E+00
 -1      2239 6.71687E+00 4.87969E+00 0.00000E+00
 -1      2240 6.49422E+00 5.77656E+00 0.00000E+00
 -1      2241 7.79322E+00 6.52656E+00 0.00000E+00
 -1      2242 8.21687E+00 4.87969E+00 0.00000E+00
 -1      2243 9.90000E+00 4.35050E+01 0.00000E+00
 -1      2244 1.14000E+01 4.35050E+01 0.00000E+00
 -1      2245 1.12169E+01 4.87969E+00 0.00000E+00
 -1      2246 9.71687E+00 4.87969E+00 0.00000E+00
 -1      2247 9.50504E+00 5.70313E+00 0.00000E+00
 -1      2248 1.42169E+01 4.87969E+00 0.00000E+00
 -1      2249 1.27169E+01 4.87969E+00 0.00000E+00
 -1      2250 1.25050E+01 5.70313E+00 0.00000E+00
 -1      2251 1.29000E+01 4.35050E+01 0.00000E+00
 -1      2252 1.44000E+01 4.35050E+01 0.00000E+00
 -1      2253 1.21500E+01 4.22060E+01 0.00000E+00
 -1      2254 1.59000E+01 4.35050E+01 0.00000E+00
 -1      2255 1.74000E+01 4.35050E+01 0.00000E+00
 -1      2256 1.51500E+01 4.22060E+01 0.00000E+00
 -1      2257 1.89000E+01 4.35050E+01 0.00000E+00
 -1      2258 2.04000E+01 4.35050E+01 0.00000E+00
 -1      2259 1.81500E+01 4.22060E+01 0.00000E+00
 -1      2260 2.19000E+01 4.35050E+01 0.00000E+00
 -1      2261 2.34000E+01 4.35050E+01 0.00000E+00
 -1      2262 2.11500E+01 4.22060E+01 0.00000E+00
 -1      2263 2.49000E+01 4.35050E+01 0.00000E+00
 -1      2264 2.64000E+01 4.35050E+01 0.00000E+00
 -1      2265 2.41500E+01 4.22060E+01 0.00000E+00
 -1      2266 2.79000E+01 4.35050E+01 0.00000E+00
 -1      2267 2.94000E+01 4.35050E+01 0.00000E+00
 -1      2268 2.71500E+01 4.22060E+01 0.00000E+00
 -1      2269 3.09000E+01 4.35050E+01 0.00000E+00
 -1      2270 3.24000E+01 4.35050E+01 0.00000E+00
 -1      2271 3.01500E+01 4.22060E+01 0.00000E+00
 -1      2272 3.39000E+01 4.35050E+01 0.00000E+00
 -1      2273 3.54000E+01 4.35050E+01 0.00000E+00
 -1      2274 3.31500E+01 4.22060E+01 0.00000E+00
 -1      2275 3.69000E+01 4.35050E+01 0.00000E+00
 -1      2276 3.84000E+01 4.35050E+01 0.00000E+00
 -1      2277 3.61500E+01 4.22060E+01 0.00000E+00
 -1      2278 3.99000E+01 4.35050E+01 0.00000E+00
 -1      2279 4.14000E+01 4.35050E+01 0.00000E+00
 -1      2280 3.91500E+01 4.22060E+01 0.00000E+00
 -1      2281 4.29000E+01 4.35050E+01 0.00000E+00
 -1      2282 4.44000E+01 4.35050E+01 0.00000E+00
 -1      2283 4.21500E+01 4.22060E+01 0.00000E+00
 -1      2284 4.59000E+01 4.35050E+01 0.00000E+00
 -1      2285 4.74000E+01 4.35050E+01 0.00000E+00
 -1      2286 4.51500E+01 4.22060E+01 0.00000E+00
 -1      2287 4.89000E+01 4.35050E+01 0.00000E+00
 -1      2288 5.04000E+01 4.35050E+01 0.00000E+00
 -1      2289 4.81500E+01 4.22060E+01 0.00000E+00
 -1      2290 5.19000E+01 4.35050E+01 0.00000E+00
 -1      2291 5.34000E+01 4.35050E+01 0.00000E+00
 -1      2292 5.11500E+01 4.22060E+01 0.00000E+00
 -1      2293 5.49000E+01 4.35050E+01 0.00000E+00
 -1      2294 5.64000E+01 4.35050E+01 0.00000E+00
 -1      2295 5.41500E+01 4.22060E+01 0.00000E+00
 -1      2296 5.79000E+01 4.35050E+01 0.00000E+00
 -1      2297 5.94000E+01 4.35050E+01 0.00000E+00
 -1      2298 5.71500E+01 4.22060E+01 0.00000E+00
 -1      2299 6.09000E+01 4.35050E+01 0.00000E+00
 -1      2300 6.24000E+01 4.35050E+01 0.00000E+00
 -1      2301 6.01500E+01 4.22060E+01 0.00000E+00
 -1      2302 6.39000E+01 4.35050E+01 0.00000E+00
 -1      2303 6.54000E+01 4.35050E+01 0.00000E+00
 -1      2304 6.31500E+01 4.22060E+01 0.00000E+00
 -1      2305 6.69000E+01 4.35050E+01 0.00000E+00
 -1      2306 6.84000E+01 4.35050E+01 0.00000E+00
 -1      2307 6.61500E+01 4.22060E+01 0.00000E+00
 -1      2308 6.99000E+01 4.35050E+01 0.00000E+00
 -1      2309 7.14000E+01 4.35050E+01 0.00000E+00
 -1      2310 6.91500E+01 4.22060E+01 0.00000E+00
 -1      2311 7.29000E+01 4.35050E+01 0.00000E+00
 -1      2312 7.44000E+01 4.35050E+01 0.00000E+00
 -1      2313 7.21500E+01 4.22060E+01 0.00000E+00
 -1      2314 7.59000E+01 4.35050E+01 0.00000E+00
 -1      2315 7.74000E+01 4.35050E+01 0.00000E+00
 -1      2316 7.51500E+01 4.22060E+01 0.00000E+00
 -1      2317 7.89000E+01 4.35050E+01 0.00000E+00
 -1      2318 8.04000E+01 4.35050E+01 0.00000E+00
 -1      2319 7.81500E+01 4.22060E+01 0.00000E+00
 -1      2320 8.19000E+01 4.35050E+01 0.00000E+00
 -1      2321 8.34000E+01 4.35050E+01 0.00000E+00
 -1      2322 8.11500E+01 4.22060E+01 0.00000E+00
 -1      2323 8.49000E+01 4.35050E+01 0.00000E+00
 -1      2324 8.64000E+01 4.35050E+01 0.00000E+00
 -1      2325 8.41500E+01 4.22060E+01 0.00000E+00
 -1      2326 8.79000E+01 4.35050E+01 0.00000E+00
 -1      2327 8.94000E+01 4.35050E+01 0.00000E+00
 -1      2328 8.71500E+01 4.22060E+01 0.00000E+00
 -1      2329 9.09000E+01 4.35050E+01 0.00000E+00
 -1      2330 9.24000E+01 4.35050E+01 0.00000E+00
 -1      2331 9.01500E+01 4.22060E+01 0.00000E+00
 -1      2332 9.39000E+01 4.35050E+01 0.00000E+00
 -1      2333 9.54000E+01 4.35050E+01 0.00000E+00
 -1      2334 9.31500E+01 4.22060E+01 0.00000E+00
 -1      2335 9.69000E+01 4.35050E+01 0.00000E+00
 -1      2336 9.84000E+01 4.35050E+01 0.00000E+00
 -1      2337 9.61500E+01 4.22060E+01 0.00000E+00
 -1      2338 9.99000E+01 4.35050E+01 0.00000E+00
 -1      2339 1.01400E+02 4.35050E+01 0.00000E+00
 -1      2340 9.91500E+01 4.22060E+01 0.00000E+00
 -1      2341 1.02900E+02 4.35050E+01 0.00000E+00
 -1      2342 1.04400E+02 4.35050E+01 0.00000E+00
 -1      2343 1.02150E+02 4.22060E+01 0.00000E+00
 -1      2344 1.05900E+02 4.35050E+01 0.00000E+00
 -1      2345 1.07400E+02 4.35050E+01 0.00000E+00
 -1      2346 1.05150E+02 4.22060E+01 0.00000E+00
 -1      2347 1.08900E+02 4.35050E+01 0.00000E+00
 -1      2348 1.10400E+02 4.35050E+01 0.00000E+00
 -1      2349 1.08150E+02 4.22060E+01 0.00000E+00
 -1      2350 1.11900E+02 4.35050E+01 0.00000E+00
 -1      2351 1.13400E+02 4.35050E+01 0.00000E+00
 -1      2352 1.11150E+02 4.22060E+01 0.00000E+00
 -1      2353 1.14900E+02 4.35050E+01 0.00000E+00
 -1      2354 1.16400E+02 4.35050E+01 0.00000E+00
 -1      2355 1.14150E+02 4.22060E+01 0.00000E+00
 -1      2356 1.17900E+02 4.35050E+01 0.00000E+00
 -1      2357 1.19400E+02 4.35050E+01 0.00000E+00
 -1      2358 1.17150E+02 4.22060E+01 0.00000E+00
 -1      2359 1.20900E+02 4.35050E+01 0.00000E+00
 -1      2360 1.22400E+02 4.35050E+01 0.00000E+00
 -1      2361 1.20150E+02 4.22060E+01 0.00000E+00
 -1      2362 1.23900E+02 4.35050E+01 0.00000E+00
 -1      2363 1.25400E+02 4.35050E+01 0.00000E+00
 -1      2364 1.23150E+02 4.22060E+01 0.00000E+00
 -1      2365 1.26900E+02 4.35050E+01 0.00000E+00
 -1      2366 1.28400E+02 4.35050E+01 0.00000E+00
 -1      2367 1.26150E+02 4.22060E+01 0.00000E+00
 -1      2368 1.29900E+02 4.35050E+01 0.00000E+00
 -1      2369 1.31400E+02 4.35050E+01 0.00000E+00
 -1      2370 1.29150E+02 4.22060E+01 0.00000E+00
 -1      2371 1.32900E+02 4.35050E+01 0.00000E+00
 -1      2372 1.34400E+02 4.35050E+01 0.00000E+00
 -1      2373 1.32150E+02 4.22060E+01 0.00000E+00
 -1      2374 1.35900E+02 4.35050E+01 0.00000E+00
 -1      2375 1.37400E+02 4.35050E+01 0.00000E+00
 -1      2376 1.35150E+02 4.22060E+01 0.00000E+00
 -1      2377 1.38900E+02 4.35050E+01 0.00000E+00
 -1      2378 1.40400E+02 4.35050E+01 0.00000E+00
 -1      2379 1.38150E+02 4.22060E+01 0.00000E+00
 -1      2380 1.96787E+01 5.35525E+00 0.00000E+00
 -1      2381 1.81787E+01 5.35525E+00 0.00000E+00
 -1      2382 2.26787E+01 5.35525E+00 0.00000E+00
 -1      2383 2.11787E+01 5.35525E+00 0.00000E+00
 -1      2384 2.04287E+01 6.65425E+00 0.00000E+00
 -1      2385 2.56787E+01 5.35525E+00 0.00000E+00
 -1      2386 2.41787E+01 5.35525E+00 0.00000E+00
 -1      2387 2.34287E+01 6.65425E+00 0.00000E+00
 -1      2388 2.86787E+01 5.35525E+00 0.00000E+00
 -1      2389 2.71787E+01 5.35525E+00 0.00000E+00
 -1      2390 2.64287E+01 6.65425E+00 0.00000E+00
 -1      2391 3.16787E+01 5.35525E+00 0.00000E+00
 -1      2392 3.01787E+01 5.35525E+00 0.00000E+00
 -1      2393 2.94287E+01 6.65425E+00 0.00000E+00
 -1      2394 3.46787E+01 5.35525E+00 0.00000E+00
 -1      2395 3.31787E+01 5.35525E+00 0.00000E+00
 -1      2396 3.24287E+01 6.65425E+00 0.00000E+00
 -1      2397 3.76787E+01 5.35525E+00 0.00000E+00
 -1      2398 3.61787E+01 5.35525E+00 0.00000E+00
 -1      2399 3.54287E+01 6.65425E+00 0.00000E+00
 -1      2400 4.06787E+01 5.35525E+00 0.00000E+00
 -1      2401 3.91787E+01 5.35525E+00 0.00000E+00
 -1      2402 3.84287E+01 6.65425E+00 0.00000E+00
 -1      2403 4.36787E+01 5.35525E+00 0.00000E+00
 -1      2404 4.21787E+01 5.35525E+00 0.00000E+00
 -1      2405 4.14287E+01 6.65425E+00 0.00000E+00
 -1      2406 4.66787E+01 5.35525E+00 0.00000E+00
 -1      2407 4.51787E+01 5.35525E+00 0.00000E+00
 -1      2408 4.44287E+01 6.65425E+00 0.00000E+00
 -1      2409 4.96787E+01 5.35525E+00 0.00000E+00
 -1      2410 4.81787E+01 5.35525E+00 0.00000E+00
 -1      2411 4.74287E+01 6.65425E+00 0.00000E+00
 -1      2412 5.26787E+01 5.35525E+00 0.00000E+00
 -1      2413 5.11787E+01 5.35525E+00 0.00000E+00
 -1      2414 5.04287E+01 6.65425E+00 0.00000E+00
 -1      2415 5.56787E+01 5.35525E+00 0.00000E+00
 -1      2416 5.41787E+01 5.35525E+00 0.00000E+00
 -1      2417 5.34287E+01 6.65425E+00 0.00000E+00
 -1      2418 5.86787E+01 5.35525E+00 0.00000E+00
 -1      2419 5.71787E+01 5.35525E+00 0.00000E+00
 -1      2420 5.64287E+01 6.65425E+00 0.00000E+00
 -1      2421 6.16787E+01 5.35525E+00 0.00000E+00
 -1      2422 6.01787E+01 5.35525E+00 0.00000E+00
 -1      2423 5.94287E+01 6.65425E+00 0.00000E+00
 -1      2424 6.46787E+01 5.35525E+00 0.00000E+00
 -1      2425 6.31787E+01 5.35525E+00 0.00000E+00
 -1      2426 6.24287E+01 6.65425E+00 0.00000E+00
 -1      2427 6.76787E+01 5.35525E+00 0.00000E+00
 -1      2428 6.61787E+01 5.35525E+00 0.00000E+00
 -1      2429 6.54287E+01 6.65425E+00 0.00000E+00
 -1      2430 7.06787E+01 5.35525E+00 0.00000E+00
 -1      2431 6.91787E+01 5.35525E+00 0.00000E+00
 -1      2432 6.84287E+01 6.65425E+00 0.00000E+00
 -1      2433 7.36787E+01 5.35525E+00 0.00000E+00
 -1      2434 7.21787E+01 5.35525E+00 0.00000E+00
 -1      2435 7.14287E+01 6.65425E+00 0.00000E+00
 -1      2436 7.66787E+01 5.35525E+00 0.00000E+00
 -1      2437 7.51787E+01 5.35525E+00 0.00000E+00
 -1      2438 7.44287E+01 6.65425E+00 0.00000E+00
 -1      2439 7.96787E+01 5.35525E+00 0.00000E+00
 -1      2440 7.81787E+01 5.35525E+00 0.00000E+00
 -1      2441 7.74287E+01 6.65425E+00 0.00000E+00
 -1      2442 8.26787E+01 5.35525E+00 0.00000E+00
 -1      2443 8.11787E+01 5.35525E+00 0.00000E+00
 -1      2444 8.04287E+01 6.65425E+00 0.00000E+00
 -1      2445 8.56787E+01 5.35525E+00 0.00000E+00
 -1      2446 8.41787E+01 5.35525E+00 0.00000E+00
 -1      2447 8.34287E+01 6.65425E+00 0.00000E+00
 -1      2448 8.86787E+01 5.35525E+00 0.00000E+00
 -1      2449 8.71787E+01 5.35525E+00 0.00000E+00
 -1      2450 8.64287E+01 6.65425E+00 0.00000E+00
 -1      2451 9.16787E+01 5.35525E+00 0.00000E+00
 -1      2452 9.01787E+01 5.35525E+00 0.00000E+00
 -1      2453 8.94287E+01 6.65425E+00 0.00000E+00
 -1      2454 9.46787E+01 5.35525E+00 0.00000E+00
 -1      2455 9.31787E+01 5.35525E+00 0.00000E+00
 -1      2456 9.24287E+01 6.65425E+00 0.00000E+00
 -1      2457 9.76787E+01 5.35525E+00 0.00000E+00
 -1      2458 9.61787E+01 5.35525E+00 0.00000E+00
 -1      2459 9.54287E+01 6.65425E+00 0.00000E+00
 -1      2460 1.00679E+02 5.35525E+00 0.00000E+00
 -1      2461 9.91787E+01 5.35525E+00 0.00000E+00
 -1      2462 9.84287E+01 6.65425E+00 0.00000E+00
 -1      2463 1.03679E+02 5.35525E+00 0.00000E+00
 -1      2464 1.02179E+02 5.35525E+00 0.00000E+00
 -1      2465 1.01429E+02 6.65425E+00 0.00000E+00
 -1      2466 1.06679E+02 5.35525E+00 0.00000E+00
 -1      2467 1.05179E+02 5.35525E+00 0.00000E+00
 -1      2468 1.04429E+02 6.65425E+00 0.00000E+00
 -1      2469 1.09679E+02 5.35525E+00 0.00000E+00
 -1      2470 1.08179E+02 5.35525E+00 0.00000E+00
 -1      2471 1.07429E+02 6.65425E+00 0.00000E+00
 -1      2472 1.12679E+02 5.35525E+00 0.00000E+00
 -1      2473 1.11179E+02 5.35525E+00 0.00000E+00
 -1      2474 1.10429E+02 6.65425E+00 0.00000E+00
 -1      2475 1.15679E+02 5.35525E+00 0.00000E+00
 -1      2476 1.14179E+02 5.35525E+00 0.00000E+00
 -1      2477 1.13429E+02 6.65425E+00 0.00000E+00
 -1      2478 1.18679E+02 5.35525E+00 0.00000E+00
 -1      2479 1.17179E+02 5.35525E+00 0.00000E+00
 -1      2480 1.16429E+02 6.65425E+00 0.00000E+00
 -1      2481 1.21679E+02 5.35525E+00 0.00000E+00
 -1      2482 1.20179E+02 5.35525E+00 0.00000E+00
 -1      2483 1.19429E+02 6.65425E+00 0.00000E+00
 -1      2484 1.24679E+02 5.35525E+00 0.00000E+00
 -1      2485 1.23179E+02 5.35525E+00 0.00000E+00
 -1      2486 1.22429E+02 6.65425E+00 0.00000E+00
 -1      2487 1.27679E+02 5.35525E+00 0.00000E+00
 -1      2488 1.26179E+02 5.35525E+00 0.00000E+00
 -1      2489 1.25429E+02 6.65425E+00 0.00000E+00
 -1      2490 1.30679E+02 5.35525E+00 0.00000E+00
 -1      2491 1.29179E+02 5.35525E+00 0.00000E+00
 -1      2492 1.28429E+02 6.65425E+00 0.00000E+00
 -1      2493 1.33679E+02 5.35525E+00 0.00000E+00
 -1      2494 1.32179E+02 5.35525E+00 0.00000E+00
 -1      2495 1.31429E+02 6.65425E+00 0.00000E+00
 -1      2496 1.36679E+02 5.35525E+00 0.00000E+00
 -1      2497 1.35179E+02 5.35525E+00 0.00000E+00
 -1      2498 1.34429E+02 6.65425E+00 0.00000E+00
 -1      2499 1.39679E+02 5.35525E+00 0.00000E+00
 -1      2500 1.38179E+02 5.35525E+00 0.00000E+00
 -1      2501 1.37429E+02 6.65425E+00 0.00000E+00
 -1      2502 1.42679E+02 5.35525E+00 0.00000E+00
 -1      2503 1.41179E+02 5.35525E+00 0.00000E+00
 -1      2504 1.40429E+02 6.65425E+00 0.00000E+00
 -1      2505 1.44269E+02 5.30078E+00 0.00000E+00
 -1      2506 1.43505E+02 1.69125E+01 0.00000E+00
 -1      2507 1.43505E+02 1.54375E+01 0.00000E+00
 -1      2508 1.43505E+02 1.98625E+01 0.00000E+00
 -1      2509 1.43505E+02 1.83875E+01 0.00000E+00
 -1      2510 1.42206E+02 1.76500E+01 0.00000E+00
 -1      2511 1.43505E+02 1.10625E+01 0.00000E+00
 -1      2512 1.43505E+02 9.58750E+00 0.00000E+00
 -1      2513 1.43505E+02 1.39750E+01 0.00000E+00
 -1      2514 1.43505E+02 1.25250E+01 0.00000E+00
 -1      2515 1.42206E+02 1.17875E+01 0.00000E+00
 -1      2516 1.42206E+02 1.47125E+01 0.00000E+00
 -1      2517 1.43505E+02 2.28125E+01 0.00000E+00
 -1      2518 1.43505E+02 2.13375E+01 0.00000E+00
 -1      2519 1.42206E+02 2.06000E+01 0.00000E+00
 -1      2520 1.43505E+02 2.57625E+01 0.00000E+00
 -1      2521 1.43505E+02 2.42875E+01 0.00000E+00
 -1      2522 1.42206E+02 2.35500E+01 0.00000E+00
 -1      2523 1.43505E+02 2.87125E+01 0.00000E+00
 -1      2524 1.43505E+02 2.72375E+01 0.00000E+00
 -1      2525 1.42206E+02 2.65000E+01 0.00000E+00
 -1      2526 1.43505E+02 3.16125E+01 0.00000E+00
 -1      2527 1.43505E+02 3.01625E+01 0.00000E+00
 -1      2528 1.42206E+02 2.94250E+01 0.00000E+00
 -1      2529 1.43505E+02 3.45625E+01 0.00000E+00
 -1      2530 1.43505E+02 3.30875E+01 0.00000E+00
 -1      2531 1.42206E+02 3.23500E+01 0.00000E+00
 -1      2532 1.43505E+02 3.75125E+01 0.00000E+00
 -1      2533 1.43505E+02 3.60375E+01 0.00000E+00
 -1      2534 1.42206E+02 3.53000E+01 0.00000E+00
 -1      2535 1.43505E+02 4.04625E+01 0.00000E+00
 -1      2536 1.43505E+02 3.89875E+01 0.00000E+00
 -1      2537 1.42206E+02 3.82500E+01 0.00000E+00
 -1      2538 1.44321E+02 4.30606E+01 0.00000E+00
 -1      2539 2.79258E+01 2.46048E+01 0.00000E+00
 -1      2540 2.78546E+01 2.57474E+01 0.00000E+00
 -1      2541 1.69478E+01 5.11747E+00 0.00000E+00
 -1      2542 1.54478E+01 5.11747E+00 0.00000E+00
 -1      2543 1.52360E+01 5.94091E+00 0.00000E+00
 -1      2544 1.76978E+01 6.41647E+00 0.00000E+00
 -1      2545 2.28825E+01 1.52630E+01 0.00000E+00
 -1      2546 2.37576E+01 1.58399E+01 0.00000E+00
 -1      2547 2.68087E+01 2.87230E+01 0.00000E+00
 -1      2548 2.61402E+01 2.96031E+01 0.00000E+00
 -1      2549 1.68640E+01 3.46714E+01 0.00000E+00
 -1      2550 1.57722E+01 3.45916E+01 0.00000E+00
 -1      2551 7.18133E+00 2.21145E+01 0.00000E+00
 -1      2552 7.34961E+00 2.11111E+01 0.00000E+00
 -1      2553 6.28239E+00 1.26750E+01 0.00000E+00
 -1      2554 6.28239E+00 1.42000E+01 0.00000E+00
 -1      2555 7.58139E+00 1.19250E+01 0.00000E+00
 -1      2556 6.05355E+00 2.69500E+01 0.00000E+00
 -1      2557 6.05355E+00 2.82000E+01 0.00000E+00
 -1      2558 2.45963E+01 1.66005E+01 0.00000E+00
 -1      2559 2.52617E+01 1.72243E+01 0.00000E+00
 -1      2560 2.10244E+01 1.42012E+01 0.00000E+00
 -1      2561 2.19534E+01 1.47321E+01 0.00000E+00
 -1      2562 2.29091E+01 1.42346E+01 0.00000E+00
 -1      2563 1.09349E+01 3.21133E+01 0.00000E+00
 -1      2564 1.01545E+01 3.14322E+01 0.00000E+00
 -1      2565 1.86045E+01 1.38478E+01 0.00000E+00
 -1      2566 1.95936E+01 1.38714E+01 0.00000E+00
 -1      2567 1.45089E+01 1.39981E+01 0.00000E+00
 -1      2568 1.55085E+01 1.38304E+01 0.00000E+00
 -1      2569 1.03246E+01 1.66594E+01 0.00000E+00
 -1      2570 1.09315E+01 1.59452E+01 0.00000E+00
 -1      2571 8.95774E+00 1.81287E+01 0.00000E+00
 -1      2572 9.64118E+00 1.73941E+01 0.00000E+00
 -1      2573 9.35497E+00 1.65359E+01 0.00000E+00
 -1      2574 7.53146E+00 2.01187E+01 0.00000E+00
 -1      2575 8.05500E+00 1.92434E+01 0.00000E+00
 -1      2576 6.42185E+00 2.31221E+01 0.00000E+00
 -1      2577 2.55770E+01 3.05733E+01 0.00000E+00
 -1      2578 2.49635E+01 3.11777E+01 0.00000E+00
 -1      2579 9.42469E+00 3.04688E+01 0.00000E+00
 -1      2580 8.78020E+00 2.96261E+01 0.00000E+00
 -1      2581 1.26271E+01 3.32606E+01 0.00000E+00
 -1      2582 1.18456E+01 3.26848E+01 0.00000E+00
 -1      2583 1.44790E+01 3.43857E+01 0.00000E+00
 -1      2584 1.35606E+01 3.40171E+01 0.00000E+00
 -1      2585 1.87737E+01 3.45897E+01 0.00000E+00
 -1      2586 1.79622E+01 3.46695E+01 0.00000E+00
 -1      2587 2.09952E+01 3.40078E+01 0.00000E+00
 -1      2588 1.98973E+01 3.43464E+01 0.00000E+00
 -1      2589 2.27109E+01 3.30544E+01 0.00000E+00
 -1      2590 2.20658E+01 3.34835E+01 0.00000E+00
 -1      2591 2.41908E+01 3.17782E+01 0.00000E+00
 -1      2592 2.34836E+01 3.24539E+01 0.00000E+00
 -1      2593 2.36128E+01 3.33476E+01 0.00000E+00
 -1      2594 2.51582E+01 3.21466E+01 0.00000E+00
 -1      2595 2.76641E+01 2.68921E+01 0.00000E+00
 -1      2596 2.74208E+01 2.76769E+01 0.00000E+00
 -1      2597 1.66505E+01 1.37060E+01 0.00000E+00
 -1      2598 1.76275E+01 1.37769E+01 0.00000E+00
 -1      2599 1.81416E+01 1.29733E+01 0.00000E+00
 -1      2600 6.55950E+00 4.27265E+01 0.00000E+00
 -1      2601 8.53650E+00 4.31785E+01 0.00000E+00
 -1      2602 9.28650E+00 4.18795E+01 0.00000E+00
 -1      2603 6.55950E+00 4.12265E+01 0.00000E+00
 -1      2604 7.03364E+00 1.79875E+01 0.00000E+00
 -1      2605 7.41382E+00 3.48438E+01 0.00000E+00
 -1      2606 6.30491E+00 3.55938E+01 0.00000E+00
 -1      2607 6.30491E+00 3.71125E+01 0.00000E+00
 -1      2608 7.39130E+00 1.49625E+01 0.00000E+00
 -1      2609 7.16246E+00 2.89500E+01 0.00000E+00
 -1      2610 7.25273E+00 2.61108E+01 0.00000E+00
 -1      2611 9.25095E+00 3.14554E+01 0.00000E+00
 -1      2612 2.84720E+01 2.63689E+01 0.00000E+00
 -1      2613 2.74883E+01 2.06272E+01 0.00000E+00
 -1      2614 2.76444E+01 2.15456E+01 0.00000E+00
 -1      2615 1.43519E+02 6.59978E+00 0.00000E+00
 -1      2616 1.73538E+01 3.54849E+01 0.00000E+00
 -1      2617 1.43366E+02 7.75212E+00 0.00000E+00
 -1      2618 2.61666E+01 1.74721E+01 0.00000E+00
 -1      2619 2.70715E+01 1.77199E+01 0.00000E+00
 -1      2620 2.64204E+01 1.65346E+01 0.00000E+00
 -1      2621 1.42758E+02 4.35929E+01 0.00000E+00
 -1      2622 1.43241E+02 4.17323E+01 0.00000E+00
 -1      2623 1.41942E+02 4.09948E+01 0.00000E+00
 -1      2624 1.41414E+02 4.35342E+01 0.00000E+00
 -1      2625 2.81633E+01 2.35746E+01 0.00000E+00
 -1      2626 2.88999E+01 2.41940E+01 0.00000E+00
 -1      2627 2.76694E+01 2.85597E+01 0.00000E+00
 -1      2628 2.80072E+01 2.26562E+01 0.00000E+00
 -1      2629 2.77411E+01 1.89730E+01 0.00000E+00
 -1      2630 2.76147E+01 1.98001E+01 0.00000E+00
 -1      2631 2.85382E+01 2.01156E+01 0.00000E+00
 -1      2632 5.74288E+00 2.12424E+01 0.00000E+00
 -1      2633 5.74288E+00 2.24924E+01 0.00000E+00
 -1      2634 2.64941E+01 3.05759E+01 0.00000E+00
 -1      2635 1.49624E+01 3.52809E+01 0.00000E+00
 -1      2636 2.17696E+01 3.44723E+01 0.00000E+00
 -1      2637 1.95755E+01 3.52398E+01 0.00000E+00
 -1      2638 6.68421E+00 2.04924E+01 0.00000E+00
 -1      2639 1.27357E+01 3.43185E+01 0.00000E+00
 -1      2640 7.76880E+00 1.83853E+01 0.00000E+00
 -1      2641 1.36352E+01 1.37576E+01 0.00000E+00
 -1      2642 1.40070E+01 1.29106E+01 0.00000E+00
 -1      2643 1.27614E+01 1.35170E+01 0.00000E+00
 -1      2644 2.05493E+01 1.33739E+01 0.00000E+00
 -1      2645 2.15049E+01 1.28764E+01 0.00000E+00
 -1      2646 2.00742E+01 1.25466E+01 0.00000E+00
 -1      2647 1.12140E+01 1.50826E+01 0.00000E+00
 -1      2648 1.14965E+01 1.42201E+01 0.00000E+00
 -1      2649 1.03209E+01 1.49387E+01 0.00000E+00
 -1      2650 2.46768E+01 1.55261E+01 0.00000E+00
 -1      2651 6.43221E+00 3.84101E+01 0.00000E+00
 -1      2652 6.43221E+00 3.99289E+01 0.00000E+00
 -1      2653 7.79571E+00 4.02554E+01 0.00000E+00
 -1      2654 7.54112E+00 3.76601E+01 0.00000E+00
 -1      2655 1.08915E+01 3.29904E+01 0.00000E+00
 -1      2656 1.60226E+01 1.30268E+01 0.00000E+00
 -1      2657 7.58569E+00 2.73959E+01 0.00000E+00
 -1      2658 7.97521E+00 2.81676E+01 0.00000E+00
 -1      2659 1.42067E+02 8.48962E+00 0.00000E+00
 -1      2660 1.40664E+02 4.22352E+01 0.00000E+00
 -1      2661 8.22656E+00 2.95426E+01 0.00000E+00
 -1      2662 8.85788E+00 8.11250E+00 0.00000E+00
 -1      2663 8.85788E+00 9.63750E+00 0.00000E+00
 -1      2664 1.32550E+01 6.97961E+00 0.00000E+00
 -1      2665 1.17550E+01 6.97961E+00 0.00000E+00
 -1      2666 1.40706E+02 1.03250E+01 0.00000E+00
 -1      2667 1.40567E+02 8.48962E+00 0.00000E+00
 -1      2668 1.39067E+02 8.48962E+00 0.00000E+00
 -1      2669 2.71787E+01 7.95325E+00 0.00000E+00
 -1      2670 2.56787E+01 7.95325E+00 0.00000E+00
 -1      2671 1.44000E+01 4.09295E+01 0.00000E+00
 -1      2672 1.59000E+01 4.09295E+01 0.00000E+00
 -1      2673 1.74000E+01 4.09295E+01 0.00000E+00
 -1      2674 1.89000E+01 4.09295E+01 0.00000E+00
 -1      2675 1.66500E+01 3.96530E+01 0.00000E+00
 -1      2676 2.04000E+01 4.09295E+01 0.00000E+00
 -1      2677 2.19000E+01 4.09295E+01 0.00000E+00
 -1      2678 1.96500E+01 3.96530E+01 0.00000E+00
 -1      2679 2.34000E+01 4.09295E+01 0.00000E+00
 -1      2680 2.49000E+01 4.09295E+01 0.00000E+00
 -1      2681 2.26500E+01 3.96530E+01 0.00000E+00
 -1      2682 2.64000E+01 4.09295E+01 0.00000E+00
 -1      2683 2.79000E+01 4.09295E+01 0.00000E+00
 -1      2684 2.56500E+01 3.96530E+01 0.00000E+00
 -1      2685 2.94000E+01 4.09295E+01 0.00000E+00
 -1      2686 3.09000E+01 4.09295E+01 0.00000E+00
 -1      2687 2.86500E+01 3.96530E+01 0.00000E+00
 -1      2688 3.24000E+01 4.09295E+01 0.00000E+00
 -1      2689 3.39000E+01 4.09295E+01 0.00000E+00
 -1      2690 3.16500E+01 3.96530E+01 0.00000E+00
 -1      2691 3.54000E+01 4.09295E+01 0.00000E+00
 -1      2692 3.69000E+01 4.09295E+01 0.00000E+00
 -1      2693 3.46500E+01 3.96530E+01 0.00000E+00
 -1      2694 3.84000E+01 4.09295E+01 0.00000E+00
 -1      2695 3.99000E+01 4.09295E+01 0.00000E+00
 -1      2696 3.76500E+01 3.96530E+01 0.00000E+00
 -1      2697 4.14000E+01 4.09295E+01 0.00000E+00
 -1      2698 4.29000E+01 4.09295E+01 0.00000E+00
 -1      2699 4.06500E+01 3.96530E+01 0.00000E+00
 -1      2700 4.44000E+01 4.09295E+01 0.00000E+00
 -1      2701 4.59000E+01 4.09295E+01 0.00000E+00
 -1      2702 4.36500E+01 3.96530E+01 0.00000E+00
 -1      2703 4.74000E+01 4.09295E+01 0.00000E+00
 -1      2704 4.89000E+01 4.09295E+01 0.00000E+00
 -1      2705 4.66500E+01 3.96530E+01 0.00000E+00
 -1      2706 5.04000E+01 4.09295E+01 0.00000E+00
 -1      2707 5.19000E+01 4.09295E+01 0.00000E+00
 -1      2708 4.96500E+01 3.96530E+01 0.00000E+00
 -1      2709 5.34000E+01 4.09295E+01 0.00000E+00
 -1      2710 5.49000E+01 4.09295E+01 0.00000E+00
 -1      2711 5.26500E+01 3.96530E+01 0.00000E+00
 -1      2712 5.64000E+01 4.09295E+01 0.00000E+00
 -1      2713 5.79000E+01 4.09295E+01 0.00000E+00
 -1      2714 5.56500E+01 3.96530E+01 0.00000E+00
 -1      2715 5.94000E+01 4.09295E+01 0.00000E+00
 -1      2716 6.09000E+01 4.09295E+01 0.00000E+00
 -1      2717 5.86500E+01 3.96530E+01 0.00000E+00
 -1      2718 6.24000E+01 4.09295E+01 0.00000E+00
 -1      2719 6.39000E+01 4.09295E+01 0.00000E+00
 -1      2720 6.16500E+01 3.96530E+01 0.00000E+00
 -1      2721 6.54000E+01 4.09295E+01 0.00000E+00
 -1      2722 6.69000E+01 4.09295E+01 0.00000E+00
 -1      2723 6.46500E+01 3.96530E+01 0.00000E+00
 -1      2724 6.84000E+01 4.09295E+01 0.00000E+00
 -1      2725 6.99000E+01 4.09295E+01 0.00000E+00
 -1      2726 6.76500E+01 3.96530E+01 0.00000E+00
 -1      2727 7.14000E+01 4.09295E+01 0.00000E+00
 -1      2728 7.29000E+01 4.09295E+01 0.00000E+00
 -1      2729 7.06500E+01 3.96530E+01 0.00000E+00
 -1      2730 7.44000E+01 4.09295E+01 0.00000E+00
 -1      2731 7.59000E+01 4.09295E+01 0.00000E+00
 -1      2732 7.36500E+01 3.96530E+01 0.00000E+00
 -1      2733 7.74000E+01 4.09295E+01 0.00000E+00
 -1      2734 7.89000E+01 4.09295E+01 0.00000E+00
 -1      2735 7.66500E+01 3.96530E+01 0.00000E+00
 -1      2736 8.04000E+01 4.09295E+01 0.00000E+00
 -1      2737 8.19000E+01 4.09295E+01 0.00000E+00
 -1      2738 7.96500E+01 3.96530E+01 0.00000E+00
 -1      2739 8.34000E+01 4.09295E+01 0.00000E+00
 -1      2740 8.49000E+01 4.09295E+01 0.00000E+00
 -1      2741 8.26500E+01 3.96530E+01 0.00000E+00
 -1      2742 8.64000E+01 4.09295E+01 0.00000E+00
 -1      2743 8.79000E+01 4.09295E+01 0.00000E+00
 -1      2744 8.56500E+01 3.96530E+01 0.00000E+00
 -1      2745 8.94000E+01 4.09295E+01 0.00000E+00
 -1      2746 9.09000E+01 4.09295E+01 0.00000E+00
 -1      2747 8.86500E+01 3.96530E+01 0.00000E+00
 -1      2748 9.24000E+01 4.09295E+01 0.00000E+00
 -1      2749 9.39000E+01 4.09295E+01 0.00000E+00
 -1      2750 9.16500E+01 3.96530E+01 0.00000E+00
 -1      2751 9.54000E+01 4.09295E+01 0.00000E+00
 -1      2752 9.69000E+01 4.09295E+01 0.00000E+00
 -1      2753 9.46500E+01 3.96530E+01 0.00000E+00
 -1      2754 9.84000E+01 4.09295E+01 0.00000E+00
 -1      2755 9.99000E+01 4.09295E+01 0.00000E+00
 -1      2756 9.76500E+01 3.96530E+01 0.00000E+00
 -1      2757 1.01400E+02 4.09295E+01 0.00000E+00
 -1      2758 1.02900E+02 4.09295E+01 0.00000E+00
 -1      2759 1.00650E+02 3.96530E+01 0.00000E+00
 -1      2760 1.04400E+02 4.09295E+01 0.00000E+00
 -1      2761 1.05900E+02 4.09295E+01 0.00000E+00
 -1      2762 1.03650E+02 3.96530E+01 0.00000E+00
 -1      2763 1.07400E+02 4.09295E+01 0.00000E+00
 -1      2764 1.08900E+02 4.09295E+01 0.00000E+00
 -1      2765 1.06650E+02 3.96530E+01 0.00000E+00
 -1      2766 1.10400E+02 4.09295E+01 0.00000E+00
 -1      2767 1.11900E+02 4.09295E+01 0.00000E+00
 -1      2768 1.09650E+02 3.96530E+01 0.00000E+00
 -1      2769 1.13400E+02 4.09295E+01 0.00000E+00
 -1      2770 1.14900E+02 4.09295E+01 0.00000E+00
 -1      2771 1.12650E+02 3.96530E+01 0.00000E+00
 -1      2772 1.16400E+02 4.09295E+01 0.00000E+00
 -1      2773 1.17900E+02 4.09295E+01 0.00000E+00
 -1      2774 1.15650E+02 3.96530E+01 0.00000E+00
 -1      2775 1.19400E+02 4.09295E+01 0.00000E+00
 -1      2776 1.20900E+02 4.09295E+01 0.00000E+00
 -1      2777 1.18650E+02 3.96530E+01 0.00000E+00
 -1      2778 1.22400E+02 4.09295E+01 0.00000E+00
 -1      2779 1.23900E+02 4.09295E+01 0.00000E+00
 -1      2780 1.21650E+02 3.96530E+01 0.00000E+00
 -1      2781 1.25400E+02 4.09295E+01 0.00000E+00
 -1      2782 1.26900E+02 4.09295E+01 0.00000E+00
 -1      2783 1.24650E+02 3.96530E+01 0.00000E+00
 -1      2784 1.28400E+02 4.09295E+01 0.00000E+00
 -1      2785 1.29900E+02 4.09295E+01 0.00000E+00
 -1      2786 1.27650E+02 3.96530E+01 0.00000E+00
 -1      2787 1.31400E+02 4.09295E+01 0.00000E+00
 -1      2788 1.32900E+02 4.09295E+01 0.00000E+00
 -1      2789 1.30650E+02 3.96530E+01 0.00000E+00
 -1      2790 1.34400E+02 4.09295E+01 0.00000E+00
 -1      2791 1.35900E+02 4.09295E+01 0.00000E+00
 -1      2792 1.33650E+02 3.96530E+01 0.00000E+00
 -1      2793 1.37400E+02 4.09295E+01 0.00000E+00
 -1      2794 1.38900E+02 4.09295E+01 0.00000E+00
 -1      2795 1.36650E+02 3.96530E+01 0.00000E+00
 -1      2796 2.41787E+01 7.95325E+00 0.00000E+00
 -1      2797 2.26787E+01 7.95325E+00 0.00000E+00
 -1      2798 2.49287E+01 9.25225E+00 0.00000E+00
 -1      2799 3.00176E+01 2.39092E+01 0.00000E+00
 -1      2800 2.97801E+01 2.49394E+01 0.00000E+00
 -1      2801 2.11787E+01 7.95325E+00 0.00000E+00
 -1      2802 1.96787E+01 7.95325E+00 0.00000E+00
 -1      2803 2.19287E+01 9.25225E+00 0.00000E+00
 -1      2804 3.01787E+01 7.95325E+00 0.00000E+00
 -1      2805 2.86787E+01 7.95325E+00 0.00000E+00
 -1      2806 2.79287E+01 9.25225E+00 0.00000E+00
 -1      2807 3.31787E+01 7.95325E+00 0.00000E+00
 -1      2808 3.16787E+01 7.95325E+00 0.00000E+00
 -1      2809 3.09287E+01 9.25225E+00 0.00000E+00
 -1      2810 3.61787E+01 7.95325E+00 0.00000E+00
 -1      2811 3.46787E+01 7.95325E+00 0.00000E+00
 -1      2812 3.39287E+01 9.25225E+00 0.00000E+00
 -1      2813 3.91787E+01 7.95325E+00 0.00000E+00
 -1      2814 3.76787E+01 7.95325E+00 0.00000E+00
 -1      2815 3.69287E+01 9.25225E+00 0.00000E+00
 -1      2816 4.21787E+01 7.95325E+00 0.00000E+00
 -1      2817 4.06787E+01 7.95325E+00 0.00000E+00
 -1      2818 3.99287E+01 9.25225E+00 0.00000E+00
 -1      2819 4.51787E+01 7.95325E+00 0.00000E+00
 -1      2820 4.36787E+01 7.95325E+00 0.00000E+00
 -1      2821 4.29287E+01 9.25225E+00 0.00000E+00
 -1      2822 4.81787E+01 7.95325E+00 0.00000E+00
 -1      2823 4.66787E+01 7.95325E+00 0.00000E+00
 -1      2824 4.59287E+01 9.25225E+00 0.00000E+00
 -1      2825 5.11787E+01 7.95325E+00 0.00000E+00
 -1      2826 4.96787E+01 7.95325E+00 0.00000E+00
 -1      2827 4.89287E+01 9.25225E+00 0.00000E+00
 -1      2828 5.41787E+01 7.95325E+00 0.00000E+00
 -1      2829 5.26787E+01 7.95325E+00 0.00000E+00
 -1      2830 5.19287E+01 9.25225E+00 0.00000E+00
 -1      2831 5.71787E+01 7.95325E+00 0.00000E+00
 -1      2832 5.56787E+01 7.95325E+00 0.00000E+00
 -1      2833 5.49287E+01 9.25225E+00 0.00000E+00
 -1      2834 6.01787E+01 7.95325E+00 0.00000E+00
 -1      2835 5.86787E+01 7.95325E+00 0.00000E+00
 -1      2836 5.79287E+01 9.25225E+00 0.00000E+00
 -1      2837 6.31787E+01 7.95325E+00 0.00000E+00
 -1      2838 6.16787E+01 7.95325E+00 0.00000E+00
 -1      2839 6.09287E+01 9.25225E+00 0.00000E+00
 -1      2840 6.61787E+01 7.95325E+00 0.00000E+00
 -1      2841 6.46787E+01 7.95325E+00 0.00000E+00
 -1      2842 6.39287E+01 9.25225E+00 0.00000E+00
 -1      2843 6.91787E+01 7.95325E+00 0.00000E+00
 -1      2844 6.76787E+01 7.95325E+00 0.00000E+00
 -1      2845 6.69287E+01 9.25225E+00 0.00000E+00
 -1      2846 7.21787E+01 7.95325E+00 0.00000E+00
 -1      2847 7.06787E+01 7.95325E+00 0.00000E+00
 -1      2848 6.99287E+01 9.25225E+00 0.00000E+00
 -1      2849 7.51787E+01 7.95325E+00 0.00000E+00
 -1      2850 7.36787E+01 7.95325E+00 0.00000E+00
 -1      2851 7.29287E+01 9.25225E+00 0.00000E+00
 -1      2852 7.81787E+01 7.95325E+00 0.00000E+00
 -1      2853 7.66787E+01 7.95325E+00 0.00000E+00
 -1      2854 7.59287E+01 9.25225E+00 0.00000E+00
 -1      2855 8.11787E+01 7.95325E+00 0.00000E+00
 -1      2856 7.96787E+01 7.95325E+00 0.00000E+00
 -1      2857 7.89287E+01 9.25225E+00 0.00000E+00
 -1      2858 8.41787E+01 7.95325E+00 0.00000E+00
 -1      2859 8.26787E+01 7.95325E+00 0.00000E+00
 -1      2860 8.19287E+01 9.25225E+00 0.00000E+00
 -1      2861 8.71787E+01 7.95325E+00 0.00000E+00
 -1      2862 8.56787E+01 7.95325E+00 0.00000E+00
 -1      2863 8.49287E+01 9.25225E+00 0.00000E+00
 -1      2864 9.01787E+01 7.95325E+00 0.00000E+00
 -1      2865 8.86787E+01 7.95325E+00 0.00000E+00
 -1      2866 8.79287E+01 9.25225E+00 0.00000E+00
 -1      2867 9.31787E+01 7.95325E+00 0.00000E+00
 -1      2868 9.16787E+01 7.95325E+00 0.00000E+00
 -1      2869 9.09287E+01 9.25225E+00 0.00000E+00
 -1      2870 9.61787E+01 7.95325E+00 0.00000E+00
 -1      2871 9.46787E+01 7.95325E+00 0.00000E+00
 -1      2872 9.39287E+01 9.25225E+00 0.00000E+00
 -1      2873 9.91787E+01 7.95325E+00 0.00000E+00
 -1      2874 9.76787E+01 7.95325E+00 0.00000E+00
 -1      2875 9.69287E+01 9.25225E+00 0.00000E+00
 -1      2876 1.02179E+02 7.95325E+00 0.00000E+00
 -1      2877 1.00679E+02 7.95325E+00 0.00000E+00
 -1      2878 9.99287E+01 9.25225E+00 0.00000E+00
 -1      2879 1.05179E+02 7.95325E+00 0.00000E+00
 -1      2880 1.03679E+02 7.95325E+00 0.00000E+00
 -1      2881 1.02929E+02 9.25225E+00 0.00000E+00
 -1      2882 1.08179E+02 7.95325E+00 0.00000E+00
 -1      2883 1.06679E+02 7.95325E+00 0.00000E+00
 -1      2884 1.05929E+02 9.25225E+00 0.00000E+00
 -1      2885 1.11179E+02 7.95325E+00 0.00000E+00
 -1      2886 1.09679E+02 7.95325E+00 0.00000E+00
 -1      2887 1.08929E+02 9.25225E+00 0.00000E+00
 -1      2888 1.14179E+02 7.95325E+00 0.00000E+00
 -1      2889 1.12679E+02 7.95325E+00 0.00000E+00
 -1      2890 1.11929E+02 9.25225E+00 0.00000E+00
 -1      2891 1.17179E+02 7.95325E+00 0.00000E+00
 -1      2892 1.15679E+02 7.95325E+00 0.00000E+00
 -1      2893 1.14929E+02 9.25225E+00 0.00000E+00
 -1      2894 1.20179E+02 7.95325E+00 0.00000E+00
 -1      2895 1.18679E+02 7.95325E+00 0.00000E+00
 -1      2896 1.17929E+02 9.25225E+00 0.00000E+00
 -1      2897 1.23179E+02 7.95325E+00 0.00000E+00
 -1      2898 1.21679E+02 7.95325E+00 0.00000E+00
 -1      2899 1.20929E+02 9.25225E+00 0.00000E+00
 -1      2900 1.26179E+02 7.95325E+00 0.00000E+00
 -1      2901 1.24679E+02 7.95325E+00 0.00000E+00
 -1      2902 1.23929E+02 9.25225E+00 0.00000E+00
 -1      2903 1.29179E+02 7.95325E+00 0.00000E+00
 -1      2904 1.27679E+02 7.95325E+00 0.00000E+00
 -1      2905 1.26929E+02 9.25225E+00 0.00000E+00
 -1      2906 1.32179E+02 7.95325E+00 0.00000E+00
 -1      2907 1.30679E+02 7.95325E+00 0.00000E+00
 -1      2908 1.29929E+02 9.25225E+00 0.00000E+00
 -1      2909 1.35179E+02 7.95325E+00 0.00000E+00
 -1      2910 1.33679E+02 7.95325E+00 0.00000E+00
 -1      2911 1.32929E+02 9.25225E+00 0.00000E+00
 -1      2912 1.37873E+02 8.22144E+00 0.00000E+00
 -1      2913 1.36373E+02 8.22144E+00 0.00000E+00
 -1      2914 1.35623E+02 9.52044E+00 0.00000E+00
 -1      2915 1.38012E+02 1.00568E+01 0.00000E+00
 -1      2916 1.79044E+01 3.64253E+01 0.00000E+00
 -1      2917 1.68063E+01 3.64272E+01 0.00000E+00
 -1      2918 1.40907E+02 2.42875E+01 0.00000E+00
 -1      2919 1.40907E+02 2.28125E+01 0.00000E+00
 -1      2920 1.39914E+02 4.09475E+01 0.00000E+00
 -1      2921 1.40928E+02 4.09768E+01 0.00000E+00
 -1      2922 1.41192E+02 3.97070E+01 0.00000E+00
 -1      2923 1.39164E+02 3.96710E+01 0.00000E+00
 -1      2924 1.40907E+02 1.83875E+01 0.00000E+00
 -1      2925 1.40907E+02 1.69125E+01 0.00000E+00
 -1      2926 1.40907E+02 2.72375E+01 0.00000E+00
 -1      2927 1.40907E+02 2.57625E+01 0.00000E+00
 -1      2928 1.39608E+02 2.50250E+01 0.00000E+00
 -1      2929 1.40907E+02 2.13375E+01 0.00000E+00
 -1      2930 1.40907E+02 1.98625E+01 0.00000E+00
 -1      2931 1.39608E+02 1.91250E+01 0.00000E+00
 -1      2932 1.39608E+02 2.20750E+01 0.00000E+00
 -1      2933 1.40907E+02 3.01375E+01 0.00000E+00
 -1      2934 1.40907E+02 2.86875E+01 0.00000E+00
 -1      2935 1.39608E+02 2.79500E+01 0.00000E+00
 -1      2936 1.40907E+02 3.30875E+01 0.00000E+00
 -1      2937 1.40907E+02 3.16125E+01 0.00000E+00
 -1      2938 1.39608E+02 3.08750E+01 0.00000E+00
 -1      2939 1.40907E+02 3.60375E+01 0.00000E+00
 -1      2940 1.40907E+02 3.45625E+01 0.00000E+00
 -1      2941 1.39608E+02 3.38250E+01 0.00000E+00
 -1      2942 1.41192E+02 3.82320E+01 0.00000E+00
 -1      2943 2.86795E+01 2.84486E+01 0.00000E+00
 -1      2944 2.80673E+01 2.94947E+01 0.00000E+00
 -1      2945 2.75041E+01 3.04649E+01 0.00000E+00
 -1      2946 2.69409E+01 3.14350E+01 0.00000E+00
 -1      2947 2.85142E+01 3.03538E+01 0.00000E+00
 -1      2948 2.87746E+01 2.20533E+01 0.00000E+00
 -1      2949 2.27557E+01 3.51309E+01 0.00000E+00
 -1      2950 2.16851E+01 3.56551E+01 0.00000E+00
 -1      2951 2.95897E+01 2.60841E+01 0.00000E+00
 -1      2952 2.93992E+01 2.72288E+01 0.00000E+00
 -1      2953 3.07073E+01 2.57992E+01 0.00000E+00
 -1      2954 9.15921E+00 4.05819E+01 0.00000E+00
 -1      2955 1.05227E+01 4.09084E+01 0.00000E+00
 -1      2956 9.03191E+00 3.92842E+01 0.00000E+00
 -1      2957 7.93637E+00 1.68728E+01 0.00000E+00
 -1      2958 2.29532E+01 1.30791E+01 0.00000E+00
 -1      2959 2.38822E+01 1.36100E+01 0.00000E+00
 -1      2960 1.09133E+01 3.39670E+01 0.00000E+00
 -1      2961 1.00026E+01 3.33955E+01 0.00000E+00
 -1      2962 2.49461E+01 1.43865E+01 0.00000E+00
 -1      2963 2.57848E+01 1.51471E+01 0.00000E+00
 -1      2964 8.78693E+00 1.62731E+01 0.00000E+00
 -1      2965 9.47037E+00 1.55384E+01 0.00000E+00
 -1      2966 9.75289E+00 1.46759E+01 0.00000E+00
 -1      2967 8.05177E+00 1.58753E+01 0.00000E+00
 -1      2968 1.27802E+01 3.54801E+01 0.00000E+00
 -1      2969 1.18468E+01 3.47236E+01 0.00000E+00
 -1      2970 1.09578E+01 3.51286E+01 0.00000E+00
 -1      2971 1.54610E+01 3.63134E+01 0.00000E+00
 -1      2972 1.41678E+01 3.61076E+01 0.00000E+00
 -1      2973 7.96746E+00 3.04085E+01 0.00000E+00
 -1      2974 1.53407E+01 1.20699E+01 0.00000E+00
 -1      2975 1.64826E+01 1.19455E+01 0.00000E+00
 -1      2976 2.03364E+01 3.60382E+01 0.00000E+00
 -1      2977 1.92129E+01 3.62814E+01 0.00000E+00
 -1      2978 1.17114E+01 4.09189E+01 0.00000E+00
 -1      2979 1.32114E+01 4.09189E+01 0.00000E+00
 -1      2980 1.39614E+01 3.96425E+01 0.00000E+00
 -1      2981 1.15841E+01 3.96213E+01 0.00000E+00
 -1      2982 1.77121E+01 1.21243E+01 0.00000E+00
 -1      2983 1.86891E+01 1.21952E+01 0.00000E+00
 -1      2984 2.94880E+01 2.12057E+01 0.00000E+00
 -1      2985 2.98508E+01 2.23162E+01 0.00000E+00
 -1      2986 8.71909E+00 3.38486E+01 0.00000E+00
 -1      2987 8.71909E+00 3.53673E+01 0.00000E+00
 -1      2988 1.13197E+01 8.56555E+00 0.00000E+00
 -1      2989 1.05697E+01 7.28906E+00 0.00000E+00
 -1      2990 1.60117E+01 3.72538E+01 0.00000E+00
 -1      2991 1.40907E+02 1.54500E+01 0.00000E+00
 -1      2992 1.40907E+02 1.39875E+01 0.00000E+00
 -1      2993 1.39608E+02 1.61875E+01 0.00000E+00
 -1      2994 9.06970E+00 7.28906E+00 0.00000E+00
 -1      2995 8.24186E+00 1.43628E+01 0.00000E+00
 -1      2996 1.70301E+01 1.11674E+01 0.00000E+00
 -1      2997 3.07310E+01 2.30616E+01 0.00000E+00
 -1      2998 3.16112E+01 2.38069E+01 0.00000E+00
 -1      2999 3.14444E+01 2.22139E+01 0.00000E+00
 -1      3000 1.90934E+01 9.15722E+00 0.00000E+00
 -1      3001 1.83434E+01 7.85822E+00 0.00000E+00
 -1      3002 2.82487E+01 1.70980E+01 0.00000E+00
 -1      3003 2.79949E+01 1.80355E+01 0.00000E+00
 -1      3004 2.89184E+01 1.83510E+01 0.00000E+00
 -1      3005 1.86654E+01 3.72237E+01 0.00000E+00
 -1      3006 1.96447E+01 1.16977E+01 0.00000E+00
 -1      3007 1.40706E+02 1.17875E+01 0.00000E+00
 -1      3008 2.49903E+01 1.32310E+01 0.00000E+00
 -1      3009 2.66897E+01 1.53949E+01 0.00000E+00
 -1      3010 2.75946E+01 1.56428E+01 0.00000E+00
 -1      3011 2.69591E+01 1.42553E+01 0.00000E+00
 -1      3012 1.39529E+02 3.85828E+01 0.00000E+00
 -1      3013 1.40542E+02 3.71258E+01 0.00000E+00
 -1      3014 1.39243E+02 3.63883E+01 0.00000E+00
 -1      3015 1.38514E+02 3.85648E+01 0.00000E+00
 -1      3016 2.97971E+01 2.81638E+01 0.00000E+00
 -1      3017 2.97408E+01 1.95514E+01 0.00000E+00
 -1      3018 2.96144E+01 2.03786E+01 0.00000E+00
 -1      3019 3.06906E+01 2.06415E+01 0.00000E+00
 -1      3020 1.71124E+01 7.62044E+00 0.00000E+00
 -1      3021 2.75580E+01 3.23985E+01 0.00000E+00
 -1      3022 2.65479E+01 3.25096E+01 0.00000E+00
 -1      3023 1.57992E+01 7.41891E+00 0.00000E+00
 -1      3024 1.45683E+01 7.18113E+00 0.00000E+00
 -1      3025 1.38183E+01 8.45761E+00 0.00000E+00
 -1      3026 1.64448E+01 8.86066E+00 0.00000E+00
 -1      3027 2.57752E+01 3.31101E+01 0.00000E+00
 -1      3028 2.38204E+01 3.46125E+01 0.00000E+00
 -1      3029 2.37360E+01 3.57953E+01 0.00000E+00
 -1      3030 1.18683E+01 1.33731E+01 0.00000E+00
 -1      3031 1.22402E+01 1.25261E+01 0.00000E+00
 -1      3032 1.09752E+01 1.32292E+01 0.00000E+00
 -1      3033 1.44670E+01 1.18293E+01 0.00000E+00
 -1      3034 1.07407E+01 1.06286E+01 0.00000E+00
 -1      3035 9.46422E+00 1.13911E+01 0.00000E+00
 -1      3036 1.32788E+01 3.65127E+01 0.00000E+00
 -1      3037 9.46422E+00 1.29161E+01 0.00000E+00
 -1      3038 2.24781E+01 1.22518E+01 0.00000E+00
 -1      3039 8.69731E+00 3.28719E+01 0.00000E+00
 -1      3040 9.09242E+00 1.37631E+01 0.00000E+00
 -1      3041 2.45931E+01 3.40120E+01 0.00000E+00
 -1      3042 7.96746E+00 3.19085E+01 0.00000E+00
 -1      3043 2.13225E+01 3.66968E+01 0.00000E+00
 -1      3044 1.62535E+01 3.85103E+01 0.00000E+00
 -1      3045 1.49082E+01 3.83966E+01 0.00000E+00
 -1      3046 3.16787E+01 1.05513E+01 0.00000E+00
 -1      3047 3.01787E+01 1.05513E+01 0.00000E+00
 -1      3048 1.90619E+01 3.83664E+01 0.00000E+00
 -1      3049 2.05619E+01 3.83664E+01 0.00000E+00
 -1      3050 2.19106E+01 3.79833E+01 0.00000E+00
 -1      3051 2.34106E+01 3.79833E+01 0.00000E+00
 -1      3052 2.79000E+01 3.83540E+01 0.00000E+00
 -1      3053 2.94000E+01 3.83540E+01 0.00000E+00
 -1      3054 3.09000E+01 3.83540E+01 0.00000E+00
 -1      3055 3.24000E+01 3.83540E+01 0.00000E+00
 -1      3056 3.01500E+01 3.70550E+01 0.00000E+00
 -1      3057 3.39000E+01 3.83540E+01 0.00000E+00
 -1      3058 3.54000E+01 3.83540E+01 0.00000E+00
 -1      3059 3.31500E+01 3.70550E+01 0.00000E+00
 -1      3060 3.69000E+01 3.83540E+01 0.00000E+00
 -1      3061 3.84000E+01 3.83540E+01 0.00000E+00
 -1      3062 3.61500E+01 3.70550E+01 0.00000E+00
 -1      3063 3.99000E+01 3.83540E+01 0.00000E+00
 -1      3064 4.14000E+01 3.83540E+01 0.00000E+00
 -1      3065 3.91500E+01 3.70550E+01 0.00000E+00
 -1      3066 4.29000E+01 3.83540E+01 0.00000E+00
 -1      3067 4.44000E+01 3.83540E+01 0.00000E+00
 -1      3068 4.21500E+01 3.70550E+01 0.00000E+00
 -1      3069 4.59000E+01 3.83540E+01 0.00000E+00
 -1      3070 4.74000E+01 3.83540E+01 0.00000E+00
 -1      3071 4.51500E+01 3.70550E+01 0.00000E+00
 -1      3072 4.89000E+01 3.83540E+01 0.00000E+00
 -1      3073 5.04000E+01 3.83540E+01 0.00000E+00
 -1      3074 4.81500E+01 3.70550E+01 0.00000E+00
 -1      3075 5.19000E+01 3.83540E+01 0.00000E+00
 -1      3076 5.34000E+01 3.83540E+01 0.00000E+00
 -1      3077 5.11500E+01 3.70550E+01 0.00000E+00
 -1      3078 5.49000E+01 3.83540E+01 0.00000E+00
 -1      3079 5.64000E+01 3.83540E+01 0.00000E+00
 -1      3080 5.41500E+01 3.70550E+01 0.00000E+00
 -1      3081 5.79000E+01 3.83540E+01 0.00000E+00
 -1      3082 5.94000E+01 3.83540E+01 0.00000E+00
 -1      3083 5.71500E+01 3.70550E+01 0.00000E+00
 -1      3084 6.09000E+01 3.83540E+01 0.00000E+00
 -1      3085 6.24000E+01 3.83540E+01 0.00000E+00
 -1      3086 6.01500E+01 3.70550E+01 0.00000E+00
 -1      3087 6.39000E+01 3.83540E+01 0.00000E+00
 -1      3088 6.54000E+01 3.83540E+01 0.00000E+00
 -1      3089 6.31500E+01 3.70550E+01 0.00000E+00
 -1      3090 6.69000E+01 3.83540E+01 0.00000E+00
 -1      3091 6.84000E+01 3.83540E+01 0.00000E+00
 -1      3092 6.61500E+01 3.70550E+01 0.00000E+00
 -1      3093 6.99000E+01 3.83540E+01 0.00000E+00
 -1      3094 7.14000E+01 3.83540E+01 0.00000E+00
 -1      3095 6.91500E+01 3.70550E+01 0.00000E+00
 -1      3096 7.29000E+01 3.83540E+01 0.00000E+00
 -1      3097 7.44000E+01 3.83540E+01 0.00000E+00
 -1      3098 7.21500E+01 3.70550E+01 0.00000E+00
 -1      3099 7.59000E+01 3.83540E+01 0.00000E+00
 -1      3100 7.74000E+01 3.83540E+01 0.00000E+00
 -1      3101 7.51500E+01 3.70550E+01 0.00000E+00
 -1      3102 7.89000E+01 3.83540E+01 0.00000E+00
 -1      3103 8.04000E+01 3.83540E+01 0.00000E+00
 -1      3104 7.81500E+01 3.70550E+01 0.00000E+00
 -1      3105 8.19000E+01 3.83540E+01 0.00000E+00
 -1      3106 8.34000E+01 3.83540E+01 0.00000E+00
 -1      3107 8.11500E+01 3.70550E+01 0.00000E+00
 -1      3108 8.49000E+01 3.83540E+01 0.00000E+00
 -1      3109 8.64000E+01 3.83540E+01 0.00000E+00
 -1      3110 8.41500E+01 3.70550E+01 0.00000E+00
 -1      3111 8.79000E+01 3.83540E+01 0.00000E+00
 -1      3112 8.94000E+01 3.83540E+01 0.00000E+00
 -1      3113 8.71500E+01 3.70550E+01 0.00000E+00
 -1      3114 9.09000E+01 3.83540E+01 0.00000E+00
 -1      3115 9.24000E+01 3.83540E+01 0.00000E+00
 -1      3116 9.01500E+01 3.70550E+01 0.00000E+00
 -1      3117 9.39000E+01 3.83540E+01 0.00000E+00
 -1      3118 9.54000E+01 3.83540E+01 0.00000E+00
 -1      3119 9.31500E+01 3.70550E+01 0.00000E+00
 -1      3120 9.69000E+01 3.83540E+01 0.00000E+00
 -1      3121 9.84000E+01 3.83540E+01 0.00000E+00
 -1      3122 9.61500E+01 3.70550E+01 0.00000E+00
 -1      3123 9.99000E+01 3.83540E+01 0.00000E+00
 -1      3124 1.01400E+02 3.83540E+01 0.00000E+00
 -1      3125 9.91500E+01 3.70550E+01 0.00000E+00
 -1      3126 1.02900E+02 3.83540E+01 0.00000E+00
 -1      3127 1.04400E+02 3.83540E+01 0.00000E+00
 -1      3128 1.02150E+02 3.70550E+01 0.00000E+00
 -1      3129 1.05900E+02 3.83540E+01 0.00000E+00
 -1      3130 1.07400E+02 3.83540E+01 0.00000E+00
 -1      3131 1.05150E+02 3.70550E+01 0.00000E+00
 -1      3132 1.08900E+02 3.83540E+01 0.00000E+00
 -1      3133 1.10400E+02 3.83540E+01 0.00000E+00
 -1      3134 1.08150E+02 3.70550E+01 0.00000E+00
 -1      3135 1.11900E+02 3.83540E+01 0.00000E+00
 -1      3136 1.13400E+02 3.83540E+01 0.00000E+00
 -1      3137 1.11150E+02 3.70550E+01 0.00000E+00
 -1      3138 1.14900E+02 3.83540E+01 0.00000E+00
 -1      3139 1.16400E+02 3.83540E+01 0.00000E+00
 -1      3140 1.14150E+02 3.70550E+01 0.00000E+00
 -1      3141 1.17900E+02 3.83540E+01 0.00000E+00
 -1      3142 1.19400E+02 3.83540E+01 0.00000E+00
 -1      3143 1.17150E+02 3.70550E+01 0.00000E+00
 -1      3144 1.20900E+02 3.83540E+01 0.00000E+00
 -1      3145 1.22400E+02 3.83540E+01 0.00000E+00
 -1      3146 1.20150E+02 3.70550E+01 0.00000E+00
 -1      3147 1.23900E+02 3.83540E+01 0.00000E+00
 -1      3148 1.25400E+02 3.83540E+01 0.00000E+00
 -1      3149 1.23150E+02 3.70550E+01 0.00000E+00
 -1      3150 1.26900E+02 3.83540E+01 0.00000E+00
 -1      3151 1.28400E+02 3.83540E+01 0.00000E+00
 -1      3152 1.26150E+02 3.70550E+01 0.00000E+00
 -1      3153 1.29900E+02 3.83540E+01 0.00000E+00
 -1      3154 1.31400E+02 3.83540E+01 0.00000E+00
 -1      3155 1.29150E+02 3.70550E+01 0.00000E+00
 -1      3156 1.32900E+02 3.83540E+01 0.00000E+00
 -1      3157 1.34400E+02 3.83540E+01 0.00000E+00
 -1      3158 1.32150E+02 3.70550E+01 0.00000E+00
 -1      3159 1.35707E+02 3.84594E+01 0.00000E+00
 -1      3160 1.37207E+02 3.84594E+01 0.00000E+00
 -1      3161 1.37572E+02 3.73711E+01 0.00000E+00
 -1      3162 1.34957E+02 3.71604E+01 0.00000E+00
 -1      3163 2.51775E+01 1.08534E+01 0.00000E+00
 -1      3164 2.36775E+01 1.08534E+01 0.00000E+00
 -1      3165 1.93441E+01 1.02992E+01 0.00000E+00
 -1      3166 1.80088E+01 1.02042E+01 0.00000E+00
 -1      3167 3.46787E+01 1.05513E+01 0.00000E+00
 -1      3168 3.31787E+01 1.05513E+01 0.00000E+00
 -1      3169 3.24287E+01 1.18503E+01 0.00000E+00
 -1      3170 3.76787E+01 1.05513E+01 0.00000E+00
 -1      3171 3.61787E+01 1.05513E+01 0.00000E+00
 -1      3172 3.54287E+01 1.18503E+01 0.00000E+00
 -1      3173 4.06787E+01 1.05513E+01 0.00000E+00
 -1      3174 3.91787E+01 1.05513E+01 0.00000E+00
 -1      3175 3.84287E+01 1.18503E+01 0.00000E+00
 -1      3176 4.36787E+01 1.05513E+01 0.00000E+00
 -1      3177 4.21787E+01 1.05513E+01 0.00000E+00
 -1      3178 4.14287E+01 1.18503E+01 0.00000E+00
 -1      3179 4.66787E+01 1.05513E+01 0.00000E+00
 -1      3180 4.51787E+01 1.05513E+01 0.00000E+00
 -1      3181 4.44287E+01 1.18503E+01 0.00000E+00
 -1      3182 4.96787E+01 1.05513E+01 0.00000E+00
 -1      3183 4.81787E+01 1.05513E+01 0.00000E+00
 -1      3184 4.74287E+01 1.18503E+01 0.00000E+00
 -1      3185 5.26787E+01 1.05513E+01 0.00000E+00
 -1      3186 5.11787E+01 1.05513E+01 0.00000E+00
 -1      3187 5.04287E+01 1.18503E+01 0.00000E+00
 -1      3188 5.56787E+01 1.05513E+01 0.00000E+00
 -1      3189 5.41787E+01 1.05513E+01 0.00000E+00
 -1      3190 5.34287E+01 1.18503E+01 0.00000E+00
 -1      3191 5.86787E+01 1.05513E+01 0.00000E+00
 -1      3192 5.71787E+01 1.05513E+01 0.00000E+00
 -1      3193 5.64287E+01 1.18503E+01 0.00000E+00
 -1      3194 6.16787E+01 1.05513E+01 0.00000E+00
 -1      3195 6.01787E+01 1.05513E+01 0.00000E+00
 -1      3196 5.94287E+01 1.18503E+01 0.00000E+00
 -1      3197 6.46787E+01 1.05513E+01 0.00000E+00
 -1      3198 6.31787E+01 1.05513E+01 0.00000E+00
 -1      3199 6.24287E+01 1.18503E+01 0.00000E+00
 -1      3200 6.76787E+01 1.05513E+01 0.00000E+00
 -1      3201 6.61787E+01 1.05513E+01 0.00000E+00
 -1      3202 6.54287E+01 1.18503E+01 0.00000E+00
 -1      3203 7.06787E+01 1.05513E+01 0.00000E+00
 -1      3204 6.91787E+01 1.05513E+01 0.00000E+00
 -1      3205 6.84287E+01 1.18503E+01 0.00000E+00
 -1      3206 7.36787E+01 1.05513E+01 0.00000E+00
 -1      3207 7.21787E+01 1.05513E+01 0.00000E+00
 -1      3208 7.14287E+01 1.18503E+01 0.00000E+00
 -1      3209 7.66787E+01 1.05513E+01 0.00000E+00
 -1      3210 7.51787E+01 1.05513E+01 0.00000E+00
 -1      3211 7.44287E+01 1.18503E+01 0.00000E+00
 -1      3212 7.96787E+01 1.05513E+01 0.00000E+00
 -1      3213 7.81787E+01 1.05513E+01 0.00000E+00
 -1      3214 7.74287E+01 1.18503E+01 0.00000E+00
 -1      3215 8.26787E+01 1.05513E+01 0.00000E+00
 -1      3216 8.11787E+01 1.05513E+01 0.00000E+00
 -1      3217 8.04287E+01 1.18503E+01 0.00000E+00
 -1      3218 8.56787E+01 1.05513E+01 0.00000E+00
 -1      3219 8.41787E+01 1.05513E+01 0.00000E+00
 -1      3220 8.34287E+01 1.18503E+01 0.00000E+00
 -1      3221 8.86787E+01 1.05513E+01 0.00000E+00
 -1      3222 8.71787E+01 1.05513E+01 0.00000E+00
 -1      3223 8.64287E+01 1.18503E+01 0.00000E+00
 -1      3224 9.16787E+01 1.05513E+01 0.00000E+00
 -1      3225 9.01787E+01 1.05513E+01 0.00000E+00
 -1      3226 8.94287E+01 1.18503E+01 0.00000E+00
 -1      3227 9.46787E+01 1.05513E+01 0.00000E+00
 -1      3228 9.31787E+01 1.05513E+01 0.00000E+00
 -1      3229 9.24287E+01 1.18503E+01 0.00000E+00
 -1      3230 9.76787E+01 1.05513E+01 0.00000E+00
 -1      3231 9.61787E+01 1.05513E+01 0.00000E+00
 -1      3232 9.54287E+01 1.18503E+01 0.00000E+00
 -1      3233 1.00679E+02 1.05513E+01 0.00000E+00
 -1      3234 9.91787E+01 1.05513E+01 0.00000E+00
 -1      3235 9.84287E+01 1.18503E+01 0.00000E+00
 -1      3236 1.03679E+02 1.05513E+01 0.00000E+00
 -1      3237 1.02179E+02 1.05513E+01 0.00000E+00
 -1      3238 1.01429E+02 1.18503E+01 0.00000E+00
 -1      3239 1.06679E+02 1.05513E+01 0.00000E+00
 -1      3240 1.05179E+02 1.05513E+01 0.00000E+00
 -1      3241 1.04429E+02 1.18503E+01 0.00000E+00
 -1      3242 1.09679E+02 1.05513E+01 0.00000E+00
 -1      3243 1.08179E+02 1.05513E+01 0.00000E+00
 -1      3244 1.07429E+02 1.18503E+01 0.00000E+00
 -1      3245 1.12679E+02 1.05513E+01 0.00000E+00
 -1      3246 1.11179E+02 1.05513E+01 0.00000E+00
 -1      3247 1.10429E+02 1.18503E+01 0.00000E+00
 -1      3248 1.15679E+02 1.05513E+01 0.00000E+00
 -1      3249 1.14179E+02 1.05513E+01 0.00000E+00
 -1      3250 1.13429E+02 1.18503E+01 0.00000E+00
 -1      3251 1.18679E+02 1.05513E+01 0.00000E+00
 -1      3252 1.17179E+02 1.05513E+01 0.00000E+00
 -1      3253 1.16429E+02 1.18503E+01 0.00000E+00
 -1      3254 1.21679E+02 1.05513E+01 0.00000E+00
 -1      3255 1.20179E+02 1.05513E+01 0.00000E+00
 -1      3256 1.19429E+02 1.18503E+01 0.00000E+00
 -1      3257 1.24679E+02 1.05513E+01 0.00000E+00
 -1      3258 1.23179E+02 1.05513E+01 0.00000E+00
 -1      3259 1.22429E+02 1.18503E+01 0.00000E+00
 -1      3260 1.27679E+02 1.05513E+01 0.00000E+00
 -1      3261 1.26179E+02 1.05513E+01 0.00000E+00
 -1      3262 1.25429E+02 1.18503E+01 0.00000E+00
 -1      3263 1.30679E+02 1.05513E+01 0.00000E+00
 -1      3264 1.29179E+02 1.05513E+01 0.00000E+00
 -1      3265 1.28429E+02 1.18503E+01 0.00000E+00
 -1      3266 1.33679E+02 1.05513E+01 0.00000E+00
 -1      3267 1.32179E+02 1.05513E+01 0.00000E+00
 -1      3268 1.31429E+02 1.18503E+01 0.00000E+00
 -1      3269 1.38309E+02 2.86750E+01 0.00000E+00
 -1      3270 1.38309E+02 2.72250E+01 0.00000E+00
 -1      3271 9.90209E+00 3.58968E+01 0.00000E+00
 -1      3272 8.59683E+00 3.68920E+01 0.00000E+00
 -1      3273 8.72412E+00 3.81896E+01 0.00000E+00
 -1      3274 1.08355E+01 3.66533E+01 0.00000E+00
 -1      3275 1.38309E+02 3.16250E+01 0.00000E+00
 -1      3276 1.38309E+02 3.01500E+01 0.00000E+00
 -1      3277 1.37010E+02 2.94250E+01 0.00000E+00
 -1      3278 1.38309E+02 2.57500E+01 0.00000E+00
 -1      3279 1.38309E+02 2.42750E+01 0.00000E+00
 -1      3280 1.37010E+02 2.64750E+01 0.00000E+00
 -1      3281 2.70851E+01 1.04411E+01 0.00000E+00
 -1      3282 2.58339E+01 1.20422E+01 0.00000E+00
 -1      3283 2.68978E+01 1.28187E+01 0.00000E+00
 -1      3284 2.85851E+01 1.04411E+01 0.00000E+00
 -1      3285 1.77535E+01 3.85103E+01 0.00000E+00
 -1      3286 2.97548E+01 3.04254E+01 0.00000E+00
 -1      3287 2.91916E+01 3.13956E+01 0.00000E+00
 -1      3288 2.87986E+01 3.24701E+01 0.00000E+00
 -1      3289 2.84056E+01 3.35446E+01 0.00000E+00
 -1      3290 3.00392E+01 3.25418E+01 0.00000E+00
 -1      3291 3.18964E+01 2.54089E+01 0.00000E+00
 -1      3292 3.17060E+01 2.65536E+01 0.00000E+00
 -1      3293 1.00876E+01 3.85161E+01 0.00000E+00
 -1      3294 1.14768E+01 9.66903E+00 0.00000E+00
 -1      3295 1.20831E+01 1.14226E+01 0.00000E+00
 -1      3296 1.29762E+01 1.15665E+01 0.00000E+00
 -1      3297 1.26621E+01 9.35958E+00 0.00000E+00
 -1      3298 1.39407E+02 1.25250E+01 0.00000E+00
 -1      3299 1.38309E+02 3.45750E+01 0.00000E+00
 -1      3300 1.38309E+02 3.31000E+01 0.00000E+00
 -1      3301 1.37010E+02 3.23750E+01 0.00000E+00
 -1      3302 1.43099E+01 1.07258E+01 0.00000E+00
 -1      3303 2.59829E+01 3.43749E+01 0.00000E+00
 -1      3304 1.67793E+01 1.00254E+01 0.00000E+00
 -1      3305 3.11943E+01 2.79858E+01 0.00000E+00
 -1      3306 3.04746E+01 2.92056E+01 0.00000E+00
 -1      3307 3.11520E+01 3.02474E+01 0.00000E+00
 -1      3308 1.37195E+01 3.83860E+01 0.00000E+00
 -1      3309 2.22293E+01 1.06507E+01 0.00000E+00
 -1      3310 2.07293E+01 1.06507E+01 0.00000E+00
 -1      3311 1.54661E+01 9.82386E+00 0.00000E+00
 -1      3312 2.43233E+01 3.68893E+01 0.00000E+00
 -1      3313 2.50627E+01 3.85590E+01 0.00000E+00
 -1      3314 2.65627E+01 3.85590E+01 0.00000E+00
 -1      3315 2.53881E+01 3.63709E+01 0.00000E+00
 -1      3316 2.74879E+01 3.45068E+01 0.00000E+00
 -1      3317 2.63058E+01 3.54087E+01 0.00000E+00
 -1      3318 2.68931E+01 3.65028E+01 0.00000E+00
 -1      3319 2.87285E+01 3.45784E+01 0.00000E+00
 -1      3320 1.39753E+01 9.56110E+00 0.00000E+00
 -1      3321 2.93351E+01 1.17401E+01 0.00000E+00
 -1      3322 1.38309E+02 1.69188E+01 0.00000E+00
 -1      3323 1.38309E+02 1.54563E+01 0.00000E+00
 -1      3324 2.85181E+01 1.59583E+01 0.00000E+00
 -1      3325 2.94416E+01 1.62738E+01 0.00000E+00
 -1      3326 2.87874E+01 1.48186E+01 0.00000E+00
 -1      3327 3.15708E+01 2.13868E+01 0.00000E+00
 -1      3328 3.24510E+01 2.21322E+01 0.00000E+00
 -1      3329 3.16972E+01 2.05597E+01 0.00000E+00
 -1      3330 3.23834E+01 2.75954E+01 0.00000E+00
 -1      3331 2.99946E+01 1.86139E+01 0.00000E+00
 -1      3332 2.78027E+01 1.30665E+01 0.00000E+00
 -1      3333 1.34873E+02 1.08194E+01 0.00000E+00
 -1      3334 1.34123E+02 1.21184E+01 0.00000E+00
 -1      3335 1.36067E+02 1.10876E+01 0.00000E+00
 -1      3336 1.37010E+02 2.35250E+01 0.00000E+00
 -1      3337 1.38309E+02 2.28000E+01 0.00000E+00
 -1      3338 1.38309E+02 2.13250E+01 0.00000E+00
 -1      3339 1.38309E+02 1.98594E+01 0.00000E+00
 -1      3340 1.38309E+02 1.83844E+01 0.00000E+00
 -1      3341 1.37010E+02 1.76531E+01 0.00000E+00
 -1      3342 1.37010E+02 2.05844E+01 0.00000E+00
 -1      3343 1.23320E+01 3.77585E+01 0.00000E+00
 -1      3344 2.73127E+01 3.72600E+01 0.00000E+00
 -1      3345 3.26098E+01 2.45613E+01 0.00000E+00
 -1      3346 1.37758E+02 3.65172E+01 0.00000E+00
 -1      3347 1.38123E+02 3.54289E+01 0.00000E+00
 -1      3348 1.36824E+02 3.47039E+01 0.00000E+00
 -1      3349 1.36451E+02 3.64118E+01 0.00000E+00
 -1      3350 1.38261E+02 1.38565E+01 0.00000E+00
 -1      3351 1.38060E+02 1.16565E+01 0.00000E+00
 -1      3352 1.36866E+02 1.13883E+01 0.00000E+00
 -1      3353 1.36962E+02 1.45878E+01 0.00000E+00
 -1      3354 1.35711E+02 3.31125E+01 0.00000E+00
 -1      3355 1.35711E+02 3.16375E+01 0.00000E+00
 -1      3356 1.11433E+01 3.77480E+01 0.00000E+00
 -1      3357 2.93963E+01 1.31767E+01 0.00000E+00
 -1      3358 3.24000E+01 3.57560E+01 0.00000E+00
 -1      3359 3.39000E+01 3.57560E+01 0.00000E+00
 -1      3360 3.54000E+01 3.57560E+01 0.00000E+00
 -1      3361 3.69000E+01 3.57560E+01 0.00000E+00
 -1      3362 3.46500E+01 3.44570E+01 0.00000E+00
 -1      3363 3.84000E+01 3.57560E+01 0.00000E+00
 -1      3364 3.99000E+01 3.57560E+01 0.00000E+00
 -1      3365 3.76500E+01 3.44570E+01 0.00000E+00
 -1      3366 4.14000E+01 3.57560E+01 0.00000E+00
 -1      3367 4.29000E+01 3.57560E+01 0.00000E+00
 -1      3368 4.06500E+01 3.44570E+01 0.00000E+00
 -1      3369 4.44000E+01 3.57560E+01 0.00000E+00
 -1      3370 4.59000E+01 3.57560E+01 0.00000E+00
 -1      3371 4.36500E+01 3.44570E+01 0.00000E+00
 -1      3372 4.74000E+01 3.57560E+01 0.00000E+00
 -1      3373 4.89000E+01 3.57560E+01 0.00000E+00
 -1      3374 4.66500E+01 3.44570E+01 0.00000E+00
 -1      3375 5.04000E+01 3.57560E+01 0.00000E+00
 -1      3376 5.19000E+01 3.57560E+01 0.00000E+00
 -1      3377 4.96500E+01 3.44570E+01 0.00000E+00
 -1      3378 5.34000E+01 3.57560E+01 0.00000E+00
 -1      3379 5.49000E+01 3.57560E+01 0.00000E+00
 -1      3380 5.26500E+01 3.44570E+01 0.00000E+00
 -1      3381 5.64000E+01 3.57560E+01 0.00000E+00
 -1      3382 5.79000E+01 3.57560E+01 0.00000E+00
 -1      3383 5.56500E+01 3.44570E+01 0.00000E+00
 -1      3384 5.94000E+01 3.57560E+01 0.00000E+00
 -1      3385 6.09000E+01 3.57560E+01 0.00000E+00
 -1      3386 5.86500E+01 3.44570E+01 0.00000E+00
 -1      3387 6.24000E+01 3.57560E+01 0.00000E+00
 -1      3388 6.39000E+01 3.57560E+01 0.00000E+00
 -1      3389 6.16500E+01 3.44570E+01 0.00000E+00
 -1      3390 6.54000E+01 3.57560E+01 0.00000E+00
 -1      3391 6.69000E+01 3.57560E+01 0.00000E+00
 -1      3392 6.46500E+01 3.44570E+01 0.00000E+00
 -1      3393 6.84000E+01 3.57560E+01 0.00000E+00
 -1      3394 6.99000E+01 3.57560E+01 0.00000E+00
 -1      3395 6.76500E+01 3.44570E+01 0.00000E+00
 -1      3396 7.14000E+01 3.57560E+01 0.00000E+00
 -1      3397 7.29000E+01 3.57560E+01 0.00000E+00
 -1      3398 7.06500E+01 3.44570E+01 0.00000E+00
 -1      3399 7.44000E+01 3.57560E+01 0.00000E+00
 -1      3400 7.59000E+01 3.57560E+01 0.00000E+00
 -1      3401 7.36500E+01 3.44570E+01 0.00000E+00
 -1      3402 7.74000E+01 3.57560E+01 0.00000E+00
 -1      3403 7.89000E+01 3.57560E+01 0.00000E+00
 -1      3404 7.66500E+01 3.44570E+01 0.00000E+00
 -1      3405 8.04000E+01 3.57560E+01 0.00000E+00
 -1      3406 8.19000E+01 3.57560E+01 0.00000E+00
 -1      3407 7.96500E+01 3.44570E+01 0.00000E+00
 -1      3408 8.34000E+01 3.57560E+01 0.00000E+00
 -1      3409 8.49000E+01 3.57560E+01 0.00000E+00
 -1      3410 8.26500E+01 3.44570E+01 0.00000E+00
 -1      3411 8.64000E+01 3.57560E+01 0.00000E+00
 -1      3412 8.79000E+01 3.57560E+01 0.00000E+00
 -1      3413 8.56500E+01 3.44570E+01 0.00000E+00
 -1      3414 8.94000E+01 3.57560E+01 0.00000E+00
 -1      3415 9.09000E+01 3.57560E+01 0.00000E+00
 -1      3416 8.86500E+01 3.44570E+01 0.00000E+00
 -1      3417 9.24000E+01 3.57560E+01 0.00000E+00
 -1      3418 9.39000E+01 3.57560E+01 0.00000E+00
 -1      3419 9.16500E+01 3.44570E+01 0.00000E+00
 -1      3420 9.54000E+01 3.57560E+01 0.00000E+00
 -1      3421 9.69000E+01 3.57560E+01 0.00000E+00
 -1      3422 9.46500E+01 3.44570E+01 0.00000E+00
 -1      3423 9.84000E+01 3.57560E+01 0.00000E+00
 -1      3424 9.99000E+01 3.57560E+01 0.00000E+00
 -1      3425 9.76500E+01 3.44570E+01 0.00000E+00
 -1      3426 1.01400E+02 3.57560E+01 0.00000E+00
 -1      3427 1.02900E+02 3.57560E+01 0.00000E+00
 -1      3428 1.00650E+02 3.44570E+01 0.00000E+00
 -1      3429 1.04400E+02 3.57560E+01 0.00000E+00
 -1      3430 1.05900E+02 3.57560E+01 0.00000E+00
 -1      3431 1.03650E+02 3.44570E+01 0.00000E+00
 -1      3432 1.07400E+02 3.57560E+01 0.00000E+00
 -1      3433 1.08900E+02 3.57560E+01 0.00000E+00
 -1      3434 1.06650E+02 3.44570E+01 0.00000E+00
 -1      3435 1.10400E+02 3.57560E+01 0.00000E+00
 -1      3436 1.11900E+02 3.57560E+01 0.00000E+00
 -1      3437 1.09650E+02 3.44570E+01 0.00000E+00
 -1      3438 1.13400E+02 3.57560E+01 0.00000E+00
 -1      3439 1.14900E+02 3.57560E+01 0.00000E+00
 -1      3440 1.12650E+02 3.44570E+01 0.00000E+00
 -1      3441 1.16400E+02 3.57560E+01 0.00000E+00
 -1      3442 1.17900E+02 3.57560E+01 0.00000E+00
 -1      3443 1.15650E+02 3.44570E+01 0.00000E+00
 -1      3444 1.19400E+02 3.57560E+01 0.00000E+00
 -1      3445 1.20900E+02 3.57560E+01 0.00000E+00
 -1      3446 1.18650E+02 3.44570E+01 0.00000E+00
 -1      3447 1.22400E+02 3.57560E+01 0.00000E+00
 -1      3448 1.23900E+02 3.57560E+01 0.00000E+00
 -1      3449 1.21650E+02 3.44570E+01 0.00000E+00
 -1      3450 1.25400E+02 3.57560E+01 0.00000E+00
 -1      3451 1.26900E+02 3.57560E+01 0.00000E+00
 -1      3452 1.24650E+02 3.44570E+01 0.00000E+00
 -1      3453 1.28400E+02 3.57560E+01 0.00000E+00
 -1      3454 1.29900E+02 3.57560E+01 0.00000E+00
 -1      3455 1.27650E+02 3.44570E+01 0.00000E+00
 -1      3456 1.31400E+02 3.57560E+01 0.00000E+00
 -1      3457 1.32900E+02 3.57560E+01 0.00000E+00
 -1      3458 1.30650E+02 3.44570E+01 0.00000E+00
 -1      3459 3.25391E+01 3.02436E+01 0.00000E+00
 -1      3460 3.18193E+01 3.14634E+01 0.00000E+00
 -1      3461 3.31787E+01 1.31493E+01 0.00000E+00
 -1      3462 3.16787E+01 1.31493E+01 0.00000E+00
 -1      3463 4.21787E+01 1.31493E+01 0.00000E+00
 -1      3464 4.06787E+01 1.31493E+01 0.00000E+00
 -1      3465 4.51787E+01 1.31493E+01 0.00000E+00
 -1      3466 4.36787E+01 1.31493E+01 0.00000E+00
 -1      3467 4.29287E+01 1.44482E+01 0.00000E+00
 -1      3468 4.81787E+01 1.31493E+01 0.00000E+00
 -1      3469 4.66787E+01 1.31493E+01 0.00000E+00
 -1      3470 4.59287E+01 1.44482E+01 0.00000E+00
 -1      3471 5.11787E+01 1.31493E+01 0.00000E+00
 -1      3472 4.96787E+01 1.31493E+01 0.00000E+00
 -1      3473 4.89287E+01 1.44482E+01 0.00000E+00
 -1      3474 5.41787E+01 1.31493E+01 0.00000E+00
 -1      3475 5.26787E+01 1.31493E+01 0.00000E+00
 -1      3476 5.19287E+01 1.44482E+01 0.00000E+00
 -1      3477 5.71787E+01 1.31493E+01 0.00000E+00
 -1      3478 5.56787E+01 1.31493E+01 0.00000E+00
 -1      3479 5.49287E+01 1.44482E+01 0.00000E+00
 -1      3480 6.01787E+01 1.31493E+01 0.00000E+00
 -1      3481 5.86787E+01 1.31493E+01 0.00000E+00
 -1      3482 5.79287E+01 1.44482E+01 0.00000E+00
 -1      3483 6.31787E+01 1.31493E+01 0.00000E+00
 -1      3484 6.16787E+01 1.31493E+01 0.00000E+00
 -1      3485 6.09287E+01 1.44482E+01 0.00000E+00
 -1      3486 6.61787E+01 1.31493E+01 0.00000E+00
 -1      3487 6.46787E+01 1.31493E+01 0.00000E+00
 -1      3488 6.39287E+01 1.44482E+01 0.00000E+00
 -1      3489 6.91787E+01 1.31493E+01 0.00000E+00
 -1      3490 6.76787E+01 1.31493E+01 0.00000E+00
 -1      3491 6.69287E+01 1.44482E+01 0.00000E+00
 -1      3492 7.21787E+01 1.31493E+01 0.00000E+00
 -1      3493 7.06787E+01 1.31493E+01 0.00000E+00
 -1      3494 6.99287E+01 1.44482E+01 0.00000E+00
 -1      3495 7.51787E+01 1.31493E+01 0.00000E+00
 -1      3496 7.36787E+01 1.31493E+01 0.00000E+00
 -1      3497 7.29287E+01 1.44482E+01 0.00000E+00
 -1      3498 7.81787E+01 1.31493E+01 0.00000E+00
 -1      3499 7.66787E+01 1.31493E+01 0.00000E+00
 -1      3500 7.59287E+01 1.44482E+01 0.00000E+00
 -1      3501 8.11787E+01 1.31493E+01 0.00000E+00
 -1      3502 7.96787E+01 1.31493E+01 0.00000E+00
 -1      3503 7.89287E+01 1.44482E+01 0.00000E+00
 -1      3504 8.41787E+01 1.31493E+01 0.00000E+00
 -1      3505 8.26787E+01 1.31493E+01 0.00000E+00
 -1      3506 8.19287E+01 1.44482E+01 0.00000E+00
 -1      3507 8.71787E+01 1.31493E+01 0.00000E+00
 -1      3508 8.56787E+01 1.31493E+01 0.00000E+00
 -1      3509 8.49287E+01 1.44482E+01 0.00000E+00
 -1      3510 9.01787E+01 1.31493E+01 0.00000E+00
 -1      3511 8.86787E+01 1.31493E+01 0.00000E+00
 -1      3512 8.79287E+01 1.44482E+01 0.00000E+00
 -1      3513 9.31787E+01 1.31493E+01 0.00000E+00
 -1      3514 9.16787E+01 1.31493E+01 0.00000E+00
 -1      3515 9.09287E+01 1.44482E+01 0.00000E+00
 -1      3516 9.61787E+01 1.31493E+01 0.00000E+00
 -1      3517 9.46787E+01 1.31493E+01 0.00000E+00
 -1      3518 9.39287E+01 1.44482E+01 0.00000E+00
 -1      3519 9.91787E+01 1.31493E+01 0.00000E+00
 -1      3520 9.76787E+01 1.31493E+01 0.00000E+00
 -1      3521 9.69287E+01 1.44482E+01 0.00000E+00
 -1      3522 1.02179E+02 1.31493E+01 0.00000E+00
 -1      3523 1.00679E+02 1.31493E+01 0.00000E+00
 -1      3524 9.99287E+01 1.44482E+01 0.00000E+00
 -1      3525 1.05179E+02 1.31493E+01 0.00000E+00
 -1      3526 1.03679E+02 1.31493E+01 0.00000E+00
 -1      3527 1.02929E+02 1.44482E+01 0.00000E+00
 -1      3528 1.08179E+02 1.31493E+01 0.00000E+00
 -1      3529 1.06679E+02 1.31493E+01 0.00000E+00
 -1      3530 1.05929E+02 1.44482E+01 0.00000E+00
 -1      3531 1.11179E+02 1.31493E+01 0.00000E+00
 -1      3532 1.09679E+02 1.31493E+01 0.00000E+00
 -1      3533 1.08929E+02 1.44482E+01 0.00000E+00
 -1      3534 1.14179E+02 1.31493E+01 0.00000E+00
 -1      3535 1.12679E+02 1.31493E+01 0.00000E+00
 -1      3536 1.11929E+02 1.44482E+01 0.00000E+00
 -1      3537 1.17179E+02 1.31493E+01 0.00000E+00
 -1      3538 1.15679E+02 1.31493E+01 0.00000E+00
 -1      3539 1.14929E+02 1.44482E+01 0.00000E+00
 -1      3540 1.20179E+02 1.31493E+01 0.00000E+00
 -1      3541 1.18679E+02 1.31493E+01 0.00000E+00
 -1      3542 1.17929E+02 1.44482E+01 0.00000E+00
 -1      3543 1.23179E+02 1.31493E+01 0.00000E+00
 -1      3544 1.21679E+02 1.31493E+01 0.00000E+00
 -1      3545 1.20929E+02 1.44482E+01 0.00000E+00
 -1      3546 1.26179E+02 1.31493E+01 0.00000E+00
 -1      3547 1.24679E+02 1.31493E+01 0.00000E+00
 -1      3548 1.23929E+02 1.44482E+01 0.00000E+00
 -1      3549 1.29179E+02 1.31493E+01 0.00000E+00
 -1      3550 1.27679E+02 1.31493E+01 0.00000E+00
 -1      3551 1.26929E+02 1.44482E+01 0.00000E+00
 -1      3552 1.32179E+02 1.31493E+01 0.00000E+00
 -1      3553 1.30679E+02 1.31493E+01 0.00000E+00
 -1      3554 1.29929E+02 1.44482E+01 0.00000E+00
 -1      3555 1.35711E+02 2.72125E+01 0.00000E+00
 -1      3556 1.35711E+02 2.57375E+01 0.00000E+00
 -1      3557 3.17911E+01 3.29621E+01 0.00000E+00
 -1      3558 3.13981E+01 3.40367E+01 0.00000E+00
 -1      3559 3.36835E+01 2.72524E+01 0.00000E+00
 -1      3560 3.31718E+01 2.86846E+01 0.00000E+00
 -1      3561 3.35589E+01 2.35659E+01 0.00000E+00
 -1      3562 3.38442E+01 2.51679E+01 0.00000E+00
 -1      3563 2.82304E+01 3.62978E+01 0.00000E+00
 -1      3564 3.91787E+01 1.31493E+01 0.00000E+00
 -1      3565 3.76787E+01 1.31493E+01 0.00000E+00
 -1      3566 3.99287E+01 1.44482E+01 0.00000E+00
 -1      3567 3.61787E+01 1.31493E+01 0.00000E+00
 -1      3568 3.46787E+01 1.31493E+01 0.00000E+00
 -1      3569 3.39287E+01 1.44482E+01 0.00000E+00
 -1      3570 3.04291E+01 1.74343E+01 0.00000E+00
 -1      3571 3.12515E+01 1.86348E+01 0.00000E+00
 -1      3572 1.35711E+02 3.01625E+01 0.00000E+00
 -1      3573 1.35711E+02 2.86875E+01 0.00000E+00
 -1      3574 1.34412E+02 2.79500E+01 0.00000E+00
 -1      3575 1.34412E+02 3.09000E+01 0.00000E+00
 -1      3576 3.06985E+01 1.62947E+01 0.00000E+00
 -1      3577 3.21317E+01 1.93801E+01 0.00000E+00
 -1      3578 3.30119E+01 2.01255E+01 0.00000E+00
 -1      3579 3.25662E+01 1.82005E+01 0.00000E+00
 -1      3580 3.38392E+01 2.99006E+01 0.00000E+00
 -1      3581 1.36116E+02 1.26873E+01 0.00000E+00
 -1      3582 3.06481E+01 3.53357E+01 0.00000E+00
 -1      3583 1.34022E+02 3.60313E+01 0.00000E+00
 -1      3584 1.35329E+02 3.61366E+01 0.00000E+00
 -1      3585 1.35515E+02 3.52827E+01 0.00000E+00
 -1      3586 1.33272E+02 3.47323E+01 0.00000E+00
 -1      3587 1.34412E+02 2.50000E+01 0.00000E+00
 -1      3588 1.35711E+02 2.42625E+01 0.00000E+00
 -1      3589 1.35711E+02 2.27875E+01 0.00000E+00
 -1      3590 1.33373E+02 1.34174E+01 0.00000E+00
 -1      3591 1.32623E+02 1.47164E+01 0.00000E+00
 -1      3592 1.34567E+02 1.36856E+01 0.00000E+00
 -1      3593 2.91481E+01 3.53357E+01 0.00000E+00
 -1      3594 3.01463E+01 1.44757E+01 0.00000E+00
 -1      3595 1.35711E+02 1.83859E+01 0.00000E+00
 -1      3596 1.35711E+02 1.69203E+01 0.00000E+00
 -1      3597 1.34115E+02 1.63189E+01 0.00000E+00
 -1      3598 1.35414E+02 1.55861E+01 0.00000E+00
 -1      3599 3.31782E+01 3.29583E+01 0.00000E+00
 -1      3600 3.36853E+01 2.27388E+01 0.00000E+00
 -1      3601 3.49197E+01 2.33454E+01 0.00000E+00
 -1      3602 3.38118E+01 2.19117E+01 0.00000E+00
 -1      3603 3.55817E+01 2.52616E+01 0.00000E+00
 -1      3604 3.46326E+01 2.62570E+01 0.00000E+00
 -1      3605 3.54211E+01 2.73462E+01 0.00000E+00
 -1      3606 3.69287E+01 1.44482E+01 0.00000E+00
 -1      3607 1.35702E+02 3.44287E+01 0.00000E+00
 -1      3608 1.34403E+02 3.36912E+01 0.00000E+00
 -1      3609 1.35366E+02 1.39863E+01 0.00000E+00
 -1      3610 3.46782E+01 3.29583E+01 0.00000E+00
 -1      3611 1.33281E+02 3.34160E+01 0.00000E+00
 -1      3612 3.69000E+01 3.31580E+01 0.00000E+00
 -1      3613 3.84000E+01 3.31580E+01 0.00000E+00
 -1      3614 3.99000E+01 3.31580E+01 0.00000E+00
 -1      3615 4.14000E+01 3.31580E+01 0.00000E+00
 -1      3616 3.91500E+01 3.18590E+01 0.00000E+00
 -1      3617 4.29000E+01 3.31580E+01 0.00000E+00
 -1      3618 4.44000E+01 3.31580E+01 0.00000E+00
 -1      3619 4.21500E+01 3.18590E+01 0.00000E+00
 -1      3620 4.59000E+01 3.31580E+01 0.00000E+00
 -1      3621 4.74000E+01 3.31580E+01 0.00000E+00
 -1      3622 4.51500E+01 3.18590E+01 0.00000E+00
 -1      3623 4.89000E+01 3.31580E+01 0.00000E+00
 -1      3624 5.04000E+01 3.31580E+01 0.00000E+00
 -1      3625 4.81500E+01 3.18590E+01 0.00000E+00
 -1      3626 5.19000E+01 3.31580E+01 0.00000E+00
 -1      3627 5.34000E+01 3.31580E+01 0.00000E+00
 -1      3628 5.11500E+01 3.18590E+01 0.00000E+00
 -1      3629 5.49000E+01 3.31580E+01 0.00000E+00
 -1      3630 5.64000E+01 3.31580E+01 0.00000E+00
 -1      3631 5.41500E+01 3.18590E+01 0.00000E+00
 -1      3632 5.79000E+01 3.31580E+01 0.00000E+00
 -1      3633 5.94000E+01 3.31580E+01 0.00000E+00
 -1      3634 5.71500E+01 3.18590E+01 0.00000E+00
 -1      3635 6.09000E+01 3.31580E+01 0.00000E+00
 -1      3636 6.24000E+01 3.31580E+01 0.00000E+00
 -1      3637 6.01500E+01 3.18590E+01 0.00000E+00
 -1      3638 6.39000E+01 3.31580E+01 0.00000E+00
 -1      3639 6.54000E+01 3.31580E+01 0.00000E+00
 -1      3640 6.31500E+01 3.18590E+01 0.00000E+00
 -1      3641 6.69000E+01 3.31580E+01 0.00000E+00
 -1      3642 6.84000E+01 3.31580E+01 0.00000E+00
 -1      3643 6.61500E+01 3.18590E+01 0.00000E+00
 -1      3644 6.99000E+01 3.31580E+01 0.00000E+00
 -1      3645 7.14000E+01 3.31580E+01 0.00000E+00
 -1      3646 6.91500E+01 3.18590E+01 0.00000E+00
 -1      3647 7.29000E+01 3.31580E+01 0.00000E+00
 -1      3648 7.44000E+01 3.31580E+01 0.00000E+00
 -1      3649 7.21500E+01 3.18590E+01 0.00000E+00
 -1      3650 7.59000E+01 3.31580E+01 0.00000E+00
 -1      3651 7.74000E+01 3.31580E+01 0.00000E+00
 -1      3652 7.51500E+01 3.18590E+01 0.00000E+00
 -1      3653 7.89000E+01 3.31580E+01 0.00000E+00
 -1      3654 8.04000E+01 3.31580E+01 0.00000E+00
 -1      3655 7.81500E+01 3.18590E+01 0.00000E+00
 -1      3656 8.19000E+01 3.31580E+01 0.00000E+00
 -1      3657 8.34000E+01 3.31580E+01 0.00000E+00
 -1      3658 8.11500E+01 3.18590E+01 0.00000E+00
 -1      3659 8.49000E+01 3.31580E+01 0.00000E+00
 -1      3660 8.64000E+01 3.31580E+01 0.00000E+00
 -1      3661 8.41500E+01 3.18590E+01 0.00000E+00
 -1      3662 8.79000E+01 3.31580E+01 0.00000E+00
 -1      3663 8.94000E+01 3.31580E+01 0.00000E+00
 -1      3664 8.71500E+01 3.18590E+01 0.00000E+00
 -1      3665 9.09000E+01 3.31580E+01 0.00000E+00
 -1      3666 9.24000E+01 3.31580E+01 0.00000E+00
 -1      3667 9.01500E+01 3.18590E+01 0.00000E+00
 -1      3668 9.39000E+01 3.31580E+01 0.00000E+00
 -1      3669 9.54000E+01 3.31580E+01 0.00000E+00
 -1      3670 9.31500E+01 3.18590E+01 0.00000E+00
 -1      3671 9.69000E+01 3.31580E+01 0.00000E+00
 -1      3672 9.84000E+01 3.31580E+01 0.00000E+00
 -1      3673 9.61500E+01 3.18590E+01 0.00000E+00
 -1      3674 9.99000E+01 3.31580E+01 0.00000E+00
 -1      3675 1.01400E+02 3.31580E+01 0.00000E+00
 -1      3676 9.91500E+01 3.18590E+01 0.00000E+00
 -1      3677 1.02900E+02 3.31580E+01 0.00000E+00
 -1      3678 1.04400E+02 3.31580E+01 0.00000E+00
 -1      3679 1.02150E+02 3.18590E+01 0.00000E+00
 -1      3680 1.05900E+02 3.31580E+01 0.00000E+00
 -1      3681 1.07400E+02 3.31580E+01 0.00000E+00
 -1      3682 1.05150E+02 3.18590E+01 0.00000E+00
 -1      3683 1.08900E+02 3.31580E+01 0.00000E+00
 -1      3684 1.10400E+02 3.31580E+01 0.00000E+00
 -1      3685 1.08150E+02 3.18590E+01 0.00000E+00
 -1      3686 1.11900E+02 3.31580E+01 0.00000E+00
 -1      3687 1.13400E+02 3.31580E+01 0.00000E+00
 -1      3688 1.11150E+02 3.18590E+01 0.00000E+00
 -1      3689 1.14900E+02 3.31580E+01 0.00000E+00
 -1      3690 1.16400E+02 3.31580E+01 0.00000E+00
 -1      3691 1.14150E+02 3.18590E+01 0.00000E+00
 -1      3692 1.17900E+02 3.31580E+01 0.00000E+00
 -1      3693 1.19400E+02 3.31580E+01 0.00000E+00
 -1      3694 1.17150E+02 3.18590E+01 0.00000E+00
 -1      3695 1.20900E+02 3.31580E+01 0.00000E+00
 -1      3696 1.22400E+02 3.31580E+01 0.00000E+00
 -1      3697 1.20150E+02 3.18590E+01 0.00000E+00
 -1      3698 1.23900E+02 3.31580E+01 0.00000E+00
 -1      3699 1.25400E+02 3.31580E+01 0.00000E+00
 -1      3700 1.23150E+02 3.18590E+01 0.00000E+00
 -1      3701 1.26900E+02 3.31580E+01 0.00000E+00
 -1      3702 1.28400E+02 3.31580E+01 0.00000E+00
 -1      3703 1.26150E+02 3.18590E+01 0.00000E+00
 -1      3704 1.29900E+02 3.31580E+01 0.00000E+00
 -1      3705 1.31400E+02 3.31580E+01 0.00000E+00
 -1      3706 1.29150E+02 3.18590E+01 0.00000E+00
 -1      3707 1.32531E+02 3.21170E+01 0.00000E+00
 -1      3708 3.46787E+01 1.57472E+01 0.00000E+00
 -1      3709 3.31787E+01 1.57472E+01 0.00000E+00
 -1      3710 4.36787E+01 1.57472E+01 0.00000E+00
 -1      3711 4.21787E+01 1.57472E+01 0.00000E+00
 -1      3712 5.26787E+01 1.57472E+01 0.00000E+00
 -1      3713 5.11787E+01 1.57472E+01 0.00000E+00
 -1      3714 5.56787E+01 1.57472E+01 0.00000E+00
 -1      3715 5.41787E+01 1.57472E+01 0.00000E+00
 -1      3716 5.34287E+01 1.70462E+01 0.00000E+00
 -1      3717 5.86787E+01 1.57472E+01 0.00000E+00
 -1      3718 5.71787E+01 1.57472E+01 0.00000E+00
 -1      3719 5.64287E+01 1.70462E+01 0.00000E+00
 -1      3720 6.16787E+01 1.57472E+01 0.00000E+00
 -1      3721 6.01787E+01 1.57472E+01 0.00000E+00
 -1      3722 5.94287E+01 1.70462E+01 0.00000E+00
 -1      3723 6.46787E+01 1.57472E+01 0.00000E+00
 -1      3724 6.31787E+01 1.57472E+01 0.00000E+00
 -1      3725 6.24287E+01 1.70462E+01 0.00000E+00
 -1      3726 6.76787E+01 1.57472E+01 0.00000E+00
 -1      3727 6.61787E+01 1.57472E+01 0.00000E+00
 -1      3728 6.54287E+01 1.70462E+01 0.00000E+00
 -1      3729 7.06787E+01 1.57472E+01 0.00000E+00
 -1      3730 6.91787E+01 1.57472E+01 0.00000E+00
 -1      3731 6.84287E+01 1.70462E+01 0.00000E+00
 -1      3732 7.36787E+01 1.57472E+01 0.00000E+00
 -1      3733 7.21787E+01 1.57472E+01 0.00000E+00
 -1      3734 7.14287E+01 1.70462E+01 0.00000E+00
 -1      3735 7.66787E+01 1.57472E+01 0.00000E+00
 -1      3736 7.51787E+01 1.57472E+01 0.00000E+00
 -1      3737 7.44287E+01 1.70462E+01 0.00000E+00
 -1      3738 7.96787E+01 1.57472E+01 0.00000E+00
 -1      3739 7.81787E+01 1.57472E+01 0.00000E+00
 -1      3740 7.74287E+01 1.70462E+01 0.00000E+00
 -1      3741 8.26787E+01 1.57472E+01 0.00000E+00
 -1      3742 8.11787E+01 1.57472E+01 0.00000E+00
 -1      3743 8.04287E+01 1.70462E+01 0.00000E+00
 -1      3744 8.56787E+01 1.57472E+01 0.00000E+00
 -1      3745 8.41787E+01 1.57472E+01 0.00000E+00
 -1      3746 8.34287E+01 1.70462E+01 0.00000E+00
 -1      3747 8.86787E+01 1.57472E+01 0.00000E+00
 -1      3748 8.71787E+01 1.57472E+01 0.00000E+00
 -1      3749 8.64287E+01 1.70462E+01 0.00000E+00
 -1      3750 9.16787E+01 1.57472E+01 0.00000E+00
 -1      3751 9.01787E+01 1.57472E+01 0.00000E+00
 -1      3752 8.94287E+01 1.70462E+01 0.00000E+00
 -1      3753 9.46787E+01 1.57472E+01 0.00000E+00
 -1      3754 9.31787E+01 1.57472E+01 0.00000E+00
 -1      3755 9.24287E+01 1.70462E+01 0.00000E+00
 -1      3756 9.76787E+01 1.57472E+01 0.00000E+00
 -1      3757 9.61787E+01 1.57472E+01 0.00000E+00
 -1      3758 9.54287E+01 1.70462E+01 0.00000E+00
 -1      3759 1.00679E+02 1.57472E+01 0.00000E+00
 -1      3760 9.91787E+01 1.57472E+01 0.00000E+00
 -1      3761 9.84287E+01 1.70462E+01 0.00000E+00
 -1      3762 1.03679E+02 1.57472E+01 0.00000E+00
 -1      3763 1.02179E+02 1.57472E+01 0.00000E+00
 -1      3764 1.01429E+02 1.70462E+01 0.00000E+00
 -1      3765 1.06679E+02 1.57472E+01 0.00000E+00
 -1      3766 1.05179E+02 1.57472E+01 0.00000E+00
 -1      3767 1.04429E+02 1.70462E+01 0.00000E+00
 -1      3768 1.09679E+02 1.57472E+01 0.00000E+00
 -1      3769 1.08179E+02 1.57472E+01 0.00000E+00
 -1      3770 1.07429E+02 1.70462E+01 0.00000E+00
 -1      3771 1.12679E+02 1.57472E+01 0.00000E+00
 -1      3772 1.11179E+02 1.57472E+01 0.00000E+00
 -1      3773 1.10429E+02 1.70462E+01 0.00000E+00
 -1      3774 1.15679E+02 1.57472E+01 0.00000E+00
 -1      3775 1.14179E+02 1.57472E+01 0.00000E+00
 -1      3776 1.13429E+02 1.70462E+01 0.00000E+00
 -1      3777 1.18679E+02 1.57472E+01 0.00000E+00
 -1      3778 1.17179E+02 1.57472E+01 0.00000E+00
 -1      3779 1.16429E+02 1.70462E+01 0.00000E+00
 -1      3780 1.21679E+02 1.57472E+01 0.00000E+00
 -1      3781 1.20179E+02 1.57472E+01 0.00000E+00
 -1      3782 1.19429E+02 1.70462E+01 0.00000E+00
 -1      3783 1.24679E+02 1.57472E+01 0.00000E+00
 -1      3784 1.23179E+02 1.57472E+01 0.00000E+00
 -1      3785 1.22429E+02 1.70462E+01 0.00000E+00
 -1      3786 1.27679E+02 1.57472E+01 0.00000E+00
 -1      3787 1.26179E+02 1.57472E+01 0.00000E+00
 -1      3788 1.25429E+02 1.70462E+01 0.00000E+00
 -1      3789 1.30679E+02 1.57472E+01 0.00000E+00
 -1      3790 1.29179E+02 1.57472E+01 0.00000E+00
 -1      3791 1.28429E+02 1.70462E+01 0.00000E+00
 -1      3792 1.32994E+02 1.61672E+01 0.00000E+00
 -1      3793 1.31800E+02 1.58990E+01 0.00000E+00
 -1      3794 1.31050E+02 1.71980E+01 0.00000E+00
 -1      3795 1.33291E+02 1.75014E+01 0.00000E+00
 -1      3796 1.35711E+02 2.13172E+01 0.00000E+00
 -1      3797 1.35711E+02 1.98516E+01 0.00000E+00
 -1      3798 1.34412E+02 1.91187E+01 0.00000E+00
 -1      3799 3.54282E+01 3.16593E+01 0.00000E+00
 -1      3800 4.96787E+01 1.57472E+01 0.00000E+00
 -1      3801 4.81787E+01 1.57472E+01 0.00000E+00
 -1      3802 5.04287E+01 1.70462E+01 0.00000E+00
 -1      3803 4.06787E+01 1.57472E+01 0.00000E+00
 -1      3804 3.91787E+01 1.57472E+01 0.00000E+00
 -1      3805 4.14287E+01 1.70462E+01 0.00000E+00
 -1      3806 3.76787E+01 1.57472E+01 0.00000E+00
 -1      3807 3.61787E+01 1.57472E+01 0.00000E+00
 -1      3808 3.84287E+01 1.70462E+01 0.00000E+00
 -1      3809 4.66787E+01 1.57472E+01 0.00000E+00
 -1      3810 4.51787E+01 1.57472E+01 0.00000E+00
 -1      3811 4.74287E+01 1.70462E+01 0.00000E+00
 -1      3812 3.28074E+01 1.72507E+01 0.00000E+00
 -1      3813 3.36876E+01 1.79961E+01 0.00000E+00
 -1      3814 1.34412E+02 2.20547E+01 0.00000E+00
 -1      3815 3.20574E+01 1.59517E+01 0.00000E+00
 -1      3816 4.44287E+01 1.70462E+01 0.00000E+00
 -1      3817 3.54287E+01 1.70462E+01 0.00000E+00
 -1      3818 1.33291E+02 1.89670E+01 0.00000E+00
 -1      3819 1.32170E+02 1.88153E+01 0.00000E+00
 -1      3820 1.33291E+02 2.04327E+01 0.00000E+00
 -1      3821 3.60610E+01 3.01003E+01 0.00000E+00
 -1      3822 1.32531E+02 3.06420E+01 0.00000E+00
 -1      3823 3.42463E+01 2.07321E+01 0.00000E+00
 -1      3824 3.54806E+01 2.13387E+01 0.00000E+00
 -1      3825 3.46808E+01 1.95525E+01 0.00000E+00
 -1      3826 3.60791E+01 2.30993E+01 0.00000E+00
 -1      3827 3.59527E+01 2.39265E+01 0.00000E+00
 -1      3828 1.33113E+02 2.57375E+01 0.00000E+00
 -1      3829 1.33113E+02 2.42625E+01 0.00000E+00
 -1      3830 3.67411E+01 2.50156E+01 0.00000E+00
 -1      3831 1.33113E+02 2.86875E+01 0.00000E+00
 -1      3832 1.33113E+02 2.72125E+01 0.00000E+00
 -1      3833 1.31814E+02 2.64750E+01 0.00000E+00
 -1      3834 3.64910E+01 2.87233E+01 0.00000E+00
 -1      3835 3.80800E+01 3.04820E+01 0.00000E+00
 -1      3836 3.95800E+01 3.04820E+01 0.00000E+00
 -1      3837 3.74401E+01 2.77279E+01 0.00000E+00
 -1      3838 5.71787E+01 1.83452E+01 0.00000E+00
 -1      3839 5.56787E+01 1.83452E+01 0.00000E+00
 -1      3840 1.33202E+02 2.30827E+01 0.00000E+00
 -1      3841 1.33202E+02 2.16124E+01 0.00000E+00
 -1      3842 1.32081E+02 2.14607E+01 0.00000E+00
 -1      3843 1.31903E+02 2.38202E+01 0.00000E+00
 -1      3844 3.51753E+01 1.78245E+01 0.00000E+00
 -1      3845 3.49342E+01 1.87743E+01 0.00000E+00
 -1      3846 3.61685E+01 1.93809E+01 0.00000E+00
 -1      3847 3.66753E+01 1.78245E+01 0.00000E+00
 -1      3848 4.14000E+01 3.05600E+01 0.00000E+00
 -1      3849 4.29000E+01 3.05600E+01 0.00000E+00
 -1      3850 4.44000E+01 3.05600E+01 0.00000E+00
 -1      3851 4.59000E+01 3.05600E+01 0.00000E+00
 -1      3852 4.36500E+01 2.92610E+01 0.00000E+00
 -1      3853 4.74000E+01 3.05600E+01 0.00000E+00
 -1      3854 4.89000E+01 3.05600E+01 0.00000E+00
 -1      3855 4.66500E+01 2.92610E+01 0.00000E+00
 -1      3856 5.04000E+01 3.05600E+01 0.00000E+00
 -1      3857 5.19000E+01 3.05600E+01 0.00000E+00
 -1      3858 4.96500E+01 2.92610E+01 0.00000E+00
 -1      3859 5.34000E+01 3.05600E+01 0.00000E+00
 -1      3860 5.49000E+01 3.05600E+01 0.00000E+00
 -1      3861 5.26500E+01 2.92610E+01 0.00000E+00
 -1      3862 5.64000E+01 3.05600E+01 0.00000E+00
 -1      3863 5.79000E+01 3.05600E+01 0.00000E+00
 -1      3864 5.56500E+01 2.92610E+01 0.00000E+00
 -1      3865 5.94000E+01 3.05600E+01 0.00000E+00
 -1      3866 6.09000E+01 3.05600E+01 0.00000E+00
 -1      3867 5.86500E+01 2.92610E+01 0.00000E+00
 -1      3868 6.24000E+01 3.05600E+01 0.00000E+00
 -1      3869 6.39000E+01 3.05600E+01 0.00000E+00
 -1      3870 6.16500E+01 2.92610E+01 0.00000E+00
 -1      3871 6.54000E+01 3.05600E+01 0.00000E+00
 -1      3872 6.69000E+01 3.05600E+01 0.00000E+00
 -1      3873 6.46500E+01 2.92610E+01 0.00000E+00
 -1      3874 6.84000E+01 3.05600E+01 0.00000E+00
 -1      3875 6.99000E+01 3.05600E+01 0.00000E+00
 -1      3876 6.76500E+01 2.92610E+01 0.00000E+00
 -1      3877 7.14000E+01 3.05600E+01 0.00000E+00
 -1      3878 7.29000E+01 3.05600E+01 0.00000E+00
 -1      3879 7.06500E+01 2.92610E+01 0.00000E+00
 -1      3880 7.44000E+01 3.05600E+01 0.00000E+00
 -1      3881 7.59000E+01 3.05600E+01 0.00000E+00
 -1      3882 7.36500E+01 2.92610E+01 0.00000E+00
 -1      3883 7.74000E+01 3.05600E+01 0.00000E+00
 -1      3884 7.89000E+01 3.05600E+01 0.00000E+00
 -1      3885 7.66500E+01 2.92610E+01 0.00000E+00
 -1      3886 8.04000E+01 3.05600E+01 0.00000E+00
 -1      3887 8.19000E+01 3.05600E+01 0.00000E+00
 -1      3888 7.96500E+01 2.92610E+01 0.00000E+00
 -1      3889 8.34000E+01 3.05600E+01 0.00000E+00
 -1      3890 8.49000E+01 3.05600E+01 0.00000E+00
 -1      3891 8.26500E+01 2.92610E+01 0.00000E+00
 -1      3892 8.64000E+01 3.05600E+01 0.00000E+00
 -1      3893 8.79000E+01 3.05600E+01 0.00000E+00
 -1      3894 8.56500E+01 2.92610E+01 0.00000E+00
 -1      3895 8.94000E+01 3.05600E+01 0.00000E+00
 -1      3896 9.09000E+01 3.05600E+01 0.00000E+00
 -1      3897 8.86500E+01 2.92610E+01 0.00000E+00
 -1      3898 9.24000E+01 3.05600E+01 0.00000E+00
 -1      3899 9.39000E+01 3.05600E+01 0.00000E+00
 -1      3900 9.16500E+01 2.92610E+01 0.00000E+00
 -1      3901 9.54000E+01 3.05600E+01 0.00000E+00
 -1      3902 9.69000E+01 3.05600E+01 0.00000E+00
 -1      3903 9.46500E+01 2.92610E+01 0.00000E+00
 -1      3904 9.84000E+01 3.05600E+01 0.00000E+00
 -1      3905 9.99000E+01 3.05600E+01 0.00000E+00
 -1      3906 9.76500E+01 2.92610E+01 0.00000E+00
 -1      3907 1.01400E+02 3.05600E+01 0.00000E+00
 -1      3908 1.02900E+02 3.05600E+01 0.00000E+00
 -1      3909 1.00650E+02 2.92610E+01 0.00000E+00
 -1      3910 1.04400E+02 3.05600E+01 0.00000E+00
 -1      3911 1.05900E+02 3.05600E+01 0.00000E+00
 -1      3912 1.03650E+02 2.92610E+01 0.00000E+00
 -1      3913 1.07400E+02 3.05600E+01 0.00000E+00
 -1      3914 1.08900E+02 3.05600E+01 0.00000E+00
 -1      3915 1.06650E+02 2.92610E+01 0.00000E+00
 -1      3916 1.10400E+02 3.05600E+01 0.00000E+00
 -1      3917 1.11900E+02 3.05600E+01 0.00000E+00
 -1      3918 1.09650E+02 2.92610E+01 0.00000E+00
 -1      3919 1.13400E+02 3.05600E+01 0.00000E+00
 -1      3920 1.14900E+02 3.05600E+01 0.00000E+00
 -1      3921 1.12650E+02 2.92610E+01 0.00000E+00
 -1      3922 1.16400E+02 3.05600E+01 0.00000E+00
 -1      3923 1.17900E+02 3.05600E+01 0.00000E+00
 -1      3924 1.15650E+02 2.92610E+01 0.00000E+00
 -1      3925 1.19400E+02 3.05600E+01 0.00000E+00
 -1      3926 1.20900E+02 3.05600E+01 0.00000E+00
 -1      3927 1.18650E+02 2.92610E+01 0.00000E+00
 -1      3928 1.22400E+02 3.05600E+01 0.00000E+00
 -1      3929 1.23900E+02 3.05600E+01 0.00000E+00
 -1      3930 1.21650E+02 2.92610E+01 0.00000E+00
 -1      3931 1.25400E+02 3.05600E+01 0.00000E+00
 -1      3932 1.26900E+02 3.05600E+01 0.00000E+00
 -1      3933 1.24650E+02 2.92610E+01 0.00000E+00
 -1      3934 1.28400E+02 3.05600E+01 0.00000E+00
 -1      3935 1.29900E+02 3.05600E+01 0.00000E+00
 -1      3936 1.27650E+02 2.92610E+01 0.00000E+00
 -1      3937 5.41787E+01 1.83452E+01 0.00000E+00
 -1      3938 5.26787E+01 1.83452E+01 0.00000E+00
 -1      3939 5.49287E+01 1.96443E+01 0.00000E+00
 -1      3940 6.31787E+01 1.83452E+01 0.00000E+00
 -1      3941 6.16787E+01 1.83452E+01 0.00000E+00
 -1      3942 6.61787E+01 1.83452E+01 0.00000E+00
 -1      3943 6.46787E+01 1.83452E+01 0.00000E+00
 -1      3944 6.39287E+01 1.96443E+01 0.00000E+00
 -1      3945 6.91787E+01 1.83452E+01 0.00000E+00
 -1      3946 6.76787E+01 1.83452E+01 0.00000E+00
 -1      3947 6.69287E+01 1.96443E+01 0.00000E+00
 -1      3948 7.21787E+01 1.83452E+01 0.00000E+00
 -1      3949 7.06787E+01 1.83452E+01 0.00000E+00
 -1      3950 6.99287E+01 1.96443E+01 0.00000E+00
 -1      3951 7.51787E+01 1.83452E+01 0.00000E+00
 -1      3952 7.36787E+01 1.83452E+01 0.00000E+00
 -1      3953 7.29287E+01 1.96443E+01 0.00000E+00
 -1      3954 7.81787E+01 1.83452E+01 0.00000E+00
 -1      3955 7.66787E+01 1.83452E+01 0.00000E+00
 -1      3956 7.59287E+01 1.96443E+01 0.00000E+00
 -1      3957 8.11787E+01 1.83452E+01 0.00000E+00
 -1      3958 7.96787E+01 1.83452E+01 0.00000E+00
 -1      3959 7.89287E+01 1.96443E+01 0.00000E+00
 -1      3960 8.41787E+01 1.83452E+01 0.00000E+00
 -1      3961 8.26787E+01 1.83452E+01 0.00000E+00
 -1      3962 8.19287E+01 1.96443E+01 0.00000E+00
 -1      3963 8.71787E+01 1.83452E+01 0.00000E+00
 -1      3964 8.56787E+01 1.83452E+01 0.00000E+00
 -1      3965 8.49287E+01 1.96443E+01 0.00000E+00
 -1      3966 9.01787E+01 1.83452E+01 0.00000E+00
 -1      3967 8.86787E+01 1.83452E+01 0.00000E+00
 -1      3968 8.79287E+01 1.96443E+01 0.00000E+00
 -1      3969 9.31787E+01 1.83452E+01 0.00000E+00
 -1      3970 9.16787E+01 1.83452E+01 0.00000E+00
 -1      3971 9.09287E+01 1.96443E+01 0.00000E+00
 -1      3972 9.61787E+01 1.83452E+01 0.00000E+00
 -1      3973 9.46787E+01 1.83452E+01 0.00000E+00
 -1      3974 9.39287E+01 1.96443E+01 0.00000E+00
 -1      3975 9.91787E+01 1.83452E+01 0.00000E+00
 -1      3976 9.76787E+01 1.83452E+01 0.00000E+00
 -1      3977 9.69287E+01 1.96443E+01 0.00000E+00
 -1      3978 1.02179E+02 1.83452E+01 0.00000E+00
 -1      3979 1.00679E+02 1.83452E+01 0.00000E+00
 -1      3980 9.99287E+01 1.96443E+01 0.00000E+00
 -1      3981 1.05179E+02 1.83452E+01 0.00000E+00
 -1      3982 1.03679E+02 1.83452E+01 0.00000E+00
 -1      3983 1.02929E+02 1.96443E+01 0.00000E+00
 -1      3984 1.08179E+02 1.83452E+01 0.00000E+00
 -1      3985 1.06679E+02 1.83452E+01 0.00000E+00
 -1      3986 1.05929E+02 1.96443E+01 0.00000E+00
 -1      3987 1.11179E+02 1.83452E+01 0.00000E+00
 -1      3988 1.09679E+02 1.83452E+01 0.00000E+00
 -1      3989 1.08929E+02 1.96443E+01 0.00000E+00
 -1      3990 1.14179E+02 1.83452E+01 0.00000E+00
 -1      3991 1.12679E+02 1.83452E+01 0.00000E+00
 -1      3992 1.11929E+02 1.96443E+01 0.00000E+00
 -1      3993 1.17179E+02 1.83452E+01 0.00000E+00
 -1      3994 1.15679E+02 1.83452E+01 0.00000E+00
 -1      3995 1.14929E+02 1.96443E+01 0.00000E+00
 -1      3996 1.20179E+02 1.83452E+01 0.00000E+00
 -1      3997 1.18679E+02 1.83452E+01 0.00000E+00
 -1      3998 1.17929E+02 1.96443E+01 0.00000E+00
 -1      3999 1.23179E+02 1.83452E+01 0.00000E+00
 -1      4000 1.21679E+02 1.83452E+01 0.00000E+00
 -1      4001 1.20929E+02 1.96443E+01 0.00000E+00
 -1      4002 1.26179E+02 1.83452E+01 0.00000E+00
 -1      4003 1.24679E+02 1.83452E+01 0.00000E+00
 -1      4004 1.23929E+02 1.96443E+01 0.00000E+00
 -1      4005 1.29179E+02 1.83452E+01 0.00000E+00
 -1      4006 1.27679E+02 1.83452E+01 0.00000E+00
 -1      4007 1.26929E+02 1.96443E+01 0.00000E+00
 -1      4008 1.31235E+02 1.86561E+01 0.00000E+00
 -1      4009 1.30114E+02 1.85044E+01 0.00000E+00
 -1      4010 1.29364E+02 1.98034E+01 0.00000E+00
 -1      4011 1.31235E+02 2.01218E+01 0.00000E+00
 -1      4012 4.21787E+01 1.83452E+01 0.00000E+00
 -1      4013 4.06787E+01 1.83452E+01 0.00000E+00
 -1      4014 3.65136E+01 2.19198E+01 0.00000E+00
 -1      4015 3.75466E+01 2.25009E+01 0.00000E+00
 -1      4016 3.69481E+01 2.07402E+01 0.00000E+00
 -1      4017 3.81820E+01 2.50575E+01 0.00000E+00
 -1      4018 3.78111E+01 2.63927E+01 0.00000E+00
 -1      4019 3.88810E+01 2.77697E+01 0.00000E+00
 -1      4020 5.11787E+01 1.83452E+01 0.00000E+00
 -1      4021 4.96787E+01 1.83452E+01 0.00000E+00
 -1      4022 5.19287E+01 1.96443E+01 0.00000E+00
 -1      4023 3.94270E+01 1.80849E+01 0.00000E+00
 -1      4024 3.79270E+01 1.80849E+01 0.00000E+00
 -1      4025 3.76736E+01 1.88631E+01 0.00000E+00
 -1      4026 4.01770E+01 1.93839E+01 0.00000E+00
 -1      4027 4.81787E+01 1.83452E+01 0.00000E+00
 -1      4028 4.66787E+01 1.83452E+01 0.00000E+00
 -1      4029 4.89287E+01 1.96443E+01 0.00000E+00
 -1      4030 4.51787E+01 1.83452E+01 0.00000E+00
 -1      4031 4.36787E+01 1.83452E+01 0.00000E+00
 -1      4032 4.29287E+01 1.96443E+01 0.00000E+00
 -1      4033 6.01787E+01 1.83452E+01 0.00000E+00
 -1      4034 5.86787E+01 1.83452E+01 0.00000E+00
 -1      4035 5.79287E+01 1.96443E+01 0.00000E+00
 -1      4036 6.09287E+01 1.96443E+01 0.00000E+00
 -1      4037 1.30482E+02 2.86055E+01 0.00000E+00
 -1      4038 1.31232E+02 2.99045E+01 0.00000E+00
 -1      4039 4.59287E+01 1.96443E+01 0.00000E+00
 -1      4040 1.30563E+02 2.43123E+01 0.00000E+00
 -1      4041 1.30652E+02 2.31325E+01 0.00000E+00
 -1      4042 4.03300E+01 2.91830E+01 0.00000E+00
 -1      4043 3.90510E+01 2.26983E+01 0.00000E+00
 -1      4044 3.86165E+01 2.38779E+01 0.00000E+00
 -1      4045 3.96865E+01 2.52550E+01 0.00000E+00
 -1      4046 1.30523E+02 2.71964E+01 0.00000E+00
 -1      4047 1.30523E+02 2.57214E+01 0.00000E+00
 -1      4048 1.29272E+02 2.50337E+01 0.00000E+00
 -1      4049 1.29191E+02 2.78519E+01 0.00000E+00
 -1      4050 1.30899E+02 2.22170E+01 0.00000E+00
 -1      4051 1.30988E+02 2.10373E+01 0.00000E+00
 -1      4052 1.30053E+02 2.08781E+01 0.00000E+00
 -1      4053 1.29559E+02 2.27091E+01 0.00000E+00
 -1      4054 3.10698E+01 1.47912E+01 0.00000E+00
 -1      4055 7.06787E+01 2.09433E+01 0.00000E+00
 -1      4056 6.91787E+01 2.09433E+01 0.00000E+00
 -1      4057 4.29000E+01 2.79620E+01 0.00000E+00
 -1      4058 4.44000E+01 2.79620E+01 0.00000E+00
 -1      4059 4.66787E+01 2.09433E+01 0.00000E+00
 -1      4060 4.51787E+01 2.09433E+01 0.00000E+00
 -1      4061 4.59000E+01 2.79620E+01 0.00000E+00
 -1      4062 4.74000E+01 2.79620E+01 0.00000E+00
 -1      4063 4.51500E+01 2.66630E+01 0.00000E+00
 -1      4064 4.89000E+01 2.79620E+01 0.00000E+00
 -1      4065 5.04000E+01 2.79620E+01 0.00000E+00
 -1      4066 4.81500E+01 2.66630E+01 0.00000E+00
 -1      4067 5.19000E+01 2.79620E+01 0.00000E+00
 -1      4068 5.34000E+01 2.79620E+01 0.00000E+00
 -1      4069 5.11500E+01 2.66630E+01 0.00000E+00
 -1      4070 5.49000E+01 2.79620E+01 0.00000E+00
 -1      4071 5.64000E+01 2.79620E+01 0.00000E+00
 -1      4072 5.41500E+01 2.66630E+01 0.00000E+00
 -1      4073 5.79000E+01 2.79620E+01 0.00000E+00
 -1      4074 5.94000E+01 2.79620E+01 0.00000E+00
 -1      4075 5.71500E+01 2.66630E+01 0.00000E+00
 -1      4076 6.09000E+01 2.79620E+01 0.00000E+00
 -1      4077 6.24000E+01 2.79620E+01 0.00000E+00
 -1      4078 6.01500E+01 2.66630E+01 0.00000E+00
 -1      4079 6.39000E+01 2.79620E+01 0.00000E+00
 -1      4080 6.54000E+01 2.79620E+01 0.00000E+00
 -1      4081 6.31500E+01 2.66630E+01 0.00000E+00
 -1      4082 6.69000E+01 2.79620E+01 0.00000E+00
 -1      4083 6.84000E+01 2.79620E+01 0.00000E+00
 -1      4084 6.61500E+01 2.66630E+01 0.00000E+00
 -1      4085 6.99000E+01 2.79620E+01 0.00000E+00
 -1      4086 7.14000E+01 2.79620E+01 0.00000E+00
 -1      4087 6.91500E+01 2.66630E+01 0.00000E+00
 -1      4088 7.29000E+01 2.79620E+01 0.00000E+00
 -1      4089 7.44000E+01 2.79620E+01 0.00000E+00
 -1      4090 7.21500E+01 2.66630E+01 0.00000E+00
 -1      4091 7.59000E+01 2.79620E+01 0.00000E+00
 -1      4092 7.74000E+01 2.79620E+01 0.00000E+00
 -1      4093 7.51500E+01 2.66630E+01 0.00000E+00
 -1      4094 7.89000E+01 2.79620E+01 0.00000E+00
 -1      4095 8.04000E+01 2.79620E+01 0.00000E+00
 -1      4096 7.81500E+01 2.66630E+01 0.00000E+00
 -1      4097 8.19000E+01 2.79620E+01 0.00000E+00
 -1      4098 8.34000E+01 2.79620E+01 0.00000E+00
 -1      4099 8.11500E+01 2.66630E+01 0.00000E+00
 -1      4100 8.49000E+01 2.79620E+01 0.00000E+00
 -1      4101 8.64000E+01 2.79620E+01 0.00000E+00
 -1      4102 8.41500E+01 2.66630E+01 0.00000E+00
 -1      4103 8.79000E+01 2.79620E+01 0.00000E+00
 -1      4104 8.94000E+01 2.79620E+01 0.00000E+00
 -1      4105 8.71500E+01 2.66630E+01 0.00000E+00
 -1      4106 9.09000E+01 2.79620E+01 0.00000E+00
 -1      4107 9.24000E+01 2.79620E+01 0.00000E+00
 -1      4108 9.01500E+01 2.66630E+01 0.00000E+00
 -1      4109 9.39000E+01 2.79620E+01 0.00000E+00
 -1      4110 9.54000E+01 2.79620E+01 0.00000E+00
 -1      4111 9.31500E+01 2.66630E+01 0.00000E+00
 -1      4112 9.69000E+01 2.79620E+01 0.00000E+00
 -1      4113 9.84000E+01 2.79620E+01 0.00000E+00
 -1      4114 9.61500E+01 2.66630E+01 0.00000E+00
 -1      4115 9.99000E+01 2.79620E+01 0.00000E+00
 -1      4116 1.01400E+02 2.79620E+01 0.00000E+00
 -1      4117 9.91500E+01 2.66630E+01 0.00000E+00
 -1      4118 1.02900E+02 2.79620E+01 0.00000E+00
 -1      4119 1.04400E+02 2.79620E+01 0.00000E+00
 -1      4120 1.02150E+02 2.66630E+01 0.00000E+00
 -1      4121 1.05900E+02 2.79620E+01 0.00000E+00
 -1      4122 1.07400E+02 2.79620E+01 0.00000E+00
 -1      4123 1.05150E+02 2.66630E+01 0.00000E+00
 -1      4124 1.08900E+02 2.79620E+01 0.00000E+00
 -1      4125 1.10400E+02 2.79620E+01 0.00000E+00
 -1      4126 1.08150E+02 2.66630E+01 0.00000E+00
 -1      4127 1.11900E+02 2.79620E+01 0.00000E+00
 -1      4128 1.13400E+02 2.79620E+01 0.00000E+00
 -1      4129 1.11150E+02 2.66630E+01 0.00000E+00
 -1      4130 1.14900E+02 2.79620E+01 0.00000E+00
 -1      4131 1.16400E+02 2.79620E+01 0.00000E+00
 -1      4132 1.14150E+02 2.66630E+01 0.00000E+00
 -1      4133 1.17900E+02 2.79620E+01 0.00000E+00
 -1      4134 1.19400E+02 2.79620E+01 0.00000E+00
 -1      4135 1.17150E+02 2.66630E+01 0.00000E+00
 -1      4136 1.20900E+02 2.79620E+01 0.00000E+00
 -1      4137 1.22400E+02 2.79620E+01 0.00000E+00
 -1      4138 1.20150E+02 2.66630E+01 0.00000E+00
 -1      4139 1.23900E+02 2.79620E+01 0.00000E+00
 -1      4140 1.25400E+02 2.79620E+01 0.00000E+00
 -1      4141 1.23150E+02 2.66630E+01 0.00000E+00
 -1      4142 1.26545E+02 2.79070E+01 0.00000E+00
 -1      4143 1.28045E+02 2.79070E+01 0.00000E+00
 -1      4144 1.28086E+02 2.64979E+01 0.00000E+00
 -1      4145 1.25795E+02 2.66080E+01 0.00000E+00
 -1      4146 5.56787E+01 2.09433E+01 0.00000E+00
 -1      4147 5.41787E+01 2.09433E+01 0.00000E+00
 -1      4148 4.96787E+01 2.09433E+01 0.00000E+00
 -1      4149 4.81787E+01 2.09433E+01 0.00000E+00
 -1      4150 4.74287E+01 2.22423E+01 0.00000E+00
 -1      4151 6.76787E+01 2.09433E+01 0.00000E+00
 -1      4152 6.61787E+01 2.09433E+01 0.00000E+00
 -1      4153 6.84287E+01 2.22423E+01 0.00000E+00
 -1      4154 6.46787E+01 2.09433E+01 0.00000E+00
 -1      4155 6.31787E+01 2.09433E+01 0.00000E+00
 -1      4156 6.54287E+01 2.22423E+01 0.00000E+00
 -1      4157 7.36787E+01 2.09433E+01 0.00000E+00
 -1      4158 7.21787E+01 2.09433E+01 0.00000E+00
 -1      4159 7.14287E+01 2.22423E+01 0.00000E+00
 -1      4160 7.66787E+01 2.09433E+01 0.00000E+00
 -1      4161 7.51787E+01 2.09433E+01 0.00000E+00
 -1      4162 7.44287E+01 2.22423E+01 0.00000E+00
 -1      4163 7.96787E+01 2.09433E+01 0.00000E+00
 -1      4164 7.81787E+01 2.09433E+01 0.00000E+00
 -1      4165 7.74287E+01 2.22423E+01 0.00000E+00
 -1      4166 8.26787E+01 2.09433E+01 0.00000E+00
 -1      4167 8.11787E+01 2.09433E+01 0.00000E+00
 -1      4168 8.04287E+01 2.22423E+01 0.00000E+00
 -1      4169 8.56787E+01 2.09433E+01 0.00000E+00
 -1      4170 8.41787E+01 2.09433E+01 0.00000E+00
 -1      4171 8.34287E+01 2.22423E+01 0.00000E+00
 -1      4172 8.86787E+01 2.09433E+01 0.00000E+00
 -1      4173 8.71787E+01 2.09433E+01 0.00000E+00
 -1      4174 8.64287E+01 2.22423E+01 0.00000E+00
 -1      4175 9.16787E+01 2.09433E+01 0.00000E+00
 -1      4176 9.01787E+01 2.09433E+01 0.00000E+00
 -1      4177 8.94287E+01 2.22423E+01 0.00000E+00
 -1      4178 9.46787E+01 2.09433E+01 0.00000E+00
 -1      4179 9.31787E+01 2.09433E+01 0.00000E+00
 -1      4180 9.24287E+01 2.22423E+01 0.00000E+00
 -1      4181 9.76787E+01 2.09433E+01 0.00000E+00
 -1      4182 9.61787E+01 2.09433E+01 0.00000E+00
 -1      4183 9.54287E+01 2.22423E+01 0.00000E+00
 -1      4184 1.00679E+02 2.09433E+01 0.00000E+00
 -1      4185 9.91787E+01 2.09433E+01 0.00000E+00
 -1      4186 9.84287E+01 2.22423E+01 0.00000E+00
 -1      4187 1.03679E+02 2.09433E+01 0.00000E+00
 -1      4188 1.02179E+02 2.09433E+01 0.00000E+00
 -1      4189 1.01429E+02 2.22423E+01 0.00000E+00
 -1      4190 1.06679E+02 2.09433E+01 0.00000E+00
 -1      4191 1.05179E+02 2.09433E+01 0.00000E+00
 -1      4192 1.04429E+02 2.22423E+01 0.00000E+00
 -1      4193 1.09679E+02 2.09433E+01 0.00000E+00
 -1      4194 1.08179E+02 2.09433E+01 0.00000E+00
 -1      4195 1.07429E+02 2.22423E+01 0.00000E+00
 -1      4196 1.12679E+02 2.09433E+01 0.00000E+00
 -1      4197 1.11179E+02 2.09433E+01 0.00000E+00
 -1      4198 1.10429E+02 2.22423E+01 0.00000E+00
 -1      4199 1.15679E+02 2.09433E+01 0.00000E+00
 -1      4200 1.14179E+02 2.09433E+01 0.00000E+00
 -1      4201 1.13429E+02 2.22423E+01 0.00000E+00
 -1      4202 1.18679E+02 2.09433E+01 0.00000E+00
 -1      4203 1.17179E+02 2.09433E+01 0.00000E+00
 -1      4204 1.16429E+02 2.22423E+01 0.00000E+00
 -1      4205 1.21679E+02 2.09433E+01 0.00000E+00
 -1      4206 1.20179E+02 2.09433E+01 0.00000E+00
 -1      4207 1.19429E+02 2.22423E+01 0.00000E+00
 -1      4208 1.24679E+02 2.09433E+01 0.00000E+00
 -1      4209 1.23179E+02 2.09433E+01 0.00000E+00
 -1      4210 1.22429E+02 2.22423E+01 0.00000E+00
 -1      4211 4.07010E+01 2.78478E+01 0.00000E+00
 -1      4212 5.26787E+01 2.09433E+01 0.00000E+00
 -1      4213 5.11787E+01 2.09433E+01 0.00000E+00
 -1      4214 5.34287E+01 2.22423E+01 0.00000E+00
 -1      4215 4.14510E+01 2.65488E+01 0.00000E+00
 -1      4216 4.36787E+01 2.09433E+01 0.00000E+00
 -1      4217 4.21787E+01 2.09433E+01 0.00000E+00
 -1      4218 4.44287E+01 2.22423E+01 0.00000E+00
 -1      4219 4.18855E+01 2.53692E+01 0.00000E+00
 -1      4220 5.04287E+01 2.22423E+01 0.00000E+00
 -1      4221 1.27679E+02 2.09433E+01 0.00000E+00
 -1      4222 1.26179E+02 2.09433E+01 0.00000E+00
 -1      4223 1.29117E+02 2.07189E+01 0.00000E+00
 -1      4224 5.86787E+01 2.09433E+01 0.00000E+00
 -1      4225 5.71787E+01 2.09433E+01 0.00000E+00
 -1      4226 5.64287E+01 2.22423E+01 0.00000E+00
 -1      4227 4.04549E+01 2.17818E+01 0.00000E+00
 -1      4228 3.97049E+01 2.04828E+01 0.00000E+00
 -1      4229 3.74202E+01 1.96413E+01 0.00000E+00
 -1      4230 3.84532E+01 2.02224E+01 0.00000E+00
 -1      4231 4.15249E+01 2.31588E+01 0.00000E+00
 -1      4232 1.25429E+02 2.22423E+01 0.00000E+00
 -1      4233 6.16787E+01 2.09433E+01 0.00000E+00
 -1      4234 6.01787E+01 2.09433E+01 0.00000E+00
 -1      4235 6.24287E+01 2.22423E+01 0.00000E+00
 -1      4236 1.28127E+02 2.50888E+01 0.00000E+00
 -1      4237 1.28367E+02 2.20179E+01 0.00000E+00
 -1      4238 7.17893E+01 2.44526E+01 0.00000E+00
 -1      4239 7.02893E+01 2.44526E+01 0.00000E+00
 -1      4240 7.47893E+01 2.44526E+01 0.00000E+00
 -1      4241 7.32893E+01 2.44526E+01 0.00000E+00
 -1      4242 1.28121E+02 2.29334E+01 0.00000E+00
 -1      4243 4.32893E+01 2.44526E+01 0.00000E+00
 -1      4244 1.25789E+02 2.44526E+01 0.00000E+00
 -1      4245 1.24289E+02 2.44526E+01 0.00000E+00
 -1      4246 4.77893E+01 2.44526E+01 0.00000E+00
 -1      4247 4.92893E+01 2.44526E+01 0.00000E+00
 -1      4248 5.07893E+01 2.44526E+01 0.00000E+00
 -1      4249 5.22893E+01 2.44526E+01 0.00000E+00
 -1      4250 5.37893E+01 2.44526E+01 0.00000E+00
 -1      4251 5.52893E+01 2.44526E+01 0.00000E+00
 -1      4252 5.67893E+01 2.44526E+01 0.00000E+00
 -1      4253 5.82893E+01 2.44526E+01 0.00000E+00
 -1      4254 5.97893E+01 2.44526E+01 0.00000E+00
 -1      4255 6.12893E+01 2.44526E+01 0.00000E+00
 -1      4256 6.27893E+01 2.44526E+01 0.00000E+00
 -1      4257 6.42893E+01 2.44526E+01 0.00000E+00
 -1      4258 6.57893E+01 2.44526E+01 0.00000E+00
 -1      4259 6.72893E+01 2.44526E+01 0.00000E+00
 -1      4260 6.87893E+01 2.44526E+01 0.00000E+00
 -1      4261 7.62893E+01 2.44526E+01 0.00000E+00
 -1      4262 7.77893E+01 2.44526E+01 0.00000E+00
 -1      4263 7.92893E+01 2.44526E+01 0.00000E+00
 -1      4264 8.07893E+01 2.44526E+01 0.00000E+00
 -1      4265 8.22893E+01 2.44526E+01 0.00000E+00
 -1      4266 8.37893E+01 2.44526E+01 0.00000E+00
 -1      4267 8.52893E+01 2.44526E+01 0.00000E+00
 -1      4268 8.67893E+01 2.44526E+01 0.00000E+00
 -1      4269 8.82893E+01 2.44526E+01 0.00000E+00
 -1      4270 8.97893E+01 2.44526E+01 0.00000E+00
 -1      4271 9.12893E+01 2.44526E+01 0.00000E+00
 -1      4272 9.27893E+01 2.44526E+01 0.00000E+00
 -1      4273 9.42893E+01 2.44526E+01 0.00000E+00
 -1      4274 9.57893E+01 2.44526E+01 0.00000E+00
 -1      4275 9.72893E+01 2.44526E+01 0.00000E+00
 -1      4276 9.87893E+01 2.44526E+01 0.00000E+00
 -1      4277 1.00289E+02 2.44526E+01 0.00000E+00
 -1      4278 1.01789E+02 2.44526E+01 0.00000E+00
 -1      4279 1.03289E+02 2.44526E+01 0.00000E+00
 -1      4280 1.04789E+02 2.44526E+01 0.00000E+00
 -1      4281 1.06289E+02 2.44526E+01 0.00000E+00
 -1      4282 1.07789E+02 2.44526E+01 0.00000E+00
 -1      4283 1.09289E+02 2.44526E+01 0.00000E+00
 -1      4284 1.10789E+02 2.44526E+01 0.00000E+00
 -1      4285 1.12289E+02 2.44526E+01 0.00000E+00
 -1      4286 1.13789E+02 2.44526E+01 0.00000E+00
 -1      4287 1.15289E+02 2.44526E+01 0.00000E+00
 -1      4288 1.16789E+02 2.44526E+01 0.00000E+00
 -1      4289 1.18289E+02 2.44526E+01 0.00000E+00
 -1      4290 1.19789E+02 2.44526E+01 0.00000E+00
 -1      4291 1.21289E+02 2.44526E+01 0.00000E+00
 -1      4292 1.22789E+02 2.44526E+01 0.00000E+00
 -1      4293 4.62893E+01 2.44526E+01 0.00000E+00
 -1      4294 4.47893E+01 2.44526E+01 0.00000E+00
 -1      4295 1.26935E+02 2.43976E+01 0.00000E+00
 -1      4296 5.94287E+01 2.22423E+01 0.00000E+00
 -3
    3C                          2066                                     1
 -1       165    8    0    1
 -2         6         7        23      1116      1280      1133
 -1       166    8    0    1
 -2         7         8       165      1117      1281      1282
 -1       167    8    0    1
 -2         8         9       166      1118      1283      1284
 -1       168    8    0    1
 -2         8       166       165      1284      1285      1281
 -1       169    8    0    1
 -2         9        10       167      1119      1286      1287
 -1       170    8    0    1
 -2         9       167       166      1287      1288      1283
 -1       171    8    0    1
 -2        10        11       168      1120      1289      1290
 -1       172    8    0    1
 -2        10       168       167      1290      1291      1286
 -1       173    8    0    1
 -2        11        12       169      1121      1292      1293
 -1       174    8    0    1
 -2        11       169       168      1293      1294      1289
 -1       175    8    0    1
 -2        12        13       170      1122      1295      1296
 -1       176    8    0    1
 -2        12       170       169      1296      1297      1292
 -1       177    8    0    1
 -2        13        14       171      1123      1298      1299
 -1       178    8    0    1
 -2        13       171       170      1299      1300      1295
 -1       179    8    0    1
 -2        14        15       172      1124      1301      1302
 -1       180    8    0    1
 -2        14       172       171      1302      1303      1298
 -1       181    8    0    1
 -2        15        16       173      1125      1304      1305
 -1       182    8    0    1
 -2        15       173       172      1305      1306      1301
 -1       183    8    0    1
 -2        16        17       174      1126      1307      1308
 -1       184    8    0    1
 -2        16       174       173      1308      1309      1304
 -1       185    8    0    1
 -2        17        18       175      1127      1310      1311
 -1       186    8    0    1
 -2        17       175       174      1311      1312      1307
 -1       187    8    0    1
 -2        18        19       176      1128      1313      1314
 -1       188    8    0    1
 -2        18       176       175      1314      1315      1310
 -1       189    8    0    1
 -2        19        20       177      1129      1316      1317
 -1       190    8    0    1
 -2        19       177       176      1317      1318      1313
 -1       191    8    0    1
 -2        20        21       178      1130      1319      1320
 -1       192    8    0    1
 -2        20       178       177      1320      1321      1316
 -1       193    8    0    1
 -2        21        22       179      1131      1322      1323
 -1       194    8    0    1
 -2        21       179       178      1323      1324      1319
 -1       195    8    0    1
 -2        22         5       180      1132      1325      1326
 -1       196    8    0    1
 -2       179        22       180      1322      1326      1327
 -1       197    8    0    1
 -2         5        72       180      1183      1328      1325
 -1       198    8    0    1
 -2        24        23       181      1134      1329      1330
 -1       199    8    0    1
 -2        25        24       182      1135      1331      1332
 -1       200    8    0    1
 -2        24       181       182      1330      1333      1331
 -1       201    8    0    1
 -2        26        25       183      1136      1334      1335
 -1       202    8    0    1
 -2        25       182       183      1332      1336      1334
 -1       203    8    0    1
 -2        27        26       184      1137      1337      1338
 -1       204    8    0    1
 -2        26       183       184      1335      1339      1337
 -1       205    8    0    1
 -2        28        27       185      1138      1340      1341
 -1       206    8    0    1
 -2        27       184       185      1338      1342      1340
 -1       207    8    0    1
 -2        29        28       186      1139      1343      1344
 -1       208    8    0    1
 -2        28       185       186      1341      1345      1343
 -1       209    8    0    1
 -2        30        29       187      1140      1346      1347
 -1       210    8    0    1
 -2        29       186       187      1344      1348      1346
 -1       211    8    0    1
 -2        31        30       188      1141      1349      1350
 -1       212    8    0    1
 -2        30       187       188      1347      1351      1349
 -1       213    8    0    1
 -2        32        31       189      1142      1352      1353
 -1       214    8    0    1
 -2        31       188       189      1350      1354      1352
 -1       215    8    0    1
 -2        33        32       190      1143      1355      1356
 -1       216    8    0    1
 -2        32       189       190      1353      1357      1355
 -1       217    8    0    1
 -2        34        33       191      1144      1358      1359
 -1       218    8    0    1
 -2        33       190       191      1356      1360      1358
 -1       219    8    0    1
 -2        35        34       192      1145      1361      1362
 -1       220    8    0    1
 -2        34       191       192      1359      1363      1361
 -1       221    8    0    1
 -2        36        35       193      1146      1364      1365
 -1       222    8    0    1
 -2        35       192       193      1362      1366      1364
 -1       223    8    0    1
 -2        37        36       194      1147      1367      1368
 -1       224    8    0    1
 -2        36       193       194      1365      1369      1367
 -1       225    8    0    1
 -2        38        37       195      1148      1370      1371
 -1       226    8    0    1
 -2        37       194       195      1368      1372      1370
 -1       227    8    0    1
 -2        39        38       196      1149      1373      1374
 -1       228    8    0    1
 -2        38       195       196      1371      1375      1373
 -1       229    8    0    1
 -2        40        39       197      1150      1376      1377
 -1       230    8    0    1
 -2        39       196       197      1374      1378      1376
 -1       231    8    0    1
 -2        41        40       198      1151      1379      1380
 -1       232    8    0    1
 -2        40       197       198      1377      1381      1379
 -1       233    8    0    1
 -2        42        41       199      1152      1382      1383
 -1       234    8    0    1
 -2        41       198       199      1380      1384      1382
 -1       235    8    0    1
 -2        43        42       200      1153      1385      1386
 -1       236    8    0    1
 -2        42       199       200      1383      1387      1385
 -1       237    8    0    1
 -2        44        43       201      1154      1388      1389
 -1       238    8    0    1
 -2        43       200       201      1386      1390      1388
 -1       239    8    0    1
 -2        45        44       202      1155      1391      1392
 -1       240    8    0    1
 -2        44       201       202      1389      1393      1391
 -1       241    8    0    1
 -2        46        45       203      1156      1394      1395
 -1       242    8    0    1
 -2        45       202       203      1392      1396      1394
 -1       243    8    0    1
 -2        47        46       204      1157      1397      1398
 -1       244    8    0    1
 -2        46       203       204      1395      1399      1397
 -1       245    8    0    1
 -2        48        47       205      1158      1400      1401
 -1       246    8    0    1
 -2        47       204       205      1398      1402      1400
 -1       247    8    0    1
 -2        49        48       206      1159      1403      1404
 -1       248    8    0    1
 -2        48       205       206      1401      1405      1403
 -1       249    8    0    1
 -2        50        49       207      1160      1406      1407
 -1       250    8    0    1
 -2        49       206       207      1404      1408      1406
 -1       251    8    0    1
 -2        51        50       208      1161      1409      1410
 -1       252    8    0    1
 -2        50       207       208      1407      1411      1409
 -1       253    8    0    1
 -2        52        51       209      1162      1412      1413
 -1       254    8    0    1
 -2        51       208       209      1410      1414      1412
 -1       255    8    0    1
 -2        53        52       210      1163      1415      1416
 -1       256    8    0    1
 -2        52       209       210      1413      1417      1415
 -1       257    8    0    1
 -2        54        53       211      1164      1418      1419
 -1       258    8    0    1
 -2        53       210       211      1416      1420      1418
 -1       259    8    0    1
 -2        55        54       212      1165      1421      1422
 -1       260    8    0    1
 -2        54       211       212      1419      1423      1421
 -1       261    8    0    1
 -2        56        55       213      1166      1424      1425
 -1       262    8    0    1
 -2        55       212       213      1422      1426      1424
 -1       263    8    0    1
 -2        57        56       214      1167      1427      1428
 -1       264    8    0    1
 -2        56       213       214      1425      1429      1427
 -1       265    8    0    1
 -2        58        57       215      1168      1430      1431
 -1       266    8    0    1
 -2        57       214       215      1428      1432      1430
 -1       267    8    0    1
 -2        59        58       216      1169      1433      1434
 -1       268    8    0    1
 -2        58       215       216      1431      1435      1433
 -1       269    8    0    1
 -2        60        59       217      1170      1436      1437
 -1       270    8    0    1
 -2        59       216       217      1434      1438      1436
 -1       271    8    0    1
 -2        61        60       218      1171      1439      1440
 -1       272    8    0    1
 -2        60       217       218      1437      1441      1439
 -1       273    8    0    1
 -2        62        61       219      1172      1442      1443
 -1       274    8    0    1
 -2        61       218       219      1440      1444      1442
 -1       275    8    0    1
 -2        63        62       220      1173      1445      1446
 -1       276    8    0    1
 -2        62       219       220      1443      1447      1445
 -1       277    8    0    1
 -2        64        63       221      1174      1448      1449
 -1       278    8    0    1
 -2        63       220       221      1446      1450      1448
 -1       279    8    0    1
 -2        65        64       222      1175      1451      1452
 -1       280    8    0    1
 -2        64       221       222      1449      1453      1451
 -1       281    8    0    1
 -2        66        65       223      1176      1454      1455
 -1       282    8    0    1
 -2        65       222       223      1452      1456      1454
 -1       283    8    0    1
 -2        67        66       224      1177      1457      1458
 -1       284    8    0    1
 -2        66       223       224      1455      1459      1457
 -1       285    8    0    1
 -2        68        67       225      1178      1460      1461
 -1       286    8    0    1
 -2        67       224       225      1458      1462      1460
 -1       287    8    0    1
 -2        69        68       226      1179      1463      1464
 -1       288    8    0    1
 -2        68       225       226      1461      1465      1463
 -1       289    8    0    1
 -2        70        69       227      1180      1466      1467
 -1       290    8    0    1
 -2        69       226       227      1464      1468      1466
 -1       291    8    0    1
 -2        71        70       228      1181      1469      1470
 -1       292    8    0    1
 -2        70       227       228      1467      1471      1469
 -1       293    8    0    1
 -2         4        71       136      1182      1472      1249
 -1       294    8    0    1
 -2       136        71       228      1472      1470      1473
 -1       295    8    0    1
 -2        72        73       229      1184      1474      1475
 -1       296    8    0    1
 -2        72       229       180      1475      1476      1328
 -1       297    8    0    1
 -2        73        74       230      1185      1477      1478
 -1       298    8    0    1
 -2        73       230       229      1478      1479      1474
 -1       299    8    0    1
 -2        74        75       231      1186      1480      1481
 -1       300    8    0    1
 -2        74       231       230      1481      1482      1477
 -1       301    8    0    1
 -2        75        76       232      1187      1483      1484
 -1       302    8    0    1
 -2        75       232       231      1484      1485      1480
 -1       303    8    0    1
 -2        76        77       233      1188      1486      1487
 -1       304    8    0    1
 -2        76       233       232      1487      1488      1483
 -1       305    8    0    1
 -2        77        78       234      1189      1489      1490
 -1       306    8    0    1
 -2        77       234       233      1490      1491      1486
 -1       307    8    0    1
 -2        78        79       235      1190      1492      1493
 -1       308    8    0    1
 -2        78       235       234      1493      1494      1489
 -1       309    8    0    1
 -2        79        80       236      1191      1495      1496
 -1       310    8    0    1
 -2        79       236       235      1496      1497      1492
 -1       311    8    0    1
 -2        80        81       237      1192      1498      1499
 -1       312    8    0    1
 -2        80       237       236      1499      1500      1495
 -1       313    8    0    1
 -2        81        82       238      1193      1501      1502
 -1       314    8    0    1
 -2        81       238       237      1502      1503      1498
 -1       315    8    0    1
 -2        82        83       239      1194      1504      1505
 -1       316    8    0    1
 -2        82       239       238      1505      1506      1501
 -1       317    8    0    1
 -2        83        84       240      1195      1507      1508
 -1       318    8    0    1
 -2        83       240       239      1508      1509      1504
 -1       319    8    0    1
 -2        84        85       241      1196      1510      1511
 -1       320    8    0    1
 -2        84       241       240      1511      1512      1507
 -1       321    8    0    1
 -2        85        86       242      1197      1513      1514
 -1       322    8    0    1
 -2        85       242       241      1514      1515      1510
 -1       323    8    0    1
 -2        86        87       243      1198      1516      1517
 -1       324    8    0    1
 -2        86       243       242      1517      1518      1513
 -1       325    8    0    1
 -2        87        88       244      1199      1519      1520
 -1       326    8    0    1
 -2        87       244       243      1520      1521      1516
 -1       327    8    0    1
 -2        88        89       245      1200      1522      1523
 -1       328    8    0    1
 -2        88       245       244      1523      1524      1519
 -1       329    8    0    1
 -2        89        90       246      1201      1525      1526
 -1       330    8    0    1
 -2        89       246       245      1526      1527      1522
 -1       331    8    0    1
 -2        90        91       247      1202      1528      1529
 -1       332    8    0    1
 -2        90       247       246      1529      1530      1525
 -1       333    8    0    1
 -2        91        92       248      1203      1531      1532
 -1       334    8    0    1
 -2        91       248       247      1532      1533      1528
 -1       335    8    0    1
 -2        92        93       249      1204      1534      1535
 -1       336    8    0    1
 -2        92       249       248      1535      1536      1531
 -1       337    8    0    1
 -2        93        94       250      1205      1537      1538
 -1       338    8    0    1
 -2        93       250       249      1538      1539      1534
 -1       339    8    0    1
 -2        94        95       251      1206      1540      1541
 -1       340    8    0    1
 -2        94       251       250      1541      1542      1537
 -1       341    8    0    1
 -2        95        96       252      1207      1543      1544
 -1       342    8    0    1
 -2        95       252       251      1544      1545      1540
 -1       343    8    0    1
 -2        96        97       253      1208      1546      1547
 -1       344    8    0    1
 -2        96       253       252      1547      1548      1543
 -1       345    8    0    1
 -2        97        98       254      1209      1549      1550
 -1       346    8    0    1
 -2        97       254       253      1550      1551      1546
 -1       347    8    0    1
 -2        98        99       255      1210      1552      1553
 -1       348    8    0    1
 -2        98       255       254      1553      1554      1549
 -1       349    8    0    1
 -2        99       100       256      1211      1555      1556
 -1       350    8    0    1
 -2        99       256       255      1556      1557      1552
 -1       351    8    0    1
 -2       100       101       257      1212      1558      1559
 -1       352    8    0    1
 -2       100       257       256      1559      1560      1555
 -1       353    8    0    1
 -2       101       102       258      1213      1561      1562
 -1       354    8    0    1
 -2       101       258       257      1562      1563      1558
 -1       355    8    0    1
 -2       102       103       259      1214      1564      1565
 -1       356    8    0    1
 -2       102       259       258      1565      1566      1561
 -1       357    8    0    1
 -2       103       104       260      1215      1567      1568
 -1       358    8    0    1
 -2       103       260       259      1568      1569      1564
 -1       359    8    0    1
 -2       104       105       261      1216      1570      1571
 -1       360    8    0    1
 -2       104       261       260      1571      1572      1567
 -1       361    8    0    1
 -2       105       106       262      1217      1573      1574
 -1       362    8    0    1
 -2       105       262       261      1574      1575      1570
 -1       363    8    0    1
 -2       106       107       263      1218      1576      1577
 -1       364    8    0    1
 -2       106       263       262      1577      1578      1573
 -1       365    8    0    1
 -2       107       108       264      1219      1579      1580
 -1       366    8    0    1
 -2       107       264       263      1580      1581      1576
 -1       367    8    0    1
 -2       108       109       265      1220      1582      1583
 -1       368    8    0    1
 -2       108       265       264      1583      1584      1579
 -1       369    8    0    1
 -2       109       110       266      1221      1585      1586
 -1       370    8    0    1
 -2       109       266       265      1586      1587      1582
 -1       371    8    0    1
 -2       110       111       267      1222      1588      1589
 -1       372    8    0    1
 -2       110       267       266      1589      1590      1585
 -1       373    8    0    1
 -2       111       112       268      1223      1591      1592
 -1       374    8    0    1
 -2       111       268       267      1592      1593      1588
 -1       375    8    0    1
 -2       112       113       269      1224      1594      1595
 -1       376    8    0    1
 -2       112       269       268      1595      1596      1591
 -1       377    8    0    1
 -2       113       114       270      1225      1597      1598
 -1       378    8    0    1
 -2       113       270       269      1598      1599      1594
 -1       379    8    0    1
 -2       114       115       271      1226      1600      1601
 -1       380    8    0    1
 -2       114       271       270      1601      1602      1597
 -1       381    8    0    1
 -2       115       116       272      1227      1603      1604
 -1       382    8    0    1
 -2       115       272       271      1604      1605      1600
 -1       383    8    0    1
 -2       116       117       273      1228      1606      1607
 -1       384    8    0    1
 -2       116       273       272      1607      1608      1603
 -1       385    8    0    1
 -2       117       118       274      1229      1609      1610
 -1       386    8    0    1
 -2       117       274       273      1610      1611      1606
 -1       387    8    0    1
 -2       118       119       275      1230      1612      1613
 -1       388    8    0    1
 -2       118       275       274      1613      1614      1609
 -1       389    8    0    1
 -2       119       120       276      1231      1615      1616
 -1       390    8    0    1
 -2       119       276       275      1616      1617      1612
 -1       391    8    0    1
 -2       120         3       121      1232      1233      1618
 -1       392    8    0    1
 -2       121       122       277      1234      1619      1620
 -1       393    8    0    1
 -2       122       123       278      1235      1621      1622
 -1       394    8    0    1
 -2       122       278       277      1622      1623      1619
 -1       395    8    0    1
 -2       123       124       279      1236      1624      1625
 -1       396    8    0    1
 -2       123       279       278      1625      1626      1621
 -1       397    8    0    1
 -2       124       125       280      1237      1627      1628
 -1       398    8    0    1
 -2       124       280       279      1628      1629      1624
 -1       399    8    0    1
 -2       125       126       281      1238      1630      1631
 -1       400    8    0    1
 -2       125       281       280      1631      1632      1627
 -1       401    8    0    1
 -2       126       127       282      1239      1633      1634
 -1       402    8    0    1
 -2       126       282       281      1634      1635      1630
 -1       403    8    0    1
 -2       127       128       283      1240      1636      1637
 -1       404    8    0    1
 -2       127       283       282      1637      1638      1633
 -1       405    8    0    1
 -2       128       129       284      1241      1639      1640
 -1       406    8    0    1
 -2       128       284       283      1640      1641      1636
 -1       407    8    0    1
 -2       129       130       285      1242      1642      1643
 -1       408    8    0    1
 -2       129       285       284      1643      1644      1639
 -1       409    8    0    1
 -2       130       131       286      1243      1645      1646
 -1       410    8    0    1
 -2       130       286       285      1646      1647      1642
 -1       411    8    0    1
 -2       131       132       287      1244      1648      1649
 -1       412    8    0    1
 -2       131       287       286      1649      1650      1645
 -1       413    8    0    1
 -2       132       133       288      1245      1651      1652
 -1       414    8    0    1
 -2       132       288       287      1652      1653      1648
 -1       415    8    0    1
 -2       133       134       289      1246      1654      1655
 -1       416    8    0    1
 -2       133       289       288      1655      1656      1651
 -1       417    8    0    1
 -2       134       135       290      1247      1657      1658
 -1       418    8    0    1
 -2       134       290       289      1658      1659      1654
 -1       419    8    0    1
 -2       135       136       291      1248      1660      1661
 -1       420    8    0    1
 -2       290       135       291      1657      1661      1662
 -1       421    8    0    1
 -2       136       228       291      1473      1663      1660
 -1       422    8    0    1
 -2         2       137       292      1250      1664      1665
 -1       423    8    0    1
 -2       137       138       293      1251      1666      1667
 -1       424    8    0    1
 -2       138       139       294      1252      1668      1669
 -1       425    8    0    1
 -2       139       140       295      1253      1670      1671
 -1       426    8    0    1
 -2       140       141       296      1254      1672      1673
 -1       427    8    0    1
 -2       141       142       297      1255      1674      1675
 -1       428    8    0    1
 -2       142       143       298      1256      1676      1677
 -1       429    8    0    1
 -2       143       144       299      1257      1678      1679
 -1       430    8    0    1
 -2       144       145       300      1258      1680      1681
 -1       431    8    0    1
 -2       145       146       301      1259      1682      1683
 -1       432    8    0    1
 -2       146       147       302      1260      1684      1685
 -1       433    8    0    1
 -2       147       148       303      1261      1686      1687
 -1       434    8    0    1
 -2       148       149       304      1262      1688      1689
 -1       435    8    0    1
 -2       149       150       305      1263      1690      1691
 -1       436    8    0    1
 -2       150       151       306      1264      1692      1693
 -1       437    8    0    1
 -2       151       152       307      1265      1694      1695
 -1       438    8    0    1
 -2       152       153       308      1266      1696      1697
 -1       439    8    0    1
 -2       153       154       309      1267      1698      1699
 -1       440    8    0    1
 -2       154       155       310      1268      1700      1701
 -1       441    8    0    1
 -2       155       156       311      1269      1702      1703
 -1       442    8    0    1
 -2       156       157       312      1270      1704      1705
 -1       443    8    0    1
 -2       157         1       313      1271      1706      1707
 -1       444    8    0    1
 -2         1       158       314      1272      1708      1709
 -1       445    8    0    1
 -2       158       159       315      1273      1710      1711
 -1       446    8    0    1
 -2       159       160       316      1274      1712      1713
 -1       447    8    0    1
 -2       160       161       317      1275      1714      1715
 -1       448    8    0    1
 -2       161       162       318      1276      1716      1717
 -1       449    8    0    1
 -2       162       163       319      1277      1718      1719
 -1       450    8    0    1
 -2       163       164       320      1278      1720      1721
 -1       451    8    0    1
 -2       164         2       321      1279      1722      1723
 -1       452    8    0    1
 -2       295       140       296      1670      1673      1724
 -1       453    8    0    1
 -2       294       139       295      1668      1671      1725
 -1       454    8    0    1
 -2       120       121       276      1618      1726      1615
 -1       455    8    0    1
 -2       121       277       276      1620      1727      1726
 -1       456    8    0    1
 -2       292       137       293      1664      1667      1728
 -1       457    8    0    1
 -2       293       138       294      1666      1669      1729
 -1       458    8    0    1
 -2         2       292       321      1665      1730      1722
 -1       459    8    0    1
 -2       141       297       296      1675      1731      1672
 -1       460    8    0    1
 -2       142       298       297      1677      1732      1674
 -1       461    8    0    1
 -2       143       299       298      1679      1733      1676
 -1       462    8    0    1
 -2       144       300       299      1681      1734      1678
 -1       463    8    0    1
 -2       145       301       300      1683      1735      1680
 -1       464    8    0    1
 -2       146       302       301      1685      1736      1682
 -1       465    8    0    1
 -2       147       303       302      1687      1737      1684
 -1       466    8    0    1
 -2       148       304       303      1689      1738      1686
 -1       467    8    0    1
 -2       149       305       304      1691      1739      1688
 -1       468    8    0    1
 -2       150       306       305      1693      1740      1690
 -1       469    8    0    1
 -2       151       307       306      1695      1741      1692
 -1       470    8    0    1
 -2       152       308       307      1697      1742      1694
 -1       471    8    0    1
 -2       153       309       308      1699      1743      1696
 -1       472    8    0    1
 -2       154       310       309      1701      1744      1698
 -1       473    8    0    1
 -2       155       311       310      1703      1745      1700
 -1       474    8    0    1
 -2       156       312       311      1705      1746      1702
 -1       475    8    0    1
 -2       157       313       312      1707      1747      1704
 -1       476    8    0    1
 -2         1       314       313      1709      1748      1706
 -1       477    8    0    1
 -2       158       315       314      1711      1749      1708
 -1       478    8    0    1
 -2       159       316       315      1713      1750      1710
 -1       479    8    0    1
 -2       160       317       316      1715      1751      1712
 -1       480    8    0    1
 -2       161       318       317      1717      1752      1714
 -1       481    8    0    1
 -2       162       319       318      1719      1753      1716
 -1       482    8    0    1
 -2       163       320       319      1721      1754      1718
 -1       483    8    0    1
 -2       164       321       320      1723      1755      1720
 -1       484    8    0    1
 -2        23         7       322      1280      1756      1757
 -1       485    8    0    1
 -2       166       167       323      1288      1758      1759
 -1       486    8    0    1
 -2       165       166       324      1285      1760      1761
 -1       487    8    0    1
 -2       166       323       324      1759      1762      1760
 -1       488    8    0    1
 -2       168       169       325      1294      1763      1764
 -1       489    8    0    1
 -2       169       170       326      1297      1765      1766
 -1       490    8    0    1
 -2       169       326       325      1766      1767      1763
 -1       491    8    0    1
 -2       170       171       327      1300      1768      1769
 -1       492    8    0    1
 -2       170       327       326      1769      1770      1765
 -1       493    8    0    1
 -2       171       172       328      1303      1771      1772
 -1       494    8    0    1
 -2       171       328       327      1772      1773      1768
 -1       495    8    0    1
 -2       173       174       329      1309      1774      1775
 -1       496    8    0    1
 -2       174       175       330      1312      1776      1777
 -1       497    8    0    1
 -2       174       330       329      1777      1778      1774
 -1       498    8    0    1
 -2       175       176       331      1315      1779      1780
 -1       499    8    0    1
 -2       175       331       330      1780      1781      1776
 -1       500    8    0    1
 -2       176       177       332      1318      1782      1783
 -1       501    8    0    1
 -2       176       332       331      1783      1784      1779
 -1       502    8    0    1
 -2       177       178       333      1321      1785      1786
 -1       503    8    0    1
 -2       177       333       332      1786      1787      1782
 -1       504    8    0    1
 -2       178       179       334      1324      1788      1789
 -1       505    8    0    1
 -2       178       334       333      1789      1790      1785
 -1       506    8    0    1
 -2       179       180       335      1327      1791      1792
 -1       507    8    0    1
 -2       334       179       335      1788      1792      1793
 -1       508    8    0    1
 -2       180       229       335      1476      1794      1791
 -1       509    8    0    1
 -2       181        23       322      1329      1757      1795
 -1       510    8    0    1
 -2       229       230       336      1479      1796      1797
 -1       511    8    0    1
 -2       229       336       335      1797      1798      1794
 -1       512    8    0    1
 -2       183       182       337      1336      1799      1800
 -1       513    8    0    1
 -2       184       183       338      1339      1801      1802
 -1       514    8    0    1
 -2       183       337       338      1800      1803      1801
 -1       515    8    0    1
 -2       185       184       339      1342      1804      1805
 -1       516    8    0    1
 -2       184       338       339      1802      1806      1804
 -1       517    8    0    1
 -2       186       185       340      1345      1807      1808
 -1       518    8    0    1
 -2       185       339       340      1805      1809      1807
 -1       519    8    0    1
 -2       187       186       341      1348      1810      1811
 -1       520    8    0    1
 -2       186       340       341      1808      1812      1810
 -1       521    8    0    1
 -2       188       187       342      1351      1813      1814
 -1       522    8    0    1
 -2       187       341       342      1811      1815      1813
 -1       523    8    0    1
 -2       189       188       343      1354      1816      1817
 -1       524    8    0    1
 -2       188       342       343      1814      1818      1816
 -1       525    8    0    1
 -2       190       189       344      1357      1819      1820
 -1       526    8    0    1
 -2       189       343       344      1817      1821      1819
 -1       527    8    0    1
 -2       191       190       345      1360      1822      1823
 -1       528    8    0    1
 -2       190       344       345      1820      1824      1822
 -1       529    8    0    1
 -2       192       191       346      1363      1825      1826
 -1       530    8    0    1
 -2       191       345       346      1823      1827      1825
 -1       531    8    0    1
 -2       193       192       347      1366      1828      1829
 -1       532    8    0    1
 -2       192       346       347      1826      1830      1828
 -1       533    8    0    1
 -2       194       193       348      1369      1831      1832
 -1       534    8    0    1
 -2       193       347       348      1829      1833      1831
 -1       535    8    0    1
 -2       195       194       349      1372      1834      1835
 -1       536    8    0    1
 -2       194       348       349      1832      1836      1834
 -1       537    8    0    1
 -2       196       195       350      1375      1837      1838
 -1       538    8    0    1
 -2       195       349       350      1835      1839      1837
 -1       539    8    0    1
 -2       197       196       351      1378      1840      1841
 -1       540    8    0    1
 -2       196       350       351      1838      1842      1840
 -1       541    8    0    1
 -2       198       197       352      1381      1843      1844
 -1       542    8    0    1
 -2       197       351       352      1841      1845      1843
 -1       543    8    0    1
 -2       199       198       353      1384      1846      1847
 -1       544    8    0    1
 -2       198       352       353      1844      1848      1846
 -1       545    8    0    1
 -2       200       199       354      1387      1849      1850
 -1       546    8    0    1
 -2       199       353       354      1847      1851      1849
 -1       547    8    0    1
 -2       201       200       355      1390      1852      1853
 -1       548    8    0    1
 -2       200       354       355      1850      1854      1852
 -1       549    8    0    1
 -2       202       201       356      1393      1855      1856
 -1       550    8    0    1
 -2       201       355       356      1853      1857      1855
 -1       551    8    0    1
 -2       203       202       357      1396      1858      1859
 -1       552    8    0    1
 -2       202       356       357      1856      1860      1858
 -1       553    8    0    1
 -2       204       203       358      1399      1861      1862
 -1       554    8    0    1
 -2       203       357       358      1859      1863      1861
 -1       555    8    0    1
 -2       205       204       359      1402      1864      1865
 -1       556    8    0    1
 -2       204       358       359      1862      1866      1864
 -1       557    8    0    1
 -2       206       205       360      1405      1867      1868
 -1       558    8    0    1
 -2       205       359       360      1865      1869      1867
 -1       559    8    0    1
 -2       207       206       361      1408      1870      1871
 -1       560    8    0    1
 -2       206       360       361      1868      1872      1870
 -1       561    8    0    1
 -2       208       207       362      1411      1873      1874
 -1       562    8    0    1
 -2       207       361       362      1871      1875      1873
 -1       563    8    0    1
 -2       209       208       363      1414      1876      1877
 -1       564    8    0    1
 -2       208       362       363      1874      1878      1876
 -1       565    8    0    1
 -2       210       209       364      1417      1879      1880
 -1       566    8    0    1
 -2       209       363       364      1877      1881      1879
 -1       567    8    0    1
 -2       211       210       365      1420      1882      1883
 -1       568    8    0    1
 -2       210       364       365      1880      1884      1882
 -1       569    8    0    1
 -2       212       211       366      1423      1885      1886
 -1       570    8    0    1
 -2       211       365       366      1883      1887      1885
 -1       571    8    0    1
 -2       213       212       367      1426      1888      1889
 -1       572    8    0    1
 -2       212       366       367      1886      1890      1888
 -1       573    8    0    1
 -2       214       213       368      1429      1891      1892
 -1       574    8    0    1
 -2       213       367       368      1889      1893      1891
 -1       575    8    0    1
 -2       215       214       369      1432      1894      1895
 -1       576    8    0    1
 -2       214       368       369      1892      1896      1894
 -1       577    8    0    1
 -2       216       215       370      1435      1897      1898
 -1       578    8    0    1
 -2       215       369       370      1895      1899      1897
 -1       579    8    0    1
 -2       217       216       371      1438      1900      1901
 -1       580    8    0    1
 -2       216       370       371      1898      1902      1900
 -1       581    8    0    1
 -2       218       217       372      1441      1903      1904
 -1       582    8    0    1
 -2       217       371       372      1901      1905      1903
 -1       583    8    0    1
 -2       219       218       373      1444      1906      1907
 -1       584    8    0    1
 -2       218       372       373      1904      1908      1906
 -1       585    8    0    1
 -2       220       219       374      1447      1909      1910
 -1       586    8    0    1
 -2       219       373       374      1907      1911      1909
 -1       587    8    0    1
 -2       221       220       375      1450      1912      1913
 -1       588    8    0    1
 -2       220       374       375      1910      1914      1912
 -1       589    8    0    1
 -2       222       221       376      1453      1915      1916
 -1       590    8    0    1
 -2       221       375       376      1913      1917      1915
 -1       591    8    0    1
 -2       223       222       377      1456      1918      1919
 -1       592    8    0    1
 -2       222       376       377      1916      1920      1918
 -1       593    8    0    1
 -2       224       223       378      1459      1921      1922
 -1       594    8    0    1
 -2       223       377       378      1919      1923      1921
 -1       595    8    0    1
 -2       225       224       379      1462      1924      1925
 -1       596    8    0    1
 -2       224       378       379      1922      1926      1924
 -1       597    8    0    1
 -2       226       225       380      1465      1927      1928
 -1       598    8    0    1
 -2       225       379       380      1925      1929      1927
 -1       599    8    0    1
 -2       227       226       381      1468      1930      1931
 -1       600    8    0    1
 -2       226       380       381      1928      1932      1930
 -1       601    8    0    1
 -2       228       227       382      1471      1933      1934
 -1       602    8    0    1
 -2       291       228       382      1663      1934      1935
 -1       603    8    0    1
 -2       227       381       382      1931      1936      1933
 -1       604    8    0    1
 -2       230       231       383      1482      1937      1938
 -1       605    8    0    1
 -2       230       383       336      1938      1939      1796
 -1       606    8    0    1
 -2       231       232       384      1485      1940      1941
 -1       607    8    0    1
 -2       231       384       383      1941      1942      1937
 -1       608    8    0    1
 -2       232       233       385      1488      1943      1944
 -1       609    8    0    1
 -2       232       385       384      1944      1945      1940
 -1       610    8    0    1
 -2       233       234       386      1491      1946      1947
 -1       611    8    0    1
 -2       233       386       385      1947      1948      1943
 -1       612    8    0    1
 -2       234       235       387      1494      1949      1950
 -1       613    8    0    1
 -2       234       387       386      1950      1951      1946
 -1       614    8    0    1
 -2       235       236       388      1497      1952      1953
 -1       615    8    0    1
 -2       235       388       387      1953      1954      1949
 -1       616    8    0    1
 -2       236       237       389      1500      1955      1956
 -1       617    8    0    1
 -2       236       389       388      1956      1957      1952
 -1       618    8    0    1
 -2       237       238       390      1503      1958      1959
 -1       619    8    0    1
 -2       237       390       389      1959      1960      1955
 -1       620    8    0    1
 -2       238       239       391      1506      1961      1962
 -1       621    8    0    1
 -2       238       391       390      1962      1963      1958
 -1       622    8    0    1
 -2       239       240       392      1509      1964      1965
 -1       623    8    0    1
 -2       239       392       391      1965      1966      1961
 -1       624    8    0    1
 -2       240       241       393      1512      1967      1968
 -1       625    8    0    1
 -2       240       393       392      1968      1969      1964
 -1       626    8    0    1
 -2       241       242       394      1515      1970      1971
 -1       627    8    0    1
 -2       241       394       393      1971      1972      1967
 -1       628    8    0    1
 -2       242       243       395      1518      1973      1974
 -1       629    8    0    1
 -2       242       395       394      1974      1975      1970
 -1       630    8    0    1
 -2       243       244       396      1521      1976      1977
 -1       631    8    0    1
 -2       243       396       395      1977      1978      1973
 -1       632    8    0    1
 -2       244       245       397      1524      1979      1980
 -1       633    8    0    1
 -2       244       397       396      1980      1981      1976
 -1       634    8    0    1
 -2       245       246       398      1527      1982      1983
 -1       635    8    0    1
 -2       245       398       397      1983      1984      1979
 -1       636    8    0    1
 -2       246       247       399      1530      1985      1986
 -1       637    8    0    1
 -2       246       399       398      1986      1987      1982
 -1       638    8    0    1
 -2       247       248       400      1533      1988      1989
 -1       639    8    0    1
 -2       247       400       399      1989      1990      1985
 -1       640    8    0    1
 -2       248       249       401      1536      1991      1992
 -1       641    8    0    1
 -2       248       401       400      1992      1993      1988
 -1       642    8    0    1
 -2       249       250       402      1539      1994      1995
 -1       643    8    0    1
 -2       249       402       401      1995      1996      1991
 -1       644    8    0    1
 -2       250       251       403      1542      1997      1998
 -1       645    8    0    1
 -2       250       403       402      1998      1999      1994
 -1       646    8    0    1
 -2       251       252       404      1545      2000      2001
 -1       647    8    0    1
 -2       251       404       403      2001      2002      1997
 -1       648    8    0    1
 -2       252       253       405      1548      2003      2004
 -1       649    8    0    1
 -2       252       405       404      2004      2005      2000
 -1       650    8    0    1
 -2       253       254       406      1551      2006      2007
 -1       651    8    0    1
 -2       253       406       405      2007      2008      2003
 -1       652    8    0    1
 -2       254       255       407      1554      2009      2010
 -1       653    8    0    1
 -2       254       407       406      2010      2011      2006
 -1       654    8    0    1
 -2       255       256       408      1557      2012      2013
 -1       655    8    0    1
 -2       255       408       407      2013      2014      2009
 -1       656    8    0    1
 -2       256       257       409      1560      2015      2016
 -1       657    8    0    1
 -2       256       409       408      2016      2017      2012
 -1       658    8    0    1
 -2       257       258       410      1563      2018      2019
 -1       659    8    0    1
 -2       257       410       409      2019      2020      2015
 -1       660    8    0    1
 -2       258       259       411      1566      2021      2022
 -1       661    8    0    1
 -2       258       411       410      2022      2023      2018
 -1       662    8    0    1
 -2       259       260       412      1569      2024      2025
 -1       663    8    0    1
 -2       259       412       411      2025      2026      2021
 -1       664    8    0    1
 -2       260       261       413      1572      2027      2028
 -1       665    8    0    1
 -2       260       413       412      2028      2029      2024
 -1       666    8    0    1
 -2       261       262       414      1575      2030      2031
 -1       667    8    0    1
 -2       261       414       413      2031      2032      2027
 -1       668    8    0    1
 -2       262       263       415      1578      2033      2034
 -1       669    8    0    1
 -2       262       415       414      2034      2035      2030
 -1       670    8    0    1
 -2       263       264       416      1581      2036      2037
 -1       671    8    0    1
 -2       263       416       415      2037      2038      2033
 -1       672    8    0    1
 -2       264       265       417      1584      2039      2040
 -1       673    8    0    1
 -2       264       417       416      2040      2041      2036
 -1       674    8    0    1
 -2       265       266       418      1587      2042      2043
 -1       675    8    0    1
 -2       265       418       417      2043      2044      2039
 -1       676    8    0    1
 -2       266       267       419      1590      2045      2046
 -1       677    8    0    1
 -2       266       419       418      2046      2047      2042
 -1       678    8    0    1
 -2       267       268       420      1593      2048      2049
 -1       679    8    0    1
 -2       267       420       419      2049      2050      2045
 -1       680    8    0    1
 -2       268       269       421      1596      2051      2052
 -1       681    8    0    1
 -2       268       421       420      2052      2053      2048
 -1       682    8    0    1
 -2       269       270       422      1599      2054      2055
 -1       683    8    0    1
 -2       269       422       421      2055      2056      2051
 -1       684    8    0    1
 -2       270       271       423      1602      2057      2058
 -1       685    8    0    1
 -2       270       423       422      2058      2059      2054
 -1       686    8    0    1
 -2       271       272       424      1605      2060      2061
 -1       687    8    0    1
 -2       271       424       423      2061      2062      2057
 -1       688    8    0    1
 -2       272       273       425      1608      2063      2064
 -1       689    8    0    1
 -2       272       425       424      2064      2065      2060
 -1       690    8    0    1
 -2       273       274       426      1611      2066      2067
 -1       691    8    0    1
 -2       273       426       425      2067      2068      2063
 -1       692    8    0    1
 -2       274       275       427      1614      2069      2070
 -1       693    8    0    1
 -2       274       427       426      2070      2071      2066
 -1       694    8    0    1
 -2       275       276       428      1617      2072      2073
 -1       695    8    0    1
 -2       427       275       428      2069      2073      2074
 -1       696    8    0    1
 -2       276       277       428      1727      2075      2072
 -1       697    8    0    1
 -2       279       280       429      1629      2076      2077
 -1       698    8    0    1
 -2       278       279       430      1626      2078      2079
 -1       699    8    0    1
 -2       279       429       430      2077      2080      2078
 -1       700    8    0    1
 -2       277       278       431      1623      2081      2082
 -1       701    8    0    1
 -2       428       277       431      2075      2082      2083
 -1       702    8    0    1
 -2       278       430       431      2079      2084      2081
 -1       703    8    0    1
 -2       280       281       432      1632      2085      2086
 -1       704    8    0    1
 -2       280       432       429      2086      2087      2076
 -1       705    8    0    1
 -2       281       282       433      1635      2088      2089
 -1       706    8    0    1
 -2       281       433       432      2089      2090      2085
 -1       707    8    0    1
 -2       282       283       434      1638      2091      2092
 -1       708    8    0    1
 -2       282       434       433      2092      2093      2088
 -1       709    8    0    1
 -2       283       284       435      1641      2094      2095
 -1       710    8    0    1
 -2       283       435       434      2095      2096      2091
 -1       711    8    0    1
 -2       284       285       436      1644      2097      2098
 -1       712    8    0    1
 -2       284       436       435      2098      2099      2094
 -1       713    8    0    1
 -2       285       286       437      1647      2100      2101
 -1       714    8    0    1
 -2       285       437       436      2101      2102      2097
 -1       715    8    0    1
 -2       286       287       438      1650      2103      2104
 -1       716    8    0    1
 -2       286       438       437      2104      2105      2100
 -1       717    8    0    1
 -2       287       288       439      1653      2106      2107
 -1       718    8    0    1
 -2       287       439       438      2107      2108      2103
 -1       719    8    0    1
 -2       288       289       440      1656      2109      2110
 -1       720    8    0    1
 -2       288       440       439      2110      2111      2106
 -1       721    8    0    1
 -2       289       290       441      1659      2112      2113
 -1       722    8    0    1
 -2       289       441       440      2113      2114      2109
 -1       723    8    0    1
 -2       293       294       442      1729      2115      2116
 -1       724    8    0    1
 -2       321       292       443      1730      2117      2118
 -1       725    8    0    1
 -2       292       293       444      1728      2119      2120
 -1       726    8    0    1
 -2       443       292       444      2117      2120      2121
 -1       727    8    0    1
 -2       293       442       444      2116      2122      2119
 -1       728    8    0    1
 -2       294       295       445      1725      2123      2124
 -1       729    8    0    1
 -2       295       296       446      1724      2125      2126
 -1       730    8    0    1
 -2       167       168       447      1291      2127      2128
 -1       731    8    0    1
 -2       323       167       447      1758      2128      2129
 -1       732    8    0    1
 -2       168       325       447      1764      2130      2127
 -1       733    8    0    1
 -2       297       298       448      1732      2131      2132
 -1       734    8    0    1
 -2       298       299       449      1733      2133      2134
 -1       735    8    0    1
 -2       299       300       450      1734      2135      2136
 -1       736    8    0    1
 -2       300       301       451      1735      2137      2138
 -1       737    8    0    1
 -2       301       302       452      1736      2139      2140
 -1       738    8    0    1
 -2       302       303       453      1737      2141      2142
 -1       739    8    0    1
 -2       303       304       454      1738      2143      2144
 -1       740    8    0    1
 -2       304       305       455      1739      2145      2146
 -1       741    8    0    1
 -2       305       306       456      1740      2147      2148
 -1       742    8    0    1
 -2       306       307       457      1741      2149      2150
 -1       743    8    0    1
 -2       306       457       456      2150      2151      2147
 -1       744    8    0    1
 -2       307       308       458      1742      2152      2153
 -1       745    8    0    1
 -2       308       309       459      1743      2154      2155
 -1       746    8    0    1
 -2       308       459       458      2155      2156      2152
 -1       747    8    0    1
 -2       309       310       460      1744      2157      2158
 -1       748    8    0    1
 -2       310       311       461      1745      2159      2160
 -1       749    8    0    1
 -2       311       312       462      1746      2161      2162
 -1       750    8    0    1
 -2       312       313       463      1747      2163      2164
 -1       751    8    0    1
 -2       313       314       464      1748      2165      2166
 -1       752    8    0    1
 -2       314       315       465      1749      2167      2168
 -1       753    8    0    1
 -2       314       465       464      2168      2169      2165
 -1       754    8    0    1
 -2       315       316       466      1750      2170      2171
 -1       755    8    0    1
 -2       316       317       467      1751      2172      2173
 -1       756    8    0    1
 -2       316       467       466      2173      2174      2170
 -1       757    8    0    1
 -2       317       318       468      1752      2175      2176
 -1       758    8    0    1
 -2       318       319       469      1753      2177      2178
 -1       759    8    0    1
 -2       319       320       470      1754      2179      2180
 -1       760    8    0    1
 -2       320       321       471      1755      2181      2182
 -1       761    8    0    1
 -2       320       471       470      2182      2183      2179
 -1       762    8    0    1
 -2       296       297       472      1731      2184      2185
 -1       763    8    0    1
 -2       173       329       473      1775      2186      2187
 -1       764    8    0    1
 -2       173       473       172      2187      2188      1306
 -1       765    8    0    1
 -2       328       172       473      1771      2188      2189
 -1       766    8    0    1
 -2       337       182       324      1799      2190      2191
 -1       767    8    0    1
 -2       182       181       324      1333      2192      2190
 -1       768    8    0    1
 -2         7       165       322      1282      2193      1756
 -1       769    8    0    1
 -2       445       295       446      2123      2126      2194
 -1       770    8    0    1
 -2       294       445       474      2124      2195      2196
 -1       771    8    0    1
 -2       294       474       442      2196      2197      2115
 -1       772    8    0    1
 -2       441       290       291      2112      1662      2198
 -1       773    8    0    1
 -2       321       443       471      2118      2199      2181
 -1       774    8    0    1
 -2       446       296       472      2125      2185      2200
 -1       775    8    0    1
 -2       469       319       470      2177      2180      2201
 -1       776    8    0    1
 -2       467       317       468      2172      2176      2202
 -1       777    8    0    1
 -2       465       315       466      2167      2171      2203
 -1       778    8    0    1
 -2       463       313       464      2163      2166      2204
 -1       779    8    0    1
 -2       462       312       463      2161      2164      2205
 -1       780    8    0    1
 -2       461       311       462      2159      2162      2206
 -1       781    8    0    1
 -2       459       309       460      2154      2158      2207
 -1       782    8    0    1
 -2       457       307       458      2149      2153      2208
 -1       783    8    0    1
 -2       455       305       456      2145      2148      2209
 -1       784    8    0    1
 -2       454       304       455      2143      2146      2210
 -1       785    8    0    1
 -2       453       303       454      2141      2144      2211
 -1       786    8    0    1
 -2       452       302       453      2139      2142      2212
 -1       787    8    0    1
 -2       451       301       475      2137      2213      2214
 -1       788    8    0    1
 -2       301       452       475      2140      2215      2213
 -1       789    8    0    1
 -2       450       300       451      2135      2138      2216
 -1       790    8    0    1
 -2       448       298       449      2131      2134      2217
 -1       791    8    0    1
 -2       297       448       472      2132      2218      2184
 -1       792    8    0    1
 -2       449       299       450      2133      2136      2219
 -1       793    8    0    1
 -2       460       310       461      2157      2160      2220
 -1       794    8    0    1
 -2       468       318       469      2175      2178      2221
 -1       795    8    0    1
 -2       322       165       324      2193      1761      2222
 -1       796    8    0    1
 -2       326       327       476      1770      2223      2224
 -1       797    8    0    1
 -2       325       326       477      1767      2225      2226
 -1       798    8    0    1
 -2       326       476       477      2224      2227      2225
 -1       799    8    0    1
 -2       330       331       478      1781      2228      2229
 -1       800    8    0    1
 -2       328       473       457      2189      2230      2231
 -1       801    8    0    1
 -2       329       330       479      1778      2232      2233
 -1       802    8    0    1
 -2       332       333       480      1787      2234      2235
 -1       803    8    0    1
 -2       333       334       481      1790      2236      2237
 -1       804    8    0    1
 -2       333       481       480      2237      2238      2234
 -1       805    8    0    1
 -2       334       335       482      1793      2239      2240
 -1       806    8    0    1
 -2       481       334       482      2236      2240      2241
 -1       807    8    0    1
 -2       335       336       482      1798      2242      2239
 -1       808    8    0    1
 -2       338       337       483      1803      2243      2244
 -1       809    8    0    1
 -2       336       383       484      1939      2245      2246
 -1       810    8    0    1
 -2       336       484       482      2246      2247      2242
 -1       811    8    0    1
 -2       383       384       485      1942      2248      2249
 -1       812    8    0    1
 -2       383       485       484      2249      2250      2245
 -1       813    8    0    1
 -2       181       322       324      1795      2222      2192
 -1       814    8    0    1
 -2       339       338       486      1806      2251      2252
 -1       815    8    0    1
 -2       338       483       486      2244      2253      2251
 -1       816    8    0    1
 -2       340       339       487      1809      2254      2255
 -1       817    8    0    1
 -2       339       486       487      2252      2256      2254
 -1       818    8    0    1
 -2       341       340       488      1812      2257      2258
 -1       819    8    0    1
 -2       340       487       488      2255      2259      2257
 -1       820    8    0    1
 -2       342       341       489      1815      2260      2261
 -1       821    8    0    1
 -2       341       488       489      2258      2262      2260
 -1       822    8    0    1
 -2       343       342       490      1818      2263      2264
 -1       823    8    0    1
 -2       342       489       490      2261      2265      2263
 -1       824    8    0    1
 -2       344       343       491      1821      2266      2267
 -1       825    8    0    1
 -2       343       490       491      2264      2268      2266
 -1       826    8    0    1
 -2       345       344       492      1824      2269      2270
 -1       827    8    0    1
 -2       344       491       492      2267      2271      2269
 -1       828    8    0    1
 -2       346       345       493      1827      2272      2273
 -1       829    8    0    1
 -2       345       492       493      2270      2274      2272
 -1       830    8    0    1
 -2       347       346       494      1830      2275      2276
 -1       831    8    0    1
 -2       346       493       494      2273      2277      2275
 -1       832    8    0    1
 -2       348       347       495      1833      2278      2279
 -1       833    8    0    1
 -2       347       494       495      2276      2280      2278
 -1       834    8    0    1
 -2       349       348       496      1836      2281      2282
 -1       835    8    0    1
 -2       348       495       496      2279      2283      2281
 -1       836    8    0    1
 -2       350       349       497      1839      2284      2285
 -1       837    8    0    1
 -2       349       496       497      2282      2286      2284
 -1       838    8    0    1
 -2       351       350       498      1842      2287      2288
 -1       839    8    0    1
 -2       350       497       498      2285      2289      2287
 -1       840    8    0    1
 -2       352       351       499      1845      2290      2291
 -1       841    8    0    1
 -2       351       498       499      2288      2292      2290
 -1       842    8    0    1
 -2       353       352       500      1848      2293      2294
 -1       843    8    0    1
 -2       352       499       500      2291      2295      2293
 -1       844    8    0    1
 -2       354       353       501      1851      2296      2297
 -1       845    8    0    1
 -2       353       500       501      2294      2298      2296
 -1       846    8    0    1
 -2       355       354       502      1854      2299      2300
 -1       847    8    0    1
 -2       354       501       502      2297      2301      2299
 -1       848    8    0    1
 -2       356       355       503      1857      2302      2303
 -1       849    8    0    1
 -2       355       502       503      2300      2304      2302
 -1       850    8    0    1
 -2       357       356       504      1860      2305      2306
 -1       851    8    0    1
 -2       356       503       504      2303      2307      2305
 -1       852    8    0    1
 -2       358       357       505      1863      2308      2309
 -1       853    8    0    1
 -2       357       504       505      2306      2310      2308
 -1       854    8    0    1
 -2       359       358       506      1866      2311      2312
 -1       855    8    0    1
 -2       358       505       506      2309      2313      2311
 -1       856    8    0    1
 -2       360       359       507      1869      2314      2315
 -1       857    8    0    1
 -2       359       506       507      2312      2316      2314
 -1       858    8    0    1
 -2       361       360       508      1872      2317      2318
 -1       859    8    0    1
 -2       360       507       508      2315      2319      2317
 -1       860    8    0    1
 -2       362       361       509      1875      2320      2321
 -1       861    8    0    1
 -2       361       508       509      2318      2322      2320
 -1       862    8    0    1
 -2       363       362       510      1878      2323      2324
 -1       863    8    0    1
 -2       362       509       510      2321      2325      2323
 -1       864    8    0    1
 -2       364       363       511      1881      2326      2327
 -1       865    8    0    1
 -2       363       510       511      2324      2328      2326
 -1       866    8    0    1
 -2       365       364       512      1884      2329      2330
 -1       867    8    0    1
 -2       364       511       512      2327      2331      2329
 -1       868    8    0    1
 -2       366       365       513      1887      2332      2333
 -1       869    8    0    1
 -2       365       512       513      2330      2334      2332
 -1       870    8    0    1
 -2       367       366       514      1890      2335      2336
 -1       871    8    0    1
 -2       366       513       514      2333      2337      2335
 -1       872    8    0    1
 -2       368       367       515      1893      2338      2339
 -1       873    8    0    1
 -2       367       514       515      2336      2340      2338
 -1       874    8    0    1
 -2       369       368       516      1896      2341      2342
 -1       875    8    0    1
 -2       368       515       516      2339      2343      2341
 -1       876    8    0    1
 -2       370       369       517      1899      2344      2345
 -1       877    8    0    1
 -2       369       516       517      2342      2346      2344
 -1       878    8    0    1
 -2       371       370       518      1902      2347      2348
 -1       879    8    0    1
 -2       370       517       518      2345      2349      2347
 -1       880    8    0    1
 -2       372       371       519      1905      2350      2351
 -1       881    8    0    1
 -2       371       518       519      2348      2352      2350
 -1       882    8    0    1
 -2       373       372       520      1908      2353      2354
 -1       883    8    0    1
 -2       372       519       520      2351      2355      2353
 -1       884    8    0    1
 -2       374       373       521      1911      2356      2357
 -1       885    8    0    1
 -2       373       520       521      2354      2358      2356
 -1       886    8    0    1
 -2       375       374       522      1914      2359      2360
 -1       887    8    0    1
 -2       374       521       522      2357      2361      2359
 -1       888    8    0    1
 -2       376       375       523      1917      2362      2363
 -1       889    8    0    1
 -2       375       522       523      2360      2364      2362
 -1       890    8    0    1
 -2       377       376       524      1920      2365      2366
 -1       891    8    0    1
 -2       376       523       524      2363      2367      2365
 -1       892    8    0    1
 -2       378       377       525      1923      2368      2369
 -1       893    8    0    1
 -2       377       524       525      2366      2370      2368
 -1       894    8    0    1
 -2       379       378       526      1926      2371      2372
 -1       895    8    0    1
 -2       378       525       526      2369      2373      2371
 -1       896    8    0    1
 -2       380       379       527      1929      2374      2375
 -1       897    8    0    1
 -2       379       526       527      2372      2376      2374
 -1       898    8    0    1
 -2       381       380       528      1932      2377      2378
 -1       899    8    0    1
 -2       380       527       528      2375      2379      2377
 -1       900    8    0    1
 -2       385       386       529      1948      2380      2381
 -1       901    8    0    1
 -2       386       387       530      1951      2382      2383
 -1       902    8    0    1
 -2       386       530       529      2383      2384      2380
 -1       903    8    0    1
 -2       387       388       531      1954      2385      2386
 -1       904    8    0    1
 -2       387       531       530      2386      2387      2382
 -1       905    8    0    1
 -2       388       389       532      1957      2388      2389
 -1       906    8    0    1
 -2       388       532       531      2389      2390      2385
 -1       907    8    0    1
 -2       389       390       533      1960      2391      2392
 -1       908    8    0    1
 -2       389       533       532      2392      2393      2388
 -1       909    8    0    1
 -2       390       391       534      1963      2394      2395
 -1       910    8    0    1
 -2       390       534       533      2395      2396      2391
 -1       911    8    0    1
 -2       391       392       535      1966      2397      2398
 -1       912    8    0    1
 -2       391       535       534      2398      2399      2394
 -1       913    8    0    1
 -2       392       393       536      1969      2400      2401
 -1       914    8    0    1
 -2       392       536       535      2401      2402      2397
 -1       915    8    0    1
 -2       393       394       537      1972      2403      2404
 -1       916    8    0    1
 -2       393       537       536      2404      2405      2400
 -1       917    8    0    1
 -2       394       395       538      1975      2406      2407
 -1       918    8    0    1
 -2       394       538       537      2407      2408      2403
 -1       919    8    0    1
 -2       395       396       539      1978      2409      2410
 -1       920    8    0    1
 -2       395       539       538      2410      2411      2406
 -1       921    8    0    1
 -2       396       397       540      1981      2412      2413
 -1       922    8    0    1
 -2       396       540       539      2413      2414      2409
 -1       923    8    0    1
 -2       397       398       541      1984      2415      2416
 -1       924    8    0    1
 -2       397       541       540      2416      2417      2412
 -1       925    8    0    1
 -2       398       399       542      1987      2418      2419
 -1       926    8    0    1
 -2       398       542       541      2419      2420      2415
 -1       927    8    0    1
 -2       399       400       543      1990      2421      2422
 -1       928    8    0    1
 -2       399       543       542      2422      2423      2418
 -1       929    8    0    1
 -2       400       401       544      1993      2424      2425
 -1       930    8    0    1
 -2       400       544       543      2425      2426      2421
 -1       931    8    0    1
 -2       401       402       545      1996      2427      2428
 -1       932    8    0    1
 -2       401       545       544      2428      2429      2424
 -1       933    8    0    1
 -2       402       403       546      1999      2430      2431
 -1       934    8    0    1
 -2       402       546       545      2431      2432      2427
 -1       935    8    0    1
 -2       403       404       547      2002      2433      2434
 -1       936    8    0    1
 -2       403       547       546      2434      2435      2430
 -1       937    8    0    1
 -2       404       405       548      2005      2436      2437
 -1       938    8    0    1
 -2       404       548       547      2437      2438      2433
 -1       939    8    0    1
 -2       405       406       549      2008      2439      2440
 -1       940    8    0    1
 -2       405       549       548      2440      2441      2436
 -1       941    8    0    1
 -2       406       407       550      2011      2442      2443
 -1       942    8    0    1
 -2       406       550       549      2443      2444      2439
 -1       943    8    0    1
 -2       407       408       551      2014      2445      2446
 -1       944    8    0    1
 -2       407       551       550      2446      2447      2442
 -1       945    8    0    1
 -2       408       409       552      2017      2448      2449
 -1       946    8    0    1
 -2       408       552       551      2449      2450      2445
 -1       947    8    0    1
 -2       409       410       553      2020      2451      2452
 -1       948    8    0    1
 -2       409       553       552      2452      2453      2448
 -1       949    8    0    1
 -2       410       411       554      2023      2454      2455
 -1       950    8    0    1
 -2       410       554       553      2455      2456      2451
 -1       951    8    0    1
 -2       411       412       555      2026      2457      2458
 -1       952    8    0    1
 -2       411       555       554      2458      2459      2454
 -1       953    8    0    1
 -2       412       413       556      2029      2460      2461
 -1       954    8    0    1
 -2       412       556       555      2461      2462      2457
 -1       955    8    0    1
 -2       413       414       557      2032      2463      2464
 -1       956    8    0    1
 -2       413       557       556      2464      2465      2460
 -1       957    8    0    1
 -2       414       415       558      2035      2466      2467
 -1       958    8    0    1
 -2       414       558       557      2467      2468      2463
 -1       959    8    0    1
 -2       415       416       559      2038      2469      2470
 -1       960    8    0    1
 -2       415       559       558      2470      2471      2466
 -1       961    8    0    1
 -2       416       417       560      2041      2472      2473
 -1       962    8    0    1
 -2       416       560       559      2473      2474      2469
 -1       963    8    0    1
 -2       417       418       561      2044      2475      2476
 -1       964    8    0    1
 -2       417       561       560      2476      2477      2472
 -1       965    8    0    1
 -2       418       419       562      2047      2478      2479
 -1       966    8    0    1
 -2       418       562       561      2479      2480      2475
 -1       967    8    0    1
 -2       419       420       563      2050      2481      2482
 -1       968    8    0    1
 -2       419       563       562      2482      2483      2478
 -1       969    8    0    1
 -2       420       421       564      2053      2484      2485
 -1       970    8    0    1
 -2       420       564       563      2485      2486      2481
 -1       971    8    0    1
 -2       421       422       565      2056      2487      2488
 -1       972    8    0    1
 -2       421       565       564      2488      2489      2484
 -1       973    8    0    1
 -2       422       423       566      2059      2490      2491
 -1       974    8    0    1
 -2       422       566       565      2491      2492      2487
 -1       975    8    0    1
 -2       423       424       567      2062      2493      2494
 -1       976    8    0    1
 -2       423       567       566      2494      2495      2490
 -1       977    8    0    1
 -2       424       425       568      2065      2496      2497
 -1       978    8    0    1
 -2       424       568       567      2497      2498      2493
 -1       979    8    0    1
 -2       425       426       569      2068      2499      2500
 -1       980    8    0    1
 -2       425       569       568      2500      2501      2496
 -1       981    8    0    1
 -2       426       427       570      2071      2502      2503
 -1       982    8    0    1
 -2       426       570       569      2503      2504      2499
 -1       983    8    0    1
 -2       427       428       431      2074      2083      2505
 -1       984    8    0    1
 -2       432       433       571      2090      2506      2507
 -1       985    8    0    1
 -2       433       434       572      2093      2508      2509
 -1       986    8    0    1
 -2       433       572       571      2509      2510      2506
 -1       987    8    0    1
 -2       430       429       573      2080      2511      2512
 -1       988    8    0    1
 -2       429       432       574      2087      2513      2514
 -1       989    8    0    1
 -2       573       429       574      2511      2514      2515
 -1       990    8    0    1
 -2       432       571       574      2507      2516      2513
 -1       991    8    0    1
 -2       434       435       575      2096      2517      2518
 -1       992    8    0    1
 -2       434       575       572      2518      2519      2508
 -1       993    8    0    1
 -2       435       436       576      2099      2520      2521
 -1       994    8    0    1
 -2       435       576       575      2521      2522      2517
 -1       995    8    0    1
 -2       436       437       577      2102      2523      2524
 -1       996    8    0    1
 -2       436       577       576      2524      2525      2520
 -1       997    8    0    1
 -2       437       438       578      2105      2526      2527
 -1       998    8    0    1
 -2       437       578       577      2527      2528      2523
 -1       999    8    0    1
 -2       438       439       579      2108      2529      2530
 -1      1000    8    0    1
 -2       438       579       578      2530      2531      2526
 -1      1001    8    0    1
 -2       439       440       580      2111      2532      2533
 -1      1002    8    0    1
 -2       439       580       579      2533      2534      2529
 -1      1003    8    0    1
 -2       440       441       581      2114      2535      2536
 -1      1004    8    0    1
 -2       440       581       580      2536      2537      2532
 -1      1005    8    0    1
 -2       441       291       382      2198      1935      2538
 -1      1006    8    0    1
 -2       471       443       582      2199      2539      2540
 -1      1007    8    0    1
 -2       384       385       583      1945      2541      2542
 -1      1008    8    0    1
 -2       485       384       583      2248      2542      2543
 -1      1009    8    0    1
 -2       385       529       583      2381      2544      2541
 -1      1010    8    0    1
 -2       446       472       584      2200      2545      2546
 -1      1011    8    0    1
 -2       469       470       585      2201      2547      2548
 -1      1012    8    0    1
 -2       463       464       586      2204      2549      2550
 -1      1013    8    0    1
 -2       455       456       587      2209      2551      2552
 -1      1014    8    0    1
 -2       331       332       588      1784      2553      2554
 -1      1015    8    0    1
 -2       332       480       588      2235      2555      2553
 -1      1016    8    0    1
 -2       327       328       589      1773      2556      2557
 -1      1017    8    0    1
 -2       445       446       590      2194      2558      2559
 -1      1018    8    0    1
 -2       472       448       591      2218      2560      2561
 -1      1019    8    0    1
 -2       472       591       584      2561      2562      2545
 -1      1020    8    0    1
 -2       460       461       592      2220      2563      2564
 -1      1021    8    0    1
 -2       448       449       593      2217      2565      2566
 -1      1022    8    0    1
 -2       450       451       594      2216      2567      2568
 -1      1023    8    0    1
 -2       452       453       595      2212      2569      2570
 -1      1024    8    0    1
 -2       453       454       596      2211      2571      2572
 -1      1025    8    0    1
 -2       453       596       595      2572      2573      2569
 -1      1026    8    0    1
 -2       454       455       479      2210      2574      2575
 -1      1027    8    0    1
 -2       456       457       473      2151      2230      2576
 -1      1028    8    0    1
 -2       468       469       597      2221      2577      2578
 -1      1029    8    0    1
 -2       459       460       598      2207      2579      2580
 -1      1030    8    0    1
 -2       461       462       599      2206      2581      2582
 -1      1031    8    0    1
 -2       462       463       600      2205      2583      2584
 -1      1032    8    0    1
 -2       464       465       601      2169      2585      2586
 -1      1033    8    0    1
 -2       465       466       602      2203      2587      2588
 -1      1034    8    0    1
 -2       466       467       603      2174      2589      2590
 -1      1035    8    0    1
 -2       467       468       604      2202      2591      2592
 -1      1036    8    0    1
 -2       603       467       604      2589      2592      2593
 -1      1037    8    0    1
 -2       468       597       604      2578      2594      2591
 -1      1038    8    0    1
 -2       470       471       605      2183      2595      2596
 -1      1039    8    0    1
 -2       449       450       606      2219      2597      2598
 -1      1040    8    0    1
 -2       449       606       593      2598      2599      2565
 -1      1041    8    0    1
 -2       337       324       607      2191      2600      2601
 -1      1042    8    0    1
 -2       483       337       607      2243      2601      2602
 -1      1043    8    0    1
 -2       324       323       607      1762      2603      2600
 -1      1044    8    0    1
 -2       330       478       479      2229      2604      2232
 -1      1045    8    0    1
 -2       325       477       608      2226      2605      2606
 -1      1046    8    0    1
 -2       325       608       447      2606      2607      2130
 -1      1047    8    0    1
 -2       478       331       588      2228      2554      2608
 -1      1048    8    0    1
 -2       476       327       589      2223      2557      2609
 -1      1049    8    0    1
 -2       328       457       589      2231      2610      2556
 -1      1050    8    0    1
 -2       460       592       598      2564      2611      2579
 -1      1051    8    0    1
 -2       471       582       605      2540      2612      2595
 -1      1052    8    0    1
 -2       444       442       609      2122      2613      2614
 -1      1053    8    0    1
 -2       427       431       570      2505      2615      2502
 -1      1054    8    0    1
 -2       586       464       601      2549      2586      2616
 -1      1055    8    0    1
 -2       431       430       570      2084      2617      2615
 -1      1056    8    0    1
 -2       474       445       610      2195      2618      2619
 -1      1057    8    0    1
 -2       445       590       610      2559      2620      2618
 -1      1058    8    0    1
 -2       441       382       611      2538      2621      2622
 -1      1059    8    0    1
 -2       581       441       611      2535      2622      2623
 -1      1060    8    0    1
 -2       382       381       611      1936      2624      2621
 -1      1061    8    0    1
 -2       582       443       612      2539      2625      2626
 -1      1062    8    0    1
 -2       585       470       605      2547      2596      2627
 -1      1063    8    0    1
 -2       443       444       612      2121      2628      2625
 -1      1064    8    0    1
 -2       442       474       613      2197      2629      2630
 -1      1065    8    0    1
 -2       442       613       609      2630      2631      2613
 -1      1066    8    0    1
 -2       473       329       587      2186      2632      2633
 -1      1067    8    0    1
 -2       469       585       597      2548      2634      2577
 -1      1068    8    0    1
 -2       463       586       600      2550      2635      2583
 -1      1069    8    0    1
 -2       602       466       603      2587      2590      2636
 -1      1070    8    0    1
 -2       601       465       602      2585      2588      2637
 -1      1071    8    0    1
 -2       455       587       479      2552      2638      2574
 -1      1072    8    0    1
 -2       599       462       600      2581      2584      2639
 -1      1073    8    0    1
 -2       596       454       479      2571      2575      2640
 -1      1074    8    0    1
 -2       594       451       614      2567      2641      2642
 -1      1075    8    0    1
 -2       451       475       614      2214      2643      2641
 -1      1076    8    0    1
 -2       591       448       615      2560      2644      2645
 -1      1077    8    0    1
 -2       448       593       615      2566      2646      2644
 -1      1078    8    0    1
 -2       475       452       616      2215      2647      2648
 -1      1079    8    0    1
 -2       452       595       616      2570      2649      2647
 -1      1080    8    0    1
 -2       590       446       584      2558      2546      2650
 -1      1081    8    0    1
 -2       323       447       617      2129      2651      2652
 -1      1082    8    0    1
 -2       607       323       617      2603      2652      2653
 -1      1083    8    0    1
 -2       447       608       617      2607      2654      2651
 -1      1084    8    0    1
 -2       592       461       599      2563      2582      2655
 -1      1085    8    0    1
 -2       450       594       606      2568      2656      2597
 -1      1086    8    0    1
 -2       456       473       587      2576      2633      2551
 -1      1087    8    0    1
 -2       457       458       589      2208      2657      2610
 -1      1088    8    0    1
 -2       458       459       589      2156      2658      2657
 -1      1089    8    0    1
 -2       570       430       573      2617      2512      2659
 -1      1090    8    0    1
 -2       611       381       528      2624      2378      2660
 -1      1091    8    0    1
 -2       587       329       479      2632      2233      2638
 -1      1092    8    0    1
 -2       589       459       476      2658      2661      2609
 -1      1093    8    0    1
 -2       480       481       618      2238      2662      2663
 -1      1094    8    0    1
 -2       484       485       619      2250      2664      2665
 -1      1095    8    0    1
 -2       570       573       620      2659      2666      2667
 -1      1096    8    0    1
 -2       570       620       569      2667      2668      2504
 -1      1097    8    0    1
 -2       531       532       621      2390      2669      2670
 -1      1098    8    0    1
 -2       487       486       622      2256      2671      2672
 -1      1099    8    0    1
 -2       488       487       623      2259      2673      2674
 -1      1100    8    0    1
 -2       487       622       623      2672      2675      2673
 -1      1101    8    0    1
 -2       489       488       624      2262      2676      2677
 -1      1102    8    0    1
 -2       488       623       624      2674      2678      2676
 -1      1103    8    0    1
 -2       490       489       625      2265      2679      2680
 -1      1104    8    0    1
 -2       489       624       625      2677      2681      2679
 -1      1105    8    0    1
 -2       491       490       626      2268      2682      2683
 -1      1106    8    0    1
 -2       490       625       626      2680      2684      2682
 -1      1107    8    0    1
 -2       492       491       627      2271      2685      2686
 -1      1108    8    0    1
 -2       491       626       627      2683      2687      2685
 -1      1109    8    0    1
 -2       493       492       628      2274      2688      2689
 -1      1110    8    0    1
 -2       492       627       628      2686      2690      2688
 -1      1111    8    0    1
 -2       494       493       629      2277      2691      2692
 -1      1112    8    0    1
 -2       493       628       629      2689      2693      2691
 -1      1113    8    0    1
 -2       495       494       630      2280      2694      2695
 -1      1114    8    0    1
 -2       494       629       630      2692      2696      2694
 -1      1115    8    0    1
 -2       496       495       631      2283      2697      2698
 -1      1116    8    0    1
 -2       495       630       631      2695      2699      2697
 -1      1117    8    0    1
 -2       497       496       632      2286      2700      2701
 -1      1118    8    0    1
 -2       496       631       632      2698      2702      2700
 -1      1119    8    0    1
 -2       498       497       633      2289      2703      2704
 -1      1120    8    0    1
 -2       497       632       633      2701      2705      2703
 -1      1121    8    0    1
 -2       499       498       634      2292      2706      2707
 -1      1122    8    0    1
 -2       498       633       634      2704      2708      2706
 -1      1123    8    0    1
 -2       500       499       635      2295      2709      2710
 -1      1124    8    0    1
 -2       499       634       635      2707      2711      2709
 -1      1125    8    0    1
 -2       501       500       636      2298      2712      2713
 -1      1126    8    0    1
 -2       500       635       636      2710      2714      2712
 -1      1127    8    0    1
 -2       502       501       637      2301      2715      2716
 -1      1128    8    0    1
 -2       501       636       637      2713      2717      2715
 -1      1129    8    0    1
 -2       503       502       638      2304      2718      2719
 -1      1130    8    0    1
 -2       502       637       638      2716      2720      2718
 -1      1131    8    0    1
 -2       504       503       639      2307      2721      2722
 -1      1132    8    0    1
 -2       503       638       639      2719      2723      2721
 -1      1133    8    0    1
 -2       505       504       640      2310      2724      2725
 -1      1134    8    0    1
 -2       504       639       640      2722      2726      2724
 -1      1135    8    0    1
 -2       506       505       641      2313      2727      2728
 -1      1136    8    0    1
 -2       505       640       641      2725      2729      2727
 -1      1137    8    0    1
 -2       507       506       642      2316      2730      2731
 -1      1138    8    0    1
 -2       506       641       642      2728      2732      2730
 -1      1139    8    0    1
 -2       508       507       643      2319      2733      2734
 -1      1140    8    0    1
 -2       507       642       643      2731      2735      2733
 -1      1141    8    0    1
 -2       509       508       644      2322      2736      2737
 -1      1142    8    0    1
 -2       508       643       644      2734      2738      2736
 -1      1143    8    0    1
 -2       510       509       645      2325      2739      2740
 -1      1144    8    0    1
 -2       509       644       645      2737      2741      2739
 -1      1145    8    0    1
 -2       511       510       646      2328      2742      2743
 -1      1146    8    0    1
 -2       510       645       646      2740      2744      2742
 -1      1147    8    0    1
 -2       512       511       647      2331      2745      2746
 -1      1148    8    0    1
 -2       511       646       647      2743      2747      2745
 -1      1149    8    0    1
 -2       513       512       648      2334      2748      2749
 -1      1150    8    0    1
 -2       512       647       648      2746      2750      2748
 -1      1151    8    0    1
 -2       514       513       649      2337      2751      2752
 -1      1152    8    0    1
 -2       513       648       649      2749      2753      2751
 -1      1153    8    0    1
 -2       515       514       650      2340      2754      2755
 -1      1154    8    0    1
 -2       514       649       650      2752      2756      2754
 -1      1155    8    0    1
 -2       516       515       651      2343      2757      2758
 -1      1156    8    0    1
 -2       515       650       651      2755      2759      2757
 -1      1157    8    0    1
 -2       517       516       652      2346      2760      2761
 -1      1158    8    0    1
 -2       516       651       652      2758      2762      2760
 -1      1159    8    0    1
 -2       518       517       653      2349      2763      2764
 -1      1160    8    0    1
 -2       517       652       653      2761      2765      2763
 -1      1161    8    0    1
 -2       519       518       654      2352      2766      2767
 -1      1162    8    0    1
 -2       518       653       654      2764      2768      2766
 -1      1163    8    0    1
 -2       520       519       655      2355      2769      2770
 -1      1164    8    0    1
 -2       519       654       655      2767      2771      2769
 -1      1165    8    0    1
 -2       521       520       656      2358      2772      2773
 -1      1166    8    0    1
 -2       520       655       656      2770      2774      2772
 -1      1167    8    0    1
 -2       522       521       657      2361      2775      2776
 -1      1168    8    0    1
 -2       521       656       657      2773      2777      2775
 -1      1169    8    0    1
 -2       523       522       658      2364      2778      2779
 -1      1170    8    0    1
 -2       522       657       658      2776      2780      2778
 -1      1171    8    0    1
 -2       524       523       659      2367      2781      2782
 -1      1172    8    0    1
 -2       523       658       659      2779      2783      2781
 -1      1173    8    0    1
 -2       525       524       660      2370      2784      2785
 -1      1174    8    0    1
 -2       524       659       660      2782      2786      2784
 -1      1175    8    0    1
 -2       526       525       661      2373      2787      2788
 -1      1176    8    0    1
 -2       525       660       661      2785      2789      2787
 -1      1177    8    0    1
 -2       527       526       662      2376      2790      2791
 -1      1178    8    0    1
 -2       526       661       662      2788      2792      2790
 -1      1179    8    0    1
 -2       528       527       663      2379      2793      2794
 -1      1180    8    0    1
 -2       527       662       663      2791      2795      2793
 -1      1181    8    0    1
 -2       530       531       664      2387      2796      2797
 -1      1182    8    0    1
 -2       531       621       664      2670      2798      2796
 -1      1183    8    0    1
 -2       582       612       665      2626      2799      2800
 -1      1184    8    0    1
 -2       529       530       666      2384      2801      2802
 -1      1185    8    0    1
 -2       530       664       666      2797      2803      2801
 -1      1186    8    0    1
 -2       532       533       667      2393      2804      2805
 -1      1187    8    0    1
 -2       532       667       621      2805      2806      2669
 -1      1188    8    0    1
 -2       533       534       668      2396      2807      2808
 -1      1189    8    0    1
 -2       533       668       667      2808      2809      2804
 -1      1190    8    0    1
 -2       534       535       669      2399      2810      2811
 -1      1191    8    0    1
 -2       534       669       668      2811      2812      2807
 -1      1192    8    0    1
 -2       535       536       670      2402      2813      2814
 -1      1193    8    0    1
 -2       535       670       669      2814      2815      2810
 -1      1194    8    0    1
 -2       536       537       671      2405      2816      2817
 -1      1195    8    0    1
 -2       536       671       670      2817      2818      2813
 -1      1196    8    0    1
 -2       537       538       672      2408      2819      2820
 -1      1197    8    0    1
 -2       537       672       671      2820      2821      2816
 -1      1198    8    0    1
 -2       538       539       673      2411      2822      2823
 -1      1199    8    0    1
 -2       538       673       672      2823      2824      2819
 -1      1200    8    0    1
 -2       539       540       674      2414      2825      2826
 -1      1201    8    0    1
 -2       539       674       673      2826      2827      2822
 -1      1202    8    0    1
 -2       540       541       675      2417      2828      2829
 -1      1203    8    0    1
 -2       540       675       674      2829      2830      2825
 -1      1204    8    0    1
 -2       541       542       676      2420      2831      2832
 -1      1205    8    0    1
 -2       541       676       675      2832      2833      2828
 -1      1206    8    0    1
 -2       542       543       677      2423      2834      2835
 -1      1207    8    0    1
 -2       542       677       676      2835      2836      2831
 -1      1208    8    0    1
 -2       543       544       678      2426      2837      2838
 -1      1209    8    0    1
 -2       543       678       677      2838      2839      2834
 -1      1210    8    0    1
 -2       544       545       679      2429      2840      2841
 -1      1211    8    0    1
 -2       544       679       678      2841      2842      2837
 -1      1212    8    0    1
 -2       545       546       680      2432      2843      2844
 -1      1213    8    0    1
 -2       545       680       679      2844      2845      2840
 -1      1214    8    0    1
 -2       546       547       681      2435      2846      2847
 -1      1215    8    0    1
 -2       546       681       680      2847      2848      2843
 -1      1216    8    0    1
 -2       547       548       682      2438      2849      2850
 -1      1217    8    0    1
 -2       547       682       681      2850      2851      2846
 -1      1218    8    0    1
 -2       548       549       683      2441      2852      2853
 -1      1219    8    0    1
 -2       548       683       682      2853      2854      2849
 -1      1220    8    0    1
 -2       549       550       684      2444      2855      2856
 -1      1221    8    0    1
 -2       549       684       683      2856      2857      2852
 -1      1222    8    0    1
 -2       550       551       685      2447      2858      2859
 -1      1223    8    0    1
 -2       550       685       684      2859      2860      2855
 -1      1224    8    0    1
 -2       551       552       686      2450      2861      2862
 -1      1225    8    0    1
 -2       551       686       685      2862      2863      2858
 -1      1226    8    0    1
 -2       552       553       687      2453      2864      2865
 -1      1227    8    0    1
 -2       552       687       686      2865      2866      2861
 -1      1228    8    0    1
 -2       553       554       688      2456      2867      2868
 -1      1229    8    0    1
 -2       553       688       687      2868      2869      2864
 -1      1230    8    0    1
 -2       554       555       689      2459      2870      2871
 -1      1231    8    0    1
 -2       554       689       688      2871      2872      2867
 -1      1232    8    0    1
 -2       555       556       690      2462      2873      2874
 -1      1233    8    0    1
 -2       555       690       689      2874      2875      2870
 -1      1234    8    0    1
 -2       556       557       691      2465      2876      2877
 -1      1235    8    0    1
 -2       556       691       690      2877      2878      2873
 -1      1236    8    0    1
 -2       557       558       692      2468      2879      2880
 -1      1237    8    0    1
 -2       557       692       691      2880      2881      2876
 -1      1238    8    0    1
 -2       558       559       693      2471      2882      2883
 -1      1239    8    0    1
 -2       558       693       692      2883      2884      2879
 -1      1240    8    0    1
 -2       559       560       694      2474      2885      2886
 -1      1241    8    0    1
 -2       559       694       693      2886      2887      2882
 -1      1242    8    0    1
 -2       560       561       695      2477      2888      2889
 -1      1243    8    0    1
 -2       560       695       694      2889      2890      2885
 -1      1244    8    0    1
 -2       561       562       696      2480      2891      2892
 -1      1245    8    0    1
 -2       561       696       695      2892      2893      2888
 -1      1246    8    0    1
 -2       562       563       697      2483      2894      2895
 -1      1247    8    0    1
 -2       562       697       696      2895      2896      2891
 -1      1248    8    0    1
 -2       563       564       698      2486      2897      2898
 -1      1249    8    0    1
 -2       563       698       697      2898      2899      2894
 -1      1250    8    0    1
 -2       564       565       699      2489      2900      2901
 -1      1251    8    0    1
 -2       564       699       698      2901      2902      2897
 -1      1252    8    0    1
 -2       565       566       700      2492      2903      2904
 -1      1253    8    0    1
 -2       565       700       699      2904      2905      2900
 -1      1254    8    0    1
 -2       566       567       701      2495      2906      2907
 -1      1255    8    0    1
 -2       566       701       700      2907      2908      2903
 -1      1256    8    0    1
 -2       567       568       702      2498      2909      2910
 -1      1257    8    0    1
 -2       567       702       701      2910      2911      2906
 -1      1258    8    0    1
 -2       568       569       703      2501      2912      2913
 -1      1259    8    0    1
 -2       702       568       703      2909      2913      2914
 -1      1260    8    0    1
 -2       569       620       703      2668      2915      2912
 -1      1261    8    0    1
 -2       586       601       704      2616      2916      2917
 -1      1262    8    0    1
 -2       575       576       705      2522      2918      2919
 -1      1263    8    0    1
 -2       611       528       706      2660      2920      2921
 -1      1264    8    0    1
 -2       581       611       706      2623      2921      2922
 -1      1265    8    0    1
 -2       528       663       706      2794      2923      2920
 -1      1266    8    0    1
 -2       571       572       707      2510      2924      2925
 -1      1267    8    0    1
 -2       576       577       708      2525      2926      2927
 -1      1268    8    0    1
 -2       576       708       705      2927      2928      2918
 -1      1269    8    0    1
 -2       572       575       709      2519      2929      2930
 -1      1270    8    0    1
 -2       707       572       709      2924      2930      2931
 -1      1271    8    0    1
 -2       575       705       709      2919      2932      2929
 -1      1272    8    0    1
 -2       577       578       710      2528      2933      2934
 -1      1273    8    0    1
 -2       577       710       708      2934      2935      2926
 -1      1274    8    0    1
 -2       578       579       711      2531      2936      2937
 -1      1275    8    0    1
 -2       578       711       710      2937      2938      2933
 -1      1276    8    0    1
 -2       579       580       712      2534      2939      2940
 -1      1277    8    0    1
 -2       579       712       711      2940      2941      2936
 -1      1278    8    0    1
 -2       580       581       706      2537      2922      2942
 -1      1279    8    0    1
 -2       585       605       713      2627      2943      2944
 -1      1280    8    0    1
 -2       597       585       714      2634      2945      2946
 -1      1281    8    0    1
 -2       585       713       714      2944      2947      2945
 -1      1282    8    0    1
 -2       444       609       612      2614      2948      2628
 -1      1283    8    0    1
 -2       602       603       715      2636      2949      2950
 -1      1284    8    0    1
 -2       605       582       716      2612      2951      2952
 -1      1285    8    0    1
 -2       582       665       716      2800      2953      2951
 -1      1286    8    0    1
 -2       483       607       717      2602      2954      2955
 -1      1287    8    0    1
 -2       607       617       717      2653      2956      2954
 -1      1288    8    0    1
 -2       479       478       596      2604      2957      2640
 -1      1289    8    0    1
 -2       584       591       718      2562      2958      2959
 -1      1290    8    0    1
 -2       592       599       719      2655      2960      2961
 -1      1291    8    0    1
 -2       590       584       720      2650      2962      2963
 -1      1292    8    0    1
 -2       595       596       721      2573      2964      2965
 -1      1293    8    0    1
 -2       616       595       721      2649      2965      2966
 -1      1294    8    0    1
 -2       596       478       721      2957      2967      2964
 -1      1295    8    0    1
 -2       599       600       722      2639      2968      2969
 -1      1296    8    0    1
 -2       599       722       719      2969      2970      2960
 -1      1297    8    0    1
 -2       600       586       723      2635      2971      2972
 -1      1298    8    0    1
 -2       459       598       476      2580      2973      2661
 -1      1299    8    0    1
 -2       606       594       724      2656      2974      2975
 -1      1300    8    0    1
 -2       601       602       725      2637      2976      2977
 -1      1301    8    0    1
 -2       486       483       726      2253      2978      2979
 -1      1302    8    0    1
 -2       622       486       726      2671      2979      2980
 -1      1303    8    0    1
 -2       483       717       726      2955      2981      2978
 -1      1304    8    0    1
 -2       593       606       727      2599      2982      2983
 -1      1305    8    0    1
 -2       612       609       728      2948      2984      2985
 -1      1306    8    0    1
 -2       608       477       719      2605      2986      2987
 -1      1307    8    0    1
 -2       484       619       618      2665      2988      2989
 -1      1308    8    0    1
 -2       586       704       723      2917      2990      2971
 -1      1309    8    0    1
 -2       574       571       729      2516      2991      2992
 -1      1310    8    0    1
 -2       571       707       729      2925      2993      2991
 -1      1311    8    0    1
 -2       482       484       618      2247      2989      2994
 -1      1312    8    0    1
 -2       478       588       721      2608      2995      2967
 -1      1313    8    0    1
 -2       727       606       724      2982      2975      2996
 -1      1314    8    0    1
 -2       665       612       730      2799      2997      2998
 -1      1315    8    0    1
 -2       612       728       730      2985      2999      2997
 -1      1316    8    0    1
 -2       529       666       731      2802      3000      3001
 -1      1317    8    0    1
 -2       474       610       732      2619      3002      3003
 -1      1318    8    0    1
 -2       474       732       613      3003      3004      2629
 -1      1319    8    0    1
 -2       704       601       725      2916      2977      3005
 -1      1320    8    0    1
 -2       593       727       615      2983      3006      2646
 -1      1321    8    0    1
 -2       573       574       620      2515      3007      2666
 -1      1322    8    0    1
 -2       720       584       718      2962      2959      3008
 -1      1323    8    0    1
 -2       610       590       733      2620      3009      3010
 -1      1324    8    0    1
 -2       590       720       733      2963      3011      3009
 -1      1325    8    0    1
 -2       580       706       734      2942      3012      3013
 -1      1326    8    0    1
 -2       712       580       734      2939      3013      3014
 -1      1327    8    0    1
 -2       706       663       734      2923      3015      3012
 -1      1328    8    0    1
 -2       713       605       716      2943      2952      3016
 -1      1329    8    0    1
 -2       609       613       735      2631      3017      3018
 -1      1330    8    0    1
 -2       609       735       728      3018      3019      2984
 -1      1331    8    0    1
 -2       583       529       731      2544      3001      3020
 -1      1332    8    0    1
 -2       597       714       736      2946      3021      3022
 -1      1333    8    0    1
 -2       485       583       737      2543      3023      3024
 -1      1334    8    0    1
 -2       619       485       737      2664      3024      3025
 -1      1335    8    0    1
 -2       583       731       737      3020      3026      3023
 -1      1336    8    0    1
 -2       604       597       736      2594      3022      3027
 -1      1337    8    0    1
 -2       715       603       738      2949      3028      3029
 -1      1338    8    0    1
 -2       614       475       739      2643      3030      3031
 -1      1339    8    0    1
 -2       475       616       739      2648      3032      3030
 -1      1340    8    0    1
 -2       594       614       724      2642      3033      2974
 -1      1341    8    0    1
 -2       480       618       739      2663      3034      3035
 -1      1342    8    0    1
 -2       600       723       722      2972      3036      2968
 -1      1343    8    0    1
 -2       588       480       739      2555      3035      3037
 -1      1344    8    0    1
 -2       718       591       615      2958      2645      3038
 -1      1345    8    0    1
 -2       592       719       477      2961      2986      3039
 -1      1346    8    0    1
 -2       721       588       616      2995      3040      2966
 -1      1347    8    0    1
 -2       738       603       604      3028      2593      3041
 -1      1348    8    0    1
 -2       592       477       598      3039      3042      2611
 -1      1349    8    0    1
 -2       725       602       715      2976      2950      3043
 -1      1350    8    0    1
 -2       723       704       622      2990      3044      3045
 -1      1351    8    0    1
 -2       667       668       740      2809      3046      3047
 -1      1352    8    0    1
 -2       624       623       725      2678      3048      3049
 -1      1353    8    0    1
 -2       625       624       715      2681      3050      3051
 -1      1354    8    0    1
 -2       627       626       741      2687      3052      3053
 -1      1355    8    0    1
 -2       628       627       742      2690      3054      3055
 -1      1356    8    0    1
 -2       627       741       742      3053      3056      3054
 -1      1357    8    0    1
 -2       629       628       743      2693      3057      3058
 -1      1358    8    0    1
 -2       628       742       743      3055      3059      3057
 -1      1359    8    0    1
 -2       630       629       744      2696      3060      3061
 -1      1360    8    0    1
 -2       629       743       744      3058      3062      3060
 -1      1361    8    0    1
 -2       631       630       745      2699      3063      3064
 -1      1362    8    0    1
 -2       630       744       745      3061      3065      3063
 -1      1363    8    0    1
 -2       632       631       746      2702      3066      3067
 -1      1364    8    0    1
 -2       631       745       746      3064      3068      3066
 -1      1365    8    0    1
 -2       633       632       747      2705      3069      3070
 -1      1366    8    0    1
 -2       632       746       747      3067      3071      3069
 -1      1367    8    0    1
 -2       634       633       748      2708      3072      3073
 -1      1368    8    0    1
 -2       633       747       748      3070      3074      3072
 -1      1369    8    0    1
 -2       635       634       749      2711      3075      3076
 -1      1370    8    0    1
 -2       634       748       749      3073      3077      3075
 -1      1371    8    0    1
 -2       636       635       750      2714      3078      3079
 -1      1372    8    0    1
 -2       635       749       750      3076      3080      3078
 -1      1373    8    0    1
 -2       637       636       751      2717      3081      3082
 -1      1374    8    0    1
 -2       636       750       751      3079      3083      3081
 -1      1375    8    0    1
 -2       638       637       752      2720      3084      3085
 -1      1376    8    0    1
 -2       637       751       752      3082      3086      3084
 -1      1377    8    0    1
 -2       639       638       753      2723      3087      3088
 -1      1378    8    0    1
 -2       638       752       753      3085      3089      3087
 -1      1379    8    0    1
 -2       640       639       754      2726      3090      3091
 -1      1380    8    0    1
 -2       639       753       754      3088      3092      3090
 -1      1381    8    0    1
 -2       641       640       755      2729      3093      3094
 -1      1382    8    0    1
 -2       640       754       755      3091      3095      3093
 -1      1383    8    0    1
 -2       642       641       756      2732      3096      3097
 -1      1384    8    0    1
 -2       641       755       756      3094      3098      3096
 -1      1385    8    0    1
 -2       643       642       757      2735      3099      3100
 -1      1386    8    0    1
 -2       642       756       757      3097      3101      3099
 -1      1387    8    0    1
 -2       644       643       758      2738      3102      3103
 -1      1388    8    0    1
 -2       643       757       758      3100      3104      3102
 -1      1389    8    0    1
 -2       645       644       759      2741      3105      3106
 -1      1390    8    0    1
 -2       644       758       759      3103      3107      3105
 -1      1391    8    0    1
 -2       646       645       760      2744      3108      3109
 -1      1392    8    0    1
 -2       645       759       760      3106      3110      3108
 -1      1393    8    0    1
 -2       647       646       761      2747      3111      3112
 -1      1394    8    0    1
 -2       646       760       761      3109      3113      3111
 -1      1395    8    0    1
 -2       648       647       762      2750      3114      3115
 -1      1396    8    0    1
 -2       647       761       762      3112      3116      3114
 -1      1397    8    0    1
 -2       649       648       763      2753      3117      3118
 -1      1398    8    0    1
 -2       648       762       763      3115      3119      3117
 -1      1399    8    0    1
 -2       650       649       764      2756      3120      3121
 -1      1400    8    0    1
 -2       649       763       764      3118      3122      3120
 -1      1401    8    0    1
 -2       651       650       765      2759      3123      3124
 -1      1402    8    0    1
 -2       650       764       765      3121      3125      3123
 -1      1403    8    0    1
 -2       652       651       766      2762      3126      3127
 -1      1404    8    0    1
 -2       651       765       766      3124      3128      3126
 -1      1405    8    0    1
 -2       653       652       767      2765      3129      3130
 -1      1406    8    0    1
 -2       652       766       767      3127      3131      3129
 -1      1407    8    0    1
 -2       654       653       768      2768      3132      3133
 -1      1408    8    0    1
 -2       653       767       768      3130      3134      3132
 -1      1409    8    0    1
 -2       655       654       769      2771      3135      3136
 -1      1410    8    0    1
 -2       654       768       769      3133      3137      3135
 -1      1411    8    0    1
 -2       656       655       770      2774      3138      3139
 -1      1412    8    0    1
 -2       655       769       770      3136      3140      3138
 -1      1413    8    0    1
 -2       657       656       771      2777      3141      3142
 -1      1414    8    0    1
 -2       656       770       771      3139      3143      3141
 -1      1415    8    0    1
 -2       658       657       772      2780      3144      3145
 -1      1416    8    0    1
 -2       657       771       772      3142      3146      3144
 -1      1417    8    0    1
 -2       659       658       773      2783      3147      3148
 -1      1418    8    0    1
 -2       658       772       773      3145      3149      3147
 -1      1419    8    0    1
 -2       660       659       774      2786      3150      3151
 -1      1420    8    0    1
 -2       659       773       774      3148      3152      3150
 -1      1421    8    0    1
 -2       661       660       775      2789      3153      3154
 -1      1422    8    0    1
 -2       660       774       775      3151      3155      3153
 -1      1423    8    0    1
 -2       662       661       776      2792      3156      3157
 -1      1424    8    0    1
 -2       661       775       776      3154      3158      3156
 -1      1425    8    0    1
 -2       663       662       777      2795      3159      3160
 -1      1426    8    0    1
 -2       734       663       777      3015      3160      3161
 -1      1427    8    0    1
 -2       662       776       777      3157      3162      3159
 -1      1428    8    0    1
 -2       664       621       718      2798      3163      3164
 -1      1429    8    0    1
 -2       731       666       727      3000      3165      3166
 -1      1430    8    0    1
 -2       668       669       778      2812      3167      3168
 -1      1431    8    0    1
 -2       668       778       740      3168      3169      3046
 -1      1432    8    0    1
 -2       669       670       779      2815      3170      3171
 -1      1433    8    0    1
 -2       669       779       778      3171      3172      3167
 -1      1434    8    0    1
 -2       670       671       780      2818      3173      3174
 -1      1435    8    0    1
 -2       670       780       779      3174      3175      3170
 -1      1436    8    0    1
 -2       671       672       781      2821      3176      3177
 -1      1437    8    0    1
 -2       671       781       780      3177      3178      3173
 -1      1438    8    0    1
 -2       672       673       782      2824      3179      3180
 -1      1439    8    0    1
 -2       672       782       781      3180      3181      3176
 -1      1440    8    0    1
 -2       673       674       783      2827      3182      3183
 -1      1441    8    0    1
 -2       673       783       782      3183      3184      3179
 -1      1442    8    0    1
 -2       674       675       784      2830      3185      3186
 -1      1443    8    0    1
 -2       674       784       783      3186      3187      3182
 -1      1444    8    0    1
 -2       675       676       785      2833      3188      3189
 -1      1445    8    0    1
 -2       675       785       784      3189      3190      3185
 -1      1446    8    0    1
 -2       676       677       786      2836      3191      3192
 -1      1447    8    0    1
 -2       676       786       785      3192      3193      3188
 -1      1448    8    0    1
 -2       677       678       787      2839      3194      3195
 -1      1449    8    0    1
 -2       677       787       786      3195      3196      3191
 -1      1450    8    0    1
 -2       678       679       788      2842      3197      3198
 -1      1451    8    0    1
 -2       678       788       787      3198      3199      3194
 -1      1452    8    0    1
 -2       679       680       789      2845      3200      3201
 -1      1453    8    0    1
 -2       679       789       788      3201      3202      3197
 -1      1454    8    0    1
 -2       680       681       790      2848      3203      3204
 -1      1455    8    0    1
 -2       680       790       789      3204      3205      3200
 -1      1456    8    0    1
 -2       681       682       791      2851      3206      3207
 -1      1457    8    0    1
 -2       681       791       790      3207      3208      3203
 -1      1458    8    0    1
 -2       682       683       792      2854      3209      3210
 -1      1459    8    0    1
 -2       682       792       791      3210      3211      3206
 -1      1460    8    0    1
 -2       683       684       793      2857      3212      3213
 -1      1461    8    0    1
 -2       683       793       792      3213      3214      3209
 -1      1462    8    0    1
 -2       684       685       794      2860      3215      3216
 -1      1463    8    0    1
 -2       684       794       793      3216      3217      3212
 -1      1464    8    0    1
 -2       685       686       795      2863      3218      3219
 -1      1465    8    0    1
 -2       685       795       794      3219      3220      3215
 -1      1466    8    0    1
 -2       686       687       796      2866      3221      3222
 -1      1467    8    0    1
 -2       686       796       795      3222      3223      3218
 -1      1468    8    0    1
 -2       687       688       797      2869      3224      3225
 -1      1469    8    0    1
 -2       687       797       796      3225      3226      3221
 -1      1470    8    0    1
 -2       688       689       798      2872      3227      3228
 -1      1471    8    0    1
 -2       688       798       797      3228      3229      3224
 -1      1472    8    0    1
 -2       689       690       799      2875      3230      3231
 -1      1473    8    0    1
 -2       689       799       798      3231      3232      3227
 -1      1474    8    0    1
 -2       690       691       800      2878      3233      3234
 -1      1475    8    0    1
 -2       690       800       799      3234      3235      3230
 -1      1476    8    0    1
 -2       691       692       801      2881      3236      3237
 -1      1477    8    0    1
 -2       691       801       800      3237      3238      3233
 -1      1478    8    0    1
 -2       692       693       802      2884      3239      3240
 -1      1479    8    0    1
 -2       692       802       801      3240      3241      3236
 -1      1480    8    0    1
 -2       693       694       803      2887      3242      3243
 -1      1481    8    0    1
 -2       693       803       802      3243      3244      3239
 -1      1482    8    0    1
 -2       694       695       804      2890      3245      3246
 -1      1483    8    0    1
 -2       694       804       803      3246      3247      3242
 -1      1484    8    0    1
 -2       695       696       805      2893      3248      3249
 -1      1485    8    0    1
 -2       695       805       804      3249      3250      3245
 -1      1486    8    0    1
 -2       696       697       806      2896      3251      3252
 -1      1487    8    0    1
 -2       696       806       805      3252      3253      3248
 -1      1488    8    0    1
 -2       697       698       807      2899      3254      3255
 -1      1489    8    0    1
 -2       697       807       806      3255      3256      3251
 -1      1490    8    0    1
 -2       698       699       808      2902      3257      3258
 -1      1491    8    0    1
 -2       698       808       807      3258      3259      3254
 -1      1492    8    0    1
 -2       699       700       809      2905      3260      3261
 -1      1493    8    0    1
 -2       699       809       808      3261      3262      3257
 -1      1494    8    0    1
 -2       700       701       810      2908      3263      3264
 -1      1495    8    0    1
 -2       700       810       809      3264      3265      3260
 -1      1496    8    0    1
 -2       701       702       811      2911      3266      3267
 -1      1497    8    0    1
 -2       701       811       810      3267      3268      3263
 -1      1498    8    0    1
 -2       708       710       812      2935      3269      3270
 -1      1499    8    0    1
 -2       608       719       813      2987      3271      3272
 -1      1500    8    0    1
 -2       617       608       813      2654      3272      3273
 -1      1501    8    0    1
 -2       719       722       813      2970      3274      3271
 -1      1502    8    0    1
 -2       710       711       814      2938      3275      3276
 -1      1503    8    0    1
 -2       710       814       812      3276      3277      3269
 -1      1504    8    0    1
 -2       705       708       815      2928      3278      3279
 -1      1505    8    0    1
 -2       708       812       815      3270      3280      3278
 -1      1506    8    0    1
 -2       718       621       816      3163      3281      3282
 -1      1507    8    0    1
 -2       720       718       816      3008      3282      3283
 -1      1508    8    0    1
 -2       621       667       816      2806      3284      3281
 -1      1509    8    0    1
 -2       623       622       704      2675      3044      3285
 -1      1510    8    0    1
 -2       714       713       817      2947      3286      3287
 -1      1511    8    0    1
 -2       736       714       818      3021      3288      3289
 -1      1512    8    0    1
 -2       714       817       818      3287      3290      3288
 -1      1513    8    0    1
 -2       704       725       623      3005      3048      3285
 -1      1514    8    0    1
 -2       716       665       819      2953      3291      3292
 -1      1515    8    0    1
 -2       717       617       813      2956      3273      3293
 -1      1516    8    0    1
 -2       739       618       820      3034      3294      3295
 -1      1517    8    0    1
 -2       614       739       820      3031      3295      3296
 -1      1518    8    0    1
 -2       618       619       820      2988      3297      3294
 -1      1519    8    0    1
 -2       620       574       729      3007      2992      3298
 -1      1520    8    0    1
 -2       588       739       616      3037      3032      3040
 -1      1521    8    0    1
 -2       725       715       624      3043      3050      3049
 -1      1522    8    0    1
 -2       711       712       821      2941      3299      3300
 -1      1523    8    0    1
 -2       711       821       814      3300      3301      3275
 -1      1524    8    0    1
 -2       481       482       618      2241      2994      2662
 -1      1525    8    0    1
 -2       724       614       820      3033      3296      3302
 -1      1526    8    0    1
 -2       738       604       736      3041      3027      3303
 -1      1527    8    0    1
 -2       476       598       477      2973      3042      2227
 -1      1528    8    0    1
 -2       727       724       731      2996      3304      3166
 -1      1529    8    0    1
 -2       713       716       822      3016      3305      3306
 -1      1530    8    0    1
 -2       713       822       817      3306      3307      3286
 -1      1531    8    0    1
 -2       723       622       726      3045      2980      3308
 -1      1532    8    0    1
 -2       718       615       664      3038      3309      3164
 -1      1533    8    0    1
 -2       615       727       666      3006      3165      3310
 -1      1534    8    0    1
 -2       666       664       615      2803      3309      3310
 -1      1535    8    0    1
 -2       731       724       737      3304      3311      3026
 -1      1536    8    0    1
 -2       625       715       823      3051      3312      3313
 -1      1537    8    0    1
 -2       626       625       823      2684      3313      3314
 -1      1538    8    0    1
 -2       715       738       823      3029      3315      3312
 -1      1539    8    0    1
 -2       738       736       824      3303      3316      3317
 -1      1540    8    0    1
 -2       823       738       824      3315      3317      3318
 -1      1541    8    0    1
 -2       736       818       824      3289      3319      3316
 -1      1542    8    0    1
 -2       724       820       737      3302      3320      3311
 -1      1543    8    0    1
 -2       667       740       816      3047      3321      3284
 -1      1544    8    0    1
 -2       729       707       825      2993      3322      3323
 -1      1545    8    0    1
 -2       732       610       826      3002      3324      3325
 -1      1546    8    0    1
 -2       610       733       826      3010      3326      3324
 -1      1547    8    0    1
 -2       730       728       827      2999      3327      3328
 -1      1548    8    0    1
 -2       728       735       827      3019      3329      3327
 -1      1549    8    0    1
 -2       716       819       822      3292      3330      3305
 -1      1550    8    0    1
 -2       613       732       735      3004      3331      3017
 -1      1551    8    0    1
 -2       720       816       733      3283      3332      3011
 -1      1552    8    0    1
 -2       811       702       828      3266      3333      3334
 -1      1553    8    0    1
 -2       702       703       828      2914      3335      3333
 -1      1554    8    0    1
 -2       705       815       829      3279      3336      3337
 -1      1555    8    0    1
 -2       705       829       709      3337      3338      2932
 -1      1556    8    0    1
 -2       707       709       830      2931      3339      3340
 -1      1557    8    0    1
 -2       825       707       830      3322      3340      3341
 -1      1558    8    0    1
 -2       709       829       830      3338      3342      3339
 -1      1559    8    0    1
 -2       723       726       722      3308      3343      3036
 -1      1560    8    0    1
 -2       626       823       741      3314      3344      3052
 -1      1561    8    0    1
 -2       619       737       820      3025      3320      3297
 -1      1562    8    0    1
 -2       819       665       730      3291      2998      3345
 -1      1563    8    0    1
 -2       712       734       831      3014      3346      3347
 -1      1564    8    0    1
 -2       821       712       831      3299      3347      3348
 -1      1565    8    0    1
 -2       734       777       831      3161      3349      3346
 -1      1566    8    0    1
 -2       620       729       832      3298      3350      3351
 -1      1567    8    0    1
 -2       703       620       832      2915      3351      3352
 -1      1568    8    0    1
 -2       729       825       832      3323      3353      3350
 -1      1569    8    0    1
 -2       814       821       833      3301      3354      3355
 -1      1570    8    0    1
 -2       726       717       722      2981      3356      3343
 -1      1571    8    0    1
 -2       816       740       733      3321      3357      3332
 -1      1572    8    0    1
 -2       743       742       834      3059      3358      3359
 -1      1573    8    0    1
 -2       744       743       835      3062      3360      3361
 -1      1574    8    0    1
 -2       743       834       835      3359      3362      3360
 -1      1575    8    0    1
 -2       745       744       836      3065      3363      3364
 -1      1576    8    0    1
 -2       744       835       836      3361      3365      3363
 -1      1577    8    0    1
 -2       746       745       837      3068      3366      3367
 -1      1578    8    0    1
 -2       745       836       837      3364      3368      3366
 -1      1579    8    0    1
 -2       747       746       838      3071      3369      3370
 -1      1580    8    0    1
 -2       746       837       838      3367      3371      3369
 -1      1581    8    0    1
 -2       748       747       839      3074      3372      3373
 -1      1582    8    0    1
 -2       747       838       839      3370      3374      3372
 -1      1583    8    0    1
 -2       749       748       840      3077      3375      3376
 -1      1584    8    0    1
 -2       748       839       840      3373      3377      3375
 -1      1585    8    0    1
 -2       750       749       841      3080      3378      3379
 -1      1586    8    0    1
 -2       749       840       841      3376      3380      3378
 -1      1587    8    0    1
 -2       751       750       842      3083      3381      3382
 -1      1588    8    0    1
 -2       750       841       842      3379      3383      3381
 -1      1589    8    0    1
 -2       752       751       843      3086      3384      3385
 -1      1590    8    0    1
 -2       751       842       843      3382      3386      3384
 -1      1591    8    0    1
 -2       753       752       844      3089      3387      3388
 -1      1592    8    0    1
 -2       752       843       844      3385      3389      3387
 -1      1593    8    0    1
 -2       754       753       845      3092      3390      3391
 -1      1594    8    0    1
 -2       753       844       845      3388      3392      3390
 -1      1595    8    0    1
 -2       755       754       846      3095      3393      3394
 -1      1596    8    0    1
 -2       754       845       846      3391      3395      3393
 -1      1597    8    0    1
 -2       756       755       847      3098      3396      3397
 -1      1598    8    0    1
 -2       755       846       847      3394      3398      3396
 -1      1599    8    0    1
 -2       757       756       848      3101      3399      3400
 -1      1600    8    0    1
 -2       756       847       848      3397      3401      3399
 -1      1601    8    0    1
 -2       758       757       849      3104      3402      3403
 -1      1602    8    0    1
 -2       757       848       849      3400      3404      3402
 -1      1603    8    0    1
 -2       759       758       850      3107      3405      3406
 -1      1604    8    0    1
 -2       758       849       850      3403      3407      3405
 -1      1605    8    0    1
 -2       760       759       851      3110      3408      3409
 -1      1606    8    0    1
 -2       759       850       851      3406      3410      3408
 -1      1607    8    0    1
 -2       761       760       852      3113      3411      3412
 -1      1608    8    0    1
 -2       760       851       852      3409      3413      3411
 -1      1609    8    0    1
 -2       762       761       853      3116      3414      3415
 -1      1610    8    0    1
 -2       761       852       853      3412      3416      3414
 -1      1611    8    0    1
 -2       763       762       854      3119      3417      3418
 -1      1612    8    0    1
 -2       762       853       854      3415      3419      3417
 -1      1613    8    0    1
 -2       764       763       855      3122      3420      3421
 -1      1614    8    0    1
 -2       763       854       855      3418      3422      3420
 -1      1615    8    0    1
 -2       765       764       856      3125      3423      3424
 -1      1616    8    0    1
 -2       764       855       856      3421      3425      3423
 -1      1617    8    0    1
 -2       766       765       857      3128      3426      3427
 -1      1618    8    0    1
 -2       765       856       857      3424      3428      3426
 -1      1619    8    0    1
 -2       767       766       858      3131      3429      3430
 -1      1620    8    0    1
 -2       766       857       858      3427      3431      3429
 -1      1621    8    0    1
 -2       768       767       859      3134      3432      3433
 -1      1622    8    0    1
 -2       767       858       859      3430      3434      3432
 -1      1623    8    0    1
 -2       769       768       860      3137      3435      3436
 -1      1624    8    0    1
 -2       768       859       860      3433      3437      3435
 -1      1625    8    0    1
 -2       770       769       861      3140      3438      3439
 -1      1626    8    0    1
 -2       769       860       861      3436      3440      3438
 -1      1627    8    0    1
 -2       771       770       862      3143      3441      3442
 -1      1628    8    0    1
 -2       770       861       862      3439      3443      3441
 -1      1629    8    0    1
 -2       772       771       863      3146      3444      3445
 -1      1630    8    0    1
 -2       771       862       863      3442      3446      3444
 -1      1631    8    0    1
 -2       773       772       864      3149      3447      3448
 -1      1632    8    0    1
 -2       772       863       864      3445      3449      3447
 -1      1633    8    0    1
 -2       774       773       865      3152      3450      3451
 -1      1634    8    0    1
 -2       773       864       865      3448      3452      3450
 -1      1635    8    0    1
 -2       775       774       866      3155      3453      3454
 -1      1636    8    0    1
 -2       774       865       866      3451      3455      3453
 -1      1637    8    0    1
 -2       776       775       867      3158      3456      3457
 -1      1638    8    0    1
 -2       775       866       867      3454      3458      3456
 -1      1639    8    0    1
 -2       817       822       868      3307      3459      3460
 -1      1640    8    0    1
 -2       740       778       869      3169      3461      3462
 -1      1641    8    0    1
 -2       780       781       870      3178      3463      3464
 -1      1642    8    0    1
 -2       781       782       871      3181      3465      3466
 -1      1643    8    0    1
 -2       781       871       870      3466      3467      3463
 -1      1644    8    0    1
 -2       782       783       872      3184      3468      3469
 -1      1645    8    0    1
 -2       782       872       871      3469      3470      3465
 -1      1646    8    0    1
 -2       783       784       873      3187      3471      3472
 -1      1647    8    0    1
 -2       783       873       872      3472      3473      3468
 -1      1648    8    0    1
 -2       784       785       874      3190      3474      3475
 -1      1649    8    0    1
 -2       784       874       873      3475      3476      3471
 -1      1650    8    0    1
 -2       785       786       875      3193      3477      3478
 -1      1651    8    0    1
 -2       785       875       874      3478      3479      3474
 -1      1652    8    0    1
 -2       786       787       876      3196      3480      3481
 -1      1653    8    0    1
 -2       786       876       875      3481      3482      3477
 -1      1654    8    0    1
 -2       787       788       877      3199      3483      3484
 -1      1655    8    0    1
 -2       787       877       876      3484      3485      3480
 -1      1656    8    0    1
 -2       788       789       878      3202      3486      3487
 -1      1657    8    0    1
 -2       788       878       877      3487      3488      3483
 -1      1658    8    0    1
 -2       789       790       879      3205      3489      3490
 -1      1659    8    0    1
 -2       789       879       878      3490      3491      3486
 -1      1660    8    0    1
 -2       790       791       880      3208      3492      3493
 -1      1661    8    0    1
 -2       790       880       879      3493      3494      3489
 -1      1662    8    0    1
 -2       791       792       881      3211      3495      3496
 -1      1663    8    0    1
 -2       791       881       880      3496      3497      3492
 -1      1664    8    0    1
 -2       792       793       882      3214      3498      3499
 -1      1665    8    0    1
 -2       792       882       881      3499      3500      3495
 -1      1666    8    0    1
 -2       793       794       883      3217      3501      3502
 -1      1667    8    0    1
 -2       793       883       882      3502      3503      3498
 -1      1668    8    0    1
 -2       794       795       884      3220      3504      3505
 -1      1669    8    0    1
 -2       794       884       883      3505      3506      3501
 -1      1670    8    0    1
 -2       795       796       885      3223      3507      3508
 -1      1671    8    0    1
 -2       795       885       884      3508      3509      3504
 -1      1672    8    0    1
 -2       796       797       886      3226      3510      3511
 -1      1673    8    0    1
 -2       796       886       885      3511      3512      3507
 -1      1674    8    0    1
 -2       797       798       887      3229      3513      3514
 -1      1675    8    0    1
 -2       797       887       886      3514      3515      3510
 -1      1676    8    0    1
 -2       798       799       888      3232      3516      3517
 -1      1677    8    0    1
 -2       798       888       887      3517      3518      3513
 -1      1678    8    0    1
 -2       799       800       889      3235      3519      3520
 -1      1679    8    0    1
 -2       799       889       888      3520      3521      3516
 -1      1680    8    0    1
 -2       800       801       890      3238      3522      3523
 -1      1681    8    0    1
 -2       800       890       889      3523      3524      3519
 -1      1682    8    0    1
 -2       801       802       891      3241      3525      3526
 -1      1683    8    0    1
 -2       801       891       890      3526      3527      3522
 -1      1684    8    0    1
 -2       802       803       892      3244      3528      3529
 -1      1685    8    0    1
 -2       802       892       891      3529      3530      3525
 -1      1686    8    0    1
 -2       803       804       893      3247      3531      3532
 -1      1687    8    0    1
 -2       803       893       892      3532      3533      3528
 -1      1688    8    0    1
 -2       804       805       894      3250      3534      3535
 -1      1689    8    0    1
 -2       804       894       893      3535      3536      3531
 -1      1690    8    0    1
 -2       805       806       895      3253      3537      3538
 -1      1691    8    0    1
 -2       805       895       894      3538      3539      3534
 -1      1692    8    0    1
 -2       806       807       896      3256      3540      3541
 -1      1693    8    0    1
 -2       806       896       895      3541      3542      3537
 -1      1694    8    0    1
 -2       807       808       897      3259      3543      3544
 -1      1695    8    0    1
 -2       807       897       896      3544      3545      3540
 -1      1696    8    0    1
 -2       808       809       898      3262      3546      3547
 -1      1697    8    0    1
 -2       808       898       897      3547      3548      3543
 -1      1698    8    0    1
 -2       809       810       899      3265      3549      3550
 -1      1699    8    0    1
 -2       809       899       898      3550      3551      3546
 -1      1700    8    0    1
 -2       810       811       900      3268      3552      3553
 -1      1701    8    0    1
 -2       810       900       899      3553      3554      3549
 -1      1702    8    0    1
 -2       815       812       901      3280      3555      3556
 -1      1703    8    0    1
 -2       818       817       834      3290      3557      3558
 -1      1704    8    0    1
 -2       717       813       722      3293      3274      3356
 -1      1705    8    0    1
 -2       822       819       902      3330      3559      3560
 -1      1706    8    0    1
 -2       819       730       903      3345      3561      3562
 -1      1707    8    0    1
 -2       741       823       824      3344      3318      3563
 -1      1708    8    0    1
 -2       779       780       904      3175      3564      3565
 -1      1709    8    0    1
 -2       780       870       904      3464      3566      3564
 -1      1710    8    0    1
 -2       778       779       905      3172      3567      3568
 -1      1711    8    0    1
 -2       778       905       869      3568      3569      3461
 -1      1712    8    0    1
 -2       735       732       906      3331      3570      3571
 -1      1713    8    0    1
 -2       812       814       907      3277      3572      3573
 -1      1714    8    0    1
 -2       901       812       907      3555      3573      3574
 -1      1715    8    0    1
 -2       814       833       907      3355      3575      3572
 -1      1716    8    0    1
 -2       732       826       906      3325      3576      3570
 -1      1717    8    0    1
 -2       827       735       908      3329      3577      3578
 -1      1718    8    0    1
 -2       735       906       908      3571      3579      3577
 -1      1719    8    0    1
 -2       822       902       868      3560      3580      3459
 -1      1720    8    0    1
 -2       703       832       828      3352      3581      3335
 -1      1721    8    0    1
 -2       834       742       818      3358      3582      3558
 -1      1722    8    0    1
 -2       777       776       909      3162      3583      3584
 -1      1723    8    0    1
 -2       831       777       909      3349      3584      3585
 -1      1724    8    0    1
 -2       776       867       909      3457      3586      3583
 -1      1725    8    0    1
 -2       815       901       910      3556      3587      3588
 -1      1726    8    0    1
 -2       815       910       829      3588      3589      3336
 -1      1727    8    0    1
 -2       900       811       911      3552      3590      3591
 -1      1728    8    0    1
 -2       811       828       911      3334      3592      3590
 -1      1729    8    0    1
 -2       818       742       741      3582      3056      3593
 -1      1730    8    0    1
 -2       733       740       869      3357      3462      3594
 -1      1731    8    0    1
 -2       825       830       912      3341      3595      3596
 -1      1732    8    0    1
 -2       825       912       911      3596      3597      3598
 -1      1733    8    0    1
 -2       817       868       834      3460      3599      3557
 -1      1734    8    0    1
 -2       903       730       913      3561      3600      3601
 -1      1735    8    0    1
 -2       730       827       913      3328      3602      3600
 -1      1736    8    0    1
 -2       819       903       914      3562      3603      3604
 -1      1737    8    0    1
 -2       819       914       902      3604      3605      3559
 -1      1738    8    0    1
 -2       905       779       904      3567      3565      3606
 -1      1739    8    0    1
 -2       821       831       909      3348      3585      3607
 -1      1740    8    0    1
 -2       821       909       833      3607      3608      3354
 -1      1741    8    0    1
 -2       832       825       911      3353      3598      3609
 -1      1742    8    0    1
 -2       835       834       868      3362      3599      3610
 -1      1743    8    0    1
 -2       909       867       833      3586      3611      3608
 -1      1744    8    0    1
 -2       836       835       915      3365      3612      3613
 -1      1745    8    0    1
 -2       837       836       916      3368      3614      3615
 -1      1746    8    0    1
 -2       836       915       916      3613      3616      3614
 -1      1747    8    0    1
 -2       838       837       917      3371      3617      3618
 -1      1748    8    0    1
 -2       837       916       917      3615      3619      3617
 -1      1749    8    0    1
 -2       839       838       918      3374      3620      3621
 -1      1750    8    0    1
 -2       838       917       918      3618      3622      3620
 -1      1751    8    0    1
 -2       840       839       919      3377      3623      3624
 -1      1752    8    0    1
 -2       839       918       919      3621      3625      3623
 -1      1753    8    0    1
 -2       841       840       920      3380      3626      3627
 -1      1754    8    0    1
 -2       840       919       920      3624      3628      3626
 -1      1755    8    0    1
 -2       842       841       921      3383      3629      3630
 -1      1756    8    0    1
 -2       841       920       921      3627      3631      3629
 -1      1757    8    0    1
 -2       843       842       922      3386      3632      3633
 -1      1758    8    0    1
 -2       842       921       922      3630      3634      3632
 -1      1759    8    0    1
 -2       844       843       923      3389      3635      3636
 -1      1760    8    0    1
 -2       843       922       923      3633      3637      3635
 -1      1761    8    0    1
 -2       845       844       924      3392      3638      3639
 -1      1762    8    0    1
 -2       844       923       924      3636      3640      3638
 -1      1763    8    0    1
 -2       846       845       925      3395      3641      3642
 -1      1764    8    0    1
 -2       845       924       925      3639      3643      3641
 -1      1765    8    0    1
 -2       847       846       926      3398      3644      3645
 -1      1766    8    0    1
 -2       846       925       926      3642      3646      3644
 -1      1767    8    0    1
 -2       848       847       927      3401      3647      3648
 -1      1768    8    0    1
 -2       847       926       927      3645      3649      3647
 -1      1769    8    0    1
 -2       849       848       928      3404      3650      3651
 -1      1770    8    0    1
 -2       848       927       928      3648      3652      3650
 -1      1771    8    0    1
 -2       850       849       929      3407      3653      3654
 -1      1772    8    0    1
 -2       849       928       929      3651      3655      3653
 -1      1773    8    0    1
 -2       851       850       930      3410      3656      3657
 -1      1774    8    0    1
 -2       850       929       930      3654      3658      3656
 -1      1775    8    0    1
 -2       852       851       931      3413      3659      3660
 -1      1776    8    0    1
 -2       851       930       931      3657      3661      3659
 -1      1777    8    0    1
 -2       853       852       932      3416      3662      3663
 -1      1778    8    0    1
 -2       852       931       932      3660      3664      3662
 -1      1779    8    0    1
 -2       854       853       933      3419      3665      3666
 -1      1780    8    0    1
 -2       853       932       933      3663      3667      3665
 -1      1781    8    0    1
 -2       855       854       934      3422      3668      3669
 -1      1782    8    0    1
 -2       854       933       934      3666      3670      3668
 -1      1783    8    0    1
 -2       856       855       935      3425      3671      3672
 -1      1784    8    0    1
 -2       855       934       935      3669      3673      3671
 -1      1785    8    0    1
 -2       857       856       936      3428      3674      3675
 -1      1786    8    0    1
 -2       856       935       936      3672      3676      3674
 -1      1787    8    0    1
 -2       858       857       937      3431      3677      3678
 -1      1788    8    0    1
 -2       857       936       937      3675      3679      3677
 -1      1789    8    0    1
 -2       859       858       938      3434      3680      3681
 -1      1790    8    0    1
 -2       858       937       938      3678      3682      3680
 -1      1791    8    0    1
 -2       860       859       939      3437      3683      3684
 -1      1792    8    0    1
 -2       859       938       939      3681      3685      3683
 -1      1793    8    0    1
 -2       861       860       940      3440      3686      3687
 -1      1794    8    0    1
 -2       860       939       940      3684      3688      3686
 -1      1795    8    0    1
 -2       862       861       941      3443      3689      3690
 -1      1796    8    0    1
 -2       861       940       941      3687      3691      3689
 -1      1797    8    0    1
 -2       863       862       942      3446      3692      3693
 -1      1798    8    0    1
 -2       862       941       942      3690      3694      3692
 -1      1799    8    0    1
 -2       864       863       943      3449      3695      3696
 -1      1800    8    0    1
 -2       863       942       943      3693      3697      3695
 -1      1801    8    0    1
 -2       865       864       944      3452      3698      3699
 -1      1802    8    0    1
 -2       864       943       944      3696      3700      3698
 -1      1803    8    0    1
 -2       866       865       945      3455      3701      3702
 -1      1804    8    0    1
 -2       865       944       945      3699      3703      3701
 -1      1805    8    0    1
 -2       867       866       946      3458      3704      3705
 -1      1806    8    0    1
 -2       866       945       946      3702      3706      3704
 -1      1807    8    0    1
 -2       833       867       946      3611      3705      3707
 -1      1808    8    0    1
 -2       869       905       947      3569      3708      3709
 -1      1809    8    0    1
 -2       870       871       948      3467      3710      3711
 -1      1810    8    0    1
 -2       873       874       949      3476      3712      3713
 -1      1811    8    0    1
 -2       874       875       950      3479      3714      3715
 -1      1812    8    0    1
 -2       874       950       949      3715      3716      3712
 -1      1813    8    0    1
 -2       875       876       951      3482      3717      3718
 -1      1814    8    0    1
 -2       875       951       950      3718      3719      3714
 -1      1815    8    0    1
 -2       876       877       952      3485      3720      3721
 -1      1816    8    0    1
 -2       876       952       951      3721      3722      3717
 -1      1817    8    0    1
 -2       877       878       953      3488      3723      3724
 -1      1818    8    0    1
 -2       877       953       952      3724      3725      3720
 -1      1819    8    0    1
 -2       878       879       954      3491      3726      3727
 -1      1820    8    0    1
 -2       878       954       953      3727      3728      3723
 -1      1821    8    0    1
 -2       879       880       955      3494      3729      3730
 -1      1822    8    0    1
 -2       879       955       954      3730      3731      3726
 -1      1823    8    0    1
 -2       880       881       956      3497      3732      3733
 -1      1824    8    0    1
 -2       880       956       955      3733      3734      3729
 -1      1825    8    0    1
 -2       881       882       957      3500      3735      3736
 -1      1826    8    0    1
 -2       881       957       956      3736      3737      3732
 -1      1827    8    0    1
 -2       882       883       958      3503      3738      3739
 -1      1828    8    0    1
 -2       882       958       957      3739      3740      3735
 -1      1829    8    0    1
 -2       883       884       959      3506      3741      3742
 -1      1830    8    0    1
 -2       883       959       958      3742      3743      3738
 -1      1831    8    0    1
 -2       884       885       960      3509      3744      3745
 -1      1832    8    0    1
 -2       884       960       959      3745      3746      3741
 -1      1833    8    0    1
 -2       885       886       961      3512      3747      3748
 -1      1834    8    0    1
 -2       885       961       960      3748      3749      3744
 -1      1835    8    0    1
 -2       886       887       962      3515      3750      3751
 -1      1836    8    0    1
 -2       886       962       961      3751      3752      3747
 -1      1837    8    0    1
 -2       887       888       963      3518      3753      3754
 -1      1838    8    0    1
 -2       887       963       962      3754      3755      3750
 -1      1839    8    0    1
 -2       888       889       964      3521      3756      3757
 -1      1840    8    0    1
 -2       888       964       963      3757      3758      3753
 -1      1841    8    0    1
 -2       889       890       965      3524      3759      3760
 -1      1842    8    0    1
 -2       889       965       964      3760      3761      3756
 -1      1843    8    0    1
 -2       890       891       966      3527      3762      3763
 -1      1844    8    0    1
 -2       890       966       965      3763      3764      3759
 -1      1845    8    0    1
 -2       891       892       967      3530      3765      3766
 -1      1846    8    0    1
 -2       891       967       966      3766      3767      3762
 -1      1847    8    0    1
 -2       892       893       968      3533      3768      3769
 -1      1848    8    0    1
 -2       892       968       967      3769      3770      3765
 -1      1849    8    0    1
 -2       893       894       969      3536      3771      3772
 -1      1850    8    0    1
 -2       893       969       968      3772      3773      3768
 -1      1851    8    0    1
 -2       894       895       970      3539      3774      3775
 -1      1852    8    0    1
 -2       894       970       969      3775      3776      3771
 -1      1853    8    0    1
 -2       895       896       971      3542      3777      3778
 -1      1854    8    0    1
 -2       895       971       970      3778      3779      3774
 -1      1855    8    0    1
 -2       896       897       972      3545      3780      3781
 -1      1856    8    0    1
 -2       896       972       971      3781      3782      3777
 -1      1857    8    0    1
 -2       897       898       973      3548      3783      3784
 -1      1858    8    0    1
 -2       897       973       972      3784      3785      3780
 -1      1859    8    0    1
 -2       898       899       974      3551      3786      3787
 -1      1860    8    0    1
 -2       898       974       973      3787      3788      3783
 -1      1861    8    0    1
 -2       899       900       975      3554      3789      3790
 -1      1862    8    0    1
 -2       899       975       974      3790      3791      3786
 -1      1863    8    0    1
 -2       900       911       976      3591      3792      3793
 -1      1864    8    0    1
 -2       975       900       976      3789      3793      3794
 -1      1865    8    0    1
 -2       911       912       976      3597      3795      3792
 -1      1866    8    0    1
 -2       830       829       977      3342      3796      3797
 -1      1867    8    0    1
 -2       830       977       912      3797      3798      3595
 -1      1868    8    0    1
 -2       835       868       915      3610      3799      3612
 -1      1869    8    0    1
 -2       818       741       824      3593      3563      3319
 -1      1870    8    0    1
 -2       872       873       978      3473      3800      3801
 -1      1871    8    0    1
 -2       873       949       978      3713      3802      3800
 -1      1872    8    0    1
 -2       904       870       979      3566      3803      3804
 -1      1873    8    0    1
 -2       870       948       979      3711      3805      3803
 -1      1874    8    0    1
 -2       905       904       980      3606      3806      3807
 -1      1875    8    0    1
 -2       904       979       980      3804      3808      3806
 -1      1876    8    0    1
 -2       871       872       981      3470      3809      3810
 -1      1877    8    0    1
 -2       872       978       981      3801      3811      3809
 -1      1878    8    0    1
 -2       908       906       947      3579      3812      3813
 -1      1879    8    0    1
 -2       829       910       977      3589      3814      3796
 -1      1880    8    0    1
 -2       869       947       906      3709      3812      3815
 -1      1881    8    0    1
 -2       948       871       981      3710      3810      3816
 -1      1882    8    0    1
 -2       828       832       911      3581      3609      3592
 -1      1883    8    0    1
 -2       947       905       980      3708      3807      3817
 -1      1884    8    0    1
 -2       976       912       982      3795      3818      3819
 -1      1885    8    0    1
 -2       912       977       982      3798      3820      3818
 -1      1886    8    0    1
 -2       915       868       902      3799      3580      3821
 -1      1887    8    0    1
 -2       833       946       907      3707      3822      3575
 -1      1888    8    0    1
 -2       913       827       983      3602      3823      3824
 -1      1889    8    0    1
 -2       827       908       983      3578      3825      3823
 -1      1890    8    0    1
 -2       903       913       984      3601      3826      3827
 -1      1891    8    0    1
 -2       910       901       985      3587      3828      3829
 -1      1892    8    0    1
 -2       914       903       984      3603      3827      3830
 -1      1893    8    0    1
 -2       901       907       986      3574      3831      3832
 -1      1894    8    0    1
 -2       901       986       985      3832      3833      3828
 -1      1895    8    0    1
 -2       915       902       987      3821      3834      3835
 -1      1896    8    0    1
 -2       916       915       987      3616      3835      3836
 -1      1897    8    0    1
 -2       902       914       987      3605      3837      3834
 -1      1898    8    0    1
 -2       950       951       988      3719      3838      3839
 -1      1899    8    0    1
 -2       977       910       989      3814      3840      3841
 -1      1900    8    0    1
 -2       982       977       989      3820      3841      3842
 -1      1901    8    0    1
 -2       910       985       989      3829      3843      3840
 -1      1902    8    0    1
 -2       908       947       990      3813      3844      3845
 -1      1903    8    0    1
 -2       983       908       990      3825      3845      3846
 -1      1904    8    0    1
 -2       947       980       990      3817      3847      3844
 -1      1905    8    0    1
 -2       917       916       991      3619      3848      3849
 -1      1906    8    0    1
 -2       918       917       992      3622      3850      3851
 -1      1907    8    0    1
 -2       917       991       992      3849      3852      3850
 -1      1908    8    0    1
 -2       919       918       993      3625      3853      3854
 -1      1909    8    0    1
 -2       918       992       993      3851      3855      3853
 -1      1910    8    0    1
 -2       920       919       994      3628      3856      3857
 -1      1911    8    0    1
 -2       919       993       994      3854      3858      3856
 -1      1912    8    0    1
 -2       921       920       995      3631      3859      3860
 -1      1913    8    0    1
 -2       920       994       995      3857      3861      3859
 -1      1914    8    0    1
 -2       922       921       996      3634      3862      3863
 -1      1915    8    0    1
 -2       921       995       996      3860      3864      3862
 -1      1916    8    0    1
 -2       923       922       997      3637      3865      3866
 -1      1917    8    0    1
 -2       922       996       997      3863      3867      3865
 -1      1918    8    0    1
 -2       924       923       998      3640      3868      3869
 -1      1919    8    0    1
 -2       923       997       998      3866      3870      3868
 -1      1920    8    0    1
 -2       925       924       999      3643      3871      3872
 -1      1921    8    0    1
 -2       924       998       999      3869      3873      3871
 -1      1922    8    0    1
 -2       926       925      1000      3646      3874      3875
 -1      1923    8    0    1
 -2       925       999      1000      3872      3876      3874
 -1      1924    8    0    1
 -2       927       926      1001      3649      3877      3878
 -1      1925    8    0    1
 -2       926      1000      1001      3875      3879      3877
 -1      1926    8    0    1
 -2       928       927      1002      3652      3880      3881
 -1      1927    8    0    1
 -2       927      1001      1002      3878      3882      3880
 -1      1928    8    0    1
 -2       929       928      1003      3655      3883      3884
 -1      1929    8    0    1
 -2       928      1002      1003      3881      3885      3883
 -1      1930    8    0    1
 -2       930       929      1004      3658      3886      3887
 -1      1931    8    0    1
 -2       929      1003      1004      3884      3888      3886
 -1      1932    8    0    1
 -2       931       930      1005      3661      3889      3890
 -1      1933    8    0    1
 -2       930      1004      1005      3887      3891      3889
 -1      1934    8    0    1
 -2       932       931      1006      3664      3892      3893
 -1      1935    8    0    1
 -2       931      1005      1006      3890      3894      3892
 -1      1936    8    0    1
 -2       933       932      1007      3667      3895      3896
 -1      1937    8    0    1
 -2       932      1006      1007      3893      3897      3895
 -1      1938    8    0    1
 -2       934       933      1008      3670      3898      3899
 -1      1939    8    0    1
 -2       933      1007      1008      3896      3900      3898
 -1      1940    8    0    1
 -2       935       934      1009      3673      3901      3902
 -1      1941    8    0    1
 -2       934      1008      1009      3899      3903      3901
 -1      1942    8    0    1
 -2       936       935      1010      3676      3904      3905
 -1      1943    8    0    1
 -2       935      1009      1010      3902      3906      3904
 -1      1944    8    0    1
 -2       937       936      1011      3679      3907      3908
 -1      1945    8    0    1
 -2       936      1010      1011      3905      3909      3907
 -1      1946    8    0    1
 -2       938       937      1012      3682      3910      3911
 -1      1947    8    0    1
 -2       937      1011      1012      3908      3912      3910
 -1      1948    8    0    1
 -2       939       938      1013      3685      3913      3914
 -1      1949    8    0    1
 -2       938      1012      1013      3911      3915      3913
 -1      1950    8    0    1
 -2       940       939      1014      3688      3916      3917
 -1      1951    8    0    1
 -2       939      1013      1014      3914      3918      3916
 -1      1952    8    0    1
 -2       941       940      1015      3691      3919      3920
 -1      1953    8    0    1
 -2       940      1014      1015      3917      3921      3919
 -1      1954    8    0    1
 -2       942       941      1016      3694      3922      3923
 -1      1955    8    0    1
 -2       941      1015      1016      3920      3924      3922
 -1      1956    8    0    1
 -2       943       942      1017      3697      3925      3926
 -1      1957    8    0    1
 -2       942      1016      1017      3923      3927      3925
 -1      1958    8    0    1
 -2       944       943      1018      3700      3928      3929
 -1      1959    8    0    1
 -2       943      1017      1018      3926      3930      3928
 -1      1960    8    0    1
 -2       945       944      1019      3703      3931      3932
 -1      1961    8    0    1
 -2       944      1018      1019      3929      3933      3931
 -1      1962    8    0    1
 -2       946       945      1020      3706      3934      3935
 -1      1963    8    0    1
 -2       945      1019      1020      3932      3936      3934
 -1      1964    8    0    1
 -2       949       950      1021      3716      3937      3938
 -1      1965    8    0    1
 -2       950       988      1021      3839      3939      3937
 -1      1966    8    0    1
 -2       952       953      1022      3725      3940      3941
 -1      1967    8    0    1
 -2       953       954      1023      3728      3942      3943
 -1      1968    8    0    1
 -2       953      1023      1022      3943      3944      3940
 -1      1969    8    0    1
 -2       954       955      1024      3731      3945      3946
 -1      1970    8    0    1
 -2       954      1024      1023      3946      3947      3942
 -1      1971    8    0    1
 -2       955       956      1025      3734      3948      3949
 -1      1972    8    0    1
 -2       955      1025      1024      3949      3950      3945
 -1      1973    8    0    1
 -2       956       957      1026      3737      3951      3952
 -1      1974    8    0    1
 -2       956      1026      1025      3952      3953      3948
 -1      1975    8    0    1
 -2       957       958      1027      3740      3954      3955
 -1      1976    8    0    1
 -2       957      1027      1026      3955      3956      3951
 -1      1977    8    0    1
 -2       958       959      1028      3743      3957      3958
 -1      1978    8    0    1
 -2       958      1028      1027      3958      3959      3954
 -1      1979    8    0    1
 -2       959       960      1029      3746      3960      3961
 -1      1980    8    0    1
 -2       959      1029      1028      3961      3962      3957
 -1      1981    8    0    1
 -2       960       961      1030      3749      3963      3964
 -1      1982    8    0    1
 -2       960      1030      1029      3964      3965      3960
 -1      1983    8    0    1
 -2       961       962      1031      3752      3966      3967
 -1      1984    8    0    1
 -2       961      1031      1030      3967      3968      3963
 -1      1985    8    0    1
 -2       962       963      1032      3755      3969      3970
 -1      1986    8    0    1
 -2       962      1032      1031      3970      3971      3966
 -1      1987    8    0    1
 -2       963       964      1033      3758      3972      3973
 -1      1988    8    0    1
 -2       963      1033      1032      3973      3974      3969
 -1      1989    8    0    1
 -2       964       965      1034      3761      3975      3976
 -1      1990    8    0    1
 -2       964      1034      1033      3976      3977      3972
 -1      1991    8    0    1
 -2       965       966      1035      3764      3978      3979
 -1      1992    8    0    1
 -2       965      1035      1034      3979      3980      3975
 -1      1993    8    0    1
 -2       966       967      1036      3767      3981      3982
 -1      1994    8    0    1
 -2       966      1036      1035      3982      3983      3978
 -1      1995    8    0    1
 -2       967       968      1037      3770      3984      3985
 -1      1996    8    0    1
 -2       967      1037      1036      3985      3986      3981
 -1      1997    8    0    1
 -2       968       969      1038      3773      3987      3988
 -1      1998    8    0    1
 -2       968      1038      1037      3988      3989      3984
 -1      1999    8    0    1
 -2       969       970      1039      3776      3990      3991
 -1      2000    8    0    1
 -2       969      1039      1038      3991      3992      3987
 -1      2001    8    0    1
 -2       970       971      1040      3779      3993      3994
 -1      2002    8    0    1
 -2       970      1040      1039      3994      3995      3990
 -1      2003    8    0    1
 -2       971       972      1041      3782      3996      3997
 -1      2004    8    0    1
 -2       971      1041      1040      3997      3998      3993
 -1      2005    8    0    1
 -2       972       973      1042      3785      3999      4000
 -1      2006    8    0    1
 -2       972      1042      1041      4000      4001      3996
 -1      2007    8    0    1
 -2       973       974      1043      3788      4002      4003
 -1      2008    8    0    1
 -2       973      1043      1042      4003      4004      3999
 -1      2009    8    0    1
 -2       974       975      1044      3791      4005      4006
 -1      2010    8    0    1
 -2       974      1044      1043      4006      4007      4002
 -1      2011    8    0    1
 -2       975       976      1045      3794      4008      4009
 -1      2012    8    0    1
 -2      1044       975      1045      4005      4009      4010
 -1      2013    8    0    1
 -2       976       982      1045      3819      4011      4008
 -1      2014    8    0    1
 -2       979       948      1046      3805      4012      4013
 -1      2015    8    0    1
 -2       984       913      1047      3826      4014      4015
 -1      2016    8    0    1
 -2       913       983      1047      3824      4016      4014
 -1      2017    8    0    1
 -2       914       984      1048      3830      4017      4018
 -1      2018    8    0    1
 -2       914      1048       987      4018      4019      3837
 -1      2019    8    0    1
 -2       978       949      1049      3802      4020      4021
 -1      2020    8    0    1
 -2       949      1021      1049      3938      4022      4020
 -1      2021    8    0    1
 -2       980       979      1050      3808      4023      4024
 -1      2022    8    0    1
 -2       990       980      1050      3847      4024      4025
 -1      2023    8    0    1
 -2       979      1046      1050      4013      4026      4023
 -1      2024    8    0    1
 -2       981       978      1051      3811      4027      4028
 -1      2025    8    0    1
 -2       978      1049      1051      4021      4029      4027
 -1      2026    8    0    1
 -2       948       981      1052      3816      4030      4031
 -1      2027    8    0    1
 -2       948      1052      1046      4031      4032      4012
 -1      2028    8    0    1
 -2       951       952      1053      3722      4033      4034
 -1      2029    8    0    1
 -2       988       951      1053      3838      4034      4035
 -1      2030    8    0    1
 -2       952      1022      1053      3941      4036      4033
 -1      2031    8    0    1
 -2       946      1020       986      3935      4037      4038
 -1      2032    8    0    1
 -2       981      1051      1052      4028      4039      4030
 -1      2033    8    0    1
 -2       989       985      1054      3843      4040      4041
 -1      2034    8    0    1
 -2       916       987       991      3836      4042      3848
 -1      2035    8    0    1
 -2       984      1047      1055      4015      4043      4044
 -1      2036    8    0    1
 -2       984      1055      1048      4044      4045      4017
 -1      2037    8    0    1
 -2       986       907       946      3831      3822      4038
 -1      2038    8    0    1
 -2       985       986      1056      3833      4046      4047
 -1      2039    8    0    1
 -2      1054       985      1056      4040      4047      4048
 -1      2040    8    0    1
 -2       986      1020      1056      4037      4049      4046
 -1      2041    8    0    1
 -2       982       989      1057      3842      4050      4051
 -1      2042    8    0    1
 -2      1045       982      1057      4011      4051      4052
 -1      2043    8    0    1
 -2       989      1054      1057      4041      4053      4050
 -1      2044    8    0    1
 -2       826       733       869      3326      3594      4054
 -1      2045    8    0    1
 -2      1024      1025      1058      3950      4055      4056
 -1      2046    8    0    1
 -2       992       991      1059      3852      4057      4058
 -1      2047    8    0    1
 -2      1052      1051      1060      4039      4059      4060
 -1      2048    8    0    1
 -2       993       992      1061      3855      4061      4062
 -1      2049    8    0    1
 -2       992      1059      1061      4058      4063      4061
 -1      2050    8    0    1
 -2       994       993      1062      3858      4064      4065
 -1      2051    8    0    1
 -2       993      1061      1062      4062      4066      4064
 -1      2052    8    0    1
 -2       995       994      1063      3861      4067      4068
 -1      2053    8    0    1
 -2       994      1062      1063      4065      4069      4067
 -1      2054    8    0    1
 -2       996       995      1064      3864      4070      4071
 -1      2055    8    0    1
 -2       995      1063      1064      4068      4072      4070
 -1      2056    8    0    1
 -2       997       996      1065      3867      4073      4074
 -1      2057    8    0    1
 -2       996      1064      1065      4071      4075      4073
 -1      2058    8    0    1
 -2       998       997      1066      3870      4076      4077
 -1      2059    8    0    1
 -2       997      1065      1066      4074      4078      4076
 -1      2060    8    0    1
 -2       999       998      1067      3873      4079      4080
 -1      2061    8    0    1
 -2       998      1066      1067      4077      4081      4079
 -1      2062    8    0    1
 -2      1000       999      1068      3876      4082      4083
 -1      2063    8    0    1
 -2       999      1067      1068      4080      4084      4082
 -1      2064    8    0    1
 -2      1001      1000      1069      3879      4085      4086
 -1      2065    8    0    1
 -2      1000      1068      1069      4083      4087      4085
 -1      2066    8    0    1
 -2      1002      1001      1070      3882      4088      4089
 -1      2067    8    0    1
 -2      1001      1069      1070      4086      4090      4088
 -1      2068    8    0    1
 -2      1003      1002      1071      3885      4091      4092
 -1      2069    8    0    1
 -2      1002      1070      1071      4089      4093      4091
 -1      2070    8    0    1
 -2      1004      1003      1072      3888      4094      4095
 -1      2071    8    0    1
 -2      1003      1071      1072      4092      4096      4094
 -1      2072    8    0    1
 -2      1005      1004      1073      3891      4097      4098
 -1      2073    8    0    1
 -2      1004      1072      1073      4095      4099      4097
 -1      2074    8    0    1
 -2      1006      1005      1074      3894      4100      4101
 -1      2075    8    0    1
 -2      1005      1073      1074      4098      4102      4100
 -1      2076    8    0    1
 -2      1007      1006      1075      3897      4103      4104
 -1      2077    8    0    1
 -2      1006      1074      1075      4101      4105      4103
 -1      2078    8    0    1
 -2      1008      1007      1076      3900      4106      4107
 -1      2079    8    0    1
 -2      1007      1075      1076      4104      4108      4106
 -1      2080    8    0    1
 -2      1009      1008      1077      3903      4109      4110
 -1      2081    8    0    1
 -2      1008      1076      1077      4107      4111      4109
 -1      2082    8    0    1
 -2      1010      1009      1078      3906      4112      4113
 -1      2083    8    0    1
 -2      1009      1077      1078      4110      4114      4112
 -1      2084    8    0    1
 -2      1011      1010      1079      3909      4115      4116
 -1      2085    8    0    1
 -2      1010      1078      1079      4113      4117      4115
 -1      2086    8    0    1
 -2      1012      1011      1080      3912      4118      4119
 -1      2087    8    0    1
 -2      1011      1079      1080      4116      4120      4118
 -1      2088    8    0    1
 -2      1013      1012      1081      3915      4121      4122
 -1      2089    8    0    1
 -2      1012      1080      1081      4119      4123      4121
 -1      2090    8    0    1
 -2      1014      1013      1082      3918      4124      4125
 -1      2091    8    0    1
 -2      1013      1081      1082      4122      4126      4124
 -1      2092    8    0    1
 -2      1015      1014      1083      3921      4127      4128
 -1      2093    8    0    1
 -2      1014      1082      1083      4125      4129      4127
 -1      2094    8    0    1
 -2      1016      1015      1084      3924      4130      4131
 -1      2095    8    0    1
 -2      1015      1083      1084      4128      4132      4130
 -1      2096    8    0    1
 -2      1017      1016      1085      3927      4133      4134
 -1      2097    8    0    1
 -2      1016      1084      1085      4131      4135      4133
 -1      2098    8    0    1
 -2      1018      1017      1086      3930      4136      4137
 -1      2099    8    0    1
 -2      1017      1085      1086      4134      4138      4136
 -1      2100    8    0    1
 -2      1019      1018      1087      3933      4139      4140
 -1      2101    8    0    1
 -2      1018      1086      1087      4137      4141      4139
 -1      2102    8    0    1
 -2      1020      1019      1088      3936      4142      4143
 -1      2103    8    0    1
 -2      1056      1020      1088      4049      4143      4144
 -1      2104    8    0    1
 -2      1019      1087      1088      4140      4145      4142
 -1      2105    8    0    1
 -2      1021       988      1089      3939      4146      4147
 -1      2106    8    0    1
 -2      1051      1049      1090      4029      4148      4149
 -1      2107    8    0    1
 -2      1051      1090      1060      4149      4150      4059
 -1      2108    8    0    1
 -2      1023      1024      1091      3947      4151      4152
 -1      2109    8    0    1
 -2      1024      1058      1091      4056      4153      4151
 -1      2110    8    0    1
 -2      1022      1023      1092      3944      4154      4155
 -1      2111    8    0    1
 -2      1023      1091      1092      4152      4156      4154
 -1      2112    8    0    1
 -2      1025      1026      1093      3953      4157      4158
 -1      2113    8    0    1
 -2      1025      1093      1058      4158      4159      4055
 -1      2114    8    0    1
 -2      1026      1027      1094      3956      4160      4161
 -1      2115    8    0    1
 -2      1026      1094      1093      4161      4162      4157
 -1      2116    8    0    1
 -2      1027      1028      1095      3959      4163      4164
 -1      2117    8    0    1
 -2      1027      1095      1094      4164      4165      4160
 -1      2118    8    0    1
 -2      1028      1029      1096      3962      4166      4167
 -1      2119    8    0    1
 -2      1028      1096      1095      4167      4168      4163
 -1      2120    8    0    1
 -2      1029      1030      1097      3965      4169      4170
 -1      2121    8    0    1
 -2      1029      1097      1096      4170      4171      4166
 -1      2122    8    0    1
 -2      1030      1031      1098      3968      4172      4173
 -1      2123    8    0    1
 -2      1030      1098      1097      4173      4174      4169
 -1      2124    8    0    1
 -2      1031      1032      1099      3971      4175      4176
 -1      2125    8    0    1
 -2      1031      1099      1098      4176      4177      4172
 -1      2126    8    0    1
 -2      1032      1033      1100      3974      4178      4179
 -1      2127    8    0    1
 -2      1032      1100      1099      4179      4180      4175
 -1      2128    8    0    1
 -2      1033      1034      1101      3977      4181      4182
 -1      2129    8    0    1
 -2      1033      1101      1100      4182      4183      4178
 -1      2130    8    0    1
 -2      1034      1035      1102      3980      4184      4185
 -1      2131    8    0    1
 -2      1034      1102      1101      4185      4186      4181
 -1      2132    8    0    1
 -2      1035      1036      1103      3983      4187      4188
 -1      2133    8    0    1
 -2      1035      1103      1102      4188      4189      4184
 -1      2134    8    0    1
 -2      1036      1037      1104      3986      4190      4191
 -1      2135    8    0    1
 -2      1036      1104      1103      4191      4192      4187
 -1      2136    8    0    1
 -2      1037      1038      1105      3989      4193      4194
 -1      2137    8    0    1
 -2      1037      1105      1104      4194      4195      4190
 -1      2138    8    0    1
 -2      1038      1039      1106      3992      4196      4197
 -1      2139    8    0    1
 -2      1038      1106      1105      4197      4198      4193
 -1      2140    8    0    1
 -2      1039      1040      1107      3995      4199      4200
 -1      2141    8    0    1
 -2      1039      1107      1106      4200      4201      4196
 -1      2142    8    0    1
 -2      1040      1041      1108      3998      4202      4203
 -1      2143    8    0    1
 -2      1040      1108      1107      4203      4204      4199
 -1      2144    8    0    1
 -2      1041      1042      1109      4001      4205      4206
 -1      2145    8    0    1
 -2      1041      1109      1108      4206      4207      4202
 -1      2146    8    0    1
 -2      1042      1043      1110      4004      4208      4209
 -1      2147    8    0    1
 -2      1042      1110      1109      4209      4210      4205
 -1      2148    8    0    1
 -2       869       906       826      3815      3576      4054
 -1      2149    8    0    1
 -2       991       987      1048      4042      4019      4211
 -1      2150    8    0    1
 -2      1049      1021      1111      4022      4212      4213
 -1      2151    8    0    1
 -2      1021      1089      1111      4147      4214      4212
 -1      2152    8    0    1
 -2       991      1048      1059      4211      4215      4057
 -1      2153    8    0    1
 -2      1046      1052      1112      4032      4216      4217
 -1      2154    8    0    1
 -2      1052      1060      1112      4060      4218      4216
 -1      2155    8    0    1
 -2      1059      1048      1055      4215      4045      4219
 -1      2156    8    0    1
 -2      1090      1049      1111      4148      4213      4220
 -1      2157    8    0    1
 -2      1043      1044      1113      4007      4221      4222
 -1      2158    8    0    1
 -2      1044      1045      1057      4010      4052      4223
 -1      2159    8    0    1
 -2       988      1053      1114      4035      4224      4225
 -1      2160    8    0    1
 -2       988      1114      1089      4225      4226      4146
 -1      2161    8    0    1
 -2      1046      1112      1047      4217      4227      4228
 -1      2162    8    0    1
 -2      1047       983      1050      4016      4229      4230
 -1      2163    8    0    1
 -2      1055      1047      1112      4043      4227      4231
 -1      2164    8    0    1
 -2       983       990      1050      3846      4025      4229
 -1      2165    8    0    1
 -2      1043      1113      1110      4222      4232      4208
 -1      2166    8    0    1
 -2      1053      1022      1115      4036      4233      4234
 -1      2167    8    0    1
 -2      1022      1092      1115      4155      4235      4233
 -1      2168    8    0    1
 -2      1054      1056      1088      4048      4144      4236
 -1      2169    8    0    1
 -2      1113      1044      1057      4221      4223      4237
 -1      2170    8    0    1
 -2      1046      1047      1050      4228      4230      4026
 -1      2171    8    0    1
 -2      1058      1093      1069      4159      4238      4239
 -1      2172    8    0    1
 -2      1093      1094      1070      4162      4240      4241
 -1      2173    8    0    1
 -2      1113      1057      1054      4237      4053      4242
 -1      2174    8    0    1
 -2      1059      1055      1112      4219      4231      4243
 -1      2175    8    0    1
 -2      1110      1113      1087      4232      4244      4245
 -1      2176    8    0    1
 -2      1062      1061      1090      4066      4246      4247
 -1      2177    8    0    1
 -2      1063      1062      1111      4069      4248      4249
 -1      2178    8    0    1
 -2      1064      1063      1089      4072      4250      4251
 -1      2179    8    0    1
 -2      1065      1064      1114      4075      4252      4253
 -1      2180    8    0    1
 -2      1066      1065      1115      4078      4254      4255
 -1      2181    8    0    1
 -2      1067      1066      1092      4081      4256      4257
 -1      2182    8    0    1
 -2      1068      1067      1091      4084      4258      4259
 -1      2183    8    0    1
 -2      1069      1068      1058      4087      4260      4239
 -1      2184    8    0    1
 -2      1070      1069      1093      4090      4238      4241
 -1      2185    8    0    1
 -2      1071      1070      1094      4093      4240      4261
 -1      2186    8    0    1
 -2      1072      1071      1095      4096      4262      4263
 -1      2187    8    0    1
 -2      1073      1072      1096      4099      4264      4265
 -1      2188    8    0    1
 -2      1074      1073      1097      4102      4266      4267
 -1      2189    8    0    1
 -2      1075      1074      1098      4105      4268      4269
 -1      2190    8    0    1
 -2      1076      1075      1099      4108      4270      4271
 -1      2191    8    0    1
 -2      1077      1076      1100      4111      4272      4273
 -1      2192    8    0    1
 -2      1078      1077      1101      4114      4274      4275
 -1      2193    8    0    1
 -2      1079      1078      1102      4117      4276      4277
 -1      2194    8    0    1
 -2      1080      1079      1103      4120      4278      4279
 -1      2195    8    0    1
 -2      1081      1080      1104      4123      4280      4281
 -1      2196    8    0    1
 -2      1082      1081      1105      4126      4282      4283
 -1      2197    8    0    1
 -2      1083      1082      1106      4129      4284      4285
 -1      2198    8    0    1
 -2      1084      1083      1107      4132      4286      4287
 -1      2199    8    0    1
 -2      1085      1084      1108      4135      4288      4289
 -1      2200    8    0    1
 -2      1086      1085      1109      4138      4290      4291
 -1      2201    8    0    1
 -2      1087      1086      1110      4141      4292      4245
 -1      2202    8    0    1
 -2      1089      1063      1111      4250      4249      4214
 -1      2203    8    0    1
 -2      1060      1090      1061      4150      4246      4293
 -1      2204    8    0    1
 -2      1091      1058      1068      4153      4260      4259
 -1      2205    8    0    1
 -2      1059      1112      1060      4243      4218      4294
 -1      2206    8    0    1
 -2      1092      1091      1067      4156      4258      4257
 -1      2207    8    0    1
 -2      1094      1095      1071      4165      4262      4261
 -1      2208    8    0    1
 -2      1095      1096      1072      4168      4264      4263
 -1      2209    8    0    1
 -2      1096      1097      1073      4171      4266      4265
 -1      2210    8    0    1
 -2      1097      1098      1074      4174      4268      4267
 -1      2211    8    0    1
 -2      1098      1099      1075      4177      4270      4269
 -1      2212    8    0    1
 -2      1099      1100      1076      4180      4272      4271
 -1      2213    8    0    1
 -2      1100      1101      1077      4183      4274      4273
 -1      2214    8    0    1
 -2      1101      1102      1078      4186      4276      4275
 -1      2215    8    0    1
 -2      1102      1103      1079      4189      4278      4277
 -1      2216    8    0    1
 -2      1103      1104      1080      4192      4280      4279
 -1      2217    8    0    1
 -2      1104      1105      1081      4195      4282      4281
 -1      2218    8    0    1
 -2      1105      1106      1082      4198      4284      4283
 -1      2219    8    0    1
 -2      1106      1107      1083      4201      4286      4285
 -1      2220    8    0    1
 -2      1107      1108      1084      4204      4288      4287
 -1      2221    8    0    1
 -2      1108      1109      1085      4207      4290      4289
 -1      2222    8    0    1
 -2      1109      1110      1086      4210      4292      4291
 -1      2223    8    0    1
 -2      1111      1062      1090      4248      4247      4220
 -1      2224    8    0    1
 -2      1092      1066      1115      4256      4255      4235
 -1      2225    8    0    1
 -2      1060      1061      1059      4293      4063      4294
 -1      2226    8    0    1
 -2      1054      1088      1113      4236      4295      4242
 -1      2227    8    0    1
 -2      1064      1089      1114      4251      4226      4252
 -1      2228    8    0    1
 -2      1087      1113      1088      4244      4295      4145
 -1      2229    8    0    1
 -2      1053      1115      1114      4234      4296      4224
 -1      2230    8    0    1
 -2      1115      1065      1114      4254      4253      4296
 -3
    1PSTEP                         1           1           1          
  100CL  101 1.000000000        4296                     0    1           1
 -4  DISP        4    1
 -5  D1          1    2    1    0
 -5  D2          1    2    2    0
 -5  D3          1    2    3    0
 -5  ALL         1    2    0    0    1ALL
 -1         1 2.01500E-03-5.29965E-04-2.80724E-15
 -1         2 4.12899E-03 7.47268E-05-5.57040E-15
 -1         3 1.52011E-02 1.21913E-03-1.59119E-13
 -1         4 1.50117E-02-2.09536E-04-1.65090E-13
 -1         5 0.00000E+00 0.00000E+00 0.00000E+00
 -1         6 0.00000E+00 0.00000E+00 0.00000E+00
 -1         7 0.00000E+00 0.00000E+00 0.00000E+00
 -1         8 0.00000E+00 0.00000E+00 0.00000E+00
 -1         9 0.00000E+00 0.00000E+00 0.00000E+00
 -1        10 0.00000E+00 0.00000E+00 0.00000E+00
 -1        11 0.00000E+00 0.00000E+00 0.00000E+00
 -1        12 0.00000E+00 0.00000E+00 0.00000E+00
 -1        13 0.00000E+00 0.00000E+00 0.00000E+00
 -1        14 0.00000E+00 0.00000E+00 0.00000E+00
 -1        15 0.00000E+00 0.00000E+00 0.00000E+00
 -1        16 0.00000E+00 0.00000E+00 0.00000E+00
 -1        17 0.00000E+00 0.00000E+00 0.00000E+00
 -1        18 0.00000E+00 0.00000E+00 0.00000E+00
 -1        19 0.00000E+00 0.00000E+00 0.00000E+00
 -1        20 0.00000E+00 0.00000E+00 0.00000E+00
 -1        21 0.00000E+00 0.00000E+00 0.00000E+00
 -1        22 0.00000E+00 0.00000E+00 0.00000E+00
 -1        23 5.37062E-04-3.43778E-04 2.13520E-17
 -1        24 9.10248E-04-5.50865E-04-1.67902E-16
 -1        25 1.24436E-03-7.16033E-04-5.60417E-16
 -1        26 1.55017E-03-8.46812E-04-1.15388E-15
 -1        27 1.83257E-03-9.38132E-04-1.94527E-15
 -1        28 2.10104E-03-9.82389E-04-2.93202E-15
 -1        29 2.36884E-03-9.78374E-04-4.11181E-15
 -1        30 2.64827E-03-9.34553E-04-5.47695E-15
 -1        31 2.94602E-03-8.66336E-04-7.02102E-15
 -1        32 3.26179E-03-7.90189E-04-8.73590E-15
 -1        33 3.59039E-03-7.18734E-04-1.06139E-14
 -1        34 3.92493E-03-6.58943E-04-1.26419E-14
 -1        35 4.25941E-03-6.12896E-04-1.48194E-14
 -1        36 4.58973E-03-5.79574E-04-1.71390E-14
 -1        37 4.91376E-03-5.56533E-04-1.95964E-14
 -1        38 5.23086E-03-5.41024E-04-2.21871E-14
 -1        39 5.54131E-03-5.30572E-04-2.49021E-14
 -1        40 5.84588E-03-5.23203E-04-2.77390E-14
 -1        41 6.14555E-03-5.17460E-04-3.06906E-14
 -1        42 6.44127E-03-5.12332E-04-3.37488E-14
 -1        43 6.73392E-03-5.07165E-04-3.69240E-14
 -1        44 7.02425E-03-5.01568E-04-4.02182E-14
 -1        45 7.31288E-03-4.95333E-04-4.36347E-14
 -1        46 7.60028E-03-4.88379E-04-4.71779E-14
 -1        47 7.88683E-03-4.80706E-04-5.08296E-14
 -1        48 8.17282E-03-4.72360E-04-5.45812E-14
 -1        49 8.45844E-03-4.63413E-04-5.84350E-14
 -1        50 8.74385E-03-4.53949E-04-6.23934E-14
 -1        51 9.02916E-03-4.44049E-04-6.64433E-14
 -1        52 9.31442E-03-4.33793E-04-7.05899E-14
 -1        53 9.59969E-03-4.23251E-04-7.48225E-14
 -1        54 9.88500E-03-4.12484E-04-7.91256E-14
 -1        55 1.01703E-02-4.01543E-04-8.34998E-14
 -1        56 1.04557E-02-3.90470E-04-8.79345E-14
 -1        57 1.07412E-02-3.79298E-04-9.24368E-14
 -1        58 1.10267E-02-3.68054E-04-9.70000E-14
 -1        59 1.13122E-02-3.56760E-04-1.01614E-13
 -1        60 1.15978E-02-3.45431E-04-1.06266E-13
 -1        61 1.18834E-02-3.34079E-04-1.10960E-13
 -1        62 1.21690E-02-3.22711E-04-1.15705E-13
 -1        63 1.24547E-02-3.11336E-04-1.20507E-13
 -1        64 1.27404E-02-2.99956E-04-1.25368E-13
 -1        65 1.30261E-02-2.88574E-04-1.30271E-13
 -1        66 1.33118E-02-2.77194E-04-1.35212E-13
 -1        67 1.35975E-02-2.65816E-04-1.40198E-13
 -1        68 1.38832E-02-2.54440E-04-1.45205E-13
 -1        69 1.41689E-02-2.43068E-04-1.50221E-13
 -1        70 1.44546E-02-2.31699E-04-1.55242E-13
 -1        71 1.47403E-02-2.20333E-04-1.60284E-13
 -1        72 5.60147E-04 3.50803E-04 6.92060E-17
 -1        73 9.55727E-04 5.69183E-04-2.77624E-17
 -1        74 1.31212E-03 7.50936E-04-2.91478E-16
 -1        75 1.63497E-03 9.04764E-04-7.33060E-16
 -1        76 1.92788E-03 1.01949E-03-1.35388E-15
 -1        77 2.20181E-03 1.08182E-03-2.15395E-15
 -1        78 2.47387E-03 1.08804E-03-3.13925E-15
 -1        79 2.76010E-03 1.04848E-03-4.30801E-15
 -1        80 3.06851E-03 9.83071E-04-5.66206E-15
 -1        81 3.39758E-03 9.12477E-04-7.19318E-15
 -1        82 3.73978E-03 8.51411E-04-8.89146E-15
 -1        83 4.08634E-03 8.06869E-04-1.07509E-14
 -1        84 4.43031E-03 7.79830E-04-1.27635E-14
 -1        85 4.76752E-03 7.67940E-04-1.49212E-14
 -1        86 5.09623E-03 7.67657E-04-1.72223E-14
 -1        87 5.41633E-03 7.75493E-04-1.96692E-14
 -1        88 5.72862E-03 7.88550E-04-2.22513E-14
 -1        89 6.03426E-03 8.04642E-04-2.49667E-14
 -1        90 6.33452E-03 8.22230E-04-2.78169E-14
 -1        91 6.63055E-03 8.40291E-04-3.07991E-14
 -1        92 6.92334E-03 8.58185E-04-3.39008E-14
 -1        93 7.21372E-03 8.75546E-04-3.71214E-14
 -1        94 7.50236E-03 8.92194E-04-4.04573E-14
 -1        95 7.78975E-03 9.08069E-04-4.39069E-14
 -1        96 8.07628E-03 9.23187E-04-4.74738E-14
 -1        97 8.36225E-03 9.37607E-04-5.11567E-14
 -1        98 8.64786E-03 9.51410E-04-5.49519E-14
 -1        99 8.93326E-03 9.64686E-04-5.88522E-14
 -1       100 9.21856E-03 9.77520E-04-6.28519E-14
 -1       101 9.50382E-03 9.89995E-04-6.69364E-14
 -1       102 9.78909E-03 1.00218E-03-7.10931E-14
 -1       103 1.00744E-02 1.01414E-03-7.53168E-14
 -1       104 1.03597E-02 1.02593E-03-7.96168E-14
 -1       105 1.06451E-02 1.03758E-03-8.39862E-14
 -1       106 1.09306E-02 1.04913E-03-8.84254E-14
 -1       107 1.12161E-02 1.06062E-03-9.29249E-14
 -1       108 1.15016E-02 1.07205E-03-9.74701E-14
 -1       109 1.17872E-02 1.08345E-03-1.02074E-13
 -1       110 1.20728E-02 1.09482E-03-1.06725E-13
 -1       111 1.23584E-02 1.10618E-03-1.11405E-13
 -1       112 1.26441E-02 1.11753E-03-1.16102E-13
 -1       113 1.29298E-02 1.12887E-03-1.20815E-13
 -1       114 1.32154E-02 1.14022E-03-1.25539E-13
 -1       115 1.35011E-02 1.15157E-03-1.30293E-13
 -1       116 1.37868E-02 1.16291E-03-1.35082E-13
 -1       117 1.40725E-02 1.17426E-03-1.39897E-13
 -1       118 1.43583E-02 1.18562E-03-1.44743E-13
 -1       119 1.46440E-02 1.19698E-03-1.49614E-13
 -1       120 1.49297E-02 1.20834E-03-1.54494E-13
 -1       121 1.51899E-02 1.13484E-03-1.59474E-13
 -1       122 1.51788E-02 1.05056E-03-1.59854E-13
 -1       123 1.51676E-02 9.66272E-04-1.60235E-13
 -1       124 1.51564E-02 8.81984E-04-1.60628E-13
 -1       125 1.51452E-02 7.97693E-04-1.61042E-13
 -1       126 1.51342E-02 7.14827E-04-1.61438E-13
 -1       127 1.51231E-02 6.30530E-04-1.61843E-13
 -1       128 1.51119E-02 5.46232E-04-1.62247E-13
 -1       129 1.51007E-02 4.61933E-04-1.62640E-13
 -1       130 1.50895E-02 3.77634E-04-1.63001E-13
 -1       131 1.50784E-02 2.93337E-04-1.63360E-13
 -1       132 1.50674E-02 2.10472E-04-1.63722E-13
 -1       133 1.50562E-02 1.26181E-04-1.64058E-13
 -1       134 1.50451E-02 4.18922E-05-1.64328E-13
 -1       135 1.50339E-02-4.23940E-05-1.64584E-13
 -1       136 1.50227E-02-1.26679E-04-1.64836E-13
 -1       137 4.08525E-03 2.13300E-04-5.45915E-15
 -1       138 3.95490E-03 3.40013E-04-5.22213E-15
 -1       139 3.70418E-03 4.68525E-04-4.81524E-15
 -1       140 3.39378E-03 5.64324E-04-4.34964E-15
 -1       141 3.01789E-03 6.31520E-04-3.82524E-15
 -1       142 2.59780E-03 6.64197E-04-3.27784E-15
 -1       143 2.16627E-03 6.59480E-04-2.75519E-15
 -1       144 1.72984E-03 6.18665E-04-2.25942E-15
 -1       145 1.31921E-03 5.47105E-04-1.81858E-15
 -1       146 9.12253E-04 4.40501E-04-1.39743E-15
 -1       147 6.24842E-04 3.40018E-04-1.10685E-15
 -1       148 4.05161E-04 2.40173E-04-8.83794E-16
 -1       149 2.63806E-04 1.52588E-04-7.38754E-16
 -1       150 1.87840E-04 7.26660E-05-6.61722E-16
 -1       151 1.77236E-04-7.60669E-07-6.56816E-16
 -1       152 2.44287E-04-8.39524E-05-7.40998E-16
 -1       153 3.68947E-04-1.61802E-04-8.88805E-16
 -1       154 5.77213E-04-2.51240E-04-1.12850E-15
 -1       155 8.56236E-04-3.41653E-04-1.44715E-15
 -1       156 1.18618E-03-4.22234E-04-1.82483E-15
 -1       157 1.57045E-03-4.87884E-04-2.27220E-15
 -1       158 2.41662E-03-5.37270E-04-3.30688E-15
 -1       159 2.81413E-03-5.13883E-04-3.82241E-15
 -1       160 3.16788E-03-4.64679E-04-4.29404E-15
 -1       161 3.48246E-03-3.90925E-04-4.72496E-15
 -1       162 3.74477E-03-2.96905E-04-5.08857E-15
 -1       163 3.95765E-03-1.78999E-04-5.38056E-15
 -1       164 4.07984E-03-5.95397E-05-5.53590E-15
 -1       165 2.97660E-04-1.62665E-04-5.05306E-17
 -1       166 2.76307E-04-1.16500E-04-6.85893E-17
 -1       167 2.61573E-04-7.27664E-05-7.54537E-17
 -1       168 2.40067E-04-2.71632E-05-7.58298E-17
 -1       169 2.04001E-04 1.43978E-05-7.28652E-17
 -1       170 1.52890E-04 3.98041E-05-6.85622E-17
 -1       171 1.01912E-04 3.69416E-05-6.46388E-17
 -1       172 7.88950E-05 1.44562E-05-6.27668E-17
 -1       173 8.56437E-05-1.27494E-05-6.26449E-17
 -1       174 1.21666E-04-2.90421E-05-6.36393E-17
 -1       175 1.77086E-04-1.94793E-05-6.40086E-17
 -1       176 2.25734E-04 1.58776E-05-6.17148E-17
 -1       177 2.58499E-04 6.25251E-05-5.50233E-17
 -1       178 2.80993E-04 1.10055E-04-4.13759E-17
 -1       179 3.08525E-04 1.62399E-04-1.56261E-17
 -1       180 3.92773E-04 2.43837E-04 1.24954E-17
 -1       181 5.93900E-04-3.58520E-04-1.36305E-16
 -1       182 9.65436E-04-5.48487E-04-4.53034E-16
 -1       183 1.30841E-03-7.03147E-04-9.60224E-16
 -1       184 1.62984E-03-8.21131E-04-1.66077E-15
 -1       185 1.93581E-03-8.93268E-04-2.55555E-15
 -1       186 2.23443E-03-9.13361E-04-3.64415E-15
 -1       187 2.53425E-03-8.85315E-04-4.92053E-15
 -1       188 2.84131E-03-8.23187E-04-6.37795E-15
 -1       189 3.15740E-03-7.45368E-04-8.00781E-15
 -1       190 3.48071E-03-6.67892E-04-9.80325E-15
 -1       191 3.80761E-03-6.00832E-04-1.17527E-14
 -1       192 4.13443E-03-5.48242E-04-1.38491E-14
 -1       193 4.45837E-03-5.09965E-04-1.60924E-14
 -1       194 4.77777E-03-4.83677E-04-1.84728E-14
 -1       195 5.09192E-03-4.66376E-04-2.09892E-14
 -1       196 5.40082E-03-4.55221E-04-2.36337E-14
 -1       197 5.70489E-03-4.47884E-04-2.63996E-14
 -1       198 6.00475E-03-4.42618E-04-2.92848E-14
 -1       199 6.30108E-03-4.38202E-04-3.22834E-14
 -1       200 6.59457E-03-4.33838E-04-3.53926E-14
 -1       201 6.88582E-03-4.29041E-04-3.86200E-14
 -1       202 7.17535E-03-4.23551E-04-4.19680E-14
 -1       203 7.46359E-03-4.17257E-04-4.54397E-14
 -1       204 7.75089E-03-4.10150E-04-4.90265E-14
 -1       205 8.03751E-03-4.02275E-04-5.27201E-14
 -1       206 8.32367E-03-3.93712E-04-5.65147E-14
 -1       207 8.60951E-03-3.84553E-04-6.04082E-14
 -1       208 8.89517E-03-3.74893E-04-6.44048E-14
 -1       209 9.18070E-03-3.64820E-04-6.84923E-14
 -1       210 9.46618E-03-3.54417E-04-7.26696E-14
 -1       211 9.75164E-03-3.43751E-04-7.69252E-14
 -1       212 1.00371E-02-3.32883E-04-8.12499E-14
 -1       213 1.03226E-02-3.21861E-04-8.56443E-14
 -1       214 1.06081E-02-3.10724E-04-9.00989E-14
 -1       215 1.08936E-02-2.99504E-04-9.46200E-14
 -1       216 1.11792E-02-2.88224E-04-9.91992E-14
 -1       217 1.14648E-02-2.76902E-04-1.03823E-13
 -1       218 1.17504E-02-2.65553E-04-1.08490E-13
 -1       219 1.20361E-02-2.54187E-04-1.13205E-13
 -1       220 1.23217E-02-2.42810E-04-1.17974E-13
 -1       221 1.26074E-02-2.31428E-04-1.22794E-13
 -1       222 1.28931E-02-2.20044E-04-1.27662E-13
 -1       223 1.31788E-02-2.08660E-04-1.32570E-13
 -1       224 1.34645E-02-1.97279E-04-1.37520E-13
 -1       225 1.37502E-02-1.85901E-04-1.42501E-13
 -1       226 1.40359E-02-1.74526E-04-1.47499E-13
 -1       227 1.43216E-02-1.63155E-04-1.52514E-13
 -1       228 1.46073E-02-1.51787E-04-1.57543E-13
 -1       229 7.98060E-04 4.65082E-04-1.07831E-16
 -1       230 1.17254E-03 6.55917E-04-3.85556E-16
 -1       231 1.51894E-03 8.19541E-04-8.32674E-16
 -1       232 1.84220E-03 9.44198E-04-1.45629E-15
 -1       233 2.15001E-03 1.01441E-03-2.26182E-15
 -1       234 2.45320E-03 1.02450E-03-3.25194E-15
 -1       235 2.76187E-03 9.84650E-04-4.42694E-15
 -1       236 3.08133E-03 9.16415E-04-5.78302E-15
 -1       237 3.41108E-03 8.42433E-04-7.31308E-15
 -1       238 3.74701E-03 7.78723E-04-9.01012E-15
 -1       239 4.08407E-03 7.32739E-04-1.08669E-14
 -1       240 4.41820E-03 7.05361E-04-1.28741E-14
 -1       241 4.74682E-03 6.93916E-04-1.50268E-14
 -1       242 5.06884E-03 6.94530E-04-1.73221E-14
 -1       243 5.38415E-03 7.03457E-04-1.97598E-14
 -1       244 5.69326E-03 7.17627E-04-2.23343E-14
 -1       245 5.99699E-03 7.34755E-04-2.50416E-14
 -1       246 6.29624E-03 7.53253E-04-2.78816E-14
 -1       247 6.59188E-03 7.72081E-04-3.08526E-14
 -1       248 6.88470E-03 7.90604E-04-3.39451E-14
 -1       249 7.17534E-03 8.08467E-04-3.71549E-14
 -1       250 7.46436E-03 8.25507E-04-4.04787E-14
 -1       251 7.75219E-03 8.41682E-04-4.39182E-14
 -1       252 8.03916E-03 8.57026E-04-4.74726E-14
 -1       253 8.32554E-03 8.71612E-04-5.11433E-14
 -1       254 8.61151E-03 8.85536E-04-5.49250E-14
 -1       255 8.89723E-03 8.98895E-04-5.88097E-14
 -1       256 9.18279E-03 9.11787E-04-6.27936E-14
 -1       257 9.46827E-03 9.24299E-04-6.68634E-14
 -1       258 9.75371E-03 9.36508E-04-7.10085E-14
 -1       259 1.00392E-02 9.48481E-04-7.52256E-14
 -1       260 1.03246E-02 9.60272E-04-7.95116E-14
 -1       261 1.06101E-02 9.71926E-04-8.38699E-14
 -1       262 1.08956E-02 9.83479E-04-8.82977E-14
 -1       263 1.11811E-02 9.94959E-04-9.27875E-14
 -1       264 1.14667E-02 1.00639E-03-9.73290E-14
 -1       265 1.17523E-02 1.01778E-03-1.01924E-13
 -1       266 1.20379E-02 1.02915E-03-1.06567E-13
 -1       267 1.23236E-02 1.04051E-03-1.11243E-13
 -1       268 1.26092E-02 1.05185E-03-1.15940E-13
 -1       269 1.28949E-02 1.06320E-03-1.20654E-13
 -1       270 1.31806E-02 1.07454E-03-1.25388E-13
 -1       271 1.34663E-02 1.08588E-03-1.30148E-13
 -1       272 1.37520E-02 1.09723E-03-1.34939E-13
 -1       273 1.40377E-02 1.10858E-03-1.39755E-13
 -1       274 1.43234E-02 1.11993E-03-1.44595E-13
 -1       275 1.46091E-02 1.13129E-03-1.49453E-13
 -1       276 1.48948E-02 1.14265E-03-1.54322E-13
 -1       277 1.49369E-02 1.08286E-03-1.55452E-13
 -1       278 1.49258E-02 9.98575E-04-1.55831E-13
 -1       279 1.49146E-02 9.14286E-04-1.56217E-13
 -1       280 1.49034E-02 8.29995E-04-1.56609E-13
 -1       281 1.48924E-02 7.47131E-04-1.56996E-13
 -1       282 1.48812E-02 6.62836E-04-1.57387E-13
 -1       283 1.48700E-02 5.78539E-04-1.57772E-13
 -1       284 1.48589E-02 4.94242E-04-1.58149E-13
 -1       285 1.48477E-02 4.09944E-04-1.58513E-13
 -1       286 1.48365E-02 3.25648E-04-1.58863E-13
 -1       287 1.48256E-02 2.42781E-04-1.59200E-13
 -1       288 1.48144E-02 1.58488E-04-1.59516E-13
 -1       289 1.48032E-02 7.41976E-05-1.59810E-13
 -1       290 1.47921E-02-1.00909E-05-1.60078E-13
 -1       291 1.46997E-02-8.09391E-05-1.58811E-13
 -1       292 4.13631E-03 1.11507E-04-6.20593E-15
 -1       293 4.01418E-03 1.85624E-04-5.98047E-15
 -1       294 3.75856E-03 2.70504E-04-5.71536E-15
 -1       295 3.43354E-03 4.21656E-04-5.00587E-15
 -1       296 3.06475E-03 5.55490E-04-4.40328E-15
 -1       297 2.69187E-03 6.71615E-04-3.73548E-15
 -1       298 2.33405E-03 7.28762E-04-3.08256E-15
 -1       299 1.97917E-03 7.12637E-04-2.49002E-15
 -1       300 1.62859E-03 6.24832E-04-1.95938E-15
 -1       301 1.26814E-03 4.70706E-04-1.46821E-15
 -1       302 8.89227E-04 3.14970E-04-1.13072E-15
 -1       303 5.94836E-04 1.89748E-04-8.74717E-16
 -1       304 3.68096E-04 1.03540E-04-6.97057E-16
 -1       305 2.23150E-04 5.39087E-05-5.91606E-16
 -1       306 1.64799E-04 2.62887E-05-5.52931E-16
 -1       307 1.99764E-04 1.04036E-05-5.48827E-16
 -1       308 3.30880E-04-3.98827E-05-6.98592E-16
 -1       309 5.43648E-04-1.06013E-04-8.77509E-16
 -1       310 8.31141E-04-2.16711E-04-1.15870E-15
 -1       311 1.14842E-03-3.52035E-04-1.53190E-15
 -1       312 1.48504E-03-4.79961E-04-1.98122E-15
 -1       313 1.84222E-03-5.78415E-04-2.53550E-15
 -1       314 2.18722E-03-6.04870E-04-3.14194E-15
 -1       315 2.51242E-03-5.70613E-04-3.77832E-15
 -1       316 2.85690E-03-4.77385E-04-4.35864E-15
 -1       317 3.18715E-03-3.59886E-04-4.92340E-15
 -1       318 3.50472E-03-2.35109E-04-5.42684E-15
 -1       319 3.78952E-03-1.08509E-04-5.92927E-15
 -1       320 4.01244E-03-2.59172E-05-6.13160E-15
 -1       321 4.13423E-03 4.85574E-05-6.35154E-15
 -1       322 4.11515E-04-2.42092E-04-7.27432E-17
 -1       323 5.60892E-04-2.12782E-04-2.68381E-16
 -1       324 5.89529E-04-2.89993E-04-2.45477E-16
 -1       325 4.74896E-04-5.47712E-05-2.64705E-16
 -1       326 3.78383E-04 1.37172E-05-2.48807E-16
 -1       327 2.50799E-04 4.81932E-05-2.29119E-16
 -1       328 1.61236E-04 4.00284E-05-2.14894E-16
 -1       329 1.82182E-04-2.13909E-05-1.96747E-16
 -1       330 3.00383E-04-1.35438E-05-2.04413E-16
 -1       331 4.17416E-04 4.02515E-05-2.07435E-16
 -1       332 4.96361E-04 1.18109E-04-2.00550E-16
 -1       333 5.43608E-04 1.99752E-04-1.80269E-16
 -1       334 5.85816E-04 2.85096E-04-1.40723E-16
 -1       335 6.79418E-04 3.70899E-04-1.32537E-16
 -1       336 1.05852E-03 5.64685E-04-4.07958E-16
 -1       337 1.07718E-03-5.43039E-04-7.59877E-16
 -1       338 1.42385E-03-6.85748E-04-1.37356E-15
 -1       339 1.75503E-03-7.88267E-04-2.17773E-15
 -1       340 2.07512E-03-8.37343E-04-3.17520E-15
 -1       341 2.39173E-03-8.29845E-04-4.36372E-15
 -1       342 2.71157E-03-7.77161E-04-5.73683E-15
 -1       343 3.03690E-03-6.99753E-04-7.28479E-15
 -1       344 3.36569E-03-6.17630E-04-8.99929E-15
 -1       345 3.69434E-03-5.44233E-04-1.08709E-14
 -1       346 4.01984E-03-4.85606E-04-1.28902E-14
 -1       347 4.34056E-03-4.42474E-04-1.50545E-14
 -1       348 4.65598E-03-4.12731E-04-1.73609E-14
 -1       349 4.96625E-03-3.93262E-04-1.98047E-14
 -1       350 5.27185E-03-3.80979E-04-2.23777E-14
 -1       351 5.57336E-03-3.73277E-04-2.50735E-14
 -1       352 5.87141E-03-3.68163E-04-2.78903E-14
 -1       353 6.16659E-03-3.64216E-04-3.08247E-14
 -1       354 6.45942E-03-3.60485E-04-3.38709E-14
 -1       355 6.75039E-03-3.56382E-04-3.70326E-14
 -1       356 7.03990E-03-3.51577E-04-4.03142E-14
 -1       357 7.32827E-03-3.45919E-04-4.37159E-14
 -1       358 7.61580E-03-3.39376E-04-4.72367E-14
 -1       359 7.90269E-03-3.31985E-04-5.08691E-14
 -1       360 8.18912E-03-3.23826E-04-5.46050E-14
 -1       361 8.47524E-03-3.14998E-04-5.84404E-14
 -1       362 8.76113E-03-3.05601E-04-6.23764E-14
 -1       363 9.04688E-03-2.95736E-04-6.64108E-14
 -1       364 9.33254E-03-2.85492E-04-7.05319E-14
 -1       365 9.61815E-03-2.74947E-04-7.47341E-14
 -1       366 9.90373E-03-2.64168E-04-7.90132E-14
 -1       367 1.01893E-02-2.53211E-04-8.33636E-14
 -1       368 1.04749E-02-2.42120E-04-8.77776E-14
 -1       369 1.07605E-02-2.30930E-04-9.22573E-14
 -1       370 1.10461E-02-2.19671E-04-9.67946E-14
 -1       371 1.13317E-02-2.08362E-04-1.01386E-13
 -1       372 1.16174E-02-1.97020E-04-1.06029E-13
 -1       373 1.19030E-02-1.85657E-04-1.10713E-13
 -1       374 1.21887E-02-1.74281E-04-1.15450E-13
 -1       375 1.24744E-02-1.62898E-04-1.20237E-13
 -1       376 1.27600E-02-1.51513E-04-1.25071E-13
 -1       377 1.30457E-02-1.40127E-04-1.29949E-13
 -1       378 1.33314E-02-1.28743E-04-1.34864E-13
 -1       379 1.36171E-02-1.17362E-04-1.39812E-13
 -1       380 1.39029E-02-1.05985E-04-1.44788E-13
 -1       381 1.41886E-02-9.46112E-05-1.49790E-13
 -1       382 1.44441E-02-8.77737E-05-1.54293E-13
 -1       383 1.41901E-03 7.37144E-04-8.46752E-16
 -1       384 1.75986E-03 8.74032E-04-1.45978E-15
 -1       385 2.08543E-03 9.56354E-04-2.25440E-15
 -1       386 2.40469E-03 9.74493E-04-3.23482E-15
 -1       387 2.72659E-03 9.37211E-04-4.40054E-15
 -1       388 3.05547E-03 8.67675E-04-5.74650E-15
 -1       389 3.39011E-03 7.90957E-04-7.26584E-15
 -1       390 3.72649E-03 7.24659E-04-8.95076E-15
 -1       391 4.06065E-03 6.76822E-04-1.07948E-14
 -1       392 4.39002E-03 6.48363E-04-1.27880E-14
 -1       393 4.71340E-03 6.36455E-04-1.49260E-14
 -1       394 5.03056E-03 6.37048E-04-1.72062E-14
 -1       395 5.34184E-03 6.46242E-04-1.96275E-14
 -1       396 5.64786E-03 6.60844E-04-2.21853E-14
 -1       397 5.94938E-03 6.78482E-04-2.48769E-14
 -1       398 6.24715E-03 6.97503E-04-2.76983E-14
 -1       399 6.54187E-03 7.16828E-04-3.06511E-14
 -1       400 6.83418E-03 7.35800E-04-3.37269E-14
 -1       401 7.12460E-03 7.54055E-04-3.69207E-14
 -1       402 7.41358E-03 7.71425E-04-4.02285E-14
 -1       403 7.70149E-03 7.87874E-04-4.36507E-14
 -1       404 7.98860E-03 8.03438E-04-4.71877E-14
 -1       405 8.27515E-03 8.18199E-04-5.08407E-14
 -1       406 8.56131E-03 8.32258E-04-5.46028E-14
 -1       407 8.84720E-03 8.45721E-04-5.84692E-14
 -1       408 9.13292E-03 8.58691E-04-6.24348E-14
 -1       409 9.41854E-03 8.71260E-04-6.64868E-14
 -1       410 9.70410E-03 8.83510E-04-7.06184E-14
 -1       411 9.98963E-03 8.95511E-04-7.48238E-14
 -1       412 1.02752E-02 9.07322E-04-7.90970E-14
 -1       413 1.05607E-02 9.18989E-04-8.34402E-14
 -1       414 1.08463E-02 9.30549E-04-8.78552E-14
 -1       415 1.11318E-02 9.42033E-04-9.23335E-14
 -1       416 1.14174E-02 9.53463E-04-9.68656E-14
 -1       417 1.17031E-02 9.64856E-04-1.01452E-13
 -1       418 1.19887E-02 9.76225E-04-1.06085E-13
 -1       419 1.22744E-02 9.87579E-04-1.10757E-13
 -1       420 1.25600E-02 9.98925E-04-1.15450E-13
 -1       421 1.28457E-02 1.01027E-03-1.20168E-13
 -1       422 1.31314E-02 1.02161E-03-1.24904E-13
 -1       423 1.34171E-02 1.03295E-03-1.29666E-13
 -1       424 1.37028E-02 1.04430E-03-1.34456E-13
 -1       425 1.39885E-02 1.05564E-03-1.39272E-13
 -1       426 1.42742E-02 1.06700E-03-1.44107E-13
 -1       427 1.45599E-02 1.07835E-03-1.48959E-13
 -1       428 1.47484E-02 1.08061E-03-1.52204E-13
 -1       429 1.46616E-02 8.62302E-04-1.52190E-13
 -1       430 1.46727E-02 9.46592E-04-1.51806E-13
 -1       431 1.47106E-02 1.01360E-03-1.52003E-13
 -1       432 1.46506E-02 7.79438E-04-1.52567E-13
 -1       433 1.46394E-02 6.95144E-04-1.52944E-13
 -1       434 1.46282E-02 6.10847E-04-1.53312E-13
 -1       435 1.46170E-02 5.26550E-04-1.53673E-13
 -1       436 1.46059E-02 4.42252E-04-1.54033E-13
 -1       437 1.45947E-02 3.57955E-04-1.54380E-13
 -1       438 1.45837E-02 2.75088E-04-1.54704E-13
 -1       439 1.45725E-02 1.90793E-04-1.55013E-13
 -1       440 1.45614E-02 1.06501E-04-1.55305E-13
 -1       441 1.45502E-02 2.22107E-05-1.55582E-13
 -1       442 3.92621E-03 1.66556E-04-6.70760E-15
 -1       443 4.17024E-03 8.37427E-05-7.16275E-15
 -1       444 4.10136E-03 1.15315E-04-6.93086E-15
 -1       445 3.53144E-03 3.13855E-04-5.82338E-15
 -1       446 3.20893E-03 4.52663E-04-5.13573E-15
 -1       447 5.30531E-04-1.34656E-04-2.72880E-16
 -1       448 2.46507E-03 7.36789E-04-3.53329E-15
 -1       449 2.15313E-03 7.64458E-04-2.80676E-15
 -1       450 1.84527E-03 7.10081E-04-2.17985E-15
 -1       451 1.52355E-03 5.72836E-04-1.63225E-15
 -1       452 1.08750E-03 3.40617E-04-1.10339E-15
 -1       453 7.83647E-04 1.97467E-04-8.58736E-16
 -1       454 5.03230E-04 7.91890E-05-6.29786E-16
 -1       455 2.95108E-04 1.95615E-05-4.79810E-16
 -1       456 1.80358E-04 1.28082E-05-4.28288E-16
 -1       457 1.59997E-04 2.28036E-05-4.04948E-16
 -1       458 2.76533E-04 2.15778E-05-5.02614E-16
 -1       459 4.39011E-04-1.41047E-05-6.32944E-16
 -1       460 7.17185E-04-1.12721E-04-8.80020E-16
 -1       461 1.04504E-03-2.60479E-04-1.22868E-15
 -1       462 1.36885E-03-4.16018E-04-1.63952E-15
 -1       463 1.68593E-03-5.55797E-04-2.17988E-15
 -1       464 2.02412E-03-6.36617E-04-2.90645E-15
 -1       465 2.27717E-03-6.29865E-04-3.51216E-15
 -1       466 2.65477E-03-5.25802E-04-4.41715E-15
 -1       467 2.93002E-03-4.13180E-04-4.98650E-15
 -1       468 3.29562E-03-2.56109E-04-5.64046E-15
 -1       469 3.59883E-03-1.25357E-04-6.24380E-15
 -1       470 3.92113E-03-2.90844E-06-6.92398E-15
 -1       471 4.08574E-03 4.63832E-05-7.15059E-15
 -1       472 2.82877E-03 6.15314E-04-4.31434E-15
 -1       473 1.30391E-04 4.37629E-06-1.93532E-16
 -1       474 3.76048E-03 2.18709E-04-6.80003E-15
 -1       475 1.30339E-03 4.53039E-04-1.23700E-15
 -1       476 4.69280E-04 3.31854E-06-4.63822E-16
 -1       477 6.50588E-04-7.96164E-05-5.04923E-16
 -1       478 5.52426E-04 6.56489E-05-4.13057E-16
 -1       479 3.28413E-04-6.77996E-07-3.59217E-16
 -1       480 8.30045E-04 2.91400E-04-4.44557E-16
 -1       481 8.83203E-04 3.96637E-04-4.00782E-16
 -1       482 9.66307E-04 4.79933E-04-4.10499E-16
 -1       483 1.22122E-03-5.36093E-04-1.08833E-15
 -1       484 1.33448E-03 6.58428E-04-8.40365E-16
 -1       485 1.68742E-03 8.07901E-04-1.44147E-15
 -1       486 1.57062E-03-6.69191E-04-1.80189E-15
 -1       487 1.90734E-03-7.53715E-04-2.70735E-15
 -1       488 2.23688E-03-7.72864E-04-3.80680E-15
 -1       489 2.56830E-03-7.31295E-04-5.09506E-15
 -1       490 2.90576E-03-6.52853E-04-6.56413E-15
 -1       491 3.24605E-03-5.64610E-04-8.20083E-15
 -1       492 3.58312E-03-4.84869E-04-9.99645E-15
 -1       493 3.91271E-03-4.21318E-04-1.19415E-14
 -1       494 4.23355E-03-3.74719E-04-1.40299E-14
 -1       495 4.54637E-03-3.42607E-04-1.62595E-14
 -1       496 4.85266E-03-3.21580E-04-1.86300E-14
 -1       497 5.15392E-03-3.08363E-04-2.11337E-14
 -1       498 5.45139E-03-3.00216E-04-2.37590E-14
 -1       499 5.74600E-03-2.95030E-04-2.65067E-14
 -1       500 6.03844E-03-2.91277E-04-2.93762E-14
 -1       501 6.32921E-03-2.87914E-04-3.23587E-14
 -1       502 6.61870E-03-2.84274E-04-3.54557E-14
 -1       503 6.90720E-03-2.79967E-04-3.86718E-14
 -1       504 7.19493E-03-2.74803E-04-4.20082E-14
 -1       505 7.48208E-03-2.68720E-04-4.54622E-14
 -1       506 7.76878E-03-2.61742E-04-4.90302E-14
 -1       507 8.05516E-03-2.53941E-04-5.27061E-14
 -1       508 8.34130E-03-2.45413E-04-5.64850E-14
 -1       509 8.62727E-03-2.36265E-04-6.03621E-14
 -1       510 8.91311E-03-2.26600E-04-6.43376E-14
 -1       511 9.19888E-03-2.16515E-04-6.84053E-14
 -1       512 9.48459E-03-2.06093E-04-7.25561E-14
 -1       513 9.77028E-03-1.95408E-04-7.67864E-14
 -1       514 1.00559E-02-1.84521E-04-8.10936E-14
 -1       515 1.03416E-02-1.73482E-04-8.54663E-14
 -1       516 1.06273E-02-1.62330E-04-8.99045E-14
 -1       517 1.09129E-02-1.51096E-04-9.44034E-14
 -1       518 1.11986E-02-1.39804E-04-9.89573E-14
 -1       519 1.14843E-02-1.28474E-04-1.03569E-13
 -1       520 1.17699E-02-1.17117E-04-1.08227E-13
 -1       521 1.20556E-02-1.05745E-04-1.12931E-13
 -1       522 1.23413E-02-9.43632E-05-1.17687E-13
 -1       523 1.26270E-02-8.29776E-05-1.22490E-13
 -1       524 1.29127E-02-7.15911E-05-1.27335E-13
 -1       525 1.31984E-02-6.02058E-05-1.32220E-13
 -1       526 1.34841E-02-4.88230E-05-1.37139E-13
 -1       527 1.37698E-02-3.74435E-05-1.42086E-13
 -1       528 1.40555E-02-2.60677E-05-1.47064E-13
 -1       529 2.23376E-03 9.04270E-04-2.87719E-15
 -1       530 2.56999E-03 8.84767E-04-3.97734E-15
 -1       531 2.91240E-03 8.17227E-04-5.26029E-15
 -1       532 3.25889E-03 7.34409E-04-6.71986E-15
 -1       533 3.60302E-03 6.60177E-04-8.34418E-15
 -1       534 3.93974E-03 6.05389E-04-1.01280E-14
 -1       535 4.26727E-03 5.71600E-04-1.20614E-14
 -1       536 4.58614E-03 5.55876E-04-1.41383E-14
 -1       537 4.89777E-03 5.53926E-04-1.63570E-14
 -1       538 5.20364E-03 5.61604E-04-1.87166E-14
 -1       539 5.50499E-03 5.75484E-04-2.12129E-14
 -1       540 5.80279E-03 5.92973E-04-2.38439E-14
 -1       541 6.09778E-03 6.12233E-04-2.66039E-14
 -1       542 6.39055E-03 6.32033E-04-2.94934E-14
 -1       543 6.68156E-03 6.51598E-04-3.25092E-14
 -1       544 6.97118E-03 6.70483E-04-3.56466E-14
 -1       545 7.25972E-03 6.88468E-04-3.88991E-14
 -1       546 7.54743E-03 7.05482E-04-4.22663E-14
 -1       547 7.83452E-03 7.21546E-04-4.57466E-14
 -1       548 8.12114E-03 7.36735E-04-4.93413E-14
 -1       549 8.40743E-03 7.51152E-04-5.30462E-14
 -1       550 8.69347E-03 7.64907E-04-5.68600E-14
 -1       551 8.97935E-03 7.78111E-04-6.07724E-14
 -1       552 9.26512E-03 7.90864E-04-6.47771E-14
 -1       553 9.55082E-03 8.03256E-04-6.88642E-14
 -1       554 9.83647E-03 8.15366E-04-7.30312E-14
 -1       555 1.01221E-02 8.27256E-04-7.72675E-14
 -1       556 1.04077E-02 8.38981E-04-8.15715E-14
 -1       557 1.06934E-02 8.50583E-04-8.59483E-14
 -1       558 1.09790E-02 8.62096E-04-9.03945E-14
 -1       559 1.12646E-02 8.73544E-04-9.48990E-14
 -1       560 1.15503E-02 8.84950E-04-9.94558E-14
 -1       561 1.18360E-02 8.96326E-04-1.04065E-13
 -1       562 1.21216E-02 9.07683E-04-1.08718E-13
 -1       563 1.24073E-02 9.19030E-04-1.13402E-13
 -1       564 1.26930E-02 9.30372E-04-1.18111E-13
 -1       565 1.29787E-02 9.41712E-04-1.22843E-13
 -1       566 1.32644E-02 9.53052E-04-1.27599E-13
 -1       567 1.35501E-02 9.64395E-04-1.32380E-13
 -1       568 1.38358E-02 9.75741E-04-1.37189E-13
 -1       569 1.41215E-02 9.87091E-04-1.42020E-13
 -1       570 1.44072E-02 9.98444E-04-1.46864E-13
 -1       571 1.43975E-02 7.27454E-04-1.48522E-13
 -1       572 1.43864E-02 6.43158E-04-1.48877E-13
 -1       573 1.44197E-02 8.94611E-04-1.47783E-13
 -1       574 1.44086E-02 8.11034E-04-1.48158E-13
 -1       575 1.43752E-02 5.58860E-04-1.49227E-13
 -1       576 1.43640E-02 4.74561E-04-1.49572E-13
 -1       577 1.43528E-02 3.90262E-04-1.49908E-13
 -1       578 1.43419E-02 3.07393E-04-1.50227E-13
 -1       579 1.43307E-02 2.23096E-04-1.50532E-13
 -1       580 1.43195E-02 1.38802E-04-1.50822E-13
 -1       581 1.43084E-02 5.45102E-05-1.51100E-13
 -1       582 4.18384E-03 7.51855E-05-8.06405E-15
 -1       583 1.96152E-03 8.78831E-04-2.09298E-15
 -1       584 3.01454E-03 5.40839E-04-5.16246E-15
 -1       585 3.75581E-03-4.88262E-05-7.26071E-15
 -1       586 1.85742E-03-6.27819E-04-2.53739E-15
 -1       587 2.06745E-04-8.30873E-06-3.13951E-16
 -1       588 7.44221E-04 1.81817E-04-4.61569E-16
 -1       589 2.59965E-04 4.05751E-05-3.70677E-16
 -1       590 3.36705E-03 3.78477E-04-6.03526E-15
 -1       591 2.69298E-03 6.80884E-04-4.29791E-15
 -1       592 8.75075E-04-1.61414E-04-8.79806E-16
 -1       593 2.27926E-03 7.85290E-04-3.15430E-15
 -1       594 1.70183E-03 6.66966E-04-1.82796E-15
 -1       595 8.95460E-04 2.25212E-04-7.94385E-16
 -1       596 6.26809E-04 9.84155E-05-5.82118E-16
 -1       597 3.42724E-03-1.78959E-04-6.68696E-15
 -1       598 5.68293E-04-3.17533E-05-6.07492E-16
 -1       599 1.18384E-03-3.19522E-04-1.26787E-15
 -1       600 1.50510E-03-4.92545E-04-1.76051E-15
 -1       601 2.14611E-03-6.60650E-04-3.31261E-15
 -1       602 2.45747E-03-6.03703E-04-4.21141E-15
 -1       603 2.80606E-03-4.64995E-04-5.16196E-15
 -1       604 3.11348E-03-3.19977E-04-5.89994E-15
 -1       605 4.04016E-03 3.81048E-05-7.90893E-15
 -1       606 2.01563E-03 7.72037E-04-2.48948E-15
 -1       607 8.89388E-04-3.73147E-04-6.06591E-16
 -1       608 7.56216E-04-1.81260E-04-5.32059E-16
 -1       609 4.07663E-03 1.25155E-04-7.77604E-15
 -1       610 3.62211E-03 2.89479E-04-7.01079E-15
 -1       611 1.42485E-02-2.00513E-05-1.50450E-13
 -1       612 4.20643E-03 9.38562E-05-8.27886E-15
 -1       613 3.96477E-03 1.66479E-04-7.86082E-15
 -1       614 1.47913E-03 5.65115E-04-1.40041E-15
 -1       615 2.51227E-03 7.63225E-04-3.86136E-15
 -1       616 1.08285E-03 3.33468E-04-8.99522E-16
 -1       617 8.31287E-04-2.78105E-04-5.76775E-16
 -1       618 1.17585E-03 4.98648E-04-7.79826E-16
 -1       619 1.47816E-03 6.58882E-04-1.20097E-15
 -1       620 1.41340E-02 8.83257E-04-1.42930E-13
 -1       621 3.12792E-03 6.75584E-04-6.15584E-15
 -1       622 1.73471E-03-6.60257E-04-2.24407E-15
 -1       623 2.07813E-03-7.18615E-04-3.25072E-15
 -1       624 2.42084E-03-6.93772E-04-4.45332E-15
 -1       625 2.77144E-03-6.10965E-04-5.84296E-15
 -1       626 3.12695E-03-5.10976E-04-7.40670E-15
 -1       627 3.47685E-03-4.22063E-04-9.12811E-15
 -1       628 3.81395E-03-3.53894E-04-1.10000E-14
 -1       629 4.13685E-03-3.05648E-04-1.30151E-14
 -1       630 4.44772E-03-2.73130E-04-1.51711E-14
 -1       631 4.74975E-03-2.52013E-04-1.74664E-14
 -1       632 5.04581E-03-2.38709E-04-1.98977E-14
 -1       633 5.33804E-03-2.30453E-04-2.24549E-14
 -1       634 5.62790E-03-2.25187E-04-2.51347E-14
 -1       635 5.91631E-03-2.21429E-04-2.79367E-14
 -1       636 6.20382E-03-2.18150E-04-3.08559E-14
 -1       637 6.49077E-03-2.14674E-04-3.38892E-14
 -1       638 6.77735E-03-2.10589E-04-3.70400E-14
 -1       639 7.06370E-03-2.05679E-04-4.03116E-14
 -1       640 7.34987E-03-1.99860E-04-4.36995E-14
 -1       641 7.63591E-03-1.93139E-04-4.72025E-14
 -1       642 7.92187E-03-1.85577E-04-5.08187E-14
 -1       643 8.20776E-03-1.77264E-04-5.45400E-14
 -1       644 8.49359E-03-1.68301E-04-5.83618E-14
 -1       645 8.77939E-03-1.58793E-04-6.22792E-14
 -1       646 9.06517E-03-1.48837E-04-6.62914E-14
 -1       647 9.35092E-03-1.38521E-04-7.03915E-14
 -1       648 9.63665E-03-1.27919E-04-7.45735E-14
 -1       649 9.92238E-03-1.17097E-04-7.88336E-14
 -1       650 1.02081E-02-1.06107E-04-8.31662E-14
 -1       651 1.04938E-02-9.49922E-05-8.75647E-14
 -1       652 1.07795E-02-8.37857E-05-9.20230E-14
 -1       653 1.10652E-02-7.25141E-05-9.65407E-14
 -1       654 1.13509E-02-6.11973E-05-1.01119E-13
 -1       655 1.16367E-02-4.98502E-05-1.05749E-13
 -1       656 1.19224E-02-3.84838E-05-1.10425E-13
 -1       657 1.22081E-02-2.71060E-05-1.15149E-13
 -1       658 1.24938E-02-1.57224E-05-1.19919E-13
 -1       659 1.27795E-02-4.33667E-06-1.24733E-13
 -1       660 1.30652E-02 7.04872E-06-1.29588E-13
 -1       661 1.33509E-02 1.84322E-05-1.34481E-13
 -1       662 1.36366E-02 2.98129E-05-1.39399E-13
 -1       663 1.39223E-02 4.11901E-05-1.44351E-13
 -1       664 2.76438E-03 7.70796E-04-4.75370E-15
 -1       665 4.27665E-03 8.57506E-05-9.39579E-15
 -1       666 2.40654E-03 8.38690E-04-3.53117E-15
 -1       667 3.48601E-03 5.90434E-04-7.72528E-15
 -1       668 3.83036E-03 5.29415E-04-9.45236E-15
 -1       669 4.15894E-03 4.92679E-04-1.13285E-14
 -1       670 4.47419E-03 4.75457E-04-1.33470E-14
 -1       671 4.77976E-03 4.72513E-04-1.55052E-14
 -1       672 5.07883E-03 4.79414E-04-1.78049E-14
 -1       673 5.37369E-03 4.92715E-04-2.02395E-14
 -1       674 5.66586E-03 5.09852E-04-2.28093E-14
 -1       675 5.95624E-03 5.28988E-04-2.55093E-14
 -1       676 6.24540E-03 5.48857E-04-2.83391E-14
 -1       677 6.53369E-03 5.68636E-04-3.12967E-14
 -1       678 6.82134E-03 5.87826E-04-3.43737E-14
 -1       679 7.10850E-03 6.06162E-04-3.75696E-14
 -1       680 7.39529E-03 6.23536E-04-4.08816E-14
 -1       681 7.68178E-03 6.39946E-04-4.43093E-14
 -1       682 7.96804E-03 6.55452E-04-4.78454E-14
 -1       683 8.25414E-03 6.70147E-04-5.14969E-14
 -1       684 8.54011E-03 6.84140E-04-5.52582E-14
 -1       685 8.82598E-03 6.97542E-04-5.91192E-14
 -1       686 9.11179E-03 7.10457E-04-6.30743E-14
 -1       687 9.39756E-03 7.22979E-04-6.71164E-14
 -1       688 9.68329E-03 7.35190E-04-7.12407E-14
 -1       689 9.96900E-03 7.47159E-04-7.54394E-14
 -1       690 1.02547E-02 7.58943E-04-7.97102E-14
 -1       691 1.05404E-02 7.70589E-04-8.40473E-14
 -1       692 1.08261E-02 7.82133E-04-8.84564E-14
 -1       693 1.11118E-02 7.93605E-04-9.29334E-14
 -1       694 1.13975E-02 8.05025E-04-9.74661E-14
 -1       695 1.16832E-02 8.16412E-04-1.02049E-13
 -1       696 1.19689E-02 8.27776E-04-1.06681E-13
 -1       697 1.22546E-02 8.39126E-04-1.11350E-13
 -1       698 1.25403E-02 8.50470E-04-1.16049E-13
 -1       699 1.28260E-02 8.61810E-04-1.20768E-13
 -1       700 1.31117E-02 8.73150E-04-1.25517E-13
 -1       701 1.33974E-02 8.84492E-04-1.30293E-13
 -1       702 1.36831E-02 8.95837E-04-1.35097E-13
 -1       703 1.39085E-02 8.89546E-04-1.39008E-13
 -1       704 1.99511E-03-6.76322E-04-2.94779E-15
 -1       705 1.41222E-02 5.06871E-04-1.45141E-13
 -1       706 1.41154E-02 4.78510E-05-1.47718E-13
 -1       707 1.41445E-02 6.75471E-04-1.44468E-13
 -1       708 1.41110E-02 4.22570E-04-1.45471E-13
 -1       709 1.41333E-02 5.91171E-04-1.44811E-13
 -1       710 1.41000E-02 3.39698E-04-1.45780E-13
 -1       711 1.40888E-02 2.55399E-04-1.46080E-13
 -1       712 1.40777E-02 1.71102E-04-1.46367E-13
 -1       713 3.93829E-03-4.32409E-06-8.42815E-15
 -1       714 3.66786E-03-9.96128E-05-7.81193E-15
 -1       715 2.66990E-03-5.55994E-04-5.12354E-15
 -1       716 4.19078E-03 5.91099E-05-9.23327E-15
 -1       717 1.16807E-03-4.42099E-04-1.05005E-15
 -1       718 2.90231E-03 6.36216E-04-5.12479E-15
 -1       719 1.00118E-03-2.39494E-04-9.29466E-16
 -1       720 3.25762E-03 4.72902E-04-6.22483E-15
 -1       721 8.03116E-04 1.80377E-04-6.29739E-16
 -1       722 1.29495E-03-4.06806E-04-1.33981E-15
 -1       723 1.66762E-03-5.91990E-04-2.07934E-15
 -1       724 1.85306E-03 7.54190E-04-2.05802E-15
 -1       725 2.31374E-03-6.63964E-04-3.94382E-15
 -1       726 1.45443E-03-5.62873E-04-1.58687E-15
 -1       727 2.15538E-03 8.09136E-04-2.82330E-15
 -1       728 4.21353E-03 1.16619E-04-9.07335E-15
 -1       729 1.41556E-02 7.59053E-04-1.44119E-13
 -1       730 4.34279E-03 1.05195E-04-1.02240E-14
 -1       731 2.09477E-03 8.40548E-04-2.59671E-15
 -1       732 3.85915E-03 2.29149E-04-8.07332E-15
 -1       733 3.51208E-03 3.87454E-04-7.20142E-15
 -1       734 1.40000E-02 1.06145E-04-1.45362E-13
 -1       735 4.14953E-03 1.48407E-04-9.15595E-15
 -1       736 3.40319E-03-2.27541E-04-7.40393E-15
 -1       737 1.78944E-03 7.75128E-04-1.82382E-15
 -1       738 2.99006E-03-4.16645E-04-6.15949E-15
 -1       739 1.25268E-03 4.51324E-04-1.03204E-15
 -1       740 3.74098E-03 4.46145E-04-8.76653E-15
 -1       741 3.38763E-03-3.51753E-04-8.26691E-15
 -1       742 3.73356E-03-2.78024E-04-1.00693E-14
 -1       743 4.05736E-03-2.30213E-04-1.20134E-14
 -1       744 4.36432E-03-2.00129E-04-1.40950E-14
 -1       745 4.65997E-03-1.81214E-04-1.63159E-14
 -1       746 4.94887E-03-1.69320E-04-1.86738E-14
 -1       747 5.23412E-03-1.61733E-04-2.11614E-14
 -1       748 5.51768E-03-1.56647E-04-2.37735E-14
 -1       749 5.80069E-03-1.52813E-04-2.65092E-14
 -1       750 6.08373E-03-1.49365E-04-2.93622E-14
 -1       751 6.36710E-03-1.45720E-04-3.23311E-14
 -1       752 6.65089E-03-1.41510E-04-3.54189E-14
 -1       753 6.93511E-03-1.36529E-04-3.86268E-14
 -1       754 7.21970E-03-1.30689E-04-4.19509E-14
 -1       755 7.50460E-03-1.23987E-04-4.53885E-14
 -1       756 7.78975E-03-1.16469E-04-4.89409E-14
 -1       757 8.07510E-03-1.08215E-04-5.26033E-14
 -1       758 8.36058E-03-9.93198E-05-5.63705E-14
 -1       759 8.64617E-03-8.98792E-05-6.02343E-14
 -1       760 8.93182E-03-7.99868E-05-6.41882E-14
 -1       761 9.21752E-03-6.97277E-05-6.82356E-14
 -1       762 9.50325E-03-5.91767E-05-7.23691E-14
 -1       763 9.78900E-03-4.83976E-05-7.65825E-14
 -1       764 1.00748E-02-3.74434E-05-8.08728E-14
 -1       765 1.03605E-02-2.63574E-05-8.52305E-14
 -1       766 1.06463E-02-1.51742E-05-8.96506E-14
 -1       767 1.09320E-02-3.92064E-06-9.41306E-14
 -1       768 1.12178E-02 7.38228E-06-9.86739E-14
 -1       769 1.15035E-02 1.87189E-05-1.03271E-13
 -1       770 1.17892E-02 3.00775E-05-1.07916E-13
 -1       771 1.20750E-02 4.14497E-05-1.12616E-13
 -1       772 1.23607E-02 5.28294E-05-1.17353E-13
 -1       773 1.26464E-02 6.42125E-05-1.22141E-13
 -1       774 1.29322E-02 7.55964E-05-1.26967E-13
 -1       775 1.32179E-02 8.69791E-05-1.31825E-13
 -1       776 1.35036E-02 9.83596E-05-1.36720E-13
 -1       777 1.37518E-02 1.02254E-04-1.41031E-13
 -1       778 4.06978E-03 4.09076E-04-1.05883E-14
 -1       779 4.37947E-03 3.93590E-04-1.25513E-14
 -1       780 4.67680E-03 3.92145E-04-1.46524E-14
 -1       781 4.96694E-03 3.99743E-04-1.68922E-14
 -1       782 5.25334E-03 4.13090E-04-1.92669E-14
 -1       783 5.53805E-03 4.29932E-04-2.17753E-14
 -1       784 5.82218E-03 4.48677E-04-2.44181E-14
 -1       785 6.10630E-03 4.68202E-04-2.71884E-14
 -1       786 6.39063E-03 4.87744E-04-3.00850E-14
 -1       787 6.67526E-03 5.06811E-04-3.31052E-14
 -1       788 6.96016E-03 5.25121E-04-3.62442E-14
 -1       789 7.24530E-03 5.42542E-04-3.95000E-14
 -1       790 7.53062E-03 5.59045E-04-4.28734E-14
 -1       791 7.81608E-03 5.74668E-04-4.63580E-14
 -1       792 8.10165E-03 5.89489E-04-4.99524E-14
 -1       793 8.38729E-03 6.03606E-04-5.36600E-14
 -1       794 8.67297E-03 6.17123E-04-5.74726E-14
 -1       795 8.95868E-03 6.30140E-04-6.13778E-14
 -1       796 9.24442E-03 6.42749E-04-6.53728E-14
 -1       797 9.53016E-03 6.55033E-04-6.94554E-14
 -1       798 9.81590E-03 6.67062E-04-7.36175E-14
 -1       799 1.01016E-02 6.78895E-04-7.78535E-14
 -1       800 1.03874E-02 6.90579E-04-8.21560E-14
 -1       801 1.06731E-02 7.02152E-04-8.65290E-14
 -1       802 1.09589E-02 7.13646E-04-9.09711E-14
 -1       803 1.12446E-02 7.25083E-04-9.54772E-14
 -1       804 1.15303E-02 7.36482E-04-1.00034E-13
 -1       805 1.18161E-02 7.47854E-04-1.04645E-13
 -1       806 1.21018E-02 7.59211E-04-1.09299E-13
 -1       807 1.23875E-02 7.70558E-04-1.13983E-13
 -1       808 1.26732E-02 7.81900E-04-1.18692E-13
 -1       809 1.29589E-02 7.93242E-04-1.23426E-13
 -1       810 1.32447E-02 8.04584E-04-1.28196E-13
 -1       811 1.35304E-02 8.15929E-04-1.32998E-13
 -1       812 1.38581E-02 3.71290E-04-1.41368E-13
 -1       813 1.06325E-03-3.36823E-04-9.22277E-16
 -1       814 1.38469E-02 2.86988E-04-1.41667E-13
 -1       815 1.38692E-02 4.55594E-04-1.41059E-13
 -1       816 3.35639E-03 5.30524E-04-6.97831E-15
 -1       817 3.89893E-03-6.40738E-05-9.28377E-15
 -1       818 3.67821E-03-1.67107E-04-8.83744E-15
 -1       819 4.34991E-03 7.16731E-05-1.07019E-14
 -1       820 1.48708E-03 6.10872E-04-1.31135E-15
 -1       821 1.38357E-02 2.02687E-04-1.41950E-13
 -1       822 4.16929E-03 1.98429E-05-1.01280E-14
 -1       823 3.04771E-03-4.61824E-04-6.78585E-15
 -1       824 3.35541E-03-3.07719E-04-7.78575E-15
 -1       825 1.39026E-02 7.07430E-04-1.40082E-13
 -1       826 3.76032E-03 3.19912E-04-8.26758E-15
 -1       827 4.32222E-03 1.27467E-04-1.03148E-14
 -1       828 1.37558E-02 8.09637E-04-1.36902E-13
 -1       829 1.38804E-02 5.39898E-04-1.40743E-13
 -1       830 1.38915E-02 6.23665E-04-1.40420E-13
 -1       831 1.37938E-02 1.52470E-04-1.41493E-13
 -1       832 1.39056E-02 7.98490E-04-1.39550E-13
 -1       833 1.35939E-02 2.34988E-04-1.37556E-13
 -1       834 4.00329E-03-1.49589E-04-1.10227E-14
 -1       835 4.30021E-03-1.25260E-04-1.30323E-14
 -1       836 4.58459E-03-1.10862E-04-1.51787E-14
 -1       837 4.86281E-03-1.01959E-04-1.74630E-14
 -1       838 5.13863E-03-9.58780E-05-1.98791E-14
 -1       839 5.41414E-03-9.12742E-05-2.24220E-14
 -1       840 5.69044E-03-8.73192E-05-2.50901E-14
 -1       841 5.96799E-03-8.34520E-05-2.78788E-14
 -1       842 6.24695E-03-7.92845E-05-3.07825E-14
 -1       843 6.52725E-03-7.45595E-05-3.38058E-14
 -1       844 6.80876E-03-6.91259E-05-3.69499E-14
 -1       845 7.09128E-03-6.29165E-05-4.02107E-14
 -1       846 7.37464E-03-5.59273E-05-4.35855E-14
 -1       847 7.65867E-03-4.81975E-05-4.70744E-14
 -1       848 7.94320E-03-3.97938E-05-5.06769E-14
 -1       849 8.22813E-03-3.07970E-05-5.43863E-14
 -1       850 8.51334E-03-2.12923E-05-5.81963E-14
 -1       851 8.79875E-03-1.13631E-05-6.20963E-14
 -1       852 9.08432E-03-1.08633E-06-6.60899E-14
 -1       853 9.36997E-03 9.46951E-06-7.01748E-14
 -1       854 9.65569E-03 2.02453E-05-7.43404E-14
 -1       855 9.94145E-03 3.11914E-05-7.85851E-14
 -1       856 1.02272E-02 4.22669E-05-8.29043E-14
 -1       857 1.05130E-02 5.34388E-05-8.72852E-14
 -1       858 1.07988E-02 6.46813E-05-9.17278E-14
 -1       859 1.10846E-02 7.59740E-05-9.62328E-14
 -1       860 1.13704E-02 8.73015E-05-1.00798E-13
 -1       861 1.16561E-02 9.86523E-05-1.05416E-13
 -1       862 1.19419E-02 1.10018E-04-1.10083E-13
 -1       863 1.22276E-02 1.21392E-04-1.14798E-13
 -1       864 1.25134E-02 1.32771E-04-1.19555E-13
 -1       865 1.27991E-02 1.44152E-04-1.24354E-13
 -1       866 1.30848E-02 1.55532E-04-1.29185E-13
 -1       867 1.33706E-02 1.66911E-04-1.34052E-13
 -1       868 4.15201E-03-4.43005E-05-1.10277E-14
 -1       869 4.01047E-03 3.20445E-04-9.84262E-15
 -1       870 4.86785E-03 3.23084E-04-1.59788E-14
 -1       871 5.14304E-03 3.37257E-04-1.82945E-14
 -1       872 5.41832E-03 3.53958E-04-2.07441E-14
 -1       873 5.69468E-03 3.72094E-04-2.33267E-14
 -1       874 5.97252E-03 3.90861E-04-2.60399E-14
 -1       875 6.25187E-03 4.09672E-04-2.88777E-14
 -1       876 6.53261E-03 4.28119E-04-3.18401E-14
 -1       877 6.81453E-03 4.45945E-04-3.49225E-14
 -1       878 7.09742E-03 4.63009E-04-3.81215E-14
 -1       879 7.38108E-03 4.79265E-04-4.14406E-14
 -1       880 7.66534E-03 4.94728E-04-4.48728E-14
 -1       881 7.95006E-03 5.09453E-04-4.84150E-14
 -1       882 8.23511E-03 5.23521E-04-5.20678E-14
 -1       883 8.52041E-03 5.37019E-04-5.58287E-14
 -1       884 8.80588E-03 5.50037E-04-5.96874E-14
 -1       885 9.09148E-03 5.62660E-04-6.36365E-14
 -1       886 9.37715E-03 5.74964E-04-6.76764E-14
 -1       887 9.66287E-03 5.87015E-04-7.17992E-14
 -1       888 9.94863E-03 5.98869E-04-7.59978E-14
 -1       889 1.02344E-02 6.10574E-04-8.02701E-14
 -1       890 1.05202E-02 6.22166E-04-8.46113E-14
 -1       891 1.08059E-02 6.33676E-04-8.90160E-14
 -1       892 1.10917E-02 6.45127E-04-9.34844E-14
 -1       893 1.13775E-02 6.56537E-04-9.80182E-14
 -1       894 1.16632E-02 6.67918E-04-1.02603E-13
 -1       895 1.19490E-02 6.79282E-04-1.07242E-13
 -1       896 1.22347E-02 6.90634E-04-1.11913E-13
 -1       897 1.25205E-02 7.01981E-04-1.16610E-13
 -1       898 1.28062E-02 7.13326E-04-1.21334E-13
 -1       899 1.30919E-02 7.24670E-04-1.26094E-13
 -1       900 1.33777E-02 7.36016E-04-1.30890E-13
 -1       901 1.36162E-02 4.03600E-04-1.36985E-13
 -1       902 4.38677E-03 3.65102E-05-1.17949E-14
 -1       903 4.48955E-03 9.87515E-05-1.18744E-14
 -1       904 4.59057E-03 3.13106E-04-1.37983E-14
 -1       905 4.30713E-03 3.10262E-04-1.17534E-14
 -1       906 4.08772E-03 2.14725E-04-9.56815E-15
 -1       907 1.36050E-02 3.19293E-04-1.37275E-13
 -1       908 4.29973E-03 1.77126E-04-1.07517E-14
 -1       909 1.35822E-02 1.59691E-04-1.37762E-13
 -1       910 1.36274E-02 4.87907E-04-1.36686E-13
 -1       911 1.36031E-02 7.29723E-04-1.34792E-13
 -1       912 1.36496E-02 6.55716E-04-1.36054E-13
 -1       913 4.49934E-03 1.21506E-04-1.19747E-14
 -1       914 4.57026E-03 7.11125E-05-1.30227E-14
 -1       915 4.52568E-03-4.30976E-05-1.40588E-14
 -1       916 4.78763E-03-3.80954E-05-1.62680E-14
 -1       917 5.05059E-03-3.39085E-05-1.86095E-14
 -1       918 5.31598E-03-2.98334E-05-2.10825E-14
 -1       919 5.58427E-03-2.55731E-05-2.36815E-14
 -1       920 5.85547E-03-2.09605E-05-2.64037E-14
 -1       921 6.12940E-03-1.58683E-05-2.92432E-14
 -1       922 6.40573E-03-1.01991E-05-3.22008E-14
 -1       923 6.68414E-03-3.89033E-06-3.52801E-14
 -1       924 6.96427E-03 3.08268E-06-3.84780E-14
 -1       925 7.24581E-03 1.07105E-05-4.17899E-14
 -1       926 7.52846E-03 1.89568E-05-4.52174E-14
 -1       927 7.81200E-03 2.77667E-05-4.87599E-14
 -1       928 8.09620E-03 3.70749E-05-5.24116E-14
 -1       929 8.38091E-03 4.68126E-05-5.61669E-14
 -1       930 8.66598E-03 5.69118E-05-6.00144E-14
 -1       931 8.95132E-03 6.73092E-05-6.39561E-14
 -1       932 9.23684E-03 7.79478E-05-6.79885E-14
 -1       933 9.52249E-03 8.87781E-05-7.21070E-14
 -1       934 9.80821E-03 9.97581E-05-7.63074E-14
 -1       935 1.00940E-02 1.10853E-04-8.05838E-14
 -1       936 1.03798E-02 1.22034E-04-8.49288E-14
 -1       937 1.06656E-02 1.33279E-04-8.93346E-14
 -1       938 1.09514E-02 1.44570E-04-9.38019E-14
 -1       939 1.12372E-02 1.55893E-04-9.83297E-14
 -1       940 1.15230E-02 1.67238E-04-1.02918E-13
 -1       941 1.18088E-02 1.78598E-04-1.07556E-13
 -1       942 1.20945E-02 1.89967E-04-1.12244E-13
 -1       943 1.23803E-02 2.01341E-04-1.16975E-13
 -1       944 1.26660E-02 2.12717E-04-1.21747E-13
 -1       945 1.29518E-02 2.24094E-04-1.26553E-13
 -1       946 1.32375E-02 2.35469E-04-1.31390E-13
 -1       947 4.26384E-03 2.28550E-04-1.09513E-14
 -1       948 5.04125E-03 2.66342E-04-1.73227E-14
 -1       949 5.84271E-03 3.17488E-04-2.48936E-14
 -1       950 6.11636E-03 3.35028E-04-2.76747E-14
 -1       951 6.39262E-03 3.52312E-04-3.05786E-14
 -1       952 6.67107E-03 3.69141E-04-3.36058E-14
 -1       953 6.95129E-03 3.85388E-04-3.67510E-14
 -1       954 7.23293E-03 4.00998E-04-4.00128E-14
 -1       955 7.51569E-03 4.15962E-04-4.33910E-14
 -1       956 7.79931E-03 4.30313E-04-4.68819E-14
 -1       957 8.08357E-03 4.44105E-04-5.04828E-14
 -1       958 8.36832E-03 4.57405E-04-5.41905E-14
 -1       959 8.65343E-03 4.70286E-04-5.79997E-14
 -1       960 8.93878E-03 4.82816E-04-6.19050E-14
 -1       961 9.22431E-03 4.95060E-04-6.59010E-14
 -1       962 9.50996E-03 5.07075E-04-6.99830E-14
 -1       963 9.79568E-03 5.18910E-04-7.41458E-14
 -1       964 1.00814E-02 5.30605E-04-7.83823E-14
 -1       965 1.03672E-02 5.42196E-04-8.26932E-14
 -1       966 1.06530E-02 5.53709E-04-8.70663E-14
 -1       967 1.09388E-02 5.65165E-04-9.15006E-14
 -1       968 1.12246E-02 5.76582E-04-9.60008E-14
 -1       969 1.15104E-02 5.87970E-04-1.00563E-13
 -1       970 1.17962E-02 5.99340E-04-1.05178E-13
 -1       971 1.20820E-02 6.10699E-04-1.09834E-13
 -1       972 1.23677E-02 6.22051E-04-1.14525E-13
 -1       973 1.26535E-02 6.33400E-04-1.19240E-13
 -1       974 1.29392E-02 6.44748E-04-1.23984E-13
 -1       975 1.32249E-02 6.56096E-04-1.28773E-13
 -1       976 1.34373E-02 6.55905E-04-1.32406E-13
 -1       977 1.36385E-02 5.71947E-04-1.36375E-13
 -1       978 5.57209E-03 2.99963E-04-2.22381E-14
 -1       979 4.78096E-03 2.51022E-04-1.50665E-14
 -1       980 4.52286E-03 2.37696E-04-1.29440E-14
 -1       981 5.30488E-03 2.82788E-04-1.97138E-14
 -1       982 1.34262E-02 5.72133E-04-1.32727E-13
 -1       983 4.52044E-03 1.63893E-04-1.24411E-14
 -1       984 4.64348E-03 1.12388E-04-1.34354E-14
 -1       985 1.33743E-02 4.35913E-04-1.32635E-13
 -1       986 1.33632E-02 3.51601E-04-1.32919E-13
 -1       987 4.67326E-03 2.23909E-05-1.46189E-14
 -1       988 6.25404E-03 2.79774E-04-2.93226E-14
 -1       989 1.34002E-02 5.04024E-04-1.32686E-13
 -1       990 4.52213E-03 1.98425E-04-1.26963E-14
 -1       991 4.96752E-03 2.25277E-05-1.73565E-14
 -1       992 5.22083E-03 2.66817E-05-1.97554E-14
 -1       993 5.48009E-03 3.17813E-05-2.22850E-14
 -1       994 5.74441E-03 3.76454E-05-2.49395E-14
 -1       995 6.01302E-03 4.41513E-05-2.77130E-14
 -1       996 6.28522E-03 5.12377E-05-3.06065E-14
 -1       997 6.56040E-03 5.88718E-05-3.36215E-14
 -1       998 6.83803E-03 6.70265E-05-3.67558E-14
 -1       999 7.11764E-03 7.56708E-05-4.00064E-14
 -1      1000 7.39884E-03 8.47661E-05-4.33708E-14
 -1      1001 7.68128E-03 9.42677E-05-4.68512E-14
 -1      1002 7.96468E-03 1.04127E-04-5.04443E-14
 -1      1003 8.24880E-03 1.14295E-04-5.41425E-14
 -1      1004 8.53347E-03 1.24723E-04-5.79387E-14
 -1      1005 8.81853E-03 1.35366E-04-6.18283E-14
 -1      1006 9.10387E-03 1.46185E-04-6.58139E-14
 -1      1007 9.38940E-03 1.57145E-04-6.98827E-14
 -1      1008 9.67506E-03 1.68214E-04-7.40374E-14
 -1      1009 9.96080E-03 1.79368E-04-7.82713E-14
 -1      1010 1.02466E-02 1.90588E-04-8.25778E-14
 -1      1011 1.05324E-02 2.01855E-04-8.69484E-14
 -1      1012 1.08182E-02 2.13158E-04-9.13794E-14
 -1      1013 1.11040E-02 2.24485E-04-9.58714E-14
 -1      1014 1.13899E-02 2.35830E-04-1.00424E-13
 -1      1015 1.16756E-02 2.47187E-04-1.05035E-13
 -1      1016 1.19614E-02 2.58551E-04-1.09693E-13
 -1      1017 1.22472E-02 2.69920E-04-1.14400E-13
 -1      1018 1.25330E-02 2.81291E-04-1.19147E-13
 -1      1019 1.28187E-02 2.92663E-04-1.23930E-13
 -1      1020 1.31045E-02 3.04034E-04-1.28742E-13
 -1      1021 5.98243E-03 2.64228E-04-2.64754E-14
 -1      1022 6.80625E-03 3.10017E-04-3.53841E-14
 -1      1023 7.08572E-03 3.24548E-04-3.85921E-14
 -1      1024 7.36682E-03 3.38642E-04-4.19142E-14
 -1      1025 7.64920E-03 3.52302E-04-4.53521E-14
 -1      1026 7.93256E-03 3.65558E-04-4.89009E-14
 -1      1027 8.21665E-03 3.78448E-04-5.25595E-14
 -1      1028 8.50130E-03 3.91021E-04-5.63191E-14
 -1      1029 8.78634E-03 4.03325E-04-6.01750E-14
 -1      1030 9.07166E-03 4.15406E-04-6.41295E-14
 -1      1031 9.35718E-03 4.27306E-04-6.81713E-14
 -1      1032 9.64283E-03 4.39063E-04-7.22950E-14
 -1      1033 9.92856E-03 4.50708E-04-7.64970E-14
 -1      1034 1.02143E-02 4.62268E-04-8.07732E-14
 -1      1035 1.05002E-02 4.73763E-04-8.51157E-14
 -1      1036 1.07860E-02 4.85211E-04-8.95218E-14
 -1      1037 1.10718E-02 4.96624E-04-9.39895E-14
 -1      1038 1.13576E-02 5.08015E-04-9.85220E-14
 -1      1039 1.16434E-02 5.19389E-04-1.03113E-13
 -1      1040 1.19292E-02 5.30753E-04-1.07752E-13
 -1      1041 1.22149E-02 5.42110E-04-1.12427E-13
 -1      1042 1.25007E-02 5.53464E-04-1.17135E-13
 -1      1043 1.27865E-02 5.64817E-04-1.21874E-13
 -1      1044 1.30722E-02 5.76169E-04-1.26648E-13
 -1      1045 1.32492E-02 5.74151E-04-1.29682E-13
 -1      1046 4.94458E-03 2.02168E-04-1.63541E-14
 -1      1047 4.69210E-03 1.53398E-04-1.39322E-14
 -1      1048 4.77901E-03 7.34510E-05-1.50748E-14
 -1      1049 5.71474E-03 2.48568E-04-2.37509E-14
 -1      1050 4.73403E-03 1.99844E-04-1.44783E-14
 -1      1051 5.45181E-03 2.32930E-04-2.11532E-14
 -1      1052 5.19467E-03 2.17424E-04-1.86873E-14
 -1      1053 6.52885E-03 2.95071E-04-3.22937E-14
 -1      1054 1.31413E-02 4.65749E-04-1.28468E-13
 -1      1055 4.86214E-03 1.15469E-04-1.56174E-14
 -1      1056 1.31229E-02 3.84892E-04-1.28614E-13
 -1      1057 1.31952E-02 5.19951E-04-1.29078E-13
 -1      1058 7.49939E-03 2.75587E-04-4.38259E-14
 -1      1059 5.12448E-03 7.73850E-05-1.84461E-14
 -1      1060 5.32986E-03 1.71315E-04-2.00714E-14
 -1      1061 5.37457E-03 8.42903E-05-2.09024E-14
 -1      1062 5.63225E-03 9.21357E-05-2.34859E-14
 -1      1063 5.89584E-03 1.00627E-04-2.61937E-14
 -1      1064 6.16419E-03 1.09623E-04-2.90214E-14
 -1      1065 6.43638E-03 1.19030E-04-3.19724E-14
 -1      1066 6.71168E-03 1.28777E-04-3.50449E-14
 -1      1067 6.98950E-03 1.38812E-04-3.82332E-14
 -1      1068 7.26932E-03 1.49090E-04-4.15358E-14
 -1      1069 7.55071E-03 1.59576E-04-4.49547E-14
 -1      1070 7.83332E-03 1.70238E-04-4.84864E-14
 -1      1071 8.11687E-03 1.81046E-04-5.21268E-14
 -1      1072 8.40112E-03 1.91977E-04-5.58699E-14
 -1      1073 8.68589E-03 2.03007E-04-5.97072E-14
 -1      1074 8.97103E-03 2.14117E-04-6.36434E-14
 -1      1075 9.25643E-03 2.25292E-04-6.76690E-14
 -1      1076 9.54200E-03 2.36517E-04-7.17770E-14
 -1      1077 9.82770E-03 2.47781E-04-7.59676E-14
 -1      1078 1.01135E-02 2.59075E-04-8.02320E-14
 -1      1079 1.03993E-02 2.70391E-04-8.45668E-14
 -1      1080 1.06851E-02 2.81724E-04-8.89641E-14
 -1      1081 1.09709E-02 2.93069E-04-9.34202E-14
 -1      1082 1.12567E-02 3.04422E-04-9.79392E-14
 -1      1083 1.15426E-02 3.15780E-04-1.02520E-13
 -1      1084 1.18284E-02 3.27143E-04-1.07152E-13
 -1      1085 1.21141E-02 3.38507E-04-1.11828E-13
 -1      1086 1.23999E-02 3.49873E-04-1.16551E-13
 -1      1087 1.26857E-02 3.61240E-04-1.21308E-13
 -1      1088 1.29043E-02 3.73066E-04-1.24951E-13
 -1      1089 6.11512E-03 2.10614E-04-2.80688E-14
 -1      1090 5.58559E-03 1.84238E-04-2.26111E-14
 -1      1091 7.21823E-03 2.62940E-04-4.04424E-14
 -1      1092 6.93872E-03 2.50090E-04-3.71730E-14
 -1      1093 7.78182E-03 2.88029E-04-4.73218E-14
 -1      1094 8.06524E-03 3.00279E-04-5.09299E-14
 -1      1095 8.34939E-03 3.12356E-04-5.46421E-14
 -1      1096 8.63408E-03 3.24281E-04-5.84516E-14
 -1      1097 8.91917E-03 3.36079E-04-6.23595E-14
 -1      1098 9.20453E-03 3.47772E-04-6.63598E-14
 -1      1099 9.49009E-03 3.59379E-04-7.04454E-14
 -1      1100 9.77576E-03 3.70920E-04-7.46106E-14
 -1      1101 1.00615E-02 3.82409E-04-7.88531E-14
 -1      1102 1.03473E-02 3.93858E-04-8.31649E-14
 -1      1103 1.06331E-02 4.05278E-04-8.75421E-14
 -1      1104 1.09190E-02 4.16676E-04-9.19801E-14
 -1      1105 1.12048E-02 4.28060E-04-9.64800E-14
 -1      1106 1.14906E-02 4.39433E-04-1.01046E-13
 -1      1107 1.17764E-02 4.50799E-04-1.05663E-13
 -1      1108 1.20622E-02 4.62160E-04-1.10323E-13
 -1      1109 1.23480E-02 4.73520E-04-1.15022E-13
 -1      1110 1.26337E-02 4.84877E-04-1.19754E-13
 -1      1111 5.84779E-03 1.97368E-04-2.52780E-14
 -1      1112 5.08259E-03 1.58630E-04-1.76617E-14
 -1      1113 1.29195E-02 4.96235E-04-1.24518E-13
 -1      1114 6.38657E-03 2.23873E-04-3.09819E-14
 -1      1115 6.66132E-03 2.37054E-04-3.40192E-14
 -1      1116 0.00000E+00 0.00000E+00 0.00000E+00
 -1      1117 0.00000E+00 0.00000E+00 0.00000E+00
 -1      1118 0.00000E+00 0.00000E+00 0.00000E+00
 -1      1119 0.00000E+00 0.00000E+00 0.00000E+00
 -1      1120 0.00000E+00 0.00000E+00 0.00000E+00
 -1      1121 0.00000E+00 0.00000E+00 0.00000E+00
 -1      1122 0.00000E+00 0.00000E+00 0.00000E+00
 -1      1123 0.00000E+00 0.00000E+00 0.00000E+00
 -1      1124 0.00000E+00 0.00000E+00 0.00000E+00
 -1      1125 0.00000E+00 0.00000E+00 0.00000E+00
 -1      1126 0.00000E+00 0.00000E+00 0.00000E+00
 -1      1127 0.00000E+00 0.00000E+00 0.00000E+00
 -1      1128 0.00000E+00 0.00000E+00 0.00000E+00
 -1      1129 0.00000E+00 0.00000E+00 0.00000E+00
 -1      1130 0.00000E+00 0.00000E+00 0.00000E+00
 -1      1131 0.00000E+00 0.00000E+00 0.00000E+00
 -1      1132 0.00000E+00 0.00000E+00 0.00000E+00
 -1      1133 2.74355E-04-1.91171E-04 5.58364E-18
 -1      1134 7.15016E-04-4.51345E-04-1.03148E-16
 -1      1135 1.07060E-03-6.43335E-04-3.88700E-16
 -1      1136 1.39374E-03-7.94227E-04-8.83286E-16
 -1      1137 1.68966E-03-9.07878E-04-1.57704E-15
 -1      1138 1.96581E-03-9.76921E-04-2.46648E-15
 -1      1139 2.23414E-03-9.95790E-04-3.54931E-15
 -1      1140 2.50788E-03-9.68082E-04-4.82118E-15
 -1      1141 2.79673E-03-9.06929E-04-6.27431E-15
 -1      1142 3.10379E-03-8.29842E-04-7.90247E-15
 -1      1143 3.42615E-03-7.52465E-04-9.69838E-15
 -1      1144 3.75770E-03-6.84910E-04-1.16508E-14
 -1      1145 4.09206E-03-6.31431E-04-1.37514E-14
 -1      1146 4.42427E-03-5.92065E-04-1.60001E-14
 -1      1147 4.75129E-03-5.64626E-04-1.83882E-14
 -1      1148 5.07177E-03-5.46203E-04-2.09116E-14
 -1      1149 5.38552E-03-5.34008E-04-2.35643E-14
 -1      1150 5.69305E-03-5.25743E-04-2.63385E-14
 -1      1151 5.99523E-03-5.19677E-04-2.92313E-14
 -1      1152 6.29300E-03-5.14592E-04-3.22364E-14
 -1      1153 6.58725E-03-5.09681E-04-3.53533E-14
 -1      1154 6.87882E-03-5.04447E-04-3.85911E-14
 -1      1155 7.16835E-03-4.98616E-04-4.19448E-14
 -1      1156 7.45642E-03-4.92062E-04-4.54226E-14
 -1      1157 7.74343E-03-4.84760E-04-4.90202E-14
 -1      1158 8.02974E-03-4.76743E-04-5.27233E-14
 -1      1159 8.31557E-03-4.68078E-04-5.65252E-14
 -1      1160 8.60110E-03-4.58849E-04-6.04277E-14
 -1      1161 8.88648E-03-4.49142E-04-6.44323E-14
 -1      1162 9.17177E-03-4.39040E-04-6.85294E-14
 -1      1163 9.45705E-03-4.28619E-04-7.27172E-14
 -1      1164 9.74234E-03-4.17945E-04-7.69856E-14
 -1      1165 1.00277E-02-4.07074E-04-8.13198E-14
 -1      1166 1.03130E-02-3.96052E-04-8.57235E-14
 -1      1167 1.05985E-02-3.84918E-04-9.01946E-14
 -1      1168 1.08839E-02-3.73702E-04-9.47299E-14
 -1      1169 1.11695E-02-3.62426E-04-9.93164E-14
 -1      1170 1.14550E-02-3.51109E-04-1.03947E-13
 -1      1171 1.17406E-02-3.39764E-04-1.08621E-13
 -1      1172 1.20262E-02-3.28401E-04-1.13338E-13
 -1      1173 1.23119E-02-3.17027E-04-1.18110E-13
 -1      1174 1.25975E-02-3.05647E-04-1.22943E-13
 -1      1175 1.28832E-02-2.94266E-04-1.27829E-13
 -1      1176 1.31689E-02-2.82884E-04-1.32750E-13
 -1      1177 1.34546E-02-2.71504E-04-1.37714E-13
 -1      1178 1.37403E-02-2.60127E-04-1.42707E-13
 -1      1179 1.40260E-02-2.48753E-04-1.47717E-13
 -1      1180 1.43117E-02-2.37382E-04-1.52735E-13
 -1      1181 1.45974E-02-2.26015E-04-1.57765E-13
 -1      1182 1.48760E-02-2.14934E-04-1.62689E-13
 -1      1183 3.06746E-04 2.09938E-04 3.48029E-17
 -1      1184 7.50993E-04 4.64581E-04 1.49078E-19
 -1      1185 1.12818E-03 6.67511E-04-1.80804E-16
 -1      1186 1.47047E-03 8.39703E-04-5.35447E-16
 -1      1187 1.77994E-03 9.78564E-04-1.06881E-15
 -1      1188 2.06384E-03 1.06977E-03-1.78034E-15
 -1      1189 2.33679E-03 1.10285E-03-2.67317E-15
 -1      1190 2.61595E-03 1.08121E-03-3.75055E-15
 -1      1191 2.91355E-03 1.02197E-03-5.01044E-15
 -1      1192 3.23268E-03 9.47868E-04-6.45305E-15
 -1      1193 3.56855E-03 8.78021E-04-8.06657E-15
 -1      1194 3.91294E-03 8.23450E-04-9.84321E-15
 -1      1195 4.25805E-03 7.87548E-04-1.17783E-14
 -1      1196 4.59845E-03 7.68879E-04-1.38632E-14
 -1      1197 4.93127E-03 7.63915E-04-1.60936E-14
 -1      1198 5.25561E-03 7.68798E-04-1.84658E-14
 -1      1199 5.57181E-03 7.80179E-04-2.09799E-14
 -1      1200 5.88083E-03 7.95475E-04-2.36279E-14
 -1      1201 6.18386E-03 8.12837E-04-2.64105E-14
 -1      1202 6.48209E-03 8.31018E-04-2.93262E-14
 -1      1203 6.77658E-03 8.49226E-04-3.23651E-14
 -1      1204 7.06825E-03 8.66992E-04-3.55252E-14
 -1      1205 7.35782E-03 8.84070E-04-3.88068E-14
 -1      1206 7.64589E-03 9.00363E-04-4.21997E-14
 -1      1207 7.93289E-03 9.15862E-04-4.57076E-14
 -1      1208 8.21918E-03 9.30618E-04-4.93300E-14
 -1      1209 8.50499E-03 9.44707E-04-5.30700E-14
 -1      1210 8.79052E-03 9.58220E-04-5.69162E-14
 -1      1211 9.07588E-03 9.71248E-04-6.08656E-14
 -1      1212 9.36117E-03 9.83877E-04-6.49073E-14
 -1      1213 9.64644E-03 9.96185E-04-6.90235E-14
 -1      1214 9.93173E-03 1.00824E-03-7.32154E-14
 -1      1215 1.02171E-02 1.02009E-03-7.74774E-14
 -1      1216 1.05024E-02 1.03180E-03-8.18142E-14
 -1      1217 1.07879E-02 1.04339E-03-8.62147E-14
 -1      1218 1.10733E-02 1.05490E-03-9.06833E-14
 -1      1219 1.13588E-02 1.06635E-03-9.52069E-14
 -1      1220 1.16444E-02 1.07776E-03-9.97821E-14
 -1      1221 1.19300E-02 1.08914E-03-1.04407E-13
 -1      1222 1.22156E-02 1.10050E-03-1.09071E-13
 -1      1223 1.25013E-02 1.11186E-03-1.13757E-13
 -1      1224 1.27869E-02 1.12320E-03-1.18465E-13
 -1      1225 1.30726E-02 1.13455E-03-1.23180E-13
 -1      1226 1.33583E-02 1.14589E-03-1.27917E-13
 -1      1227 1.36440E-02 1.15724E-03-1.32687E-13
 -1      1228 1.39297E-02 1.16859E-03-1.37494E-13
 -1      1229 1.42154E-02 1.17994E-03-1.42320E-13
 -1      1230 1.45011E-02 1.19130E-03-1.47179E-13
 -1      1231 1.47868E-02 1.20266E-03-1.52056E-13
 -1      1232 1.50654E-02 1.21373E-03-1.56808E-13
 -1      1233 1.51955E-02 1.17699E-03-1.59292E-13
 -1      1234 1.51844E-02 1.09270E-03-1.59663E-13
 -1      1235 1.51732E-02 1.00842E-03-1.60046E-13
 -1      1236 1.51620E-02 9.24128E-04-1.60429E-13
 -1      1237 1.51508E-02 8.39838E-04-1.60835E-13
 -1      1238 1.51397E-02 7.56260E-04-1.61243E-13
 -1      1239 1.51287E-02 6.72679E-04-1.61644E-13
 -1      1240 1.51175E-02 5.88381E-04-1.62049E-13
 -1      1241 1.51063E-02 5.04082E-04-1.62445E-13
 -1      1242 1.50951E-02 4.19783E-04-1.62822E-13
 -1      1243 1.50840E-02 3.35486E-04-1.63172E-13
 -1      1244 1.50729E-02 2.51905E-04-1.63537E-13
 -1      1245 1.50618E-02 1.68326E-04-1.63895E-13
 -1      1246 1.50506E-02 8.40366E-05-1.64195E-13
 -1      1247 1.50395E-02-2.50681E-07-1.64451E-13
 -1      1248 1.50283E-02-8.45364E-05-1.64708E-13
 -1      1249 1.50172E-02-1.68107E-04-1.64969E-13
 -1      1250 4.15381E-03 1.32409E-04-5.54568E-15
 -1      1251 4.05162E-03 2.46165E-04-5.37545E-15
 -1      1252 3.83883E-03 3.68114E-04-5.06839E-15
 -1      1253 3.53190E-03 4.90668E-04-4.64243E-15
 -1      1254 3.17485E-03 5.94033E-04-4.15748E-15
 -1      1255 2.77790E-03 6.68414E-04-3.62782E-15
 -1      1256 2.36633E-03 6.99047E-04-3.09491E-15
 -1      1257 1.95301E-03 6.78137E-04-2.58314E-15
 -1      1258 1.54677E-03 6.08004E-04-2.10742E-15
 -1      1259 1.14132E-03 4.94573E-04-1.66113E-15
 -1      1260 7.87247E-04 3.68229E-04-1.29356E-15
 -1      1261 5.16272E-04 2.55598E-04-1.02406E-15
 -1      1262 3.17659E-04 1.62441E-04-8.31095E-16
 -1      1263 1.94493E-04 9.04271E-05-7.13462E-16
 -1      1264 1.45738E-04 3.26361E-05-6.71018E-16
 -1      1265 1.76073E-04-2.49274E-05-7.11262E-16
 -1      1266 2.87000E-04-9.12085E-05-8.38502E-16
 -1      1267 4.70584E-04-1.72007E-04-1.04219E-15
 -1      1268 7.32753E-04-2.72175E-04-1.33595E-15
 -1      1269 1.04799E-03-3.77605E-04-1.69838E-15
 -1      1270 1.40299E-03-4.73088E-04-2.12046E-15
 -1      1271 1.80300E-03-5.44124E-04-2.61675E-15
 -1      1272 2.20661E-03-5.72022E-04-3.13638E-15
 -1      1273 2.58959E-03-5.53138E-04-3.64094E-15
 -1      1274 2.95738E-03-4.97237E-04-4.12650E-15
 -1      1275 3.29618E-03-4.14033E-04-4.56708E-15
 -1      1276 3.60032E-03-3.13317E-04-4.95293E-15
 -1      1277 3.86178E-03-2.01477E-04-5.27290E-15
 -1      1278 4.05002E-03-8.98333E-05-5.48831E-15
 -1      1279 4.15021E-03 1.90637E-05-5.58348E-15
 -1      1280 2.10354E-04-1.40609E-04-2.10606E-17
 -1      1281 1.38469E-04-7.00517E-05-4.63767E-17
 -1      1282 1.46311E-04-8.37929E-05-3.93294E-17
 -1      1283 1.31147E-04-4.73143E-05-5.50639E-17
 -1      1284 1.34960E-04-5.81976E-05-5.24076E-17
 -1      1285 2.79266E-04-1.33948E-04-1.27041E-16
 -1      1286 1.23975E-04-2.31238E-05-5.84520E-17
 -1      1287 1.28292E-04-3.49247E-05-5.76931E-17
 -1      1288 2.65909E-04-8.87171E-05-1.41556E-16
 -1      1289 1.12061E-04 2.99318E-06-5.82352E-17
 -1      1290 1.19076E-04-9.20267E-06-5.84114E-17
 -1      1291 2.50440E-04-4.11952E-05-1.45405E-16
 -1      1292 9.29969E-05 2.53683E-05-5.57009E-17
 -1      1293 1.03486E-04 1.59115E-05-5.62294E-17
 -1      1294 2.22869E-04 7.07501E-06-1.41949E-16
 -1      1295 6.83877E-05 3.49278E-05-5.21637E-17
 -1      1296 8.07102E-05 3.23204E-05-5.26245E-17
 -1      1297 1.78217E-04 4.47614E-05-1.33926E-16
 -1      1298 4.69817E-05 2.46069E-05-4.89856E-17
 -1      1299 5.61204E-05 3.07982E-05-4.92770E-17
 -1      1300 1.23351E-04 5.52312E-05-1.24670E-16
 -1      1301 4.02266E-05 4.08400E-06-4.68511E-17
 -1      1302 4.17342E-05 1.29547E-05-4.68782E-17
 -1      1303 8.37378E-05 3.39477E-05-1.17270E-16
 -1      1304 4.71538E-05-1.68282E-05-4.65190E-17
 -1      1305 4.20475E-05-9.24643E-06-4.64581E-17
 -1      1306 7.47087E-05-1.78243E-06-1.13936E-16
 -1      1307 6.62490E-05-2.79384E-05-4.72373E-17
 -1      1308 5.60302E-05-2.57564E-05-4.72577E-17
 -1      1309 9.74833E-05-3.37101E-05-1.14736E-16
 -1      1310 9.20012E-05-2.12858E-05-4.80979E-17
 -1      1311 7.95877E-05-2.73008E-05-4.85858E-17
 -1      1312 1.46697E-04-4.28496E-05-1.17948E-16
 -1      1313 1.13396E-04 5.30918E-07-4.70950E-17
 -1      1314 1.03631E-04-1.09259E-05-4.82334E-17
 -1      1315 2.01581E-04-1.88451E-05-1.19547E-16
 -1      1316 1.27594E-04 2.73703E-05-4.29480E-17
 -1      1317 1.20976E-04 1.46708E-05-4.52112E-17
 -1      1318 2.42049E-04 2.67522E-05-1.15901E-16
 -1      1319 1.37779E-04 5.32406E-05-3.36916E-17
 -1      1320 1.32283E-04 4.10135E-05-3.81097E-17
 -1      1321 2.67109E-04 7.73741E-05-1.04205E-16
 -1      1322 1.51359E-04 8.17674E-05-1.74692E-17
 -1      1323 1.42676E-04 6.68221E-05-2.57227E-17
 -1      1324 2.87108E-04 1.28077E-04-8.17082E-17
 -1      1325 2.09449E-04 1.40063E-04 9.97466E-18
 -1      1326 1.77675E-04 1.07215E-04-7.37257E-18
 -1      1327 3.33320E-04 1.92186E-04-5.22043E-17
 -1      1328 4.46834E-04 2.88172E-04-7.07442E-18
 -1      1329 5.37862E-04-3.47018E-04-1.10128E-16
 -1      1330 7.32772E-04-4.57929E-04-2.06784E-16
 -1      1331 9.17053E-04-5.54802E-04-3.58424E-16
 -1      1332 1.09311E-03-6.40712E-04-5.60560E-16
 -1      1333 7.71758E-04-4.60091E-04-3.24095E-16
 -1      1334 1.26138E-03-7.18031E-04-8.10672E-16
 -1      1335 1.42287E-03-7.86121E-04-1.11029E-15
 -1      1336 1.13201E-03-6.36140E-04-7.35116E-16
 -1      1337 1.57846E-03-8.44818E-04-1.45896E-15
 -1      1338 1.72913E-03-8.92482E-04-1.85672E-15
 -1      1339 1.46660E-03-7.75809E-04-1.33959E-15
 -1      1340 1.87596E-03-9.28167E-04-2.30248E-15
 -1      1341 2.02024E-03-9.50838E-04-2.79674E-15
 -1      1342 1.78155E-03-8.73517E-04-2.13733E-15
 -1      1343 2.16326E-03-9.60357E-04-3.33923E-15
 -1      1344 2.30638E-03-9.57060E-04-3.92908E-15
 -1      1345 2.08439E-03-9.19984E-04-3.12845E-15
 -1      1346 2.45071E-03-9.42311E-04-4.56544E-15
 -1      1347 2.59725E-03-9.17750E-04-5.24812E-15
 -1      1348 2.38393E-03-9.13326E-04-4.31012E-15
 -1      1349 2.74660E-03-8.85794E-04-5.97524E-15
 -1      1350 2.89908E-03-8.48657E-04-6.74580E-15
 -1      1351 2.68770E-03-8.63344E-04-5.67615E-15
 -1      1352 3.05469E-03-8.08813E-04-7.56003E-15
 -1      1353 3.21315E-03-7.68237E-04-8.41662E-15
 -1      1354 2.99960E-03-7.87986E-04-7.21874E-15
 -1      1355 3.37405E-03-7.28676E-04-9.31273E-15
 -1      1356 3.53678E-03-6.91421E-04-1.02494E-14
 -1      1357 3.31945E-03-7.05974E-04-8.92981E-15
 -1      1358 3.70079E-03-6.57274E-04-1.12251E-14
 -1      1359 3.86544E-03-6.26819E-04-1.22373E-14
 -1      1360 3.64447E-03-6.31030E-04-1.08010E-14
 -1      1361 4.03022E-03-6.00115E-04-1.32869E-14
 -1      1362 4.19464E-03-5.77245E-04-1.43726E-14
 -1      1363 3.97108E-03-5.70111E-04-1.28236E-14
 -1      1364 4.35835E-03-5.57857E-04-1.54947E-14
 -1      1365 4.52102E-03-5.41758E-04-1.66528E-14
 -1      1366 4.29617E-03-5.24688E-04-1.49928E-14
 -1      1367 4.68246E-03-5.28462E-04-1.78451E-14
 -1      1368 4.84252E-03-5.17667E-04-1.90713E-14
 -1      1369 4.61760E-03-4.93015E-04-1.73045E-14
 -1      1370 5.00115E-03-5.08913E-04-2.03304E-14
 -1      1371 5.15831E-03-5.01888E-04-2.16223E-14
 -1      1372 4.93424E-03-4.72051E-04-1.97521E-14
 -1      1373 5.31403E-03-4.96226E-04-2.29452E-14
 -1      1374 5.46835E-03-4.91652E-04-2.43007E-14
 -1      1375 5.24572E-03-4.58648E-04-2.23307E-14
 -1      1376 5.62135E-03-4.87905E-04-2.56863E-14
 -1      1377 5.77311E-03-4.84761E-04-2.70996E-14
 -1      1378 5.55223E-03-4.50111E-04-2.50351E-14
 -1      1379 5.92374E-03-4.82051E-04-2.85440E-14
 -1      1380 6.07332E-03-4.79605E-04-3.00174E-14
 -1      1381 5.85425E-03-4.44367E-04-2.78607E-14
 -1      1382 6.22196E-03-4.77322E-04-3.15182E-14
 -1      1383 6.36975E-03-4.75081E-04-3.30460E-14
 -1      1384 6.15243E-03-4.39937E-04-3.08014E-14
 -1      1385 6.51680E-03-4.72828E-04-3.46031E-14
 -1      1386 6.66317E-03-4.70481E-04-3.61907E-14
 -1      1387 6.44743E-03-4.35834E-04-3.38557E-14
 -1      1388 6.80897E-03-4.68018E-04-3.78066E-14
 -1      1389 6.95425E-03-4.65387E-04-3.94524E-14
 -1      1390 6.73988E-03-4.31441E-04-3.70247E-14
 -1      1391 7.09909E-03-4.62585E-04-4.11298E-14
 -1      1392 7.24355E-03-4.59581E-04-4.28350E-14
 -1      1393 7.03034E-03-4.26412E-04-4.03145E-14
 -1      1394 7.38769E-03-4.56386E-04-4.45709E-14
 -1      1395 7.53155E-03-4.52983E-04-4.63384E-14
 -1      1396 7.31928E-03-4.20582E-04-4.37233E-14
 -1      1397 7.67517E-03-4.49390E-04-4.81322E-14
 -1      1398 7.81860E-03-4.45598E-04-4.99553E-14
 -1      1399 7.60710E-03-4.13907E-04-4.72499E-14
 -1      1400 7.96187E-03-4.41628E-04-5.18053E-14
 -1      1401 8.10500E-03-4.37479E-04-5.36791E-14
 -1      1402 7.89410E-03-4.06418E-04-5.08894E-14
 -1      1403 8.24803E-03-4.33172E-04-5.55781E-14
 -1      1404 8.39096E-03-4.28709E-04-5.75010E-14
 -1      1405 8.18052E-03-3.98187E-04-5.46336E-14
 -1      1406 8.53383E-03-4.24109E-04-5.94504E-14
 -1      1407 8.67664E-03-4.19378E-04-6.14264E-14
 -1      1408 8.46654E-03-3.89306E-04-5.84763E-14
 -1      1409 8.81941E-03-4.14533E-04-6.34252E-14
 -1      1410 8.96215E-03-4.09579E-04-6.54480E-14
 -1      1411 8.75231E-03-3.79874E-04-6.24215E-14
 -1      1412 9.10487E-03-4.04531E-04-6.74954E-14
 -1      1413 9.24757E-03-3.99396E-04-6.95635E-14
 -1      1414 9.03791E-03-3.69984E-04-6.64622E-14
 -1      1415 9.39026E-03-3.94186E-04-7.16535E-14
 -1      1416 9.53296E-03-3.88906E-04-7.37654E-14
 -1      1417 9.32343E-03-3.59723E-04-7.05949E-14
 -1      1418 9.67565E-03-3.83567E-04-7.58960E-14
 -1      1419 9.81834E-03-3.78175E-04-7.80433E-14
 -1      1420 9.60891E-03-3.49168E-04-7.48089E-14
 -1      1421 9.96104E-03-3.72737E-04-8.02085E-14
 -1      1422 1.01038E-02-3.67258E-04-8.23891E-14
 -1      1423 9.89437E-03-3.38384E-04-7.90981E-14
 -1      1424 1.02465E-02-3.61744E-04-8.45879E-14
 -1      1425 1.03892E-02-3.56199E-04-8.68036E-14
 -1      1426 1.01799E-02-3.27424E-04-8.34561E-14
 -1      1427 1.05319E-02-3.50629E-04-8.90371E-14
 -1      1428 1.06747E-02-3.45037E-04-9.12859E-14
 -1      1429 1.04653E-02-3.16332E-04-8.78823E-14
 -1      1430 1.08174E-02-3.39425E-04-9.35481E-14
 -1      1431 1.09602E-02-3.33798E-04-9.58242E-14
 -1      1432 1.07509E-02-3.05144E-04-9.23712E-14
 -1      1433 1.11030E-02-3.28157E-04-9.81156E-14
 -1      1434 1.12457E-02-3.22506E-04-1.00418E-13
 -1      1435 1.10364E-02-2.93885E-04-9.69182E-14
 -1      1436 1.13885E-02-3.16844E-04-1.02731E-13
 -1      1437 1.15313E-02-3.11176E-04-1.05057E-13
 -1      1438 1.13220E-02-2.82578E-04-1.01519E-13
 -1      1439 1.16741E-02-3.05501E-04-1.07393E-13
 -1      1440 1.18169E-02-2.99822E-04-1.09737E-13
 -1      1441 1.16076E-02-2.71238E-04-1.06165E-13
 -1      1442 1.19597E-02-2.94139E-04-1.12097E-13
 -1      1443 1.21026E-02-2.88453E-04-1.14468E-13
 -1      1444 1.18932E-02-2.59877E-04-1.10857E-13
 -1      1445 1.22454E-02-2.82765E-04-1.16852E-13
 -1      1446 1.23882E-02-2.77075E-04-1.19252E-13
 -1      1447 1.21789E-02-2.48503E-04-1.15597E-13
 -1      1448 1.25310E-02-2.71384E-04-1.21665E-13
 -1      1449 1.26739E-02-2.65693E-04-1.24091E-13
 -1      1450 1.24645E-02-2.37121E-04-1.20390E-13
 -1      1451 1.28167E-02-2.60001E-04-1.26529E-13
 -1      1452 1.29596E-02-2.54310E-04-1.28977E-13
 -1      1453 1.27502E-02-2.25737E-04-1.25235E-13
 -1      1454 1.31024E-02-2.48618E-04-1.31435E-13
 -1      1455 1.32453E-02-2.42927E-04-1.33902E-13
 -1      1456 1.30359E-02-2.14352E-04-1.30124E-13
 -1      1457 1.33881E-02-2.37237E-04-1.36379E-13
 -1      1458 1.35310E-02-2.31547E-04-1.38865E-13
 -1      1459 1.33216E-02-2.02970E-04-1.35051E-13
 -1      1460 1.36738E-02-2.25858E-04-1.41359E-13
 -1      1461 1.38167E-02-2.20170E-04-1.43854E-13
 -1      1462 1.36073E-02-1.91589E-04-1.40013E-13
 -1      1463 1.39595E-02-2.14483E-04-1.46356E-13
 -1      1464 1.41024E-02-2.08796E-04-1.48864E-13
 -1      1465 1.38930E-02-1.80212E-04-1.45003E-13
 -1      1466 1.42452E-02-2.03111E-04-1.51374E-13
 -1      1467 1.43881E-02-1.97426E-04-1.53883E-13
 -1      1468 1.41787E-02-1.68839E-04-1.50010E-13
 -1      1469 1.45309E-02-1.91742E-04-1.56397E-13
 -1      1470 1.46738E-02-1.86059E-04-1.58916E-13
 -1      1471 1.44644E-02-1.57470E-04-1.55032E-13
 -1      1472 1.48815E-02-1.73506E-04-1.62564E-13
 -1      1473 1.48150E-02-1.39232E-04-1.61190E-13
 -1      1474 8.58229E-04 5.18931E-04-1.13990E-16
 -1      1475 6.58356E-04 4.09567E-04-3.97902E-17
 -1      1476 5.86420E-04 3.55981E-04-7.35360E-17
 -1      1477 1.22927E-03 7.09660E-04-3.88226E-16
 -1      1478 1.04825E-03 6.17695E-04-2.30068E-16
 -1      1479 9.78822E-04 5.66524E-04-2.70224E-16
 -1      1480 1.56771E-03 8.71749E-04-8.34361E-16
 -1      1481 1.40219E-03 7.94735E-04-5.89196E-16
 -1      1482 1.34205E-03 7.48163E-04-6.33865E-16
 -1      1483 1.87968E-03 9.94043E-04-1.45854E-15
 -1      1484 1.72644E-03 9.38846E-04-1.12391E-15
 -1      1485 1.67868E-03 8.97412E-04-1.17059E-15
 -1      1486 2.17483E-03 1.06095E-03-2.26231E-15
 -1      1487 2.02850E-03 1.03487E-03-1.83793E-15
 -1      1488 1.99505E-03 9.98303E-04-1.88609E-15
 -1      1489 2.46611E-03 1.06722E-03-3.25055E-15
 -1      1490 2.32002E-03 1.07113E-03-2.73295E-15
 -1      1491 2.30090E-03 1.03792E-03-2.78446E-15
 -1      1492 2.76548E-03 1.02374E-03-4.42135E-15
 -1      1493 2.61415E-03 1.05036E-03-3.81311E-15
 -1      1494 2.60715E-03 1.01835E-03-3.86663E-15
 -1      1495 3.07928E-03 9.52564E-04-5.77411E-15
 -1      1496 2.92042E-03 9.90098E-04-5.07516E-15
 -1      1497 2.92161E-03 9.57506E-04-5.13096E-15
 -1      1498 3.40709E-03 8.76664E-04-7.30329E-15
 -1      1499 3.24167E-03 9.14086E-04-6.51744E-15
 -1      1500 3.24651E-03 8.80068E-04-6.57368E-15
 -1      1501 3.74407E-03 8.12054E-04-8.99785E-15
 -1      1502 3.57484E-03 8.42411E-04-8.13016E-15
 -1      1503 3.57937E-03 8.06967E-04-8.18638E-15
 -1      1504 4.08405E-03 7.65916E-04-1.08536E-14
 -1      1505 3.91407E-03 7.86601E-04-9.90636E-15
 -1      1506 3.91562E-03 7.50165E-04-9.96179E-15
 -1      1507 4.42187E-03 7.38773E-04-1.28610E-14
 -1      1508 4.25351E-03 7.50145E-04-1.18387E-14
 -1      1509 4.25087E-03 7.13245E-04-1.18926E-14
 -1      1510 4.75421E-03 7.27671E-04-1.50167E-14
 -1      1511 4.58889E-03 7.31476E-04-1.39206E-14
 -1      1512 4.58195E-03 6.94551E-04-1.39720E-14
 -1      1513 5.07947E-03 7.28569E-04-1.73150E-14
 -1      1514 4.91778E-03 7.26870E-04-1.61479E-14
 -1      1515 4.90709E-03 6.90219E-04-1.61962E-14
 -1      1516 5.39739E-03 7.37659E-04-1.97540E-14
 -1      1517 5.23934E-03 7.32295E-04-1.85170E-14
 -1      1518 5.22569E-03 6.96085E-04-1.85620E-14
 -1      1519 5.70845E-03 7.51870E-04-2.23318E-14
 -1      1520 5.55373E-03 7.44277E-04-2.10260E-14
 -1      1521 5.53792E-03 7.08575E-04-2.10668E-14
 -1      1522 6.01356E-03 7.68943E-04-2.50433E-14
 -1      1523 5.86168E-03 7.60156E-04-2.36713E-14
 -1      1524 5.84442E-03 7.24961E-04-2.37079E-14
 -1      1525 6.31372E-03 7.87324E-04-2.78878E-14
 -1      1526 6.16419E-03 7.78041E-04-2.64488E-14
 -1      1527 6.14602E-03 7.43315E-04-2.64813E-14
 -1      1528 6.60992E-03 8.06002E-04-3.08606E-14
 -1      1529 6.46225E-03 7.96670E-04-2.93580E-14
 -1      1530 6.44357E-03 7.62353E-04-2.93851E-14
 -1      1531 6.90303E-03 8.24363E-04-3.39545E-14
 -1      1532 6.75680E-03 8.15248E-04-3.23929E-14
 -1      1533 6.73790E-03 7.81275E-04-3.24144E-14
 -1      1534 7.19380E-03 8.42069E-04-3.71708E-14
 -1      1535 7.04866E-03 8.33311E-04-3.55477E-14
 -1      1536 7.02972E-03 7.99620E-04-3.55649E-14
 -1      1537 7.48282E-03 8.58965E-04-4.05026E-14
 -1      1538 7.33849E-03 8.50623E-04-3.88226E-14
 -1      1539 7.31962E-03 8.17157E-04-3.88338E-14
 -1      1540 7.77059E-03 8.75014E-04-4.39472E-14
 -1      1541 7.62683E-03 8.67095E-04-4.22101E-14
 -1      1542 7.60810E-03 8.33805E-04-4.22162E-14
 -1      1543 8.05746E-03 8.90250E-04-4.75077E-14
 -1      1544 7.91411E-03 8.82730E-04-4.57136E-14
 -1      1545 7.89555E-03 8.49574E-04-4.57140E-14
 -1      1546 8.34372E-03 9.04747E-04-5.11809E-14
 -1      1547 8.20065E-03 8.97586E-04-4.93297E-14
 -1      1548 8.18226E-03 8.64531E-04-4.93252E-14
 -1      1549 8.62958E-03 9.18598E-04-5.49703E-14
 -1      1550 8.48669E-03 9.11747E-04-5.30620E-14
 -1      1551 8.46847E-03 8.78767E-04-5.30502E-14
 -1      1552 8.91518E-03 9.31899E-04-5.88592E-14
 -1      1553 8.77240E-03 9.25312E-04-5.69023E-14
 -1      1554 8.75433E-03 8.92385E-04-5.68833E-14
 -1      1555 9.20064E-03 9.44746E-04-6.28483E-14
 -1      1556 9.05793E-03 9.38374E-04-6.08414E-14
 -1      1557 9.03999E-03 9.05485E-04-6.08154E-14
 -1      1558 9.48603E-03 9.57224E-04-6.69213E-14
 -1      1559 9.34334E-03 9.51026E-04-6.48757E-14
 -1      1560 9.32552E-03 9.18163E-04-6.48401E-14
 -1      1561 9.77140E-03 9.69407E-04-7.10703E-14
 -1      1562 9.62872E-03 9.63348E-04-6.89868E-14
 -1      1563 9.61099E-03 9.30501E-04-6.89464E-14
 -1      1564 1.00568E-02 9.81361E-04-7.52933E-14
 -1      1565 9.91409E-03 9.75409E-04-7.31727E-14
 -1      1566 9.89643E-03 9.42572E-04-7.31282E-14
 -1      1567 1.03422E-02 9.93138E-04-7.95858E-14
 -1      1568 1.01995E-02 9.87269E-04-7.74308E-14
 -1      1569 1.01819E-02 9.54437E-04-7.73803E-14
 -1      1570 1.06276E-02 1.00478E-03-8.39513E-14
 -1      1571 1.04849E-02 9.98975E-04-8.17596E-14
 -1      1572 1.04673E-02 9.66146E-04-8.17032E-14
 -1      1573 1.09131E-02 1.01633E-03-8.83787E-14
 -1      1574 1.07704E-02 1.01057E-03-8.61567E-14
 -1      1575 1.07528E-02 9.77738E-04-8.60946E-14
 -1      1576 1.11986E-02 1.02780E-03-9.28707E-14
 -1      1577 1.10559E-02 1.02207E-03-9.06182E-14
 -1      1578 1.10384E-02 9.89245E-04-9.05518E-14
 -1      1579 1.14842E-02 1.03923E-03-9.74178E-14
 -1      1580 1.13414E-02 1.03352E-03-9.51374E-14
 -1      1581 1.13239E-02 1.00069E-03-9.50668E-14
 -1      1582 1.17698E-02 1.05062E-03-1.02014E-13
 -1      1583 1.16270E-02 1.04493E-03-9.97099E-14
 -1      1584 1.16095E-02 1.01210E-03-9.96362E-14
 -1      1585 1.20554E-02 1.06199E-03-1.06658E-13
 -1      1586 1.19126E-02 1.05631E-03-1.04331E-13
 -1      1587 1.18951E-02 1.02347E-03-1.04253E-13
 -1      1588 1.23410E-02 1.07335E-03-1.11329E-13
 -1      1589 1.21982E-02 1.06767E-03-1.08990E-13
 -1      1590 1.21808E-02 1.03483E-03-1.08910E-13
 -1      1591 1.26267E-02 1.08469E-03-1.16026E-13
 -1      1592 1.24838E-02 1.07902E-03-1.13675E-13
 -1      1593 1.24664E-02 1.04618E-03-1.13592E-13
 -1      1594 1.29123E-02 1.09604E-03-1.20740E-13
 -1      1595 1.27695E-02 1.09036E-03-1.18381E-13
 -1      1596 1.27521E-02 1.05753E-03-1.18298E-13
 -1      1597 1.31980E-02 1.10738E-03-1.25470E-13
 -1      1598 1.30552E-02 1.10171E-03-1.23103E-13
 -1      1599 1.30378E-02 1.06887E-03-1.23022E-13
 -1      1600 1.34837E-02 1.11872E-03-1.30226E-13
 -1      1601 1.33409E-02 1.11305E-03-1.27845E-13
 -1      1602 1.33234E-02 1.08021E-03-1.27771E-13
 -1      1603 1.37694E-02 1.13007E-03-1.35014E-13
 -1      1604 1.36266E-02 1.12440E-03-1.32615E-13
 -1      1605 1.36091E-02 1.09156E-03-1.32543E-13
 -1      1606 1.40551E-02 1.14142E-03-1.39833E-13
 -1      1607 1.39123E-02 1.13575E-03-1.37421E-13
 -1      1608 1.38948E-02 1.10290E-03-1.37348E-13
 -1      1609 1.43408E-02 1.15277E-03-1.44671E-13
 -1      1610 1.41980E-02 1.14710E-03-1.42250E-13
 -1      1611 1.41806E-02 1.11425E-03-1.42175E-13
 -1      1612 1.46265E-02 1.16413E-03-1.49537E-13
 -1      1613 1.44837E-02 1.15845E-03-1.47101E-13
 -1      1614 1.44663E-02 1.12561E-03-1.47026E-13
 -1      1615 1.49123E-02 1.17549E-03-1.54407E-13
 -1      1616 1.47694E-02 1.16981E-03-1.51972E-13
 -1      1617 1.47520E-02 1.13697E-03-1.51890E-13
 -1      1618 1.50598E-02 1.17159E-03-1.56985E-13
 -1      1619 1.50579E-02 1.06671E-03-1.57656E-13
 -1      1620 1.50634E-02 1.10885E-03-1.57465E-13
 -1      1621 1.50467E-02 9.82422E-04-1.58035E-13
 -1      1622 1.50523E-02 1.02457E-03-1.57846E-13
 -1      1623 1.49313E-02 1.04072E-03-1.55643E-13
 -1      1624 1.50355E-02 8.98134E-04-1.58419E-13
 -1      1625 1.50411E-02 9.40278E-04-1.58225E-13
 -1      1626 1.49202E-02 9.56430E-04-1.56022E-13
 -1      1627 1.50243E-02 8.13843E-04-1.58824E-13
 -1      1628 1.50299E-02 8.55989E-04-1.58621E-13
 -1      1629 1.49090E-02 8.72140E-04-1.56410E-13
 -1      1630 1.50133E-02 7.30978E-04-1.59217E-13
 -1      1631 1.50188E-02 7.72411E-04-1.59021E-13
 -1      1632 1.48979E-02 7.88563E-04-1.56803E-13
 -1      1633 1.50021E-02 6.46683E-04-1.59610E-13
 -1      1634 1.50077E-02 6.88831E-04-1.59413E-13
 -1      1635 1.48868E-02 7.04983E-04-1.57189E-13
 -1      1636 1.49910E-02 5.62385E-04-1.60004E-13
 -1      1637 1.49966E-02 6.04534E-04-1.59808E-13
 -1      1638 1.48756E-02 6.20687E-04-1.57574E-13
 -1      1639 1.49798E-02 4.78087E-04-1.60388E-13
 -1      1640 1.49854E-02 5.20236E-04-1.60199E-13
 -1      1641 1.48645E-02 5.36390E-04-1.57956E-13
 -1      1642 1.49686E-02 3.93790E-04-1.60753E-13
 -1      1643 1.49742E-02 4.35939E-04-1.60574E-13
 -1      1644 1.48533E-02 4.52093E-04-1.58329E-13
 -1      1645 1.49575E-02 3.09493E-04-1.61104E-13
 -1      1646 1.49630E-02 3.51641E-04-1.60928E-13
 -1      1647 1.48421E-02 3.67796E-04-1.58684E-13
 -1      1648 1.49465E-02 2.26628E-04-1.61450E-13
 -1      1649 1.49520E-02 2.68060E-04-1.61279E-13
 -1      1650 1.48310E-02 2.84215E-04-1.59026E-13
 -1      1651 1.49353E-02 1.42335E-04-1.61782E-13
 -1      1652 1.49409E-02 1.84481E-04-1.61620E-13
 -1      1653 1.48200E-02 2.00635E-04-1.59358E-13
 -1      1654 1.49241E-02 5.80457E-05-1.62068E-13
 -1      1655 1.49297E-02 1.00190E-04-1.61933E-13
 -1      1656 1.48088E-02 1.16343E-04-1.59668E-13
 -1      1657 1.49130E-02-2.62420E-05-1.62329E-13
 -1      1658 1.49186E-02 1.59016E-05-1.62199E-13
 -1      1659 1.47976E-02 3.20536E-05-1.59948E-13
 -1      1660 1.48612E-02-1.03809E-04-1.61825E-13
 -1      1661 1.48668E-02-6.16657E-05-1.61695E-13
 -1      1662 1.47459E-02-4.55146E-05-1.59446E-13
 -1      1663 1.46535E-02-1.16363E-04-1.58180E-13
 -1      1664 4.14665E-03 1.28999E-04-5.84661E-15
 -1      1665 4.17550E-03 9.58512E-05-5.90256E-15
 -1      1666 3.99785E-03 2.10416E-04-5.62144E-15
 -1      1667 4.08032E-03 1.70947E-04-5.74160E-15
 -1      1668 3.70968E-03 3.11925E-04-5.29744E-15
 -1      1669 3.85688E-03 2.53468E-04-5.50502E-15
 -1      1670 3.37356E-03 4.62838E-04-4.72647E-15
 -1      1671 3.53652E-03 3.99577E-04-4.96098E-15
 -1      1672 2.99588E-03 5.95140E-04-4.17608E-15
 -1      1673 3.17007E-03 5.33868E-04-4.44081E-15
 -1      1674 2.61677E-03 6.99787E-04-3.57863E-15
 -1      1675 2.79054E-03 6.57250E-04-3.85323E-15
 -1      1676 2.25225E-03 7.40115E-04-2.99733E-15
 -1      1677 2.41957E-03 7.29983E-04-3.25808E-15
 -1      1678 1.88945E-03 7.05412E-04-2.45447E-15
 -1      1679 2.05703E-03 7.31035E-04-2.70010E-15
 -1      1680 1.53119E-03 6.02613E-04-1.96379E-15
 -1      1681 1.69648E-03 6.58434E-04-2.18112E-15
 -1      1682 1.15322E-03 4.37603E-04-1.49784E-15
 -1      1683 1.33473E-03 5.19814E-04-1.70185E-15
 -1      1684 7.92541E-04 2.90489E-04-1.17019E-15
 -1      1685 9.39489E-04 3.56121E-04-1.31171E-15
 -1      1686 5.09191E-04 1.72033E-04-9.19851E-16
 -1      1687 6.33217E-04 2.22664E-04-1.02708E-15
 -1      1688 3.01766E-04 9.41592E-05-7.48953E-16
 -1      1689 3.87197E-04 1.25052E-04-8.18454E-16
 -1      1690 1.76192E-04 4.88520E-05-6.51512E-16
 -1      1691 2.23844E-04 6.63853E-05-6.88072E-16
 -1      1692 1.38736E-04 2.22385E-05-6.27540E-16
 -1      1693 1.45124E-04 3.28399E-05-6.29562E-16
 -1      1694 2.00154E-04 4.87018E-07-6.70613E-16
 -1      1695 1.57561E-04 1.20625E-05-6.31311E-16
 -1      1696 3.45681E-04-5.54736E-05-8.26233E-16
 -1      1697 2.69773E-04-3.12186E-05-7.54556E-16
 -1      1698 5.80476E-04-1.34475E-04-1.04527E-15
 -1      1699 4.61285E-04-9.12584E-05-9.29466E-16
 -1      1700 8.81778E-04-2.53373E-04-1.35814E-15
 -1      1701 7.36951E-04-1.94493E-04-1.20276E-15
 -1      1702 1.20731E-03-3.89074E-04-1.74581E-15
 -1      1703 1.05365E-03-3.26960E-04-1.56083E-15
 -1      1704 1.55264E-03-5.12328E-04-2.20193E-15
 -1      1705 1.39159E-03-4.58115E-04-1.98130E-15
 -1      1706 1.92241E-03-5.98244E-04-2.74921E-15
 -1      1707 1.75070E-03-5.65856E-04-2.48442E-15
 -1      1708 2.26688E-03-6.10564E-04-3.30256E-15
 -1      1709 2.11308E-03-6.12892E-04-3.05333E-15
 -1      1710 2.60322E-03-5.60532E-04-3.87310E-15
 -1      1711 2.44593E-03-5.92827E-04-3.61411E-15
 -1      1712 2.95079E-03-4.62699E-04-4.38918E-15
 -1      1713 2.79576E-03-5.11799E-04-4.15285E-15
 -1      1714 3.28487E-03-3.41424E-04-4.87469E-15
 -1      1715 3.13141E-03-3.99558E-04-4.65791E-15
 -1      1716 3.59948E-03-2.17885E-04-5.29441E-15
 -1      1717 3.45784E-03-2.74365E-04-5.11231E-15
 -1      1718 3.87810E-03-9.55670E-05-5.68167E-15
 -1      1719 3.75217E-03-1.46443E-04-5.53304E-15
 -1      1720 4.07686E-03-1.50201E-05-5.85270E-15
 -1      1721 4.00008E-03-5.16938E-05-5.77377E-15
 -1      1722 4.17385E-03 5.92607E-05-5.97595E-15
 -1      1723 4.14231E-03 2.88605E-05-5.95882E-15
 -1      1724 3.21778E-03 4.68187E-04-4.75532E-15
 -1      1725 3.58846E-03 3.06988E-04-5.39523E-15
 -1      1726 1.50424E-02 1.13875E-03-1.56899E-13
 -1      1727 1.49159E-02 1.11275E-03-1.54888E-13
 -1      1728 4.11533E-03 1.24236E-04-6.10933E-15
 -1      1729 3.90547E-03 1.90018E-04-5.87462E-15
 -1      1730 4.18288E-03 7.79439E-05-6.29296E-15
 -1      1731 2.84146E-03 6.19624E-04-4.12921E-15
 -1      1732 2.48749E-03 7.29917E-04-3.47555E-15
 -1      1733 2.15092E-03 7.60698E-04-2.85611E-15
 -1      1734 1.81936E-03 7.02189E-04-2.29154E-15
 -1      1735 1.47550E-03 5.60728E-04-1.77045E-15
 -1      1736 1.11038E-03 3.76848E-04-1.35047E-15
 -1      1737 7.55261E-04 2.18556E-04-1.04203E-15
 -1      1738 4.75039E-04 1.07838E-04-8.16154E-16
 -1      1739 2.71922E-04 4.78853E-05-6.68075E-16
 -1      1740 1.59917E-04 2.61172E-05-5.92848E-16
 -1      1741 1.46217E-04 2.25090E-05-5.73549E-16
 -1      1742 2.38164E-04 1.57275E-05-6.48690E-16
 -1      1743 4.27028E-04-3.54535E-05-8.23052E-16
 -1      1744 6.97154E-04-1.26259E-04-1.06257E-15
 -1      1745 1.01560E-03-2.65397E-04-1.40097E-15
 -1      1746 1.34830E-03-4.20115E-04-1.82187E-15
 -1      1747 1.68749E-03-5.55560E-04-2.32710E-15
 -1      1748 2.01556E-03-6.30120E-04-2.90826E-15
 -1      1749 2.33319E-03-6.21664E-04-3.52702E-15
 -1      1750 2.64736E-03-5.39270E-04-4.12954E-15
 -1      1751 2.98476E-03-4.11964E-04-4.69218E-15
 -1      1752 3.31949E-03-2.69742E-04-5.21477E-15
 -1      1753 3.64201E-03-1.31471E-04-5.70618E-15
 -1      1754 3.92013E-03-2.95565E-05-6.05240E-15
 -1      1755 4.11179E-03 3.65866E-05-6.25798E-15
 -1      1756 1.98258E-04-1.19381E-04-4.00342E-17
 -1      1757 4.32549E-04-2.79585E-04-9.40274E-17
 -1      1758 4.04736E-04-1.30153E-04-2.21245E-16
 -1      1759 4.14091E-04-1.62311E-04-2.15255E-16
 -1      1760 4.23163E-04-1.94273E-04-2.05592E-16
 -1      1761 4.36425E-04-2.27317E-04-1.90359E-16
 -1      1762 5.68602E-04-2.47872E-04-3.17793E-16
 -1      1763 3.31610E-04 3.33522E-06-2.15052E-16
 -1      1764 3.59139E-04-2.84916E-05-2.20120E-16
 -1      1765 2.54192E-04 5.27559E-05-2.01174E-16
 -1      1766 2.95949E-04 3.21006E-05-2.08722E-16
 -1      1767 4.32998E-04-2.35282E-06-3.13836E-16
 -1      1768 1.63408E-04 6.27262E-05-1.85582E-16
 -1      1769 2.06921E-04 6.41135E-05-1.92913E-16
 -1      1770 3.13742E-04 5.51077E-05-2.90492E-16
 -1      1771 1.09704E-04 3.55826E-05-1.75112E-16
 -1      1772 1.30700E-04 5.23514E-05-1.79646E-16
 -1      1773 1.94062E-04 6.30622E-05-2.67473E-16
 -1      1774 1.53235E-04-4.21606E-05-1.69075E-16
 -1      1775 1.23075E-04-2.99825E-05-1.66987E-16
 -1      1776 2.42515E-04-3.65606E-05-1.75465E-16
 -1      1777 1.97531E-04-4.53043E-05-1.72652E-16
 -1      1778 2.32600E-04-4.05597E-05-2.44637E-16
 -1      1779 3.23988E-04 1.16709E-05-1.77010E-16
 -1      1780 2.86877E-04-1.58917E-05-1.77335E-16
 -1      1781 3.61741E-04-9.46416E-06-2.54245E-16
 -1      1782 3.76708E-04 7.94069E-05-1.69474E-16
 -1      1783 3.53664E-04 4.49218E-05-1.74692E-16
 -1      1784 4.62252E-04 6.37670E-05-2.54828E-16
 -1      1785 4.08507E-04 1.48833E-04-1.49335E-16
 -1      1786 3.93787E-04 1.14466E-04-1.61424E-16
 -1      1787 5.21142E-04 1.49853E-04-2.41614E-16
 -1      1788 4.40284E-04 2.21931E-04-1.12337E-16
 -1      1789 4.22519E-04 1.84754E-04-1.33628E-16
 -1      1790 5.58558E-04 2.36418E-04-2.10864E-16
 -1      1791 5.26786E-04 3.07237E-04-8.80914E-17
 -1      1792 4.82918E-04 2.62098E-04-1.06496E-16
 -1      1793 6.21536E-04 3.23883E-04-1.83488E-16
 -1      1794 7.24064E-04 4.16428E-04-1.65842E-16
 -1      1795 4.89150E-04-2.97312E-04-1.58266E-16
 -1      1796 1.10569E-03 6.14354E-04-4.45417E-16
 -1      1797 9.17658E-04 5.18279E-04-2.85457E-16
 -1      1798 8.62649E-04 4.70422E-04-2.95974E-16
 -1      1799 1.00881E-03-5.50634E-04-6.57352E-16
 -1      1800 1.18548E-03-6.30567E-04-9.14552E-16
 -1      1801 1.35661E-03-7.02290E-04-1.21887E-15
 -1      1802 1.52340E-03-7.64002E-04-1.57158E-15
 -1      1803 1.24867E-03-6.24516E-04-1.09816E-15
 -1      1804 1.68541E-03-8.14786E-04-1.97203E-15
 -1      1805 1.84453E-03-8.52541E-04-2.42060E-15
 -1      1806 1.58898E-03-7.51581E-04-1.80636E-15
 -1      1807 2.00042E-03-8.76610E-04-2.91768E-15
 -1      1808 2.15562E-03-8.86330E-04-3.46255E-15
 -1      1809 1.91440E-03-8.29841E-04-2.70658E-15
 -1      1810 2.30970E-03-8.82438E-04-4.05413E-15
 -1      1811 2.46494E-03-8.66175E-04-4.69291E-15
 -1      1812 2.23179E-03-8.49601E-04-3.79852E-15
 -1      1813 2.62093E-03-8.39729E-04-5.37739E-15
 -1      1814 2.77878E-03-8.05581E-04-6.10591E-15
 -1      1815 2.54947E-03-8.15208E-04-5.07800E-15
 -1      1816 2.93823E-03-7.66464E-04-6.87777E-15
 -1      1817 3.09907E-03-7.24822E-04-7.69252E-15
 -1      1818 2.87239E-03-7.44447E-04-6.53770E-15
 -1      1819 3.26136E-03-6.82962E-04-8.54853E-15
 -1      1820 3.42408E-03-6.42506E-04-9.44415E-15
 -1      1821 3.20026E-03-6.59603E-04-8.16776E-15
 -1      1822 3.58754E-03-6.04837E-04-1.03791E-14
 -1      1823 3.75058E-03-5.70649E-04-1.13522E-14
 -1      1824 3.52968E-03-5.78465E-04-9.95962E-15
 -1      1825 3.91359E-03-5.40436E-04-1.23628E-14
 -1      1826 4.07562E-03-5.14256E-04-1.34095E-14
 -1      1827 3.85708E-03-5.10824E-04-1.19040E-14
 -1      1828 4.23703E-03-4.92000E-04-1.44932E-14
 -1      1829 4.39718E-03-4.73410E-04-1.56121E-14
 -1      1830 4.18022E-03-4.59598E-04-1.39959E-14
 -1      1831 4.55636E-03-4.58078E-04-1.67657E-14
 -1      1832 4.71423E-03-4.45650E-04-1.79549E-14
 -1      1833 4.49816E-03-4.23559E-04-1.62306E-14
 -1      1834 4.87094E-03-4.35642E-04-1.91771E-14
 -1      1835 5.02640E-03-4.27712E-04-2.04322E-14
 -1      1836 4.81086E-03-3.99684E-04-1.86040E-14
 -1      1837 5.18068E-03-4.21422E-04-2.17193E-14
 -1      1838 5.33382E-03-4.16486E-04-2.30373E-14
 -1      1839 5.11867E-03-3.84608E-04-2.11112E-14
 -1      1840 5.48587E-03-4.12560E-04-2.43879E-14
 -1      1841 5.63692E-03-4.09423E-04-2.57690E-14
 -1      1842 5.42217E-03-3.75346E-04-2.37439E-14
 -1      1843 5.78699E-03-4.06829E-04-2.71785E-14
 -1      1844 5.93622E-03-4.04615E-04-2.86175E-14
 -1      1845 5.72194E-03-3.69542E-04-2.64995E-14
 -1      1846 6.08462E-03-4.02621E-04-3.00873E-14
 -1      1847 6.23233E-03-4.00732E-04-3.15843E-14
 -1      1848 6.01859E-03-3.65475E-04-2.93748E-14
 -1      1849 6.37935E-03-3.98852E-04-3.31090E-14
 -1      1850 6.52581E-03-3.96904E-04-3.46630E-14
 -1      1851 6.31264E-03-3.61975E-04-3.23658E-14
 -1      1852 6.67173E-03-3.94840E-04-3.62464E-14
 -1      1853 6.81720E-03-3.92608E-04-3.78588E-14
 -1      1854 6.60460E-03-3.58292E-04-3.54697E-14
 -1      1855 6.96224E-03-3.90192E-04-3.95025E-14
 -1      1856 7.10694E-03-3.87562E-04-4.11765E-14
 -1      1857 6.89489E-03-3.53991E-04-3.86935E-14
 -1      1858 7.25132E-03-3.84720E-04-4.28773E-14
 -1      1859 7.39544E-03-3.81649E-04-4.46089E-14
 -1      1860 7.18388E-03-3.48852E-04-4.20347E-14
 -1      1861 7.53931E-03-3.78364E-04-4.63710E-14
 -1      1862 7.68299E-03-3.74858E-04-4.81593E-14
 -1      1863 7.47188E-03-3.42801E-04-4.54945E-14
 -1      1864 7.82649E-03-3.71150E-04-4.99770E-14
 -1      1865 7.96986E-03-3.67240E-04-5.18222E-14
 -1      1866 7.75912E-03-3.35854E-04-4.90695E-14
 -1      1867 8.11310E-03-3.63149E-04-5.36918E-14
 -1      1868 8.25624E-03-3.58881E-04-5.55859E-14
 -1      1869 8.04581E-03-3.28080E-04-5.27522E-14
 -1      1870 8.39929E-03-3.54457E-04-5.75075E-14
 -1      1871 8.54228E-03-3.49881E-04-5.94518E-14
 -1      1872 8.33211E-03-3.19576E-04-5.65391E-14
 -1      1873 8.68521E-03-3.45174E-04-6.14212E-14
 -1      1874 8.82809E-03-3.40342E-04-6.34161E-14
 -1      1875 8.61814E-03-3.10446E-04-6.04249E-14
 -1      1876 8.97094E-03-3.35403E-04-6.54324E-14
 -1      1877 9.11376E-03-3.30361E-04-6.74743E-14
 -1      1878 8.90397E-03-3.00796E-04-6.44076E-14
 -1      1879 9.25657E-03-3.25233E-04-6.95371E-14
 -1      1880 9.39935E-03-3.20024E-04-7.16201E-14
 -1      1881 9.18969E-03-2.90721E-04-6.84823E-14
 -1      1882 9.54213E-03-3.14747E-04-7.37251E-14
 -1      1883 9.68490E-03-3.09407E-04-7.58485E-14
 -1      1884 9.47533E-03-2.80307E-04-7.26435E-14
 -1      1885 9.82767E-03-3.04014E-04-7.79911E-14
 -1      1886 9.97043E-03-2.98572E-04-8.01496E-14
 -1      1887 9.76093E-03-2.69628E-04-7.68849E-14
 -1      1888 1.01132E-02-2.93091E-04-8.23258E-14
 -1      1889 1.02560E-02-2.87573E-04-8.45190E-14
 -1      1890 1.00465E-02-2.58745E-04-8.11988E-14
 -1      1891 1.03987E-02-2.82025E-04-8.67286E-14
 -1      1892 1.05415E-02-2.76451E-04-8.89561E-14
 -1      1893 1.03321E-02-2.47709E-04-8.55805E-14
 -1      1894 1.06843E-02-2.70855E-04-9.11976E-14
 -1      1895 1.08271E-02-2.65239E-04-9.34529E-14
 -1      1896 1.06177E-02-2.36558E-04-9.00254E-14
 -1      1897 1.09699E-02-2.59608E-04-9.57251E-14
 -1      1898 1.11127E-02-2.53964E-04-9.80103E-14
 -1      1899 1.09033E-02-2.25325E-04-9.45349E-14
 -1      1900 1.12555E-02-2.48308E-04-1.00307E-13
 -1      1901 1.13983E-02-2.42644E-04-1.02617E-13
 -1      1902 1.11889E-02-2.14034E-04-9.90990E-14
 -1      1903 1.15411E-02-2.36973E-04-1.04939E-13
 -1      1904 1.16839E-02-2.31295E-04-1.07272E-13
 -1      1905 1.14745E-02-2.02704E-04-1.03715E-13
 -1      1906 1.18267E-02-2.25613E-04-1.09617E-13
 -1      1907 1.19695E-02-2.19928E-04-1.11973E-13
 -1      1908 1.17602E-02-1.91347E-04-1.08378E-13
 -1      1909 1.21124E-02-2.14239E-04-1.14342E-13
 -1      1910 1.22552E-02-2.08549E-04-1.16724E-13
 -1      1911 1.20459E-02-1.79975E-04-1.13088E-13
 -1      1912 1.23980E-02-2.02858E-04-1.19119E-13
 -1      1913 1.25409E-02-1.97165E-04-1.21527E-13
 -1      1914 1.23315E-02-1.68593E-04-1.17850E-13
 -1      1915 1.26837E-02-1.91473E-04-1.23945E-13
 -1      1916 1.28266E-02-1.85780E-04-1.26376E-13
 -1      1917 1.26172E-02-1.57208E-04-1.22659E-13
 -1      1918 1.29694E-02-1.80087E-04-1.28817E-13
 -1      1919 1.31123E-02-1.74394E-04-1.31269E-13
 -1      1920 1.29029E-02-1.45821E-04-1.27514E-13
 -1      1921 1.32551E-02-1.68703E-04-1.33731E-13
 -1      1922 1.33979E-02-1.63011E-04-1.36199E-13
 -1      1923 1.31886E-02-1.34435E-04-1.32411E-13
 -1      1924 1.35408E-02-1.57321E-04-1.38675E-13
 -1      1925 1.36837E-02-1.51631E-04-1.41160E-13
 -1      1926 1.34743E-02-1.23053E-04-1.37343E-13
 -1      1927 1.38265E-02-1.45943E-04-1.43651E-13
 -1      1928 1.39694E-02-1.40255E-04-1.46148E-13
 -1      1929 1.37600E-02-1.11673E-04-1.42302E-13
 -1      1930 1.41122E-02-1.34568E-04-1.48649E-13
 -1      1931 1.42551E-02-1.28882E-04-1.51157E-13
 -1      1932 1.40457E-02-1.00297E-04-1.47292E-13
 -1      1933 1.43828E-02-1.25464E-04-1.53410E-13
 -1      1934 1.45257E-02-1.19780E-04-1.55920E-13
 -1      1935 1.45719E-02-8.43557E-05-1.56552E-13
 -1      1936 1.43163E-02-9.11917E-05-1.52043E-13
 -1      1937 1.46276E-03 7.86361E-04-8.90198E-16
 -1      1938 1.28711E-03 7.04092E-04-6.46157E-16
 -1      1939 1.23589E-03 6.59063E-04-6.53652E-16
 -1      1940 1.79746E-03 9.20052E-04-1.51014E-15
 -1      1941 1.63241E-03 8.59132E-04-1.17796E-15
 -1      1942 1.58860E-03 8.19885E-04-1.18015E-15
 -1      1943 2.11630E-03 9.97207E-04-2.31193E-15
 -1      1944 1.95798E-03 9.66391E-04-1.88811E-15
 -1      1945 1.92221E-03 9.33991E-04-1.88452E-15
 -1      1946 2.42914E-03 1.00981E-03-3.29681E-15
 -1      1947 2.27243E-03 1.01116E-03-2.78080E-15
 -1      1948 2.24384E-03 9.84305E-04-2.77222E-15
 -1      1949 2.74549E-03 9.68025E-04-4.46569E-15
 -1      1950 2.58622E-03 9.94380E-04-3.85838E-15
 -1      1951 2.56375E-03 9.70262E-04-3.84462E-15
 -1      1952 3.06990E-03 8.95265E-04-5.81505E-15
 -1      1953 2.90656E-03 9.33949E-04-5.11830E-15
 -1      1954 2.88942E-03 9.10044E-04-5.09975E-15
 -1      1955 3.40157E-03 8.16551E-04-7.33788E-15
 -1      1956 3.23510E-03 8.55513E-04-6.55490E-15
 -1      1957 3.22198E-03 8.30489E-04-6.53211E-15
 -1      1958 3.73675E-03 7.49332E-04-9.02682E-15
 -1      1959 3.56913E-03 7.80983E-04-8.16258E-15
 -1      1960 3.55814E-03 7.54608E-04-8.13356E-15
 -1      1961 4.07136E-03 7.01397E-04-1.08745E-14
 -1      1962 3.90449E-03 7.22902E-04-9.93101E-15
 -1      1963 3.89363E-03 6.95455E-04-9.89722E-15
 -1      1964 4.40234E-03 6.73340E-04-1.28729E-14
 -1      1965 4.23755E-03 6.85073E-04-1.18555E-14
 -1      1966 4.22529E-03 6.56927E-04-1.18144E-14
 -1      1967 4.72793E-03 6.62045E-04-1.50183E-14
 -1      1968 4.56594E-03 6.65860E-04-1.39275E-14
 -1      1969 4.55143E-03 6.37333E-04-1.38797E-14
 -1      1970 5.04741E-03 6.63250E-04-1.73058E-14
 -1      1971 4.88848E-03 6.61330E-04-1.61439E-14
 -1      1972 4.87149E-03 6.32666E-04-1.60889E-14
 -1      1973 5.36082E-03 6.72940E-04-1.97333E-14
 -1      1974 5.20486E-03 6.67230E-04-1.85026E-14
 -1      1975 5.18559E-03 6.38601E-04-1.84389E-14
 -1      1976 5.66863E-03 6.87888E-04-2.22979E-14
 -1      1977 5.51538E-03 6.79898E-04-2.09985E-14
 -1      1978 5.49421E-03 6.51421E-04-2.09277E-14
 -1      1979 5.97155E-03 7.05725E-04-2.49969E-14
 -1      1980 5.82064E-03 6.96541E-04-2.36307E-14
 -1      1981 5.79801E-03 6.68281E-04-2.35514E-14
 -1      1982 6.27036E-03 7.24829E-04-2.78280E-14
 -1      1983 6.12141E-03 7.15180E-04-2.63962E-14
 -1      1984 6.09772E-03 6.87165E-04-2.63072E-14
 -1      1985 6.56581E-03 7.44155E-04-3.07861E-14
 -1      1986 6.41845E-03 7.34501E-04-2.92915E-14
 -1      1987 6.39405E-03 7.06735E-04-2.91943E-14
 -1      1988 6.85861E-03 7.63074E-04-3.38675E-14
 -1      1989 6.71250E-03 7.53685E-04-3.23120E-14
 -1      1990 6.68765E-03 7.26153E-04-3.22068E-14
 -1      1991 7.14934E-03 7.81244E-04-3.70690E-14
 -1      1992 7.00419E-03 7.72261E-04-3.54531E-14
 -1      1993 6.97908E-03 7.44939E-04-3.53393E-14
 -1      1994 7.43851E-03 7.98518E-04-4.03870E-14
 -1      1995 7.29409E-03 7.89995E-04-3.87140E-14
 -1      1996 7.26885E-03 7.62854E-04-3.85918E-14
 -1      1997 7.72650E-03 8.14868E-04-4.38180E-14
 -1      1998 7.58262E-03 8.06806E-04-4.20884E-14
 -1      1999 7.55735E-03 7.79818E-04-4.19580E-14
 -1      2000 8.01364E-03 8.30339E-04-4.73639E-14
 -1      2001 7.87016E-03 8.22708E-04-4.55763E-14
 -1      2002 7.84491E-03 7.95846E-04-4.54372E-14
 -1      2003 8.30018E-03 8.45016E-04-5.10228E-14
 -1      2004 8.15697E-03 8.37770E-04-4.91801E-14
 -1      2005 8.13178E-03 8.11009E-04-4.90314E-14
 -1      2006 8.58630E-03 8.59002E-04-5.47942E-14
 -1      2007 8.44328E-03 8.52089E-04-5.28944E-14
 -1      2008 8.41816E-03 8.25407E-04-5.27380E-14
 -1      2009 8.87215E-03 8.72403E-04-5.86680E-14
 -1      2010 8.72925E-03 8.65769E-04-5.67191E-14
 -1      2011 8.70421E-03 8.39149E-04-5.65519E-14
 -1      2012 9.15782E-03 8.85322E-04-6.26381E-14
 -1      2013 9.01500E-03 8.78917E-04-6.06418E-14
 -1      2014 8.99003E-03 8.52344E-04-6.04664E-14
 -1      2015 9.44339E-03 8.97850E-04-6.66968E-14
 -1      2016 9.30061E-03 8.91630E-04-6.46572E-14
 -1      2017 9.27571E-03 8.65092E-04-6.44731E-14
 -1      2018 9.72890E-03 9.10067E-04-7.08332E-14
 -1      2019 9.58615E-03 9.03993E-04-6.87551E-14
 -1      2020 9.56130E-03 8.77481E-04-6.85632E-14
 -1      2021 1.00144E-02 9.22043E-04-7.50449E-14
 -1      2022 9.87165E-03 9.16082E-04-7.29303E-14
 -1      2023 9.84686E-03 8.89588E-04-7.27318E-14
 -1      2024 1.02999E-02 9.33835E-04-7.93256E-14
 -1      2025 1.01571E-02 9.27959E-04-7.71766E-14
 -1      2026 1.01324E-02 9.01478E-04-7.69713E-14
 -1      2027 1.05854E-02 9.45487E-04-8.36774E-14
 -1      2028 1.04426E-02 9.39676E-04-8.14927E-14
 -1      2029 1.04179E-02 9.13203E-04-8.12809E-14
 -1      2030 1.08709E-02 9.57037E-04-8.80941E-14
 -1      2031 1.07282E-02 9.51273E-04-8.58773E-14
 -1      2032 1.07035E-02 9.24805E-04-8.56589E-14
 -1      2033 1.11565E-02 9.68513E-04-9.25760E-14
 -1      2034 1.10137E-02 9.62783E-04-9.03290E-14
 -1      2035 1.09891E-02 9.36318E-04-9.01050E-14
 -1      2036 1.14421E-02 9.79938E-04-9.71149E-14
 -1      2037 1.12993E-02 9.74231E-04-9.48382E-14
 -1      2038 1.12747E-02 9.47768E-04-9.46098E-14
 -1      2039 1.17277E-02 9.91327E-04-1.01704E-13
 -1      2040 1.15849E-02 9.85636E-04-9.94033E-14
 -1      2041 1.15603E-02 9.59174E-04-9.91697E-14
 -1      2042 1.20133E-02 1.00269E-03-1.06338E-13
 -1      2043 1.18705E-02 9.97013E-04-1.04015E-13
 -1      2044 1.18459E-02 9.70551E-04-1.03777E-13
 -1      2045 1.22990E-02 1.01405E-03-1.11004E-13
 -1      2046 1.21562E-02 1.00837E-03-1.08668E-13
 -1      2047 1.21315E-02 9.81909E-04-1.08426E-13
 -1      2048 1.25846E-02 1.02539E-03-1.15701E-13
 -1      2049 1.24418E-02 1.01972E-03-1.13351E-13
 -1      2050 1.24172E-02 9.93257E-04-1.13107E-13
 -1      2051 1.28703E-02 1.03673E-03-1.20415E-13
 -1      2052 1.27275E-02 1.03106E-03-1.18055E-13
 -1      2053 1.27029E-02 1.00460E-03-1.17813E-13
 -1      2054 1.31560E-02 1.04807E-03-1.25154E-13
 -1      2055 1.30132E-02 1.04240E-03-1.22782E-13
 -1      2056 1.29886E-02 1.01594E-03-1.22539E-13
 -1      2057 1.34417E-02 1.05942E-03-1.29913E-13
 -1      2058 1.32988E-02 1.05375E-03-1.27529E-13
 -1      2059 1.32742E-02 1.02728E-03-1.27288E-13
 -1      2060 1.37274E-02 1.07076E-03-1.34700E-13
 -1      2061 1.35845E-02 1.06509E-03-1.32304E-13
 -1      2062 1.35599E-02 1.03862E-03-1.32061E-13
 -1      2063 1.40131E-02 1.08211E-03-1.39518E-13
 -1      2064 1.38702E-02 1.07644E-03-1.37106E-13
 -1      2065 1.38456E-02 1.04997E-03-1.36865E-13
 -1      2066 1.42988E-02 1.09346E-03-1.44355E-13
 -1      2067 1.41560E-02 1.08779E-03-1.41934E-13
 -1      2068 1.41314E-02 1.06132E-03-1.41691E-13
 -1      2069 1.45845E-02 1.10482E-03-1.49210E-13
 -1      2070 1.44417E-02 1.09914E-03-1.46781E-13
 -1      2071 1.44171E-02 1.07267E-03-1.46538E-13
 -1      2072 1.48216E-02 1.11163E-03-1.53264E-13
 -1      2073 1.46788E-02 1.10595E-03-1.50833E-13
 -1      2074 1.46542E-02 1.07948E-03-1.50586E-13
 -1      2075 1.48427E-02 1.08173E-03-1.53831E-13
 -1      2076 1.47825E-02 8.46148E-04-1.54399E-13
 -1      2077 1.47881E-02 8.88293E-04-1.54203E-13
 -1      2078 1.47937E-02 9.30438E-04-1.54009E-13
 -1      2079 1.47992E-02 9.72583E-04-1.53821E-13
 -1      2080 1.46671E-02 9.04447E-04-1.52000E-13
 -1      2081 1.48182E-02 1.00609E-03-1.53920E-13
 -1      2082 1.48238E-02 1.04823E-03-1.53731E-13
 -1      2083 1.47295E-02 1.04710E-03-1.52106E-13
 -1      2084 1.46917E-02 9.80095E-04-1.51907E-13
 -1      2085 1.47715E-02 7.63284E-04-1.54780E-13
 -1      2086 1.47770E-02 8.04716E-04-1.54589E-13
 -1      2087 1.46561E-02 8.20870E-04-1.52380E-13
 -1      2088 1.47603E-02 6.78989E-04-1.55162E-13
 -1      2089 1.47659E-02 7.21137E-04-1.54972E-13
 -1      2090 1.46450E-02 7.37291E-04-1.52756E-13
 -1      2091 1.47491E-02 5.94693E-04-1.55537E-13
 -1      2092 1.47547E-02 6.36841E-04-1.55351E-13
 -1      2093 1.46338E-02 6.52996E-04-1.53130E-13
 -1      2094 1.47380E-02 5.10396E-04-1.55909E-13
 -1      2095 1.47435E-02 5.52544E-04-1.55723E-13
 -1      2096 1.46226E-02 5.68699E-04-1.53496E-13
 -1      2097 1.47268E-02 4.26099E-04-1.56269E-13
 -1      2098 1.47324E-02 4.68247E-04-1.56090E-13
 -1      2099 1.46114E-02 4.84401E-04-1.53856E-13
 -1      2100 1.47156E-02 3.41802E-04-1.56614E-13
 -1      2101 1.47212E-02 3.83950E-04-1.56444E-13
 -1      2102 1.46003E-02 4.00104E-04-1.54205E-13
 -1      2103 1.47046E-02 2.58935E-04-1.56946E-13
 -1      2104 1.47101E-02 3.00368E-04-1.56781E-13
 -1      2105 1.45892E-02 3.16521E-04-1.54541E-13
 -1      2106 1.46935E-02 1.74641E-04-1.57263E-13
 -1      2107 1.46990E-02 2.16788E-04-1.57107E-13
 -1      2108 1.45781E-02 2.32940E-04-1.54860E-13
 -1      2109 1.46823E-02 9.03499E-05-1.57558E-13
 -1      2110 1.46879E-02 1.32495E-04-1.57412E-13
 -1      2111 1.45670E-02 1.48647E-04-1.55164E-13
 -1      2112 1.46711E-02 6.06058E-06-1.57830E-13
 -1      2113 1.46767E-02 4.82050E-05-1.57697E-13
 -1      2114 1.45558E-02 6.43559E-05-1.55449E-13
 -1      2115 3.84565E-03 1.71458E-04-6.23860E-15
 -1      2116 3.97804E-03 1.37824E-04-6.37421E-15
 -1      2117 4.18554E-03 8.36392E-05-6.70255E-15
 -1      2118 4.18628E-03 7.77360E-05-6.77720E-15
 -1      2119 4.07994E-03 1.12821E-04-6.47536E-15
 -1      2120 4.14776E-03 9.78549E-05-6.58993E-15
 -1      2121 4.17510E-03 8.66432E-05-7.07021E-15
 -1      2122 4.03897E-03 1.12068E-04-6.84714E-15
 -1      2123 3.45332E-03 3.26605E-04-5.45652E-15
 -1      2124 3.62774E-03 2.51370E-04-5.81182E-15
 -1      2125 3.09801E-03 4.85301E-04-4.82204E-15
 -1      2126 3.27611E-03 4.04658E-04-5.12612E-15
 -1      2127 3.79397E-04-6.29904E-05-2.23075E-16
 -1      2128 3.94367E-04-9.68738E-05-2.23698E-16
 -1      2129 5.45874E-04-1.68119E-04-3.32023E-16
 -1      2130 5.08062E-04-8.41260E-05-3.29137E-16
 -1      2131 2.38300E-03 7.64307E-04-3.37827E-15
 -1      2132 2.52922E-03 7.22925E-04-3.70426E-15
 -1      2133 2.07887E-03 7.75555E-04-2.72246E-15
 -1      2134 2.21913E-03 7.81172E-04-3.01731E-15
 -1      2135 1.77547E-03 6.93400E-04-2.14203E-15
 -1      2136 1.91689E-03 7.45016E-04-2.40517E-15
 -1      2137 1.44408E-03 5.25228E-04-1.61489E-15
 -1      2138 1.60447E-03 6.15918E-04-1.85859E-15
 -1      2139 1.03561E-03 3.02369E-04-1.17326E-15
 -1      2140 1.21013E-03 3.94376E-04-1.33467E-15
 -1      2141 7.14618E-04 1.55584E-04-9.13169E-16
 -1      2142 8.64375E-04 2.23597E-04-1.03692E-15
 -1      2143 4.39847E-04 5.31986E-05-7.01628E-16
 -1      2144 5.60387E-04 9.09936E-05-7.85979E-16
 -1      2145 2.44954E-04 1.08301E-05-5.67868E-16
 -1      2146 3.23962E-04 2.12661E-05-6.16725E-16
 -1      2147 1.47484E-04 1.51611E-05-5.18670E-16
 -1      2148 1.79806E-04 9.57278E-06-5.36465E-16
 -1      2149 1.55367E-04 3.31040E-05-5.05247E-16
 -1      2150 1.37716E-04 2.14990E-05-5.07721E-16
 -1      2151 1.40186E-04 1.37055E-05-4.47267E-16
 -1      2152 2.93861E-04 2.75846E-05-6.33903E-16
 -1      2153 2.19677E-04 3.68772E-05-5.60272E-16
 -1      2154 4.96529E-04-1.78844E-05-7.93751E-16
 -1      2155 3.83830E-04 9.29356E-06-7.08133E-16
 -1      2156 3.44355E-04 3.56084E-05-6.05175E-16
 -1      2157 7.98651E-04-1.30606E-04-1.06831E-15
 -1      2158 6.50811E-04-7.14115E-05-9.30801E-16
 -1      2159 1.13265E-03-2.91742E-04-1.44069E-15
 -1      2160 9.77785E-04-2.12491E-04-1.25628E-15
 -1      2161 1.45938E-03-4.57105E-04-1.87735E-15
 -1      2162 1.31038E-03-3.78711E-04-1.65772E-15
 -1      2163 1.77675E-03-5.95695E-04-2.42783E-15
 -1      2164 1.63167E-03-5.36187E-04-2.15583E-15
 -1      2165 2.09038E-03-6.56787E-04-3.09759E-15
 -1      2166 1.95498E-03-6.41509E-04-2.79456E-15
 -1      2167 2.35646E-03-6.26331E-04-3.71469E-15
 -1      2168 2.22477E-03-6.51687E-04-3.39919E-15
 -1      2169 2.14306E-03-6.66083E-04-3.27150E-15
 -1      2170 2.70162E-03-5.05754E-04-4.45268E-15
 -1      2171 2.55495E-03-5.65868E-04-4.15935E-15
 -1      2172 3.00523E-03-3.68739E-04-5.01008E-15
 -1      2173 2.85146E-03-4.41946E-04-4.72750E-15
 -1      2174 2.75575E-03-4.72868E-04-4.75557E-15
 -1      2175 3.36395E-03-2.09128E-04-5.57691E-15
 -1      2176 3.20491E-03-2.80825E-04-5.32437E-15
 -1      2177 3.68127E-03-7.41619E-05-6.12065E-15
 -1      2178 3.52915E-03-1.35936E-04-5.86852E-15
 -1      2179 3.97629E-03 2.28316E-05-6.55457E-15
 -1      2180 3.85791E-03-7.59533E-06-6.45089E-15
 -1      2181 4.13811E-03 6.32974E-05-6.77327E-15
 -1      2182 4.06905E-03 4.79623E-05-6.66211E-15
 -1      2183 4.02681E-03 5.08576E-05-7.06546E-15
 -1      2184 2.72502E-03 6.52922E-04-4.08769E-15
 -1      2185 2.89283E-03 5.78030E-04-4.42338E-15
 -1      2186 1.38396E-04-1.97969E-05-2.36254E-16
 -1      2187 1.03568E-04-1.09989E-05-1.65957E-16
 -1      2188 9.77568E-05 9.90505E-06-1.66533E-16
 -1      2189 1.22994E-04 2.77518E-05-2.45165E-16
 -1      2190 7.59147E-04-4.18016E-04-4.01345E-16
 -1      2191 8.28085E-04-4.20420E-04-5.21664E-16
 -1      2192 5.73783E-04-3.20310E-04-2.50586E-16
 -1      2193 3.43381E-04-1.96228E-04-1.23220E-16
 -1      2194 3.34779E-03 3.54391E-04-5.52242E-15
 -1      2195 3.63916E-03 2.28102E-04-6.34583E-15
 -1      2196 3.74027E-03 1.95415E-04-6.29383E-15
 -1      2197 3.84323E-03 1.59681E-04-6.79174E-15
 -1      2198 1.46249E-02-2.93640E-05-1.57201E-13
 -1      2199 4.17370E-03 7.62903E-05-7.18151E-15
 -1      2200 2.98427E-03 5.26273E-04-4.77325E-15
 -1      2201 3.77006E-03-2.33187E-05-6.61247E-15
 -1      2202 3.07917E-03-3.18449E-04-5.35708E-15
 -1      2203 2.43926E-03-6.05478E-04-4.01607E-15
 -1      2204 1.86648E-03-6.29590E-04-2.59970E-15
 -1      2205 1.55555E-03-5.00612E-04-1.96869E-15
 -1      2206 1.23843E-03-3.30970E-04-1.49137E-15
 -1      2207 5.77252E-04-2.58130E-05-7.97112E-16
 -1      2208 1.83186E-04 4.22154E-05-4.83693E-16
 -1      2209 2.11361E-04-5.00064E-06-4.85079E-16
 -1      2210 3.84751E-04 1.41495E-05-5.87333E-16
 -1      2211 6.46712E-04 1.01093E-04-7.80781E-16
 -1      2212 9.59408E-04 2.43798E-04-1.02731E-15
 -1      2213 1.33710E-03 4.55548E-04-1.41250E-15
 -1      2214 1.43784E-03 5.15075E-04-1.48589E-15
 -1      2215 1.23202E-03 3.88081E-04-1.22698E-15
 -1      2216 1.70582E-03 6.64523E-04-1.96064E-15
 -1      2217 2.29640E-03 7.85153E-04-3.22808E-15
 -1      2218 2.61096E-03 6.94530E-04-3.97786E-15
 -1      2219 2.00237E-03 7.73156E-04-2.55216E-15
 -1      2220 8.99728E-04-1.58788E-04-1.10254E-15
 -1      2221 3.43007E-03-1.56941E-04-5.97806E-15
 -1      2222 4.89955E-04-2.66639E-04-2.09061E-16
 -1      2223 3.46940E-04 5.60000E-05-3.84126E-16
 -1      2224 4.33392E-04 3.18378E-05-4.02740E-16
 -1      2225 5.10167E-04-6.89723E-06-4.20101E-16
 -1      2226 5.70653E-04-5.13052E-05-4.34182E-16
 -1      2227 5.74266E-04-1.31180E-05-5.40028E-16
 -1      2228 4.93755E-04 3.27435E-05-3.50401E-16
 -1      2229 4.16377E-04-3.83244E-06-3.45129E-16
 -1      2230 1.30221E-04 1.62272E-05-3.29374E-16
 -1      2231 1.48885E-04 4.00153E-05-3.44194E-16
 -1      2232 3.18567E-04-3.04591E-05-3.21405E-16
 -1      2233 2.39168E-04-3.55013E-05-3.12867E-16
 -1      2234 6.86623E-04 2.39059E-04-3.47351E-16
 -1      2235 6.60369E-04 1.89104E-04-3.60416E-16
 -1      2236 7.29727E-04 3.39587E-04-3.02276E-16
 -1      2237 7.07901E-04 2.89468E-04-3.28486E-16
 -1      2238 8.57851E-04 3.40487E-04-4.75775E-16
 -1      2239 8.15656E-04 4.26734E-04-3.00758E-16
 -1      2240 7.69924E-04 3.80985E-04-3.03644E-16
 -1      2241 9.20182E-04 4.37465E-04-4.55243E-16
 -1      2242 1.00510E-03 5.23975E-04-4.58170E-16
 -1      2243 1.14391E-03-5.43940E-04-9.77706E-16
 -1      2244 1.32054E-03-6.18526E-04-1.28626E-15
 -1      2245 1.37279E-03 7.04248E-04-8.94507E-16
 -1      2246 1.19101E-03 6.17058E-04-6.55427E-16
 -1      2247 1.14841E-03 5.74494E-04-6.53286E-16
 -1      2248 1.72158E-03 8.51135E-04-1.50310E-15
 -1      2249 1.54929E-03 7.83383E-04-1.17663E-15
 -1      2250 1.51159E-03 7.46077E-04-1.16905E-15
 -1      2251 1.49317E-03-6.84982E-04-1.64197E-15
 -1      2252 1.66240E-03-7.39654E-04-2.04527E-15
 -1      2253 1.39736E-03-6.13632E-04-1.47859E-15
 -1      2254 1.82735E-03-7.81170E-04-2.49639E-15
 -1      2255 1.99054E-03-8.06847E-04-2.99615E-15
 -1      2256 1.74015E-03-7.28599E-04-2.28699E-15
 -1      2257 2.15124E-03-8.16544E-04-3.54350E-15
 -1      2258 2.31276E-03-8.10698E-04-4.13797E-15
 -1      2259 2.07048E-03-7.82280E-04-3.28829E-15
 -1      2260 2.47438E-03-7.90948E-04-4.77931E-15
 -1      2261 2.63806E-03-7.60522E-04-5.46675E-15
 -1      2262 2.39819E-03-7.67452E-04-4.48070E-15
 -1      2263 2.80314E-03-7.22073E-04-6.19726E-15
 -1      2264 2.96961E-03-6.79490E-04-6.97181E-15
 -1      2265 2.73209E-03-7.00609E-04-5.85782E-15
 -1      2266 3.13710E-03-6.35224E-04-7.78797E-15
 -1      2267 3.30435E-03-5.91817E-04-8.64467E-15
 -1      2268 3.07237E-03-6.10726E-04-7.40898E-15
 -1      2269 3.47149E-03-5.50911E-04-9.54102E-15
 -1      2270 3.63716E-03-5.13499E-04-1.04757E-14
 -1      2271 3.41290E-03-5.22488E-04-9.12370E-15
 -1      2272 3.80182E-03-4.80327E-04-1.14473E-14
 -1      2273 3.96449E-03-4.51382E-04-1.24562E-14
 -1      2274 3.74750E-03-4.48868E-04-1.09932E-14
 -1      2275 4.12575E-03-4.26785E-04-1.35011E-14
 -1      2276 4.28504E-03-4.06085E-04-1.45817E-14
 -1      2277 4.07330E-03-3.93347E-04-1.30089E-14
 -1      2278 4.44287E-03-3.89051E-04-1.56980E-14
 -1      2279 4.59901E-03-3.75152E-04-1.68491E-14
 -1      2280 4.39023E-03-3.54362E-04-1.51682E-14
 -1      2281 4.75382E-03-3.64010E-04-1.80336E-14
 -1      2282 4.90727E-03-3.55159E-04-1.92534E-14
 -1      2283 4.69968E-03-3.28505E-04-1.74667E-14
 -1      2284 5.05957E-03-3.48205E-04-2.05048E-14
 -1      2285 5.21079E-03-3.42787E-04-2.17876E-14
 -1      2286 5.00328E-03-3.12176E-04-1.99009E-14
 -1      2287 5.36106E-03-3.38564E-04-2.31034E-14
 -1      2288 5.51047E-03-3.35270E-04-2.44492E-14
 -1      2289 5.30251E-03-3.02232E-04-2.24646E-14
 -1      2290 5.65909E-03-3.32644E-04-2.58245E-14
 -1      2291 5.80704E-03-3.30499E-04-2.72295E-14
 -1      2292 5.59845E-03-2.96191E-04-2.51516E-14
 -1      2293 5.95434E-03-3.28650E-04-2.86646E-14
 -1      2294 6.10111E-03-3.26972E-04-3.01307E-14
 -1      2295 5.89193E-03-2.92218E-04-2.79591E-14
 -1      2296 6.24734E-03-3.25344E-04-3.16249E-14
 -1      2297 6.39316E-03-3.23684E-04-3.31459E-14
 -1      2298 6.18353E-03-2.89034E-04-3.08850E-14
 -1      2299 6.53856E-03-3.21923E-04-3.46967E-14
 -1      2300 6.68362E-03-3.20009E-04-3.62768E-14
 -1      2301 6.47368E-03-2.85803E-04-3.39261E-14
 -1      2302 6.82835E-03-3.17911E-04-3.78862E-14
 -1      2303 6.97283E-03-3.15597E-04-3.95267E-14
 -1      2304 6.76270E-03-2.82015E-04-3.70827E-14
 -1      2305 7.11704E-03-3.13061E-04-4.11964E-14
 -1      2306 7.26105E-03-3.10287E-04-4.28942E-14
 -1      2307 7.05085E-03-2.77401E-04-4.03589E-14
 -1      2308 7.40486E-03-3.07281E-04-4.46228E-14
 -1      2309 7.54852E-03-3.04040E-04-4.63797E-14
 -1      2310 7.33833E-03-2.71851E-04-4.37539E-14
 -1      2311 7.69204E-03-3.00578E-04-4.81650E-14
 -1      2312 7.83543E-03-2.96897E-04-4.99776E-14
 -1      2313 7.62529E-03-2.65359E-04-4.72639E-14
 -1      2314 7.97872E-03-2.93016E-04-5.18164E-14
 -1      2315 8.12193E-03-2.88940E-04-5.36821E-14
 -1      2316 7.91186E-03-2.57984E-04-5.08843E-14
 -1      2317 8.26505E-03-2.84690E-04-5.55727E-14
 -1      2318 8.40812E-03-2.80272E-04-5.74898E-14
 -1      2319 8.19814E-03-2.49820E-04-5.46107E-14
 -1      2320 8.55113E-03-2.75707E-04-5.94310E-14
 -1      2321 8.69410E-03-2.71002E-04-6.13952E-14
 -1      2322 8.48422E-03-2.40973E-04-5.84384E-14
 -1      2323 8.83703E-03-2.66175E-04-6.33837E-14
 -1      2324 8.97993E-03-2.61234E-04-6.53964E-14
 -1      2325 8.77014E-03-2.31553E-04-6.23635E-14
 -1      2326 9.12281E-03-2.56194E-04-6.74316E-14
 -1      2327 9.26567E-03-2.51063E-04-6.94878E-14
 -1      2328 9.05596E-03-2.21661E-04-6.63832E-14
 -1      2329 9.40852E-03-2.45853E-04-7.15662E-14
 -1      2330 9.55135E-03-2.40572E-04-7.36644E-14
 -1      2331 9.34171E-03-2.11391E-04-7.04914E-14
 -1      2332 9.69418E-03-2.35230E-04-7.57825E-14
 -1      2333 9.83700E-03-2.29832E-04-7.79198E-14
 -1      2334 9.62742E-03-2.00823E-04-7.46824E-14
 -1      2335 9.97981E-03-2.24389E-04-8.00744E-14
 -1      2336 1.01226E-02-2.18903E-04-8.22452E-14
 -1      2337 9.91310E-03-1.90023E-04-7.89512E-14
 -1      2338 1.02654E-02-2.13382E-04-8.44334E-14
 -1      2339 1.04083E-02-2.07830E-04-8.66379E-14
 -1      2340 1.01988E-02-1.79047E-04-8.32898E-14
 -1      2341 1.05511E-02-2.02253E-04-8.88583E-14
 -1      2342 1.06939E-02-1.96654E-04-9.10954E-14
 -1      2343 1.04844E-02-1.67941E-04-8.76934E-14
 -1      2344 1.08367E-02-1.91036E-04-9.33480E-14
 -1      2345 1.09795E-02-1.85402E-04-9.56136E-14
 -1      2346 1.07701E-02-1.56740E-04-9.21631E-14
 -1      2347 1.11223E-02-1.79755E-04-9.78923E-14
 -1      2348 1.12652E-02-1.74097E-04-1.00185E-13
 -1      2349 1.10558E-02-1.45470E-04-9.66880E-14
 -1      2350 1.14080E-02-1.68431E-04-1.02491E-13
 -1      2351 1.15508E-02-1.62757E-04-1.04810E-13
 -1      2352 1.13414E-02-1.34154E-04-1.01270E-13
 -1      2353 1.16937E-02-1.57078E-04-1.07141E-13
 -1      2354 1.18365E-02-1.51395E-04-1.09483E-13
 -1      2355 1.16271E-02-1.22806E-04-1.05905E-13
 -1      2356 1.19793E-02-1.45708E-04-1.11837E-13
 -1      2357 1.21222E-02-1.40018E-04-1.14203E-13
 -1      2358 1.19128E-02-1.11438E-04-1.10586E-13
 -1      2359 1.22650E-02-1.34327E-04-1.16581E-13
 -1      2360 1.24078E-02-1.28635E-04-1.18973E-13
 -1      2361 1.21985E-02-1.00059E-04-1.15316E-13
 -1      2362 1.25507E-02-1.22941E-04-1.21378E-13
 -1      2363 1.26935E-02-1.17248E-04-1.23791E-13
 -1      2364 1.24842E-02-8.86734E-05-1.20095E-13
 -1      2365 1.28364E-02-1.11554E-04-1.26215E-13
 -1      2366 1.29792E-02-1.05861E-04-1.28650E-13
 -1      2367 1.27699E-02-7.72861E-05-1.24919E-13
 -1      2368 1.31221E-02-1.00168E-04-1.31093E-13
 -1      2369 1.32649E-02-9.44754E-05-1.33548E-13
 -1      2370 1.30556E-02-6.58993E-05-1.29780E-13
 -1      2371 1.34078E-02-8.87838E-05-1.36013E-13
 -1      2372 1.35506E-02-8.30931E-05-1.38481E-13
 -1      2373 1.33413E-02-5.45146E-05-1.34683E-13
 -1      2374 1.36935E-02-7.74032E-05-1.40957E-13
 -1      2375 1.38363E-02-7.17142E-05-1.43442E-13
 -1      2376 1.36270E-02-4.31330E-05-1.39616E-13
 -1      2377 1.39792E-02-6.60262E-05-1.45934E-13
 -1      2378 1.41221E-02-6.03392E-05-1.48432E-13
 -1      2379 1.39127E-02-3.17550E-05-1.44579E-13
 -1      2380 2.31848E-03 9.50919E-04-3.11045E-15
 -1      2381 2.15467E-03 9.43310E-04-2.61415E-15
 -1      2382 2.64724E-03 9.18911E-04-4.24187E-15
 -1      2383 2.48173E-03 9.41730E-04-3.65325E-15
 -1      2384 2.39790E-03 9.13160E-04-3.45595E-15
 -1      2385 2.98298E-03 8.46497E-04-5.55511E-15
 -1      2386 2.81420E-03 8.85738E-04-4.87616E-15
 -1      2387 2.73615E-03 8.61983E-04-4.64715E-15
 -1      2388 3.32348E-03 7.63378E-04-7.04203E-15
 -1      2389 3.15316E-03 8.04660E-04-6.27723E-15
 -1      2390 3.08192E-03 7.78759E-04-6.01792E-15
 -1      2391 3.66330E-03 6.90742E-04-8.69454E-15
 -1      2392 3.49406E-03 7.24942E-04-7.84774E-15
 -1      2393 3.42918E-03 6.94642E-04-7.55906E-15
 -1      2394 3.99811E-03 6.38122E-04-1.05054E-14
 -1      2395 3.83172E-03 6.61771E-04-9.58086E-15
 -1      2396 3.77097E-03 6.27443E-04-9.26161E-15
 -1      2397 4.32603E-03 6.06532E-04-1.24660E-14
 -1      2398 4.16313E-03 6.19857E-04-1.14670E-14
 -1      2399 4.10366E-03 5.82545E-04-1.11187E-14
 -1      2400 4.64685E-03 5.92840E-04-1.45739E-14
 -1      2401 4.48738E-03 5.97719E-04-1.35023E-14
 -1      2402 4.42689E-03 5.58289E-04-1.31233E-14
 -1      2403 4.96120E-03 5.92603E-04-1.68225E-14
 -1      2404 4.80482E-03 5.91306E-04-1.56805E-14
 -1      2405 4.74196E-03 5.50412E-04-1.52711E-14
 -1      2406 5.26995E-03 6.01605E-04-1.92117E-14
 -1      2407 5.11623E-03 5.96172E-04-1.79995E-14
 -1      2408 5.05051E-03 5.54322E-04-1.75598E-14
 -1      2409 5.57394E-03 6.16410E-04-2.17370E-14
 -1      2410 5.42247E-03 6.08452E-04-2.04576E-14
 -1      2411 5.35399E-03 5.66052E-04-1.99869E-14
 -1      2412 5.87396E-03 6.34470E-04-2.43964E-14
 -1      2413 5.72438E-03 6.25156E-04-2.30502E-14
 -1      2414 5.65349E-03 5.82523E-04-2.25490E-14
 -1      2415 6.17071E-03 6.54014E-04-2.71879E-14
 -1      2416 6.02269E-03 6.44140E-04-2.57760E-14
 -1      2417 5.94987E-03 6.01508E-04-2.52449E-14
 -1      2418 6.46480E-03 6.73887E-04-3.01072E-14
 -1      2419 6.31804E-03 6.63964E-04-2.86319E-14
 -1      2420 6.24378E-03 6.21488E-04-2.80699E-14
 -1      2421 6.75676E-03 6.93383E-04-3.31503E-14
 -1      2422 6.61101E-03 6.83716E-04-3.16136E-14
 -1      2423 6.53570E-03 6.41488E-04-3.10217E-14
 -1      2424 7.04704E-03 7.12113E-04-3.63146E-14
 -1      2425 6.90207E-03 7.02863E-04-3.47180E-14
 -1      2426 6.82607E-03 6.60928E-04-3.40965E-14
 -1      2427 7.33601E-03 7.29898E-04-3.95955E-14
 -1      2428 7.19166E-03 7.21133E-04-3.79398E-14
 -1      2429 7.11520E-03 6.79499E-04-3.72900E-14
 -1      2430 7.62399E-03 7.46697E-04-4.29906E-14
 -1      2431 7.48010E-03 7.38424E-04-4.12786E-14
 -1      2432 7.40337E-03 6.97079E-04-4.05995E-14
 -1      2433 7.91123E-03 7.62551E-04-4.64988E-14
 -1      2434 7.76769E-03 7.54741E-04-4.47309E-14
 -1      2435 7.69082E-03 7.13660E-04-4.40238E-14
 -1      2436 8.19791E-03 7.77547E-04-5.01205E-14
 -1      2437 8.05463E-03 7.70153E-04-4.82956E-14
 -1      2438 7.97771E-03 7.29302E-04-4.75610E-14
 -1      2439 8.48421E-03 7.91792E-04-5.38541E-14
 -1      2440 8.34110E-03 7.84758E-04-5.19743E-14
 -1      2441 8.26419E-03 7.44105E-04-5.12113E-14
 -1      2442 8.77024E-03 8.05400E-04-5.76913E-14
 -1      2443 8.62725E-03 7.98670E-04-5.57594E-14
 -1      2444 8.55038E-03 7.58180E-04-5.49703E-14
 -1      2445 9.05608E-03 8.18480E-04-6.16278E-14
 -1      2446 8.91317E-03 8.12001E-04-5.96482E-14
 -1      2447 8.83636E-03 7.71643E-04-5.88314E-14
 -1      2448 9.34179E-03 8.31132E-04-6.56530E-14
 -1      2449 9.19895E-03 8.24855E-04-6.36293E-14
 -1      2450 9.12220E-03 7.84603E-04-6.27886E-14
 -1      2451 9.62744E-03 8.43443E-04-6.97600E-14
 -1      2452 9.48463E-03 8.37326E-04-6.76961E-14
 -1      2453 9.40794E-03 7.97157E-04-6.68315E-14
 -1      2454 9.91305E-03 8.55489E-04-7.39456E-14
 -1      2455 9.77025E-03 8.49496E-04-7.18440E-14
 -1      2456 9.69363E-03 8.09391E-04-7.09577E-14
 -1      2457 1.01986E-02 8.67330E-04-7.82009E-14
 -1      2458 1.00558E-02 8.61432E-04-7.60646E-14
 -1      2459 9.97928E-03 8.21375E-04-7.51592E-14
 -1      2460 1.04842E-02 8.79018E-04-8.25260E-14
 -1      2461 1.03414E-02 8.73191E-04-8.03548E-14
 -1      2462 1.02649E-02 8.33169E-04-7.94305E-14
 -1      2463 1.07698E-02 8.90592E-04-8.69216E-14
 -1      2464 1.06270E-02 8.84818E-04-8.47163E-14
 -1      2465 1.05505E-02 8.44821E-04-8.37720E-14
 -1      2466 1.10554E-02 9.02085E-04-9.13792E-14
 -1      2467 1.09126E-02 8.96347E-04-8.91412E-14
 -1      2468 1.08362E-02 8.56369E-04-8.81821E-14
 -1      2469 1.13411E-02 9.13519E-04-9.58981E-14
 -1      2470 1.11982E-02 9.07808E-04-9.36320E-14
 -1      2471 1.11218E-02 8.67842E-04-9.26549E-14
 -1      2472 1.16267E-02 9.24914E-04-1.00469E-13
 -1      2473 1.14839E-02 9.19221E-04-9.81770E-14
 -1      2474 1.14075E-02 8.79263E-04-9.71862E-14
 -1      2475 1.19123E-02 9.36284E-04-1.05088E-13
 -1      2476 1.17695E-02 9.30602E-04-1.02774E-13
 -1      2477 1.16931E-02 8.90649E-04-1.01769E-13
 -1      2478 1.21980E-02 9.47637E-04-1.09742E-13
 -1      2479 1.20552E-02 9.41962E-04-1.07411E-13
 -1      2480 1.19788E-02 9.02012E-04-1.06397E-13
 -1      2481 1.24837E-02 9.58982E-04-1.14433E-13
 -1      2482 1.23408E-02 9.53310E-04-1.12084E-13
 -1      2483 1.22645E-02 9.13362E-04-1.11063E-13
 -1      2484 1.27694E-02 9.70322E-04-1.19144E-13
 -1      2485 1.26265E-02 9.64652E-04-1.16786E-13
 -1      2486 1.25502E-02 9.24704E-04-1.15758E-13
 -1      2487 1.30550E-02 9.81662E-04-1.23881E-13
 -1      2488 1.29122E-02 9.75992E-04-1.21510E-13
 -1      2489 1.28358E-02 9.36044E-04-1.20479E-13
 -1      2490 1.33407E-02 9.93002E-04-1.28637E-13
 -1      2491 1.31979E-02 9.87332E-04-1.26256E-13
 -1      2492 1.31215E-02 9.47383E-04-1.25220E-13
 -1      2493 1.36264E-02 1.00435E-03-1.33424E-13
 -1      2494 1.34836E-02 9.98674E-04-1.31027E-13
 -1      2495 1.34072E-02 9.58724E-04-1.29990E-13
 -1      2496 1.39122E-02 1.01569E-03-1.38236E-13
 -1      2497 1.37693E-02 1.01002E-03-1.35828E-13
 -1      2498 1.36929E-02 9.70068E-04-1.34787E-13
 -1      2499 1.41979E-02 1.02704E-03-1.43068E-13
 -1      2500 1.40550E-02 1.02137E-03-1.40649E-13
 -1      2501 1.39787E-02 9.81415E-04-1.39608E-13
 -1      2502 1.44836E-02 1.03840E-03-1.47915E-13
 -1      2503 1.43407E-02 1.03272E-03-1.45490E-13
 -1      2504 1.42644E-02 9.92767E-04-1.44446E-13
 -1      2505 1.46353E-02 1.04598E-03-1.50485E-13
 -1      2506 1.45185E-02 7.11298E-04-1.50729E-13
 -1      2507 1.45241E-02 7.53446E-04-1.50545E-13
 -1      2508 1.45073E-02 6.27002E-04-1.51094E-13
 -1      2509 1.45129E-02 6.69150E-04-1.50913E-13
 -1      2510 1.43920E-02 6.85306E-04-1.48702E-13
 -1      2511 1.45406E-02 8.78456E-04-1.49987E-13
 -1      2512 1.45462E-02 9.20601E-04-1.49795E-13
 -1      2513 1.45296E-02 7.95235E-04-1.50359E-13
 -1      2514 1.45351E-02 8.36667E-04-1.50173E-13
 -1      2515 1.44142E-02 8.52823E-04-1.47970E-13
 -1      2516 1.44031E-02 7.69244E-04-1.48338E-13
 -1      2517 1.44961E-02 5.42705E-04-1.51449E-13
 -1      2518 1.45017E-02 5.84853E-04-1.51272E-13
 -1      2519 1.43808E-02 6.01009E-04-1.49057E-13
 -1      2520 1.44849E-02 4.58406E-04-1.51805E-13
 -1      2521 1.44905E-02 5.00555E-04-1.51630E-13
 -1      2522 1.43696E-02 5.16710E-04-1.49407E-13
 -1      2523 1.44738E-02 3.74109E-04-1.52143E-13
 -1      2524 1.44793E-02 4.16257E-04-1.51974E-13
 -1      2525 1.43584E-02 4.32411E-04-1.49750E-13
 -1      2526 1.44628E-02 2.91240E-04-1.52463E-13
 -1      2527 1.44683E-02 3.32674E-04-1.52305E-13
 -1      2528 1.43473E-02 3.48827E-04-1.50075E-13
 -1      2529 1.44516E-02 2.06945E-04-1.52772E-13
 -1      2530 1.44572E-02 2.49092E-04-1.52620E-13
 -1      2531 1.43363E-02 2.65244E-04-1.50387E-13
 -1      2532 1.44405E-02 1.22652E-04-1.53067E-13
 -1      2533 1.44460E-02 1.64798E-04-1.52922E-13
 -1      2534 1.43251E-02 1.80949E-04-1.50686E-13
 -1      2535 1.44293E-02 3.83611E-05-1.53341E-13
 -1      2536 1.44349E-02 8.05062E-05-1.53203E-13
 -1      2537 1.43139E-02 9.66560E-05-1.50968E-13
 -1      2538 1.44972E-02-3.27814E-05-1.54942E-13
 -1      2539 4.20344E-03 8.14946E-05-7.63786E-15
 -1      2540 4.16044E-03 7.91019E-05-7.63306E-15
 -1      2541 2.02251E-03 9.29757E-04-2.22841E-15
 -1      2542 1.85641E-03 8.89443E-04-1.81716E-15
 -1      2543 1.82417E-03 8.59213E-04-1.80276E-15
 -1      2544 2.09579E-03 9.09800E-04-2.52116E-15
 -1      2545 2.88945E-03 5.71687E-04-4.79097E-15
 -1      2546 3.06627E-03 4.81943E-04-5.20744E-15
 -1      2547 3.83846E-03 6.43612E-06-7.12784E-15
 -1      2548 3.66974E-03-4.85202E-05-6.78326E-15
 -1      2549 1.94056E-03-6.58669E-04-2.78746E-15
 -1      2550 1.79592E-03-6.14901E-04-2.42601E-15
 -1      2551 1.79053E-04-1.15089E-05-4.05393E-16
 -1      2552 2.35990E-04-1.96790E-05-4.29093E-16
 -1      2553 6.25365E-04 1.36556E-04-3.67924E-16
 -1      2554 5.76177E-04 8.60520E-05-3.70635E-16
 -1      2555 7.98687E-04 2.27575E-04-5.06051E-16
 -1      2556 1.94641E-04 6.00239E-05-3.30045E-16
 -1      2557 2.54271E-04 6.56805E-05-3.42967E-16
 -1      2558 3.26019E-03 3.89570E-04-5.63090E-15
 -1      2559 3.41911E-03 3.17661E-04-5.97844E-15
 -1      2560 2.55764E-03 7.24237E-04-3.97192E-15
 -1      2561 2.71669E-03 6.52589E-04-4.37047E-15
 -1      2562 2.82500E-03 6.14766E-04-4.77721E-15
 -1      2563 9.84813E-04-1.88476E-04-1.10618E-15
 -1      2564 8.25353E-04-1.09826E-04-9.38187E-16
 -1      2565 2.21281E-03 8.02295E-04-3.04780E-15
 -1      2566 2.34629E-03 7.85661E-04-3.40667E-15
 -1      2567 1.64376E-03 6.34581E-04-1.79365E-15
 -1      2568 1.78674E-03 7.08457E-04-2.06538E-15
 -1      2569 8.69161E-04 1.84737E-04-8.76835E-16
 -1      2570 1.01348E-03 2.61240E-04-9.92980E-16
 -1      2571 5.78123E-04 5.65953E-05-6.50013E-16
 -1      2572 7.19083E-04 1.14185E-04-7.58616E-16
 -1      2573 7.71123E-04 1.33557E-04-7.30752E-16
 -1      2574 3.09034E-04-1.71660E-05-4.57222E-16
 -1      2575 4.09351E-04 2.09717E-06-5.24381E-16
 -1      2576 1.40440E-04-2.30918E-06-3.39186E-16
 -1      2577 3.48634E-03-1.19172E-04-6.50697E-15
 -1      2578 3.33477E-03-1.85486E-04-6.20035E-15
 -1      2579 6.53847E-04-3.85015E-05-7.88527E-16
 -1      2580 5.12358E-04 9.08426E-06-6.69542E-16
 -1      2581 1.30253E-03-3.63801E-04-1.51229E-15
 -1      2582 1.15256E-03-2.77642E-04-1.31333E-15
 -1      2583 1.61415E-03-5.37813E-04-2.03196E-15
 -1      2584 1.47452E-03-4.60938E-04-1.76935E-15
 -1      2585 2.19428E-03-6.70875E-04-3.47961E-15
 -1      2586 2.08763E-03-6.75933E-04-3.17671E-15
 -1      2587 2.51754E-03-5.79413E-04-4.37690E-15
 -1      2588 2.35350E-03-6.39157E-04-3.92104E-15
 -1      2589 2.82531E-03-4.35176E-04-5.13175E-15
 -1      2590 2.70077E-03-4.98940E-04-4.84329E-15
 -1      2591 3.16292E-03-2.65820E-04-5.81899E-15
 -1      2592 2.99075E-03-3.52565E-04-5.48766E-15
 -1      2593 2.93044E-03-3.87773E-04-5.57601E-15
 -1      2594 3.25044E-03-2.29186E-04-6.33222E-15
 -1      2595 4.07729E-03 6.45749E-05-7.55839E-15
 -1      2596 3.99212E-03 4.85807E-05-7.44335E-15
 -1      2597 1.94718E-03 7.68182E-04-2.40137E-15
 -1      2598 2.07758E-03 7.96801E-04-2.71387E-15
 -1      2599 2.14336E-03 8.09175E-04-2.87468E-15
 -1      2600 7.34091E-04-3.33733E-04-4.65949E-16
 -1      2601 9.77097E-04-4.59351E-04-7.42841E-16
 -1      2602 1.05463E-03-4.57830E-04-8.86837E-16
 -1      2603 7.21106E-04-2.88787E-04-4.78635E-16
 -1      2604 4.39933E-04 2.08052E-06-4.30543E-16
 -1      2605 7.18806E-04-1.17626E-04-5.78923E-16
 -1      2606 6.15187E-04-1.00963E-04-4.45092E-16
 -1      2607 6.46616E-04-1.49585E-04-4.52234E-16
 -1      2608 6.61743E-04 1.02836E-04-4.87417E-16
 -1      2609 3.54002E-04 5.21638E-05-4.61674E-16
 -1      2610 1.81749E-04 4.66597E-05-4.24221E-16
 -1      2611 7.30278E-04-6.68900E-05-7.90370E-16
 -1      2612 4.14369E-03 7.49383E-05-8.01764E-15
 -1      2613 4.01549E-03 1.14207E-04-7.26955E-15
 -1      2614 4.10267E-03 9.81044E-05-7.38284E-15
 -1      2615 1.45589E-02 1.00602E-03-1.49435E-13
 -1      2616 2.00307E-03-6.75136E-04-2.97584E-15
 -1      2617 1.45400E-02 9.72517E-04-1.49334E-13
 -1      2618 3.55212E-03 2.65377E-04-6.45622E-15
 -1      2619 3.67784E-03 2.27063E-04-6.94961E-15
 -1      2620 3.48371E-03 3.08745E-04-6.56152E-15
 -1      2621 1.43463E-02-5.39121E-05-1.52374E-13
 -1      2622 1.43993E-02 1.08056E-06-1.53016E-13
 -1      2623 1.42784E-02 1.72295E-05-1.50778E-13
 -1      2624 1.42185E-02-5.73311E-05-1.50124E-13
 -1      2625 4.21000E-03 8.50360E-05-7.74653E-15
 -1      2626 4.22833E-03 8.59884E-05-8.20359E-15
 -1      2627 3.91622E-03 2.62073E-05-7.61632E-15
 -1      2628 4.17864E-03 8.59609E-05-7.62641E-15
 -1      2629 3.86794E-03 1.61888E-04-7.36278E-15
 -1      2630 3.94275E-03 1.34838E-04-7.31660E-15
 -1      2631 4.03123E-03 1.22973E-04-7.85637E-15
 -1      2632 1.86643E-04-3.09061E-05-2.92931E-16
 -1      2633 1.46830E-04-1.51939E-05-2.89401E-16
 -1      2634 3.58533E-03-8.39356E-05-7.01059E-15
 -1      2635 1.69672E-03-5.84097E-04-2.19424E-15
 -1      2636 2.60353E-03-5.49640E-04-4.73168E-15
 -1      2637 2.28672E-03-6.60959E-04-3.80999E-15
 -1      2638 2.53095E-04-2.78516E-05-3.75303E-16
 -1      2639 1.37213E-03-4.10619E-04-1.56758E-15
 -1      2640 4.64565E-04 1.16231E-05-5.05035E-16
 -1      2641 1.53086E-03 5.75150E-04-1.57694E-15
 -1      2642 1.60596E-03 6.27891E-04-1.66563E-15
 -1      2643 1.41891E-03 5.13191E-04-1.37665E-15
 -1      2644 2.46267E-03 7.65215E-04-3.76416E-15
 -1      2645 2.57621E-03 7.36132E-04-4.13606E-15
 -1      2646 2.38506E-03 7.95123E-04-3.56090E-15
 -1      2647 1.12123E-03 3.22315E-04-1.05515E-15
 -1      2648 1.21254E-03 3.84650E-04-1.11516E-15
 -1      2649 1.01261E-03 2.63984E-04-8.98831E-16
 -1      2650 3.16570E-03 4.45457E-04-5.64201E-15
 -1      2651 6.79369E-04-1.96495E-04-4.70178E-16
 -1      2652 6.95295E-04-2.43028E-04-4.68592E-16
 -1      2653 8.60984E-04-3.23972E-04-6.53029E-16
 -1      2654 8.00593E-04-2.24153E-04-6.15569E-16
 -1      2655 1.04889E-03-2.24709E-04-1.12375E-15
 -1      2656 1.86976E-03 7.48125E-04-2.20716E-15
 -1      2657 2.59632E-04 5.52323E-05-4.75799E-16
 -1      2658 3.34235E-04 4.87891E-05-5.34003E-16
 -1      2659 1.44135E-02 9.46528E-04-1.47325E-13
 -1      2660 1.41520E-02-2.30590E-05-1.48761E-13
 -1      2661 4.65833E-04 2.68325E-05-5.95891E-16
 -1      2662 1.02905E-03 4.47319E-04-6.24717E-16
 -1      2663 1.00532E-03 3.90945E-04-6.50426E-16
 -1      2664 1.58483E-03 7.44513E-04-1.37409E-15
 -1      2665 1.40455E-03 6.64079E-04-1.06839E-15
 -1      2666 1.42769E-02 8.88934E-04-1.45356E-13
 -1      2667 1.42706E-02 9.40851E-04-1.44901E-13
 -1      2668 1.41278E-02 9.35175E-04-1.42480E-13
 -1      2669 3.18750E-03 7.05965E-04-6.48895E-15
 -1      2670 3.00962E-03 7.52223E-04-5.75355E-15
 -1      2671 1.65261E-03-6.73613E-04-2.07908E-15
 -1      2672 1.82300E-03-7.20001E-04-2.53198E-15
 -1      2673 1.98896E-03-7.48953E-04-3.03346E-15
 -1      2674 2.15514E-03-7.57582E-04-3.58368E-15
 -1      2675 1.90745E-03-7.12396E-04-2.78038E-15
 -1      2676 2.32036E-03-7.46720E-04-4.18224E-15
 -1      2677 2.48885E-03-7.20286E-04-4.82748E-15
 -1      2678 2.24401E-03-7.28083E-04-3.88380E-15
 -1      2679 2.65935E-03-6.81169E-04-5.51776E-15
 -1      2680 2.83231E-03-6.35581E-04-6.25281E-15
 -1      2681 2.58744E-03-6.65115E-04-5.17819E-15
 -1      2682 3.00681E-03-5.86406E-04-7.03032E-15
 -1      2683 3.18108E-03-5.38384E-04-7.84924E-15
 -1      2684 2.94199E-03-5.63771E-04-6.65287E-15
 -1      2685 3.35486E-03-4.93246E-04-8.70796E-15
 -1      2686 3.52591E-03-4.52334E-04-9.60512E-15
 -1      2687 3.29798E-03-4.63271E-04-8.29344E-15
 -1      2688 3.69480E-03-4.16502E-04-1.05401E-14
 -1      2689 3.86028E-03-3.85485E-04-1.15113E-14
 -1      2690 3.64421E-03-3.82600E-04-1.00892E-14
 -1      2691 4.02310E-03-3.59489E-04-1.25190E-14
 -1      2692 4.18280E-03-3.37648E-04-1.35625E-14
 -1      2693 3.97561E-03-3.24252E-04-1.20321E-14
 -1      2694 4.34012E-03-3.19859E-04-1.46412E-14
 -1      2695 4.49502E-03-3.05284E-04-1.57548E-14
 -1      2696 4.29294E-03-2.84578E-04-1.41172E-14
 -1      2697 4.64806E-03-2.93684E-04-1.69032E-14
 -1      2698 4.79940E-03-2.84401E-04-1.80850E-14
 -1      2699 4.59935E-03-2.58668E-04-1.63417E-14
 -1      2700 4.94939E-03-2.77146E-04-1.93003E-14
 -1      2701 5.09822E-03-2.71456E-04-2.05477E-14
 -1      2702 4.89818E-03-2.42338E-04-1.87027E-14
 -1      2703 5.24610E-03-2.67053E-04-2.18289E-14
 -1      2704 5.39322E-03-2.63621E-04-2.31404E-14
 -1      2705 5.19211E-03-2.32328E-04-2.11961E-14
 -1      2706 5.53967E-03-2.60926E-04-2.44820E-14
 -1      2707 5.68562E-03-2.58759E-04-2.58535E-14
 -1      2708 5.48297E-03-2.26207E-04-2.38148E-14
 -1      2709 5.83108E-03-2.56939E-04-2.72560E-14
 -1      2710 5.97621E-03-2.55333E-04-2.86875E-14
 -1      2711 5.77199E-03-2.22206E-04-2.65555E-14
 -1      2712 6.12098E-03-2.53811E-04-3.01472E-14
 -1      2713 6.26552E-03-2.52290E-04-3.16383E-14
 -1      2714 6.05987E-03-2.19079E-04-2.94143E-14
 -1      2715 6.40980E-03-2.50688E-04-3.31571E-14
 -1      2716 6.55390E-03-2.48957E-04-3.47044E-14
 -1      2717 6.34707E-03-2.15992E-04-3.23904E-14
 -1      2718 6.69781E-03-2.47048E-04-3.62817E-14
 -1      2719 6.84160E-03-2.44936E-04-3.78883E-14
 -1      2720 6.63384E-03-2.12419E-04-3.54825E-14
 -1      2721 6.98523E-03-2.42600E-04-3.95257E-14
 -1      2722 7.12877E-03-2.40029E-04-4.11925E-14
 -1      2723 6.92031E-03-2.08064E-04-3.86949E-14
 -1      2724 7.27219E-03-2.37220E-04-4.28881E-14
 -1      2725 7.41555E-03-2.34172E-04-4.46116E-14
 -1      2726 7.20659E-03-2.02791E-04-4.20250E-14
 -1      2727 7.55881E-03-2.30893E-04-4.63643E-14
 -1      2728 7.70202E-03-2.27388E-04-4.81455E-14
 -1      2729 7.49273E-03-1.96577E-04-4.54689E-14
 -1      2730 7.84517E-03-2.23671E-04-4.99552E-14
 -1      2731 7.98827E-03-2.19750E-04-5.17900E-14
 -1      2732 7.77876E-03-1.89464E-04-4.90276E-14
 -1      2733 8.13132E-03-2.15642E-04-5.36507E-14
 -1      2734 8.27435E-03-2.11356E-04-5.55379E-14
 -1      2735 8.06470E-03-1.81537E-04-5.26951E-14
 -1      2736 8.41734E-03-2.06911E-04-5.74505E-14
 -1      2737 8.56030E-03-2.02316E-04-5.93882E-14
 -1      2738 8.35059E-03-1.72898E-04-5.64655E-14
 -1      2739 8.70324E-03-1.97589E-04-6.13487E-14
 -1      2740 8.84616E-03-1.92737E-04-6.33312E-14
 -1      2741 8.63643E-03-1.63655E-04-6.03354E-14
 -1      2742 8.98907E-03-1.87778E-04-6.53397E-14
 -1      2743 9.13196E-03-1.82718E-04-6.73697E-14
 -1      2744 8.92223E-03-1.53911E-04-6.42990E-14
 -1      2745 9.27484E-03-1.77572E-04-6.94215E-14
 -1      2746 9.41772E-03-1.72347E-04-7.14939E-14
 -1      2747 9.20800E-03-1.43762E-04-6.83552E-14
 -1      2748 9.56058E-03-1.67055E-04-7.35865E-14
 -1      2749 9.70344E-03-1.61701E-04-7.57001E-14
 -1      2750 9.49376E-03-1.33289E-04-7.24951E-14
 -1      2751 9.84630E-03-1.56295E-04-7.78312E-14
 -1      2752 9.98915E-03-1.50842E-04-7.99816E-14
 -1      2753 9.77950E-03-1.22565E-04-7.67146E-14
 -1      2754 1.01320E-02-1.45350E-04-8.21484E-14
 -1      2755 1.02748E-02-1.39822E-04-8.43318E-14
 -1      2756 1.00652E-02-1.11648E-04-8.10096E-14
 -1      2757 1.04177E-02-1.34266E-04-8.65321E-14
 -1      2758 1.05605E-02-1.28684E-04-8.87488E-14
 -1      2759 1.03509E-02-1.00586E-04-8.53728E-14
 -1      2760 1.07034E-02-1.23081E-04-9.09813E-14
 -1      2761 1.08462E-02-1.17459E-04-9.32272E-14
 -1      2762 1.06367E-02-8.94171E-05-8.98026E-14
 -1      2763 1.09891E-02-1.11823E-04-9.54882E-14
 -1      2764 1.11319E-02-1.06174E-04-9.77633E-14
 -1      2765 1.09224E-02-7.81713E-05-9.42901E-14
 -1      2766 1.12748E-02-1.00515E-04-1.00053E-13
 -1      2767 1.14176E-02-9.48470E-05-1.02355E-13
 -1      2768 1.12081E-02-6.68716E-05-9.88374E-14
 -1      2769 1.15605E-02-8.91726E-05-1.04672E-13
 -1      2770 1.17033E-02-8.34925E-05-1.07000E-13
 -1      2771 1.14938E-02-5.55354E-05-1.03440E-13
 -1      2772 1.18462E-02-7.78084E-05-1.09337E-13
 -1      2773 1.19890E-02-7.21209E-05-1.11689E-13
 -1      2774 1.17795E-02-4.41753E-05-1.08091E-13
 -1      2775 1.21318E-02-6.64311E-05-1.14054E-13
 -1      2776 1.22747E-02-6.07395E-05-1.16428E-13
 -1      2777 1.20652E-02-3.28006E-05-1.12792E-13
 -1      2778 1.24176E-02-5.50469E-05-1.18817E-13
 -1      2779 1.25604E-02-4.93535E-05-1.21217E-13
 -1      2780 1.23509E-02-2.14180E-05-1.17542E-13
 -1      2781 1.27033E-02-4.36599E-05-1.23625E-13
 -1      2782 1.28461E-02-3.79663E-05-1.26044E-13
 -1      2783 1.26366E-02-1.00319E-05-1.22333E-13
 -1      2784 1.29890E-02-3.22730E-05-1.28472E-13
 -1      2785 1.31318E-02-2.65801E-05-1.30909E-13
 -1      2786 1.29224E-02 1.35470E-06-1.27165E-13
 -1      2787 1.32747E-02-2.08879E-05-1.33357E-13
 -1      2788 1.34175E-02-1.51964E-05-1.35814E-13
 -1      2789 1.32081E-02 1.27399E-05-1.32035E-13
 -1      2790 1.35604E-02-9.50563E-06-1.38279E-13
 -1      2791 1.37032E-02-3.81579E-06-1.40749E-13
 -1      2792 1.34938E-02 2.41225E-05-1.36942E-13
 -1      2793 1.38461E-02 1.87313E-06-1.43228E-13
 -1      2794 1.39889E-02 7.56111E-06-1.45714E-13
 -1      2795 1.37795E-02 3.55018E-05-1.41880E-13
 -1      2796 2.83152E-03 7.98597E-04-5.06114E-15
 -1      2797 2.65562E-03 8.39547E-04-4.41243E-15
 -1      2798 2.93764E-03 7.27370E-04-5.48380E-15
 -1      2799 4.26318E-03 8.76306E-05-8.86675E-15
 -1      2800 4.24602E-03 8.58975E-05-8.75628E-15
 -1      2801 2.48309E-03 8.71444E-04-3.80997E-15
 -1      2802 2.31202E-03 8.86531E-04-3.25376E-15
 -1      2803 2.57639E-03 8.20823E-04-4.17259E-15
 -1      2804 3.54003E-03 6.23820E-04-8.08350E-15
 -1      2805 3.36520E-03 6.62476E-04-7.26596E-15
 -1      2806 3.30236E-03 6.29717E-04-6.96908E-15
 -1      2807 3.88154E-03 5.64578E-04-9.83579E-15
 -1      2808 3.71268E-03 5.91262E-04-8.94017E-15
 -1      2809 3.65681E-03 5.53440E-04-8.61609E-15
 -1      2810 4.21020E-03 5.28749E-04-1.17368E-14
 -1      2811 4.04761E-03 5.44064E-04-1.07680E-14
 -1      2812 3.99486E-03 5.04205E-04-1.04153E-14
 -1      2813 4.52756E-03 5.12273E-04-1.37847E-14
 -1      2814 4.37022E-03 5.18495E-04-1.27431E-14
 -1      2815 4.31725E-03 4.78047E-04-1.23617E-14
 -1      2816 4.83636E-03 5.10132E-04-1.59725E-14
 -1      2817 4.68291E-03 5.09745E-04-1.48609E-14
 -1      2818 4.62756E-03 4.69111E-04-1.44498E-14
 -1      2819 5.13901E-03 5.17889E-04-1.83001E-14
 -1      2820 4.98833E-03 5.13029E-04-1.71192E-14
 -1      2821 4.92962E-03 4.72207E-04-1.66781E-14
 -1      2822 5.43733E-03 5.31993E-04-2.07652E-14
 -1      2823 5.28862E-03 5.24333E-04-1.95163E-14
 -1      2824 5.22633E-03 4.83287E-04-1.90450E-14
 -1      2825 5.73255E-03 5.49795E-04-2.33638E-14
 -1      2826 5.58525E-03 5.40561E-04-2.20482E-14
 -1      2827 5.51966E-03 4.99312E-04-2.15468E-14
 -1      2828 6.02549E-03 5.69419E-04-2.60943E-14
 -1      2829 5.87924E-03 5.59466E-04-2.47123E-14
 -1      2830 5.81082E-03 5.18085E-04-2.41815E-14
 -1      2831 6.31670E-03 5.89602E-04-2.89535E-14
 -1      2832 6.17126E-03 5.79497E-04-2.75079E-14
 -1      2833 6.10054E-03 5.38069E-04-2.69460E-14
 -1      2834 6.60658E-03 6.09547E-04-3.19360E-14
 -1      2835 6.46177E-03 5.99639E-04-3.04293E-14
 -1      2836 6.38926E-03 5.58246E-04-2.98380E-14
 -1      2837 6.89543E-03 6.28790E-04-3.50427E-14
 -1      2838 6.75111E-03 6.19276E-04-3.34748E-14
 -1      2839 6.67724E-03 5.77978E-04-3.28539E-14
 -1      2840 7.18346E-03 6.47100E-04-3.82661E-14
 -1      2841 7.03952E-03 6.38070E-04-3.66404E-14
 -1      2842 6.96468E-03 5.96909E-04-3.59908E-14
 -1      2843 7.47086E-03 6.64398E-04-4.16057E-14
 -1      2844 7.32722E-03 6.55877E-04-3.99217E-14
 -1      2845 7.25168E-03 6.14871E-04-3.92447E-14
 -1      2846 7.75777E-03 6.80706E-04-4.50585E-14
 -1      2847 7.61436E-03 6.72674E-04-4.33179E-14
 -1      2848 7.53835E-03 6.31826E-04-4.26135E-14
 -1      2849 8.04431E-03 6.96099E-04-4.86252E-14
 -1      2850 7.90108E-03 6.88512E-04-4.68288E-14
 -1      2851 7.82476E-03 6.47817E-04-4.60960E-14
 -1      2852 8.33058E-03 7.10682E-04-5.23037E-14
 -1      2853 8.18747E-03 7.03486E-04-5.04507E-14
 -1      2854 8.11097E-03 6.62930E-04-4.96915E-14
 -1      2855 8.61665E-03 7.24570E-04-5.60868E-14
 -1      2856 8.47363E-03 7.17707E-04-5.41815E-14
 -1      2857 8.39703E-03 6.77273E-04-5.33950E-14
 -1      2858 8.90257E-03 7.37879E-04-5.99700E-14
 -1      2859 8.75962E-03 7.31291E-04-5.80159E-14
 -1      2860 8.68298E-03 6.90962E-04-5.72038E-14
 -1      2861 9.18839E-03 7.50713E-04-6.39479E-14
 -1      2862 9.04549E-03 7.44350E-04-6.19487E-14
 -1      2863 8.96884E-03 7.04107E-04-6.11094E-14
 -1      2864 9.47415E-03 7.63166E-04-6.80109E-14
 -1      2865 9.33127E-03 7.56982E-04-6.59691E-14
 -1      2866 9.25464E-03 7.16811E-04-6.51070E-14
 -1      2867 9.75986E-03 7.75321E-04-7.21542E-14
 -1      2868 9.61701E-03 7.69277E-04-7.00726E-14
 -1      2869 9.54039E-03 7.29162E-04-6.91898E-14
 -1      2870 1.00455E-02 7.87245E-04-7.63731E-14
 -1      2871 9.90270E-03 7.81309E-04-7.42550E-14
 -1      2872 9.82612E-03 7.41238E-04-7.33515E-14
 -1      2873 1.03312E-02 7.98994E-04-8.06605E-14
 -1      2874 1.01884E-02 7.93139E-04-7.85075E-14
 -1      2875 1.01118E-02 7.53102E-04-7.75863E-14
 -1      2876 1.06169E-02 8.10612E-04-8.50189E-14
 -1      2877 1.04740E-02 8.04817E-04-8.28309E-14
 -1      2878 1.03975E-02 7.64807E-04-8.18914E-14
 -1      2879 1.09025E-02 8.22135E-04-8.94434E-14
 -1      2880 1.07597E-02 8.16384E-04-8.72248E-14
 -1      2881 1.06832E-02 7.76393E-04-8.62656E-14
 -1      2882 1.11882E-02 8.33591E-04-9.39332E-14
 -1      2883 1.10454E-02 8.27870E-04-9.16793E-14
 -1      2884 1.09689E-02 7.87893E-04-9.07079E-14
 -1      2885 1.14739E-02 8.45000E-04-9.84760E-14
 -1      2886 1.13310E-02 8.39301E-04-9.61979E-14
 -1      2887 1.12546E-02 7.99333E-04-9.52105E-14
 -1      2888 1.17596E-02 8.56378E-04-1.03070E-13
 -1      2889 1.16167E-02 8.50692E-04-1.00766E-13
 -1      2890 1.15403E-02 8.10731E-04-9.97651E-14
 -1      2891 1.20453E-02 8.67737E-04-1.07708E-13
 -1      2892 1.19024E-02 8.62059E-04-1.05385E-13
 -1      2893 1.18260E-02 8.22103E-04-1.04370E-13
 -1      2894 1.23309E-02 8.79083E-04-1.12382E-13
 -1      2895 1.21881E-02 8.73411E-04-1.10041E-13
 -1      2896 1.21117E-02 8.33457E-04-1.09021E-13
 -1      2897 1.26166E-02 8.90424E-04-1.17084E-13
 -1      2898 1.24738E-02 8.84754E-04-1.14730E-13
 -1      2899 1.23974E-02 8.44802E-04-1.13701E-13
 -1      2900 1.29023E-02 9.01763E-04-1.21814E-13
 -1      2901 1.27595E-02 8.96094E-04-1.19447E-13
 -1      2902 1.26831E-02 8.56142E-04-1.18412E-13
 -1      2903 1.31880E-02 9.13103E-04-1.26564E-13
 -1      2904 1.30452E-02 9.07433E-04-1.24186E-13
 -1      2905 1.29688E-02 8.67482E-04-1.23148E-13
 -1      2906 1.34737E-02 9.24445E-04-1.31344E-13
 -1      2907 1.33309E-02 9.18773E-04-1.28950E-13
 -1      2908 1.32545E-02 8.78822E-04-1.27910E-13
 -1      2909 1.37595E-02 9.35789E-04-1.36152E-13
 -1      2910 1.36166E-02 9.30117E-04-1.33744E-13
 -1      2911 1.35402E-02 8.90164E-04-1.32699E-13
 -1      2912 1.40150E-02 9.38318E-04-1.40519E-13
 -1      2913 1.38722E-02 9.32644E-04-1.38103E-13
 -1      2914 1.37958E-02 8.92691E-04-1.37056E-13
 -1      2915 1.40213E-02 8.86401E-04-1.40970E-13
 -1      2916 2.06425E-03-6.90058E-04-3.19189E-15
 -1      2917 1.93436E-03-6.73237E-04-2.80510E-15
 -1      2918 1.42431E-02 4.90715E-04-1.47361E-13
 -1      2919 1.42487E-02 5.32865E-04-1.47189E-13
 -1      2920 1.40854E-02 1.08916E-05-1.47401E-13
 -1      2921 1.41819E-02 1.38999E-05-1.49089E-13
 -1      2922 1.42119E-02 5.11811E-05-1.49412E-13
 -1      2923 1.40189E-02 4.45209E-05-1.46041E-13
 -1      2924 1.42654E-02 6.59314E-04-1.46675E-13
 -1      2925 1.42710E-02 7.01462E-04-1.46497E-13
 -1      2926 1.42319E-02 4.06416E-04-1.47691E-13
 -1      2927 1.42375E-02 4.48565E-04-1.47530E-13
 -1      2928 1.41166E-02 4.64720E-04-1.45314E-13
 -1      2929 1.42543E-02 5.75015E-04-1.47018E-13
 -1      2930 1.42598E-02 6.17165E-04-1.46847E-13
 -1      2931 1.41389E-02 6.33321E-04-1.44644E-13
 -1      2932 1.41277E-02 5.49021E-04-1.44983E-13
 -1      2933 1.42209E-02 3.23545E-04-1.48004E-13
 -1      2934 1.42264E-02 3.64980E-04-1.47849E-13
 -1      2935 1.41055E-02 3.81134E-04-1.45634E-13
 -1      2936 1.42098E-02 2.39248E-04-1.48309E-13
 -1      2937 1.42153E-02 2.81396E-04-1.48158E-13
 -1      2938 1.40944E-02 2.97548E-04-1.45938E-13
 -1      2939 1.41986E-02 1.54952E-04-1.48600E-13
 -1      2940 1.42042E-02 1.97099E-04-1.48455E-13
 -1      2941 1.40833E-02 2.13250E-04-1.46233E-13
 -1      2942 1.42174E-02 9.33267E-05-1.49280E-13
 -1      2943 3.99563E-03 3.92752E-05-8.20288E-15
 -1      2944 3.85008E-03 1.35879E-06-7.87405E-15
 -1      2945 3.70068E-03-4.89102E-05-7.57542E-15
 -1      2946 3.53993E-03-1.12743E-04-7.28196E-15
 -1      2947 3.80738E-03-2.73290E-05-8.15576E-15
 -1      2948 4.17391E-03 9.25196E-05-8.06035E-15
 -1      2949 2.70572E-03-5.16368E-04-5.20070E-15
 -1      2950 2.54668E-03-5.89766E-04-4.71708E-15
 -1      2951 4.20230E-03 7.85362E-05-8.67723E-15
 -1      2952 4.13001E-03 6.73821E-05-8.59751E-15
 -1      2953 4.25923E-03 8.07690E-05-9.35123E-15
 -1      2954 1.02890E-03-4.08702E-04-8.73609E-16
 -1      2955 1.19619E-03-4.92497E-04-1.13080E-15
 -1      2956 1.00167E-03-3.58491E-04-8.54311E-16
 -1      2957 5.99120E-04 5.66540E-05-5.40448E-16
 -1      2958 2.77698E-03 6.60679E-04-4.76301E-15
 -1      2959 2.92635E-03 5.87228E-04-5.20225E-15
 -1      2960 1.11201E-03-2.68661E-04-1.15344E-15
 -1      2961 9.62543E-04-1.86005E-04-9.65184E-16
 -1      2962 3.11604E-03 4.94312E-04-5.73769E-15
 -1      2963 3.28315E-03 4.11504E-04-6.18281E-15
 -1      2964 7.30469E-04 1.14926E-04-6.54167E-16
 -1      2965 8.64982E-04 1.82527E-04-7.59050E-16
 -1      2966 9.56183E-04 2.39962E-04-8.09059E-16
 -1      2967 6.81207E-04 9.76031E-05-5.62877E-16
 -1      2968 1.41606E-03-4.54040E-04-1.60577E-15
 -1      2969 1.26939E-03-3.62085E-04-1.36924E-15
 -1      2970 1.16573E-03-3.19207E-04-1.18556E-15
 -1      2971 1.76942E-03-6.26896E-04-2.36681E-15
 -1      2972 1.60708E-03-5.56320E-04-1.98253E-15
 -1      2973 5.22586E-04 1.30835E-05-5.83978E-16
 -1      2974 1.79446E-03 7.28787E-04-2.00573E-15
 -1      2975 1.93639E-03 7.83336E-04-2.33133E-15
 -1      2976 2.36471E-03-6.51390E-04-4.13806E-15
 -1      2977 2.22424E-03-6.82735E-04-3.68577E-15
 -1      2978 1.33857E-03-5.54515E-04-1.38783E-15
 -1      2979 1.51566E-03-6.24737E-04-1.75470E-15
 -1      2980 1.59920E-03-6.25089E-04-1.95896E-15
 -1      2981 1.31566E-03-5.08698E-04-1.36273E-15
 -1      2982 2.08790E-03 8.13409E-04-2.71828E-15
 -1      2983 2.20646E-03 8.18920E-04-3.04926E-15
 -1      2984 4.15907E-03 1.03414E-04-8.45251E-15
 -1      2985 4.22722E-03 9.57442E-05-8.70980E-15
 -1      2986 8.31086E-04-1.38408E-04-7.57762E-16
 -1      2987 8.92107E-04-1.98752E-04-7.78769E-16
 -1      2988 1.33081E-03 5.85000E-04-1.02949E-15
 -1      2989 1.25497E-03 5.83025E-04-8.65857E-16
 -1      2990 1.83776E-03-6.59611E-04-2.55465E-15
 -1      2991 1.42766E-02 7.43253E-04-1.46320E-13
 -1      2992 1.42821E-02 7.85043E-04-1.46141E-13
 -1      2993 1.41501E-02 7.17262E-04-1.44300E-13
 -1      2994 1.06803E-03 4.90366E-04-6.35830E-16
 -1      2995 7.89221E-04 1.65438E-04-5.93235E-16
 -1      2996 2.00479E-03 8.08752E-04-2.48307E-15
 -1      2997 4.28294E-03 9.40239E-05-9.27139E-15
 -1      2998 4.32720E-03 9.37559E-05-9.84425E-15
 -1      2999 4.29583E-03 1.03330E-04-9.68012E-15
 -1      3000 2.24631E-03 8.62796E-04-3.09968E-15
 -1      3001 2.16272E-03 8.85723E-04-2.79430E-15
 -1      3002 3.73998E-03 2.35722E-04-7.57773E-15
 -1      3003 3.79921E-03 1.95673E-04-7.47169E-15
 -1      3004 3.91103E-03 1.76117E-04-8.00928E-15
 -1      3005 2.14878E-03-6.97548E-04-3.48655E-15
 -1      3006 2.32088E-03 8.16329E-04-3.37871E-15
 -1      3007 1.42713E-02 8.47145E-04-1.45539E-13
 -1      3008 3.05960E-03 5.51603E-04-5.71404E-15
 -1      3009 3.41787E-03 3.62218E-04-6.66076E-15
 -1      3010 3.54901E-03 3.21797E-04-7.15435E-15
 -1      3011 3.37400E-03 4.16968E-04-6.75318E-15
 -1      3012 1.40577E-02 7.69981E-05-1.46547E-13
 -1      3013 1.41598E-02 1.22474E-04-1.48097E-13
 -1      3014 1.40388E-02 1.38624E-04-1.45873E-13
 -1      3015 1.39612E-02 7.36676E-05-1.44866E-13
 -1      3016 4.08798E-03 4.92595E-05-8.86426E-15
 -1      3017 4.06693E-03 1.36991E-04-8.53842E-15
 -1      3018 4.11624E-03 1.17829E-04-8.49583E-15
 -1      3019 4.19435E-03 1.19053E-04-9.15311E-15
 -1      3020 2.02435E-03 8.72287E-04-2.39816E-15
 -1      3021 3.52351E-03-1.44924E-04-7.64913E-15
 -1      3022 3.39193E-03-1.84003E-04-7.08816E-15
 -1      3023 1.87726E-03 8.40799E-04-2.01437E-15
 -1      3024 1.73681E-03 8.00660E-04-1.68664E-15
 -1      3025 1.63736E-03 7.31291E-04-1.54796E-15
 -1      3026 1.94329E-03 8.29695E-04-2.24647E-15
 -1      3027 3.24120E-03-2.52610E-04-6.68290E-15
 -1      3028 2.87479E-03-4.36075E-04-5.70601E-15
 -1      3029 2.80973E-03-4.90987E-04-5.68148E-15
 -1      3030 1.30312E-03 4.48894E-04-1.18984E-15
 -1      3031 1.38060E-03 5.10347E-04-1.26394E-15
 -1      3032 1.18763E-03 3.87261E-04-1.01943E-15
 -1      3033 1.68578E-03 6.83095E-04-1.77186E-15
 -1      3034 1.22841E-03 4.74740E-04-9.60522E-16
 -1      3035 1.04854E-03 3.62056E-04-7.59294E-16
 -1      3036 1.49780E-03-5.14166E-04-1.74969E-15
 -1      3037 1.00197E-03 2.99750E-04-7.66992E-16
 -1      3038 2.68932E-03 7.13109E-04-4.52637E-15
 -1      3039 7.76175E-04-9.70372E-05-7.37447E-16
 -1      3040 9.22053E-04 2.40055E-04-7.12199E-16
 -1      3041 3.01691E-03-3.60977E-04-6.08185E-15
 -1      3042 6.33722E-04-3.18969E-05-6.13184E-16
 -1      3043 2.47522E-03-6.30194E-04-4.57028E-15
 -1      3044 1.86389E-03-6.85509E-04-2.64598E-15
 -1      3045 1.70936E-03-6.38368E-04-2.22550E-15
 -1      3046 3.77926E-03 4.83893E-04-9.15620E-15
 -1      3047 3.60629E-03 5.13118E-04-8.28808E-15
 -1      3048 2.18434E-03-7.11121E-04-3.64932E-15
 -1      3049 2.35794E-03-6.89841E-04-4.25746E-15
 -1      3050 2.52179E-03-6.41195E-04-4.84235E-15
 -1      3051 2.70415E-03-5.86662E-04-5.53997E-15
 -1      3052 3.24519E-03-4.30467E-04-7.88063E-15
 -1      3053 3.42364E-03-3.84271E-04-8.74218E-15
 -1      3054 3.59881E-03-3.45505E-04-9.64075E-15
 -1      3055 3.76814E-03-3.12747E-04-1.05762E-14
 -1      3056 3.55804E-03-3.06180E-04-9.19432E-15
 -1      3057 3.93319E-03-2.86408E-04-1.15472E-14
 -1      3058 4.09355E-03-2.64708E-04-1.25539E-14
 -1      3059 3.89565E-03-2.46562E-04-1.10655E-14
 -1      3060 4.25029E-03-2.47577E-04-1.35963E-14
 -1      3061 4.40369E-03-2.33603E-04-1.46727E-14
 -1      3062 4.21193E-03-2.09335E-04-1.30780E-14
 -1      3063 4.55452E-03-2.22706E-04-1.57844E-14
 -1      3064 4.70321E-03-2.13926E-04-1.69300E-14
 -1      3065 4.51328E-03-1.86292E-04-1.52292E-14
 -1      3066 4.85026E-03-2.07115E-04-1.81086E-14
 -1      3067 4.99605E-03-2.01697E-04-1.93203E-14
 -1      3068 4.80530E-03-1.72039E-04-1.75171E-14
 -1      3069 5.14086E-03-1.97495E-04-2.05656E-14
 -1      3070 5.28499E-03-1.94159E-04-2.18428E-14
 -1      3071 5.09205E-03-1.63163E-04-1.99386E-14
 -1      3072 5.42857E-03-1.91514E-04-2.31491E-14
 -1      3073 5.57183E-03-1.89351E-04-2.44877E-14
 -1      3074 5.37618E-03-1.57490E-04-2.24871E-14
 -1      3075 5.71480E-03-1.87518E-04-2.58563E-14
 -1      3076 5.85763E-03-1.85890E-04-2.72549E-14
 -1      3077 5.65926E-03-1.53541E-04-2.51595E-14
 -1      3078 6.00033E-03-1.84348E-04-2.86837E-14
 -1      3079 6.14300E-03-1.82818E-04-3.01400E-14
 -1      3080 5.94215E-03-1.50291E-04-2.79541E-14
 -1      3081 6.28562E-03-1.81215E-04-3.16267E-14
 -1      3082 6.42826E-03-1.79500E-04-3.31426E-14
 -1      3083 6.22527E-03-1.47037E-04-3.08657E-14
 -1      3084 6.57088E-03-1.77617E-04-3.46878E-14
 -1      3085 6.71354E-03-1.75548E-04-3.62628E-14
 -1      3086 6.50881E-03-1.43324E-04-3.38943E-14
 -1      3087 6.85621E-03-1.73263E-04-3.78653E-14
 -1      3088 6.99892E-03-1.70756E-04-3.95002E-14
 -1      3089 6.79280E-03-1.38879E-04-3.70409E-14
 -1      3090 7.14163E-03-1.68015E-04-4.11642E-14
 -1      3091 7.28438E-03-1.65044E-04-4.28562E-14
 -1      3092 7.07721E-03-1.33571E-04-4.03056E-14
 -1      3093 7.42714E-03-1.61842E-04-4.45775E-14
 -1      3094 7.56993E-03-1.58419E-04-4.63260E-14
 -1      3095 7.36197E-03-1.27366E-04-4.36873E-14
 -1      3096 7.71273E-03-1.54781E-04-4.81036E-14
 -1      3097 7.85556E-03-1.50941E-04-4.99092E-14
 -1      3098 7.64702E-03-1.20294E-04-4.71824E-14
 -1      3099 7.99838E-03-1.46910E-04-5.17409E-14
 -1      3100 8.14123E-03-1.42701E-04-5.35987E-14
 -1      3101 7.93229E-03-1.12428E-04-5.07888E-14
 -1      3102 8.28408E-03-1.38327E-04-5.54828E-14
 -1      3103 8.42694E-03-1.33800E-04-5.73923E-14
 -1      3104 8.21773E-03-1.03860E-04-5.45027E-14
 -1      3105 8.56980E-03-1.29136E-04-5.93243E-14
 -1      3106 8.71267E-03-1.24344E-04-6.12810E-14
 -1      3107 8.50329E-03-9.46901E-05-5.83161E-14
 -1      3108 8.85554E-03-1.19439E-04-6.32615E-14
 -1      3109 8.99841E-03-1.14430E-04-6.52633E-14
 -1      3110 8.78892E-03-8.50168E-05-6.22253E-14
 -1      3111 9.14128E-03-1.09331E-04-6.72888E-14
 -1      3112 9.28416E-03-1.04148E-04-6.93359E-14
 -1      3113 9.07462E-03-7.49316E-05-6.62257E-14
 -1      3114 9.42704E-03-9.88930E-05-7.14044E-14
 -1      3115 9.56991E-03-9.35731E-05-7.34928E-14
 -1      3116 9.36035E-03-6.45161E-05-7.03162E-14
 -1      3117 9.71279E-03-8.81976E-05-7.56002E-14
 -1      3118 9.85566E-03-8.27719E-05-7.77273E-14
 -1      3119 9.64610E-03-5.38406E-05-7.44887E-14
 -1      3120 9.99854E-03-7.73039E-05-7.98726E-14
 -1      3121 1.01414E-02-7.17979E-05-8.20352E-14
 -1      3122 9.93186E-03-4.29643E-05-7.87381E-14
 -1      3123 1.02843E-02-6.62605E-05-8.42163E-14
 -1      3124 1.04272E-02-6.06948E-05-8.64123E-14
 -1      3125 1.02176E-02-3.19356E-05-8.30612E-14
 -1      3126 1.05700E-02-5.51062E-05-8.86242E-14
 -1      3127 1.07129E-02-4.94971E-05-9.08517E-14
 -1      3128 1.05034E-02-2.07935E-05-8.74490E-14
 -1      3129 1.08558E-02-4.38716E-05-9.30940E-14
 -1      3130 1.09986E-02-3.82317E-05-9.53510E-14
 -1      3131 1.07891E-02-9.56879E-06-9.18994E-14
 -1      3132 1.11415E-02-3.25804E-05-9.76242E-14
 -1      3133 1.12844E-02-2.69192E-05-9.99103E-14
 -1      3134 1.10749E-02 1.71459E-06-9.64114E-14
 -1      3135 1.14272E-02-2.12504E-05-1.02209E-13
 -1      3136 1.15701E-02-1.55750E-05-1.04522E-13
 -1      3137 1.13606E-02 1.30385E-05-1.00981E-13
 -1      3138 1.17129E-02-9.89479E-06-1.06847E-13
 -1      3139 1.18558E-02-4.21049E-06-1.09182E-13
 -1      3140 1.16464E-02 2.43894E-05-1.05602E-13
 -1      3141 1.19987E-02 1.47667E-06-1.11531E-13
 -1      3142 1.21415E-02 7.16617E-06-1.13893E-13
 -1      3143 1.19321E-02 3.57573E-05-1.10273E-13
 -1      3144 1.22844E-02 1.28571E-05-1.16265E-13
 -1      3145 1.24273E-02 1.85493E-05-1.18649E-13
 -1      3146 1.22178E-02 4.71352E-05-1.14991E-13
 -1      3147 1.25701E-02 2.42419E-05-1.21043E-13
 -1      3148 1.27130E-02 2.99348E-05-1.23446E-13
 -1      3149 1.25036E-02 5.85182E-05-1.19753E-13
 -1      3150 1.28558E-02 3.56277E-05-1.25862E-13
 -1      3151 1.29987E-02 4.13204E-05-1.28284E-13
 -1      3152 1.27893E-02 6.99027E-05-1.24559E-13
 -1      3153 1.31415E-02 4.70125E-05-1.30717E-13
 -1      3154 1.32844E-02 5.27042E-05-1.33158E-13
 -1      3155 1.30750E-02 8.12868E-05-1.29401E-13
 -1      3156 1.34273E-02 5.83951E-05-1.35607E-13
 -1      3157 1.35701E-02 6.40853E-05-1.38067E-13
 -1      3158 1.33607E-02 9.26690E-05-1.34277E-13
 -1      3159 1.36942E-02 6.60328E-05-1.40226E-13
 -1      3160 1.38371E-02 7.17215E-05-1.42697E-13
 -1      3161 1.38759E-02 1.04200E-04-1.43201E-13
 -1      3162 1.36277E-02 1.00307E-04-1.38881E-13
 -1      3163 2.99941E-03 6.53290E-04-5.69259E-15
 -1      3164 2.80979E-03 7.11290E-04-4.99676E-15
 -1      3165 2.27775E-03 8.42673E-04-3.22916E-15
 -1      3166 2.12083E-03 8.40812E-04-2.77010E-15
 -1      3167 4.11030E-03 4.46697E-04-1.10015E-14
 -1      3168 3.94747E-03 4.62401E-04-1.00608E-14
 -1      3169 3.90568E-03 4.18546E-04-9.70353E-15
 -1      3170 4.42411E-03 4.30665E-04-1.29907E-14
 -1      3171 4.26905E-03 4.36721E-04-1.19784E-14
 -1      3172 4.22589E-03 3.94124E-04-1.15950E-14
 -1      3173 4.72627E-03 4.28912E-04-1.51209E-14
 -1      3174 4.57634E-03 4.28436E-04-1.40387E-14
 -1      3175 4.52938E-03 3.87469E-04-1.36262E-14
 -1      3176 5.02124E-03 4.36668E-04-1.73879E-14
 -1      3177 4.87442E-03 4.31884E-04-1.62366E-14
 -1      3178 4.82277E-03 3.91935E-04-1.57957E-14
 -1      3179 5.31208E-03 4.50509E-04-1.97922E-14
 -1      3180 5.16702E-03 4.43012E-04-1.85732E-14
 -1      3181 5.11066E-03 4.03473E-04-1.81017E-14
 -1      3182 5.60067E-03 4.67989E-04-2.23321E-14
 -1      3183 5.45656E-03 4.58917E-04-2.10459E-14
 -1      3184 5.39591E-03 4.19391E-04-2.05437E-14
 -1      3185 5.88807E-03 4.87365E-04-2.50011E-14
 -1      3186 5.74445E-03 4.77521E-04-2.36499E-14
 -1      3187 5.68011E-03 4.37822E-04-2.31193E-14
 -1      3188 6.17485E-03 5.07432E-04-2.78011E-14
 -1      3189 6.03149E-03 4.97364E-04-2.63849E-14
 -1      3190 5.96411E-03 4.57444E-04-2.58245E-14
 -1      3191 6.46130E-03 5.27393E-04-3.07250E-14
 -1      3192 6.31809E-03 5.17458E-04-2.92484E-14
 -1      3193 6.24826E-03 4.77341E-04-2.86581E-14
 -1      3194 6.74758E-03 5.46759E-04-3.37727E-14
 -1      3195 6.60444E-03 5.37168E-04-3.22335E-14
 -1      3196 6.53271E-03 4.96910E-04-3.16151E-14
 -1      3197 7.03374E-03 5.65263E-04-3.69406E-14
 -1      3198 6.89066E-03 5.56127E-04-3.53419E-14
 -1      3199 6.81747E-03 5.15784E-04-3.46938E-14
 -1      3200 7.31981E-03 5.82795E-04-4.02244E-14
 -1      3201 7.17677E-03 5.74152E-04-3.85686E-14
 -1      3202 7.10251E-03 5.33775E-04-3.78924E-14
 -1      3203 7.60582E-03 5.99349E-04-4.36224E-14
 -1      3204 7.46282E-03 5.91192E-04-4.19087E-14
 -1      3205 7.38777E-03 5.50817E-04-4.12056E-14
 -1      3206 7.89177E-03 6.14982E-04-4.71346E-14
 -1      3207 7.74880E-03 6.07276E-04-4.53638E-14
 -1      3208 7.67319E-03 5.66927E-04-4.46337E-14
 -1      3209 8.17767E-03 6.29787E-04-5.07582E-14
 -1      3210 8.03472E-03 6.22482E-04-4.89326E-14
 -1      3211 7.95873E-03 5.82173E-04-4.81747E-14
 -1      3212 8.46353E-03 6.43872E-04-5.44880E-14
 -1      3213 8.32060E-03 6.36913E-04-5.26100E-14
 -1      3214 8.24436E-03 5.96651E-04-5.18250E-14
 -1      3215 8.74935E-03 6.57349E-04-5.83203E-14
 -1      3216 8.60644E-03 6.50681E-04-5.63917E-14
 -1      3217 8.53004E-03 6.10466E-04-5.55816E-14
 -1      3218 9.03515E-03 6.70325E-04-6.22488E-14
 -1      3219 8.89225E-03 6.63894E-04-6.02734E-14
 -1      3220 8.81576E-03 6.23726E-04-5.94384E-14
 -1      3221 9.32092E-03 6.82895E-04-6.62676E-14
 -1      3222 9.17804E-03 6.76656E-04-6.42485E-14
 -1      3223 9.10150E-03 6.36529E-04-6.33889E-14
 -1      3224 9.60668E-03 6.95143E-04-7.03688E-14
 -1      3225 9.46380E-03 6.89055E-04-6.83081E-14
 -1      3226 9.38725E-03 6.48964E-04-6.74280E-14
 -1      3227 9.89242E-03 7.07140E-04-7.45499E-14
 -1      3228 9.74955E-03 7.01170E-04-7.24491E-14
 -1      3229 9.67300E-03 6.61109E-04-7.15495E-14
 -1      3230 1.01782E-02 7.18946E-04-7.87998E-14
 -1      3231 1.00353E-02 7.13064E-04-7.66658E-14
 -1      3232 9.95875E-03 6.73028E-04-7.57462E-14
 -1      3233 1.04639E-02 7.30607E-04-8.31225E-14
 -1      3234 1.03210E-02 7.24792E-04-8.09529E-14
 -1      3235 1.02445E-02 6.84777E-04-8.00150E-14
 -1      3236 1.07496E-02 7.42162E-04-8.75143E-14
 -1      3237 1.06067E-02 7.36396E-04-8.53098E-14
 -1      3238 1.05303E-02 6.96397E-04-8.43564E-14
 -1      3239 1.10353E-02 7.53642E-04-9.19695E-14
 -1      3240 1.08925E-02 7.47910E-04-8.97342E-14
 -1      3241 1.08160E-02 7.07924E-04-8.87626E-14
 -1      3242 1.13210E-02 7.65067E-04-9.64863E-14
 -1      3243 1.11782E-02 7.59360E-04-9.42209E-14
 -1      3244 1.11017E-02 7.19383E-04-9.32328E-14
 -1      3245 1.16068E-02 7.76457E-04-1.01055E-13
 -1      3246 1.14639E-02 7.70766E-04-9.87652E-14
 -1      3247 1.13875E-02 7.30796E-04-9.77629E-14
 -1      3248 1.18925E-02 7.87823E-04-1.05674E-13
 -1      3249 1.17496E-02 7.82142E-04-1.03359E-13
 -1      3250 1.16732E-02 7.42178E-04-1.02346E-13
 -1      3251 1.21782E-02 7.99175E-04-1.10331E-13
 -1      3252 1.20353E-02 7.93500E-04-1.07998E-13
 -1      3253 1.19589E-02 7.53539E-04-1.06976E-13
 -1      3254 1.24639E-02 8.10518E-04-1.15019E-13
 -1      3255 1.23210E-02 8.04847E-04-1.12672E-13
 -1      3256 1.22446E-02 7.64889E-04-1.11642E-13
 -1      3257 1.27496E-02 8.21859E-04-1.19738E-13
 -1      3258 1.26067E-02 8.16189E-04-1.17375E-13
 -1      3259 1.25304E-02 7.76232E-04-1.16339E-13
 -1      3260 1.30353E-02 8.33198E-04-1.24483E-13
 -1      3261 1.28925E-02 8.27528E-04-1.22109E-13
 -1      3262 1.28161E-02 7.87573E-04-1.21064E-13
 -1      3263 1.33210E-02 8.44540E-04-1.29253E-13
 -1      3264 1.31782E-02 8.38869E-04-1.26863E-13
 -1      3265 1.31018E-02 7.98914E-04-1.25817E-13
 -1      3266 1.36067E-02 8.55884E-04-1.34057E-13
 -1      3267 1.34639E-02 8.50211E-04-1.31652E-13
 -1      3268 1.33875E-02 8.10257E-04-1.30602E-13
 -1      3269 1.39790E-02 3.55494E-04-1.43579E-13
 -1      3270 1.39845E-02 3.96930E-04-1.43428E-13
 -1      3271 1.05464E-03-2.83836E-04-9.90039E-16
 -1      3272 9.14980E-04-2.50666E-04-7.72602E-16
 -1      3273 9.52251E-04-3.03906E-04-8.00250E-16
 -1      3274 1.19048E-03-3.69454E-04-1.18305E-15
 -1      3275 1.39679E-02 2.71193E-04-1.43877E-13
 -1      3276 1.39734E-02 3.13343E-04-1.43729E-13
 -1      3277 1.38525E-02 3.29139E-04-1.41526E-13
 -1      3278 1.39901E-02 4.39082E-04-1.43270E-13
 -1      3279 1.39957E-02 4.81233E-04-1.43108E-13
 -1      3280 1.38636E-02 4.13442E-04-1.41225E-13
 -1      3281 3.22861E-03 6.02607E-04-6.61203E-15
 -1      3282 3.12031E-03 5.74236E-04-6.07319E-15
 -1      3283 3.28889E-03 4.93885E-04-6.65121E-15
 -1      3284 3.41200E-03 5.56941E-04-7.39965E-15
 -1      3285 2.03612E-03-7.12404E-04-3.16067E-15
 -1      3286 3.91397E-03-1.63535E-05-8.89229E-15
 -1      3287 3.78244E-03-6.13202E-05-8.57638E-15
 -1      3288 3.65788E-03-1.17259E-04-8.36392E-15
 -1      3289 3.53481E-03-1.81013E-04-8.15156E-15
 -1      3290 3.78606E-03-1.00589E-04-9.10143E-15
 -1      3291 4.32599E-03 8.28909E-05-1.00790E-14
 -1      3292 4.28310E-03 7.35799E-05-9.99500E-15
 -1      3293 1.12396E-03-3.90000E-04-1.04661E-15
 -1      3294 1.33682E-03 5.57769E-04-1.08102E-15
 -1      3295 1.38558E-03 5.36776E-04-1.22340E-15
 -1      3296 1.49940E-03 5.94304E-04-1.41498E-15
 -1      3297 1.48907E-03 6.41055E-04-1.31259E-15
 -1      3298 1.41448E-02 8.21156E-04-1.43530E-13
 -1      3299 1.39567E-02 1.86894E-04-1.44160E-13
 -1      3300 1.39623E-02 2.29043E-04-1.44019E-13
 -1      3301 1.38413E-02 2.44837E-04-1.41815E-13
 -1      3302 1.67777E-03 7.00263E-04-1.71751E-15
 -1      3303 3.17944E-03-3.12055E-04-6.81493E-15
 -1      3304 1.97948E-03 8.18600E-04-2.37969E-15
 -1      3305 4.18795E-03 5.24555E-05-9.71587E-15
 -1      3306 4.06155E-03 2.58514E-05-9.30224E-15
 -1      3307 4.04565E-03-4.17165E-06-9.74272E-15
 -1      3308 1.56769E-03-5.85480E-04-1.88826E-15
 -1      3309 2.62582E-03 7.73568E-04-4.35981E-15
 -1      3310 2.44245E-03 8.15740E-04-3.75536E-15
 -1      3311 1.82515E-03 7.77010E-04-1.99996E-15
 -1      3312 2.84697E-03-5.08242E-04-5.98244E-15
 -1      3313 2.89423E-03-5.42479E-04-6.35680E-15
 -1      3314 3.07664E-03-4.86151E-04-7.14344E-15
 -1      3315 3.00052E-03-4.36981E-04-6.52119E-15
 -1      3316 3.36225E-03-2.58065E-04-7.64071E-15
 -1      3317 3.16229E-03-3.51427E-04-7.00053E-15
 -1      3318 3.18728E-03-3.81038E-04-7.32510E-15
 -1      3319 3.50922E-03-2.24872E-04-8.34878E-15
 -1      3320 1.64813E-03 7.09878E-04-1.61256E-15
 -1      3321 3.54582E-03 4.77792E-04-7.89715E-15
 -1      3322 1.40236E-02 6.91450E-04-1.42277E-13
 -1      3323 1.40291E-02 7.33241E-04-1.42105E-13
 -1      3324 3.67820E-03 2.85782E-04-7.67808E-15
 -1      3325 3.80179E-03 2.58460E-04-8.21653E-15
 -1      3326 3.63193E-03 3.39201E-04-7.77227E-15
 -1      3327 4.27681E-03 1.13206E-04-9.72347E-15
 -1      3328 4.34713E-03 1.10330E-04-1.03065E-14
 -1      3329 4.25118E-03 1.25971E-04-9.76638E-15
 -1      3330 4.28055E-03 5.73976E-05-1.04538E-14
 -1      3331 4.01994E-03 1.65521E-04-8.64876E-15
 -1      3332 3.41596E-03 4.51812E-04-7.14000E-15
 -1      3333 1.37195E-02 8.52737E-04-1.36005E-13
 -1      3334 1.36431E-02 8.12783E-04-1.34954E-13
 -1      3335 1.38322E-02 8.49592E-04-1.37958E-13
 -1      3336 1.38748E-02 4.97746E-04-1.40911E-13
 -1      3337 1.40013E-02 5.23384E-04-1.42947E-13
 -1      3338 1.40069E-02 5.65535E-04-1.42783E-13
 -1      3339 1.40124E-02 6.07418E-04-1.42617E-13
 -1      3340 1.40180E-02 6.49568E-04-1.42448E-13
 -1      3341 1.38971E-02 6.65548E-04-1.40259E-13
 -1      3342 1.38860E-02 5.81782E-04-1.40591E-13
 -1      3343 1.39467E-03-4.93520E-04-1.52864E-15
 -1      3344 3.20952E-03-4.01635E-04-7.55739E-15
 -1      3345 4.37277E-03 9.00755E-05-1.05027E-14
 -1      3346 1.38969E-02 1.29307E-04-1.43430E-13
 -1      3347 1.39357E-02 1.61786E-04-1.43932E-13
 -1      3348 1.38147E-02 1.77578E-04-1.41726E-13
 -1      3349 1.37728E-02 1.27361E-04-1.41270E-13
 -1      3350 1.40306E-02 7.78771E-04-1.41835E-13
 -1      3351 1.40198E-02 8.40874E-04-1.41243E-13
 -1      3352 1.39071E-02 8.44018E-04-1.39282E-13
 -1      3353 1.39041E-02 7.52960E-04-1.39821E-13
 -1      3354 1.37148E-02 2.18837E-04-1.39755E-13
 -1      3355 1.37204E-02 2.60988E-04-1.39616E-13
 -1      3356 1.24644E-03-4.24883E-04-1.25853E-15
 -1      3357 3.61369E-03 4.06733E-04-8.02120E-15
 -1      3358 3.86581E-03-2.04882E-04-1.05858E-14
 -1      3359 4.02525E-03-1.84821E-04-1.15564E-14
 -1      3360 4.17954E-03-1.70181E-04-1.25631E-14
 -1      3361 4.32960E-03-1.58487E-04-1.36035E-14
 -1      3362 4.15355E-03-1.29671E-04-1.20512E-14
 -1      3363 4.47639E-03-1.49772E-04-1.46780E-14
 -1      3364 4.62088E-03-1.42734E-04-1.57871E-14
 -1      3365 4.44421E-03-1.12897E-04-1.41304E-14
 -1      3366 4.76353E-03-1.37356E-04-1.69294E-14
 -1      3367 4.90504E-03-1.32967E-04-1.81047E-14
 -1      3368 4.72509E-03-1.02982E-04-1.63446E-14
 -1      3369 5.04565E-03-1.29514E-04-1.93137E-14
 -1      3370 5.18583E-03-1.26648E-04-2.05552E-14
 -1      3371 5.00168E-03-9.65289E-05-1.86925E-14
 -1      3372 5.32566E-03-1.24277E-04-2.18278E-14
 -1      3373 5.46545E-03-1.22228E-04-2.31315E-14
 -1      3374 5.27697E-03-9.18923E-05-2.11712E-14
 -1      3375 5.60521E-03-1.20396E-04-2.44655E-14
 -1      3376 5.74512E-03-1.18692E-04-2.58308E-14
 -1      3377 5.55258E-03-8.81163E-05-2.37742E-14
 -1      3378 5.88516E-03-1.17020E-04-2.72273E-14
 -1      3379 6.02543E-03-1.15336E-04-2.86519E-14
 -1      3380 5.82930E-03-8.45763E-05-2.65020E-14
 -1      3381 6.16589E-03-1.13562E-04-3.01064E-14
 -1      3382 6.30661E-03-1.11681E-04-3.15892E-14
 -1      3383 6.10742E-03-8.08349E-05-2.93489E-14
 -1      3384 6.44753E-03-1.09634E-04-3.31025E-14
 -1      3385 6.58868E-03-1.07419E-04-3.46463E-14
 -1      3386 6.38697E-03-7.65921E-05-3.23133E-14
 -1      3387 6.73002E-03-1.04997E-04-3.62188E-14
 -1      3388 6.87158E-03-1.02376E-04-3.78195E-14
 -1      3389 6.66784E-03-7.16597E-05-3.53970E-14
 -1      3390 7.01329E-03-9.95331E-05-3.94504E-14
 -1      3391 7.15517E-03-9.64808E-05-4.11116E-14
 -1      3392 6.94984E-03-6.59409E-05-3.85987E-14
 -1      3393 7.29719E-03-9.32097E-05-4.28008E-14
 -1      3394 7.43935E-03-8.97343E-05-4.45182E-14
 -1      3395 7.23278E-03-5.94103E-05-4.19162E-14
 -1      3396 7.58161E-03-8.60545E-05-4.62648E-14
 -1      3397 7.72398E-03-8.21855E-05-4.80386E-14
 -1      3398 7.51649E-03-5.20940E-05-4.53483E-14
 -1      3399 7.86643E-03-7.81330E-05-4.98397E-14
 -1      3400 8.00896E-03-7.39119E-05-5.16680E-14
 -1      3401 7.80079E-03-4.40520E-05-4.88932E-14
 -1      3402 8.15155E-03-6.95314E-05-5.35236E-14
 -1      3403 8.29420E-03-6.50050E-05-5.54050E-14
 -1      3404 8.08554E-03-3.53634E-05-5.25474E-14
 -1      3405 8.43689E-03-6.03438E-05-5.73093E-14
 -1      3406 8.57963E-03-5.55597E-05-5.92382E-14
 -1      3407 8.37063E-03-2.61156E-05-5.63050E-14
 -1      3408 8.72240E-03-5.06640E-05-6.11915E-14
 -1      3409 8.86519E-03-4.56671E-05-6.31671E-14
 -1      3410 8.65596E-03-1.63960E-05-6.01597E-14
 -1      3411 9.00801E-03-4.05798E-05-6.51665E-14
 -1      3412 9.15085E-03-3.54107E-05-6.71869E-14
 -1      3413 8.94147E-03-6.28710E-06-6.41075E-14
 -1      3414 9.29370E-03-3.01698E-05-6.92294E-14
 -1      3415 9.43656E-03-2.48641E-05-7.12945E-14
 -1      3416 9.22709E-03 4.13673E-06-6.81461E-14
 -1      3417 9.57943E-03-1.95023E-05-7.33769E-14
 -1      3418 9.72231E-03-1.40901E-05-7.54804E-14
 -1      3419 9.51279E-03 1.48106E-05-7.22688E-14
 -1      3420 9.86519E-03-8.63486E-06-7.76056E-14
 -1      3421 1.00081E-02-3.14113E-06-7.97469E-14
 -1      3422 9.79854E-03 2.56793E-05-7.64728E-14
 -1      3423 1.01510E-02 2.38492E-06-8.19065E-14
 -1      3424 1.02938E-02 7.93986E-06-8.40832E-14
 -1      3425 1.00843E-02 3.66973E-05-8.07550E-14
 -1      3426 1.04367E-02 1.35186E-05-8.62752E-14
 -1      3427 1.05796E-02 1.91186E-05-8.84828E-14
 -1      3428 1.03701E-02 4.78274E-05-8.51032E-14
 -1      3429 1.07225E-02 2.47357E-05-9.07067E-14
 -1      3430 1.08654E-02 3.03681E-05-9.29465E-14
 -1      3431 1.06559E-02 5.90401E-05-8.95160E-14
 -1      3432 1.10083E-02 3.60126E-05-9.51991E-14
 -1      3433 1.11512E-02 4.16676E-05-9.74686E-14
 -1      3434 1.09417E-02 7.03123E-05-9.39902E-14
 -1      3435 1.12940E-02 4.73309E-05-9.97531E-14
 -1      3436 1.14369E-02 5.30014E-05-1.02048E-13
 -1      3437 1.12275E-02 8.16261E-05-9.85246E-14
 -1      3438 1.15798E-02 5.86773E-05-1.04357E-13
 -1      3439 1.17227E-02 6.43577E-05-1.06680E-13
 -1      3440 1.15132E-02 9.29683E-05-1.03115E-13
 -1      3441 1.18656E-02 7.00415E-05-1.09015E-13
 -1      3442 1.20084E-02 7.57281E-05-1.11361E-13
 -1      3443 1.17990E-02 1.04329E-04-1.07756E-13
 -1      3444 1.21513E-02 8.14165E-05-1.13718E-13
 -1      3445 1.22942E-02 8.71064E-05-1.16087E-13
 -1      3446 1.20847E-02 1.15701E-04-1.12447E-13
 -1      3447 1.24370E-02 9.27972E-05-1.18468E-13
 -1      3448 1.25799E-02 9.84886E-05-1.20858E-13
 -1      3449 1.23705E-02 1.27079E-04-1.17182E-13
 -1      3450 1.27228E-02 1.04180E-04-1.23258E-13
 -1      3451 1.28656E-02 1.09872E-04-1.25668E-13
 -1      3452 1.26562E-02 1.38460E-04-1.21961E-13
 -1      3453 1.30085E-02 1.15563E-04-1.28086E-13
 -1      3454 1.31514E-02 1.21254E-04-1.30514E-13
 -1      3455 1.29420E-02 1.49841E-04-1.26774E-13
 -1      3456 1.32942E-02 1.26944E-04-1.32951E-13
 -1      3457 1.34371E-02 1.32634E-04-1.35394E-13
 -1      3458 1.32277E-02 1.61221E-04-1.31624E-13
 -1      3459 4.16125E-03-1.07533E-06-1.06161E-14
 -1      3460 4.02854E-03-4.12322E-05-1.01818E-14
 -1      3461 4.03433E-03 3.58227E-04-1.02594E-14
 -1      3462 3.87317E-03 3.72490E-04-9.34420E-15
 -1      3463 4.91644E-03 3.58111E-04-1.64753E-14
 -1      3464 4.77484E-03 3.52631E-04-1.53549E-14
 -1      3465 5.19748E-03 3.72514E-04-1.88201E-14
 -1      3466 5.05715E-03 3.64869E-04-1.76312E-14
 -1      3467 5.00646E-03 3.27185E-04-1.71603E-14
 -1      3468 5.47754E-03 3.89829E-04-2.13005E-14
 -1      3469 5.33750E-03 3.80903E-04-2.00434E-14
 -1      3470 5.28125E-03 3.43473E-04-1.95432E-14
 -1      3471 5.75781E-03 4.08725E-04-2.39106E-14
 -1      3472 5.61758E-03 3.99138E-04-2.25895E-14
 -1      3473 5.55675E-03 3.61513E-04-2.20589E-14
 -1      3474 6.03881E-03 4.28252E-04-2.66510E-14
 -1      3475 5.89819E-03 4.18448E-04-2.52645E-14
 -1      3476 5.83364E-03 3.80429E-04-2.47059E-14
 -1      3477 6.32069E-03 4.47742E-04-2.95180E-14
 -1      3478 6.17962E-03 4.38026E-04-2.80695E-14
 -1      3479 6.11210E-03 3.99567E-04-2.74807E-14
 -1      3480 6.60342E-03 4.66752E-04-3.25071E-14
 -1      3481 6.46194E-03 4.57321E-04-3.09976E-14
 -1      3482 6.39207E-03 4.18456E-04-3.03802E-14
 -1      3483 6.88688E-03 4.85019E-04-3.56172E-14
 -1      3484 6.74505E-03 4.75985E-04-3.40471E-14
 -1      3485 6.67336E-03 4.36780E-04-3.34017E-14
 -1      3486 7.17096E-03 5.02416E-04-3.88455E-14
 -1      3487 7.02885E-03 4.93827E-04-3.72167E-14
 -1      3488 6.95576E-03 4.54357E-04-3.65429E-14
 -1      3489 7.45552E-03 5.18912E-04-4.21894E-14
 -1      3490 7.31318E-03 5.10774E-04-4.05035E-14
 -1      3491 7.23905E-03 4.71106E-04-3.98011E-14
 -1      3492 7.74044E-03 5.34541E-04-4.56468E-14
 -1      3493 7.59793E-03 5.26830E-04-4.39033E-14
 -1      3494 7.52303E-03 4.87022E-04-4.31758E-14
 -1      3495 8.02563E-03 5.49376E-04-4.92177E-14
 -1      3496 7.88300E-03 5.42051E-04-4.74185E-14
 -1      3497 7.80754E-03 5.02149E-04-4.66630E-14
 -1      3498 8.31102E-03 5.63512E-04-5.28929E-14
 -1      3499 8.16830E-03 5.56525E-04-5.10411E-14
 -1      3500 8.09245E-03 5.16561E-04-5.02596E-14
 -1      3501 8.59655E-03 5.77049E-04-5.66767E-14
 -1      3502 8.45377E-03 5.70349E-04-5.47743E-14
 -1      3503 8.37765E-03 5.30349E-04-5.39651E-14
 -1      3504 8.88218E-03 5.90085E-04-6.05565E-14
 -1      3505 8.73936E-03 5.83624E-04-5.86053E-14
 -1      3506 8.66306E-03 5.43605E-04-5.77742E-14
 -1      3507 9.16787E-03 6.02713E-04-6.45304E-14
 -1      3508 9.02502E-03 5.96446E-04-6.25318E-14
 -1      3509 8.94861E-03 5.56420E-04-6.16771E-14
 -1      3510 9.45360E-03 6.15014E-04-6.85894E-14
 -1      3511 9.31073E-03 6.08900E-04-6.65492E-14
 -1      3512 9.23426E-03 5.68875E-04-6.56720E-14
 -1      3513 9.73935E-03 6.27057E-04-7.27294E-14
 -1      3514 9.59647E-03 6.21064E-04-7.06495E-14
 -1      3515 9.51997E-03 5.81043E-04-6.97517E-14
 -1      3516 1.00251E-02 6.38901E-04-7.69451E-14
 -1      3517 9.88223E-03 6.33001E-04-7.48287E-14
 -1      3518 9.80572E-03 5.92987E-04-7.39100E-14
 -1      3519 1.03109E-02 6.50594E-04-8.12343E-14
 -1      3520 1.01680E-02 6.44764E-04-7.90813E-14
 -1      3521 1.00915E-02 6.04759E-04-7.81473E-14
 -1      3522 1.05966E-02 6.62176E-04-8.55897E-14
 -1      3523 1.04538E-02 6.56397E-04-8.34020E-14
 -1      3524 1.03773E-02 6.16400E-04-8.24520E-14
 -1      3525 1.08824E-02 6.73676E-04-9.00117E-14
 -1      3526 1.07395E-02 6.67934E-04-8.77939E-14
 -1      3527 1.06630E-02 6.27945E-04-8.68238E-14
 -1      3528 1.11682E-02 6.85117E-04-9.44964E-14
 -1      3529 1.10253E-02 6.79403E-04-9.22469E-14
 -1      3530 1.09488E-02 6.39420E-04-9.12611E-14
 -1      3531 1.14539E-02 6.96519E-04-9.90422E-14
 -1      3532 1.13110E-02 6.90822E-04-9.67633E-14
 -1      3533 1.12346E-02 6.50845E-04-9.57628E-14
 -1      3534 1.17397E-02 7.07894E-04-1.03638E-13
 -1      3535 1.15968E-02 7.02209E-04-1.01333E-13
 -1      3536 1.15204E-02 6.62237E-04-1.00321E-13
 -1      3537 1.20254E-02 7.19253E-04-1.08277E-13
 -1      3538 1.18825E-02 7.13575E-04-1.05952E-13
 -1      3539 1.18061E-02 6.73607E-04-1.04927E-13
 -1      3540 1.23111E-02 7.30601E-04-1.12954E-13
 -1      3541 1.21683E-02 7.24928E-04-1.10612E-13
 -1      3542 1.20919E-02 6.84963E-04-1.09579E-13
 -1      3543 1.25969E-02 7.41945E-04-1.17656E-13
 -1      3544 1.24540E-02 7.36273E-04-1.15300E-13
 -1      3545 1.23776E-02 6.96311E-04-1.14263E-13
 -1      3546 1.28826E-02 7.53287E-04-1.22393E-13
 -1      3547 1.27397E-02 7.47616E-04-1.20021E-13
 -1      3548 1.26633E-02 7.07656E-04-1.18976E-13
 -1      3549 1.31683E-02 7.64629E-04-1.27156E-13
 -1      3550 1.30254E-02 7.58958E-04-1.24772E-13
 -1      3551 1.29491E-02 7.18999E-04-1.23722E-13
 -1      3552 1.34540E-02 7.75973E-04-1.31953E-13
 -1      3553 1.33112E-02 7.70301E-04-1.29548E-13
 -1      3554 1.32348E-02 7.30344E-04-1.28498E-13
 -1      3555 1.37371E-02 3.87444E-04-1.39180E-13
 -1      3556 1.37427E-02 4.29597E-04-1.39029E-13
 -1      3557 3.93982E-03-9.69867E-05-1.01833E-14
 -1      3558 3.83930E-03-1.46266E-04-9.94877E-15
 -1      3559 4.37656E-03 6.08991E-05-1.12833E-14
 -1      3560 4.28626E-03 3.70436E-05-1.09889E-14
 -1      3561 4.42593E-03 1.01128E-04-1.10764E-14
 -1      3562 4.43407E-03 8.72482E-05-1.13214E-14
 -1      3563 3.36099E-03-3.24131E-04-8.07155E-15
 -1      3564 4.63212E-03 3.48533E-04-1.42676E-14
 -1      3565 4.48745E-03 3.46592E-04-1.32135E-14
 -1      3566 4.73075E-03 3.13873E-04-1.49131E-14
 -1      3567 4.34035E-03 3.46811E-04-1.21941E-14
 -1      3568 4.18964E-03 3.50747E-04-1.12097E-14
 -1      3569 4.16091E-03 3.06002E-04-1.08234E-14
 -1      3570 3.97633E-03 2.04325E-04-8.85011E-15
 -1      3571 4.12180E-03 1.66874E-04-9.40324E-15
 -1      3572 1.37260E-02 3.03140E-04-1.39474E-13
 -1      3573 1.37315E-02 3.45292E-04-1.39330E-13
 -1      3574 1.36106E-02 3.61446E-04-1.37140E-13
 -1      3575 1.35995E-02 2.77140E-04-1.37425E-13
 -1      3576 3.93013E-03 2.48316E-04-8.95104E-15
 -1      3577 4.22734E-03 1.51538E-04-9.98127E-15
 -1      3578 4.32018E-03 1.42674E-04-1.05710E-14
 -1      3579 4.20313E-03 1.83444E-04-1.01916E-14
 -1      3580 4.28194E-03 8.26104E-06-1.14520E-14
 -1      3581 1.38307E-02 8.04063E-04-1.38227E-13
 -1      3582 3.69120E-03-2.15754E-04-9.49451E-15
 -1      3583 1.35429E-02 1.29025E-04-1.37249E-13
 -1      3584 1.36670E-02 1.30972E-04-1.39404E-13
 -1      3585 1.36880E-02 1.56080E-04-1.39632E-13
 -1      3586 1.34764E-02 1.63301E-04-1.35913E-13
 -1      3587 1.36218E-02 4.45754E-04-1.36842E-13
 -1      3588 1.37483E-02 4.71750E-04-1.38875E-13
 -1      3589 1.37539E-02 5.13903E-04-1.38719E-13
 -1      3590 1.35668E-02 7.72827E-04-1.33901E-13
 -1      3591 1.34904E-02 7.32870E-04-1.32844E-13
 -1      3592 1.36795E-02 7.69681E-04-1.35850E-13
 -1      3593 3.51843E-03-2.50837E-04-8.59841E-15
 -1      3594 3.76525E-03 3.32586E-04-8.52577E-15
 -1      3595 1.37706E-02 6.39690E-04-1.38238E-13
 -1      3596 1.37761E-02 6.81573E-04-1.38071E-13
 -1      3597 1.36264E-02 6.92720E-04-1.35425E-13
 -1      3598 1.37529E-02 7.18576E-04-1.37440E-13
 -1      3599 4.07649E-03-8.68429E-05-1.10688E-14
 -1      3600 4.42736E-03 1.10052E-04-1.11245E-14
 -1      3601 4.50543E-03 1.08595E-04-1.19625E-14
 -1      3602 4.42151E-03 1.19825E-04-1.11698E-14
 -1      3603 4.53956E-03 8.75169E-05-1.24840E-14
 -1      3604 4.46371E-03 7.47152E-05-1.18800E-14
 -1      3605 4.48960E-03 5.85736E-05-1.24445E-14
 -1      3606 4.45090E-03 3.05532E-04-1.28008E-14
 -1      3607 1.37089E-02 1.81189E-04-1.39861E-13
 -1      3608 1.35880E-02 1.97339E-04-1.37668E-13
 -1      3609 1.37544E-02 7.64107E-04-1.37173E-13
 -1      3610 4.21924E-03-7.80195E-05-1.20578E-14
 -1      3611 1.34822E-02 2.00950E-04-1.35813E-13
 -1      3612 4.41741E-03-7.67234E-05-1.35863E-14
 -1      3613 4.55449E-03-7.26568E-05-1.46587E-14
 -1      3614 4.69010E-03-6.95095E-05-1.57639E-14
 -1      3615 4.82526E-03-6.68313E-05-1.69026E-14
 -1      3616 4.65865E-03-3.69480E-05-1.51874E-14
 -1      3617 4.95998E-03-6.45764E-05-1.80757E-14
 -1      3618 5.09486E-03-6.24927E-05-1.92804E-14
 -1      3619 4.92048E-03-3.36807E-05-1.74617E-14
 -1      3620 5.22985E-03-6.05585E-05-2.05175E-14
 -1      3621 5.36529E-03-5.86988E-05-2.17871E-14
 -1      3622 5.18418E-03-3.03254E-05-1.98679E-14
 -1      3623 5.50110E-03-5.68482E-05-2.30872E-14
 -1      3624 5.63748E-03-5.49963E-05-2.44179E-14
 -1      3625 5.45064E-03-2.66402E-05-2.24019E-14
 -1      3626 5.77433E-03-5.30670E-05-2.57801E-14
 -1      3627 5.91175E-03-5.10722E-05-2.71728E-14
 -1      3628 5.72011E-03-2.25359E-05-2.50621E-14
 -1      3629 6.04966E-03-4.89415E-05-2.85945E-14
 -1      3630 6.18810E-03-4.66948E-05-3.00456E-14
 -1      3631 5.99249E-03-1.79227E-05-2.78423E-14
 -1      3632 6.32700E-03-4.42738E-05-3.15262E-14
 -1      3633 6.46636E-03-4.17014E-05-3.30372E-14
 -1      3634 6.26750E-03-1.27173E-05-3.07413E-14
 -1      3635 6.60612E-03-3.89337E-05-3.45781E-14
 -1      3636 6.74628E-03-3.59944E-05-3.61481E-14
 -1      3637 6.54480E-03-6.85585E-06-3.37607E-14
 -1      3638 6.88677E-03-3.28536E-05-3.77475E-14
 -1      3639 7.02759E-03-2.95344E-05-3.93759E-14
 -1      3640 6.82403E-03-3.05832E-07-3.68988E-14
 -1      3641 7.16869E-03-2.60191E-05-4.10332E-14
 -1      3642 7.31004E-03-2.23293E-05-4.27197E-14
 -1      3643 7.10486E-03 6.93201E-06-4.01533E-14
 -1      3644 7.45161E-03-1.84569E-05-4.44343E-14
 -1      3645 7.59339E-03-1.44217E-05-4.61778E-14
 -1      3646 7.38696E-03 1.48279E-05-4.35226E-14
 -1      3647 7.73534E-03-1.02223E-05-4.79496E-14
 -1      3648 7.87744E-03-5.87629E-06-4.97481E-14
 -1      3649 7.67007E-03 2.33309E-05-4.70070E-14
 -1      3650 8.01968E-03-1.38697E-06-5.15734E-14
 -1      3651 8.16203E-03 3.23030E-06-5.34262E-14
 -1      3652 7.95396E-03 3.23763E-05-5.06029E-14
 -1      3653 8.30447E-03 7.96958E-06-5.53036E-14
 -1      3654 8.44701E-03 1.28178E-05-5.72049E-14
 -1      3655 8.23843E-03 4.18935E-05-5.43032E-14
 -1      3656 8.58961E-03 1.77675E-05-5.91312E-14
 -1      3657 8.73227E-03 2.28079E-05-6.10802E-14
 -1      3658 8.52334E-03 5.18116E-05-5.81044E-14
 -1      3659 8.87498E-03 2.79311E-05-6.30523E-14
 -1      3660 9.01774E-03 3.31283E-05-6.50484E-14
 -1      3661 8.80857E-03 6.20628E-05-6.19996E-14
 -1      3662 9.16053E-03 3.83917E-05-6.70657E-14
 -1      3663 9.30335E-03 4.37143E-05-6.91046E-14
 -1      3664 9.09401E-03 7.25855E-05-6.59876E-14
 -1      3665 9.44618E-03 4.90890E-05-7.11654E-14
 -1      3666 9.58904E-03 5.45102E-05-7.32447E-14
 -1      3667 9.37961E-03 8.33256E-05-7.00626E-14
 -1      3668 9.73191E-03 5.99717E-05-7.53451E-14
 -1      3669 9.87479E-03 6.54690E-05-7.74664E-14
 -1      3670 9.66531E-03 9.42365E-05-7.42206E-14
 -1      3671 1.00177E-02 7.09969E-05-7.96053E-14
 -1      3672 1.01606E-02 7.65519E-05-8.17612E-14
 -1      3673 9.95107E-03 1.05279E-04-7.84572E-14
 -1      3674 1.03035E-02 8.21297E-05-8.39331E-14
 -1      3675 1.04464E-02 8.77276E-05-8.61227E-14
 -1      3676 1.02369E-02 1.16422E-04-8.27665E-14
 -1      3677 1.05893E-02 9.33421E-05-8.83265E-14
 -1      3678 1.07322E-02 9.89713E-05-9.05477E-14
 -1      3679 1.05227E-02 1.27639E-04-8.71400E-14
 -1      3680 1.08751E-02 1.04612E-04-9.27827E-14
 -1      3681 1.10180E-02 1.10264E-04-9.50319E-14
 -1      3682 1.08085E-02 1.38911E-04-9.15767E-14
 -1      3683 1.11609E-02 1.15923E-04-9.72979E-14
 -1      3684 1.13038E-02 1.21590E-04-9.95798E-14
 -1      3685 1.10943E-02 1.50221E-04-9.60738E-14
 -1      3686 1.14467E-02 1.27262E-04-1.01873E-13
 -1      3687 1.15895E-02 1.32939E-04-1.04179E-13
 -1      3688 1.13801E-02 1.61558E-04-1.00631E-13
 -1      3689 1.17324E-02 1.38619E-04-1.06501E-13
 -1      3690 1.18753E-02 1.44303E-04-1.08834E-13
 -1      3691 1.16659E-02 1.72913E-04-1.05245E-13
 -1      3692 1.20182E-02 1.49988E-04-1.11178E-13
 -1      3693 1.21611E-02 1.55675E-04-1.13532E-13
 -1      3694 1.19516E-02 1.84279E-04-1.09908E-13
 -1      3695 1.23040E-02 1.61364E-04-1.15898E-13
 -1      3696 1.24468E-02 1.67053E-04-1.18276E-13
 -1      3697 1.22374E-02 1.95651E-04-1.14617E-13
 -1      3698 1.25897E-02 1.72742E-04-1.20661E-13
 -1      3699 1.27326E-02 1.78432E-04-1.23057E-13
 -1      3700 1.25232E-02 2.07027E-04-1.19366E-13
 -1      3701 1.28754E-02 1.84121E-04-1.25463E-13
 -1      3702 1.30183E-02 1.89811E-04-1.27876E-13
 -1      3703 1.28089E-02 2.18404E-04-1.24154E-13
 -1      3704 1.31612E-02 1.95500E-04-1.30299E-13
 -1      3705 1.33040E-02 2.01189E-04-1.32731E-13
 -1      3706 1.30947E-02 2.29781E-04-1.28976E-13
 -1      3707 1.34157E-02 2.35228E-04-1.34474E-13
 -1      3708 4.28332E-03 2.62053E-04-1.13929E-14
 -1      3709 4.14229E-03 2.61827E-04-1.04338E-14
 -1      3710 5.09246E-03 2.98881E-04-1.78493E-14
 -1      3711 4.95834E-03 2.90816E-04-1.66900E-14
 -1      3712 5.90755E-03 3.52808E-04-2.55034E-14
 -1      3713 5.77018E-03 3.43507E-04-2.41468E-14
 -1      3714 6.18396E-03 3.71296E-04-2.83132E-14
 -1      3715 6.04546E-03 3.62068E-04-2.68930E-14
 -1      3716 5.97956E-03 3.25572E-04-2.63058E-14
 -1      3717 6.46240E-03 3.89414E-04-3.12451E-14
 -1      3718 6.32293E-03 3.80407E-04-2.97640E-14
 -1      3719 6.25440E-03 3.43216E-04-2.91483E-14
 -1      3720 6.74255E-03 4.06942E-04-3.42986E-14
 -1      3721 6.60227E-03 3.98253E-04-3.27567E-14
 -1      3722 6.53169E-03 3.60445E-04-3.21132E-14
 -1      3723 7.02410E-03 4.23757E-04-3.74710E-14
 -1      3724 6.88316E-03 4.15437E-04-3.58704E-14
 -1      3725 6.81099E-03 3.77107E-04-3.51991E-14
 -1      3726 7.30677E-03 4.39814E-04-4.07605E-14
 -1      3727 7.16530E-03 4.31877E-04-3.91010E-14
 -1      3728 7.09191E-03 3.93123E-04-3.84025E-14
 -1      3729 7.59030E-03 4.55123E-04-4.41636E-14
 -1      3730 7.44843E-03 4.47557E-04-4.24478E-14
 -1      3731 7.37412E-03 4.08468E-04-4.17215E-14
 -1      3732 7.87449E-03 4.69732E-04-4.76806E-14
 -1      3733 7.73232E-03 4.62509E-04-4.59079E-14
 -1      3734 7.65733E-03 4.23162E-04-4.51554E-14
 -1      3735 8.15918E-03 4.83715E-04-5.13053E-14
 -1      3736 8.01678E-03 4.76796E-04-4.94800E-14
 -1      3737 7.94129E-03 4.37254E-04-4.87002E-14
 -1      3738 8.44423E-03 4.97152E-04-5.50376E-14
 -1      3739 8.30167E-03 4.90496E-04-5.31577E-14
 -1      3740 8.22582E-03 4.50810E-04-5.23541E-14
 -1      3741 8.72955E-03 5.10129E-04-5.88697E-14
 -1      3742 8.58686E-03 5.03693E-04-5.69419E-14
 -1      3743 8.51077E-03 4.63904E-04-5.61106E-14
 -1      3744 9.01505E-03 5.22723E-04-6.27976E-14
 -1      3745 8.87228E-03 5.16469E-04-6.08222E-14
 -1      3746 8.79602E-03 4.76607E-04-5.99685E-14
 -1      3747 9.30066E-03 5.35009E-04-6.68135E-14
 -1      3748 9.15784E-03 5.28901E-04-6.47942E-14
 -1      3749 9.08148E-03 4.88989E-04-6.39179E-14
 -1      3750 9.58637E-03 5.47049E-04-7.09140E-14
 -1      3751 9.44351E-03 5.41057E-04-6.88542E-14
 -1      3752 9.36708E-03 5.01112E-04-6.79563E-14
 -1      3753 9.87212E-03 5.58898E-04-7.50935E-14
 -1      3754 9.72924E-03 5.52995E-04-7.29947E-14
 -1      3755 9.65278E-03 5.13030E-04-7.20792E-14
 -1      3756 1.01579E-02 5.70601E-04-7.93480E-14
 -1      3757 1.00150E-02 5.64766E-04-7.72106E-14
 -1      3758 9.93853E-03 5.24789E-04-7.62769E-14
 -1      3759 1.04437E-02 5.82193E-04-8.36707E-14
 -1      3760 1.03008E-02 5.76409E-04-8.15027E-14
 -1      3761 1.02243E-02 5.36427E-04-8.05492E-14
 -1      3762 1.07295E-02 5.93704E-04-8.80574E-14
 -1      3763 1.05866E-02 5.87957E-04-8.58546E-14
 -1      3764 1.05101E-02 5.47973E-04-8.48890E-14
 -1      3765 1.10153E-02 6.05156E-04-9.25099E-14
 -1      3766 1.08724E-02 5.99436E-04-9.02774E-14
 -1      3767 1.07959E-02 5.59453E-04-8.92921E-14
 -1      3768 1.13010E-02 6.16568E-04-9.70285E-14
 -1      3769 1.11582E-02 6.10866E-04-9.47617E-14
 -1      3770 1.10817E-02 5.70886E-04-9.37624E-14
 -1      3771 1.15868E-02 6.27951E-04-1.01599E-13
 -1      3772 1.14439E-02 6.22262E-04-9.93071E-14
 -1      3773 1.13675E-02 5.82285E-04-9.82937E-14
 -1      3774 1.18726E-02 6.39317E-04-1.06218E-13
 -1      3775 1.17297E-02 6.33636E-04-1.03903E-13
 -1      3776 1.16533E-02 5.93662E-04-1.02878E-13
 -1      3777 1.21583E-02 6.50671E-04-1.10882E-13
 -1      3778 1.20155E-02 6.44995E-04-1.08545E-13
 -1      3779 1.19391E-02 6.05024E-04-1.07511E-13
 -1      3780 1.24441E-02 6.62020E-04-1.15571E-13
 -1      3781 1.23012E-02 6.56346E-04-1.13224E-13
 -1      3782 1.22248E-02 6.16378E-04-1.12183E-13
 -1      3783 1.27298E-02 6.73366E-04-1.20297E-13
 -1      3784 1.25870E-02 6.67693E-04-1.17929E-13
 -1      3785 1.25106E-02 6.27728E-04-1.16884E-13
 -1      3786 1.30156E-02 6.84711E-04-1.25054E-13
 -1      3787 1.28727E-02 6.79038E-04-1.22672E-13
 -1      3788 1.27963E-02 6.39075E-04-1.21618E-13
 -1      3789 1.33013E-02 6.96057E-04-1.29841E-13
 -1      3790 1.31584E-02 6.90384E-04-1.27443E-13
 -1      3791 1.30821E-02 6.50423E-04-1.26386E-13
 -1      3792 1.35202E-02 6.92815E-04-1.33603E-13
 -1      3793 1.34075E-02 6.95961E-04-1.31654E-13
 -1      3794 1.33311E-02 6.56001E-04-1.30593E-13
 -1      3795 1.35435E-02 6.55811E-04-1.34230E-13
 -1      3796 1.37595E-02 5.55922E-04-1.38563E-13
 -1      3797 1.37650E-02 5.97806E-04-1.38404E-13
 -1      3798 1.36441E-02 6.13832E-04-1.36219E-13
 -1      3799 4.34053E-03-3.63725E-05-1.25474E-14
 -1      3800 5.63345E-03 3.34272E-04-2.28221E-14
 -1      3801 5.49729E-03 3.25104E-04-2.15294E-14
 -1      3802 5.70762E-03 3.07729E-04-2.35887E-14
 -1      3803 4.82462E-03 2.83238E-04-1.55628E-14
 -1      3804 4.69057E-03 2.76364E-04-1.44713E-14
 -1      3805 4.91269E-03 2.55826E-04-1.62191E-14
 -1      3806 4.55634E-03 2.70244E-04-1.34121E-14
 -1      3807 4.42056E-03 2.65513E-04-1.23859E-14
 -1      3808 4.65434E-03 2.40120E-04-1.40286E-14
 -1      3809 5.36181E-03 3.16124E-04-2.02702E-14
 -1      3810 5.22682E-03 3.07346E-04-1.90423E-14
 -1      3811 5.43901E-03 2.89964E-04-2.10005E-14
 -1      3812 4.17798E-03 2.11516E-04-1.02905E-14
 -1      3813 4.28597E-03 1.93812E-04-1.08903E-14
 -1      3814 1.36329E-02 5.29927E-04-1.36537E-13
 -1      3815 4.04466E-03 2.55687E-04-9.75062E-15
 -1      3816 5.17402E-03 2.72567E-04-1.85432E-14
 -1      3817 4.39675E-03 2.26285E-04-1.19704E-14
 -1      3818 1.35379E-02 6.13926E-04-1.34392E-13
 -1      3819 1.34317E-02 6.14020E-04-1.32569E-13
 -1      3820 1.35323E-02 5.72040E-04-1.34554E-13
 -1      3821 4.45278E-03 3.62786E-06-1.29520E-14
 -1      3822 1.34213E-02 2.77382E-04-1.34341E-13
 -1      3823 4.42288E-03 1.39410E-04-1.13979E-14
 -1      3824 4.51934E-03 1.37632E-04-1.22470E-14
 -1      3825 4.41929E-03 1.63221E-04-1.16222E-14
 -1      3826 4.57885E-03 1.15842E-04-1.27346E-14
 -1      3827 4.57206E-03 1.05198E-04-1.26835E-14
 -1      3828 1.34953E-02 4.19756E-04-1.34812E-13
 -1      3829 1.35009E-02 4.61911E-04-1.34664E-13
 -1      3830 4.61865E-03 9.28524E-05-1.32706E-14
 -1      3831 1.34841E-02 3.35446E-04-1.35101E-13
 -1      3832 1.34897E-02 3.77601E-04-1.34957E-13
 -1      3833 1.33688E-02 3.93757E-04-1.32783E-13
 -1      3834 4.53026E-03 3.32237E-05-1.32163E-14
 -1      3835 4.60600E-03-4.87685E-06-1.43822E-14
 -1      3836 4.73127E-03-4.04841E-06-1.54767E-14
 -1      3837 4.62639E-03 5.10691E-05-1.38542E-14
 -1      3838 6.32349E-03 3.15235E-04-2.99863E-14
 -1      3839 6.18623E-03 3.06938E-04-2.85333E-14
 -1      3840 1.35138E-02 4.95966E-04-1.34687E-13
 -1      3841 1.35194E-02 5.37986E-04-1.34535E-13
 -1      3842 1.34132E-02 5.38079E-04-1.32709E-13
 -1      3843 1.33873E-02 4.69969E-04-1.32664E-13
 -1      3844 4.40157E-03 2.05031E-04-1.18503E-14
 -1      3845 4.41411E-03 1.81115E-04-1.17460E-14
 -1      3846 4.52667E-03 1.75928E-04-1.26074E-14
 -1      3847 4.52596E-03 2.12717E-04-1.28598E-14
 -1      3848 4.88268E-03-4.42304E-06-1.68522E-14
 -1      3849 5.01060E-03-3.10654E-06-1.80204E-14
 -1      3850 5.13946E-03-1.49658E-06-1.92216E-14
 -1      3851 5.26961E-03 2.99339E-07-2.04551E-14
 -1      3852 5.09539E-03 2.58675E-05-1.85789E-14
 -1      3853 5.40076E-03 2.34563E-06-2.17200E-14
 -1      3854 5.53305E-03 4.52606E-06-2.30171E-14
 -1      3855 5.35120E-03 3.00473E-05-2.10423E-14
 -1      3856 5.66629E-03 6.92277E-06-2.43452E-14
 -1      3857 5.80053E-03 9.44248E-06-2.57040E-14
 -1      3858 5.61265E-03 3.52655E-05-2.36317E-14
 -1      3859 5.93562E-03 1.21588E-05-2.70920E-14
 -1      3860 6.07157E-03 1.50003E-05-2.85104E-14
 -1      3861 5.87888E-03 4.12709E-05-2.63454E-14
 -1      3862 6.20826E-03 1.80292E-05-2.99590E-14
 -1      3863 6.34567E-03 2.11901E-05-3.14376E-14
 -1      3864 6.14913E-03 4.79383E-05-2.91787E-14
 -1      3865 6.48370E-03 2.45325E-05-3.29458E-14
 -1      3866 6.62234E-03 2.80117E-05-3.44845E-14
 -1      3867 6.42272E-03 5.52057E-05-3.21336E-14
 -1      3868 6.76149E-03 3.16648E-05-3.60521E-14
 -1      3869 6.90114E-03 3.54552E-05-3.76490E-14
 -1      3870 6.69906E-03 6.30337E-05-3.52080E-14
 -1      3871 7.04120E-03 3.94085E-05-3.92763E-14
 -1      3872 7.18166E-03 4.34945E-05-4.09312E-14
 -1      3873 6.97766E-03 7.13869E-05-3.84011E-14
 -1      3874 7.32246E-03 4.77294E-05-4.26134E-14
 -1      3875 7.46356E-03 5.20882E-05-4.43260E-14
 -1      3876 7.25806E-03 8.02254E-05-4.17082E-14
 -1      3877 7.60493E-03 5.65797E-05-4.60669E-14
 -1      3878 7.74654E-03 6.11832E-05-4.78363E-14
 -1      3879 7.53989E-03 8.95040E-05-4.51295E-14
 -1      3880 7.88835E-03 6.59022E-05-4.96330E-14
 -1      3881 8.03034E-03 7.07198E-05-5.14557E-14
 -1      3882 7.82282E-03 9.91729E-05-4.86648E-14
 -1      3883 8.17248E-03 7.56358E-05-5.33052E-14
 -1      3884 8.31476E-03 8.06364E-05-5.51801E-14
 -1      3885 8.10660E-03 1.09181E-04-5.23091E-14
 -1      3886 8.45715E-03 8.57192E-05-5.70792E-14
 -1      3887 8.59964E-03 9.08730E-05-5.90017E-14
 -1      3888 8.39102E-03 1.19477E-04-5.60561E-14
 -1      3889 8.74221E-03 9.60940E-05-6.09483E-14
 -1      3890 8.88485E-03 1.01374E-04-6.29189E-14
 -1      3891 8.67590E-03 1.30014E-04-5.98980E-14
 -1      3892 9.02754E-03 1.06707E-04-6.49097E-14
 -1      3893 9.17029E-03 1.12088E-04-6.69246E-14
 -1      3894 8.96112E-03 1.40747E-04-6.38351E-14
 -1      3895 9.31307E-03 1.17512E-04-6.89617E-14
 -1      3896 9.45589E-03 1.22973E-04-7.10176E-14
 -1      3897 9.24657E-03 1.51640E-04-6.78614E-14
 -1      3898 9.59873E-03 1.28467E-04-7.30959E-14
 -1      3899 9.74159E-03 1.33991E-04-7.51947E-14
 -1      3900 9.53218E-03 1.62658E-04-7.19731E-14
 -1      3901 9.88447E-03 1.39539E-04-7.73095E-14
 -1      3902 1.00274E-02 1.45111E-04-7.94456E-14
 -1      3903 9.81789E-03 1.73773E-04-7.61660E-14
 -1      3904 1.01703E-02 1.50701E-04-8.16000E-14
 -1      3905 1.03132E-02 1.56308E-04-8.37693E-14
 -1      3906 1.01037E-02 1.84963E-04-8.04332E-14
 -1      3907 1.04561E-02 1.61929E-04-8.59555E-14
 -1      3908 1.05990E-02 1.67563E-04-8.81571E-14
 -1      3909 1.03895E-02 1.96209E-04-8.47723E-14
 -1      3910 1.07419E-02 1.73206E-04-9.03744E-14
 -1      3911 1.08848E-02 1.78859E-04-9.26062E-14
 -1      3912 1.06753E-02 2.07497E-04-8.91732E-14
 -1      3913 1.10277E-02 1.84519E-04-9.48527E-14
 -1      3914 1.11706E-02 1.90184E-04-9.71159E-14
 -1      3915 1.09611E-02 2.18814E-04-9.36342E-14
 -1      3916 1.13135E-02 1.95855E-04-9.93934E-14
 -1      3917 1.14564E-02 2.01530E-04-1.01684E-13
 -1      3918 1.12469E-02 2.30152E-04-9.81569E-14
 -1      3919 1.15993E-02 2.07208E-04-1.03989E-13
 -1      3920 1.17422E-02 2.12889E-04-1.06310E-13
 -1      3921 1.15327E-02 2.41505E-04-1.02738E-13
 -1      3922 1.18851E-02 2.18571E-04-1.08640E-13
 -1      3923 1.20280E-02 2.24256E-04-1.10981E-13
 -1      3924 1.18185E-02 2.52866E-04-1.07372E-13
 -1      3925 1.21709E-02 2.29941E-04-1.13334E-13
 -1      3926 1.23137E-02 2.35628E-04-1.15698E-13
 -1      3927 1.21043E-02 2.64234E-04-1.12052E-13
 -1      3928 1.24566E-02 2.41314E-04-1.18072E-13
 -1      3929 1.25995E-02 2.47002E-04-1.20454E-13
 -1      3930 1.23901E-02 2.75604E-04-1.16777E-13
 -1      3931 1.27424E-02 2.52689E-04-1.22844E-13
 -1      3932 1.28853E-02 2.58376E-04-1.25246E-13
 -1      3933 1.26759E-02 2.86976E-04-1.21540E-13
 -1      3934 1.30281E-02 2.64063E-04-1.27655E-13
 -1      3935 1.31710E-02 2.69750E-04-1.30072E-13
 -1      3936 1.29616E-02 2.98348E-04-1.26336E-13
 -1      3937 6.04974E-03 2.98590E-04-2.71119E-14
 -1      3938 5.91407E-03 2.90144E-04-2.57195E-14
 -1      3939 6.11824E-03 2.71599E-04-2.79194E-14
 -1      3940 6.87872E-03 3.47228E-04-3.61023E-14
 -1      3941 6.73910E-03 3.39414E-04-3.45288E-14
 -1      3942 7.15922E-03 3.62417E-04-3.93360E-14
 -1      3943 7.01877E-03 3.54887E-04-3.77039E-14
 -1      3944 6.94580E-03 3.17196E-04-3.70074E-14
 -1      3945 7.44113E-03 3.77039E-04-4.26852E-14
 -1      3946 7.30002E-03 3.69794E-04-4.09978E-14
 -1      3947 7.22608E-03 3.31560E-04-4.02727E-14
 -1      3948 7.72412E-03 3.91118E-04-4.61492E-14
 -1      3949 7.58251E-03 3.84141E-04-4.44026E-14
 -1      3950 7.50783E-03 3.45471E-04-4.36526E-14
 -1      3951 8.00794E-03 4.04698E-04-4.97235E-14
 -1      3952 7.86594E-03 3.97965E-04-4.79226E-14
 -1      3953 7.79071E-03 3.58950E-04-4.71450E-14
 -1      3954 8.29237E-03 4.17836E-04-5.34023E-14
 -1      3955 8.15009E-03 4.11317E-04-5.15494E-14
 -1      3956 8.07446E-03 3.72035E-04-5.07467E-14
 -1      3957 8.57726E-03 4.30594E-04-5.71870E-14
 -1      3958 8.43477E-03 4.24258E-04-5.52830E-14
 -1      3959 8.35885E-03 3.84771E-04-5.44548E-14
 -1      3960 8.86247E-03 4.43034E-04-6.10679E-14
 -1      3961 8.71983E-03 4.36850E-04-5.91151E-14
 -1      3962 8.64371E-03 3.97211E-04-5.82638E-14
 -1      3963 9.14792E-03 4.55212E-04-6.50401E-14
 -1      3964 9.00517E-03 4.49152E-04-6.30422E-14
 -1      3965 8.92892E-03 4.09401E-04-6.21678E-14
 -1      3966 9.43351E-03 4.67181E-04-6.91001E-14
 -1      3967 9.29070E-03 4.61220E-04-6.70590E-14
 -1      3968 9.21435E-03 4.21388E-04-6.61632E-14
 -1      3969 9.71921E-03 4.78984E-04-7.32422E-14
 -1      3970 9.57635E-03 4.73101E-04-7.11615E-14
 -1      3971 9.49995E-03 4.33213E-04-7.02440E-14
 -1      3972 1.00050E-02 4.90659E-04-7.74598E-14
 -1      3973 9.86208E-03 4.84835E-04-7.53429E-14
 -1      3974 9.78566E-03 4.44909E-04-7.44069E-14
 -1      3975 1.02908E-02 5.02236E-04-8.17531E-14
 -1      3976 1.01479E-02 4.96458E-04-7.95968E-14
 -1      3977 1.00714E-02 4.56507E-04-7.86456E-14
 -1      3978 1.05766E-02 5.13742E-04-8.61062E-14
 -1      3979 1.04337E-02 5.07997E-04-8.39227E-14
 -1      3980 1.03572E-02 4.68031E-04-8.29549E-14
 -1      3981 1.08624E-02 5.25194E-04-9.05286E-14
 -1      3982 1.07195E-02 5.19474E-04-8.83086E-14
 -1      3983 1.06430E-02 4.79499E-04-8.73274E-14
 -1      3984 1.11482E-02 5.36609E-04-9.50145E-14
 -1      3985 1.10053E-02 5.30906E-04-9.27635E-14
 -1      3986 1.09289E-02 4.90927E-04-9.17654E-14
 -1      3987 1.14340E-02 5.47998E-04-9.95603E-14
 -1      3988 1.12911E-02 5.42306E-04-9.72805E-14
 -1      3989 1.12147E-02 5.02327E-04-9.62662E-14
 -1      3990 1.17198E-02 5.59369E-04-1.04156E-13
 -1      3991 1.15769E-02 5.53685E-04-1.01853E-13
 -1      3992 1.15005E-02 5.13707E-04-1.00826E-13
 -1      3993 1.20056E-02 5.70730E-04-1.08802E-13
 -1      3994 1.18627E-02 5.65051E-04-1.06475E-13
 -1      3995 1.17863E-02 5.25075E-04-1.05438E-13
 -1      3996 1.22913E-02 5.82084E-04-1.13483E-13
 -1      3997 1.21484E-02 5.76408E-04-1.11139E-13
 -1      3998 1.20721E-02 5.36434E-04-1.10093E-13
 -1      3999 1.25771E-02 5.93435E-04-1.18197E-13
 -1      4000 1.24342E-02 5.87760E-04-1.15836E-13
 -1      4001 1.23578E-02 5.47789E-04-1.14786E-13
 -1      4002 1.28628E-02 6.04784E-04-1.22943E-13
 -1      4003 1.27200E-02 5.99110E-04-1.20565E-13
 -1      4004 1.26436E-02 5.59142E-04-1.19511E-13
 -1      4005 1.31486E-02 6.16134E-04-1.27723E-13
 -1      4006 1.30057E-02 6.10459E-04-1.25330E-13
 -1      4007 1.29293E-02 5.70494E-04-1.24268E-13
 -1      4008 1.33432E-02 6.15029E-04-1.31050E-13
 -1      4009 1.32371E-02 6.15124E-04-1.29237E-13
 -1      4010 1.31607E-02 5.75161E-04-1.28174E-13
 -1      4011 1.33377E-02 5.73142E-04-1.31207E-13
 -1      4012 4.99480E-03 2.31143E-04-1.68796E-14
 -1      4013 4.86871E-03 2.22738E-04-1.57481E-14
 -1      4014 4.59881E-03 1.34254E-04-1.29779E-14
 -1      4015 4.67587E-03 1.30587E-04-1.37242E-14
 -1      4016 4.61299E-03 1.55183E-04-1.32172E-14
 -1      4017 4.71910E-03 9.45705E-05-1.42871E-14
 -1      4018 4.67784E-03 7.38007E-05-1.40739E-14
 -1      4019 4.73421E-03 5.09379E-05-1.48892E-14
 -1      4020 5.77933E-03 2.81698E-04-2.43587E-14
 -1      4021 5.64555E-03 2.73188E-04-2.30313E-14
 -1      4022 5.84875E-03 2.55813E-04-2.51340E-14
 -1      4023 4.76014E-03 2.21587E-04-1.48127E-14
 -1      4024 4.63567E-03 2.13324E-04-1.37435E-14
 -1      4025 4.63241E-03 1.94948E-04-1.36143E-14
 -1      4026 4.84247E-03 1.98301E-04-1.54440E-14
 -1      4027 5.51291E-03 2.64735E-04-2.17362E-14
 -1      4028 5.38137E-03 2.56249E-04-2.04720E-14
 -1      4029 5.58369E-03 2.39923E-04-2.24745E-14
 -1      4030 5.25116E-03 2.47875E-04-1.92416E-14
 -1      4031 5.12219E-03 2.39461E-04-1.80444E-14
 -1      4032 5.07098E-03 2.08062E-04-1.75451E-14
 -1      4033 6.59999E-03 3.31483E-04-3.29845E-14
 -1      4034 6.46142E-03 3.23405E-04-3.14708E-14
 -1      4035 6.39134E-03 2.87159E-04-3.08277E-14
 -1      4036 6.66739E-03 3.02383E-04-3.38595E-14
 -1      4037 1.32338E-02 3.27818E-04-1.30835E-13
 -1      4038 1.33003E-02 2.93535E-04-1.32167E-13
 -1      4039 5.32404E-03 2.24022E-04-1.99445E-14
 -1      4040 1.32578E-02 4.50831E-04-1.30554E-13
 -1      4041 1.32708E-02 4.84887E-04-1.30580E-13
 -1      4042 4.82174E-03 2.44464E-05-1.60032E-14
 -1      4043 4.78591E-03 1.33483E-04-1.48080E-14
 -1      4044 4.75571E-03 1.13678E-04-1.45494E-14
 -1      4045 4.82777E-03 9.49678E-05-1.53883E-14
 -1      4046 1.32430E-02 3.68246E-04-1.30770E-13
 -1      4047 1.32486E-02 4.10403E-04-1.30626E-13
 -1      4048 1.31321E-02 4.25320E-04-1.28549E-13
 -1      4049 1.31137E-02 3.44462E-04-1.28686E-13
 -1      4050 1.32977E-02 5.11987E-04-1.30885E-13
 -1      4051 1.33107E-02 5.46043E-04-1.30906E-13
 -1      4052 1.32222E-02 5.47052E-04-1.29389E-13
 -1      4053 1.31683E-02 4.92851E-04-1.28782E-13
 -1      4054 3.88352E-03 3.07328E-04-9.08628E-15
 -1      4055 7.57424E-03 3.13740E-04-4.46209E-14
 -1      4056 7.43322E-03 3.07169E-04-4.29027E-14
 -1      4057 5.05106E-03 5.14433E-05-1.79403E-14
 -1      4058 5.17523E-03 5.36761E-05-1.91372E-14
 -1      4059 5.39293E-03 2.00696E-04-2.06515E-14
 -1      4060 5.26619E-03 1.93354E-04-1.94170E-14
 -1      4061 5.30126E-03 5.63500E-05-2.03675E-14
 -1      4062 5.42919E-03 5.92336E-05-2.16287E-14
 -1      4063 5.25049E-03 8.11774E-05-1.96958E-14
 -1      4064 5.55866E-03 6.24490E-05-2.29224E-14
 -1      4065 5.68964E-03 6.58050E-05-2.42466E-14
 -1      4066 5.50398E-03 8.84300E-05-2.22161E-14
 -1      4067 5.82187E-03 6.93982E-05-2.56011E-14
 -1      4068 5.95532E-03 7.31069E-05-2.69861E-14
 -1      4069 5.76433E-03 9.65151E-05-2.48607E-14
 -1      4070 6.08981E-03 7.70036E-05-2.84020E-14
 -1      4071 6.22528E-03 8.10020E-05-2.98484E-14
 -1      4072 6.03010E-03 1.05207E-04-2.76280E-14
 -1      4073 6.36161E-03 8.51582E-05-3.13248E-14
 -1      4074 6.49875E-03 8.94075E-05-3.28317E-14
 -1      4075 6.30024E-03 1.14374E-04-3.05178E-14
 -1      4076 6.63658E-03 9.37932E-05-3.43660E-14
 -1      4077 6.77506E-03 9.82654E-05-3.59318E-14
 -1      4078 6.57391E-03 1.23928E-04-3.35279E-14
 -1      4079 6.91410E-03 1.02857E-04-3.75276E-14
 -1      4080 7.05366E-03 1.07528E-04-3.91519E-14
 -1      4081 6.85043E-03 1.33803E-04-3.66572E-14
 -1      4082 7.19367E-03 1.12304E-04-4.08058E-14
 -1      4083 7.33409E-03 1.17152E-04-4.24861E-14
 -1      4084 7.12923E-03 1.43950E-04-3.99039E-14
 -1      4085 7.47487E-03 1.22091E-04-4.41953E-14
 -1      4086 7.61596E-03 1.27095E-04-4.59342E-14
 -1      4087 7.40984E-03 1.54326E-04-4.32644E-14
 -1      4088 7.75733E-03 1.32175E-04-4.77007E-14
 -1      4089 7.89895E-03 1.37313E-04-4.94946E-14
 -1      4090 7.69185E-03 1.64896E-04-4.67389E-14
 -1      4091 8.04077E-03 1.42516E-04-5.13161E-14
 -1      4092 8.18277E-03 1.47768E-04-5.31623E-14
 -1      4093 7.97495E-03 1.75630E-04-5.03244E-14
 -1      4094 8.32493E-03 1.53074E-04-5.50335E-14
 -1      4095 8.46722E-03 1.58421E-04-5.69297E-14
 -1      4096 8.25887E-03 1.86499E-04-5.40144E-14
 -1      4097 8.60963E-03 1.63812E-04-5.88508E-14
 -1      4098 8.75214E-03 1.69237E-04-6.07955E-14
 -1      4099 8.54339E-03 1.97480E-04-5.78041E-14
 -1      4100 8.89473E-03 1.74698E-04-6.27629E-14
 -1      4101 9.03738E-03 1.80186E-04-6.47526E-14
 -1      4102 8.82837E-03 2.08551E-04-6.16904E-14
 -1      4103 9.18010E-03 1.85703E-04-6.67644E-14
 -1      4104 9.32286E-03 1.91242E-04-6.87988E-14
 -1      4105 9.11365E-03 2.19695E-04-6.56707E-14
 -1      4106 9.46566E-03 1.96802E-04-7.08533E-14
 -1      4107 9.60849E-03 2.02380E-04-7.29288E-14
 -1      4108 9.39916E-03 2.30896E-04-6.97348E-14
 -1      4109 9.75134E-03 2.07975E-04-7.50238E-14
 -1      4110 9.89421E-03 2.13584E-04-7.71368E-14
 -1      4111 9.68481E-03 2.42142E-04-7.38830E-14
 -1      4112 1.00371E-02 2.19205E-04-7.92710E-14
 -1      4113 1.01800E-02 2.24836E-04-8.14221E-14
 -1      4114 9.97055E-03 2.53422E-04-7.81093E-14
 -1      4115 1.03229E-02 2.30476E-04-8.35910E-14
 -1      4116 1.04658E-02 2.36125E-04-8.57751E-14
 -1      4117 1.02563E-02 2.64729E-04-8.24100E-14
 -1      4118 1.06087E-02 2.41780E-04-8.79726E-14
 -1      4119 1.07516E-02 2.47441E-04-9.01875E-14
 -1      4120 1.05422E-02 2.76054E-04-8.67750E-14
 -1      4121 1.08946E-02 2.53106E-04-9.24186E-14
 -1      4122 1.10375E-02 2.58776E-04-9.46627E-14
 -1      4123 1.08280E-02 2.87394E-04-9.12025E-14
 -1      4124 1.11804E-02 2.64449E-04-9.69233E-14
 -1      4125 1.13233E-02 2.70124E-04-9.91991E-14
 -1      4126 1.11138E-02 2.98743E-04-9.56912E-14
 -1      4127 1.14662E-02 2.75802E-04-1.01487E-13
 -1      4128 1.16091E-02 2.81482E-04-1.03791E-13
 -1      4129 1.13996E-02 3.10099E-04-1.00239E-13
 -1      4130 1.17520E-02 2.87163E-04-1.06106E-13
 -1      4131 1.18949E-02 2.92845E-04-1.08435E-13
 -1      4132 1.16855E-02 3.21460E-04-1.04843E-13
 -1      4133 1.20378E-02 2.98528E-04-1.10775E-13
 -1      4134 1.21807E-02 3.04212E-04-1.13125E-13
 -1      4135 1.19712E-02 3.32824E-04-1.09497E-13
 -1      4136 1.23236E-02 3.09896E-04-1.15485E-13
 -1      4137 1.24664E-02 3.15580E-04-1.17857E-13
 -1      4138 1.22570E-02 3.44190E-04-1.14196E-13
 -1      4139 1.26093E-02 3.21265E-04-1.20237E-13
 -1      4140 1.27522E-02 3.26950E-04-1.22623E-13
 -1      4141 1.25428E-02 3.55556E-04-1.18933E-13
 -1      4142 1.28615E-02 3.32864E-04-1.24446E-13
 -1      4143 1.30044E-02 3.38549E-04-1.26850E-13
 -1      4144 1.30136E-02 3.78978E-04-1.26786E-13
 -1      4145 1.27950E-02 3.67153E-04-1.23133E-13
 -1      4146 6.18519E-03 2.44488E-04-2.87316E-14
 -1      4147 6.05009E-03 2.37197E-04-2.73078E-14
 -1      4148 5.65160E-03 2.15291E-04-2.32177E-14
 -1      4149 5.52143E-03 2.07950E-04-2.19191E-14
 -1      4150 5.45834E-03 1.77297E-04-2.13632E-14
 -1      4151 7.29252E-03 3.00522E-04-4.12108E-14
 -1      4152 7.15219E-03 2.93784E-04-3.95480E-14
 -1      4153 7.35862E-03 2.69250E-04-4.21514E-14
 -1      4154 7.01229E-03 2.86970E-04-3.79146E-14
 -1      4155 6.87286E-03 2.80064E-04-3.63104E-14
 -1      4156 7.07829E-03 2.56478E-04-3.88246E-14
 -1      4157 7.85712E-03 3.26641E-04-4.81434E-14
 -1      4158 7.71555E-03 3.20227E-04-4.63682E-14
 -1      4159 7.64043E-03 2.81809E-04-4.55927E-14
 -1      4160 8.14086E-03 3.39252E-04-5.17726E-14
 -1      4161 7.99890E-03 3.32980E-04-4.99452E-14
 -1      4162 7.92337E-03 2.94164E-04-4.91432E-14
 -1      4163 8.42526E-03 3.51609E-04-5.55077E-14
 -1      4164 8.28299E-03 3.45459E-04-5.36268E-14
 -1      4165 8.20718E-03 3.06333E-04-5.28012E-14
 -1      4166 8.71013E-03 3.63748E-04-5.93423E-14
 -1      4167 8.56765E-03 3.57703E-04-5.74136E-14
 -1      4168 8.49162E-03 3.18336E-04-5.65631E-14
 -1      4169 8.99535E-03 3.75705E-04-6.32698E-14
 -1      4170 8.85271E-03 3.69747E-04-6.12943E-14
 -1      4171 8.77653E-03 3.30197E-04-6.04219E-14
 -1      4172 9.28080E-03 3.87515E-04-6.72868E-14
 -1      4173 9.13805E-03 3.81627E-04-6.52679E-14
 -1      4174 9.06177E-03 3.41941E-04-6.43736E-14
 -1      4175 9.56641E-03 3.99207E-04-7.13913E-14
 -1      4176 9.42359E-03 3.93374E-04-6.93291E-14
 -1      4177 9.34725E-03 3.53590E-04-6.84142E-14
 -1      4178 9.85212E-03 4.10806E-04-7.55743E-14
 -1      4179 9.70925E-03 4.05017E-04-7.34729E-14
 -1      4180 9.63288E-03 3.65162E-04-7.25393E-14
 -1      4181 1.01379E-02 4.22335E-04-7.98324E-14
 -1      4182 9.99500E-03 4.16578E-04-7.76935E-14
 -1      4183 9.91860E-03 3.76675E-04-7.67421E-14
 -1      4184 1.04237E-02 4.33810E-04-8.41587E-14
 -1      4185 1.02808E-02 4.28078E-04-8.19883E-14
 -1      4186 1.02044E-02 3.88142E-04-8.10199E-14
 -1      4187 1.07095E-02 4.45246E-04-8.85478E-14
 -1      4188 1.05666E-02 4.39532E-04-8.63443E-14
 -1      4189 1.04902E-02 3.99575E-04-8.53628E-14
 -1      4190 1.09954E-02 4.56653E-04-9.30023E-14
 -1      4191 1.08524E-02 4.50952E-04-9.07672E-14
 -1      4192 1.07760E-02 4.10983E-04-8.97691E-14
 -1      4193 1.12812E-02 4.68040E-04-9.75195E-14
 -1      4194 1.11383E-02 4.62349E-04-9.52536E-14
 -1      4195 1.10619E-02 4.22372E-04-9.42406E-14
 -1      4196 1.15670E-02 4.79414E-04-1.02093E-13
 -1      4197 1.14241E-02 4.73728E-04-9.97997E-14
 -1      4198 1.13477E-02 4.33749E-04-9.87716E-14
 -1      4199 1.18528E-02 4.90779E-04-1.06717E-13
 -1      4200 1.17099E-02 4.85097E-04-1.04398E-13
 -1      4201 1.16335E-02 4.45118E-04-1.03360E-13
 -1      4202 1.21386E-02 5.02138E-04-1.11385E-13
 -1      4203 1.19957E-02 4.96459E-04-1.09048E-13
 -1      4204 1.19193E-02 4.56481E-04-1.07997E-13
 -1      4205 1.24243E-02 5.13494E-04-1.16088E-13
 -1      4206 1.22814E-02 5.07816E-04-1.13731E-13
 -1      4207 1.22051E-02 4.67841E-04-1.12678E-13
 -1      4208 1.27101E-02 5.24849E-04-1.20824E-13
 -1      4209 1.25672E-02 5.19172E-04-1.18452E-13
 -1      4210 1.24908E-02 4.79199E-04-1.17393E-13
 -1      4211 4.87528E-03 5.08445E-05-1.62415E-14
 -1      4212 5.91606E-03 2.29915E-04-2.59138E-14
 -1      4213 5.78316E-03 2.22579E-04-2.45505E-14
 -1      4214 5.98156E-03 2.03738E-04-2.66962E-14
 -1      4215 4.95167E-03 7.60407E-05-1.67636E-14
 -1      4216 5.14159E-03 1.86152E-04-1.82153E-14
 -1      4217 5.01919E-03 1.78719E-04-1.70455E-14
 -1      4218 5.20729E-03 1.64337E-04-1.88891E-14
 -1      4219 4.99610E-03 9.79171E-05-1.70487E-14
 -1      4220 5.71700E-03 1.90451E-04-2.39667E-14
 -1      4221 1.29958E-02 5.36204E-04-1.25595E-13
 -1      4222 1.28530E-02 5.30526E-04-1.23205E-13
 -1      4223 1.31337E-02 5.48060E-04-1.27873E-13
 -1      4224 6.45807E-03 2.58909E-04-3.16739E-14
 -1      4225 6.32120E-03 2.51711E-04-3.01869E-14
 -1      4226 6.25081E-03 2.17069E-04-2.95474E-14
 -1      4227 4.88808E-03 1.55022E-04-1.57900E-14
 -1      4228 4.81879E-03 1.74678E-04-1.51641E-14
 -1      4229 4.62872E-03 1.77898E-04-1.34833E-14
 -1      4230 4.71810E-03 1.72983E-04-1.42454E-14
 -1      4231 4.97512E-03 1.35708E-04-1.66685E-14
 -1      4232 1.27766E-02 4.90557E-04-1.22140E-13
 -1      4233 6.73397E-03 2.73090E-04-3.47358E-14
 -1      4234 6.59568E-03 2.66025E-04-3.31892E-14
 -1      4235 6.79985E-03 2.43503E-04-3.56143E-14
 -1      4236 1.30228E-02 4.19409E-04-1.26717E-13
 -1      4237 1.30574E-02 5.08094E-04-1.26802E-13
 -1      4238 7.66640E-03 2.23454E-04-4.61729E-14
 -1      4239 7.52535E-03 2.17679E-04-4.44302E-14
 -1      4240 7.94933E-03 2.34978E-04-4.97404E-14
 -1      4241 7.80774E-03 2.29214E-04-4.79431E-14
 -1      4242 1.30304E-02 4.80992E-04-1.26500E-13
 -1      4243 5.11200E-03 1.18384E-04-1.80999E-14
 -1      4244 1.28026E-02 4.28739E-04-1.22925E-13
 -1      4245 1.26597E-02 4.23058E-04-1.20540E-13
 -1      4246 5.48497E-03 1.33339E-04-2.17967E-14
 -1      4247 5.61339E-03 1.38482E-04-2.30930E-14
 -1      4248 5.74347E-03 1.43868E-04-2.44217E-14
 -1      4249 5.87502E-03 1.49243E-04-2.57790E-14
 -1      4250 6.00790E-03 1.54791E-04-2.71685E-14
 -1      4251 6.14194E-03 1.60330E-04-2.85893E-14
 -1      4252 6.27705E-03 1.65988E-04-3.00397E-14
 -1      4253 6.41309E-03 1.71634E-04-3.15220E-14
 -1      4254 6.54998E-03 1.77361E-04-3.30327E-14
 -1      4255 6.68762E-03 1.83074E-04-3.45730E-14
 -1      4256 6.82595E-03 1.88839E-04-3.61431E-14
 -1      4257 6.96487E-03 1.94587E-04-3.77434E-14
 -1      4258 7.10433E-03 2.00368E-04-3.93717E-14
 -1      4259 7.24426E-03 2.06131E-04-4.10295E-14
 -1      4260 7.38462E-03 2.11913E-04-4.27169E-14
 -1      4261 8.09113E-03 2.40728E-04-5.15653E-14
 -1      4262 8.23312E-03 2.46479E-04-5.34149E-14
 -1      4263 8.37527E-03 2.52219E-04-5.52888E-14
 -1      4264 8.51756E-03 2.57957E-04-5.71900E-14
 -1      4265 8.65997E-03 2.63686E-04-5.91162E-14
 -1      4266 8.80247E-03 2.69411E-04-6.10624E-14
 -1      4267 8.94506E-03 2.75130E-04-6.30341E-14
 -1      4268 9.08772E-03 2.80846E-04-6.50275E-14
 -1      4269 9.23043E-03 2.86556E-04-6.70430E-14
 -1      4270 9.37319E-03 2.92263E-04-6.90806E-14
 -1      4271 9.51599E-03 2.97967E-04-7.11389E-14
 -1      4272 9.65882E-03 3.03667E-04-7.32176E-14
 -1      4273 9.80168E-03 3.09364E-04-7.53145E-14
 -1      4274 9.94455E-03 3.15059E-04-7.74300E-14
 -1      4275 1.00874E-02 3.20752E-04-7.95663E-14
 -1      4276 1.02303E-02 3.26442E-04-8.17190E-14
 -1      4277 1.03733E-02 3.32132E-04-8.38895E-14
 -1      4278 1.05162E-02 3.37819E-04-8.60739E-14
 -1      4279 1.06591E-02 3.43506E-04-8.82727E-14
 -1      4280 1.08020E-02 3.49191E-04-9.04890E-14
 -1      4281 1.09449E-02 3.54876E-04-9.27230E-14
 -1      4282 1.10878E-02 3.60559E-04-9.49715E-14
 -1      4283 1.12307E-02 3.66243E-04-9.72336E-14
 -1      4284 1.13736E-02 3.71925E-04-9.95099E-14
 -1      4285 1.15166E-02 3.77608E-04-1.01801E-13
 -1      4286 1.16595E-02 3.83289E-04-1.04104E-13
 -1      4287 1.18024E-02 3.88971E-04-1.06420E-13
 -1      4288 1.19453E-02 3.94653E-04-1.08751E-13
 -1      4289 1.20881E-02 4.00334E-04-1.11091E-13
 -1      4290 1.22310E-02 4.06015E-04-1.13441E-13
 -1      4291 1.23739E-02 4.11696E-04-1.15797E-13
 -1      4292 1.25168E-02 4.17377E-04-1.18165E-13
 -1      4293 5.35841E-03 1.28166E-04-2.05324E-14
 -1      4294 5.23399E-03 1.23350E-04-1.92997E-14
 -1      4295 1.29119E-02 4.34651E-04-1.24746E-13
 -1      4296 6.52382E-03 2.30349E-04-3.25206E-14
 -3
    1PSTEP                         2           1           1          
  100CL  101 1.000000000        4296                     0    1           1
 -4  STRESS      6    1
 -5  SXX         1    4    1    1
 -5  SYY         1    4    2    2
 -5  SZZ         1    4    3    3
 -5  SXY         1    4    1    2
 -5  SYZ         1    4    2    3
 -5  SZX         1    4    3    1
 -1         1 6.16728E+01 7.71502E-01 3.26454E+00-1.91689E-01-4.00825E-14-7.56117E-13
 -1         2-6.90369E-01-1.97286E+01-3.19978E+00 8.15687E-02 3.35368E-13 3.92811E-14
 -1         3 1.99998E+01 3.24025E-06-2.10818E-05 3.39737E-06 2.18326E-13 3.65215E-14
 -1         4 1.99998E+01 3.22228E-06-2.12126E-05-3.43206E-06 9.60740E-14 2.22268E-13
 -1         5 4.38888E+01 8.28296E+00 3.68418E+00 8.09747E+00-2.75474E-14 3.48074E-12
 -1         6 4.62742E+01 1.58939E+01 6.70517E+00-1.11012E+01-2.60680E-13 3.05111E-12
 -1         7 2.63661E+01 7.52473E+00-1.45381E-01-5.90906E+00-2.67286E-14 2.84672E-13
 -1         8 2.40857E+01 7.26440E+00 8.69789E-02-3.91974E+00-2.92683E-14-5.06821E-13
 -1         9 2.28139E+01 6.85732E+00 1.77836E-01-2.53253E+00-1.07969E-14-8.03802E-13
 -1        10 2.12881E+01 6.38277E+00 2.54213E-01-9.83788E-01 7.31359E-15-8.92874E-13
 -1        11 1.88461E+01 5.65371E+00 2.62290E-01 6.28201E-01 2.55768E-14-8.92463E-13
 -1        12 1.52952E+01 4.61972E+00 1.40879E-01 1.84345E+00 3.82749E-14-8.58140E-13
 -1        13 1.12131E+01 3.45076E+00-1.05038E-01 2.08513E+00 4.06342E-14-8.38296E-13
 -1        14 8.29478E+00 2.63174E+00-3.19122E-01 1.09612E+00 1.95538E-14-8.33804E-13
 -1        15 7.92022E+00 2.50681E+00-3.61978E-01-2.38982E-01-2.91434E-16-8.35722E-13
 -1        16 9.65156E+00 2.99013E+00-2.35482E-01-1.37126E+00-1.74583E-14-8.42277E-13
 -1        17 1.30257E+01 3.96947E+00-1.46819E-04-1.76590E+00-2.13163E-14-8.29820E-13
 -1        18 1.71780E+01 5.17332E+00 2.05613E-01-1.04804E+00-1.06581E-14-7.62333E-13
 -1        19 2.05194E+01 6.15907E+00 2.65098E-01 4.39433E-01 9.11771E-15-6.24762E-13
 -1        20 2.28243E+01 6.86154E+00 2.12587E-01 2.09898E+00 2.40363E-14-3.62828E-13
 -1        21 2.46877E+01 7.45404E+00 1.26551E-01 3.65813E+00 4.01068E-14 1.42019E-13
 -1        22 2.76202E+01 8.31044E+00 1.79205E-01 5.53602E+00 5.52336E-15 1.15518E-12
 -1        23 2.96474E+01-1.78752E+00-1.17681E+00-5.32856E-01-1.55993E-13 2.26510E-12
 -1        24 2.45565E+01-1.18281E-01-3.34994E-01 7.05712E-02-3.89055E-14 1.52924E-12
 -1        25 2.24079E+01-5.48561E-02-5.31024E-02-5.19321E-03-2.50648E-14 8.79694E-13
 -1        26 2.05522E+01-3.78571E-02-2.85407E-02-4.56727E-02-7.01869E-15 4.56272E-13
 -1        27 1.91792E+01-4.58321E-02-6.77588E-02-2.92001E-02 8.56910E-15 1.57499E-13
 -1        28 1.86416E+01-4.71707E-02-8.64424E-02 1.88633E-02-2.33320E-15-2.24855E-14
 -1        29 1.90597E+01-3.46502E-02-6.43538E-02 6.71561E-02-7.93376E-15-2.30635E-13
 -1        30 2.01774E+01-1.29037E-02-1.76238E-02 8.88453E-02 1.57900E-14-3.09915E-13
 -1        31 2.15107E+01 7.75856E-03 2.49171E-02 7.91317E-02-1.30502E-14-4.95479E-13
 -1        32 2.26187E+01 1.98540E-02 4.58468E-02 5.15042E-02-1.41042E-14-6.72875E-13
 -1        33 2.32732E+01 2.22660E-02 4.54779E-02 2.24716E-02 2.20902E-14-6.77146E-13
 -1        34 2.34611E+01 1.82083E-02 3.34506E-02 1.40018E-03-8.24601E-15-6.04815E-13
 -1        35 2.32929E+01 1.17038E-02 1.90792E-02-1.00342E-02-2.27076E-14-8.53171E-13
 -1        36 2.29114E+01 5.52779E-03 7.44976E-03-1.41149E-02 1.62608E-14-8.70481E-13
 -1        37 2.24385E+01 8.97337E-04-9.05614E-05-1.38848E-02-4.49300E-14-8.44902E-13
 -1        38 2.19578E+01-2.01940E-03-4.11002E-03-1.16982E-02 1.64717E-14-8.65090E-13
 -1        39 2.15176E+01-3.53511E-03-5.71987E-03-8.97809E-03-1.64975E-14-8.30115E-13
 -1        40 2.11400E+01-4.07739E-03-5.91479E-03-6.43162E-03 3.40018E-14-7.80969E-13
 -1        41 2.08309E+01-4.02233E-03-5.39336E-03-4.33106E-03 1.05558E-14-8.37744E-13
 -1        42 2.05866E+01-3.64612E-03-4.58269E-03-2.72337E-03-2.69527E-14-7.93557E-13
 -1        43 2.03992E+01-3.13063E-03-3.71803E-03-1.55702E-03-5.38913E-14-7.87283E-13
 -1        44 2.02593E+01-2.58570E-03-2.91549E-03-7.48649E-04 1.03342E-13-5.67159E-13
 -1        45 2.01576E+01-2.07181E-03-2.22308E-03-2.14101E-04-8.11496E-14-5.94567E-13
 -1        46 2.00859E+01-1.61802E-03-1.65248E-03 1.19499E-04-6.44106E-15-9.13103E-13
 -1        47 2.00369E+01-1.23449E-03-1.19745E-03 3.10633E-04-1.20092E-14-7.13843E-13
 -1        48 2.00050E+01-9.20702E-04-8.43973E-04 4.04150E-04 6.27823E-14-3.99640E-13
 -1        49 1.99853E+01-6.70642E-04-5.75693E-04 4.33357E-04 3.84276E-14-4.85470E-13
 -1        50 1.99744E+01-4.75890E-04-3.76584E-04 4.22342E-04 4.20614E-14-6.98451E-13
 -1        51 1.99694E+01-3.27435E-04-2.32219E-04 3.88082E-04-9.39168E-16-6.61283E-13
 -1        52 1.99684E+01-2.16661E-04-1.30238E-04 3.42202E-04-6.56030E-14-8.22611E-13
 -1        53 1.99698E+01-1.35842E-04-6.04000E-05 2.92387E-04 5.41763E-14-9.81531E-13
 -1        54 1.99725E+01-7.83384E-05-1.44385E-05 2.43476E-04 4.20352E-14-5.95845E-13
 -1        55 1.99759E+01-3.86171E-05 1.41733E-05 1.98299E-04-8.07322E-14-8.90794E-13
 -1        56 1.99795E+01-1.21854E-05 3.04878E-05 1.58306E-04-4.15987E-14-1.23848E-12
 -1        57 1.99830E+01 4.52699E-06 3.83409E-05 1.24026E-04 8.76872E-14-1.13369E-12
 -1        58 1.99862E+01 1.43014E-05 4.05874E-05 9.54094E-05 2.92314E-14-8.87395E-13
 -1        59 1.99890E+01 1.92627E-05 3.93082E-05 7.20581E-05 4.28191E-14-6.68249E-13
 -1        60 1.99913E+01 2.10035E-05 3.59840E-05 5.33959E-05-6.59945E-14-4.58175E-13
 -1        61 1.99933E+01 2.06941E-05 3.16406E-05 3.87760E-05 2.58807E-14-5.72948E-13
 -1        62 1.99950E+01 1.91762E-05 2.69657E-05 2.75516E-05-1.02904E-13-7.46722E-13
 -1        63 1.99963E+01 1.70423E-05 2.24040E-05 1.91166E-05-3.25124E-14-1.14080E-12
 -1        64 1.99973E+01 1.47004E-05 1.82328E-05 1.29253E-05-1.28582E-14-1.18178E-12
 -1        65 1.99981E+01 1.24255E-05 1.46273E-05 8.49507E-06-3.26706E-15-9.23432E-13
 -1        66 1.99987E+01 1.03994E-05 1.17203E-05 5.39193E-06-8.47694E-14-8.35362E-13
 -1        67 1.99992E+01 8.73513E-06 9.65818E-06 3.19457E-06 3.79811E-14-6.36928E-13
 -1        68 1.99995E+01 7.47203E-06 8.60180E-06 1.41397E-06 8.79843E-15-1.18490E-13
 -1        69 1.99997E+01 6.48395E-06 8.43815E-06-6.46634E-07-3.45160E-14-1.41355E-13
 -1        70 1.99998E+01 4.82111E-06 7.35982E-06-4.40171E-06 6.99943E-14 2.26331E-13
 -1        71 1.99998E+01-8.56354E-07-2.20672E-06-8.90149E-06-2.68202E-14 2.70352E-13
 -1        72 2.89601E+01-5.36838E-01-1.18759E+00-4.59445E-01 3.30083E-14 3.24663E-12
 -1        73 2.60948E+01-6.95660E-02-2.90130E-01-6.10769E-02 2.22045E-14 2.67238E-12
 -1        74 2.37389E+01-2.75602E-02-3.47510E-02 4.66399E-02 3.78484E-14 2.13311E-12
 -1        75 2.14483E+01-3.62395E-02-3.53059E-02 9.50175E-02-2.92756E-15 1.71026E-12
 -1        76 1.96484E+01-4.25694E-02-9.27539E-02 8.92009E-02 4.53630E-16 1.55129E-12
 -1        77 1.89129E+01-3.45310E-02-1.17802E-01 2.95398E-02 2.17617E-14 1.45082E-12
 -1        78 1.94385E+01-1.53277E-02-8.25802E-02-4.69490E-02-3.24651E-14 1.24247E-12
 -1        79 2.08430E+01 4.22419E-03-1.40889E-02-9.43731E-02 5.22964E-14 1.13152E-12
 -1        80 2.24323E+01 1.61966E-02 4.20078E-02-9.63510E-02 4.53587E-15 8.78065E-13
 -1        81 2.36341E+01 1.91193E-02 6.35266E-02-6.83323E-02-2.75800E-14 8.55174E-13
 -1        82 2.42158E+01 1.57762E-02 5.62782E-02-3.38576E-02-3.98011E-16 7.69209E-13
 -1        83 2.42313E+01 9.99093E-03 3.67198E-02-7.22948E-03 1.90984E-14 4.98647E-13
 -1        84 2.38644E+01 4.47273E-03 1.74456E-02 8.15492E-03-1.86368E-14 4.03343E-13
 -1        85 2.33046E+01 4.23819E-04 3.81118E-03 1.46002E-02 5.81570E-14 3.42153E-13
 -1        86 2.26925E+01-2.02407E-03-3.87910E-03 1.56266E-02-3.30646E-14 3.33985E-13
 -1        87 2.21129E+01-3.20523E-03-7.22927E-03 1.40113E-02-2.08217E-14 3.48758E-13
 -1        88 2.16071E+01-3.54668E-03-7.98913E-03 1.14567E-02-3.78080E-14 3.01567E-13
 -1        89 2.11884E+01-3.40317E-03-7.44107E-03 8.84202E-03-3.65174E-14 3.63670E-13
 -1        90 2.08548E+01-3.02066E-03-6.36369E-03 6.54512E-03 2.59080E-14-7.14945E-15
 -1        91 2.05967E+01-2.55122E-03-5.17179E-03 4.67902E-03-4.87510E-14 1.49607E-13
 -1        92 2.04021E+01-2.08030E-03-4.06033E-03 3.23372E-03 1.72493E-14-2.66572E-14
 -1        93 2.02587E+01-1.65080E-03-3.10477E-03 2.15148E-03-1.41150E-14-5.25434E-13
 -1        94 2.01558E+01-1.28035E-03-2.32097E-03 1.36306E-03-6.80839E-14-2.67220E-13
 -1        95 2.00838E+01-9.72574E-04-1.69780E-03 8.03382E-04-3.72652E-14-8.98123E-14
 -1        96 2.00350E+01-7.23870E-04-1.21384E-03 4.17001E-04 6.44563E-14 5.29294E-14
 -1        97 2.00035E+01-5.27383E-04-8.45372E-04 1.59080E-04 4.18063E-14-4.52629E-13
 -1        98 1.99842E+01-3.75208E-04-5.70044E-04-5.53913E-06-5.05646E-14-5.56362E-13
 -1        99 1.99736E+01-2.59554E-04-3.68238E-04-1.03831E-04 1.80198E-14-5.32976E-13
 -1       100 1.99689E+01-1.73314E-04-2.23435E-04-1.56133E-04-2.24523E-14-6.66944E-13
 -1       101 1.99681E+01-1.10302E-04-1.22087E-04-1.77525E-04 1.81407E-14-4.57252E-13
 -1       102 1.99696E+01-6.53030E-05-5.33112E-05-1.79001E-04-9.46920E-14-9.02834E-13
 -1       103 1.99725E+01-3.40249E-05-8.50647E-06-1.68416E-04 1.38835E-14-7.79159E-13
 -1       104 1.99759E+01-1.30102E-05 1.90134E-05-1.51255E-04-2.42308E-14-7.46311E-13
 -1       105 1.99796E+01 4.77542E-07 3.43663E-05-1.31234E-04-6.60708E-14-2.46125E-13
 -1       106 1.99830E+01 8.56645E-06 4.14056E-05-1.10771E-04 6.05930E-15-3.87528E-13
 -1       107 1.99862E+01 1.28833E-05 4.29805E-05-9.13549E-05-8.87158E-14-5.42685E-13
 -1       108 1.99890E+01 1.46499E-05 4.11563E-05-7.38168E-05-2.64944E-14-4.85051E-13
 -1       109 1.99914E+01 1.47672E-05 3.73956E-05-5.85422E-05-1.35260E-14-5.08259E-13
 -1       110 1.99934E+01 1.38864E-05 3.27062E-05-4.56244E-05-2.42242E-14-3.92759E-13
 -1       111 1.99950E+01 1.24684E-05 2.77603E-05-3.49757E-05 6.14867E-14 2.25432E-14
 -1       112 1.99963E+01 1.08326E-05 2.29891E-05-2.64064E-05-1.38549E-14-1.88264E-13
 -1       113 1.99973E+01 9.19620E-06 1.86602E-05-1.96784E-05-5.25805E-14 1.83728E-13
 -1       114 1.99981E+01 7.70619E-06 1.49413E-05-1.45375E-05-3.23975E-14 6.56097E-13
 -1       115 1.99987E+01 6.44876E-06 1.19555E-05-1.07153E-05 7.78817E-14-2.78139E-14
 -1       116 1.99992E+01 5.47729E-06 9.83443E-06-7.92153E-06-4.43562E-14-4.29031E-13
 -1       117 1.99995E+01 4.79836E-06 8.79032E-06-5.82737E-06-1.40270E-14-2.53053E-13
 -1       118 1.99997E+01 4.23935E-06 8.69028E-06-3.75666E-06 1.19209E-14-6.02186E-13
 -1       119 1.99998E+01 2.84732E-06 7.38384E-06 1.07958E-07-2.73153E-14-8.64082E-13
 -1       120 1.99998E+01-3.19750E-06-2.76053E-06 7.52494E-06-1.65435E-14-4.77065E-13
 -1       121 1.99998E+01 2.46165E-05-1.47328E-06 1.00124E-05-7.09113E-13-1.59820E-13
 -1       122 1.99998E+01 8.66384E-06 8.06759E-06 1.92931E-06-2.92482E-13-4.41328E-14
 -1       123 1.99998E+01-1.06716E-04 7.04530E-06-3.62831E-06-2.10401E-13 9.55931E-14
 -1       124 1.99998E+01-2.91234E-04 3.25648E-06-6.47992E-06-9.27258E-13 2.57460E-13
 -1       125 1.99998E+01-5.04851E-04-7.10536E-07-7.12682E-06-6.76951E-13-3.20377E-13
 -1       126 1.99998E+01-7.04077E-04-3.97979E-06-6.26360E-06-9.77815E-13 6.03808E-14
 -1       127 1.99998E+01-8.60541E-04-6.29235E-06-4.20894E-06-1.46338E-12 2.70559E-14
 -1       128 1.99998E+01-9.45118E-04-7.48842E-06-1.46239E-06-1.30452E-12-1.48462E-13
 -1       129 1.99998E+01-9.44393E-04-7.47763E-06 1.51111E-06-7.12706E-13 3.13118E-13
 -1       130 1.99998E+01-8.58482E-04-6.26239E-06 4.24345E-06-1.40430E-13-2.03470E-13
 -1       131 1.99998E+01-7.01068E-04-3.90608E-06 6.33050E-06-1.62839E-12-2.54543E-13
 -1       132 1.99998E+01-5.01428E-04-6.69081E-07 7.13575E-06-1.85639E-12 1.86340E-13
 -1       133 1.99998E+01-2.87935E-04 3.27614E-06 6.42393E-06-2.88422E-13 3.54933E-15
 -1       134 1.99998E+01-1.03479E-04 7.43876E-06 4.09905E-06 4.53974E-13 3.55552E-15
 -1       135 1.99998E+01 8.28864E-06 7.19359E-06-2.66603E-06 3.06474E-13-5.37782E-14
 -1       136 1.99998E+01 2.35543E-05-1.69037E-06-1.57852E-05-1.87379E-13-1.77599E-13
 -1       137-1.11203E+00-1.56182E+01-2.93607E+00-2.92655E+00 2.19438E-12 5.23338E-13
 -1       138-9.43273E-01-5.43602E+00-2.14882E+00-1.63656E+00 3.44619E-12 1.66603E-12
 -1       139 4.87814E+00 6.06709E+00-8.42457E-01 5.73819E+00 3.63609E-12 2.71605E-12
 -1       140 1.79146E+01 1.16913E+01 6.44705E-01 1.43090E+01 2.61596E-12 3.07271E-12
 -1       141 3.66354E+01 1.01303E+01 2.03980E+00 1.86440E+01 1.36424E-12 2.36122E-12
 -1       142 5.41243E+01 4.86643E+00 3.05692E+00 1.49414E+01 2.83655E-13 8.44713E-13
 -1       143 6.25490E+01 1.04701E+00 3.41833E+00 4.29420E+00-4.01762E-14-1.08089E-12
 -1       144 5.79861E+01 1.75269E+00 3.00186E+00-7.84656E+00 5.03349E-13-2.96083E-12
 -1       145 4.25868E+01 5.76315E+00 1.88862E+00-1.48276E+01 1.64713E-12-4.26020E-12
 -1       146 2.20206E+01 8.67112E+00 3.14157E-01-1.36763E+01 3.08353E-12-4.61337E-12
 -1       147 7.71485E+00 6.96699E+00-9.58911E-01-7.51489E+00 3.95550E-12-3.84665E-12
 -1       148 6.74150E-01 1.10196E+00-1.72155E+00-1.26331E+00 3.94107E-12-2.50186E-12
 -1       149-9.22518E-01-5.36415E+00-1.96870E+00 1.67377E+00 2.99066E-12-1.14442E-12
 -1       150-5.41258E-01-9.65832E+00-1.94962E+00 1.31474E+00 1.26603E-12-2.23241E-13
 -1       151-5.04011E-01-9.96853E+00-1.90366E+00-7.22520E-01-7.80452E-13-1.33105E-13
 -1       152-7.24810E-01-5.94607E+00-1.86535E+00-1.35114E+00-2.76959E-12-9.09411E-13
 -1       153 2.56744E-01 3.83462E-01-1.66528E+00 7.26603E-01-3.80462E-12-2.15616E-12
 -1       154 6.25987E+00 6.61720E+00-1.01050E+00 6.65261E+00-3.91548E-12-3.50020E-12
 -1       155 1.90891E+01 9.16350E+00 1.19239E-01 1.31793E+01-3.09541E-12-4.21657E-12
 -1       156 3.63821E+01 7.12927E+00 1.43714E+00 1.56751E+01-1.78926E-12-3.86052E-12
 -1       157 5.30640E+01 2.93959E+00 2.61578E+00 1.10323E+01-5.98119E-13-2.66503E-12
 -1       158 5.77287E+01 3.03537E+00 3.17251E+00-1.13395E+01-2.90146E-13 1.02274E-12
 -1       159 4.45616E+01 7.74721E+00 2.49811E+00-1.76746E+01-1.04892E-12 2.48701E-12
 -1       160 2.77251E+01 1.14609E+01 1.43000E+00-1.74672E+01-2.03743E-12 3.06899E-12
 -1       161 1.26772E+01 1.06799E+01 1.70892E-01-1.15851E+01-2.74414E-12 2.75691E-12
 -1       162 3.04369E+00 4.16370E+00-1.09484E+00-3.85761E+00-2.90540E-12 2.08189E-12
 -1       163-1.03512E+00-6.44169E+00-2.21100E+00 1.94695E+00-2.33891E-12 9.84879E-13
 -1       164-1.07854E+00-1.56652E+01-2.91704E+00 2.69477E+00-1.20617E-12 2.55393E-13
 -1       165 2.60933E+01 4.17681E+00-1.34959E-01-4.50549E+00-3.98983E-13-6.48023E-14
 -1       166 2.45843E+01 4.33562E+00-6.65716E-02-3.61394E+00-2.67989E-13-4.62054E-13
 -1       167 2.34039E+01 3.84828E+00-3.77153E-02-2.30361E+00-5.88167E-14-6.26270E-13
 -1       168 2.15821E+01 3.21204E+00-1.77894E-02-7.39680E-01 1.50787E-13-6.61457E-13
 -1       169 1.83610E+01 2.88313E+00-3.53186E-03 8.78438E-01 3.40703E-13-6.75847E-13
 -1       170 1.36136E+01 3.23985E+00 9.46079E-03 1.98856E+00 4.60843E-13-7.16906E-13
 -1       171 8.75996E+00 4.10885E+00 2.01093E-02 1.80719E+00 3.98202E-13-8.12262E-13
 -1       172 6.53662E+00 4.62211E+00 2.79570E-02 6.20725E-01 2.10914E-13-8.76327E-13
 -1       173 7.20621E+00 4.45609E+00 2.28405E-02-8.05814E-01-1.17892E-14-8.83500E-13
 -1       174 1.06475E+01 3.74113E+00 1.40702E-02-1.67550E+00-1.70676E-13-8.06020E-13
 -1       175 1.58650E+01 3.02681E+00 3.78849E-03-1.27080E+00-1.91056E-13-6.73111E-13
 -1       176 2.03127E+01 2.99373E+00-1.29082E-02 1.96000E-01-4.95021E-14-5.08810E-13
 -1       177 2.31713E+01 3.53122E+00-3.58075E-02 1.89791E+00 1.38767E-13-3.25531E-13
 -1       178 2.50381E+01 4.10735E+00-6.62091E-02 3.39725E+00 2.87390E-13-1.07553E-16
 -1       179 2.72544E+01 4.02353E+00-8.78853E-02 4.63097E+00 3.45168E-13 6.24750E-13
 -1       180 2.96387E+01 1.41137E+00-4.25863E-01 4.06788E+00 2.81487E-13 1.45353E-12
 -1       181 2.75231E+01 9.78842E-01 4.36378E-03-3.06445E+00-4.31370E-13 6.05779E-13
 -1       182 2.51087E+01 9.25245E-02-1.49479E-02-1.90622E+00-3.55998E-13 4.45181E-13
 -1       183 2.32899E+01 1.06970E-01 1.67319E-02-1.49680E+00-2.62826E-13 2.85811E-13
 -1       184 2.19902E+01 2.03017E-01 1.35495E-02-1.07890E+00-2.18944E-13 1.08257E-13
 -1       185 2.11893E+01 2.87905E-01 7.43409E-03-4.54118E-01-1.55748E-13-7.36114E-14
 -1       186 2.09716E+01 2.65443E-01 4.49284E-03 2.37503E-01-1.58143E-13-2.02857E-13
 -1       187 2.12602E+01 1.39468E-01 3.55759E-03 7.39255E-01-7.90331E-14-3.08423E-13
 -1       188 2.18177E+01-1.19368E-02 2.50441E-03 8.96300E-01-8.90173E-14-3.95540E-13
 -1       189 2.23724E+01-1.14121E-01 5.82298E-04 7.42314E-01-6.78537E-14-3.37679E-13
 -1       190 2.27408E+01-1.44686E-01-1.43191E-03 4.27257E-01-1.47785E-14-3.54491E-13
 -1       191 2.28614E+01-1.23910E-01-2.64264E-03 1.00678E-01-2.81897E-14-4.75997E-13
 -1       192 2.27612E+01-8.25617E-02-2.80561E-03-1.50720E-01-9.12189E-14-4.94991E-13
 -1       193 2.25070E+01-4.21778E-02-2.20341E-03-3.03054E-01-7.09503E-14-5.04866E-13
 -1       194 2.21695E+01-1.19838E-02-1.29739E-03-3.69308E-01-4.45385E-15-5.58285E-13
 -1       195 2.18060E+01 6.85999E-03-4.35005E-04-3.75154E-01 3.23649E-14-4.35922E-13
 -1       196 2.14552E+01 1.66266E-02 2.11647E-04-3.45272E-01-3.00931E-15-3.12436E-13
 -1       197 2.11396E+01 2.02710E-02 6.10964E-04-2.98290E-01 2.37759E-14-3.31437E-13
 -1       198 2.08693E+01 2.02765E-02 8.02123E-04-2.46367E-01-7.07301E-15-3.61715E-13
 -1       199 2.06464E+01 1.83897E-02 8.46450E-04-1.96530E-01-8.29001E-14-3.58589E-13
 -1       200 2.04680E+01 1.57124E-02 8.00944E-04-1.52285E-01-3.73634E-14-4.95595E-13
 -1       201 2.03290E+01 1.28817E-02 7.08812E-04-1.14944E-01 7.15162E-14-4.28034E-13
 -1       202 2.02233E+01 1.02322E-02 5.98947E-04-8.45641E-02-2.21437E-14-4.93879E-13
 -1       203 2.01447E+01 7.91514E-03 4.88797E-04-6.05578E-02-2.98884E-14-2.99701E-13
 -1       204 2.00878E+01 5.97684E-03 3.87778E-04-4.20589E-02 1.00340E-13-1.74186E-13
 -1       205 2.00477E+01 4.40728E-03 3.00133E-04-2.81342E-02 6.19390E-14-1.87837E-13
 -1       206 2.00204E+01 3.16924E-03 2.26994E-04-1.78961E-02-4.02289E-14-1.91475E-13
 -1       207 2.00026E+01 2.21495E-03 1.67762E-04-1.05561E-02-1.42656E-13-2.96222E-13
 -1       208 1.99916E+01 1.49524E-03 1.20978E-04-5.44372E-03 7.65808E-15-6.14269E-13
 -1       209 1.99855E+01 9.64303E-04 8.48448E-05-2.00726E-03 6.92790E-14-4.33274E-13
 -1       210 1.99828E+01 5.81826E-04 5.75292E-05 1.95924E-04-6.20384E-14-2.13236E-13
 -1       211 1.99822E+01 3.13689E-04 3.73249E-05 1.51308E-03-1.61501E-14-3.35320E-13
 -1       212 1.99830E+01 1.31836E-04 2.27268E-05 2.21105E-03-1.82476E-13-5.56943E-13
 -1       213 1.99845E+01 1.37469E-05 1.24575E-05 2.49079E-03-2.12780E-13-7.29073E-13
 -1       214 1.99864E+01-5.82841E-05 5.46344E-06 2.50044E-03 1.46114E-13-6.15478E-13
 -1       215 1.99885E+01-9.79027E-05 8.96175E-07 2.34677E-03 1.94963E-13-6.01733E-13
 -1       216 1.99904E+01-1.15424E-04-1.91333E-06 2.10465E-03 4.82274E-14-4.73762E-13
 -1       217 1.99922E+01-1.18492E-04-3.48247E-06 1.82496E-03 6.61222E-14-5.96412E-13
 -1       218 1.99938E+01-1.12651E-04-4.20397E-06 1.54077E-03-8.24282E-14-4.63141E-13
 -1       219 1.99951E+01-1.01829E-04-4.37045E-06 1.27229E-03-7.47107E-14-6.14697E-13
 -1       220 1.99962E+01-8.87400E-05-4.19593E-06 1.03061E-03-1.49072E-13-5.54491E-13
 -1       221 1.99971E+01-7.52080E-05-3.83397E-06 8.20542E-04-1.51795E-14-5.06464E-13
 -1       222 1.99979E+01-6.24317E-05-3.39212E-06 6.42643E-04 1.83534E-13-6.10650E-13
 -1       223 1.99984E+01-5.11982E-05-2.94038E-06 4.94666E-04 2.10634E-13-3.44761E-13
 -1       224 1.99989E+01-4.20477E-05-2.51077E-06 3.72498E-04 3.20509E-13 5.97025E-14
 -1       225 1.99992E+01-3.53952E-05-2.08961E-06 2.70776E-04 9.46346E-14 6.50922E-14
 -1       226 1.99995E+01-3.15040E-05-1.62544E-06 1.83353E-04 7.16103E-14-1.58229E-13
 -1       227 1.99996E+01-3.00110E-05-1.26511E-06 1.04616E-04 2.54162E-13-2.86617E-14
 -1       228 1.99997E+01-2.79639E-05-9.55359E-07 3.31476E-05 1.19711E-14-1.60109E-14
 -1       229 2.74644E+01 1.82287E-01-5.47757E-02 2.16311E+00 2.66037E-13 1.34797E-12
 -1       230 2.52041E+01 3.01500E-02 1.43232E-02 1.69129E+00 2.59807E-13 1.17435E-12
 -1       231 2.34015E+01 9.20042E-02 1.36120E-02 1.48087E+00 1.94229E-13 1.02585E-12
 -1       232 2.20452E+01 2.29843E-01 1.34152E-03 1.00594E+00 1.28163E-13 7.97643E-13
 -1       233 2.13559E+01 2.97992E-01-6.47317E-03 2.45054E-01 1.13463E-13 5.78998E-13
 -1       234 2.14201E+01 2.28025E-01-4.23543E-03-5.03153E-01 1.00420E-13 4.90178E-13
 -1       235 2.20235E+01 6.87128E-02 2.78918E-03-9.12680E-01 1.26702E-13 3.56750E-13
 -1       236 2.27740E+01-7.37457E-02 6.59337E-03-8.90820E-01 8.66397E-14 3.04094E-13
 -1       237 2.33409E+01-1.38548E-01 5.34133E-03-5.82000E-01-2.51700E-14 2.61892E-13
 -1       238 2.35784E+01-1.33006E-01 1.89607E-03-1.97599E-01 6.84014E-14 2.36077E-13
 -1       239 2.34991E+01-9.32232E-02-8.50710E-04 1.18260E-01 9.09559E-14 2.30662E-13
 -1       240 2.31934E+01-4.94151E-02-1.98086E-03 3.15182E-01 4.52190E-14 2.28354E-13
 -1       241 2.27648E+01-1.57489E-02-1.84480E-03 4.03315E-01-5.40280E-15 1.84190E-13
 -1       242 2.22971E+01 5.18105E-03-1.16354E-03 4.15033E-01-3.43140E-14 2.93399E-13
 -1       243 2.18457E+01 1.58437E-02-4.37931E-04 3.82485E-01-7.05723E-15 2.70450E-13
 -1       244 2.14417E+01 1.97279E-02 1.10581E-04 3.29522E-01 3.29579E-14 1.39164E-13
 -1       245 2.10980E+01 1.97248E-02 4.41588E-04 2.71158E-01-3.19296E-14 5.81631E-14
 -1       246 2.08163E+01 1.77948E-02 5.94652E-04 2.15656E-01 8.26798E-14 1.04573E-13
 -1       247 2.05921E+01 1.51185E-02 6.28096E-04 1.66863E-01-5.52542E-14 9.65929E-14
 -1       248 2.04181E+01 1.23418E-02 5.92132E-04 1.26032E-01 2.18502E-13-6.62631E-14
 -1       249 2.02860E+01 9.78243E-03 5.22220E-04 9.30259E-02 1.27079E-13-1.38790E-13
 -1       250 2.01880E+01 7.57031E-03 4.40592E-04 6.70481E-02-1.07560E-13-2.51423E-13
 -1       251 2.01168E+01 5.73480E-03 3.59893E-04 4.70581E-02-6.09553E-14-2.71943E-13
 -1       252 2.00664E+01 4.25550E-03 2.86540E-04 3.19922E-02 3.61910E-14-3.11927E-13
 -1       253 2.00318E+01 3.09041E-03 2.23194E-04 2.08697E-02 7.33100E-14-1.48367E-13
 -1       254 2.00089E+01 2.19091E-03 1.70386E-04 1.28375E-02 2.21117E-14-1.54899E-13
 -1       255 1.99945E+01 1.50941E-03 1.27525E-04 7.18034E-03 2.01346E-14-1.85540E-13
 -1       256 1.99862E+01 1.00278E-03 9.34951E-05 3.31475E-03-5.97420E-15-1.67170E-13
 -1       257 1.99820E+01 6.33759E-04 6.70025E-05 7.74678E-04 2.51718E-14-2.69879E-13
 -1       258 1.99807E+01 3.71091E-04 4.67582E-05-8.05028E-04 1.25191E-13-3.34193E-13
 -1       259 1.99811E+01 1.89202E-04 3.15755E-05-1.70548E-03 4.49215E-14-4.27365E-13
 -1       260 1.99825E+01 6.75621E-05 2.04125E-05-2.13929E-03-8.32165E-14-2.76197E-13
 -1       261 1.99845E+01-1.00169E-05 1.23839E-05-2.26431E-03-1.84517E-13-4.28496E-13
 -1       262 1.99867E+01-5.60870E-05 6.75613E-06-2.19537E-03 3.84423E-14-2.08688E-13
 -1       263 1.99888E+01-8.02153E-05 2.93405E-06-2.01408E-03 2.76730E-14-1.82674E-13
 -1       264 1.99909E+01-8.95667E-05 4.43785E-07-1.77683E-03 6.34521E-15-3.23612E-13
 -1       265 1.99926E+01-8.94058E-05-1.08558E-06-1.52120E-03 2.91307E-14-4.02449E-13
 -1       266 1.99942E+01-8.35209E-05-1.93962E-06-1.27104E-03-1.58829E-13-1.63400E-13
 -1       267 1.99955E+01-7.45757E-05-2.33467E-06-1.04034E-03-1.40597E-13-1.89425E-14
 -1       268 1.99966E+01-6.43960E-05-2.43182E-06-8.36203E-04 7.31053E-14 7.17703E-14
 -1       269 1.99974E+01-5.42024E-05-2.34841E-06-6.61035E-04-2.74491E-13 4.79092E-14
 -1       270 1.99981E+01-4.48003E-05-2.16620E-06-5.14099E-04-7.64719E-14 1.00142E-14
 -1       271 1.99986E+01-3.67454E-05-1.93783E-06-3.92573E-04 1.70193E-13-5.29914E-14
 -1       272 1.99991E+01-3.03764E-05-1.66329E-06-2.92210E-04 1.63471E-13-1.25572E-13
 -1       273 1.99994E+01-2.59752E-05-1.28189E-06-2.08042E-04-3.70519E-14-5.56825E-13
 -1       274 1.99996E+01-2.38747E-05-7.59365E-07-1.34413E-04 1.31464E-13-2.80663E-13
 -1       275 1.99997E+01-2.37662E-05-7.48879E-07-6.64053E-05 9.10452E-15-1.41484E-13
 -1       276 1.99998E+01-1.66851E-05-1.73333E-06-7.93173E-06-2.07436E-13-5.28649E-13
 -1       277 1.99998E+01-5.45659E-05-8.63229E-07-3.78269E-05-1.88880E-13 3.52135E-13
 -1       278 1.99998E+01-1.47242E-04-2.50106E-07-1.00817E-04-7.79318E-14-8.41061E-14
 -1       279 1.99998E+01-2.80214E-04-8.89320E-08-1.49147E-04-2.45127E-13-3.55694E-13
 -1       280 1.99998E+01-4.36012E-04 6.68298E-08-1.68778E-04-4.29785E-13 2.06089E-13
 -1       281 1.99998E+01-5.89077E-04 3.91201E-07-1.58813E-04-5.49584E-13-3.56897E-13
 -1       282 1.99998E+01-7.21108E-04 6.94018E-07-1.22205E-04-5.82638E-13-4.41684E-13
 -1       283 1.99998E+01-8.08931E-04 9.18778E-07-6.59637E-05-4.80197E-13 2.78426E-13
 -1       284 1.99998E+01-8.39386E-04 9.98099E-07 5.66236E-07-1.03419E-13 3.22013E-13
 -1       285 1.99998E+01-8.07906E-04 9.18356E-07 6.70017E-05-1.65370E-13 2.99154E-13
 -1       286 1.99998E+01-7.19189E-04 6.95256E-07 1.22989E-04-4.23821E-13-8.59881E-13
 -1       287 1.99998E+01-5.89210E-04 3.70864E-07 1.58838E-04-2.69384E-13-1.04868E-13
 -1       288 1.99998E+01-4.33320E-04 7.18395E-08 1.68763E-04-7.97668E-14 6.30294E-13
 -1       289 1.99998E+01-2.77533E-04-8.59838E-08 1.48344E-04-1.02548E-13 2.86212E-13
 -1       290 1.99998E+01-1.47550E-04-7.31339E-07 1.00221E-04 1.35675E-13 1.40329E-13
 -1       291 1.99998E+01-8.35264E-05-7.46305E-07 7.28907E-05-6.30433E-14-4.02775E-13
 -1       292-3.57582E-01-7.55033E+00-9.50108E-01 1.24460E+00 4.99212E-13 9.23830E-13
 -1       293 3.03716E+00-5.66422E+00-7.71292E-01 3.86850E+00 9.49851E-13 1.12967E-12
 -1       294 1.15696E+01-3.10816E+00-3.10438E-01 6.90854E+00 8.26728E-13 8.03989E-13
 -1       295 1.94996E+01 1.02799E+00-4.17430E-02 8.03001E+00 1.32605E-12 8.98698E-13
 -1       296 2.97213E+01 3.57204E+00 3.78470E-01 8.00204E+00 1.10965E-12 5.57943E-13
 -1       297 3.81292E+01 5.58985E+00 7.25819E-01 6.48326E+00 1.00340E-12 1.62287E-13
 -1       298 4.38128E+01 6.42713E+00 1.00558E+00 4.13711E+00 9.04929E-13-4.30309E-13
 -1       299 4.46151E+01 6.09576E+00 1.00031E+00 5.74326E-01 9.33503E-13-1.11638E-12
 -1       300 4.00144E+01 4.94380E+00 6.60806E-01-2.44207E+00 1.16459E-12-1.56530E-12
 -1       301 3.19673E+01 2.48494E+00 1.99282E-01-3.89207E+00 1.30529E-12-1.53763E-12
 -1       302 2.15557E+01 1.70885E+00-1.27236E-01-6.68450E+00 1.68024E-12-2.03271E-12
 -1       303 1.19566E+01 4.68950E-01-4.43924E-01-5.77752E+00 1.69167E-12-1.84082E-12
 -1       304 4.97363E+00-7.85568E-01-5.72168E-01-3.84914E+00 1.40926E-12-1.51361E-12
 -1       305 9.71348E-01-1.90579E+00-5.84902E-01-1.77978E+00 8.86430E-13-1.19836E-12
 -1       306-4.23794E-01-2.38422E+00-5.51451E-01-1.06379E-01 1.79636E-13-1.02927E-12
 -1       307 9.34032E-01-5.80193E-01-3.25951E-01 2.10199E+00-3.02473E-13-1.14053E-12
 -1       308 4.03882E+00-6.32606E-01-5.26773E-01 3.62683E+00-1.18663E-12-1.29995E-12
 -1       309 1.07367E+01 5.95714E-01-4.02290E-01 5.75117E+00-1.43843E-12-1.56478E-12
 -1       310 1.98888E+01 1.74297E+00-1.62921E-01 6.70024E+00-1.55606E-12-1.71066E-12
 -1       311 2.95169E+01 3.21628E+00 2.12428E-01 6.36231E+00-1.52814E-12-1.71835E-12
 -1       312 3.79561E+01 4.56416E+00 6.09876E-01 4.18042E+00-1.21968E-12-1.39400E-12
 -1       313 4.26664E+01 5.97309E+00 8.37625E-01 5.63932E-01-1.02489E-12-8.33569E-13
 -1       314 4.39580E+01 6.35697E+00 9.55953E-01-2.82831E+00-8.66682E-13-3.34406E-13
 -1       315 3.95185E+01 6.13342E+00 7.18057E-01-5.03015E+00-9.36071E-13 3.96072E-14
 -1       316 3.39534E+01 4.87552E+00 5.89584E-01-7.77454E+00-9.52668E-13 6.30634E-13
 -1       317 2.55478E+01 2.92204E+00 2.48604E-01-8.38169E+00-9.28563E-13 9.66560E-13
 -1       318 1.66774E+01 1.71425E-01-1.48962E-01-7.63200E+00-8.98698E-13 9.76053E-13
 -1       319 9.39700E+00-3.18961E+00-4.25007E-01-6.30084E+00-6.29052E-13 8.53415E-13
 -1       320 2.82277E+00-5.73243E+00-7.53770E-01-3.74652E+00-4.80421E-13 8.69423E-13
 -1       321-1.23020E-01-6.58129E+00-7.74133E-01-1.51161E+00 4.79616E-14 8.21787E-13
 -1       322 2.73588E+01 2.80420E+00-6.29385E-02-4.57252E+00-4.42677E-13 3.26066E-13
 -1       323 2.49669E+01 2.08429E+00-3.85868E-02-3.34195E+00-2.21967E-13-2.78532E-13
 -1       324 2.57619E+01 1.98524E+00-3.70914E-02-3.87874E+00-4.14829E-13-9.89590E-14
 -1       325 2.18700E+01 1.01319E+00-1.39294E-02-1.74418E-01 2.68730E-13-3.58315E-13
 -1       326 1.75409E+01 1.23726E+00 2.86559E-02 2.10108E+00 5.06739E-13-4.54492E-13
 -1       327 1.09916E+01 2.70168E+00 8.46291E-02 3.26186E+00 5.70247E-13-7.16444E-13
 -1       328 6.03784E+00 4.10832E+00 1.10571E-01 2.26362E+00 4.32559E-13-9.69266E-13
 -1       329 7.70255E+00 3.70709E+00 1.08536E-01-2.36744E+00-1.26486E-13-9.50032E-13
 -1       330 1.42018E+01 2.00029E+00 5.91575E-02-2.53993E+00-2.72596E-13-6.56473E-13
 -1       331 2.00979E+01 1.04571E+00 6.59827E-03-6.23361E-01-1.80791E-13-3.45586E-13
 -1       332 2.35607E+01 1.24368E+00-2.72355E-02 1.59601E+00 4.34652E-14-1.39590E-13
 -1       333 2.53505E+01 1.77127E+00-4.18799E-02 3.15337E+00 2.53123E-13 4.31478E-14
 -1       334 2.66837E+01 1.74985E+00-5.48931E-02 3.81066E+00 3.52126E-13 4.17590E-13
 -1       335 2.73717E+01 9.92651E-01-4.29406E-02 3.33141E+00 3.47706E-13 8.05153E-13
 -1       336 2.60129E+01 1.95963E-01 3.97401E-03 2.74349E+00 2.87959E-13 7.55109E-13
 -1       337 2.50520E+01 4.96230E-01 1.10248E-02-2.93999E+00-3.61937E-13 6.96663E-14
 -1       338 2.39324E+01 6.26442E-01 8.44644E-03-2.32995E+00-3.52723E-13 1.98948E-14
 -1       339 2.30267E+01 9.83304E-01 6.24856E-03-1.45566E+00-2.86907E-13-7.58793E-14
 -1       340 2.25147E+01 1.09381E+00 3.60593E-03-3.18592E-01-2.41738E-13-1.94513E-13
 -1       341 2.24547E+01 7.79674E-01 3.02124E-03 6.92605E-01-2.28134E-13-2.94666E-13
 -1       342 2.26623E+01 2.23342E-01 1.74588E-03 1.20200E+00-1.47266E-13-3.80565E-13
 -1       343 2.28683E+01-2.59631E-01-6.34601E-04 1.14545E+00-1.69077E-14-3.78969E-13
 -1       344 2.29101E+01-4.93235E-01-2.97354E-03 7.30698E-01-4.85629E-14-3.45596E-13
 -1       345 2.27722E+01-4.95576E-01-4.10319E-03 2.21904E-01-7.99629E-14-3.63603E-13
 -1       346 2.25124E+01-3.72840E-01-3.89992E-03-2.06545E-01-7.03287E-14-3.32767E-13
 -1       347 2.21944E+01-2.20759E-01-2.85953E-03-4.89236E-01-8.61981E-14-3.29237E-13
 -1       348 2.18635E+01-9.19008E-02-1.62888E-03-6.31111E-01-3.83640E-14-2.90727E-13
 -1       349 2.15463E+01-2.68324E-03-5.81776E-04-6.66230E-01 6.58802E-14-2.43991E-13
 -1       350 2.12569E+01 4.96106E-02 1.42479E-04-6.32724E-01 6.07654E-14-2.47633E-13
 -1       351 2.10019E+01 7.43629E-02 5.64120E-04-5.62019E-01-1.58882E-15-2.36843E-13
 -1       352 2.07836E+01 8.11975E-02 7.54992E-04-4.76262E-01-3.54047E-14-3.05634E-13
 -1       353 2.06011E+01 7.76665E-02 7.93565E-04-3.89374E-01-2.07738E-14-2.81668E-13
 -1       354 2.04520E+01 6.89480E-02 7.43977E-04-3.09139E-01-1.05100E-13-2.01390E-13
 -1       355 2.03326E+01 5.82805E-02 6.51362E-04-2.39224E-01 7.01419E-15-2.67999E-13
 -1       356 2.02389E+01 4.75305E-02 5.44300E-04-1.80735E-01 5.63757E-14-2.00918E-13
 -1       357 2.01669E+01 3.76706E-02 4.39212E-04-1.33315E-01 1.40901E-13 3.21026E-14
 -1       358 2.01126E+01 2.91268E-02 3.44459E-04-9.58598E-02 4.54779E-14-4.18144E-14
 -1       359 2.00725E+01 2.20076E-02 2.63443E-04-6.69554E-02 6.29645E-14-2.19791E-13
 -1       360 2.00436E+01 1.62503E-02 1.96723E-04-4.51391E-02 3.79542E-14-2.84614E-13
 -1       361 2.00233E+01 1.17084E-02 1.43357E-04-2.90390E-02-5.81050E-14-2.40645E-13
 -1       362 2.00096E+01 8.20411E-03 1.01711E-04-1.74417E-02-2.88155E-13-1.61808E-13
 -1       363 2.00006E+01 5.55739E-03 6.99356E-05-9.31577E-03 8.02707E-14-2.65587E-13
 -1       364 1.99952E+01 3.60126E-03 4.62193E-05-3.81082E-03 4.44930E-14-4.77246E-13
 -1       365 1.99922E+01 2.18898E-03 2.89197E-05-2.42776E-04-2.00220E-13-6.92851E-13
 -1       366 1.99909E+01 1.19622E-03 1.66177E-05 1.92683E-03-1.25667E-13-5.20735E-13
 -1       367 1.99907E+01 5.20635E-04 8.12782E-06 3.11328E-03-1.52782E-13-3.40670E-13
 -1       368 1.99911E+01 7.99138E-05 2.48610E-06 3.63058E-03-6.20209E-14-1.10894E-13
 -1       369 1.99919E+01-1.90768E-04-1.07380E-06 3.71125E-03 2.47314E-13-1.01663E-13
 -1       370 1.99929E+01-3.41473E-04-3.14874E-06 3.52365E-03 1.47667E-13-4.95153E-14
 -1       371 1.99940E+01-4.10124E-04-4.19467E-06 3.18661E-03-8.13463E-14-2.08033E-13
 -1       372 1.99950E+01-4.24887E-04-4.55317E-06 2.78137E-03-4.94825E-14-3.19520E-13
 -1       373 1.99959E+01-4.06255E-04-4.47512E-06 2.36130E-03 2.97672E-14-3.17911E-13
 -1       374 1.99967E+01-3.68805E-04-4.14100E-06 1.95941E-03 1.01777E-13-3.35646E-14
 -1       375 1.99974E+01-3.22665E-04-3.67801E-06 1.59425E-03-5.91434E-14 2.58112E-13
 -1       376 1.99980E+01-2.74698E-04-3.17368E-06 1.27429E-03 1.05456E-13 3.25409E-13
 -1       377 1.99985E+01-2.29469E-04-2.68779E-06 1.00111E-03 2.74261E-13 2.53118E-13
 -1       378 1.99988E+01-1.89993E-04-2.25665E-06 7.71767E-04 4.31550E-13 2.71371E-13
 -1       379 1.99991E+01-1.58219E-04-1.89125E-06 5.80381E-04 2.26361E-13 1.38310E-13
 -1       380 1.99994E+01-1.35212E-04-1.59954E-06 4.19602E-04-8.18247E-14 3.30642E-13
 -1       381 1.99995E+01-1.20742E-04-1.58941E-06 2.81636E-04-3.31785E-14 1.47705E-13
 -1       382 1.99997E+01-1.04013E-04-9.78799E-07 1.68978E-04-5.52436E-14-1.23924E-13
 -1       383 2.46274E+01 2.87188E-01 1.27417E-02 2.41319E+00 2.82558E-13 7.46629E-13
 -1       384 2.34463E+01 6.70928E-01 9.85049E-03 1.73730E+00 2.71067E-13 5.80126E-13
 -1       385 2.27049E+01 9.11018E-01 3.16379E-03 6.15516E-01 2.24668E-13 3.75411E-13
 -1       386 2.25611E+01 7.36905E-01 6.76993E-04-5.40408E-01 1.60347E-13 2.47612E-13
 -1       387 2.28556E+01 2.62359E-01 1.98975E-03-1.21267E+00 1.91105E-13 8.90082E-14
 -1       388 2.32357E+01-1.89829E-01 9.48419E-04-1.23087E+00 1.02337E-13 6.21898E-14
 -1       389 2.34394E+01-4.12866E-01-2.31848E-03-8.02060E-01-1.73793E-14 5.27813E-14
 -1       390 2.33969E+01-4.13903E-01-4.77416E-03-2.44688E-01 4.00656E-14-1.04473E-14
 -1       391 2.31570E+01-2.99189E-01-5.07283E-03 2.21984E-01 3.45501E-14 5.08424E-14
 -1       392 2.28003E+01-1.64160E-01-3.90923E-03 5.18302E-01 2.58370E-14 9.77276E-14
 -1       393 2.23952E+01-5.65643E-02-2.21615E-03 6.54696E-01-2.45446E-14 2.20353E-13
 -1       394 2.19886E+01 1.25087E-02-7.46471E-04 6.75829E-01-4.08384E-14 1.96176E-13
 -1       395 2.16096E+01 4.91068E-02 2.59562E-04 6.27925E-01 1.74032E-14 1.59446E-13
 -1       396 2.12734E+01 6.35343E-02 8.21222E-04 5.46456E-01 6.19025E-14 1.47698E-13
 -1       397 2.09862E+01 6.48203E-02 1.05319E-03 4.54581E-01-1.64623E-14 7.77890E-14
 -1       398 2.07481E+01 5.93156E-02 1.07716E-03 3.65618E-01 8.02594E-14 1.10788E-13
 -1       399 2.05557E+01 5.09678E-02 9.88735E-04 2.86182E-01 2.18478E-14 4.70772E-14
 -1       400 2.04035E+01 4.20103E-02 8.51211E-04 2.18771E-01 1.67409E-13-8.41895E-14
 -1       401 2.02858E+01 3.35880E-02 7.02022E-04 1.63570E-01 1.70369E-13-1.38881E-13
 -1       402 2.01963E+01 2.62050E-02 5.60974E-04 1.19588E-01-1.44628E-14-1.62697E-13
 -1       403 2.01298E+01 2.00106E-02 4.37030E-04 8.53363E-02-8.94918E-14-2.42221E-13
 -1       404 2.00814E+01 1.49715E-02 3.32988E-04 5.92073E-02-6.44217E-14-1.94848E-13
 -1       405 2.00470E+01 1.09694E-02 2.48417E-04 3.96708E-02 3.38254E-14-1.24591E-13
 -1       406 2.00232E+01 7.85554E-03 1.81362E-04 2.53645E-02 1.61050E-13-1.59473E-13
 -1       407 2.00074E+01 5.47813E-03 1.29308E-04 1.51256E-02-6.04484E-14-1.76468E-13
 -1       408 1.99974E+01 3.69675E-03 8.96763E-05 7.99135E-03-1.25620E-14-2.10057E-14
 -1       409 1.99915E+01 2.38806E-03 6.00788E-05 3.18277E-03-2.06049E-14-1.02798E-13
 -1       410 1.99885E+01 1.44745E-03 3.84186E-05 8.20594E-05 8.59249E-14 3.94411E-14
 -1       411 1.99874E+01 7.88488E-04 2.29213E-05-1.79185E-03 1.12311E-13-2.32209E-14
 -1       412 1.99875E+01 3.41187E-04 1.21244E-05-2.80703E-03-1.89518E-14 6.95867E-14
 -1       413 1.99884E+01 4.99567E-05 4.84759E-06-3.24001E-03-1.23226E-13-1.40758E-13
 -1       414 1.99897E+01-1.28614E-04 1.55987E-07-3.29463E-03-1.71573E-13-2.10173E-13
 -1       415 1.99911E+01-2.27854E-04-2.67813E-06-3.11792E-03-4.69755E-14-8.10637E-14
 -1       416 1.99925E+01-2.72909E-04-4.21168E-06-2.81334E-03 4.14820E-14-7.69151E-14
 -1       417 1.99938E+01-2.82404E-04-4.86356E-06-2.45141E-03 5.91600E-14 9.84547E-14
 -1       418 1.99950E+01-2.69862E-04-4.94324E-06-2.07835E-03-2.52870E-13 1.02718E-13
 -1       419 1.99960E+01-2.44887E-04-4.67502E-06-1.72266E-03-1.17420E-14 1.79221E-14
 -1       420 1.99969E+01-2.14142E-04-4.21832E-06-1.40029E-03-9.63581E-14-1.53451E-13
 -1       421 1.99976E+01-1.82134E-04-3.68385E-06-1.11844E-03-2.69492E-13-3.52074E-14
 -1       422 1.99982E+01-1.51856E-04-3.14648E-06-8.78389E-04-8.84282E-15-7.01575E-14
 -1       423 1.99987E+01-1.25302E-04-2.65316E-06-6.77478E-04 9.78893E-14-1.06117E-13
 -1       424 1.99990E+01-1.03798E-04-2.23365E-06-5.10364E-04 2.90296E-13-3.46263E-13
 -1       425 1.99993E+01-8.77542E-05-1.81128E-06-3.70388E-04 2.01849E-13-4.25608E-13
 -1       426 1.99995E+01-7.79712E-05-1.40602E-06-2.50421E-04-1.99749E-13-3.45594E-13
 -1       427 1.99997E+01-7.15877E-05-1.07473E-06-1.44820E-04-1.42236E-13 9.00843E-14
 -1       428 1.99997E+01-6.85382E-05-6.66967E-07-8.82916E-05 1.14945E-14 1.73566E-13
 -1       429 1.99998E+01-4.00879E-04-2.30531E-07-2.94574E-04-2.25921E-13-1.51229E-13
 -1       430 1.99997E+01-2.57121E-04-7.98942E-07-2.46404E-04-2.70541E-13-1.36918E-13
 -1       431 1.99997E+01-1.52914E-04-9.56814E-07-1.70347E-04-1.74798E-13-1.30833E-13
 -1       432 1.99998E+01-5.42328E-04 1.56410E-07-2.96062E-04-4.77350E-13-4.65447E-13
 -1       433 1.99999E+01-6.70152E-04 5.23037E-07-2.50709E-04-2.55000E-13-7.45996E-14
 -1       434 1.99999E+01-7.65401E-04 8.19362E-07-1.66786E-04 9.94386E-14 2.35199E-14
 -1       435 1.99999E+01-8.16051E-04 9.78250E-07-5.78136E-05-2.75521E-13 5.25839E-13
 -1       436 1.99999E+01-8.15606E-04 9.78769E-07 5.97423E-05-2.01298E-13 3.90430E-13
 -1       437 1.99999E+01-7.64093E-04 8.17499E-07 1.68429E-04-3.32067E-13-5.23860E-13
 -1       438 1.99999E+01-6.70133E-04 5.21590E-07 2.50675E-04 1.17219E-13-3.14633E-13
 -1       439 1.99998E+01-5.42332E-04 1.62414E-07 2.96056E-04 1.77350E-13 5.18156E-13
 -1       440 1.99998E+01-3.98189E-04-2.48374E-07 2.94448E-04 9.96333E-15 5.46251E-13
 -1       441 1.99997E+01-2.53587E-04-7.12447E-07 2.45681E-04-5.07807E-14 2.74025E-13
 -1       442 1.05674E+01-3.00903E+00 2.53478E-02 6.93784E+00-2.08375E-13 6.05668E-13
 -1       443 2.31152E+00-1.64060E+00-5.94355E-03 2.95056E-01 1.27546E-13 9.03291E-13
 -1       444 4.39346E+00-2.31673E+00-3.91262E-02 4.38024E+00-7.82707E-15 9.47034E-13
 -1       445 2.03599E+01-3.39803E+00-1.26838E-02 6.79195E+00 1.74194E-13 1.04083E-16
 -1       446 2.67373E+01-1.52756E+00 5.86131E-03 5.01957E+00 4.97727E-13-1.67241E-13
 -1       447 2.39961E+01 1.56094E+00-3.38020E-02-2.12471E+00 1.33992E-14-3.37327E-13
 -1       448 3.35078E+01 5.79030E+00 1.59725E-02 9.06272E-01 1.04403E-12-4.65308E-13
 -1       449 3.52951E+01 7.54752E+00 1.02968E-01 1.46375E+00 1.14733E-12-4.77261E-13
 -1       450 3.41285E+01 6.51685E+00 3.69486E-02 1.83476E+00 1.12495E-12-4.68001E-13
 -1       451 3.21175E+01 3.35982E+00-4.79598E-02 1.33783E+00 9.74096E-13-3.85442E-13
 -1       452 2.72492E+01-4.63963E-01-3.74279E-02-1.76999E+00 6.22460E-13-6.01810E-13
 -1       453 2.05556E+01-1.14367E+00-5.84542E-02-4.51610E+00 5.84865E-13-9.30644E-13
 -1       454 1.28190E+01-5.32260E-01-5.35609E-02-5.22063E+00 3.13694E-13-1.05737E-12
 -1       455 6.43769E+00 1.06487E+00 3.59366E-02-4.17720E+00 1.45883E-13-1.20436E-12
 -1       456 2.12172E+00 1.92835E+00 2.99044E-02-1.77209E+00 1.79974E-13-1.30147E-12
 -1       457 1.53201E+00 2.44639E+00 3.69873E-02 1.04522E+00 1.78071E-13-1.27492E-12
 -1       458 5.67936E+00 1.07028E+00 2.41366E-02 4.20284E+00 4.33958E-14-1.12031E-12
 -1       459 1.08075E+01 7.79440E-02-4.68625E-02 5.36328E+00-1.00212E-13-9.52429E-13
 -1       460 1.88240E+01-6.93957E-01-7.13080E-02 5.07655E+00-4.33945E-13-7.79321E-13
 -1       461 2.64784E+01 1.45409E-01-2.60070E-02 3.02226E+00-7.79779E-13-6.31925E-13
 -1       462 3.12059E+01 2.41189E+00-8.31050E-03 6.35590E-02-9.57318E-13-4.31322E-13
 -1       463 3.30760E+01 5.56788E+00-8.57112E-03-1.57563E+00-1.09292E-12-4.44519E-13
 -1       464 3.39982E+01 7.57443E+00 2.92868E-02-1.47943E+00-1.10582E-12-5.36231E-13
 -1       465 3.39794E+01 7.02138E+00 5.30536E-02-1.10176E+00-9.71265E-13-5.34177E-13
 -1       466 3.24513E+01 3.66303E+00 2.94442E-02-1.73484E+00-6.78110E-13-5.06581E-13
 -1       467 3.01472E+01 8.68533E-01 6.20713E-02-3.51298E+00-4.21829E-13-3.09294E-13
 -1       468 2.41731E+01-1.88710E+00 3.84772E-03-6.03736E+00-1.46508E-13 2.10332E-13
 -1       469 1.76849E+01-3.42607E+00-2.86791E-02-7.20081E+00 4.63518E-14 3.81188E-13
 -1       470 9.97273E+00-3.11266E+00-1.06672E-02-6.85956E+00 2.08944E-13 5.89785E-13
 -1       471 5.05859E+00-2.04434E+00 1.96124E-02-4.66645E+00 2.46303E-13 9.27133E-13
 -1       472 3.20220E+01 2.23726E+00 6.70819E-02 2.73766E+00 8.45001E-13-3.45668E-13
 -1       473 4.71631E+00 4.69900E+00 1.42238E-01-3.95572E-01 1.24492E-13-1.06721E-12
 -1       474 1.71431E+01-3.60883E+00 6.92643E-02 6.92705E+00-3.61371E-13 6.15896E-14
 -1       475 2.91760E+01 6.56070E-01-7.00708E-02 1.75293E+00 5.48004E-13-2.28914E-14
 -1       476 1.56690E+01 2.34158E-01 4.39898E-02 4.07515E+00 4.47427E-13-5.46004E-13
 -1       477 2.21756E+01-4.30297E-01 2.65220E-02 9.84447E-01 3.08580E-13-2.15650E-13
 -1       478 1.92586E+01-3.28422E-01 3.93594E-02-2.38463E+00-2.12736E-13-4.29899E-13
 -1       479 1.07322E+01 1.48468E+00 8.55496E-02-4.01230E+00-1.92117E-13-9.19945E-13
 -1       480 2.58205E+01 2.19456E-01-1.42125E-02 2.97380E+00 1.59973E-13 1.08814E-13
 -1       481 2.62990E+01 6.23143E-01-2.11548E-02 3.60883E+00 2.77707E-13 2.84198E-13
 -1       482 2.63541E+01 4.19350E-01 4.61209E-04 3.40202E+00 2.73610E-13 4.74786E-13
 -1       483 2.51873E+01 9.40092E-01 1.20514E-04-3.35844E+00-3.53514E-13-4.95288E-14
 -1       484 2.54560E+01 4.75781E-01-9.75922E-04 3.13129E+00 2.93252E-13 4.90113E-13
 -1       485 2.44634E+01 1.13507E+00-3.47051E-04 2.41123E+00 3.56526E-13 4.46761E-13
 -1       486 2.44797E+01 1.64126E+00-8.11248E-03-2.66192E+00-4.05017E-13-5.55993E-14
 -1       487 2.38299E+01 2.26073E+00-1.34235E-02-1.33317E+00-3.84645E-13-1.79798E-13
 -1       488 2.35815E+01 2.02476E+00-1.34400E-02 1.90978E-01-3.58901E-13-3.64347E-13
 -1       489 2.36908E+01 9.78018E-01-8.19888E-03 1.17440E+00-2.50392E-13-4.38315E-13
 -1       490 2.37625E+01-1.70250E-01-5.00934E-03 1.30343E+00-6.33346E-14-4.25452E-13
 -1       491 2.35502E+01-8.62838E-01-2.80659E-03 8.30506E-01 3.05163E-14-4.44836E-13
 -1       492 2.30845E+01-1.01477E+00-2.27970E-03 1.83890E-01-4.63516E-14-3.72170E-13
 -1       493 2.25288E+01-8.32599E-01-2.27784E-03-3.61270E-01-6.26848E-14-3.69616E-13
 -1       494 2.20073E+01-5.35958E-01-1.76288E-03-7.14438E-01-1.00373E-14-2.29788E-13
 -1       495 2.15733E+01-2.59836E-01-1.08100E-03-8.87787E-01-2.44927E-14-1.32481E-13
 -1       496 2.12307E+01-5.53769E-02-4.61924E-04-9.28026E-01 7.29948E-15-1.56671E-13
 -1       497 2.09642E+01 7.32943E-02-4.66625E-05-8.82956E-01 8.41445E-14-1.97853E-13
 -1       498 2.07557E+01 1.41291E-01 1.99051E-04-7.90700E-01-6.97705E-14-1.83035E-13
 -1       499 2.05908E+01 1.67389E-01 3.18341E-04-6.78085E-01 1.68828E-14-1.90396E-13
 -1       500 2.04589E+01 1.67619E-01 3.54587E-04-5.62382E-01 1.50115E-14-1.38151E-13
 -1       501 2.03530E+01 1.53655E-01 3.42036E-04-4.53732E-01 1.47053E-14-3.54988E-14
 -1       502 2.02681E+01 1.33215E-01 3.04559E-04-3.57343E-01-8.84422E-14 6.71237E-14
 -1       503 2.02005E+01 1.11022E-01 2.57393E-04-2.75216E-01 9.13735E-14-1.80080E-15
 -1       504 2.01472E+01 8.97392E-02 2.09437E-04-2.07388E-01 1.51210E-13 1.51810E-14
 -1       505 2.01058E+01 7.07023E-02 1.65363E-04-1.52802E-01-3.41630E-14-1.35237E-13
 -1       506 2.00741E+01 5.44369E-02 1.27220E-04-1.09861E-01-8.28051E-14-1.79968E-13
 -1       507 2.00503E+01 4.09981E-02 9.55363E-05-7.67926E-02 2.37856E-14-1.95902E-13
 -1       508 2.00326E+01 3.01890E-02 7.00238E-05-5.18530E-02 3.97499E-14-2.00293E-13
 -1       509 2.00199E+01 2.16937E-02 5.00011E-05-3.34469E-02-4.68288E-15-1.58260E-13
 -1       510 2.00109E+01 1.51578E-02 3.46439E-05-2.01791E-02-1.77899E-13 2.03252E-14
 -1       511 2.00048E+01 1.02329E-02 2.31227E-05-1.08710E-02-7.78512E-14-1.31256E-13
 -1       512 2.00008E+01 6.60104E-03 1.46731E-05-4.55326E-03-2.23407E-13-2.02750E-13
 -1       513 1.99983E+01 3.98479E-03 8.62788E-06-4.46923E-04-4.92857E-14-2.39241E-13
 -1       514 1.99969E+01 2.15039E-03 4.42548E-06 2.06102E-03-1.22635E-14-7.22136E-14
 -1       515 1.99962E+01 9.05977E-04 1.60653E-06 3.44357E-03-6.83395E-15-8.61517E-14
 -1       516 1.99960E+01 9.76243E-05-1.95988E-07 4.05863E-03 2.84446E-13 2.04623E-13
 -1       517 1.99962E+01-3.95668E-04-1.26925E-06 4.17151E-03 4.20070E-14 2.50305E-14
 -1       518 1.99965E+01-6.67193E-04-1.83358E-06 3.97456E-03 2.10834E-15-2.92112E-14
 -1       519 1.99969E+01-7.87520E-04-2.05472E-06 3.60373E-03-1.58802E-13-5.01445E-14
 -1       520 1.99973E+01-8.08995E-04-2.05489E-06 3.15215E-03-6.17640E-14-1.86933E-13
 -1       521 1.99978E+01-7.69654E-04-1.92238E-06 2.68109E-03 2.79051E-13-9.69256E-14
 -1       522 1.99981E+01-6.96539E-04-1.71943E-06 2.22859E-03 1.83955E-13-1.12956E-13
 -1       523 1.99985E+01-6.08426E-04-1.48922E-06 1.81608E-03 9.97838E-14 8.38074E-14
 -1       524 1.99988E+01-5.18040E-04-1.25997E-06 1.45343E-03 1.87722E-13 1.82261E-13
 -1       525 1.99990E+01-4.33825E-04-1.05546E-06 1.14266E-03 3.49835E-13 1.15970E-13
 -1       526 1.99992E+01-3.61289E-04-8.90648E-07 8.80659E-04 2.13265E-13 5.86464E-14
 -1       527 1.99994E+01-3.03336E-04-7.49259E-07 6.61227E-04 5.53812E-14-7.11795E-14
 -1       528 1.99995E+01-2.61065E-04-7.24149E-07 4.76815E-04-5.72051E-14 2.30859E-14
 -1       529 2.39820E+01 2.06830E+00-1.90852E-02 1.24143E-01 3.60296E-13 2.78130E-14
 -1       530 2.40432E+01 1.15384E+00-1.66284E-02-1.16018E+00 2.82281E-13-1.69698E-13
 -1       531 2.41883E+01-5.09045E-02-7.31244E-03-1.47238E+00 1.47400E-13-1.82005E-13
 -1       532 2.40415E+01-8.12931E-01-3.34859E-03-1.00791E+00 5.76826E-14-2.15361E-13
 -1       533 2.35981E+01-9.91577E-01-3.61291E-03-2.77954E-01-9.98680E-15-2.00706E-13
 -1       534 2.30250E+01-7.99324E-01-3.75521E-03 3.58576E-01-3.53504E-15-1.29534E-13
 -1       535 2.24657E+01-4.90252E-01-3.18334E-03 7.70577E-01-1.98192E-16-1.00544E-13
 -1       536 2.19841E+01-2.13654E-01-1.89412E-03 9.67159E-01 6.34204E-16-1.05563E-13
 -1       537 2.15888E+01-1.99816E-02-7.58510E-04 1.00619E+00-1.25959E-14-6.77788E-14
 -1       538 2.12675E+01 9.32418E-02 2.19775E-05 9.47660E-01-3.84218E-14 2.68495E-14
 -1       539 2.10053E+01 1.46560E-01 4.69293E-04 8.38374E-01 5.04563E-14 9.97095E-14
 -1       540 2.07904E+01 1.61515E-01 6.69713E-04 7.10005E-01 4.69426E-14 1.24952E-13
 -1       541 2.06143E+01 1.54753E-01 7.11016E-04 5.81816E-01 3.02443E-14 5.80587E-14
 -1       542 2.04709E+01 1.37407E-01 6.64906E-04 4.64261E-01 3.10829E-14 1.30777E-14
 -1       543 2.03552E+01 1.16235E-01 5.78612E-04 3.62063E-01 1.06662E-13 1.72063E-13
 -1       544 2.02631E+01 9.50095E-02 4.80430E-04 2.76477E-01 1.90424E-13 1.26686E-13
 -1       545 2.01909E+01 7.56216E-02 3.85637E-04 2.06818E-01 1.69542E-13 1.81859E-13
 -1       546 2.01352E+01 5.88570E-02 3.01400E-04 1.51439E-01-2.78269E-15 1.66358E-14
 -1       547 2.00930E+01 4.48848E-02 2.30222E-04 1.08313E-01-6.64841E-14 1.23010E-13
 -1       548 2.00616E+01 3.35547E-02 1.72119E-04 7.53764E-02 3.20419E-14-3.05428E-14
 -1       549 2.00387E+01 2.45698E-02 1.25918E-04 5.07039E-02 5.97051E-14-1.44103E-14
 -1       550 2.00224E+01 1.75835E-02 8.99735E-05 3.25947E-02-2.29768E-13 2.15265E-13
 -1       551 2.00111E+01 1.22514E-02 6.25576E-05 1.95992E-02-9.68065E-14 3.75627E-13
 -1       552 2.00036E+01 8.25725E-03 4.20478E-05 1.05154E-02 3.89131E-14 3.19987E-13
 -1       553 1.99988E+01 5.32409E-03 2.70115E-05 4.36883E-03-4.51678E-14 1.17839E-14
 -1       554 1.99960E+01 3.21713E-03 1.62320E-05 3.84750E-04 1.10266E-13 8.24779E-14
 -1       555 1.99945E+01 1.74230E-03 8.70372E-06-2.04177E-03 6.26659E-14-1.00602E-13
 -1       556 1.99940E+01 7.42466E-04 3.61397E-06-3.37468E-03-6.24816E-14 1.15525E-13
 -1       557 1.99940E+01 9.27276E-05 3.18040E-07-3.96346E-03-3.04170E-14 2.39225E-13
 -1       558 1.99944E+01-3.04457E-04-1.68654E-06-4.06632E-03 4.33416E-14-1.47632E-14
 -1       559 1.99950E+01-5.23974E-04-2.78474E-06-3.86997E-03-1.63038E-13 1.41592E-14
 -1       560 1.99957E+01-6.22317E-04-3.26646E-06-3.50616E-03-2.50727E-14 2.66154E-13
 -1       561 1.99964E+01-6.41323E-04-3.34601E-06-3.06500E-03-5.31012E-14 1.34526E-13
 -1       562 1.99970E+01-6.11365E-04-3.17877E-06-2.60574E-03-1.87647E-13 1.57174E-13
 -1       563 1.99975E+01-5.54031E-04-2.87503E-06-2.16511E-03-1.16314E-13 2.50613E-13
 -1       564 1.99980E+01-4.84311E-04-2.51135E-06-1.76383E-03-1.40084E-13 2.80554E-13
 -1       565 1.99984E+01-4.12375E-04-2.13830E-06-1.41140E-03 8.47617E-14 8.77075E-14
 -1       566 1.99988E+01-3.44974E-04-1.78444E-06-1.10975E-03 1.49669E-13-7.35495E-14
 -1       567 1.99991E+01-2.86439E-04-1.53736E-06-8.56016E-04 2.68741E-13-3.67456E-13
 -1       568 1.99993E+01-2.40325E-04-1.60941E-06-6.44772E-04-3.68444E-14-1.28724E-13
 -1       569 1.99995E+01-2.05155E-04-1.32263E-06-4.66135E-04-2.17158E-13 4.29037E-13
 -1       570 1.99996E+01-1.81070E-04-9.27735E-07-3.13095E-04-9.22388E-14 1.92514E-13
 -1       571 1.99999E+01-6.62128E-04 1.55893E-07-3.91844E-04 2.98587E-13-7.18404E-14
 -1       572 2.00000E+01-7.76317E-04 3.21575E-07-2.96258E-04 3.25230E-13 7.59643E-14
 -1       573 1.99997E+01-3.67166E-04-1.04694E-07-4.10196E-04-5.79461E-14-2.57362E-13
 -1       574 1.99998E+01-5.20619E-04-3.26450E-07-4.30492E-04-3.95915E-14-2.29458E-13
 -1       575 2.00000E+01-8.50011E-04 4.15814E-07-1.58577E-04 3.14849E-13 1.53028E-14
 -1       576 2.00000E+01-8.75168E-04 4.49655E-07 1.36011E-06-1.94371E-14 2.90949E-13
 -1       577 2.00000E+01-8.49098E-04 4.09468E-07 1.61128E-04-2.88177E-13 1.03493E-13
 -1       578 2.00000E+01-7.76316E-04 3.02310E-07 2.96274E-04 2.64987E-14-1.89113E-13
 -1       579 1.99999E+01-6.61850E-04 2.09651E-07 3.91901E-04 2.89610E-13 3.80475E-15
 -1       580 1.99998E+01-5.19056E-04 1.35799E-07 4.31214E-04-3.15380E-14 3.85534E-13
 -1       581 1.99997E+01-3.64251E-04-3.25813E-07 4.07103E-04-7.35211E-14 3.87740E-13
 -1       582 6.04432E+00 1.88621E-01 1.51898E-01-2.22477E+00 8.90989E-14 8.24799E-13
 -1       583 2.40430E+01 1.82758E+00-1.20370E-02 1.43587E+00 3.58022E-13 2.42434E-13
 -1       584 2.86149E+01-1.32965E+00-6.20727E-02 1.26791E+00 3.21013E-13-6.79380E-13
 -1       585 1.67276E+01-3.43143E+00 7.74218E-02-6.94105E+00 4.59466E-13 2.64993E-13
 -1       586 2.92219E+01 6.23550E+00-1.49480E-01-2.31208E+00-9.55791E-13-3.28220E-13
 -1       587 5.81977E+00 3.06986E+00 1.32037E-01-2.76997E+00-5.32803E-14-1.12280E-12
 -1       588 2.42547E+01-6.11526E-01-1.76410E-02 8.89864E-01-5.21840E-14-3.54039E-14
 -1       589 7.46047E+00 2.38624E+00 1.31762E-01 4.07099E+00 4.15917E-13-9.48290E-13
 -1       590 2.49395E+01-3.66111E+00-1.82034E-02 4.21629E+00-4.07313E-14-3.75672E-13
 -1       591 2.96269E+01 2.17863E+00-1.31939E-01-3.84829E-01 6.78686E-13-6.84480E-13
 -1       592 2.40593E+01-1.15790E+00-1.03811E-03 1.89512E+00-6.30954E-14-1.84394E-13
 -1       593 2.97745E+01 6.28173E+00-1.56455E-01 3.33712E-01 1.00404E-12-4.13586E-13
 -1       594 2.98591E+01 4.61903E+00-1.35418E-01 3.01487E+00 8.96574E-13-4.92870E-14
 -1       595 2.43435E+01-1.46103E+00-1.81094E-02-1.54903E+00 1.62224E-13-3.11397E-13
 -1       596 1.88618E+01-1.05157E+00 5.56788E-02-3.63423E+00-4.60118E-14-5.75200E-13
 -1       597 2.33661E+01-3.88534E+00 1.87219E-02-5.07751E+00 3.63577E-13-2.40544E-13
 -1       598 1.71052E+01-5.24181E-01 1.62647E-02 4.34303E+00 2.47254E-13-5.12071E-13
 -1       599 2.80656E+01 2.97357E-01-6.68501E-02-6.39308E-01-4.67311E-13-9.03444E-14
 -1       600 2.90679E+01 3.21270E+00-1.19583E-01-2.87670E+00-7.59108E-13-8.21565E-14
 -1       601 2.91414E+01 6.62765E+00-1.62308E-01-7.11388E-01-8.82794E-13-5.66134E-13
 -1       602 2.95031E+01 4.52265E+00-1.31632E-01 4.35581E-01-6.19518E-13-8.28587E-13
 -1       603 2.92508E+01 5.75532E-01-9.87536E-02-4.47080E-01-2.42559E-13-8.15084E-13
 -1       604 2.72495E+01-2.31408E+00-4.56169E-02-2.70195E+00 9.58400E-14-6.03864E-13
 -1       605 1.02202E+01-1.36081E+00 1.25087E-01-5.82909E+00 4.21982E-13 4.80616E-13
 -1       606 2.97919E+01 6.63748E+00-1.49759E-01 1.82133E+00 1.06642E-12-2.19675E-13
 -1       607 2.55038E+01 9.84869E-01-1.50304E-02-3.56502E+00-3.11192E-13-1.27640E-13
 -1       608 2.46545E+01 2.20495E-01-1.11578E-02-1.76550E+00 5.28423E-14-1.75687E-13
 -1       609 9.97975E+00-1.07643E+00 1.53365E-01 5.45108E+00-4.10783E-13 5.05311E-13
 -1       610 2.17692E+01-3.80733E+00 4.65976E-02 5.17982E+00-2.99198E-13-1.96257E-13
 -1       611 1.99996E+01-2.37178E-04-7.52062E-07 3.65024E-04-1.46828E-13 6.19927E-14
 -1       612 6.87232E+00 6.15523E-01 1.85549E-01 1.83878E+00-1.86564E-13 7.16607E-13
 -1       613 1.46311E+01-2.06846E+00 9.70651E-02 6.15273E+00-4.80966E-13 2.66606E-13
 -1       614 2.86387E+01 2.14756E+00-1.04435E-01 3.38172E+00 5.90333E-13 1.51615E-13
 -1       615 2.79517E+01 3.49276E+00-1.20317E-01-9.97647E-01 6.81101E-13-6.49366E-13
 -1       616 2.69500E+01-7.65158E-01-3.81011E-02 1.20852E+00 2.29550E-13 2.22600E-14
 -1       617 2.53691E+01 7.91135E-01-2.14546E-02-3.10442E+00-1.52791E-13-1.59127E-13
 -1       618 2.64042E+01 4.52666E-01-2.28349E-02 3.76957E+00 2.77310E-13 2.26318E-13
 -1       619 2.60239E+01 1.35032E+00-2.01812E-02 3.54675E+00 3.89448E-13 2.45035E-13
 -1       620 1.99996E+01-4.18100E-04-8.51324E-08-5.84575E-04 1.06968E-13-2.09025E-13
 -1       621 2.51361E+01-1.12538E+00-1.25362E-02-9.46410E-01 7.52693E-14-6.15126E-13
 -1       622 2.52043E+01 3.24211E+00-4.87470E-02-2.59369E+00-5.35946E-13-1.31980E-13
 -1       623 2.48104E+01 3.75948E+00-6.03934E-02-7.15996E-01-5.50953E-13-3.88165E-13
 -1       624 2.48472E+01 2.45867E+00-5.73322E-02 9.31330E-01-3.47658E-13-5.63290E-13
 -1       625 2.49663E+01 3.30612E-01-1.89809E-02 1.33673E+00-1.10930E-13-5.68328E-13
 -1       626 2.45315E+01-1.14528E+00-1.16294E-02 7.44153E-01 2.73234E-14-4.92417E-13
 -1       627 2.36684E+01-1.61258E+00-2.37105E-03-9.72694E-02 3.42766E-14-4.63608E-13
 -1       628 2.27077E+01-1.40518E+00-1.16548E-03-7.38607E-01-2.85267E-14-3.80140E-13
 -1       629 2.18825E+01-9.42332E-01-9.35343E-04-1.09504E+00 4.30505E-14-2.74546E-13
 -1       630 2.12754E+01-4.88799E-01-6.52915E-04-1.22428E+00 4.68553E-14-2.49407E-13
 -1       631 2.08628E+01-1.41293E-01-2.29144E-04-1.21170E+00 1.49118E-14-2.32797E-13
 -1       632 2.05945E+01 8.56455E-02-2.85511E-05-1.11950E+00-2.84061E-14-1.98982E-13
 -1       633 2.04225E+01 2.12688E-01 7.44426E-05-9.88772E-01-2.16463E-14-3.04194E-13
 -1       634 2.03105E+01 2.68433E-01 1.18712E-04-8.44809E-01 3.60429E-14-1.52530E-13
 -1       635 2.02350E+01 2.78348E-01 1.30346E-04-7.02754E-01-9.36969E-15-8.46960E-14
 -1       636 2.01815E+01 2.61660E-01 1.24789E-04-5.71260E-01 3.01610E-14-7.01179E-14
 -1       637 2.01417E+01 2.31569E-01 1.10779E-04-4.54749E-01 3.37585E-14-2.23148E-13
 -1       638 2.01108E+01 1.96510E-01 9.35737E-05-3.54889E-01-2.42778E-14-1.03518E-13
 -1       639 2.00863E+01 1.61508E-01 7.62137E-05-2.71592E-01 5.23902E-14-1.98349E-13
 -1       640 2.00666E+01 1.29296E-01 6.02944E-05-2.03720E-01-1.12392E-14-2.65630E-13
 -1       641 2.00508E+01 1.01146E-01 4.65143E-05-1.49576E-01-2.65030E-14-3.10032E-13
 -1       642 2.00381E+01 7.74357E-02 3.50497E-05-1.07232E-01 3.07383E-14-1.16325E-13
 -1       643 2.00281E+01 5.80319E-02 2.57951E-05-7.47576E-02 5.69252E-14-1.28546E-13
 -1       644 2.00203E+01 4.25312E-02 1.85098E-05-5.03399E-02 9.53931E-14-5.08311E-14
 -1       645 2.00143E+01 3.04131E-02 1.29025E-05-3.23621E-02 2.27855E-14 1.13650E-14
 -1       646 2.00097E+01 2.11316E-02 8.67947E-06-1.94304E-02-1.73166E-13 5.03637E-14
 -1       647 2.00063E+01 1.41668E-02 5.56880E-06-1.03766E-02-1.30915E-13-5.16885E-15
 -1       648 2.00039E+01 9.05186E-03 3.33211E-06-4.24551E-03-6.50587E-14 1.90660E-13
 -1       649 2.00021E+01 5.38377E-03 1.76790E-06-2.71933E-04-4.10640E-14 8.30579E-14
 -1       650 2.00009E+01 2.82528E-03 7.10588E-07 2.14476E-03 8.99229E-14 5.47092E-14
 -1       651 2.00001E+01 1.10104E-03 2.73455E-08 3.46720E-03 1.61275E-13 2.09494E-13
 -1       652 1.99996E+01-8.97240E-06-3.86183E-07 4.04489E-03 5.10497E-14-3.45116E-14
 -1       653 1.99993E+01-6.77060E-04-6.10367E-07 4.13656E-03-5.22658E-14 4.98421E-14
 -1       654 1.99992E+01-1.03565E-03-7.05899E-07 3.92953E-03 1.60844E-14-7.69026E-14
 -1       655 1.99991E+01-1.18458E-03-7.17701E-07 3.55596E-03-2.14184E-13 7.48899E-14
 -1       656 1.99992E+01-1.19769E-03-6.78318E-07 3.10619E-03 3.88598E-14-5.15642E-14
 -1       657 1.99992E+01-1.12845E-03-6.10749E-07 2.63951E-03 1.41034E-13-3.25827E-13
 -1       658 1.99993E+01-1.01476E-03-5.30322E-07 2.19253E-03 3.03374E-13-1.01825E-13
 -1       659 1.99994E+01-8.82835E-04-4.48368E-07 1.78571E-03 3.25954E-13 2.10652E-13
 -1       660 1.99994E+01-7.50328E-04-3.68514E-07 1.42833E-03 1.59837E-13 4.08766E-13
 -1       661 1.99995E+01-6.28843E-04-2.99240E-07 1.12216E-03 1.30186E-13-1.72026E-13
 -1       662 1.99996E+01-5.25543E-04-3.17112E-07 8.63952E-04 2.85896E-13-1.35512E-13
 -1       663 1.99996E+01-4.43626E-04-2.52784E-07 6.47978E-04 9.55035E-14 3.57254E-13
 -1       664 2.54967E+01 6.62877E-01-4.16104E-02-1.48940E+00 2.65331E-13-5.89931E-13
 -1       665 9.36569E+00 1.29652E+00 1.21646E-01-7.88870E-01-6.36132E-14 5.22520E-13
 -1       666 2.54258E+01 2.92788E+00-6.52659E-02-7.27181E-01 4.64590E-13-4.12686E-13
 -1       667 2.42143E+01-1.68931E+00-3.59171E-03-1.44319E-03-6.21186E-14-4.17090E-13
 -1       668 2.31453E+01-1.46884E+00-7.72242E-04 7.58487E-01-4.29368E-14-2.43627E-13
 -1       669 2.22272E+01-9.54289E-01-1.64893E-03 1.18674E+00-3.18384E-14-2.67379E-13
 -1       670 2.15564E+01-4.59240E-01-9.88931E-04 1.34598E+00 4.36853E-15-2.04009E-13
 -1       671 2.11023E+01-9.62761E-02-4.27742E-04 1.33569E+00-5.90850E-14-1.35199E-13
 -1       672 2.08031E+01 1.27432E-01-7.67281E-05 1.23129E+00-8.83932E-14-1.36214E-13
 -1       673 2.06037E+01 2.42355E-01 1.22979E-04 1.08228E+00 1.66023E-14-1.30450E-13
 -1       674 2.04653E+01 2.84350E-01 2.21405E-04 9.19071E-01 4.43022E-14-1.24102E-13
 -1       675 2.03638E+01 2.82689E-01 2.47711E-04 7.59511E-01 7.83851E-14-7.02042E-14
 -1       676 2.02858E+01 2.57883E-01 2.37545E-04 6.13380E-01-3.05640E-15 3.21709E-14
 -1       677 2.02238E+01 2.23016E-01 2.10217E-04 4.85309E-01 3.51754E-14 4.81782E-14
 -1       678 2.01738E+01 1.85829E-01 1.76873E-04 3.76677E-01 9.10436E-14 9.13496E-14
 -1       679 2.01332E+01 1.50528E-01 1.43608E-04 2.86916E-01 1.08243E-13 2.63395E-13
 -1       680 2.01005E+01 1.19132E-01 1.13428E-04 2.14380E-01 1.50731E-13 2.67514E-13
 -1       681 2.00744E+01 9.23655E-02 8.75356E-05 1.56918E-01-9.98875E-14 2.13156E-13
 -1       682 2.00540E+01 7.02340E-02 6.61365E-05 1.12240E-01-7.71255E-14 2.49684E-13
 -1       683 2.00382E+01 5.23725E-02 4.89348E-05 7.81340E-02-6.61713E-14 4.83680E-13
 -1       684 2.00262E+01 3.82521E-02 3.54156E-05 5.25825E-02-8.83772E-14 6.19651E-13
 -1       685 2.00172E+01 2.72979E-02 2.50008E-05 3.38206E-02-2.80179E-13 5.53075E-13
 -1       686 2.00107E+01 1.89543E-02 1.71292E-05 2.03497E-02-1.03592E-15 4.97546E-13
 -1       687 2.00061E+01 1.27169E-02 1.12944E-05 1.09285E-02 1.45604E-13 4.60554E-13
 -1       688 2.00029E+01 8.14661E-03 7.05910E-06 4.54996E-03 1.02222E-13 1.00710E-13
 -1       689 2.00008E+01 4.87242E-03 4.05749E-06 4.13046E-04 1.13347E-13 2.85913E-14
 -1       690 1.99994E+01 2.58822E-03 1.99046E-06-2.10835E-03-5.72469E-14 1.81169E-13
 -1       691 1.99987E+01 1.04652E-03 6.18356E-07-3.49487E-03-1.12595E-13-1.89444E-14
 -1       692 1.99983E+01 5.08941E-05-2.47392E-07-4.10880E-03-8.20645E-14 4.12762E-13
 -1       693 1.99981E+01-5.51859E-04-7.52635E-07-4.21799E-03 5.95869E-14 6.70756E-13
 -1       694 1.99981E+01-8.79166E-04-1.00826E-06-4.01623E-03-8.49529E-14 3.56665E-13
 -1       695 1.99983E+01-1.01946E-03-1.09707E-06-3.64027E-03 9.78363E-14 1.69037E-13
 -1       696 1.99984E+01-1.03811E-03-1.07974E-06-3.18368E-03-2.10344E-13 9.16876E-14
 -1       697 1.99986E+01-9.82488E-04-9.99749E-07-2.70794E-03-1.80601E-13 6.17730E-14
 -1       698 1.99988E+01-8.86192E-04-8.87489E-07-2.25117E-03-1.43921E-13 4.03236E-14
 -1       699 1.99990E+01-7.72520E-04-7.63925E-07-1.83481E-03-1.20142E-14-1.22746E-13
 -1       700 1.99992E+01-6.57224E-04-6.35560E-07-1.46866E-03 1.00933E-13 9.55700E-14
 -1       701 1.99993E+01-5.50738E-04-5.66721E-07-1.15491E-03 3.19741E-13 2.09930E-13
 -1       702 1.99994E+01-4.60032E-04-5.16783E-07-8.91570E-04 3.99517E-14 1.96622E-13
 -1       703 1.99996E+01-4.38172E-04-5.72202E-07-7.29104E-04-1.50748E-13 2.65818E-13
 -1       704 2.65478E+01 5.40811E+00-1.27145E-01-1.46865E+00-7.54147E-13-3.58269E-13
 -1       705 2.00002E+01-9.74737E-04 1.64119E-07-1.03166E-04 3.28121E-13-3.67106E-14
 -1       706 1.99997E+01-3.99607E-04-2.01695E-07 5.21643E-04-9.55341E-14 3.76836E-13
 -1       707 2.00000E+01-8.14325E-04 1.10110E-07-4.56823E-04 4.27568E-13-1.30341E-13
 -1       708 2.00002E+01-9.74203E-04 1.43633E-07 1.06723E-04 2.44039E-15-9.07926E-14
 -1       709 2.00001E+01-9.19682E-04 1.45875E-07-2.99590E-04 2.81701E-13 6.83707E-14
 -1       710 2.00001E+01-9.19584E-04 1.06714E-07 2.99548E-04 6.57130E-14 1.38620E-14
 -1       711 2.00000E+01-8.14030E-04 1.13878E-07 4.56316E-04 1.04785E-13 9.08167E-14
 -1       712 1.99999E+01-6.67901E-04 1.79642E-07 5.51287E-04 2.98700E-13-1.27732E-13
 -1       713 1.54932E+01-2.06915E+00 8.92549E-02-5.98553E+00 4.83287E-13 2.67751E-13
 -1       714 2.06019E+01-3.50587E+00 5.02456E-02-5.36528E+00 4.75887E-13-1.38383E-13
 -1       715 2.72667E+01 1.45223E+00-9.49042E-02 1.08023E+00-2.99899E-13-7.49161E-13
 -1       716 1.10868E+01 3.23756E-01 1.17774E-01-3.86871E+00 2.47941E-13 4.21989E-13
 -1       717 2.58409E+01 1.02138E+00-3.71495E-03-3.60754E+00-3.11249E-13-2.58153E-14
 -1       718 2.74875E+01-4.67601E-01-8.39431E-02-7.08704E-01 2.58672E-13-7.97789E-13
 -1       719 2.60133E+01-5.32505E-01-3.71642E-02-9.37681E-01-8.43544E-14-3.72688E-14
 -1       720 2.62049E+01-2.95648E+00-4.51743E-02 1.57488E+00-3.22216E-14-7.39932E-13
 -1       721 2.36329E+01-1.33072E+00 6.71460E-04-9.14348E-01-3.29008E-14-2.18792E-13
 -1       722 2.74411E+01 1.31131E+00-7.93778E-02-3.04452E+00-4.20674E-13 3.59608E-14
 -1       723 2.70579E+01 4.03601E+00-1.03629E-01-3.15277E+00-7.03264E-13-1.07568E-13
 -1       724 2.71463E+01 4.57716E+00-1.24275E-01 2.77477E+00 7.80077E-13 4.06515E-14
 -1       725 2.67831E+01 4.53154E+00-1.23118E-01 4.49686E-01-6.06910E-13-5.57766E-13
 -1       726 2.56056E+01 2.02990E+00-4.32037E-02-3.45132E+00-4.39235E-13-1.34823E-14
 -1       727 2.72806E+01 5.42566E+00-1.47793E-01 8.01103E-01 8.42687E-13-2.76092E-13
 -1       728 1.10066E+01 4.36828E-01 1.20563E-01 3.59634E+00-3.41102E-13 4.26596E-13
 -1       729 1.99999E+01-6.70756E-04 1.62407E-07-5.54231E-04 4.76336E-13 1.75548E-14
 -1       730 1.14696E+01 1.35769E+00 7.85137E-02 1.27437E+00-1.31987E-13 4.21743E-13
 -1       731 2.53774E+01 3.71387E+00-7.24273E-02 1.04696E+00 5.71976E-13-1.70895E-13
 -1       732 1.89309E+01-2.78177E+00 6.16774E-02 5.37385E+00-4.15439E-13-1.51042E-14
 -1       733 2.40793E+01-3.38062E+00-5.39882E-03 2.87599E+00-2.54690E-13-5.89430E-13
 -1       734 1.99998E+01-5.64214E-04 4.66682E-08 6.19262E-04 1.69010E-13 1.15192E-13
 -1       735 1.40261E+01-5.34057E-01 8.45133E-02 4.64831E+00-3.98483E-13 3.28525E-13
 -1       736 2.44268E+01-3.51362E+00 6.67854E-04-3.05211E+00 3.10840E-13-5.29186E-13
 -1       737 2.56173E+01 2.78822E+00-5.19925E-02 2.71022E+00 5.44677E-13 1.00227E-13
 -1       738 2.70195E+01-1.54887E+00-6.85550E-02-1.97164E-01 4.76008E-14-7.87155E-13
 -1       739 2.76453E+01 2.69136E-01-4.30357E-02 3.08085E+00 3.42443E-13 2.12878E-13
 -1       740 2.32562E+01-2.26572E+00 2.97557E-03 1.59195E+00-1.71615E-13-5.21330E-13
 -1       741 2.44104E+01-2.30191E+00-1.02533E-02-7.46906E-01 1.22966E-13-5.90041E-13
 -1       742 2.28677E+01-2.07308E+00-2.30684E-03-1.47860E+00 1.26461E-13-3.69059E-13
 -1       743 2.16368E+01-1.38620E+00 1.59113E-04-1.75558E+00 6.75341E-14-2.54606E-13
 -1       744 2.08310E+01-7.18765E-01-4.43105E-04-1.72423E+00 6.75980E-14-2.18951E-13
 -1       745 2.03549E+01-2.14731E-01 5.17960E-05-1.56866E+00 5.53681E-14-1.41367E-13
 -1       746 2.00997E+01 1.14862E-01 8.53798E-05-1.36923E+00-1.82032E-15-7.10748E-14
 -1       747 1.99792E+01 3.02744E-01 8.87787E-05-1.16644E+00-9.23543E-14-3.77303E-14
 -1       748 1.99340E+01 3.89543E-01 7.39590E-05-9.76052E-01 2.10091E-14 5.42943E-14
 -1       749 1.99275E+01 4.10265E-01 5.71634E-05-8.03960E-01 3.98754E-14-4.90768E-14
 -1       750 1.99382E+01 3.91344E-01 4.44222E-05-6.52155E-01-3.22764E-14-6.51107E-14
 -1       751 1.99545E+01 3.51272E-01 3.47998E-05-5.20893E-01-1.04981E-13-2.25627E-14
 -1       752 1.99706E+01 3.02233E-01 2.71752E-05-4.09485E-01 5.61449E-14-3.57378E-14
 -1       753 1.99842E+01 2.51789E-01 2.10006E-05-3.16627E-01 1.52718E-14-1.05149E-13
 -1       754 1.99944E+01 2.04304E-01 1.60086E-05-2.40598E-01-3.12687E-14-1.54538E-13
 -1       755 2.00015E+01 1.62011E-01 1.20159E-05-1.79433E-01-4.61622E-14-1.68494E-13
 -1       756 2.00060E+01 1.25787E-01 8.86411E-06-1.31079E-01 1.25404E-13-7.93906E-14
 -1       757 2.00085E+01 9.56821E-02 6.41013E-06-9.35189E-02 6.89776E-14-5.68935E-14
 -1       758 2.00095E+01 7.12787E-02 4.52714E-06-6.48652E-02 5.45650E-14-1.60351E-13
 -1       759 2.00095E+01 5.19267E-02 3.10506E-06-4.34172E-02 1.19766E-13-2.38960E-13
 -1       760 2.00090E+01 3.68899E-02 2.04994E-06-2.76908E-02-3.62883E-14-1.84125E-13
 -1       761 2.00080E+01 2.54359E-02 1.28273E-06-1.64249E-02-8.71408E-14-8.27734E-14
 -1       762 2.00070E+01 1.68864E-02 7.37910E-07-8.57293E-03-9.85143E-14-9.22234E-14
 -1       763 2.00058E+01 1.06420E-02 3.62001E-07-3.28432E-03-4.43324E-14-8.56846E-14
 -1       764 2.00048E+01 6.19123E-03 1.12045E-07 1.18605E-04-5.06527E-14-1.23310E-14
 -1       765 2.00038E+01 3.10929E-03-4.58957E-08 2.16580E-03 2.02615E-14-2.49090E-13
 -1       766 2.00030E+01 1.05146E-03-1.38176E-07 3.26403E-03 1.35669E-14-2.79825E-13
 -1       767 2.00023E+01-2.56218E-04-1.84905E-07 3.71966E-03 1.62480E-13-2.92323E-13
 -1       768 2.00017E+01-1.02734E-03-2.01147E-07 3.75873E-03-7.05784E-14 8.32464E-14
 -1       769 2.00012E+01-1.42532E-03-1.97975E-07 3.54436E-03-1.41321E-13-1.29900E-14
 -1       770 2.00008E+01-1.57284E-03-1.83362E-07 3.19117E-03-3.03667E-14 1.56170E-13
 -1       771 2.00005E+01-1.56019E-03-1.62823E-07 2.77714E-03 4.44697E-14 3.00071E-13
 -1       772 2.00003E+01-1.45250E-03-1.39705E-07 2.35309E-03 2.50540E-13 4.21734E-13
 -1       773 2.00001E+01-1.29567E-03-1.14237E-07 1.95012E-03 3.37721E-13 1.52251E-13
 -1       774 2.00000E+01-1.12125E-03-9.02637E-08 1.58526E-03 3.66640E-13 9.26889E-14
 -1       775 1.99999E+01-9.50180E-04-5.18843E-08 1.26586E-03-4.00431E-14 1.54873E-13
 -1       776 1.99999E+01-7.95761E-04-5.22529E-08 9.93838E-04 1.68042E-13 2.82081E-13
 -1       777 1.99998E+01-6.66597E-04-1.25979E-07 7.92812E-04 5.64028E-13 1.81739E-13
 -1       778 2.18686E+01-1.46606E+00 1.16754E-04 1.91493E+00-1.14573E-13-3.27475E-13
 -1       779 2.09765E+01-7.16730E-01-1.64194E-05 1.89153E+00-1.20423E-13-1.29569E-13
 -1       780 2.04644E+01-1.68350E-01-8.51347E-06 1.72181E+00-1.23640E-13 5.04515E-15
 -1       781 2.01981E+01 1.73738E-01 1.33231E-05 1.50431E+00-7.76776E-14 4.06839E-14
 -1       782 2.00743E+01 3.55558E-01 5.14239E-05 1.28230E+00-2.94643E-14-1.14432E-13
 -1       783 2.00256E+01 4.28760E-01 9.74658E-05 1.07318E+00 7.01572E-15-9.70997E-14
 -1       784 2.00126E+01 4.35071E-01 9.45277E-05 8.83624E-01 5.17428E-15 5.94696E-14
 -1       785 2.00139E+01 4.04103E-01 8.15680E-05 7.16134E-01-2.72625E-14 1.04426E-13
 -1       786 2.00191E+01 3.55317E-01 6.75722E-05 5.71301E-01 6.01487E-15 1.61037E-13
 -1       787 2.00237E+01 3.00733E-01 5.47247E-05 4.48527E-01 3.87744E-14 1.68984E-13
 -1       788 2.00263E+01 2.47274E-01 4.34936E-05 3.46399E-01-3.23623E-14 2.34280E-13
 -1       789 2.00267E+01 1.98567E-01 3.39579E-05 2.62971E-01 1.37951E-13 3.15401E-13
 -1       790 2.00254E+01 1.56194E-01 2.60569E-05 1.96005E-01-8.30716E-15 3.53570E-13
 -1       791 2.00231E+01 1.20531E-01 1.96474E-05 1.43169E-01-1.32756E-13 3.87882E-13
 -1       792 2.00202E+01 9.12796E-02 1.45439E-05 1.02193E-01-9.38099E-14 3.32157E-13
 -1       793 2.00171E+01 6.78005E-02 1.05496E-05 7.09687E-02-1.28184E-13 4.38973E-13
 -1       794 2.00141E+01 4.93154E-02 7.47524E-06 4.76107E-02-1.61150E-13 4.69762E-13
 -1       795 2.00114E+01 3.50255E-02 5.14885E-06 3.04846E-02-5.59474E-14 2.24309E-13
 -1       796 2.00090E+01 2.41774E-02 3.42007E-06 1.82092E-02 9.26575E-14 1.88261E-13
 -1       797 2.00070E+01 1.60959E-02 2.16079E-06 9.64242E-03 6.17596E-14 2.91944E-13
 -1       798 2.00053E+01 1.01975E-02 1.26433E-06 3.85926E-03 1.84035E-13 4.48087E-13
 -1       799 2.00039E+01 5.99114E-03 6.43505E-07 1.24152E-04 5.64706E-14 2.01828E-13
 -1       800 2.00028E+01 3.07331E-03 2.28357E-07-2.13732E-03-2.05098E-13 3.05766E-13
 -1       801 2.00020E+01 1.11864E-03-3.63249E-08-3.36578E-03-4.35825E-13 3.19675E-13
 -1       802 2.00013E+01-1.30374E-04-1.93380E-07-3.89302E-03-1.08436E-13 3.71132E-13
 -1       803 2.00008E+01-8.74016E-04-2.75497E-07-3.96401E-03 1.82340E-13 3.38097E-13
 -1       804 2.00005E+01-1.26535E-03-3.07183E-07-3.75569E-03 2.94188E-13 2.55084E-13
 -1       805 2.00002E+01-1.41927E-03-3.06466E-07-3.39264E-03 5.17091E-14 1.25645E-13
 -1       806 2.00000E+01-1.42043E-03-2.86226E-07-2.95982E-03-1.35267E-13 5.63040E-14
 -1       807 1.99999E+01-1.32995E-03-2.55141E-07-2.51282E-03-1.70038E-13-1.75117E-13
 -1       808 1.99998E+01-1.19101E-03-2.18704E-07-2.08588E-03-1.19432E-13-1.48001E-13
 -1       809 1.99998E+01-1.03341E-03-1.81516E-07-1.69800E-03 1.62845E-13 5.61135E-14
 -1       810 1.99997E+01-8.77151E-04-1.79155E-07-1.35783E-03 2.85229E-13 1.11152E-15
 -1       811 1.99997E+01-7.35982E-04-2.27396E-07-1.06832E-03-2.29527E-14 3.29529E-13
 -1       812 2.00004E+01-1.09919E-03 1.87203E-08 2.59122E-04 1.50588E-13 1.52310E-13
 -1       813 2.60119E+01 5.37541E-01-4.22406E-02-3.02708E+00-2.00573E-13-7.55342E-15
 -1       814 2.00002E+01-1.00519E-03 5.92694E-08 4.86274E-04 9.05866E-14-7.66437E-14
 -1       815 2.00004E+01-1.13165E-03 8.19171E-08 2.37424E-08 2.62565E-14-4.31643E-13
 -1       816 2.51175E+01-2.36523E+00-1.17567E-02 5.20459E-01-8.70129E-14-6.46591E-13
 -1       817 1.91888E+01-2.30439E+00 4.03985E-02-4.65286E+00 4.50728E-13-2.70799E-14
 -1       818 2.23681E+01-2.99607E+00 1.12667E-02-3.35296E+00 3.67603E-13-3.71167E-13
 -1       819 1.24551E+01 1.18694E+00 6.47497E-02-2.04672E+00 1.70980E-13 2.90044E-13
 -1       820 2.70198E+01 1.88671E+00-6.38119E-02 3.75328E+00 4.78876E-13 1.91380E-13
 -1       821 2.00001E+01-8.56829E-04 1.38975E-07 6.50944E-04 6.02486E-14 2.61297E-13
 -1       822 1.51169E+01-4.44432E-01 5.20411E-02-4.30984E+00 3.30165E-13 1.90858E-13
 -1       823 2.55909E+01-1.37250E+00-2.56621E-02 4.54542E-01 5.74866E-14-6.89914E-13
 -1       824 2.48445E+01-2.76079E+00 1.63956E-02-1.40930E+00 2.11107E-13-6.37371E-13
 -1       825 2.00001E+01-8.60131E-04-7.87632E-09-6.51079E-04 2.74413E-13-1.13713E-13
 -1       826 2.20378E+01-2.98775E+00 3.00001E-02 3.66115E+00-3.33757E-13-3.59156E-13
 -1       827 1.30245E+01 8.05099E-01 6.39499E-02 2.75427E+00-2.42741E-13 3.26720E-13
 -1       828 1.99998E+01-6.76799E-04 1.46909E-06-8.66129E-04-2.13112E-13 4.17538E-13
 -1       829 2.00004E+01-1.09922E-03 1.19171E-07-2.59066E-04 2.78195E-13 4.42554E-14
 -1       830 2.00002E+01-1.00584E-03 1.05434E-07-4.84677E-04 3.68449E-13-1.55019E-13
 -1       831 1.99999E+01-7.69672E-04-8.22846E-07 7.34935E-04 3.53717E-13 8.61570E-14
 -1       832 1.99998E+01-6.59876E-04 2.74110E-07-7.47554E-04 2.04618E-13 2.74230E-13
 -1       833 2.00003E+01-1.09026E-03 1.07320E-07 7.17384E-04 1.78853E-13-2.20090E-13
 -1       834 2.09705E+01-1.74858E+00 4.01444E-03-2.75150E+00 2.34990E-13-2.71703E-13
 -1       835 2.00359E+01-8.51403E-01-2.22416E-03-2.39948E+00 1.03338E-13-1.97346E-13
 -1       836 1.95784E+01-2.00175E-01 8.34249E-05-1.99453E+00 1.60679E-13-1.12174E-13
 -1       837 1.94179E+01 2.07384E-01 2.68429E-04-1.61866E+00 1.14704E-13-4.61809E-14
 -1       838 1.94040E+01 4.34651E-01 1.63822E-04-1.30885E+00-4.97260E-14-2.18758E-14
 -1       839 1.94608E+01 5.38710E-01 9.23446E-05-1.05709E+00-6.63497E-15 1.85741E-15
 -1       840 1.95456E+01 5.62602E-01 4.67141E-05-8.51720E-01 9.30851E-15-3.91539E-14
 -1       841 1.96353E+01 5.37634E-01 2.38449E-05-6.82752E-01-9.86719E-14-5.25905E-14
 -1       842 1.97185E+01 4.85733E-01 1.32941E-05-5.42972E-01-4.09442E-14-2.17033E-13
 -1       843 1.97900E+01 4.21639E-01 7.97731E-06-4.27321E-01 2.63585E-14-1.54171E-13
 -1       844 1.98485E+01 3.54831E-01 4.92336E-06-3.32124E-01 1.36123E-15-6.13270E-14
 -1       845 1.98947E+01 2.91044E-01 3.01455E-06-2.54476E-01-5.89564E-14 1.01977E-14
 -1       846 1.99299E+01 2.33430E-01 1.78653E-06-1.91888E-01-9.06856E-14-1.10741E-13
 -1       847 1.99560E+01 1.83407E-01 9.96860E-07-1.42123E-01-1.03965E-14-1.61038E-13
 -1       848 1.99748E+01 1.41285E-01 4.95607E-07-1.03137E-01 9.14395E-14-2.57479E-13
 -1       849 1.99879E+01 1.06703E-01 1.84308E-07-7.30785E-02 8.82433E-14-2.70603E-13
 -1       850 1.99966E+01 7.89318E-02-2.36716E-09-5.02943E-02 8.85223E-14-2.14102E-13
 -1       851 2.00021E+01 5.70789E-02-1.07769E-07-3.33408E-02-6.25052E-14-3.35299E-13
 -1       852 2.00053E+01 4.02142E-02-1.60720E-07-2.09826E-02 1.67682E-14-2.21441E-13
 -1       853 2.00068E+01 2.74504E-02-1.80464E-07-1.21846E-02-5.65254E-14-2.30431E-14
 -1       854 2.00073E+01 1.79847E-02-1.79877E-07-6.09643E-03-2.37642E-14 5.93415E-14
 -1       855 2.00072E+01 1.11190E-02-1.67561E-07-2.03221E-03-1.68039E-13-1.71581E-13
 -1       856 2.00066E+01 6.26381E-03-1.49205E-07 5.51049E-04-7.43976E-14-1.96072E-13
 -1       857 2.00058E+01 2.93394E-03-1.28500E-07 2.07570E-03-2.34416E-14-2.16280E-13
 -1       858 2.00050E+01 7.38279E-04-1.07760E-07 2.86434E-03 1.38719E-13-1.98831E-13
 -1       859 2.00041E+01-6.32076E-04-8.83684E-08 3.15873E-03 8.22389E-14-3.22750E-13
 -1       860 2.00033E+01-1.41660E-03-7.11172E-08 3.13640E-03-4.53925E-14-7.96013E-14
 -1       861 2.00026E+01-1.79749E-03-5.64959E-08 2.92473E-03 2.42950E-14 1.42934E-13
 -1       862 2.00020E+01-1.91078E-03-4.48881E-08 2.61268E-03-2.13886E-14 2.51033E-13
 -1       863 2.00015E+01-1.85601E-03-3.62127E-08 2.26027E-03 1.18213E-13 4.78552E-14
 -1       864 2.00011E+01-1.70450E-03-2.77168E-08 1.90623E-03 1.98789E-13 3.55133E-14
 -1       865 2.00007E+01-1.50628E-03-1.60061E-08 1.57383E-03 2.07048E-13 1.45172E-13
 -1       866 2.00005E+01-1.29520E-03-6.68664E-08 1.27565E-03 1.00750E-13 2.08409E-14
 -1       867 2.00003E+01-1.09306E-03 3.13152E-08 1.01587E-03 2.53499E-13 3.48225E-13
 -1       868 1.83218E+01-1.05617E+00 2.03099E-02-3.70186E+00 2.49637E-13-1.40066E-14
 -1       869 2.09404E+01-1.88128E+00 2.24501E-02 3.08586E+00-3.06913E-13-2.49927E-13
 -1       870 1.93815E+01 2.83542E-01 3.35209E-05 1.75770E+00-9.16796E-14 2.65709E-14
 -1       871 1.93943E+01 5.08884E-01-1.20002E-04 1.42490E+00 6.88000E-14-1.93812E-14
 -1       872 1.94732E+01 5.99835E-01 3.14981E-05 1.15694E+00 3.02044E-15-8.44829E-14
 -1       873 1.95722E+01 6.07870E-01 3.75399E-05 9.38020E-01-8.57626E-14 9.40967E-15
 -1       874 1.96690E+01 5.68317E-01 2.43030E-05 7.56458E-01-3.32485E-14 6.54461E-14
 -1       875 1.97537E+01 5.04717E-01 1.42412E-05 6.04785E-01 3.59232E-14 1.29512E-13
 -1       876 1.98232E+01 4.32133E-01 8.56787E-06 4.78130E-01 2.11806E-14 1.18267E-13
 -1       877 1.98776E+01 3.59677E-01 5.43148E-06 3.73051E-01-7.98579E-15 2.25886E-13
 -1       878 1.99187E+01 2.92460E-01 3.57581E-06 2.86795E-01 3.46144E-15 1.47974E-13
 -1       879 1.99489E+01 2.32991E-01 2.40463E-06 2.16919E-01-2.71526E-14 3.13424E-13
 -1       880 1.99704E+01 1.82146E-01 1.63463E-06 1.61135E-01-2.42945E-14 2.25686E-13
 -1       881 1.99853E+01 1.39820E-01 1.11488E-06 1.17291E-01-1.10344E-14 1.71565E-13
 -1       882 1.99951E+01 1.05366E-01 7.57028E-07 8.33913E-02-2.38014E-13 2.23609E-13
 -1       883 2.00013E+01 7.78688E-02 5.07035E-07 5.76289E-02-8.13721E-14 1.27979E-13
 -1       884 2.00049E+01 5.63234E-02 3.31003E-07 3.84101E-02 2.39612E-14 5.21538E-14
 -1       885 2.00068E+01 3.97413E-02 2.07063E-07 2.43624E-02-3.08696E-15 6.34789E-14
 -1       886 2.00074E+01 2.72087E-02 1.20563E-07 1.43305E-02-8.12304E-14 3.48676E-13
 -1       887 2.00073E+01 1.79166E-02 6.12713E-08 7.36183E-03 5.13952E-14 3.27641E-13
 -1       888 2.00068E+01 1.11708E-02 2.17850E-08 2.68655E-03 1.27379E-13 4.48091E-13
 -1       889 2.00060E+01 6.39074E-03-3.38458E-09-3.06451E-04-1.35940E-13 5.34509E-13
 -1       890 2.00052E+01 3.10119E-03-1.83517E-08-2.09340E-03-2.45169E-13 4.21938E-13
 -1       891 2.00043E+01 9.20629E-04-2.62077E-08-3.03877E-03-1.51072E-13 2.25267E-13
 -1       892 2.00035E+01-4.51740E-04-2.92605E-08-3.41634E-03 1.32649E-13 1.60417E-13
 -1       893 2.00027E+01-1.24893E-03-2.92304E-08-3.42760E-03 2.27369E-13 2.31096E-13
 -1       894 2.00021E+01-1.64830E-03-2.74158E-08-3.21754E-03 1.59966E-13 3.77152E-13
 -1       895 2.00016E+01-1.78241E-03-2.47862E-08-2.88777E-03 1.63693E-13 3.44752E-13
 -1       896 2.00012E+01-1.74843E-03-2.16350E-08-2.50715E-03 1.29443E-14 7.56464E-14
 -1       897 2.00008E+01-1.61615E-03-1.63726E-08-2.12040E-03-3.46064E-14-1.11027E-13
 -1       898 2.00005E+01-1.43463E-03-9.28593E-09-1.75471E-03-1.61833E-14-3.35696E-13
 -1       899 2.00003E+01-1.23756E-03-2.13635E-08-1.42492E-03 8.35695E-14-2.06189E-14
 -1       900 2.00001E+01-1.04715E-03 1.01442E-07-1.13808E-03-1.80468E-13 2.02363E-13
 -1       901 2.00007E+01-1.30822E-03 4.49789E-08 1.62827E-04 5.43907E-13-9.94153E-14
 -1       902 1.52920E+01 5.22090E-01 1.69296E-02-2.81609E+00 2.32598E-13 1.52509E-13
 -1       903 1.34528E+01 1.49702E+00 2.39508E-02-3.22747E-02 7.27396E-14 1.99658E-13
 -1       904 1.95210E+01-1.44457E-01 1.02717E-03 2.16701E+00-2.02872E-13 8.66429E-15
 -1       905 1.99658E+01-8.51580E-01 3.69437E-03 2.64016E+00-2.61643E-13-7.53843E-14
 -1       906 1.78940E+01-1.41425E+00 3.32341E-02 4.38304E+00-4.22702E-13 4.92922E-14
 -1       907 2.00005E+01-1.23479E-03-1.99039E-08 4.66748E-04 2.72309E-13-2.49608E-13
 -1       908 1.60351E+01-6.40552E-02 3.04536E-02 3.49676E+00-3.54665E-13 1.43533E-13
 -1       909 2.00001E+01-9.17823E-04-2.16039E-07 8.70892E-04 1.37214E-13 5.52724E-13
 -1       910 2.00007E+01-1.30797E-03 1.21154E-07-1.63073E-04 2.42111E-13-1.88830E-13
 -1       911 2.00001E+01-9.49876E-04-7.04267E-07-9.17889E-04-1.93058E-13 2.05485E-13
 -1       912 2.00003E+01-1.09314E-03-7.50202E-08-7.18845E-04 6.12645E-14-1.69630E-14
 -1       913 1.40190E+01 1.35933E+00 2.53133E-02 1.15012E+00-5.23862E-14 1.40657E-13
 -1       914 1.49834E+01 1.24864E+00 9.80037E-03-1.30484E+00 8.79626E-14 1.35772E-13
 -1       915 1.83817E+01 7.44830E-03 3.08350E-03-2.39757E+00 1.78516E-13 5.15471E-14
 -1       916 1.84643E+01 4.17766E-01 5.04253E-04-1.80083E+00 1.74926E-13-4.04459E-14
 -1       917 1.86625E+01 6.36314E-01 1.90087E-04-1.36986E+00 9.10279E-15-4.77606E-14
 -1       918 1.88847E+01 7.26872E-01 1.06472E-04-1.05716E+00-1.71326E-14-6.35839E-14
 -1       919 1.90965E+01 7.36651E-01 1.38980E-05-8.25008E-01 1.81371E-14-3.58747E-14
 -1       920 1.92855E+01 6.96702E-01-1.21093E-05-6.47744E-01-6.20030E-14-1.54001E-13
 -1       921 1.94472E+01 6.28872E-01-1.55261E-05-5.09034E-01-1.75615E-13-1.33672E-13
 -1       922 1.95812E+01 5.48101E-01-1.32281E-05-3.98521E-01-5.06534E-14-2.46200E-13
 -1       923 1.96898E+01 4.64378E-01-1.04614E-05-3.09666E-01 3.64856E-14-3.59368E-13
 -1       924 1.97757E+01 3.84072E-01-8.24021E-06-2.38118E-01-7.77580E-15-3.49940E-13
 -1       925 1.98422E+01 3.10913E-01-6.51778E-06-1.80752E-01-7.84051E-14-2.85449E-13
 -1       926 1.98928E+01 2.46745E-01-5.14239E-06-1.35139E-01 2.03969E-14-9.72066E-14
 -1       927 1.99303E+01 1.92128E-01-4.01862E-06-9.92728E-02 3.40015E-15 9.48270E-14
 -1       928 1.99575E+01 1.46797E-01-3.09583E-06-7.14387E-02 3.97020E-15 3.55307E-14
 -1       929 1.99766E+01 1.09992E-01-2.34380E-06-5.01555E-02 7.04802E-14-4.14134E-14
 -1       930 1.99897E+01 8.07074E-02-1.73956E-06-3.41465E-02-1.51485E-14-2.17297E-13
 -1       931 1.99983E+01 5.78479E-02-1.26232E-06-2.23232E-02 8.44464E-14-1.87087E-13
 -1       932 2.00036E+01 4.03381E-02-8.92349E-07-1.37712E-02 1.43390E-13-1.76025E-13
 -1       933 2.00065E+01 2.71834E-02-6.11101E-07-7.73474E-03-1.02249E-13-3.98276E-14
 -1       934 2.00079E+01 1.75025E-02-4.01713E-07-3.59949E-03-1.33534E-13-4.53128E-14
 -1       935 2.00082E+01 1.05398E-02-2.49335E-07-8.74501E-04-8.71794E-14 1.63372E-13
 -1       936 2.00078E+01 5.66439E-03-1.41282E-07 8.26044E-04-1.69386E-14 2.14519E-13
 -1       937 2.00071E+01 2.36145E-03-6.70119E-08 1.80017E-03 5.53695E-14 1.17741E-13
 -1       938 2.00062E+01 2.19217E-04-1.79723E-08 2.27404E-03 6.77822E-14-3.72351E-14
 -1       939 2.00052E+01-1.08529E-03 1.25765E-08 2.41607E-03 1.16527E-13-1.32713E-13
 -1       940 2.00043E+01-1.80081E-03 2.97014E-08 2.34907E-03-6.74472E-15-2.33382E-13
 -1       941 2.00034E+01-2.11537E-03 3.67684E-08 2.16048E-03 8.84710E-14-3.34972E-13
 -1       942 2.00027E+01-2.16839E-03 3.56834E-08 1.91081E-03-1.76764E-13-2.28896E-13
 -1       943 2.00020E+01-2.06111E-03 2.58768E-08 1.64042E-03 1.85290E-13-2.32178E-13
 -1       944 2.00015E+01-1.86557E-03 3.82786E-08 1.37516E-03 2.35823E-13-2.10601E-13
 -1       945 2.00011E+01-1.63166E-03 1.81186E-08 1.12968E-03 2.73011E-13-4.16592E-13
 -1       946 2.00007E+01-1.39492E-03 1.88670E-08 9.09907E-04 2.04015E-13-3.15040E-13
 -1       947 1.80887E+01-6.80470E-01 1.44525E-02 3.43645E+00-3.30924E-13 2.03227E-14
 -1       948 1.85342E+01 7.30224E-01-9.24853E-04 1.45594E+00 5.59625E-15-5.25944E-14
 -1       949 1.92700E+01 7.42491E-01-5.48729E-05 7.16420E-01-1.63417E-14 2.45990E-14
 -1       950 1.94458E+01 6.61622E-01-4.51659E-05 5.71275E-01-8.29973E-14 1.06389E-14
 -1       951 1.95875E+01 5.70724E-01-3.63021E-05 4.53241E-01-4.70098E-14 1.28991E-13
 -1       952 1.96993E+01 4.79594E-01-2.82906E-05 3.56336E-01-5.85043E-14 1.10382E-13
 -1       953 1.97859E+01 3.94129E-01-2.17112E-05 2.76802E-01-7.52127E-15 1.90728E-13
 -1       954 1.98516E+01 3.17518E-01-1.64875E-05 2.11975E-01-8.83505E-14 2.96858E-13
 -1       955 1.99006E+01 2.51119E-01-1.23667E-05 1.59718E-01-1.24993E-15 2.23215E-13
 -1       956 1.99364E+01 1.95100E-01-9.12792E-06 1.18158E-01-7.60401E-14 2.18829E-13
 -1       957 1.99620E+01 1.48900E-01-6.60363E-06 8.56023E-02-1.57113E-13 1.36733E-13
 -1       958 1.99798E+01 1.11558E-01-4.66184E-06 6.05112E-02-1.20159E-13 6.31900E-14
 -1       959 1.99918E+01 8.19322E-02-3.19249E-06 4.15086E-02-6.86910E-15 8.86471E-14
 -1       960 1.99995E+01 5.88443E-02-2.10153E-06 2.73876E-02 1.74257E-14 1.09398E-13
 -1       961 2.00041E+01 4.11688E-02-1.30873E-06 1.71132E-02-1.00284E-13 7.59947E-14
 -1       962 2.00067E+01 2.78832E-02-7.46703E-07 9.81717E-03-4.22420E-14-5.81019E-14
 -1       963 2.00077E+01 1.80918E-02-3.59991E-07 4.78528E-03-1.18730E-15 1.32475E-13
 -1       964 2.00079E+01 1.10325E-02-1.03831E-07 1.44181E-03 2.84105E-14 2.12281E-13
 -1       965 2.00075E+01 6.07154E-03 5.71767E-08-6.68818E-04-1.95392E-13 4.38284E-13
 -1       966 2.00067E+01 2.69304E-03 1.50498E-07-1.90059E-03 4.20262E-15 3.35131E-13
 -1       967 2.00058E+01 4.84967E-04 1.97038E-07-2.52345E-03 4.52372E-14 2.02650E-13
 -1       968 2.00049E+01-8.75948E-04 2.12390E-07-2.73934E-03 1.45967E-13 5.54157E-14
 -1       969 2.00040E+01-1.63887E-03 2.07912E-07-2.69618E-03 9.95774E-14 3.20748E-13
 -1       970 2.00032E+01-1.99245E-03 1.91605E-07-2.49980E-03 7.47908E-14 1.67451E-13
 -1       971 2.00025E+01-2.07692E-03 1.69025E-07-2.22382E-03 1.98335E-13 3.51079E-13
 -1       972 2.00019E+01-1.99439E-03 1.45002E-07-1.91767E-03 1.67657E-13 3.55537E-13
 -1       973 2.00014E+01-1.81767E-03 1.28288E-07-1.61309E-03 1.50810E-14 2.30663E-14
 -1       974 2.00010E+01-1.59769E-03 1.06232E-07-1.32900E-03-1.23086E-14 3.25285E-14
 -1       975 2.00006E+01-1.36912E-03 1.14953E-07-1.07712E-03-1.20904E-13 8.00779E-14
 -1       976 2.00005E+01-1.22742E-03-6.09742E-08-8.86064E-04-2.53292E-13 1.58406E-13
 -1       977 2.00005E+01-1.23367E-03 1.29826E-07-4.69091E-04 1.01850E-13-2.18854E-13
 -1       978 1.90576E+01 7.97959E-01-7.73921E-05 8.98818E-01-1.38818E-13 4.62110E-14
 -1       979 1.82596E+01 5.15384E-01-6.68528E-04 1.90604E+00-1.51725E-13-8.42781E-14
 -1       980 1.80485E+01 9.06807E-02 2.30518E-03 2.54341E+00-2.24597E-13-4.04792E-14
 -1       981 1.88099E+01 8.05014E-01-1.77631E-04 1.13554E+00 4.63504E-14 2.92812E-14
 -1       982 2.00008E+01-1.39227E-03 2.15263E-07-5.94513E-04-7.52150E-14-2.89378E-13
 -1       983 1.57616E+01 8.23175E-01 1.10709E-02 2.19385E+00-1.84520E-13 4.74043E-14
 -1       984 1.49889E+01 1.46253E+00 1.01317E-02 2.35061E-01 2.08581E-14 9.29231E-14
 -1       985 2.00010E+01-1.53223E-03 3.08792E-08 5.49993E-07 3.55406E-13 4.18972E-13
 -1       986 2.00009E+01-1.49021E-03-2.16808E-07 3.90636E-04 3.64547E-13-5.71733E-13
 -1       987 1.70076E+01 7.64723E-01 3.26861E-03-1.86268E+00 1.22399E-13 1.07125E-13
 -1       988 1.93386E+01 7.04923E-01-1.36688E-04 3.63633E-01-6.28721E-14-1.90467E-14
 -1       989 2.00009E+01-1.48794E-03-2.13171E-07-3.11884E-04 2.00552E-13-9.75107E-14
 -1       990 1.69175E+01 4.28796E-01 1.52756E-03 2.48949E+00-1.88496E-13 4.25185E-14
 -1       991 1.77609E+01 9.15638E-01-5.92884E-04-1.25524E+00 6.37983E-14 1.30808E-14
 -1       992 1.82195E+01 9.52367E-01-2.35217E-04-9.21438E-01 2.21864E-14 9.02416E-14
 -1       993 1.86002E+01 9.26806E-01-1.98664E-04-6.90914E-01-2.23934E-14 5.22715E-14
 -1       994 1.89102E+01 8.60539E-01-1.38614E-04-5.27052E-01-1.25046E-13-1.76887E-15
 -1       995 1.91606E+01 7.72001E-01-1.08998E-04-4.06104E-01-1.33255E-13-5.01068E-14
 -1       996 1.93619E+01 6.73162E-01-8.40951E-05-3.13944E-01-1.68806E-13-8.05848E-14
 -1       997 1.95225E+01 5.72693E-01-6.59703E-05-2.42249E-01-8.50495E-14-2.02059E-13
 -1       998 1.96492E+01 4.76618E-01-5.28292E-05-1.85819E-01-1.90062E-15-2.96045E-13
 -1       999 1.97477E+01 3.88741E-01-4.27543E-05-1.41222E-01 3.11004E-14-1.34910E-13
 -1      1000 1.98232E+01 3.11110E-01-3.45990E-05-1.06040E-01 1.04112E-13 1.47662E-14
 -1      1001 1.98800E+01 2.44466E-01-2.77916E-05-7.84583E-02 8.77458E-14 3.43375E-14
 -1      1002 1.99220E+01 1.88640E-01-2.20590E-05-5.70369E-02-6.81279E-15-2.80591E-14
 -1      1003 1.99523E+01 1.42883E-01-1.72557E-05-4.05961E-02-2.78323E-14-1.74026E-13
 -1      1004 1.99737E+01 1.06120E-01-1.32799E-05-2.81523E-02-8.35566E-14-2.71840E-13
 -1      1005 1.99883E+01 7.71359E-02-1.00399E-05-1.88830E-02-3.56594E-14-2.68749E-13
 -1      1006 1.99978E+01 5.47026E-02-7.44402E-06-1.21036E-02 3.72850E-14-2.69729E-13
 -1      1007 2.00037E+01 3.76607E-02-5.40055E-06-7.25003E-03 6.55470E-14-3.64212E-13
 -1      1008 2.00070E+01 2.49651E-02-3.82070E-06-3.86341E-03 1.07535E-13-1.33128E-13
 -1      1009 2.00085E+01 1.57063E-02-2.62194E-06-1.57546E-03 9.28903E-14 1.47328E-13
 -1      1010 2.00089E+01 9.11516E-03-1.73021E-06-9.51048E-05-4.96980E-14 1.10671E-13
 -1      1011 2.00085E+01 4.55623E-03-1.08115E-06 8.04211E-04-4.42112E-14-1.90365E-14
 -1      1012 2.00078E+01 1.51583E-03-6.20312E-07 1.29596E-03-9.43190E-15-6.30945E-16
 -1      1013 2.00068E+01-4.13429E-04-3.02736E-07 1.51070E-03-5.84336E-14-2.43044E-13
 -1      1014 2.00057E+01-1.54867E-03-9.21644E-08 1.54480E-03 7.39902E-14-4.46026E-13
 -1      1015 2.00047E+01-2.13229E-03 3.98265E-08 1.46794E-03 8.47960E-14-3.52123E-13
 -1      1016 2.00038E+01-2.34611E-03 1.14438E-07 1.32920E-03-1.89346E-14-2.14082E-13
 -1      1017 2.00030E+01-2.32393E-03 1.48757E-07 1.16209E-03-4.41682E-14-1.21424E-13
 -1      1018 2.00023E+01-2.16183E-03 2.13179E-07 9.88228E-04 2.02690E-13-7.63738E-14
 -1      1019 2.00017E+01-1.92650E-03 4.43434E-07 8.23817E-04-2.50459E-14-3.71201E-13
 -1      1020 2.00012E+01-1.66934E-03 8.93022E-07 6.74218E-04 3.21456E-13-4.81770E-13
 -1      1021 1.91214E+01 8.13407E-01-1.78027E-04 4.56779E-01-3.81148E-14 6.53842E-14
 -1      1022 1.96417E+01 4.95118E-01-8.28548E-05 2.26117E-01-8.92734E-14 7.04973E-14
 -1      1023 1.97438E+01 4.02902E-01-6.52185E-05 1.75272E-01-1.89888E-13 9.98236E-14
 -1      1024 1.98212E+01 3.22010E-01-5.12752E-05 1.33850E-01-1.00473E-13 5.64208E-14
 -1      1025 1.98791E+01 2.52907E-01-4.00320E-05 1.00492E-01 6.00138E-15 1.99400E-13
 -1      1026 1.99215E+01 1.95214E-01-3.09092E-05 7.40049E-02-1.70692E-14 1.51668E-13
 -1      1027 1.99521E+01 1.48022E-01-2.35337E-05 5.33032E-02-1.27093E-13 1.87503E-13
 -1      1028 1.99735E+01 1.10143E-01-1.76281E-05 3.73963E-02-4.85626E-15-2.26919E-14
 -1      1029 1.99881E+01 8.02798E-02-1.29604E-05 2.53953E-02-4.35635E-14 9.40151E-14
 -1      1030 1.99976E+01 5.71495E-02-9.32583E-06 1.65197E-02 4.79071E-14 1.62310E-13
 -1      1031 2.00035E+01 3.95520E-02-6.54136E-06 1.01003E-02 1.04519E-13 8.06426E-15
 -1      1032 2.00068E+01 2.64134E-02-4.44536E-06 5.57602E-03 1.13644E-14-1.37853E-13
 -1      1033 2.00083E+01 1.68025E-02-2.89769E-06 2.48644E-03 3.79234E-14-1.38310E-13
 -1      1034 2.00087E+01 9.93311E-03-1.77932E-06 4.61306E-04-1.67571E-13-1.74662E-13
 -1      1035 2.00084E+01 5.15635E-03-9.91258E-07-7.91406E-04-1.43920E-13-1.75081E-13
 -1      1036 2.00076E+01 1.94727E-03-4.52773E-07-1.49768E-03 2.85348E-14-2.43336E-14
 -1      1037 2.00067E+01-1.10887E-04-9.92359E-08-1.82907E-03 7.95259E-14 3.73244E-14
 -1      1038 2.00056E+01-1.34312E-03 1.20190E-07-1.91319E-03 2.33314E-13 6.04993E-14
 -1      1039 2.00046E+01-1.99839E-03 2.44854E-07-1.84296E-03 1.92990E-13 8.71818E-14
 -1      1040 2.00037E+01-2.26400E-03 3.04852E-07-1.68432E-03 2.31502E-13 2.67633E-14
 -1      1041 2.00029E+01-2.27823E-03 3.24469E-07-1.48269E-03 2.72969E-13-1.39242E-13
 -1      1042 2.00022E+01-2.14095E-03 3.45117E-07-1.26798E-03 2.19592E-13-1.25833E-13
 -1      1043 2.00016E+01-1.92207E-03 2.77871E-07-1.05958E-03 2.15511E-14-1.03566E-14
 -1      1044 2.00012E+01-1.67268E-03-1.30277E-07-8.69049E-04 1.99507E-14-4.59031E-14
 -1      1045 2.00009E+01-1.53066E-03-3.95989E-07-7.22693E-04-1.59669E-13-1.05330E-13
 -1      1046 1.75150E+01 1.02583E+00 3.02436E-04 1.26392E+00-1.10477E-13-6.20290E-14
 -1      1047 1.59816E+01 1.19882E+00 3.91140E-03 1.27021E+00-1.05047E-13 3.58699E-14
 -1      1048 1.62638E+01 1.25947E+00 2.39227E-03-9.15406E-01 6.95785E-14 1.25852E-13
 -1      1049 1.88463E+01 9.13949E-01-2.36647E-04 5.74778E-01-4.07545E-14 9.85242E-14
 -1      1050 1.71671E+01 8.29793E-01 8.96589E-04 1.77988E+00-9.88377E-14-6.79949E-14
 -1      1051 1.84988E+01 9.94346E-01-3.60956E-04 7.31186E-01-6.53696E-14 1.33302E-13
 -1      1052 1.80621E+01 1.03672E+00-4.14892E-04 9.49562E-01-4.18544E-14-2.51963E-15
 -1      1053 1.95091E+01 5.96938E-01-1.05864E-04 2.88089E-01-3.03441E-14-6.37706E-14
 -1      1054 2.00013E+01-1.74728E-03 8.05901E-07-2.26409E-04 2.96499E-13 3.99440E-13
 -1      1055 1.63194E+01 1.39444E+00 2.82100E-03 2.17717E-02-4.37927E-14-7.24556E-14
 -1      1056 2.00013E+01-1.74721E-03-1.10314E-06 2.35747E-04 1.09422E-13-8.51756E-14
 -1      1057 2.00012E+01-1.65066E-03-6.91344E-08-4.87527E-04 7.70580E-14 2.13850E-13
 -1      1058 1.98194E+01 3.09228E-01 3.66678E-05 6.25495E-02-7.71088E-14-1.55738E-13
 -1      1059 1.75146E+01 1.19271E+00-3.26931E-03-5.75611E-01 4.49282E-14-7.95578E-14
 -1      1060 1.79443E+01 1.17097E+00-3.24856E-04 3.97319E-01-7.30832E-14-8.65707E-14
 -1      1061 1.80945E+01 1.11367E+00 2.66905E-05-4.04997E-01 5.94861E-14-1.11804E-13
 -1      1062 1.85382E+01 1.01383E+00-1.59050E-04-2.97780E-01-5.85222E-14 3.10982E-14
 -1      1063 1.88814E+01 9.03303E-01-1.26139E-04-2.21142E-01-2.58760E-13 6.16608E-14
 -1      1064 1.91503E+01 7.87260E-01-9.29977E-05-1.65505E-01-1.53195E-13-3.55839E-14
 -1      1065 1.93615E+01 6.71853E-01-6.73465E-05-1.24338E-01-1.38540E-13 7.55422E-14
 -1      1066 1.95270E+01 5.62075E-01-4.74718E-05-9.33923E-02-3.28496E-14 9.48649E-14
 -1      1067 1.96557E+01 4.61437E-01-3.20509E-05-6.98787E-02 6.91949E-14-8.53483E-15
 -1      1068 1.97546E+01 3.72019E-01-2.02560E-05-5.19127E-02 1.70438E-13-2.14723E-14
 -1      1069 1.98296E+01 2.94683E-01-1.14746E-05-3.81727E-02 8.66875E-14-1.00792E-13
 -1      1070 1.98857E+01 2.29370E-01-5.17320E-06-2.76955E-02-9.33348E-14-2.20062E-13
 -1      1071 1.99267E+01 1.75379E-01-8.60589E-07-1.97558E-02-1.33967E-13-2.56031E-13
 -1      1072 1.99561E+01 1.31620E-01 1.90953E-06-1.37932E-02-1.52251E-13-2.79294E-13
 -1      1073 1.99767E+01 9.68114E-02 3.52656E-06-9.36750E-03-7.50446E-15-4.38879E-13
 -1      1074 1.99906E+01 6.96194E-02 4.31567E-06-6.12947E-03 3.26112E-14-3.48762E-13
 -1      1075 1.99995E+01 4.87594E-02 4.53735E-06-3.80163E-03 7.19063E-14-2.77590E-13
 -1      1076 2.00049E+01 3.30538E-02 4.39238E-06-2.16386E-03 2.45259E-13-3.36967E-13
 -1      1077 2.00079E+01 2.14634E-02 4.02981E-06-1.04253E-03 1.32259E-13-3.71934E-13
 -1      1078 2.00091E+01 1.30979E-02 3.55611E-06-3.01850E-04-6.63439E-14-5.30021E-13
 -1      1079 2.00093E+01 7.21412E-03 3.04413E-06 1.63286E-04-1.58277E-13-5.05994E-13
 -1      1080 2.00088E+01 3.20452E-03 2.54108E-06 4.33248E-04-5.19124E-14-5.61247E-13
 -1      1081 2.00079E+01 5.82573E-04 2.07532E-06 5.68631E-04-2.98542E-14-5.82506E-13
 -1      1082 2.00068E+01-1.03419E-03 1.66185E-06 6.14402E-04-5.53876E-14-3.21375E-13
 -1      1083 2.00058E+01-1.94103E-03 1.30678E-06 6.03321E-04 3.05820E-13-3.43659E-13
 -1      1084 2.00047E+01-2.36175E-03 1.01130E-06 5.58754E-04 2.16163E-13-2.04052E-13
 -1      1085 2.00038E+01-2.46281E-03 7.76298E-07 4.96979E-04 2.47818E-13-7.47857E-16
 -1      1086 2.00029E+01-2.36557E-03 5.91704E-07 4.29133E-04 2.29000E-13 2.93723E-13
 -1      1087 2.00022E+01-2.15755E-03 2.66756E-07 3.62821E-04-2.41112E-13 1.06387E-13
 -1      1088 2.00017E+01-1.95886E-03-1.92758E-06 2.93907E-04-4.56104E-14-6.39208E-14
 -1      1089 1.90987E+01 8.22938E-01 1.36712E-04 2.05652E-01-8.43451E-14 4.91660E-14
 -1      1090 1.84348E+01 1.06374E+00 2.06573E-04 3.15414E-01-3.33193E-14-2.14044E-13
 -1      1091 1.97405E+01 3.89713E-01 4.74401E-05 8.17431E-02-7.73867E-15-1.72399E-14
 -1      1092 1.96362E+01 4.82757E-01 6.10803E-05 1.05004E-01-1.02656E-13 1.73535E-13
 -1      1093 1.98783E+01 2.41202E-01 2.80561E-05 4.69578E-02-4.89531E-14-8.44858E-14
 -1      1094 1.99215E+01 1.84898E-01 2.11661E-05 3.45109E-02-1.81870E-13 1.92984E-16
 -1      1095 1.99524E+01 1.39190E-01 1.56923E-05 2.47557E-02-5.01355E-14-5.02044E-14
 -1      1096 1.99741E+01 1.02756E-01 1.13954E-05 1.72553E-02-1.26606E-13 8.09198E-14
 -1      1097 1.99888E+01 7.42257E-02 8.07310E-06 1.16036E-02-1.62759E-14 1.03066E-13
 -1      1098 1.99984E+01 5.22782E-02 5.54868E-06 7.43638E-03 1.05297E-13 3.70019E-15
 -1      1099 2.00042E+01 3.57001E-02 3.66733E-06 4.43691E-03 3.06683E-14 4.00959E-15
 -1      1100 2.00075E+01 2.34192E-02 2.29529E-06 2.33768E-03 3.38270E-14-1.29844E-13
 -1      1101 2.00089E+01 1.45151E-02 1.31924E-06 9.18329E-04 5.42303E-15-1.05902E-13
 -1      1102 2.00092E+01 8.21726E-03 6.45176E-07 1.39389E-06-1.06297E-13-8.54019E-14
 -1      1103 2.00088E+01 3.89450E-03 1.96789E-07-5.52985E-04-1.05178E-13-1.91195E-14
 -1      1104 2.00080E+01 1.03985E-03-8.66260E-08-8.52801E-04 1.63799E-15 2.49781E-14
 -1      1105 2.00069E+01-7.46427E-04-2.52350E-07-9.79746E-04 1.48004E-13 1.55018E-14
 -1      1106 2.00059E+01-1.77391E-03-3.36290E-07-9.94306E-04 1.41149E-13 2.48194E-13
 -1      1107 2.00048E+01-2.27806E-03-3.64502E-07-9.40247E-04 3.76552E-13 1.80528E-14
 -1      1108 2.00039E+01-2.43472E-03-3.54424E-07-8.48430E-04 4.30549E-13 5.04834E-14
 -1      1109 2.00030E+01-2.37266E-03-3.24372E-07-7.40035E-04 1.97225E-13 2.91103E-14
 -1      1110 2.00023E+01-2.18457E-03-2.89471E-07-6.29137E-04 3.20384E-15 1.40050E-13
 -1      1111 1.88089E+01 9.45408E-01 1.81924E-04 2.54067E-01-7.22193E-14-1.80226E-13
 -1      1112 1.73262E+01 1.25282E+00-3.95009E-04 5.12645E-01-7.87679E-14-3.65606E-14
 -1      1113 2.00017E+01-1.93240E-03-6.63911E-08-5.21801E-04-5.65756E-14 2.73016E-13
 -1      1114 1.93244E+01 7.02066E-01 1.02872E-04 1.65999E-01-4.26446E-14 1.87688E-13
 -1      1115 1.95002E+01 5.87544E-01 7.88244E-05 1.32852E-01-1.77756E-13 2.03974E-13
 -1      1116 3.52209E+01 1.14048E+01 2.79498E+00-8.50826E+00-7.14984E-14 1.56625E-12
 -1      1117 2.54825E+01 7.72398E+00 2.64051E-01-4.75202E+00-2.65898E-14-5.61703E-14
 -1      1118 2.35139E+01 7.10985E+00 1.85550E-01-3.23769E+00-1.44607E-14-6.24268E-13
 -1      1119 2.20883E+01 6.70378E+00 2.57600E-01-1.77278E+00-4.05231E-15-8.25945E-13
 -1      1120 2.00769E+01 6.10931E+00 2.87378E-01-1.72427E-01 4.21885E-15-8.73414E-13
 -1      1121 1.70345E+01 5.17091E+00 2.01833E-01 1.27892E+00 8.49321E-15-8.56685E-13
 -1      1122 1.31955E+01 3.95443E+00-1.40329E-02 2.04383E+00 1.07692E-14-8.36328E-13
 -1      1123 9.68387E+00 2.82377E+00-2.71255E-01 1.66332E+00 7.99361E-15-8.26813E-13
 -1      1124 8.05817E+00 2.29229E+00-4.17168E-01 4.61369E-01 2.33147E-15-8.23931E-13
 -1      1125 8.77756E+00 2.52852E+00-3.49110E-01-8.27362E-01-2.96985E-15-8.29590E-13
 -1      1126 1.13278E+01 3.35479E+00-1.45189E-01-1.62902E+00-2.88658E-15-8.26534E-13
 -1      1127 1.50491E+01 4.54017E+00 8.47845E-02-1.47306E+00-1.72085E-15-7.83951E-13
 -1      1128 1.88302E+01 5.72337E+00 2.47687E-01-3.30130E-01 3.10862E-15-6.75592E-13
 -1      1129 2.16966E+01 6.59151E+00 2.75049E-01 1.27520E+00 9.15934E-15-4.74891E-13
 -1      1130 2.38170E+01 7.21217E+00 2.23497E-01 2.89110E+00 1.77636E-14-8.30898E-14
 -1      1131 2.62146E+01 7.94090E+00 2.54980E-01 4.56740E+00 2.69784E-14 6.53651E-13
 -1      1132 3.33998E+01 1.05918E+01 1.90612E+00 7.37158E+00 6.57252E-14 2.22530E-12
 -1      1133 3.77462E+01 4.93541E+00 1.91398E+00-5.40878E+00-2.85688E-13 2.66520E-12
 -1      1134 2.58298E+01-2.81265E-01-7.92385E-01 3.36546E-03-8.79782E-14 2.02807E-12
 -1      1135 2.33268E+01-8.00883E-02-2.26435E-01 2.52332E-02-4.04399E-14 1.18630E-12
 -1      1136 2.13917E+01-5.39050E-02-6.54419E-02-3.26704E-02-1.91366E-14 6.59871E-13
 -1      1137 1.97348E+01-7.39239E-02-8.97570E-02-3.89500E-02-1.53324E-14 2.90865E-13
 -1      1138 1.87392E+01-9.43984E-02-1.31552E-01-5.77129E-03 1.16122E-14 7.95787E-14
 -1      1139 1.86944E+01-8.47625E-02-1.24592E-01 4.29749E-02-7.03430E-15-1.43621E-13
 -1      1140 1.95332E+01-4.52554E-02-6.71649E-02 7.82353E-02 1.66056E-15-2.65787E-13
 -1      1141 2.08455E+01 1.55762E-03 4.87653E-03 8.43518E-02-1.26837E-14-3.89785E-13
 -1      1142 2.21278E+01 3.36730E-02 5.53502E-02 6.58409E-02-1.48336E-14-5.96391E-13
 -1      1143 2.30307E+01 4.42556E-02 7.16579E-02 3.76907E-02-1.19206E-14-7.16857E-13
 -1      1144 2.34425E+01 3.89323E-02 6.21658E-02 1.27072E-02 1.41185E-14-5.94642E-13
 -1      1145 2.34290E+01 2.66740E-02 4.17058E-02-3.64976E-03-2.06900E-14-7.32360E-13
 -1      1146 2.31299E+01 1.40849E-02 2.13603E-02-1.16263E-02-3.57592E-15-8.90640E-13
 -1      1147 2.26838E+01 4.25899E-03 6.11370E-03-1.37897E-02-9.09320E-16-8.59757E-13
 -1      1148 2.21948E+01-2.15655E-03-3.31747E-03-1.27731E-02-2.40158E-14-8.73397E-13
 -1      1149 2.17277E+01-5.67727E-03-8.10728E-03-1.04432E-02 1.07694E-15-8.62872E-13
 -1      1150 2.13162E+01-7.14011E-03-9.81072E-03-7.87202E-03-4.44913E-15-7.86943E-13
 -1      1151 2.09726E+01-7.31212E-03-9.72242E-03-5.56649E-03 1.84119E-14-8.67345E-13
 -1      1152 2.06969E+01-6.76723E-03-8.73468E-03-3.70361E-03 1.42624E-14-7.62869E-13
 -1      1153 2.04826E+01-5.88835E-03-7.39521E-03-2.29435E-03-2.36110E-14-8.00554E-13
 -1      1154 2.03208E+01-4.90989E-03-6.01031E-03-1.28000E-03 1.72848E-14-7.36634E-13
 -1      1155 2.02017E+01-3.96357E-03-4.73420E-03-5.81840E-04 2.01495E-14-4.83192E-13
 -1      1156 2.01165E+01-3.11526E-03-3.63193E-03-1.23894E-04-5.49216E-14-8.17642E-13
 -1      1157 2.00574E+01-2.39091E-03-2.71938E-03 1.58531E-04-6.23552E-15-8.74724E-13
 -1      1158 2.00180E+01-1.79369E-03-1.98719E-03 3.16989E-04 1.70950E-14-5.08018E-13
 -1      1159 1.99930E+01-1.31473E-03-1.41453E-03 3.90892E-04 2.33395E-14-4.03035E-13
 -1      1160 1.99783E+01-9.39577E-04-9.76702E-04 4.09455E-04 4.49441E-14-6.89611E-13
 -1      1161 1.99709E+01-6.52047E-04-6.49218E-04 3.93766E-04 1.45404E-14-6.16706E-13
 -1      1162 1.99682E+01-4.36307E-04-4.09735E-04 3.58650E-04-6.60696E-15-7.68968E-13
 -1      1163 1.99686E+01-2.77965E-04-2.38899E-04 3.14222E-04-3.81257E-14-1.01396E-12
 -1      1164 1.99709E+01-1.64531E-04-1.20519E-04 2.67126E-04 6.72375E-14-7.86067E-13
 -1      1165 1.99741E+01-8.55271E-05-4.14094E-05 2.21505E-04-1.19322E-14-7.20649E-13
 -1      1166 1.99777E+01-3.23903E-05 8.92367E-06 1.79740E-04-5.03078E-15-1.00944E-12
 -1      1167 1.99813E+01 1.71930E-06 3.86658E-05 1.43008E-04-1.16085E-14-1.27157E-12
 -1      1168 1.99846E+01 2.21564E-05 5.40782E-05 1.11686E-04 4.69690E-14-9.11869E-13
 -1      1169 1.99876E+01 3.30321E-05 5.98573E-05 8.56528E-05 4.16924E-14-9.10789E-13
 -1      1170 1.99902E+01 3.74425E-05 5.94547E-05 6.44946E-05-3.54258E-15-6.17785E-13
 -1      1171 1.99924E+01 3.76733E-05 5.53512E-05 4.76499E-05-3.30986E-14-4.90853E-13
 -1      1172 1.99942E+01 3.53773E-05 4.92862E-05 3.45056E-05-2.26644E-14-5.96957E-13
 -1      1173 1.99957E+01 3.17226E-05 4.24458E-05 2.44563E-05-7.52350E-14-8.09758E-13
 -1      1174 1.99968E+01 2.75159E-05 3.56160E-05 1.69382E-05 1.78180E-15-1.31725E-12
 -1      1175 1.99977E+01 2.33016E-05 2.93080E-05 1.14426E-05 2.18553E-14-9.68554E-13
 -1      1176 1.99984E+01 1.94415E-05 2.38637E-05 7.51253E-06-8.53382E-14-8.26450E-13
 -1      1177 1.99990E+01 1.61711E-05 1.95461E-05 4.71900E-06-2.15024E-14-7.87047E-13
 -1      1178 1.99993E+01 1.36297E-05 1.65877E-05 2.60812E-06 2.92845E-14-3.25443E-13
 -1      1179 1.99996E+01 1.18373E-05 1.50330E-05 6.01910E-07-2.05911E-14-2.19274E-13
 -1      1180 1.99998E+01 1.03616E-05 1.38958E-05-2.15574E-06 2.45810E-14 1.37889E-13
 -1      1181 1.99998E+01 9.61494E-06 8.13891E-06-7.26738E-06 2.55124E-14 2.29975E-13
 -1      1182 1.99998E+01-5.54976E-06-1.27242E-05-5.19951E-06 5.22859E-14 2.80319E-13
 -1      1183 3.76721E+01 8.00329E-01 6.21479E-01 2.58442E+00-3.37855E-14 3.56493E-12
 -1      1184 2.75170E+01-2.67089E-02-6.18589E-01 1.36272E-01 1.27745E-14 3.00182E-12
 -1      1185 2.49222E+01-1.66089E-02-1.46454E-01 3.87827E-02 2.33286E-14 2.44900E-12
 -1      1186 2.25946E+01-3.91097E-02-3.83101E-02 7.12929E-02 2.20171E-14 1.92604E-12
 -1      1187 2.04685E+01-7.63041E-02-9.42985E-02 9.58084E-02 4.75748E-15 1.63848E-12
 -1      1188 1.91173E+01-8.77394E-02-1.56242E-01 7.89702E-02-1.44051E-14 1.52984E-12
 -1      1189 1.89933E+01-6.21351E-02-1.50529E-01 2.31586E-02 8.81760E-15 1.33595E-12
 -1      1190 2.00137E+01-1.90852E-02-7.86473E-02-3.95029E-02-5.44269E-15 1.26305E-12
 -1      1191 2.15958E+01 1.48301E-02 7.67380E-03-7.61832E-02 3.91047E-14 1.01122E-12
 -1      1192 2.30576E+01 2.92698E-02 6.23495E-02-7.77637E-02-1.33183E-14 8.70540E-13
 -1      1193 2.39783E+01 2.84386E-02 7.49142E-02-5.66888E-02-1.22029E-14 8.51527E-13
 -1      1194 2.42768E+01 2.05534E-02 6.01021E-02-3.00558E-02 3.37573E-14 6.65053E-13
 -1      1195 2.40875E+01 1.16346E-02 3.66216E-02-8.52720E-03-1.45316E-14 4.71094E-13
 -1      1196 2.36083E+01 4.47616E-03 1.60273E-02 4.84396E-03 3.00663E-14 3.89596E-13
 -1      1197 2.30094E+01-2.93923E-04 2.17146E-03 1.12401E-02 4.82551E-15 3.32796E-13
 -1      1198 2.24049E+01-3.00395E-03-5.45197E-03 1.30554E-02-1.77727E-14 3.75758E-13
 -1      1199 2.18572E+01-4.24480E-03-8.71583E-03 1.23799E-02-1.39358E-14 3.00553E-13
 -1      1200 2.13924E+01-4.55746E-03-9.40246E-03 1.06165E-02-7.08449E-14 4.06676E-13
 -1      1201 2.10154E+01-4.34341E-03-8.77154E-03 8.56706E-03 9.54624E-15 1.80251E-13
 -1      1202 2.07195E+01-3.86890E-03-7.58686E-03 6.62944E-03-5.73868E-16 1.76313E-14
 -1      1203 2.04937E+01-3.29719E-03-6.26450E-03 4.96594E-03-1.78133E-14 1.51074E-13
 -1      1204 2.03255E+01-2.72146E-03-5.00914E-03 3.61549E-03 1.71744E-14-3.00713E-13
 -1      1205 2.02031E+01-2.19034E-03-3.90739E-03 2.55933E-03-3.38442E-14-4.07929E-13
 -1      1206 2.01164E+01-1.72549E-03-2.98414E-03 1.75623E-03-1.51333E-14-1.71140E-13
 -1      1207 2.00567E+01-1.33302E-03-2.23418E-03 1.16000E-03-2.16321E-14 2.76201E-14
 -1      1208 2.00172E+01-1.01055E-03-1.63917E-03 7.27378E-04 2.24550E-14-2.13298E-13
 -1      1209 1.99922E+01-7.51405E-04-1.17633E-03 4.21013E-04 4.07689E-14-5.15103E-13
 -1      1210 1.99777E+01-5.47196E-04-8.22813E-04 2.10099E-04-3.33355E-14-5.61127E-13
 -1      1211 1.99704E+01-3.89197E-04-5.57625E-04 6.99620E-05 4.21495E-14-6.28398E-13
 -1      1212 1.99679E+01-2.69145E-04-3.62459E-04-1.87320E-05-5.04817E-14-5.47481E-13
 -1      1213 1.99684E+01-1.79622E-04-2.21840E-04-7.08619E-05 1.35312E-14-7.28852E-13
 -1      1214 1.99707E+01-1.14207E-04-1.23003E-04-9.76849E-05-4.17491E-14-7.48728E-13
 -1      1215 1.99740E+01-6.74965E-05-5.56212E-05-1.07573E-04 1.85625E-14-8.28336E-13
 -1      1216 1.99776E+01-3.50439E-05-1.14851E-05-1.06637E-04-8.13380E-14-5.12413E-13
 -1      1217 1.99812E+01-1.32614E-05 1.58232E-05-9.92428E-05-2.83437E-15-3.60988E-13
 -1      1218 1.99846E+01 6.92961E-07 3.12389E-05-8.84321E-05-5.72697E-14-4.35263E-13
 -1      1219 1.99876E+01 9.03203E-06 3.84932E-05-7.62564E-05-4.02096E-14-4.47552E-13
 -1      1220 1.99902E+01 1.34498E-05 4.03560E-05-6.40421E-05 6.87256E-15-4.68615E-13
 -1      1221 1.99924E+01 1.52213E-05 3.88443E-05-5.25957E-05 6.74676E-14-5.11988E-13
 -1      1222 1.99942E+01 1.52908E-05 3.53961E-05-4.23607E-05-4.96402E-14-1.10614E-13
 -1      1223 1.99957E+01 1.43476E-05 3.10150E-05-3.35357E-05 9.67711E-15-1.04528E-13
 -1      1224 1.99968E+01 1.28907E-05 2.63893E-05-2.61619E-05 4.19649E-14-3.53750E-14
 -1      1225 1.99977E+01 1.12850E-05 2.19931E-05-2.01858E-05-6.12964E-14 5.00018E-13
 -1      1226 1.99984E+01 9.80402E-06 1.81734E-05-1.54944E-05 1.43985E-14 3.38006E-13
 -1      1227 1.99990E+01 8.63526E-06 1.52104E-05-1.19280E-05-9.50629E-15-2.49071E-13
 -1      1228 1.99993E+01 7.94337E-06 1.34074E-05-9.27846E-06-2.01173E-14-2.83330E-13
 -1      1229 1.99996E+01 7.78056E-06 1.29398E-05-7.16826E-06-1.40186E-14-4.13139E-13
 -1      1230 1.99998E+01 7.46049E-06 1.26344E-05-4.53474E-06 5.88150E-14-7.78288E-13
 -1      1231 1.99998E+01 3.81158E-06 6.74567E-06 8.27682E-07-8.55582E-15-7.50726E-13
 -1      1232 1.99998E+01-4.65439E-06-1.28754E-05 4.86359E-06 8.11053E-14-1.47339E-13
 -1      1233 1.99998E+01 1.41733E-05-1.18464E-05 4.86655E-06-1.79395E-13-1.27698E-13
 -1      1234 1.99998E+01 3.35851E-05 8.36339E-06 6.09131E-06-7.02077E-13-3.91493E-14
 -1      1235 1.99998E+01-3.42255E-05 1.20814E-05-9.32094E-07-1.50723E-13 4.08211E-14
 -1      1236 1.99998E+01-1.90004E-04 7.84013E-06-5.01348E-06-4.36862E-13 3.35377E-14
 -1      1237 1.99998E+01-3.96783E-04 1.55392E-06-6.71785E-06-9.93596E-13 8.78198E-14
 -1      1238 1.99998E+01-6.10467E-04-4.35515E-06-6.57066E-06-8.08089E-13-1.57421E-13
 -1      1239 1.99998E+01-7.94210E-04-8.97828E-06-5.18685E-06-1.16694E-12-1.02953E-13
 -1      1240 1.99998E+01-9.18605E-04-1.19609E-05-2.80714E-06-1.38045E-12-1.78301E-13
 -1      1241 1.99998E+01-9.61841E-04-1.29675E-05 2.39366E-08-1.08888E-12 3.66170E-14
 -1      1242 1.99998E+01-9.17166E-04-1.19236E-05 2.85236E-06-2.79623E-13 9.80837E-14
 -1      1243 1.99998E+01-7.91593E-04-8.90040E-06 5.21115E-06-9.30860E-13-2.13879E-13
 -1      1244 1.99998E+01-6.07047E-04-4.25751E-06 6.66122E-06-1.89927E-12-8.86323E-14
 -1      1245 1.99998E+01-3.93278E-04 1.62813E-06 6.71082E-06-1.29486E-12 6.31806E-15
 -1      1246 1.99998E+01-1.86902E-04 7.95852E-06 5.05340E-06 3.45676E-13 7.93896E-15
 -1      1247 1.99998E+01-2.98590E-05 1.26080E-05 1.18073E-06 3.44346E-13-5.41741E-14
 -1      1248 1.99998E+01 2.92018E-05 6.86961E-06-1.02525E-05 2.31795E-13-1.26988E-13
 -1      1249 1.99998E+01 1.62976E-05-1.16214E-05-5.89365E-06-1.79629E-13 8.20460E-16
 -1      1250-8.77175E-01-1.93418E+01-3.50770E+00-1.69594E+00 1.31367E-12 2.67786E-13
 -1      1251-1.25676E+00-1.15866E+01-2.88525E+00-2.93986E+00 2.92977E-12 1.08863E-12
 -1      1252 1.40158E+00 1.84067E-01-1.66653E+00 1.53855E+00 3.72546E-12 2.32592E-12
 -1      1253 1.09484E+01 9.45673E+00-6.73142E-02 1.00597E+01 3.23674E-12 3.03957E-12
 -1      1254 2.76530E+01 1.17278E+01 1.67845E+00 1.71193E+01 2.05791E-12 2.91189E-12
 -1      1255 4.67608E+01 8.07113E+00 3.08669E+00 1.76141E+01 8.12350E-13 1.64935E-12
 -1      1256 6.04952E+01 3.12205E+00 3.88091E+00 1.01182E+01 7.97834E-14-6.96110E-14
 -1      1257 6.25494E+01 1.44535E+00 3.85189E+00-1.96673E+00 1.93574E-13-2.09954E-12
 -1      1258 5.19956E+01 4.10902E+00 3.01532E+00-1.20600E+01 1.05138E-12-3.72813E-12
 -1      1259 3.27831E+01 7.90232E+00 1.42490E+00-1.48741E+01 2.40896E-12-4.61142E-12
 -1      1260 1.45716E+01 8.36138E+00-2.28962E-01-1.07188E+01 3.63853E-12-4.40514E-12
 -1      1261 3.67077E+00 4.00726E+00-1.47976E+00-4.01809E+00 4.05576E-12-3.28315E-12
 -1      1262-4.38087E-01-2.65596E+00-2.06859E+00 6.76352E-01 3.56015E-12-1.88566E-12
 -1      1263-8.05864E-01-8.30235E+00-2.18714E+00 1.80743E+00 2.18936E-12-7.04797E-13
 -1      1264-4.39093E-01-1.08535E+01-2.18956E+00 3.46926E-01 2.41029E-13-1.71922E-13
 -1      1265-7.25369E-01-8.74170E+00-2.10735E+00-1.28911E+00-1.83770E-12-5.63438E-13
 -1      1266-5.16350E-01-3.50136E+00-2.04577E+00-8.38675E-01-3.41471E-12-1.60344E-12
 -1      1267 2.77122E+00 3.40393E+00-1.48295E+00 3.28438E+00-3.97649E-12-2.93632E-12
 -1      1268 1.22786E+01 8.27517E+00-4.42774E-01 9.92073E+00-3.61944E-12-4.02300E-12
 -1      1269 2.79615E+01 8.71218E+00 1.00274E+00 1.49055E+01-2.48612E-12-4.18643E-12
 -1      1270 4.59160E+01 5.45698E+00 2.48403E+00 1.40565E+01-1.19227E-12-3.39861E-12
 -1      1271 5.94473E+01 1.99117E+00 3.54279E+00 5.77621E+00-2.51597E-13-1.71629E-12
 -1      1272 6.20411E+01 2.05649E+00 3.92319E+00-6.08408E+00-1.36599E-13 1.75360E-13
 -1      1273 5.27438E+01 5.95061E+00 3.43938E+00-1.51237E+01-6.56475E-13 1.85207E-12
 -1      1274 3.70791E+01 1.03171E+01 2.43656E+00-1.83366E+01-1.58862E-12 2.92610E-12
 -1      1275 2.02720E+01 1.17772E+01 1.02281E+00-1.48986E+01-2.45537E-12 3.05067E-12
 -1      1276 7.42750E+00 7.78071E+00-4.84153E-01-7.61047E+00-2.96341E-12 2.54152E-12
 -1      1277 4.91988E-01-1.39427E+00-1.85423E+00-4.65728E-01-2.68674E-12 1.58473E-12
 -1      1278-1.33563E+00-1.22250E+01-2.96831E+00 2.93264E+00-1.84075E-12 6.78457E-13
 -1      1279-1.03606E+00-1.91710E+01-3.49675E+00 1.64568E+00-5.02987E-13 1.72883E-13
 -1      1280 2.82955E+01 2.23074E+00-9.65652E-01-3.48731E+00-1.33921E-13 1.21281E-12
 -1      1281 2.50870E+01 5.68685E+00-6.68266E-02-4.23991E+00-2.05780E-13-3.47694E-13
 -1      1282 2.65807E+01 5.85725E+00 3.08837E-02-4.99185E+00-1.75387E-13 1.19529E-13
 -1      1283 2.36892E+01 5.58306E+00 3.22699E-02-3.06606E+00-1.30534E-13-7.04027E-13
 -1      1284 2.43025E+01 5.79915E+00-8.81853E-03-3.75172E+00-1.87211E-13-5.62279E-13
 -1      1285 2.53901E+01 4.36620E+00-4.22759E-02-4.10175E+00-3.41012E-13-2.41543E-13
 -1      1286 2.23372E+01 5.07436E+00 8.22260E-02-1.64822E+00-1.20182E-14-8.32480E-13
 -1      1287 2.30624E+01 5.31590E+00 3.79446E-02-2.38660E+00-5.75651E-14-7.94115E-13
 -1      1288 2.40254E+01 4.17694E+00-1.60875E-02-2.96526E+00-1.57450E-13-5.26565E-13
 -1      1289 2.01701E+01 4.37312E+00 8.30304E-02-5.91380E-02 1.08802E-13-8.48162E-13
 -1      1290 2.14029E+01 4.74443E+00 8.70347E-02-8.29322E-01 6.91669E-14-8.55475E-13
 -1      1291 2.25321E+01 3.59477E+00-3.65217E-03-1.53424E+00 3.91145E-14-6.32605E-13
 -1      1292 1.67211E+01 3.69927E+00 1.57441E-02 1.36361E+00 2.13468E-13-8.32587E-13
 -1      1293 1.86335E+01 4.24357E+00 1.25542E-01 7.59378E-01 1.85713E-13-8.57613E-13
 -1      1294 1.99877E+01 3.05912E+00-1.04772E-02 7.05377E-02 2.30059E-13-6.57120E-13
 -1      1295 1.22705E+01 3.34565E+00-9.37377E-02 2.04165E+00 2.68729E-13-8.36387E-13
 -1      1296 1.45826E+01 3.97872E+00 1.20069E-01 1.87395E+00 2.59681E-13-8.53005E-13
 -1      1297 1.59632E+01 2.99628E+00-2.38930E-02 1.47527E+00 3.77032E-13-6.90059E-13
 -1      1298 8.43414E+00 3.44816E+00-1.57170E-01 1.46522E+00 2.12982E-13-8.72621E-13
 -1      1299 1.01594E+01 3.91159E+00 3.99902E-02 1.88399E+00 2.38226E-13-8.78568E-13
 -1      1300 1.11305E+01 3.56696E+00-1.39892E-02 1.97728E+00 4.09769E-13-7.60718E-13
 -1      1301 7.26160E+00 3.70151E+00-1.22577E-01 2.07592E-01 1.00839E-13-9.02861E-13
 -1      1302 7.57135E+00 3.80376E+00-6.17152E-02 7.88085E-01 1.31811E-13-9.03297E-13
 -1      1303 7.58231E+00 4.22795E+00-1.46588E-02 1.27586E+00 2.85667E-13-8.47468E-13
 -1      1304 8.54601E+00 3.85688E+00-3.98883E-02-1.04689E+00-2.52576E-14-9.06891E-13
 -1      1305 7.60157E+00 3.60297E+00-1.33918E-01-5.57597E-01 3.26128E-15-9.05770E-13
 -1      1306 6.82763E+00 4.41113E+00-2.18898E-04-9.50994E-02 9.91533E-14-8.87089E-13
 -1      1307 1.19929E+01 3.93911E+00 6.80479E-02-1.65933E+00-1.01336E-13-8.67920E-13
 -1      1308 1.00642E+01 3.40525E+00-1.32357E-01-1.52223E+00-9.55347E-14-8.74228E-13
 -1      1309 8.87723E+00 4.00922E+00 1.82064E-04-1.29641E+00-8.51610E-14-8.46431E-13
 -1      1310 1.66128E+01 4.10959E+00 1.27424E-01-1.13072E+00-9.64784E-14-7.74766E-13
 -1      1311 1.43084E+01 3.47479E+00-4.94789E-02-1.52202E+00-1.17406E-13-8.06404E-13
 -1      1312 1.31896E+01 3.29649E+00-2.36081E-02-1.54493E+00-1.72168E-13-7.32608E-13
 -1      1313 2.04165E+01 4.53518E+00 1.08714E-01 3.01164E-01-5.49560E-15-6.29795E-13
 -1      1314 1.86627E+01 4.02841E+00 4.85146E-02-4.28433E-01-4.31599E-14-6.98698E-13
 -1      1315 1.80824E+01 2.96799E+00-2.30078E-02-5.57553E-01-1.16393E-13-5.83956E-13
 -1      1316 2.29597E+01 5.15533E+00 5.83968E-02 1.96688E+00 1.07081E-13-4.08236E-13
 -1      1317 2.18178E+01 4.79664E+00 8.12510E-02 1.16969E+00 6.93334E-14-5.37452E-13
 -1      1318 2.17770E+01 3.29396E+00-1.17115E-02 1.05732E+00 4.30975E-14-4.01602E-13
 -1      1319 2.48287E+01 5.77788E+00 1.07587E-02 3.50502E+00 1.98758E-13 7.61197E-15
 -1      1320 2.39151E+01 5.46105E+00 4.54440E-02 2.73876E+00 1.53016E-13-2.39489E-13
 -1      1321 2.41456E+01 3.89356E+00-1.62984E-02 2.65620E+00 2.02012E-13-1.46133E-13
 -1      1322 2.73267E+01 6.12467E+00-6.44896E-03 5.09426E+00 2.08278E-13 8.17790E-13
 -1      1323 2.59161E+01 5.76441E+00-2.59154E-02 4.12948E+00 1.93012E-13 3.28959E-13
 -1      1324 2.61448E+01 4.22356E+00-2.41276E-02 4.01189E+00 3.04971E-13 3.23186E-13
 -1      1325 3.62376E+01 4.26226E+00 1.25816E+00 6.03127E+00 1.12466E-13 2.36389E-12
 -1      1326 2.89122E+01 4.54939E+00-2.29260E-01 4.95209E+00 9.82547E-14 1.29072E-12
 -1      1327 2.88712E+01 3.07696E+00-3.31786E-02 4.58794E+00 3.37525E-13 1.07633E-12
 -1      1328 2.88853E+01 4.24875E-01-9.48556E-01 1.60542E+00 1.92159E-13 2.31115E-12
 -1      1329 2.80639E+01 1.98454E-01-4.35667E-01-1.74270E+00-2.77459E-13 1.41270E-12
 -1      1330 2.61575E+01 3.02951E-01-1.68943E-01-1.35702E+00-2.38864E-13 1.06136E-12
 -1      1331 2.50261E+01 1.14639E-01-6.89007E-02-9.56517E-01-1.87864E-13 9.48620E-13
 -1      1332 2.38093E+01 5.93810E-02-9.61461E-03-9.29965E-01-1.86139E-13 6.66273E-13
 -1      1333 2.60998E+01 3.46818E-01-1.13023E-01-2.39143E+00-4.19727E-13 5.33532E-13
 -1      1334 2.29101E+01 5.23751E-02 1.03278E-02-7.65569E-01-1.44846E-13 5.71493E-13
 -1      1335 2.19862E+01 6.41023E-02 1.50728E-02-7.51518E-01-1.30184E-13 3.72508E-13
 -1      1336 2.40565E+01 1.06046E-01-2.88207E-02-1.69222E+00-3.16469E-13 3.86948E-13
 -1      1337 2.13185E+01 8.40617E-02 1.06089E-02-5.76940E-01-1.17465E-13 2.73897E-13
 -1      1338 2.06648E+01 1.08910E-01 1.71801E-03-5.26486E-01-1.07025E-13 1.29691E-13
 -1      1339 2.25482E+01 1.23961E-01-1.73380E-02-1.30105E+00-2.49649E-13 1.92057E-13
 -1      1340 2.02561E+01 1.27684E-01-4.96960E-03-2.66632E-01-7.12295E-14 5.02888E-14
 -1      1341 1.99947E+01 1.34895E-01-1.02339E-02-1.89516E-01-7.68153E-14-5.30487E-14
 -1      1342 2.14802E+01 1.97206E-01-3.19072E-02-7.77830E-01-1.83690E-13 2.83872E-14
 -1      1343 1.98934E+01 1.31416E-01-1.15445E-02 9.82397E-02-8.37490E-14-1.25240E-13
 -1      1344 2.00652E+01 1.09134E-01-1.04172E-02 1.69873E-01-7.35852E-14-2.28491E-13
 -1      1345 2.09696E+01 2.23186E-01-3.85321E-02-1.05280E-01-1.58314E-13-1.44605E-13
 -1      1346 2.02327E+01 8.45881E-02-7.10519E-03 3.79530E-01-4.22258E-14-2.73059E-13
 -1      1347 2.07244E+01 4.37811E-02-1.76955E-03 4.15854E-01-1.79093E-14-3.20147E-13
 -1      1348 2.10368E+01 1.65617E-01-2.72862E-02 5.04950E-01-1.19984E-13-2.60994E-13
 -1      1349 2.10338E+01 1.57990E-02 1.36125E-03 4.82673E-01-3.34439E-14-3.49186E-13
 -1      1350 2.16333E+01-2.29214E-02 7.45011E-03 4.77228E-01-4.97923E-14-4.25909E-13
 -1      1351 2.15120E+01 5.47342E-02-6.47341E-03 8.37572E-01-7.38615E-14-3.57667E-13
 -1      1352 2.19389E+01-3.87148E-02 6.92342E-03 4.13953E-01-4.98893E-14-4.18013E-13
 -1      1353 2.24480E+01-6.16818E-02 1.15457E-02 3.81542E-01-4.50382E-14-4.97262E-13
 -1      1354 2.21147E+01-4.94592E-02 1.08436E-02 8.32750E-01-8.60345E-14-3.59648E-13
 -1      1355 2.26519E+01-6.21489E-02 7.62791E-03 2.49935E-01-2.36894E-14-5.04121E-13
 -1      1356 2.29615E+01-6.80889E-02 1.02778E-02 2.10757E-01 5.10789E-15-5.30720E-13
 -1      1357 2.26014E+01-1.06121E-01 1.81907E-02 5.89188E-01-5.86519E-14-3.50397E-13
 -1      1358 2.30318E+01-5.91654E-02 5.29426E-03 7.34756E-02 1.76551E-14-5.56718E-13
 -1      1359 2.31279E+01-5.41211E-02 6.45377E-03 4.11130E-02-6.61797E-15-5.40243E-13
 -1      1360 2.28495E+01-1.11914E-01 1.71127E-02 2.61954E-01-5.50601E-15-4.22917E-13
 -1      1361 2.30802E+01-4.29370E-02 2.40365E-03-6.50090E-02-6.89232E-14-5.50774E-13
 -1      1362 2.30081E+01-3.36686E-02 2.70720E-03-8.57723E-02-8.02800E-14-6.48809E-13
 -1      1363 2.28499E+01-8.69379E-02 1.20196E-02-2.96740E-02-6.90437E-14-5.00561E-13
 -1      1364 2.28788E+01-2.44813E-02 3.61526E-04-1.50336E-01-2.91637E-14-6.81047E-13
 -1      1365 2.27023E+01-1.53607E-02 2.39079E-04-1.60377E-01-8.37633E-15-6.96410E-13
 -1      1366 2.26584E+01-5.30878E-02 6.44097E-03-2.31586E-01-8.01802E-14-5.04037E-13
 -1      1367 2.25291E+01-9.47390E-03-5.71997E-04-1.88678E-01 8.37058E-15-7.39058E-13
 -1      1368 2.23051E+01-2.36479E-03-9.13969E-04-1.91020E-01-1.35074E-14-7.43369E-13
 -1      1369 2.23493E+01-2.36050E-02 2.06090E-03-3.39804E-01-4.56137E-14-5.25167E-13
 -1      1370 2.21185E+01 5.77583E-04-7.14785E-04-1.93832E-01-2.53006E-14-6.54808E-13
 -1      1371 2.18875E+01 5.37097E-03-1.18000E-03-1.91547E-01 1.39975E-14-6.48670E-13
 -1      1372 2.19889E+01-3.07623E-03-7.66308E-04-3.74597E-01 1.77753E-14-5.43797E-13
 -1      1373 2.17077E+01 6.25704E-03-4.74439E-04-1.79274E-01 8.98023E-15-5.89544E-13
 -1      1374 2.14938E+01 9.11093E-03-1.00416E-03-1.74702E-01-7.21949E-15-5.65843E-13
 -1      1375 2.16254E+01 8.89289E-03-2.29348E-03-3.61545E-01 1.41926E-14-3.67322E-13
 -1      1376 2.13325E+01 8.78966E-03-1.40500E-04-1.55204E-01 1.95655E-15-5.52093E-13
 -1      1377 2.11476E+01 1.02472E-02-6.84752E-04-1.49868E-01 3.10446E-14-5.35858E-13
 -1      1378 2.12889E+01 1.44989E-02-2.92156E-03-3.22393E-01-1.11890E-16-3.35460E-13
 -1      1379 2.10097E+01 9.33897E-03 1.41918E-04-1.28272E-01 1.70769E-14-5.64796E-13
 -1      1380 2.08573E+01 9.88609E-03-3.75836E-04-1.23046E-01-1.12185E-14-6.02521E-13
 -1      1381 2.09948E+01 1.60382E-02-3.00187E-03-2.72491E-01 4.26720E-15-3.59390E-13
 -1      1382 2.07439E+01 8.78060E-03 3.27110E-04-1.02311E-01-1.23718E-15-5.87286E-13
 -1      1383 2.06226E+01 8.78224E-03-1.35682E-04-9.76325E-02-3.56163E-14-5.93585E-13
 -1      1384 2.07483E+01 1.52915E-02-2.78546E-03-2.21359E-01-3.05452E-14-3.89689E-13
 -1      1385 2.05322E+01 7.69584E-03 4.20197E-04-7.92306E-02-2.25223E-14-6.57292E-13
 -1      1386 2.04387E+01 7.40130E-03 2.72531E-05-7.52684E-02-4.97998E-14-6.20966E-13
 -1      1387 2.05485E+01 1.34497E-02-2.43292E-03-1.74195E-01-7.09305E-14-4.52980E-13
 -1      1388 2.03684E+01 6.43758E-03 4.44401E-04-5.97486E-02-2.34000E-14-5.86382E-13
 -1      1389 2.02982E+01 6.00646E-03 1.24862E-04-5.65213E-02 8.91956E-14-5.23440E-13
 -1      1390 2.03910E+01 1.12327E-02-2.03942E-03-1.33356E-01-7.15888E-15-4.51639E-13
 -1      1391 2.02449E+01 5.20263E-03 4.24438E-04-4.39060E-02 6.43996E-14-5.18148E-13
 -1      1392 2.01935E+01 4.73158E-03 1.74142E-04-4.13558E-02-6.76775E-14-5.43054E-13
 -1      1393 2.02699E+01 9.03739E-03-1.65745E-03-9.94938E-02 7.63446E-14-5.08448E-13
 -1      1394 2.01541E+01 4.08909E-03 3.80212E-04-3.13970E-02-5.63439E-14-5.19969E-13
 -1      1395 2.01176E+01 3.63308E-03 1.90725E-04-2.94328E-02-1.46307E-14-5.87672E-13
 -1      1396 2.01790E+01 7.05850E-03-1.31318E-03-7.23220E-02-7.09480E-14-4.23540E-13
 -1      1397 2.00892E+01 3.13628E-03 3.25660E-04-2.17670E-02 1.52391E-14-5.29390E-13
 -1      1398 2.00641E+01 2.72375E-03 1.86877E-04-2.02897E-02 3.00559E-14-4.21958E-13
 -1      1399 2.01123E+01 5.37238E-03-1.01719E-03-5.11006E-02 3.16233E-14-2.20972E-13
 -1      1400 2.00441E+01 2.35043E-03 2.69609E-04-1.45264E-02 4.74267E-14-4.32232E-13
 -1      1401 2.00276E+01 1.99349E-03 1.71426E-04-1.34412E-02 8.49407E-14-3.08386E-13
 -1      1402 2.00647E+01 3.99019E-03-7.71206E-04-3.49226E-02 9.21518E-14-1.98831E-13
 -1      1403 2.00140E+01 1.72049E-03 2.17118E-04-9.20944E-03 3.43266E-14-3.40493E-13
 -1      1404 2.00037E+01 1.42157E-03 1.50365E-04-8.43225E-03 3.41160E-15-3.51237E-13
 -1      1405 2.00318E+01 2.89016E-03-5.72185E-04-2.28737E-02 1.35707E-14-2.08894E-13
 -1      1406 1.99949E+01 1.22755E-03 1.70706E-04-5.40315E-03-8.64730E-14-4.31275E-13
 -1      1407 1.99890E+01 9.83661E-04 1.27552E-04-4.86249E-03-8.22628E-14-5.67125E-13
 -1      1408 2.00098E+01 2.03616E-03-4.14814E-04-1.41137E-02-1.01679E-13-2.00342E-13
 -1      1409 1.99837E+01 8.50176E-04 1.31285E-04-2.75674E-03 2.69830E-14-6.11629E-13
 -1      1410 1.99809E+01 6.55593E-04 1.05331E-04-2.39386E-03-2.64845E-15-6.42142E-13
 -1      1411 1.99959E+01 1.38800E-03-2.92958E-04-7.91252E-03-5.21476E-14-5.16296E-13
 -1      1412 1.99780E+01 5.67402E-04 9.88154E-05-9.81909E-04-1.14635E-14-5.63306E-13
 -1      1413 1.99772E+01 4.15284E-04 8.50068E-05-7.49718E-04-3.82223E-15-6.03153E-13
 -1      1414 1.99877E+01 9.06905E-04-2.00501E-04-3.65893E-03 1.04943E-15-5.79378E-13
 -1      1415 1.99759E+01 3.60166E-04 7.27415E-05 1.52378E-04-6.80181E-14-5.17370E-13
 -1      1416 1.99764E+01 2.43547E-04 6.72004E-05 2.90777E-04-2.12083E-14-5.72443E-13
 -1      1417 1.99836E+01 5.58084E-04-1.31791E-04-8.55998E-04 2.06580E-14-3.40305E-13
 -1      1418 1.99762E+01 2.11956E-04 5.22655E-05 8.27141E-04 6.93672E-14-6.12080E-13
 -1      1419 1.99774E+01 1.24294E-04 5.20962E-05 9.00071E-04 6.65259E-14-4.72952E-13
 -1      1420 1.99821E+01 3.11727E-04-8.18569E-05 8.90769E-04-4.14095E-14-2.69114E-13
 -1      1421 1.99779E+01 1.08938E-04 3.65174E-05 1.18133E-03-8.98123E-14-5.36404E-13
 -1      1422 1.99794E+01 4.43968E-05 3.96147E-05 1.21010E-03-1.74237E-13-7.26798E-13
 -1      1423 1.99824E+01 1.43113E-04-4.64746E-05 1.88791E-03-7.59218E-14-4.30888E-13
 -1      1424 1.99803E+01 3.98244E-05 2.46519E-05 1.31944E-03-1.22662E-13-7.96541E-13
 -1      1425 1.99820E+01-6.61491E-06 2.95298E-05 1.31975E-03-9.56439E-14-9.85667E-13
 -1      1426 1.99836E+01 3.22681E-05-2.21511E-05 2.36881E-03-2.04787E-13-6.45468E-13
 -1      1427 1.99830E+01-4.38637E-06 1.59005E-05 1.31845E-03-9.71167E-15-9.68668E-13
 -1      1428 1.99847E+01-3.69222E-05 2.15449E-05 1.30159E-03 1.13685E-13-8.71348E-13
 -1      1429 1.99854E+01-3.65971E-05-6.06436E-06 2.50756E-03-9.04293E-14-7.27859E-13
 -1      1430 1.99857E+01-3.07316E-05 9.59419E-06 1.23372E-03 1.44488E-13-8.07436E-13
 -1      1431 1.99873E+01-5.27930E-05 1.53430E-05 1.20761E-03 1.06070E-13-6.40571E-13
 -1      1432 1.99874E+01-7.57138E-05 4.01907E-06 2.43119E-03 2.04015E-13-5.77658E-13
 -1      1433 1.99883E+01-4.46061E-05 5.16933E-06 1.10403E-03 7.21213E-14-7.03791E-13
 -1      1434 1.99896E+01-5.89367E-05 1.06160E-05 1.07404E-03 7.18536E-14-5.51678E-13
 -1      1435 1.99895E+01-9.43731E-05 9.83292E-06 2.23018E-03 1.29381E-13-5.40656E-13
 -1      1436 1.99906E+01-5.00662E-05 2.16310E-06 9.55661E-04 5.34975E-14-5.83701E-13
 -1      1437 1.99917E+01-5.88202E-05 7.08169E-06 9.25278E-04-7.75026E-15-5.28141E-13
 -1      1438 1.99913E+01-9.94942E-05 1.26977E-05 1.96712E-03 6.01546E-14-5.48967E-13
 -1      1439 1.99925E+01-5.01017E-05 2.03780E-07 8.05669E-04-8.53659E-14-3.71800E-13
 -1      1440 1.99935E+01-5.49405E-05 4.49183E-06 7.77022E-04-3.26945E-14-5.54247E-13
 -1      1441 1.99930E+01-9.61222E-05 1.36001E-05 1.68372E-03-4.02577E-15-5.19939E-13
 -1      1442 1.99942E+01-4.68693E-05-1.00122E-06 6.64422E-04-2.40613E-14-5.87873E-13
 -1      1443 1.99950E+01-4.90531E-05 2.63464E-06 6.38680E-04-1.11248E-13-7.91089E-13
 -1      1444 1.99945E+01-8.78527E-05 1.32624E-05 1.40646E-03-7.02993E-14-5.61629E-13
 -1      1445 1.99956E+01-4.18900E-05-1.67779E-06 5.37576E-04-1.04222E-13-7.61880E-13
 -1      1446 1.99962E+01-4.23588E-05 1.33400E-06 5.15248E-04-1.35128E-13-9.17810E-13
 -1      1447 1.99957E+01-7.71832E-05 1.22020E-05 1.15083E-03-7.96606E-14-6.33021E-13
 -1      1448 1.99967E+01-3.62109E-05-1.99635E-06 4.27539E-04-5.95170E-14-8.76421E-13
 -1      1449 1.99972E+01-3.56563E-05 4.47371E-07 4.08693E-04 1.59654E-14-9.35631E-13
 -1      1450 1.99967E+01-6.58014E-05 1.07809E-05 9.24681E-04-1.67952E-13-4.62046E-13
 -1      1451 1.99976E+01-3.05380E-05-2.08065E-06 3.34536E-04 4.51448E-14-8.48277E-13
 -1      1452 1.99980E+01-2.94637E-05-1.34613E-07 3.18952E-04 7.73324E-14-8.25721E-13
 -1      1453 1.99975E+01-5.48177E-05 9.24671E-06 7.30605E-04 1.21876E-13-6.31613E-13
 -1      1454 1.99983E+01-2.53452E-05-2.01101E-06 2.57352E-04 5.21560E-14-6.89947E-13
 -1      1455 1.99986E+01-2.41152E-05-4.82884E-07 2.44624E-04 1.64949E-14-6.08368E-13
 -1      1456 1.99982E+01-4.49548E-05 7.76605E-06 5.67706E-04 2.07424E-13-5.27295E-13
 -1      1457 1.99988E+01-2.09585E-05-1.81827E-06 1.93819E-04 9.82586E-14-4.23136E-13
 -1      1458 1.99990E+01-1.98318E-05-6.16484E-07 1.83409E-04 1.70896E-13-2.85050E-13
 -1      1459 1.99987E+01-3.66976E-05 6.45563E-06 4.32767E-04 2.46056E-13-2.26318E-13
 -1      1460 1.99992E+01-1.76193E-05-1.46800E-06 1.41116E-04 1.16743E-13-2.69360E-13
 -1      1461 1.99993E+01-1.67654E-05-4.97676E-07 1.32377E-04 1.01136E-13-4.26236E-14
 -1      1462 1.99991E+01-3.04115E-05 5.40443E-06 3.21023E-04 2.34601E-13 7.05072E-14
 -1      1463 1.99995E+01-1.54943E-05-8.65844E-07 9.59858E-05-1.30323E-14-1.48202E-13
 -1      1464 1.99996E+01-1.49132E-05-1.10541E-07 8.81696E-05-4.49174E-14-2.18539E-13
 -1      1465 1.99994E+01-2.64142E-05 4.66469E-06 2.26705E-04 4.07888E-14-7.17227E-14
 -1      1466 1.99997E+01-1.44013E-05-2.61287E-08 5.53719E-05 1.20802E-13-1.92947E-14
 -1      1467 1.99997E+01-1.36672E-05 1.29629E-07 4.77275E-05 1.69828E-13 9.34094E-14
 -1      1468 1.99996E+01-2.46845E-05 4.09167E-06 1.43841E-04 1.51890E-13-1.39112E-13
 -1      1469 1.99998E+01-1.49146E-05-6.85228E-08 1.77053E-05 5.57848E-14 1.31399E-13
 -1      1470 1.99998E+01-1.05344E-05-1.86954E-06 1.00171E-05-1.55736E-14 1.25828E-13
 -1      1471 1.99997E+01-2.38889E-05 3.23550E-06 6.92507E-05 1.46667E-13 3.25533E-14
 -1      1472 1.99998E+01 2.69887E-06-4.86623E-06-8.50123E-06-1.68984E-13 6.37003E-14
 -1      1473 1.99998E+01-7.25619E-06-7.32231E-08 5.29627E-06-5.75827E-14-7.70216E-14
 -1      1474 2.68832E+01 3.85364E-02-1.55914E-01 9.91051E-01 1.63876E-13 1.98282E-12
 -1      1475 2.88460E+01 1.73097E-01-2.71896E-01 1.22120E+00 1.23263E-13 2.23010E-12
 -1      1476 2.86621E+01 1.04131E+00-7.73102E-02 3.07352E+00 2.66939E-13 1.49641E-12
 -1      1477 2.45094E+01 6.25534E-03-7.17547E-03 8.59223E-01 1.57881E-13 1.63606E-12
 -1      1478 2.57607E+01 5.09516E-02-6.60048E-02 8.46287E-01 1.35378E-13 1.85871E-12
 -1      1479 2.62587E+01 1.01726E-01-4.25661E-02 1.89989E+00 2.53492E-13 1.27771E-12
 -1      1480 2.24624E+01 4.07483E-02-4.72705E-03 7.70496E-01 9.48044E-14 1.35160E-12
 -1      1481 2.35693E+01 3.64178E-02 1.91282E-03 7.71775E-01 1.21564E-13 1.53788E-12
 -1      1482 2.42792E+01 3.92440E-02-2.10849E-03 1.59554E+00 2.35895E-13 1.12813E-12
 -1      1483 2.09086E+01 8.87442E-02-3.46803E-02 5.13905E-01 7.50285E-14 1.16202E-12
 -1      1484 2.17544E+01 9.83660E-02-1.78729E-03 5.72827E-01 6.17822E-14 1.24263E-12
 -1      1485 2.26797E+01 1.34785E-01-1.23360E-02 1.26145E+00 1.48565E-13 9.32614E-13
 -1      1486 2.02082E+01 1.03128E-01-4.95772E-02 9.77229E-02 5.67792E-14 1.01012E-12
 -1      1487 2.05589E+01 1.52312E-01-1.66424E-02 2.04842E-01 4.01502E-14 1.05779E-12
 -1      1488 2.16223E+01 2.36924E-01-3.03806E-02 6.40484E-01 1.11612E-13 6.90507E-13
 -1      1489 2.04874E+01 6.90109E-02-3.35086E-02-3.05946E-01 4.20081E-14 8.29878E-13
 -1      1490 2.02640E+01 1.44115E-01-1.84564E-02-1.98962E-01 7.39166E-14 9.42191E-13
 -1      1491 2.12967E+01 2.41101E-01-3.47507E-02-1.25232E-01 1.22912E-13 5.43753E-13
 -1      1492 2.14578E+01 1.10137E-02 1.31793E-04-5.18306E-01 9.11753E-14 7.20847E-13
 -1      1493 2.08328E+01 7.73885E-02-4.78207E-03-4.58657E-01 3.36519E-14 7.77878E-13
 -1      1494 2.16483E+01 1.34896E-01-2.25182E-02-7.13069E-01 9.42926E-14 4.36255E-13
 -1      1495 2.25961E+01-3.41285E-02 2.66183E-02-4.93760E-01 4.80276E-14 5.72195E-13
 -1      1496 2.18797E+01-1.36325E-03 1.19507E-02-4.92428E-01 9.21034E-14 6.78298E-13
 -1      1497 2.23585E+01-9.89053E-03-6.44257E-03-9.08017E-01 1.38655E-13 3.31644E-13
 -1      1498 2.34631E+01-5.04287E-02 3.44391E-02-3.16855E-01-2.17795E-14 5.39679E-13
 -1      1499 2.29150E+01-5.18400E-02 2.01955E-02-3.52841E-01-7.80799E-15 5.64382E-13
 -1      1500 2.30482E+01-1.09193E-01 4.05337E-03-7.39002E-01 2.24395E-14 3.02031E-13
 -1      1501 2.38697E+01-4.42767E-02 2.78098E-02-1.05036E-01 4.10418E-14 4.78969E-13
 -1      1502 2.36010E+01-6.50893E-02 1.84689E-02-1.50580E-01 2.30163E-14 5.46077E-13
 -1      1503 2.34704E+01-1.35043E-01 7.65477E-03-3.89126E-01 1.62752E-14 2.64429E-13
 -1      1504 2.38434E+01-2.89294E-02 1.61865E-02 6.47493E-02 6.55166E-14 3.41982E-13
 -1      1505 2.38353E+01-5.38653E-02 1.16272E-02 2.73948E-02 6.53002E-14 4.54338E-13
 -1      1506 2.35576E+01-1.09841E-01 6.99791E-03-3.78252E-02 1.03240E-13 2.19834E-13
 -1      1507 2.35154E+01-1.39480E-02 6.07191E-03 1.67947E-01 8.86227E-15 2.73614E-13
 -1      1508 2.36874E+01-3.41889E-02 4.69962E-03 1.44454E-01 2.39075E-14 3.50406E-13
 -1      1509 2.33648E+01-6.72524E-02 4.83966E-03 2.18301E-01 6.07648E-14 2.75998E-13
 -1      1510 2.30286E+01-3.15665E-03-3.01496E-04 2.12296E-01 2.72216E-14 2.29847E-13
 -1      1511 2.32942E+01-1.60939E-02 5.84825E-05 2.01205E-01-7.36303E-15 2.47854E-13
 -1      1512 2.29932E+01-2.90915E-02 2.73414E-03 3.60181E-01 2.72898E-14 1.81166E-13
 -1      1513 2.24940E+01 3.18572E-03-3.35305E-03 2.16396E-01-4.16474E-14 2.80852E-13
 -1      1514 2.27870E+01-3.23605E-03-2.11912E-03 2.13890E-01 7.40889E-15 3.05657E-13
 -1      1515 2.25395E+01-3.00082E-03 1.20376E-03 4.09600E-01-1.92141E-14 2.51351E-13
 -1      1516 2.19817E+01 6.18324E-03-4.26069E-03 1.97827E-01-1.01524E-14 3.05837E-13
 -1      1517 2.22614E+01 4.37862E-03-2.62767E-03 2.00290E-01-2.16243E-14 2.97555E-13
 -1      1518 2.20752E+01 1.15612E-02 2.45736E-04 3.98929E-01-2.88151E-14 2.74231E-13
 -1      1519 2.15284E+01 7.07544E-03-4.05977E-03 1.69234E-01 1.32752E-14 1.73637E-13
 -1      1520 2.17740E+01 8.06212E-03-2.29940E-03 1.74055E-01 2.56110E-14 2.20910E-13
 -1      1521 2.16440E+01 1.78640E-02-2.92202E-04 3.56097E-01 3.33011E-14 2.15559E-13
 -1      1522 2.11476E+01 6.81411E-03-3.41524E-03 1.38375E-01-3.50132E-14 2.08970E-13
 -1      1523 2.13522E+01 9.22942E-03-1.69499E-03 1.43932E-01-5.77502E-14 1.98012E-13
 -1      1524 2.12680E+01 1.91639E-02-5.61539E-04 3.00445E-01-3.34587E-14 9.07453E-14
 -1      1525 2.08398E+01 6.01564E-03-2.67957E-03 1.09399E-01 5.19949E-14 4.18355E-14
 -1      1526 2.10037E+01 8.97475E-03-1.10142E-03 1.14801E-01 6.05299E-14 1.86415E-13
 -1      1527 2.09541E+01 1.78436E-02-6.70207E-04 2.43550E-01 6.50159E-14 8.60565E-14
 -1      1528 2.05983E+01 5.03790E-03-2.00870E-03 8.41627E-02-5.97254E-14 1.11043E-13
 -1      1529 2.07256E+01 8.02379E-03-6.26883E-04 8.89834E-02-1.20446E-14 5.66470E-14
 -1      1530 2.07007E+01 1.53967E-02-6.85845E-04 1.91435E-01-7.81536E-15 1.16729E-13
 -1      1531 2.04134E+01 4.06957E-03-1.45471E-03 6.32020E-02 1.21561E-13-4.67731E-14
 -1      1532 2.05099E+01 6.81241E-03-2.88196E-04 6.72868E-02 8.00810E-14 7.37377E-14
 -1      1533 2.05016E+01 1.26636E-02-6.49289E-04 1.46641E-01 6.70737E-14 4.16651E-14
 -1      1534 2.02751E+01 3.19872E-03-1.02164E-03 4.63666E-02 6.31255E-14-3.21877E-13
 -1      1535 2.03465E+01 5.58118E-03-6.58026E-05 4.97075E-02 1.10526E-13-1.21898E-13
 -1      1536 2.03488E+01 1.00691E-02-5.85442E-04 1.09725E-01 1.96514E-13-1.35969E-13
 -1      1537 2.01740E+01 2.45753E-03-6.94842E-04 3.31929E-02-9.35245E-14-2.65011E-13
 -1      1538 2.02256E+01 4.45011E-03 6.88353E-05 3.58534E-02-7.67673E-14-3.85679E-13
 -1      1539 2.02341E+01 7.79725E-03-5.09758E-04 8.02226E-02-1.20575E-14-1.93006E-13
 -1      1540 2.01020E+01 1.84911E-03-4.54647E-04 2.31118E-02-5.89475E-14-2.03133E-13
 -1      1541 2.01383E+01 3.46923E-03 1.41989E-04 2.51841E-02-7.68348E-14-2.93268E-13
 -1      1542 2.01499E+01 5.90193E-03-4.31843E-04 5.72210E-02-8.07312E-14-2.69748E-13
 -1      1543 2.00520E+01 1.36281E-03-2.82153E-04 1.55560E-02 7.02212E-14-1.56708E-13
 -1      1544 2.00768E+01 2.65021E-03 1.74356E-04 1.71381E-02-1.97163E-14-2.11746E-13
 -1      1545 2.00896E+01 4.37196E-03-3.57504E-04 3.96716E-02-2.86358E-14-2.56373E-13
 -1      1546 2.00186E+01 9.82439E-04-1.61186E-04 1.00105E-02 6.96677E-14-2.97950E-13
 -1      1547 2.00348E+01 1.98504E-03 1.81018E-04 1.11951E-02 7.03672E-14-7.82401E-14
 -1      1548 2.00475E+01 3.16745E-03-2.90000E-04 2.65550E-02 5.91819E-14-2.42788E-13
 -1      1549 1.99973E+01 6.90612E-04-7.86570E-05 6.03165E-03-2.38862E-14-3.69644E-13
 -1      1550 2.00073E+01 1.45678E-03 1.72463E-04 6.90095E-03 4.99264E-14-3.06534E-13
 -1      1551 2.00190E+01 2.23890E-03-2.30872E-04 1.69560E-02 8.55793E-14-1.25808E-13
 -1      1552 1.99846E+01 4.70852E-04-2.42971E-05 3.25065E-03 2.37962E-14-3.78964E-13
 -1      1553 1.99902E+01 1.04536E-03 1.55736E-04 3.87446E-03-2.42450E-14-3.74025E-13
 -1      1554 2.00007E+01 1.53683E-03-1.80530E-04 1.00917E-02-1.05004E-14-1.53393E-13
 -1      1555 1.99779E+01 3.08515E-04 9.79281E-06 1.36836E-03 1.76348E-14-4.24887E-13
 -1      1556 1.99806E+01 7.30808E-04 1.35419E-04 1.80454E-03 3.22327E-14-3.39571E-13
 -1      1557 1.99896E+01 1.01618E-03-1.38677E-04 5.31312E-03 3.17727E-14-1.90630E-13
 -1      1558 1.99753E+01 1.91089E-04 2.95967E-05 1.47311E-04-1.63071E-14-3.15000E-13
 -1      1559 1.99760E+01 4.94708E-04 1.14383E-04 4.42664E-04-9.41635E-14-4.10479E-13
 -1      1560 1.99835E+01 6.37977E-04-1.04599E-04 2.09570E-03-7.35207E-14-2.40473E-13
 -1      1561 1.99753E+01 1.08180E-04 3.95856E-05-5.97656E-04 4.61537E-14-6.35115E-13
 -1      1562 1.99748E+01 3.20922E-04 9.43343E-05-4.05968E-04 1.49999E-13-4.02604E-13
 -1      1563 1.99809E+01 3.69596E-04-7.73780E-05 2.37440E-05 1.68956E-13-3.14927E-13
 -1      1564 1.99769E+01 5.13383E-05 4.30514E-05-1.00835E-03 2.71771E-14-5.88718E-13
 -1      1565 1.99756E+01 1.95749E-04 7.61978E-05-8.91340E-04-4.02133E-14-6.55951E-13
 -1      1566 1.99806E+01 1.84415E-04-5.60258E-05-1.22611E-03 6.65392E-14-3.77426E-13
 -1      1567 1.99793E+01 1.38223E-05 4.23784E-05-1.19148E-03-4.68516E-14-4.45943E-13
 -1      1568 1.99777E+01 1.07842E-04 6.03890E-05-1.12693E-03-1.49194E-14-5.18250E-13
 -1      1569 1.99816E+01 6.11253E-05-3.95751E-05-1.90100E-03 1.10771E-14-3.61014E-13
 -1      1570 1.99821E+01-9.65511E-06 3.92591E-05-1.22585E-03-1.49673E-13-3.09859E-13
 -1      1571 1.99804E+01 4.79981E-05 4.69995E-05-1.19702E-03-1.43900E-13-4.98877E-13
 -1      1572 1.99834E+01-1.70275E-05-2.71313E-05-2.18646E-03-1.66226E-13-3.00996E-13
 -1      1573 1.99849E+01-2.31711E-05 3.48658E-05-1.16843E-03 4.16047E-14-2.42367E-13
 -1      1574 1.99832E+01 8.88900E-06 3.59258E-05-1.16297E-03 1.90684E-14-1.79566E-13
 -1      1575 1.99855E+01-6.29989E-05-1.79004E-05-2.21912E-03-4.90773E-14-3.83040E-13
 -1      1576 1.99875E+01-2.98165E-05 2.99844E-05-1.05945E-03-3.82722E-14-3.19355E-13
 -1      1577 1.99860E+01-1.52194E-05 2.69558E-05-1.06839E-03 9.89157E-15-2.43759E-13
 -1      1578 1.99877E+01-8.66377E-05-1.11989E-05-2.09747E-03 3.96753E-14-1.72561E-13
 -1      1579 1.99899E+01-3.18925E-05 2.51197E-05-9.26434E-04-5.20393E-14-4.22171E-13
 -1      1580 1.99886E+01-2.87387E-05 1.98269E-05-9.43457E-04-5.75722E-14-4.92826E-13
 -1      1581 1.99898E+01-9.53002E-05-6.45371E-06-1.89074E-03 1.66512E-14-2.45108E-13
 -1      1582 1.99920E+01-3.10794E-05 2.05744E-05-7.87544E-04-3.87140E-14-4.64697E-13
 -1      1583 1.99908E+01-3.50045E-05 1.42627E-05-8.08320E-04-7.13480E-15-4.95268E-13
 -1      1584 1.99917E+01-9.43760E-05-3.19431E-06-1.64614E-03 2.66435E-14-3.76172E-13
 -1      1585 1.99938E+01-2.85777E-05 1.65113E-05-6.54099E-04-8.87386E-14-2.98390E-13
 -1      1586 1.99928E+01-3.64939E-05 9.99651E-06-6.75772E-04-4.37542E-14-4.33474E-13
 -1      1587 1.99934E+01-8.77298E-05-1.04179E-06-1.39452E-03-3.51385E-14-3.30761E-13
 -1      1588 1.99952E+01-2.52252E-05 1.29983E-05-5.32561E-04-4.14258E-14 2.19555E-14
 -1      1589 1.99944E+01-3.50122E-05 6.78382E-06-5.53352E-04-1.51499E-13-1.95576E-13
 -1      1590 1.99948E+01-7.80656E-05 3.04046E-07-1.15496E-03-2.27060E-13-3.49906E-14
 -1      1591 1.99964E+01-2.15910E-05 1.00429E-05-4.26022E-04 7.13455E-15-9.33966E-14
 -1      1592 1.99958E+01-3.18504E-05 4.40913E-06-4.44922E-04 1.32877E-13-1.54344E-14
 -1      1593 1.99960E+01-6.72217E-05 1.07798E-06-9.38112E-04 4.88675E-14 4.31499E-14
 -1      1594 1.99974E+01-1.80528E-05 7.61833E-06-3.35288E-04-1.20850E-13 1.06980E-13
 -1      1595 1.99968E+01-2.79160E-05 2.68819E-06-3.51832E-04-1.14008E-13-9.27403E-14
 -1      1596 1.99970E+01-5.64082E-05 1.46277E-06-7.48816E-04-1.18352E-13 4.93719E-14
 -1      1597 1.99981E+01-1.48590E-05 5.68401E-06-2.59657E-04-2.87846E-14 3.10542E-13
 -1      1598 1.99977E+01-2.38433E-05 1.46868E-06-2.73760E-04-1.00389E-13 9.90006E-14
 -1      1599 1.99978E+01-4.63966E-05 1.60258E-06-5.87983E-04-2.15764E-13 7.82443E-14
 -1      1600 1.99987E+01-1.21830E-05 4.20811E-06-1.97420E-04 1.60181E-13-8.45889E-14
 -1      1601 1.99984E+01-2.00886E-05 6.31423E-07-2.09280E-04 1.26903E-13 2.30978E-13
 -1      1602 1.99984E+01-3.76735E-05 1.61842E-06-4.53897E-04 1.09626E-13 3.73382E-15
 -1      1603 1.99991E+01-1.01185E-05 3.19431E-06-1.46194E-04 6.97686E-14-2.97741E-13
 -1      1604 1.99989E+01-1.69757E-05 1.03777E-07-1.56221E-04 1.00315E-13-9.37849E-14
 -1      1605 1.99989E+01-3.05521E-05 1.62332E-06-3.43077E-04 1.28987E-13 1.00564E-14
 -1      1606 1.99994E+01-8.75526E-06 2.71203E-06-1.03218E-04-1.57793E-14-3.67795E-13
 -1      1607 1.99993E+01-1.47555E-05-1.24832E-07-1.11987E-04-6.19485E-14-4.63368E-13
 -1      1608 1.99992E+01-2.52075E-05 1.74541E-06-2.50948E-04 3.98153E-14-3.78018E-13
 -1      1609 1.99996E+01-8.15636E-06 2.68766E-06-6.53216E-05 2.41083E-14-4.61662E-13
 -1      1610 1.99995E+01-1.36671E-05-1.94354E-08-7.36626E-05 6.57668E-14-3.37798E-13
 -1      1611 1.99995E+01-2.18623E-05 2.10148E-06-1.72255E-04 9.88424E-14-3.76871E-13
 -1      1612 1.99998E+01-8.01399E-06 2.13793E-06-2.95959E-05 8.17165E-15-4.93445E-13
 -1      1613 1.99997E+01-1.35362E-05 1.75360E-07-3.86034E-05 2.88849E-14-4.13374E-13
 -1      1614 1.99996E+01-2.06463E-05 2.41227E-06-1.01830E-04 4.47873E-14-2.20320E-13
 -1      1615 1.99998E+01-6.07371E-06-2.38808E-06 6.88450E-07-1.45882E-13-5.60486E-13
 -1      1616 1.99998E+01-1.13646E-05-6.28314E-07-7.46624E-06-1.24192E-13-6.50804E-13
 -1      1617 1.99997E+01-1.77480E-05 1.89456E-06-3.75987E-05-3.60790E-14-2.98638E-13
 -1      1618 1.99998E+01 2.92375E-06-4.91095E-06 7.06950E-06-3.02546E-13-3.52695E-13
 -1      1619 1.99998E+01-3.01667E-05 1.67620E-06-2.03776E-05-2.43637E-13 1.60707E-13
 -1      1620 1.99998E+01-1.49619E-05-1.55669E-06-1.27703E-05-5.20173E-13 1.85060E-13
 -1      1621 1.99998E+01-1.32643E-04 1.65877E-06-5.40510E-05-1.08241E-13 6.75299E-14
 -1      1622 1.99998E+01-7.65134E-05 1.19364E-06-4.74724E-05-1.62017E-13-9.48945E-15
 -1      1623 1.99998E+01-9.29713E-05 2.34548E-06-6.91026E-05-1.61756E-13 1.05364E-13
 -1      1624 1.99998E+01-2.87284E-04 9.34238E-07-7.82069E-05-5.11329E-13-1.08115E-13
 -1      1625 1.99998E+01-2.00052E-04 1.11780E-06-7.43510E-05-2.58589E-13-7.64060E-14
 -1      1626 1.99998E+01-2.07062E-04 2.60324E-06-1.26245E-04-1.11320E-13-1.89566E-13
 -1      1627 1.99998E+01-4.68065E-04 3.14766E-07-8.71600E-05-5.65019E-13 5.58476E-14
 -1      1628 1.99998E+01-3.67321E-04 5.82643E-07-8.66344E-05-7.51721E-13 3.11653E-13
 -1      1629 1.99998E+01-3.55560E-04 9.90594E-07-1.60499E-04-3.55294E-13-1.67142E-13
 -1      1630 1.99998E+01-6.40946E-04-5.95873E-09-8.06853E-05-6.91972E-13-3.66673E-14
 -1      1631 1.99998E+01-5.46949E-04 1.91608E-07-8.31128E-05-5.83859E-13-3.72984E-13
 -1      1632 1.99998E+01-5.15127E-04-7.55548E-07-1.65209E-04-5.44825E-13-1.59541E-13
 -1      1633 1.99998E+01-7.83120E-04-1.70360E-07-6.06318E-05-9.71301E-13-2.07036E-13
 -1      1634 1.99998E+01-7.09210E-04-4.85805E-08-6.55358E-05-7.86409E-13-1.30632E-13
 -1      1635 1.99998E+01-6.62453E-04-2.29474E-06-1.41721E-04-5.81032E-13-3.01066E-13
 -1      1636 1.99998E+01-8.68504E-04-2.20880E-07-3.08354E-05-8.39003E-13 5.36888E-14
 -1      1637 1.99998E+01-8.28526E-04-1.60221E-07-3.72815E-05-1.07043E-12 1.45135E-13
 -1      1638 1.99998E+01-7.75970E-04-3.42078E-06-9.48554E-05-5.68512E-13-1.30873E-13
 -1      1639 1.99998E+01-8.83913E-04-2.12281E-07 3.77754E-06-3.81375E-13 2.75514E-13
 -1      1640 1.99998E+01-8.84255E-04-2.12831E-07-3.19312E-06-6.82079E-13 1.65605E-13
 -1      1641 1.99998E+01-8.37031E-04-4.00671E-06-3.29613E-05-2.40261E-13 3.75723E-13
 -1      1642 1.99998E+01-8.27019E-04-1.52150E-07 3.78053E-05-2.25374E-13 2.13701E-14
 -1      1643 1.99998E+01-8.67636E-04-2.20625E-07 3.13815E-05-4.35533E-13 4.23173E-13
 -1      1644 1.99998E+01-8.36504E-04-4.00054E-06 3.40585E-05-1.14559E-13 3.01900E-13
 -1      1645 1.99998E+01-7.06784E-04-2.31217E-08 6.59013E-05-9.91353E-13-5.34863E-13
 -1      1646 1.99998E+01-7.81179E-04-1.82651E-07 6.10551E-05-3.30547E-13-5.62437E-13
 -1      1647 1.99998E+01-7.74476E-04-3.39605E-06 9.57789E-05-3.02897E-13-4.36359E-13
 -1      1648 1.99998E+01-5.45478E-04 1.79962E-07 8.31492E-05-9.48659E-13 1.27626E-13
 -1      1649 1.99998E+01-6.39632E-04-1.57875E-08 8.07604E-05-8.81168E-13-2.43951E-13
 -1      1650 1.99998E+01-6.61408E-04-2.30089E-06 1.42080E-04-4.91228E-13-5.42204E-13
 -1      1651 1.99998E+01-3.64369E-04 5.67970E-07 8.65678E-05-2.92751E-13 2.18741E-13
 -1      1652 1.99998E+01-4.65059E-04 3.21576E-07 8.71510E-05-8.80238E-13 4.18168E-13
 -1      1653 1.99998E+01-5.13806E-04-7.41016E-07 1.65280E-04-1.54659E-13 4.76026E-13
 -1      1654 1.99998E+01-1.97305E-04 1.25276E-06 7.40547E-05 8.00012E-14 1.56052E-13
 -1      1655 1.99998E+01-2.84450E-04 9.18987E-07 7.78706E-05-1.64725E-13 2.12523E-13
 -1      1656 1.99998E+01-3.52820E-04 1.03058E-06 1.60162E-04-1.24432E-13 4.13083E-13
 -1      1657 1.99998E+01-7.62848E-05 4.50233E-07 4.76074E-05 1.59157E-13 8.30987E-15
 -1      1658 1.99998E+01-1.31116E-04 1.73799E-06 5.44310E-05 2.66703E-13 6.60184E-14
 -1      1659 1.99998E+01-2.05602E-04 2.57763E-06 1.25342E-04 1.09313E-14 1.85905E-13
 -1      1660 1.99998E+01-2.97267E-05-1.88956E-06 2.45551E-05-1.21357E-13-3.62455E-13
 -1      1661 1.99998E+01-4.71554E-05 1.52854E-06 3.51781E-05 1.67944E-13-2.02943E-13
 -1      1662 1.99998E+01-1.12557E-04 7.10828E-07 8.68011E-05 1.05734E-13-2.63434E-15
 -1      1663 1.99997E+01-5.71425E-05-1.60882E-06 5.38955E-05-8.19738E-14-3.35176E-13
 -1      1664-3.07011E-01-1.11522E+01-1.66530E+00-5.62505E-01 1.31567E-12 6.97442E-13
 -1      1665-3.55009E-01-1.29228E+01-1.80791E+00 3.99116E-01 4.57148E-13 4.45033E-13
 -1      1666 1.55259E+00-5.34340E+00-1.21353E+00 1.15322E+00 2.16915E-12 1.30021E-12
 -1      1667 7.78385E-01-9.93269E+00-1.71344E+00 3.92346E-01 1.56075E-12 8.22207E-13
 -1      1668 8.72148E+00 1.30645E+00-4.07328E-01 6.06915E+00 2.21412E-12 1.64080E-12
 -1      1669 5.22311E+00-3.66043E+00-1.12214E+00 3.08206E+00 2.06313E-12 1.28320E-12
 -1      1670 1.85345E+01 6.53311E+00 3.43246E-01 1.07907E+01 2.01206E-12 1.90692E-12
 -1      1671 1.19794E+01 3.66714E+00-5.15571E-01 7.24338E+00 2.37976E-12 1.77902E-12
 -1      1672 3.24188E+01 6.91049E+00 1.04352E+00 1.29514E+01 1.28442E-12 1.44029E-12
 -1      1673 2.37817E+01 6.99739E+00 2.60652E-01 1.13256E+01 1.75204E-12 1.76259E-12
 -1      1674 4.50007E+01 5.32930E+00 1.61142E+00 1.07072E+01 6.73572E-13 5.20917E-13
 -1      1675 3.71494E+01 7.01496E+00 1.02111E+00 1.23975E+01 1.10489E-12 1.16018E-12
 -1      1676 5.21887E+01 3.55645E+00 1.86240E+00 4.53288E+00 4.55164E-13-7.11237E-13
 -1      1677 4.83521E+01 4.94087E+00 1.61527E+00 9.09205E+00 5.81313E-13 1.32228E-13
 -1      1678 5.05756E+01 3.37644E+00 1.60082E+00-3.20527E+00 6.81455E-13-1.97009E-12
 -1      1679 5.26927E+01 3.25494E+00 1.84731E+00 2.01403E+00 4.63851E-13-1.14375E-12
 -1      1680 4.09266E+01 4.61891E+00 9.05115E-01-8.41087E+00 1.33724E-12-2.82874E-12
 -1      1681 4.79431E+01 3.43702E+00 1.56159E+00-5.31354E+00 8.84237E-13-2.26330E-12
 -1      1682 2.71956E+01 4.94831E+00 6.00877E-02-8.94111E+00 2.06823E-12-3.00926E-12
 -1      1683 3.63394E+01 4.23659E+00 8.43667E-01-9.08636E+00 1.54615E-12-2.84339E-12
 -1      1684 1.44518E+01 4.24843E+00-6.56890E-01-7.40842E+00 2.73115E-12-2.93954E-12
 -1      1685 2.13864E+01 5.29286E+00 4.97958E-02-9.86247E+00 2.42428E-12-3.25229E-12
 -1      1686 6.14813E+00 1.04593E+00-1.08411E+00-3.79322E+00 2.74880E-12-2.18864E-12
 -1      1687 1.01232E+01 3.80455E+00-5.51074E-01-6.43990E+00 2.83162E-12-2.74458E-12
 -1      1688 1.85479E+00-2.64564E+00-1.21131E+00-1.16126E+00 2.17637E-12-1.34937E-12
 -1      1689 3.32276E+00 3.08231E-01-9.24986E-01-2.54932E+00 2.66487E-12-1.92368E-12
 -1      1690 1.84620E-01-5.37549E+00-1.16065E+00-1.45019E-01 1.08780E-12-7.17704E-13
 -1      1691 4.61720E-01-3.40119E+00-1.05876E+00-1.98250E-01 1.91275E-12-1.10705E-12
 -1      1692-2.59520E-01-5.77705E+00-1.04527E+00-2.50229E-01-2.63255E-13-5.32352E-13
 -1      1693-2.57040E-01-5.68748E+00-1.07862E+00 4.20329E-01 7.04492E-13-5.94413E-13
 -1      1694 5.55952E-01-2.95571E+00-8.47683E-01 6.06729E-01-1.43435E-12-9.80938E-13
 -1      1695 2.42622E-01-4.67691E+00-9.38179E-01 6.43544E-01-5.53863E-13-6.83564E-13
 -1      1696 2.59220E+00 8.53650E-02-8.78869E-01 2.20833E+00-2.49190E-12-1.64507E-12
 -1      1697 1.52305E+00-2.75874E+00-1.09487E+00 1.18919E+00-1.96188E-12-1.10505E-12
 -1      1698 8.84165E+00 3.63900E+00-5.53774E-01 6.02360E+00-2.66975E-12-2.42512E-12
 -1      1699 5.37099E+00 7.69442E-01-1.01771E+00 3.52532E+00-2.54485E-12-1.87972E-12
 -1      1700 1.94479E+01 5.50902E+00 2.64157E-02 9.60539E+00-2.35756E-12-2.87637E-12
 -1      1701 1.30872E+01 4.09803E+00-6.48796E-01 7.02655E+00-2.62546E-12-2.58737E-12
 -1      1702 3.23483E+01 5.35787E+00 7.37865E-01 1.08170E+01-1.71396E-12-2.74070E-12
 -1      1703 2.42602E+01 5.75961E+00-1.39351E-02 9.96542E+00-2.21467E-12-2.91878E-12
 -1      1704 4.44945E+01 3.82438E+00 1.35743E+00 7.71599E+00-9.56554E-13-2.04392E-12
 -1      1705 3.69576E+01 5.17124E+00 7.23498E-01 9.83035E+00-1.43024E-12-2.57105E-12
 -1      1706 5.11738E+01 3.13513E+00 1.68609E+00 5.49762E-01-5.44370E-13-8.34999E-13
 -1      1707 4.73535E+01 3.81631E+00 1.35177E+00 5.35904E+00-7.65610E-13-1.65057E-12
 -1      1708 5.00352E+01 4.14206E+00 1.64431E+00-6.70055E+00-5.67324E-13 2.84273E-13
 -1      1709 5.18376E+01 3.30606E+00 1.73559E+00-1.89991E+00-4.71179E-13-5.01918E-13
 -1      1710 4.16325E+01 6.11789E+00 1.20860E+00-1.09821E+01-9.43176E-13 1.15630E-12
 -1      1711 4.74306E+01 4.53816E+00 1.59426E+00-8.21938E+00-6.60763E-13 5.17475E-13
 -1      1712 3.05984E+01 7.51551E+00 7.06672E-01-1.26009E+01-1.41231E-12 1.80311E-12
 -1      1713 3.82812E+01 6.37160E+00 1.29951E+00-1.25319E+01-1.03778E-12 1.52811E-12
 -1      1714 1.90395E+01 6.40070E+00 2.85223E-02-1.02265E+01-1.75393E-12 1.82743E-12
 -1      1715 2.61922E+01 7.22357E+00 7.58481E-01-1.25459E+01-1.50924E-12 1.94056E-12
 -1      1716 9.75147E+00 2.28927E+00-6.60480E-01-6.08966E+00-1.85840E-12 1.50990E-12
 -1      1717 1.47553E+01 5.46064E+00 8.41375E-02-9.27632E+00-1.83442E-12 1.78213E-12
 -1      1718 4.10996E+00-4.28557E+00-1.22224E+00-2.50780E+00-1.42852E-12 9.37639E-13
 -1      1719 6.76099E+00 4.15216E-01-5.71555E-01-4.95380E+00-1.70997E-12 1.38345E-12
 -1      1720 7.72522E-01-9.91682E+00-1.64690E+00-4.66525E-01-8.54983E-13 5.62279E-13
 -1      1721 1.41440E+00-5.81490E+00-1.21426E+00-9.85227E-01-1.39055E-12 8.60159E-13
 -1      1722-2.39640E-01-1.23453E+01-1.69757E+00-4.73290E-01 1.33588E-13 4.37039E-13
 -1      1723-1.27892E-01-1.05887E+01-1.52459E+00 2.67237E-01-5.50393E-13 5.01682E-13
 -1      1724 2.50046E+01 2.59548E+00 3.51058E-01 8.21127E+00 1.24933E-12 8.08464E-13
 -1      1725 1.52240E+01-1.44111E+00-3.31264E-01 7.20223E+00 1.13676E-12 9.05831E-13
 -1      1726 1.99998E+01 1.23160E-07-1.03147E-06 2.55847E-06-4.83537E-13-3.93062E-13
 -1      1727 1.99998E+01-3.54743E-05-5.09919E-07-2.20184E-05-2.66223E-13-6.55605E-14
 -1      1728 8.97908E-01-7.39825E+00-1.18420E+00 2.46107E+00 7.61946E-13 1.05341E-12
 -1      1729 7.00044E+00-4.44281E+00-6.43292E-01 5.51980E+00 9.94871E-13 1.08158E-12
 -1      1730-7.10226E-01-7.92676E+00-1.21708E+00-1.36027E-01 2.32737E-13 9.13103E-13
 -1      1731 3.47292E+01 5.05951E+00 9.09918E-01 7.42042E+00 1.08943E-12 3.98237E-13
 -1      1732 4.20071E+01 6.69749E+00 1.34743E+00 5.42242E+00 9.61592E-13-8.23785E-14
 -1      1733 4.56097E+01 6.87089E+00 1.55386E+00 2.42137E+00 9.22595E-13-7.88987E-13
 -1      1734 4.34638E+01 6.14755E+00 1.32251E+00-1.02066E+00 1.04239E-12-1.39710E-12
 -1      1735 3.65085E+01 4.11798E+00 6.92347E-01-3.22730E+00 1.28629E-12-1.64913E-12
 -1      1736 2.75180E+01 2.37663E+00 2.99649E-01-5.67162E+00 1.52539E-12-1.88316E-12
 -1      1737 1.66967E+01 1.10243E+00-2.81812E-01-6.27301E+00 1.74583E-12-2.02316E-12
 -1      1738 8.18396E+00-4.19392E-01-6.49185E-01-4.74788E+00 1.60127E-12-1.74949E-12
 -1      1739 2.65157E+00-1.77241E+00-7.75932E-01-2.70646E+00 1.19105E-12-1.40439E-12
 -1      1740-9.28451E-03-2.71921E+00-7.95394E-01-8.66897E-01 5.55195E-13-1.14617E-12
 -1      1741-1.70339E-02-1.93052E+00-6.31801E-01 9.67042E-01-1.48409E-13-1.14275E-12
 -1      1742 2.17686E+00-1.17806E+00-6.45552E-01 2.72834E+00-7.17537E-13-1.24487E-12
 -1      1743 7.11375E+00-2.50368E-01-6.02329E-01 4.66818E+00-1.38023E-12-1.49827E-12
 -1      1744 1.52547E+01 1.10565E+00-3.07352E-01 6.25090E+00-1.54399E-12-1.71008E-12
 -1      1745 2.49033E+01 2.62331E+00 1.33084E-01 6.58731E+00-1.59284E-12-1.80167E-12
 -1      1746 3.44558E+01 4.29085E+00 7.29295E-01 5.40155E+00-1.39003E-12-1.63791E-12
 -1      1747 4.15024E+01 5.83343E+00 1.20601E+00 2.45233E+00-1.12446E-12-1.11577E-12
 -1      1748 4.46487E+01 6.82522E+00 1.44988E+00-1.11505E+00-9.38027E-13-6.13121E-13
 -1      1749 4.28537E+01 6.90993E+00 1.34221E+00-4.04014E+00-9.06497E-13-8.30447E-14
 -1      1750 3.78085E+01 6.05427E+00 1.10535E+00-6.60664E+00-9.72868E-13 3.84248E-13
 -1      1751 3.03113E+01 4.31764E+00 6.99355E-01-8.22409E+00-9.56457E-13 8.72857E-13
 -1      1752 2.12563E+01 1.71676E+00 1.41407E-01-8.09524E+00-9.52349E-13 1.05949E-12
 -1      1753 1.28649E+01-1.77706E+00-3.91813E-01-6.83382E+00-7.97695E-13 9.51017E-13
 -1      1754 5.77679E+00-4.83888E+00-7.92786E-01-5.02445E+00-5.97744E-13 9.18833E-13
 -1      1755 9.14881E-01-7.01110E+00-1.11006E+00-2.53263E+00-2.22600E-13 8.76188E-13
 -1      1756 2.71416E+01 5.12669E+00-7.73087E-02-5.33995E+00-2.82718E-13 2.87159E-13
 -1      1757 2.93420E+01 1.26780E+00-1.41989E-01-3.04933E+00-3.03479E-13 1.23168E-12
 -1      1758 2.42342E+01 2.94045E+00-3.11736E-02-2.84480E+00-1.23941E-13-3.79217E-13
 -1      1759 2.47070E+01 3.12097E+00-8.44599E-02-3.44588E+00-2.47918E-13-3.10349E-13
 -1      1760 2.52258E+01 3.14206E+00-4.85074E-02-3.76479E+00-3.20782E-13-1.90015E-13
 -1      1761 2.58379E+01 3.04400E+00-8.26688E-02-4.13397E+00-4.31814E-13-8.86791E-15
 -1      1762 2.53702E+01 2.19059E+00-2.43112E-04-3.61334E+00-3.18719E-13-1.66922E-13
 -1      1763 2.00945E+01 1.95186E+00-3.86039E-03 3.55402E-01 3.16386E-13-4.47850E-13
 -1      1764 2.16919E+01 2.10302E+00-1.19902E-02-4.56590E-01 2.08535E-13-4.46039E-13
 -1      1765 1.54153E+01 2.22422E+00-2.22726E-02 2.05527E+00 4.89123E-13-5.25344E-13
 -1      1766 1.80241E+01 2.13078E+00 6.05887E-02 1.43032E+00 4.21017E-13-5.05148E-13
 -1      1767 1.96859E+01 1.06656E+00-3.10273E-02 9.56329E-01 3.73854E-13-3.98313E-13
 -1      1768 9.67935E+00 3.39950E+00-8.45197E-03 2.50301E+00 4.87076E-13-7.06601E-13
 -1      1769 1.25179E+01 3.09702E+00 1.27737E-01 2.55402E+00 5.25323E-13-6.54816E-13
 -1      1770 1.42397E+01 1.86028E+00 1.48991E-02 2.79956E+00 5.19002E-13-5.82409E-13
 -1      1771 6.20093E+00 4.39597E+00 4.20647E-02 1.42024E+00 3.08073E-13-8.63934E-13
 -1      1772 7.63830E+00 4.22392E+00 1.33974E-01 1.96825E+00 4.21656E-13-8.32147E-13
 -1      1773 8.49680E+00 3.31948E+00 8.18947E-02 2.87747E+00 4.69208E-13-8.53331E-13
 -1      1774 9.38710E+00 3.85216E+00 1.34538E-01-1.97041E+00-1.57235E-13-8.18748E-13
 -1      1775 7.30299E+00 4.08147E+00 8.57543E-03-1.56803E+00-6.30884E-14-8.58827E-13
 -1      1776 1.51918E+01 2.62877E+00 1.06135E-01-1.83254E+00-2.27325E-13-6.08669E-13
 -1      1777 1.22069E+01 2.85541E+00-2.17283E-02-2.11075E+00-2.21295E-13-6.79672E-13
 -1      1778 1.09074E+01 2.77844E+00 6.07491E-02-2.57552E+00-1.90598E-13-8.08659E-13
 -1      1779 2.02110E+01 2.06387E+00 2.20397E-02-1.92493E-01-1.05839E-13-3.75810E-13
 -1      1780 1.79065E+01 2.03636E+00-1.01001E-02-9.70622E-01-1.91853E-13-4.62422E-13
 -1      1781 1.71208E+01 1.40595E+00-2.19726E-02-1.63005E+00-2.17860E-13-4.93314E-13
 -1      1782 2.32967E+01 2.35641E+00-4.66075E-02 1.72721E+00 9.77135E-14-1.84290E-13
 -1      1783 2.19695E+01 2.13579E+00-3.32339E-03 8.97601E-01-8.56260E-15-2.69486E-13
 -1      1784 2.18228E+01 1.14056E+00-2.86455E-02 5.16865E-01-5.98688E-14-2.30562E-13
 -1      1785 2.51057E+01 2.85142E+00-8.96785E-02 3.24051E+00 2.74700E-13 6.90906E-14
 -1      1786 2.43092E+01 2.64563E+00-2.57169E-02 2.54373E+00 1.77813E-13-8.25451E-14
 -1      1787 2.44931E+01 1.59979E+00-8.28527E-03 2.41228E+00 1.45270E-13-4.07729E-14
 -1      1788 2.68856E+01 2.71608E+00-1.16810E-01 4.12835E+00 3.43288E-13 5.57679E-13
 -1      1789 2.59352E+01 2.89987E+00-5.85228E-02 3.66881E+00 3.05474E-13 2.63338E-13
 -1      1790 2.60798E+01 1.92695E+00 2.37872E-03 3.54036E+00 3.09502E-13 2.38108E-13
 -1      1791 2.84365E+01 1.25098E+00-1.74572E-01 3.50264E+00 3.16538E-13 1.18050E-12
 -1      1792 2.75584E+01 2.46573E+00 6.29683E-03 4.01244E+00 3.24669E-13 7.79765E-13
 -1      1793 2.70814E+01 1.45931E+00-1.96467E-02 3.62615E+00 3.61315E-13 6.22363E-13
 -1      1794 2.73156E+01 6.60175E-01-7.92478E-02 2.74496E+00 3.23054E-13 1.08547E-12
 -1      1795 2.76112E+01 1.97204E+00 4.90923E-02-3.96566E+00-4.14002E-13 5.22402E-13
 -1      1796 2.55889E+01 1.29684E-01-6.71829E-03 2.20701E+00 2.83981E-13 9.77205E-13
 -1      1797 2.66798E+01 2.24998E-01-2.96474E-02 2.42578E+00 2.67925E-13 1.03728E-12
 -1      1798 2.67435E+01 6.06566E-01 8.12040E-03 3.02629E+00 3.13912E-13 7.79841E-13
 -1      1799 2.51193E+01 3.30792E-01 1.72258E-02-2.44246E+00-3.36314E-13 2.51825E-13
 -1      1800 2.41924E+01 3.07638E-01 1.20840E-02-2.17161E+00-3.07150E-13 1.71072E-13
 -1      1801 2.36462E+01 3.56120E-01 2.12711E-02-1.92885E+00-3.05075E-13 1.40162E-13
 -1      1802 2.30123E+01 4.59024E-01 2.89761E-02-1.67837E+00-2.87589E-13 6.17981E-14
 -1      1803 2.44451E+01 5.44343E-01-6.44470E-04-2.62965E+00-3.68738E-13 4.79360E-14
 -1      1804 2.25445E+01 5.76521E-01 1.70246E-02-1.28719E+00-2.47797E-13 2.61223E-14
 -1      1805 2.21569E+01 6.68888E-01 2.54854E-02-9.24919E-01-2.12445E-13-6.84586E-14
 -1      1806 2.34203E+01 7.82240E-01-1.39934E-02-1.91404E+00-3.21951E-13-1.79448E-14
 -1      1807 2.18963E+01 7.06088E-01 1.99895E-02-4.14235E-01-2.08949E-13-1.26137E-13
 -1      1808 2.17758E+01 6.71364E-01 1.22118E-02-1.79463E-02-2.00050E-13-1.80650E-13
 -1      1809 2.27015E+01 1.00525E+00-2.45422E-02-8.94086E-01-2.64677E-13-1.39593E-13
 -1      1810 2.17580E+01 5.74630E-01 2.39577E-02 4.38128E-01-2.01571E-13-2.39074E-13
 -1      1811 2.18665E+01 4.15806E-01-4.03440E-04 7.22315E-01-1.50656E-13-2.95269E-13
 -1      1812 2.24286E+01 9.08612E-01-2.14867E-02 2.05433E-01-2.33627E-13-2.49432E-13
 -1      1813 2.19916E+01 2.42586E-01 1.87048E-02 9.55964E-01-1.25996E-13-3.32135E-13
 -1      1814 2.22311E+01 5.55535E-02-6.16254E-03 1.04222E+00-9.98012E-14-3.82919E-13
 -1      1815 2.25362E+01 4.93416E-01-6.31265E-03 9.78429E-01-1.93747E-13-3.48809E-13
 -1      1816 2.23508E+01-9.52288E-02 5.39845E-03 1.02054E+00-6.43485E-14-3.77658E-13
 -1      1817 2.26042E+01-2.19612E-01-5.74104E-03 9.32215E-01-1.41939E-14-3.51681E-13
 -1      1818 2.27739E+01-1.06209E-02 5.92866E-03 1.19848E+00-9.15931E-14-3.79023E-13
 -1      1819 2.26308E+01-2.93238E-01-7.65776E-03 7.45127E-01-5.61209E-14-3.39531E-13
 -1      1820 2.28104E+01-3.29084E-01-3.18031E-03 5.68788E-01-2.72187E-14-3.41297E-13
 -1      1821 2.29113E+01-3.64046E-01 9.08294E-03 9.48245E-01-2.10500E-14-3.64656E-13
 -1      1822 2.27378E+01-3.31174E-01-1.44177E-02 3.35796E-01-4.81525E-14-3.62760E-13
 -1      1823 2.28060E+01-3.04304E-01-1.16877E-03 1.54557E-01-5.79484E-14-4.24820E-13
 -1      1824 2.28624E+01-4.84235E-01 6.12668E-03 4.74962E-01-7.63630E-14-3.57024E-13
 -1      1825 2.26684E+01-2.67744E-01-1.46585E-02-4.30997E-02-6.92684E-14-3.98296E-13
 -1      1826 2.26306E+01-2.15869E-01-1.91910E-04-1.82142E-01-4.63570E-14-4.14353E-13
 -1      1827 2.26570E+01-4.27778E-01 2.22430E-03 1.10469E-03-8.06716E-14-3.51863E-13
 -1      1828 2.24640E+01-1.70077E-01-1.11140E-02-3.13196E-01-6.71863E-14-4.24388E-13
 -1      1829 2.23484E+01-1.19407E-01 2.29386E-04-3.97265E-01-9.04363E-14-4.12982E-13
 -1      1830 2.23611E+01-2.93692E-01-4.25624E-04-3.55187E-01-7.24620E-14-3.50493E-13
 -1      1831 2.21772E+01-8.04574E-02-6.51206E-03-4.63481E-01-8.21405E-14-3.90752E-13
 -1      1832 2.20170E+01-4.23400E-02 4.85333E-04-4.99724E-01-2.93294E-14-3.64619E-13
 -1      1833 2.20311E+01-1.55711E-01-1.70638E-03-5.66078E-01-6.75098E-14-3.12442E-13
 -1      1834 2.18550E+01-1.52339E-02-2.47328E-03-5.16761E-01 2.54892E-14-3.49095E-13
 -1      1835 2.16784E+01 8.73755E-03 7.20716E-04-5.19224E-01 9.16526E-14-3.16372E-13
 -1      1836 2.17030E+01-4.84334E-02-2.17950E-03-6.52682E-01 5.44551E-15-2.86879E-13
 -1      1837 2.15322E+01 2.47966E-02 4.11141E-04-5.04721E-01 4.95802E-14-3.07324E-13
 -1      1838 2.13594E+01 3.72795E-02 9.25325E-04-4.87015E-01 3.02157E-14-2.72445E-13
 -1      1839 2.13969E+01 2.11922E-02-2.27649E-03-6.51820E-01 6.96153E-14-2.50078E-13
 -1      1840 2.12316E+01 4.50915E-02 2.14356E-03-4.55480E-01-8.13390E-15-2.74092E-13
 -1      1841 2.10745E+01 4.96901E-02 1.06592E-03-4.27990E-01 1.15605E-14-2.73948E-13
 -1      1842 2.11231E+01 5.91056E-02-2.21348E-03-5.98491E-01 4.01530E-14-2.54059E-13
 -1      1843 2.09658E+01 5.21205E-02 2.97186E-03-3.89595E-01-2.41606E-14-2.99314E-13
 -1      1844 2.08302E+01 5.19452E-02 1.12492E-03-3.59189E-01-2.43142E-14-3.17181E-13
 -1      1845 2.08857E+01 7.46853E-02-2.07625E-03-5.19464E-01-3.94079E-14-2.58070E-13
 -1      1846 2.07398E+01 5.12381E-02 3.18625E-03-3.20290E-01-2.61000E-15-3.41375E-13
 -1      1847 2.06273E+01 4.85305E-02 1.10802E-03-2.90999E-01-5.24159E-14-2.94815E-13
 -1      1848 2.06853E+01 7.64008E-02-1.89735E-03-4.32674E-01-1.77701E-14-3.33969E-13
 -1      1849 2.05536E+01 4.62240E-02 3.03272E-03-2.55122E-01-1.27912E-13-2.43911E-13
 -1      1850 2.04631E+01 4.24331E-02 1.03396E-03-2.29000E-01-6.77414E-14-3.16648E-13
 -1      1851 2.05199E+01 7.05137E-02-1.69284E-03-3.48873E-01-6.97989E-14-2.47393E-13
 -1      1852 2.04043E+01 3.94918E-02 2.68973E-03-1.97788E-01-2.02715E-14-3.61042E-13
 -1      1853 2.03335E+01 3.54762E-02 9.24436E-04-1.75634E-01 5.58641E-14-3.20577E-13
 -1      1854 2.03863E+01 6.11510E-02-1.47556E-03-2.73703E-01-5.53355E-14-2.49201E-13
 -1      1855 2.02874E+01 3.24591E-02 2.27391E-03-1.49571E-01 6.75126E-14-3.40224E-13
 -1      1856 2.02333E+01 2.86823E-02 7.98411E-04-1.31457E-01 2.87444E-14-3.15161E-13
 -1      1857 2.02806E+01 5.08066E-02-1.25745E-03-2.09489E-01 3.29468E-14-2.87538E-13
 -1      1858 2.01980E+01 2.58855E-02 1.85485E-03-1.10366E-01 3.93936E-14-1.74384E-13
 -1      1859 2.01576E+01 2.25644E-02 6.70007E-04-9.59800E-02 4.60612E-14-1.23743E-13
 -1      1860 2.01986E+01 4.08617E-02-1.04869E-03-1.56570E-01 1.05603E-13-5.45827E-14
 -1      1861 2.01310E+01 2.01219E-02 1.46988E-03-7.93526E-02 2.54918E-15-1.00348E-13
 -1      1862 2.01016E+01 1.73284E-02 5.48508E-04-6.82087E-02 1.03190E-13-1.11296E-13
 -1      1863 2.01362E+01 3.19925E-02-8.56810E-04-1.14189E-01 7.45316E-14 4.62277E-14
 -1      1864 2.00820E+01 1.52799E-02 1.13584E-03-5.54030E-02 9.31985E-14-1.53058E-13
 -1      1865 2.00612E+01 1.30060E-02 4.39234E-04-4.69680E-02 3.63067E-14-1.38364E-13
 -1      1866 2.00898E+01 2.44545E-02-6.86432E-04-8.10717E-02 6.13859E-14-1.99648E-13
 -1      1867 2.00471E+01 1.13395E-02 8.57264E-04-3.73232E-02 2.69743E-14-2.02665E-13
 -1      1868 2.00328E+01 9.53682E-03 3.44600E-04-3.10835E-02-6.13924E-15-1.93037E-13
 -1      1869 2.00559E+01 1.82663E-02-5.39558E-04-5.57728E-02 4.76086E-14-2.74111E-13
 -1      1870 2.00229E+01 8.21469E-03 6.31934E-04-2.39824E-02-4.39905E-14-1.71840E-13
 -1      1871 2.00136E+01 6.81830E-03 2.65062E-04-1.94779E-02-4.83016E-14-1.69568E-13
 -1      1872 2.00318E+01 1.33239E-02-4.16172E-04-3.68704E-02-1.49995E-15-2.61727E-13
 -1      1873 2.00069E+01 5.79239E-03 4.54241E-04-1.43764E-02-2.01817E-13-2.31323E-13
 -1      1874 2.00011E+01 4.73400E-03 1.99868E-04-1.12128E-02-1.42693E-13-3.60090E-13
 -1      1875 2.00152E+01 9.46849E-03-3.14873E-04-2.30699E-02-1.80628E-13-2.07291E-13
 -1      1876 1.99967E+01 3.95451E-03 3.17267E-04-7.64981E-03 3.42018E-14-4.22398E-13
 -1      1877 1.99934E+01 3.16963E-03 1.47596E-04-5.50072E-03 1.33121E-13-3.81516E-13
 -1      1878 2.00042E+01 6.52576E-03-2.33433E-04-1.32486E-02-1.18727E-13-2.00269E-13
 -1      1879 1.99908E+01 2.58977E-03 2.13957E-04-3.09676E-03 8.57237E-14-4.09145E-13
 -1      1880 1.99892E+01 2.02111E-03 1.06528E-04-1.69872E-03-1.49361E-14-3.44047E-13
 -1      1881 1.99973E+01 4.32740E-03-1.69239E-04-6.46597E-03 7.35412E-14-3.55038E-13
 -1      1882 1.99878E+01 1.59936E-03 1.37747E-04-1.49319E-04-1.35347E-13-4.39127E-13
 -1      1883 1.99873E+01 1.19803E-03 7.48852E-05 7.05463E-04-1.62825E-13-4.76510E-13
 -1      1884 1.99932E+01 2.72164E-03-1.19599E-04-1.95561E-03-6.14291E-14-6.16131E-13
 -1      1885 1.99867E+01 8.98952E-04 8.28600E-05 1.63948E-03-1.55420E-13-4.21752E-13
 -1      1886 1.99870E+01 6.24523E-04 5.09790E-05 2.11154E-03-1.12105E-13-5.10079E-13
 -1      1887 1.99912E+01 1.57762E-03-8.19479E-05 8.92846E-04-1.89168E-13-5.74859E-13
 -1      1888 1.99869E+01 4.18746E-04 4.44009E-05 2.61428E-03-1.66525E-13-4.77163E-13
 -1      1889 1.99876E+01 2.38568E-04 3.32852E-05 2.82519E-03-1.77561E-13-5.07324E-13
 -1      1890 1.99906E+01 7.86136E-04-5.39598E-05 2.55530E-03-1.32542E-13-4.69826E-13
 -1      1891 1.99879E+01 1.02325E-04 1.83401E-05 3.03553E-03-1.86872E-13-4.28110E-13
 -1      1892 1.99888E+01-9.39390E-06 2.04813E-05 3.07545E-03 5.08751E-14-3.55114E-13
 -1      1893 1.99908E+01 2.58382E-04-3.36062E-05 3.39552E-03-1.15185E-13-1.95344E-13
 -1      1894 1.99892E+01-9.49290E-05 1.44007E-06 3.09601E-03 2.41728E-13-3.54485E-13
 -1      1895 1.99902E+01-1.58162E-04 1.14530E-05 3.03034E-03 2.31425E-13-3.71421E-13
 -1      1896 1.99915E+01-7.62956E-05-1.91699E-05 3.68595E-03 1.12338E-13-1.66547E-13
 -1      1897 1.99907E+01-2.07613E-04-8.84576E-06 2.93525E-03 2.03949E-13-4.19753E-13
 -1      1898 1.99917E+01-2.37531E-04 5.28401E-06 2.81022E-03 9.63459E-14-2.50446E-13
 -1      1899 1.99924E+01-2.72974E-04-9.23251E-06 3.62636E-03 2.18242E-13-4.35210E-14
 -1      1900 1.99922E+01-2.62040E-04-1.44810E-05 2.65161E-03-7.08148E-14-3.55424E-13
 -1      1901 1.99931E+01-2.69940E-04 1.23634E-06 2.49893E-03-2.54485E-14-4.05110E-13
 -1      1902 1.99935E+01-3.73765E-04-2.64800E-06 3.35977E-03 6.25346E-15-8.69104E-14
 -1      1903 1.99936E+01-2.77839E-04-1.69503E-05 2.31235E-03 3.68388E-14-4.76254E-13
 -1      1904 1.99944E+01-2.71958E-04-1.27343E-06 2.15291E-03-3.89479E-14-3.83425E-13
 -1      1905 1.99945E+01-4.10249E-04 1.49135E-06 2.98576E-03-5.20775E-14-2.78168E-13
 -1      1906 1.99948E+01-2.69350E-04-1.73536E-05 1.96155E-03-4.93629E-14-4.09148E-13
 -1      1907 1.99955E+01-2.55561E-04-2.69905E-06 1.80836E-03-6.36477E-15-3.49016E-13
 -1      1908 1.99955E+01-4.05635E-04 3.89113E-06 2.57126E-03-4.97986E-14-3.35558E-13
 -1      1909 1.99959E+01-2.46825E-04-1.64882E-05 1.62649E-03 2.93494E-14-2.40606E-13
 -1      1910 1.99965E+01-2.29211E-04-3.38861E-06 1.48695E-03 1.74509E-14-1.01484E-13
 -1      1911 1.99963E+01-3.76616E-04 5.08967E-06 2.15918E-03 1.01655E-13-2.14625E-13
 -1      1912 1.99968E+01-2.17418E-04-1.49178E-05 1.32247E-03-6.70852E-14-1.70071E-14
 -1      1913 1.99973E+01-1.98742E-04-3.60622E-06 1.20007E-03-1.15828E-14 3.91654E-14
 -1      1914 1.99971E+01-3.34925E-04 5.48990E-06 1.77508E-03 2.63223E-14 7.75874E-14
 -1      1915 1.99975E+01-1.86001E-04-1.30288E-05 1.05646E-03 2.16860E-14-5.80433E-14
 -1      1916 1.99979E+01-1.68086E-04-3.55101E-06 9.52011E-04 1.77156E-13-3.80489E-14
 -1      1917 1.99977E+01-2.88609E-04 5.38682E-06 1.43231E-03-2.14000E-14 3.01469E-13
 -1      1918 1.99981E+01-1.55821E-04-1.10746E-05 8.29758E-04 2.76488E-13-1.39007E-13
 -1      1919 1.99984E+01-1.39852E-04-3.37138E-06 7.42319E-04 3.36425E-13 1.82865E-14
 -1      1920 1.99983E+01-2.43069E-04 4.98993E-06 1.13577E-03 2.12080E-13 2.56941E-13
 -1      1921 1.99986E+01-1.29024E-04-9.20695E-06 6.39926E-04 3.62919E-13 7.36609E-14
 -1      1922 1.99989E+01-1.15766E-04-3.16664E-06 5.67368E-04 4.30571E-13 3.06896E-13
 -1      1923 1.99987E+01-2.01883E-04 4.44173E-06 8.84700E-04 3.62713E-13 2.49291E-13
 -1      1924 1.99990E+01-1.07020E-04-7.49216E-06 4.82061E-04 3.19683E-13 2.10951E-13
 -1      1925 1.99992E+01-9.69506E-05-2.97580E-06 4.21503E-04 1.51011E-13 2.14740E-13
 -1      1926 1.99990E+01-1.67392E-04 3.83926E-06 6.74633E-04 3.24788E-13 2.02425E-13
 -1      1927 1.99993E+01-9.06815E-05-5.91923E-06 3.49822E-04-9.27350E-14 2.28410E-13
 -1      1928 1.99994E+01-8.40404E-05-2.80600E-06 2.98030E-04 6.57730E-14 1.52529E-13
 -1      1929 1.99993E+01-1.41072E-04 3.21894E-06 4.98866E-04 6.08210E-14 1.89354E-13
 -1      1930 1.99995E+01-7.99124E-05-4.35445E-06 2.36254E-04 1.01285E-13-3.68801E-14
 -1      1931 1.99996E+01-7.58659E-05-2.54618E-06 1.90371E-04 1.40672E-13 8.71007E-14
 -1      1932 1.99995E+01-1.23569E-04 2.48108E-06 3.49868E-04-5.76346E-14 1.60433E-13
 -1      1933 1.99996E+01-7.13226E-05-3.24047E-06 1.39028E-04 1.27801E-13-9.37487E-14
 -1      1934 1.99997E+01-6.64671E-05-2.44611E-06 9.95977E-05 6.05175E-15-1.37797E-13
 -1      1935 1.99997E+01-8.78529E-05 1.86358E-06 1.20090E-04-5.46986E-14-2.87929E-13
 -1      1936 1.99996E+01-1.07755E-04 2.89557E-06 2.24020E-04 3.09652E-15 7.41277E-14
 -1      1937 2.40293E+01 2.23032E-01 1.63145E-02 1.93372E+00 2.49344E-13 8.89888E-13
 -1      1938 2.49151E+01 1.40995E-01 1.21003E-02 2.05128E+00 2.62144E-13 9.68570E-13
 -1      1939 2.53219E+01 2.23567E-01 4.39976E-03 2.58510E+00 2.69514E-13 7.76201E-13
 -1      1940 2.27632E+01 4.73994E-01 9.09311E-03 1.34627E+00 2.02983E-13 6.90444E-13
 -1      1941 2.34383E+01 3.64960E-01 1.81462E-02 1.61760E+00 2.29958E-13 7.98363E-13
 -1      1942 2.40055E+01 4.52943E-01-5.24860E-03 2.09387E+00 2.85934E-13 6.63078E-13
 -1      1943 2.20352E+01 5.96288E-01-7.06572E-03 3.97870E-01 1.65420E-13 4.80218E-13
 -1      1944 2.24037E+01 5.87005E-01 1.83675E-02 8.32339E-01 1.68792E-13 5.61761E-13
 -1      1945 2.30230E+01 7.73065E-01-1.43873E-02 1.19213E+00 2.40995E-13 4.66371E-13
 -1      1946 2.19799E+01 4.53052E-01-1.39286E-02-5.45271E-01 1.33352E-13 3.73410E-13
 -1      1947 2.19953E+01 5.69050E-01 1.69564E-02-1.20643E-01 1.68449E-13 3.95570E-13
 -1      1948 2.25837E+01 7.97326E-01-1.86360E-02 2.82298E-02 2.01346E-13 3.21568E-13
 -1      1949 2.24277E+01 1.35931E-01-6.73448E-03-1.07355E+00 1.52085E-13 2.47500E-13
 -1      1950 2.21689E+01 3.02868E-01 1.24292E-02-8.40812E-01 1.34177E-13 2.97377E-13
 -1      1951 2.26792E+01 4.88871E-01-8.43363E-03-9.03950E-01 1.70130E-13 1.73625E-13
 -1      1952 2.30057E+01-1.46204E-01 4.76191E-03-1.06167E+00 8.27073E-14 1.86622E-13
 -1      1953 2.26455E+01-2.56678E-02 3.58841E-03-1.06413E+00 1.39696E-13 2.18037E-13
 -1      1954 2.30387E+01 4.44574E-02 3.20542E-03-1.24509E+00 1.64320E-13 6.15055E-14
 -1      1955 2.34034E+01-2.74635E-01 1.08167E-02-6.87153E-01-2.07881E-14 1.57143E-13
 -1      1956 2.31084E+01-2.37591E-01-5.31841E-03-8.42370E-01 1.91739E-14 2.21365E-13
 -1      1957 2.33409E+01-2.89575E-01 4.38097E-03-1.02451E+00 2.73765E-14 7.04402E-14
 -1      1958 2.35049E+01-2.64496E-01 1.01402E-02-2.14287E-01 4.21703E-14 1.06161E-13
 -1      1959 2.33629E+01-2.88635E-01-1.00869E-02-4.10693E-01 2.25341E-15 1.40067E-13
 -1      1960 2.34235E+01-4.06086E-01 1.08644E-04-5.19944E-01 2.04298E-14 1.88456E-14
 -1      1961 2.33422E+01-1.86244E-01 6.28675E-03 1.76491E-01 5.51850E-14 1.56472E-13
 -1      1962 2.33596E+01-2.33649E-01-1.03021E-02 1.33853E-02 4.44107E-14 1.40242E-13
 -1      1963 2.32817E+01-3.54220E-01-3.29238E-03-3.69645E-03 3.85430E-14 2.85411E-15
 -1      1964 2.30051E+01-9.91073E-02 2.43533E-03 4.21358E-01 3.44737E-14 1.84106E-13
 -1      1965 2.31426E+01-1.43633E-01-7.76505E-03 3.17917E-01 3.59764E-14 1.74864E-13
 -1      1966 2.29823E+01-2.32260E-01-4.13586E-03 3.77245E-01 3.28123E-14 6.44415E-14
 -1      1967 2.25829E+01-3.12935E-02-1.68528E-05 5.31558E-01-2.04936E-14 2.45886E-13
 -1      1968 2.27893E+01-6.28074E-02-4.41826E-03 4.83599E-01 3.05355E-15 2.19052E-13
 -1      1969 2.25999E+01-1.12099E-01-3.36777E-03 5.91410E-01 1.28413E-15 1.59451E-13
 -1      1970 2.21423E+01 1.15017E-02-1.12896E-03 5.46204E-01-4.00348E-14 2.95785E-13
 -1      1971 2.23738E+01-6.62749E-03-1.45100E-03 5.37995E-01-4.50707E-14 2.57637E-13
 -1      1972 2.21922E+01-2.41352E-02-2.24623E-03 6.68033E-01-4.10308E-14 2.04541E-13
 -1      1973 2.17253E+01 3.37251E-02-1.37606E-03 5.04713E-01-1.89013E-14 2.02084E-13
 -1      1974 2.19519E+01 2.56587E-02 6.62252E-04 5.20182E-01-1.13873E-14 2.26240E-13
 -1      1975 2.17975E+01 2.86347E-02-1.38492E-03 6.53103E-01 1.00195E-14 1.69336E-13
 -1      1976 2.13546E+01 4.21005E-02-1.20247E-03 4.36740E-01 5.56035E-14 1.83168E-13
 -1      1977 2.15593E+01 4.04035E-02 1.91160E-03 4.63665E-01 3.95122E-14 2.29886E-13
 -1      1978 2.14384E+01 5.41890E-02-8.82597E-04 5.87472E-01 3.24922E-14 1.57050E-13
 -1      1979 2.10392E+01 4.23617E-02-8.91238E-04 3.61265E-01-3.69342E-14 4.63759E-14
 -1      1980 2.12144E+01 4.41609E-02 2.47965E-03 3.91741E-01-2.77879E-14 1.11673E-13
 -1      1981 2.11257E+01 6.21422E-02-6.45674E-04 5.00301E-01 2.02429E-14 8.61784E-14
 -1      1982 2.07797E+01 3.84884E-02-5.84040E-04 2.88949E-01 7.81985E-14 1.10942E-13
 -1      1983 2.09239E+01 4.18871E-02 2.58834E-03 3.18470E-01 4.73098E-14 7.26920E-14
 -1      1984 2.08626E+01 6.01740E-02-5.55105E-04 4.09666E-01 2.96868E-14 9.65541E-14
 -1      1985 2.05719E+01 3.29328E-02-3.34551E-04 2.24917E-01-2.93701E-14 4.98846E-14
 -1      1986 2.06870E+01 3.68079E-02 2.42739E-03 2.51267E-01-1.65449E-16 1.07544E-13
 -1      1987 2.06474E+01 5.34258E-02-5.24314E-04 3.25409E-01 4.17882E-14 1.13671E-13
 -1      1988 2.04093E+01 2.70714E-02-1.52706E-04 1.70966E-01 2.04159E-13-7.21986E-14
 -1      1989 2.04988E+01 3.08212E-02 2.13355E-03 1.93317E-01 7.41729E-14-2.68491E-14
 -1      1990 2.04754E+01 4.49751E-02-5.05656E-04 2.52010E-01 9.95881E-14-5.38260E-14
 -1      1991 2.02848E+01 2.16033E-02-3.04522E-05 1.27067E-01 1.26527E-13-1.30067E-13
 -1      1992 2.03529E+01 2.49450E-02 1.79447E-03 1.45365E-01 2.02285E-13-1.12535E-13
 -1      1993 2.03409E+01 3.64965E-02-4.79343E-04 1.90764E-01 1.83724E-13-9.31674E-14
 -1      1994 2.01914E+01 1.68306E-02 4.53934E-05 9.22947E-02-3.89792E-14-1.73841E-13
 -1      1995 2.02420E+01 1.96638E-02 1.46087E-03 1.06874E-01 3.09027E-14-9.43964E-14
 -1      1996 2.02378E+01 2.88012E-02-4.41060E-04 1.41242E-01 7.09012E-14-1.43653E-13
 -1      1997 2.01228E+01 1.28369E-02 8.76482E-05 6.53679E-02-4.93656E-14-2.55017E-13
 -1      1998 2.01596E+01 1.51583E-02 1.15872E-03 7.67236E-02-9.83942E-14-2.35676E-13
 -1      1999 2.01604E+01 2.22062E-02-3.93369E-04 1.02193E-01-5.81106E-14-1.97759E-13
 -1      2000 2.00735E+01 9.59374E-03 1.06893E-04 4.49421E-02-1.08304E-14-2.16164E-13
 -1      2001 2.00997E+01 1.14470E-02 8.98708E-04 5.36080E-02-8.18480E-15-2.03454E-13
 -1      2002 2.01034E+01 1.67634E-02-3.40858E-04 7.20618E-02-4.53601E-14-2.20226E-13
 -1      2003 2.00392E+01 7.02144E-03 1.11183E-04 2.97588E-02 1.45344E-14-8.51439E-14
 -1      2004 2.00572E+01 8.46947E-03 6.82780E-04 3.62420E-02 8.17814E-15-1.69478E-13
 -1      2005 2.00624E+01 1.23941E-02-2.87844E-04 4.92792E-02-2.49157E-14-1.49404E-13
 -1      2006 2.00159E+01 5.02211E-03 1.06346E-04 1.87106E-02 9.61904E-14-1.52381E-13
 -1      2007 2.00279E+01 6.13162E-03 5.08251E-04 2.34618E-02 1.06176E-13-1.17721E-13
 -1      2008 2.00337E+01 8.96412E-03-2.37545E-04 3.23983E-02 1.07790E-13-8.86583E-14
 -1      2009 2.00009E+01 3.49711E-03 9.64426E-05 1.08607E-02-1.68118E-14-1.46053E-13
 -1      2010 2.00084E+01 4.33125E-03 3.70306E-04 1.42643E-02-1.83125E-14-1.52476E-13
 -1      2011 2.00142E+01 6.32433E-03-1.91983E-04 2.01579E-02 3.41926E-14-1.95976E-13
 -1      2012 1.99918E+01 2.35551E-03 8.42020E-05 5.43864E-03-1.84769E-14-1.02597E-13
 -1      2013 1.99962E+01 2.97041E-03 2.63428E-04 7.81311E-03 1.69729E-14-1.14644E-13
 -1      2014 2.00016E+01 4.33068E-03-1.52173E-04 1.14963E-02-2.63766E-14-1.27918E-13
 -1      2015 1.99868E+01 1.51769E-03 7.13858E-05 1.82493E-03 4.29757E-14-2.18529E-13
 -1      2016 1.99890E+01 1.96131E-03 1.82178E-04 3.42794E-03-3.62118E-14-9.28168E-14
 -1      2017 1.99938E+01 2.85376E-03-1.18387E-04 5.54384E-03-4.01922E-14-3.51509E-14
 -1      2018 1.99846E+01 9.16212E-04 5.90708E-05-4.68919E-04 1.04615E-13-1.35350E-13
 -1      2019 1.99854E+01 1.22839E-03 1.21585E-04 5.67086E-04 1.63165E-13-1.34397E-13
 -1      2020 1.99896E+01 1.78226E-03-9.04124E-05 1.60336E-03 3.11998E-14-6.39118E-14
 -1      2021 1.99843E+01 4.95418E-04 4.78608E-05-1.82130E-03 8.73207E-14-2.29653E-13
 -1      2022 1.99841E+01 7.08523E-04 7.73139E-05-1.19300E-03 4.51923E-14-2.04230E-13
 -1      2023 1.99876E+01 1.02318E-03-6.77439E-05-8.73572E-04 1.04911E-13-5.23829E-14
 -1      2024 1.99851E+01 2.10297E-04 3.80418E-05-2.52018E-03-7.26334E-14-1.64994E-13
 -1      2025 1.99844E+01 3.50122E-04 4.57041E-05-2.17762E-03 1.29257E-17-2.35255E-13
 -1      2026 1.99873E+01 5.00648E-04-4.97342E-05-2.31067E-03 6.46130E-14 5.07751E-14
 -1      2027 1.99865E+01 2.51209E-05 2.96936E-05-2.78074E-03-1.52646E-13-2.89293E-13
 -1      2028 1.99855E+01 1.11864E-04 2.37407E-05-2.63220E-03-1.61483E-13-2.52836E-13
 -1      2029 1.99878E+01 1.53935E-04-3.56912E-05-3.02955E-03-1.01883E-13-7.27981E-15
 -1      2030 1.99882E+01-8.79920E-05 2.27682E-05-2.76065E-03-8.86505E-14-2.61352E-13
 -1      2031 1.99871E+01-3.87822E-05 8.99195E-06-2.73846E-03-1.19432E-13-3.38002E-13
 -1      2032 1.99889E+01-6.47107E-05-2.49417E-05-3.26983E-03-1.28225E-13-1.25931E-13
 -1      2033 1.99900E+01-1.50429E-04 1.71450E-05-2.57286E-03 1.63669E-14-6.43204E-14
 -1      2034 1.99889E+01-1.26990E-04-4.66965E-07-2.62816E-03-2.40106E-14-1.20193E-13
 -1      2035 1.99903E+01-1.92199E-04-1.68678E-05-3.20651E-03-1.21586E-13-1.43276E-13
 -1      2036 1.99917E+01-1.78312E-04 1.26673E-05-2.29622E-03 4.64230E-14-1.46923E-13
 -1      2037 1.99907E+01-1.71909E-04-6.13346E-06-2.39458E-03 1.10498E-14-1.47163E-13
 -1      2038 1.99918E+01-2.56579E-04-1.09250E-05-2.96447E-03 1.15864E-14-1.76508E-14
 -1      2039 1.99932E+01-1.83573E-04 9.16651E-06-1.98393E-03 9.33486E-14-9.46143E-14
 -1      2040 1.99923E+01-1.87849E-04-9.15233E-06-2.10184E-03 7.65259E-14-8.08791E-14
 -1      2041 1.99931E+01-2.78784E-04-6.64794E-06-2.63044E-03 6.22736E-14-7.87787E-14
 -1      2042 1.99946E+01-1.74867E-04 6.47710E-06-1.67037E-03-1.85584E-13-9.44696E-15
 -1      2043 1.99938E+01-1.85296E-04-1.03834E-05-1.79240E-03-1.03727E-13-1.21566E-13
 -1      2044 1.99944E+01-2.74141E-04-3.64926E-06-2.26261E-03-1.30913E-13 1.10663E-13
 -1      2045 1.99958E+01-1.58336E-04 4.44474E-06-1.37628E-03-6.78215E-14 1.45252E-14
 -1      2046 1.99951E+01-1.71781E-04-1.04608E-05-1.49288E-03-1.26275E-13 1.26925E-14
 -1      2047 1.99955E+01-2.53638E-04-1.61307E-06-1.89817E-03-1.46684E-13 8.90064E-14
 -1      2048 1.99967E+01-1.38240E-04 2.93010E-06-1.11283E-03-2.54416E-14-4.18661E-14
 -1      2049 1.99962E+01-1.52589E-04-9.84273E-06-1.21864E-03-5.21942E-14-1.41292E-13
 -1      2050 1.99965E+01-2.24969E-04-2.86770E-07-1.55925E-03-7.75635E-15-1.08256E-13
 -1      2051 1.99975E+01-1.17462E-04 1.80994E-06-8.84536E-04-2.86508E-13 1.36959E-14
 -1      2052 1.99971E+01-1.31340E-04-8.85287E-06-9.77125E-04-1.58750E-13 3.06659E-14
 -1      2053 1.99973E+01-1.93394E-04 5.28206E-07-1.25736E-03-1.85772E-13-1.03614E-13
 -1      2054 1.99982E+01-9.79226E-05 9.76664E-07-6.91482E-04-3.66580E-14-1.76623E-14
 -1      2055 1.99978E+01-1.10466E-04-7.71348E-06-7.70423E-04-1.83175E-13-4.71098E-14
 -1      2056 1.99979E+01-1.62418E-04 9.85582E-07-9.96698E-04-1.62244E-13-5.42590E-14
 -1      2057 1.99987E+01-8.09198E-05 3.36267E-07-5.30777E-04 1.63875E-13-1.23813E-13
 -1      2058 1.99984E+01-9.15860E-05-6.56982E-06-5.97022E-04 8.85047E-14 1.07288E-14
 -1      2059 1.99984E+01-1.34354E-04 1.20253E-06-7.76542E-04 5.00252E-14 1.20176E-14
 -1      2060 1.99990E+01-6.72882E-05-1.53097E-07-3.97487E-04 2.41646E-13-1.69132E-13
 -1      2061 1.99988E+01-7.58300E-05-5.51356E-06-4.53007E-04 1.62931E-13-6.88032E-14
 -1      2062 1.99989E+01-1.10780E-04 1.26199E-06-5.92896E-04 1.79234E-13-2.59463E-13
 -1      2063 1.99993E+01-5.74131E-05-4.79974E-07-2.85810E-04 7.68406E-14-5.08990E-13
 -1      2064 1.99992E+01-6.36949E-05-4.54449E-06-3.33008E-04 1.60144E-13-2.80505E-13
 -1      2065 1.99992E+01-9.22746E-05 1.33239E-06-4.39664E-04 2.47195E-13-4.02575E-13
 -1      2066 1.99995E+01-5.15989E-05-6.01434E-07-1.89329E-04 2.66252E-15-3.13028E-13
 -1      2067 1.99994E+01-5.57257E-05-3.61732E-06-2.31130E-04-1.21782E-13-4.88519E-13
 -1      2068 1.99994E+01-7.96363E-05 1.37960E-06-3.10100E-04-2.49471E-14-4.24336E-13
 -1      2069 1.99997E+01-4.83765E-05-1.16818E-06-1.03585E-04-7.95042E-14-1.89679E-14
 -1      2070 1.99996E+01-5.08126E-05-2.57246E-06-1.41623E-04 1.01514E-14-6.57154E-14
 -1      2071 1.99996E+01-7.23386E-05 1.25125E-06-1.97371E-04-1.35314E-13-6.86913E-14
 -1      2072 1.99997E+01-4.24845E-05-1.79979E-06-4.64309E-05-1.32109E-14-9.22407E-14
 -1      2073 1.99997E+01-4.88006E-05-1.69552E-06-7.82323E-05 5.42796E-14 3.52336E-14
 -1      2074 1.99997E+01-6.94102E-05 7.88101E-07-1.16374E-04-6.91945E-14 1.99517E-14
 -1      2075 1.99997E+01-6.02958E-05-1.92590E-07-6.22711E-05-1.55798E-13 2.52690E-13
 -1      2076 1.99998E+01-4.16999E-04 1.07609E-06-2.31109E-04-2.88717E-13-1.89019E-14
 -1      2077 1.99998E+01-3.43003E-04-1.73097E-06-2.20678E-04-1.86658E-13-2.59524E-13
 -1      2078 1.99998E+01-2.68709E-04 2.37672E-07-1.98593E-04-2.86753E-13-3.23073E-13
 -1      2079 1.99997E+01-2.04497E-04-1.97383E-06-1.71084E-04-1.34629E-13-1.59661E-13
 -1      2080 1.99998E+01-3.27283E-04 3.02070E-07-2.73225E-04-2.66107E-13-1.49541E-13
 -1      2081 1.99997E+01-1.51274E-04-4.51775E-07-1.35969E-04-1.79235E-13-2.19304E-13
 -1      2082 1.99997E+01-1.02844E-04-1.58305E-06-1.01086E-04-1.28611E-13 7.54085E-14
 -1      2083 1.99997E+01-1.09379E-04-9.31286E-07-1.28737E-04-1.34868E-13 9.35686E-14
 -1      2084 1.99997E+01-2.02719E-04 9.86858E-07-2.07736E-04-2.29926E-13-1.88226E-13
 -1      2085 1.99998E+01-5.62401E-04 1.93864E-06-2.25708E-04-5.81153E-13-4.53690E-13
 -1      2086 1.99998E+01-4.89614E-04-6.72188E-07-2.32118E-04-4.40598E-13-1.07008E-13
 -1      2087 1.99998E+01-4.72953E-04-4.36047E-07-2.97512E-04-3.89537E-13-2.72384E-13
 -1      2088 1.99998E+01-6.90812E-04 2.63869E-06-1.83886E-04-4.34444E-13-3.38425E-13
 -1      2089 1.99998E+01-6.28078E-04 5.23512E-07-2.05796E-04-4.48517E-13-1.76553E-13
 -1      2090 1.99998E+01-6.11121E-04-1.54743E-06-2.75454E-04-3.80925E-13-2.38141E-13
 -1      2091 1.99999E+01-7.81489E-04 3.00787E-06-1.13278E-04-1.89296E-13 1.31255E-13
 -1      2092 1.99999E+01-7.39686E-04 1.66581E-06-1.46582E-04-1.71352E-13-2.10322E-13
 -1      2093 1.99999E+01-7.25605E-04-2.36718E-06-2.10268E-04-2.06441E-14-5.49295E-14
 -1      2094 1.99999E+01-8.21969E-04 2.97293E-06-2.54312E-05-2.20901E-13 3.91513E-13
 -1      2095 1.99999E+01-8.07465E-04 2.51875E-06-6.47353E-05-2.54766E-13 4.08584E-13
 -1      2096 1.99999E+01-8.00508E-04-2.90559E-06-1.13102E-04 4.74422E-15 2.46771E-13
 -1      2097 1.99999E+01-8.06746E-04 2.51301E-06 6.62099E-05-1.07338E-13 3.63525E-13
 -1      2098 1.99999E+01-8.21745E-04 2.97678E-06 2.69606E-05-1.44280E-13 3.09464E-13
 -1      2099 1.99999E+01-8.26289E-04-3.08966E-06 9.73836E-07-3.15288E-13 3.95659E-13
 -1      2100 1.99999E+01-7.38079E-04 1.68407E-06 1.47759E-04-3.58003E-13-6.43506E-13
 -1      2101 1.99999E+01-7.80367E-04 2.98664E-06 1.14634E-04-2.89867E-13-8.20531E-14
 -1      2102 1.99999E+01-7.99640E-04-2.88904E-06 1.14910E-04-3.36802E-13-5.48419E-14
 -1      2103 1.99998E+01-6.28057E-04 5.44643E-07 2.05736E-04-1.15751E-13-3.09962E-13
 -1      2104 1.99998E+01-6.89871E-04 2.62289E-06 1.84301E-04-2.38939E-13-5.07135E-13
 -1      2105 1.99999E+01-7.24845E-04-2.39050E-06 2.11042E-04-1.36608E-13-4.15143E-13
 -1      2106 1.99998E+01-4.88386E-04-6.90361E-07 2.32176E-04 7.78953E-14 6.06832E-13
 -1      2107 1.99998E+01-5.62471E-04 1.94607E-06 2.25744E-04 2.31235E-14 1.85497E-13
 -1      2108 1.99998E+01-6.11158E-04-1.52619E-06 2.75432E-04 2.27164E-13 5.87212E-14
 -1      2109 1.99998E+01-3.40154E-04-1.70726E-06 2.20158E-04 4.34355E-14 2.76838E-13
 -1      2110 1.99998E+01-4.14325E-04 1.09860E-06 2.31033E-04 1.03515E-14 5.64659E-13
 -1      2111 1.99998E+01-4.71736E-04-5.07402E-07 2.97512E-04 6.87867E-14 6.59467E-13
 -1      2112 1.99997E+01-1.98242E-04-4.50461E-07 1.70281E-04 4.54325E-14 2.51113E-13
 -1      2113 1.99998E+01-2.66199E-04 2.00463E-07 1.97585E-04-3.01897E-14 2.46096E-13
 -1      2114 1.99997E+01-3.25428E-04 1.13541E-07 2.71966E-04-3.20484E-14 3.05083E-13
 -1      2115 1.09165E+01-3.16574E+00-1.67401E-01 6.88900E+00 2.92599E-13 6.48384E-13
 -1      2116 6.84079E+00-4.29116E+00-3.96228E-01 5.39343E+00 3.25628E-13 9.13450E-13
 -1      2117 1.11550E+00-4.32537E+00-3.80832E-01 1.02443E+00 2.97901E-13 8.85347E-13
 -1      2118 1.14626E+00-3.79206E+00-2.84693E-01-7.50059E-01 1.14186E-13 8.23286E-13
 -1      2119 3.90294E+00-3.88591E+00-3.03146E-01 4.30869E+00 4.44644E-13 9.94982E-13
 -1      2120 2.03809E+00-4.57244E+00-4.16222E-01 2.69445E+00 2.30510E-13 9.15823E-13
 -1      2121 3.12422E+00-2.32031E+00-1.65895E-01 2.37512E+00 3.03368E-14 9.62508E-13
 -1      2122 7.40916E+00-2.86211E+00-6.44239E-02 5.73035E+00-6.13953E-14 8.43769E-13
 -1      2123 2.00617E+01-1.19684E+00 5.99923E-02 7.47111E+00 7.81097E-13 4.20441E-13
 -1      2124 1.59727E+01-2.92748E+00-1.20208E-01 6.95329E+00 5.22304E-13 4.00846E-13
 -1      2125 2.79648E+01 1.07649E+00 1.87201E-01 6.52514E+00 8.20455E-13 1.90958E-13
 -1      2126 2.31752E+01-4.84068E-01-1.24525E-01 6.50827E+00 8.56926E-13 3.54383E-13
 -1      2127 2.28350E+01 2.38049E+00-8.53615E-03-1.44648E+00 9.23532E-14-4.30683E-13
 -1      2128 2.36371E+01 2.64800E+00-5.47746E-02-2.18637E+00-2.80331E-14-4.25382E-13
 -1      2129 2.45122E+01 1.92409E+00-9.06755E-03-2.75503E+00-1.10628E-13-3.08246E-13
 -1      2130 2.29678E+01 1.32535E+00-1.97595E-02-1.18689E+00 1.30214E-13-3.37719E-13
 -1      2131 3.80763E+01 6.11951E+00 3.77024E-01 2.70049E+00 9.60954E-13-4.02789E-13
 -1      2132 3.56322E+01 5.34776E+00 1.81813E-01 3.33350E+00 9.96064E-13-1.88072E-13
 -1      2133 3.94100E+01 6.69785E+00 3.62691E-01 1.30489E+00 1.02829E-12-7.57144E-13
 -1      2134 3.90642E+01 6.76033E+00 3.49855E-01 2.50068E+00 1.00597E-12-4.76202E-13
 -1      2135 3.67270E+01 5.46084E+00 1.50565E-01 8.07252E-03 1.10667E-12-9.70113E-13
 -1      2136 3.88528E+01 6.25770E+00 3.90919E-01 9.56205E-01 1.05516E-12-7.92311E-13
 -1      2137 3.20701E+01 2.83519E+00 9.45313E-03-1.17391E+00 1.11648E-12-9.42690E-13
 -1      2138 3.59037E+01 4.22048E+00 3.23864E-01-7.15053E-01 1.10764E-12-9.74054E-13
 -1      2139 2.45978E+01 3.73584E-01-1.47609E-01-4.04738E+00 1.08286E-12-1.29285E-12
 -1      2140 2.90038E+01 8.99303E-01-6.52618E-02-2.79795E+00 9.80729E-13-1.04716E-12
 -1      2141 1.61852E+01-3.95475E-01-3.31789E-01-5.15845E+00 1.08302E-12-1.37607E-12
 -1      2142 2.09724E+01 2.12295E-01-9.62696E-02-5.54882E+00 1.15208E-12-1.42236E-12
 -1      2143 8.88840E+00-5.33211E-01-3.25513E-01-4.62778E+00 8.06688E-13-1.27436E-12
 -1      2144 1.26429E+01 4.03981E-04-1.41205E-01-5.53414E+00 1.01008E-12-1.38954E-12
 -1      2145 3.66689E+00-1.52201E-01-2.42447E-01-3.02881E+00 4.79533E-13-1.20301E-12
 -1      2146 5.99933E+00 2.32078E-01-1.45424E-01-4.16790E+00 7.64055E-13-1.30299E-12
 -1      2147 8.35850E-01 1.99844E-02-2.06093E-01-8.16080E-01 1.77872E-13-1.13831E-12
 -1      2148 1.70687E+00 2.04342E-01-1.71176E-01-1.91424E+00 5.23886E-13-1.20590E-12
 -1      2149 1.39978E+00 1.10667E+00-4.30177E-02 1.61696E+00-8.08520E-14-1.15313E-12
 -1      2150 7.02751E-01 1.57816E-01-2.04068E-01 2.77885E-01 2.01080E-13-1.16179E-12
 -1      2151 1.74688E+00 1.93807E+00-5.83430E-02-3.87834E-01 1.60746E-13-1.33277E-12
 -1      2152 5.16766E+00 2.28113E-01-1.69125E-01 4.05723E+00-5.66491E-13-1.18661E-12
 -1      2153 3.15806E+00 3.74187E-01-1.75704E-01 3.05916E+00-1.17989E-13-1.07486E-12
 -1      2154 1.09070E+01 3.81522E-01-1.42294E-01 5.58352E+00-7.90368E-13-1.20619E-12
 -1      2155 7.35862E+00-1.50787E-01-3.10377E-01 4.53632E+00-6.02296E-13-1.12181E-12
 -1      2156 8.01433E+00 4.55765E-01-1.05919E-01 4.87793E+00-7.14429E-14-1.03910E-12
 -1      2157 1.93482E+01 5.68581E-01-7.21490E-02 5.90047E+00-1.03206E-12-1.20404E-12
 -1      2158 1.47097E+01-8.29727E-02-3.05911E-01 5.40889E+00-8.95395E-13-1.16640E-12
 -1      2159 2.77990E+01 1.65381E+00 6.63463E-02 4.65996E+00-1.18941E-12-1.15291E-12
 -1      2160 2.30850E+01 8.02204E-01-2.07102E-01 4.79395E+00-1.12266E-12-1.17006E-12
 -1      2161 3.40388E+01 3.40802E+00 1.74774E-01 2.12123E+00-1.12019E-12-9.01612E-13
 -1      2162 3.02978E+01 2.51050E+00-4.49518E-02 2.98660E+00-1.18831E-12-1.04694E-12
 -1      2163 3.72114E+01 5.65855E+00 2.30170E-01-3.17803E-01-1.07814E-12-6.45817E-13
 -1      2164 3.52383E+01 4.79871E+00 1.23445E-01 8.96846E-01-1.11688E-12-8.62033E-13
 -1      2165 3.84853E+01 6.76588E+00 3.10017E-01-1.84279E+00-9.86211E-13-4.81674E-13
 -1      2166 3.77731E+01 6.63793E+00 2.28676E-01-7.69559E-01-1.05799E-12-6.94250E-13
 -1      2167 3.64405E+01 6.33687E+00 2.04178E-01-2.79187E+00-9.04943E-13-2.82885E-13
 -1      2168 3.84488E+01 6.61408E+00 3.69555E-01-2.14666E+00-9.12770E-13-4.33625E-13
 -1      2169 3.45267E+01 7.69212E+00 3.14933E-01-1.29091E+00-1.05016E-12-5.10619E-13
 -1      2170 3.31051E+01 3.88012E+00 1.57143E-01-4.49324E+00-7.87620E-13 2.27596E-14
 -1      2171 3.54768E+01 4.86168E+00 2.52054E-01-3.49885E+00-8.12850E-13-2.20102E-13
 -1      2172 2.78578E+01 1.58658E+00 1.36639E-02-5.83688E+00-6.18339E-13 3.09308E-13
 -1      2173 3.17405E+01 2.81941E+00 2.63536E-01-5.60995E+00-6.98774E-13 1.41775E-13
 -1      2174 3.17342E+01 2.52253E+00 2.49680E-01-2.65780E+00-5.61988E-13-3.73479E-13
 -1      2175 2.03072E+01-9.80467E-01-1.83506E-01-6.81511E+00-4.97602E-13 5.91693E-13
 -1      2176 2.47309E+01 5.98241E-01 1.51405E-01-7.20348E+00-5.68601E-13 5.77316E-13
 -1      2177 1.34433E+01-3.19070E+00-2.62239E-01-6.72662E+00-3.08920E-13 5.67185E-13
 -1      2178 1.73394E+01-1.58784E+00 1.22709E-03-7.46294E+00-4.55191E-13 6.45539E-13
 -1      2179 6.48089E+00-4.20234E+00-3.54667E-01-5.34971E+00-1.06248E-13 7.37715E-13
 -1      2180 9.80912E+00-3.04419E+00-1.13065E-01-6.69705E+00-2.28706E-13 6.84654E-13
 -1      2181 2.49616E+00-3.94677E+00-2.95814E-01-3.01990E+00 1.84408E-13 8.53595E-13
 -1      2182 4.20174E+00-3.73639E+00-2.51652E-01-4.44261E+00-1.11022E-13 8.84570E-13
 -1      2183 7.46559E+00-2.79352E+00-8.05039E-02-5.75882E+00 1.98896E-13 8.05633E-13
 -1      2184 3.46239E+01 3.92489E+00 3.06181E-01 4.68340E+00 9.42128E-13-8.53762E-14
 -1      2185 3.07543E+01 2.62276E+00 7.22791E-02 5.18632E+00 9.44786E-13 9.32587E-14
 -1      2186 6.07618E+00 4.10927E+00 9.77005E-02-1.43763E+00 8.07687E-15-1.02066E-12
 -1      2187 6.07697E+00 4.60761E+00 9.94503E-02-5.49328E-01 4.84161E-14-9.12506E-13
 -1      2188 5.66313E+00 4.67111E+00 8.12099E-02 1.10991E-01 1.85757E-13-9.05845E-13
 -1      2189 5.27765E+00 4.34575E+00 1.23949E-01 9.46399E-01 2.79023E-13-1.05485E-12
 -1      2190 2.56212E+01 9.52938E-01-4.35441E-02-3.00856E+00-3.86458E-13 1.62537E-13
 -1      2191 2.55392E+01 1.10293E+00-1.03141E-02-3.42985E+00-3.87666E-13 2.00569E-14
 -1      2192 2.66186E+01 1.73592E+00 3.15517E-02-3.64013E+00-4.22540E-13 2.31169E-13
 -1      2193 2.66122E+01 3.49210E+00-1.29849E-01-4.37400E+00-3.95455E-13 1.58290E-13
 -1      2194 2.36326E+01-2.53766E+00 1.10364E-02 5.93792E+00 3.60822E-13-3.61933E-14
 -1      2195 1.84169E+01-3.85789E+00-1.29832E-01 6.77656E+00-1.42775E-13 3.10169E-14
 -1      2196 1.47183E+01-3.44662E+00-7.24748E-02 6.97453E+00 1.52656E-13 3.92290E-13
 -1      2197 1.41199E+01-3.14904E+00 1.50473E-01 7.07393E+00-2.37893E-13 3.31388E-13
 -1      2198 1.99997E+01-1.64706E-04-1.02247E-06 1.59434E-04-2.62872E-14 5.44795E-14
 -1      2199 3.34197E+00-2.14626E+00-1.14407E-01-2.23629E+00 2.19935E-13 9.34364E-13
 -1      2200 2.97996E+01 5.06835E-01 1.92006E-01 3.92074E+00 6.77847E-13-2.18825E-13
 -1      2201 1.37182E+01-3.52303E+00-6.59437E-02-7.04985E+00 1.12355E-13 4.98275E-13
 -1      2202 2.75450E+01-3.89122E-01 1.51112E-01-4.89123E+00-3.00149E-13-7.54952E-15
 -1      2203 3.38668E+01 5.60867E+00 2.44321E-01-1.44778E+00-8.45490E-13-4.98379E-13
 -1      2204 3.42303E+01 6.92738E+00 2.68880E-01-1.54407E+00-1.10045E-12-5.15699E-13
 -1      2205 3.27263E+01 4.26559E+00 2.26707E-01-7.88352E-01-1.03431E-12-4.59077E-13
 -1      2206 2.93144E+01 1.41636E+00 1.35896E-01 1.62574E+00-8.89150E-13-5.70377E-13
 -1      2207 1.48074E+01-4.43161E-01-7.09825E-02 5.26681E+00-2.98706E-13-9.24497E-13
 -1      2208 3.13217E+00 1.53746E+00-9.02605E-02 2.57744E+00 1.26232E-13-1.19099E-12
 -1      2209 4.07323E+00 1.27418E+00-6.06279E-02-2.99037E+00 1.88571E-13-1.29291E-12
 -1      2210 9.52362E+00 6.30433E-02-7.49806E-02-4.71535E+00 2.50300E-13-1.17038E-12
 -1      2211 1.66929E+01-9.23291E-01-5.75316E-02-4.85956E+00 4.71401E-13-1.04419E-12
 -1      2212 2.42763E+01-6.61972E-01 8.04133E-02-3.23050E+00 6.38462E-13-8.25950E-13
 -1      2213 3.05108E+01 1.47933E+00 6.06445E-02-7.17032E-01 8.86458E-13-7.05269E-13
 -1      2214 3.04051E+01 1.81485E+00-1.52383E-01 1.60131E+00 7.45182E-13-2.00395E-13
 -1      2215 2.85787E+01 2.61538E-01 6.81746E-02-2.56138E-02 6.09485E-13-3.00981E-13
 -1      2216 3.36441E+01 5.14337E+00 1.74969E-01 1.60916E+00 1.05047E-12-4.74842E-13
 -1      2217 3.49652E+01 7.04920E+00 2.97701E-01 1.21263E+00 1.10911E-12-4.47753E-13
 -1      2218 3.34608E+01 4.32358E+00 2.67822E-01 1.88675E+00 9.54459E-13-4.15779E-13
 -1      2219 3.53357E+01 7.42860E+00 3.37027E-01 1.66536E+00 1.13687E-12-4.88942E-13
 -1      2220 2.28413E+01-2.73333E-01 1.30617E-02 4.09082E+00-6.21669E-13-7.53952E-13
 -1      2221 2.09933E+01-2.71083E+00 1.22022E-03-6.59762E+00-3.61378E-14 3.37952E-13
 -1      2222 2.62359E+01 2.33024E+00-1.19345E-01-4.03854E+00-4.22889E-13 1.20057E-13
 -1      2223 1.30041E+01 1.39889E+00-5.42465E-03 3.68283E+00 5.18738E-13-6.31634E-13
 -1      2224 1.68296E+01 8.45140E-01 1.25880E-01 3.03962E+00 4.83169E-13-5.12264E-13
 -1      2225 1.97742E+01 3.78116E-01 9.49973E-03 1.55522E+00 4.22700E-13-3.40422E-13
 -1      2226 2.19318E+01 2.98391E-01-5.10515E-03 4.07178E-01 2.73115E-13-3.15362E-13
 -1      2227 1.91708E+01-9.10688E-02 5.32313E-02 2.55958E+00 3.58422E-13-3.62529E-13
 -1      2228 1.98104E+01 4.05984E-01 7.59699E-02-1.44984E+00-2.00361E-13-4.05214E-13
 -1      2229 1.65431E+01 7.83125E-01 3.02336E-03-2.49385E+00-2.61222E-13-5.46875E-13
 -1      2230 3.22624E+00 3.76349E+00 1.12179E-01 3.50973E-01 1.46145E-13-1.15324E-12
 -1      2231 3.96647E+00 3.47676E+00 1.33319E-01 1.69402E+00 3.23033E-13-1.12774E-12
 -1      2232 1.27899E+01 1.87989E+00 1.73988E-01-3.23082E+00-2.36269E-13-8.01290E-13
 -1      2233 8.94080E+00 2.56232E+00 1.69919E-02-3.13790E+00-1.56292E-13-9.29298E-13
 -1      2234 2.54377E+01 8.90591E-01-8.93308E-02 3.00870E+00 2.14953E-13 4.32293E-14
 -1      2235 2.48172E+01 7.34308E-01 8.42687E-03 2.31673E+00 8.59772E-14-2.56097E-14
 -1      2236 2.64031E+01 1.07845E+00-7.41160E-02 3.63724E+00 3.09723E-13 3.25132E-13
 -1      2237 2.59603E+01 1.16139E+00-9.82455E-03 3.43423E+00 2.64617E-13 1.59036E-13
 -1      2238 2.61422E+01 5.73802E-01 2.24877E-02 3.36978E+00 2.32717E-13 2.11109E-13
 -1      2239 2.67940E+01 6.33860E-01-4.99726E-02 3.32126E+00 3.08961E-13 6.22790E-13
 -1      2240 2.65778E+01 1.04273E+00-9.69809E-03 3.58570E+00 3.03023E-13 4.51639E-13
 -1      2241 2.63371E+01 5.68430E-01 5.54520E-03 3.48482E+00 2.66124E-13 3.77972E-13
 -1      2242 2.61649E+01 3.69705E-01 1.51495E-03 3.07872E+00 3.05873E-13 6.13810E-13
 -1      2243 2.50733E+01 6.78916E-01-1.86941E-02-3.14949E+00-3.51452E-13-5.69163E-15
 -1      2244 2.45738E+01 8.36586E-01 8.86956E-03-2.82713E+00-3.63052E-13-1.96895E-14
 -1      2245 2.50601E+01 4.32338E-01 2.05586E-02 2.76131E+00 2.91829E-13 6.33523E-13
 -1      2246 2.57119E+01 2.78414E-01-9.41027E-03 2.90905E+00 2.71450E-13 6.20504E-13
 -1      2247 2.59267E+01 4.44652E-01 7.47468E-03 3.28427E+00 2.73085E-13 4.94185E-13
 -1      2248 2.39903E+01 9.42002E-01 2.20794E-02 2.05651E+00 3.08566E-13 5.33281E-13
 -1      2249 2.45357E+01 6.73146E-01 1.79376E-03 2.40964E+00 3.20730E-13 5.90296E-13
 -1      2250 2.49568E+01 8.07511E-01-1.26931E-03 2.80101E+00 3.41506E-13 4.84483E-13
 -1      2251 2.42062E+01 1.08392E+00-8.46928E-03-2.49632E+00-3.61596E-13-1.65926E-14
 -1      2252 2.37882E+01 1.37382E+00 1.81277E-02-2.03849E+00-3.49680E-13-6.59659E-14
 -1      2253 2.48430E+01 1.26925E+00-4.48770E-03-3.03619E+00-3.78799E-13-5.26575E-14
 -1      2254 2.34417E+01 1.59629E+00-2.51664E-03-1.40527E+00-3.34368E-13-1.31686E-13
 -1      2255 2.31931E+01 1.68176E+00 3.05351E-03-8.07825E-01-2.97116E-13-1.94820E-13
 -1      2256 2.41404E+01 1.94837E+00-2.08582E-02-2.02477E+00-4.03278E-13-1.02615E-13
 -1      2257 2.30803E+01 1.59985E+00 1.42508E-02-8.63147E-02-2.87870E-13-2.80262E-13
 -1      2258 2.30118E+01 1.33811E+00-1.81085E-02 4.41594E-01-2.78406E-13-3.22859E-13
 -1      2259 2.36830E+01 2.13009E+00-2.92476E-02-5.62321E-01-3.74485E-13-2.79539E-13
 -1      2260 2.31059E+01 9.65654E-01 2.37759E-02 9.17158E-01-2.45810E-13-3.86074E-13
 -1      2261 2.31500E+01 5.17406E-01-2.54441E-02 1.17178E+00-1.81444E-13-4.20407E-13
 -1      2262 2.36366E+01 1.50258E+00-1.43276E-02 7.28086E-01-3.08953E-13-4.11836E-13
 -1      2263 2.32293E+01 1.00376E-01 1.42223E-02 1.24875E+00-1.18086E-13-4.23696E-13
 -1      2264 2.32918E+01-2.71306E-01-1.76844E-02 1.20771E+00-3.68400E-14-4.21397E-13
 -1      2265 2.37502E+01 4.20126E-01 4.83147E-03 1.27952E+00-1.58890E-13-4.29178E-13
 -1      2266 2.32088E+01-5.29463E-01-1.53165E-03 9.90836E-01-9.54553E-15-4.11484E-13
 -1      2267 2.32198E+01-6.93905E-01-4.90266E-03 7.73418E-01-7.12820E-15-4.14425E-13
 -1      2268 2.36789E+01-5.06166E-01 8.15105E-03 1.08428E+00-2.42801E-14-4.23267E-13
 -1      2269 2.29892E+01-7.57593E-01-1.16984E-02 4.60898E-01-5.06739E-14-3.52975E-13
 -1      2270 2.29310E+01-7.44311E-01 3.72211E-03 2.03902E-01-6.27564E-14-3.44756E-13
 -1      2271 2.33214E+01-9.38449E-01 2.02058E-03 5.05456E-01 6.45144E-15-4.35984E-13
 -1      2272 2.26423E+01-6.83348E-01-1.37649E-02-6.70635E-02-6.20242E-14-3.59772E-13
 -1      2273 2.25293E+01-5.81688E-01 6.71572E-03-2.79427E-01-5.32595E-14-3.42977E-13
 -1      2274 2.27959E+01-9.29730E-01-4.78264E-03-9.75085E-02-7.93912E-14-3.69460E-13
 -1      2275 2.22544E+01-4.75541E-01-1.10249E-02-4.58987E-01-4.55317E-14-2.82294E-13
 -1      2276 2.21105E+01-3.57829E-01 6.38676E-03-5.96994E-01-3.43640E-14-2.60298E-13
 -1      2277 2.22517E+01-6.91702E-01-7.63932E-03-5.47175E-01-2.91727E-14-3.03531E-13
 -1      2278 2.18813E+01-2.56961E-01-6.82871E-03-6.87799E-01-6.94906E-14-2.18430E-13
 -1      2279 2.17266E+01-1.60022E-01 4.82259E-03-7.55426E-01-4.22569E-14-2.15524E-13
 -1      2280 2.17750E+01-4.04119E-01-7.20782E-03-8.08276E-01-1.62356E-14-1.82042E-13
 -1      2281 2.15468E+01-8.44655E-02-3.06043E-03-7.79568E-01-8.53755E-15-2.31498E-13
 -1      2282 2.13947E+01-1.84157E-02 3.21667E-03-7.94045E-01 3.45642E-14-2.40282E-13
 -1      2283 2.13899E+01-1.62307E-01-5.60166E-03-9.12705E-01-1.41438E-14-1.43996E-13
 -1      2284 2.12566E+01 2.95843E-02-3.04458E-04-7.75210E-01 6.39191E-14-2.14812E-13
 -1      2285 2.11150E+01 6.77551E-02 1.97270E-03-7.55486E-01 9.99396E-14-2.07479E-13
 -1      2286 2.10883E+01 5.43109E-03-4.00950E-03-9.08321E-01 2.10418E-14-2.01013E-13
 -1      2287 2.10088E+01 9.34701E-02 1.43464E-03-7.12813E-01 1.52496E-14-1.97972E-13
 -1      2288 2.08822E+01 1.11062E-01 1.15087E-03-6.74505E-01-1.74542E-14-1.77656E-13
 -1      2289 2.08529E+01 1.04523E-01-2.83093E-03-8.38237E-01 4.01002E-14-2.03687E-13
 -1      2290 2.07994E+01 1.21322E-01 2.36668E-03-6.21469E-01-2.22928E-14-2.26158E-13
 -1      2291 2.06898E+01 1.25549E-01 6.58405E-04-5.75659E-01-1.69477E-14-2.39006E-13
 -1      2292 2.06676E+01 1.52028E-01-2.06348E-03-7.34860E-01-5.88364E-14-1.85071E-13
 -1      2293 2.06246E+01 1.26245E-01 2.72899E-03-5.20891E-01 2.43886E-14-2.36607E-13
 -1      2294 2.05321E+01 1.22727E-01 3.83395E-04-4.74612E-01 2.04814E-14-2.07368E-13
 -1      2295 2.05200E+01 1.65489E-01-1.58902E-03-6.20126E-01 2.09325E-14-1.54790E-13
 -1      2296 2.04804E+01 1.18156E-01 2.72635E-03-4.23136E-01-4.11060E-14-1.63696E-13
 -1      2297 2.04042E+01 1.10761E-01 2.37588E-04-3.80368E-01-6.07419E-14-1.21665E-13
 -1      2298 2.04016E+01 1.58851E-01-1.29015E-03-5.07633E-01 1.66274E-14-1.16079E-13
 -1      2299 2.03632E+01 1.03760E-01 2.51364E-03-3.34739E-01-8.24864E-14-8.58347E-14
 -1      2300 2.03018E+01 9.49272E-02 1.62559E-04-2.97386E-01-2.83925E-14-1.04899E-13
 -1      2301 2.03067E+01 1.41855E-01-1.08493E-03-4.04969E-01-5.48685E-14 3.08720E-14
 -1      2302 2.02694E+01 8.72273E-02 2.19851E-03-2.58571E-01 3.62746E-14-1.23104E-13
 -1      2303 2.02209E+01 7.83800E-02 1.23568E-04-2.27229E-01 7.73541E-14-1.13366E-13
 -1      2304 2.02309E+01 1.20740E-01-9.25976E-04-3.15673E-01-3.31590E-15 1.05182E-14
 -1      2305 2.01955E+01 7.09564E-02 1.85050E-03-1.95236E-01 1.22475E-13-8.02500E-14
 -1      2306 2.01581E+01 6.28452E-02 1.01595E-04-1.69741E-01 1.79498E-13-2.56532E-14
 -1      2307 2.01710E+01 9.91992E-02-7.89923E-04-2.40721E-01 1.26574E-13 1.64743E-14
 -1      2308 2.01384E+01 5.61881E-02 1.51121E-03-1.44049E-01 7.22846E-14-8.02114E-14
 -1      2309 2.01100E+01 4.91470E-02 8.70212E-05-1.23839E-01 2.67130E-14-5.36336E-14
 -1      2310 2.01241E+01 7.92279E-02-6.67382E-04-1.79572E-01 5.64067E-14-8.28443E-14
 -1      2311 2.00951E+01 4.34511E-02 1.20312E-03-1.03675E-01-5.55383E-15-1.72223E-13
 -1      2312 2.00740E+01 3.75681E-02 7.54206E-05-8.80186E-02 1.48098E-14-2.42072E-13
 -1      2313 2.00879E+01 6.17515E-02-5.55812E-04-1.30881E-01-6.56987E-14-1.43649E-13
 -1      2314 2.00628E+01 3.28582E-02 9.36243E-04-7.25284E-02 3.78131E-14-2.93930E-13
 -1      2315 2.00475E+01 2.80852E-02 6.50289E-05-6.06627E-02 1.66185E-14-2.72008E-13
 -1      2316 2.00605E+01 4.70563E-02-4.55347E-04-9.29510E-02-2.26807E-14-1.99622E-13
 -1      2317 2.00392E+01 2.42948E-02 7.12961E-04-4.90111E-02 5.17202E-14-2.79822E-13
 -1      2318 2.00284E+01 2.05163E-02 5.53246E-05-4.02145E-02-8.45617E-15-2.72652E-13
 -1      2319 2.00401E+01 3.50691E-02-3.66673E-04-6.40172E-02 3.40962E-14-1.93728E-13
 -1      2320 2.00224E+01 1.75360E-02 5.31261E-04-3.16403E-02-4.65250E-14-2.39995E-13
 -1      2321 2.00151E+01 1.46101E-02 4.62890E-05-2.52708E-02-1.23417E-13-1.61297E-13
 -1      2322 2.00252E+01 2.55329E-02-2.90146E-04-4.24071E-02 2.09409E-14-1.93933E-13
 -1      2323 2.00109E+01 1.23162E-02 3.86860E-04-1.91109E-02-2.16035E-13-7.83579E-14
 -1      2324 2.00060E+01 1.00977E-02 3.80491E-05-1.46202E-02-7.04194E-14-1.40355E-13
 -1      2325 2.00146E+01 1.81135E-02-2.25555E-04-2.66240E-02-1.02762E-13-3.68055E-14
 -1      2326 2.00032E+01 8.36854E-03 2.74544E-04-1.03160E-02-3.31205E-14-2.06711E-13
 -1      2327 2.00002E+01 6.72190E-03 3.07250E-05-7.24976E-03-2.78697E-14-3.29127E-13
 -1      2328 2.00072E+01 1.24613E-02-1.72178E-04-1.53809E-02-1.50562E-13-5.19070E-14
 -1      2329 1.99983E+01 5.44612E-03 1.88967E-04-4.34321E-03-1.00858E-13-3.55104E-13
 -1      2330 1.99966E+01 4.25158E-03 2.43784E-05-2.33449E-03-2.08712E-13-5.16519E-13
 -1      2331 2.00023E+01 8.24510E-03-1.28942E-04-7.60444E-03-1.28537E-13-1.20615E-13
 -1      2332 1.99955E+01 3.33206E-03 1.25111E-04-4.58546E-04-1.25690E-13-5.43766E-13
 -1      2333 1.99947E+01 2.48762E-03 1.90080E-05 7.82727E-04-7.48821E-14-4.11450E-13
 -1      2334 1.99992E+01 5.16962E-03-9.45805E-05-2.42133E-03-1.44432E-13-2.62305E-13
 -1      2335 1.99940E+01 1.84245E-03 7.85078E-05 1.91619E-03-5.28930E-14-3.89961E-13
 -1      2336 1.99938E+01 1.26374E-03 1.45622E-05 2.61465E-03-4.38782E-14-2.11755E-13
 -1      2337 1.99973E+01 2.98153E-03-6.77747E-05 8.63262E-04-5.57149E-14-1.84240E-13
 -1      2338 1.99935E+01 8.25677E-04 4.53311E-05 3.22740E-03-8.60395E-14-2.01646E-13
 -1      2339 1.99937E+01 4.44573E-04 1.09561E-05 3.55360E-03-3.66519E-14-1.17364E-13
 -1      2340 1.99964E+01 1.47012E-03-4.72486E-05 2.79128E-03-9.53824E-15-4.37403E-14
 -1      2341 1.99936E+01 1.59659E-04 2.23965E-05 3.81297E-03 1.36732E-13-7.06151E-15
 -1      2342 1.99940E+01-7.77060E-05 8.08716E-06 3.89378E-03 2.46195E-13 2.11956E-14
 -1      2343 1.99960E+01 4.64355E-04-3.18304E-05 3.77718E-03 1.55120E-13-6.08683E-15
 -1      2344 1.99941E+01-2.51911E-04 7.11876E-06 3.92347E-03 1.56029E-13-1.87339E-14
 -1      2345 1.99946E+01-3.87299E-04 5.84698E-06 3.85122E-03 1.62158E-13-1.98577E-14
 -1      2346 1.99960E+01-1.71625E-04-2.04846E-05 4.13169E-03 9.60822E-14 1.52336E-13
 -1      2347 1.99947E+01-4.83526E-04-2.55693E-06 3.74063E-03-1.55297E-14-3.70587E-14
 -1      2348 1.99952E+01-5.48697E-04 4.12969E-06 3.58085E-03-7.11769E-14-9.81605E-14
 -1      2349 1.99963E+01-5.43631E-04-1.23247E-05 4.08288E-03 8.59084E-14-1.33574E-14
 -1      2350 1.99955E+01-5.91714E-04-8.23146E-06 3.39292E-03-6.97496E-14-1.23804E-13
 -1      2351 1.99960E+01-6.10357E-04 2.83681E-06 3.19077E-03-1.03656E-13-1.41231E-13
 -1      2352 1.99967E+01-7.32499E-04-6.61036E-06 3.79427E-03-7.00804E-14-5.14988E-14
 -1      2353 1.99962E+01-6.18547E-04-1.11280E-05 2.96841E-03-7.62511E-14-2.76436E-13
 -1      2354 1.99966E+01-6.07972E-04 1.87977E-06 2.75382E-03-1.05494E-14-3.17348E-13
 -1      2355 1.99971E+01-7.98812E-04-2.73741E-06 3.37989E-03-1.41646E-13-1.34623E-13
 -1      2356 1.99968E+01-5.94698E-04-1.21625E-05 2.52509E-03 1.49059E-13-2.38764E-13
 -1      2357 1.99972E+01-5.67283E-04 1.18054E-06 2.31685E-03 1.64727E-13-1.46863E-13
 -1      2358 1.99975E+01-7.87074E-04-2.22793E-07 2.91654E-03 1.24232E-13-8.90263E-14
 -1      2359 1.99974E+01-5.42055E-04-1.20064E-05 2.09901E-03 1.41097E-13-9.60537E-14
 -1      2360 1.99978E+01-5.06441E-04 6.71253E-07 1.90792E-03 7.81614E-14-1.39314E-14
 -1      2361 1.99980E+01-7.29293E-04 1.31216E-06 2.45355E-03 2.05326E-13-5.88238E-14
 -1      2362 1.99979E+01-4.75872E-04-1.11396E-05 1.71052E-03 1.59875E-16 1.30801E-13
 -1      2363 1.99982E+01-4.37945E-04 2.93833E-07 1.54183E-03 1.46021E-13 2.38359E-13
 -1      2364 1.99983E+01-6.47976E-04 2.15823E-06 2.02042E-03 1.27824E-13-7.01016E-14
 -1      2365 1.99984E+01-4.06531E-04-9.89453E-06 1.36908E-03 1.88573E-13 2.81912E-13
 -1      2366 1.99986E+01-3.70206E-04-1.27765E-09 1.22419E-03 1.96785E-13 2.48377E-13
 -1      2367 1.99986E+01-5.58577E-04 2.53290E-06 1.63260E-03 1.53571E-13 2.29595E-13
 -1      2368 1.99987E+01-3.40949E-04-8.49314E-06 1.07669E-03 2.82567E-13 1.60775E-13
 -1      2369 1.99989E+01-3.08787E-04-2.56674E-07 9.54461E-04 4.18267E-13 5.99793E-14
 -1      2370 1.99989E+01-4.71470E-04 2.59048E-06 1.29593E-03 2.54537E-13 1.94045E-13
 -1      2371 1.99990E+01-2.83678E-04-7.07488E-06 8.30432E-04 2.94449E-13-3.64160E-14
 -1      2372 1.99992E+01-2.57265E-04-4.85202E-07 7.28105E-04 2.19776E-13 3.24533E-14
 -1      2373 1.99991E+01-3.93492E-04 2.42992E-06 1.00976E-03 2.62642E-13 4.78987E-14
 -1      2374 1.99993E+01-2.37420E-04-5.70404E-06 6.24338E-04 1.44556E-13 4.61376E-14
 -1      2375 1.99994E+01-2.17612E-04-7.31232E-07 5.38387E-04 1.81349E-14 1.08855E-13
 -1      2376 1.99993E+01-3.28777E-04 2.14026E-06 7.69279E-04 1.60600E-13 9.65468E-14
 -1      2377 1.99995E+01-2.02956E-04-4.28770E-06 4.50908E-04-1.26029E-13 1.64409E-13
 -1      2378 1.99995E+01-1.90285E-04-1.45805E-06 3.77881E-04-1.18366E-13 5.88479E-14
 -1      2379 1.99995E+01-2.79592E-04 1.69651E-06 5.67597E-04 5.80882E-15-6.95151E-14
 -1      2380 2.32808E+01 1.33766E+00-1.83042E-02-2.22284E-01 2.35471E-13 1.53628E-13
 -1      2381 2.33891E+01 1.50689E+00 9.23727E-03 3.85095E-01 2.96083E-13 2.24589E-13
 -1      2382 2.34307E+01 6.08687E-01-2.74849E-02-1.17272E+00 2.28031E-13-3.22442E-14
 -1      2383 2.33479E+01 1.02432E+00 1.94795E-02-8.36031E-01 2.16101E-13 4.21967E-14
 -1      2384 2.39991E+01 1.60864E+00-2.77389E-02-5.63128E-01 3.21861E-13-8.33845E-14
 -1      2385 2.36798E+01-1.86943E-01-1.82818E-02-1.33282E+00 1.16235E-13-6.47165E-14
 -1      2386 2.35393E+01 1.87565E-01 1.44829E-02-1.33887E+00 1.88991E-13-4.91161E-14
 -1      2387 2.41355E+01 5.61879E-01-4.25763E-03-1.36822E+00 2.25738E-13-1.67311E-13
 -1      2388 2.37152E+01-6.29339E-01-4.90843E-03-8.97624E-01-7.90557E-15-1.05429E-13
 -1      2389 2.36273E+01-4.60360E-01-1.61456E-03-1.12253E+00 5.85953E-14-6.06030E-14
 -1      2390 2.41397E+01-4.17190E-01 8.62374E-03-1.26417E+00 9.26442E-14-1.99666E-13
 -1      2391 2.34852E+01-6.85824E-01 3.04367E-03-2.63822E-01 1.16721E-14-1.13422E-13
 -1      2392 2.34957E+01-6.98809E-01-1.34962E-02-5.44580E-01 3.95170E-15-7.85034E-14
 -1      2393 2.38282E+01-8.98101E-01 3.31664E-03-6.43172E-01 4.27145E-14-2.27411E-13
 -1      2394 2.30884E+01-5.21372E-01 5.35285E-03 2.84059E-01 1.03372E-14-2.79371E-14
 -1      2395 2.31896E+01-6.21926E-01-1.61616E-02 5.34831E-02 2.18792E-14-6.81742E-14
 -1      2396 2.33041E+01-8.99803E-01-4.83909E-03 5.05107E-02-1.15177E-14-1.85732E-13
 -1      2397 2.26358E+01-3.02119E-01 4.58729E-03 6.38648E-01 1.47764E-14-6.44450E-16
 -1      2398 2.27976E+01-4.13628E-01-1.28028E-02 4.94048E-01 2.52576E-14-1.94820E-14
 -1      2399 2.27314E+01-6.51408E-01-8.39696E-03 5.75643E-01 4.29843E-15-1.07496E-13
 -1      2400 2.21949E+01-1.17366E-01 3.25932E-03 8.06790E-01-1.34925E-14 4.40412E-14
 -1      2401 2.23859E+01-2.04330E-01-7.59700E-03 7.41674E-01 4.07053E-15 7.84897E-15
 -1      2402 2.22113E+01-3.57630E-01-7.86922E-03 8.77335E-01 2.14564E-15-9.61289E-14
 -1      2403 2.17949E+01 6.90901E-03 2.14232E-03 8.38298E-01-1.39706E-14 3.56388E-14
 -1      2404 2.19914E+01-4.84268E-02-2.95567E-03 8.30456E-01 1.30473E-14 6.19038E-14
 -1      2405 2.17753E+01-1.21356E-01-5.94316E-03 9.92166E-01 4.76800E-15-1.14260E-13
 -1      2406 2.14449E+01 7.65535E-02 1.42935E-03 7.85954E-01-4.41758E-16 1.06108E-13
 -1      2407 2.16312E+01 4.74320E-02 3.18179E-04 8.12617E-01-2.49443E-14 7.84994E-14
 -1      2408 2.14191E+01 3.29217E-02-4.15933E-03 9.80014E-01-3.73702E-14-1.61951E-14
 -1      2409 2.11455E+01 1.07051E-01 1.03579E-03 6.91024E-01 3.61915E-14 1.47565E-13
 -1      2410 2.13127E+01 9.58376E-02 2.27202E-03 7.34595E-01 4.04207E-14 1.58778E-13
 -1      2411 2.11287E+01 1.16685E-01-2.92114E-03 8.94429E-01 9.73651E-15 4.79037E-14
 -1      2412 2.08939E+01 1.13243E-01 8.29398E-04 5.81112E-01 1.16621E-14 1.35979E-13
 -1      2413 2.10380E+01 1.12738E-01 3.21224E-03 6.29970E-01 2.05044E-14 1.27447E-13
 -1      2414 2.08910E+01 1.51128E-01-2.16744E-03 7.74548E-01 5.02836E-14 1.12124E-13
 -1      2415 2.06862E+01 1.06142E-01 7.11471E-04 4.72648E-01 6.63911E-15 8.94881E-14
 -1      2416 2.08065E+01 1.11246E-01 3.47252E-03 5.20009E-01 1.61546E-16 9.07184E-14
 -1      2417 2.06960E+01 1.55470E-01-1.72777E-03 6.45666E-01 5.10849E-14 9.44785E-14
 -1      2418 2.05175E+01 9.29050E-02 6.28320E-04 3.74239E-01 2.94708E-14 1.57078E-14
 -1      2419 2.06154E+01 1.00399E-01 3.32720E-03 4.16670E-01 4.88978E-14 6.94892E-14
 -1      2420 2.05368E+01 1.43667E-01-1.45527E-03 5.22491E-01 2.39057E-14 1.55961E-14
 -1      2421 2.03829E+01 7.77728E-02 5.55407E-04 2.89525E-01 1.34832E-13 5.67854E-14
 -1      2422 2.04607E+01 8.57975E-02 2.97220E-03 3.25683E-01 1.14398E-13 1.10320E-13
 -1      2423 2.04078E+01 1.24678E-01-1.25888E-03 4.12499E-01 6.92456E-14 1.15738E-13
 -1      2424 2.02773E+01 6.30429E-02 4.84475E-04 2.19232E-01 1.66193E-13 1.35571E-14
 -1      2425 2.03378E+01 7.06193E-02 2.53427E-03 2.48975E-01 1.47430E-13 4.22007E-14
 -1      2426 2.03046E+01 1.03764E-01-1.09317E-03 3.18599E-01 1.41447E-13 9.64068E-14
 -1      2427 2.01960E+01 4.98207E-02 4.14688E-04 1.62518E-01 8.09436E-14-3.83789E-14
 -1      2428 2.02421E+01 5.65022E-02 2.08874E-03 1.86326E-01 1.83519E-13 1.61065E-14
 -1      2429 2.02231E+01 8.37398E-02-9.40218E-04 2.41027E-01 1.89453E-13 1.99148E-13
 -1      2430 2.01343E+01 3.85229E-02 3.47801E-04 1.17809E-01-3.45179E-14-1.13720E-13
 -1      2431 2.01688E+01 4.41650E-02 1.67612E-03 1.36438E-01-3.87602E-15-1.14866E-13
 -1      2432 2.01598E+01 6.59322E-02-7.95894E-04 1.78584E-01 8.11701E-14 9.13178E-14
 -1      2433 2.00886E+01 2.91912E-02 2.85896E-04 8.32823E-02-8.89034E-14-6.49896E-14
 -1      2434 2.01138E+01 3.38108E-02 1.31493E-03 9.75625E-02-6.82275E-14-6.21328E-14
 -1      2435 2.01114E+01 5.08084E-02-6.61524E-04 1.29416E-01-3.36483E-14 5.94837E-14
 -1      2436 2.00553E+01 2.16800E-02 2.30500E-04 5.71369E-02 4.16469E-15-1.71578E-13
 -1      2437 2.00733E+01 2.53720E-02 1.01065E-03 6.78692E-02-6.76311E-14-1.32844E-13
 -1      2438 2.00751E+01 3.83725E-02-5.39629E-04 9.14664E-02-1.39892E-14 7.33675E-14
 -1      2439 2.00317E+01 1.57621E-02 1.82394E-04 3.77273E-02 1.29846E-13-1.44198E-13
 -1      2440 2.00442E+01 1.86526E-02 7.61555E-04 4.56305E-02 8.03489E-14-1.52198E-13
 -1      2441 2.00484E+01 2.83989E-02-4.32115E-04 6.27360E-02 1.47733E-14-3.75385E-14
 -1      2442 2.00155E+01 1.11887E-02 1.41701E-04 2.36211E-02-1.56850E-13 2.90837E-14
 -1      2443 2.00239E+01 1.34092E-02 5.62333E-04 2.93133E-02-1.66073E-14-3.86444E-14
 -1      2444 2.00292E+01 2.05667E-02-3.39772E-04 4.14096E-02-6.09536E-14 6.40478E-14
 -1      2445 2.00046E+01 7.71922E-03 1.08070E-04 1.36125E-02-6.75288E-14 1.45509E-13
 -1      2446 2.00100E+01 9.39357E-03 4.06199E-04 1.76087E-02-7.56111E-14 5.86487E-14
 -1      2447 2.00157E+01 1.45326E-02-2.62352E-04 2.59114E-02-1.60723E-13 3.13394E-13
 -1      2448 1.99978E+01 5.13662E-03 8.08554E-05 6.71197E-03-3.94050E-14 8.71589E-14
 -1      2449 2.00010E+01 6.37499E-03 2.86126E-04 9.43129E-03-4.96788E-15 1.80913E-13
 -1      2450 2.00066E+01 9.96963E-03-1.98850E-04 1.49163E-02-4.62130E-14 3.65157E-13
 -1      2451 1.99938E+01 3.25303E-03 5.92585E-05 2.12467E-03 2.58979E-15 2.16375E-15
 -1      2452 1.99955E+01 4.14978E-03 1.95494E-04 3.90110E-03-7.36005E-15 1.80390E-15
 -1      2453 2.00006E+01 6.58456E-03-1.47804E-04 7.33698E-03-1.22473E-14 1.76389E-13
 -1      2454 1.99918E+01 1.91062E-03 4.24386E-05-7.75962E-04 1.05981E-13 5.68835E-14
 -1      2455 1.99925E+01 2.54440E-03 1.28398E-04 3.18967E-04 5.98171E-14 3.96611E-14
 -1      2456 1.99970E+01 4.12507E-03-1.07546E-04 2.29998E-03 1.83186E-14-7.25686E-14
 -1      2457 1.99911E+01 9.79865E-04 2.95813E-05-2.47507E-03 7.37497E-15-4.29705E-15
 -1      2458 1.99911E+01 1.41477E-03 7.97687E-05-1.86067E-03 6.69346E-14-3.50121E-14
 -1      2459 1.99950E+01 2.38001E-03-7.63766E-05-8.83354E-04 1.16947E-13-1.48255E-14
 -1      2460 1.99912E+01 3.56541E-04 1.99402E-05-3.34167E-03-2.56103E-14-1.29001E-15
 -1      2461 1.99909E+01 6.43857E-04 4.53700E-05-3.05603E-03 7.09224E-15 6.11099E-14
 -1      2462 1.99941E+01 1.17668E-03-5.26895E-05-2.74633E-03-2.83379E-14-5.63163E-14
 -1      2463 1.99919E+01-4.16922E-05 1.28584E-05-3.65133E-03-1.65729E-13-4.63515E-14
 -1      2464 1.99913E+01 1.38314E-04 2.17415E-05-3.58198E-03-8.38977E-14-1.93914E-14
 -1      2465 1.99939E+01 3.76600E-04-3.50336E-05-3.69466E-03-3.85064E-14 2.64960E-13
 -1      2466 1.99928E+01-2.78786E-04 7.77502E-06-3.60573E-03-5.92960E-14-1.70645E-13
 -1      2467 1.99921E+01-1.74979E-04 6.11208E-06-3.67107E-03-8.90851E-14-1.80920E-13
 -1      2468 1.99942E+01-1.29348E-04-2.21467E-05-4.03129E-03 1.08656E-14 1.52905E-13
 -1      2469 1.99937E+01-4.03557E-04 4.22289E-06-3.34917E-03-4.96329E-14 1.83449E-14
 -1      2470 1.99931E+01-3.52338E-04-3.69822E-06-3.49139E-03-1.27806E-13-1.75141E-13
 -1      2471 1.99947E+01-4.25642E-04-1.29609E-05-3.97796E-03-8.30696E-14-5.98797E-14
 -1      2472 1.99947E+01-4.52616E-04 1.82107E-06-2.98215E-03 4.17433E-14 1.09757E-13
 -1      2473 1.99941E+01-4.36385E-04-9.37433E-06-3.16147E-03 4.87738E-14 6.46063E-15
 -1      2474 1.99953E+01-5.76576E-04-6.59474E-06-3.69328E-03-9.38835E-14 2.47376E-13
 -1      2475 1.99957E+01-4.52905E-04 2.64235E-07-2.57234E-03-1.87908E-13 1.14909E-13
 -1      2476 1.99951E+01-4.58794E-04-1.21959E-05-2.76241E-03-1.82590E-14 1.57357E-13
 -1      2477 1.99960E+01-6.30213E-04-2.33544E-06-3.28769E-03 1.11421E-14 2.08225E-13
 -1      2478 1.99965E+01-4.23852E-04-6.88890E-07-2.16319E-03-6.36460E-14 1.11417E-13
 -1      2479 1.99960E+01-4.42649E-04-1.31168E-05-2.34747E-03-1.90145E-13 1.52055E-13
 -1      2480 1.99967E+01-6.21805E-04 3.82209E-07-2.83547E-03-1.85964E-13 1.36085E-13
 -1      2481 1.99972E+01-3.79164E-04-1.22707E-06-1.78074E-03-1.27254E-13 1.31381E-13
 -1      2482 1.99968E+01-4.04422E-04-1.28337E-05-1.94970E-03-2.54878E-14 7.54893E-14
 -1      2483 1.99973E+01-5.76679E-04 1.99804E-06-2.38432E-03-7.93523E-14 1.66583E-13
 -1      2484 1.99978E+01-3.28286E-04-1.49667E-06-1.43871E-03-2.11566E-13 1.84665E-13
 -1      2485 1.99974E+01-3.55601E-04-1.18440E-05-1.58774E-03-1.89473E-13 1.59623E-13
 -1      2486 1.99978E+01-5.12636E-04 2.84783E-06-1.96272E-03-1.63722E-13 2.83833E-13
 -1      2487 1.99983E+01-2.77585E-04-1.61008E-06-1.14232E-03-1.04190E-14-3.25197E-14
 -1      2488 1.99980E+01-3.04012E-04-1.04916E-05-1.27017E-03-1.36413E-13-6.45810E-14
 -1      2489 1.99983E+01-4.41901E-04 3.18276E-06-1.58562E-03-2.27904E-14 1.89760E-13
 -1      2490 1.99987E+01-2.31267E-04-1.63749E-06-8.91045E-04 6.84742E-14-1.76426E-13
 -1      2491 1.99985E+01-2.54883E-04-9.00518E-06-9.98721E-04 8.48995E-14-1.23478E-13
 -1      2492 1.99986E+01-3.72680E-04 3.18676E-06-1.25860E-03 1.09132E-13 7.02720E-14
 -1      2493 1.99990E+01-1.92255E-04-1.72878E-06-6.80697E-04 2.86339E-13-4.83162E-13
 -1      2494 1.99989E+01-2.11703E-04-7.53939E-06-7.70692E-04 1.31891E-13-2.78723E-13
 -1      2495 1.99989E+01-3.10317E-04 2.99066E-06-9.81007E-04 1.88749E-13-2.40887E-13
 -1      2496 1.99993E+01-1.61744E-04-1.65040E-06-5.04027E-04 9.57993E-14-2.63295E-13
 -1      2497 1.99991E+01-1.76961E-04-6.17420E-06-5.80067E-04 1.52305E-13-3.10181E-13
 -1      2498 1.99992E+01-2.58379E-04 2.86708E-06-7.48860E-04 1.53705E-13-3.27003E-13
 -1      2499 1.99995E+01-1.40372E-04-1.53178E-06-3.54566E-04-2.30652E-13 2.19503E-14
 -1      2500 1.99994E+01-1.50941E-04-5.06234E-06-4.20158E-04 2.56335E-14-4.77441E-14
 -1      2501 1.99994E+01-2.16239E-04 3.73305E-06-5.53645E-04-9.77745E-14 1.72584E-13
 -1      2502 1.99996E+01-1.26354E-04-1.52372E-06-2.26615E-04-1.35705E-13 1.54446E-13
 -1      2503 1.99995E+01-1.33463E-04-4.15553E-06-2.83918E-04-1.76752E-13 6.66276E-14
 -1      2504 1.99995E+01-1.86184E-04 3.74775E-06-3.87300E-04-2.26354E-13 4.26583E-13
 -1      2505 1.99997E+01-1.14207E-04-2.39335E-06-1.58985E-04-1.72206E-13 1.51659E-14
 -1      2506 1.99999E+01-6.61355E-04 3.16194E-06-3.18956E-04 3.80194E-14 2.58778E-14
 -1      2507 1.99998E+01-6.02630E-04-1.09416E-06-3.44101E-04-3.79260E-14-2.68253E-13
 -1      2508 1.99999E+01-7.65672E-04 3.22370E-06-2.28815E-04 1.49865E-13 3.88090E-14
 -1      2509 1.99999E+01-7.21769E-04 1.26639E-07-2.74412E-04 9.47604E-14-3.80402E-14
 -1      2510 1.99999E+01-7.25373E-04-2.20129E-06-3.46387E-04 3.50874E-13 4.21967E-14
 -1      2511 1.99997E+01-3.81782E-04 1.93666E-06-3.51172E-04-1.94082E-13-2.56816E-13
 -1      2512 1.99997E+01-3.14198E-04-2.79552E-06-3.28343E-04-1.56456E-13-1.66628E-13
 -1      2513 1.99998E+01-5.27267E-04 2.49868E-06-3.61583E-04-3.05612E-13-4.34422E-13
 -1      2514 1.99998E+01-4.62353E-04-2.22274E-06-3.60842E-04-2.13276E-13-2.39427E-13
 -1      2515 1.99998E+01-4.44255E-04 1.21956E-06-4.20718E-04-8.96713E-14-2.56377E-13
 -1      2516 1.99998E+01-5.94822E-04-1.60448E-06-4.14753E-04 1.19621E-13-1.29888E-13
 -1      2517 2.00000E+01-8.28003E-04 2.90589E-06-1.05504E-04 1.67348E-14 3.07357E-13
 -1      2518 2.00000E+01-8.04654E-04 1.27656E-06-1.64425E-04 1.59339E-13-7.80747E-15
 -1      2519 2.00000E+01-8.21023E-04-2.79261E-06-2.28922E-04 2.58194E-13 6.32239E-15
 -1      2520 2.00000E+01-8.41104E-04 2.23645E-06 3.29021E-05-1.37469E-13 3.99941E-13
 -1      2521 2.00000E+01-8.41317E-04 2.24391E-06-3.05825E-05-2.74927E-13 4.78663E-13
 -1      2522 2.00000E+01-8.71377E-04-3.11175E-06-7.91165E-05 1.42497E-13 1.44615E-13
 -1      2523 2.00000E+01-8.03526E-04 1.29958E-06 1.66488E-04-3.19778E-13-2.50705E-13
 -1      2524 2.00000E+01-8.27357E-04 2.89139E-06 1.07750E-04-2.67987E-13 2.45793E-13
 -1      2525 2.00000E+01-8.70946E-04-3.10334E-06 8.17810E-05-1.05766E-13 1.79429E-13
 -1      2526 1.99999E+01-7.21725E-04 1.39737E-07 2.74378E-04 7.51236E-14-2.23050E-13
 -1      2527 1.99999E+01-7.64996E-04 3.20171E-06 2.29668E-04-6.26037E-14-4.53985E-13
 -1      2528 2.00000E+01-8.20468E-04-2.83044E-06 2.30159E-04-1.56682E-13-9.47899E-14
 -1      2529 1.99998E+01-6.02282E-04-9.86853E-07 3.43972E-04 2.62219E-13 2.46714E-13
 -1      2530 1.99999E+01-6.61312E-04 3.13573E-06 3.18878E-04 2.56096E-13-1.26365E-13
 -1      2531 1.99999E+01-7.25258E-04-2.16895E-06 3.46451E-04 1.37831E-13 1.31998E-14
 -1      2532 1.99998E+01-4.59457E-04-1.74976E-06 3.61770E-04-4.10367E-14 5.59847E-13
 -1      2533 1.99998E+01-5.27197E-04 2.52752E-06 3.61869E-04-3.31475E-14 4.81947E-13
 -1      2534 1.99998E+01-5.94559E-04-1.22513E-06 4.14263E-04 9.09663E-14 9.13500E-14
 -1      2535 1.99997E+01-3.10307E-04-2.16579E-06 3.24656E-04-4.86828E-14 2.43535E-13
 -1      2536 1.99997E+01-3.79109E-04 1.51727E-06 3.50084E-04-1.06013E-13 4.38800E-13
 -1      2537 1.99998E+01-4.42167E-04 3.60864E-07 4.21522E-04-5.05705E-15 4.05327E-13
 -1      2538 1.99997E+01-1.80311E-04-2.13237E-06 2.10724E-04-1.08868E-13 2.11680E-13
 -1      2539 4.16197E+00-6.84901E-01 6.66960E-02-9.30241E-01 1.33470E-13 8.54317E-13
 -1      2540 5.43448E+00-9.44299E-01 6.55463E-02-3.46303E+00 1.66533E-13 8.88178E-13
 -1      2541 2.34173E+01 1.37930E+00 6.61770E-03 1.01147E+00 2.95531E-13 3.31186E-13
 -1      2542 2.37667E+01 1.23376E+00 4.28525E-03 1.59614E+00 3.12141E-13 4.31686E-13
 -1      2543 2.42231E+01 1.46327E+00-2.06207E-02 1.94772E+00 3.53519E-13 3.61640E-13
 -1      2544 2.39930E+01 1.92111E+00-3.31375E-02 7.93233E-01 3.57665E-13 1.29939E-13
 -1      2545 2.99769E+01 2.64885E-01-8.85195E-02 2.02736E+00 5.73284E-13-5.01432E-13
 -1      2546 2.77913E+01-1.42119E+00-4.14609E-02 3.01636E+00 3.92734E-13-4.50584E-13
 -1      2547 1.33748E+01-3.17225E+00 4.30134E-02-6.85572E+00 3.48582E-13 3.87579E-13
 -1      2548 1.71167E+01-3.53121E+00-9.07523E-03-7.12462E+00 2.41973E-13 3.25746E-13
 -1      2549 3.14124E+01 6.76305E+00-1.34602E-01-1.76189E+00-1.02862E-12-4.40439E-13
 -1      2550 3.10460E+01 5.95324E+00-1.03751E-01-2.07021E+00-1.02646E-12-3.84914E-13
 -1      2551 3.95259E+00 2.56156E+00 6.95406E-02-2.24850E+00 6.46705E-14-1.19593E-12
 -1      2552 6.07403E+00 2.06633E+00 6.73334E-02-3.50941E+00 6.84036E-14-1.13631E-12
 -1      2553 2.37974E+01 2.80859E-01-5.20520E-02 1.19696E+00 1.26704E-14-1.05718E-13
 -1      2554 2.22113E+01 2.43428E-01 1.53486E-02 1.02235E-01-1.26012E-13-2.00768E-13
 -1      2555 2.50812E+01-6.66331E-02 1.31126E-02 2.01760E+00 6.44901E-14 5.82815E-14
 -1      2556 6.52984E+00 3.18692E+00 3.95272E-02 3.17956E+00 4.26784E-13-9.39526E-13
 -1      2557 9.57110E+00 2.63776E+00 2.04522E-01 3.60500E+00 5.15352E-13-8.52513E-13
 -1      2558 2.56730E+01-2.66175E+00-3.18635E-02 4.70928E+00 2.37560E-13-2.97234E-13
 -1      2559 2.27611E+01-3.41465E+00 5.72248E-03 5.49308E+00 5.50393E-14-2.00714E-13
 -1      2560 3.12682E+01 3.91196E+00-1.26557E-01 2.61864E-01 8.68611E-13-5.70294E-13
 -1      2561 3.08575E+01 2.16802E+00-4.96098E-02 9.52030E-01 7.60642E-13-5.23470E-13
 -1      2562 2.94222E+01 4.90111E-01-6.41708E-03 4.21169E-01 5.04721E-13-6.47454E-13
 -1      2563 2.50308E+01-6.63382E-01-8.30274E-02 2.49844E+00-4.27075E-13-3.84276E-13
 -1      2564 2.15993E+01-9.19550E-01-3.64907E-02 3.39498E+00-2.16022E-13-4.58286E-13
 -1      2565 3.24156E+01 6.85577E+00-5.08318E-02 1.02501E+00 1.07725E-12-4.17159E-13
 -1      2566 3.15062E+01 6.03559E+00-1.09277E-01 5.72506E-01 1.02629E-12-4.54178E-13
 -1      2567 3.09803E+01 3.97056E+00-1.17596E-01 2.24853E+00 9.25537E-13-2.17326E-13
 -1      2568 3.18867E+01 5.44564E+00-7.86798E-02 2.29345E+00 1.01397E-12-2.81664E-13
 -1      2569 2.25878E+01-1.33887E+00-3.94356E-02-2.90617E+00 3.41893E-13-6.04183E-13
 -1      2570 2.54940E+01-1.04130E+00-1.00843E-01-1.69162E+00 3.99750E-13-4.47226E-13
 -1      2571 1.58330E+01-7.66568E-01-1.80695E-02-4.34191E+00 1.05194E-13-8.01158E-13
 -1      2572 1.95887E+01-1.17141E+00-2.28242E-02-4.10369E+00 2.81331E-13-7.28119E-13
 -1      2573 2.17490E+01-1.27645E+00 5.59752E-02-2.60836E+00 6.52811E-14-4.69527E-13
 -1      2574 8.71208E+00 1.37921E+00 9.64954E-02-3.96149E+00-4.99600E-14-1.05102E-12
 -1      2575 1.16892E+01 4.58034E-01 1.92307E-02-4.66324E+00 6.61693E-14-9.74026E-13
 -1      2576 3.59718E+00 3.49056E+00 1.35461E-01-1.13204E+00 1.57353E-13-1.18558E-12
 -1      2577 2.07050E+01-3.58629E+00 3.10329E-03-6.08959E+00 2.36866E-13 7.47041E-14
 -1      2578 2.36839E+01-3.03371E+00-1.81965E-02-5.58621E+00 1.18683E-13-3.82472E-14
 -1      2579 1.77782E+01-6.47833E-01-5.57669E-02 4.77495E+00-1.15019E-13-6.36522E-13
 -1      2580 1.41472E+01-1.30915E-01 3.64091E-02 4.89098E+00 5.93969E-14-7.55389E-13
 -1      2581 2.92952E+01 1.18395E+00-1.52779E-01-1.94117E-01-7.23172E-13-2.56406E-13
 -1      2582 2.73205E+01 2.44509E-01-4.58473E-02 1.05547E+00-6.02213E-13-3.33122E-13
 -1      2583 3.07327E+01 4.17473E+00-1.71142E-01-2.09799E+00-9.37583E-13-2.64788E-13
 -1      2584 3.01738E+01 2.86549E+00-4.71705E-02-1.59632E+00-8.36956E-13-2.48246E-13
 -1      2585 3.13475E+01 6.75048E+00-1.11234E-01-7.78133E-01-9.35363E-13-5.51476E-13
 -1      2586 3.13282E+01 7.00848E+00-1.34790E-01-1.19730E+00-9.88931E-13-5.46559E-13
 -1      2587 3.09777E+01 4.10272E+00-7.11073E-02-5.04963E-01-6.47704E-13-6.99024E-13
 -1      2588 3.14689E+01 5.67397E+00-1.20398E-01-4.28730E-01-7.96530E-13-6.67660E-13
 -1      2589 2.96545E+01 6.77935E-01-4.53616E-02-1.82831E+00-3.18329E-13-5.71154E-13
 -1      2590 3.05291E+01 1.97054E+00-1.29421E-01-1.16222E+00-4.51625E-13-6.64663E-13
 -1      2591 2.58341E+01-2.11570E+00-3.84261E-02-4.28850E+00-3.99680E-15-2.10165E-13
 -1      2592 2.83926E+01-8.21264E-01-6.93252E-02-3.13041E+00-1.76532E-13-4.63518E-13
 -1      2593 2.85492E+01-7.82193E-01 2.64247E-02-1.58420E+00-9.06454E-14-6.86395E-13
 -1      2594 2.54401E+01-3.16848E+00 1.70123E-02-3.91747E+00 2.37491E-13-4.01665E-13
 -1      2595 7.76452E+00-1.65928E+00 7.78620E-02-5.14836E+00 3.34455E-13 7.01578E-13
 -1      2596 1.00427E+01-2.22239E+00 3.94585E-02-6.39283E+00 3.16497E-13 5.19140E-13
 -1      2597 3.17888E+01 6.56557E+00-1.11373E-01 1.94144E+00 1.08757E-12-3.17121E-13
 -1      2598 3.23656E+01 6.96764E+00-8.24970E-02 1.50710E+00 1.10634E-12-3.49652E-13
 -1      2599 3.00572E+01 6.58359E+00-5.89170E-02 1.06096E+00 1.03875E-12-3.07580E-13
 -1      2600 2.55635E+01 1.36881E+00-5.60916E-02-3.63705E+00-3.42022E-13-1.23464E-13
 -1      2601 2.52879E+01 8.22962E-01 2.35599E-03-3.29662E+00-3.52900E-13-3.57457E-14
 -1      2602 2.54023E+01 9.80641E-01 9.66842E-03-3.49180E+00-3.29251E-13-7.94790E-14
 -1      2603 2.53110E+01 1.50798E+00-5.11756E-03-3.48652E+00-2.55109E-13-1.91527E-13
 -1      2604 1.50531E+01 4.89831E-01 4.21373E-02-3.35470E+00-1.90320E-13-6.71824E-13
 -1      2605 2.33946E+01-6.98895E-02-1.01019E-02-4.44241E-01 1.49179E-13-1.90705E-13
 -1      2606 2.33687E+01 6.38372E-01 2.10299E-02-9.82454E-01 1.68320E-13-2.77894E-13
 -1      2607 2.42175E+01 8.29309E-01-5.98893E-02-1.90360E+00 3.22043E-14-2.73174E-13
 -1      2608 2.18871E+01-4.61750E-01-3.10155E-03-7.14256E-01-1.15109E-13-2.22149E-13
 -1      2609 1.15282E+01 1.23296E+00 7.30966E-02 4.20074E+00 4.15473E-13-7.59448E-13
 -1      2610 4.29145E+00 2.43844E+00 7.22119E-02 2.68074E+00 2.51132E-13-1.12610E-12
 -1      2611 2.08104E+01-8.80097E-01 6.61310E-02 3.17708E+00 8.82350E-14-3.93213E-13
 -1      2612 8.07357E+00-6.14637E-01 1.46948E-01-4.09959E+00 2.34660E-13 7.25309E-13
 -1      2613 1.00984E+01-2.08333E+00 5.00695E-02 6.20073E+00-3.10613E-13 5.41678E-13
 -1      2614 7.29580E+00-1.64272E+00 7.41465E-02 4.86811E+00-2.18409E-13 7.06935E-13
 -1      2615 1.99997E+01-1.68050E-04-1.99418E-07-2.40280E-04-1.35433E-13-8.57458E-14
 -1      2616 2.94266E+01 6.59195E+00-6.14700E-02-1.50246E+00-9.18654E-13-4.48613E-13
 -1      2617 1.99997E+01-2.19277E-04 1.50559E-07-2.79921E-04-1.34014E-13-6.03534E-14
 -1      2618 2.12232E+01-3.77539E+00 2.17487E-02 5.94225E+00-1.05388E-13-1.16948E-13
 -1      2619 1.95825E+01-3.50219E+00 1.29715E-01 6.14539E+00-2.94972E-13-7.55333E-14
 -1      2620 2.32126E+01-3.87415E+00-3.63022E-02 4.66103E+00-1.88558E-13-2.78180E-13
 -1      2621 1.99996E+01-1.71239E-04-2.36349E-06 2.65942E-04-1.22430E-13 9.29922E-14
 -1      2622 1.99997E+01-2.43729E-04 1.60815E-06 3.04272E-04-7.20181E-14 1.48356E-13
 -1      2623 1.99997E+01-3.02232E-04-1.41571E-06 3.87878E-04-9.31902E-14 2.18491E-13
 -1      2624 1.99996E+01-1.82611E-04-3.91777E-06 3.24883E-04-1.16103E-13 1.64144E-13
 -1      2625 4.73455E+00-3.52827E-01 1.38609E-01 9.98904E-01-5.51920E-14 8.13793E-13
 -1      2626 6.38640E+00 3.30153E-01 1.53050E-01-1.13972E-01-2.31690E-14 7.38548E-13
 -1      2627 1.34185E+01-2.44480E+00 1.13323E-01-6.44589E+00 4.68459E-13 3.78489E-13
 -1      2628 5.52819E+00-7.68688E-01 7.31873E-02 3.14654E+00-9.22873E-14 8.20510E-13
 -1      2629 1.56387E+01-2.90589E+00 1.39013E-02 6.43050E+00-4.31238E-13 1.61079E-13
 -1      2630 1.28801E+01-2.52233E+00 1.06277E-01 6.54460E+00-3.71064E-13 4.16861E-13
 -1      2631 1.24439E+01-1.59146E+00 1.48016E-01 5.91121E+00-4.25909E-13 4.16334E-13
 -1      2632 6.97172E+00 3.46841E+00 2.01035E-01-2.52081E+00-9.86572E-14-1.06276E-12
 -1      2633 5.06610E+00 3.80554E+00 7.88134E-02-1.51851E+00 1.24727E-14-1.11017E-12
 -1      2634 2.01853E+01-3.71038E+00 6.35450E-02-6.09834E+00 3.75838E-13 5.42136E-14
 -1      2635 2.94066E+01 4.85991E+00-4.57615E-02-2.67969E+00-8.59257E-13-2.11484E-13
 -1      2636 2.96994E+01 2.64445E+00-3.00562E-02 2.36816E-02-4.37511E-13-8.27449E-13
 -1      2637 2.95723E+01 5.72762E+00-5.92398E-02-1.39582E-01-7.48485E-13-6.77153E-13
 -1      2638 8.19738E+00 2.23238E+00 7.84007E-02-3.44501E+00-9.57151E-14-1.03795E-12
 -1      2639 2.89308E+01 1.81973E+00-8.19521E-03-1.76319E+00-6.20101E-13-1.14297E-13
 -1      2640 1.46722E+01 9.82489E-02 4.75384E-02-3.93408E+00-1.30784E-13-7.70536E-13
 -1      2641 3.03368E+01 2.62771E+00-6.66636E-02 2.45657E+00 7.73076E-13-1.04972E-13
 -1      2642 2.92161E+01 3.33026E+00-1.32709E-01 3.21062E+00 7.42711E-13 4.95992E-14
 -1      2643 2.89561E+01 1.49261E+00-5.98664E-02 2.46045E+00 5.89154E-13 4.96408E-14
 -1      2644 3.04080E+01 4.47435E+00-1.07939E-01-1.25628E-01 8.61949E-13-5.53252E-13
 -1      2645 2.88804E+01 3.00699E+00-5.67685E-02-6.86995E-01 6.79568E-13-6.87811E-13
 -1      2646 2.87934E+01 4.87999E+00-1.53967E-01-3.55559E-01 8.45546E-13-5.18002E-13
 -1      2647 2.72402E+01-6.05438E-01 5.15748E-03-1.68244E-01 3.99250E-13-2.60791E-13
 -1      2648 2.77910E+01-1.03153E-01-1.35218E-01 1.54055E+00 3.69614E-13 1.06165E-14
 -1      2649 2.58783E+01-1.02603E+00 3.50701E-02-1.81724E-01 2.18929E-13-1.49172E-13
 -1      2650 2.70455E+01-2.54259E+00 9.30180E-03 2.79440E+00 1.51504E-13-5.36488E-13
 -1      2651 2.47577E+01 1.17418E+00-4.09037E-03-2.63497E+00-5.32612E-14-2.47592E-13
 -1      2652 2.50750E+01 1.34776E+00-6.67133E-02-3.17117E+00-1.87457E-13-2.44416E-13
 -1      2653 2.54546E+01 9.93103E-01 7.66908E-03-3.35175E+00-2.47395E-13-1.38263E-13
 -1      2654 2.50367E+01 6.19858E-01 7.07115E-03-2.46813E+00-5.64899E-14-1.54435E-13
 -1      2655 2.62438E+01-4.06634E-01 3.82988E-02 6.44438E-01-2.71179E-13-1.52739E-13
 -1      2656 3.01236E+01 5.73611E+00-5.57315E-02 2.48921E+00 9.84851E-13-1.39028E-13
 -1      2657 6.75443E+00 1.84828E+00 1.64484E-01 4.09748E+00 2.35645E-13-1.05499E-12
 -1      2658 8.80557E+00 1.10661E+00-4.95855E-02 4.70092E+00 1.78829E-13-9.11937E-13
 -1      2659 1.99996E+01-2.74733E-04-2.11168E-06-3.64869E-04-6.62962E-15-4.79339E-14
 -1      2660 1.99996E+01-2.44553E-04 2.45062E-06 4.19476E-04-9.22943E-14 1.53127E-14
 -1      2661 1.35790E+01 2.39282E-01 8.42929E-02 4.70424E+00 2.13246E-13-7.54716E-13
 -1      2662 2.62343E+01 4.69187E-01-5.91077E-02 3.64879E+00 2.75886E-13 2.62336E-13
 -1      2663 2.62739E+01 2.74285E-01 4.56629E-03 3.37916E+00 2.09834E-13 1.75069E-13
 -1      2664 2.52520E+01 1.33383E+00 3.40471E-03 2.95973E+00 3.90962E-13 3.34576E-13
 -1      2665 2.57128E+01 8.51202E-01-3.12379E-02 3.32446E+00 3.32189E-13 3.49931E-13
 -1      2666 1.99997E+01-3.90710E-04 2.65568E-07-4.94149E-04 2.16741E-15-2.15878E-13
 -1      2667 1.99996E+01-2.98171E-04-1.82456E-06-4.47853E-04 3.09706E-15 9.38311E-14
 -1      2668 1.99995E+01-3.17101E-04-4.76818E-06-5.29678E-04-8.38822E-14 1.12855E-13
 -1      2669 2.45656E+01-9.87660E-01-1.87589E-02-9.60429E-01 6.14913E-14-3.87917E-13
 -1      2670 2.46794E+01-4.94743E-01 1.31662E-04-1.20895E+00 1.13146E-13-3.90160E-13
 -1      2671 2.48257E+01 2.35796E+00-4.42427E-02-2.60332E+00-4.68511E-13-9.71011E-14
 -1      2672 2.45268E+01 2.80279E+00-1.99141E-02-1.95526E+00-4.61242E-13-1.55324E-13
 -1      2673 2.43315E+01 3.00301E+00-2.65299E-02-1.03468E+00-4.65381E-13-2.81115E-13
 -1      2674 2.41706E+01 2.82865E+00-5.13768E-02-2.72273E-01-4.49807E-13-3.78960E-13
 -1      2675 2.50527E+01 3.54242E+00-4.65636E-02-1.66700E+00-5.38437E-13-2.53306E-13
 -1      2676 2.42564E+01 2.33771E+00 1.86053E-03 5.39933E-01-3.63615E-13-4.74117E-13
 -1      2677 2.42271E+01 1.57695E+00-6.67127E-02 1.00975E+00-2.79091E-13-4.79109E-13
 -1      2678 2.48948E+01 3.16546E+00-3.64435E-02 1.65426E-01-4.65440E-13-5.04754E-13
 -1      2679 2.43380E+01 7.80193E-01 1.00956E-02 1.25246E+00-2.07783E-13-4.64304E-13
 -1      2680 2.43141E+01-4.73680E-03-4.16057E-02 1.28683E+00-8.29970E-14-4.65096E-13
 -1      2681 2.49624E+01 1.43912E+00-1.36370E-02 1.21053E+00-2.21614E-13-5.65537E-13
 -1      2682 2.41436E+01-6.04514E-01-5.34445E-03 1.02856E+00-2.00976E-14-4.39713E-13
 -1      2683 2.40274E+01-1.02624E+00-1.05572E-02 7.78516E-01 4.21048E-14-4.36444E-13
 -1      2684 2.47766E+01-3.96820E-01-1.98439E-03 1.06327E+00-4.30038E-14-5.45723E-13
 -1      2685 2.36041E+01-1.23923E+00-1.26100E-02 3.65834E-01 4.18665E-14-4.43396E-13
 -1      2686 2.33895E+01-1.29121E+00 9.90257E-03 5.15143E-02 1.35984E-14-4.34421E-13
 -1      2687 2.40920E+01-1.39109E+00-4.75604E-03 3.15891E-01 1.87073E-14-4.74644E-13
 -1      2688 2.28946E+01-1.23135E+00-1.24738E-02-2.82588E-01-5.85604E-14-3.94057E-13
 -1      2689 2.26415E+01-1.08389E+00 1.51820E-02-5.36804E-01-6.40144E-14-3.99065E-13
 -1      2690 2.31462E+01-1.53146E+00-1.46905E-02-4.32151E-01 8.99888E-16-4.39549E-13
 -1      2691 2.22095E+01-9.10208E-01-8.46447E-03-7.34119E-01-1.23486E-14-3.32209E-13
 -1      2692 2.19678E+01-7.09254E-01 1.31957E-02-8.92575E-01 1.47099E-14-2.89748E-13
 -1      2693 2.22473E+01-1.19485E+00-1.75971E-02-9.30129E-01 1.26975E-14-2.99893E-13
 -1      2694 2.16471E+01-5.28417E-01-3.99373E-03-9.73949E-01 1.36381E-14-2.38117E-13
 -1      2695 2.14416E+01-3.53182E-01 9.17501E-03-1.04739E+00 4.60131E-14-1.79178E-13
 -1      2696 2.15403E+01-7.31331E-01-1.50392E-02-1.16750E+00 2.28405E-14-2.69021E-13
 -1      2697 2.12235E+01-2.10320E-01-9.46508E-04-1.05283E+00 1.01886E-14-1.81554E-13
 -1      2698 2.10581E+01-8.51643E-02 5.57687E-03-1.06429E+00 2.30266E-14-1.56535E-13
 -1      2699 2.10423E+01-3.25189E-01-1.06540E-02-1.22256E+00 4.37210E-14-2.66780E-13
 -1      2700 2.09171E+01 1.01772E-02 8.51207E-04-1.02573E+00-1.04882E-14-1.73534E-13
 -1      2701 2.07861E+01 8.67602E-02 2.89267E-03-9.97848E-01 2.17597E-14-2.01096E-13
 -1      2702 2.07119E+01-3.39319E-02-6.77934E-03-1.16795E+00-5.12061E-15-2.11548E-13
 -1      2703 2.06970E+01 1.41302E-01 1.78848E-03-9.37198E-01 3.91130E-14-2.64027E-13
 -1      2704 2.05928E+01 1.80360E-01 1.15819E-03-8.87716E-01-1.95433E-14-2.55941E-13
 -1      2705 2.04986E+01 1.45638E-01-4.05510E-03-1.05516E+00-1.95018E-14-2.56196E-13
 -1      2706 2.05363E+01 2.05271E-01 2.22023E-03-8.18798E-01-4.29329E-14-1.66993E-13
 -1      2707 2.04526E+01 2.18844E-01 1.47105E-04-7.60215E-01 5.84535E-14-1.36832E-13
 -1      2708 2.03607E+01 2.38506E-01-2.34998E-03-9.16999E-01-8.61865E-15-2.61668E-13
 -1      2709 2.04157E+01 2.24534E-01 2.34680E-03-6.91358E-01 3.30843E-14-1.48338E-13
 -1      2710 2.03479E+01 2.22507E-01-3.77190E-04-6.31775E-01-3.00372E-14-1.19126E-13
 -1      2711 2.02693E+01 2.72122E-01-1.36776E-03-7.73510E-01 4.08870E-14-1.07616E-13
 -1      2712 2.03228E+01 2.16967E-01 2.28546E-03-5.67726E-01-1.06087E-14-1.46105E-13
 -1      2713 2.02677E+01 2.06450E-01-6.00342E-04-5.11943E-01 4.74963E-14-9.79959E-14
 -1      2714 2.02060E+01 2.69131E-01-8.37393E-04-6.36469E-01-9.43857E-15-3.80994E-14
 -1      2715 2.02497E+01 1.95194E-01 2.11079E-03-4.55120E-01 3.71754E-14-1.15512E-13
 -1      2716 2.02051E+01 1.80881E-01-6.50901E-04-4.05631E-01-4.89091E-14-4.35747E-14
 -1      2717 2.01599E+01 2.45936E-01-5.64973E-04-5.12342E-01 4.97248E-14-1.73965E-13
 -1      2718 2.01916E+01 1.67432E-01 1.87446E-03-3.56954E-01-9.38335E-14 1.51504E-14
 -1      2719 2.01558E+01 1.52208E-01-6.11180E-04-3.14721E-01 2.50595E-14-3.61477E-14
 -1      2720 2.01248E+01 2.13462E-01-4.27802E-04-4.04125E-01-1.70201E-14-1.69455E-13
 -1      2721 2.01453E+01 1.38657E-01 1.61307E-03-2.74178E-01 1.01735E-13-5.57522E-14
 -1      2722 2.01169E+01 1.24161E-01-5.30885E-04-2.39218E-01 1.01294E-13-4.83313E-14
 -1      2723 2.00973E+01 1.78496E-01-3.55213E-04-3.12573E-01 3.45806E-14-1.57050E-13
 -1      2724 2.01086E+01 1.11646E-01 1.35178E-03-2.06249E-01 3.12436E-14-1.08991E-13
 -1      2725 2.00863E+01 9.87033E-02-4.38372E-04-1.78036E-01-3.98105E-14-1.59891E-13
 -1      2726 2.00753E+01 1.44941E-01-3.10026E-04-2.37049E-01-4.50627E-15-2.70913E-13
 -1      2727 2.00797E+01 8.77525E-02 1.10672E-03-1.51794E-01-5.89378E-14-2.07033E-13
 -1      2728 2.00625E+01 7.66883E-02-3.48715E-04-1.29532E-01-8.00104E-14-2.27334E-13
 -1      2729 2.00577E+01 1.14812E-01-2.74645E-04-1.76117E-01-8.86684E-15-2.43470E-13
 -1      2730 2.00573E+01 6.74638E-02 8.87067E-04-1.09061E-01-3.51480E-14-1.16747E-13
 -1      2731 2.00443E+01 5.83064E-02-2.69045E-04-9.18596E-02 5.30624E-14-1.00840E-13
 -1      2732 2.00435E+01 8.89341E-02-2.41972E-04-1.27954E-01 1.15090E-14-2.48976E-13
 -1      2733 2.00401E+01 5.07609E-02 6.96958E-04-7.62015E-02 4.18997E-14-1.14006E-13
 -1      2734 2.00305E+01 4.33776E-02-2.01950E-04-6.31817E-02 2.76639E-14-1.37961E-13
 -1      2735 2.00323E+01 6.74291E-02-2.10017E-04-9.06230E-02 4.72784E-14-1.21224E-13
 -1      2736 2.00272E+01 3.73547E-02 5.37038E-04-5.14429E-02 5.52374E-14-1.08919E-13
 -1      2737 2.00202E+01 3.15356E-02-1.47554E-04-4.17950E-02 5.34006E-14-1.23152E-13
 -1      2738 2.00235E+01 5.00264E-02-1.78933E-04-6.22483E-02 9.43580E-14-1.01408E-13
 -1      2739 2.00177E+01 2.68317E-02 4.05750E-04-3.31805E-02 7.95867E-15-5.65263E-14
 -1      2740 2.00127E+01 2.23408E-02-1.04755E-04-2.61936E-02-7.87417E-14 5.13958E-14
 -1      2741 2.00167E+01 3.62627E-02-1.49529E-04-4.11132E-02 6.37363E-14-1.94504E-14
 -1      2742 2.00108E+01 1.87420E-02 3.00281E-04-2.00204E-02-1.77016E-13 3.78588E-14
 -1      2743 2.00073E+01 1.53464E-02-7.19407E-05-1.50915E-02-7.25695E-14-2.08071E-14
 -1      2744 2.00116E+01 2.56036E-02-1.22597E-04-2.57117E-02-1.17574E-13-1.34873E-15
 -1      2745 2.00059E+01 1.26493E-02 2.17243E-04-1.07893E-02-1.00407E-13-1.03812E-13
 -1      2746 2.00036E+01 1.01356E-02-4.73859E-05-7.42024E-03-1.62031E-13-8.63248E-14
 -1      2747 2.00077E+01 1.75157E-02-9.86718E-05-1.47631E-02-1.17834E-13 9.58986E-15
 -1      2748 2.00026E+01 8.15764E-03 1.53122E-04-4.52388E-03-1.15103E-13-5.06560E-14
 -1      2749 2.00011E+01 6.33886E-03-2.94578E-05-2.31312E-03-4.45708E-14 2.79460E-14
 -1      2750 2.00048E+01 1.15056E-02-7.79924E-05-7.20631E-03-7.25803E-14 7.30374E-14
 -1      2751 2.00004E+01 4.92277E-03 1.04564E-04-4.51196E-04-3.22038E-14-5.71446E-14
 -1      2752 1.99995E+01 3.64078E-03-1.67132E-05 9.18517E-04-6.70065E-15 2.56112E-14
 -1      2753 2.00028E+01 7.13872E-03-6.05493E-05-2.18224E-03-7.51822E-14 1.29512E-13
 -1      2754 1.99990E+01 2.65504E-03 6.85320E-05 2.03677E-03-8.77385E-15 7.88701E-14
 -1      2755 1.99986E+01 1.77955E-03-7.93120E-06 2.81109E-03 1.05714E-14 7.05950E-14
 -1      2756 2.00014E+01 4.04534E-03-4.61556E-05 9.90914E-04 2.33440E-14 6.20473E-14
 -1      2757 1.99983E+01 1.11694E-03 4.23810E-05 3.40899E-03 1.31823E-13 1.63044E-13
 -1      2758 1.99981E+01 5.43064E-04-2.11170E-06 3.77451E-03 2.95608E-13 2.18487E-13
 -1      2759 2.00004E+01 1.91978E-03-3.45153E-05 2.84371E-03 1.26684E-13 1.49199E-13
 -1      2760 1.99979E+01 1.18025E-04 2.38755E-05 4.02025E-03 1.43748E-13 9.95148E-14
 -1      2761 1.99979E+01-2.36979E-04 1.54319E-06 4.11583E-03-3.04493E-14-9.00752E-15
 -1      2762 1.99998E+01 5.14979E-04-2.52787E-05 3.78123E-03 9.97497E-14 2.81506E-14
 -1      2763 1.99978E+01-4.91372E-04 1.11729E-05 4.13352E-03-1.59533E-14 6.65857E-14
 -1      2764 1.99979E+01-6.91521E-04 3.65569E-06 4.06031E-03 4.61858E-14-6.78506E-15
 -1      2765 1.99994E+01-3.64640E-04-1.80830E-05 4.10673E-03 2.77861E-14 5.70851E-14
 -1      2766 1.99979E+01-8.26636E-04 2.78776E-06 3.93949E-03 1.49111E-14-4.19966E-14
 -1      2767 1.99981E+01-9.20527E-04 4.70056E-06 3.76933E-03-7.32606E-14-9.61837E-14
 -1      2768 1.99992E+01-8.70899E-04-1.25790E-05 4.04248E-03-3.27792E-14-7.36959E-14
 -1      2769 1.99980E+01-9.75044E-04-2.45363E-06 3.57289E-03-1.77294E-13-9.30927E-14
 -1      2770 1.99982E+01-9.98862E-04 5.03220E-06 3.35534E-03-1.37568E-13-4.42118E-14
 -1      2771 1.99991E+01-1.11945E-03-8.44794E-06 3.74761E-03-6.43261E-14-8.02517E-14
 -1      2772 1.99983E+01-1.00134E-03-5.46057E-06 3.12605E-03-6.85888E-15-1.13668E-13
 -1      2773 1.99985E+01-9.81489E-04 4.90881E-06 2.89398E-03 2.33887E-13-1.33405E-13
 -1      2774 1.99991E+01-1.19673E-03-5.40951E-06 3.33288E-03-1.27905E-13 1.02520E-13
 -1      2775 1.99985E+01-9.52596E-04-6.92354E-06 2.65969E-03 2.64347E-13-2.65539E-13
 -1      2776 1.99987E+01-9.07918E-04 4.51335E-06 2.43379E-03 1.48004E-13-1.74866E-13
 -1      2777 1.99992E+01-1.16604E-03-3.22526E-06 2.87270E-03 1.40750E-13-2.78840E-13
 -1      2778 1.99987E+01-8.62272E-04-7.35557E-06 2.21150E-03 1.80212E-13-2.76216E-13
 -1      2779 1.99989E+01-8.05921E-04 3.97149E-06 2.00368E-03 1.81239E-13-1.39696E-13
 -1      2780 1.99992E+01-1.07279E-03-1.69772E-06 2.41471E-03 1.42155E-13-1.63829E-13
 -1      2781 1.99989E+01-7.53625E-04-7.13016E-06 1.80271E-03 1.64852E-13 1.48023E-13
 -1      2782 1.99991E+01-6.94543E-04 3.36848E-06 1.61875E-03 2.00748E-13 1.25099E-13
 -1      2783 1.99993E+01-9.48827E-04-6.67147E-07 1.98721E-03 3.66303E-13 1.43184E-13
 -1      2784 1.99991E+01-6.42409E-04-6.50849E-06 1.44309E-03 1.63052E-13 1.87709E-13
 -1      2785 1.99992E+01-5.86524E-04 2.75597E-06 1.28460E-03 2.38050E-13 2.64521E-13
 -1      2786 1.99994E+01-8.15910E-04-9.39448E-09 1.60490E-03 2.31288E-13 3.16352E-13
 -1      2787 1.99993E+01-5.39047E-04-5.67617E-06 1.13469E-03 2.55058E-13-3.35883E-14
 -1      2788 1.99994E+01-4.90204E-04 2.16002E-06 1.00053E-03 1.99156E-13 4.36711E-14
 -1      2789 1.99995E+01-6.88550E-04 3.61627E-07 1.27316E-03 1.05797E-13 1.11851E-13
 -1      2790 1.99994E+01-4.50425E-04-4.82884E-06 8.74460E-04 2.09978E-13 8.53069E-14
 -1      2791 1.99995E+01-4.10573E-04 1.51627E-06 7.61603E-04 1.16696E-13-7.41996E-14
 -1      2792 1.99995E+01-5.76164E-04 4.86093E-07 9.91210E-04 2.40952E-13-1.52542E-13
 -1      2793 1.99995E+01-3.79089E-04-3.69839E-06 6.56684E-04 4.33670E-14 8.38121E-14
 -1      2794 1.99996E+01-3.50827E-04 3.10950E-07 5.62019E-04 5.04102E-14 1.44801E-13
 -1      2795 1.99996E+01-4.82605E-04 1.07024E-06 7.53953E-04 1.73525E-13 1.55719E-13
 -1      2796 2.48101E+01 1.94182E-01-5.69214E-02-1.44358E+00 1.85315E-13-3.56127E-13
 -1      2797 2.48108E+01 1.05638E+00 2.51911E-03-1.30796E+00 2.76602E-13-3.42953E-13
 -1      2798 2.53847E+01-2.44443E-01-8.79144E-03-1.27970E+00 1.79660E-13-6.22301E-13
 -1      2799 8.05280E+00 9.43741E-01 1.20152E-01 4.22658E-01-1.46435E-13 5.94330E-13
 -1      2800 7.81846E+00 7.69825E-01 1.47695E-01-1.50270E+00-6.22419E-15 6.34132E-13
 -1      2801 2.47016E+01 1.90210E+00-7.31284E-02-9.18809E-01 3.58082E-13-2.94161E-13
 -1      2802 2.47169E+01 2.58748E+00-1.82452E-02-2.73481E-01 4.35728E-13-2.03908E-13
 -1      2803 2.55449E+01 1.75957E+00-4.05835E-02-1.17451E+00 3.49911E-13-4.97203E-13
 -1      2804 2.39171E+01-1.31815E+00 8.58037E-03-1.48550E-01-4.40324E-14-2.82559E-13
 -1      2805 2.41273E+01-1.24148E+00-1.22366E-02-5.08535E-01 3.65899E-14-3.05007E-13
 -1      2806 2.46665E+01-1.39447E+00-5.91617E-03-4.79649E-01 1.33496E-14-5.23647E-13
 -1      2807 2.31105E+01-1.09419E+00 1.68577E-02 5.43226E-01-4.16967E-14-1.94327E-13
 -1      2808 2.33698E+01-1.25474E+00-1.50630E-02 2.44101E-01-6.18555E-14-2.06200E-13
 -1      2809 2.36354E+01-1.59841E+00-1.40597E-02 3.96185E-01-6.95694E-14-3.41218E-13
 -1      2810 2.23713E+01-6.87213E-01 1.40782E-02 9.65205E-01-3.49639E-14-1.80682E-13
 -1      2811 2.26299E+01-9.04143E-01-1.09809E-02 7.77879E-01-1.80697E-14-1.84506E-13
 -1      2812 2.26325E+01-1.23645E+00-2.01748E-02 9.88344E-01-1.53869E-14-2.45507E-13
 -1      2813 2.17887E+01-3.12100E-01 9.55105E-03 1.14724E+00 9.16509E-15-1.34967E-13
 -1      2814 2.20169E+01-4.94635E-01-5.62141E-03 1.06225E+00-5.92061E-15-1.48632E-13
 -1      2815 2.18489E+01-7.23630E-01-1.69791E-02 1.27611E+00-1.43038E-14-2.51873E-13
 -1      2816 2.13574E+01-4.34467E-02 5.51569E-03 1.16514E+00-3.89080E-14-9.12157E-14
 -1      2817 2.15488E+01-1.66980E-01-1.55456E-03 1.15402E+00-9.39331E-15-9.52297E-14
 -1      2818 2.13008E+01-2.88259E-01-1.16153E-02 1.34636E+00-1.88098E-14-1.50514E-13
 -1      2819 2.10423E+01 1.18035E-01 2.68901E-03 1.08602E+00-7.36322E-14-3.96085E-14
 -1      2820 2.12008E+01 4.77786E-02 9.40544E-04 1.12052E+00-6.33885E-14-5.26520E-14
 -1      2821 2.09354E+01 9.48237E-03-7.13715E-03 1.28632E+00-6.37617E-14-1.62977E-13
 -1      2822 2.08085E+01 1.97657E-01 9.80380E-04 9.58232E-01 3.14180E-14-2.33669E-14
 -1      2823 2.09398E+01 1.65978E-01 2.31449E-03 1.01641E+00-1.40839E-14-3.87966E-14
 -1      2824 2.06933E+01 1.81380E-01-4.14060E-03 1.15795E+00-4.75433E-14-1.37620E-13
 -1      2825 2.06301E+01 2.23474E-01 6.80544E-05 8.13181E-01 3.12452E-14-1.49152E-14
 -1      2826 2.07391E+01 2.16216E-01 2.95700E-03 8.80102E-01 3.63492E-14-9.50745E-15
 -1      2827 2.05284E+01 2.61194E-01-2.37709E-03 1.00085E+00 3.35932E-14-1.33102E-13
 -1      2828 2.04905E+01 2.17833E-01-3.54662E-04 6.69696E-01 1.12569E-13 1.66093E-14
 -1      2829 2.05807E+01 2.24328E-01 3.13286E-03 7.36155E-01 1.17786E-13 4.63478E-14
 -1      2830 2.04105E+01 2.82010E-01-1.43922E-03 8.38905E-01 5.75675E-14-1.00580E-13
 -1      2831 2.03794E+01 1.96094E-01-4.99411E-04 5.38068E-01 2.32841E-14 5.46380E-14
 -1      2832 2.04534E+01 2.09244E-01 3.02269E-03 5.99000E-01 5.04496E-14 6.44553E-14
 -1      2833 2.03218E+01 2.69080E-01-9.74924E-04 6.85764E-01 4.16618E-14-4.30362E-14
 -1      2834 2.02903E+01 1.67867E-01-5.01890E-04 4.23067E-01 1.29837E-14 1.14927E-13
 -1      2835 2.03505E+01 1.83338E-01 2.75105E-03 4.76141E-01 2.08878E-14 6.44174E-14
 -1      2836 2.02523E+01 2.39397E-01-7.51592E-04 5.48542E-01 1.54330E-14 3.43252E-14
 -1      2837 2.02191E+01 1.38701E-01-4.41289E-04 3.26055E-01 1.52349E-13 1.24584E-13
 -1      2838 2.02673E+01 1.54053E-01 2.40232E-03 3.70631E-01 9.46200E-14 1.12153E-13
 -1      2839 2.01965E+01 2.03473E-01-6.37268E-04 4.30178E-01 7.59510E-14 5.26188E-14
 -1      2840 2.01626E+01 1.11522E-01-3.60420E-04 2.46427E-01 1.19072E-13 2.36255E-13
 -1      2841 2.02006E+01 1.25516E-01 2.03227E-03 2.82828E-01 1.66211E-13 1.89704E-13
 -1      2842 2.01514E+01 1.67322E-01-5.64651E-04 3.31032E-01 8.54078E-14 1.69924E-13
 -1      2843 2.01183E+01 8.76575E-02-2.80419E-04 1.82542E-01 8.99026E-14 1.30173E-13
 -1      2844 2.01478E+01 9.97722E-02 1.67534E-03 2.11583E-01 1.78744E-13 1.90778E-13
 -1      2845 2.01149E+01 1.34071E-01-5.03784E-04 2.49966E-01 1.38351E-13 2.68893E-13
 -1      2846 2.00841E+01 6.75117E-02-2.10332E-04 1.32313E-01-1.15413E-13 1.52649E-13
 -1      2847 2.01066E+01 7.76351E-02 1.35081E-03 1.55011E-01-8.43678E-14 1.25556E-13
 -1      2848 2.00858E+01 1.05090E-01-4.44106E-04 1.85062E-01 3.23052E-14 2.41261E-13
 -1      2849 2.00581E+01 5.09907E-02-1.52892E-04 9.35636E-02 3.52885E-14 1.75747E-13
 -1      2850 2.00750E+01 5.92265E-02 1.06762E-03 1.10965E-01-6.01181E-14 2.08596E-13
 -1      2851 2.00628E+01 8.07409E-02-3.83930E-04 1.34088E-01-1.12397E-13 1.85727E-13
 -1      2852 2.00387E+01 3.77534E-02-1.07810E-04 6.42247E-02-6.43186E-14 2.85081E-13
 -1      2853 2.00511E+01 4.43074E-02 8.28099E-04 7.73121E-02 9.57478E-15 2.31532E-13
 -1      2854 2.00449E+01 6.08394E-02-3.24853E-04 9.47856E-02-3.20554E-14 3.43857E-13
 -1      2855 2.00245E+01 2.73586E-02-7.35331E-05 4.24372E-02-1.98001E-13 4.41677E-13
 -1      2856 2.00334E+01 3.24732E-02 6.30537E-04 5.20853E-02-3.16903E-14 3.70235E-13
 -1      2857 2.00312E+01 4.49350E-02-2.69094E-04 6.50366E-02-9.56585E-14 5.52198E-13
 -1      2858 2.00144E+01 1.93469E-02-4.81516E-05 2.65941E-02-1.88380E-13 4.62664E-13
 -1      2859 2.00205E+01 2.32651E-02 4.71062E-04 3.35520E-02-2.48710E-13 4.22898E-13
 -1      2860 2.00209E+01 3.24741E-02-2.18429E-04 4.29487E-02-1.70120E-13 5.92311E-13
 -1      2861 2.00073E+01 1.32846E-02-2.98150E-05 1.53456E-02 3.41027E-14 4.42322E-13
 -1      2862 2.00115E+01 1.62311E-02 3.44808E-04 2.02379E-02-5.18748E-14 4.52747E-13
 -1      2863 2.00134E+01 2.28906E-02-1.73902E-04 2.68900E-02-1.67523E-13 5.15072E-13
 -1      2864 2.00026E+01 8.78400E-03-1.69041E-05 7.58479E-03 9.17947E-15 2.49449E-13
 -1      2865 2.00053E+01 1.09570E-02 2.46671E-04 1.09196E-02 1.30799E-13 3.98708E-13
 -1      2866 2.00079E+01 1.56546E-02-1.35877E-04 1.54911E-02 8.63618E-14 5.09762E-13
 -1      2867 1.99995E+01 5.51148E-03-8.07840E-06 2.42151E-03 9.16489E-14 7.45350E-14
 -1      2868 2.00012E+01 7.07974E-03 1.71759E-04 4.60483E-03 1.85314E-14 1.03966E-13
 -1      2869 2.00041E+01 1.02953E-02-1.04203E-04 7.62912E-03 1.30045E-13 2.88549E-13
 -1      2870 1.99977E+01 3.18767E-03-2.26553E-06-8.46390E-04 1.63341E-13-5.47242E-14
 -1      2871 1.99986E+01 4.29153E-03 1.15631E-04 5.03511E-04 1.74976E-13 2.59379E-14
 -1      2872 2.00016E+01 6.40862E-03-7.83989E-05 2.40129E-03 9.23571E-14-4.76351E-14
 -1      2873 1.99968E+01 1.58384E-03 1.37137E-06-2.76317E-03-1.35696E-13 1.11076E-13
 -1      2874 1.99971E+01 2.33739E-03 7.44074E-05-2.00176E-03 3.53836E-14 8.48054E-14
 -1      2875 1.99999E+01 3.65737E-03-5.77984E-05-9.04730E-04 4.56493E-14 1.66447E-13
 -1      2876 1.99964E+01 5.16352E-04 3.47253E-06-3.74317E-03-2.56144E-14 1.32841E-13
 -1      2877 1.99964E+01 1.01063E-03 4.48002E-05-3.38504E-03-9.69646E-14 1.29116E-13
 -1      2878 1.99989E+01 1.76595E-03-4.16639E-05-2.84109E-03-8.96484E-14 7.06739E-14
 -1      2879 1.99964E+01-1.59631E-04 4.51903E-06-4.09605E-03 2.93894E-14 2.66732E-13
 -1      2880 1.99962E+01 1.46765E-04 2.40856E-05-4.00378E-03 9.55676E-15 3.36618E-13
 -1      2881 1.99984E+01 5.13565E-04-2.92613E-05-3.82819E-03-1.12149E-13 1.08707E-13
 -1      2882 1.99966E+01-5.56349E-04 4.86583E-06-4.04861E-03-9.07100E-14 2.60745E-13
 -1      2883 1.99963E+01-3.82827E-04 1.00546E-05-4.12236E-03 6.64263E-14 3.17817E-13
 -1      2884 1.99981E+01-2.73561E-04-1.99062E-05-4.18014E-03 2.93957E-15 6.43082E-13
 -1      2885 1.99969E+01-7.59302E-04 4.76955E-06-3.76320E-03-9.81753E-14 3.33224E-13
 -1      2886 1.99966E+01-6.77002E-04 9.49424E-07-3.93214E-03-1.19909E-13 2.56628E-13
 -1      2887 1.99981E+01-7.29839E-04-1.29891E-05-4.12699E-03-3.08000E-14 5.54330E-13
 -1      2888 1.99973E+01-8.32455E-04 4.41131E-06-3.35293E-03 4.97601E-14 1.09376E-13
 -1      2889 1.99970E+01-8.10410E-04-4.60384E-06-3.56828E-03 4.00486E-14 2.54736E-13
 -1      2890 1.99982E+01-9.57444E-04-7.98498E-06-3.83336E-03 3.00480E-14 2.26943E-13
 -1      2891 1.99977E+01-8.22765E-04 3.91491E-06-2.89394E-03-2.55814E-13 1.14087E-13
 -1      2892 1.99974E+01-8.38397E-04-7.65968E-06-3.12335E-03-1.14617E-13 1.23754E-13
 -1      2893 1.99983E+01-1.03266E-03-4.45398E-06-3.41389E-03-8.30786E-14 1.92846E-13
 -1      2894 1.99981E+01-7.64006E-04 3.36111E-06-2.43517E-03-9.61057E-14 1.55166E-13
 -1      2895 1.99978E+01-8.01197E-04-9.01232E-06-2.65830E-03-1.77584E-13 1.47811E-13
 -1      2896 1.99985E+01-1.01135E-03-2.03656E-06-2.94568E-03-2.09725E-13 5.05082E-14
 -1      2897 1.99984E+01-6.79945E-04 2.79893E-06-2.00585E-03-1.56826E-13 5.45995E-14
 -1      2898 1.99982E+01-7.27447E-04-9.24751E-06-2.21098E-03-1.95765E-13 1.15226E-13
 -1      2899 1.99987E+01-9.33616E-04-4.45426E-07-2.47821E-03-1.40618E-13 4.08803E-14
 -1      2900 1.99987E+01-5.86923E-04 2.25640E-06-1.62137E-03 8.86013E-14 5.82632E-14
 -1      2901 1.99985E+01-6.37075E-04-8.78737E-06-1.80280E-03-4.38288E-14 3.90307E-14
 -1      2902 1.99989E+01-8.27601E-04 5.44182E-07-2.04102E-03-6.49657E-14-6.92346E-14
 -1      2903 1.99990E+01-4.95894E-04 1.75739E-06-1.28750E-03 6.63978E-14 1.10867E-13
 -1      2904 1.99988E+01-5.43624E-04-7.92547E-06-1.44368E-03 1.20851E-13 1.72806E-13
 -1      2905 1.99991E+01-7.12599E-04 1.10692E-06-1.64953E-03 5.55744E-14 2.00903E-14
 -1      2906 1.99992E+01-4.14242E-04 1.11841E-06-1.00375E-03 2.91299E-13 4.89345E-14
 -1      2907 1.99990E+01-4.56162E-04-6.88403E-06-1.13573E-03 2.51147E-13 2.36824E-13
 -1      2908 1.99992E+01-6.01462E-04 1.38722E-06-1.30955E-03 1.64807E-13 1.70379E-13
 -1      2909 1.99994E+01-3.47789E-04-8.95506E-07-7.66040E-04-1.89291E-14 2.62371E-14
 -1      2910 1.99992E+01-3.80056E-04-5.84535E-06-8.75311E-04 1.73970E-13 4.33746E-14
 -1      2911 1.99994E+01-5.02257E-04 2.01641E-06-1.02075E-03 2.19215E-13 1.90234E-13
 -1      2912 1.99995E+01-3.19893E-04-2.05179E-06-5.96922E-04-1.97438E-13 3.60348E-13
 -1      2913 1.99994E+01-3.44617E-04-5.20368E-06-6.90478E-04-1.55367E-13 7.07798E-14
 -1      2914 1.99995E+01-4.43373E-04 4.65636E-06-8.07990E-04-7.03739E-14 2.55989E-13
 -1      2915 1.99996E+01-4.18494E-04 6.60161E-06-6.53430E-04-6.50931E-15-5.58927E-14
 -1      2916 2.77992E+01 5.99946E+00-1.49898E-01-1.02071E+00-8.06244E-13-4.67511E-13
 -1      2917 2.78074E+01 5.85134E+00-1.42524E-01-1.93116E+00-8.37608E-13-3.18710E-13
 -1      2918 2.00001E+01-9.20512E-04 2.25038E-06-4.85959E-05 1.96206E-13 1.62123E-14
 -1      2919 2.00001E+01-9.09218E-04 1.16154E-06-1.32623E-04 3.95479E-13 9.87795E-14
 -1      2920 1.99996E+01-3.34734E-04-3.05895E-06 5.01146E-04-1.03783E-13 2.06919E-13
 -1      2921 1.99996E+01-3.17972E-04-4.49944E-07 4.44013E-04-1.75222E-13 1.93916E-13
 -1      2922 1.99997E+01-3.82111E-04-1.41342E-07 4.63992E-04-5.38259E-14 4.18497E-13
 -1      2923 1.99996E+01-4.19038E-04 1.59109E-06 5.83333E-04 9.53414E-16 3.55226E-13
 -1      2924 2.00000E+01-7.89611E-04 3.65647E-06-3.73695E-04 3.75104E-13-2.52128E-14
 -1      2925 2.00000E+01-7.38062E-04-1.25855E-06-4.24595E-04 3.67968E-13-1.15782E-13
 -1      2926 2.00001E+01-9.08459E-04 1.18209E-06 1.35641E-04-8.56764E-14 5.08312E-14
 -1      2927 2.00001E+01-9.20284E-04 2.23400E-06 5.17026E-05-8.60258E-15 1.05666E-13
 -1      2928 2.00002E+01-9.82849E-04-3.41357E-06 1.79005E-06 6.07622E-14-1.45493E-13
 -1      2929 2.00001E+01-8.79549E-04 3.10814E-06-2.26429E-04 3.67687E-13 5.52737E-14
 -1      2930 2.00000E+01-8.46347E-04-4.18503E-08-2.98939E-04 3.57489E-13 9.52903E-14
 -1      2931 2.00001E+01-8.73959E-04-2.78338E-06-3.80422E-04 3.19069E-13-3.98380E-14
 -1      2932 2.00002E+01-9.55183E-04-3.22546E-06-2.02597E-04 3.40436E-13 1.07705E-13
 -1      2933 2.00000E+01-8.46335E-04-6.31331E-08 2.98913E-04 2.89262E-15-1.13194E-13
 -1      2934 2.00001E+01-8.79020E-04 3.07413E-06 2.27720E-04-1.30832E-13 8.19574E-14
 -1      2935 2.00002E+01-9.54751E-04-3.29109E-06 2.04326E-04 1.02302E-13-1.21686E-14
 -1      2936 2.00000E+01-7.37864E-04-1.12039E-06 4.24300E-04 1.28445E-13 8.53683E-14
 -1      2937 2.00000E+01-7.89669E-04 3.58637E-06 3.73597E-04 6.72689E-14-2.29118E-16
 -1      2938 2.00001E+01-8.73753E-04-2.78635E-06 3.80360E-04 8.94648E-14 1.03617E-13
 -1      2939 1.99998E+01-5.92827E-04-6.61920E-07 4.89794E-04 1.21811E-13 2.35638E-14
 -1      2940 1.99999E+01-6.60269E-04 3.33911E-06 4.70076E-04 2.69101E-13-7.23774E-14
 -1      2941 2.00000E+01-7.47171E-04-1.89370E-06 5.07681E-04 1.37854E-13 4.70220E-14
 -1      2942 1.99997E+01-4.61209E-04-6.03051E-07 4.77827E-04 6.40256E-14 4.20116E-13
 -1      2943 1.28783E+01-1.69446E+00 9.94291E-02-5.89283E+00 4.48086E-13 3.41047E-13
 -1      2944 1.59398E+01-2.82223E+00 2.61673E-02-6.49227E+00 4.79616E-13 2.56364E-13
 -1      2945 1.88291E+01-3.38904E+00 1.02398E-01-6.06868E+00 4.74759E-13 6.42316E-14
 -1      2946 2.16972E+01-3.77077E+00-4.10922E-02-5.25600E+00 4.14876E-13-1.80682E-13
 -1      2947 1.81856E+01-2.81319E+00 1.13868E-01-5.72893E+00 4.92842E-13 9.96599E-14
 -1      2948 8.23235E+00-3.19093E-01 1.48433E-01 3.71521E+00-2.88103E-13 6.58557E-13
 -1      2949 2.82821E+01 1.11699E+00-7.99350E-02 3.94994E-01-2.73045E-13-8.13336E-13
 -1      2950 2.81802E+01 2.83408E+00-1.88717E-01 6.85281E-01-4.56787E-13-7.64083E-13
 -1      2951 8.62196E+00 2.91908E-01 1.22777E-01-3.09032E+00 1.63709E-13 6.18311E-13
 -1      2952 1.05694E+01-5.24313E-01 8.98899E-02-4.85551E+00 3.14457E-13 4.43229E-13
 -1      2953 1.03100E+01 8.19475E-01 1.63645E-01-2.30692E+00 1.11734E-13 5.08732E-13
 -1      2954 2.55638E+01 9.13383E-01-5.12296E-02-3.51728E+00-3.09687E-13-7.97741E-14
 -1      2955 2.54855E+01 1.08817E+00 1.38080E-02-3.47558E+00-3.44114E-13-3.09462E-14
 -1      2956 2.56626E+01 8.56694E-01-1.14228E-02-3.37868E+00-2.27557E-13-8.17107E-14
 -1      2957 1.91398E+01-6.18294E-01 9.39431E-02-3.02573E+00-1.17573E-13-5.14381E-13
 -1      2958 2.84266E+01 7.01904E-01-1.75574E-01-4.34559E-01 4.62588E-13-7.33011E-13
 -1      2959 2.81341E+01-7.18841E-01-2.67530E-02 1.90052E-01 2.83169E-13-7.42684E-13
 -1      2960 2.67899E+01-2.62252E-01-1.39132E-01-6.82778E-01-2.95194E-13-7.16510E-14
 -1      2961 2.50054E+01-7.29916E-01-1.47534E-02 4.17154E-01-8.78256E-14-8.42382E-14
 -1      2962 2.72122E+01-2.24988E+00-1.06899E-01 1.52782E+00 1.61066E-13-7.19563E-13
 -1      2963 2.56785E+01-3.22452E+00-1.22332E-02 2.83171E+00-2.18714E-14-5.64548E-13
 -1      2964 2.12395E+01-1.16824E+00-4.23952E-03-2.27941E+00-1.94705E-14-3.76664E-13
 -1      2965 2.39637E+01-1.41986E+00-2.09647E-02-1.28541E+00 8.76799E-14-2.71984E-13
 -1      2966 2.53492E+01-1.20783E+00-4.63053E-02 8.11281E-02 1.10391E-13-1.29674E-13
 -1      2967 2.14041E+01-8.24876E-01 1.23627E-02-1.62294E+00-1.32672E-13-3.18343E-13
 -1      2968 2.80094E+01 2.02797E+00-2.21385E-01-2.84061E+00-6.06626E-13-1.90264E-14
 -1      2969 2.79282E+01 9.42488E-01-8.81160E-03-1.92800E+00-4.38857E-13-2.13440E-14
 -1      2970 2.70598E+01 4.25201E-01 2.41452E-02-1.98604E+00-2.44862E-13-2.93793E-14
 -1      2971 2.80061E+01 4.96715E+00-1.87837E-01-2.65142E+00-8.30391E-13-2.21413E-13
 -1      2972 2.81411E+01 3.82245E+00-4.99778E-02-3.12263E+00-7.24684E-13-6.38101E-14
 -1      2973 1.62622E+01-2.45240E-01-5.60019E-02 4.17834E+00 3.55799E-13-5.05818E-13
 -1      2974 2.85330E+01 4.64138E+00-1.19257E-01 2.99910E+00 8.37996E-13 1.29619E-14
 -1      2975 2.83257E+01 5.46712E+00-1.83806E-01 2.22239E+00 9.28035E-13-1.00600E-13
 -1      2976 2.81401E+01 4.55888E+00-1.11479E-01 5.24537E-01-6.17950E-13-6.97636E-13
 -1      2977 2.78457E+01 5.51518E+00-1.79196E-01-1.79389E-01-7.39409E-13-5.49269E-13
 -1      2978 2.53529E+01 1.37367E+00-4.31644E-02-3.34736E+00-3.80048E-13-3.73894E-14
 -1      2979 2.50794E+01 1.89697E+00-2.35530E-03-3.03327E+00-4.28352E-13-3.90920E-14
 -1      2980 2.55151E+01 2.60930E+00-1.90747E-02-3.04935E+00-4.86465E-13-6.14855E-14
 -1      2981 2.57552E+01 1.55209E+00-1.14034E-02-3.57590E+00-3.64000E-13-7.87044E-15
 -1      2982 2.84627E+01 6.01780E+00-1.60319E-01 1.36999E+00 9.60121E-13-2.45162E-13
 -1      2983 2.85513E+01 5.80669E+00-1.60217E-01 4.69200E-01 9.26953E-13-3.52766E-13
 -1      2984 1.04428E+01-3.35050E-01 1.21946E-01 4.52408E+00-3.68927E-13 4.59272E-13
 -1      2985 8.93505E+00 5.16023E-01 1.37269E-01 2.78243E+00-2.58522E-13 5.72015E-13
 -1      2986 2.41473E+01-5.48752E-01 3.32598E-02 3.80703E-02 1.23099E-13-1.37657E-13
 -1      2987 2.51810E+01-2.83182E-01-6.76909E-02-1.31617E+00-3.63598E-15-1.17902E-13
 -1      2988 2.62877E+01 8.96777E-01-7.16101E-03 3.65716E+00 3.29064E-13 2.30031E-13
 -1      2989 2.59700E+01 5.87009E-01 2.76430E-03 3.46072E+00 3.00062E-13 3.42398E-13
 -1      2990 2.68769E+01 4.79766E+00-9.38208E-02-2.32376E+00-7.39159E-13-2.34097E-13
 -1      2991 1.99999E+01-6.60517E-04 4.43291E-06-4.69290E-04 3.48849E-13-2.00059E-13
 -1      2992 1.99998E+01-5.98697E-04-3.02495E-06-4.93729E-04 2.51958E-13-6.56110E-14
 -1      2993 2.00000E+01-7.47740E-04-2.25710E-06-5.07001E-04 4.87553E-13-9.06857E-14
 -1      2994 2.63180E+01 4.26378E-01-2.05197E-02 3.57930E+00 2.59565E-13 3.40779E-13
 -1      2995 2.40331E+01-8.70847E-01 4.46424E-02 5.60560E-02-5.51538E-14-1.32262E-13
 -1      2996 2.72930E+01 5.06949E+00-1.01368E-01 1.80937E+00 8.15223E-13-1.09180E-13
 -1      2997 9.49378E+00 9.84683E-01 1.56162E-01 1.54222E+00-1.78284E-13 5.81965E-13
 -1      2998 1.03074E+01 1.29525E+00 5.79230E-02 3.08632E-01-1.10987E-13 4.70055E-13
 -1      2999 1.11976E+01 8.91628E-01 8.75493E-02 2.37175E+00-2.33266E-13 4.46046E-13
 -1      3000 2.54426E+01 3.36369E+00-6.20308E-02 1.65548E-01 5.25475E-13-3.07988E-13
 -1      3001 2.46805E+01 2.86246E+00-4.38163E-02 5.93538E-01 4.59396E-13-9.67943E-14
 -1      3002 2.02004E+01-3.35860E+00 1.56943E-03 5.18585E+00-3.59691E-13-1.06071E-13
 -1      3003 1.81618E+01-3.16078E+00 8.61073E-02 6.10867E+00-3.65735E-13 5.27356E-15
 -1      3004 1.68495E+01-2.39030E+00 1.02001E-01 5.81095E+00-4.28643E-13 1.06179E-13
 -1      3005 2.67721E+01 5.07806E+00-8.98347E-02-4.83785E-01-6.84078E-13-4.73545E-13
 -1      3006 2.77315E+01 4.62636E+00-1.13950E-01-1.00263E-01 7.63667E-13-4.54241E-13
 -1      3007 1.99997E+01-4.67824E-04 2.29226E-06-5.06819E-04 1.48748E-14-1.52157E-13
 -1      3008 2.70364E+01-1.76418E+00-3.94799E-02 4.85778E-01 1.10159E-13-7.48915E-13
 -1      3009 2.45803E+01-3.57374E+00 2.97414E-03 3.51335E+00-1.55896E-13-4.55441E-13
 -1      3010 2.30076E+01-3.44871E+00 5.25969E-02 4.03849E+00-2.65524E-13-3.94831E-13
 -1      3011 2.51907E+01-3.16655E+00-9.93991E-03 2.15423E+00-1.58016E-13-6.66814E-13
 -1      3012 1.99997E+01-4.80647E-04 8.93009E-07 5.69530E-04 4.23855E-14 2.56087E-13
 -1      3013 1.99998E+01-5.40403E-04 1.03625E-06 5.23060E-04 1.28866E-13 2.45049E-13
 -1      3014 1.99998E+01-6.19705E-04-2.23540E-06 5.86298E-04 3.05250E-13-6.13983E-14
 -1      3015 1.99997E+01-5.09420E-04-3.04651E-06 6.34816E-04 7.19435E-14 2.60782E-13
 -1      3016 1.32393E+01-8.31485E-01 1.43911E-01-4.98461E+00 3.61454E-13 3.42185E-13
 -1      3017 1.41799E+01-1.32175E+00 5.29767E-02 5.39670E+00-4.33528E-13 3.02702E-13
 -1      3018 1.22142E+01-7.36562E-01 1.47515E-01 4.97479E+00-4.14266E-13 3.96516E-13
 -1      3019 1.25163E+01-1.03364E-01 8.38502E-02 4.16845E+00-3.69149E-13 3.79557E-13
 -1      3020 2.46980E+01 2.73479E+00-4.12539E-02 1.24731E+00 4.49907E-13 1.20620E-14
 -1      3021 2.26498E+01-3.50437E+00 4.38970E-02-4.26849E+00 3.71689E-13-3.08311E-13
 -1      3022 2.39959E+01-3.56942E+00 6.43815E-02-3.92545E+00 3.53668E-13-3.85553E-13
 -1      3023 2.48420E+01 2.37287E+00-1.01638E-02 2.04819E+00 4.50522E-13 1.43397E-13
 -1      3024 2.50323E+01 1.88438E+00-3.39430E-02 2.54451E+00 4.34376E-13 2.56518E-13
 -1      3025 2.58110E+01 2.10240E+00-3.42619E-02 3.16244E+00 4.83540E-13 2.01835E-13
 -1      3026 2.54966E+01 3.31071E+00-5.55777E-02 1.92876E+00 5.65333E-13-1.83152E-14
 -1      3027 2.55910E+01-3.10564E+00-8.88413E-02-2.94889E+00 2.26402E-13-5.67241E-13
 -1      3028 2.79068E+01-5.77852E-01-1.45817E-01-3.91857E-01-1.20327E-13-7.78669E-13
 -1      3029 2.72922E+01-5.16463E-02-5.00428E-02 4.31458E-01-1.47507E-13-7.77822E-13
 -1      3030 2.84135E+01 4.76790E-01-5.38862E-02 2.37997E+00 4.43277E-13 7.79932E-14
 -1      3031 2.79953E+01 1.22573E+00-1.14436E-01 3.22897E+00 4.68618E-13 1.70669E-13
 -1      3032 2.74248E+01-9.86641E-02 2.00538E-02 2.14390E+00 2.98043E-13 1.30965E-13
 -1      3033 2.80628E+01 3.51592E+00-9.10678E-02 3.15763E+00 7.02716E-13 9.67490E-14
 -1      3034 2.69645E+01 4.99320E-01-3.19618E-03 3.50064E+00 3.07109E-13 2.44131E-13
 -1      3035 2.64953E+01 8.10173E-03-8.28593E-02 2.93505E+00 2.34436E-13 1.66938E-13
 -1      3036 2.74851E+01 2.75352E+00-4.19865E-02-3.20530E+00-5.69850E-13-2.05946E-14
 -1      3037 2.60916E+01-4.04494E-01-2.09635E-02 1.95676E+00 1.17347E-13 8.78880E-14
 -1      3038 2.78595E+01 1.49164E+00-9.27916E-02-9.51858E-01 4.83280E-13-7.48596E-13
 -1      3039 2.28569E+01-9.24511E-01-5.97814E-02 1.49633E+00 1.26857E-13-1.99828E-13
 -1      3040 2.53583E+01-8.87888E-01-9.90555E-02 9.39095E-01 7.51968E-14-2.38282E-14
 -1      3041 2.72436E+01-1.80321E+00-2.17691E-02-1.32331E+00 7.33094E-14-7.17149E-13
 -1      3042 1.99340E+01-4.50898E-01 6.25117E-02 2.57868E+00 3.02591E-13-3.39122E-13
 -1      3043 2.72134E+01 3.08870E+00-6.10438E-02 8.54978E-01-4.59383E-13-6.35547E-13
 -1      3044 2.57894E+01 4.31098E+00-9.76407E-02-2.04851E+00-6.55365E-13-2.44277E-13
 -1      3045 2.60387E+01 3.68072E+00-7.46795E-02-2.87852E+00-6.21392E-13-1.21340E-13
 -1      3046 2.32565E+01-1.79416E+00 3.18677E-02 1.14319E+00-1.06358E-13-3.94209E-13
 -1      3047 2.37548E+01-2.00222E+00-1.15373E-02 8.11406E-01-1.37142E-13-4.86465E-13
 -1      3048 2.57280E+01 4.26158E+00-7.78769E-02-1.51982E-01-5.89209E-13-4.84897E-13
 -1      3049 2.56918E+01 3.34081E+00-1.44822E-01 6.46268E-01-4.70582E-13-5.50921E-13
 -1      3050 2.60411E+01 2.16085E+00-5.66865E-02 1.03036E+00-3.44183E-13-6.39783E-13
 -1      3051 2.60162E+01 7.64872E-01-8.14504E-02 1.17913E+00-1.68806E-13-6.68712E-13
 -1      3052 2.44757E+01-1.73558E+00-2.46160E-02 8.57403E-03 7.60173E-14-5.44710E-13
 -1      3053 2.40764E+01-1.91943E+00 1.93140E-02-3.92648E-01 9.35588E-14-5.04857E-13
 -1      3054 2.32775E+01-1.87217E+00-1.10305E-02-8.13759E-01 7.02255E-14-4.11486E-13
 -1      3055 2.28248E+01-1.67510E+00 2.73202E-02-1.08725E+00 5.68300E-14-3.59455E-13
 -1      3056 2.35644E+01-2.23574E+00-3.08694E-02-1.13648E+00 1.24795E-13-4.78735E-13
 -1      3057 2.21938E+01-1.42285E+00-3.69704E-03-1.26241E+00 3.61326E-14-2.79166E-13
 -1      3058 2.18004E+01-1.12152E+00 2.09865E-02-1.40266E+00 6.97584E-14-2.41071E-13
 -1      3059 2.21390E+01-1.77067E+00-3.66901E-02-1.63696E+00 8.81168E-14-2.83060E-13
 -1      3060 2.13771E+01-8.43584E-01 1.73399E-03-1.42130E+00 5.32530E-14-2.29607E-13
 -1      3061 2.10816E+01-5.79317E-01 1.26143E-02-1.46036E+00 3.36517E-14-1.95890E-13
 -1      3062 2.11621E+01-1.08038E+00-2.61748E-02-1.74841E+00 6.83479E-14-2.60805E-13
 -1      3063 2.08310E+01-3.56855E-01 3.95935E-03-1.40395E+00 3.92930E-14-2.21395E-13
 -1      3064 2.06260E+01-1.65516E-01 6.78912E-03-1.38205E+00 4.36838E-14-2.04116E-13
 -1      3065 2.05487E+01-4.82606E-01-1.65587E-02-1.64969E+00 3.86029E-14-1.88181E-13
 -1      3066 2.04920E+01-1.39414E-02 4.25285E-03-1.29485E+00-1.37428E-15-1.39989E-13
 -1      3067 2.03564E+01 1.05698E-01 2.93966E-03-1.24024E+00-1.56806E-14-1.38637E-13
 -1      3068 2.02024E+01-5.84131E-02-9.56587E-03-1.46949E+00 5.30549E-14-8.87410E-14
 -1      3069 2.02936E+01 1.95386E-01 3.71315E-03-1.14542E+00-7.87404E-14-1.18278E-13
 -1      3070 2.02051E+01 2.59248E-01 6.93164E-04-1.07577E+00-7.37374E-14-1.60208E-13
 -1      3071 2.00268E+01 2.04699E-01-5.09460E-03-1.26748E+00-4.94344E-14-7.48542E-14
 -1      3072 2.01824E+01 3.03139E-01 3.08148E-03-9.83762E-01-2.66231E-14-1.36707E-13
 -1      3073 2.01238E+01 3.28403E-01-5.17926E-04-9.09812E-01 3.48957E-14-7.86304E-14
 -1      3074 1.99509E+01 3.44431E-01-2.43552E-03-1.07057E+00-5.14698E-14-4.47136E-15
 -1      3075 2.01217E+01 3.41756E-01 2.55942E-03-8.25186E-01 4.24480E-14-8.38855E-14
 -1      3076 2.00813E+01 3.42631E-01-1.09554E-03-7.53336E-01 3.41178E-14-6.13462E-14
 -1      3077 1.99288E+01 3.99421E-01-9.63791E-04-8.89205E-01 4.71956E-14-3.51853E-15
 -1      3078 2.00885E+01 3.37412E-01 2.16009E-03-6.78016E-01-2.71867E-14-3.86184E-14
 -1      3079 2.00592E+01 3.24338E-01-1.30023E-03-6.11938E-01 2.12633E-15-1.25785E-14
 -1      3080 1.99327E+01 4.00880E-01-2.14702E-04-7.27218E-01 6.24711E-16-7.00107E-14
 -1      3081 2.00695E+01 3.09046E-01 1.84682E-03-5.46548E-01-5.04996E-14-3.05900E-14
 -1      3082 2.00473E+01 2.89126E-01-1.29642E-03-4.88123E-01-4.62978E-14-1.22878E-13
 -1      3083 1.99469E+01 3.71578E-01 1.19006E-04-5.85691E-01-6.91259E-14-4.02099E-14
 -1      3084 2.00575E+01 2.69384E-01 1.58502E-03-4.32562E-01 3.95260E-14-1.80303E-13
 -1      3085 2.00399E+01 2.47155E-01-1.18493E-03-3.82477E-01 5.27239E-14-1.22824E-13
 -1      3086 1.99632E+01 3.27040E-01 2.29791E-04-4.64393E-01-3.15223E-14-6.03886E-14
 -1      3087 2.00487E+01 2.26454E-01 1.35380E-03-3.36191E-01 2.55841E-14-1.45770E-13
 -1      3088 2.00345E+01 2.04627E-01-1.02617E-03-2.94352E-01 4.32402E-14-1.87026E-13
 -1      3089 1.99780E+01 2.77241E-01 2.31683E-04-3.62320E-01 2.89279E-14-5.02186E-14
 -1      3090 2.00414E+01 1.84977E-01 1.14390E-03-2.56511E-01-1.63631E-14-2.54353E-13
 -1      3091 2.00299E+01 1.65030E-01-8.55329E-04-2.22347E-01-9.34334E-15-2.71196E-13
 -1      3092 1.99897E+01 2.28200E-01 1.88428E-04-2.77952E-01-6.24450E-15-1.20924E-13
 -1      3093 2.00350E+01 1.47464E-01 9.52910E-04-1.91966E-01-1.68923E-14-2.37573E-13
 -1      3094 2.00257E+01 1.30076E-01-6.91890E-04-1.64641E-01-3.98839E-14-2.19108E-13
 -1      3095 1.99982E+01 1.83240E-01 1.33288E-04-2.09438E-01-3.13993E-14-1.68178E-13
 -1      3096 2.00292E+01 1.15009E-01 7.81273E-04-1.40681E-01 5.40131E-14-2.20977E-13
 -1      3097 2.00217E+01 1.00369E-01-5.45650E-04-1.19249E-01 9.22570E-14-1.19590E-13
 -1      3098 2.00038E+01 1.43924E-01 8.19344E-05-1.54763E-01 2.39780E-14-1.13523E-13
 -1      3099 2.00240E+01 8.78436E-02 6.29959E-04-1.00687E-01 2.48981E-14-5.80930E-14
 -1      3100 2.00181E+01 7.58520E-02-4.20514E-04-8.41982E-02 5.27753E-14-6.94065E-14
 -1      3101 2.00072E+01 1.10719E-01 4.04302E-05-1.11888E-01 1.22512E-13-4.48740E-14
 -1      3102 2.00194E+01 6.57035E-02 4.99378E-04-7.00790E-02 6.55955E-14-1.34289E-13
 -1      3103 2.00147E+01 5.61088E-02-3.16938E-04-5.76375E-02 9.69347E-14-9.72663E-14
 -1      3104 2.00089E+01 8.34382E-02 9.93475E-06-7.88563E-02 2.68618E-14-1.21886E-13
 -1      3105 2.00154E+01 4.80675E-02 3.89063E-04-4.71031E-02 1.19473E-13-1.51705E-13
 -1      3106 2.00118E+01 4.05515E-02-2.33486E-04-3.79069E-02 8.43157E-14-9.71083E-14
 -1      3107 2.00094E+01 6.15462E-02-1.06333E-05-5.38721E-02 1.10816E-13-2.06305E-13
 -1      3108 2.00120E+01 3.43100E-02 2.97756E-04-3.02109E-02-3.35259E-14-9.56205E-14
 -1      3109 2.00093E+01 2.85397E-02-1.67803E-04-2.35658E-02-1.04831E-13-3.88742E-14
 -1      3110 2.00091E+01 4.43461E-02-2.31690E-05-3.53423E-02-9.52779E-15-2.34136E-13
 -1      3111 2.00092E+01 2.37913E-02 2.23643E-04-1.80762E-02-1.52668E-13 3.52616E-14
 -1      3112 2.00072E+01 1.94497E-02-1.17212E-04-1.33983E-02-8.77833E-14 4.03740E-14
 -1      3113 2.00083E+01 3.11009E-02-2.96664E-05-2.18944E-02-2.84798E-14-1.34353E-13
 -1      3114 2.00069E+01 1.59105E-02 1.64603E-04-9.59216E-03-1.12327E-13-1.27920E-14
 -1      3115 2.00054E+01 1.27122E-02-7.90623E-05-6.40223E-03-8.68448E-14 6.95371E-14
 -1      3116 2.00073E+01 2.11031E-02-3.18983E-05-1.23751E-02-1.04123E-13-9.08384E-14
 -1      3117 2.00051E+01 1.01316E-02 1.18423E-04-3.85598E-03-6.90056E-14 6.36928E-14
 -1      3118 2.00040E+01 7.82965E-03-5.09153E-05-1.76883E-03-3.92354E-14 4.92800E-14
 -1      3119 2.00063E+01 1.37122E-02-3.13059E-05-5.83660E-03-7.93175E-14-1.16819E-13
 -1      3120 2.00036E+01 5.99397E-03 8.29586E-05-1.46017E-04-7.57718E-14 8.71189E-14
 -1      3121 2.00029E+01 4.38129E-03-3.06362E-05 1.14178E-03 7.32304E-14 2.46398E-14
 -1      3122 2.00052E+01 8.37152E-03-2.89920E-05-1.51595E-03-3.34514E-14-3.31209E-14
 -1      3123 2.00025E+01 3.11332E-03 5.62331E-05 2.10348E-03 1.27161E-13-1.02324E-13
 -1      3124 2.00020E+01 2.02032E-03-1.64194E-05 2.82644E-03 9.01334E-14-6.95587E-14
 -1      3125 2.00042E+01 4.61222E-03-2.57594E-05 1.18966E-03-2.11843E-14-9.97141E-14
 -1      3126 2.00016E+01 1.17644E-03 3.64948E-05 3.32773E-03 3.96527E-14-6.66553E-14
 -1      3127 2.00013E+01 4.67269E-04-6.77943E-06 3.66367E-03 4.11271E-14-9.52475E-14
 -1      3128 2.00033E+01 2.04903E-03-2.21655E-05 2.74759E-03 4.15806E-14-3.40734E-13
 -1      3129 2.00010E+01-6.65010E-05 2.22387E-05 3.85522E-03 1.08447E-13-1.11422E-13
 -1      3130 2.00008E+01-4.98525E-04-5.23108E-07 3.93628E-03 4.25898E-14-6.06009E-14
 -1      3131 2.00026E+01 3.72325E-04-1.85768E-05 3.51351E-03 8.50646E-14-2.66216E-13
 -1      3132 2.00006E+01-8.10920E-04 1.22050E-05 3.92887E-03-5.44931E-14 2.86848E-14
 -1      3133 2.00005E+01-1.04801E-03 3.28819E-06 3.85115E-03 2.37974E-14 8.54753E-14
 -1      3134 2.00019E+01-6.61801E-04-1.52175E-05 3.75282E-03 5.58023E-14-1.45428E-13
 -1      3135 2.00002E+01-1.20682E-03 5.36302E-06 3.72437E-03-3.83681E-14-6.96734E-14
 -1      3136 2.00002E+01-1.31114E-03 5.37804E-06 3.55602E-03-1.38896E-13 4.18482E-14
 -1      3137 2.00014E+01-1.24188E-03-1.22101E-05 3.65945E-03-1.32721E-13 5.17256E-14
 -1      3138 2.00000E+01-1.36719E-03 8.86544E-07 3.36553E-03-1.96081E-13 2.32961E-13
 -1      3139 2.00000E+01-1.38484E-03 6.29339E-06 3.15346E-03-8.09370E-14 1.25085E-13
 -1      3140 2.00010E+01-1.51092E-03-9.60666E-06 3.37171E-03-5.92633E-14 7.44698E-14
 -1      3141 1.99999E+01-1.37548E-03-1.87333E-06 2.93690E-03 6.54750E-14 1.33306E-13
 -1      3142 1.99999E+01-1.33996E-03 6.43911E-06 2.71214E-03 1.43052E-13-1.14758E-14
 -1      3143 2.00007E+01-1.57535E-03-7.41373E-06 2.98546E-03-2.45318E-14 1.10627E-13
 -1      3144 1.99998E+01-1.29207E-03-3.41573E-06 2.49381E-03 1.17752E-13 8.90362E-14
 -1      3145 1.99998E+01-1.22721E-03 6.10812E-06 2.27579E-03 2.70033E-13 2.11754E-13
 -1      3146 2.00004E+01-1.51279E-03-5.61073E-06 2.56476E-03 1.28602E-13 4.25472E-13
 -1      3147 1.99997E+01-1.15972E-03-4.11592E-06 2.07036E-03 3.62515E-13 1.11971E-13
 -1      3148 1.99998E+01-1.08205E-03 5.50739E-06 1.87019E-03 4.05522E-13 1.25886E-13
 -1      3149 2.00002E+01-1.37867E-03-4.16258E-06 2.15028E-03 2.98600E-13 3.24429E-13
 -1      3150 1.99997E+01-1.00795E-03-4.25497E-06 1.68551E-03 3.90532E-13 1.73974E-13
 -1      3151 1.99997E+01-9.28638E-04 4.78347E-06 1.50849E-03 3.11482E-13 2.63891E-13
 -1      3152 2.00001E+01-1.21163E-03-3.02492E-06 1.76588E-03 3.76171E-13 8.25765E-14
 -1      3153 1.99997E+01-8.56545E-04-4.01387E-06 1.34773E-03 2.81625E-14 3.14713E-13
 -1      3154 1.99997E+01-7.82878E-04 4.04233E-06 1.19530E-03-3.94285E-14 7.58213E-14
 -1      3155 2.00000E+01-1.03791E-03-2.17420E-06 1.42361E-03 1.74702E-13 2.84495E-14
 -1      3156 1.99997E+01-7.18649E-04-3.56506E-06 1.05879E-03 1.09095E-13 3.39307E-14
 -1      3157 1.99997E+01-6.55491E-04 2.85039E-06 9.29667E-04 2.53270E-13-4.63842E-14
 -1      3158 1.99999E+01-8.75001E-04-1.70010E-06 1.12789E-03 5.03276E-14 2.56064E-13
 -1      3159 1.99997E+01-6.01821E-04-3.25473E-06 8.29612E-04 4.56152E-13-3.31019E-14
 -1      3160 1.99997E+01-5.51442E-04 1.63355E-06 7.19848E-04 3.31840E-13 3.14674E-13
 -1      3161 1.99998E+01-6.12125E-04 1.42431E-06 7.04381E-04 3.51691E-13 2.03233E-13
 -1      3162 1.99998E+01-7.30412E-04-1.77771E-07 8.92014E-04 3.51590E-13 1.46302E-13
 -1      3163 2.62203E+01-9.06414E-01-5.32799E-02-7.89392E-01 1.50768E-13-7.19397E-13
 -1      3164 2.64715E+01 2.90744E-01-3.61321E-02-1.13546E+00 2.96742E-13-7.25708E-13
 -1      3165 2.62661E+01 4.17570E+00-1.17448E-01 1.75778E-02 6.44734E-13-3.44945E-13
 -1      3166 2.62868E+01 4.50293E+00-1.19193E-01 8.93224E-01 7.02993E-13-2.28897E-13
 -1      3167 2.20954E+01-1.16175E+00 2.38883E-02 1.52510E+00-6.84747E-14-2.95206E-13
 -1      3168 2.25311E+01-1.50039E+00-4.56286E-03 1.35610E+00-4.48825E-14-2.85237E-13
 -1      3169 2.24485E+01-1.91183E+00-3.98631E-02 1.78086E+00-1.27160E-13-4.29312E-13
 -1      3170 2.12986E+01-5.60161E-01 1.42466E-02 1.60272E+00-6.12329E-14-1.81537E-13
 -1      3171 2.16255E+01-8.51951E-01 1.76870E-03 1.55234E+00-6.36004E-14-2.14451E-13
 -1      3172 2.13411E+01-1.12129E+00-2.86619E-02 1.91287E+00-1.07642E-13-2.13617E-13
 -1      3173 2.08020E+01-1.18302E-01 7.16391E-03 1.52008E+00-9.73903E-14-7.07579E-14
 -1      3174 2.10278E+01-3.20201E-01 4.28964E-03 1.54186E+00-5.59459E-14-1.24326E-13
 -1      3175 2.06716E+01-4.59345E-01-1.80150E-02 1.80993E+00-1.22257E-13-7.65254E-14
 -1      3176 2.05101E+01 1.56521E-01 2.76575E-03 1.36360E+00-7.45244E-14-6.60747E-14
 -1      3177 2.06614E+01 3.74063E-02 4.53635E-03 1.42435E+00-8.11265E-14-6.74203E-14
 -1      3178 2.03051E+01-5.76111E-03-1.00873E-02 1.61372E+00-9.66959E-14 3.69509E-14
 -1      3179 2.03430E+01 3.00453E-01 3.30509E-04 1.18053E+00 6.82683E-15-1.20934E-13
 -1      3180 2.04456E+01 2.42548E-01 4.03860E-03 1.25903E+00-4.73009E-14-9.39447E-14
 -1      3181 2.01238E+01 2.60897E-01-5.06949E-03 1.39296E+00-5.05993E-14-2.06433E-14
 -1      3182 2.02466E+01 3.55713E-01-8.69683E-04 9.95561E-01 3.80578E-14-8.36563E-14
 -1      3183 2.03189E+01 3.37746E-01 3.46674E-03 1.07892E+00 1.87161E-14-1.21805E-13
 -1      3184 2.00450E+01 3.90847E-01-2.18470E-03 1.17703E+00-7.53642E-15-1.44996E-13
 -1      3185 2.01880E+01 3.56884E-01-1.37954E-03 8.21530E-01-1.98692E-15-3.75429E-14
 -1      3186 2.02418E+01 3.62474E-01 2.98385E-03 9.02095E-01 5.23514E-14-4.77081E-14
 -1      3187 2.00177E+01 4.31680E-01-7.18161E-04 9.77544E-01 1.58597E-14-1.10628E-15
 -1      3188 2.01492E+01 3.28522E-01-1.50024E-03 6.64908E-01-1.26111E-14 5.75352E-14
 -1      3189 2.01910E+01 3.46422E-01 2.59187E-03 7.38433E-01 1.34572E-14-1.23262E-14
 -1      3190 2.00133E+01 4.19754E-01-6.55217E-05 7.98958E-01-3.98357E-15 8.93700E-14
 -1      3191 2.01207E+01 2.86615E-01-1.41909E-03 5.28487E-01 4.60741E-14 1.35158E-13
 -1      3192 2.01544E+01 3.09669E-01 2.25857E-03 5.92933E-01-7.81073E-15 1.20484E-13
 -1      3193 2.00170E+01 3.79947E-01 1.64176E-04 6.42790E-01-2.49155E-14 1.09371E-13
 -1      3194 2.00980E+01 2.40868E-01-1.24656E-03 4.12753E-01 5.60433E-14 1.29240E-13
 -1      3195 2.01255E+01 2.64824E-01 1.95664E-03 4.67520E-01 7.46869E-14 1.10841E-13
 -1      3196 2.00219E+01 3.28198E-01 1.94135E-04 5.09024E-01 4.76962E-14 1.59403E-13
 -1      3197 2.00791E+01 1.96739E-01-1.04502E-03 3.16761E-01 3.11484E-14 2.41307E-13
 -1      3198 2.01016E+01 2.19270E-01 1.67459E-03 3.62137E-01 2.23553E-14 1.53692E-13
 -1      3199 2.00252E+01 2.74077E-01 1.45041E-04 3.96640E-01-1.08419E-14 2.02005E-13
 -1      3200 2.00631E+01 1.56983E-01-8.47472E-04 2.38734E-01 1.01897E-13 2.90343E-13
 -1      3201 2.00813E+01 1.76969E-01 1.41105E-03 2.75518E-01 1.37667E-13 2.87209E-13
 -1      3202 2.00265E+01 2.22904E-01 7.69178E-05 3.03948E-01 6.49008E-14 2.93533E-13
 -1      3203 2.00496E+01 1.22713E-01-6.69667E-04 1.76486E-01-2.15930E-14 3.28013E-13
 -1      3204 2.00642E+01 1.39759E-01 1.16893E-03 2.05723E-01 4.10463E-14 3.44565E-13
 -1      3205 2.00259E+01 1.77299E-01 1.60195E-05 2.28847E-01 4.79762E-14 3.08446E-13
 -1      3206 2.00383E+01 9.40989E-02-5.17607E-04 1.27705E-01-1.45928E-13 3.26235E-13
 -1      3207 2.00498E+01 1.08218E-01 9.51654E-04 1.50516E-01-1.00977E-13 2.98796E-13
 -1      3208 2.00239E+01 1.38241E-01-2.89123E-05 1.69043E-01-5.97162E-14 3.63137E-13
 -1      3209 2.00291E+01 7.07953E-02-3.92018E-04 9.01493E-02-5.52902E-14 4.25707E-13
 -1      3210 2.00380E+01 8.22182E-02 7.61442E-04 1.07626E-01-1.03710E-13 3.14729E-13
 -1      3211 2.00213E+01 1.05765E-01-5.73832E-05 1.22229E-01-1.21993E-13 3.64709E-13
 -1      3212 2.00216E+01 5.22138E-02-2.90987E-04 6.17531E-02-1.20561E-13 4.96319E-13
 -1      3213 2.00284E+01 6.12696E-02 5.98818E-04 7.48963E-02-1.04119E-13 4.53574E-13
 -1      3214 2.00183E+01 7.93967E-02-7.21817E-05 8.62130E-02-9.34945E-14 3.53190E-13
 -1      3215 2.00157E+01 3.76777E-02-2.11455E-04 4.06897E-02-2.37439E-13 5.00138E-13
 -1      3216 2.00208E+01 4.47239E-02 4.62804E-04 5.03809E-02-8.85822E-14 5.13949E-13
 -1      3217 2.00153E+01 5.84217E-02-7.69143E-05 5.89956E-02-1.22973E-13 4.63631E-13
 -1      3218 2.00111E+01 2.65116E-02-1.50046E-04 2.53910E-02-4.43973E-14 3.53455E-13
 -1      3219 2.00148E+01 3.18955E-02 3.51338E-04 3.23821E-02-1.74902E-13 4.39664E-13
 -1      3220 2.00125E+01 4.20473E-02-7.49148E-05 3.88168E-02-1.30966E-13 3.92358E-13
 -1      3221 2.00076E+01 1.80901E-02-1.03499E-04 1.45442E-02 1.09438E-13 3.48274E-13
 -1      3222 2.00103E+01 2.21283E-02 2.61714E-04 1.94612E-02 7.37942E-14 3.41404E-13
 -1      3223 2.00099E+01 2.94941E-02-6.88609E-05 2.41689E-02 2.89558E-15 1.50651E-13
 -1      3224 2.00050E+01 1.18601E-02-6.88744E-05 7.07418E-03 1.29690E-13 2.63632E-13
 -1      3225 2.00068E+01 1.48297E-02 1.90955E-04 1.04267E-02 1.52291E-13 3.95043E-13
 -1      3226 2.00078E+01 2.00459E-02-6.07259E-05 1.37910E-02 1.02794E-13 2.49991E-13
 -1      3227 2.00031E+01 7.34827E-03-4.36324E-05 2.11715E-03 1.01828E-13 2.93419E-13
 -1      3228 2.00043E+01 9.48438E-03 1.36080E-04 4.31244E-03 1.37391E-13 2.85598E-13
 -1      3229 2.00059E+01 1.30717E-02-5.18678E-05 6.65070E-03 1.00880E-13 3.45719E-13
 -1      3230 2.00017E+01 4.15979E-03-2.56454E-05-1.00806E-03-3.12335E-15 2.09507E-13
 -1      3231 2.00025E+01 5.65725E-03 9.42857E-05 3.49338E-04 3.76262E-14 1.51957E-13
 -1      3232 2.00044E+01 8.03372E-03-4.31594E-05 1.91887E-03 1.10517E-13 2.86894E-13
 -1      3233 2.00008E+01 1.97257E-03-1.31712E-05-2.82918E-03-1.64895E-13 1.61346E-13
 -1      3234 2.00013E+01 2.98944E-03 6.30489E-05-2.06361E-03-2.64731E-14 1.86662E-13
 -1      3235 2.00032E+01 4.48423E-03-3.51154E-05-1.05830E-03-2.36325E-14 2.47856E-13
 -1      3236 2.00001E+01 5.28655E-04-4.81112E-06-3.74780E-03-2.64732E-13 3.58596E-13
 -1      3237 2.00004E+01 1.19082E-03 4.01751E-05-3.38787E-03-2.80244E-13 1.80147E-13
 -1      3238 2.00023E+01 2.05866E-03-2.79986E-05-2.78722E-03-3.57106E-13 3.63212E-13
 -1      3239 1.99997E+01-3.74809E-04 5.37985E-07-4.06379E-03-2.07477E-14 5.46581E-13
 -1      3240 1.99998E+01 3.11586E-05 2.38065E-05-3.97128E-03-1.28680E-13 4.28364E-13
 -1      3241 2.00016E+01 4.65649E-04-2.19038E-05-3.65311E-03-2.63297E-13 3.77955E-13
 -1      3242 1.99995E+01-8.94608E-04 3.73128E-06-3.99653E-03 3.28279E-14 4.21929E-13
 -1      3243 1.99995E+01-6.69095E-04 1.24075E-05-4.07101E-03 1.36129E-13 4.72730E-13
 -1      3244 2.00010E+01-5.23524E-04-1.68194E-05-3.94349E-03 4.11657E-14 3.02832E-13
 -1      3245 1.99994E+01-1.14982E-03 5.42034E-06-3.70285E-03 1.78693E-13 1.69907E-13
 -1      3246 1.99993E+01-1.04754E-03 4.73472E-06-3.87306E-03 1.22616E-13 2.98546E-13
 -1      3247 2.00006E+01-1.08532E-03-1.26714E-05-3.86861E-03 2.40008E-13 3.60768E-13
 -1      3248 1.99993E+01-1.22925E-03 6.09281E-06-3.29178E-03-1.24823E-13 6.68844E-14
 -1      3249 1.99992E+01-1.20776E-03-1.99340E-07-3.50866E-03 3.44912E-14 1.08770E-13
 -1      3250 2.00003E+01-1.35351E-03-9.35405E-06-3.57861E-03 1.60460E-13 1.24430E-13
 -1      3251 1.99993E+01-1.19786E-03 6.10668E-06-2.83651E-03-2.08660E-13 2.76822E-14
 -1      3252 1.99992E+01-1.22630E-03-3.16424E-06-3.06753E-03-1.79477E-13 2.83192E-14
 -1      3253 2.00001E+01-1.42766E-03-6.74979E-06-3.17780E-03-7.23922E-14 7.15615E-14
 -1      3254 1.99994E+01-1.10224E-03 5.71863E-06-2.38385E-03-1.08064E-13-7.45578E-14
 -1      3255 1.99993E+01-1.15863E-03-4.74784E-06-2.60860E-03-1.96330E-13-6.85165E-14
 -1      3256 1.99999E+01-1.38044E-03-4.74270E-06-2.73605E-03-1.61740E-13-4.16439E-14
 -1      3257 1.99994E+01-9.75006E-04 5.10694E-06-1.96159E-03-2.59510E-14-9.26651E-14
 -1      3258 1.99993E+01-1.04406E-03-5.38960E-06-2.16832E-03-4.73473E-14 2.61019E-14
 -1      3259 1.99998E+01-1.26384E-03-3.22718E-06-2.29801E-03-1.33104E-13-1.88991E-13
 -1      3260 1.99995E+01-8.38491E-04 4.40473E-06-1.58412E-03 1.75700E-13 8.59362E-14
 -1      3261 1.99994E+01-9.09862E-04-5.41416E-06-1.76715E-03 7.91526E-14-1.34399E-14
 -1      3262 1.99998E+01-1.11421E-03-2.10868E-06-1.89006E-03 2.11330E-14-2.74195E-14
 -1      3263 1.99995E+01-7.07715E-04 3.55108E-06-1.25672E-03 2.72364E-13-3.00091E-14
 -1      3264 1.99994E+01-7.74495E-04-5.07370E-06-1.41443E-03 2.39020E-13-1.53454E-14
 -1      3265 1.99997E+01-9.56260E-04-1.28226E-06-1.52579E-03 2.24836E-13 1.46452E-14
 -1      3266 1.99996E+01-5.94490E-04 1.23583E-06-9.79524E-04-5.97918E-15 2.45698E-13
 -1      3267 1.99995E+01-6.50057E-04-4.75840E-06-1.11151E-03 1.38276E-13 1.05421E-13
 -1      3268 1.99997E+01-8.05828E-04-1.25037E-07-1.21049E-03 1.21883E-13 1.03744E-13
 -1      3269 2.00002E+01-1.00732E-03 1.24879E-07 2.80462E-04 1.25219E-13 4.86689E-14
 -1      3270 2.00003E+01-1.03160E-03 2.76694E-06 1.80407E-04 1.15069E-13 5.31786E-14
 -1      3271 2.60652E+01 1.11352E-01-2.56779E-02-2.11225E+00-1.34604E-13-8.30586E-15
 -1      3272 2.54880E+01 3.71745E-01 1.85957E-02-2.44042E+00-4.87557E-14-9.08015E-14
 -1      3273 2.56232E+01 5.51160E-01-6.95534E-02-3.00091E+00-1.74073E-13-9.80769E-14
 -1      3274 2.65235E+01 8.36168E-01-1.05534E-01-2.98964E+00-3.04024E-13 1.64452E-14
 -1      3275 2.00001E+01-9.09324E-04-1.22717E-06 4.71716E-04 1.54531E-13 4.45551E-14
 -1      3276 2.00002E+01-9.56418E-04 3.73671E-06 3.89893E-04 1.14077E-13-4.61396E-14
 -1      3277 2.00003E+01-1.05963E-03-3.35176E-06 3.74770E-04 1.24621E-13 4.58132E-15
 -1      3278 2.00003E+01-1.04926E-03 1.57027E-06 5.54142E-05-1.23971E-14-2.97946E-13
 -1      3279 2.00003E+01-1.04948E-03 1.53992E-06-5.34663E-05 1.47917E-13-2.38363E-13
 -1      3280 2.00004E+01-1.12363E-03-3.67703E-06 1.30329E-04 9.84125E-14-1.25057E-13
 -1      3281 2.51357E+01-1.74426E+00-1.83444E-02-1.92378E-01-6.36990E-15-6.40362E-13
 -1      3282 2.62171E+01-1.58739E+00-5.55964E-02-6.41805E-02 7.58317E-14-7.17922E-13
 -1      3283 2.57328E+01-2.65094E+00 2.12583E-05 1.01880E+00-5.70655E-14-6.74984E-13
 -1      3284 2.47098E+01-2.00705E+00 7.81646E-03 2.61903E-01-1.12449E-13-5.51281E-13
 -1      3285 2.56139E+01 4.52620E+00-1.12577E-01-1.12218E+00-6.56891E-13-3.70617E-13
 -1      3286 1.74437E+01-2.14477E+00 7.73874E-02-5.27788E+00 4.69083E-13 1.16337E-13
 -1      3287 1.96586E+01-2.98293E+00-3.04404E-02-5.02337E+00 4.51014E-13-8.36622E-14
 -1      3288 2.16184E+01-3.14911E+00 7.49197E-02-4.27910E+00 4.19623E-13-2.61049E-13
 -1      3289 2.31432E+01-3.31254E+00-6.62595E-02-3.26214E+00 3.23467E-13-4.43717E-13
 -1      3290 2.09030E+01-2.64441E+00 6.39470E-02-4.04645E+00 4.00849E-13-1.61194E-13
 -1      3291 1.09537E+01 1.25302E+00 1.04148E-01-1.43349E+00 7.17109E-14 4.10366E-13
 -1      3292 1.17196E+01 7.31269E-01 5.92276E-02-2.93775E+00 1.99042E-13 3.61960E-13
 -1      3293 2.60042E+01 8.46521E-01 1.48437E-02-3.28608E+00-2.70383E-13-3.38861E-14
 -1      3294 2.65866E+01 1.08717E+00-6.75244E-02 3.72665E+00 3.79734E-13 2.08595E-13
 -1      3295 2.73951E+01 1.17153E+00-4.59156E-02 3.40859E+00 4.31447E-13 1.84394E-13
 -1      3296 2.78974E+01 2.01546E+00-6.77281E-02 3.58971E+00 5.20181E-13 1.77622E-13
 -1      3297 2.64875E+01 1.60712E+00-4.54624E-02 3.66419E+00 4.24411E-13 2.22662E-13
 -1      3298 1.99998E+01-5.50612E-04-1.40834E-06-5.77156E-04 2.89707E-13 3.64395E-15
 -1      3299 2.00000E+01-7.61407E-04-4.71229E-07 6.00555E-04 2.26117E-13 1.22569E-13
 -1      3300 2.00001E+01-8.29511E-04 3.93038E-06 5.51572E-04 1.30540E-13 1.02377E-13
 -1      3301 2.00002E+01-9.37583E-04-2.43813E-06 5.73163E-04 5.31952E-14 6.80213E-14
 -1      3302 2.71046E+01 3.23107E+00-9.27070E-02 3.34993E+00 6.35672E-13 1.20376E-13
 -1      3303 2.58878E+01-2.62286E+00-2.01521E-02-1.62276E+00 1.99375E-13-6.69152E-13
 -1      3304 2.62274E+01 4.23867E+00-8.51310E-02 1.85441E+00 6.80747E-13-5.45388E-14
 -1      3305 1.31056E+01-8.62070E-02 6.45619E-02-4.09246E+00 2.95479E-13 2.87215E-13
 -1      3306 1.51737E+01-1.27369E+00 3.01548E-02-5.14473E+00 3.97370E-13 2.31246E-13
 -1      3307 1.72234E+01-1.34337E+00 9.68889E-02-4.54946E+00 3.85848E-13 9.05491E-14
 -1      3308 2.61691E+01 2.90369E+00-1.24479E-01-3.27184E+00-5.69635E-13-6.75241E-14
 -1      3309 2.65818E+01 1.87906E+00-1.22136E-01-1.18952E+00 4.61048E-13-6.44707E-13
 -1      3310 2.66417E+01 3.30363E+00-7.69341E-02-8.69339E-01 5.65561E-13-5.25031E-13
 -1      3311 2.63404E+01 3.55231E+00-1.07824E-01 2.71737E+00 6.35804E-13 5.93935E-14
 -1      3312 2.63803E+01-7.79835E-02-5.42024E-02 7.68704E-01-1.15706E-13-7.16802E-13
 -1      3313 2.52863E+01-4.82704E-01-2.38939E-02 8.83966E-01-3.07809E-14-6.21227E-13
 -1      3314 2.50721E+01-1.26533E+00-2.19109E-02 5.91237E-01 4.67577E-14-5.98606E-13
 -1      3315 2.63224E+01-1.39880E+00-1.05945E-02 1.67294E-01 6.25021E-14-7.60524E-13
 -1      3316 2.47180E+01-3.03206E+00 4.95390E-02-2.15063E+00 2.63155E-13-5.97009E-13
 -1      3317 2.57936E+01-2.26086E+00-5.91626E-02-8.71956E-01 1.42023E-13-6.96665E-13
 -1      3318 2.52217E+01-2.11793E+00-3.00049E-02-5.24245E-01 1.26099E-13-6.69119E-13
 -1      3319 2.36602E+01-2.93536E+00 1.52527E-02-2.40986E+00 2.94825E-13-5.14512E-13
 -1      3320 2.63314E+01 2.44913E+00-5.37794E-02 3.24474E+00 5.24428E-13 1.53003E-13
 -1      3321 2.41468E+01-2.31728E+00-9.42515E-03 1.06140E+00-1.44659E-13-6.04913E-13
 -1      3322 2.00001E+01-8.31105E-04 4.42646E-06-5.51065E-04 3.89328E-13-1.76035E-13
 -1      3323 2.00000E+01-7.66958E-04-3.31120E-06-6.01380E-04 4.21629E-13 1.94795E-17
 -1      3324 2.19199E+01-3.41511E+00 2.19383E-02 4.37571E+00-3.11362E-13-2.89656E-13
 -1      3325 2.04968E+01-2.84147E+00 3.84878E-02 4.49916E+00-3.70690E-13-1.82521E-13
 -1      3326 2.28979E+01-3.26824E+00-4.63391E-02 3.32453E+00-3.01852E-13-5.12930E-13
 -1      3327 1.21456E+01 6.85973E-01 1.47287E-01 3.13442E+00-3.09718E-13 3.99833E-13
 -1      3328 1.21727E+01 1.02600E+00 4.62352E-02 2.08015E+00-1.75651E-13 4.03497E-13
 -1      3329 1.33838E+01 1.35529E-01 5.13630E-02 3.64804E+00-3.12649E-13 3.13846E-13
 -1      3330 1.37628E+01 4.20128E-01 8.98017E-02-3.21418E+00 2.49335E-13 2.55414E-13
 -1      3331 1.63886E+01-1.69043E+00 8.44003E-02 5.13551E+00-4.19567E-13 1.91930E-13
 -1      3332 2.46906E+01-2.85182E+00-1.81427E-02 1.67944E+00-1.34628E-13-5.80410E-13
 -1      3333 1.99996E+01-5.75499E-04-4.03090E-06-8.84079E-04-7.26275E-14 2.75863E-13
 -1      3334 1.99998E+01-7.05657E-04 2.41873E-06-9.65182E-04-8.80894E-14 5.30939E-13
 -1      3335 1.99997E+01-5.58164E-04-1.40631E-06-7.99430E-04-1.25056E-13 3.17542E-13
 -1      3336 2.00004E+01-1.12361E-03-3.56840E-06-1.30239E-04 1.44313E-13-2.41745E-13
 -1      3337 2.00003E+01-1.03199E-03 2.81669E-06-1.78518E-04 2.87461E-13 6.28832E-14
 -1      3338 2.00002E+01-1.00738E-03 1.88781E-07-2.80470E-04 2.54030E-13 1.01159E-13
 -1      3339 2.00002E+01-9.56939E-04 3.74498E-06-3.89240E-04 2.72793E-13-8.51210E-15
 -1      3340 2.00001E+01-9.09740E-04-1.10106E-06-4.71048E-04 3.35450E-13-1.11598E-13
 -1      3341 2.00002E+01-9.39700E-04-2.79474E-06-5.70697E-04 2.74401E-13-2.20420E-13
 -1      3342 2.00003E+01-1.05999E-03-3.22475E-06-3.73912E-04 3.82021E-13 2.16839E-14
 -1      3343 2.65352E+01 1.87288E+00-3.65467E-02-3.35040E+00-4.47170E-13 1.18343E-14
 -1      3344 2.49798E+01-1.85394E+00-2.27268E-02-1.62504E-01 8.77666E-14-6.53160E-13
 -1      3345 1.17770E+01 1.32237E+00 7.53447E-02-4.14520E-01 1.03528E-14 3.54453E-13
 -1      3346 1.99999E+01-6.62676E-04 1.44364E-06 6.76776E-04 3.45847E-13 7.53405E-14
 -1      3347 1.99999E+01-7.14187E-04 1.99493E-06 6.41131E-04 3.41372E-13-4.03276E-14
 -1      3348 2.00000E+01-8.16435E-04-2.02226E-06 6.93948E-04 2.31455E-13 2.19064E-13
 -1      3349 1.99999E+01-7.22244E-04-2.43918E-06 7.64517E-04 4.58103E-13 1.60292E-13
 -1      3350 1.99999E+01-6.57998E-04 5.82388E-06-6.48778E-04 3.75549E-13 1.92482E-13
 -1      3351 1.99997E+01-5.41853E-04-3.08793E-06-6.65557E-04 2.47048E-13 2.32754E-14
 -1      3352 1.99997E+01-5.57595E-04-5.19142E-06-7.42890E-04 5.93648E-14 2.54484E-13
 -1      3353 1.99999E+01-7.65569E-04-2.14969E-06-7.04357E-04 2.33456E-13 1.05685E-13
 -1      3354 2.00002E+01-9.74751E-04-1.85265E-06 6.84483E-04 2.04490E-15 8.83404E-14
 -1      3355 2.00003E+01-1.04013E-03 4.76673E-06 6.00338E-04 4.21772E-14-1.94332E-13
 -1      3356 2.64563E+01 1.12728E+00-7.02759E-02-3.33382E+00-3.45980E-13-2.36269E-15
 -1      3357 2.37022E+01-2.75832E+00 3.22267E-02 2.18208E+00-2.02404E-13-5.38056E-13
 -1      3358 2.19931E+01-1.93901E+00 1.77216E-02-2.14668E+00 1.93268E-13-3.05994E-13
 -1      3359 2.13669E+01-1.52195E+00 3.24360E-02-2.22661E+00 1.51260E-13-2.88642E-13
 -1      3360 2.08747E+01-1.11580E+00 1.52038E-02-2.11056E+00 7.02411E-14-2.18460E-13
 -1      3361 2.04672E+01-7.50705E-01 1.69083E-02-2.04750E+00 8.88300E-14-2.26605E-13
 -1      3362 2.03718E+01-1.36003E+00-4.96036E-02-2.57800E+00 1.56696E-13-2.37096E-13
 -1      3363 2.02335E+01-4.56088E-01 1.12172E-02-1.87249E+00 1.12255E-13-1.79632E-13
 -1      3364 1.99881E+01-2.00410E-01 5.59092E-03-1.77221E+00 8.84792E-14-1.34086E-13
 -1      3365 1.97373E+01-5.47899E-01-2.38519E-02-2.19849E+00 1.38037E-13-1.54199E-13
 -1      3366 1.99037E+01 4.00366E-03 9.48417E-03-1.60033E+00 9.23264E-14-5.45349E-14
 -1      3367 1.97678E+01 1.60659E-01 9.22157E-04-1.49028E+00 6.82155E-14-5.16212E-14
 -1      3368 1.94707E+01-4.97691E-03-1.04813E-02-1.80308E+00 1.28876E-13-7.19030E-14
 -1      3369 1.97615E+01 2.81622E-01 6.69046E-03-1.34226E+00-4.86885E-14-5.82825E-14
 -1      3370 1.96943E+01 3.65651E-01-1.14242E-03-1.23665E+00-6.07188E-14-2.37549E-14
 -1      3371 1.94000E+01 3.18122E-01-4.41594E-03-1.46093E+00 2.96823E-14-5.26027E-14
 -1      3372 1.97250E+01 4.26097E-01 4.57193E-03-1.11313E+00-5.24903E-14 5.04454E-15
 -1      3373 1.96970E+01 4.60360E-01-1.96837E-03-1.01688E+00-1.64574E-14 6.53116E-14
 -1      3374 1.94298E+01 4.86400E-01-1.37736E-03-1.18076E+00-2.00568E-14-1.35900E-14
 -1      3375 1.97423E+01 4.80211E-01 3.14258E-03-9.14301E-01-1.10095E-14 2.33577E-14
 -1      3376 1.97348E+01 4.82640E-01-2.20520E-03-8.28692E-01 1.20137E-14-2.88065E-14
 -1      3377 1.95046E+01 5.51571E-01 1.46763E-04-9.52720E-01-1.05955E-14-4.03261E-14
 -1      3378 1.97826E+01 4.77250E-01 2.23583E-03-7.43352E-01-3.69279E-14-5.28124E-14
 -1      3379 1.97845E+01 4.60923E-01-2.15377E-03-6.68462E-01-4.29506E-14-8.51031E-14
 -1      3380 1.95935E+01 5.51488E-01 8.39710E-04-7.65915E-01-4.34215E-14-3.03543E-14
 -1      3381 1.98289E+01 4.41297E-01 1.67156E-03-5.97427E-01-5.35155E-14-1.42341E-13
 -1      3382 1.98343E+01 4.15258E-01-1.96730E-03-5.32906E-01-5.19976E-14-1.11603E-13
 -1      3383 1.96803E+01 5.13105E-01 1.07527E-03-6.11787E-01-7.04019E-14-1.35823E-13
 -1      3384 1.98725E+01 3.88849E-01 1.31204E-03-4.73973E-01-2.31582E-14-9.16709E-14
 -1      3385 1.98783E+01 3.59048E-01-1.72458E-03-4.19259E-01 4.23731E-14-2.81517E-14
 -1      3386 1.97574E+01 4.54971E-01 1.07292E-03-4.84241E-01-5.43739E-15-2.28657E-13
 -1      3387 1.99098E+01 3.30644E-01 1.06729E-03-3.70727E-01 3.58359E-14 1.84022E-15
 -1      3388 1.99146E+01 3.00789E-01-1.46710E-03-3.25088E-01 4.39981E-15-3.72099E-14
 -1      3389 1.98219E+01 3.89311E-01 9.57841E-04-3.78944E-01 3.22447E-14-1.13259E-13
 -1      3390 1.99397E+01 2.73283E-01 8.85208E-04-2.85540E-01 2.88062E-15-2.31653E-14
 -1      3391 1.99431E+01 2.45516E-01-1.21769E-03-2.48106E-01-3.39020E-14-3.41696E-14
 -1      3392 1.98737E+01 3.23793E-01 8.00196E-04-2.92627E-01-1.51414E-14 1.65168E-14
 -1      3393 1.99625E+01 2.20500E-01 7.38361E-04-2.16287E-01-4.74652E-14-1.19437E-13
 -1      3394 1.99646E+01 1.95908E-01-9.88927E-04-1.86101E-01-3.18305E-14-1.71069E-13
 -1      3395 1.99139E+01 2.62889E-01 6.37842E-04-2.22604E-01-1.27432E-13-5.51728E-14
 -1      3396 1.99791E+01 1.74116E-01 6.13549E-04-1.60861E-01 1.40461E-15-1.54287E-13
 -1      3397 1.99802E+01 1.53103E-01-7.87108E-04-1.36933E-01 7.55286E-14-1.01239E-13
 -1      3398 1.99442E+01 2.08897E-01 4.89599E-04-1.66515E-01-2.50530E-14-1.39796E-13
 -1      3399 1.99907E+01 1.34727E-01 5.04998E-04-1.17215E-01 9.88439E-14-1.63719E-13
 -1      3400 1.99910E+01 1.17273E-01-6.14452E-04-9.85713E-02 1.09339E-13-1.71152E-13
 -1      3401 1.99663E+01 1.62684E-01 3.63283E-04-1.22220E-01 3.63048E-14-1.96112E-13
 -1      3402 1.99985E+01 1.02182E-01 4.10376E-04-8.34149E-02 5.66283E-14-2.19167E-13
 -1      3403 1.99982E+01 8.80283E-02-4.70510E-04-6.91450E-02 4.42308E-14-2.16984E-13
 -1      3404 1.99819E+01 1.24222E-01 2.60609E-04-8.77709E-02 7.91997E-14-2.62388E-13
 -1      3405 2.00033E+01 7.59126E-02 3.28668E-04-5.76957E-02 7.31509E-14-1.47880E-13
 -1      3406 2.00027E+01 6.46774E-02-3.53206E-04-4.69750E-02 9.13468E-14-1.79372E-13
 -1      3407 1.99926E+01 9.29630E-02 1.80137E-04-6.14140E-02 1.11841E-13-1.93106E-13
 -1      3408 2.00061E+01 5.51500E-02 2.59159E-04-3.84880E-02-2.56586E-14-2.41027E-13
 -1      3409 2.00053E+01 4.64075E-02-2.59579E-04-3.05946E-02-9.21064E-14-2.76047E-13
 -1      3410 1.99995E+01 6.80912E-02 1.19007E-04-4.16010E-02-6.35542E-15-2.16382E-13
 -1      3411 2.00073E+01 3.90619E-02 2.01034E-04-2.44349E-02-2.11965E-15-2.18653E-13
 -1      3412 2.00065E+01 3.23907E-02-1.86308E-04-1.87529E-02-2.19160E-14-2.20638E-13
 -1      3413 2.00038E+01 4.86902E-02 7.39182E-05-2.69925E-02-1.26246E-14-3.50658E-13
 -1      3414 2.00076E+01 2.68377E-02 1.53283E-04-1.43904E-02-8.50498E-14-1.64822E-13
 -1      3415 2.00068E+01 2.18478E-02-1.30068E-04-1.04069E-02-6.84850E-14-7.76058E-14
 -1      3416 2.00061E+01 3.38475E-02 4.16566E-05-1.64538E-02-3.71966E-14-1.68663E-13
 -1      3417 2.00073E+01 1.77354E-02 1.14742E-04-7.40725E-03-7.09635E-14-8.85474E-15
 -1      3418 2.00065E+01 1.40820E-02-8.77432E-05-4.70388E-03-6.82050E-14-3.14722E-14
 -1      3419 2.00071E+01 2.27144E-02 1.93486E-05-9.04266E-03-2.98019E-14 6.38521E-14
 -1      3420 2.00066E+01 1.11040E-02 8.41758E-05-2.71836E-03-1.31991E-13-1.41723E-13
 -1      3421 2.00060E+01 8.49247E-03-5.65503E-05-9.60637E-04-1.03910E-13-1.87049E-13
 -1      3422 2.00072E+01 1.45377E-02 4.55814E-06-3.99200E-03-1.10426E-13-4.27937E-15
 -1      3423 2.00058E+01 6.39074E-03 6.03539E-05 2.86099E-04-7.09575E-14-1.67187E-13
 -1      3424 2.00052E+01 4.57580E-03-3.40874E-05 1.36068E-03-5.86812E-14-2.45489E-13
 -1      3425 2.00068E+01 8.67156E-03-4.70311E-06-6.88302E-04-1.12868E-13-2.34139E-13
 -1      3426 2.00049E+01 3.13796E-03 4.21160E-05 2.08200E-03-2.97403E-14-2.33218E-13
 -1      3427 2.00044E+01 1.92036E-03-1.83397E-05 2.67565E-03-1.59946E-14-3.09495E-13
 -1      3428 2.00061E+01 4.57685E-03-1.00096E-05 1.35022E-03-4.13683E-14-1.59274E-13
 -1      3429 2.00040E+01 9.75482E-04 2.84105E-05 3.03394E-03 3.22980E-14-2.54253E-13
 -1      3430 2.00036E+01 1.96498E-04-7.65798E-06 3.29954E-03 1.12505E-13-3.01353E-13
 -1      3431 2.00053E+01 1.81416E-03-1.25762E-05 2.49519E-03 5.84118E-14-2.17383E-13
 -1      3432 2.00032E+01-3.90269E-04 1.83154E-05 3.41602E-03 1.50216E-13-2.98135E-13
 -1      3433 2.00029E+01-8.54609E-04-7.20248E-07 3.46684E-03 2.01469E-14-2.01178E-13
 -1      3434 2.00045E+01 3.26170E-05-1.33177E-05 3.02804E-03 8.88553E-14-1.87222E-13
 -1      3435 2.00025E+01-1.18768E-03 1.10447E-05 3.43015E-03-1.30812E-13-8.65462E-14
 -1      3436 2.00023E+01-1.43242E-03 3.51180E-06 3.34831E-03-1.40051E-13-2.83096E-15
 -1      3437 2.00037E+01-1.04262E-03-1.29064E-05 3.15779E-03 1.40917E-14-3.02505E-13
 -1      3438 2.00019E+01-1.59113E-03 5.94379E-06 3.22173E-03-7.61770E-14 6.47784E-14
 -1      3439 2.00017E+01-1.68780E-03 5.83845E-06 3.06525E-03 4.83704E-14 1.96343E-13
 -1      3440 2.00029E+01-1.62282E-03-1.18240E-05 3.03635E-03 1.33682E-14 1.22052E-14
 -1      3441 2.00014E+01-1.73128E-03 2.47963E-06 2.89271E-03 3.51403E-14 1.66407E-13
 -1      3442 2.00013E+01-1.73264E-03 6.86533E-06 2.70135E-03-1.71543E-14 3.08812E-13
 -1      3443 2.00023E+01-1.86737E-03-1.04051E-05 2.77144E-03-7.44164E-15 1.85977E-13
 -1      3444 2.00010E+01-1.70413E-03 2.26821E-07 2.51225E-03 5.56341E-14 2.08314E-13
 -1      3445 2.00009E+01-1.64830E-03 7.04237E-06 2.31218E-03 2.08907E-13 2.78965E-13
 -1      3446 2.00017E+01-1.89424E-03-8.87403E-06 2.43720E-03 2.14561E-14 1.94440E-13
 -1      3447 2.00007E+01-1.57872E-03-1.14477E-06 2.12530E-03 2.74803E-13 1.79260E-13
 -1      3448 2.00006E+01-1.49268E-03 6.69438E-06 1.93275E-03 2.68313E-13 1.40470E-13
 -1      3449 2.00013E+01-1.78894E-03-7.37530E-06 2.08271E-03 1.70800E-13 5.74298E-14
 -1      3450 2.00004E+01-1.40367E-03-1.88574E-06 1.75915E-03 2.48616E-13 1.72702E-13
 -1      3451 2.00004E+01-1.30598E-03 6.06340E-06 1.58325E-03 2.87204E-13 1.47017E-13
 -1      3452 2.00009E+01-1.61223E-03-5.99946E-06 1.73879E-03 1.78142E-13 1.15651E-13
 -1      3453 2.00002E+01-1.21218E-03-2.18836E-06 1.42868E-03 2.31082E-13 1.95170E-14
 -1      3454 2.00002E+01-1.11549E-03 5.19576E-06 1.27379E-03 7.71968E-14 5.27440E-14
 -1      3455 2.00006E+01-1.40599E-03-4.80673E-06 1.42305E-03 2.13789E-13 6.59137E-14
 -1      3456 2.00001E+01-1.02516E-03-1.69284E-06 1.13978E-03 1.36808E-13 1.26679E-13
 -1      3457 2.00001E+01-9.38698E-04 3.33174E-06 1.00814E-03 2.67231E-13 4.02560E-13
 -1      3458 2.00003E+01-1.19949E-03-4.13168E-06 1.14390E-03 1.35469E-13 6.88357E-14
 -1      3459 1.67657E+01-7.71598E-01 3.30541E-02-3.99582E+00 2.85433E-13 9.71792E-14
 -1      3460 1.86140E+01-1.73981E+00-1.76466E-02-4.17521E+00 3.47080E-13-2.54866E-14
 -1      3461 2.15021E+01-1.60634E+00 4.05370E-02 2.44869E+00-2.56164E-13-3.24484E-13
 -1      3462 2.21403E+01-2.13748E+00 7.15201E-03 2.39604E+00-2.34637E-13-3.84711E-13
 -1      3463 1.97989E+01 2.27350E-01 2.61903E-04 1.62737E+00-1.00300E-13 3.32566E-14
 -1      3464 1.99418E+01 6.59967E-02 1.04814E-02 1.74640E+00-1.21409E-13 4.33572E-14
 -1      3465 1.97364E+01 4.28483E-01-1.89609E-03 1.35303E+00 1.66378E-14-9.73675E-14
 -1      3466 1.98060E+01 3.48581E-01 7.09121E-03 1.46754E+00 4.24073E-15 2.21988E-15
 -1      3467 1.93786E+01 3.94079E-01-4.22494E-03 1.58804E+00-2.26128E-14 8.61003E-15
 -1      3468 1.97483E+01 5.10019E-01-2.54077E-03 1.11574E+00-1.32406E-14-7.41520E-14
 -1      3469 1.97784E+01 4.83201E-01 4.76789E-03 1.22060E+00-4.45638E-14-9.42236E-14
 -1      3470 1.94331E+01 5.55034E-01-8.48992E-04 1.28853E+00 4.06277E-14-1.06295E-13
 -1      3471 1.97900E+01 5.17283E-01-2.64564E-03 9.11939E-01-4.90485E-14 5.99558E-14
 -1      3472 1.98010E+01 5.22496E-01 3.28426E-03 1.00572E+00-3.16160E-14-5.64490E-14
 -1      3473 1.95257E+01 6.05441E-01 6.98792E-04 1.04575E+00-2.83980E-14-4.79619E-14
 -1      3474 1.98388E+01 4.82319E-01-2.48796E-03 7.37462E-01-4.03223E-14 1.15112E-13
 -1      3475 1.98417E+01 5.05089E-01 2.38020E-03 8.19861E-01 5.98114E-16 6.79725E-14
 -1      3476 1.96248E+01 5.89924E-01 1.26628E-03 8.45902E-01-5.02698E-14 4.00120E-14
 -1      3477 1.98840E+01 4.26500E-01-2.21294E-03 5.89088E-01 6.94064E-15 1.31486E-13
 -1      3478 1.98843E+01 4.57341E-01 1.83711E-03 6.60256E-01-1.24872E-14 1.51345E-13
 -1      3479 1.97155E+01 5.38210E-01 1.35290E-03 6.79520E-01-1.24432E-14 9.92508E-14
 -1      3480 1.99213E+01 3.63318E-01-1.89795E-03 4.64196E-01 1.09943E-14 1.51055E-13
 -1      3481 1.99215E+01 3.96349E-01 1.49385E-03 5.24597E-01 2.23384E-14 1.02073E-13
 -1      3482 1.97920E+01 4.69836E-01 1.22208E-03 5.40512E-01 5.13183E-14 8.48085E-14
 -1      3483 1.99502E+01 3.00768E-01-1.58451E-03 3.60412E-01-3.09567E-14 2.13547E-13
 -1      3484 1.99511E+01 3.32577E-01 1.25322E-03 4.10778E-01 1.89652E-14 1.90463E-13
 -1      3485 1.98531E+01 3.97006E-01 1.01229E-03 4.24761E-01-8.53483E-15 2.01832E-13
 -1      3486 1.99713E+01 2.43203E-01-1.29402E-03 2.75408E-01 1.00142E-13 2.15770E-13
 -1      3487 1.99730E+01 2.71994E-01 1.06325E-03 3.16677E-01 2.79352E-14 1.87398E-13
 -1      3488 1.99002E+01 3.26887E-01 7.92695E-04 3.29195E-01-2.40600E-15 1.93579E-13
 -1      3489 1.99861E+01 1.92658E-01-1.03653E-03 2.06852E-01-3.74523E-14 3.35436E-13
 -1      3490 1.99883E+01 2.17656E-01 8.99841E-04 2.40089E-01 5.42952E-14 3.54963E-13
 -1      3491 1.99353E+01 2.63309E-01 5.94870E-04 2.51223E-01-1.35383E-14 2.42096E-13
 -1      3492 1.99960E+01 1.49747E-01-8.15498E-04 1.52435E-01-7.24393E-14 2.83111E-13
 -1      3493 1.99984E+01 1.70793E-01 7.53717E-04 1.78749E-01-2.41392E-14 3.14028E-13
 -1      3494 1.99607E+01 2.07967E-01 4.30290E-04 1.88484E-01-3.59841E-14 3.19968E-13
 -1      3495 2.00021E+01 1.14263E-01-6.30535E-04 1.09942E-01-6.06374E-14 2.18174E-13
 -1      3496 2.00047E+01 1.31551E-01 6.22366E-04 1.30422E-01-6.22801E-14 2.72289E-13
 -1      3497 1.99785E+01 1.61242E-01 3.00224E-04 1.38757E-01-1.75058E-14 1.74694E-13
 -1      3498 2.00057E+01 8.55608E-02-4.79057E-04 7.73169E-02-1.66306E-13 3.18383E-13
 -1      3499 2.00081E+01 9.94656E-02 5.05715E-04 9.29810E-02-1.39931E-13 3.05555E-13
 -1      3500 1.99906E+01 1.22750E-01 2.01258E-04 9.99643E-02-1.00416E-13 2.34703E-13
 -1      3501 2.00075E+01 6.27930E-02-3.57360E-04 5.27101E-02-1.53315E-13 3.23415E-13
 -1      3502 2.00096E+01 7.37657E-02 4.04084E-04 6.44739E-02-9.90733E-14 3.20504E-13
 -1      3503 1.99984E+01 9.17028E-02 1.28294E-04 7.02043E-02-1.50856E-13 1.05386E-13
 -1      3504 2.00080E+01 4.50608E-02-2.61321E-04 3.45040E-02-2.30918E-14 1.42118E-13
 -1      3505 2.00099E+01 5.35643E-02 3.17385E-04 4.31661E-02-7.25805E-14 2.81157E-13
 -1      3506 2.00032E+01 6.71329E-02 7.60592E-05 4.77758E-02-4.54721E-14 8.29340E-14
 -1      3507 2.00078E+01 3.14964E-02-1.86830E-04 2.13186E-02 1.39644E-15 1.07032E-13
 -1      3508 2.00094E+01 3.79687E-02 2.44955E-04 2.75576E-02-1.66327E-14 1.21856E-13
 -1      3509 2.00059E+01 4.80377E-02 3.97942E-05 3.11954E-02 1.48621E-14 6.76871E-14
 -1      3510 2.00071E+01 2.13097E-02-1.30047E-04 1.20029E-02-4.63240E-14 3.23213E-13
 -1      3511 2.00085E+01 2.61448E-02 1.85643E-04 1.63823E-02-4.00336E-15 2.58289E-13
 -1      3512 2.00071E+01 3.34611E-02 1.54991E-05 1.91996E-02-6.93439E-14 1.65363E-13
 -1      3513 2.00063E+01 1.38088E-02-8.75402E-05 5.61613E-03 1.19264E-13 3.04102E-13
 -1      3514 2.00074E+01 1.73487E-02 1.37994E-04 8.59425E-03-1.10992E-15 2.78172E-13
 -1      3515 2.00073E+01 2.25382E-02-4.31667E-08 1.07352E-02 1.11793E-14 4.02755E-13
 -1      3516 2.00053E+01 8.40554E-03-5.63377E-05 1.40405E-03 1.01258E-13 3.07166E-13
 -1      3517 2.00062E+01 1.09387E-02 1.00413E-04 3.34685E-03 1.93233E-13 4.14876E-13
 -1      3518 2.00070E+01 1.45145E-02-9.34050E-06 4.94204E-03 8.89808E-14 3.18049E-13
 -1      3519 2.00044E+01 4.61170E-03-3.39332E-05-1.22723E-03-2.30691E-13 4.36274E-13
 -1      3520 2.00051E+01 6.37617E-03 7.13074E-05-3.29165E-05-1.57944E-14 4.28340E-13
 -1      3521 2.00063E+01 8.75064E-03-1.43012E-05 1.13050E-03-3.10703E-15 4.65672E-13
 -1      3522 2.00036E+01 2.03051E-03-1.82585E-05-2.73702E-03-3.54509E-13 2.67727E-13
 -1      3523 2.00041E+01 3.21882E-03 4.91777E-05-2.07034E-03-2.75162E-13 3.44092E-13
 -1      3524 2.00055E+01 4.71722E-03-1.63469E-05-1.24202E-03-2.11493E-13 5.09320E-13
 -1      3525 2.00028E+01 3.45480E-04-7.63995E-06-3.47411E-03-1.02947E-13 3.00524E-13
 -1      3526 2.00032E+01 1.11042E-03 3.26735E-05-3.16812E-03-3.31662E-13 2.20670E-13
 -1      3527 2.00046E+01 1.98486E-03-1.65152E-05-2.59496E-03-2.26866E-13 3.19739E-13
 -1      3528 2.00022E+01-6.91401E-04-7.47554E-07-3.69833E-03 1.84344E-13 2.12661E-13
 -1      3529 2.00024E+01-2.30694E-04 2.06200E-05-3.62926E-03 5.45903E-14 2.63791E-13
 -1      3530 2.00038E+01 2.11694E-04-1.55470E-05-3.24661E-03 2.45577E-14 2.25797E-13
 -1      3531 2.00016E+01-1.27110E-03 3.45719E-06-3.59924E-03 2.22158E-13 2.62107E-13
 -1      3532 2.00018E+01-1.02333E-03 1.20233E-05-3.67729E-03 2.02549E-13 2.05063E-13
 -1      3533 2.00031E+01-8.69629E-04-1.39588E-05-3.43388E-03 1.82368E-13 1.51104E-13
 -1      3534 2.00012E+01-1.53808E-03 5.77118E-06-3.31185E-03 1.74699E-13 3.43971E-13
 -1      3535 2.00013E+01-1.43452E-03 6.06290E-06-3.47346E-03 2.44850E-13 3.61678E-13
 -1      3536 2.00024E+01-1.46458E-03-1.20999E-05-3.32941E-03 1.82233E-13 2.98015E-13
 -1      3537 2.00008E+01-1.59962E-03 6.79554E-06-2.92961E-03-1.90581E-14 1.98905E-13
 -1      3538 2.00009E+01-1.58951E-03 2.07531E-06-3.13112E-03 7.34540E-14 3.38529E-13
 -1      3539 2.00018E+01-1.72828E-03-1.01972E-05-3.05600E-03 1.30906E-13 3.83585E-13
 -1      3540 2.00005E+01-1.53385E-03 6.97648E-06-2.51485E-03-1.21094E-13-5.00851E-14
 -1      3541 2.00006E+01-1.58044E-03-4.65021E-07-2.72745E-03-1.82492E-14 4.27842E-14
 -1      3542 2.00013E+01-1.77567E-03-8.38977E-06-2.69848E-03 1.52959E-13 1.46548E-13
 -1      3543 2.00003E+01-1.39647E-03 6.63685E-06-2.10711E-03-7.15010E-14-1.93806E-13
 -1      3544 2.00004E+01-1.47373E-03-1.96464E-06-2.31280E-03-2.61187E-14-8.35714E-14
 -1      3545 2.00010E+01-1.69026E-03-6.75529E-06-2.31334E-03-5.96101E-15-1.51864E-14
 -1      3546 2.00002E+01-1.22635E-03 6.00097E-06-1.72952E-03 5.72643E-14-1.69725E-13
 -1      3547 2.00002E+01-1.31623E-03-2.73190E-06-1.91806E-03-1.18002E-13-3.21520E-13
 -1      3548 2.00006E+01-1.53147E-03-5.33583E-06-1.93627E-03-7.23579E-14-2.60238E-13
 -1      3549 2.00000E+01-1.04993E-03 5.13589E-06-1.39373E-03 1.37776E-13 1.97452E-14
 -1      3550 2.00000E+01-1.14032E-03-3.03460E-06-1.56024E-03 1.08706E-13-8.78663E-14
 -1      3551 2.00004E+01-1.34055E-03-4.11878E-06-1.58811E-03 6.61164E-14-2.17527E-13
 -1      3552 1.99999E+01-8.86064E-04 3.19685E-06-1.10430E-03-1.31276E-13 2.22860E-13
 -1      3553 1.99999E+01-9.67821E-04-3.36871E-06-1.24629E-03 7.59259E-15 1.02164E-13
 -1      3554 2.00002E+01-1.14460E-03-2.48847E-06-1.27930E-03-5.32572E-14 1.61602E-13
 -1      3555 2.00005E+01-1.20113E-03 6.51827E-07 2.12523E-04 2.83660E-13-5.32155E-14
 -1      3556 2.00005E+01-1.21536E-03 2.41445E-06 7.91477E-05 2.78348E-13-3.01072E-13
 -1      3557 2.02165E+01-1.95746E+00 5.25092E-02-3.61179E+00 3.45091E-13-1.56777E-13
 -1      3558 2.14335E+01-2.38981E+00-5.12253E-02-3.05204E+00 2.87453E-13-3.15708E-13
 -1      3559 1.38543E+01 8.12037E-01 1.79948E-02-2.45303E+00 1.84848E-13 2.10283E-13
 -1      3560 1.51044E+01 2.46498E-02 7.31175E-03-3.55052E+00 2.79155E-13 1.76491E-13
 -1      3561 1.24855E+01 1.45639E+00 6.58622E-02 5.64557E-01-2.79382E-14 3.00683E-13
 -1      3562 1.28555E+01 1.34633E+00 2.30754E-02-9.73873E-01 1.39760E-13 2.54949E-13
 -1      3563 2.46635E+01-2.48733E+00 1.71947E-02-1.08192E+00 1.52892E-13-6.34324E-13
 -1      3564 2.00154E+01-1.50700E-01 5.58279E-03 1.93441E+00-1.81837E-13 2.39882E-14
 -1      3565 2.02819E+01-4.24871E-01 1.44731E-02 2.04259E+00-1.80247E-13-3.19242E-14
 -1      3566 1.94242E+01 6.18656E-02-9.95378E-03 1.95842E+00-1.41110E-13 3.21594E-14
 -1      3567 2.05185E+01-7.61423E-01 1.69330E-02 2.24285E+00-1.87434E-13-8.45596E-14
 -1      3568 2.09708E+01-1.16702E+00 1.69856E-02 2.30088E+00-2.05104E-13-1.73763E-13
 -1      3569 2.03502E+01-1.39593E+00-2.98909E-02 2.86136E+00-3.14626E-13-1.55842E-13
 -1      3570 1.82793E+01-2.08150E+00 2.73328E-02 4.89568E+00-4.26992E-13 3.01634E-14
 -1      3571 1.59737E+01-9.95338E-01 4.67419E-02 4.56156E+00-3.92630E-13 1.71960E-13
 -1      3572 2.00004E+01-1.12009E-03-1.35533E-06 4.77508E-04 1.40525E-13-1.90528E-13
 -1      3573 2.00005E+01-1.16029E-03 3.67325E-06 3.60636E-04 2.25989E-13-3.60662E-14
 -1      3574 2.00006E+01-1.27895E-03-4.14821E-06 3.16947E-04 3.74734E-13-5.50316E-14
 -1      3575 2.00004E+01-1.16781E-03-1.63076E-06 5.97320E-04 1.62099E-13-3.73156E-13
 -1      3576 1.99969E+01-2.18854E+00 6.28671E-02 4.07040E+00-3.95690E-13-1.14120E-13
 -1      3577 1.51580E+01-2.59314E-01 8.58394E-02 4.05487E+00-3.74326E-13 2.40488E-13
 -1      3578 1.45162E+01 3.26798E-01 2.75117E-02 3.21530E+00-2.76449E-13 2.17392E-13
 -1      3579 1.69283E+01-7.05804E-01 4.01414E-02 3.90438E+00-3.92179E-13 8.15112E-14
 -1      3580 1.68301E+01-2.23704E-01 5.98289E-02-3.32830E+00 2.59176E-13 1.28198E-13
 -1      3581 1.99998E+01-6.61298E-04 5.74967E-06-8.04534E-04-8.15294E-14 2.75466E-13
 -1      3582 2.26998E+01-2.45625E+00 2.88232E-02-2.31896E+00 2.56784E-13-4.02445E-13
 -1      3583 2.00000E+01-8.60202E-04-1.28876E-06 9.32288E-04 1.79419E-13 4.16141E-13
 -1      3584 1.99999E+01-7.88485E-04 1.71839E-06 8.33179E-04 3.13168E-13 3.00114E-13
 -1      3585 2.00000E+01-8.40776E-04-1.78324E-08 8.00652E-04 1.80516E-13 2.94498E-13
 -1      3586 2.00002E+01-1.00924E-03-3.18608E-06 9.43589E-04 2.55311E-13 5.63584E-13
 -1      3587 2.00006E+01-1.31663E-03-3.80780E-06-1.61328E-07 4.49473E-13-4.53345E-14
 -1      3588 2.00005E+01-1.21565E-03 2.18953E-06-7.91349E-05 9.86653E-14-3.12625E-13
 -1      3589 2.00005E+01-1.20039E-03 1.03855E-06-2.12004E-04 2.16621E-13-2.40734E-13
 -1      3590 1.99999E+01-8.49103E-04-3.24677E-06-9.98015E-04-1.19743E-13 3.43464E-13
 -1      3591 2.00001E+01-9.97229E-04 1.17491E-06-1.02545E-03-2.17707E-13 2.18132E-13
 -1      3592 1.99999E+01-8.14622E-04-1.41156E-06-8.95011E-04-2.17392E-13 4.12597E-13
 -1      3593 2.35545E+01-2.69001E+00 8.10446E-03-2.05128E+00 2.36489E-13-5.02238E-13
 -1      3594 2.22958E+01-2.67971E+00-3.75927E-03 3.03436E+00-2.64157E-13-4.23895E-13
 -1      3595 2.00003E+01-1.04400E-03 3.94050E-06-5.98207E-04 2.23699E-13-1.77680E-13
 -1      3596 2.00002E+01-9.73980E-04-5.63623E-07-6.82487E-04 1.55205E-13-9.89573E-14
 -1      3597 2.00002E+01-1.02794E-03-3.50627E-06-8.18861E-04-2.38316E-14 7.28262E-15
 -1      3598 2.00001E+01-8.99610E-04 3.85968E-06-7.79120E-04 1.95580E-14 4.38363E-14
 -1      3599 1.97821E+01-1.41106E+00 4.06481E-02-3.26108E+00 2.43253E-13-1.39683E-13
 -1      3600 1.28258E+01 1.36842E+00 6.22709E-02 1.17082E+00-8.85073E-14 2.51160E-13
 -1      3601 1.37869E+01 1.40040E+00 3.49524E-02 5.86621E-01 2.52636E-14 1.66837E-13
 -1      3602 1.34299E+01 1.06501E+00 9.37911E-03 1.90013E+00-1.72118E-13 2.18610E-13
 -1      3603 1.41324E+01 1.35191E+00-1.29017E-02-7.10046E-01 7.22109E-14 1.54817E-13
 -1      3604 1.39061E+01 1.21293E+00 5.92610E-02-1.63917E+00 1.39863E-13 1.78253E-13
 -1      3605 1.51152E+01 9.41935E-01 2.87331E-02-2.00369E+00 1.67132E-13 1.15494E-13
 -1      3606 1.96825E+01-5.16567E-01-1.94683E-02 2.40044E+00-2.08344E-13-3.69279E-14
 -1      3607 2.00001E+01-8.83148E-04 2.90028E-06 7.57937E-04 5.65238E-14 4.12404E-13
 -1      3608 2.00002E+01-1.00829E-03-5.48176E-07 7.97743E-04 2.20725E-13 2.73559E-13
 -1      3609 1.99999E+01-8.01281E-04-1.01109E-06-8.31165E-04-4.74498E-14 3.10999E-13
 -1      3610 1.92640E+01-9.34836E-01 1.63181E-02-2.99095E+00 1.84934E-13-1.45763E-13
 -1      3611 2.00003E+01-1.09011E-03 2.48964E-06 8.62153E-04 2.88516E-13 2.03814E-13
 -1      3612 1.92567E+01-4.01795E-01 2.73965E-02-2.41547E+00 1.56120E-13-1.00499E-13
 -1      3613 1.89841E+01-9.91985E-02 3.17199E-03-2.18635E+00 1.94761E-13-6.83527E-14
 -1      3614 1.90407E+01 1.27678E-01 1.52642E-02-1.90514E+00 1.88461E-13-6.49832E-14
 -1      3615 1.89431E+01 3.02066E-01-3.78289E-03-1.70875E+00 1.39449E-13-5.02211E-14
 -1      3616 1.83892E+01 1.95022E-01-9.58513E-03-2.09121E+00 1.87960E-13 4.61610E-15
 -1      3617 1.90503E+01 4.35814E-01 9.67454E-03-1.49677E+00 5.54312E-14-6.32180E-14
 -1      3618 1.90308E+01 5.24426E-01-4.98516E-03-1.34087E+00 2.72880E-16-3.69668E-14
 -1      3619 1.85635E+01 5.29190E-01 3.05507E-05-1.57857E+00 7.39663E-14-5.81588E-14
 -1      3620 1.91484E+01 5.90259E-01 5.89310E-03-1.18352E+00-4.32679E-14-5.62169E-14
 -1      3621 1.91683E+01 6.24005E-01-4.54165E-03-1.05939E+00-2.30663E-14-4.52365E-14
 -1      3622 1.87805E+01 6.84896E-01 1.91303E-03-1.20924E+00 1.14075E-14-8.90611E-14
 -1      3623 1.92797E+01 6.43875E-01 3.53656E-03-9.40626E-01 3.85763E-15-4.24784E-14
 -1      3624 1.93162E+01 6.42734E-01-3.89608E-03-8.40672E-01 3.74920E-14-6.07317E-14
 -1      3625 1.89988E+01 7.35240E-01 2.49141E-03-9.38377E-01-1.64414E-14-3.18547E-14
 -1      3626 1.94152E+01 6.33798E-01 2.15735E-03-7.48926E-01-6.96231E-15-9.09169E-14
 -1      3627 1.94559E+01 6.11727E-01-3.26577E-03-6.67356E-01-1.00093E-13-8.60058E-14
 -1      3628 1.91991E+01 7.19978E-01 2.56670E-03-7.34513E-01-1.07889E-14-8.83322E-14
 -1      3629 1.95404E+01 5.86167E-01 1.36755E-03-5.95024E-01-1.36156E-13-9.78029E-14
 -1      3630 1.95789E+01 5.52929E-01-2.71533E-03-5.27821E-01-9.36897E-14-1.67945E-13
 -1      3631 1.93736E+01 6.65684E-01 2.38444E-03-5.77067E-01-1.32112E-13-1.63649E-13
 -1      3632 1.96489E+01 5.19115E-01 9.25830E-04-4.69964E-01-5.59653E-14-2.42188E-13
 -1      3633 1.96823E+01 4.81293E-01-2.24838E-03-4.14439E-01-1.48446E-14-2.89615E-13
 -1      3634 1.95204E+01 5.90936E-01 2.09916E-03-4.52784E-01-1.28619E-13-1.65925E-13
 -1      3635 1.97390E+01 4.44778E-01 6.75687E-04-3.67855E-01 2.75536E-14-2.56454E-13
 -1      3636 1.97664E+01 4.06649E-01-1.85103E-03-3.22131E-01 8.61815E-15-2.76821E-13
 -1      3637 1.96406E+01 5.08252E-01 1.78170E-03-3.53309E-01 2.35090E-14-3.11707E-13
 -1      3638 1.98114E+01 3.70941E-01 5.27039E-04-2.84636E-01-1.28164E-14-1.89820E-13
 -1      3639 1.98329E+01 3.35113E-01-1.51059E-03-2.47283E-01-3.14019E-14-2.00476E-13
 -1      3640 1.97368E+01 4.25836E-01 1.46904E-03-2.73252E-01 2.44328E-15-3.69443E-13
 -1      3641 1.98680E+01 3.02258E-01 4.30599E-04-2.17269E-01-1.20527E-13-1.72639E-13
 -1      3642 1.98843E+01 2.70158E-01-1.21875E-03-1.87090E-01-1.33255E-13-2.10865E-13
 -1      3643 1.98121E+01 3.48754E-01 1.18133E-03-2.08904E-01-5.54165E-14-3.45752E-13
 -1      3644 1.99110E+01 2.41191E-01 3.60559E-04-1.63284E-01-6.05722E-14-7.46170E-14
 -1      3645 1.99230E+01 2.13433E-01-9.70193E-04-1.39221E-01-2.28126E-14-1.42269E-13
 -1      3646 1.98699E+01 2.79794E-01 9.28523E-04-1.57503E-01-3.09906E-14-1.76421E-13
 -1      3647 1.99430E+01 1.88713E-01 3.04195E-04-1.20558E-01-1.64873E-14-4.52266E-14
 -1      3648 1.99515E+01 1.65383E-01-7.60956E-04-1.01648E-01 6.45582E-14-7.71399E-14
 -1      3649 1.99133E+01 2.20158E-01 7.13989E-04-1.16839E-01 3.06922E-14-3.40471E-14
 -1      3650 1.99661E+01 1.44841E-01 2.55751E-04-8.72147E-02 5.19159E-14-1.36403E-13
 -1      3651 1.99719E+01 1.25698E-01-5.87363E-04-7.25839E-02 6.67744E-14-1.38757E-13
 -1      3652 1.99452E+01 1.69990E-01 5.37063E-04-8.50540E-02-1.23729E-14 7.76384E-14
 -1      3653 1.99823E+01 1.09014E-01 2.12928E-04-6.15903E-02 1.09025E-13-2.06972E-13
 -1      3654 1.99860E+01 9.36390E-02-4.45632E-04-5.04582E-02 1.03961E-13-2.59205E-13
 -1      3655 1.99680E+01 1.28769E-01 3.94726E-04-6.05523E-02 5.29335E-14 5.60049E-14
 -1      3656 1.99932E+01 8.03655E-02 1.74967E-04-4.22246E-02 5.74247E-15-2.95045E-13
 -1      3657 1.99955E+01 6.82594E-02-3.31834E-04-3.39063E-02-3.67356E-14-2.75124E-13
 -1      3658 1.99838E+01 9.56075E-02 2.82780E-04-4.19552E-02 2.17229E-14-1.48958E-13
 -1      3659 2.00003E+01 5.79033E-02 1.41670E-04-2.78551E-02 5.77207E-14-3.07372E-13
 -1      3660 2.00015E+01 4.85514E-02-2.42009E-04-2.17623E-02 9.29001E-14-2.31913E-13
 -1      3661 1.99944E+01 6.94479E-02 1.96623E-04-2.80806E-02-5.98961E-15-2.00542E-13
 -1      3662 2.00045E+01 4.06249E-02 1.12936E-04-1.74102E-02 8.14173E-14-1.46358E-13
 -1      3663 2.00050E+01 3.35380E-02-1.72334E-04-1.30482E-02 4.84777E-14-5.00755E-14
 -1      3664 2.00012E+01 4.91993E-02 1.31733E-04-1.79276E-02 1.46547E-13-2.28613E-13
 -1      3665 2.00068E+01 2.75886E-02 8.85891E-05-9.99719E-03-7.59150E-14 3.52344E-14
 -1      3666 2.00068E+01 2.23249E-02-1.19254E-04-6.95770E-03-2.58275E-14 1.89834E-14
 -1      3667 2.00052E+01 3.38215E-02 8.39552E-05-1.06618E-02 6.34655E-15-8.84551E-14
 -1      3668 2.00077E+01 1.79516E-02 6.83387E-05-4.88568E-03-8.95858E-14-6.88863E-14
 -1      3669 2.00075E+01 1.41267E-02-7.95813E-05-2.83825E-03-1.47288E-13-7.88733E-14
 -1      3670 2.00073E+01 2.23722E-02 4.96414E-05-5.59891E-03-1.02570E-13-7.09620E-14
 -1      3671 2.00077E+01 1.09858E-02 5.17987E-05-1.48883E-03-1.56476E-13-4.43577E-14
 -1      3672 2.00074E+01 8.27483E-03-5.05397E-05-1.70780E-04-8.66932E-14-4.39769E-14
 -1      3673 2.00080E+01 1.40294E-02 2.56982E-05-2.18695E-03-1.36375E-13 6.05694E-14
 -1      3674 2.00073E+01 6.07940E-03 3.85260E-05 6.56683E-04-3.35976E-14 7.74768E-15
 -1      3675 2.00068E+01 4.21477E-03-2.97754E-05 1.45045E-03-1.67232E-14-1.60136E-14
 -1      3676 2.00080E+01 8.09721E-03 9.57575E-06 1.16729E-05-1.60286E-14 1.80961E-13
 -1      3677 2.00065E+01 2.73082E-03 2.80588E-05 1.91029E-03-1.66889E-14-7.11395E-14
 -1      3678 2.00060E+01 1.49655E-03-1.53377E-05 2.33707E-03 1.10420E-13-8.82356E-14
 -1      3679 2.00074E+01 4.00040E-03-7.77439E-07 1.33819E-03-3.39063E-14 1.95502E-13
 -1      3680 2.00056E+01 5.37145E-04 1.99464E-05 2.54586E-03 1.27413E-13-1.07380E-13
 -1      3681 2.00052E+01-2.37584E-04-5.64391E-06 2.72404E-03 5.11021E-14-1.56959E-13
 -1      3682 2.00066E+01 1.27400E-03-6.97609E-06 2.05405E-03 6.37278E-14 9.42366E-15
 -1      3683 2.00047E+01-8.18950E-04 1.37701E-05 2.76817E-03 4.15424E-14-2.12049E-13
 -1      3684 2.00043E+01-1.26674E-03 5.65047E-07 2.78510E-03 4.24065E-14-5.03949E-14
 -1      3685 2.00057E+01-4.50613E-04-1.02650E-05 2.35601E-03 9.54005E-14-1.28617E-13
 -1      3686 2.00038E+01-1.58278E-03 9.15552E-06 2.72722E-03-2.02499E-14-6.37613E-14
 -1      3687 2.00035E+01-1.80468E-03 4.27205E-06 2.64593E-03 2.62371E-14-5.28477E-14
 -1      3688 2.00047E+01-1.46024E-03-1.15844E-05 2.38921E-03 4.17536E-15-2.09136E-13
 -1      3689 2.00030E+01-1.94050E-03 5.77791E-06 2.53034E-03 7.00010E-14-7.44623E-14
 -1      3690 2.00027E+01-2.01206E-03 6.22987E-06 2.39511E-03 6.26311E-14-5.33722E-14
 -1      3691 2.00038E+01-1.97394E-03-1.16298E-05 2.25839E-03 6.22993E-14-3.31554E-13
 -1      3692 2.00024E+01-2.03070E-03 3.36168E-06 2.25222E-03-1.67352E-13 4.12529E-15
 -1      3693 2.00021E+01-2.00732E-03 7.00658E-06 2.09321E-03-5.13225E-14-1.59281E-13
 -1      3694 2.00030E+01-2.15588E-03-1.09036E-05 2.03721E-03-6.50852E-14-2.88295E-13
 -1      3695 2.00018E+01-1.95450E-03 1.67801E-06 1.94311E-03 1.53095E-13-1.90077E-13
 -1      3696 2.00016E+01-1.87591E-03 7.02856E-06 1.77996E-03 1.61341E-13-1.61110E-13
 -1      3697 2.00023E+01-2.12672E-03-9.75569E-06 1.77584E-03 2.86998E-14-2.25553E-13
 -1      3698 2.00013E+01-1.78415E-03 5.49516E-07 1.63526E-03 1.79760E-13-1.69453E-13
 -1      3699 2.00011E+01-1.67834E-03 6.59230E-06 1.48006E-03 1.90119E-13-1.78672E-13
 -1      3700 2.00018E+01-1.97323E-03-8.40801E-06 1.50715E-03 1.88947E-13-1.77368E-13
 -1      3701 2.00009E+01-1.57022E-03-1.78306E-07 1.34773E-03 2.50488E-13-1.40824E-13
 -1      3702 2.00008E+01-1.45608E-03 5.85809E-06 1.20707E-03 1.92106E-13-1.76223E-13
 -1      3703 2.00013E+01-1.75668E-03-6.98451E-06 1.25122E-03 2.35905E-13-3.72112E-13
 -1      3704 2.00006E+01-1.34540E-03-3.27637E-07 1.09097E-03 1.26572E-13-8.51580E-14
 -1      3705 2.00005E+01-1.23852E-03 3.55597E-06 9.68067E-04 1.61379E-13 6.56194E-14
 -1      3706 2.00009E+01-1.51818E-03-5.46307E-06 1.01965E-03 2.72806E-13-3.75660E-13
 -1      3707 2.00005E+01-1.24181E-03-2.91738E-06 8.09601E-04 2.19303E-13-2.73200E-13
 -1      3708 1.90842E+01-7.74365E-01 1.36033E-02 3.02746E+00-3.07962E-13-5.67840E-14
 -1      3709 1.95926E+01-1.28895E+00 3.47308E-02 3.29107E+00-3.18846E-13-7.81013E-14
 -1      3710 1.89599E+01 6.06906E-01-6.75328E-03 1.44349E+00 2.84695E-14-1.13393E-14
 -1      3711 1.89663E+01 5.22442E-01 9.48032E-03 1.60930E+00-3.07807E-14-2.73478E-14
 -1      3712 1.94643E+01 6.49691E-01-3.68631E-03 7.38878E-01-2.40519E-14 5.31094E-14
 -1      3713 1.94200E+01 6.79050E-01 1.99925E-03 8.25976E-01-3.65540E-14 4.15584E-14
 -1      3714 1.95953E+01 5.78604E-01-3.02130E-03 5.90056E-01-2.79318E-14 5.93074E-14
 -1      3715 1.95560E+01 6.17697E-01 1.27682E-03 6.62708E-01-5.54254E-14 4.31649E-14
 -1      3716 1.93666E+01 7.05499E-01 2.87190E-03 6.42587E-01-4.22757E-14-1.79148E-15
 -1      3717 1.97017E+01 4.97688E-01-2.47576E-03 4.67321E-01 8.51795E-15 1.42316E-13
 -1      3718 1.96694E+01 5.39849E-01 9.02912E-04 5.28067E-01 1.59477E-14 1.21606E-13
 -1      3719 1.95237E+01 6.18961E-01 2.41273E-03 5.11303E-01-7.51957E-14 4.08994E-14
 -1      3720 1.97855E+01 4.16528E-01-2.02137E-03 3.65988E-01-6.05983E-14 1.59447E-13
 -1      3721 1.97603E+01 4.57667E-01 7.08816E-04 4.16524E-01-2.39135E-14 1.40263E-13
 -1      3722 1.96490E+01 5.27364E-01 1.96556E-03 4.04014E-01-3.67837E-14 1.69547E-13
 -1      3723 1.98500E+01 3.40704E-01-1.63853E-03 2.82805E-01-3.56738E-14 1.87128E-13
 -1      3724 1.98310E+01 3.78500E-01 5.97946E-04 3.24433E-01 5.08734E-15 2.24091E-13
 -1      3725 1.97469E+01 4.38567E-01 1.56313E-03 3.15914E-01-4.22680E-14 1.17046E-13
 -1      3726 1.98984E+01 2.73105E-01-1.31482E-03 2.15217E-01-5.45916E-14 2.14568E-13
 -1      3727 1.98847E+01 3.06418E-01 5.21390E-04 2.49068E-01-5.93631E-14 2.00420E-13
 -1      3728 1.98220E+01 3.57117E-01 1.21726E-03 2.43826E-01-6.70633E-14 2.47174E-13
 -1      3729 1.99341E+01 2.14867E-01-1.04221E-03 1.61006E-01-8.50557E-15 1.79376E-13
 -1      3730 1.99246E+01 2.43325E-01 4.57121E-04 1.88135E-01-4.85656E-15 2.05102E-13
 -1      3731 1.98785E+01 2.85280E-01 9.29562E-04 1.85364E-01-4.32345E-14 2.79593E-13
 -1      3732 1.99598E+01 1.66028E-01-8.14812E-04 1.18153E-01-4.74944E-14 1.85628E-13
 -1      3733 1.99534E+01 1.89732E-01 3.96943E-04 1.39560E-01-2.56627E-14 1.69941E-13
 -1      3734 1.99203E+01 2.23809E-01 6.96362E-04 1.38528E-01-3.58760E-14 1.87266E-13
 -1      3735 1.99778E+01 1.25988E-01-6.27515E-04 8.48076E-02-2.30297E-13 2.05318E-13
 -1      3736 1.99737E+01 1.45310E-01 3.39077E-04 1.01425E-01-8.64787E-14 1.66656E-13
 -1      3737 1.99504E+01 1.72497E-01 5.11389E-04 1.01537E-01-1.26319E-13 1.78655E-13
 -1      3738 1.99900E+01 9.38119E-02-4.75453E-04 5.92905E-02-4.78644E-14 9.52937E-14
 -1      3739 1.99875E+01 1.09259E-01 2.84234E-04 7.19711E-02-1.63031E-13 1.33951E-13
 -1      3740 1.99717E+01 1.30572E-01 3.67476E-04 7.27740E-02-1.32186E-13 8.26444E-14
 -1      3741 1.99980E+01 6.84297E-02-3.53870E-04 4.01114E-02 1.19117E-14 7.14136E-14
 -1      3742 1.99967E+01 8.05565E-02 2.33700E-04 4.96124E-02-2.90918E-14 1.17972E-13
 -1      3743 1.99863E+01 9.69747E-02 2.57527E-04 5.07812E-02-8.38042E-14 5.12915E-14
 -1      3744 2.00029E+01 4.87614E-02-2.58183E-04 2.59763E-02-6.97212E-15 5.10654E-14
 -1      3745 2.00024E+01 5.81135E-02 1.88524E-04 3.29541E-02 1.51445E-14 4.90756E-14
 -1      3746 1.99960E+01 7.05348E-02 1.75033E-04 3.42663E-02 1.30295E-14 8.37243E-14
 -1      3747 2.00056E+01 3.37916E-02-1.84098E-04 1.57862E-02-9.96725E-14 1.57756E-13
 -1      3748 2.00056E+01 4.08748E-02 1.49268E-04 2.07965E-02-2.93852E-14 3.17191E-14
 -1      3749 2.00020E+01 5.00938E-02 1.14300E-04 2.21085E-02-1.89302E-14 9.14048E-14
 -1      3750 2.00069E+01 2.26090E-02-1.27708E-04 8.62753E-03 4.53837E-14 2.10918E-13
 -1      3751 2.00072E+01 2.78726E-02 1.16020E-04 1.21307E-02-2.36522E-14 1.93727E-13
 -1      3752 2.00055E+01 3.45720E-02 7.05098E-05 1.33564E-02-9.58100E-14 2.94283E-14
 -1      3753 2.00072E+01 1.44231E-02-8.55617E-05 3.75566E-03 1.17325E-14 3.37519E-13
 -1      3754 2.00077E+01 1.82538E-02 8.85050E-05 6.12567E-03 1.66949E-14 2.90922E-13
 -1      3755 2.00072E+01 2.30058E-02 3.96889E-05 7.21934E-03 3.27607E-14 4.15083E-14
 -1      3756 2.00069E+01 8.56663E-03-5.46833E-05 5.75167E-04-2.31358E-14 3.58577E-13
 -1      3757 2.00074E+01 1.12888E-02 6.62102E-05 2.11006E-03 8.88875E-14 3.74871E-13
 -1      3758 2.00078E+01 1.45627E-02 1.86253E-05 3.05316E-03-2.20482E-14 1.35473E-13
 -1      3759 2.00063E+01 4.48877E-03-3.25672E-05-1.38148E-03-2.20206E-13 4.95180E-13
 -1      3760 2.00068E+01 6.36855E-03 4.84980E-05-4.48482E-04-1.70692E-13 4.69533E-13
 -1      3761 2.00076E+01 8.54178E-03 4.77009E-06 3.42955E-04-8.95748E-14 2.89329E-13
 -1      3762 2.00055E+01 1.74408E-03-1.71466E-05-2.47477E-03-1.06458E-13 2.66437E-13
 -1      3763 2.00060E+01 2.99572E-03 3.46907E-05-1.96442E-03-1.37798E-13 4.61440E-13
 -1      3764 2.00070E+01 4.36624E-03-3.86601E-06-1.31529E-03-8.43419E-14 4.93667E-13
 -1      3765 2.00046E+01-2.11108E-05-6.74927E-06-2.97750E-03 7.89628E-14 2.04337E-13
 -1      3766 2.00051E+01 7.71658E-04 2.41277E-05-2.75460E-03-3.91257E-15 2.31959E-13
 -1      3767 2.00062E+01 1.57050E-03-8.81034E-06-2.23283E-03 2.06650E-14 1.89251E-13
 -1      3768 2.00038E+01-1.08265E-03-4.68220E-08-3.09209E-03 1.97820E-13 1.69683E-13
 -1      3769 2.00042E+01-6.17343E-04 1.62011E-05-3.05669E-03 1.23669E-13 8.13791E-14
 -1      3770 2.00053E+01-2.14277E-04-1.12162E-05-2.64497E-03 9.11021E-14 1.27266E-13
 -1      3771 2.00031E+01-1.65194E-03 3.99740E-06-2.96554E-03 1.12595E-13 2.84256E-13
 -1      3772 2.00034E+01-1.41387E-03 1.03745E-05-3.04533E-03 2.20448E-13 3.38214E-13
 -1      3773 2.00044E+01-1.27515E-03-1.19393E-05-2.72610E-03 1.35546E-13 2.10437E-13
 -1      3774 2.00024E+01-1.88811E-03 6.17781E-06-2.70193E-03 1.49660E-13 2.66636E-13
 -1      3775 2.00027E+01-1.80221E-03 6.18925E-06-2.84595E-03 6.97882E-14 3.42087E-13
 -1      3776 2.00035E+01-1.83163E-03-1.16022E-05-2.60264E-03 7.42441E-14 2.31273E-13
 -1      3777 2.00018E+01-1.90870E-03 7.09313E-06-2.37278E-03 1.06439E-13 3.32484E-13
 -1      3778 2.00021E+01-1.91981E-03 3.26333E-06-2.54621E-03 2.54216E-13 3.81530E-13
 -1      3779 2.00028E+01-2.04855E-03-1.06479E-05-2.36394E-03 1.39255E-13 1.65081E-13
 -1      3780 2.00014E+01-1.79875E-03 7.19353E-06-2.02533E-03-2.12900E-14 1.38786E-13
 -1      3781 2.00015E+01-1.86720E-03 1.28501E-06-2.20534E-03 7.13762E-14 2.74556E-13
 -1      3782 2.00021E+01-2.04735E-03-9.38061E-06-2.07122E-03 1.93207E-13 3.19780E-13
 -1      3783 2.00010E+01-1.61854E-03 6.79344E-06-1.68919E-03 2.01902E-14-1.63989E-13
 -1      3784 2.00011E+01-1.71637E-03 9.72131E-09-1.86165E-03-5.86481E-14-2.93583E-14
 -1      3785 2.00016E+01-1.91563E-03-7.99436E-06-1.76481E-03 7.99789E-14 1.69272E-13
 -1      3786 2.00006E+01-1.40978E-03 6.09857E-06-1.38125E-03 6.47447E-14 2.87014E-16
 -1      3787 2.00007E+01-1.51790E-03-7.75701E-07-1.53828E-03 2.33682E-14-1.12488E-13
 -1      3788 2.00012E+01-1.71542E-03-6.63955E-06-1.46994E-03 2.41519E-14-1.24267E-14
 -1      3789 2.00004E+01-1.20189E-03 4.55850E-06-1.11002E-03-1.22216E-13 1.39634E-13
 -1      3790 2.00005E+01-1.30728E-03-1.75662E-06-1.24756E-03-4.30733E-14 4.83803E-14
 -1      3791 2.00008E+01-1.48843E-03-4.92912E-06-1.20137E-03-1.02586E-13-1.73632E-14
 -1      3792 2.00003E+01-1.08520E-03 2.45971E-06-9.01858E-04-1.80028E-13 5.41480E-14
 -1      3793 2.00003E+01-1.14339E-03-3.09386E-06-1.01354E-03-1.60572E-13 1.40086E-13
 -1      3794 2.00006E+01-1.29863E-03-1.05668E-06-9.79636E-04-1.78406E-13 1.66396E-13
 -1      3795 2.00004E+01-1.15637E-03 1.32277E-06-8.00759E-04-7.99473E-14 7.87312E-14
 -1      3796 2.00005E+01-1.16166E-03 3.25357E-06-3.60831E-04 2.10486E-13-1.12973E-13
 -1      3797 2.00004E+01-1.11760E-03-2.14264E-07-4.76525E-04 3.25054E-13-1.90001E-13
 -1      3798 2.00004E+01-1.17100E-03-3.09529E-06-5.96638E-04 9.77745E-14-1.09616E-13
 -1      3799 1.82556E+01-5.19159E-01-1.78195E-02-3.02393E+00 1.97963E-13 2.25202E-14
 -1      3800 1.93091E+01 6.95559E-01-4.50794E-03 9.21227E-01-1.13057E-13 3.24130E-14
 -1      3801 1.92654E+01 7.04863E-01 3.32633E-03 1.02686E+00-4.96312E-14 2.40629E-15
 -1      3802 1.91740E+01 7.74339E-01 3.25831E-03 8.05822E-01-7.78418E-14 2.27402E-14
 -1      3803 1.88232E+01 3.84937E-01-6.45640E-03 1.83440E+00-1.22095E-13-2.21478E-14
 -1      3804 1.89091E+01 2.08440E-01 1.59928E-02 2.04359E+00-1.73994E-13-3.00613E-14
 -1      3805 1.84024E+01 6.23002E-01-1.26566E-03 1.67591E+00-7.71160E-14-7.64319E-14
 -1      3806 1.88084E+01-4.30732E-02-1.32265E-03 2.35674E+00-2.05262E-13-3.43359E-14
 -1      3807 1.90453E+01-3.57226E-01 2.54581E-02 2.60928E+00-2.55654E-13-6.54010E-14
 -1      3808 1.81531E+01 3.04152E-01-2.02951E-03 2.21423E+00-1.74276E-13-3.49653E-14
 -1      3809 1.91356E+01 6.92735E-01-5.52750E-03 1.14926E+00 3.69531E-14-4.47409E-14
 -1      3810 1.91048E+01 6.66751E-01 5.63665E-03 1.28003E+00 4.31677E-14-5.43267E-16
 -1      3811 1.89450E+01 8.06054E-01 3.36166E-03 1.01449E+00-4.25069E-14 5.30233E-14
 -1      3812 1.79991E+01-1.05757E+00 1.83953E-02 3.88799E+00-3.60443E-13 5.68278E-14
 -1      3813 1.69928E+01-4.14556E-01-7.44764E-03 3.47695E+00-3.19919E-13 7.82516E-14
 -1      3814 2.00006E+01-1.27916E-03-3.23292E-06-3.17448E-04 1.12968E-13-2.45938E-13
 -1      3815 1.95087E+01-1.69550E+00 1.49729E-02 3.75735E+00-3.47933E-13-7.89837E-14
 -1      3816 1.86829E+01 7.72556E-01 2.66897E-03 1.29136E+00 2.46662E-14-2.85077E-14
 -1      3817 1.80442E+01-2.88117E-01 1.38129E-03 2.97318E+00-2.93524E-13-3.51216E-14
 -1      3818 2.00005E+01-1.24138E-03 1.60800E-06-6.60809E-04-3.47638E-14-1.12350E-13
 -1      3819 2.00006E+01-1.31669E-03-2.70708E-06-7.42461E-04-2.16109E-13-7.07574E-14
 -1      3820 2.00006E+01-1.30791E-03 1.95572E-06-5.30944E-04 6.15404E-14-2.37468E-13
 -1      3821 1.69253E+01 2.28105E-01 1.10737E-03-2.64038E+00 2.09980E-13 1.31759E-13
 -1      3822 2.00006E+01-1.31376E-03 2.60350E-06 6.78837E-04 2.42439E-13-3.26824E-13
 -1      3823 1.45376E+01 8.53653E-01 6.45665E-02 2.45797E+00-2.14684E-13 1.65019E-13
 -1      3824 1.48839E+01 1.08973E+00 2.02652E-02 1.73889E+00-1.50488E-13 1.03088E-13
 -1      3825 1.58127E+01 3.84739E-01 1.94389E-03 2.81111E+00-2.57754E-13 9.12465E-14
 -1      3826 1.44573E+01 1.37130E+00-7.46841E-03 6.91876E-01-1.91611E-15 1.13885E-13
 -1      3827 1.43036E+01 1.50587E+00 4.43479E-02 1.00111E-01 3.96042E-14 1.42695E-13
 -1      3828 2.00008E+01-1.41695E-03 1.36649E-06 8.36346E-05 5.61605E-13 1.82340E-13
 -1      3829 2.00008E+01-1.41628E-03 1.95768E-06-8.33622E-05 3.59491E-13 2.09465E-13
 -1      3830 1.49156E+01 1.35643E+00 3.91643E-03-5.18904E-01 5.28241E-14 1.55772E-13
 -1      3831 2.00007E+01-1.35900E-03 4.04215E-07 4.29036E-04 3.01438E-13-3.45422E-13
 -1      3832 2.00008E+01-1.39237E-03 3.73375E-06 2.75253E-04 5.05807E-13-2.97855E-13
 -1      3833 2.00009E+01-1.51841E-03-3.46652E-06 1.97418E-04 3.91738E-13-6.35381E-14
 -1      3834 1.62272E+01 6.35869E-01 1.10453E-02-2.31549E+00 1.69541E-13 1.06189E-13
 -1      3835 1.77317E+01 4.17625E-01 2.70881E-02-2.12856E+00 1.44349E-13 1.27870E-13
 -1      3836 1.77255E+01 5.65035E-01-1.02879E-02-1.83105E+00 1.44382E-13 7.07828E-14
 -1      3837 1.59414E+01 9.61233E-01-2.45159E-02-1.61668E+00 1.11198E-13 9.33073E-14
 -1      3838 1.94578E+01 6.33563E-01-3.01282E-03 4.10833E-01-7.09127E-14 5.79982E-14
 -1      3839 1.93889E+01 6.84431E-01 9.67389E-07 4.65531E-01-8.24987E-14 1.09729E-14
 -1      3840 2.00008E+01-1.39281E-03 2.13381E-06-2.36679E-04 2.08475E-13-7.77049E-14
 -1      3841 2.00007E+01-1.35857E-03 1.54534E-06-3.93085E-04 6.03683E-14-1.67523E-13
 -1      3842 2.00008E+01-1.44624E-03-3.06565E-06-4.53659E-04 7.98060E-14-2.26973E-13
 -1      3843 2.00009E+01-1.51576E-03-4.00834E-06-1.57076E-04 2.49433E-13 2.68986E-13
 -1      3844 1.74603E+01-7.81360E-02 1.87346E-02 2.95264E+00-2.69918E-13 1.78130E-14
 -1      3845 1.65343E+01 2.17538E-01 3.77820E-02 2.95341E+00-2.69772E-13 1.12154E-13
 -1      3846 1.63281E+01 5.99872E-01-2.32608E-03 2.36271E+00-1.52330E-13 7.56088E-14
 -1      3847 1.74346E+01 2.40585E-01-1.56524E-02 2.51364E+00-1.95393E-13-3.89953E-14
 -1      3848 1.81160E+01 6.87215E-01 1.09378E-02-1.52387E+00 1.10301E-13 4.48578E-15
 -1      3849 1.81932E+01 7.54821E-01-1.12040E-02-1.31813E+00 3.93771E-14 3.51565E-14
 -1      3850 1.84394E+01 8.06230E-01 5.22170E-03-1.14312E+00 5.13299E-15 4.43190E-14
 -1      3851 1.85403E+01 8.24738E-01-8.37126E-03-9.94589E-01 2.43019E-14 3.73301E-14
 -1      3852 1.80137E+01 9.45917E-01 9.45593E-03-1.08250E+00 4.95507E-14 5.47932E-14
 -1      3853 1.87397E+01 8.33794E-01 2.80190E-03-8.71762E-01 5.72505E-15 1.80056E-15
 -1      3854 1.88390E+01 8.21078E-01-6.19129E-03-7.62357E-01 1.57475E-14 1.09834E-14
 -1      3855 1.84302E+01 9.47891E-01 6.61521E-03-8.02814E-01-5.62590E-15 7.34138E-14
 -1      3856 1.90002E+01 8.02739E-01 1.37821E-03-6.73848E-01-5.32609E-14-4.68419E-14
 -1      3857 1.90904E+01 7.71042E-01-4.64519E-03-5.90887E-01-8.69876E-14-9.11170E-14
 -1      3858 1.87716E+01 8.99934E-01 5.30194E-03-6.06731E-01-6.14684E-14-1.05670E-14
 -1      3859 1.92200E+01 7.36836E-01 6.20108E-04-5.25024E-01-1.07226E-13-1.35911E-13
 -1      3860 1.92979E+01 6.94861E-01-3.55549E-03-4.60340E-01-1.73494E-13-8.81377E-14
 -1      3861 1.90481E+01 8.21184E-01 4.22329E-03-4.65134E-01-1.51934E-13-3.56639E-14
 -1      3862 1.94019E+01 6.52615E-01 2.54277E-04-4.09898E-01-1.50964E-13-1.08916E-13
 -1      3863 1.94668E+01 6.06389E-01-2.77488E-03-3.58441E-01-8.35095E-14-1.12190E-13
 -1      3864 1.92712E+01 7.26487E-01 3.38961E-03-3.59023E-01-1.23320E-13-6.33736E-14
 -1      3865 1.95497E+01 5.61526E-01 8.68700E-05-3.19095E-01-6.20065E-14-1.83773E-13
 -1      3866 1.96023E+01 5.15226E-01-2.19425E-03-2.77712E-01 1.24948E-16-2.79472E-13
 -1      3867 1.94501E+01 6.26026E-01 2.72658E-03-2.77368E-01-1.42999E-13-1.21877E-13
 -1      3868 1.96677E+01 4.71373E-01 2.06682E-05-2.46727E-01-6.08471E-15-2.93146E-13
 -1      3869 1.97094E+01 4.27722E-01-1.74480E-03-2.13352E-01-5.07019E-15-2.87761E-13
 -1      3870 1.95920E+01 5.27097E-01 2.18347E-03-2.13480E-01-5.46843E-14-2.81911E-13
 -1      3871 1.97603E+01 3.87135E-01 3.67905E-06-1.88892E-01 1.76216E-14-2.04944E-13
 -1      3872 1.97926E+01 3.47734E-01-1.38600E-03-1.62066E-01 6.21247E-15-1.32416E-13
 -1      3873 1.97032E+01 4.34584E-01 1.73279E-03-1.63086E-01 2.42002E-14-2.53088E-13
 -1      3874 1.98317E+01 3.11642E-01 7.86681E-06-1.42817E-01 1.59473E-15-1.13346E-13
 -1      3875 1.98561E+01 2.77258E-01-1.09432E-03-1.21420E-01 7.11187E-14-5.62500E-14
 -1      3876 1.97891E+01 3.51391E-01 1.35850E-03-1.23284E-01 4.60823E-14-5.54057E-14
 -1      3877 1.98856E+01 2.46159E-01 1.86981E-05-1.06381E-01 4.46734E-14-3.81581E-14
 -1      3878 1.99037E+01 2.16973E-01-8.55664E-04-8.94952E-02 2.73993E-14 1.81322E-14
 -1      3879 1.98544E+01 2.78899E-01 1.04979E-03-9.19697E-02 1.06909E-13 2.94968E-14
 -1      3880 1.99256E+01 1.90869E-01 2.92695E-05-7.78629E-02-3.31338E-14 5.39313E-14
 -1      3881 1.99387E+01 1.66678E-01-6.60801E-04-6.47068E-02-1.16762E-16-8.38842E-15
 -1      3882 1.99031E+01 2.17380E-01 7.98095E-04-6.75222E-02 2.75891E-14-3.14615E-14
 -1      3883 1.99545E+01 1.45260E-01 3.68514E-05-5.58218E-02-9.38031E-15-2.21112E-14
 -1      3884 1.99637E+01 1.25630E-01-5.02943E-04-4.57182E-02 1.73787E-14-6.40143E-14
 -1      3885 1.99387E+01 1.66365E-01 5.95776E-04-4.86357E-02 6.77203E-16-7.03240E-14
 -1      3886 1.99749E+01 1.08414E-01 4.08589E-05-3.90299E-02-4.64721E-14-9.30877E-14
 -1      3887 1.99811E+01 9.27956E-02-3.76512E-04-3.13937E-02-2.34249E-14-2.05691E-13
 -1      3888 1.99641E+01 1.24931E-01 4.35697E-04-3.42305E-02-9.02918E-14-2.54355E-13
 -1      3889 1.99889E+01 7.92214E-02 4.16954E-05-2.64425E-02-2.20940E-14-1.99819E-13
 -1      3890 1.99929E+01 6.70260E-02-2.76620E-04-2.07726E-02-2.58269E-14-1.60118E-13
 -1      3891 1.99817E+01 9.19250E-02 3.11161E-04-2.34048E-02-4.34006E-14-2.70356E-13
 -1      3892 1.99980E+01 5.65221E-02 4.01221E-05-1.71774E-02 5.84535E-14-1.91754E-13
 -1      3893 2.00004E+01 4.71754E-02-1.98875E-04-1.30509E-02 1.03410E-13-2.38517E-13
 -1      3894 1.99935E+01 6.61172E-02 2.15995E-04-1.54058E-02-1.87580E-14-2.94509E-13
 -1      3895 2.00036E+01 3.91993E-02 3.69384E-05-1.04990E-02 6.63906E-14-3.17023E-13
 -1      3896 2.00049E+01 3.21717E-02-1.39345E-04-7.56480E-03-2.38821E-14-2.06298E-13
 -1      3897 2.00011E+01 4.63070E-02 1.44650E-04-9.60997E-03 5.86947E-14-3.27685E-13
 -1      3898 2.00068E+01 2.62333E-02 3.28388E-05-5.80299E-03-2.60541E-14-1.38703E-13
 -1      3899 2.00073E+01 2.10564E-02-9.45558E-05-3.77444E-03-6.32266E-15-2.91258E-14
 -1      3900 2.00055E+01 3.13864E-02 9.22707E-05-5.50649E-03 9.26232E-14-2.89333E-13
 -1      3901 2.00082E+01 1.67289E-02 2.83638E-05-2.60059E-03-2.15735E-14 6.45829E-14
 -1      3902 2.00083E+01 1.30009E-02-6.15011E-05-1.24746E-03-6.87212E-15 1.83301E-13
 -1      3903 2.00079E+01 2.03732E-02 5.47128E-05-2.68237E-03 9.33182E-14 5.52277E-14
 -1      3904 2.00086E+01 9.92324E-03 2.39003E-05-5.02667E-04-3.78907E-14 2.28428E-13
 -1      3905 2.00083E+01 7.30871E-03-3.76309E-05 3.56805E-04-9.86420E-16 2.42423E-13
 -1      3906 2.00088E+01 1.24240E-02 2.85224E-05-8.08488E-04 9.35710E-15 8.05498E-14
 -1      3907 2.00082E+01 5.18268E-03 1.97018E-05 7.95529E-04-4.95559E-14 1.85415E-13
 -1      3908 2.00078E+01 3.40773E-03-2.08255E-05 1.30241E-03 4.10642E-14 1.30230E-13
 -1      3909 2.00087E+01 6.83351E-03 1.08821E-05 3.73456E-04-7.07754E-14 8.11203E-14
 -1      3910 2.00075E+01 1.99228E-03 1.59166E-05 1.52868E-03 4.51747E-14 1.20289E-13
 -1      3911 2.00070E+01 8.37744E-04-9.35691E-06 1.79057E-03 2.69110E-15 6.68553E-14
 -1      3912 2.00081E+01 3.02467E-03-4.60296E-07 1.06303E-03 4.56086E-15-4.77216E-14
 -1      3913 2.00065E+01-5.81871E-05 1.26144E-05 1.87435E-03 2.09105E-14-7.59629E-14
 -1      3914 2.00060E+01-7.64378E-04-1.84219E-06 1.97181E-03 1.23383E-13-1.72648E-13
 -1      3915 2.00072E+01 5.35040E-04-7.27023E-06 1.41186E-03-7.85082E-14-6.76520E-14
 -1      3916 2.00055E+01-1.28944E-03 9.81038E-06 1.96440E-03 6.15793E-14-2.71527E-13
 -1      3917 2.00050E+01-1.67990E-03 2.80545E-06 1.95653E-03 1.05792E-14-3.46994E-13
 -1      3918 2.00062E+01-9.99062E-04-1.09055E-05 1.53307E-03 2.54734E-14-3.59371E-13
 -1      3919 2.00045E+01-1.94764E-03 7.48405E-06 1.89470E-03 6.66539E-14-2.93522E-13
 -1      3920 2.00041E+01-2.12273E-03 5.42436E-06 1.82389E-03 6.12421E-14-3.29757E-13
 -1      3921 2.00052E+01-1.85844E-03-1.23903E-05 1.50941E-03 8.63598E-14-4.11325E-13
 -1      3922 2.00036E+01-2.21825E-03 5.59350E-06 1.73327E-03-1.12009E-14-2.89317E-13
 -1      3923 2.00033E+01-2.25245E-03 6.64696E-06 1.62910E-03-7.27824E-14-2.09582E-13
 -1      3924 2.00042E+01-2.25596E-03-1.24825E-05 1.40004E-03 3.66905E-14-2.53050E-13
 -1      3925 2.00028E+01-2.23833E-03 4.08370E-06 1.52698E-03-1.04457E-13-1.46804E-13
 -1      3926 2.00025E+01-2.18582E-03 6.93517E-06 1.40940E-03 7.91482E-14-1.05433E-13
 -1      3927 2.00033E+01-2.34996E-03-1.17293E-05 1.24608E-03-5.87360E-14-1.72848E-13
 -1      3928 2.00022E+01-2.10703E-03 2.88317E-06 1.30682E-03 1.64550E-13-1.13782E-13
 -1      3929 2.00019E+01-2.00595E-03 6.82077E-06 1.18863E-03 2.06866E-13-4.60036E-14
 -1      3930 2.00026E+01-2.25580E-03-1.04835E-05 1.07505E-03 8.51908E-14-7.69634E-14
 -1      3931 2.00016E+01-1.89540E-03 1.62388E-06 1.09331E-03 1.37599E-13-1.52456E-13
 -1      3932 2.00014E+01-1.77304E-03 5.91366E-06 9.81583E-04 1.16811E-13-3.71515E-13
 -1      3933 2.00019E+01-2.05435E-03-8.71237E-06 9.04995E-04 1.07355E-13-2.50044E-13
 -1      3934 2.00011E+01-1.65101E-03 7.38763E-07 8.95310E-04 3.35607E-13-3.97911E-13
 -1      3935 2.00010E+01-1.52727E-03 4.61878E-06 7.95427E-04 2.90206E-13-3.95304E-13
 -1      3936 2.00014E+01-1.80491E-03-5.83192E-06 7.49349E-04 1.61762E-13-4.45411E-13
 -1      3937 1.92769E+01 7.31914E-01-3.87663E-03 5.17100E-01-8.66446E-14 5.00146E-14
 -1      3938 1.91917E+01 7.79805E-01 2.29191E-04 5.84192E-01-4.51012E-14 2.89798E-14
 -1      3939 1.92413E+01 7.63579E-01 3.82430E-03 4.09315E-01-5.42263E-14 2.28731E-14
 -1      3940 1.97106E+01 4.41915E-01-1.89977E-03 2.52913E-01-5.86252E-14 8.65581E-14
 -1      3941 1.96686E+01 4.88133E-01-2.96014E-05 2.90100E-01-6.40960E-14 3.56383E-14
 -1      3942 1.97952E+01 3.58006E-01-1.51539E-03 1.94745E-01-1.47921E-13 2.23178E-13
 -1      3943 1.97634E+01 3.99255E-01 1.18904E-05 2.25210E-01-9.26180E-14 1.63074E-13
 -1      3944 1.96979E+01 4.51044E-01 1.83508E-03 2.00237E-01-1.52491E-13 1.07227E-13
 -1      3945 1.98590E+01 2.84772E-01-1.20224E-03 1.47640E-01-5.56332E-14 2.24873E-13
 -1      3946 1.98354E+01 3.20474E-01 5.08324E-05 1.72322E-01-7.79722E-14 2.58882E-13
 -1      3947 1.97864E+01 3.64000E-01 1.41579E-03 1.54169E-01-1.33287E-13 4.00552E-14
 -1      3948 1.99063E+01 2.22556E-01-9.44795E-04 1.09970E-01-3.79211E-14 2.53284E-13
 -1      3949 1.98891E+01 2.52682E-01 7.87073E-05 1.29697E-01-3.81284E-15 2.83138E-13
 -1      3950 1.98531E+01 2.88615E-01 1.07902E-03 1.16836E-01-6.46694E-14 1.23463E-13
 -1      3951 1.99406E+01 1.70900E-01-7.33400E-04 8.02823E-02-8.15791E-14 1.53108E-13
 -1      3952 1.99285E+01 1.95769E-01 9.42324E-05 9.58109E-02-4.86867E-14 2.00761E-13
 -1      3953 1.99024E+01 2.24914E-01 8.10643E-04 8.69653E-02 5.97652E-15 1.28388E-13
 -1      3954 1.99651E+01 1.28879E-01-5.61144E-04 5.72560E-02-1.49316E-13 1.12685E-13
 -1      3955 1.99567E+01 1.49005E-01 9.92550E-05 6.92822E-02-1.20111E-13 1.21838E-13
 -1      3956 1.99383E+01 1.72235E-01 5.99044E-04 6.34183E-02-8.65315E-14 2.05415E-13
 -1      3957 1.99820E+01 9.53300E-02-4.22393E-04 3.97012E-02-3.05227E-14 2.32483E-14
 -1      3958 1.99765E+01 1.11321E-01 9.65907E-05 4.88545E-02-1.00745E-13-1.20485E-14
 -1      3959 1.99639E+01 1.29519E-01 4.34312E-04 4.51568E-02-4.66983E-14 4.01777E-14
 -1      3960 1.99933E+01 6.90221E-02-3.12164E-04 2.65642E-02 3.03671E-15 1.36763E-13
 -1      3961 1.99898E+01 8.15035E-02 8.89839E-05 3.34019E-02 7.88966E-15 1.05142E-13
 -1      3962 1.99815E+01 9.55119E-02 3.07865E-04 3.12406E-02-3.32344E-14 4.55860E-14
 -1      3963 2.00006E+01 4.87543E-02-2.25917E-04 1.69325E-02-1.69352E-14 1.57765E-13
 -1      3964 1.99985E+01 5.83249E-02 7.86879E-05 2.19364E-02 5.30527E-14 2.20593E-13
 -1      3965 1.99933E+01 6.89143E-02 2.12304E-04 2.08349E-02-2.51056E-14 1.23366E-13
 -1      3966 2.00049E+01 3.34201E-02-1.59525E-04 1.00333E-02 6.23347E-15-2.17738E-14
 -1      3967 2.00038E+01 4.06255E-02 6.73669E-05 1.36104E-02 7.36244E-15 8.65842E-14
 -1      3968 2.00008E+01 4.84770E-02 1.41315E-04 1.32150E-02 9.80402E-14 9.04045E-14
 -1      3969 2.00071E+01 2.20389E-02-1.09300E-04 5.22539E-03 3.81483E-14 8.43967E-15
 -1      3970 2.00068E+01 2.73583E-02 5.61471E-05 7.71244E-03-2.48555E-14-1.47873E-13
 -1      3971 2.00053E+01 3.30567E-02 8.95902E-05 7.76588E-03 5.33141E-14-6.17420E-14
 -1      3972 2.00080E+01 1.37680E-02-7.20177E-05 1.98806E-03-9.64442E-15 1.54356E-14
 -1      3973 2.00081E+01 1.76105E-02 4.57206E-05 3.65802E-03 1.26117E-14-5.27059E-14
 -1      3974 2.00076E+01 2.16457E-02 5.27375E-05 3.97732E-03 1.88757E-14-1.58503E-13
 -1      3975 2.00080E+01 7.90117E-03-4.49203E-05-9.38935E-05-2.03328E-13 8.39926E-14
 -1      3976 2.00083E+01 1.06074E-02 3.64572E-05 9.76087E-04-1.15126E-13-1.30963E-14
 -1      3977 2.00085E+01 1.33814E-02 2.71808E-05 1.43453E-03-7.07690E-14-1.58174E-13
 -1      3978 2.00075E+01 3.85920E-03-2.56983E-05-1.34525E-03-3.90048E-14 9.73550E-14
 -1      3979 2.00080E+01 5.70714E-03 2.85029E-05-7.05752E-04-1.45503E-13 1.00546E-13
 -1      3980 2.00085E+01 7.54287E-03 1.00546E-05-1.93073E-04-1.44129E-13-1.61117E-13
 -1      3981 2.00067E+01 1.17634E-03-1.24576E-05-2.01536E-03-1.14937E-14 9.44502E-14
 -1      3982 2.00072E+01 2.38842E-03 2.18577E-05-1.67645E-03 2.72328E-14 1.17100E-13
 -1      3983 2.00080E+01 3.54077E-03-9.00106E-07-1.16393E-03-3.87629E-14-7.10197E-14
 -1      3984 2.00058E+01-5.15133E-04-3.67324E-06-2.29202E-03 1.45715E-13 1.28034E-13
 -1      3985 2.00063E+01 2.35861E-04 1.64343E-05-2.15605E-03 5.36606E-14 9.79666E-14
 -1      3986 2.00071E+01 9.02334E-04-7.43611E-06-1.67630E-03 1.59735E-14-2.24015E-14
 -1      3987 2.00048E+01-1.50042E-03 1.85946E-06-2.31383E-03 8.48577E-14 2.21079E-13
 -1      3988 2.00053E+01-1.07558E-03 1.20992E-05-2.30885E-03 1.58863E-13 6.82461E-14
 -1      3989 2.00061E+01-7.44735E-04-1.08904E-05-1.87933E-03 1.91327E-13 1.31922E-13
 -1      3990 2.00039E+01-1.99684E-03 5.07547E-06-2.18072E-03 1.63658E-13 1.64278E-13
 -1      3991 2.00043E+01-1.79583E-03 8.70084E-06-2.25496E-03 1.79396E-13 1.65889E-13
 -1      3992 2.00051E+01-1.68847E-03-1.22654E-05-1.88290E-03 2.15647E-13 1.42514E-15
 -1      3993 2.00031E+01-2.16697E-03 6.68600E-06-1.96293E-03 1.56396E-13 1.55507E-13
 -1      3994 2.00035E+01-2.11362E-03 6.08748E-06-2.08009E-03 1.19003E-13 4.72257E-14
 -1      3995 2.00041E+01-2.14775E-03-1.22981E-05-1.76611E-03 2.22236E-13 7.94683E-14
 -1      3996 2.00024E+01-2.13011E-03 7.21859E-06-1.70816E-03 2.27673E-13 1.25742E-13
 -1      3997 2.00027E+01-2.16883E-03 4.11768E-06-1.84365E-03 2.36085E-13 6.52133E-14
 -1      3998 2.00033E+01-2.28589E-03-1.15192E-05-1.58440E-03 2.15074E-13-7.65818E-14
 -1      3999 2.00018E+01-1.97181E-03 7.11472E-06-1.44743E-03 1.38673E-13 1.23089E-14
 -1      4000 2.00021E+01-2.06305E-03 2.66277E-06-1.58527E-03 2.56336E-13 1.56413E-13
 -1      4001 2.00025E+01-2.22236E-03-1.02877E-05-1.37525E-03 2.46093E-13-1.45551E-13
 -1      4002 2.00013E+01-1.75254E-03 6.45453E-06-1.20015E-03-1.61190E-14 5.16844E-14
 -1      4003 2.00015E+01-1.86827E-03 1.59230E-06-1.33045E-03-1.46565E-14 4.12510E-14
 -1      4004 2.00019E+01-2.04215E-03-8.76462E-06-1.16286E-03 1.33124E-13-9.18668E-14
 -1      4005 2.00009E+01-1.51463E-03 4.68646E-06-9.77566E-04-5.89641E-14 7.97913E-14
 -1      4006 2.00011E+01-1.63548E-03 5.80752E-07-1.09352E-03-3.08830E-14 3.07777E-14
 -1      4007 2.00014E+01-1.80567E-03-7.01952E-06-9.63422E-04 3.75095E-14-4.49036E-14
 -1      4008 2.00007E+01-1.37519E-03 2.80225E-06-8.07659E-04-2.63480E-13 1.39166E-13
 -1      4009 2.00008E+01-1.45460E-03-1.65401E-06-9.00808E-04-1.34529E-13 5.76446E-14
 -1      4010 2.00011E+01-1.60553E-03-3.69054E-06-7.93688E-04-9.41819E-14-9.42161E-14
 -1      4011 2.00009E+01-1.45803E-03 1.20967E-06-6.57767E-04-1.46616E-13-1.81981E-13
 -1      4012 1.80040E+01 8.61194E-01-1.09157E-02 1.37197E+00-4.93457E-14-4.99206E-14
 -1      4013 1.78723E+01 7.90286E-01 7.62136E-03 1.59484E+00-1.24841E-13-8.81973E-14
 -1      4014 1.50755E+01 1.30087E+00 3.69976E-02 1.22497E+00-7.77499E-14 7.77169E-14
 -1      4015 1.54504E+01 1.31171E+00-4.03428E-03 7.99188E-01-6.35594E-14 2.17317E-14
 -1      4016 1.58065E+01 9.73225E-01-1.64509E-02 1.72564E+00-1.53860E-13 2.35870E-14
 -1      4017 1.55624E+01 1.33944E+00-1.44909E-02-3.80224E-01 5.72537E-14 1.19155E-13
 -1      4018 1.56799E+01 1.27916E+00 2.88860E-02-1.10831E+00 7.19277E-14 1.47709E-13
 -1      4019 1.66132E+01 1.03886E+00 1.28170E-02-1.38366E+00 1.06247E-13 7.08290E-14
 -1      4020 1.90496E+01 8.20508E-01-5.11799E-03 6.49562E-01-4.13435E-14 4.92613E-14
 -1      4021 1.89474E+01 8.59317E-01 8.26967E-04 7.33899E-01-8.86140E-14 8.51085E-14
 -1      4022 1.89987E+01 8.69375E-01 4.88686E-03 5.14477E-01-3.62714E-14 5.36563E-14
 -1      4023 1.76826E+01 6.48725E-01-1.39353E-02 1.84408E+00-1.28899E-13-1.04933E-13
 -1      4024 1.75820E+01 4.91777E-01 1.15896E-02 2.16042E+00-1.58021E-13-4.31675E-14
 -1      4025 1.70353E+01 6.34108E-01-7.99229E-04 2.11856E+00-1.34789E-13-9.72681E-15
 -1      4026 1.73291E+01 9.04768E-01-1.02133E-02 1.52157E+00-1.20030E-13-8.48769E-14
 -1      4027 1.87673E+01 8.85113E-01-6.95923E-03 8.20102E-01-8.35298E-14 9.18598E-14
 -1      4028 1.86497E+01 9.05772E-01 2.02015E-03 9.30124E-01 8.36554E-15 7.78730E-14
 -1      4029 1.86920E+01 9.61599E-01 6.26403E-03 6.50885E-01-5.15533E-14 1.57266E-13
 -1      4030 1.84219E+01 9.05098E-01-9.62065E-03 1.04888E+00-2.03022E-14 2.42028E-14
 -1      4031 1.82944E+01 8.94771E-01 4.04687E-03 1.19933E+00-4.20164E-14-8.11216E-15
 -1      4032 1.78152E+01 1.04065E+00 9.30008E-03 1.10083E+00-5.77303E-14-5.32584E-14
 -1      4033 1.96001E+01 5.34906E-01-2.38261E-03 3.24082E-01-5.16747E-14 2.39485E-14
 -1      4034 1.95457E+01 5.84708E-01-5.04138E-05 3.69173E-01-5.67732E-14-2.12645E-14
 -1      4035 1.94326E+01 6.54357E-01 3.00393E-03 3.25190E-01-5.19388E-14-6.86321E-14
 -1      4036 1.95821E+01 5.48678E-01 2.35542E-03 2.56560E-01-4.81534E-14 2.38880E-14
 -1      4037 2.00010E+01-1.58015E-03-3.83723E-07 5.29126E-04 3.31686E-13-5.65959E-13
 -1      4038 2.00008E+01-1.45223E-03-2.05272E-06 6.52160E-04 2.58506E-13-4.91331E-13
 -1      4039 1.83052E+01 1.02501E+00 7.87314E-03 8.36995E-01-6.31085E-14 3.67942E-14
 -1      4040 2.00012E+01-1.63861E-03 1.03066E-06-1.09782E-04 2.91516E-13 3.97607E-13
 -1      4041 2.00011E+01-1.61350E-03 4.23625E-07-2.68119E-04 3.49654E-13 7.10640E-14
 -1      4042 1.74044E+01 8.42851E-01 6.03227E-03-1.55162E+00 8.89074E-14 5.21905E-14
 -1      4043 1.61222E+01 1.31180E+00 7.13774E-03 6.06443E-01-7.98671E-14-1.98296E-14
 -1      4044 1.57393E+01 1.46219E+00 3.61873E-02 1.18582E-01-1.52481E-14 7.76354E-15
 -1      4045 1.62580E+01 1.32454E+00-3.98009E-03-4.14267E-01 1.59252E-14 4.56915E-14
 -1      4046 2.00011E+01-1.61507E-03 1.51066E-06 3.12905E-04 2.36606E-13-2.90795E-13
 -1      4047 2.00012E+01-1.63500E-03 2.84570E-06 1.18084E-04 1.78090E-13 1.10079E-13
 -1      4048 2.00014E+01-1.75286E-03 5.90522E-08 8.09803E-06 1.31768E-13 2.12234E-13
 -1      4049 2.00013E+01-1.71106E-03-1.26856E-06 4.54570E-04 2.37084E-13-2.94300E-13
 -1      4050 2.00010E+01-1.56485E-03 2.03339E-06-3.98708E-04 1.47188E-13-1.49413E-14
 -1      4051 2.00010E+01-1.51947E-03 9.42529E-07-5.41062E-04-4.69341E-15-2.87872E-14
 -1      4052 2.00011E+01-1.59144E-03 2.36181E-07-6.04914E-04-2.09953E-14 1.49096E-14
 -1      4053 2.00012E+01-1.69817E-03-2.70459E-06-3.60833E-04 2.02070E-13 2.37449E-13
 -1      4054 2.14124E+01-2.34850E+00 5.19975E-02 3.36107E+00-2.99398E-13-2.81535E-13
 -1      4055 1.98480E+01 2.78966E-01-1.13396E-03 8.18968E-02-5.86183E-14 1.48701E-14
 -1      4056 1.98200E+01 3.15139E-01-2.49031E-04 9.69002E-02-1.08571E-13-4.07404E-14
 -1      4057 1.76442E+01 1.05926E+00 2.80997E-03-9.05410E-01 8.38182E-14-4.23139E-14
 -1      4058 1.78483E+01 1.04290E+00-1.56902E-02-7.60609E-01 7.57300E-14 2.02083E-14
 -1      4059 1.82114E+01 1.06430E+00-1.03606E-02 5.71619E-01-1.13175E-13 3.80186E-14
 -1      4060 1.79991E+01 1.10245E+00-1.77660E-03 6.62815E-01-4.94801E-14-8.66643E-16
 -1      4061 1.81536E+01 1.03435E+00-6.12574E-04-6.57367E-01 3.31873E-14-3.08033E-15
 -1      4062 1.83388E+01 1.00244E+00-9.29482E-03-5.57605E-01 1.10756E-14 5.48257E-14
 -1      4063 1.78599E+01 1.17758E+00 2.03089E-02-4.80357E-01 5.49482E-14-1.06399E-13
 -1      4064 1.85668E+01 9.69307E-01-1.26601E-03-4.89257E-01-5.21953E-14 7.17150E-14
 -1      4065 1.87186E+01 9.24837E-01-6.48491E-03-4.18965E-01-8.05788E-14 9.94883E-14
 -1      4066 1.83633E+01 1.08145E+00 1.63266E-02-3.48387E-01-4.77374E-15-3.92074E-14
 -1      4067 1.88938E+01 8.80485E-01-1.20654E-03-3.70333E-01-1.97917E-13 9.15291E-14
 -1      4068 1.90169E+01 8.28828E-01-4.65500E-03-3.18562E-01-1.80968E-13 4.03888E-14
 -1      4069 1.87440E+01 9.72179E-01 1.20545E-02-2.57277E-01-1.65504E-13 5.90702E-14
 -1      4070 1.91537E+01 7.78172E-01-1.10419E-03-2.83006E-01-1.29066E-13-1.86953E-14
 -1      4071 1.92530E+01 7.23734E-01-3.43528E-03-2.43534E-01-1.83276E-13-7.04825E-14
 -1      4072 1.90412E+01 8.55464E-01 9.01171E-03-1.91856E-01-1.99560E-13 3.44622E-14
 -1      4073 1.93601E+01 6.71178E-01-9.72177E-04-2.17061E-01-1.92101E-13-4.15953E-14
 -1      4074 1.94396E+01 6.17411E-01-2.58589E-03-1.86251E-01-1.21562E-13-6.87087E-14
 -1      4075 1.92750E+01 7.37221E-01 6.84076E-03-1.43949E-01-1.30726E-13-2.62800E-14
 -1      4076 1.95234E+01 5.66249E-01-8.27354E-04-1.66284E-01-7.45211E-14-3.38618E-14
 -1      4077 1.95862E+01 5.15638E-01-1.96988E-03-1.41899E-01-7.30307E-15-1.10576E-13
 -1      4078 1.94588E+01 6.22748E-01 5.24063E-03-1.08230E-01-9.84682E-14 1.30898E-13
 -1      4079 1.96512E+01 4.68105E-01-6.83352E-04-1.26726E-01 3.91811E-14-1.55530E-13
 -1      4080 1.97002E+01 4.22235E-01-1.50784E-03-1.07316E-01 6.02513E-14-1.11840E-13
 -1      4081 1.96024E+01 5.16109E-01 4.02463E-03-8.12303E-02 1.02647E-16 3.76699E-14
 -1      4082 1.97501E+01 3.79660E-01-5.49217E-04-9.57602E-02 8.33382E-14-7.30009E-14
 -1      4083 1.97877E+01 3.39363E-01-1.15280E-03-8.03208E-02 1.57871E-13 1.68963E-15
 -1      4084 1.97135E+01 4.19977E-01 3.08068E-03-6.06460E-02 1.25687E-13 4.47944E-15
 -1      4085 1.98256E+01 3.02355E-01-4.30133E-04-7.15391E-02 1.27314E-13 4.83368E-14
 -1      4086 1.98539E+01 2.67882E-01-8.76125E-04-5.93245E-02 1.28544E-13 1.82280E-14
 -1      4087 1.97984E+01 3.35746E-01 2.33971E-03-4.48969E-02 1.47241E-13-5.76489E-14
 -1      4088 1.98822E+01 2.36525E-01-3.28376E-04-5.26894E-02 3.30105E-14-1.98942E-14
 -1      4089 1.99031E+01 2.07712E-01-6.59353E-04-4.31104E-02-1.60023E-14-8.77159E-14
 -1      4090 1.98623E+01 2.63764E-01 1.75661E-03-3.28566E-02-1.69996E-14-1.79568E-13
 -1      4091 1.99238E+01 1.81736E-01-2.44188E-04-3.81417E-02-8.62977E-14-1.37263E-13
 -1      4092 1.99390E+01 1.58154E-01-4.89765E-04-3.07136E-02-7.70850E-14-1.90191E-13
 -1      4093 1.99096E+01 2.03609E-01 1.29950E-03-2.36920E-02-9.62527E-14-2.44719E-13
 -1      4094 1.99538E+01 1.37071E-01-1.76496E-04-2.70363E-02-8.65697E-14-2.18065E-13
 -1      4095 1.99645E+01 1.18142E-01-3.57938E-04-2.13517E-02-1.07926E-13-2.68108E-13
 -1      4096 1.99439E+01 1.54355E-01 9.44168E-04-1.67679E-02-1.45772E-13-2.60274E-13
 -1      4097 1.99749E+01 1.01355E-01-1.23485E-04-1.86698E-02-3.66511E-14-3.72106E-13
 -1      4098 1.99822E+01 8.64387E-02-2.56481E-04-1.43842E-02-5.44309E-15-3.67190E-13
 -1      4099 1.99681E+01 1.14789E-01 6.71165E-04-1.15895E-02-1.07177E-13-3.34273E-13
 -1      4100 1.99892E+01 7.33168E-02-8.30171E-05-1.24631E-02 5.47742E-15-3.51883E-13
 -1      4101 1.99940E+01 6.17757E-02-1.79383E-04-9.28646E-03 2.46777E-14-3.12737E-13
 -1      4102 1.99848E+01 8.35821E-02 4.64380E-04-7.76591E-03 2.02214E-14-3.88978E-13
 -1      4103 1.99985E+01 5.17051E-02-5.29126E-05-7.94061E-03 5.98507E-14-2.88414E-13
 -1      4104 2.00015E+01 4.29389E-02-1.21669E-04-5.63115E-03 9.85819E-14-2.88595E-13
 -1      4105 1.99958E+01 5.94085E-02 3.10322E-04-4.98645E-03 2.69244E-14-2.92752E-13
 -1      4106 2.00042E+01 3.53545E-02-3.11281E-05-4.71452E-03 1.79684E-13-3.13119E-13
 -1      4107 2.00059E+01 2.88240E-02-7.92135E-05-3.07318E-03 2.36372E-13-2.11457E-13
 -1      4108 2.00027E+01 4.10228E-02 1.97712E-04-3.00416E-03 1.56156E-13-3.36132E-13
 -1      4109 2.00074E+01 2.32258E-02-1.58503E-05-2.47187E-03 1.59921E-13-2.27169E-13
 -1      4110 2.00082E+01 1.84627E-02-4.86110E-05-1.33710E-03 1.62611E-13-6.06721E-14
 -1      4111 2.00067E+01 2.73054E-02 1.17212E-04-1.62340E-03 1.93494E-13-3.15093E-13
 -1      4112 2.00088E+01 1.44218E-02-5.53603E-06-9.63201E-04 1.88846E-14-1.61363E-13
 -1      4113 2.00090E+01 1.10303E-02-2.70813E-05-2.05803E-04-6.32075E-14-2.38519E-13
 -1      4114 2.00086E+01 1.72826E-02 6.11911E-05-6.90279E-04 8.68650E-15-4.76685E-13
 -1      4115 2.00091E+01 8.18806E-03 1.08577E-06 7.70943E-06-1.13283E-13-2.64048E-13
 -1      4116 2.00089E+01 5.84137E-03-1.23839E-05 4.89428E-04-9.67493E-14-2.97032E-13
 -1      4117 2.00092E+01 1.01309E-02 2.35046E-05-8.48822E-05-9.90993E-14-5.30500E-13
 -1      4118 2.00087E+01 3.90457E-03 5.03271E-06 5.92930E-04-3.25993E-14-3.56138E-13
 -1      4119 2.00083E+01 2.33871E-03-2.73923E-06 8.77763E-04 4.65299E-14-3.38990E-13
 -1      4120 2.00090E+01 5.16948E-03-7.14848E-07 2.85200E-04-1.15587E-13-4.73633E-13
 -1      4121 2.00078E+01 1.07234E-03 7.09912E-06 9.08505E-04-3.81836E-14-3.47908E-13
 -1      4122 2.00073E+01 7.79361E-05 3.24460E-06 1.05648E-03-1.28559E-13-4.17425E-13
 -1      4123 2.00083E+01 1.84741E-03-1.52599E-05 4.90256E-04-2.06402E-14-6.41979E-13
 -1      4124 2.00068E+01-7.02788E-04 7.89029E-06 1.04150E-03-1.28344E-13-4.54038E-13
 -1      4125 2.00063E+01-1.28872E-03 6.63893E-06 1.09753E-03 4.45837E-14-4.99079E-13
 -1      4126 2.00073E+01-2.72763E-04-2.30352E-05 5.82968E-04-7.36189E-14-3.76487E-13
 -1      4127 2.00058E+01-1.72647E-03 7.85638E-06 1.05602E-03 1.75250E-13-4.20370E-13
 -1      4128 2.00052E+01-2.02850E-03 8.25485E-06 1.05306E-03 1.46881E-13-3.39439E-13
 -1      4129 2.00062E+01-1.53202E-03-2.62242E-05 6.02157E-04 1.62276E-13-3.57043E-13
 -1      4130 2.00047E+01-2.23142E-03 7.32373E-06 9.98277E-04 1.83327E-13-2.75159E-13
 -1      4131 2.00043E+01-2.34303E-03 8.69671E-06 9.59968E-04 1.51440E-13-2.56730E-13
 -1      4132 2.00051E+01-2.19138E-03-2.64345E-05 5.75883E-04 2.44983E-13-2.28352E-13
 -1      4133 2.00038E+01-2.39158E-03 6.52219E-06 9.00772E-04 4.33129E-14-1.42709E-13
 -1      4134 2.00034E+01-2.38154E-03 8.41049E-06 8.43585E-04 7.50509E-14-1.20508E-13
 -1      4135 2.00042E+01-2.44697E-03-2.48145E-05 5.23985E-04 1.96675E-13-9.61763E-14
 -1      4136 2.00030E+01-2.33447E-03 5.60085E-06 7.85635E-04 1.12935E-13 6.90867E-14
 -1      4137 2.00026E+01-2.25229E-03 7.68671E-06 7.20599E-04 2.39903E-13 1.15157E-13
 -1      4138 2.00033E+01-2.44330E-03-2.21214E-05 4.60190E-04 2.71002E-13 2.30994E-13
 -1      4139 2.00022E+01-2.15207E-03 4.50902E-06 6.66556E-04 3.17919E-14 9.59829E-16
 -1      4140 2.00019E+01-2.03040E-03 7.39164E-06 6.01157E-04-1.18393E-13-2.41651E-13
 -1      4141 2.00025E+01-2.28450E-03-1.85799E-05 3.93820E-04-1.87701E-14 2.26528E-13
 -1      4142 2.00017E+01-1.94069E-03 2.00661E-06 5.53447E-04-1.72395E-14-2.81424E-13
 -1      4143 2.00015E+01-1.80928E-03 3.43215E-06 4.92751E-04 1.32426E-13-3.83739E-13
 -1      4144 2.00015E+01-1.85437E-03-5.19600E-06 2.63994E-04 3.51632E-14-1.45686E-13
 -1      4145 2.00019E+01-2.07349E-03-1.27561E-05 3.27990E-04-1.18598E-13 2.05890E-14
 -1      4146 1.92150E+01 7.56857E-01-3.83552E-03 2.86739E-01-6.77661E-14 3.03795E-14
 -1      4147 1.91084E+01 8.15456E-01-1.37459E-03 3.25931E-01-3.23663E-14 6.08218E-14
 -1      4148 1.86340E+01 9.75431E-01-7.16107E-03 4.49220E-01-4.10312E-14-4.30657E-14
 -1      4149 1.84638E+01 1.02579E+00-2.02576E-03 5.14040E-01-6.82626E-14 2.33901E-14
 -1      4150 1.82438E+01 1.13920E+00 1.94709E-02 3.57527E-01-6.52577E-14-1.45136E-13
 -1      4151 1.97793E+01 3.53208E-01-1.44361E-03 1.08355E-01-5.24575E-14-5.02863E-15
 -1      4152 1.97417E+01 3.95546E-01-3.84926E-04 1.26763E-01-8.54008E-14 5.51343E-14
 -1      4153 1.97870E+01 3.52287E-01 2.74150E-03 7.20352E-02-5.67368E-14-1.03771E-13
 -1      4154 1.96881E+01 4.39490E-01-1.82689E-03 1.40940E-01-1.28070E-13 1.47841E-13
 -1      4155 1.96383E+01 4.87805E-01-5.63863E-04 1.63245E-01-7.92601E-14 2.01189E-13
 -1      4156 1.96978E+01 4.40018E-01 3.61667E-03 9.33433E-02-4.28597E-14 7.91407E-14
 -1      4157 1.98989E+01 2.16558E-01-8.81724E-04 6.07238E-02-3.83466E-14 1.96292E-14
 -1      4158 1.98785E+01 2.46781E-01-1.49696E-04 7.27714E-02 1.17950E-14 1.43555E-14
 -1      4159 1.98541E+01 2.77286E-01 2.05734E-03 5.45967E-02-3.79674E-14-1.29613E-13
 -1      4160 1.99360E+01 1.65180E-01-6.76640E-04 4.40537E-02-1.39815E-13 1.56856E-13
 -1      4161 1.99214E+01 1.89926E-01-7.97973E-05 5.35714E-02-9.77503E-14 1.32375E-13
 -1      4162 1.99037E+01 2.14550E-01 1.52320E-03 4.05579E-02-1.51946E-13-1.53555E-14
 -1      4163 1.99623E+01 1.23687E-01-5.11247E-04 3.11556E-02-6.87943E-15 6.38157E-15
 -1      4164 1.99522E+01 1.43571E-01-3.26080E-05 3.85463E-02-4.88031E-14 7.49561E-14
 -1      4165 1.99397E+01 1.63108E-01 1.10890E-03 2.94556E-02-8.19296E-14-3.64017E-14
 -1      4166 1.99806E+01 9.07817E-02-3.79457E-04 2.13596E-02-8.02245E-14 1.00810E-13
 -1      4167 1.99738E+01 1.06474E-01-2.31253E-06 2.69956E-02-4.15125E-14 1.15061E-13
 -1      4168 1.99652E+01 1.21709E-01 7.90821E-04 2.08382E-02-8.69808E-14 4.49766E-14
 -1      4169 1.99929E+01 6.51444E-02-2.75938E-04 1.40666E-02-3.19455E-14 6.53211E-14
 -1      4170 1.99884E+01 7.73110E-02 1.58303E-05 1.82822E-02-2.64214E-14 1.35153E-13
 -1      4171 1.99827E+01 8.89831E-02 5.49790E-04 1.42793E-02-6.21859E-14 1.51105E-13
 -1      4172 2.00007E+01 4.55228E-02-1.95908E-04 8.75528E-03 1.11124E-13 4.71353E-15
 -1      4173 1.99980E+01 5.47884E-02 2.55215E-05 1.18426E-02 1.05235E-13 1.05203E-13
 -1      4174 1.99944E+01 6.35667E-02 3.69957E-04 9.38995E-03 1.19376E-14 2.98865E-14
 -1      4175 2.00053E+01 3.07806E-02-1.35097E-04 4.98345E-03 1.12434E-14-5.22274E-14
 -1      4176 2.00039E+01 3.77054E-02 2.95515E-05 7.19114E-03 5.64853E-14-4.51703E-14
 -1      4177 2.00018E+01 4.41770E-02 2.38188E-04 5.82718E-03 7.90340E-14-2.55931E-14
 -1      4178 2.00078E+01 1.99224E-02-8.97492E-05 2.38455E-03 3.01778E-14-1.11524E-13
 -1      4179 2.00072E+01 2.49931E-02 2.99619E-05 3.91922E-03 3.25120E-14-1.33675E-13
 -1      4180 2.00061E+01 2.96592E-02 1.43660E-04 3.29738E-03 4.32480E-14-4.33464E-14
 -1      4181 2.00087E+01 1.21007E-02-5.66301E-05 6.61369E-04-8.86234E-14-1.38661E-13
 -1      4182 2.00087E+01 1.57290E-02 2.82048E-05 1.69116E-03 2.74675E-14-6.31705E-14
 -1      4183 2.00083E+01 1.90071E-02 7.75519E-05 1.55573E-03 1.45929E-14-8.07765E-14
 -1      4184 2.00087E+01 6.61060E-03-3.30127E-05-4.22185E-04-1.42791E-13-9.42351E-14
 -1      4185 2.00090E+01 9.13677E-03 2.52827E-05 2.36744E-04-1.07720E-13-1.64267E-13
 -1      4186 2.00091E+01 1.13677E-02 3.27722E-05 4.02905E-04-5.33763E-14-1.47074E-13
 -1      4187 2.00082E+01 2.87803E-03-1.66445E-05-1.05000E-03-2.88084E-14-1.12325E-13
 -1      4188 2.00086E+01 4.57780E-03 2.18650E-05-6.57139E-04-1.44970E-13-1.10912E-13
 -1      4189 2.00090E+01 6.03422E-03 3.70144E-06-3.19824E-04-1.24878E-13 2.27974E-14
 -1      4190 2.00073E+01 4.44503E-04-5.70214E-06-1.36250E-03 9.40417E-15-6.04086E-14
 -1      4191 2.00078E+01 1.53698E-03 1.83794E-05-1.15533E-03 5.83407E-14-5.14426E-14
 -1      4192 2.00083E+01 2.43292E-03-1.40427E-05-7.36281E-04-3.13831E-14 2.33703E-14
 -1      4193 2.00063E+01-1.04967E-03 1.26325E-06-1.46477E-03 2.42122E-13 1.90083E-14
 -1      4194 2.00068E+01-3.93453E-04 1.50830E-05-1.38286E-03 1.09033E-13-6.76821E-15
 -1      4195 2.00074E+01 1.07088E-04-2.38219E-05-9.41090E-04 6.80275E-14-1.23747E-15
 -1      4196 2.00053E+01-1.88165E-03 5.38184E-06-1.43378E-03 8.78772E-14 1.33341E-13
 -1      4197 2.00058E+01-1.53054E-03 1.21155E-05-1.43261E-03 2.49844E-13 9.08444E-14
 -1      4198 2.00063E+01-1.30046E-03-2.81699E-05-1.00507E-03 1.52036E-13 1.06971E-13
 -1      4199 2.00043E+01-2.26116E-03 7.52071E-06-1.32455E-03 3.45808E-13 5.90148E-14
 -1      4200 2.00047E+01-2.11644E-03 9.53806E-06-1.37208E-03 2.28806E-13 1.08046E-13
 -1      4201 2.00052E+01-2.06407E-03-2.89594E-05-9.80077E-04 2.09861E-13 1.89570E-13
 -1      4202 2.00034E+01-2.34400E-03 8.33678E-06-1.17527E-03 3.05627E-13 9.74238E-15
 -1      4203 2.00038E+01-2.33272E-03 7.36315E-06-1.24909E-03 3.42093E-13 7.51364E-14
 -1      4204 2.00043E+01-2.39065E-03-2.75415E-05-9.03143E-04 4.23231E-13-2.26932E-14
 -1      4205 2.00026E+01-2.24365E-03 8.31196E-06-1.01150E-03 1.55632E-13-1.11056E-13
 -1      4206 2.00030E+01-2.31303E-03 5.57372E-06-1.09650E-03 2.88601E-13-8.12191E-14
 -1      4207 2.00034E+01-2.43334E-03-2.48516E-05-8.00037E-04 3.36841E-13 1.05359E-13
 -1      4208 2.00020E+01-2.04092E-03 7.51896E-06-8.49256E-04 8.72064E-14 4.99139E-14
 -1      4209 2.00023E+01-2.15386E-03 4.11451E-06-9.35747E-04 1.12534E-13-1.62881E-14
 -1      4210 2.00026E+01-2.30320E-03-2.14073E-05-6.88144E-04 7.56638E-14 4.22632E-14
 -1      4211 1.70016E+01 1.05634E+00-1.66640E-02-1.10311E+00 5.46110E-14 4.10953E-14
 -1      4212 1.89604E+01 8.69821E-01-5.13906E-03 3.58279E-01-5.44888E-14-2.81784E-14
 -1      4213 1.88255E+01 9.26452E-01-1.71331E-03 4.07407E-01-6.01125E-14-3.93977E-14
 -1      4214 1.89832E+01 8.96139E-01 1.08997E-02 2.30606E-01-6.28727E-14-7.05883E-14
 -1      4215 1.69788E+01 1.22297E+00 1.27997E-02-7.51025E-01 4.50573E-14 6.83659E-14
 -1      4216 1.76608E+01 1.12300E+00-1.48022E-02 7.50361E-01-3.71311E-14-3.22175E-14
 -1      4217 1.74322E+01 1.14748E+00 6.87014E-03 8.79769E-01-9.07907E-14-5.19864E-14
 -1      4218 1.76792E+01 1.23534E+00 1.91633E-02 4.55183E-01-7.34462E-14-3.11225E-14
 -1      4219 1.69162E+01 1.27845E+00-9.95865E-03-2.89807E-01-3.28830E-14-5.73134E-14
 -1      4220 1.86619E+01 1.02074E+00 1.47045E-02 2.85777E-01-5.14235E-14-2.20662E-13
 -1      4221 2.00014E+01-1.79333E-03 3.93863E-06-6.97898E-04 9.30003E-15 7.99057E-14
 -1      4222 2.00017E+01-1.92110E-03 3.14460E-06-7.78773E-04-2.54587E-14 9.99710E-14
 -1      4223 2.00012E+01-1.66067E-03 1.74511E-06-6.74828E-04 6.76477E-14 6.57703E-14
 -1      4224 1.94139E+01 6.44106E-01-2.95014E-03 2.28589E-01-1.38617E-14 7.84901E-14
 -1      4225 1.93302E+01 7.01359E-01-1.06259E-03 2.60807E-01-3.80631E-14 6.12707E-14
 -1      4226 1.92335E+01 7.71423E-01 8.18247E-03 1.86312E-01-6.95754E-14 1.28372E-13
 -1      4227 1.66951E+01 1.24340E+00 7.11855E-03 8.63580E-01-8.02229E-14 7.76918E-15
 -1      4228 1.67789E+01 1.10082E+00-2.54513E-03 1.26403E+00-1.08500E-13 1.83397E-14
 -1      4229 1.65254E+01 8.42939E-01 2.23303E-02 1.96622E+00-1.15130E-13-1.73798E-16
 -1      4230 1.66012E+01 1.00183E+00 8.02647E-03 1.55970E+00-9.27947E-14 1.37993E-14
 -1      4231 1.67963E+01 1.29477E+00-1.74531E-02 2.62611E-01-5.81991E-14-5.80033E-14
 -1      4232 2.00019E+01-2.07734E-03-1.58719E-05-5.78436E-04-1.42328E-14 1.67170E-13
 -1      4233 1.95686E+01 5.37114E-01-2.31196E-03 1.80609E-01-1.32678E-13 1.58061E-13
 -1      4234 1.95037E+01 5.90647E-01-7.89952E-04 2.07419E-01-6.08488E-14 1.07069E-13
 -1      4235 1.95807E+01 5.40193E-01 4.74270E-03 1.19022E-01-1.64862E-13 2.23664E-13
 -1      4236 2.00016E+01-1.84978E-03 4.43687E-06 2.97341E-05 6.48498E-14 2.99079E-13
 -1      4237 2.00014E+01-1.79023E-03-3.99884E-06-5.00149E-04 1.30082E-14 2.86780E-13
 -1      4238 1.98491E+01 2.66967E-01-1.50530E-03 6.03182E-03-1.45845E-14-1.58809E-13
 -1      4239 1.98187E+01 3.02305E-01-1.23767E-03 1.17301E-02 2.86678E-14-1.94106E-13
 -1      4240 1.99000E+01 2.06372E-01-1.13165E-03 4.70275E-03-1.83164E-13-1.90028E-13
 -1      4241 1.98777E+01 2.35697E-01-8.96536E-04 9.34754E-03-1.14769E-13-1.86976E-13
 -1      4242 2.00015E+01-1.84315E-03-3.22397E-06-3.71461E-04 9.00010E-14 3.67861E-13
 -1      4243 1.73578E+01 1.24553E+00-2.39305E-03-4.49537E-02-5.33566E-14-8.34069E-14
 -1      4244 2.00020E+01-2.04228E-03 9.31858E-06-9.49211E-05-1.40681E-13 2.52818E-13
 -1      4245 2.00023E+01-2.16628E-03 1.00480E-05-1.26047E-04-1.84673E-13 1.32860E-13
 -1      4246 1.82105E+01 1.08152E+00-1.32897E-02-3.47560E-02 4.74029E-15-2.38851E-13
 -1      4247 1.84394E+01 1.03478E+00-1.03343E-02 2.68144E-03-3.65571E-14-1.68031E-13
 -1      4248 1.86333E+01 9.74537E-01-1.00104E-02-1.45566E-02-6.78070E-14-1.50333E-13
 -1      4249 1.88106E+01 9.21633E-01-7.56700E-03 1.21845E-02-1.60955E-13-1.02719E-13
 -1      4250 1.89606E+01 8.59284E-01-7.45084E-03-2.08691E-03-1.87014E-13 2.12774E-14
 -1      4251 1.90991E+01 8.03387E-01-5.54937E-03 1.70378E-02-1.34360E-13 1.92739E-14
 -1      4252 1.92156E+01 7.41679E-01-5.63009E-03 4.79476E-03-9.40531E-14 9.78954E-14
 -1      4253 1.93241E+01 6.86008E-01-4.10711E-03 1.86760E-02-9.06004E-14 1.34588E-13
 -1      4254 1.94146E+01 6.27325E-01-4.31421E-03 7.98084E-03-1.41192E-13 1.74586E-13
 -1      4255 1.94995E+01 5.74407E-01-3.05671E-03 1.82156E-02-1.02423E-13 1.32927E-13
 -1      4256 1.95695E+01 5.20507E-01-3.33027E-03 8.87195E-03-8.19129E-14 8.69000E-14
 -1      4257 1.96353E+01 4.72071E-01-2.27556E-03 1.65169E-02-4.59481E-14 3.92652E-14
 -1      4258 1.96890E+01 4.24038E-01-2.57226E-03 8.44746E-03 2.01547E-14-2.41394E-14
 -1      4259 1.97396E+01 3.81079E-01-1.68597E-03 1.42108E-02 6.37984E-14-4.45472E-14
 -1      4260 1.97803E+01 3.39392E-01-1.97692E-03 7.36217E-03 6.80284E-14-1.30745E-13
 -1      4261 1.99211E+01 1.80560E-01-6.38117E-04 7.21543E-03-1.33245E-13-1.71017E-13
 -1      4262 1.99371E+01 1.56699E-01-8.37392E-04 3.50625E-03-1.02435E-13-1.67029E-13
 -1      4263 1.99522E+01 1.35806E-01-4.44039E-04 5.40141E-03-1.13204E-13-1.80457E-13
 -1      4264 1.99634E+01 1.16746E-01-6.07988E-04 2.49924E-03-1.36577E-13-1.37915E-13
 -1      4265 1.99740E+01 1.00146E-01-3.00029E-04 3.91794E-03-7.88866E-14-2.19554E-13
 -1      4266 1.99816E+01 8.51920E-02-4.31463E-04 1.69345E-03 4.00888E-14-1.64489E-13
 -1      4267 1.99888E+01 7.22381E-02-1.94792E-04 2.74470E-03 4.40176E-14-1.71442E-13
 -1      4268 1.99937E+01 6.07129E-02-2.97691E-04 1.07548E-03 3.91778E-14-2.07066E-13
 -1      4269 1.99984E+01 5.07853E-02-1.19315E-04 1.84438E-03 5.84945E-14-1.66776E-13
 -1      4270 2.00015E+01 4.20641E-02-1.98071E-04 6.19913E-04 5.43594E-14-1.17670E-13
 -1      4271 2.00043E+01 3.45965E-02-6.64175E-05 1.17325E-03 1.09169E-13-2.18662E-13
 -1      4272 2.00060E+01 2.81239E-02-1.25343E-04 2.97435E-04 1.31773E-13-2.52349E-13
 -1      4273 2.00075E+01 2.26182E-02-3.04113E-05 6.87666E-04 5.63345E-14-2.90271E-13
 -1      4274 2.00083E+01 1.79161E-02-7.34602E-05 7.94807E-05 5.19871E-14-2.62943E-13
 -1      4275 2.00090E+01 1.39462E-02-6.83424E-06 3.47701E-04-1.25218E-15-3.92081E-13
 -1      4276 2.00092E+01 1.06130E-02-3.74650E-05-5.93700E-05-6.33700E-14-3.35504E-13
 -1      4277 2.00093E+01 7.82392E-03 7.77191E-06 1.18845E-04-1.45118E-13-3.04167E-13
 -1      4278 2.00091E+01 5.52986E-03-1.33576E-05-1.40444E-04-1.30422E-13-2.06901E-13
 -1      4279 2.00089E+01 3.63177E-03 1.60509E-05-2.75162E-05-7.73755E-14-2.06910E-13
 -1      4280 2.00085E+01 2.11148E-03 2.03203E-06-1.80860E-04-7.59137E-14-2.16077E-13
 -1      4281 2.00080E+01 8.72509E-04 1.99928E-05-1.14329E-04 2.06538E-14-2.59967E-13
 -1      4282 2.00075E+01-8.36383E-05 1.11737E-05-1.93871E-04 9.20061E-14-2.05513E-13
 -1      4283 2.00070E+01-8.45610E-04 2.10697E-05-1.59482E-04 6.66724E-14-4.87434E-14
 -1      4284 2.00065E+01-1.40022E-03 1.59568E-05-1.89404E-04 7.79063E-14 9.56917E-15
 -1      4285 2.00059E+01-1.82567E-03 2.03490E-05-1.76557E-04 2.87396E-13-5.54349E-14
 -1      4286 2.00054E+01-2.10263E-03 1.77987E-05-1.74662E-04 3.57964E-13-1.82128E-13
 -1      4287 2.00049E+01-2.29795E-03 1.85844E-05-1.75604E-04 3.03483E-13-1.44987E-13
 -1      4288 2.00044E+01-2.38991E-03 1.77346E-05-1.54701E-04 3.27562E-13-1.21924E-13
 -1      4289 2.00039E+01-2.43417E-03 1.62808E-05-1.63857E-04 4.37451E-13-2.22761E-14
 -1      4290 2.00035E+01-2.40912E-03 1.64672E-05-1.32980E-04 2.92831E-13 7.85991E-14
 -1      4291 2.00030E+01-2.35994E-03 1.36809E-05-1.46349E-04 2.17670E-13 1.24094E-13
 -1      4292 2.00027E+01-2.26693E-03 1.42481E-05-1.11901E-04 8.30182E-14 1.60375E-13
 -1      4293 1.79583E+01 1.13703E+00-1.33847E-02-1.27125E-02 2.09969E-14-1.83413E-13
 -1      4294 1.76599E+01 1.18291E+00-1.36676E-02-6.23923E-02-1.49271E-14-1.57696E-13
 -1      4295 2.00018E+01-1.94796E-03 5.17078E-06-1.15060E-04-5.38123E-14 2.15038E-13
 -1      4296 1.94288E+01 6.51505E-01 6.21340E-03 1.49691E-01-1.04952E-13 1.98614E-13
 -3
    1PSTEP                         3           1           1          
  100CL  101 1.000000000        4296                     0    1           1
 -4  TOSTRAIN    6    1
 -5  EXX         1    4    1    1
 -5  EYY         1    4    2    2
 -5  EZZ         1    4    3    3
 -5  EXY         1    4    1    2
 -5  EYZ         1    4    2    3
 -5  EZX         1    4    3    1
 -1         1 2.87914E-04-8.90938E-05-7.36607E-05-1.18665E-06-2.48075E-19-4.68107E-18
 -1         2 2.94673E-05-8.83883E-05 1.39329E-05 5.04949E-07 2.07608E-18 2.43151E-19
 -1         3 9.52372E-05-2.85711E-05-2.85713E-05 2.10314E-11 1.35154E-18 2.26086E-19
 -1         4 9.52372E-05-2.85711E-05-2.85713E-05-2.12461E-11 5.94744E-19 1.37594E-18
 -1         5 1.91898E-04-2.85187E-05-5.69873E-05 5.01272E-05-1.70677E-19 2.15472E-17
 -1         6 1.88069E-04 3.31556E-10-5.68822E-05-6.87218E-05-1.61360E-18 1.88884E-17
 -1         7 1.15011E-04-1.62612E-06-4.91077E-05-3.65799E-05-1.65595E-19 1.76220E-18
 -1         8 1.04192E-04 5.99937E-08-4.43716E-05-2.42650E-05-1.81106E-19-3.13742E-18
 -1         9 9.85873E-05-1.91391E-07-4.15406E-05-1.56776E-05-6.67568E-20-4.97592E-18
 -1        10 9.18907E-05-3.80634E-07-3.83193E-05-6.09012E-06 4.54221E-20-5.52731E-18
 -1        11 8.12921E-05-3.75326E-07-3.37508E-05 3.88886E-06 1.58501E-19-5.52480E-18
 -1        12 6.60333E-05-5.28243E-08-2.77790E-05 1.14118E-05 2.37381E-19-5.31229E-18
 -1        13 4.86163E-05 5.63476E-07-2.14486E-05 1.29080E-05 2.51886E-19-5.18943E-18
 -1        14 3.61952E-05 1.13832E-06-1.71289E-05 6.78554E-06 1.21496E-19-5.16164E-18
 -1        15 3.46513E-05 1.13970E-06-1.66195E-05-1.47942E-06-1.61466E-21-5.17351E-18
 -1        16 4.20246E-05 7.87168E-07-1.91809E-05-8.48878E-06-1.08103E-19-5.21408E-18
 -1        17 5.63565E-05 2.94371E-07-2.42795E-05-1.09318E-05-1.32137E-19-5.13698E-18
 -1        18 7.41157E-05-1.98818E-07-3.09513E-05-6.48789E-06-6.57509E-20-4.71922E-18
 -1        19 8.85340E-05-3.63221E-07-3.68497E-05 2.72030E-06 5.72806E-20-3.86761E-18
 -1        20 9.85814E-05-2.35868E-07-4.13961E-05 1.29937E-05 1.48972E-19-2.24609E-18
 -1        21 1.06731E-04 4.65472E-08-4.53141E-05 2.26456E-05 2.47969E-19 8.79121E-19
 -1        22 1.19397E-04-1.39947E-07-5.04762E-05 3.42706E-05 3.33519E-20 7.15118E-18
 -1        23 1.45413E-04-4.91843E-05-4.54037E-05-3.29864E-06-9.65670E-19 1.40226E-17
 -1        24 1.17583E-04-3.51653E-05-3.65069E-05 4.36869E-07-2.40849E-19 9.46670E-18
 -1        25 1.06858E-04-3.21966E-05-3.21857E-05-3.21484E-08-1.55176E-19 5.44573E-18
 -1        26 9.79626E-05-2.94998E-05-2.94421E-05-2.82736E-07-4.34468E-20 2.82453E-18
 -1        27 9.14916E-05-2.75202E-05-2.76560E-05-1.80763E-07 5.30537E-20 9.74988E-19
 -1        28 8.89606E-05-2.67320E-05-2.69751E-05 1.16773E-07-1.44475E-20-1.39211E-19
 -1        29 9.09021E-05-2.73013E-05-2.74851E-05 4.15729E-07-4.91263E-20-1.42777E-18
 -1        30 9.61266E-05-2.88612E-05-2.88904E-05 5.49994E-07 9.77471E-20-1.91869E-18
 -1        31 1.02385E-04-3.07283E-05-3.06221E-05 4.89863E-07-8.07916E-20-3.06729E-18
 -1        32 1.07614E-04-3.22834E-05-3.21225E-05 3.18836E-07-8.73073E-20-4.16540E-18
 -1        33 1.10728E-04-3.32064E-05-3.30627E-05 1.39110E-07 1.36748E-19-4.19182E-18
 -1        34 1.11646E-04-3.34769E-05-3.33825E-05 8.66777E-09-5.10428E-20-3.74408E-18
 -1        35 1.10875E-04-3.32471E-05-3.32014E-05-6.21166E-08-1.40570E-19-5.28153E-18
 -1        36 1.09083E-04-3.27149E-05-3.27030E-05-8.73782E-08 1.00662E-19-5.38869E-18
 -1        37 1.06849E-04-3.20506E-05-3.20567E-05-8.59534E-08-2.78138E-19-5.23034E-18
 -1        38 1.04570E-04-3.13720E-05-3.13849E-05-7.24177E-08 1.01967E-19-5.35535E-18
 -1        39 1.02478E-04-3.07480E-05-3.07616E-05-5.55787E-08-1.02127E-19-5.13880E-18
 -1        40 1.00681E-04-3.02110E-05-3.02224E-05-3.98148E-08 2.10487E-19-4.83456E-18
 -1        41 9.92082E-05-2.97699E-05-2.97784E-05-2.68113E-08 6.53452E-20-5.18603E-18
 -1        42 9.80431E-05-2.94202E-05-2.94260E-05-1.68590E-08-1.66850E-19-4.91249E-18
 -1        43 9.71488E-05-2.91513E-05-2.91549E-05-9.63867E-09-3.33613E-19-4.87366E-18
 -1        44 9.64806E-05-2.89500E-05-2.89520E-05-4.63449E-09 6.39738E-19-3.51099E-18
 -1        45 9.59949E-05-2.88033E-05-2.88042E-05-1.32539E-09-5.02355E-19-3.68065E-18
 -1        46 9.56517E-05-2.86995E-05-2.86997E-05 7.39754E-10-3.98734E-20-5.65254E-18
 -1        47 9.54175E-05-2.86284E-05-2.86281E-05 1.92297E-09-7.43427E-20-4.41903E-18
 -1        48 9.52643E-05-2.85817E-05-2.85812E-05 2.50188E-09 3.88652E-19-2.47396E-18
 -1        49 9.51700E-05-2.85528E-05-2.85522E-05 2.68268E-09 2.37885E-19-3.00529E-18
 -1        50 9.51174E-05-2.85366E-05-2.85360E-05 2.61450E-09 2.60380E-19-4.32374E-18
 -1        51 9.50933E-05-2.85290E-05-2.85284E-05 2.40241E-09-5.81397E-21-4.09366E-18
 -1        52 9.50880E-05-2.85271E-05-2.85266E-05 2.11839E-09-4.06114E-19-5.09235E-18
 -1        53 9.50943E-05-2.85288E-05-2.85283E-05 1.81001E-09 3.35377E-19-6.07614E-18
 -1        54 9.51073E-05-2.85325E-05-2.85321E-05 1.50723E-09 2.60218E-19-3.68857E-18
 -1        55 9.51235E-05-2.85372E-05-2.85369E-05 1.22757E-09-4.99770E-19-5.51444E-18
 -1        56 9.51406E-05-2.85423E-05-2.85420E-05 9.79987E-10-2.57516E-19-7.66679E-18
 -1        57 9.51571E-05-2.85472E-05-2.85470E-05 7.67783E-10 5.42826E-19-7.01806E-18
 -1        58 9.51722E-05-2.85517E-05-2.85515E-05 5.90630E-10 1.80956E-19-5.49340E-18
 -1        59 9.51854E-05-2.85556E-05-2.85555E-05 4.46074E-10 2.65070E-19-4.13678E-18
 -1        60 9.51968E-05-2.85590E-05-2.85589E-05 3.30546E-10-4.08537E-19-2.83632E-18
 -1        61 9.52063E-05-2.85619E-05-2.85618E-05 2.40042E-10 1.60214E-19-3.54682E-18
 -1        62 9.52140E-05-2.85642E-05-2.85641E-05 1.70558E-10-6.37023E-19-4.62257E-18
 -1        63 9.52203E-05-2.85660E-05-2.85660E-05 1.18341E-10-2.01267E-19-7.06209E-18
 -1        64 9.52252E-05-2.85675E-05-2.85675E-05 8.00136E-11-7.95985E-20-7.31581E-18
 -1        65 9.52290E-05-2.85687E-05-2.85687E-05 5.25885E-11-2.02247E-20-5.71649E-18
 -1        66 9.52319E-05-2.85695E-05-2.85695E-05 3.33786E-11-5.24763E-19-5.17129E-18
 -1        67 9.52341E-05-2.85702E-05-2.85702E-05 1.97759E-11 2.35121E-19-3.94289E-18
 -1        68 9.52356E-05-2.85707E-05-2.85707E-05 8.75316E-12 5.44665E-20-7.33509E-19
 -1        69 9.52367E-05-2.85710E-05-2.85710E-05-4.00297E-12-2.13671E-19-8.75055E-19
 -1        70 9.52372E-05-2.85712E-05-2.85711E-05-2.72487E-11 4.33298E-19 1.40110E-18
 -1        71 9.52373E-05-2.85712E-05-2.85712E-05-5.51044E-11-1.66030E-19 1.67361E-18
 -1        72 1.40369E-04-4.22314E-05-4.62599E-05-2.84418E-06 2.04426E-19 2.00983E-17
 -1        73 1.24775E-04-3.71951E-05-3.85605E-05-3.78095E-07 1.37474E-19 1.65433E-17
 -1        74 1.13131E-04-3.39943E-05-3.40388E-05 2.88723E-07 2.34296E-19 1.32050E-17
 -1        75 1.02237E-04-3.07626E-05-3.07568E-05 5.88204E-07-1.81268E-20 1.05874E-17
 -1        76 9.37572E-05-2.81394E-05-2.84500E-05 5.52196E-07 2.80580E-21 9.60324E-18
 -1        77 9.02792E-05-2.70146E-05-2.75301E-05 1.82865E-07 1.34726E-19 8.98123E-18
 -1        78 9.27043E-05-2.77244E-05-2.81407E-05-2.90637E-07-2.00977E-19 7.69154E-18
 -1        79 9.92665E-05-2.97355E-05-2.98488E-05-5.84215E-07 3.23740E-19 7.00454E-18
 -1        80 1.06737E-04-3.20290E-05-3.18693E-05-5.96459E-07 2.80820E-20 5.43562E-18
 -1        81 1.12425E-04-3.37628E-05-3.34879E-05-4.23009E-07-1.70725E-19 5.29394E-18
 -1        82 1.15210E-04-3.45992E-05-3.43485E-05-2.09595E-07-2.45838E-21 4.76183E-18
 -1        83 1.15320E-04-3.46210E-05-3.44555E-05-4.47539E-08 1.18225E-19 3.08686E-18
 -1        84 1.13609E-04-3.40956E-05-3.40153E-05 5.04829E-08-1.15369E-19 2.49688E-18
 -1        85 1.10968E-04-3.32957E-05-3.32747E-05 9.03824E-08 3.60020E-19 2.11809E-18
 -1        86 1.08068E-04-3.24220E-05-3.24335E-05 9.67359E-08-2.04686E-19 2.06753E-18
 -1        87 1.05315E-04-3.15949E-05-3.16198E-05 8.67367E-08-1.28896E-19 2.15899E-18
 -1        88 1.02907E-04-3.08728E-05-3.09003E-05 7.09224E-08-2.34049E-19 1.86682E-18
 -1        89 1.00913E-04-3.02748E-05-3.02998E-05 5.47363E-08-2.26060E-19 2.25129E-18
 -1        90 9.93220E-05-2.97979E-05-2.98186E-05 4.05174E-08 1.60384E-19-4.42608E-20
 -1        91 9.80906E-05-2.94286E-05-2.94449E-05 2.89653E-08-3.01792E-19 9.26135E-19
 -1        92 9.71615E-05-2.91499E-05-2.91622E-05 2.00182E-08 1.06782E-19-1.65021E-19
 -1        93 9.64770E-05-2.89445E-05-2.89535E-05 1.33187E-08-8.73794E-20-3.25269E-18
 -1        94 9.59849E-05-2.87967E-05-2.88032E-05 8.43800E-09-4.21472E-19-1.65422E-18
 -1        95 9.56407E-05-2.86933E-05-2.86978E-05 4.97332E-09-2.30689E-19-5.55981E-19
 -1        96 9.54077E-05-2.86232E-05-2.86262E-05 2.58143E-09 3.99015E-19 3.27658E-19
 -1        97 9.52565E-05-2.85777E-05-2.85796E-05 9.84780E-10 2.58801E-19-2.80199E-18
 -1        98 9.51643E-05-2.85499E-05-2.85511E-05-3.42899E-11-3.13019E-19-3.44414E-18
 -1        99 9.51135E-05-2.85345E-05-2.85352E-05-6.42765E-10 1.11551E-19-3.29938E-18
 -1       100 9.50908E-05-2.85276E-05-2.85279E-05-9.66537E-10-1.38990E-19-4.12870E-18
 -1       101 9.50865E-05-2.85262E-05-2.85263E-05-1.09897E-09 1.12299E-19-2.83061E-18
 -1       102 9.50936E-05-2.85283E-05-2.85282E-05-1.10810E-09-5.86189E-19-5.58897E-18
 -1       103 9.51071E-05-2.85322E-05-2.85321E-05-1.04258E-09 8.59456E-20-4.82337E-18
 -1       104 9.51235E-05-2.85371E-05-2.85369E-05-9.36341E-10-1.50000E-19-4.62002E-18
 -1       105 9.51407E-05-2.85423E-05-2.85421E-05-8.12398E-10-4.09010E-19-1.52363E-18
 -1       106 9.51573E-05-2.85472E-05-2.85470E-05-6.85726E-10 3.75099E-20-2.39898E-18
 -1       107 9.51724E-05-2.85517E-05-2.85516E-05-5.65531E-10-5.49193E-19-3.35948E-18
 -1       108 9.51857E-05-2.85557E-05-2.85556E-05-4.56961E-10-1.64013E-19-3.00270E-18
 -1       109 9.51970E-05-2.85591E-05-2.85590E-05-3.62404E-10-8.37323E-20-3.14637E-18
 -1       110 9.52065E-05-2.85619E-05-2.85618E-05-2.82437E-10-1.49959E-19-2.43136E-18
 -1       111 9.52142E-05-2.85643E-05-2.85642E-05-2.16516E-10 3.80632E-19 1.39553E-19
 -1       112 9.52204E-05-2.85661E-05-2.85660E-05-1.63468E-10-8.57687E-20-1.16544E-18
 -1       113 9.52253E-05-2.85676E-05-2.85675E-05-1.21818E-10-3.25499E-19 1.13736E-18
 -1       114 9.52291E-05-2.85687E-05-2.85687E-05-8.99942E-11-2.00556E-19 4.06155E-18
 -1       115 9.52319E-05-2.85696E-05-2.85695E-05-6.63330E-11 4.82125E-19-1.72181E-19
 -1       116 9.52341E-05-2.85702E-05-2.85702E-05-4.90381E-11-2.74586E-19-2.65591E-18
 -1       117 9.52357E-05-2.85707E-05-2.85707E-05-3.60742E-11-8.68338E-20-1.56652E-18
 -1       118 9.52367E-05-2.85710E-05-2.85710E-05-2.32555E-11 7.37959E-20-3.72782E-18
 -1       119 9.52372E-05-2.85712E-05-2.85711E-05 6.68313E-13-1.69095E-19-5.34908E-18
 -1       120 9.52373E-05-2.85712E-05-2.85712E-05 4.65830E-11-1.02412E-19-2.95326E-18
 -1       121 9.52371E-05-2.85710E-05-2.85712E-05 6.19817E-11-4.38975E-18-9.89359E-19
 -1       122 9.52371E-05-2.85711E-05-2.85711E-05 1.19434E-11-1.81060E-18-2.73203E-19
 -1       123 9.52373E-05-2.85717E-05-2.85710E-05-2.24610E-11-1.30248E-18 5.91767E-19
 -1       124 9.52376E-05-2.85725E-05-2.85707E-05-4.01138E-11-5.74017E-18 1.59380E-18
 -1       125 9.52379E-05-2.85735E-05-2.85704E-05-4.41184E-11-4.19065E-18-1.98329E-18
 -1       126 9.52381E-05-2.85745E-05-2.85702E-05-3.87747E-11-6.05314E-18 3.73786E-19
 -1       127 9.52384E-05-2.85752E-05-2.85699E-05-2.60553E-11-9.05903E-18 1.67489E-19
 -1       128 9.52385E-05-2.85756E-05-2.85698E-05-9.05288E-12-8.07558E-18-9.19049E-19
 -1       129 9.52385E-05-2.85756E-05-2.85698E-05 9.35447E-12-4.41199E-18 1.93835E-18
 -1       130 9.52384E-05-2.85752E-05-2.85699E-05 2.62690E-11-8.69332E-19-1.25958E-18
 -1       131 9.52381E-05-2.85745E-05-2.85702E-05 3.91888E-11-1.00805E-17-1.57574E-18
 -1       132 9.52379E-05-2.85735E-05-2.85704E-05 4.41737E-11-1.14919E-17 1.15353E-18
 -1       133 9.52376E-05-2.85725E-05-2.85707E-05 3.97672E-11-1.78547E-18 2.19721E-20
 -1       134 9.52373E-05-2.85717E-05-2.85710E-05 2.53751E-11 2.81032E-18 2.20103E-20
 -1       135 9.52371E-05-2.85711E-05-2.85711E-05-1.65040E-11 1.89722E-18-3.32913E-19
 -1       136 9.52371E-05-2.85710E-05-2.85712E-05-9.77181E-11-1.15997E-18-1.09942E-18
 -1       137 2.12107E-05-6.85893E-05 9.91903E-06-1.81167E-05 1.35843E-17 3.23987E-18
 -1       138 6.34371E-06-2.14685E-05-1.11919E-06-1.01311E-05 2.13346E-17 1.03135E-17
 -1       139 1.57655E-05 2.31256E-05-1.96478E-05 3.55221E-05 2.25099E-17 1.68140E-17
 -1       140 6.76846E-05 2.91596E-05-3.92241E-05 8.85796E-05 1.61927E-17 1.90193E-17
 -1       141 1.57069E-04-7.01088E-06-5.70948E-05 1.15415E-04 8.44492E-18 1.46168E-17
 -1       142 2.46415E-04-5.85139E-05-6.97157E-05 9.24947E-05 1.75579E-18 5.22873E-18
 -1       143 2.91473E-04-8.92533E-05-7.45737E-05 2.65832E-05-2.48604E-19-6.69122E-18
 -1       144 2.69332E-04-7.87795E-05-7.10465E-05-4.85739E-05 3.11604E-18-1.83294E-17
 -1       145 1.91863E-04-3.60927E-05-6.00779E-05-9.17901E-05 1.01970E-17-2.63741E-17
 -1       146 9.20237E-05 9.38433E-06-4.23493E-05-8.46628E-05 1.90896E-17-2.85603E-17
 -1       147 2.81544E-05 2.35248E-05-2.55403E-05-4.65208E-05 2.44873E-17-2.38118E-17
 -1       148 4.09537E-06 6.74370E-06-1.07352E-05-7.82048E-06 2.43960E-17-1.54876E-17
 -1       149 6.08256E-06-2.14133E-05-3.93808E-07 1.03615E-05 1.85136E-17-7.08453E-18
 -1       150 1.40054E-05-4.24336E-05 5.28693E-06 8.13885E-06 7.83723E-18-1.38192E-18
 -1       151 1.45602E-05-4.40297E-05 5.89574E-06-4.47274E-06-4.83116E-18-8.23951E-19
 -1       152 7.70770E-06-2.46144E-05 6.47220E-07-8.36421E-06-1.71450E-17-5.62980E-18
 -1       153 3.05375E-06 3.83820E-06-8.84446E-06 4.49802E-06-2.35537E-17-1.33477E-17
 -1       154 2.17993E-05 2.40114E-05-2.32077E-05 4.11828E-05-2.42400E-17-2.16677E-17
 -1       155 7.76392E-05 1.61953E-05-3.97930E-05 8.15861E-05-1.91609E-17-2.61022E-17
 -1       156 1.61010E-04-2.00786E-05-5.53156E-05 9.70364E-05-1.10771E-17-2.38986E-17
 -1       157 2.44750E-04-6.55445E-05-6.75491E-05 6.82955E-05-3.70249E-18-1.64979E-17
 -1       158 2.66030E-04-7.25476E-05-7.16986E-05-7.01969E-05-1.79617E-18 6.33157E-18
 -1       159 1.97562E-04-3.03367E-05-6.28312E-05-1.09414E-04-6.49367E-18 1.53957E-17
 -1       160 1.13609E-04 1.29255E-05-4.91705E-05-1.08130E-04-1.26121E-17 1.90002E-17
 -1       161 4.48667E-05 3.25021E-05-3.25535E-05-7.17175E-05-1.69889E-17 1.70681E-17
 -1       162 1.01097E-05 1.70431E-05-1.55098E-05-2.38804E-05-1.79872E-17 1.28882E-17
 -1       163 7.43184E-06-2.60374E-05 1.52606E-07 1.20526E-05-1.44821E-17 6.09673E-18
 -1       164 2.14101E-05-6.88881E-05 1.00289E-05 1.66819E-05-7.46681E-18 1.58085E-18
 -1       165 1.18480E-04-1.71938E-05-4.38856E-05-2.78911E-05-2.46992E-18-4.01388E-19
 -1       166 1.10969E-04-1.43795E-05-4.16312E-05-2.23720E-05-1.65897E-18-2.86038E-18
 -1       167 1.06004E-04-1.50551E-05-3.91113E-05-1.42604E-05-3.64118E-19-3.87695E-18
 -1       168 9.82085E-05-1.55107E-05-3.55048E-05-4.57897E-06 9.33457E-19-4.09472E-18
 -1       169 8.33198E-05-1.24958E-05-3.03656E-05 5.43795E-06 2.10915E-18-4.18381E-18
 -1       170 6.01849E-05-4.03371E-06-2.40313E-05 1.23101E-05 2.85278E-18-4.43794E-18
 -1       171 3.58156E-05 7.02300E-06-1.82882E-05 1.11874E-05 2.46510E-18-5.02831E-18
 -1       172 2.44838E-05 1.26321E-05-1.58079E-05 3.84258E-06 1.30566E-18-5.42485E-18
 -1       173 2.79168E-05 1.08923E-05-1.65517E-05-4.98837E-06-7.29176E-20-5.46930E-18
 -1       174 4.53380E-05 2.58404E-06-2.04882E-05-1.03721E-05-1.05654E-18-4.98967E-18
 -1       175 7.12183E-05-8.25637E-06-2.69703E-05-7.86687E-06-1.18275E-18-4.16689E-18
 -1       176 9.24687E-05-1.47438E-05-3.33563E-05 1.21334E-06-3.06414E-19-3.14969E-18
 -1       177 1.05346E-04-1.62353E-05-3.83169E-05 1.17489E-05 8.59063E-19-2.01520E-18
 -1       178 1.13456E-04-1.61154E-05-4.19517E-05 2.10306E-05 1.77901E-18-7.41154E-22
 -1       179 1.24161E-04-1.96496E-05-4.51013E-05 2.86679E-05 2.13667E-18 3.86750E-18
 -1       180 1.39729E-04-3.50118E-05-4.63852E-05 2.51821E-05 1.74254E-18 8.99782E-18
 -1       181 1.29658E-04-3.46638E-05-4.06963E-05-1.89704E-05-2.67035E-18 3.75019E-18
 -1       182 1.19454E-04-3.54076E-05-3.60730E-05-1.18004E-05-2.20381E-18 2.75589E-18
 -1       183 1.10727E-04-3.27857E-05-3.33444E-05-9.26593E-06-1.62702E-18 1.76931E-18
 -1       184 1.04406E-04-3.04671E-05-3.16400E-05-6.67891E-06-1.35537E-18 6.70157E-19
 -1       185 1.00480E-04-2.89101E-05-3.06464E-05-2.81121E-06-9.64135E-19-4.55684E-19
 -1       186 9.94790E-05-2.87018E-05-3.03172E-05 1.47026E-06-9.78981E-19-1.25579E-18
 -1       187 1.01035E-04-2.97127E-05-3.05540E-05 4.57634E-06-4.89254E-19-1.90929E-18
 -1       188 1.03907E-04-3.12285E-05-3.11391E-05 5.54852E-06-5.51060E-19-2.44858E-18
 -1       189 1.06697E-04-3.25048E-05-3.17948E-05 4.59528E-06-4.20046E-19-2.09039E-18
 -1       190 1.08498E-04-3.31739E-05-3.22870E-05 2.64492E-06-9.14862E-20-2.19447E-18
 -1       191 1.09045E-04-3.32454E-05-3.24947E-05 6.23243E-07-1.74507E-19-2.94665E-18
 -1       192 1.08509E-04-3.29052E-05-3.24114E-05-9.33027E-07-5.64683E-19-3.06423E-18
 -1       193 1.07240E-04-3.23506E-05-3.21031E-05-1.87605E-06-4.39216E-19-3.12536E-18
 -1       194 1.05588E-04-3.17260E-05-3.16598E-05-2.28619E-06-2.75716E-20-3.45605E-18
 -1       195 1.03829E-04-3.11181E-05-3.11633E-05-2.32238E-06 2.00355E-19-2.69857E-18
 -1       196 1.02143E-04-3.05714E-05-3.06730E-05-2.13740E-06-1.86283E-20-1.93412E-18
 -1       197 1.00635E-04-3.01038E-05-3.02255E-05-1.84655E-06 1.47184E-19-2.05176E-18
 -1       198 9.93476E-05-2.97179E-05-2.98385E-05-1.52513E-06-4.37847E-20-2.23919E-18
 -1       199 9.82888E-05-2.94085E-05-2.95171E-05-1.21662E-06-5.13191E-19-2.21984E-18
 -1       200 9.74433E-05-2.91664E-05-2.92587E-05-9.42718E-07-2.31297E-19-3.06797E-18
 -1       201 9.67855E-05-2.89811E-05-2.90565E-05-7.11557E-07 4.42719E-19-2.64973E-18
 -1       202 9.62859E-05-2.88425E-05-2.89022E-05-5.23492E-07-1.37081E-19-3.05735E-18
 -1       203 9.59153E-05-2.87412E-05-2.87872E-05-3.74882E-07-1.85023E-19-1.85529E-18
 -1       204 9.56473E-05-2.86690E-05-2.87036E-05-2.60365E-07 6.21153E-19-1.07829E-18
 -1       205 9.54587E-05-2.86191E-05-2.86445E-05-1.74164E-07 3.83432E-19-1.16280E-18
 -1       206 9.53305E-05-2.85858E-05-2.86041E-05-1.10786E-07-2.49036E-19-1.18532E-18
 -1       207 9.52470E-05-2.85648E-05-2.85775E-05-6.53472E-08-8.83110E-19-1.83376E-18
 -1       208 9.51959E-05-2.85525E-05-2.85610E-05-3.36992E-08 4.74072E-20-3.80262E-18
 -1       209 9.51677E-05-2.85463E-05-2.85517E-05-1.24259E-08 4.28870E-19-2.68217E-18
 -1       210 9.51552E-05-2.85441E-05-2.85474E-05 1.21286E-09-3.84047E-19-1.32003E-18
 -1       211 9.51528E-05-2.85446E-05-2.85463E-05 9.36669E-09-9.99765E-20-2.07579E-18
 -1       212 9.51568E-05-2.85465E-05-2.85472E-05 1.36875E-08-1.12962E-18-3.44775E-18
 -1       213 9.51644E-05-2.85493E-05-2.85493E-05 1.54192E-08-1.31721E-18-4.51331E-18
 -1       214 9.51736E-05-2.85523E-05-2.85520E-05 1.54789E-08 9.04518E-19-3.81010E-18
 -1       215 9.51833E-05-2.85554E-05-2.85548E-05 1.45276E-08 1.20691E-18-3.72501E-18
 -1       216 9.51926E-05-2.85583E-05-2.85576E-05 1.30288E-08 2.98550E-19-2.93281E-18
 -1       217 9.52010E-05-2.85608E-05-2.85601E-05 1.12974E-08 4.09328E-19-3.69207E-18
 -1       218 9.52085E-05-2.85630E-05-2.85624E-05 9.53811E-09-5.10270E-19-2.86707E-18
 -1       219 9.52149E-05-2.85649E-05-2.85643E-05 7.87608E-09-4.62495E-19-3.80526E-18
 -1       220 9.52202E-05-2.85664E-05-2.85659E-05 6.37998E-09-9.22826E-19-3.43257E-18
 -1       221 9.52245E-05-2.85677E-05-2.85672E-05 5.07955E-09-9.39682E-20-3.13526E-18
 -1       222 9.52280E-05-2.85687E-05-2.85683E-05 3.97827E-09 1.13617E-18-3.78021E-18
 -1       223 9.52308E-05-2.85694E-05-2.85691E-05 3.06222E-09 1.30392E-18-2.13423E-18
 -1       224 9.52329E-05-2.85700E-05-2.85698E-05 2.30594E-09 1.98410E-18 3.69587E-19
 -1       225 9.52345E-05-2.85705E-05-2.85703E-05 1.67623E-09 5.85833E-19 4.02952E-19
 -1       226 9.52356E-05-2.85708E-05-2.85706E-05 1.13504E-09 4.43302E-19-9.79511E-19
 -1       227 9.52364E-05-2.85711E-05-2.85709E-05 6.47621E-10 1.57338E-18-1.77430E-19
 -1       228 9.52369E-05-2.85712E-05-2.85710E-05 2.05199E-10 7.41066E-20-9.91148E-20
 -1       229 1.30601E-04-3.82885E-05-3.97561E-05 1.33907E-05 1.64691E-18 8.34462E-18
 -1       230 1.19956E-04-3.58828E-05-3.59808E-05 1.04699E-05 1.60833E-18 7.26978E-18
 -1       231 1.11285E-04-3.30120E-05-3.34973E-05 9.16730E-06 1.20236E-18 6.35052E-18
 -1       232 1.04647E-04-3.04006E-05-3.18151E-05 6.22726E-06 7.93392E-19 4.93779E-18
 -1       233 1.01278E-04-2.90802E-05-3.09650E-05 1.51700E-06 7.02389E-19 3.58427E-18
 -1       234 1.01681E-04-2.95083E-05-3.09461E-05-3.11476E-06 6.21643E-19 3.03445E-18
 -1       235 1.04772E-04-3.11389E-05-3.15470E-05-5.64993E-06 7.84351E-19 2.20846E-18
 -1       236 1.08543E-04-3.28948E-05-3.23975E-05-5.51460E-06 5.36339E-19 1.88244E-18
 -1       237 1.11338E-04-3.40116E-05-3.31208E-05-3.60285E-06-1.55814E-19 1.62122E-18
 -1       238 1.12466E-04-3.43195E-05-3.34844E-05-1.22323E-06 4.23437E-19 1.46142E-18
 -1       239 1.12035E-04-3.40128E-05-3.34410E-05 7.32083E-07 5.63063E-19 1.42791E-18
 -1       240 1.10518E-04-3.33659E-05-3.30722E-05 1.95113E-06 2.79927E-19 1.41362E-18
 -1       241 1.08429E-04-3.25935E-05-3.25075E-05 2.49671E-06-3.34458E-20 1.14022E-18
 -1       242 1.06171E-04-3.18266E-05-3.18659E-05 2.56925E-06-2.12420E-19 1.81628E-18
 -1       243 1.04005E-04-3.11321E-05-3.12329E-05 2.36776E-06-4.36863E-20 1.67421E-18
 -1       244 1.02075E-04-3.05373E-05-3.06587E-05 2.03990E-06 2.04025E-19 8.61494E-19
 -1       245 1.00438E-04-3.00467E-05-3.01661E-05 1.67860E-06-1.97661E-19 3.60059E-19
 -1       246 9.90989E-05-2.96537E-05-2.97601E-05 1.33501E-06 5.11825E-19 6.47359E-19
 -1       247 9.80352E-05-2.93462E-05-2.94359E-05 1.03296E-06-3.42050E-19 5.97956E-19
 -1       248 9.72105E-05-2.91108E-05-2.91835E-05 7.80198E-07 1.35263E-18-4.10200E-19
 -1       249 9.65854E-05-2.89342E-05-2.89915E-05 5.75875E-07 7.86676E-19-8.59174E-19
 -1       250 9.61217E-05-2.88045E-05-2.88486E-05 4.15059E-07-6.65846E-19-1.55643E-18
 -1       251 9.57854E-05-2.87114E-05-2.87447E-05 2.91312E-07-3.77343E-19-1.68345E-18
 -1       252 9.55477E-05-2.86464E-05-2.86710E-05 1.98047E-07 2.24040E-19-1.93098E-18
 -1       253 9.53846E-05-2.86024E-05-2.86202E-05 1.29193E-07 4.53824E-19-9.18461E-19
 -1       254 9.52769E-05-2.85739E-05-2.85864E-05 7.94700E-08 1.36882E-19-9.58896E-19
 -1       255 9.52095E-05-2.85566E-05-2.85651E-05 4.44497E-08 1.24643E-19-1.14858E-18
 -1       256 9.51707E-05-2.85470E-05-2.85527E-05 2.05199E-08-3.69831E-20-1.03486E-18
 -1       257 9.51516E-05-2.85428E-05-2.85464E-05 4.79563E-09 1.55826E-19-1.67068E-18
 -1       258 9.51455E-05-2.85421E-05-2.85441E-05-4.98351E-09 7.74990E-19-2.06882E-18
 -1       259 9.51478E-05-2.85436E-05-2.85445E-05-1.05577E-08 2.78086E-19-2.64559E-18
 -1       260 9.51548E-05-2.85462E-05-2.85465E-05-1.32432E-08-5.15150E-19-1.70979E-18
 -1       261 9.51644E-05-2.85494E-05-2.85492E-05-1.40172E-08-1.14225E-18-2.65260E-18
 -1       262 9.51748E-05-2.85527E-05-2.85523E-05-1.35904E-08 2.37976E-19-1.29188E-18
 -1       263 9.51851E-05-2.85559E-05-2.85554E-05-1.24681E-08 1.71309E-19-1.13084E-18
 -1       264 9.51947E-05-2.85588E-05-2.85582E-05-1.09994E-08 3.92799E-20-2.00331E-18
 -1       265 9.52032E-05-2.85613E-05-2.85608E-05-9.41696E-09 1.80333E-19-2.49135E-18
 -1       266 9.52105E-05-2.85635E-05-2.85630E-05-7.86836E-09-9.83227E-19-1.01152E-18
 -1       267 9.52167E-05-2.85653E-05-2.85649E-05-6.44020E-09-8.70364E-19-1.17263E-19
 -1       268 9.52218E-05-2.85668E-05-2.85664E-05-5.17650E-09 4.52557E-19 4.44292E-19
 -1       269 9.52259E-05-2.85680E-05-2.85677E-05-4.09212E-09-1.69923E-18 2.96581E-19
 -1       270 9.52291E-05-2.85689E-05-2.85687E-05-3.18252E-09-4.73398E-19 6.19924E-20
 -1       271 9.52317E-05-2.85697E-05-2.85694E-05-2.43022E-09 1.05358E-18-3.28042E-19
 -1       272 9.52336E-05-2.85702E-05-2.85700E-05-1.80892E-09 1.01196E-18-7.77353E-19
 -1       273 9.52351E-05-2.85706E-05-2.85705E-05-1.28788E-09-2.29369E-19-3.44701E-18
 -1       274 9.52361E-05-2.85709E-05-2.85708E-05-8.32079E-10 8.13822E-19-1.73744E-18
 -1       275 9.52367E-05-2.85711E-05-2.85710E-05-4.11080E-10 5.63613E-20-8.75855E-19
 -1       276 9.52370E-05-2.85712E-05-2.85711E-05-4.91012E-11-1.28413E-18-3.27259E-18
 -1       277 9.52371E-05-2.85714E-05-2.85710E-05-2.34167E-10-1.16926E-18 2.17989E-18
 -1       278 9.52372E-05-2.85718E-05-2.85709E-05-6.24108E-10-4.82435E-19-5.20657E-19
 -1       279 9.52375E-05-2.85725E-05-2.85707E-05-9.23288E-10-1.51745E-18-2.20192E-18
 -1       280 9.52378E-05-2.85732E-05-2.85705E-05-1.04482E-09-2.66057E-18 1.27579E-18
 -1       281 9.52380E-05-2.85740E-05-2.85703E-05-9.83128E-10-3.40219E-18-2.20936E-18
 -1       282 9.52383E-05-2.85746E-05-2.85701E-05-7.56508E-10-3.60681E-18-2.73423E-18
 -1       283 9.52384E-05-2.85750E-05-2.85700E-05-4.08347E-10-2.97265E-18 1.72359E-18
 -1       284 9.52385E-05-2.85752E-05-2.85700E-05 3.50527E-12-6.40210E-19 1.99341E-18
 -1       285 9.52384E-05-2.85750E-05-2.85700E-05 4.14772E-10-1.02372E-18 1.85190E-18
 -1       286 9.52383E-05-2.85746E-05-2.85701E-05 7.61363E-10-2.62365E-18-5.32307E-18
 -1       287 9.52380E-05-2.85740E-05-2.85703E-05 9.83280E-10-1.66762E-18-6.49180E-19
 -1       288 9.52378E-05-2.85732E-05-2.85705E-05 1.04472E-09-4.93794E-19 3.90182E-18
 -1       289 9.52375E-05-2.85724E-05-2.85707E-05 9.18323E-10-6.34823E-19 1.77179E-18
 -1       290 9.52372E-05-2.85718E-05-2.85709E-05 6.20416E-10 8.39891E-19 8.68702E-19
 -1       291 9.52370E-05-2.85715E-05-2.85710E-05 4.51228E-10-3.90268E-19-2.49337E-18
 -1       292 1.04407E-05-3.40858E-05 6.77269E-06 7.70464E-06 3.09066E-18 5.71906E-18
 -1       293 2.36563E-05-3.02094E-05 8.01217E-08 2.39478E-05 5.88031E-18 6.99310E-18
 -1       294 5.99770E-05-3.08853E-05-1.35660E-05 4.27672E-05 5.11862E-18 4.97695E-18
 -1       295 9.14465E-05-2.29018E-05-2.95240E-05 4.97096E-05 8.20817E-18 5.56395E-18
 -1       296 1.35887E-04-2.59900E-05-4.57597E-05 4.95364E-05 6.86965E-18 3.45399E-18
 -1       297 1.72545E-04-2.88888E-05-5.89995E-05 4.01345E-05 6.21153E-18 1.00458E-18
 -1       298 1.98014E-04-3.34209E-05-6.69829E-05 2.56107E-05 5.60206E-18-2.66424E-18
 -1       299 2.02316E-04-3.61374E-05-6.76807E-05 3.55535E-06 5.77878E-18-6.91084E-18
 -1       300 1.82538E-04-3.45656E-05-6.10793E-05-1.51176E-05 7.20947E-18-9.68963E-18
 -1       301 1.48391E-04-3.41192E-05-4.82685E-05-2.40938E-05 8.08027E-18-9.51917E-18
 -1       302 1.00387E-04-2.24748E-05-3.38410E-05-4.13803E-05 1.04011E-17-1.25839E-17
 -1       303 5.69003E-05-1.42136E-05-1.98647E-05-3.57656E-05 1.04721E-17-1.13957E-17
 -1       304 2.56236E-05-1.00286E-05-8.70756E-06-2.38280E-05 8.72380E-18-9.36994E-18
 -1       305 8.18359E-06-9.62724E-06-1.45034E-06-1.10177E-05 5.48729E-18-7.41853E-18
 -1       306 2.17574E-06-9.96020E-06 1.38549E-06-6.58534E-07 1.11204E-18-6.37202E-18
 -1       307 5.74226E-06-3.63151E-06-2.05763E-06 1.30123E-05-1.87231E-18-7.06055E-18
 -1       308 2.08887E-05-8.02962E-06-7.37447E-06 2.24518E-05-7.34568E-18-8.04729E-18
 -1       309 5.08510E-05-1.19267E-05-1.81049E-05 3.56025E-05-8.90486E-18-9.68672E-18
 -1       310 9.24515E-05-1.98800E-05-3.16784E-05 4.14777E-05-9.63246E-18-1.05901E-17
 -1       311 1.35658E-04-2.71548E-05-4.57501E-05 3.93857E-05-9.45988E-18-1.06375E-17
 -1       312 1.73352E-04-3.33602E-05-5.78391E-05 2.58788E-05-7.55040E-18-8.62894E-18
 -1       313 1.93444E-04-3.37054E-05-6.54964E-05 3.49100E-06-6.34459E-18-5.16055E-18
 -1       314 1.98877E-04-3.38915E-05-6.73264E-05-1.75086E-05-5.36500E-18-2.06996E-18
 -1       315 1.78396E-04-2.82741E-05-6.17977E-05-3.11390E-05-5.79476E-18 2.44793E-19
 -1       316 1.53875E-04-2.61303E-05-5.26623E-05-4.81281E-05-5.89752E-18 3.90376E-18
 -1       317 1.17127E-04-2.29375E-05-3.94873E-05-5.18867E-05-5.74828E-18 5.98429E-18
 -1       318 7.93843E-05-2.27958E-05-2.47791E-05-4.72457E-05-5.56331E-18 6.04189E-18
 -1       319 4.99114E-05-2.80058E-05-1.08915E-05-3.90052E-05-3.89445E-18 5.28297E-18
 -1       320 2.27078E-05-3.02530E-05 5.67277E-07-2.31927E-05-2.97457E-18 5.38205E-18
 -1       321 9.92194E-06-3.00578E-05 5.89124E-06-9.35761E-06 2.96779E-19 5.08707E-18
 -1       322 1.26364E-04-2.56408E-05-4.33897E-05-2.83061E-05-2.74039E-18 2.01848E-18
 -1       323 1.15967E-04-2.56866E-05-3.88282E-05-2.06883E-05-1.37408E-18-1.72429E-18
 -1       324 1.19892E-04-2.72962E-05-3.98153E-05-2.40112E-05-2.56799E-18-6.12603E-19
 -1       325 1.02716E-04-2.63983E-05-3.27567E-05-1.07973E-06 1.66356E-18-2.21811E-18
 -1       326 8.17199E-05-1.92077E-05-2.66895E-05 1.30067E-05 3.13699E-18-2.81353E-18
 -1       327 4.83605E-05-2.95805E-06-1.91588E-05 2.01925E-05 3.53010E-18-4.43509E-18
 -1       328 2.27246E-05 1.07800E-05-1.39680E-05 1.40129E-05 2.67775E-18-6.00033E-18
 -1       329 3.12279E-05 6.49412E-06-1.57827E-05-1.46556E-05-7.83003E-19-5.88121E-18
 -1       330 6.46855E-05-1.08476E-05-2.28641E-05-1.57234E-05-1.68746E-18-4.06387E-18
 -1       331 9.42010E-05-2.37411E-05-3.01737E-05-3.85890E-06-1.11918E-18-2.13933E-18
 -1       332 1.10456E-04-2.76970E-05-3.55646E-05 9.88008E-06 2.69065E-19-8.64132E-19
 -1       333 1.18246E-04-2.77205E-05-3.89448E-05 1.95209E-05 1.56696E-18 2.67133E-19
 -1       334 1.24644E-04-2.97086E-05-4.08808E-05 2.35898E-05 2.17983E-18 2.58507E-18
 -1       335 1.28985E-04-3.43142E-05-4.07250E-05 2.06230E-05 2.15248E-18 4.98427E-18
 -1       336 1.23586E-04-3.62339E-05-3.74224E-05 1.69835E-05 1.78261E-18 4.67448E-18
 -1       337 1.18570E-04-3.34413E-05-3.64449E-05-1.82000E-05-2.24056E-18 4.31270E-19
 -1       338 1.13057E-04-3.12181E-05-3.50438E-05-1.44235E-05-2.18352E-18 1.23157E-19
 -1       339 1.08237E-04-2.82218E-05-3.42702E-05-9.01125E-06-1.77608E-18-4.69729E-19
 -1       340 1.05645E-04-2.69604E-05-3.37093E-05-1.97224E-06-1.49648E-18-1.20412E-18
 -1       341 1.05809E-04-2.83697E-05-3.31776E-05 4.28755E-06-1.41226E-18-1.82413E-18
 -1       342 1.07594E-04-3.13137E-05-3.26855E-05 7.44095E-06-9.11649E-19-2.35588E-18
 -1       343 1.09268E-04-3.39044E-05-3.23011E-05 7.09090E-06-1.04668E-19-2.34600E-18
 -1       344 1.09805E-04-3.50732E-05-3.20383E-05 4.52337E-06-3.00625E-19-2.13941E-18
 -1       345 1.09153E-04-3.48858E-05-3.18434E-05 1.37369E-06-4.95009E-19-2.25087E-18
 -1       346 1.07740E-04-3.39304E-05-3.16465E-05-1.27861E-06-4.35371E-19-2.05999E-18
 -1       347 1.06007E-04-3.27534E-05-3.14045E-05-3.02860E-06-5.33606E-19-2.03814E-18
 -1       348 1.04246E-04-3.16689E-05-3.11101E-05-3.90688E-06-2.37491E-19-1.79974E-18
 -1       349 1.02606E-04-3.07924E-05-3.07794E-05-4.12428E-06 4.07830E-19-1.51042E-18
 -1       350 1.01152E-04-3.01309E-05-3.04372E-05-3.91687E-06 3.76167E-19-1.53296E-18
 -1       351 9.99020E-05-2.96494E-05-3.01063E-05-3.47917E-06-9.83559E-21-1.46617E-18
 -1       352 9.88522E-05-2.93052E-05-2.98032E-05-2.94829E-06-2.19172E-19-1.89202E-18
 -1       353 9.79883E-05-2.90614E-05-2.95373E-05-2.41041E-06-1.28600E-19-1.74366E-18
 -1       354 9.72907E-05-2.88898E-05-2.93120E-05-1.91372E-06-6.50616E-19-1.24670E-18
 -1       355 9.67376E-05-2.87700E-05-2.91267E-05-1.48091E-06 4.34212E-20-1.65904E-18
 -1       356 9.63072E-05-2.86872E-05-2.89781E-05-1.11883E-06 3.48992E-19-1.24378E-18
 -1       357 9.59784E-05-2.86311E-05-2.88616E-05-8.25284E-07 8.72244E-19 1.98730E-19
 -1       358 9.57321E-05-2.85941E-05-2.87722E-05-5.93418E-07 2.81530E-19-2.58851E-19
 -1       359 9.55515E-05-2.85706E-05-2.87052E-05-4.14486E-07 3.89780E-19-1.36061E-18
 -1       360 9.54223E-05-2.85566E-05-2.86560E-05-2.79433E-07 2.34955E-19-1.76190E-18
 -1       361 9.53323E-05-2.85492E-05-2.86208E-05-1.79766E-07-3.59697E-19-1.48971E-18
 -1       362 9.52719E-05-2.85462E-05-2.85964E-05-1.07972E-07-1.78382E-18-1.00167E-18
 -1       363 9.52331E-05-2.85460E-05-2.85800E-05-5.76691E-08 4.96914E-19-1.64411E-18
 -1       364 9.52100E-05-2.85475E-05-2.85695E-05-2.35908E-08 2.75433E-19-2.95438E-18
 -1       365 9.51978E-05-2.85499E-05-2.85633E-05-1.50290E-09-1.23946E-18-4.28908E-18
 -1       366 9.51929E-05-2.85527E-05-2.85600E-05 1.19280E-08-7.77936E-19-3.22360E-18
 -1       367 9.51928E-05-2.85556E-05-2.85588E-05 1.92727E-08-9.45791E-19-2.10891E-18
 -1       368 9.51956E-05-2.85583E-05-2.85588E-05 2.24750E-08-3.83939E-19-6.86486E-19
 -1       369 9.52000E-05-2.85608E-05-2.85596E-05 2.29744E-08 1.53099E-18-6.29342E-19
 -1       370 9.52050E-05-2.85630E-05-2.85609E-05 2.18131E-08 9.14130E-19-3.06523E-19
 -1       371 9.52101E-05-2.85648E-05-2.85623E-05 1.97266E-08-5.03572E-19-1.28782E-18
 -1       372 9.52149E-05-2.85663E-05-2.85637E-05 1.72180E-08-3.06320E-19-1.97798E-18
 -1       373 9.52193E-05-2.85675E-05-2.85650E-05 1.46176E-08 1.84273E-19-1.96802E-18
 -1       374 9.52231E-05-2.85685E-05-2.85662E-05 1.21297E-08 6.30051E-19-2.07781E-19
 -1       375 9.52263E-05-2.85693E-05-2.85673E-05 9.86919E-09-3.66126E-19 1.59783E-18
 -1       376 9.52290E-05-2.85699E-05-2.85682E-05 7.88844E-09 6.52821E-19 2.01444E-18
 -1       377 9.52311E-05-2.85703E-05-2.85689E-05 6.19735E-09 1.69781E-18 1.56692E-18
 -1       378 9.52329E-05-2.85707E-05-2.85695E-05 4.77761E-09 2.67150E-18 1.67991E-18
 -1       379 9.52343E-05-2.85710E-05-2.85700E-05 3.59284E-09 1.40128E-18 8.56206E-19
 -1       380 9.52353E-05-2.85712E-05-2.85703E-05 2.59754E-09-5.06534E-19 2.04683E-18
 -1       381 9.52361E-05-2.85714E-05-2.85706E-05 1.74346E-09-2.05391E-19 9.14363E-19
 -1       382 9.52366E-05-2.85714E-05-2.85708E-05 1.04605E-09-3.41984E-19-7.67150E-19
 -1       383 1.16845E-04-3.38326E-05-3.55316E-05 1.49388E-05 1.74916E-18 4.62199E-18
 -1       384 1.10676E-04-3.03139E-05-3.44062E-05 1.07547E-05 1.67804E-18 3.59126E-18
 -1       385 1.06813E-04-2.81020E-05-3.37220E-05 3.81034E-06 1.39080E-18 2.32397E-18
 -1       386 1.06380E-04-2.87221E-05-3.32797E-05-3.34538E-06 9.92617E-19 1.53284E-18
 -1       387 1.08458E-04-3.14043E-05-3.30161E-05-7.50700E-06 1.18302E-18 5.50998E-19
 -1       388 1.10916E-04-3.40992E-05-3.29182E-05-7.61968E-06 6.33518E-19 3.84976E-19
 -1       389 1.12209E-04-3.54476E-05-3.29061E-05-4.96514E-06-1.07585E-19 3.26742E-19
 -1       390 1.12012E-04-3.53883E-05-3.28556E-05-1.51473E-06 2.48033E-19-6.46754E-20
 -1       391 1.10706E-04-3.44989E-05-3.26782E-05 1.37419E-06 2.13882E-19 3.14739E-19
 -1       392 1.08813E-04-3.33480E-05-3.23560E-05 3.20853E-06 1.59942E-19 6.04979E-19
 -1       393 1.06728E-04-3.22593E-05-3.19228E-05 4.05288E-06-1.51944E-19 1.36410E-18
 -1       394 1.04691E-04-3.13517E-05-3.14338E-05 4.18370E-06-2.52809E-19 1.21442E-18
 -1       395 1.02832E-04-3.06373E-05-3.09397E-05 3.88716E-06 1.07735E-19 9.87048E-19
 -1       396 1.01210E-04-3.00891E-05-3.04774E-05 3.38282E-06 3.83205E-19 9.14322E-19
 -1       397 9.98400E-05-2.96731E-05-3.00678E-05 2.81407E-06-1.01910E-19 4.81551E-19
 -1       398 9.87141E-05-2.93592E-05-2.97197E-05 2.26335E-06 4.96844E-19 6.85828E-19
 -1       399 9.78099E-05-2.91239E-05-2.94333E-05 1.77160E-06 1.35248E-19 2.91430E-19
 -1       400 9.70985E-05-2.89491E-05-2.92039E-05 1.35430E-06 1.03634E-18-5.21173E-19
 -1       401 9.65498E-05-2.88207E-05-2.90243E-05 1.01258E-06 1.05466E-18-8.59741E-19
 -1       402 9.61348E-05-2.87279E-05-2.88867E-05 7.40307E-07-8.95311E-20-1.00717E-18
 -1       403 9.58270E-05-2.86622E-05-2.87834E-05 5.28272E-07-5.53996E-19-1.49946E-18
 -1       404 9.56038E-05-2.86169E-05-2.87075E-05 3.66522E-07-3.98801E-19-1.20620E-18
 -1       405 9.54457E-05-2.85866E-05-2.86530E-05 2.45581E-07 2.09395E-19-7.71275E-19
 -1       406 9.53371E-05-2.85674E-05-2.86149E-05 1.57018E-07 9.96974E-19-9.87214E-19
 -1       407 9.52653E-05-2.85561E-05-2.85892E-05 9.36346E-08-3.74204E-19-1.09242E-18
 -1       408 9.52202E-05-2.85502E-05-2.85725E-05 4.94703E-08-7.77649E-20-1.30035E-19
 -1       409 9.51941E-05-2.85480E-05-2.85624E-05 1.97029E-08-1.27554E-19-6.36370E-19
 -1       410 9.51811E-05-2.85481E-05-2.85569E-05 5.07987E-10 5.31916E-19 2.44159E-19
 -1       411 9.51769E-05-2.85497E-05-2.85544E-05-1.10924E-08 6.95258E-19-1.43748E-19
 -1       412 9.51782E-05-2.85520E-05-2.85541E-05-1.73768E-08-1.17320E-19 4.30775E-19
 -1       413 9.51828E-05-2.85546E-05-2.85549E-05-2.00572E-08-7.62828E-19-8.71358E-19
 -1       414 9.51891E-05-2.85573E-05-2.85565E-05-2.03953E-08-1.06212E-18-1.30107E-18
 -1       415 9.51959E-05-2.85598E-05-2.85584E-05-1.93014E-08-2.90801E-19-5.01823E-19
 -1       416 9.52027E-05-2.85620E-05-2.85603E-05-1.74159E-08 2.56793E-19-4.76141E-19
 -1       417 9.52090E-05-2.85639E-05-2.85622E-05-1.51754E-08 3.66229E-19 6.09481E-19
 -1       418 9.52147E-05-2.85656E-05-2.85639E-05-1.28660E-08-1.56538E-18 6.35875E-19
 -1       419 9.52195E-05-2.85669E-05-2.85654E-05-1.06641E-08-7.26887E-20 1.10946E-19
 -1       420 9.52236E-05-2.85680E-05-2.85667E-05-8.66847E-09-5.96502E-19-9.49937E-19
 -1       421 9.52270E-05-2.85689E-05-2.85678E-05-6.92367E-09-1.66828E-18-2.17951E-19
 -1       422 9.52298E-05-2.85696E-05-2.85687E-05-5.43764E-09-5.47412E-20-4.34309E-19
 -1       423 9.52319E-05-2.85701E-05-2.85694E-05-4.19391E-09 6.05981E-19-6.56917E-19
 -1       424 9.52336E-05-2.85705E-05-2.85699E-05-3.15940E-09 1.79707E-18-2.14354E-18
 -1       425 9.52349E-05-2.85709E-05-2.85703E-05-2.29288E-09 1.24954E-18-2.63472E-18
 -1       426 9.52359E-05-2.85711E-05-2.85706E-05-1.55023E-09-1.23654E-18-2.13939E-18
 -1       427 9.52365E-05-2.85713E-05-2.85708E-05-8.96505E-10-8.80511E-19 5.57665E-19
 -1       428 9.52369E-05-2.85714E-05-2.85709E-05-5.46567E-10 7.11565E-20 1.07445E-18
 -1       429 9.52376E-05-2.85730E-05-2.85705E-05-1.82356E-09-1.39856E-18-9.36179E-19
 -1       430 9.52372E-05-2.85723E-05-2.85707E-05-1.52536E-09-1.67478E-18-8.47588E-19
 -1       431 9.52369E-05-2.85717E-05-2.85708E-05-1.05453E-09-1.08208E-18-8.09918E-19
 -1       432 9.52380E-05-2.85738E-05-2.85704E-05-1.83276E-09-2.95503E-18-2.88134E-18
 -1       433 9.52384E-05-2.85744E-05-2.85703E-05-1.55201E-09-1.57857E-18-4.61807E-19
 -1       434 9.52387E-05-2.85749E-05-2.85702E-05-1.03249E-09 6.15572E-19 1.45599E-19
 -1       435 9.52388E-05-2.85752E-05-2.85701E-05-3.57894E-10-1.70561E-18 3.25519E-18
 -1       436 9.52388E-05-2.85752E-05-2.85701E-05 3.69833E-10-1.24613E-18 2.41695E-18
 -1       437 9.52387E-05-2.85749E-05-2.85702E-05 1.04266E-09-2.05565E-18-3.24294E-18
 -1       438 9.52384E-05-2.85744E-05-2.85703E-05 1.55180E-09 7.25642E-19-1.94773E-18
 -1       439 9.52380E-05-2.85738E-05-2.85704E-05 1.83272E-09 1.09788E-18 3.20763E-18
 -1       440 9.52376E-05-2.85730E-05-2.85705E-05 1.82278E-09 6.16777E-20 3.38155E-18
 -1       441 9.52371E-05-2.85722E-05-2.85707E-05 1.52088E-09-3.14357E-19 1.69635E-18
 -1       442 5.45833E-05-2.94612E-05-1.06770E-05 4.29485E-05-1.28982E-18 3.74918E-18
 -1       443 1.33594E-05-1.11061E-05-9.86757E-07 1.82653E-06 7.89582E-19 5.59190E-18
 -1       444 2.42868E-05-1.72525E-05-3.15308E-06 2.71158E-05-4.83868E-20 5.86295E-18
 -1       445 1.01824E-04-4.52485E-05-2.42916E-05 4.20454E-05 1.07817E-18 4.76456E-22
 -1       446 1.29494E-04-4.54786E-05-3.59860E-05 3.10735E-05 3.08119E-18-1.03539E-18
 -1       447 1.12086E-04-2.67988E-05-3.66710E-05-1.31530E-05 8.29381E-20-2.08817E-18
 -1       448 1.51266E-04-2.03183E-05-5.60641E-05 5.61026E-06 6.46328E-18-2.88049E-18
 -1       449 1.57143E-04-1.46281E-05-6.07134E-05 9.06129E-06 7.10279E-18-2.95444E-18
 -1       450 1.53154E-04-1.77751E-05-5.78888E-05 1.13580E-05 6.96346E-18-2.89738E-18
 -1       451 1.48209E-04-2.98145E-05-5.09103E-05 8.28183E-06 6.03008E-18-2.38567E-18
 -1       452 1.30474E-04-4.10833E-05-3.84429E-05-1.09571E-05 3.85352E-18-3.72546E-18
 -1       453 9.96012E-05-3.47277E-05-2.80097E-05-2.79568E-05 3.62001E-18-5.76120E-18
 -1       454 6.18797E-05-2.07709E-05-1.78075E-05-3.23182E-05 1.94172E-18-6.54566E-18
 -1       455 2.90831E-05-4.17721E-06-1.05468E-05-2.58589E-05 9.02937E-19-7.45574E-18
 -1       456 7.30591E-06 6.10886E-06-5.64340E-06-1.09701E-05 1.11419E-18-8.05666E-18
 -1       457 3.74760E-06 9.40804E-06-5.50729E-06 6.47041E-06 1.10240E-18-7.89244E-18
 -1       458 2.54811E-05-3.05129E-06-9.52740E-06 2.60176E-05 2.68721E-19-6.93529E-18
 -1       459 5.14201E-05-1.50012E-05-1.57738E-05 3.32012E-05-6.20558E-19-5.89604E-18
 -1       460 9.07311E-05-3.00941E-05-2.62396E-05 3.14263E-05-2.68626E-18-4.82433E-18
 -1       461 1.25917E-04-3.70967E-05-3.81579E-05 1.87092E-05-4.82724E-18-3.91223E-18
 -1       462 1.45166E-04-3.30828E-05-4.80650E-05 3.93460E-07-5.92621E-18-2.67017E-18
 -1       463 1.49563E-04-2.07255E-05-5.52464E-05-9.75389E-06-6.76578E-18-2.75180E-18
 -1       464 1.51034E-04-1.25421E-05-5.92501E-05-9.15837E-06-6.84561E-18-3.31959E-18
 -1       465 1.51700E-04-1.51826E-05-5.83199E-05-6.82044E-06-6.01235E-18-3.30676E-18
 -1       466 1.49255E-04-2.89581E-05-5.14517E-05-1.07395E-05-4.19790E-18-3.13603E-18
 -1       467 1.42229E-04-3.90203E-05-4.40127E-05-2.17470E-05-2.61130E-18-1.91482E-18
 -1       468 1.17800E-04-4.35247E-05-3.18188E-05-3.73742E-05-9.06749E-19 1.30221E-18
 -1       469 8.91493E-05-4.15378E-05-2.05064E-05-4.45765E-05 2.86721E-19 2.35960E-18
 -1       470 5.19511E-05-2.90537E-05-9.85090E-06-4.24640E-05 1.29331E-18 3.65108E-18
 -1       471 2.69810E-05-1.69895E-05-4.21268E-06-2.88876E-05 1.52471E-18 5.73918E-18
 -1       472 1.49194E-04-3.51879E-05-4.86224E-05 1.69474E-05 5.23094E-18-2.13971E-18
 -1       473 1.55426E-05 1.54354E-05-1.27731E-05-2.44878E-06 7.70666E-19-6.60654E-18
 -1       474 8.66901E-05-4.17740E-05-1.90048E-05 4.28817E-05-2.23680E-18 3.81178E-19
 -1       475 1.38096E-04-3.84557E-05-4.29509E-05 1.08515E-05 3.39241E-18-1.41878E-19
 -1       476 7.42169E-05-2.13321E-05-2.25093E-05 2.52271E-05 2.76988E-18-3.37999E-18
 -1       477 1.06175E-04-3.37664E-05-3.09385E-05 6.09420E-06 1.91025E-18-1.33496E-18
 -1       478 9.21206E-05-2.91324E-05-2.68557E-05-1.47620E-05-1.31692E-18-2.66127E-18
 -1       479 4.88628E-05-8.38411E-06-1.70454E-05-2.48380E-05-1.18934E-18-5.69484E-18
 -1       480 1.22661E-04-3.58210E-05-3.72675E-05 1.84093E-05 9.90303E-19 6.73616E-19
 -1       481 1.24373E-04-3.45724E-05-3.85609E-05 2.23404E-05 1.71915E-18 1.75932E-18
 -1       482 1.24896E-04-3.56524E-05-3.82455E-05 2.10601E-05 1.69379E-18 2.93914E-18
 -1       483 1.18596E-04-3.15054E-05-3.73242E-05-2.07903E-05-2.18843E-18-3.06606E-19
 -1       484 1.20541E-04-3.40986E-05-3.70500E-05 1.93841E-05 1.81537E-18 3.03403E-18
 -1       485 1.14871E-04-2.95421E-05-3.65709E-05 1.49267E-05 2.20707E-18 2.76566E-18
 -1       486 1.14237E-04-2.71439E-05-3.73543E-05-1.64786E-05-2.50724E-18-3.44200E-19
 -1       487 1.10265E-04-2.32582E-05-3.73363E-05-8.25294E-06-2.38114E-18-1.11303E-18
 -1       488 1.09419E-04-2.40269E-05-3.66443E-05 1.18224E-06-2.22176E-18-2.25548E-18
 -1       489 1.11428E-04-2.91751E-05-3.52802E-05 7.27007E-06-1.55005E-18-2.71337E-18
 -1       490 1.13405E-04-3.47500E-05-3.37270E-05 8.06885E-06-3.92075E-19-2.63375E-18
 -1       491 1.13380E-04-3.77478E-05-3.24238E-05 5.14123E-06 1.88911E-19-2.75375E-18
 -1       492 1.11379E-04-3.78069E-05-3.15391E-05 1.13837E-06-2.86940E-19-2.30391E-18
 -1       493 1.08472E-04-3.61454E-05-3.10054E-05-2.23643E-06-3.88050E-19-2.28810E-18
 -1       494 1.05565E-04-3.39886E-05-3.06817E-05-4.42271E-06-6.21350E-20-1.42249E-18
 -1       495 1.03103E-04-3.20548E-05-3.04530E-05-5.49582E-06-1.51622E-19-8.20121E-19
 -1       496 1.01178E-04-3.05926E-05-3.02526E-05-5.74492E-06 4.51873E-20-9.69870E-19
 -1       497 9.97247E-05-2.95997E-05-3.00537E-05-5.46592E-06 5.20894E-19-1.22480E-18
 -1       498 9.86348E-05-2.89785E-05-2.98520E-05-4.89481E-06-4.31913E-19-1.13307E-18
 -1       499 9.78118E-05-2.86188E-05-2.96530E-05-4.19767E-06 1.04513E-19-1.17864E-18
 -1       500 9.71834E-05-2.84293E-05-2.94648E-05-3.48142E-06 9.29286E-20-8.55221E-19
 -1       501 9.66990E-05-2.83445E-05-2.92936E-05-2.80882E-06 9.10330E-20-2.19755E-19
 -1       502 9.63239E-05-2.83205E-05-2.91432E-05-2.21213E-06-5.47500E-19 4.15528E-19
 -1       503 9.60337E-05-2.83295E-05-2.90152E-05-1.70372E-06 5.65645E-19-1.11479E-20
 -1       504 9.58106E-05-2.83547E-05-2.89089E-05-1.28383E-06 9.36062E-19 9.39779E-20
 -1       505 9.56407E-05-2.83862E-05-2.88228E-05-9.45916E-07-2.11485E-19-8.37184E-19
 -1       506 9.55131E-05-2.84183E-05-2.87545E-05-6.80094E-07-5.12603E-19-1.11409E-18
 -1       507 9.54187E-05-2.84481E-05-2.87013E-05-4.75383E-07 1.47244E-19-1.21272E-18
 -1       508 9.53502E-05-2.84744E-05-2.86608E-05-3.20995E-07 2.46071E-19-1.23991E-18
 -1       509 9.53017E-05-2.84966E-05-2.86306E-05-2.07052E-07-2.89893E-20-9.79702E-19
 -1       510 9.52683E-05-2.85149E-05-2.86085E-05-1.24918E-07-1.10128E-18 1.25823E-19
 -1       511 9.52462E-05-2.85296E-05-2.85928E-05-6.72968E-08-4.81936E-19-8.12535E-19
 -1       512 9.52323E-05-2.85411E-05-2.85819E-05-2.81869E-08-1.38299E-18-1.25512E-18
 -1       513 9.52242E-05-2.85500E-05-2.85746E-05-2.76667E-09-3.05102E-19-1.48102E-18
 -1       514 9.52201E-05-2.85567E-05-2.85700E-05 1.27587E-08-7.59172E-20-4.47036E-19
 -1       515 9.52187E-05-2.85617E-05-2.85673E-05 2.13173E-08-4.23054E-20-5.33320E-19
 -1       516 9.52191E-05-2.85653E-05-2.85659E-05 2.51248E-08 1.76086E-18 1.26672E-18
 -1       517 9.52205E-05-2.85679E-05-2.85654E-05 2.58236E-08 2.60043E-19 1.54951E-19
 -1       518 9.52224E-05-2.85696E-05-2.85655E-05 2.46044E-08 1.30516E-20-1.80832E-19
 -1       519 9.52245E-05-2.85708E-05-2.85659E-05 2.23088E-08-9.83058E-19-3.10419E-19
 -1       520 9.52266E-05-2.85715E-05-2.85665E-05 1.95133E-08-3.82349E-19-1.15720E-18
 -1       521 9.52285E-05-2.85719E-05-2.85671E-05 1.65972E-08 1.72746E-18-6.00016E-19
 -1       522 9.52303E-05-2.85721E-05-2.85678E-05 1.37960E-08 1.13877E-18-6.99250E-19
 -1       523 9.52318E-05-2.85722E-05-2.85684E-05 1.12424E-08 6.17709E-19 5.18808E-19
 -1       524 9.52331E-05-2.85722E-05-2.85690E-05 8.99742E-09 1.16209E-18 1.12828E-18
 -1       525 9.52341E-05-2.85721E-05-2.85694E-05 7.07361E-09 2.16565E-18 7.17909E-19
 -1       526 9.52350E-05-2.85721E-05-2.85698E-05 5.45170E-09 1.32021E-18 3.63049E-19
 -1       527 9.52357E-05-2.85720E-05-2.85701E-05 4.09331E-09 3.42836E-19-4.40635E-19
 -1       528 9.52363E-05-2.85720E-05-2.85704E-05 2.95171E-09-3.54127E-19 1.42913E-19
 -1       529 1.11273E-04-2.43837E-05-3.73056E-05 7.68505E-07 2.23038E-18 1.72179E-19
 -1       530 1.12867E-04-2.88293E-05-3.60750E-05-7.18208E-06 1.74746E-18-1.05051E-18
 -1       531 1.15266E-04-3.47867E-05-3.45168E-05-9.11475E-06 9.12475E-19-1.12669E-18
 -1       532 1.15649E-04-3.82113E-05-3.31996E-05-6.23942E-06 3.57083E-19-1.33318E-18
 -1       533 1.13793E-04-3.84282E-05-3.23122E-05-1.72067E-06-6.18227E-20-1.24247E-18
 -1       534 1.10790E-04-3.66938E-05-3.17689E-05 2.21976E-06-2.18855E-20-8.01873E-19
 -1       535 1.07685E-04-3.44239E-05-3.14087E-05 4.77024E-06-1.22547E-21-6.22418E-19
 -1       536 1.04994E-04-3.24206E-05-3.11097E-05 5.98718E-06 3.92539E-21-6.53486E-19
 -1       537 1.02833E-04-3.09352E-05-3.08162E-05 6.22880E-06-7.79749E-20-4.19583E-19
 -1       538 1.01140E-04-2.99381E-05-3.05152E-05 5.86647E-06-2.37849E-19 1.66211E-19
 -1       539 9.98152E-05-2.93103E-05-3.02147E-05 5.18994E-06 3.12348E-19 6.17249E-19
 -1       540 9.87702E-05-2.89324E-05-2.99281E-05 4.39527E-06 2.90597E-19 7.73515E-19
 -1       541 9.79413E-05-2.87131E-05-2.96667E-05 3.60172E-06 1.87226E-19 3.59411E-19
 -1       542 9.72830E-05-2.85907E-05-2.94372E-05 2.87400E-06 1.92418E-19 8.09571E-20
 -1       543 9.67626E-05-2.85262E-05-2.92421E-05 2.24134E-06 6.60292E-19 1.06515E-18
 -1       544 9.63546E-05-2.84956E-05-2.90807E-05 1.71152E-06 1.17881E-18 7.84244E-19
 -1       545 9.60387E-05-2.84846E-05-2.89504E-05 1.28030E-06 1.04954E-18 1.12579E-18
 -1       546 9.57975E-05-2.84848E-05-2.88473E-05 9.37478E-07-1.72262E-20 1.02983E-19
 -1       547 9.56165E-05-2.84909E-05-2.87673E-05 6.70510E-07-4.11568E-19 7.61488E-19
 -1       548 9.54831E-05-2.84999E-05-2.87065E-05 4.66616E-07 1.98354E-19-1.89075E-19
 -1       549 9.53870E-05-2.85099E-05-2.86612E-05 3.13882E-07 3.69603E-19-8.92068E-20
 -1       550 9.53194E-05-2.85198E-05-2.86281E-05 2.01777E-07-1.42237E-18 1.33259E-18
 -1       551 9.52733E-05-2.85290E-05-2.86045E-05 1.21328E-07-5.99279E-19 2.32531E-18
 -1       552 9.52433E-05-2.85373E-05-2.85881E-05 6.50952E-08 2.40891E-19 1.98087E-18
 -1       553 9.52247E-05-2.85444E-05-2.85772E-05 2.70451E-08-2.79610E-19 7.29477E-20
 -1       554 9.52143E-05-2.85504E-05-2.85702E-05 2.38179E-09 6.82601E-19 5.10578E-19
 -1       555 9.52095E-05-2.85553E-05-2.85661E-05-1.26395E-08 3.87931E-19-6.22774E-19
 -1       556 9.52084E-05-2.85593E-05-2.85639E-05-2.08909E-08-3.86791E-19 7.15158E-19
 -1       557 9.52096E-05-2.85625E-05-2.85630E-05-2.45357E-08-1.88295E-19 1.48091E-18
 -1       558 9.52121E-05-2.85649E-05-2.85631E-05-2.51724E-08 2.68305E-19-9.13910E-20
 -1       559 9.52152E-05-2.85668E-05-2.85636E-05-2.39570E-08-1.00928E-18 8.76523E-20
 -1       560 9.52185E-05-2.85682E-05-2.85644E-05-2.17048E-08-1.55212E-19 1.64762E-18
 -1       561 9.52217E-05-2.85693E-05-2.85653E-05-1.89738E-08-3.28722E-19 8.32778E-19
 -1       562 9.52246E-05-2.85700E-05-2.85663E-05-1.61308E-08-1.16163E-18 9.72982E-19
 -1       563 9.52272E-05-2.85706E-05-2.85671E-05-1.34031E-08-7.20040E-19 1.55141E-18
 -1       564 9.52294E-05-2.85709E-05-2.85679E-05-1.09189E-08-8.67187E-19 1.73676E-18
 -1       565 9.52313E-05-2.85712E-05-2.85686E-05-8.73725E-09 5.24715E-19 5.42951E-19
 -1       566 9.52328E-05-2.85713E-05-2.85692E-05-6.86986E-09 9.26522E-19-4.55306E-19
 -1       567 9.52341E-05-2.85715E-05-2.85697E-05-5.29915E-09 1.66363E-18-2.27473E-18
 -1       568 9.52350E-05-2.85716E-05-2.85701E-05-3.99144E-09-2.28084E-19-7.96864E-19
 -1       569 9.52358E-05-2.85716E-05-2.85704E-05-2.88560E-09-1.34431E-18 2.65594E-18
 -1       570 9.52364E-05-2.85717E-05-2.85706E-05-1.93820E-09-5.71002E-19 1.19175E-18
 -1       571 9.52385E-05-2.85744E-05-2.85703E-05-2.42570E-09 1.84839E-18-4.44726E-19
 -1       572 9.52390E-05-2.85751E-05-2.85703E-05-1.83398E-09 2.01333E-18 4.70255E-19
 -1       573 9.52372E-05-2.85728E-05-2.85705E-05-2.53931E-09-3.58714E-19-1.59319E-18
 -1       574 9.52379E-05-2.85736E-05-2.85704E-05-2.66495E-09-2.45090E-19-1.42045E-18
 -1       575 9.52394E-05-2.85755E-05-2.85702E-05-9.81668E-10 1.94906E-18 9.47314E-20
 -1       576 9.52395E-05-2.85756E-05-2.85702E-05 8.41971E-12-1.20325E-19 1.80111E-18
 -1       577 9.52394E-05-2.85755E-05-2.85702E-05 9.97459E-10-1.78395E-18 6.40674E-19
 -1       578 9.52390E-05-2.85751E-05-2.85703E-05 1.83408E-09 1.64039E-19-1.17070E-18
 -1       579 9.52385E-05-2.85744E-05-2.85703E-05 2.42605E-09 1.79283E-18 2.35532E-20
 -1       580 9.52379E-05-2.85736E-05-2.85704E-05 2.66942E-09-1.95235E-19 2.38664E-18
 -1       581 9.52372E-05-2.85727E-05-2.85705E-05 2.52016E-09-4.55130E-19 2.40029E-18
 -1       582 2.82960E-05-7.95354E-06-8.18088E-06-1.37724E-05 5.51577E-19 5.10613E-18
 -1       583 1.11897E-04-2.56271E-05-3.70152E-05 8.88869E-06 2.21632E-18 1.50078E-18
 -1       584 1.38250E-04-4.71214E-05-3.92745E-05 7.84898E-06 1.98725E-18-4.20573E-18
 -1       585 8.44468E-05-4.03473E-05-1.86259E-05-4.29684E-05 2.84428E-18 1.64045E-18
 -1       586 1.30458E-04-1.18392E-05-5.13652E-05-1.43129E-05-5.91668E-18-2.03182E-18
 -1       587 2.31391E-05 6.11578E-06-1.20707E-05-1.71475E-05-3.29840E-19-6.95070E-18
 -1       588 1.16397E-04-3.75363E-05-3.38599E-05 5.50868E-06-3.23044E-19-2.19162E-19
 -1       589 3.19289E-05 5.16985E-07-1.34393E-05 2.52013E-05 2.57482E-18-5.87041E-18
 -1       590 1.24015E-04-5.30356E-05-3.04843E-05 2.61009E-05-2.52019E-19-2.32561E-18
 -1       591 1.38157E-04-3.17613E-05-4.60648E-05-2.38228E-06 4.20144E-18-4.23718E-18
 -1       592 1.16224E-04-3.98828E-05-3.27213E-05 1.17317E-05-3.90562E-19-1.14143E-18
 -1       593 1.33033E-04-1.23985E-05-5.22539E-05 2.06583E-06 6.21553E-18-2.56029E-18
 -1       594 1.35781E-04-2.04670E-05-4.98993E-05 1.86635E-05 5.55040E-18-3.05038E-19
 -1       595 1.18034E-04-4.17078E-05-3.27755E-05-9.58921E-06 1.00424E-18-1.92764E-18
 -1       596 9.12409E-05-3.20325E-05-2.51781E-05-2.24976E-05-2.84709E-19-3.56075E-18
 -1       597 1.16791E-04-5.19085E-05-2.77405E-05-3.14322E-05 2.25067E-18-1.48911E-18
 -1       598 8.21789E-05-2.69553E-05-2.36097E-05 2.68854E-05 1.53075E-18-3.16995E-18
 -1       599 1.33316E-04-3.85822E-05-4.08368E-05-3.95762E-06-2.89288E-18-5.59306E-19
 -1       600 1.34000E-04-2.60562E-05-4.66846E-05-1.78082E-05-4.69926E-18-5.08537E-19
 -1       601 1.29532E-04-9.83841E-06-5.18715E-05-4.40383E-06-5.46490E-18-3.50468E-18
 -1       602 1.34218E-04-2.04228E-05-4.92350E-05 2.69645E-06-3.83515E-18-5.12947E-18
 -1       603 1.38609E-04-3.89052E-05-4.30793E-05-2.76764E-06-1.50158E-18-5.04588E-18
 -1       604 1.33130E-04-4.98821E-05-3.58392E-05-1.67264E-05 5.93307E-19-3.73827E-18
 -1       605 5.04330E-05-2.12591E-05-1.20606E-05-3.60849E-05 2.61214E-18 2.97526E-18
 -1       606 1.32598E-04-1.07389E-05-5.27551E-05 1.12749E-05 6.60177E-18-1.35991E-18
 -1       607 1.20061E-04-3.17227E-05-3.79126E-05-2.20692E-05-1.92643E-18-7.90156E-19
 -1       608 1.17103E-04-3.41548E-05-3.55888E-05-1.09293E-05 3.27114E-19-1.08761E-18
 -1       609 4.88413E-05-1.96018E-05-1.19887E-05 3.37448E-05-2.54282E-18 3.12804E-18
 -1       610 1.09035E-04-4.92956E-05-2.54380E-05 3.20655E-05-1.85212E-18-1.21493E-18
 -1       611 9.52366E-05-2.85720E-05-2.85705E-05 2.25968E-09-9.08934E-19 3.83764E-19
 -1       612 3.15809E-05-7.15160E-06-9.81334E-06 1.13829E-05-1.15494E-18 4.43618E-18
 -1       613 7.24883E-05-3.08901E-05-1.74844E-05 3.80884E-05-2.97740E-18 1.65039E-18
 -1       614 1.33456E-04-3.05367E-05-4.44776E-05 2.09344E-05 3.65444E-18 9.38618E-19
 -1       615 1.28286E-04-2.31270E-05-4.54936E-05-6.17591E-06 4.21627E-18-4.01989E-18
 -1       616 1.29481E-04-4.20892E-05-3.75884E-05 7.48134E-06 1.42100E-18 1.37802E-19
 -1       617 1.19706E-04-3.24436E-05-3.74740E-05-1.92178E-05-9.45844E-19-9.85070E-19
 -1       618 1.25120E-04-3.55321E-05-3.84757E-05 2.33354E-05 1.71667E-18 1.40102E-18
 -1       619 1.22023E-04-3.07180E-05-3.92021E-05 2.19561E-05 2.41089E-18 1.51688E-18
 -1       620 9.52370E-05-2.85729E-05-2.85703E-05-3.61880E-09 6.62180E-19-1.29396E-18
 -1       621 1.21321E-04-4.12498E-05-3.43607E-05-5.85873E-06 4.65956E-19-3.80792E-18
 -1       622 1.15458E-04-2.04978E-05-4.08698E-05-1.60562E-05-3.31776E-18-8.17020E-19
 -1       623 1.12860E-04-1.74548E-05-4.11017E-05-4.43236E-06-3.41068E-18-2.40293E-18
 -1       624 1.14890E-04-2.37062E-05-3.92814E-05 5.76538E-06-2.15214E-18-3.48706E-18
 -1       625 1.18442E-04-3.40647E-05-3.62288E-05 8.27497E-06-6.86704E-19-3.51822E-18
 -1       626 1.18469E-04-4.04821E-05-3.34643E-05 4.60666E-06 1.69149E-19-3.04829E-18
 -1       627 1.15014E-04-4.14875E-05-3.15196E-05-6.02144E-07 2.12188E-19-2.86996E-18
 -1       628 1.10141E-04-3.91292E-05-3.04377E-05-4.57233E-06-1.76593E-19-2.35325E-18
 -1       629 1.05550E-04-3.57467E-05-2.99191E-05-6.77881E-06 2.66502E-19-1.69957E-18
 -1       630 1.02011E-04-3.27201E-05-2.96982E-05-7.57885E-06 2.90056E-19-1.54395E-18
 -1       631 9.95488E-05-3.04765E-05-2.96032E-05-7.50097E-06 9.23111E-20-1.44112E-18
 -1       632 9.79470E-05-2.90129E-05-2.95433E-05-6.93025E-06-1.75847E-19-1.23179E-18
 -1       633 9.69459E-05-2.81623E-05-2.94784E-05-6.12097E-06-1.34001E-19-1.88310E-18
 -1       634 9.63331E-05-2.77369E-05-2.93979E-05-5.22977E-06 2.23123E-19-9.44236E-19
 -1       635 9.59593E-05-2.75819E-05-2.93042E-05-4.35038E-06-5.80027E-20-5.24308E-19
 -1       636 9.57284E-05-2.75849E-05-2.92039E-05-3.53637E-06 1.86711E-19-4.34063E-19
 -1       637 9.55818E-05-2.76713E-05-2.91041E-05-2.81511E-06 2.08981E-19-1.38139E-18
 -1       638 9.54849E-05-2.77941E-05-2.90100E-05-2.19693E-06-1.50291E-19-6.40824E-19
 -1       639 9.54183E-05-2.79258E-05-2.89251E-05-1.68128E-06 3.24321E-19-1.22787E-18
 -1       640 9.53705E-05-2.80510E-05-2.88510E-05-1.26113E-06-6.95760E-20-1.64438E-18
 -1       641 9.53354E-05-2.81624E-05-2.87882E-05-9.25944E-07-1.64066E-19-1.91925E-18
 -1       642 9.53090E-05-2.82572E-05-2.87363E-05-6.63820E-07 1.90285E-19-7.20110E-19
 -1       643 9.52890E-05-2.83353E-05-2.86944E-05-4.62785E-07 3.52394E-19-7.95763E-19
 -1       644 9.52739E-05-2.83979E-05-2.86611E-05-3.11628E-07 5.90529E-19-3.14669E-19
 -1       645 9.52626E-05-2.84470E-05-2.86352E-05-2.00337E-07 1.41053E-19 7.03550E-20
 -1       646 9.52542E-05-2.84847E-05-2.86155E-05-1.20283E-07-1.07198E-18 3.11775E-19
 -1       647 9.52481E-05-2.85130E-05-2.86007E-05-6.42362E-08-8.10425E-19-3.19976E-20
 -1       648 9.52437E-05-2.85339E-05-2.85899E-05-2.62817E-08-4.02744E-19 1.18028E-18
 -1       649 9.52406E-05-2.85489E-05-2.85822E-05-1.68339E-09-2.54206E-19 5.14168E-19
 -1       650 9.52385E-05-2.85593E-05-2.85768E-05 1.32771E-08 5.56666E-19 3.38676E-19
 -1       651 9.52372E-05-2.85664E-05-2.85732E-05 2.14636E-08 9.98367E-19 1.29687E-18
 -1       652 9.52364E-05-2.85710E-05-2.85709E-05 2.50398E-08 3.16022E-19-2.13643E-19
 -1       653 9.52359E-05-2.85737E-05-2.85695E-05 2.56073E-08-3.23550E-19 3.08546E-19
 -1       654 9.52357E-05-2.85752E-05-2.85688E-05 2.43257E-08 9.95703E-20-4.76064E-19
 -1       655 9.52357E-05-2.85758E-05-2.85685E-05 2.20131E-08-1.32590E-18 4.63604E-19
 -1       656 9.52358E-05-2.85759E-05-2.85685E-05 1.92288E-08 2.40561E-19-3.19207E-19
 -1       657 9.52359E-05-2.85757E-05-2.85687E-05 1.63398E-08 8.73070E-19-2.01702E-18
 -1       658 9.52361E-05-2.85752E-05-2.85689E-05 1.35728E-08 1.87803E-18-6.30345E-19
 -1       659 9.52363E-05-2.85747E-05-2.85692E-05 1.10544E-08 2.01781E-18 1.30403E-18
 -1       660 9.52364E-05-2.85742E-05-2.85695E-05 8.84202E-09 9.89469E-19 2.53046E-18
 -1       661 9.52366E-05-2.85737E-05-2.85698E-05 6.94672E-09 8.05915E-19-1.06493E-18
 -1       662 9.52368E-05-2.85733E-05-2.85701E-05 5.34827E-09 1.76983E-18-8.38886E-19
 -1       663 9.52369E-05-2.85730E-05-2.85703E-05 4.01129E-09 5.91212E-19 2.21157E-18
 -1       664 1.20525E-04-3.32078E-05-3.75689E-05-9.22007E-06 1.64252E-18-3.65197E-18
 -1       665 4.25726E-05-7.37946E-06-1.46525E-05-4.88348E-06-3.93804E-19 3.23455E-18
 -1       666 1.16986E-04-2.22871E-05-4.08161E-05-4.50159E-06 2.87601E-18-2.55470E-18
 -1       667 1.17724E-04-4.26310E-05-3.21956E-05-8.93406E-09-3.84543E-19-2.58199E-18
 -1       668 1.12315E-04-4.00580E-05-3.09700E-05 4.69540E-06-2.65802E-19-1.50817E-18
 -1       669 1.07210E-04-3.62951E-05-3.03978E-05 7.34648E-06-1.97094E-19-1.65521E-18
 -1       670 1.03307E-04-3.29803E-05-3.01435E-05 8.33223E-06 2.70432E-20-1.26291E-18
 -1       671 1.00625E-04-3.06040E-05-3.00106E-05 8.26854E-06-3.65765E-19-8.36947E-19
 -1       672 9.88807E-05-2.91119E-05-2.99012E-05 7.62225E-06-5.47196E-19-8.43226E-19
 -1       673 9.77666E-05-2.82800E-05-2.97795E-05 6.69981E-06 1.02776E-19-8.07545E-19
 -1       674 9.70471E-05-2.78823E-05-2.96412E-05 5.68949E-06 2.74252E-19-7.68252E-19
 -1       675 9.65664E-05-2.77454E-05-2.94938E-05 4.70173E-06 4.85241E-19-4.34597E-19
 -1       676 9.62305E-05-2.77521E-05-2.93470E-05 3.79712E-06-1.89206E-20 1.99153E-19
 -1       677 9.59851E-05-2.78295E-05-2.92088E-05 3.00429E-06 2.17752E-19 2.98246E-19
 -1       678 9.57998E-05-2.79350E-05-2.90843E-05 2.33181E-06 5.63603E-19 5.65498E-19
 -1       679 9.56569E-05-2.80451E-05-2.89760E-05 1.77615E-06 6.70077E-19 1.63054E-18
 -1       680 9.55461E-05-2.81478E-05-2.88846E-05 1.32711E-06 9.33098E-19 1.65604E-18
 -1       681 9.54604E-05-2.82380E-05-2.88093E-05 9.71396E-07-6.18351E-19 1.31953E-18
 -1       682 9.53946E-05-2.83142E-05-2.87485E-05 6.94821E-07-4.77444E-19 1.54566E-18
 -1       683 9.53449E-05-2.83766E-05-2.87005E-05 4.83687E-07-4.09632E-19 2.99421E-18
 -1       684 9.53080E-05-2.84267E-05-2.86633E-05 3.25511E-07-5.47097E-19 3.83594E-18
 -1       685 9.52812E-05-2.84661E-05-2.86349E-05 2.09366E-07-1.73444E-18 3.42380E-18
 -1       686 9.52621E-05-2.84965E-05-2.86138E-05 1.25974E-07-6.41288E-21 3.08005E-18
 -1       687 9.52490E-05-2.85196E-05-2.85983E-05 6.76524E-08 9.01358E-19 2.85105E-18
 -1       688 9.52403E-05-2.85368E-05-2.85872E-05 2.81664E-08 6.32804E-19 6.23444E-19
 -1       689 9.52349E-05-2.85494E-05-2.85795E-05 2.55695E-09 7.01674E-19 1.76994E-19
 -1       690 9.52317E-05-2.85583E-05-2.85743E-05-1.30517E-08-3.54385E-19 1.12152E-18
 -1       691 9.52302E-05-2.85645E-05-2.85710E-05-2.16349E-08-6.97017E-19-1.17275E-19
 -1       692 9.52297E-05-2.85687E-05-2.85690E-05-2.54354E-08-5.08018E-19 2.55519E-18
 -1       693 9.52299E-05-2.85714E-05-2.85679E-05-2.61113E-08 3.68871E-19 4.15230E-18
 -1       694 9.52305E-05-2.85729E-05-2.85675E-05-2.48624E-08-5.25899E-19 2.20792E-18
 -1       695 9.52312E-05-2.85738E-05-2.85675E-05-2.25350E-08 6.05653E-19 1.04642E-18
 -1       696 9.52321E-05-2.85741E-05-2.85677E-05-1.97085E-08-1.30213E-18 5.67590E-19
 -1       697 9.52330E-05-2.85741E-05-2.85681E-05-1.67635E-08-1.11801E-18 3.82404E-19
 -1       698 9.52337E-05-2.85740E-05-2.85685E-05-1.39358E-08-8.90941E-19 2.49622E-19
 -1       699 9.52344E-05-2.85737E-05-2.85689E-05-1.13583E-08-7.43738E-20-7.59858E-19
 -1       700 9.52351E-05-2.85734E-05-2.85693E-05-9.09168E-09 6.24823E-19 5.91624E-19
 -1       701 9.52356E-05-2.85731E-05-2.85697E-05-7.14945E-09 1.97935E-18 1.29956E-18
 -1       702 9.52360E-05-2.85728E-05-2.85700E-05-5.51924E-09 2.47320E-19 1.21718E-18
 -1       703 9.52366E-05-2.85729E-05-2.85702E-05-4.51350E-09-9.33200E-19 1.64554E-18
 -1       704 1.18874E-04-1.19909E-05-4.62568E-05-9.09163E-06-4.66845E-18-2.21786E-18
 -1       705 9.52404E-05-2.85763E-05-2.85703E-05-6.38646E-10 2.03123E-18-2.27256E-19
 -1       706 9.52371E-05-2.85729E-05-2.85704E-05 3.22922E-09-5.91401E-19 2.33280E-18
 -1       707 9.52394E-05-2.85754E-05-2.85703E-05-2.82795E-09 2.64685E-18-8.06871E-19
 -1       708 9.52404E-05-2.85763E-05-2.85703E-05 6.60668E-10 1.51072E-20-5.62049E-19
 -1       709 9.52401E-05-2.85760E-05-2.85703E-05-1.85461E-09 1.74386E-18 4.23247E-19
 -1       710 9.52401E-05-2.85760E-05-2.85703E-05 1.85435E-09 4.06795E-19 8.58125E-20
 -1       711 9.52394E-05-2.85753E-05-2.85703E-05 2.82481E-09 6.48669E-19 5.62198E-19
 -1       712 9.52385E-05-2.85744E-05-2.85703E-05 3.41273E-09 1.84910E-18-7.90719E-19
 -1       713 7.66055E-05-3.21137E-05-1.87522E-05-3.70533E-05 2.99191E-18 1.65762E-18
 -1       714 1.03041E-04-4.61976E-05-2.41836E-05-3.32136E-05 2.94587E-18-8.56665E-19
 -1       715 1.27903E-04-3.19015E-05-4.14790E-05 6.68714E-06-1.85648E-18-4.63761E-18
 -1       716 5.21633E-05-1.44648E-05-1.57399E-05-2.39492E-05 1.53489E-18 2.61230E-18
 -1       717 1.21598E-04-3.20465E-05-3.83923E-05-2.23324E-05-1.92679E-18-1.59815E-19
 -1       718 1.31681E-04-4.13746E-05-3.89996E-05-4.38722E-06 1.60128E-18-4.93868E-18
 -1       719 1.24687E-04-3.96445E-05-3.65781E-05-5.80469E-06-5.22202E-19-2.30697E-19
 -1       720 1.29073E-04-5.14495E-05-3.34272E-05 9.74925E-06-1.99453E-19-4.58049E-18
 -1       721 1.14438E-04-4.00990E-05-3.18570E-05-5.66025E-06-2.03658E-19-1.35438E-18
 -1       722 1.28912E-04-3.28439E-05-4.14529E-05-1.88470E-05-2.60416E-18 2.22664E-19
 -1       723 1.23229E-04-1.92869E-05-4.49133E-05-1.95171E-05-4.35346E-18-6.65874E-19
 -1       724 1.22907E-04-1.68068E-05-4.59109E-05 1.71772E-05 4.82888E-18 2.51642E-19
 -1       725 1.21241E-04-1.65069E-05-4.53214E-05 2.78377E-06-3.75709E-18-3.45282E-18
 -1       726 1.19093E-04-2.68515E-05-3.96850E-05-2.13653E-05-2.71908E-18-8.34625E-20
 -1       727 1.22368E-04-1.29247E-05-4.74270E-05 4.95921E-06 5.21666E-18-1.70913E-18
 -1       728 5.16160E-05-1.38158E-05-1.57736E-05 2.22631E-05-2.11161E-18 2.64084E-18
 -1       729 9.52385E-05-2.85745E-05-2.85703E-05-3.43095E-09 2.94875E-18 1.08672E-19
 -1       730 5.25653E-05-1.00321E-05-1.79508E-05 7.88896E-06-8.17062E-19 2.61079E-18
 -1       731 1.15642E-04-1.84648E-05-4.19038E-05 6.48118E-06 3.54076E-18-1.05792E-18
 -1       732 9.40332E-05-4.03788E-05-2.27765E-05 3.32667E-05-2.57178E-18-9.35177E-20
 -1       733 1.19500E-04-5.04895E-05-2.95952E-05 1.78037E-05-1.57667E-18-3.64885E-18
 -1       734 9.52378E-05-2.85738E-05-2.85703E-05 3.83353E-09 1.04625E-18 7.13095E-19
 -1       735 6.74333E-05-2.27012E-05-1.88719E-05 2.87753E-05-2.46682E-18 2.03379E-18
 -1       736 1.21337E-04-5.16279E-05-2.98728E-05-1.88940E-05 1.92422E-18-3.27594E-18
 -1       737 1.18078E-04-2.32446E-05-4.08269E-05 1.67776E-05 3.37184E-18 6.20452E-19
 -1       738 1.30975E-04-4.58770E-05-3.67131E-05-1.22054E-06 2.94655E-19-4.87285E-18
 -1       739 1.31321E-04-3.81503E-05-4.00828E-05 1.90719E-05 2.11986E-18 1.31778E-18
 -1       740 1.13976E-04-4.40166E-05-2.99723E-05 9.85496E-06-1.06238E-18-3.22728E-18
 -1       741 1.19543E-04-4.58189E-05-3.16324E-05-4.62370E-06 7.61226E-19-3.65264E-18
 -1       742 1.11858E-04-4.25366E-05-2.97175E-05-9.15323E-06 7.82851E-19-2.28465E-18
 -1       743 1.05012E-04-3.75109E-05-2.89287E-05-1.08679E-05 4.18068E-19-1.57613E-18
 -1       744 1.00223E-04-3.31806E-05-2.87339E-05-1.06738E-05 4.18462E-19-1.35541E-18
 -1       745 9.72347E-05-3.01010E-05-2.87714E-05-9.71077E-06 3.42756E-19-8.75127E-19
 -1       746 9.55488E-05-2.81670E-05-2.88776E-05-8.47619E-06-1.12688E-20-4.39987E-19
 -1       747 9.47063E-05-2.71002E-05-2.89738E-05-7.22083E-06-5.71717E-19-2.33569E-19
 -1       748 9.43673E-05-2.66223E-05-2.90333E-05-6.04222E-06 1.30056E-19 3.36107E-19
 -1       749 9.43066E-05-2.65143E-05-2.90536E-05-4.97690E-06 2.46848E-19-3.03809E-19
 -1       750 9.43846E-05-2.66196E-05-2.90420E-05-4.03715E-06-1.99806E-19-4.03066E-19
 -1       751 9.45195E-05-2.68337E-05-2.90081E-05-3.22458E-06-6.49884E-19-1.39674E-19
 -1       752 9.46665E-05-2.70903E-05-2.89611E-05-2.53491E-06 3.47564E-19-2.21234E-19
 -1       753 9.48030E-05-2.73498E-05-2.89084E-05-1.96007E-06 9.45398E-20-6.50923E-19
 -1       754 9.49195E-05-2.75906E-05-2.88552E-05-1.48942E-06-1.93568E-19-9.56661E-19
 -1       755 9.50138E-05-2.78021E-05-2.88050E-05-1.11078E-06-2.85766E-19-1.04306E-18
 -1       756 9.50869E-05-2.79810E-05-2.87596E-05-8.11441E-07 7.76312E-19-4.91466E-19
 -1       757 9.51417E-05-2.81279E-05-2.87202E-05-5.78927E-07 4.27004E-19-3.52198E-19
 -1       758 9.51815E-05-2.82456E-05-2.86868E-05-4.01546E-07 3.37783E-19-9.92648E-19
 -1       759 9.52093E-05-2.83378E-05-2.86592E-05-2.68773E-07 7.41406E-19-1.47928E-18
 -1       760 9.52281E-05-2.84086E-05-2.86369E-05-1.71419E-07-2.24642E-19-1.13982E-18
 -1       761 9.52400E-05-2.84618E-05-2.86192E-05-1.01678E-07-5.39443E-19-5.12407E-19
 -1       762 9.52471E-05-2.85010E-05-2.86055E-05-5.30705E-08-6.09851E-19-5.70907E-19
 -1       763 9.52507E-05-2.85291E-05-2.85950E-05-2.03315E-08-2.74439E-19-5.30428E-19
 -1       764 9.52520E-05-2.85488E-05-2.85871E-05 7.34221E-10-3.13564E-19-7.63349E-20
 -1       765 9.52519E-05-2.85621E-05-2.85813E-05 1.34073E-08 1.25429E-19-1.54199E-18
 -1       766 9.52509E-05-2.85707E-05-2.85772E-05 2.02059E-08 8.39855E-20-1.73225E-18
 -1       767 9.52493E-05-2.85759E-05-2.85743E-05 2.30265E-08 1.00583E-18-1.80962E-18
 -1       768 9.52476E-05-2.85787E-05-2.85724E-05 2.32684E-08-4.36914E-19 5.15335E-19
 -1       769 9.52459E-05-2.85800E-05-2.85711E-05 2.19413E-08-8.74847E-19-8.04146E-20
 -1       770 9.52443E-05-2.85801E-05-2.85704E-05 1.97549E-08-1.87984E-19 9.66765E-19
 -1       771 9.52429E-05-2.85796E-05-2.85700E-05 1.71918E-08 2.75289E-19 1.85758E-18
 -1       772 9.52417E-05-2.85788E-05-2.85698E-05 1.45668E-08 1.55096E-18 2.61073E-18
 -1       773 9.52406E-05-2.85778E-05-2.85698E-05 1.20722E-08 2.09066E-18 9.42507E-19
 -1       774 9.52398E-05-2.85768E-05-2.85698E-05 9.81354E-09 2.26968E-18 5.73788E-19
 -1       775 9.52391E-05-2.85758E-05-2.85700E-05 7.83627E-09-2.47886E-19 9.58740E-19
 -1       776 9.52385E-05-2.85750E-05-2.85701E-05 6.15233E-09 1.04026E-18 1.74622E-18
 -1       777 9.52381E-05-2.85743E-05-2.85702E-05 4.90788E-09 3.49160E-18 1.12505E-18
 -1       778 1.06230E-04-3.82223E-05-2.91459E-05 1.18544E-05-7.09259E-19-2.02723E-18
 -1       779 1.00912E-04-3.33794E-05-2.89426E-05 1.17094E-05-7.45476E-19-8.02092E-19
 -1       780 9.76898E-05-3.00365E-05-2.89943E-05 1.06588E-05-7.65386E-19 3.12325E-20
 -1       781 9.59332E-05-2.80271E-05-2.91026E-05 9.31241E-06-4.80861E-19 2.51853E-19
 -1       782 9.50839E-05-2.69845E-05-2.91853E-05 7.93806E-06-1.82398E-19-7.08390E-19
 -1       783 9.47474E-05-2.65665E-05-2.92201E-05 6.64351E-06 4.34307E-20-6.01093E-19
 -1       784 9.46763E-05-2.65177E-05-2.92105E-05 5.47005E-06 3.20313E-20 3.68145E-19
 -1       785 9.47268E-05-2.66671E-05-2.91682E-05 4.43321E-06-1.68768E-19 6.46448E-19
 -1       786 9.48215E-05-2.69069E-05-2.91060E-05 3.53662E-06 3.72349E-20 9.96896E-19
 -1       787 9.49214E-05-2.71734E-05-2.90347E-05 2.77659E-06 2.40032E-19 1.04609E-18
 -1       788 9.50099E-05-2.74315E-05-2.89620E-05 2.14437E-06-2.00338E-19 1.45030E-18
 -1       789 9.50814E-05-2.76640E-05-2.88930E-05 1.62791E-06 8.53980E-19 1.95249E-18
 -1       790 9.51359E-05-2.78640E-05-2.88307E-05 1.21336E-06-5.14253E-20 2.18876E-18
 -1       791 9.51758E-05-2.80305E-05-2.87765E-05 8.86285E-07-8.21820E-19 2.40118E-18
 -1       792 9.52038E-05-2.81656E-05-2.87306E-05 6.32625E-07-5.80728E-19 2.05621E-18
 -1       793 9.52227E-05-2.82730E-05-2.86927E-05 4.39330E-07-7.93519E-19 2.71745E-18
 -1       794 9.52350E-05-2.83568E-05-2.86621E-05 2.94733E-07-9.97596E-19 2.90805E-18
 -1       795 9.52424E-05-2.84210E-05-2.86378E-05 1.88714E-07-3.46341E-19 1.38858E-18
 -1       796 9.52465E-05-2.84692E-05-2.86188E-05 1.12724E-07 5.73594E-19 1.16542E-18
 -1       797 9.52484E-05-2.85048E-05-2.86044E-05 5.96912E-08 3.82322E-19 1.80728E-18
 -1       798 9.52487E-05-2.85304E-05-2.85936E-05 2.38907E-08 1.13926E-18 2.77387E-18
 -1       799 9.52482E-05-2.85485E-05-2.85856E-05 7.68557E-10 3.49580E-19 1.24941E-18
 -1       800 9.52472E-05-2.85608E-05-2.85799E-05-1.32310E-08-1.26966E-18 1.89284E-18
 -1       801 9.52459E-05-2.85689E-05-2.85758E-05-2.08358E-08-2.69797E-18 1.97894E-18
 -1       802 9.52446E-05-2.85739E-05-2.85731E-05-2.40996E-08-6.71271E-19 2.29749E-18
 -1       803 9.52433E-05-2.85768E-05-2.85714E-05-2.45391E-08 1.12877E-18 2.09298E-18
 -1       804 9.52421E-05-2.85781E-05-2.85703E-05-2.32495E-08 1.82117E-18 1.57909E-18
 -1       805 9.52411E-05-2.85785E-05-2.85697E-05-2.10021E-08 3.20104E-19 7.77803E-19
 -1       806 9.52402E-05-2.85782E-05-2.85694E-05-1.83227E-08-8.37369E-19 3.48549E-19
 -1       807 9.52395E-05-2.85776E-05-2.85694E-05-1.55556E-08-1.05262E-18-1.08406E-18
 -1       808 9.52389E-05-2.85768E-05-2.85695E-05-1.29126E-08-7.39341E-19-9.16200E-19
 -1       809 9.52384E-05-2.85760E-05-2.85696E-05-1.05114E-08 1.00809E-18 3.47369E-19
 -1       810 9.52381E-05-2.85752E-05-2.85698E-05-8.40564E-09 1.76570E-18 6.88084E-21
 -1       811 9.52378E-05-2.85745E-05-2.85700E-05-6.61343E-09-1.42088E-19 2.03994E-18
 -1       812 9.52414E-05-2.85772E-05-2.85704E-05 1.60409E-09 9.32210E-19 9.42868E-19
 -1       813 1.23159E-04-3.45398E-05-3.81289E-05-1.87391E-05-1.24168E-18-4.67597E-20
 -1       814 9.52407E-05-2.85766E-05-2.85703E-05 3.01027E-09 5.60774E-19-4.74461E-19
 -1       815 9.52416E-05-2.85774E-05-2.85704E-05 1.46977E-13 1.62540E-19-2.67208E-18
 -1       816 1.23003E-04-4.71283E-05-3.25592E-05 3.22189E-06-5.38640E-19-4.00271E-18
 -1       817 9.46095E-05-3.84436E-05-2.39282E-05-2.88034E-05 2.79021E-18-1.67656E-19
 -1       818 1.10779E-04-4.62375E-05-2.76206E-05-2.07564E-05 2.27563E-18-2.29771E-18
 -1       819 5.75217E-05-1.22334E-05-1.91803E-05-1.26702E-05 1.05845E-18 1.79551E-18
 -1       820 1.26062E-04-2.95242E-05-4.15989E-05 2.32346E-05 2.96444E-18 1.18473E-18
 -1       821 9.52396E-05-2.85756E-05-2.85703E-05 4.02966E-09 3.72967E-19 1.61755E-18
 -1       822 7.25457E-05-2.37862E-05-2.07128E-05-2.66800E-05 2.04387E-18 1.18147E-18
 -1       823 1.23859E-04-4.30575E-05-3.47199E-05 2.81383E-06 3.55883E-19-4.27088E-18
 -1       824 1.22228E-04-4.86622E-05-3.14701E-05-8.72423E-06 1.30686E-18-3.94563E-18
 -1       825 9.52396E-05-2.85756E-05-2.85703E-05-4.03049E-09 1.69875E-18-7.03940E-19
 -1       826 1.09167E-04-4.57528E-05-2.70715E-05 2.26643E-05-2.06613E-18-2.22335E-18
 -1       827 6.07799E-05-1.48640E-05-1.94520E-05 1.70502E-05-1.50266E-18 2.02253E-18
 -1       828 9.52380E-05-2.85743E-05-2.85701E-05-5.36175E-09-1.31926E-18 2.58476E-18
 -1       829 9.52414E-05-2.85772E-05-2.85704E-05-1.60374E-09 1.72216E-18 2.73962E-19
 -1       830 9.52407E-05-2.85766E-05-2.85703E-05-3.00038E-09 2.28087E-18-9.59640E-19
 -1       831 9.52389E-05-2.85750E-05-2.85702E-05 4.54960E-09 2.18968E-18 5.33353E-19
 -1       832 9.52382E-05-2.85743E-05-2.85702E-05-4.62772E-09 1.26668E-18 1.69762E-18
 -1       833 9.52412E-05-2.85771E-05-2.85703E-05 4.44095E-09 1.10719E-18-1.36246E-18
 -1       834 1.02352E-04-3.82902E-05-2.74408E-05-1.70331E-05 1.45471E-18-1.68197E-18
 -1       835 9.66286E-05-3.26738E-05-2.74170E-05-1.48539E-05 6.39713E-19-1.22167E-18
 -1       836 9.35164E-05-2.89225E-05-2.76828E-05-1.23471E-05 9.94683E-19-6.94409E-19
 -1       837 9.21693E-05-2.67526E-05-2.80348E-05-1.00203E-05 7.10072E-19-2.85882E-19
 -1       838 9.17787E-05-2.56504E-05-2.83401E-05-8.10238E-06-3.07827E-19-1.35422E-19
 -1       839 9.19006E-05-2.52360E-05-2.85703E-05-6.54391E-06-4.10736E-20 1.14983E-20
 -1       840 9.22704E-05-2.52433E-05-2.87258E-05-5.27255E-06 5.76243E-20-2.42381E-19
 -1       841 9.27336E-05-2.54904E-05-2.88184E-05-4.22656E-06-6.10826E-19-3.25561E-19
 -1       842 9.32036E-05-2.58563E-05-2.88631E-05-3.36125E-06-2.53464E-19-1.34354E-18
 -1       843 9.36356E-05-2.62636E-05-2.88737E-05-2.64532E-06 1.63172E-19-9.54394E-19
 -1       844 9.40098E-05-2.66654E-05-2.88619E-05-2.05600E-06 8.42671E-21-3.79644E-19
 -1       845 9.43207E-05-2.70350E-05-2.88367E-05-1.57533E-06-3.64968E-19 6.31287E-20
 -1       846 9.45709E-05-2.73597E-05-2.88048E-05-1.18788E-06-5.61387E-19-6.85538E-19
 -1       847 9.47667E-05-2.76353E-05-2.87706E-05-8.79809E-07-6.43595E-20-9.96899E-19
 -1       848 9.49163E-05-2.78627E-05-2.87373E-05-6.38469E-07 5.66054E-19-1.59392E-18
 -1       849 9.50279E-05-2.80460E-05-2.87065E-05-4.52391E-07 5.46268E-19-1.67516E-18
 -1       850 9.51090E-05-2.81907E-05-2.86793E-05-3.11346E-07 5.47995E-19-1.32539E-18
 -1       851 9.51664E-05-2.83026E-05-2.86559E-05-2.06395E-07-3.86937E-19-2.07566E-18
 -1       852 9.52057E-05-2.83874E-05-2.86364E-05-1.29892E-07 1.03803E-19-1.37082E-18
 -1       853 9.52315E-05-2.84505E-05-2.86204E-05-7.54286E-08-3.49919E-19-1.42648E-19
 -1       854 9.52474E-05-2.84963E-05-2.86076E-05-3.77398E-08-1.47112E-19 3.67352E-19
 -1       855 9.52564E-05-2.85287E-05-2.85976E-05-1.25804E-08-1.04024E-18-1.06217E-18
 -1       856 9.52606E-05-2.85510E-05-2.85898E-05 3.41126E-09-4.60557E-19-1.21378E-18
 -1       857 9.52616E-05-2.85658E-05-2.85839E-05 1.28496E-08-1.45115E-19-1.33887E-18
 -1       858 9.52606E-05-2.85750E-05-2.85796E-05 1.77316E-08 8.58736E-19-1.23086E-18
 -1       859 9.52585E-05-2.85803E-05-2.85764E-05 1.95540E-08 5.09098E-19-1.99798E-18
 -1       860 9.52559E-05-2.85829E-05-2.85741E-05 1.94158E-08-2.81001E-19-4.92770E-19
 -1       861 9.52531E-05-2.85837E-05-2.85726E-05 1.81055E-08 1.50397E-19 8.84833E-19
 -1       862 9.52503E-05-2.85834E-05-2.85716E-05 1.61737E-08-1.32405E-19 1.55401E-18
 -1       863 9.52478E-05-2.85824E-05-2.85709E-05 1.39921E-08 7.31795E-19 2.96247E-19
 -1       864 9.52456E-05-2.85811E-05-2.85705E-05 1.18005E-08 1.23060E-18 2.19844E-19
 -1       865 9.52437E-05-2.85796E-05-2.85703E-05 9.74274E-09 1.28173E-18 8.98686E-19
 -1       866 9.52421E-05-2.85783E-05-2.85702E-05 7.89688E-09 6.23688E-19 1.29015E-19
 -1       867 9.52409E-05-2.85770E-05-2.85702E-05 6.28871E-09 1.56928E-18 2.15568E-18
 -1       868 8.87264E-05-3.12324E-05-2.45684E-05-2.29163E-05 1.54538E-18-8.66918E-20
 -1       869 1.02372E-04-3.89054E-05-2.71204E-05 1.91029E-05-1.89994E-18-1.54715E-18
 -1       870 9.18879E-05-2.63377E-05-2.80928E-05 1.08810E-05-5.67541E-19 1.64486E-19
 -1       871 9.16269E-05-2.52827E-05-2.84337E-05 8.82080E-06 4.25904E-19-1.19979E-19
 -1       872 9.18726E-05-2.49625E-05-2.86756E-05 7.16199E-06 1.86977E-20-5.22989E-19
 -1       873 9.23326E-05-2.50658E-05-2.88285E-05 5.80679E-06-5.30912E-19 5.82502E-20
 -1       874 9.28502E-05-2.53924E-05-2.89104E-05 4.68284E-06-2.05824E-19 4.05142E-19
 -1       875 9.33444E-05-2.58162E-05-2.89406E-05 3.74391E-06 2.22382E-19 8.01744E-19
 -1       876 9.37786E-05-2.62610E-05-2.89361E-05 2.95985E-06 1.31118E-19 7.32127E-19
 -1       877 9.41412E-05-2.66838E-05-2.89103E-05 2.30936E-06-4.94359E-20 1.39834E-18
 -1       878 9.44332E-05-2.70626E-05-2.88731E-05 1.77540E-06 2.14280E-20 9.16030E-19
 -1       879 9.46620E-05-2.73890E-05-2.88313E-05 1.34283E-06-1.68088E-19 1.94024E-18
 -1       880 9.48370E-05-2.76618E-05-2.87894E-05 9.97503E-07-1.50395E-19 1.39710E-18
 -1       881 9.49682E-05-2.78846E-05-2.87501E-05 7.26088E-07-6.83082E-20 1.06207E-18
 -1       882 9.50643E-05-2.80627E-05-2.87150E-05 5.16232E-07-1.47342E-18 1.38424E-18
 -1       883 9.51331E-05-2.82025E-05-2.86846E-05 3.56751E-07-5.03732E-19 7.92253E-19
 -1       884 9.51812E-05-2.83103E-05-2.86590E-05 2.37777E-07 1.48331E-19 3.22857E-19
 -1       885 9.52137E-05-2.83919E-05-2.86379E-05 1.50815E-07-1.91097E-20 3.92965E-19
 -1       886 9.52347E-05-2.84525E-05-2.86209E-05 8.87124E-08-5.02855E-19 2.15847E-18
 -1       887 9.52475E-05-2.84966E-05-2.86075E-05 4.55733E-08 3.18161E-19 2.02825E-18
 -1       888 9.52545E-05-2.85280E-05-2.85971E-05 1.66310E-08 7.88538E-19 2.77390E-18
 -1       889 9.52576E-05-2.85496E-05-2.85892E-05-1.89707E-09-8.41533E-19 3.30887E-18
 -1       890 9.52582E-05-2.85640E-05-2.85832E-05-1.29591E-08-1.51771E-18 2.61200E-18
 -1       891 9.52572E-05-2.85732E-05-2.85789E-05-1.88114E-08-9.35207E-19 1.39451E-18
 -1       892 9.52553E-05-2.85785E-05-2.85757E-05-2.11488E-08 8.21158E-19 9.93059E-19
 -1       893 9.52530E-05-2.85813E-05-2.85736E-05-2.12185E-08 1.40752E-18 1.43059E-18
 -1       894 9.52506E-05-2.85823E-05-2.85721E-05-1.99181E-08 9.90267E-19 2.33475E-18
 -1       895 9.52482E-05-2.85822E-05-2.85712E-05-1.78767E-08 1.01334E-18 2.13418E-18
 -1       896 9.52461E-05-2.85814E-05-2.85706E-05-1.55205E-08 8.01316E-20 4.68287E-19
 -1       897 9.52442E-05-2.85803E-05-2.85703E-05-1.31263E-08-2.14230E-19-6.87307E-19
 -1       898 9.52426E-05-2.85790E-05-2.85701E-05-1.08625E-08-1.00183E-19-2.07812E-18
 -1       899 9.52413E-05-2.85778E-05-2.85701E-05-8.82093E-09 5.17335E-19-1.27641E-19
 -1       900 9.52402E-05-2.85766E-05-2.85701E-05-7.04527E-09-1.11718E-18 1.25272E-18
 -1       901 9.52431E-05-2.85786E-05-2.85705E-05 1.00798E-09 3.36705E-18-6.15428E-19
 -1       902 7.20489E-05-1.93837E-05-2.25109E-05-1.74329E-05 1.43990E-18 9.44098E-19
 -1       903 6.18879E-05-1.21238E-05-2.12428E-05-1.99796E-07 4.50299E-19 1.23597E-18
 -1       904 9.31621E-05-2.85765E-05-2.76759E-05 1.34149E-05-1.25587E-18 5.36352E-20
 -1       905 9.62866E-05-3.25830E-05-2.72885E-05 1.63439E-05-1.61970E-18-4.66667E-19
 -1       906 8.71826E-05-3.23449E-05-2.33843E-05 2.71331E-05-2.61670E-18 3.05150E-19
 -1       907 9.52424E-05-2.85781E-05-2.85704E-05 2.88940E-09 1.68573E-18-1.54519E-18
 -1       908 7.64057E-05-2.32558E-05-2.26708E-05 2.16466E-05-2.19555E-18 8.88541E-19
 -1       909 9.52397E-05-2.85759E-05-2.85702E-05 5.39124E-09 8.49418E-19 3.42163E-18
 -1       910 9.52431E-05-2.85786E-05-2.85705E-05-1.00950E-09 1.49878E-18-1.16895E-18
 -1       911 9.52399E-05-2.85761E-05-2.85702E-05-5.68217E-09-1.19512E-18 1.27205E-18
 -1       912 9.52412E-05-2.85771E-05-2.85703E-05-4.44999E-09 3.79256E-19-1.05009E-19
 -1       913 6.47791E-05-1.35903E-05-2.18485E-05 7.11978E-06-3.24294E-19 8.70743E-19
 -1       914 6.95518E-05-1.54729E-05-2.31420E-05-8.07758E-06 5.44533E-19 8.40489E-19
 -1       915 8.75171E-05-2.62286E-05-2.62556E-05-1.48421E-05 1.10510E-18 3.19100E-19
 -1       916 8.73277E-05-2.43889E-05-2.69720E-05-1.11480E-05 1.08288E-18-2.50379E-19
 -1       917 8.79599E-05-2.36310E-05-2.75689E-05-8.48007E-06 5.63510E-20-2.95661E-19
 -1       918 8.88884E-05-2.35169E-05-2.80160E-05-6.54435E-06-1.06059E-19-3.93614E-19
 -1       919 8.98832E-05-2.37728E-05-2.83330E-05-5.10719E-06 1.12277E-19-2.22082E-19
 -1       920 9.08405E-05-2.42331E-05-2.85461E-05-4.00985E-06-3.83828E-19-9.53339E-19
 -1       921 9.17071E-05-2.47870E-05-2.86801E-05-3.15116E-06-1.08714E-18-8.27495E-19
 -1       922 9.24611E-05-2.53632E-05-2.87563E-05-2.46704E-06-3.13569E-19-1.52409E-18
 -1       923 9.30975E-05-2.59169E-05-2.87917E-05-1.91698E-06 2.25863E-19-2.22466E-18
 -1       924 9.36212E-05-2.64220E-05-2.87997E-05-1.47406E-06-4.81357E-20-2.16630E-18
 -1       925 9.40427E-05-2.68655E-05-2.87903E-05-1.11894E-06-4.85365E-19-1.76706E-18
 -1       926 9.43750E-05-2.72433E-05-2.87708E-05-8.36577E-07 1.26266E-19-6.01755E-19
 -1       927 9.46316E-05-2.75569E-05-2.87463E-05-6.14546E-07 2.10485E-20 5.87024E-19
 -1       928 9.48258E-05-2.78116E-05-2.87204E-05-4.42239E-07 2.45775E-20 2.19952E-19
 -1       929 9.49697E-05-2.80143E-05-2.86952E-05-3.10486E-07 4.36306E-19-2.56369E-19
 -1       930 9.50739E-05-2.81724E-05-2.86721E-05-2.11383E-07-9.37763E-20-1.34517E-18
 -1       931 9.51474E-05-2.82935E-05-2.86516E-05-1.38191E-07 5.22764E-19-1.15816E-18
 -1       932 9.51975E-05-2.83845E-05-2.86342E-05-8.52503E-08 8.87654E-19-1.08968E-18
 -1       933 9.52304E-05-2.84513E-05-2.86196E-05-4.78817E-08-6.32972E-19-2.46552E-19
 -1       934 9.52506E-05-2.84993E-05-2.86077E-05-2.22826E-08-8.26640E-19-2.80508E-19
 -1       935 9.52620E-05-2.85329E-05-2.85982E-05-5.41358E-09-5.39682E-19 1.01135E-18
 -1       936 9.52672E-05-2.85556E-05-2.85907E-05 5.11360E-09-1.04858E-19 1.32797E-18
 -1       937 9.52685E-05-2.85703E-05-2.85849E-05 1.11439E-08 3.42764E-19 7.28874E-19
 -1       938 9.52672E-05-2.85792E-05-2.85806E-05 1.40774E-08 4.19604E-19-2.30503E-19
 -1       939 9.52645E-05-2.85841E-05-2.85773E-05 1.49566E-08 7.21360E-19-8.21556E-19
 -1       940 9.52611E-05-2.85861E-05-2.85750E-05 1.45418E-08-4.17530E-20-1.44475E-18
 -1       941 9.52575E-05-2.85864E-05-2.85733E-05 1.33744E-08 5.47678E-19-2.07364E-18
 -1       942 9.52540E-05-2.85856E-05-2.85722E-05 1.18288E-08-1.09425E-18-1.41698E-18
 -1       943 9.52508E-05-2.85842E-05-2.85714E-05 1.01549E-08 1.14704E-18-1.43729E-18
 -1       944 9.52479E-05-2.85825E-05-2.85709E-05 8.51287E-09 1.45986E-18-1.30372E-18
 -1       945 9.52455E-05-2.85807E-05-2.85706E-05 6.99328E-09 1.69007E-18-2.57890E-18
 -1       946 9.52435E-05-2.85791E-05-2.85705E-05 5.63276E-09 1.26295E-18-1.95025E-18
 -1       947 8.70881E-05-2.91020E-05-2.48001E-05 2.12733E-05-2.04857E-18 1.25809E-19
 -1       948 8.72163E-05-2.29989E-05-2.75250E-05 9.01299E-06 3.46434E-20-3.25585E-19
 -1       949 9.07014E-05-2.39929E-05-2.85896E-05 4.43498E-06-1.01163E-19 1.52279E-19
 -1       950 9.16540E-05-2.46291E-05-2.87251E-05 3.53647E-06-5.13792E-19 6.58597E-20
 -1       951 9.24586E-05-2.52644E-05-2.87977E-05 2.80578E-06-2.91013E-19 7.98514E-19
 -1       952 9.31212E-05-2.58581E-05-2.88272E-05 2.20589E-06-3.62170E-19 6.83319E-19
 -1       953 9.36554E-05-2.63887E-05-2.88287E-05 1.71354E-06-4.65603E-20 1.18070E-18
 -1       954 9.40778E-05-2.68474E-05-2.88131E-05 1.31223E-06-5.46932E-19 1.83769E-18
 -1       955 9.44060E-05-2.72336E-05-2.87882E-05 9.88730E-07-7.73766E-21 1.38181E-18
 -1       956 9.46565E-05-2.75515E-05-2.87593E-05 7.31457E-07-4.70725E-19 1.35465E-18
 -1       957 9.48443E-05-2.78081E-05-2.87299E-05 5.29919E-07-9.72604E-19 8.46444E-19
 -1       958 9.49824E-05-2.80113E-05-2.87019E-05 3.74593E-07-7.43842E-19 3.91176E-19
 -1       959 9.50818E-05-2.81695E-05-2.86767E-05 2.56958E-07-4.25230E-20 5.48768E-19
 -1       960 9.51515E-05-2.82905E-05-2.86547E-05 1.69542E-07 1.07873E-19 6.77227E-19
 -1       961 9.51990E-05-2.83813E-05-2.86362E-05 1.05939E-07-6.20807E-19 4.70444E-19
 -1       962 9.52300E-05-2.84482E-05-2.86208E-05 6.07730E-08-2.61498E-19-3.59678E-19
 -1       963 9.52491E-05-2.84963E-05-2.86083E-05 2.96231E-08-7.34995E-21 8.20086E-19
 -1       964 9.52599E-05-2.85302E-05-2.85985E-05 8.92551E-09 1.75874E-19 1.31412E-18
 -1       965 9.52649E-05-2.85532E-05-2.85907E-05-4.14030E-09-1.20957E-18 2.71319E-18
 -1       966 9.52662E-05-2.85682E-05-2.85848E-05-1.17656E-08 2.60162E-20 2.07462E-18
 -1       967 9.52650E-05-2.85774E-05-2.85804E-05-1.56214E-08 2.80040E-19 1.25450E-18
 -1       968 9.52626E-05-2.85826E-05-2.85771E-05-1.69578E-08 9.03604E-19 3.43050E-19
 -1       969 9.52594E-05-2.85849E-05-2.85748E-05-1.66907E-08 6.16431E-19 1.98558E-18
 -1       970 9.52561E-05-2.85855E-05-2.85731E-05-1.54750E-08 4.62991E-19 1.03660E-18
 -1       971 9.52529E-05-2.85849E-05-2.85720E-05-1.37665E-08 1.22779E-18 2.17334E-18
 -1       972 9.52499E-05-2.85836E-05-2.85713E-05-1.18713E-08 1.03788E-18 2.20094E-18
 -1       973 9.52472E-05-2.85820E-05-2.85708E-05-9.98580E-09 9.33584E-20 1.42791E-19
 -1       974 9.52450E-05-2.85804E-05-2.85705E-05-8.22712E-09-7.61963E-20 2.01367E-19
 -1       975 9.52431E-05-2.85789E-05-2.85704E-05-6.66790E-09-7.48455E-19 4.95720E-19
 -1       976 9.52421E-05-2.85779E-05-2.85704E-05-5.48516E-09-1.56800E-18 9.80609E-19
 -1       977 9.52424E-05-2.85781E-05-2.85704E-05-2.90390E-09 6.30499E-19-1.35481E-18
 -1       978 8.96108E-05-2.34253E-05-2.83655E-05 5.56411E-06-8.59349E-19 2.86068E-19
 -1       979 8.62152E-05-2.36300E-05-2.68246E-05 1.17993E-05-9.39245E-19-5.21722E-19
 -1       980 8.58123E-05-2.53550E-05-2.59021E-05 1.57449E-05-1.39036E-18-2.50585E-19
 -1       981 8.84210E-05-2.30376E-05-2.80221E-05 7.02952E-06 2.86931E-19 1.81265E-19
 -1       982 9.52437E-05-2.85791E-05-2.85705E-05-3.68032E-09-4.65617E-19-1.79138E-18
 -1       983 7.38633E-05-1.86125E-05-2.36398E-05 1.35810E-05-1.14226E-18 2.93452E-19
 -1       984 6.92718E-05-1.44627E-05-2.34538E-05 1.45514E-06 1.29125E-19 5.75236E-19
 -1       985 9.52450E-05-2.85801E-05-2.85706E-05 3.40472E-12 2.20013E-18 2.59364E-18
 -1       986 9.52446E-05-2.85798E-05-2.85706E-05 2.41822E-09 2.25672E-18-3.53930E-18
 -1       987 7.98916E-05-2.06598E-05-2.53735E-05-1.15308E-05 7.57706E-19 6.63154E-19
 -1       988 9.10815E-05-2.42695E-05-2.86342E-05 2.25106E-06-3.89208E-19-1.17908E-19
 -1       989 9.52446E-05-2.85798E-05-2.85706E-05-1.93071E-09 1.24151E-18-6.03638E-19
 -1       990 7.99448E-05-2.21281E-05-2.47731E-05 1.54111E-05-1.16688E-18 2.63213E-19
 -1       991 8.32684E-05-2.10116E-05-2.66835E-05-7.77052E-06 3.94942E-19 8.09773E-20
 -1       992 8.53995E-05-2.14925E-05-2.73896E-05-5.70414E-06 1.37345E-19 5.58639E-19
 -1       993 8.72489E-05-2.21581E-05-2.78967E-05-4.27709E-06-1.38626E-19 3.23585E-19
 -1       994 8.88196E-05-2.29166E-05-2.82446E-05-3.26271E-06-7.74093E-19-1.09503E-20
 -1       995 9.01381E-05-2.36959E-05-2.84756E-05-2.51398E-06-8.24915E-19-3.10185E-19
 -1       996 9.12380E-05-2.44542E-05-2.86219E-05-1.94347E-06-1.04499E-18-4.98858E-19
 -1       997 9.21463E-05-2.51621E-05-2.87077E-05-1.49964E-06-5.26497E-19-1.25084E-18
 -1       998 9.28866E-05-2.58005E-05-2.87514E-05-1.15031E-06-1.17658E-20-1.83266E-18
 -1       999 9.34813E-05-2.63598E-05-2.87665E-05-8.74229E-07 1.92526E-19-8.35157E-19
 -1      1000 9.39516E-05-2.68373E-05-2.87634E-05-6.56439E-07 6.44503E-19 9.14098E-20
 -1      1001 9.43174E-05-2.72358E-05-2.87494E-05-4.85694E-07 5.43188E-19 2.12566E-19
 -1      1002 9.45971E-05-2.75616E-05-2.87296E-05-3.53086E-07-4.21744E-20-1.73699E-19
 -1      1003 9.48069E-05-2.78229E-05-2.87075E-05-2.51309E-07-1.72295E-19-1.07731E-18
 -1      1004 9.49612E-05-2.80285E-05-2.86855E-05-1.74276E-07-5.17255E-19-1.68282E-18
 -1      1005 9.50720E-05-2.81873E-05-2.86649E-05-1.16895E-07-2.20749E-19-1.66368E-18
 -1      1006 9.51495E-05-2.83078E-05-2.86465E-05-7.49269E-08 2.30812E-19-1.66975E-18
 -1      1007 9.52019E-05-2.83974E-05-2.86305E-05-4.48812E-08 4.05767E-19-2.25465E-18
 -1      1008 9.52358E-05-2.84626E-05-2.86171E-05-2.39163E-08 6.65695E-19-8.24126E-19
 -1      1009 9.52563E-05-2.85088E-05-2.86061E-05-9.75284E-09 5.75035E-19 9.12027E-19
 -1      1010 9.52675E-05-2.85407E-05-2.85972E-05-5.88744E-10-3.07654E-19 6.85107E-19
 -1      1011 9.52723E-05-2.85619E-05-2.85902E-05 4.97845E-09-2.73688E-19-1.17845E-19
 -1      1012 9.52729E-05-2.85753E-05-2.85847E-05 8.02264E-09-5.83880E-20-3.90585E-21
 -1      1013 9.52710E-05-2.85831E-05-2.85805E-05 9.35195E-09-3.61732E-19-1.50456E-18
 -1      1014 9.52676E-05-2.85870E-05-2.85774E-05 9.56306E-09 4.58034E-19-2.76112E-18
 -1      1015 9.52636E-05-2.85883E-05-2.85751E-05 9.08722E-09 5.24927E-19-2.17981E-18
 -1      1016 9.52595E-05-2.85880E-05-2.85735E-05 8.22836E-09-1.17214E-19-1.32527E-18
 -1      1017 9.52555E-05-2.85867E-05-2.85723E-05 7.19388E-09-2.73422E-19-7.51674E-19
 -1      1018 9.52520E-05-2.85850E-05-2.85716E-05 6.11760E-09 1.25475E-18-4.72790E-19
 -1      1019 9.52488E-05-2.85830E-05-2.85711E-05 5.09982E-09-1.55046E-19-2.29791E-18
 -1      1020 9.52461E-05-2.85811E-05-2.85707E-05 4.17373E-09 1.98997E-18-2.98239E-18
 -1      1021 8.98924E-05-2.34426E-05-2.84791E-05 2.82768E-06-2.35948E-19 4.04759E-19
 -1      1022 9.28249E-05-2.57018E-05-2.87673E-05 1.39977E-06-5.52645E-19 4.36412E-19
 -1      1023 9.34426E-05-2.62867E-05-2.87813E-05 1.08502E-06-1.17550E-18 6.17956E-19
 -1      1024 9.39269E-05-2.67826E-05-2.87763E-05 8.28594E-07-6.21977E-19 3.49272E-19
 -1      1025 9.43011E-05-2.71943E-05-2.87602E-05 6.22092E-07 3.71514E-20 1.23438E-18
 -1      1026 9.45857E-05-2.75297E-05-2.87384E-05 4.58126E-07-1.05666E-19 9.38897E-19
 -1      1027 9.47985E-05-2.77981E-05-2.87145E-05 3.29972E-07-7.86767E-19 1.16073E-18
 -1      1028 9.49546E-05-2.80090E-05-2.86910E-05 2.31501E-07-3.00626E-20-1.40473E-19
 -1      1029 9.50666E-05-2.81721E-05-2.86691E-05 1.57209E-07-2.69679E-19 5.81998E-19
 -1      1030 9.51450E-05-2.82958E-05-2.86497E-05 1.02265E-07 2.96568E-19 1.00478E-18
 -1      1031 9.51981E-05-2.83880E-05-2.86329E-05 6.25257E-08 6.47025E-19 4.99216E-20
 -1      1032 9.52326E-05-2.84553E-05-2.86189E-05 3.45182E-08 7.03508E-20-8.53373E-19
 -1      1033 9.52537E-05-2.85033E-05-2.86073E-05 1.53922E-08 2.34764E-19-8.56203E-19
 -1      1034 9.52654E-05-2.85366E-05-2.85981E-05 2.85570E-09-1.03734E-18-1.08124E-18
 -1      1035 9.52706E-05-2.85588E-05-2.85907E-05-4.89918E-09-8.90933E-19-1.08384E-18
 -1      1036 9.52715E-05-2.85730E-05-2.85851E-05-9.27136E-09 1.76644E-19-1.50636E-19
 -1      1037 9.52699E-05-2.85815E-05-2.85808E-05-1.13228E-08 4.92303E-19 2.31056E-19
 -1      1038 9.52668E-05-2.85859E-05-2.85776E-05-1.18436E-08 1.44433E-18 3.74520E-19
 -1      1039 9.52631E-05-2.85876E-05-2.85752E-05-1.14088E-08 1.19470E-18 5.39697E-19
 -1      1040 9.52591E-05-2.85875E-05-2.85735E-05-1.04267E-08 1.43310E-18 1.65677E-19
 -1      1041 9.52553E-05-2.85865E-05-2.85723E-05-9.17853E-09 1.68981E-18-8.61975E-19
 -1      1042 9.52518E-05-2.85848E-05-2.85716E-05-7.84938E-09 1.35938E-18-7.78967E-19
 -1      1043 9.52487E-05-2.85829E-05-2.85710E-05-6.55932E-09 1.33412E-19-6.41126E-20
 -1      1044 9.52461E-05-2.85811E-05-2.85707E-05-5.37982E-09 1.23504E-19-2.84162E-19
 -1      1045 9.52448E-05-2.85801E-05-2.85706E-05-4.47381E-09-9.88428E-19-6.52045E-19
 -1      1046 8.19388E-05-2.01369E-05-2.64854E-05 7.82424E-06-6.83907E-19-3.83988E-19
 -1      1047 7.43848E-05-1.71278E-05-2.45249E-05 7.86318E-06-6.50292E-19 2.22053E-19
 -1      1048 7.56440E-05-1.72400E-05-2.50218E-05-5.66680E-06 4.30726E-19 7.79090E-19
 -1      1049 8.84390E-05-2.25708E-05-2.82301E-05 3.55815E-06-2.52290E-19 6.09911E-19
 -1      1050 8.05613E-05-2.05743E-05-2.57055E-05 1.10183E-05-6.11854E-19-4.20919E-19
 -1      1051 8.66697E-05-2.16914E-05-2.78491E-05 4.52639E-06-4.04669E-19 8.25201E-19
 -1      1052 8.45296E-05-2.08657E-05-2.72860E-05 5.87824E-06-2.59099E-19-1.55976E-20
 -1      1053 9.20477E-05-2.50274E-05-2.87234E-05 1.78341E-06-1.87844E-19-3.94770E-19
 -1      1054 9.52470E-05-2.85817E-05-2.85708E-05-1.40158E-09 1.83547E-18 2.47272E-18
 -1      1055 7.57151E-05-1.66772E-05-2.52920E-05 1.34777E-07-2.71099E-19-4.48537E-19
 -1      1056 9.52470E-05-2.85817E-05-2.85708E-05 1.45939E-09 6.77374E-19-5.27277E-19
 -1      1057 9.52460E-05-2.85810E-05-2.85707E-05-3.01803E-09 4.77026E-19 1.32383E-18
 -1      1058 9.39364E-05-2.68410E-05-2.87550E-05 3.87211E-07-4.77340E-19-9.64094E-19
 -1      1059 8.17038E-05-1.93367E-05-2.67403E-05-3.56331E-06 2.78125E-19-4.92501E-19
 -1      1060 8.37765E-05-2.00581E-05-2.73090E-05 2.45960E-06-4.52419E-19-5.35914E-19
 -1      1061 8.45734E-05-2.05462E-05-2.74402E-05-2.50712E-06 3.68248E-19-6.92119E-19
 -1      1062 8.68291E-05-2.16551E-05-2.79322E-05-1.84340E-06-3.62280E-19 1.92512E-19
 -1      1063 8.86213E-05-2.26719E-05-2.82645E-05-1.36897E-06-1.60185E-18 3.81710E-19
 -1      1064 9.00674E-05-2.36086E-05-2.84827E-05-1.02456E-06-9.48347E-19-2.20281E-19
 -1      1065 9.12381E-05-2.44600E-05-2.86195E-05-7.69712E-07-8.57629E-19 4.67642E-19
 -1      1066 9.21829E-05-2.52191E-05-2.86989E-05-5.78143E-07-2.03355E-19 5.87259E-19
 -1      1067 9.29393E-05-2.58822E-05-2.87389E-05-4.32582E-07 4.28350E-19-5.28346E-20
 -1      1068 9.35381E-05-2.64493E-05-2.87524E-05-3.21365E-07 1.05509E-18-1.32923E-19
 -1      1069 9.40059E-05-2.69248E-05-2.87491E-05-2.36307E-07 5.36637E-19-6.23950E-19
 -1      1070 9.43660E-05-2.73159E-05-2.87358E-05-1.71448E-07-5.77787E-19-1.36229E-18
 -1      1071 9.46386E-05-2.76316E-05-2.87173E-05-1.22298E-07-8.29319E-19-1.58495E-18
 -1      1072 9.48412E-05-2.78820E-05-2.86968E-05-8.53868E-08-9.42504E-19-1.72896E-18
 -1      1073 9.49887E-05-2.80771E-05-2.86764E-05-5.79893E-08-4.64562E-20-2.71687E-18
 -1      1074 9.50937E-05-2.82264E-05-2.86574E-05-3.79443E-08 2.01879E-19-2.15900E-18
 -1      1075 9.51661E-05-2.83386E-05-2.86404E-05-2.35339E-08 4.45135E-19-1.71841E-18
 -1      1076 9.52144E-05-2.84211E-05-2.86257E-05-1.33953E-08 1.51827E-18-2.08599E-18
 -1      1077 9.52450E-05-2.84805E-05-2.86133E-05-6.45374E-09 8.18745E-19-2.30245E-18
 -1      1078 9.52629E-05-2.85221E-05-2.86032E-05-1.86859E-09-4.10700E-19-3.28108E-18
 -1      1079 9.52721E-05-2.85504E-05-2.85950E-05 1.01082E-09-9.79809E-19-3.13234E-18
 -1      1080 9.52754E-05-2.85687E-05-2.85886E-05 2.68201E-09-3.21363E-19-3.47439E-18
 -1      1081 9.52749E-05-2.85800E-05-2.85835E-05 3.52010E-09-1.84811E-19-3.60599E-18
 -1      1082 9.52722E-05-2.85861E-05-2.85797E-05 3.80344E-09-3.42875E-19-1.98947E-18
 -1      1083 9.52683E-05-2.85889E-05-2.85769E-05 3.73484E-09 1.89317E-18-2.12741E-18
 -1      1084 9.52639E-05-2.85894E-05-2.85748E-05 3.45895E-09 1.33815E-18-1.26318E-18
 -1      1085 9.52595E-05-2.85885E-05-2.85733E-05 3.07654E-09 1.53411E-18-4.62959E-21
 -1      1086 9.52554E-05-2.85869E-05-2.85722E-05 2.65654E-09 1.41762E-18 1.81829E-18
 -1      1087 9.52517E-05-2.85849E-05-2.85715E-05 2.24603E-09-1.49260E-18 6.58588E-19
 -1      1088 9.52492E-05-2.85832E-05-2.85711E-05 1.81943E-09-2.82350E-19-3.95700E-19
 -1      1089 8.97703E-05-2.33653E-05-2.84588E-05 1.27308E-06-5.22137E-19 3.04361E-19
 -1      1090 8.62647E-05-2.12702E-05-2.78540E-05 1.95256E-06-2.06263E-19-1.32503E-18
 -1      1091 9.34455E-05-2.63450E-05-2.87572E-05 5.06029E-07-4.79061E-20-1.06723E-19
 -1      1092 9.28160E-05-2.57530E-05-2.87411E-05 6.50024E-07-6.35492E-19 1.07426E-18
 -1      1093 9.43140E-05-2.72490E-05-2.87420E-05 2.90691E-07-3.03043E-19-5.23007E-19
 -1      1094 9.45999E-05-2.75788E-05-2.87233E-05 2.13639E-07-1.12586E-18 1.19465E-21
 -1      1095 9.48127E-05-2.78407E-05-2.87022E-05 1.53249E-07-3.10363E-19-3.10789E-19
 -1      1096 9.49680E-05-2.80451E-05-2.86812E-05 1.06818E-07-7.83750E-19 5.00932E-19
 -1      1097 9.50787E-05-2.82020E-05-2.86614E-05 7.18319E-08-1.00755E-19 6.38028E-19
 -1      1098 9.51556E-05-2.83202E-05-2.86438E-05 4.60347E-08 6.51836E-19 2.29059E-20
 -1      1099 9.52072E-05-2.84075E-05-2.86285E-05 2.74666E-08 1.89851E-19 2.48213E-20
 -1      1100 9.52402E-05-2.84706E-05-2.86156E-05 1.44714E-08 2.09405E-19-8.03798E-19
 -1      1101 9.52599E-05-2.85151E-05-2.86049E-05 5.68489E-09 3.35711E-20-6.55585E-19
 -1      1102 9.52703E-05-2.85455E-05-2.85964E-05 8.62886E-12-6.58027E-19-5.28678E-19
 -1      1103 9.52745E-05-2.85655E-05-2.85896E-05-3.42324E-09-6.51101E-19-1.18359E-19
 -1      1104 9.52746E-05-2.85779E-05-2.85843E-05-5.27924E-09 1.01400E-20 1.54627E-19
 -1      1105 9.52722E-05-2.85849E-05-2.85803E-05-6.06509E-09 9.16213E-19 9.59635E-20
 -1      1106 9.52685E-05-2.85882E-05-2.85773E-05-6.15523E-09 8.73779E-19 1.53644E-18
 -1      1107 9.52643E-05-2.85892E-05-2.85751E-05-5.82058E-09 2.33104E-18 1.11755E-19
 -1      1108 9.52599E-05-2.85885E-05-2.85735E-05-5.25219E-09 2.66530E-18 3.12516E-19
 -1      1109 9.52558E-05-2.85870E-05-2.85723E-05-4.58117E-09 1.22092E-18 1.80207E-19
 -1      1110 9.52521E-05-2.85851E-05-2.85716E-05-3.89466E-09 1.98333E-20 8.66974E-19
 -1      1111 8.82154E-05-2.23682E-05-2.82196E-05 1.57279E-06-4.47073E-19-1.11569E-18
 -1      1112 8.07165E-05-1.87854E-05-2.65433E-05 3.17352E-06-4.87611E-19-2.26328E-19
 -1      1113 9.52489E-05-2.85830E-05-2.85711E-05-3.23020E-09-3.50230E-19 1.69010E-18
 -1      1114 9.10181E-05-2.42633E-05-2.86088E-05 1.02761E-06-2.63990E-19 1.16188E-18
 -1      1115 9.20186E-05-2.50597E-05-2.86964E-05 8.22416E-07-1.10039E-18 1.26270E-18
 -1      1116 1.47433E-04 3.31556E-10-5.32987E-05-5.26702E-05-4.42998E-19 9.69620E-18
 -1      1117 1.09934E-04 9.01063E-11-4.61804E-05-2.94173E-05-1.64748E-19-3.47733E-19
 -1      1118 1.01549E-04 7.25547E-11-4.28647E-05-2.00428E-05-8.93620E-20-3.86447E-18
 -1      1119 9.52375E-05 7.73826E-11-3.99049E-05-1.09744E-05-2.51992E-20-5.11301E-18
 -1      1120 8.64663E-05 7.99728E-11-3.60405E-05-1.06740E-06 2.66815E-20-5.40684E-18
 -1      1121 7.34413E-05 6.30450E-11-3.07609E-05 7.91711E-06 5.33631E-20-5.30327E-18
 -1      1122 5.72064E-05 1.73824E-11-2.45667E-05 1.26523E-05 6.69156E-20-5.17722E-18
 -1      1123 4.24672E-05-4.12756E-11-1.91598E-05 1.02967E-05 4.97632E-20-5.11837E-18
 -1      1124 3.56935E-05-7.09656E-11-1.67729E-05 2.85610E-06 1.45584E-20-5.10054E-18
 -1      1125 3.86845E-05-6.06545E-11-1.78140E-05-5.12177E-06-1.79995E-20-5.13555E-18
 -1      1126 4.93570E-05-1.64683E-11-2.16666E-05-1.00844E-05-1.73642E-20-5.11665E-18
 -1      1127 6.50552E-05 4.00998E-11-2.75809E-05-9.11893E-06-1.10114E-20-4.85305E-18
 -1      1128 8.11373E-05 7.51268E-11-3.38970E-05-2.04366E-06 1.90582E-20-4.18225E-18
 -1      1129 9.35078E-05 8.32755E-11-3.91018E-05 7.89410E-06 5.71747E-20-2.93981E-18
 -1      1130 1.02792E-04 8.15137E-11-4.32631E-05 1.78973E-05 1.09691E-19-5.14361E-19
 -1      1131 1.13123E-04 9.80022E-11-4.75794E-05 2.82744E-05 1.66865E-19 4.04644E-18
 -1      1132 1.41193E-04 2.18986E-10-5.37684E-05 4.56336E-05 4.05729E-19 1.37755E-17
 -1      1133 1.69959E-04-3.31554E-05-5.18595E-05-3.34829E-05-1.76860E-18 1.64994E-17
 -1      1134 1.24533E-04-3.71071E-05-4.02712E-05 2.08338E-08-5.44695E-19 1.25547E-17
 -1      1135 1.11518E-04-3.33818E-05-3.42878E-05 1.56206E-07-2.50391E-19 7.34372E-18
 -1      1136 1.02036E-04-3.07227E-05-3.07941E-05-2.02245E-07-1.18472E-19 4.08495E-18
 -1      1137 9.42091E-05-2.84164E-05-2.85144E-05-2.41119E-07-9.49074E-20 1.80061E-18
 -1      1138 8.95569E-05-2.70318E-05-2.72618E-05-3.57270E-08 7.18919E-20 4.92609E-19
 -1      1139 8.93202E-05-2.69320E-05-2.71785E-05 2.66035E-07-4.35626E-20-8.89120E-19
 -1      1140 9.31759E-05-2.80241E-05-2.81598E-05 4.84314E-07 1.02802E-20-1.64536E-18
 -1      1141 9.92552E-05-2.97789E-05-2.97583E-05 5.22178E-07-7.85182E-20-2.41299E-18
 -1      1142 1.05244E-04-3.15299E-05-3.13957E-05 4.07586E-07-9.18303E-20-3.69190E-18
 -1      1143 1.09504E-04-3.27926E-05-3.26230E-05 2.33324E-07-7.37911E-20-4.43766E-18
 -1      1144 1.11487E-04-3.33927E-05-3.32489E-05 7.86639E-08 8.73999E-20-3.68110E-18
 -1      1145 1.11469E-04-3.34025E-05-3.33095E-05-2.25937E-08-1.28077E-19-4.53366E-18
 -1      1146 1.10092E-04-3.30062E-05-3.29611E-05-7.19726E-08-2.21345E-20-5.51346E-18
 -1      1147 1.08003E-04-3.23939E-05-3.23824E-05-8.53646E-08-5.62896E-21-5.32228E-18
 -1      1148 1.05697E-04-3.17123E-05-3.17195E-05-7.90713E-08-1.48669E-19-5.40677E-18
 -1      1149 1.03485E-04-3.10550E-05-3.10701E-05-6.46486E-08 6.66542E-21-5.34158E-18
 -1      1150 1.01530E-04-3.04716E-05-3.04882E-05-4.87316E-08-2.75410E-20-4.87156E-18
 -1      1151 9.98937E-05-2.99817E-05-2.99967E-05-3.44592E-08 1.13978E-19-5.36927E-18
 -1      1152 9.85787E-05-2.95867E-05-2.95989E-05-2.29271E-08 8.82899E-20-4.72252E-18
 -1      1153 9.75554E-05-2.92784E-05-2.92877E-05-1.42031E-08-1.46163E-19-4.95581E-18
 -1      1154 9.67812E-05-2.90445E-05-2.90513E-05-7.92381E-09 1.07000E-19-4.56012E-18
 -1      1155 9.62109E-05-2.88717E-05-2.88764E-05-3.60187E-09 1.24734E-19-2.99119E-18
 -1      1156 9.58024E-05-2.87475E-05-2.87507E-05-7.66961E-10-3.39991E-19-5.06159E-18
 -1      1157 9.55187E-05-2.86609E-05-2.86630E-05 9.81382E-10-3.86010E-20-5.41496E-18
 -1      1158 9.53291E-05-2.86028E-05-2.86040E-05 1.96232E-09 1.05826E-19-3.14487E-18
 -1      1159 9.52086E-05-2.85657E-05-2.85663E-05 2.41981E-09 1.44483E-19-2.49498E-18
 -1      1160 9.51377E-05-2.85436E-05-2.85438E-05 2.53472E-09 2.78225E-19-4.26902E-18
 -1      1161 9.51012E-05-2.85320E-05-2.85320E-05 2.43760E-09 9.00117E-20-3.81770E-18
 -1      1162 9.50880E-05-2.85275E-05-2.85274E-05 2.22022E-09-4.09002E-20-4.76028E-18
 -1      1163 9.50895E-05-2.85276E-05-2.85274E-05 1.94519E-09-2.36016E-19-6.27688E-18
 -1      1164 9.50999E-05-2.85305E-05-2.85302E-05 1.65364E-09 4.16232E-19-4.86613E-18
 -1      1165 9.51150E-05-2.85348E-05-2.85345E-05 1.37122E-09-7.38661E-20-4.46116E-18
 -1      1166 9.51319E-05-2.85397E-05-2.85395E-05 1.11268E-09-3.11429E-20-6.24889E-18
 -1      1167 9.51489E-05-2.85447E-05-2.85445E-05 8.85285E-10-7.18619E-20-7.87163E-18
 -1      1168 9.51648E-05-2.85495E-05-2.85493E-05 6.91389E-10 2.90761E-19-5.64490E-18
 -1      1169 9.51791E-05-2.85537E-05-2.85535E-05 5.30232E-10 2.58096E-19-5.63822E-18
 -1      1170 9.51914E-05-2.85574E-05-2.85572E-05 3.99252E-10-2.19302E-20-3.82439E-18
 -1      1171 9.52018E-05-2.85605E-05-2.85604E-05 2.94976E-10-2.04896E-19-3.03862E-18
 -1      1172 9.52104E-05-2.85631E-05-2.85630E-05 2.13606E-10-1.40304E-19-3.69545E-18
 -1      1173 9.52174E-05-2.85652E-05-2.85651E-05 1.51396E-10-4.65740E-19-5.01279E-18
 -1      1174 9.52229E-05-2.85668E-05-2.85668E-05 1.04855E-10 1.10302E-20-8.15439E-18
 -1      1175 9.52272E-05-2.85681E-05-2.85681E-05 7.08354E-11 1.35294E-19-5.99581E-18
 -1      1176 9.52306E-05-2.85691E-05-2.85691E-05 4.65061E-11-5.28284E-19-5.11612E-18
 -1      1177 9.52331E-05-2.85699E-05-2.85699E-05 2.92129E-11-1.33110E-19-4.87219E-18
 -1      1178 9.52349E-05-2.85705E-05-2.85704E-05 1.61455E-11 1.81285E-19-2.01465E-18
 -1      1179 9.52362E-05-2.85708E-05-2.85708E-05 3.72611E-12-1.27469E-19-1.35741E-18
 -1      1180 9.52370E-05-2.85711E-05-2.85711E-05-1.33451E-11 1.52168E-19 8.53601E-19
 -1      1181 9.52373E-05-2.85712E-05-2.85712E-05-4.49886E-11 1.57934E-19 1.42366E-18
 -1      1182 9.52372E-05-2.85712E-05-2.85712E-05-3.21875E-11 3.23675E-19 1.73531E-18
 -1      1183 1.77360E-04-5.08940E-05-5.20012E-05 1.59988E-05-2.09005E-19 2.20694E-17
 -1      1184 1.31955E-04-3.85535E-05-4.22175E-05 8.43587E-07 7.91711E-20 1.85828E-17
 -1      1185 1.18910E-04-3.54730E-05-3.62768E-05 2.40083E-07 1.44419E-19 1.51605E-17
 -1      1186 1.07704E-04-3.24096E-05-3.24046E-05 4.41337E-07 1.36295E-19 1.19230E-17
 -1      1187 9.77129E-05-2.94694E-05-2.95808E-05 5.93100E-07 2.94476E-20 1.01430E-17
 -1      1188 9.13834E-05-2.75051E-05-2.79291E-05 4.88863E-07-8.91701E-20 9.47044E-18
 -1      1189 9.07480E-05-2.72141E-05-2.77613E-05 1.43363E-07 5.45873E-20 8.27022E-18
 -1      1190 9.54427E-05-2.85695E-05-2.89382E-05-2.44542E-07-3.36861E-20 7.81875E-18
 -1      1191 1.02805E-04-3.07914E-05-3.08357E-05-4.71611E-07 2.42078E-19 6.25968E-18
 -1      1192 1.09667E-04-3.28891E-05-3.26843E-05-4.81394E-07-8.24434E-20 5.38904E-18
 -1      1193 1.14035E-04-3.42264E-05-3.39386E-05-3.50931E-07-7.55282E-20 5.27140E-18
 -1      1194 1.15489E-04-3.46692E-05-3.44244E-05-1.86060E-07 2.08976E-19 4.11704E-18
 -1      1195 1.14633E-04-3.44076E-05-3.42529E-05-5.27874E-08-8.99592E-20 2.91628E-18
 -1      1196 1.12391E-04-3.37277E-05-3.36561E-05 2.99864E-08 1.86126E-19 2.41178E-18
 -1      1197 1.09566E-04-3.28751E-05-3.28599E-05 6.95818E-08 2.98724E-20 2.06016E-18
 -1      1198 1.06702E-04-3.20136E-05-3.20287E-05 8.08192E-08-1.10022E-19 2.32615E-18
 -1      1199 1.04100E-04-3.12323E-05-3.12599E-05 7.66376E-08-8.62687E-20 1.86057E-18
 -1      1200 1.01888E-04-3.05688E-05-3.05988E-05 6.57213E-08-4.38564E-19 2.51752E-18
 -1      1201 1.00092E-04-3.00301E-05-3.00575E-05 5.30342E-08 5.90954E-20 1.11584E-18
 -1      1202 9.86809E-05-2.96069E-05-2.96300E-05 4.10394E-08-3.55109E-21 1.09148E-19
 -1      1203 9.76028E-05-2.92835E-05-2.93019E-05 3.07415E-08-1.10273E-19 9.35219E-19
 -1      1204 9.67991E-05-2.90422E-05-2.90564E-05 2.23816E-08 1.06319E-19-1.86156E-18
 -1      1205 9.62141E-05-2.88665E-05-2.88771E-05 1.58435E-08-2.09512E-19-2.52528E-18
 -1      1206 9.57991E-05-2.87417E-05-2.87495E-05 1.08719E-08-9.36821E-20-1.05944E-18
 -1      1207 9.55133E-05-2.86556E-05-2.86612E-05 7.18096E-09-1.33913E-19 1.70982E-19
 -1      1208 9.53236E-05-2.85984E-05-2.86023E-05 4.50282E-09 1.39007E-19-1.32042E-18
 -1      1209 9.52039E-05-2.85622E-05-2.85649E-05 2.60627E-09 2.52379E-19-3.18873E-18
 -1      1210 9.51340E-05-2.85410E-05-2.85427E-05 1.30061E-09-2.06363E-19-3.47364E-18
 -1      1211 9.50985E-05-2.85302E-05-2.85312E-05 4.33098E-10 2.60926E-19-3.89008E-18
 -1      1212 9.50860E-05-2.85263E-05-2.85269E-05-1.15960E-10-3.12506E-19-3.38916E-18
 -1      1213 9.50882E-05-2.85268E-05-2.85271E-05-4.38669E-10 8.37643E-20-4.51194E-18
 -1      1214 9.50991E-05-2.85300E-05-2.85300E-05-6.04716E-10-2.58447E-19-4.63498E-18
 -1      1215 9.51144E-05-2.85345E-05-2.85345E-05-6.65928E-10 1.14910E-19-5.12779E-18
 -1      1216 9.51316E-05-2.85396E-05-2.85395E-05-6.60133E-10-5.03521E-19-3.17208E-18
 -1      1217 9.51487E-05-2.85447E-05-2.85445E-05-6.14360E-10-1.75461E-20-2.23469E-18
 -1      1218 9.51647E-05-2.85495E-05-2.85493E-05-5.47437E-10-3.54527E-19-2.69448E-18
 -1      1219 9.51790E-05-2.85537E-05-2.85536E-05-4.72063E-10-2.48917E-19-2.77056E-18
 -1      1220 9.51914E-05-2.85574E-05-2.85573E-05-3.96451E-10 4.25444E-20-2.90095E-18
 -1      1221 9.52018E-05-2.85606E-05-2.85604E-05-3.25593E-10 4.17656E-19-3.16945E-18
 -1      1222 9.52104E-05-2.85631E-05-2.85630E-05-2.62233E-10-3.07296E-19-6.84753E-19
 -1      1223 9.52174E-05-2.85652E-05-2.85651E-05-2.07602E-10 5.99059E-20-6.47080E-19
 -1      1224 9.52229E-05-2.85669E-05-2.85668E-05-1.61955E-10 2.59782E-19-2.18988E-19
 -1      1225 9.52272E-05-2.85682E-05-2.85681E-05-1.24959E-10-3.79454E-19 3.09535E-18
 -1      1226 9.52306E-05-2.85692E-05-2.85691E-05-9.59177E-11 8.91336E-20 2.09242E-18
 -1      1227 9.52331E-05-2.85699E-05-2.85699E-05-7.38397E-11-5.88484E-20-1.54187E-18
 -1      1228 9.52349E-05-2.85705E-05-2.85704E-05-5.74381E-11-1.24536E-19-1.75394E-18
 -1      1229 9.52362E-05-2.85709E-05-2.85708E-05-4.43750E-11-8.67819E-20-2.55753E-18
 -1      1230 9.52370E-05-2.85711E-05-2.85711E-05-2.80722E-11 3.64093E-19-4.81798E-18
 -1      1231 9.52373E-05-2.85712E-05-2.85712E-05 5.12375E-12-5.29646E-20-4.64735E-18
 -1      1232 9.52372E-05-2.85712E-05-2.85712E-05 3.01079E-11 5.02080E-19-9.12096E-19
 -1      1233 9.52371E-05-2.85711E-05-2.85712E-05 3.01263E-11-1.11054E-18-7.90513E-19
 -1      1234 9.52371E-05-2.85710E-05-2.85712E-05 3.77081E-11-4.34619E-18-2.42353E-19
 -1      1235 9.52372E-05-2.85713E-05-2.85710E-05-5.77011E-12-9.33050E-19 2.52702E-19
 -1      1236 9.52374E-05-2.85721E-05-2.85708E-05-3.10359E-11-2.70438E-18 2.07614E-19
 -1      1237 9.52377E-05-2.85730E-05-2.85706E-05-4.15867E-11-6.15083E-18 5.43647E-19
 -1      1238 9.52380E-05-2.85740E-05-2.85703E-05-4.06755E-11-5.00245E-18-9.74514E-19
 -1      1239 9.52383E-05-2.85749E-05-2.85700E-05-3.21091E-11-7.22390E-18-6.37328E-19
 -1      1240 9.52384E-05-2.85755E-05-2.85699E-05-1.73776E-11-8.54565E-18-1.10377E-18
 -1      1241 9.52385E-05-2.85757E-05-2.85698E-05 1.48179E-13-6.74067E-18 2.26676E-19
 -1      1242 9.52384E-05-2.85755E-05-2.85699E-05 1.76575E-11-1.73100E-18 6.07185E-19
 -1      1243 9.52383E-05-2.85749E-05-2.85700E-05 3.22595E-11-5.76246E-18-1.32401E-18
 -1      1244 9.52380E-05-2.85740E-05-2.85703E-05 4.12361E-11-1.17574E-17-5.48676E-19
 -1      1245 9.52377E-05-2.85730E-05-2.85706E-05 4.15432E-11-8.01580E-18 3.91118E-20
 -1      1246 9.52374E-05-2.85721E-05-2.85708E-05 3.12829E-11 2.13990E-18 4.91459E-20
 -1      1247 9.52372E-05-2.85713E-05-2.85711E-05 7.30926E-12 2.13166E-18-3.35363E-19
 -1      1248 9.52371E-05-2.85710E-05-2.85712E-05-6.34681E-11 1.43492E-18-7.86115E-19
 -1      1249 9.52371E-05-2.85710E-05-2.85712E-05-3.64845E-11-1.11199E-18 5.07904E-21
 -1      1250 2.84651E-05-8.58396E-05 1.21809E-05-1.04987E-05 8.13194E-18 1.65783E-18
 -1      1251 1.46895E-05-4.92570E-05 4.60830E-06-1.81991E-05 1.81358E-17 6.73921E-18
 -1      1252 8.79201E-06 1.25500E-06-1.02011E-05 9.52435E-06 2.30664E-17 1.43979E-17
 -1      1253 3.87219E-05 2.94876E-05-2.94708E-05 6.22746E-05 2.00374E-17 1.88177E-17
 -1      1254 1.12529E-04 1.39446E-05-4.82656E-05 1.05977E-04 1.27377E-17 1.80232E-17
 -1      1255 2.06731E-04-3.27768E-05-6.36329E-05 1.09040E-04 5.02883E-18 1.02093E-17
 -1      1256 2.78068E-04-7.70990E-05-7.24013E-05 6.26363E-05 4.94005E-19-4.31140E-19
 -1      1257 2.90287E-04-8.79763E-05-7.30787E-05-1.21750E-05 1.19847E-18-1.29969E-17
 -1      1258 2.37421E-04-5.90203E-05-6.57908E-05-7.46569E-05 6.50818E-18-2.30791E-17
 -1      1259 1.42785E-04-1.12385E-05-5.13368E-05-9.20779E-05 1.49137E-17-2.85501E-17
 -1      1260 5.77707E-05 1.93267E-05-3.38517E-05-6.63546E-05 2.25243E-17-2.72694E-17
 -1      1261 1.38692E-05 1.59522E-05-1.80151E-05-2.48739E-05 2.51061E-17-2.03237E-17
 -1      1262 4.66323E-06-9.06643E-06-5.43039E-06 4.18694E-06 2.20381E-17-1.16730E-17
 -1      1263 1.11475E-05-3.52593E-05 2.59681E-06 1.11888E-05 1.35538E-17-4.36328E-18
 -1      1264 1.65420E-05-4.79282E-05 5.70581E-06 2.14764E-06 1.49189E-18-1.06427E-18
 -1      1265 1.20445E-05-3.75804E-05 3.48937E-06-7.98023E-06-1.13765E-17-3.48782E-18
 -1      1266 5.46566E-06-1.30130E-05-4.00219E-06-5.19180E-06-2.11377E-17-9.92574E-18
 -1      1267 1.04520E-05 1.43688E-05-1.58833E-05 2.03319E-05-2.46199E-17-1.81773E-17
 -1      1268 4.72803E-05 2.24973E-05-3.14709E-05 6.14141E-05-2.24057E-17-2.49028E-17
 -1      1269 1.19272E-04 1.09042E-07-4.76161E-05 9.22724E-05-1.53906E-17-2.59150E-17
 -1      1270 2.07303E-04-4.31573E-05-6.15613E-05 8.70162E-05-7.38062E-18-2.10395E-17
 -1      1271 2.75177E-04-8.05041E-05-7.08988E-05 3.57575E-05-1.55751E-18-1.06252E-17
 -1      1272 2.86891E-04-8.44419E-05-7.28861E-05-3.76633E-05-8.45630E-19 1.08558E-18
 -1      1273 2.37747E-04-5.19255E-05-6.74712E-05-9.36231E-05-4.06385E-18 1.14671E-17
 -1      1274 1.58348E-04-7.32177E-06-5.61063E-05-1.13512E-04-9.83575E-18 1.81146E-17
 -1      1275 7.82478E-05 2.56607E-05-4.09141E-05-9.22291E-05-1.51992E-17 1.88871E-17
 -1      1276 2.49454E-05 2.71320E-05-2.40315E-05-4.71124E-05-1.83450E-17 1.57345E-17
 -1      1277 6.98351E-06-4.69333E-06-7.54068E-06-2.88308E-06-1.66323E-17 9.81034E-18
 -1      1278 1.53446E-05-5.20657E-05 5.23751E-06 1.81544E-05-1.13968E-17 4.19980E-18
 -1      1279 2.74489E-05-8.48150E-05 1.22160E-05 1.01875E-05-3.11369E-18 1.07015E-18
 -1      1280 1.32933E-04-2.84201E-05-4.82072E-05-2.15881E-05-8.29033E-19 7.50852E-18
 -1      1281 1.11433E-04-8.66281E-06-4.42808E-05-2.62471E-05-1.27383E-18-2.15252E-18
 -1      1282 1.18163E-04-1.01249E-05-4.61928E-05-3.09019E-05-1.08590E-18 7.39777E-19
 -1      1283 1.04784E-04-7.30175E-06-4.16638E-05-1.89804E-05-8.08069E-19-4.35828E-18
 -1      1284 1.07454E-04-7.09021E-06-4.30443E-05-2.32249E-05-1.15895E-18-3.48072E-18
 -1      1285 1.14728E-04-1.54198E-05-4.27103E-05-2.53918E-05-2.11107E-18-1.49522E-18
 -1      1286 9.90012E-05-7.86418E-06-3.87679E-05-1.02033E-05-7.45389E-20-5.15348E-18
 -1      1287 1.02173E-04-7.68672E-06-4.03597E-05-1.47742E-05-3.56495E-19-4.91597E-18
 -1      1288 1.08463E-04-1.44089E-05-4.03657E-05-1.83563E-05-9.74697E-19-3.25975E-18
 -1      1289 8.96819E-05-8.10858E-06-3.46663E-05-3.66093E-07 6.73391E-19-5.25049E-18
 -1      1290 9.50165E-05-8.10740E-06-3.69389E-05-5.13390E-06 4.28069E-19-5.29586E-18
 -1      1291 1.02166E-04-1.50656E-05-3.73415E-05-9.49765E-06 2.42119E-19-3.91615E-18
 -1      1292 7.43173E-05-6.29428E-06-2.90970E-05 8.44143E-06 1.32137E-18-5.15412E-18
 -1      1293 8.24895E-05-6.59120E-06-3.20838E-05 4.70091E-06 1.15027E-18-5.30904E-18
 -1      1294 9.08244E-05-1.39717E-05-3.29740E-05 4.36662E-07 1.42418E-18-4.06788E-18
 -1      1295 5.37856E-05-1.46379E-06-2.27552E-05 1.26388E-05 1.66400E-18-5.17762E-18
 -1      1296 6.35858E-05-2.05761E-06-2.59445E-05 1.16007E-05 1.60788E-18-5.28048E-18
 -1      1297 7.17691E-05-8.50247E-06-2.71988E-05 9.13262E-06 2.33384E-18-4.27175E-18
 -1      1298 3.54612E-05 4.59556E-06-1.77231E-05 9.07042E-06 1.31862E-18-5.40194E-18
 -1      1299 4.27330E-05 4.05605E-06-1.99110E-05 1.16628E-05 1.47511E-18-5.43875E-18
 -1      1300 4.79268E-05 1.10477E-06-2.10630E-05 1.22403E-05 2.53660E-18-4.70919E-18
 -1      1301 2.94663E-05 7.42763E-06-1.62453E-05 1.28510E-06 6.24263E-19-5.58912E-18
 -1      1302 3.07083E-05 7.38509E-06-1.65440E-05 4.87862E-06 8.16010E-19-5.59185E-18
 -1      1303 3.00873E-05 9.32216E-06-1.69416E-05 7.89821E-06 1.76839E-18-5.24626E-18
 -1      1304 3.52424E-05 6.21448E-06-1.79084E-05-6.48076E-06-1.56066E-19-5.61409E-18
 -1      1305 3.12422E-05 6.48895E-06-1.66442E-05-3.45179E-06 2.04347E-20-5.60716E-18
 -1      1306 2.62112E-05 1.12519E-05-1.60564E-05-5.88710E-07 6.13808E-19-5.49150E-18
 -1      1307 5.13847E-05 1.52769E-06-2.24360E-05-1.02721E-05-6.27228E-19-5.37284E-18
 -1      1308 4.32491E-05 2.02717E-06-1.98723E-05-9.42335E-06-5.91441E-19-5.41189E-18
 -1      1309 3.65448E-05 6.40948E-06-1.84083E-05-8.02539E-06-5.27172E-19-5.23983E-18
 -1      1310 7.30558E-05-4.34514E-06-2.89967E-05-6.99967E-06-5.96946E-19-4.79617E-18
 -1      1311 6.32418E-05-3.82324E-06-2.56401E-05-9.42205E-06-7.27390E-19-4.99204E-18
 -1      1312 5.81321E-05-3.11101E-06-2.36640E-05-9.56384E-06-1.06594E-18-4.53520E-18
 -1      1313 9.05875E-05-7.72567E-06-3.51276E-05 1.86435E-06-3.38813E-20-3.89876E-18
 -1      1314 8.30459E-05-7.54742E-06-3.21849E-05-2.65220E-06-2.67451E-19-4.32521E-18
 -1      1315 8.18996E-05-1.16659E-05-3.01816E-05-3.45152E-06-7.20507E-19-3.61498E-18
 -1      1316 1.01884E-04-8.33381E-06-3.98863E-05 1.21759E-05 6.62803E-19-2.52718E-18
 -1      1317 9.69259E-05-8.44322E-06-3.76337E-05 7.24094E-06 4.29446E-19-3.32709E-18
 -1      1318 9.90111E-05-1.54078E-05-3.58714E-05 6.54531E-06 2.66762E-19-2.48609E-18
 -1      1319 1.09962E-04-7.97117E-06-4.36724E-05 2.16978E-05 1.23032E-18 4.71691E-20
 -1      1320 1.06015E-04-8.22434E-06-4.17495E-05 1.69542E-05 9.47300E-19-1.48252E-18
 -1      1321 1.09440E-04-1.59296E-05-4.01335E-05 1.64432E-05 1.25059E-18-9.04684E-19
 -1      1322 1.21387E-04-9.86382E-06-4.78184E-05 3.15359E-05 1.28918E-18 5.06229E-18
 -1      1323 1.15212E-04-9.53644E-06-4.53813E-05 2.55634E-05 1.19453E-18 2.03637E-18
 -1      1324 1.18500E-04-1.72031E-05-4.34983E-05 2.48355E-05 1.88793E-18 2.00048E-18
 -1      1325 1.64674E-04-3.32689E-05-5.18657E-05 3.73364E-05 6.96049E-19 1.46338E-17
 -1      1326 1.31506E-04-1.93119E-05-4.88940E-05 3.06558E-05 6.07534E-19 7.99006E-18
 -1      1327 1.33133E-04-2.65449E-05-4.57982E-05 2.84016E-05 2.08942E-18 6.66276E-18
 -1      1328 1.38297E-04-3.78864E-05-4.63886E-05 9.93831E-06 1.18960E-18 1.43072E-17
 -1      1329 1.33976E-04-3.85239E-05-4.24494E-05-1.07881E-05-1.71757E-18 8.74519E-18
 -1      1330 1.24368E-04-3.56839E-05-3.86051E-05-8.40057E-06-1.47871E-18 6.57022E-18
 -1      1331 1.19106E-04-3.51072E-05-3.62434E-05-5.92130E-06-1.16298E-18 5.87243E-18
 -1      1332 1.13307E-04-3.37168E-05-3.41439E-05-5.75692E-06-1.15228E-18 4.12455E-18
 -1      1333 1.23951E-04-3.54724E-05-3.83190E-05-1.48041E-05-2.59822E-18 3.30279E-18
 -1      1334 1.09006E-04-3.24941E-05-3.27544E-05-4.73924E-06-8.96657E-19 3.53782E-18
 -1      1335 1.04583E-04-3.11252E-05-3.14287E-05-4.65225E-06-8.05912E-19 2.30601E-18
 -1      1336 1.14444E-04-3.38203E-05-3.46552E-05-1.04757E-05-1.95911E-18 2.39540E-18
 -1      1337 1.01381E-04-3.00698E-05-3.05245E-05-3.57153E-06-7.27171E-19 1.69555E-18
 -1      1338 9.82458E-05-2.90050E-05-2.96686E-05-3.25920E-06-6.62525E-19 8.02842E-19
 -1      1339 1.07220E-04-3.15967E-05-3.24714E-05-8.05414E-06-1.54544E-18 1.18892E-18
 -1      1340 9.62825E-05-2.83222E-05-2.91434E-05-1.65058E-06-4.40934E-19 3.11304E-19
 -1      1341 9.50349E-05-2.79069E-05-2.88053E-05-1.17319E-06-4.75503E-19-3.28397E-19
 -1      1342 1.02051E-04-2.97014E-05-3.11197E-05-4.81514E-06-1.13710E-18 1.75734E-19
 -1      1343 9.45590E-05-2.77768E-05-2.86618E-05 6.08151E-07-5.18437E-19-7.75300E-19
 -1      1344 9.54074E-05-2.81300E-05-2.88700E-05 1.05159E-06-4.55532E-19-1.41452E-18
 -1      1345 9.95912E-05-2.88387E-05-3.04588E-05-6.51732E-07-9.80044E-19-8.95172E-19
 -1      1346 9.62357E-05-2.84910E-05-2.90586E-05 2.34947E-06-2.61396E-19-1.69036E-18
 -1      1347 9.86274E-05-2.93952E-05-2.96772E-05 2.57434E-06-1.10869E-19-1.98195E-18
 -1      1348 9.99776E-05-2.92249E-05-3.04191E-05 3.12588E-06-7.42755E-19-1.61568E-18
 -1      1349 1.00136E-04-2.99749E-05-3.00643E-05 2.98798E-06-2.07034E-19-2.16168E-18
 -1      1350 1.03038E-04-3.10245E-05-3.08365E-05 2.95427E-06-3.08239E-19-2.63644E-18
 -1      1351 1.02369E-04-3.04615E-05-3.08404E-05 5.18497E-06-4.57239E-19-2.21414E-18
 -1      1352 1.04516E-04-3.15355E-05-3.12529E-05 2.56257E-06-3.08843E-19-2.58771E-18
 -1      1353 1.06967E-04-3.23788E-05-3.19255E-05 2.36193E-06-2.78806E-19-3.07828E-18
 -1      1354 1.05363E-04-3.18434E-05-3.14701E-05 5.15512E-06-5.32597E-19-2.22639E-18
 -1      1355 1.07944E-04-3.26667E-05-3.22347E-05 1.54722E-06-1.46643E-19-3.12076E-18
 -1      1356 1.09423E-04-3.31410E-05-3.26559E-05 1.30469E-06 3.16182E-20-3.28538E-18
 -1      1357 1.07752E-04-3.28191E-05-3.20496E-05 3.64736E-06-3.63079E-19-2.16913E-18
 -1      1358 1.09752E-04-3.31918E-05-3.27928E-05 4.54849E-07 1.09287E-19-3.44634E-18
 -1      1359 1.10201E-04-3.33068E-05-3.29318E-05 2.54509E-07-4.09620E-20-3.34435E-18
 -1      1360 1.08942E-04-3.31995E-05-3.24007E-05 1.62162E-06-3.40865E-20-2.61805E-18
 -1      1361 1.09964E-04-3.31797E-05-3.28990E-05-4.02436E-07-4.26660E-19-3.40955E-18
 -1      1362 1.09607E-04-3.30330E-05-3.28078E-05-5.30971E-07-4.96967E-19-4.01644E-18
 -1      1363 1.08916E-04-3.30739E-05-3.24613E-05-1.83696E-07-4.27408E-19-3.09870E-18
 -1      1364 1.08981E-04-3.28011E-05-3.26473E-05-9.30651E-07-1.80534E-19-4.21599E-18
 -1      1365 1.08128E-04-3.25053E-05-3.24087E-05-9.92812E-07-5.18510E-20-4.31111E-18
 -1      1366 1.07964E-04-3.26311E-05-3.22626E-05-1.43363E-06-4.96355E-19-3.12023E-18
 -1      1367 1.07296E-04-3.22288E-05-3.21737E-05-1.16801E-06 5.18179E-20-4.57512E-18
 -1      1368 1.06219E-04-3.18744E-05-3.18654E-05-1.18250E-06-8.36180E-20-4.60180E-18
 -1      1369 1.06456E-04-3.20429E-05-3.18840E-05-2.10355E-06-2.82371E-19-3.25103E-18
 -1      1370 1.05326E-04-3.15940E-05-3.16020E-05-1.19991E-06-1.56623E-19-4.05358E-18
 -1      1371 1.04220E-04-3.12405E-05-3.12811E-05-1.18577E-06 8.66510E-20-4.01559E-18
 -1      1372 1.04714E-04-3.14262E-05-3.14119E-05-2.31894E-06 1.10038E-19-3.36637E-18
 -1      1373 1.03362E-04-3.09805E-05-3.10221E-05-1.10979E-06 5.55907E-20-3.64957E-18
 -1      1374 1.02340E-04-3.06607E-05-3.07233E-05-1.08149E-06-4.46917E-20-3.50283E-18
 -1      1375 1.02969E-04-3.08478E-05-3.09170E-05-2.23814E-06 8.78590E-20-2.27390E-18
 -1      1376 1.01571E-04-3.04329E-05-3.04882E-05-9.60788E-07 1.21099E-20-3.41772E-18
 -1      1377 1.00689E-04-3.01610E-05-3.02287E-05-9.27755E-07 1.92181E-19-3.31721E-18
 -1      1378 1.01359E-04-3.03395E-05-3.04473E-05-1.99576E-06-6.91523E-22-2.07666E-18
 -1      1379 1.00033E-04-2.99697E-05-3.00266E-05-7.94066E-07 1.05713E-19-3.49635E-18
 -1      1380 9.93067E-05-2.97485E-05-2.98120E-05-7.61715E-07-6.94476E-20-3.72989E-18
 -1      1381 9.99565E-05-2.99119E-05-3.00297E-05-1.68685E-06 2.64152E-20-2.22479E-18
 -1      1382 9.87675E-05-2.95928E-05-2.96451E-05-6.33355E-07-7.65969E-21-3.63558E-18
 -1      1383 9.81907E-05-2.94189E-05-2.94741E-05-6.04392E-07-2.20483E-19-3.67457E-18
 -1      1384 9.87836E-05-2.95636E-05-2.96756E-05-1.37032E-06-1.89089E-19-2.41236E-18
 -1      1385 9.77608E-05-2.92957E-05-2.93407E-05-4.90475E-07-1.39423E-19-4.06895E-18
 -1      1386 9.73163E-05-2.91629E-05-2.92085E-05-4.65947E-07-3.08284E-19-3.84408E-18
 -1      1387 9.78344E-05-2.92875E-05-2.93858E-05-1.07835E-06-4.39092E-19-2.80416E-18
 -1      1388 9.69825E-05-2.90677E-05-2.91048E-05-3.69872E-07-1.44858E-19-3.62998E-18
 -1      1389 9.66491E-05-2.89689E-05-2.90054E-05-3.49894E-07 5.52163E-19-3.24034E-18
 -1      1390 9.70870E-05-2.90736E-05-2.91558E-05-8.25537E-07-4.43154E-20-2.79586E-18
 -1      1391 9.63961E-05-2.88971E-05-2.89267E-05-2.71799E-07 3.98664E-19-3.20759E-18
 -1      1392 9.61527E-05-2.88256E-05-2.88538E-05-2.56012E-07-4.18956E-19-3.36176E-18
 -1      1393 9.65128E-05-2.89116E-05-2.89778E-05-6.15914E-07 4.72610E-19-3.14753E-18
 -1      1394 9.59655E-05-2.87726E-05-2.87956E-05-1.94362E-07-3.48795E-19-3.21886E-18
 -1      1395 9.57928E-05-2.87224E-05-2.87437E-05-1.82203E-07-9.05705E-20-3.63797E-18
 -1      1396 9.60821E-05-2.87916E-05-2.88434E-05-4.47708E-07-4.39202E-19-2.62191E-18
 -1      1397 9.56577E-05-2.86843E-05-2.87017E-05-1.34748E-07 9.43366E-20-3.27718E-18
 -1      1398 9.55391E-05-2.86503E-05-2.86660E-05-1.25603E-07 1.86060E-19-2.61212E-18
 -1      1399 9.57668E-05-2.87049E-05-2.87444E-05-3.16337E-07 1.95763E-19-1.36792E-18
 -1      1400 9.54444E-05-2.86236E-05-2.86365E-05-8.99251E-08 2.93594E-19-2.67572E-18
 -1      1401 9.53663E-05-2.86016E-05-2.86128E-05-8.32072E-08 5.25823E-19-1.90905E-18
 -1      1402 9.55418E-05-2.86438E-05-2.86733E-05-2.16188E-07 5.70463E-19-1.23086E-18
 -1      1403 9.53022E-05-2.85836E-05-2.85929E-05-5.70108E-08 2.12498E-19-2.10781E-18
 -1      1404 9.52535E-05-2.85702E-05-2.85780E-05-5.21996E-08 2.11196E-20-2.17433E-18
 -1      1405 9.53862E-05-2.86023E-05-2.86237E-05-1.41599E-07 8.40089E-20-1.29315E-18
 -1      1406 9.52120E-05-2.85586E-05-2.85651E-05-3.34480E-08-5.35309E-19-2.66980E-18
 -1      1407 9.51843E-05-2.85513E-05-2.85566E-05-3.01011E-08-5.09246E-19-3.51077E-18
 -1      1408 9.52825E-05-2.85752E-05-2.85903E-05-8.73706E-08-6.29440E-19-1.24021E-18
 -1      1409 9.51592E-05-2.85443E-05-2.85488E-05-1.70656E-08 1.67038E-19-3.78627E-18
 -1      1410 9.51459E-05-2.85411E-05-2.85445E-05-1.48192E-08-1.63952E-20-3.97516E-18
 -1      1411 9.52170E-05-2.85585E-05-2.85690E-05-4.89823E-08-3.22819E-19-3.19612E-18
 -1      1412 9.51323E-05-2.85374E-05-2.85403E-05-6.07848E-09-7.09648E-20-3.48713E-18
 -1      1413 9.51286E-05-2.85369E-05-2.85390E-05-4.64111E-09-2.36614E-20-3.73381E-18
 -1      1414 9.51787E-05-2.85493E-05-2.85562E-05-2.26505E-08 6.49647E-21-3.58662E-18
 -1      1415 9.51228E-05-2.85354E-05-2.85372E-05 9.43295E-10-4.21064E-19-3.20276E-18
 -1      1416 9.51251E-05-2.85366E-05-2.85377E-05 1.80005E-09-1.31289E-19-3.54370E-18
 -1      1417 9.51594E-05-2.85451E-05-2.85494E-05-5.29903E-09 1.27883E-19-2.10665E-18
 -1      1418 9.51244E-05-2.85365E-05-2.85375E-05 5.12039E-09 4.29416E-19-3.78907E-18
 -1      1419 9.51302E-05-2.85386E-05-2.85391E-05 5.57187E-09 4.11827E-19-2.92780E-18
 -1      1420 9.51526E-05-2.85443E-05-2.85467E-05 5.51429E-09-2.56345E-19-1.66595E-18
 -1      1421 9.51326E-05-2.85394E-05-2.85398E-05 7.31297E-09-5.55981E-19-3.32060E-18
 -1      1422 9.51401E-05-2.85419E-05-2.85419E-05 7.49108E-09-1.07861E-18-4.49922E-18
 -1      1423 9.51540E-05-2.85455E-05-2.85467E-05 1.16871E-08-4.69992E-19-2.66740E-18
 -1      1424 9.51442E-05-2.85431E-05-2.85432E-05 8.16799E-09-7.59336E-19-4.93097E-18
 -1      1425 9.51523E-05-2.85458E-05-2.85456E-05 8.16988E-09-5.92081E-19-6.10175E-18
 -1      1426 9.51602E-05-2.85479E-05-2.85482E-05 1.46641E-08-1.26773E-18-3.99576E-18
 -1      1427 9.51572E-05-2.85472E-05-2.85471E-05 8.16184E-09-6.01199E-20-5.99652E-18
 -1      1428 9.51651E-05-2.85497E-05-2.85494E-05 8.05746E-09 7.03763E-19-5.39406E-18
 -1      1429 9.51688E-05-2.85508E-05-2.85506E-05 1.55230E-08-5.59801E-19-4.50579E-18
 -1      1430 9.51702E-05-2.85512E-05-2.85510E-05 7.63730E-09 8.94453E-19-4.99841E-18
 -1      1431 9.51775E-05-2.85535E-05-2.85531E-05 7.47566E-09 6.56624E-19-3.96544E-18
 -1      1432 9.51784E-05-2.85539E-05-2.85534E-05 1.50502E-08 1.26295E-18-3.57598E-18
 -1      1433 9.51823E-05-2.85549E-05-2.85546E-05 6.83445E-09 4.46465E-19-4.35680E-18
 -1      1434 9.51888E-05-2.85569E-05-2.85565E-05 6.64879E-09 4.44808E-19-3.41515E-18
 -1      1435 9.51880E-05-2.85568E-05-2.85562E-05 1.38059E-08 8.00932E-19-3.34692E-18
 -1      1436 9.51932E-05-2.85582E-05-2.85578E-05 5.91600E-09 3.31175E-19-3.61339E-18
 -1      1437 9.51987E-05-2.85599E-05-2.85595E-05 5.72791E-09-4.79778E-20-3.26944E-18
 -1      1438 9.51969E-05-2.85595E-05-2.85588E-05 1.21774E-08 3.72386E-19-3.39837E-18
 -1      1439 9.52026E-05-2.85610E-05-2.85607E-05 4.98747E-09-5.28456E-19-2.30162E-18
 -1      1440 9.52072E-05-2.85624E-05-2.85620E-05 4.81014E-09-2.02395E-19-3.43105E-18
 -1      1441 9.52049E-05-2.85619E-05-2.85612E-05 1.04231E-08-2.49214E-20-3.21867E-18
 -1      1442 9.52105E-05-2.85633E-05-2.85631E-05 4.11309E-09-1.48951E-19-3.63921E-18
 -1      1443 9.52143E-05-2.85645E-05-2.85642E-05 3.95373E-09-6.88676E-19-4.89722E-18
 -1      1444 9.52119E-05-2.85640E-05-2.85633E-05 8.70667E-09-4.35186E-19-3.47675E-18
 -1      1445 9.52170E-05-2.85653E-05-2.85650E-05 3.32785E-09-6.45186E-19-4.71640E-18
 -1      1446 9.52201E-05-2.85662E-05-2.85659E-05 3.18963E-09-8.36509E-19-5.68168E-18
 -1      1447 9.52177E-05-2.85657E-05-2.85651E-05 7.12421E-09-4.93137E-19-3.91870E-18
 -1      1448 9.52223E-05-2.85668E-05-2.85666E-05 2.64667E-09-3.68439E-19-5.42546E-18
 -1      1449 9.52247E-05-2.85676E-05-2.85674E-05 2.53000E-09 9.88336E-20-5.79200E-18
 -1      1450 9.52225E-05-2.85671E-05-2.85666E-05 5.72421E-09-1.03970E-18-2.86028E-18
 -1      1451 9.52265E-05-2.85681E-05-2.85679E-05 2.07094E-09 2.79468E-19-5.25124E-18
 -1      1452 9.52284E-05-2.85686E-05-2.85685E-05 1.97447E-09 4.78724E-19-5.11161E-18
 -1      1453 9.52264E-05-2.85682E-05-2.85678E-05 4.52279E-09 7.54468E-19-3.90999E-18
 -1      1454 9.52298E-05-2.85690E-05-2.85689E-05 1.59313E-09 3.22870E-19-4.27110E-18
 -1      1455 9.52313E-05-2.85695E-05-2.85693E-05 1.51434E-09 1.02112E-19-3.76609E-18
 -1      1456 9.52295E-05-2.85691E-05-2.85687E-05 3.51437E-09 1.28405E-18-3.26421E-18
 -1      1457 9.52323E-05-2.85698E-05-2.85697E-05 1.19983E-09 6.08268E-19-2.61941E-18
 -1      1458 9.52334E-05-2.85701E-05-2.85700E-05 1.13539E-09 1.05793E-18-1.76460E-18
 -1      1459 9.52319E-05-2.85697E-05-2.85695E-05 2.67903E-09 1.52320E-18-1.40102E-18
 -1      1460 9.52342E-05-2.85703E-05-2.85702E-05 8.73577E-10 7.22697E-19-1.66747E-18
 -1      1461 9.52350E-05-2.85706E-05-2.85705E-05 8.19476E-10 6.26083E-19-2.63860E-19
 -1      1462 9.52338E-05-2.85703E-05-2.85700E-05 1.98729E-09 1.45229E-18 4.36473E-19
 -1      1463 9.52356E-05-2.85707E-05-2.85707E-05 5.94198E-10-8.06761E-20-9.17442E-19
 -1      1464 9.52361E-05-2.85709E-05-2.85708E-05 5.45812E-10-2.78060E-19-1.35286E-18
 -1      1465 9.52351E-05-2.85707E-05-2.85705E-05 1.40341E-09 2.52502E-19-4.43998E-19
 -1      1466 9.52365E-05-2.85710E-05-2.85709E-05 3.42778E-10 7.47821E-19-1.19443E-19
 -1      1467 9.52368E-05-2.85711E-05-2.85710E-05 2.95456E-10 1.05132E-18 5.78248E-19
 -1      1468 9.52361E-05-2.85709E-05-2.85708E-05 8.90444E-10 9.40270E-19-8.61171E-19
 -1      1469 9.52370E-05-2.85712E-05-2.85711E-05 1.09604E-10 3.45334E-19 8.13419E-19
 -1      1470 9.52371E-05-2.85712E-05-2.85711E-05 6.20105E-11-9.64078E-20 7.78935E-19
 -1      1471 9.52367E-05-2.85711E-05-2.85710E-05 4.28695E-10 9.07940E-19 2.01521E-19
 -1      1472 9.52372E-05-2.85711E-05-2.85712E-05-5.26267E-11-1.04609E-18 3.94336E-19
 -1      1473 9.52371E-05-2.85712E-05-2.85711E-05 3.27864E-11-3.56464E-19-4.76800E-19
 -1      1474 1.28183E-04-3.79983E-05-3.92020E-05 6.13508E-06 1.01451E-18 1.22748E-17
 -1      1475 1.37503E-04-3.99959E-05-4.27506E-05 7.55984E-06 7.63283E-19 1.38054E-17
 -1      1476 1.35109E-04-3.58767E-05-4.28015E-05 1.90265E-05 1.65251E-18 9.26379E-18
 -1      1477 1.16713E-04-3.49734E-05-3.50566E-05 5.31900E-06 9.77344E-19 1.01280E-17
 -1      1478 1.22692E-04-3.64641E-05-3.71882E-05 5.23892E-06 8.38086E-19 1.15063E-17
 -1      1479 1.24957E-04-3.69672E-05-3.78604E-05 1.17612E-05 1.56918E-18 7.90965E-18
 -1      1480 1.06912E-04-3.18884E-05-3.21699E-05 4.76974E-06 5.86888E-19 8.36704E-18
 -1      1481 1.12180E-04-3.34997E-05-3.37133E-05 4.77765E-06 7.52536E-19 9.52023E-18
 -1      1482 1.15562E-04-3.44946E-05-3.47506E-05 9.87718E-06 1.46030E-18 6.98365E-18
 -1      1483 9.94874E-05-2.93972E-05-3.01613E-05 3.18132E-06 4.64452E-19 7.19345E-18
 -1      1484 1.03455E-04-3.06068E-05-3.12268E-05 3.54607E-06 3.82462E-19 7.69249E-18
 -1      1485 1.07824E-04-3.17401E-05-3.26508E-05 7.80900E-06 9.19679E-19 5.77332E-18
 -1      1486 9.61532E-05-2.83070E-05-2.92523E-05 6.04951E-07 3.51479E-19 6.25313E-18
 -1      1487 9.77056E-05-2.86208E-05-2.96667E-05 1.26807E-06 2.48578E-19 6.54819E-18
 -1      1488 1.02668E-04-2.97174E-05-3.13721E-05 3.96490E-06 6.90954E-19 4.27457E-18
 -1      1489 9.75082E-05-2.88912E-05-2.95258E-05-1.89395E-06 2.60046E-19 5.13741E-18
 -1      1490 9.63156E-05-2.82359E-05-2.92423E-05-1.23167E-06 4.57610E-19 5.83259E-18
 -1      1491 1.01118E-04-2.92261E-05-3.09337E-05-7.75244E-07 7.60914E-19 3.36608E-18
 -1      1492 1.02164E-04-3.06017E-05-3.06690E-05-3.20856E-06 5.64418E-19 4.46243E-18
 -1      1493 9.90999E-05-2.93857E-05-2.98944E-05-2.83930E-06 2.08324E-19 4.81544E-18
 -1      1494 1.02927E-04-3.02516E-05-3.12261E-05-4.41424E-06 5.83698E-19 2.70061E-18
 -1      1495 1.07611E-04-3.24807E-05-3.21046E-05-3.05661E-06 2.97314E-19 3.54208E-18
 -1      1496 1.04174E-04-3.12802E-05-3.11978E-05-3.04836E-06 5.70164E-19 4.19885E-18
 -1      1497 1.06492E-04-3.19786E-05-3.19573E-05-5.62106E-06 8.58345E-19 2.05304E-18
 -1      1498 1.11752E-04-3.38080E-05-3.32827E-05-1.96148E-06-1.34824E-19 3.34083E-18
 -1      1499 1.09164E-04-3.30114E-05-3.25655E-05-2.18425E-06-4.83272E-20 3.49380E-18
 -1      1500 1.09904E-04-3.34518E-05-3.27508E-05-4.57478E-06 1.38913E-19 1.86971E-18
 -1      1501 1.13689E-04-3.43501E-05-3.39039E-05-6.50225E-07 2.54083E-19 2.96507E-18
 -1      1502 1.12452E-04-3.40520E-05-3.35347E-05-9.32162E-07 1.42493E-19 3.38043E-18
 -1      1503 1.11946E-04-3.41832E-05-3.32998E-05-2.40887E-06 1.00744E-19 1.63693E-18
 -1      1504 1.13558E-04-3.42229E-05-3.39436E-05 4.00829E-07 4.05580E-19 2.11703E-18
 -1      1505 1.13562E-04-3.43236E-05-3.39181E-05 1.69587E-07 4.04240E-19 2.81259E-18
 -1      1506 1.12326E-04-3.41867E-05-3.34635E-05-2.34156E-07 6.39113E-19 1.36088E-18
 -1      1507 1.11989E-04-3.36685E-05-3.35446E-05 1.03967E-06 5.48586E-20 1.69379E-18
 -1      1508 1.12839E-04-3.40087E-05-3.37679E-05 8.94238E-07 1.47999E-19 2.16919E-18
 -1      1509 1.11350E-04-3.37054E-05-3.32592E-05 1.35139E-06 3.76175E-19 1.70856E-18
 -1      1510 1.09665E-04-3.29126E-05-3.28950E-05 1.31421E-06 1.68514E-19 1.42286E-18
 -1      1511 1.10947E-04-3.33541E-05-3.32541E-05 1.24555E-06-4.55826E-20 1.53433E-18
 -1      1512 1.09529E-04-3.29899E-05-3.27929E-05 2.22969E-06 1.68940E-19 1.12150E-18
 -1      1513 1.07115E-04-3.21143E-05-3.21548E-05 1.33960E-06-2.57817E-19 1.73861E-18
 -1      1514 1.08517E-04-3.25653E-05-3.25583E-05 1.32408E-06 4.58646E-20 1.89217E-18
 -1      1515 1.07334E-04-3.22154E-05-3.21893E-05 2.53562E-06-1.18945E-19 1.55599E-18
 -1      1516 1.04672E-04-3.13669E-05-3.14316E-05 1.22464E-06-6.28475E-20 1.89328E-18
 -1      1517 1.06004E-04-3.17773E-05-3.18207E-05 1.23989E-06-1.33864E-19 1.84203E-18
 -1      1518 1.05103E-04-3.14813E-05-3.15513E-05 2.46956E-06-1.78377E-19 1.69762E-18
 -1      1519 1.02512E-04-3.07153E-05-3.07842E-05 1.04764E-06 8.21804E-20 1.07489E-18
 -1      1520 1.03678E-04-3.10641E-05-3.11282E-05 1.07748E-06 1.58546E-19 1.36753E-18
 -1      1521 1.03042E-04-3.08346E-05-3.09470E-05 2.20441E-06 2.06150E-19 1.33441E-18
 -1      1522 1.00698E-04-3.01736E-05-3.02369E-05 8.56604E-07-2.16749E-19 1.29363E-18
 -1      1523 1.01666E-04-3.04568E-05-3.05244E-05 8.91009E-07-3.57501E-19 1.22578E-18
 -1      1524 1.01249E-04-3.02908E-05-3.04129E-05 1.85990E-06-2.07124E-19 5.61757E-19
 -1      1525 9.92326E-05-2.97387E-05-2.97926E-05 6.77233E-07 3.21874E-19 2.58977E-19
 -1      1526 1.00006E-04-2.99610E-05-3.00233E-05 7.10676E-07 3.74711E-19 1.15400E-18
 -1      1527 9.97568E-05-2.98485E-05-2.99631E-05 1.50769E-06 4.02478E-19 5.32732E-19
 -1      1528 9.80827E-05-2.93992E-05-2.94429E-05 5.21008E-07-3.69729E-19 6.87414E-19
 -1      1529 9.86830E-05-2.95690E-05-2.96225E-05 5.50850E-07-7.45621E-20 3.50670E-19
 -1      1530 9.85537E-05-2.94981E-05-2.95977E-05 1.18507E-06-4.83818E-20 7.22609E-19
 -1      1531 9.72029E-05-2.91405E-05-2.91747E-05 3.91251E-07 7.52518E-19-2.89547E-19
 -1      1532 9.76568E-05-2.92670E-05-2.93109E-05 4.16537E-07 4.95739E-19 4.56471E-19
 -1      1533 9.76095E-05-2.92268E-05-2.93092E-05 9.07778E-07 4.15219E-19 2.57926E-19
 -1      1534 9.65450E-05-2.89477E-05-2.89739E-05 2.87031E-07 3.90777E-19-1.99257E-18
 -1      1535 9.68803E-05-2.90398E-05-2.90747E-05 3.07713E-07 6.84210E-19-7.54610E-19
 -1      1536 9.68856E-05-2.90210E-05-2.90869E-05 6.79248E-07 1.21652E-18-8.41710E-19
 -1      1537 9.60644E-05-2.88074E-05-2.88269E-05 2.05480E-07-5.78961E-19-1.64054E-18
 -1      1538 9.63060E-05-2.88726E-05-2.88998E-05 2.21950E-07-4.75227E-19-2.38754E-18
 -1      1539 9.63426E-05-2.88681E-05-2.89195E-05 4.96616E-07-7.46431E-20-1.19480E-18
 -1      1540 9.57217E-05-2.87077E-05-2.87219E-05 1.43073E-07-3.64913E-19-1.25749E-18
 -1      1541 9.58913E-05-2.87526E-05-2.87732E-05 1.55901E-07-4.75643E-19-1.81547E-18
 -1      1542 9.59443E-05-2.87569E-05-2.87961E-05 3.54226E-07-4.99765E-19-1.66987E-18
 -1      1543 9.54843E-05-2.86389E-05-2.86490E-05 9.62991E-08 4.34703E-19-9.70097E-19
 -1      1544 9.55995E-05-2.86687E-05-2.86840E-05 1.06093E-07-1.22053E-19-1.31081E-18
 -1      1545 9.56589E-05-2.86781E-05-2.87073E-05 2.45586E-07-1.77269E-19-1.58707E-18
 -1      1546 9.53255E-05-2.85931E-05-2.86002E-05 6.19696E-08 4.31276E-19-1.84445E-18
 -1      1547 9.54007E-05-2.86119E-05-2.86231E-05 6.93033E-08 4.35606E-19-4.84343E-19
 -1      1548 9.54599E-05-2.86237E-05-2.86451E-05 1.64388E-07 3.66364E-19-1.50298E-18
 -1      1549 9.52243E-05-2.85641E-05-2.85689E-05 3.73388E-08-1.47867E-19-2.28827E-18
 -1      1550 9.52705E-05-2.85751E-05-2.85831E-05 4.27202E-08 3.09068E-19-1.89759E-18
 -1      1551 9.53258E-05-2.85876E-05-2.86029E-05 1.04966E-07 5.29777E-19-7.78811E-19
 -1      1552 9.51641E-05-2.85472E-05-2.85502E-05 2.01230E-08 1.47310E-19-2.34597E-18
 -1      1553 9.51899E-05-2.85527E-05-2.85583E-05 2.39848E-08-1.50088E-19-2.31540E-18
 -1      1554 9.52394E-05-2.85648E-05-2.85755E-05 6.24723E-08-6.50025E-20-9.49578E-19
 -1      1555 9.51326E-05-2.85385E-05-2.85403E-05 8.47083E-09 1.09168E-19-2.63026E-18
 -1      1556 9.51445E-05-2.85404E-05-2.85441E-05 1.11710E-08 1.99536E-19-2.10211E-18
 -1      1557 9.51872E-05-2.85515E-05-2.85586E-05 3.28908E-08 1.96688E-19-1.18009E-18
 -1      1558 9.51203E-05-2.85353E-05-2.85363E-05 9.11925E-10-1.00949E-19-1.95000E-18
 -1      1559 9.51230E-05-2.85350E-05-2.85373E-05 2.74030E-09-5.82917E-19-2.54106E-18
 -1      1560 9.51589E-05-2.85447E-05-2.85493E-05 1.29734E-08-4.55128E-19-1.48865E-18
 -1      1561 9.51204E-05-2.85357E-05-2.85361E-05-3.69977E-09 2.85713E-19-3.93166E-18
 -1      1562 9.51174E-05-2.85340E-05-2.85354E-05-2.51313E-09 9.28568E-19-2.49231E-18
 -1      1563 9.51469E-05-2.85423E-05-2.85451E-05 1.46986E-10 1.04592E-18-1.94955E-18
 -1      1564 9.51279E-05-2.85382E-05-2.85383E-05-6.24216E-09 1.68239E-19-3.64444E-18
 -1      1565 9.51217E-05-2.85358E-05-2.85366E-05-5.51782E-09-2.48939E-19-4.06065E-18
 -1      1566 9.51455E-05-2.85427E-05-2.85442E-05-7.59019E-09 4.11909E-19-2.33645E-18
 -1      1567 9.51395E-05-2.85419E-05-2.85417E-05-7.37583E-09-2.90033E-19-2.76060E-18
 -1      1568 9.51317E-05-2.85392E-05-2.85395E-05-6.97624E-09-9.23584E-20-3.20822E-18
 -1      1569 9.51505E-05-2.85448E-05-2.85454E-05-1.17681E-08 6.85723E-20-2.23485E-18
 -1      1570 9.51527E-05-2.85459E-05-2.85456E-05-7.58859E-09-9.26550E-19-1.91817E-18
 -1      1571 9.51445E-05-2.85432E-05-2.85432E-05-7.41015E-09-8.90806E-19-3.08829E-18
 -1      1572 9.51591E-05-2.85477E-05-2.85478E-05-1.35352E-08-1.02902E-18-1.86331E-18
 -1      1573 9.51661E-05-2.85500E-05-2.85496E-05-7.23317E-09 2.57553E-19-1.50037E-18
 -1      1574 9.51582E-05-2.85475E-05-2.85473E-05-7.19932E-09 1.18043E-19-1.11160E-18
 -1      1575 9.51692E-05-2.85510E-05-2.85507E-05-1.37374E-08-3.03812E-19-2.37120E-18
 -1      1576 9.51787E-05-2.85538E-05-2.85534E-05-6.55849E-09-2.36923E-19-1.97696E-18
 -1      1577 9.51715E-05-2.85516E-05-2.85513E-05-6.61382E-09 6.12335E-20-1.50899E-18
 -1      1578 9.51797E-05-2.85543E-05-2.85538E-05-1.29843E-08 2.45609E-19-1.06823E-18
 -1      1579 9.51901E-05-2.85572E-05-2.85569E-05-5.73507E-09-3.22148E-19-2.61344E-18
 -1      1580 9.51837E-05-2.85553E-05-2.85550E-05-5.84045E-09-3.56399E-19-3.05083E-18
 -1      1581 9.51898E-05-2.85573E-05-2.85568E-05-1.17046E-08 1.03079E-19-1.51733E-18
 -1      1582 9.52000E-05-2.85602E-05-2.85599E-05-4.87527E-09-2.39658E-19-2.87669E-18
 -1      1583 9.51945E-05-2.85585E-05-2.85582E-05-5.00389E-09-4.41678E-20-3.06594E-18
 -1      1584 9.51989E-05-2.85601E-05-2.85595E-05-1.01904E-08 1.64936E-19-2.32868E-18
 -1      1585 9.52084E-05-2.85627E-05-2.85624E-05-4.04918E-09-5.49334E-19-1.84718E-18
 -1      1586 9.52038E-05-2.85613E-05-2.85610E-05-4.18335E-09-2.70859E-19-2.68341E-18
 -1      1587 9.52068E-05-2.85624E-05-2.85619E-05-8.63277E-09-2.17524E-19-2.04757E-18
 -1      1588 9.52154E-05-2.85647E-05-2.85645E-05-3.29681E-09-2.56445E-19 1.35915E-19
 -1      1589 9.52116E-05-2.85637E-05-2.85634E-05-3.42551E-09-9.37849E-19-1.21071E-18
 -1      1590 9.52136E-05-2.85644E-05-2.85639E-05-7.14977E-09-1.40561E-18-2.16608E-19
 -1      1591 9.52210E-05-2.85664E-05-2.85662E-05-2.63728E-09 4.41663E-20-5.78169E-19
 -1      1592 9.52180E-05-2.85655E-05-2.85653E-05-2.75428E-09 8.22574E-19-9.55465E-20
 -1      1593 9.52193E-05-2.85661E-05-2.85657E-05-5.80736E-09 3.02513E-19 2.67119E-19
 -1      1594 9.52255E-05-2.85677E-05-2.85676E-05-2.07559E-09-7.48122E-19 6.62257E-19
 -1      1595 9.52231E-05-2.85671E-05-2.85669E-05-2.17801E-09-7.05765E-19-5.74107E-19
 -1      1596 9.52239E-05-2.85674E-05-2.85670E-05-4.63553E-09-7.32657E-19 3.05635E-19
 -1      1597 9.52290E-05-2.85688E-05-2.85687E-05-1.60740E-09-1.78191E-19 1.92240E-18
 -1      1598 9.52272E-05-2.85683E-05-2.85681E-05-1.69470E-09-6.21458E-19 6.12861E-19
 -1      1599 9.52276E-05-2.85685E-05-2.85682E-05-3.63990E-09-1.33568E-18 4.84370E-19
 -1      1600 9.52318E-05-2.85696E-05-2.85695E-05-1.22212E-09 9.91596E-19-5.23646E-19
 -1      1601 9.52304E-05-2.85692E-05-2.85691E-05-1.29555E-09 7.85590E-19 1.42986E-18
 -1      1602 9.52304E-05-2.85693E-05-2.85691E-05-2.80984E-09 6.78634E-19 2.31141E-20
 -1      1603 9.52338E-05-2.85702E-05-2.85701E-05-9.05009E-10 4.31901E-19-1.84316E-18
 -1      1604 9.52328E-05-2.85699E-05-2.85698E-05-9.67083E-10 6.20999E-19-5.80573E-19
 -1      1605 9.52327E-05-2.85699E-05-2.85697E-05-2.12381E-09 7.98489E-19 6.22539E-20
 -1      1606 9.52353E-05-2.85706E-05-2.85706E-05-6.38970E-10-9.76815E-20-2.27683E-18
 -1      1607 9.52346E-05-2.85704E-05-2.85703E-05-6.93256E-10-3.83490E-19-2.86847E-18
 -1      1608 9.52344E-05-2.85704E-05-2.85703E-05-1.55349E-09 2.46476E-19-2.34011E-18
 -1      1609 9.52363E-05-2.85709E-05-2.85709E-05-4.04372E-10 1.49242E-19-2.85791E-18
 -1      1610 9.52358E-05-2.85708E-05-2.85707E-05-4.56007E-10 4.07128E-19-2.09113E-18
 -1      1611 9.52356E-05-2.85708E-05-2.85706E-05-1.06634E-09 6.11882E-19-2.33301E-18
 -1      1612 9.52369E-05-2.85711E-05-2.85711E-05-1.83213E-10 5.05864E-20-3.05466E-18
 -1      1613 9.52367E-05-2.85711E-05-2.85710E-05-2.38974E-10 1.78811E-19-2.55898E-18
 -1      1614 9.52364E-05-2.85710E-05-2.85709E-05-6.30377E-10 2.77255E-19-1.36389E-18
 -1      1615 9.52371E-05-2.85712E-05-2.85711E-05 4.26183E-12-9.03081E-19-3.46968E-18
 -1      1616 9.52371E-05-2.85712E-05-2.85711E-05-4.62196E-11-7.68805E-19-4.02879E-18
 -1      1617 9.52369E-05-2.85712E-05-2.85710E-05-2.32754E-10-2.23346E-19-1.84871E-18
 -1      1618 9.52372E-05-2.85711E-05-2.85712E-05 4.37636E-11-1.87291E-18-2.18335E-18
 -1      1619 9.52371E-05-2.85713E-05-2.85711E-05-1.26147E-10-1.50823E-18 9.94854E-19
 -1      1620 9.52371E-05-2.85712E-05-2.85711E-05-7.90540E-11-3.22012E-18 1.14561E-18
 -1      1621 9.52373E-05-2.85718E-05-2.85709E-05-3.34601E-10-6.70061E-19 4.18042E-19
 -1      1622 9.52372E-05-2.85715E-05-2.85710E-05-2.93877E-10-1.00296E-18-5.87442E-20
 -1      1623 9.52372E-05-2.85716E-05-2.85710E-05-4.27778E-10-1.00135E-18 6.52253E-19
 -1      1624 9.52375E-05-2.85725E-05-2.85707E-05-4.84138E-10-3.16537E-18-6.69283E-19
 -1      1625 9.52374E-05-2.85721E-05-2.85708E-05-4.60268E-10-1.60079E-18-4.72989E-19
 -1      1626 9.52374E-05-2.85721E-05-2.85708E-05-7.81516E-10-6.89121E-19-1.17350E-18
 -1      1627 9.52378E-05-2.85734E-05-2.85705E-05-5.39562E-10-3.49774E-18 3.45723E-19
 -1      1628 9.52377E-05-2.85729E-05-2.85706E-05-5.36308E-10-4.65351E-18 1.92928E-18
 -1      1629 9.52376E-05-2.85728E-05-2.85706E-05-9.93567E-10-2.19944E-18-1.03469E-18
 -1      1630 9.52381E-05-2.85742E-05-2.85702E-05-4.99481E-10-4.28364E-18-2.26988E-19
 -1      1631 9.52379E-05-2.85738E-05-2.85704E-05-5.14508E-10-3.61436E-18-2.30895E-18
 -1      1632 9.52379E-05-2.85736E-05-2.85704E-05-1.02272E-09-3.37273E-18-9.87635E-19
 -1      1633 9.52383E-05-2.85749E-05-2.85700E-05-3.75339E-10-6.01282E-18-1.28165E-18
 -1      1634 9.52382E-05-2.85745E-05-2.85701E-05-4.05698E-10-4.86824E-18-8.08674E-19
 -1      1635 9.52381E-05-2.85743E-05-2.85702E-05-8.77321E-10-3.59687E-18-1.86374E-18
 -1      1636 9.52384E-05-2.85753E-05-2.85699E-05-1.90886E-10-5.19383E-18 3.32359E-19
 -1      1637 9.52384E-05-2.85751E-05-2.85700E-05-2.30790E-10-6.62646E-18 8.98454E-19
 -1      1638 9.52383E-05-2.85749E-05-2.85701E-05-5.87200E-10-3.51936E-18-8.10163E-19
 -1      1639 9.52385E-05-2.85754E-05-2.85699E-05 2.33848E-11-2.36089E-18 1.70556E-18
 -1      1640 9.52385E-05-2.85754E-05-2.85699E-05-1.97669E-11-4.22239E-18 1.02517E-18
 -1      1641 9.52384E-05-2.85752E-05-2.85700E-05-2.04046E-10-1.48733E-18 2.32590E-18
 -1      1642 9.52384E-05-2.85751E-05-2.85700E-05 2.34033E-10-1.39517E-18 1.32291E-19
 -1      1643 9.52384E-05-2.85753E-05-2.85699E-05 1.94266E-10-2.69616E-18 2.61964E-18
 -1      1644 9.52384E-05-2.85752E-05-2.85700E-05 2.10839E-10-7.09174E-19 1.86891E-18
 -1      1645 9.52382E-05-2.85745E-05-2.85701E-05 4.07960E-10-6.13695E-18-3.31106E-18
 -1      1646 9.52383E-05-2.85749E-05-2.85700E-05 3.77960E-10-2.04624E-18-3.48175E-18
 -1      1647 9.52383E-05-2.85749E-05-2.85701E-05 5.92917E-10-1.87508E-18-2.70127E-18
 -1      1648 9.52379E-05-2.85737E-05-2.85704E-05 5.14733E-10-5.87265E-18 7.90067E-19
 -1      1649 9.52381E-05-2.85742E-05-2.85702E-05 4.99945E-10-5.45485E-18-1.51017E-18
 -1      1650 9.52381E-05-2.85743E-05-2.85702E-05 8.79543E-10-3.04094E-18-3.35650E-18
 -1      1651 9.52377E-05-2.85729E-05-2.85706E-05 5.35896E-10-1.81227E-18 1.35411E-18
 -1      1652 9.52378E-05-2.85734E-05-2.85705E-05 5.39506E-10-5.44909E-18 2.58866E-18
 -1      1653 9.52379E-05-2.85736E-05-2.85704E-05 1.02316E-09-9.57416E-19 2.94683E-18
 -1      1654 9.52374E-05-2.85721E-05-2.85708E-05 4.58434E-10 4.95245E-19 9.66036E-19
 -1      1655 9.52375E-05-2.85725E-05-2.85707E-05 4.82056E-10-1.01972E-18 1.31562E-18
 -1      1656 9.52376E-05-2.85728E-05-2.85706E-05 9.91482E-10-7.70292E-19 2.55718E-18
 -1      1657 9.52372E-05-2.85715E-05-2.85710E-05 2.94712E-10 9.85257E-19 5.14421E-20
 -1      1658 9.52373E-05-2.85718E-05-2.85709E-05 3.36954E-10 1.65102E-18 4.08685E-19
 -1      1659 9.52374E-05-2.85721E-05-2.85708E-05 7.75924E-10 6.76699E-20 1.15084E-18
 -1      1660 9.52371E-05-2.85713E-05-2.85711E-05 1.52008E-10-7.51255E-19-2.24377E-18
 -1      1661 9.52371E-05-2.85713E-05-2.85710E-05 2.17769E-10 1.03965E-18-1.25631E-18
 -1      1662 9.52371E-05-2.85716E-05-2.85709E-05 5.37340E-10 6.54544E-19-1.63078E-20
 -1      1663 9.52370E-05-2.85713E-05-2.85710E-05 3.33639E-10-5.07457E-19-2.07490E-18
 -1      1664 1.68488E-05-5.02882E-05 8.44034E-06-3.48218E-06 8.14422E-18 4.31754E-18
 -1      1665 1.93534E-05-5.84473E-05 1.03592E-05 2.47072E-06 2.82994E-18 2.75497E-18
 -1      1666 1.67603E-05-2.59291E-05-3.63272E-07 7.13898E-06 1.34289E-17 8.04882E-18
 -1      1667 2.03439E-05-4.59627E-05 4.91834E-06 2.42881E-06 9.66295E-18 5.08997E-18
 -1      1668 4.02464E-05-5.65617E-06-1.62653E-05 3.75709E-05 1.37067E-17 1.01568E-17
 -1      1669 3.17042E-05-2.32892E-05-7.57590E-06 1.90794E-05 1.27733E-17 7.94305E-18
 -1      1670 7.84360E-05 4.14188E-06-3.41763E-05 6.67996E-05 1.24548E-17 1.18043E-17
 -1      1671 5.25426E-05 1.08562E-06-2.48073E-05 4.48400E-05 1.47316E-17 1.10140E-17
 -1      1672 1.43012E-04-1.48962E-05-5.12155E-05 8.01751E-05 7.95110E-18 8.91587E-18
 -1      1673 1.02878E-04-1.02532E-06-4.27289E-05 7.01108E-05 1.08454E-17 1.09098E-17
 -1      1674 2.04374E-04-4.12112E-05-6.42266E-05 6.62828E-05 4.16963E-18 3.22465E-18
 -1      1675 1.65422E-04-2.11247E-05-5.82295E-05 7.67465E-05 6.84000E-18 7.18284E-18
 -1      1676 2.40777E-04-6.02804E-05-7.07674E-05 2.80607E-05 2.81766E-18-4.40267E-18
 -1      1677 2.20882E-04-4.78540E-05-6.84410E-05 5.62841E-05 3.59873E-18 8.18234E-19
 -1      1678 2.33726E-04-5.84594E-05-6.94514E-05-1.98422E-05 4.21907E-18-1.21964E-17
 -1      1679 2.43629E-04-6.24146E-05-7.11285E-05 1.24678E-05 2.87187E-18-7.08014E-18
 -1      1680 1.86997E-04-3.77648E-05-6.07550E-05-5.20673E-05 8.27816E-18-1.75116E-17
 -1      1681 2.21160E-04-5.43543E-05-6.59641E-05-3.28933E-05 5.47384E-18-1.40108E-17
 -1      1682 1.22348E-04-1.53733E-05-4.56338E-05-5.53497E-05 1.28046E-17-1.86296E-17
 -1      1683 1.65787E-04-3.29444E-05-5.39482E-05-5.62489E-05 9.57168E-18-1.76022E-17
 -1      1684 6.36872E-05 5.23646E-07-2.98426E-05-4.58617E-05 1.69068E-17-1.81968E-17
 -1      1685 9.42077E-05-5.41903E-06-3.78761E-05-6.10534E-05 1.50077E-17-2.01348E-17
 -1      1686 2.93313E-05-2.25367E-06-1.54397E-05-2.34818E-05 1.70152E-17-1.35491E-17
 -1      1687 4.35577E-05 4.44250E-06-2.25209E-05-3.98661E-05 1.75285E-17-1.69898E-17
 -1      1688 1.43423E-05-1.35175E-05-4.63835E-06-7.18875E-06 1.34725E-17-8.35312E-18
 -1      1689 1.67038E-05-1.95763E-06-9.59183E-06-1.57815E-05 1.64960E-17-1.19084E-17
 -1      1690 1.02165E-05-2.42032E-05 1.88860E-06-8.97736E-07 6.73412E-18-4.44311E-18
 -1      1691 8.57003E-06-1.53432E-05-8.42462E-07-1.22726E-06 1.18407E-17-6.85340E-18
 -1      1692 8.51036E-06-2.56458E-05 3.64618E-06-1.54904E-06-1.62969E-18-3.29581E-18
 -1      1693 8.44185E-06-2.51751E-05 3.35589E-06 2.60204E-06 4.36106E-18-3.67983E-18
 -1      1694 8.08081E-06-1.36581E-05-6.08359E-07 3.75594E-06-8.88029E-18-6.07249E-18
 -1      1695 9.17690E-06-2.12774E-05 1.86718E-06 3.98384E-06-3.42858E-18-4.23199E-18
 -1      1696 1.34774E-05-2.04112E-06-8.01018E-06 1.36706E-05-1.54270E-17-1.01837E-17
 -1      1697 1.27578E-05-1.37486E-05-3.44840E-06 7.36168E-06-1.21456E-17-6.84090E-18
 -1      1698 3.76956E-05 5.48875E-06-2.04665E-05 3.72889E-05-1.65265E-17-1.50132E-17
 -1      1699 2.59308E-05-2.55496E-06-1.36183E-05 2.18234E-05-1.57531E-17-1.16365E-17
 -1      1700 8.47013E-05-1.58701E-06-3.55270E-05 5.94620E-05-1.45944E-17-1.78063E-17
 -1      1701 5.73924E-05 1.74530E-06-2.76398E-05 4.34977E-05-1.62520E-17-1.60174E-17
 -1      1702 1.45332E-04-2.17523E-05-5.03524E-05 6.69623E-05-1.06112E-17-1.69678E-17
 -1      1703 1.07317E-04-7.21077E-06-4.29518E-05 6.16907E-05-1.37101E-17-1.80672E-17
 -1      1704 2.04476E-04-4.72914E-05-6.25630E-05 4.77656E-05-5.92140E-18-1.26530E-17
 -1      1705 1.67567E-04-2.92052E-05-5.67388E-05 6.08546E-05-8.85425E-18-1.59166E-17
 -1      1706 2.36797E-04-6.05850E-05-6.95552E-05 3.40329E-06-3.36971E-18-5.16944E-18
 -1      1707 2.18110E-04-5.14061E-05-6.66627E-05 3.31750E-05-4.73936E-18-1.02173E-17
 -1      1708 2.29997E-04-5.41038E-05-6.95660E-05-4.14796E-05-3.51201E-18 1.75929E-18
 -1      1709 2.39643E-04-6.07900E-05-7.05119E-05-1.17614E-05-2.91676E-18-3.10726E-18
 -1      1710 1.87783E-04-3.20687E-05-6.24595E-05-6.79844E-05-5.83870E-18 7.15912E-18
 -1      1711 2.17099E-04-4.84253E-05-6.66494E-05-5.08819E-05-4.09053E-18 3.20263E-18
 -1      1712 1.33961E-04-8.93339E-06-5.10833E-05-7.80056E-05-8.74350E-18 1.11630E-17
 -1      1713 1.71333E-04-2.62029E-05-5.76016E-05-7.75785E-05-6.42453E-18 9.45882E-18
 -1      1714 8.14796E-05 3.23950E-06-3.62073E-05-6.33067E-05-1.08581E-17 1.13130E-17
 -1      1715 1.13322E-04-4.10307E-06-4.41250E-05-7.76651E-05-9.34193E-18 1.20143E-17
 -1      1716 4.41087E-05-2.08585E-06-2.03462E-05-3.76979E-05-1.15052E-17 9.34616E-18
 -1      1717 6.23421E-05 4.80389E-06-2.84792E-05-5.74248E-05-1.13579E-17 1.10318E-17
 -1      1718 2.74395E-05-2.45328E-05-5.56932E-06-1.55244E-05-8.84557E-18 5.80429E-18
 -1      1719 3.24185E-05-6.86483E-06-1.29734E-05-3.06664E-05-1.05862E-17 8.56435E-18
 -1      1720 2.01983E-05-4.59739E-05 5.22089E-06-2.88801E-06-5.29269E-18 3.48067E-18
 -1      1721 1.67769E-05-2.79759E-05 5.04216E-07-6.09902E-06-8.61009E-18 5.32477E-18
 -1      1722 1.89201E-05-5.60198E-05 9.89486E-06-2.92989E-06 8.26810E-19 2.70542E-18
 -1      1723 1.66956E-05-4.80615E-05 8.04942E-06 1.65432E-06-3.40761E-18 3.10565E-18
 -1      1724 1.14860E-04-2.38629E-05-3.77569E-05 5.08317E-05 7.73426E-18 5.00512E-18
 -1      1725 7.50274E-05-2.81378E-05-2.12674E-05 4.45853E-05 7.03715E-18 5.60736E-18
 -1      1726 9.52371E-05-2.85711E-05-2.85711E-05 1.58382E-11-2.99332E-18-2.43324E-18
 -1      1727 9.52371E-05-2.85713E-05-2.85711E-05-1.36304E-10-1.64804E-18-4.05851E-19
 -1      1728 1.65364E-05-3.48208E-05 3.64716E-06 1.52352E-05 4.71755E-18 6.52109E-18
 -1      1729 4.06013E-05-3.02379E-05-6.71705E-06 3.41702E-05 6.15962E-18 6.69542E-18
 -1      1730 9.68060E-06-3.49932E-05 6.54295E-06-8.42071E-07 1.44059E-18 5.65183E-18
 -1      1731 1.56850E-04-2.68202E-05-5.25081E-05 4.59360E-05 6.74418E-18 2.46571E-18
 -1      1732 1.88541E-04-3.00422E-05-6.31616E-05 3.35674E-05 5.95337E-18-5.10761E-19
 -1      1733 2.05154E-04-3.46580E-05-6.75730E-05 1.49894E-05 5.71154E-18-4.88410E-18
 -1      1734 1.96299E-04-3.47064E-05-6.45757E-05-6.31837E-06 6.45333E-18-8.64821E-18
 -1      1735 1.66978E-04-3.35346E-05-5.47409E-05-1.99785E-05 7.96269E-18-1.02093E-17
 -1      1736 1.27215E-04-2.84223E-05-4.12797E-05-3.51100E-05 9.44357E-18-1.16581E-17
 -1      1737 7.83357E-05-1.82001E-05-2.67693E-05-3.88329E-05 1.08073E-17-1.25238E-17
 -1      1738 4.04978E-05-1.27611E-05-1.41836E-05-2.93916E-05 9.91240E-18-1.08300E-17
 -1      1739 1.62670E-05-1.11195E-05-4.95086E-06-1.67543E-05 7.37257E-18-8.69405E-18
 -1      1740 4.97665E-06-1.17991E-05 1.10257E-07-5.36650E-06 3.43726E-18-7.09517E-18
 -1      1741 3.57934E-06-8.26605E-06-2.26355E-07 5.98645E-06-9.18607E-19-7.07463E-18
 -1      1742 1.29712E-05-7.79739E-06-4.50092E-06 1.68897E-05-4.44163E-18-7.70631E-18
 -1      1743 3.50932E-05-1.04943E-05-1.26731E-05 2.88983E-05-8.54402E-18-9.27490E-18
 -1      1744 7.15011E-05-1.60884E-05-2.48356E-05 3.86960E-05-9.55750E-18-1.05862E-17
 -1      1745 1.14650E-04-2.32744E-05-3.86900E-05 4.07786E-05-9.86073E-18-1.11537E-17
 -1      1746 1.56904E-04-2.98318E-05-5.18795E-05 3.34382E-05-8.60480E-18-1.01398E-17
 -1      1747 1.87574E-04-3.32338E-05-6.18797E-05 1.51811E-05-6.96071E-18-6.90671E-18
 -1      1748 2.00791E-04-3.33541E-05-6.66299E-05-6.90269E-06-5.80641E-18-3.79545E-18
 -1      1749 1.92276E-04-3.02325E-05-6.46994E-05-2.50104E-05-5.61117E-18-5.13725E-19
 -1      1750 1.69813E-04-2.67614E-05-5.73976E-05-4.08982E-05-6.02251E-18 2.37932E-18
 -1      1751 1.37173E-04-2.37408E-05-4.61397E-05-5.09110E-05-5.92118E-18 5.40407E-18
 -1      1752 9.85660E-05-2.23931E-05-3.21453E-05-5.01134E-05-5.89577E-18 6.55900E-18
 -1      1753 6.43597E-05-2.62809E-05-1.77055E-05-4.23046E-05-4.93990E-18 5.88730E-18
 -1      1754 3.55538E-05-3.01623E-05-5.11503E-06-3.11038E-05-3.70238E-18 5.68800E-18
 -1      1755 1.59582E-05-3.31073E-05 3.42287E-06-1.56782E-05-1.37855E-18 5.42398E-18
 -1      1756 1.22032E-04-1.42505E-05-4.64657E-05-3.30569E-05-1.74976E-18 1.77750E-18
 -1      1757 1.38116E-04-3.56772E-05-4.44045E-05-1.88768E-05-1.87872E-18 7.62520E-18
 -1      1758 1.11245E-04-2.05736E-05-3.89694E-05-1.76107E-05-7.67227E-19-2.34758E-18
 -1      1759 1.13314E-04-2.03132E-05-4.01564E-05-2.13316E-05-1.53473E-18-1.92128E-18
 -1      1760 1.15703E-04-2.10053E-05-4.07565E-05-2.33058E-05-1.98580E-18-1.17621E-18
 -1      1761 1.18807E-04-2.22980E-05-4.16536E-05-2.55913E-05-2.67313E-18-5.49513E-20
 -1      1762 1.17681E-04-2.58114E-05-3.93736E-05-2.23683E-05-1.97303E-18-1.03338E-18
 -1      1763 9.29052E-05-1.94063E-05-3.15132E-05 2.20011E-06 1.95863E-18-2.77237E-18
 -1      1764 1.00308E-04-2.09569E-05-3.40498E-05-2.82651E-06 1.29090E-18-2.76122E-18
 -1      1765 7.02606E-05-1.13985E-05-2.53054E-05 1.27231E-05 3.02793E-18-3.25213E-18
 -1      1766 8.26985E-05-1.56887E-05-2.85042E-05 8.85433E-06 2.60632E-18-3.12714E-18
 -1      1767 9.22632E-05-2.29996E-05-2.97942E-05 5.92013E-06 2.31431E-18-2.46571E-18
 -1      1768 4.12478E-05 2.37252E-06-1.87243E-05 1.54948E-05 3.01517E-18-4.37418E-18
 -1      1769 5.50022E-05-3.31748E-06-2.16987E-05 1.58106E-05 3.25208E-18-4.05363E-18
 -1      1770 6.51294E-05-1.15053E-05-2.29291E-05 1.73306E-05 3.21301E-18-3.60545E-18
 -1      1771 2.31882E-05 1.20146E-05-1.49381E-05 8.79194E-06 1.90709E-18-5.34817E-18
 -1      1772 3.01473E-05 9.01065E-06-1.63081E-05 1.21844E-05 2.61018E-18-5.15144E-18
 -1      1773 3.56018E-05 3.55178E-06-1.64904E-05 1.78129E-05 2.90458E-18-5.28252E-18
 -1      1774 3.90052E-05 4.74128E-06-1.82726E-05-1.21978E-05-9.73347E-19-5.06843E-18
 -1      1775 2.89332E-05 8.99050E-06-1.62227E-05-9.70686E-06-3.90509E-19-5.31661E-18
 -1      1776 6.84350E-05-9.33630E-06-2.49526E-05-1.13443E-05-1.40729E-18-3.76792E-18
 -1      1777 5.40801E-05-3.81022E-06-2.16211E-05-1.30665E-05-1.36986E-18-4.20753E-18
 -1      1778 4.78842E-05-2.43821E-06-1.92620E-05-1.59437E-05-1.17976E-18-5.00602E-18
 -1      1779 9.32632E-05-1.90764E-05-3.17164E-05-1.19162E-06-6.55154E-19-2.32632E-18
 -1      1780 8.23744E-05-1.58693E-05-2.85379E-05-6.00861E-06-1.18765E-18-2.86263E-18
 -1      1781 7.95504E-05-1.77319E-05-2.65714E-05-1.00908E-05-1.34864E-18-3.05387E-18
 -1      1782 1.07637E-04-2.19935E-05-3.68693E-05 1.06923E-05 6.04914E-19-1.14085E-18
 -1      1783 1.01570E-04-2.12098E-05-3.44520E-05 5.55658E-06-5.29925E-20-1.66823E-18
 -1      1784 1.02330E-04-2.57032E-05-3.29412E-05 3.19964E-06-3.70643E-19-1.42725E-18
 -1      1785 1.15606E-04-2.21590E-05-4.03658E-05 2.00603E-05 1.70052E-18 4.27699E-19
 -1      1786 1.12016E-04-2.20925E-05-3.86294E-05 1.57469E-05 1.10080E-18-5.11026E-19
 -1      1787 1.14360E-04-2.73602E-05-3.73150E-05 1.49331E-05 8.99291E-19-2.52389E-19
 -1      1788 1.24314E-04-2.53074E-05-4.28444E-05 2.55564E-05 2.12507E-18 3.45229E-18
 -1      1789 1.19442E-04-2.31578E-05-4.14716E-05 2.27117E-05 1.89104E-18 1.63011E-18
 -1      1790 1.21433E-04-2.80843E-05-3.99983E-05 2.19165E-05 1.91596E-18 1.47405E-18
 -1      1791 1.33874E-04-3.44171E-05-4.32419E-05 2.16830E-05 1.95961E-18 7.30799E-18
 -1      1792 1.27699E-04-2.76366E-05-4.28617E-05 2.48389E-05 2.00986E-18 4.82713E-18
 -1      1793 1.26902E-04-3.17105E-05-4.08660E-05 2.24476E-05 2.23675E-18 3.85268E-18
 -1      1794 1.29245E-04-3.57654E-05-4.03428E-05 1.69926E-05 1.99987E-18 6.71959E-18
 -1      1795 1.28595E-04-3.01240E-05-4.20280E-05-2.45493E-05-2.56280E-18 3.23408E-18
 -1      1796 1.21676E-04-3.59284E-05-3.67728E-05 1.36625E-05 1.75799E-18 6.04937E-18
 -1      1797 1.26768E-04-3.70002E-05-3.85766E-05 1.50167E-05 1.65854E-18 6.42126E-18
 -1      1798 1.26472E-04-3.53281E-05-3.90328E-05 1.87342E-05 1.94323E-18 4.82756E-18
 -1      1799 1.19118E-04-3.43341E-05-3.62752E-05-1.51200E-05-2.08193E-18 1.55892E-18
 -1      1800 1.14745E-04-3.31129E-05-3.49426E-05-1.34433E-05-1.90143E-18 1.05901E-18
 -1      1801 1.12062E-04-3.21149E-05-3.41878E-05-1.19405E-05-1.88857E-18 8.67669E-19
 -1      1802 1.08885E-04-3.07303E-05-3.33925E-05-1.03899E-05-1.78033E-18 3.82559E-19
 -1      1803 1.15628E-04-3.23285E-05-3.57022E-05-1.62788E-05-2.28265E-18 2.96747E-19
 -1      1804 1.06507E-04-2.94855E-05-3.29490E-05-7.96835E-06-1.53399E-18 1.61709E-19
 -1      1805 1.04517E-04-2.85039E-05-3.24869E-05-5.72569E-06-1.31512E-18-4.23787E-19
 -1      1806 1.10428E-04-2.97127E-05-3.46417E-05-1.18488E-05-1.99302E-18-1.11087E-19
 -1      1807 1.03231E-04-2.79467E-05-3.21939E-05-2.56431E-06-1.29349E-18-7.80844E-19
 -1      1808 1.02718E-04-2.79288E-05-3.20092E-05-1.11096E-07-1.23840E-18-1.11832E-18
 -1      1809 1.06701E-04-2.76087E-05-3.39837E-05-5.53482E-06-1.63848E-18-8.64146E-19
 -1      1810 1.02754E-04-2.83808E-05-3.17897E-05 2.71222E-06-1.24782E-18-1.47999E-18
 -1      1811 1.03533E-04-2.92572E-05-3.18338E-05 4.47147E-06-9.32636E-19-1.82786E-18
 -1      1812 1.05535E-04-2.76834E-05-3.34412E-05 1.27173E-06-1.44627E-18-1.54410E-18
 -1      1813 1.04349E-04-3.02881E-05-3.16740E-05 5.91787E-06-7.79968E-19-2.05609E-18
 -1      1814 1.05792E-04-3.14853E-05-3.18674E-05 6.45185E-06-6.17818E-19-2.37045E-18
 -1      1815 1.06619E-04-2.98359E-05-3.29295E-05 6.05694E-06-1.19939E-18-2.15930E-18
 -1      1816 1.06561E-04-3.23910E-05-3.17680E-05 6.31763E-06-3.98347E-19-2.33788E-18
 -1      1817 1.07961E-04-3.33293E-05-3.20053E-05 5.77085E-06-8.78664E-20-2.17708E-18
 -1      1818 1.08454E-04-3.25932E-05-3.24907E-05 7.41919E-06-5.67004E-19-2.34634E-18
 -1      1819 1.08196E-04-3.37152E-05-3.19473E-05 4.61269E-06-3.47416E-19-2.10187E-18
 -1      1820 1.09095E-04-3.41488E-05-3.21313E-05 3.52107E-06-1.68503E-19-2.11279E-18
 -1      1821 1.09608E-04-3.44769E-05-3.21671E-05 5.87009E-06-1.30311E-19-2.25740E-18
 -1      1822 1.08769E-04-3.40390E-05-3.20781E-05 2.07873E-06-2.98096E-19-2.24566E-18
 -1      1823 1.09037E-04-3.40275E-05-3.21509E-05 9.56780E-07-3.58732E-19-2.62984E-18
 -1      1824 1.09552E-04-3.49752E-05-3.19396E-05 2.94024E-06-4.72724E-19-2.21014E-18
 -1      1825 1.08348E-04-3.36374E-05-3.20707E-05-2.66808E-07-4.28810E-19-2.46565E-18
 -1      1826 1.08074E-04-3.33572E-05-3.20220E-05-1.12754E-06-2.86969E-19-2.56504E-18
 -1      1827 1.08498E-04-3.44073E-05-3.17454E-05 6.83855E-09-4.99399E-19-2.17820E-18
 -1      1828 1.07230E-04-3.28854E-05-3.19013E-05-1.93884E-06-4.15920E-19-2.62716E-18
 -1      1829 1.06591E-04-3.24952E-05-3.17546E-05-2.45926E-06-5.59844E-19-2.55656E-18
 -1      1830 1.06902E-04-3.33424E-05-3.15269E-05-2.19878E-06-4.48577E-19-2.16972E-18
 -1      1831 1.05730E-04-3.20556E-05-3.15979E-05-2.86917E-06-5.08489E-19-2.41894E-18
 -1      1832 1.04903E-04-3.16551E-05-3.13900E-05-3.09353E-06-1.81563E-19-2.25716E-18
 -1      1833 1.05135E-04-3.22120E-05-3.12587E-05-3.50429E-06-4.17918E-19-1.93416E-18
 -1      1834 1.04097E-04-3.12904E-05-3.12114E-05-3.19900E-06 1.57790E-19-2.16107E-18
 -1      1835 1.03217E-04-3.09286E-05-3.09782E-05-3.21424E-06 5.67373E-19-1.95850E-18
 -1      1836 1.03420E-04-3.12318E-05-3.09454E-05-4.04041E-06 3.37101E-20-1.77592E-18
 -1      1837 1.02498E-04-3.06428E-05-3.07937E-05-3.12446E-06 3.06925E-19-1.90248E-18
 -1      1838 1.01657E-04-3.03372E-05-3.05622E-05-3.01486E-06 1.87050E-19-1.68656E-18
 -1      1839 1.01863E-04-3.04628E-05-3.06081E-05-4.03508E-06 4.30952E-19-1.54810E-18
 -1      1840 1.01035E-04-3.01192E-05-3.03850E-05-2.81964E-06-5.03521E-20-1.69676E-18
 -1      1841 1.00282E-04-2.98714E-05-3.01724E-05-2.64946E-06 7.15652E-20-1.69587E-18
 -1      1842 1.00505E-04-2.98912E-05-3.02708E-05-3.70494E-06 2.48567E-19-1.57275E-18
 -1      1843 9.97582E-05-2.97071E-05-3.00114E-05-2.41178E-06-1.49566E-19-1.85290E-18
 -1      1844 9.91157E-05-2.95117E-05-2.98263E-05-2.22355E-06-1.50517E-19-1.96350E-18
 -1      1845 9.93520E-05-2.94781E-05-2.99533E-05-3.21573E-06-2.43954E-19-1.59758E-18
 -1      1846 9.86830E-05-2.93888E-05-2.96862E-05-1.98275E-06-1.61573E-20-2.11328E-18
 -1      1847 9.81542E-05-2.92380E-05-2.95316E-05-1.80142E-06-3.24479E-19-1.82504E-18
 -1      1848 9.83948E-05-2.91839E-05-2.96686E-05-2.67846E-06-1.10005E-19-2.06743E-18
 -1      1849 9.78039E-05-2.91465E-05-2.94139E-05-1.57933E-06-7.91836E-19-1.50992E-18
 -1      1850 9.73814E-05-2.90325E-05-2.92887E-05-1.41762E-06-4.19351E-19-1.96020E-18
 -1      1851 9.76155E-05-2.89759E-05-2.94229E-05-2.15969E-06-4.32089E-19-1.53148E-18
 -1      1852 9.71031E-05-2.89648E-05-2.91926E-05-1.22440E-06-1.25491E-19-2.23502E-18
 -1      1853 9.67742E-05-2.88802E-05-2.90941E-05-1.08726E-06 3.45826E-19-1.98452E-18
 -1      1854 9.69925E-05-2.88300E-05-2.92177E-05-1.69435E-06-3.42554E-19-1.54268E-18
 -1      1855 9.65571E-05-2.88307E-05-2.90176E-05-9.25913E-07 4.17935E-19-2.10615E-18
 -1      1856 9.63071E-05-2.87693E-05-2.89419E-05-8.13784E-07 1.77941E-19-1.95100E-18
 -1      1857 9.65037E-05-2.87286E-05-2.90509E-05-1.29684E-06 2.03957E-19-1.78000E-18
 -1      1858 9.61411E-05-2.87336E-05-2.88824E-05-6.83217E-07 2.43864E-19-1.07952E-18
 -1      1859 9.59555E-05-2.86901E-05-2.88256E-05-5.94162E-07 2.85140E-19-7.66027E-19
 -1      1860 9.61271E-05-2.86591E-05-2.89185E-05-9.69242E-07 6.53732E-19-3.37893E-19
 -1      1861 9.58309E-05-2.86648E-05-2.87803E-05-4.91230E-07 1.57801E-20-6.21203E-19
 -1      1862 9.56965E-05-2.86349E-05-2.87388E-05-4.22245E-07 6.38794E-19-6.88973E-19
 -1      1863 9.58424E-05-2.86125E-05-2.88158E-05-7.06882E-07 4.61386E-19 2.86172E-19
 -1      1864 9.56051E-05-2.86174E-05-2.87050E-05-3.42971E-07 5.76943E-19-9.47501E-19
 -1      1865 9.55104E-05-2.85976E-05-2.86754E-05-2.90754E-07 2.24756E-19-8.56541E-19
 -1      1866 9.56315E-05-2.85822E-05-2.87378E-05-5.01872E-07 3.80008E-19-1.23591E-18
 -1      1867 9.54449E-05-2.85859E-05-2.86508E-05-2.31048E-07 1.66984E-19-1.25460E-18
 -1      1868 9.53804E-05-2.85734E-05-2.86303E-05-1.92422E-07-3.80052E-20-1.19499E-18
 -1      1869 9.54788E-05-2.85635E-05-2.86799E-05-3.45260E-07 2.94720E-19-1.69688E-18
 -1      1870 9.53347E-05-2.85660E-05-2.86129E-05-1.48463E-07-2.72322E-19-1.06377E-18
 -1      1871 9.52926E-05-2.85587E-05-2.85993E-05-1.20577E-07-2.99010E-19-1.04970E-18
 -1      1872 9.53711E-05-2.85528E-05-2.86379E-05-2.28245E-07-9.28552E-21-1.62021E-18
 -1      1873 9.52619E-05-2.85543E-05-2.85874E-05-8.89968E-08-1.24935E-18-1.43200E-18
 -1      1874 9.52361E-05-2.85507E-05-2.85787E-05-6.94128E-08-8.83339E-19-2.22913E-18
 -1      1875 9.52974E-05-2.85476E-05-2.86082E-05-1.42814E-07-1.11817E-18-1.28323E-18
 -1      1876 9.52163E-05-2.85483E-05-2.85709E-05-4.73560E-08 2.11726E-19-2.61485E-18
 -1      1877 9.52020E-05-2.85471E-05-2.85658E-05-3.40520E-08 8.24080E-19-2.36176E-18
 -1      1878 9.52491E-05-2.85460E-05-2.85879E-05-8.20150E-08-7.34974E-19-1.23976E-18
 -1      1879 9.51901E-05-2.85462E-05-2.85609E-05-1.91704E-08 5.30670E-19-2.53280E-18
 -1      1880 9.51836E-05-2.85465E-05-2.85584E-05-1.05159E-08-9.24614E-20-2.12982E-18
 -1      1881 9.52191E-05-2.85467E-05-2.85745E-05-4.00274E-08 4.55255E-19-2.19785E-18
 -1      1882 9.51773E-05-2.85465E-05-2.85556E-05-9.24357E-10-8.37860E-19-2.71841E-18
 -1      1883 9.51760E-05-2.85477E-05-2.85547E-05 4.36715E-09-1.00796E-18-2.94983E-18
 -1      1884 9.52022E-05-2.85486E-05-2.85662E-05-1.21061E-08-3.80275E-19-3.81414E-18
 -1      1885 9.51734E-05-2.85483E-05-2.85533E-05 1.01492E-08-9.62122E-19-2.61085E-18
 -1      1886 9.51753E-05-2.85500E-05-2.85535E-05 1.30715E-08-6.93982E-19-3.15763E-18
 -1      1887 9.51942E-05-2.85513E-05-2.85615E-05 5.52714E-09-1.17104E-18-3.55865E-18
 -1      1888 9.51752E-05-2.85508E-05-2.85531E-05 1.61836E-08-1.03087E-18-2.95387E-18
 -1      1889 9.51788E-05-2.85527E-05-2.85540E-05 1.74893E-08-1.09919E-18-3.14058E-18
 -1      1890 9.51921E-05-2.85541E-05-2.85593E-05 1.58186E-08-8.20499E-19-2.90845E-18
 -1      1891 9.51802E-05-2.85536E-05-2.85542E-05 1.87914E-08-1.15682E-18-2.65020E-18
 -1      1892 9.51847E-05-2.85555E-05-2.85553E-05 1.90385E-08 3.14941E-19-2.19832E-18
 -1      1893 9.51938E-05-2.85569E-05-2.85588E-05 2.10199E-08-7.13052E-19-1.20927E-18
 -1      1894 9.51869E-05-2.85565E-05-2.85559E-05 1.91658E-08 1.49641E-18-2.19443E-18
 -1      1895 9.51916E-05-2.85582E-05-2.85571E-05 1.87593E-08 1.43263E-18-2.29927E-18
 -1      1896 9.51975E-05-2.85596E-05-2.85592E-05 2.28178E-08 6.95427E-19-1.03100E-18
 -1      1897 9.51941E-05-2.85591E-05-2.85579E-05 1.81706E-08 1.26254E-18-2.59847E-18
 -1      1898 9.51987E-05-2.85607E-05-2.85592E-05 1.73966E-08 5.96427E-19-1.55038E-18
 -1      1899 9.52024E-05-2.85619E-05-2.85602E-05 2.24489E-08 1.35102E-18-2.69416E-19
 -1      1900 9.52013E-05-2.85615E-05-2.85600E-05 1.64148E-08-4.38377E-19-2.20024E-18
 -1      1901 9.52055E-05-2.85628E-05-2.85611E-05 1.54696E-08-1.57538E-19-2.50783E-18
 -1      1902 9.52075E-05-2.85639E-05-2.85616E-05 2.07986E-08 3.87119E-20-5.38017E-19
 -1      1903 9.52079E-05-2.85636E-05-2.85619E-05 1.43145E-08 2.28049E-19-2.94824E-18
 -1      1904 9.52116E-05-2.85647E-05-2.85630E-05 1.33275E-08-2.41106E-19-2.37358E-18
 -1      1905 9.52125E-05-2.85655E-05-2.85630E-05 1.84833E-08-3.22384E-19-1.72199E-18
 -1      1906 9.52138E-05-2.85653E-05-2.85637E-05 1.21429E-08-3.05580E-19-2.53282E-18
 -1      1907 9.52170E-05-2.85662E-05-2.85646E-05 1.11946E-08-3.94009E-20-2.16057E-18
 -1      1908 9.52171E-05-2.85669E-05-2.85644E-05 1.59173E-08-3.08277E-19-2.07726E-18
 -1      1909 9.52189E-05-2.85667E-05-2.85653E-05 1.00688E-08 1.81687E-19-1.48947E-18
 -1      1910 9.52216E-05-2.85675E-05-2.85661E-05 9.20495E-09 1.08029E-19-6.28236E-19
 -1      1911 9.52212E-05-2.85680E-05-2.85657E-05 1.33663E-08 6.29292E-19-1.32863E-18
 -1      1912 9.52232E-05-2.85679E-05-2.85666E-05 8.18673E-09-4.15289E-19-1.05282E-19
 -1      1913 9.52253E-05-2.85685E-05-2.85672E-05 7.42899E-09-7.17032E-20 2.42452E-19
 -1      1914 9.52248E-05-2.85689E-05-2.85668E-05 1.09886E-08 1.62947E-19 4.80303E-19
 -1      1915 9.52267E-05-2.85688E-05-2.85677E-05 6.53997E-09 1.34247E-19-3.59316E-19
 -1      1916 9.52284E-05-2.85693E-05-2.85682E-05 5.89340E-09 1.09668E-18-2.35541E-19
 -1      1917 9.52277E-05-2.85696E-05-2.85678E-05 8.86666E-09-1.32476E-19 1.86624E-18
 -1      1918 9.52295E-05-2.85695E-05-2.85686E-05 5.13660E-09 1.71159E-18-8.60517E-19
 -1      1919 9.52309E-05-2.85699E-05-2.85690E-05 4.59531E-09 2.08263E-18 1.13202E-19
 -1      1920 9.52301E-05-2.85701E-05-2.85686E-05 7.03093E-09 1.31287E-18 1.59059E-18
 -1      1921 9.52318E-05-2.85701E-05-2.85693E-05 3.96145E-09 2.24664E-18 4.55996E-19
 -1      1922 9.52328E-05-2.85703E-05-2.85696E-05 3.51228E-09 2.66544E-18 1.89983E-18
 -1      1923 9.52321E-05-2.85705E-05-2.85692E-05 5.47671E-09 2.24536E-18 1.54323E-18
 -1      1924 9.52335E-05-2.85705E-05-2.85699E-05 2.98419E-09 1.97899E-18 1.30589E-18
 -1      1925 9.52343E-05-2.85707E-05-2.85701E-05 2.60931E-09 9.34829E-19 1.32934E-18
 -1      1926 9.52336E-05-2.85708E-05-2.85698E-05 4.17630E-09 2.01059E-18 1.25311E-18
 -1      1927 9.52349E-05-2.85708E-05-2.85703E-05 2.16556E-09-5.74074E-19 1.41397E-18
 -1      1928 9.52354E-05-2.85710E-05-2.85705E-05 1.84495E-09 4.07166E-19 9.44230E-19
 -1      1929 9.52348E-05-2.85711E-05-2.85702E-05 3.08822E-09 3.76511E-19 1.17219E-18
 -1      1930 9.52359E-05-2.85711E-05-2.85706E-05 1.46253E-09 6.27004E-19-2.28305E-19
 -1      1931 9.52363E-05-2.85712E-05-2.85707E-05 1.17849E-09 8.70825E-19 5.39195E-19
 -1      1932 9.52358E-05-2.85713E-05-2.85705E-05 2.16585E-09-3.56786E-19 9.93157E-19
 -1      1933 9.52365E-05-2.85713E-05-2.85708E-05 8.60647E-10 7.91151E-19-5.80349E-19
 -1      1934 9.52368E-05-2.85713E-05-2.85709E-05 6.16557E-10 3.74632E-20-8.53027E-19
 -1      1935 9.52368E-05-2.85714E-05-2.85709E-05 7.43411E-10-3.38610E-19-1.78242E-18
 -1      1936 9.52364E-05-2.85714E-05-2.85707E-05 1.38679E-09 1.91689E-20 4.58886E-19
 -1      1937 1.14083E-04-3.32888E-05-3.45685E-05 1.19707E-05 1.54355E-18 5.50884E-18
 -1      1938 1.18425E-04-3.49389E-05-3.57369E-05 1.26984E-05 1.62278E-18 5.99591E-18
 -1      1939 1.20255E-04-3.51158E-05-3.64726E-05 1.60030E-05 1.66843E-18 4.80505E-18
 -1      1940 1.07706E-04-3.02747E-05-3.31527E-05 8.33403E-06 1.25653E-18 4.27417E-18
 -1      1941 1.11064E-04-3.17713E-05-3.39183E-05 1.00137E-05 1.42357E-18 4.94226E-18
 -1      1942 1.13672E-04-3.21292E-05-3.49656E-05 1.29621E-05 1.77006E-18 4.10477E-18
 -1      1943 1.04088E-04-2.86293E-05-3.23643E-05 2.46300E-06 1.02405E-18 2.97278E-18
 -1      1944 1.05819E-04-2.92363E-05-3.27564E-05 5.15257E-06 1.04489E-18 3.47757E-18
 -1      1945 1.08549E-04-2.91881E-05-3.40628E-05 7.37985E-06 1.49185E-18 2.88706E-18
 -1      1946 1.04039E-04-2.92226E-05-3.21134E-05-3.37549E-06 8.25513E-19 2.31158E-18
 -1      1947 1.03903E-04-2.87364E-05-3.21541E-05-7.46837E-07 1.04282E-18 2.44877E-18
 -1      1948 1.06429E-04-2.84390E-05-3.34902E-05 1.74756E-07 1.24644E-18 1.99065E-18
 -1      1949 1.06614E-04-3.13827E-05-3.22659E-05-6.64580E-06 9.41484E-19 1.53215E-18
 -1      1950 1.05116E-04-3.02453E-05-3.20433E-05-5.20503E-06 8.30608E-19 1.84091E-18
 -1      1951 1.07310E-04-3.00589E-05-3.31374E-05-5.59588E-06 1.05317E-18 1.07482E-18
 -1      1952 1.09753E-04-3.35683E-05-3.26337E-05-6.57222E-06 5.11997E-19 1.15526E-18
 -1      1953 1.07867E-04-3.24780E-05-3.22969E-05-6.58750E-06 8.64784E-19 1.34975E-18
 -1      1954 1.09640E-04-3.27053E-05-3.29607E-05-7.70768E-06 1.01722E-18 3.80755E-19
 -1      1955 1.11822E-04-3.47567E-05-3.29896E-05-4.25380E-06-1.28686E-19 9.72791E-19
 -1      1956 1.10387E-04-3.41359E-05-3.26980E-05-5.21467E-06 1.18697E-19 1.37035E-18
 -1      1957 1.11555E-04-3.47294E-05-3.29096E-05-6.34221E-06 1.69479E-19 4.36050E-19
 -1      1958 1.12292E-04-3.48525E-05-3.31523E-05-1.32654E-06 2.61045E-19 6.57185E-19
 -1      1959 1.11679E-04-3.47356E-05-3.30113E-05-2.54239E-06 1.39430E-20 8.67074E-19
 -1      1960 1.12121E-04-3.53961E-05-3.28816E-05-3.21870E-06 1.26473E-19 1.16662E-19
 -1      1961 1.11410E-04-3.42418E-05-3.30499E-05 1.09256E-06 3.41632E-19 9.68642E-19
 -1      1962 1.11585E-04-3.44688E-05-3.30862E-05 8.28613E-08 2.74922E-19 8.68163E-19
 -1      1963 1.11376E-04-3.49416E-05-3.27692E-05-2.28828E-08 2.38599E-19 1.76694E-20
 -1      1964 1.09686E-04-3.33398E-05-3.27112E-05 2.60841E-06 2.13409E-19 1.13971E-18
 -1      1965 1.10419E-04-3.37338E-05-3.28927E-05 1.96806E-06 2.22723E-19 1.08249E-18
 -1      1966 1.09777E-04-3.39320E-05-3.25198E-05 2.33533E-06 2.03126E-19 3.98923E-19
 -1      1967 1.07582E-04-3.24103E-05-3.22167E-05 3.29060E-06-1.26866E-19 1.52215E-18
 -1      1968 1.08616E-04-3.28489E-05-3.24874E-05 2.99371E-06 1.88994E-20 1.35604E-18
 -1      1969 1.07784E-04-3.28146E-05-3.21415E-05 3.66111E-06 7.95086E-21 9.87071E-19
 -1      1970 1.05425E-04-3.15754E-05-3.16536E-05 3.38127E-06-2.47834E-19 1.83105E-18
 -1      1971 1.06553E-04-3.19920E-05-3.19600E-05 3.33045E-06-2.79009E-19 1.59489E-18
 -1      1972 1.05715E-04-3.18149E-05-3.16794E-05 4.13545E-06-2.53999E-19 1.26621E-18
 -1      1973 1.03407E-04-3.08736E-05-3.10908E-05 3.12441E-06-1.17006E-19 1.25100E-18
 -1      1974 1.04495E-04-3.12387E-05-3.13934E-05 3.22017E-06-7.04923E-20 1.40054E-18
 -1      1975 1.03759E-04-3.10010E-05-3.11868E-05 4.04302E-06 6.20245E-20 1.04827E-18
 -1      1976 1.01630E-04-3.03043E-05-3.05724E-05 2.70363E-06 3.44212E-19 1.13390E-18
 -1      1977 1.02603E-04-3.06093E-05-3.08476E-05 2.87031E-06 2.44600E-19 1.42310E-18
 -1      1978 1.02011E-04-3.03669E-05-3.07078E-05 3.63673E-06 2.01143E-19 9.72215E-19
 -1      1979 1.00127E-04-2.98530E-05-3.01207E-05 2.23640E-06-2.28641E-19 2.87089E-19
 -1      1980 1.00954E-04-3.00995E-05-3.03575E-05 2.42506E-06-1.72019E-19 6.91307E-19
 -1      1981 1.00511E-04-2.98827E-05-3.02714E-05 3.09710E-06 1.25315E-19 5.33484E-19
 -1      1982 9.88968E-05-2.95012E-05-2.97430E-05 1.78873E-06 4.84086E-19 6.86786E-19
 -1      1983 9.95739E-05-2.96955E-05-2.99387E-05 1.97148E-06 2.92868E-19 4.49998E-19
 -1      1984 9.92606E-05-2.95164E-05-2.98923E-05 2.53602E-06 1.83776E-19 5.97716E-19
 -1      1985 9.79148E-05-2.92311E-05-2.94370E-05 1.39234E-06-1.81814E-19 3.08809E-19
 -1      1986 9.84533E-05-2.93810E-05-2.95938E-05 1.55546E-06-1.02819E-21 6.65749E-19
 -1      1987 9.82452E-05-2.92411E-05-2.95751E-05 2.01444E-06 2.58688E-19 7.03680E-19
 -1      1988 9.71487E-05-2.90270E-05-2.91955E-05 1.05836E-06 1.26384E-18-4.46944E-19
 -1      1989 9.75664E-05-2.91403E-05-2.93179E-05 1.19673E-06 4.59166E-19-1.66209E-19
 -1      1990 9.74383E-05-2.90357E-05-2.93172E-05 1.56006E-06 6.16497E-19-3.33209E-19
 -1      1991 9.65633E-05-2.88753E-05-2.90092E-05 7.86604E-07 7.83266E-19-8.05176E-19
 -1      1992 9.68802E-05-2.89593E-05-2.91026E-05 8.99880E-07 1.25224E-18-6.96643E-19
 -1      1993 9.68099E-05-2.88839E-05-2.91128E-05 1.18092E-06 1.13734E-18-5.76750E-19
 -1      1994 9.61252E-05-2.87647E-05-2.88686E-05 5.71348E-07-2.41300E-19-1.07616E-18
 -1      1995 9.63604E-05-2.88256E-05-2.89383E-05 6.61600E-07 1.91301E-19-5.84358E-19
 -1      1996 9.63299E-05-2.87734E-05-2.89544E-05 8.74356E-07 4.38912E-19-8.89283E-19
 -1      1997 9.58042E-05-2.86858E-05-2.87647E-05 4.04659E-07-3.05597E-19-1.57868E-18
 -1      1998 9.59748E-05-2.87289E-05-2.88156E-05 4.74956E-07-6.09107E-19-1.45895E-18
 -1      1999 9.59705E-05-2.86942E-05-2.88341E-05 6.32621E-07-3.59732E-19-1.22422E-18
 -1      2000 9.55744E-05-2.86309E-05-2.86897E-05 2.78213E-07-6.70455E-20-1.33816E-18
 -1      2001 9.56951E-05-2.86606E-05-2.87259E-05 3.31859E-07-5.06689E-20-1.25948E-18
 -1      2002 9.57069E-05-2.86388E-05-2.87447E-05 4.46097E-07-2.80801E-19-1.36330E-18
 -1      2003 9.54144E-05-2.85941E-05-2.86369E-05 1.84221E-07 8.99753E-20-5.27081E-19
 -1      2004 9.54972E-05-2.86137E-05-2.86619E-05 2.24355E-07 5.06268E-20-1.04915E-18
 -1      2005 9.55179E-05-2.86011E-05-2.86796E-05 3.05061E-07-1.54240E-19-9.24881E-19
 -1      2006 9.53066E-05-2.85704E-05-2.86008E-05 1.15828E-07 5.95464E-19-9.43314E-19
 -1      2007 9.53614E-05-2.85828E-05-2.86176E-05 1.45240E-07 6.57282E-19-7.28750E-19
 -1      2008 9.53861E-05-2.85765E-05-2.86335E-05 2.00561E-07 6.67274E-19-5.48837E-19
 -1      2009 9.52372E-05-2.85562E-05-2.85772E-05 6.72331E-08-1.04073E-19-9.04140E-19
 -1      2010 9.52716E-05-2.85634E-05-2.85879E-05 8.83029E-08-1.13363E-19-9.43899E-19
 -1      2011 9.52971E-05-2.85614E-05-2.86017E-05 1.24787E-07 2.11668E-19-1.21319E-18
 -1      2012 9.51954E-05-2.85486E-05-2.85626E-05 3.36678E-08-1.14381E-19-6.35127E-19
 -1      2013 9.52152E-05-2.85522E-05-2.85689E-05 4.83668E-08 1.05070E-19-7.09700E-19
 -1      2014 9.52396E-05-2.85528E-05-2.85806E-05 7.11674E-08-1.63284E-19-7.91872E-19
 -1      2015 9.51729E-05-2.85454E-05-2.85544E-05 1.12972E-08 2.66040E-19-1.35280E-18
 -1      2016 9.51827E-05-2.85467E-05-2.85577E-05 2.12206E-08-2.24168E-19-5.74580E-19
 -1      2017 9.52048E-05-2.85489E-05-2.85673E-05 3.43190E-08-2.48809E-19-2.17600E-19
 -1      2018 9.51635E-05-2.85452E-05-2.85505E-05-2.90283E-09 6.47615E-19-8.37880E-19
 -1      2019 9.51666E-05-2.85449E-05-2.85517E-05 3.51053E-09 1.01007E-18-8.31979E-19
 -1      2020 9.51859E-05-2.85479E-05-2.85595E-05 9.92557E-09 1.93142E-19-3.95645E-19
 -1      2021 9.51625E-05-2.85467E-05-2.85495E-05-1.12747E-08 5.40557E-19-1.42166E-18
 -1      2022 9.51614E-05-2.85455E-05-2.85494E-05-7.38524E-09 2.79762E-19-1.26428E-18
 -1      2023 9.51778E-05-2.85488E-05-2.85555E-05-5.40782E-09 6.49452E-19-3.24275E-19
 -1      2024 9.51667E-05-2.85492E-05-2.85502E-05-1.56011E-08-4.49636E-19-1.02139E-18
 -1      2025 9.51632E-05-2.85475E-05-2.85494E-05-1.34805E-08 7.99910E-23-1.45634E-18
 -1      2026 9.51768E-05-2.85508E-05-2.85542E-05-1.43042E-08 3.99985E-19 3.14322E-19
 -1      2027 9.51737E-05-2.85521E-05-2.85520E-05-1.72141E-08-9.44952E-19-1.79086E-18
 -1      2028 9.51690E-05-2.85502E-05-2.85508E-05-1.62946E-08-9.99657E-19-1.56518E-18
 -1      2029 9.51800E-05-2.85533E-05-2.85544E-05-1.87544E-08-6.30706E-19-4.50655E-20
 -1      2030 9.51821E-05-2.85550E-05-2.85544E-05-1.70897E-08-5.48789E-19-1.61789E-18
 -1      2031 9.51768E-05-2.85532E-05-2.85529E-05-1.69523E-08-7.39342E-19-2.09239E-18
 -1      2032 9.51856E-05-2.85559E-05-2.85557E-05-2.02418E-08-7.93772E-19-7.79573E-19
 -1      2033 9.51906E-05-2.85579E-05-2.85568E-05-1.59273E-08 1.01319E-19-3.98174E-19
 -1      2034 9.51854E-05-2.85562E-05-2.85554E-05-1.62695E-08-1.48637E-19-7.44053E-19
 -1      2035 9.51923E-05-2.85585E-05-2.85574E-05-1.98498E-08-7.52673E-19-8.86946E-19
 -1      2036 9.51988E-05-2.85604E-05-2.85593E-05-1.42147E-08 2.87381E-19-9.09522E-19
 -1      2037 9.51940E-05-2.85589E-05-2.85579E-05-1.48236E-08 6.84036E-20-9.11008E-19
 -1      2038 9.51992E-05-2.85609E-05-2.85593E-05-1.83515E-08 7.17255E-20-1.09267E-19
 -1      2039 9.52062E-05-2.85627E-05-2.85615E-05-1.22815E-08 5.77872E-19-5.85708E-19
 -1      2040 9.52019E-05-2.85614E-05-2.85603E-05-1.30114E-08 4.73732E-19-5.00680E-19
 -1      2041 9.52058E-05-2.85629E-05-2.85613E-05-1.62837E-08 3.85503E-19-4.87677E-19
 -1      2042 9.52127E-05-2.85646E-05-2.85634E-05-1.03404E-08-1.14885E-18-5.84811E-20
 -1      2043 9.52090E-05-2.85635E-05-2.85624E-05-1.10958E-08-6.42120E-19-7.52552E-19
 -1      2044 9.52119E-05-2.85647E-05-2.85631E-05-1.40066E-08-8.10414E-19 6.85055E-19
 -1      2045 9.52182E-05-2.85661E-05-2.85651E-05-8.51984E-09-4.19847E-19 8.99177E-20
 -1      2046 9.52151E-05-2.85652E-05-2.85642E-05-9.24167E-09-7.81702E-19 7.85727E-20
 -1      2047 9.52171E-05-2.85662E-05-2.85647E-05-1.17506E-08-9.08046E-19 5.50992E-19
 -1      2048 9.52228E-05-2.85674E-05-2.85666E-05-6.88893E-09-1.57496E-19-2.59171E-19
 -1      2049 9.52202E-05-2.85667E-05-2.85658E-05-7.54396E-09-3.23107E-19-8.74666E-19
 -1      2050 9.52216E-05-2.85675E-05-2.85661E-05-9.65252E-09-4.80155E-20-6.70154E-19
 -1      2051 9.52265E-05-2.85685E-05-2.85677E-05-5.47570E-09-1.77362E-18 8.47843E-20
 -1      2052 9.52244E-05-2.85679E-05-2.85671E-05-6.04887E-09-9.82741E-19 1.89836E-19
 -1      2053 9.52254E-05-2.85685E-05-2.85673E-05-7.78368E-09-1.15002E-18-6.41420E-19
 -1      2054 9.52295E-05-2.85693E-05-2.85687E-05-4.28060E-09-2.26930E-19-1.09338E-19
 -1      2055 9.52278E-05-2.85688E-05-2.85682E-05-4.76928E-09-1.13394E-18-2.91632E-19
 -1      2056 9.52284E-05-2.85692E-05-2.85682E-05-6.17004E-09-1.00437E-18-3.35889E-19
 -1      2057 9.52318E-05-2.85699E-05-2.85694E-05-3.28576E-09 1.01447E-18-7.66460E-19
 -1      2058 9.52305E-05-2.85695E-05-2.85690E-05-3.69585E-09 5.47886E-19 6.64166E-20
 -1      2059 9.52309E-05-2.85699E-05-2.85690E-05-4.80717E-09 3.09680E-19 7.43944E-20
 -1      2060 9.52336E-05-2.85704E-05-2.85700E-05-2.46063E-09 1.49590E-18-1.04701E-18
 -1      2061 9.52327E-05-2.85701E-05-2.85697E-05-2.80433E-09 1.00862E-18-4.25924E-19
 -1      2062 9.52328E-05-2.85703E-05-2.85696E-05-3.67031E-09 1.10954E-18-1.60620E-18
 -1      2063 9.52350E-05-2.85707E-05-2.85704E-05-1.76930E-09 4.75680E-19-3.15089E-18
 -1      2064 9.52343E-05-2.85705E-05-2.85702E-05-2.06148E-09 9.91370E-19-1.73646E-18
 -1      2065 9.52343E-05-2.85707E-05-2.85701E-05-2.72173E-09 1.53026E-18-2.49213E-18
 -1      2066 9.52360E-05-2.85710E-05-2.85707E-05-1.17204E-09 1.64823E-20-1.93779E-18
 -1      2067 9.52355E-05-2.85709E-05-2.85706E-05-1.43081E-09-7.53886E-19-3.02417E-18
 -1      2068 9.52354E-05-2.85710E-05-2.85705E-05-1.91966E-09-1.54435E-19-2.62684E-18
 -1      2069 9.52366E-05-2.85712E-05-2.85709E-05-6.41241E-10-4.92169E-19-1.17421E-19
 -1      2070 9.52363E-05-2.85711E-05-2.85708E-05-8.76714E-10 6.28423E-20-4.06809E-19
 -1      2071 9.52362E-05-2.85712E-05-2.85707E-05-1.22182E-09-8.37660E-19-4.25232E-19
 -1      2072 9.52370E-05-2.85713E-05-2.85710E-05-2.87429E-10-8.17817E-20-5.71014E-19
 -1      2073 9.52368E-05-2.85712E-05-2.85710E-05-4.84295E-10 3.36017E-19 2.18113E-19
 -1      2074 9.52367E-05-2.85713E-05-2.85709E-05-7.20409E-10-4.28347E-19 1.23511E-19
 -1      2075 9.52370E-05-2.85714E-05-2.85710E-05-3.85488E-10-9.64463E-19 1.56427E-18
 -1      2076 9.52377E-05-2.85731E-05-2.85705E-05-1.43067E-09-1.78729E-18-1.17012E-19
 -1      2077 9.52375E-05-2.85727E-05-2.85706E-05-1.36610E-09-1.15550E-18-1.60658E-18
 -1      2078 9.52373E-05-2.85724E-05-2.85707E-05-1.22939E-09-1.77514E-18-1.99997E-18
 -1      2079 9.52372E-05-2.85720E-05-2.85708E-05-1.05909E-09-8.33415E-19-9.88378E-19
 -1      2080 9.52374E-05-2.85726E-05-2.85706E-05-1.69139E-09-1.64733E-18-9.25732E-19
 -1      2081 9.52371E-05-2.85718E-05-2.85709E-05-8.41712E-10-1.10955E-18-1.35760E-18
 -1      2082 9.52370E-05-2.85715E-05-2.85709E-05-6.25770E-10-7.96161E-19 4.66815E-19
 -1      2083 9.52369E-05-2.85715E-05-2.85709E-05-7.96941E-10-8.34897E-19 5.79234E-19
 -1      2084 9.52371E-05-2.85720E-05-2.85707E-05-1.28599E-09-1.42335E-18-1.16521E-18
 -1      2085 9.52380E-05-2.85738E-05-2.85704E-05-1.39724E-09-3.59762E-18-2.80856E-18
 -1      2086 9.52379E-05-2.85735E-05-2.85705E-05-1.43692E-09-2.72751E-18-6.62430E-19
 -1      2087 9.52378E-05-2.85734E-05-2.85705E-05-1.84174E-09-2.41142E-18-1.68619E-18
 -1      2088 9.52383E-05-2.85745E-05-2.85702E-05-1.13834E-09-2.68942E-18-2.09501E-18
 -1      2089 9.52382E-05-2.85742E-05-2.85703E-05-1.27398E-09-2.77653E-18-1.09295E-18
 -1      2090 9.52382E-05-2.85741E-05-2.85703E-05-1.70519E-09-2.35810E-18-1.47421E-18
 -1      2091 9.52386E-05-2.85750E-05-2.85701E-05-7.01245E-10-1.17183E-18 8.12531E-19
 -1      2092 9.52385E-05-2.85747E-05-2.85702E-05-9.07411E-10-1.06075E-18-1.30200E-18
 -1      2093 9.52385E-05-2.85747E-05-2.85702E-05-1.30166E-09-1.27797E-19-3.40040E-19
 -1      2094 9.52386E-05-2.85752E-05-2.85701E-05-1.57432E-10-1.36748E-18 2.42365E-18
 -1      2095 9.52386E-05-2.85751E-05-2.85701E-05-4.00742E-10-1.57712E-18 2.52933E-18
 -1      2096 9.52387E-05-2.85751E-05-2.85701E-05-7.00158E-10 2.93690E-20 1.52763E-18
 -1      2097 9.52386E-05-2.85751E-05-2.85701E-05 4.09871E-10-6.64475E-19 2.25039E-18
 -1      2098 9.52386E-05-2.85752E-05-2.85701E-05 1.66899E-10-8.93159E-19 1.91573E-18
 -1      2099 9.52388E-05-2.85752E-05-2.85701E-05 6.02851E-12-1.95178E-18 2.44932E-18
 -1      2100 9.52385E-05-2.85747E-05-2.85702E-05 9.14698E-10-2.21621E-18-3.98361E-18
 -1      2101 9.52385E-05-2.85750E-05-2.85701E-05 7.09637E-10-1.79441E-18-5.07948E-19
 -1      2102 9.52387E-05-2.85751E-05-2.85701E-05 7.11345E-10-2.08496E-18-3.39498E-19
 -1      2103 9.52382E-05-2.85742E-05-2.85703E-05 1.27360E-09-7.16552E-19-1.91881E-18
 -1      2104 9.52383E-05-2.85745E-05-2.85702E-05 1.14091E-09-1.47915E-18-3.13941E-18
 -1      2105 9.52385E-05-2.85747E-05-2.85702E-05 1.30645E-09-8.45668E-19-2.56993E-18
 -1      2106 9.52379E-05-2.85735E-05-2.85705E-05 1.43728E-09 4.82209E-19 3.75658E-18
 -1      2107 9.52380E-05-2.85739E-05-2.85704E-05 1.39746E-09 1.43145E-19 1.14832E-18
 -1      2108 9.52382E-05-2.85741E-05-2.85703E-05 1.70506E-09 1.40626E-18 3.63512E-19
 -1      2109 9.52375E-05-2.85727E-05-2.85706E-05 1.36288E-09 2.68886E-19 1.71376E-18
 -1      2110 9.52377E-05-2.85731E-05-2.85705E-05 1.43020E-09 6.40806E-20 3.49551E-18
 -1      2111 9.52378E-05-2.85734E-05-2.85705E-05 1.84174E-09 4.25823E-19 4.08241E-18
 -1      2112 9.52372E-05-2.85720E-05-2.85708E-05 1.05412E-09 2.81249E-19 1.55451E-18
 -1      2113 9.52373E-05-2.85724E-05-2.85707E-05 1.22314E-09-1.86889E-19 1.52345E-18
 -1      2114 9.52374E-05-2.85726E-05-2.85706E-05 1.68360E-09-1.98395E-19 1.88861E-18
 -1      2115 5.67448E-05-3.04307E-05-1.18696E-05 4.26462E-05 1.81138E-18 4.01377E-18
 -1      2116 3.92715E-05-2.96406E-05-5.52914E-06 3.33879E-05 2.01594E-18 5.65479E-18
 -1      2117 1.20350E-05-2.16465E-05 2.77204E-06 6.34173E-06 1.84431E-18 5.48115E-18
 -1      2118 1.12823E-05-1.92882E-05 2.42403E-06-4.64322E-06 7.06849E-19 5.09575E-18
 -1      2119 2.45698E-05-2.36469E-05-1.46789E-06 2.66729E-05 2.75370E-18 6.15941E-18
 -1      2120 1.68318E-05-2.40905E-05 1.63849E-06 1.66799E-05 1.42683E-18 5.67004E-18
 -1      2121 1.84290E-05-1.52753E-05-1.93842E-06 1.47031E-05 1.87830E-19 5.95803E-18
 -1      2122 3.94625E-05-2.41216E-05-6.80257E-06 3.54736E-05-3.79894E-19 5.22344E-18
 -1      2123 9.71559E-05-3.44445E-05-2.66641E-05 4.62497E-05 4.83571E-18 2.60293E-18
 -1      2124 8.04144E-05-3.65868E-05-1.92085E-05 4.30442E-05 3.23312E-18 2.48128E-18
 -1      2125 1.31360E-04-3.50910E-05-4.05961E-05 4.03937E-05 5.07902E-18 1.18203E-18
 -1      2126 1.11227E-04-3.52346E-05-3.30088E-05 4.02893E-05 5.30497E-18 2.19466E-18
 -1      2127 1.05349E-04-2.12735E-05-3.60627E-05-8.95443E-06 5.71668E-19-2.66614E-18
 -1      2128 1.08853E-04-2.10795E-05-3.78110E-05-1.35347E-05-1.73536E-19-2.63332E-18
 -1      2129 1.13989E-04-2.58421E-05-3.78093E-05-1.70550E-05-6.84839E-19-1.90821E-18
 -1      2130 1.07505E-04-2.64717E-05-3.47986E-05-7.34744E-06 8.06084E-19-2.09064E-18
 -1      2131 1.72035E-04-2.57928E-05-6.13416E-05 1.67173E-05 5.94892E-18-2.49388E-18
 -1      2132 1.61778E-04-2.56973E-05-5.76770E-05 2.06359E-05 6.16619E-18-1.16467E-18
 -1      2133 1.77580E-04-2.49236E-05-6.41413E-05 8.07788E-06 6.36588E-18-4.68716E-18
 -1      2134 1.75863E-04-2.41138E-05-6.37977E-05 1.54804E-05 6.22739E-18-2.94789E-18
 -1      2135 1.66874E-04-2.66783E-05-5.95514E-05 4.99727E-08 6.85038E-18-6.00631E-18
 -1      2136 1.75515E-04-2.62639E-05-6.25820E-05 5.91936E-06 6.53232E-18-4.90474E-18
 -1      2137 1.48651E-04-3.23271E-05-4.98197E-05-7.26705E-06 6.91158E-18-5.83563E-18
 -1      2138 1.64478E-04-3.16561E-05-5.57780E-05-4.42652E-06 6.85673E-18-6.03003E-18
 -1      2139 1.16810E-04-3.31499E-05-3.63763E-05-2.50552E-05 6.70321E-18-8.00277E-18
 -1      2140 1.36922E-04-3.70584E-05-4.30295E-05-1.73206E-05 6.07100E-18-6.48234E-18
 -1      2141 7.81114E-05-2.45310E-05-2.41367E-05-3.19333E-05 6.70384E-18-8.51840E-18
 -1      2142 9.97029E-05-2.88121E-05-3.07223E-05-3.43499E-05 7.13202E-18-8.80448E-18
 -1      2143 4.35524E-05-1.47718E-05-1.34860E-05-2.86481E-05 4.99326E-18-7.88889E-18
 -1      2144 6.04056E-05-1.78577E-05-1.87343E-05-3.42590E-05 6.25280E-18-8.60183E-18
 -1      2145 1.80252E-05-5.61683E-06-6.17549E-06-1.87498E-05 2.96822E-18-7.44754E-18
 -1      2146 2.84444E-05-7.25759E-06-9.59450E-06-2.58013E-05 4.72941E-18-8.06598E-18
 -1      2147 4.24611E-06-8.04489E-07-2.20402E-06-5.05192E-06 1.10114E-18-7.04604E-18
 -1      2148 8.08056E-06-1.22079E-06-3.54542E-06-1.18500E-05 3.24308E-18-7.46511E-18
 -1      2149 5.14613E-06 3.33164E-06-3.78550E-06 1.00097E-05-5.00385E-19-7.13858E-18
 -1      2150 3.41251E-06 3.91018E-08-2.20114E-06 1.72024E-06 1.24481E-18-7.19216E-18
 -1      2151 5.63317E-06 6.81671E-06-5.54205E-06-2.40088E-06 9.95158E-19-8.25031E-18
 -1      2152 2.45236E-05-6.05451E-06-8.51361E-06 2.51162E-05-3.50672E-18-7.34547E-18
 -1      2153 1.47548E-05-2.47867E-06-5.88275E-06 1.89376E-05-7.30354E-19-6.65408E-18
 -1      2154 5.15964E-05-1.35614E-05-1.68041E-05 3.45646E-05-4.89289E-18-7.46686E-18
 -1      2155 3.56998E-05-1.07870E-05-1.17749E-05 2.80820E-05-3.72843E-18-6.94456E-18
 -1      2156 3.76637E-05-9.12742E-06-1.26045E-05 3.01967E-05-4.42363E-19-6.43258E-18
 -1      2157 9.14249E-05-2.48296E-05-2.87961E-05 3.65267E-05-6.38917E-18-7.45410E-18
 -1      2158 7.06019E-05-2.09720E-05-2.23521E-05 3.34836E-05-5.54298E-18-7.22053E-18
 -1      2159 1.29919E-04-3.19324E-05-4.17595E-05 2.88474E-05-7.36305E-18-7.13625E-18
 -1      2160 1.09078E-04-2.88626E-05-3.51107E-05 2.96768E-05-6.95012E-18-7.24340E-18
 -1      2161 1.56971E-04-3.26479E-05-5.26633E-05 1.31314E-05-6.93461E-18-5.58110E-18
 -1      2162 1.40753E-04-3.12636E-05-4.70830E-05 1.84885E-05-7.35616E-18-6.48065E-18
 -1      2163 1.68785E-04-2.65424E-05-6.01467E-05-1.96735E-06-6.67398E-18-3.99778E-18
 -1      2164 1.60770E-04-2.76658E-05-5.66079E-05 5.55191E-06-6.91412E-18-5.33673E-18
 -1      2165 1.73155E-04-2.32034E-05-6.31683E-05-1.14077E-05-6.10541E-18-2.98179E-18
 -1      2166 1.70063E-04-2.26791E-05-6.23554E-05-4.76394E-06-6.54926E-18-4.29721E-18
 -1      2167 1.64182E-04-2.21740E-05-6.01383E-05-1.72830E-05-5.60228E-18-1.75082E-18
 -1      2168 1.73113E-04-2.39591E-05-6.26157E-05-1.32889E-05-5.65056E-18-2.68425E-18
 -1      2169 1.52974E-04-1.31446E-05-5.88129E-05-7.99132E-06-6.50098E-18-3.16097E-18
 -1      2170 1.51876E-04-2.90408E-05-5.20878E-05-2.78153E-05-4.87573E-18 1.41455E-19
 -1      2171 1.61632E-04-2.78903E-05-5.64261E-05-2.16596E-05-5.03222E-18-1.36161E-18
 -1      2172 1.30370E-04-3.22612E-05-4.19983E-05-3.61330E-05-3.82774E-18 1.91599E-18
 -1      2173 1.46741E-04-3.22942E-05-4.81163E-05-3.47283E-05-4.32580E-18 8.77526E-19
 -1      2174 1.47155E-04-3.36792E-05-4.77492E-05-1.64531E-05-3.47882E-18-2.31155E-18
 -1      2175 9.83639E-05-3.34171E-05-2.84835E-05-4.21888E-05-3.08066E-18 3.66257E-18
 -1      2176 1.16695E-04-3.26974E-05-3.54635E-05-4.45929E-05-3.51985E-18 3.57448E-18
 -1      2177 6.89486E-05-3.40239E-05-1.58953E-05-4.16410E-05-1.91260E-18 3.51116E-18
 -1      2178 8.48351E-05-3.23334E-05-2.24964E-05-4.61991E-05-2.81766E-18 3.99609E-18
 -1      2179 3.73714E-05-2.87629E-05-4.94396E-06-3.31173E-05-6.58992E-19 4.56699E-18
 -1      2180 5.12205E-05-2.83476E-05-1.02026E-05-4.14579E-05-1.41539E-18 4.23834E-18
 -1      2181 1.79473E-05-2.19375E-05 6.63665E-07-1.86946E-05 1.14138E-18 5.28464E-18
 -1      2182 2.57055E-05-2.34353E-05-1.86313E-06-2.75019E-05-6.87367E-19 5.47607E-18
 -1      2183 3.96562E-05-2.38526E-05-7.05773E-06-3.56498E-05 1.23095E-18 4.98733E-18
 -1      2184 1.58831E-04-3.12102E-05-5.36117E-05 2.89925E-05 5.83219E-18-5.29396E-19
 -1      2185 1.42599E-04-3.15486E-05-4.73373E-05 3.21058E-05 5.84855E-18 5.78524E-19
 -1      2186 2.29242E-05 1.07481E-05-1.40854E-05-8.89961E-06 4.99220E-20-6.31844E-18
 -1      2187 2.22136E-05 1.31175E-05-1.47901E-05-3.40060E-06 2.99731E-19-5.64892E-18
 -1      2188 2.01782E-05 1.40372E-05-1.43765E-05 6.87086E-07 1.14992E-18-5.60768E-18
 -1      2189 1.87464E-05 1.29775E-05-1.31575E-05 5.85866E-06 1.72729E-18-6.53009E-18
 -1      2190 1.20707E-04-3.20018E-05-3.81705E-05-1.86244E-05-2.39237E-18 1.00620E-18
 -1      2191 1.20054E-04-3.12178E-05-3.81093E-05-2.12324E-05-2.39982E-18 1.24157E-19
 -1      2192 1.24230E-04-2.98054E-05-4.03562E-05-2.25341E-05-2.61574E-18 1.43117E-18
 -1      2193 1.21922E-04-2.12029E-05-4.36245E-05-2.70771E-05-2.44819E-18 9.79805E-19
 -1      2194 1.16146E-04-4.58607E-05-3.00831E-05 3.67586E-05 2.23363E-18-2.23617E-19
 -1      2195 9.33961E-05-4.44952E-05-2.14168E-05 4.19501E-05-8.83879E-19 1.91879E-19
 -1      2196 7.51144E-05-3.73351E-05-1.64475E-05 4.31756E-05 9.44865E-19 2.42834E-18
 -1      2197 7.15213E-05-3.53817E-05-1.49561E-05 4.37910E-05-1.47257E-18 2.05120E-18
 -1      2198 9.52371E-05-2.85718E-05-2.85708E-05 9.86971E-10-1.62730E-19 3.37254E-19
 -1      2199 1.91437E-05-1.48311E-05-2.25294E-06-1.38437E-05 1.36150E-18 5.78439E-18
 -1      2200 1.40905E-04-4.04317E-05-4.23806E-05 2.42712E-05 4.19599E-18-1.35441E-18
 -1      2201 7.04518E-05-3.62795E-05-1.48785E-05-4.36419E-05 6.94991E-19 3.08442E-18
 -1      2202 1.31507E-04-4.14188E-05-3.80745E-05-3.02790E-05-1.85754E-18-4.70103E-20
 -1      2203 1.52909E-04-2.20223E-05-5.52301E-05-8.96246E-06-5.23403E-18-3.08489E-18
 -1      2204 1.52721E-04-1.62970E-05-5.75163E-05-9.55851E-06-6.81184E-18-3.19226E-18
 -1      2205 1.49422E-04-2.67633E-05-5.17660E-05-4.88028E-06-6.40293E-18-2.84180E-18
 -1      2206 1.37375E-04-3.53273E-05-4.32540E-05 1.00641E-05-5.50413E-18-3.53086E-18
 -1      2207 7.12461E-05-2.31624E-05-2.08584E-05 3.26041E-05-1.84886E-18-5.72314E-18
 -1      2208 1.28477E-05 2.97564E-06-7.10070E-06 1.59556E-05 7.81706E-19-7.37300E-18
 -1      2209 1.76627E-05 3.35238E-07-7.92786E-06-1.85118E-05 1.16732E-18-8.00425E-18
 -1      2210 4.53676E-05-1.31978E-05-1.40523E-05-2.91903E-05 1.54922E-18-7.24531E-18
 -1      2211 8.08911E-05-2.81614E-05-2.28020E-05-3.00830E-05 2.91760E-18-6.46397E-18
 -1      2212 1.16432E-04-3.79476E-05-3.33518E-05-1.99983E-05 3.95268E-18-5.11311E-18
 -1      2213 1.43090E-04-3.66291E-05-4.54114E-05-4.43877E-06 5.48756E-18-4.36645E-18
 -1      2214 1.42411E-04-3.45760E-05-4.67541E-05 9.91290E-06 4.61305E-18-1.24048E-18
 -1      2215 1.35618E-04-3.96788E-05-4.08758E-05-1.58561E-07 3.77308E-18-1.86347E-18
 -1      2216 1.52612E-04-2.38207E-05-5.45775E-05 9.96147E-06 6.50246E-18-2.93963E-18
 -1      2217 1.56006E-04-1.68080E-05-5.86030E-05 7.50673E-06 6.86605E-18-2.77192E-18
 -1      2218 1.52778E-04-2.75953E-05-5.27023E-05 1.16799E-05 5.90869E-18-2.57371E-18
 -1      2219 1.57172E-04-1.55868E-05-5.94870E-05 1.03094E-05 7.03800E-18-3.02687E-18
 -1      2220 1.09140E-04-3.39506E-05-3.21777E-05 2.53241E-05-3.84849E-18-4.66736E-18
 -1      2221 1.03839E-04-4.29008E-05-2.61119E-05-4.08424E-05-2.23617E-19 2.09196E-18
 -1      2222 1.21774E-04-2.62130E-05-4.13771E-05-2.50005E-05-2.61791E-18 7.43271E-19
 -1      2223 5.99337E-05-1.19082E-05-2.06016E-05 2.27985E-05 3.21131E-18-3.91012E-18
 -1      2224 7.87536E-05-2.01976E-05-2.46501E-05 1.88167E-05 2.99098E-18-3.17119E-18
 -1      2225 9.36093E-05-2.64619E-05-2.87438E-05 9.62758E-06 2.61667E-18-2.10734E-18
 -1      2226 1.04018E-04-2.99030E-05-3.17818E-05 2.52063E-06 1.69073E-18-1.95225E-18
 -1      2227 9.13438E-05-2.78966E-05-2.70033E-05 1.58450E-05 2.21880E-18-2.24424E-18
 -1      2228 9.36470E-05-2.64759E-05-2.85189E-05-8.97517E-06-1.24027E-18-2.50844E-18
 -1      2229 7.76536E-05-1.99082E-05-2.47374E-05-1.54381E-05-1.61699E-18-3.38538E-18
 -1      2230 9.82636E-06 1.31522E-05-9.45114E-06 2.17269E-06 9.04737E-19-7.13901E-18
 -1      2231 1.37307E-05 1.06992E-05-9.99834E-06 1.04868E-05 1.99977E-18-6.98125E-18
 -1      2232 5.79700E-05-9.56792E-06-2.01283E-05-2.00003E-05-1.46256E-18-4.96033E-18
 -1      2233 3.88905E-05-5.95313E-07-1.63521E-05-1.94251E-05-9.67418E-19-5.75273E-18
 -1      2234 1.19987E-04-3.19710E-05-3.80372E-05 1.86253E-05 1.33067E-18 2.67636E-19
 -1      2235 1.17116E-04-3.19684E-05-3.64620E-05 1.43416E-05 5.32228E-19-1.58541E-19
 -1      2236 1.24294E-04-3.24773E-05-3.96123E-05 2.25162E-05 1.91733E-18 2.01271E-18
 -1      2237 1.21975E-04-3.15417E-05-3.87920E-05 2.12595E-05 1.63812E-18 9.84517E-19
 -1      2238 1.23635E-04-3.46458E-05-3.80587E-05 2.08605E-05 1.44063E-18 1.30685E-18
 -1      2239 1.26756E-04-3.51874E-05-3.94206E-05 2.05602E-05 1.91260E-18 3.85532E-18
 -1      2240 1.25085E-04-3.29891E-05-3.95041E-05 2.21972E-05 1.87588E-18 2.79587E-18
 -1      2241 1.24595E-04-3.49256E-05-3.84101E-05 2.15727E-05 1.64745E-18 2.33984E-18
 -1      2242 1.24065E-04-3.56201E-05-3.78994E-05 1.90588E-05 1.89349E-18 3.79977E-18
 -1      2243 1.18453E-04-3.25594E-05-3.68779E-05-1.94968E-05-2.17566E-18-3.52379E-20
 -1      2244 1.15811E-04-3.11344E-05-3.62584E-05-1.75013E-05-2.24746E-18-1.21895E-19
 -1      2245 1.18687E-04-3.37708E-05-3.63199E-05 1.70938E-05 1.80656E-18 3.92181E-18
 -1      2246 1.22053E-04-3.53920E-05-3.71738E-05 1.80084E-05 1.68039E-18 3.84121E-18
 -1      2247 1.22815E-04-3.49315E-05-3.76378E-05 2.03312E-05 1.69053E-18 3.05923E-18
 -1      2248 1.12862E-04-2.98177E-05-3.55124E-05 1.27308E-05 1.91018E-18 3.30126E-18
 -1      2249 1.15872E-04-3.18481E-05-3.60041E-05 1.49168E-05 1.98546E-18 3.65421E-18
 -1      2250 1.17690E-04-3.18055E-05-3.68122E-05 1.73396E-05 2.11409E-18 2.99918E-18
 -1      2251 1.13731E-04-2.94066E-05-3.61691E-05-1.54534E-05-2.23844E-18-1.02722E-19
 -1      2252 1.11289E-04-2.74671E-05-3.58594E-05-1.26192E-05-2.16469E-18-4.08361E-19
 -1      2253 1.16493E-04-2.94396E-05-3.73246E-05-1.87955E-05-2.34495E-18-3.25982E-19
 -1      2254 1.09350E-04-2.58832E-05-3.57805E-05-8.69927E-06-2.06990E-18-8.15200E-19
 -1      2255 1.08036E-04-2.51290E-05-3.55210E-05-5.00082E-06-1.83928E-18-1.20603E-18
 -1      2256 1.12201E-04-2.51785E-05-3.73690E-05-1.25343E-05-2.49650E-18-6.35235E-19
 -1      2257 1.07600E-04-2.53738E-05-3.51894E-05-5.34329E-07-1.78208E-18-1.73496E-18
 -1      2258 1.07694E-04-2.64761E-05-3.48718E-05 2.73368E-06-1.72346E-18-1.99865E-18
 -1      2259 1.09775E-04-2.36477E-05-3.70151E-05-3.48103E-06-2.31825E-18-1.73048E-18
 -1      2260 1.08615E-04-2.84440E-05-3.42747E-05 5.67765E-06-1.52168E-18-2.38997E-18
 -1      2261 1.09535E-04-3.05713E-05-3.39318E-05 7.25386E-06-1.12322E-18-2.60253E-18
 -1      2262 1.10429E-04-2.65909E-05-3.59813E-05 4.50720E-06-1.91258E-18-2.54946E-18
 -1      2263 1.10452E-04-3.27271E-05-3.32604E-05 7.73037E-06-7.31009E-19-2.62288E-18
 -1      2264 1.11326E-04-3.45406E-05-3.29706E-05 7.47632E-06-2.28061E-19-2.60865E-18
 -1      2265 1.12489E-04-3.19352E-05-3.45061E-05 7.92087E-06-9.83614E-19-2.65681E-18
 -1      2266 1.11277E-04-3.56745E-05-3.24064E-05 6.13375E-06-5.90938E-20-2.54729E-18
 -1      2267 1.11569E-04-3.64685E-05-3.22033E-05 4.78782E-06-4.41268E-20-2.56549E-18
 -1      2268 1.13468E-04-3.62490E-05-3.30651E-05 6.71223E-06-1.50305E-19-2.62023E-18
 -1      2269 1.10571E-04-3.64325E-05-3.18151E-05 2.85318E-06-3.13697E-19-2.18509E-18
 -1      2270 1.10253E-04-3.63082E-05-3.16775E-05 1.26225E-06-3.88497E-19-2.13420E-18
 -1      2271 1.12392E-04-3.77880E-05-3.19661E-05 3.12902E-06 3.99392E-20-2.69895E-18
 -1      2272 1.08816E-04-3.55805E-05-3.14355E-05-4.15155E-07-3.83957E-19-2.22716E-18
 -1      2273 1.08104E-04-3.49643E-05-3.13218E-05-1.72979E-06-3.29704E-19-2.12319E-18
 -1      2274 1.09887E-04-3.69861E-05-3.12602E-05-6.03624E-07-4.91469E-19-2.28713E-18
 -1      2275 1.06668E-04-3.40407E-05-3.11651E-05-2.84135E-06-2.81868E-19-1.74754E-18
 -1      2276 1.05790E-04-3.32995E-05-3.10449E-05-3.69568E-06-2.12728E-19-1.61137E-18
 -1      2277 1.06960E-04-3.50711E-05-3.08364E-05-3.38727E-06-1.80594E-19-1.87900E-18
 -1      2278 1.04573E-04-3.24728E-05-3.09244E-05-4.25780E-06-4.30180E-19-1.35218E-18
 -1      2279 1.03682E-04-3.18069E-05-3.07864E-05-4.67645E-06-2.61593E-19-1.33420E-18
 -1      2280 1.04278E-04-3.30213E-05-3.05642E-05-5.00361E-06-1.00505E-19-1.12693E-18
 -1      2281 1.02729E-04-3.11790E-05-3.06750E-05-4.82590E-06-5.28523E-20-1.43308E-18
 -1      2282 1.01901E-04-3.06561E-05-3.05222E-05-4.91551E-06 2.13969E-19-1.48746E-18
 -1      2283 1.02096E-04-3.13219E-05-3.03518E-05-5.65008E-06-8.75577E-20-8.91406E-19
 -1      2284 1.01180E-04-3.02252E-05-3.04102E-05-4.79892E-06 3.95690E-19-1.32979E-18
 -1      2285 1.00448E-04-2.98445E-05-3.02517E-05-4.67682E-06 6.18674E-19-1.28439E-18
 -1      2286 1.00418E-04-3.00945E-05-3.01530E-05-5.62294E-06 1.30259E-19-1.24437E-18
 -1      2287 9.99061E-05-2.95695E-05-3.01392E-05-4.41265E-06 9.44022E-20-1.22554E-18
 -1      2288 9.92787E-05-2.93045E-05-2.99849E-05-4.17551E-06-1.08050E-19-1.09977E-18
 -1      2289 9.91543E-05-2.92881E-05-2.99527E-05-5.18908E-06 2.48240E-19-1.26092E-18
 -1      2290 9.88683E-05-2.91391E-05-2.98755E-05-3.84719E-06-1.38004E-19-1.40002E-18
 -1      2291 9.83425E-05-2.89599E-05-2.97331E-05-3.56361E-06-1.04914E-19-1.47956E-18
 -1      2292 9.82027E-05-2.87982E-05-2.97521E-05-4.54913E-06-3.64225E-19-1.14568E-18
 -1      2293 9.80281E-05-2.88664E-05-2.96311E-05-3.22457E-06 1.50977E-19-1.46471E-18
 -1      2294 9.75961E-05-2.87477E-05-2.95051E-05-2.93807E-06 1.26789E-19-1.28371E-18
 -1      2295 9.74799E-05-2.85239E-05-2.95582E-05-3.83888E-06 1.29582E-19-9.58223E-19
 -1      2296 9.73530E-05-2.86990E-05-2.94135E-05-2.61941E-06-2.54466E-19-1.01336E-18
 -1      2297 9.70044E-05-2.86218E-05-2.93060E-05-2.35466E-06-3.76021E-19-7.53167E-19
 -1      2298 9.69256E-05-2.83869E-05-2.93783E-05-3.14249E-06 1.02931E-19-7.18585E-19
 -1      2299 9.68157E-05-2.85998E-05-2.92265E-05-2.07219E-06-5.10631E-19-5.31358E-19
 -1      2300 9.65395E-05-2.85508E-05-2.91374E-05-1.84096E-06-1.75763E-19-6.49377E-19
 -1      2301 9.64976E-05-2.83325E-05-2.92174E-05-2.50695E-06-3.39662E-19 1.91112E-19
 -1      2302 9.63931E-05-2.85440E-05-2.90704E-05-1.60068E-06 2.24558E-19-7.62074E-19
 -1      2303 9.61781E-05-2.85140E-05-2.89985E-05-1.40666E-06 4.78859E-19-7.01788E-19
 -1      2304 9.61666E-05-2.83251E-05-2.90782E-05-1.95417E-06-2.05271E-20 6.51123E-20
 -1      2305 9.60653E-05-2.85155E-05-2.89433E-05-1.20860E-06 7.58178E-19-4.96786E-19
 -1      2306 9.59010E-05-2.84982E-05-2.88866E-05-1.05078E-06 1.11118E-18-1.58806E-19
 -1      2307 9.59116E-05-2.83421E-05-2.89611E-05-1.49018E-06 7.83556E-19 1.01984E-19
 -1      2308 9.58149E-05-2.85038E-05-2.88423E-05-8.91732E-07 4.47477E-19-4.96547E-19
 -1      2309 9.56918E-05-2.84947E-05-2.87984E-05-7.66620E-07 1.65366E-19-3.32017E-19
 -1      2310 9.57167E-05-2.83704E-05-2.88650E-05-1.11164E-06 3.49184E-19-5.12846E-19
 -1      2311 9.56270E-05-2.85020E-05-2.87636E-05-6.41797E-07-3.43808E-20-1.06614E-18
 -1      2312 9.55367E-05-2.84983E-05-2.87304E-05-5.44877E-07 9.16797E-20-1.49854E-18
 -1      2313 9.55694E-05-2.84022E-05-2.87879E-05-8.10216E-07-4.06707E-19-8.89258E-19
 -1      2314 9.54886E-05-2.85059E-05-2.87036E-05-4.48985E-07 2.34081E-19-1.81957E-18
 -1      2315 9.54239E-05-2.85056E-05-2.86791E-05-3.75531E-07 1.02876E-19-1.68386E-18
 -1      2316 9.54597E-05-2.84332E-05-2.87273E-05-5.75411E-07-1.40404E-19-1.23576E-18
 -1      2317 9.53890E-05-2.85128E-05-2.86587E-05-3.03402E-07 3.20172E-19-1.73223E-18
 -1      2318 9.53440E-05-2.85144E-05-2.86411E-05-2.48947E-07-5.23476E-20-1.68784E-18
 -1      2319 9.53795E-05-2.84612E-05-2.86806E-05-3.96297E-07 2.11072E-19-1.19927E-18
 -1      2320 9.53192E-05-2.85208E-05-2.86260E-05-1.95869E-07-2.88012E-19-1.48568E-18
 -1      2321 9.52889E-05-2.85234E-05-2.86136E-05-1.56439E-07-7.64008E-19-9.98506E-19
 -1      2322 9.53221E-05-2.84854E-05-2.86453E-05-2.62520E-07 1.29634E-19-1.20054E-18
 -1      2323 9.52718E-05-2.85289E-05-2.86027E-05-1.18306E-07-1.33736E-18-4.85072E-19
 -1      2324 9.52523E-05-2.85320E-05-2.85943E-05-9.05060E-08-4.35929E-19-8.68864E-19
 -1      2325 9.52820E-05-2.85057E-05-2.86192E-05-1.64815E-07-6.36148E-19-2.27844E-19
 -1      2326 9.52409E-05-2.85365E-05-2.85866E-05-6.38608E-08-2.05032E-19-1.27964E-18
 -1      2327 9.52292E-05-2.85397E-05-2.85811E-05-4.48794E-08-1.72527E-19-2.03745E-18
 -1      2328 9.52550E-05-2.85222E-05-2.86004E-05-9.52154E-08-9.32050E-19-3.21329E-19
 -1      2329 9.52220E-05-2.85434E-05-2.85759E-05-2.68865E-08-6.24361E-19-2.19826E-18
 -1      2330 9.52158E-05-2.85464E-05-2.85725E-05-1.44516E-08-1.29202E-18-3.19750E-18
 -1      2331 9.52375E-05-2.85353E-05-2.85871E-05-4.70751E-08-7.95706E-19-7.46664E-19
 -1      2332 9.52116E-05-2.85493E-05-2.85691E-05-2.83862E-09-7.78083E-19-3.36617E-18
 -1      2333 9.52091E-05-2.85520E-05-2.85673E-05 4.84545E-09-4.63556E-19-2.54707E-18
 -1      2334 9.52270E-05-2.85455E-05-2.85781E-05-1.49892E-08-8.94102E-19-1.62379E-18
 -1      2335 9.52069E-05-2.85542E-05-2.85652E-05 1.18621E-08-3.27433E-19-2.41405E-18
 -1      2336 9.52068E-05-2.85566E-05-2.85643E-05 1.61859E-08-2.71627E-19-1.31086E-18
 -1      2337 9.52213E-05-2.85533E-05-2.85722E-05 5.34400E-09-3.44902E-19-1.14053E-18
 -1      2338 9.52061E-05-2.85583E-05-2.85632E-05 1.99791E-08-5.32625E-19-1.24828E-18
 -1      2339 9.52074E-05-2.85603E-05-2.85630E-05 2.19985E-08-2.26893E-19-7.26537E-19
 -1      2340 9.52188E-05-2.85592E-05-2.85686E-05 1.72794E-08-5.90462E-20-2.70773E-19
 -1      2341 9.52075E-05-2.85616E-05-2.85625E-05 2.36041E-08 8.46435E-19-4.37141E-20
 -1      2342 9.52097E-05-2.85633E-05-2.85627E-05 2.41043E-08 1.52406E-18 1.31211E-19
 -1      2343 9.52185E-05-2.85635E-05-2.85666E-05 2.33826E-08 9.60270E-19-3.76804E-20
 -1      2344 9.52103E-05-2.85642E-05-2.85626E-05 2.42881E-08 9.65897E-19-1.15972E-19
 -1      2345 9.52128E-05-2.85655E-05-2.85631E-05 2.38409E-08 1.00383E-18-1.22929E-19
 -1      2346 9.52195E-05-2.85666E-05-2.85656E-05 2.55771E-08 5.94795E-19 9.43030E-19
 -1      2347 9.52137E-05-2.85662E-05-2.85632E-05 2.31563E-08-9.61364E-20-2.29411E-19
 -1      2348 9.52163E-05-2.85673E-05-2.85638E-05 2.21672E-08-4.40619E-19-6.07660E-19
 -1      2349 9.52213E-05-2.85687E-05-2.85654E-05 2.52750E-08 5.31814E-19-8.26884E-20
 -1      2350 9.52173E-05-2.85677E-05-2.85641E-05 2.10038E-08-4.31783E-19-7.66405E-19
 -1      2351 9.52197E-05-2.85686E-05-2.85648E-05 1.97524E-08-6.41680E-19-8.74286E-19
 -1      2352 9.52234E-05-2.85702E-05-2.85657E-05 2.34884E-08-4.33831E-19-3.18802E-19
 -1      2353 9.52207E-05-2.85689E-05-2.85651E-05 1.83759E-08-4.72031E-19-1.71127E-18
 -1      2354 9.52229E-05-2.85695E-05-2.85657E-05 1.70474E-08-6.53055E-20-1.96453E-18
 -1      2355 9.52255E-05-2.85711E-05-2.85662E-05 2.09231E-08-8.76853E-19-8.33378E-19
 -1      2356 9.52239E-05-2.85697E-05-2.85661E-05 1.56315E-08 9.22749E-19-1.47806E-18
 -1      2357 9.52258E-05-2.85702E-05-2.85667E-05 1.43424E-08 1.01974E-18-9.09151E-19
 -1      2358 9.52276E-05-2.85717E-05-2.85668E-05 1.80548E-08 7.69055E-19-5.51115E-19
 -1      2359 9.52266E-05-2.85703E-05-2.85670E-05 1.29938E-08 8.73455E-19-5.94618E-19
 -1      2360 9.52282E-05-2.85707E-05-2.85675E-05 1.18110E-08 4.83856E-19-8.62421E-20
 -1      2361 9.52294E-05-2.85720E-05-2.85675E-05 1.51886E-08 1.27106E-18-3.64147E-19
 -1      2362 9.52290E-05-2.85707E-05-2.85679E-05 1.05889E-08 9.89701E-22 8.09719E-19
 -1      2363 9.52303E-05-2.85710E-05-2.85683E-05 9.54466E-09 9.03942E-19 1.47556E-18
 -1      2364 9.52311E-05-2.85721E-05-2.85681E-05 1.25073E-08 7.91291E-19-4.33962E-19
 -1      2365 9.52310E-05-2.85710E-05-2.85686E-05 8.47523E-09 1.16736E-18 1.74517E-18
 -1      2366 9.52321E-05-2.85712E-05-2.85689E-05 7.57830E-09 1.21819E-18 1.53757E-18
 -1      2367 9.52325E-05-2.85722E-05-2.85687E-05 1.01066E-08 9.50677E-19 1.42130E-18
 -1      2368 9.52326E-05-2.85712E-05-2.85692E-05 6.66519E-09 1.74922E-18 9.95274E-19
 -1      2369 9.52335E-05-2.85714E-05-2.85695E-05 5.90857E-09 2.58927E-18 3.71300E-19
 -1      2370 9.52336E-05-2.85721E-05-2.85692E-05 8.02241E-09 1.57570E-18 1.20123E-18
 -1      2371 9.52339E-05-2.85714E-05-2.85697E-05 5.14077E-09 1.82278E-18-2.25432E-19
 -1      2372 9.52346E-05-2.85715E-05-2.85699E-05 4.50732E-09 1.36052E-18 2.00901E-19
 -1      2373 9.52346E-05-2.85721E-05-2.85696E-05 6.25088E-09 1.62588E-18 2.96516E-19
 -1      2374 9.52350E-05-2.85715E-05-2.85701E-05 3.86495E-09 8.94869E-19 2.85614E-19
 -1      2375 9.52355E-05-2.85716E-05-2.85702E-05 3.33287E-09 1.12263E-19 6.73867E-19
 -1      2376 9.52354E-05-2.85720E-05-2.85700E-05 4.76220E-09 9.94189E-19 5.97670E-19
 -1      2377 9.52358E-05-2.85716E-05-2.85704E-05 2.79134E-09-7.80178E-19 1.01777E-18
 -1      2378 9.52362E-05-2.85717E-05-2.85705E-05 2.33926E-09-7.32742E-19 3.64296E-19
 -1      2379 9.52360E-05-2.85720E-05-2.85703E-05 3.51369E-09 3.59594E-20-4.30332E-19
 -1      2380 1.08976E-04-2.68623E-05-3.52564E-05-1.37604E-06 1.45766E-18 9.51033E-19
 -1      2381 1.09211E-04-2.62506E-05-3.55218E-05 2.38392E-06 1.83287E-18 1.39031E-18
 -1      2382 1.10744E-04-3.05347E-05-3.44729E-05-7.25972E-06 1.41161E-18-1.99615E-19
 -1      2383 1.09690E-04-2.85043E-05-3.47247E-05-5.17543E-06 1.33777E-18 2.61220E-19
 -1      2384 1.12023E-04-2.65846E-05-3.67145E-05-3.48603E-06 1.99245E-18-5.16190E-19
 -1      2385 1.13054E-04-3.46924E-05-3.36483E-05-8.25077E-06 7.19549E-19-4.00630E-19
 -1      2386 1.11803E-04-3.27550E-05-3.38265E-05-8.28827E-06 1.16994E-18-3.04058E-19
 -1      2387 1.14134E-04-3.17976E-05-3.53023E-05-8.46995E-06 1.39743E-18-1.03573E-18
 -1      2388 1.13836E-04-3.68687E-05-3.30032E-05-5.55672E-06-4.89393E-20-6.52657E-19
 -1      2389 1.13171E-04-3.59431E-05-3.31033E-05-6.94901E-06 3.62732E-19-3.75163E-19
 -1      2390 1.15535E-04-3.64842E-05-3.38482E-05-7.82578E-06 5.73515E-19-1.23603E-18
 -1      2391 1.12810E-04-3.68204E-05-3.25560E-05-1.63318E-06 7.22592E-20-7.02134E-19
 -1      2392 1.12902E-04-3.68736E-05-3.26312E-05-3.37121E-06 2.44614E-20-4.85969E-19
 -1      2393 1.14746E-04-3.83216E-05-3.27414E-05-3.98154E-06 2.64423E-19-1.40778E-18
 -1      2394 1.10682E-04-3.54738E-05-3.22131E-05 1.75846E-06 6.39907E-20-1.72942E-19
 -1      2395 1.11338E-04-3.60665E-05-3.23166E-05 3.31086E-07 1.35446E-19-4.22031E-19
 -1      2396 1.12264E-04-3.75694E-05-3.20291E-05 3.12685E-07-7.12997E-20-1.14977E-18
 -1      2397 1.08215E-04-3.37821E-05-3.18834E-05 3.95353E-06 9.14746E-20-3.98866E-21
 -1      2398 1.09169E-04-3.45194E-05-3.20381E-05 3.05839E-06 1.56357E-19-1.20603E-19
 -1      2399 1.09187E-04-3.55633E-05-3.15828E-05 3.56351E-06 2.66087E-20-6.65454E-19
 -1      2400 1.05853E-04-3.22706E-05-3.15239E-05 4.99442E-06-8.35254E-20 2.72635E-19
 -1      2401 1.06903E-04-3.29421E-05-3.17242E-05 4.59132E-06 2.51992E-20 4.85886E-20
 -1      2402 1.06290E-04-3.34222E-05-3.12570E-05 5.43112E-06 1.32837E-20-5.95084E-19
 -1      2403 1.03772E-04-3.11058E-05-3.11353E-05 5.18946E-06-8.64850E-20 2.20620E-19
 -1      2404 1.04794E-04-3.16426E-05-3.13611E-05 5.14092E-06 8.07676E-20 3.83215E-19
 -1      2405 1.03874E-04-3.16770E-05-3.09625E-05 6.14198E-06 2.95142E-20-7.07327E-19
 -1      2406 1.02007E-04-3.02731E-05-3.07381E-05 4.86543E-06-2.73466E-21 6.56860E-19
 -1      2407 1.02937E-04-3.06763E-05-3.09679E-05 5.03048E-06-1.54417E-19 4.85950E-19
 -1      2408 1.01955E-04-3.04360E-05-3.06655E-05 6.06675E-06-2.31339E-19-1.00255E-19
 -1      2409 1.00538E-04-2.96995E-05-3.03558E-05 4.27777E-06 2.24044E-19 9.13496E-19
 -1      2410 1.01349E-04-2.99936E-05-3.05728E-05 4.54749E-06 2.50224E-19 9.82911E-19
 -1      2411 1.00450E-04-2.96240E-05-3.03644E-05 5.53694E-06 6.02740E-20 2.96547E-19
 -1      2412 9.93318E-05-2.93104E-05-3.00063E-05 3.59736E-06 7.21938E-20 8.41776E-19
 -1      2413 1.00016E-04-2.95221E-05-3.02001E-05 3.89981E-06 1.26933E-19 7.88958E-19
 -1      2414 9.92680E-05-2.91215E-05-3.00705E-05 4.79482E-06 3.11280E-19 6.94100E-19
 -1      2415 9.83529E-05-2.90472E-05-2.96999E-05 2.92591E-06 4.11010E-20 5.53974E-19
 -1      2416 9.89148E-05-2.91988E-05-2.98660E-05 3.21911E-06 1.00089E-21 5.61590E-19
 -1      2417 9.83329E-05-2.88230E-05-2.97961E-05 3.99698E-06 3.16240E-19 5.84867E-19
 -1      2418 9.75689E-05-2.88692E-05-2.94405E-05 2.31672E-06 1.82438E-19 9.72385E-20
 -1      2419 9.80203E-05-2.89772E-05-2.95781E-05 2.57938E-06 3.02700E-19 4.30171E-19
 -1      2420 9.75911E-05-2.86521E-05-2.95505E-05 3.23447E-06 1.47988E-19 9.65474E-20
 -1      2421 9.69497E-05-2.87489E-05-2.92269E-05 1.79230E-06 8.34674E-19 3.51529E-19
 -1      2422 9.73050E-05-2.88252E-05-2.93379E-05 2.01613E-06 7.08177E-19 6.82931E-19
 -1      2423 9.70038E-05-2.85585E-05-2.93381E-05 2.55357E-06 4.28663E-19 7.16472E-19
 -1      2424 9.64680E-05-2.86681E-05-2.90554E-05 1.35715E-06 1.02881E-18 8.39247E-20
 -1      2425 9.67423E-05-2.87214E-05-2.91429E-05 1.54127E-06 9.12665E-19 2.61242E-19
 -1      2426 9.65418E-05-2.85109E-05-2.91600E-05 1.97228E-06 8.75627E-19 5.96804E-19
 -1      2427 9.60995E-05-2.86147E-05-2.89206E-05 1.00607E-06 5.01080E-19-2.37584E-19
 -1      2428 9.63072E-05-2.86512E-05-2.89880E-05 1.15345E-06 1.13607E-18 9.97069E-20
 -1      2429 9.61822E-05-2.84901E-05-2.90143E-05 1.49207E-06 1.17281E-18 1.23282E-18
 -1      2430 9.58223E-05-2.85804E-05-2.88167E-05 7.29294E-07-2.13681E-19-7.03982E-19
 -1      2431 9.59765E-05-2.86047E-05-2.88677E-05 8.44613E-07-2.39942E-20-7.11078E-19
 -1      2432 9.59060E-05-2.84846E-05-2.88977E-05 1.10552E-06 5.02481E-19 5.65300E-19
 -1      2433 9.56179E-05-2.85594E-05-2.87383E-05 5.15557E-07-5.50355E-19-4.02317E-19
 -1      2434 9.57299E-05-2.85749E-05-2.87761E-05 6.03958E-07-4.22361E-19-3.84632E-19
 -1      2435 9.56971E-05-2.84877E-05-2.88063E-05 8.01146E-07-2.08299E-19 3.68232E-19
 -1      2436 9.54703E-05-2.85476E-05-2.86803E-05 3.53704E-07 2.57816E-20-1.06215E-18
 -1      2437 9.55497E-05-2.85568E-05-2.87076E-05 4.20142E-07-4.18668E-19-8.22365E-19
 -1      2438 9.55418E-05-2.84953E-05-2.87361E-05 5.66221E-07-8.65997E-20 4.54180E-19
 -1      2439 9.53664E-05-2.85420E-05-2.86384E-05 2.33550E-07 8.03809E-19-8.92655E-19
 -1      2440 9.54211E-05-2.85469E-05-2.86577E-05 2.82475E-07 4.97398E-19-9.42175E-19
 -1      2441 9.54287E-05-2.85047E-05-2.86832E-05 3.88366E-07 9.14539E-20-2.32381E-19
 -1      2442 9.52955E-05-2.85404E-05-2.86088E-05 1.46226E-07-9.70973E-19 1.80042E-19
 -1      2443 9.53317E-05-2.85425E-05-2.86220E-05 1.81463E-07-1.02807E-19-2.39227E-19
 -1      2444 9.53482E-05-2.85147E-05-2.86441E-05 2.56345E-07-3.77332E-19 3.96486E-19
 -1      2445 9.52490E-05-2.85415E-05-2.85886E-05 8.42678E-08-4.18035E-19 9.00769E-19
 -1      2446 9.52718E-05-2.85416E-05-2.85972E-05 1.09007E-07-4.68069E-19 3.63063E-19
 -1      2447 9.52926E-05-2.85243E-05-2.86159E-05 1.60404E-07-9.94954E-19 1.94006E-18
 -1      2448 9.52202E-05-2.85440E-05-2.85753E-05 4.15503E-08-2.43936E-19 5.39555E-19
 -1      2449 9.52335E-05-2.85430E-05-2.85807E-05 5.83842E-08-3.07536E-20 1.11994E-18
 -1      2450 9.52555E-05-2.85331E-05-2.85960E-05 9.23390E-08-2.86081E-19 2.26049E-18
 -1      2451 9.52039E-05-2.85472E-05-2.85670E-05 1.31527E-08 1.60320E-20 1.33947E-20
 -1      2452 9.52106E-05-2.85456E-05-2.85701E-05 2.41496E-08-4.55622E-20 1.11670E-20
 -1      2453 9.52319E-05-2.85408E-05-2.85825E-05 4.54194E-08-7.58165E-20 1.09193E-18
 -1      2454 9.51963E-05-2.85507E-05-2.85622E-05-4.80357E-09 6.56070E-19 3.52136E-19
 -1      2455 9.51986E-05-2.85488E-05-2.85637E-05 1.97456E-09 3.70297E-19 2.45521E-19
 -1      2456 9.52181E-05-2.85473E-05-2.85735E-05 1.42380E-08 1.13401E-19-4.49234E-19
 -1      2457 9.51943E-05-2.85541E-05-2.85600E-05-1.53219E-08 4.56546E-20-2.66008E-20
 -1      2458 9.51937E-05-2.85521E-05-2.85604E-05-1.15184E-08 4.14357E-19-2.16742E-19
 -1      2459 9.52109E-05-2.85528E-05-2.85680E-05-5.46838E-09 7.23959E-19-9.17766E-20
 -1      2460 9.51958E-05-2.85572E-05-2.85593E-05-2.06866E-08-1.58540E-19-7.98580E-21
 -1      2461 9.51936E-05-2.85554E-05-2.85591E-05-1.89183E-08 4.39043E-20 3.78299E-19
 -1      2462 9.52083E-05-2.85573E-05-2.85649E-05-1.70011E-08-1.75425E-19-3.48625E-19
 -1      2463 9.51994E-05-2.85600E-05-2.85597E-05-2.26035E-08-1.02594E-18-2.86938E-19
 -1      2464 9.51963E-05-2.85583E-05-2.85591E-05-2.21742E-08-5.19366E-19-1.20042E-19
 -1      2465 9.52086E-05-2.85609E-05-2.85634E-05-2.28717E-08-2.38373E-19 1.64023E-18
 -1      2466 9.52040E-05-2.85624E-05-2.85606E-05-2.23212E-08-3.67071E-19-1.05637E-18
 -1      2467 9.52006E-05-2.85610E-05-2.85598E-05-2.27257E-08-5.51479E-19-1.11998E-18
 -1      2468 9.52106E-05-2.85637E-05-2.85630E-05-2.49556E-08 6.72632E-20 9.46555E-19
 -1      2469 9.52089E-05-2.85644E-05-2.85619E-05-2.07329E-08-3.07251E-19 1.13564E-19
 -1      2470 9.52055E-05-2.85632E-05-2.85610E-05-2.16133E-08-7.91180E-19-1.08420E-18
 -1      2471 9.52135E-05-2.85659E-05-2.85633E-05-2.46255E-08-5.14240E-19-3.70684E-19
 -1      2472 9.52137E-05-2.85661E-05-2.85633E-05-1.84609E-08 2.58411E-19 6.79450E-19
 -1      2473 9.52105E-05-2.85650E-05-2.85624E-05-1.95710E-08 3.01933E-19 3.99944E-20
 -1      2474 9.52168E-05-2.85675E-05-2.85640E-05-2.28632E-08-5.81184E-19 1.53137E-18
 -1      2475 9.52181E-05-2.85674E-05-2.85646E-05-1.59240E-08-1.16324E-18 7.11340E-19
 -1      2476 9.52153E-05-2.85665E-05-2.85638E-05-1.71006E-08-1.13032E-19 9.74116E-19
 -1      2477 9.52201E-05-2.85687E-05-2.85649E-05-2.03524E-08 6.89748E-20 1.28901E-18
 -1      2478 9.52220E-05-2.85684E-05-2.85658E-05-1.33912E-08-3.93999E-19 6.89726E-19
 -1      2479 9.52196E-05-2.85678E-05-2.85651E-05-1.45319E-08-1.17709E-18 9.41293E-19
 -1      2480 9.52232E-05-2.85696E-05-2.85658E-05-1.75529E-08-1.15121E-18 8.42432E-19
 -1      2481 9.52253E-05-2.85692E-05-2.85669E-05-1.10236E-08-7.87761E-19 8.13309E-19
 -1      2482 9.52233E-05-2.85687E-05-2.85663E-05-1.20696E-08-1.57782E-19 4.67315E-19
 -1      2483 9.52259E-05-2.85703E-05-2.85667E-05-1.47601E-08-4.91228E-19 1.03123E-18
 -1      2484 9.52281E-05-2.85699E-05-2.85678E-05-8.90632E-09-1.30969E-18 1.14317E-18
 -1      2485 9.52265E-05-2.85695E-05-2.85673E-05-9.82889E-09-1.17293E-18 9.88143E-19
 -1      2486 9.52284E-05-2.85707E-05-2.85675E-05-1.21502E-08-1.01351E-18 1.75706E-18
 -1      2487 9.52305E-05-2.85703E-05-2.85686E-05-7.07150E-09-6.44985E-20-2.01312E-19
 -1      2488 9.52291E-05-2.85700E-05-2.85682E-05-7.86294E-09-8.44464E-19-3.99787E-19
 -1      2489 9.52304E-05-2.85710E-05-2.85683E-05-9.81573E-09-1.41083E-19 1.17470E-18
 -1      2490 9.52323E-05-2.85707E-05-2.85693E-05-5.51599E-09 4.23888E-19-1.09216E-18
 -1      2491 9.52312E-05-2.85705E-05-2.85689E-05-6.18256E-09 5.25568E-19-7.64390E-19
 -1      2492 9.52321E-05-2.85713E-05-2.85689E-05-7.79132E-09 6.75582E-19 4.35017E-19
 -1      2493 9.52338E-05-2.85710E-05-2.85698E-05-4.21384E-09 1.77258E-18-2.99100E-18
 -1      2494 9.52330E-05-2.85708E-05-2.85695E-05-4.77095E-09 8.16471E-19-1.72543E-18
 -1      2495 9.52335E-05-2.85714E-05-2.85695E-05-6.07290E-09 1.16844E-18-1.49121E-18
 -1      2496 9.52349E-05-2.85712E-05-2.85702E-05-3.12017E-09 5.93043E-19-1.62992E-18
 -1      2497 9.52343E-05-2.85710E-05-2.85700E-05-3.59089E-09 9.42840E-19-1.92017E-18
 -1      2498 9.52346E-05-2.85715E-05-2.85699E-05-4.63580E-09 9.51506E-19-2.02430E-18
 -1      2499 9.52358E-05-2.85714E-05-2.85705E-05-2.19493E-09-1.42785E-18 1.35883E-19
 -1      2500 9.52353E-05-2.85712E-05-2.85703E-05-2.60098E-09 1.58683E-19-2.95559E-19
 -1      2501 9.52355E-05-2.85716E-05-2.85702E-05-3.42733E-09-6.05271E-19 1.06838E-18
 -1      2502 9.52365E-05-2.85715E-05-2.85707E-05-1.40285E-09-8.40078E-19 9.56094E-19
 -1      2503 9.52361E-05-2.85714E-05-2.85706E-05-1.75759E-09-1.09418E-18 4.12457E-19
 -1      2504 9.52362E-05-2.85717E-05-2.85705E-05-2.39757E-09-1.40124E-18 2.64075E-18
 -1      2505 9.52367E-05-2.85715E-05-2.85708E-05-9.84194E-10-1.06604E-18 9.38841E-20
 -1      2506 9.52385E-05-2.85744E-05-2.85703E-05-1.97449E-09 2.35358E-19 1.60196E-19
 -1      2507 9.52382E-05-2.85741E-05-2.85704E-05-2.13015E-09-2.34780E-19-1.66062E-18
 -1      2508 9.52389E-05-2.85750E-05-2.85702E-05-1.41647E-09 9.27738E-19 2.40246E-19
 -1      2509 9.52387E-05-2.85747E-05-2.85703E-05-1.69874E-09 5.86612E-19-2.35487E-19
 -1      2510 9.52388E-05-2.85748E-05-2.85703E-05-2.14430E-09 2.17208E-18 2.61218E-19
 -1      2511 9.52374E-05-2.85729E-05-2.85705E-05-2.17392E-09-1.20146E-18-1.58981E-18
 -1      2512 9.52372E-05-2.85725E-05-2.85706E-05-2.03260E-09-9.68538E-19-1.03150E-18
 -1      2513 9.52380E-05-2.85737E-05-2.85704E-05-2.23837E-09-1.89188E-18-2.68928E-18
 -1      2514 9.52377E-05-2.85733E-05-2.85705E-05-2.23378E-09-1.32028E-18-1.48217E-18
 -1      2515 9.52376E-05-2.85732E-05-2.85704E-05-2.60444E-09-5.55108E-19-1.58709E-18
 -1      2516 9.52382E-05-2.85740E-05-2.85704E-05-2.56752E-09 7.40512E-19-8.04071E-19
 -1      2517 9.52391E-05-2.85753E-05-2.85702E-05-6.53120E-10 1.03596E-19 1.90268E-18
 -1      2518 9.52390E-05-2.85752E-05-2.85702E-05-1.01787E-09 9.86382E-19-4.83319E-20
 -1      2519 9.52392E-05-2.85753E-05-2.85703E-05-1.41713E-09 1.59834E-18 3.91386E-20
 -1      2520 9.52392E-05-2.85754E-05-2.85702E-05 2.03680E-10-8.50999E-19 2.47583E-18
 -1      2521 9.52392E-05-2.85754E-05-2.85702E-05-1.89320E-10-1.70193E-18 2.96315E-18
 -1      2522 9.52394E-05-2.85756E-05-2.85702E-05-4.89769E-10 8.82127E-19 8.95239E-19
 -1      2523 9.52390E-05-2.85752E-05-2.85702E-05 1.03064E-09-1.97958E-18-1.55198E-18
 -1      2524 9.52391E-05-2.85753E-05-2.85702E-05 6.67026E-10-1.65897E-18 1.52158E-18
 -1      2525 9.52394E-05-2.85756E-05-2.85702E-05 5.06264E-10-6.54742E-19 1.11075E-18
 -1      2526 9.52387E-05-2.85747E-05-2.85703E-05 1.69853E-09 4.65051E-19-1.38079E-18
 -1      2527 9.52389E-05-2.85750E-05-2.85702E-05 1.42175E-09-3.87547E-19-2.81038E-18
 -1      2528 9.52392E-05-2.85753E-05-2.85703E-05 1.42480E-09-9.69935E-19-5.86795E-19
 -1      2529 9.52382E-05-2.85741E-05-2.85704E-05 2.12935E-09 1.62326E-18 1.52727E-18
 -1      2530 9.52385E-05-2.85744E-05-2.85703E-05 1.97401E-09 1.58536E-18-7.82258E-19
 -1      2531 9.52388E-05-2.85748E-05-2.85703E-05 2.14470E-09 8.53239E-19 8.17130E-20
 -1      2532 9.52377E-05-2.85733E-05-2.85705E-05 2.23953E-09-2.54037E-19 3.46572E-18
 -1      2533 9.52380E-05-2.85737E-05-2.85704E-05 2.24014E-09-2.05199E-19 2.98348E-18
 -1      2534 9.52382E-05-2.85740E-05-2.85704E-05 2.56448E-09 5.63125E-19 5.65500E-19
 -1      2535 9.52372E-05-2.85725E-05-2.85706E-05 2.00977E-09-3.01370E-19 1.50760E-18
 -1      2536 9.52374E-05-2.85729E-05-2.85705E-05 2.16719E-09-6.56271E-19 2.71638E-18
 -1      2537 9.52375E-05-2.85732E-05-2.85704E-05 2.60942E-09-3.13056E-20 2.50917E-18
 -1      2538 9.52369E-05-2.85718E-05-2.85707E-05 1.30448E-09-6.73942E-19 1.31040E-18
 -1      2539 2.07021E-05-9.30239E-06-4.64964E-06-5.75863E-06 8.26254E-19 5.28803E-18
 -1      2540 2.71339E-05-1.23538E-05-6.10242E-06-2.14378E-05 1.03094E-18 5.49851E-18
 -1      2541 1.09531E-04-2.68946E-05-3.53921E-05 6.26149E-06 1.82947E-18 2.05020E-18
 -1      2542 1.11406E-04-2.80835E-05-3.56946E-05 9.88089E-06 1.93232E-18 2.67234E-18
 -1      2543 1.13287E-04-2.76070E-05-3.67930E-05 1.20573E-05 2.18844E-18 2.23873E-18
 -1      2544 1.11555E-04-2.50802E-05-3.71780E-05 4.91049E-06 2.21410E-18 8.04377E-19
 -1      2545 1.42495E-04-4.14363E-05-4.36241E-05 1.25503E-05 3.54883E-18-3.10395E-18
 -1      2546 1.34429E-04-4.64103E-05-3.78691E-05 1.86727E-05 2.43136E-18-2.78907E-18
 -1      2547 6.81598E-05-3.42742E-05-1.43702E-05-4.24401E-05 2.15803E-18 2.39933E-18
 -1      2548 8.65658E-05-4.12548E-05-1.94511E-05-4.41048E-05 1.49755E-18 2.01648E-18
 -1      2549 1.40114E-04-1.24776E-05-5.51773E-05-1.09069E-05-6.36736E-18-2.72655E-18
 -1      2550 1.39482E-04-1.58545E-05-5.33501E-05-1.28156E-05-6.35402E-18-2.38270E-18
 -1      2551 1.50632E-05 6.45201E-06-8.97479E-06-1.39193E-05 4.00329E-19-7.40370E-18
 -1      2552 2.58759E-05 1.06629E-06-1.13084E-05-2.17249E-05 4.23516E-19-7.03440E-18
 -1      2553 1.12994E-04-3.25845E-05-3.46453E-05 7.40978E-06 7.84432E-20-6.54439E-19
 -1      2554 1.05399E-04-3.05932E-05-3.20051E-05 6.32884E-07-7.80078E-19-1.24286E-18
 -1      2555 1.19511E-04-3.61664E-05-3.56727E-05 1.24899E-05 3.99211E-19 3.60796E-19
 -1      2556 2.64853E-05 5.79102E-06-1.36929E-05 1.96830E-05 2.64200E-18-5.81636E-18
 -1      2557 4.15163E-05-1.40441E-06-1.64673E-05 2.23167E-05 3.19024E-18-5.27744E-18
 -1      2558 1.26100E-04-4.93052E-05-3.30249E-05 2.91527E-05 1.47077E-18-1.83997E-18
 -1      2559 1.13256E-04-4.87843E-05-2.76106E-05 3.40048E-05 3.40507E-19-1.24260E-18
 -1      2560 1.43488E-04-2.58596E-05-5.08600E-05 1.62106E-06 5.37739E-18-3.53043E-18
 -1      2561 1.43914E-04-3.36874E-05-4.74155E-05 5.89352E-06 4.70876E-18-3.24011E-18
 -1      2562 1.39415E-04-3.96887E-05-4.27625E-05 2.60724E-06 3.12449E-18-4.00795E-18
 -1      2563 1.20261E-04-3.87987E-05-3.52060E-05 1.54666E-05-2.64391E-18-2.37910E-18
 -1      2564 1.04219E-04-3.51828E-05-2.97162E-05 2.10165E-05-1.33768E-18-2.83693E-18
 -1      2565 1.44639E-04-1.35889E-05-5.63441E-05 6.34529E-06 6.66848E-18-2.58239E-18
 -1      2566 1.41563E-04-1.61118E-05-5.41515E-05 3.54408E-06 6.35359E-18-2.81151E-18
 -1      2567 1.42021E-04-2.51821E-05-5.04898E-05 1.39195E-05 5.72975E-18-1.34509E-18
 -1      2568 1.44174E-04-1.95084E-05-5.37066E-05 1.41975E-05 6.27694E-18-1.74362E-18
 -1      2569 1.09530E-04-3.85876E-05-3.05435E-05-1.79906E-05 2.11663E-18-3.74029E-18
 -1      2570 1.23032E-04-4.12345E-05-3.54126E-05-1.04719E-05 2.47461E-18-2.76863E-18
 -1      2571 7.65161E-05-2.62431E-05-2.16095E-05-2.68785E-05 6.51580E-19-4.95948E-18
 -1      2572 9.49854E-05-3.35293E-05-2.64190E-05-2.54038E-05 1.74150E-18-4.50733E-18
 -1      2573 1.05310E-04-3.72284E-05-2.89800E-05-1.61470E-05 4.04141E-19-2.90649E-18
 -1      2574 3.93780E-05-6.01603E-06-1.39566E-05-2.45235E-05-3.09485E-19-6.50627E-18
 -1      2575 5.49809E-05-1.45452E-05-1.72616E-05-2.88677E-05 4.09329E-19-6.02960E-18
 -1      2576 1.19494E-05 1.12894E-05-9.48028E-06-7.00788E-06 9.74088E-19-7.33933E-18
 -1      2577 1.03714E-04-4.66606E-05-2.44405E-05-3.76974E-05 1.46643E-18 4.62586E-19
 -1      2578 1.17140E-04-4.82544E-05-2.95869E-05-3.45813E-05 7.34378E-19-2.36746E-19
 -1      2579 8.56634E-05-2.84027E-05-2.47376E-05 2.95592E-05-7.11931E-19-3.94034E-18
 -1      2580 6.75027E-05-2.08857E-05-1.98499E-05 3.02775E-05 3.67189E-19-4.67620E-18
 -1      2581 1.38028E-04-3.59942E-05-4.42692E-05-1.20168E-06-4.47678E-18-1.58734E-18
 -1      2582 1.29814E-04-3.77994E-05-3.95969E-05 6.53388E-06-3.72790E-18-2.06253E-18
 -1      2583 1.40627E-04-2.37797E-05-5.06827E-05-1.29875E-05-5.80429E-18-1.63943E-18
 -1      2584 1.39659E-04-2.93929E-05-4.74237E-05-9.88197E-06-5.18109E-18-1.53631E-18
 -1      2585 1.39789E-04-1.24780E-05-5.49553E-05-4.81701E-06-5.78989E-18-3.41397E-18
 -1      2586 1.39362E-04-1.11883E-05-5.54086E-05-7.41186E-06-6.12214E-18-3.38347E-18
 -1      2587 1.41753E-04-2.46155E-05-5.04535E-05-3.12596E-06-4.00943E-18-4.32749E-18
 -1      2588 1.41918E-04-1.77647E-05-5.36346E-05-2.65405E-06-4.93079E-18-4.13331E-18
 -1      2589 1.40308E-04-3.90705E-05-4.35481E-05-1.13181E-05-1.97060E-18-3.53594E-18
 -1      2590 1.42746E-04-3.40445E-05-4.70443E-05-7.19467E-06-2.79574E-18-4.11467E-18
 -1      2591 1.26097E-04-4.69257E-05-3.40664E-05-2.65479E-05-2.47757E-20-1.30104E-18
 -1      2592 1.36475E-04-4.43727E-05-3.97178E-05-1.93787E-05-1.09278E-18-2.86975E-18
 -1      2593 1.37028E-04-4.45471E-05-3.95414E-05-9.80697E-06-5.61100E-19-4.24893E-18
 -1      2594 1.25645E-04-5.14553E-05-3.17356E-05-2.42510E-05 1.47024E-18-2.48657E-18
 -1      2595 3.92331E-05-1.91048E-05-8.35099E-06-3.18708E-05 2.07057E-18 4.34295E-18
 -1      2596 5.09409E-05-2.49859E-05-1.09840E-05-3.95747E-05 1.95961E-18 3.21364E-18
 -1      2597 1.42155E-04-1.39888E-05-5.53223E-05 1.20184E-05 6.73243E-18-1.96321E-18
 -1      2598 1.44286E-04-1.29394E-05-5.65831E-05 9.32969E-06 6.84868E-18-2.16451E-18
 -1      2599 1.33808E-04-1.15042E-05-5.26245E-05 6.56784E-06 6.43025E-18-1.90408E-18
 -1      2600 1.19856E-04-2.99211E-05-3.87419E-05-2.25151E-05-2.11728E-18-7.64315E-19
 -1      2601 1.19239E-04-3.22100E-05-3.72900E-05-2.04076E-05-2.18463E-18-2.21281E-19
 -1      2602 1.19549E-04-3.16331E-05-3.76439E-05-2.16159E-05-2.03822E-18-4.92010E-19
 -1      2603 1.18382E-04-2.89704E-05-3.83372E-05-2.15832E-05-1.57925E-18-1.18566E-18
 -1      2604 7.09213E-05-1.92321E-05-2.20035E-05-2.07672E-05-1.17801E-18-4.15883E-18
 -1      2605 1.11517E-04-3.37393E-05-3.33692E-05-2.75006E-06 9.23491E-19-1.18059E-18
 -1      2606 1.10338E-04-3.03740E-05-3.41957E-05-6.08186E-06 1.04198E-18-1.72031E-18
 -1      2607 1.14222E-04-3.05618E-05-3.60664E-05-1.17842E-05 1.99357E-19-1.69105E-18
 -1      2608 1.04888E-04-3.34616E-05-3.06224E-05-4.42158E-06-7.12593E-19-1.37521E-18
 -1      2609 5.30303E-05-1.07020E-05-1.78821E-05 2.60046E-05 2.57212E-18-4.70146E-18
 -1      2610 1.68489E-05 5.37780E-06-9.27027E-06 1.65950E-05 1.55462E-18-6.97129E-18
 -1      2611 1.00260E-04-3.40146E-05-2.81570E-05 1.96676E-05 5.46442E-19-2.43427E-18
 -1      2612 3.91137E-05-1.46704E-05-9.95587E-06-2.53784E-05 1.45256E-18 4.48970E-18
 -1      2613 5.09921E-05-2.44184E-05-1.12116E-05 3.83855E-05-1.92276E-18 3.35298E-18
 -1      2614 3.69827E-05-1.83510E-05-7.72276E-06 3.01359E-05-1.35197E-18 4.37641E-18
 -1      2615 9.52367E-05-2.85717E-05-2.85707E-05-1.48745E-09-8.38392E-19-5.30807E-19
 -1      2616 1.30798E-04-1.05600E-05-5.17478E-05-9.30096E-06-5.68719E-18-2.77713E-18
 -1      2617 9.52368E-05-2.85720E-05-2.85706E-05-1.73285E-09-8.29610E-19-3.73617E-19
 -1      2618 1.06425E-04-4.83280E-05-2.48219E-05 3.67854E-05-6.52639E-19-7.23948E-19
 -1      2619 9.80676E-05-4.48373E-05-2.23541E-05 3.80429E-05-1.82589E-18-4.67642E-19
 -1      2620 1.16123E-04-5.15574E-05-2.77993E-05 2.88540E-05-1.16721E-18-1.72212E-18
 -1      2621 9.52366E-05-2.85717E-05-2.85707E-05 1.64631E-09-7.57901E-19 5.75666E-19
 -1      2622 9.52369E-05-2.85721E-05-2.85706E-05 1.88359E-09-4.45826E-19 9.18397E-19
 -1      2623 9.52369E-05-2.85724E-05-2.85705E-05 2.40115E-09-5.76892E-19 1.35256E-18
 -1      2624 9.52363E-05-2.85717E-05-2.85706E-05 2.01118E-09-7.18732E-19 1.01613E-18
 -1      2625 2.28515E-05-8.64178E-06-5.59956E-06 6.18369E-06-3.41698E-19 5.03730E-18
 -1      2626 2.97211E-05-7.76992E-06-8.86627E-06-7.05544E-07-1.43466E-19 4.57228E-18
 -1      2627 6.72282E-05-3.09730E-05-1.51370E-05-3.99031E-05 2.89982E-18 2.34321E-18
 -1      2628 2.73183E-05-1.16624E-05-6.45078E-06 1.94786E-05-5.71535E-19 5.07923E-18
 -1      2629 7.86014E-05-3.61984E-05-1.81235E-05 3.98079E-05-2.66942E-18 9.97170E-19
 -1      2630 6.47852E-05-3.05630E-05-1.42907E-05 4.05142E-05-2.29694E-18 2.58049E-18
 -1      2631 6.13187E-05-2.55668E-05-1.47986E-05 3.65932E-05-2.63639E-18 2.57752E-18
 -1      2632 2.79566E-05 6.26945E-06-1.39572E-05-1.56050E-05-6.10764E-19-6.57890E-18
 -1      2633 1.85752E-05 1.07717E-05-1.22985E-05-9.40028E-06 7.71594E-20-6.87272E-18
 -1      2634 1.01330E-04-4.65954E-05-2.32330E-05-3.77516E-05 2.32659E-18 3.35610E-19
 -1      2635 1.33154E-04-1.88016E-05-4.91700E-05-1.65886E-05-5.31937E-18-1.30920E-18
 -1      2636 1.37691E-04-2.97922E-05-4.63486E-05 1.46600E-07-2.70839E-18-5.12243E-18
 -1      2637 1.32723E-04-1.48871E-05-5.07105E-05-8.64081E-07-4.63327E-18-4.19207E-18
 -1      2638 3.57340E-05-1.19216E-06-1.45263E-05-2.13263E-05-5.92500E-19-6.42527E-18
 -1      2639 1.35178E-04-3.26527E-05-4.39684E-05-1.09150E-05-3.83870E-18-7.07590E-19
 -1      2640 6.96592E-05-2.05603E-05-2.08742E-05-2.43538E-05-8.09658E-19-4.77001E-18
 -1      2641 1.40803E-04-3.07302E-05-4.74097E-05 1.52074E-05 4.78574E-18-6.49674E-19
 -1      2642 1.34556E-04-2.56892E-05-4.71267E-05 1.98753E-05 4.59791E-18 3.07155E-19
 -1      2643 1.35840E-04-3.41727E-05-4.37833E-05 1.52314E-05 3.64701E-18 3.07155E-19
 -1      2644 1.38562E-04-2.19794E-05-5.03460E-05-7.77698E-07 5.33588E-18-3.42487E-18
 -1      2645 1.33311E-04-2.68576E-05-4.58237E-05-4.25283E-06 4.20700E-18-4.25793E-18
 -1      2646 1.30360E-04-1.76754E-05-4.88380E-05-2.20108E-06 5.23424E-18-3.20665E-18
 -1      2647 1.30573E-04-4.18049E-05-3.80251E-05-1.04151E-06 2.47170E-18-1.61434E-18
 -1      2648 1.32679E-04-3.99995E-05-4.01980E-05 9.53673E-06 2.28803E-18 6.57509E-20
 -1      2649 1.24646E-04-4.19050E-05-3.53363E-05-1.12496E-06 1.35531E-18-9.23425E-19
 -1      2650 1.32407E-04-5.07573E-05-3.49599E-05 1.72987E-05 9.37930E-19-3.32111E-18
 -1      2651 1.16222E-04-2.97710E-05-3.70651E-05-1.63117E-05-3.29721E-19-1.53272E-18
 -1      2652 1.17575E-04-2.93083E-05-3.80645E-05-1.96310E-05-1.16044E-18-1.51304E-18
 -1      2653 1.19782E-04-3.16455E-05-3.77458E-05-2.07489E-05-1.53150E-18-8.55927E-19
 -1      2654 1.18327E-04-3.28251E-05-3.66185E-05-1.52789E-05-3.49697E-19-9.56009E-19
 -1      2655 1.25497E-04-3.94822E-05-3.67278E-05 3.98938E-06-1.67871E-18-9.45289E-19
 -1      2656 1.35331E-04-1.56394E-05-5.14936E-05 1.54094E-05 6.09652E-18-8.60585E-19
 -1      2657 2.92886E-05-1.08282E-06-1.15063E-05 2.53653E-05 1.45880E-18-6.53126E-18
 -1      2658 4.04212E-05-7.23896E-06-1.43964E-05 2.91009E-05 1.10686E-18-5.64537E-18
 -1      2659 9.52368E-05-2.85722E-05-2.85705E-05-2.25871E-09-4.10405E-20-2.96734E-19
 -1      2660 9.52364E-05-2.85720E-05-2.85705E-05 2.59676E-09-5.71346E-19 9.47931E-20
 -1      2661 6.41996E-05-1.83795E-05-1.93390E-05 2.91215E-05 1.31989E-18-4.67202E-18
 -1      2662 1.24339E-04-3.51589E-05-3.84293E-05 2.25877E-05 1.70787E-18 1.62398E-18
 -1      2663 1.24715E-04-3.62346E-05-3.79042E-05 2.09186E-05 1.29897E-18 1.08377E-18
 -1      2664 1.18337E-04-2.97276E-05-3.79635E-05 1.83221E-05 2.42026E-18 2.07120E-18
 -1      2665 1.21271E-04-3.26347E-05-3.80974E-05 2.05800E-05 2.05641E-18 2.16624E-18
 -1      2666 9.52371E-05-2.85728E-05-2.85704E-05-3.05902E-09 1.34173E-20-1.33638E-18
 -1      2667 9.52367E-05-2.85723E-05-2.85705E-05-2.77242E-09 1.91723E-20 5.80859E-19
 -1      2668 9.52364E-05-2.85723E-05-2.85703E-05-3.27896E-09-5.19271E-19 6.98625E-19
 -1      2669 1.18417E-04-3.97701E-05-3.37721E-05-5.94551E-06 3.80661E-19-2.40139E-18
 -1      2670 1.18227E-04-3.76123E-05-3.45488E-05-7.48400E-06 7.00423E-19-2.41527E-18
 -1      2671 1.14912E-04-2.41736E-05-3.90444E-05-1.61158E-05-2.90032E-18-6.01109E-19
 -1      2672 1.12819E-04-2.16633E-05-3.91372E-05-1.21040E-05-2.85530E-18-9.61525E-19
 -1      2673 1.11612E-04-2.04213E-05-3.91756E-05-6.40517E-06-2.88097E-18-1.74024E-18
 -1      2674 1.11130E-04-2.09863E-05-3.88150E-05-1.68550E-06-2.78451E-18-2.34595E-18
 -1      2675 1.14305E-04-1.88544E-05-4.10719E-05-1.03195E-05-3.33315E-18-1.56807E-18
 -1      2676 1.12164E-04-2.35227E-05-3.79827E-05 3.34244E-06-2.25099E-18-2.93502E-18
 -1      2677 1.13210E-04-2.70056E-05-3.71806E-05 6.25083E-06-1.72771E-18-2.96590E-18
 -1      2678 1.14077E-04-2.04383E-05-4.02596E-05 1.02407E-06-2.88131E-18-3.12468E-18
 -1      2679 1.14766E-04-3.10678E-05-3.58351E-05 7.75330E-06-1.28630E-18-2.87426E-18
 -1      2680 1.15848E-04-3.46976E-05-3.49258E-05 7.96611E-06-5.13792E-19-2.87918E-18
 -1      2681 1.16832E-04-2.87881E-05-3.77813E-05 7.49377E-06-1.37190E-18-3.50097E-18
 -1      2682 1.15841E-04-3.73619E-05-3.36527E-05 6.36730E-06-1.24401E-19-2.72203E-18
 -1      2683 1.15897E-04-3.91967E-05-3.29091E-05 4.81938E-06 2.60650E-19-2.70180E-18
 -1      2684 1.18554E-04-3.72820E-05-3.48378E-05 6.58212E-06-2.66220E-19-3.37829E-18
 -1      2685 1.14189E-04-3.96032E-05-3.20099E-05 2.26468E-06 2.59176E-19-2.74483E-18
 -1      2686 1.13209E-04-3.95763E-05-3.15218E-05 3.18898E-07 8.41793E-20-2.68928E-18
 -1      2687 1.16718E-04-4.10345E-05-3.24525E-05 1.95552E-06 1.15805E-19-2.93827E-18
 -1      2688 1.10799E-04-3.85524E-05-3.10069E-05-1.74935E-06-3.62517E-19-2.43940E-18
 -1      2689 1.09343E-04-3.75280E-05-3.07242E-05-3.32307E-06-3.96282E-19-2.47040E-18
 -1      2690 1.12429E-04-4.03376E-05-3.09481E-05-2.67522E-06 5.57230E-21-2.72102E-18
 -1      2691 1.07072E-04-3.60500E-05-3.04678E-05-4.54455E-06-7.64447E-20-2.05653E-18
 -1      2692 1.05603E-04-3.47789E-05-3.03066E-05-5.52547E-06 9.10614E-20-1.79368E-18
 -1      2693 1.07672E-04-3.74465E-05-3.01587E-05-5.75794E-06 7.86024E-20-1.85648E-18
 -1      2694 1.03842E-04-3.34350E-05-3.01885E-05-6.02921E-06 8.44270E-20-1.47406E-18
 -1      2695 1.02594E-04-3.23257E-05-3.00826E-05-6.48384E-06 2.84842E-19-1.10920E-18
 -1      2696 1.03639E-04-3.42328E-05-2.97987E-05-7.22737E-06 1.41392E-19-1.66537E-18
 -1      2697 1.01366E-04-3.13194E-05-3.00233E-05-6.51754E-06 6.30717E-20-1.12390E-18
 -1      2698 1.00390E-04-3.04964E-05-2.99347E-05-6.58847E-06 1.42546E-19-9.69024E-19
 -1      2699 1.00681E-04-3.15937E-05-2.96466E-05-7.56821E-06 2.70654E-19-1.65150E-18
 -1      2700 9.95897E-05-2.98344E-05-2.98921E-05-6.34977E-06-6.49266E-20-1.07426E-18
 -1      2701 9.88534E-05-2.92854E-05-2.98046E-05-6.17716E-06 1.34703E-19-1.24488E-18
 -1      2702 9.86861E-05-2.97403E-05-2.95722E-05-7.23020E-06-3.16990E-20-1.30958E-18
 -1      2703 9.83527E-05-2.88968E-05-2.97605E-05-5.80170E-06 2.42128E-19-1.63445E-18
 -1      2704 9.78019E-05-2.85611E-05-2.96705E-05-5.49539E-06-1.20982E-19-1.58440E-18
 -1      2705 9.74100E-05-2.85844E-05-2.95110E-05-6.53191E-06-1.20725E-19-1.58597E-18
 -1      2706 9.74953E-05-2.83632E-05-2.96202E-05-5.06875E-06-2.65775E-19-1.03376E-18
 -1      2707 9.70805E-05-2.81761E-05-2.95299E-05-4.70609E-06 3.61855E-19-8.47055E-19
 -1      2708 9.66184E-05-2.79476E-05-2.94386E-05-5.67666E-06-5.33535E-20-1.61985E-18
 -1      2709 9.68934E-05-2.80994E-05-2.94748E-05-4.27984E-06 2.04808E-19-9.18280E-19
 -1      2710 9.65775E-05-2.80083E-05-2.93881E-05-3.91099E-06-1.85945E-19-7.37446E-19
 -1      2711 9.61336E-05-2.76583E-05-2.93514E-05-4.78839E-06 2.53110E-19-6.66196E-19
 -1      2712 9.64618E-05-2.80026E-05-2.93316E-05-3.51449E-06-6.56730E-20-9.04460E-19
 -1      2713 9.62188E-05-2.79699E-05-2.92516E-05-3.16917E-06 2.94025E-19-6.06641E-19
 -1      2714 9.58356E-05-2.75829E-05-2.92541E-05-3.94005E-06-5.84292E-20-2.35853E-19
 -1      2715 9.61452E-05-2.80016E-05-2.91969E-05-2.81741E-06 2.30133E-19-7.15071E-19
 -1      2716 9.59573E-05-2.80022E-05-2.91259E-05-2.51105E-06-3.02771E-19-2.69748E-19
 -1      2717 9.56489E-05-2.76279E-05-2.91538E-05-3.17164E-06 3.07820E-19-1.07692E-18
 -1      2718 9.59085E-05-2.80505E-05-2.90754E-05-2.20972E-06-5.80874E-19 9.37883E-20
 -1      2719 9.57633E-05-2.80683E-05-2.90143E-05-1.94827E-06 1.55130E-19-2.23772E-19
 -1      2720 9.55281E-05-2.77326E-05-2.90567E-05-2.50173E-06-1.05362E-19-1.04901E-18
 -1      2721 9.57295E-05-2.81210E-05-2.89694E-05-1.69730E-06 6.29791E-19-3.45132E-19
 -1      2722 9.56179E-05-2.81464E-05-2.89183E-05-1.48088E-06 6.27060E-19-2.99194E-19
 -1      2723 9.54469E-05-2.78599E-05-2.89671E-05-1.93498E-06 2.14070E-19-9.72215E-19
 -1      2724 9.55937E-05-2.81968E-05-2.88796E-05-1.27678E-06 1.93412E-19-6.74708E-19
 -1      2725 9.55087E-05-2.82241E-05-2.88378E-05-1.10213E-06-2.46446E-19-9.89800E-19
 -1      2726 9.53901E-05-2.79884E-05-2.88876E-05-1.46745E-06-2.78959E-20-1.67708E-18
 -1      2727 9.54907E-05-2.82690E-05-2.88054E-05-9.39675E-07-3.64853E-19-1.28163E-18
 -1      2728 9.54268E-05-2.82951E-05-2.87720E-05-8.01863E-07-4.95302E-19-1.40730E-18
 -1      2729 9.53491E-05-2.81067E-05-2.88191E-05-1.09025E-06-5.48899E-20-1.50720E-18
 -1      2730 9.54133E-05-2.83333E-05-2.87454E-05-6.75138E-07-2.17583E-19-7.22718E-19
 -1      2731 9.53660E-05-2.83566E-05-2.87193E-05-5.68655E-07 3.28482E-19-6.24249E-19
 -1      2732 9.53188E-05-2.82098E-05-2.87618E-05-7.92095E-07 7.12462E-20-1.54128E-18
 -1      2733 9.53557E-05-2.83880E-05-2.86980E-05-4.71723E-07 2.59379E-19-7.05749E-19
 -1      2734 9.53214E-05-2.84081E-05-2.86779E-05-3.91125E-07 1.71253E-19-8.54043E-19
 -1      2735 9.52961E-05-2.82962E-05-2.87150E-05-5.61000E-07 2.92676E-19-7.50437E-19
 -1      2736 9.53136E-05-2.84332E-05-2.86611E-05-3.18456E-07 3.41946E-19-6.74259E-19
 -1      2737 9.52893E-05-2.84499E-05-2.86460E-05-2.58731E-07 3.30575E-19-7.62371E-19
 -1      2738 9.52790E-05-2.83666E-05-2.86774E-05-3.85346E-07 5.84121E-19-6.27762E-19
 -1      2739 9.52834E-05-2.84695E-05-2.86331E-05-2.05403E-07 4.92680E-20-3.49925E-19
 -1      2740 9.52666E-05-2.84830E-05-2.86219E-05-1.62151E-07-4.87449E-19 3.18164E-19
 -1      2741 9.52662E-05-2.84224E-05-2.86479E-05-2.54510E-07 3.94558E-19-1.20408E-19
 -1      2742 9.52622E-05-2.84980E-05-2.86122E-05-1.23936E-07-1.09581E-18 2.34364E-19
 -1      2743 9.52511E-05-2.85087E-05-2.86041E-05-9.34235E-08-4.49240E-19-1.28806E-19
 -1      2744 9.52567E-05-2.84658E-05-2.86251E-05-1.59168E-07-7.27838E-19-8.34932E-21
 -1      2745 9.52479E-05-2.85200E-05-2.85969E-05-6.67908E-08-6.21570E-19-6.42646E-19
 -1      2746 9.52409E-05-2.85282E-05-2.85913E-05-4.59348E-08-1.00305E-18-5.34392E-19
 -1      2747 9.52498E-05-2.84989E-05-2.86079E-05-9.13904E-08-7.29450E-19 5.93658E-20
 -1      2748 9.52385E-05-2.85365E-05-2.85860E-05-2.80050E-08-7.12544E-19-3.13585E-19
 -1      2749 9.52344E-05-2.85428E-05-2.85822E-05-1.43193E-08-2.75914E-19 1.72999E-19
 -1      2750 9.52448E-05-2.85234E-05-2.85952E-05-4.46105E-08-4.49306E-19 4.52136E-19
 -1      2751 9.52328E-05-2.85487E-05-2.85785E-05-2.79312E-09-1.99357E-19-3.53752E-19
 -1      2752 9.52307E-05-2.85534E-05-2.85761E-05 5.68606E-09-4.14802E-20 1.58545E-19
 -1      2753 9.52413E-05-2.85414E-05-2.85859E-05-1.35091E-08-4.65414E-19 8.01740E-19
 -1      2754 9.52296E-05-2.85575E-05-2.85735E-05 1.26086E-08-5.43143E-20 4.88244E-19
 -1      2755 9.52289E-05-2.85609E-05-2.85720E-05 1.74020E-08 6.54418E-20 4.37016E-19
 -1      2756 9.52390E-05-2.85541E-05-2.85794E-05 6.13423E-09 1.44510E-19 3.84102E-19
 -1      2757 9.52282E-05-2.85637E-05-2.85703E-05 2.11033E-08 8.16049E-19 1.00932E-18
 -1      2758 9.52283E-05-2.85661E-05-2.85695E-05 2.33660E-08 1.82995E-18 1.35254E-18
 -1      2759 9.52374E-05-2.85628E-05-2.85749E-05 1.76039E-08 7.84233E-19 9.23613E-19
 -1      2760 9.52279E-05-2.85679E-05-2.85685E-05 2.48872E-08 8.89867E-19 6.16044E-19
 -1      2761 9.52286E-05-2.85696E-05-2.85681E-05 2.54789E-08-1.88496E-19-5.57608E-20
 -1      2762 9.52365E-05-2.85687E-05-2.85720E-05 2.34076E-08 6.17498E-19 1.74265E-19
 -1      2763 9.52283E-05-2.85706E-05-2.85675E-05 2.55885E-08-9.87585E-20 4.12197E-19
 -1      2764 9.52292E-05-2.85718E-05-2.85675E-05 2.51352E-08 2.85912E-19-4.20028E-20
 -1      2765 9.52359E-05-2.85723E-05-2.85702E-05 2.54226E-08 1.72009E-19 3.53384E-19
 -1      2766 9.52291E-05-2.85723E-05-2.85672E-05 2.43873E-08 9.23071E-20-2.59979E-19
 -1      2767 9.52302E-05-2.85730E-05-2.85673E-05 2.33339E-08-4.53518E-19-5.95423E-19
 -1      2768 9.52357E-05-2.85745E-05-2.85691E-05 2.50249E-08-2.02919E-19-4.56213E-19
 -1      2769 9.52301E-05-2.85733E-05-2.85672E-05 2.21179E-08-1.09753E-18-5.76288E-19
 -1      2770 9.52312E-05-2.85737E-05-2.85675E-05 2.07711E-08-8.51612E-19-2.73692E-19
 -1      2771 9.52356E-05-2.85755E-05-2.85686E-05 2.31995E-08-3.98209E-19-4.96796E-19
 -1      2772 9.52312E-05-2.85737E-05-2.85675E-05 1.93517E-08-4.24597E-20-7.03658E-19
 -1      2773 9.52322E-05-2.85739E-05-2.85678E-05 1.79151E-08 1.44787E-18-8.25840E-19
 -1      2774 9.52357E-05-2.85759E-05-2.85685E-05 2.06321E-08-7.91794E-19 6.34648E-19
 -1      2775 9.52322E-05-2.85738E-05-2.85679E-05 1.64647E-08 1.63643E-18-1.64381E-18
 -1      2776 9.52331E-05-2.85739E-05-2.85682E-05 1.50663E-08 9.16215E-19-1.08250E-18
 -1      2777 9.52358E-05-2.85758E-05-2.85686E-05 1.77834E-08 8.71312E-19-1.72615E-18
 -1      2778 9.52332E-05-2.85737E-05-2.85684E-05 1.36902E-08 1.11560E-18-1.70991E-18
 -1      2779 9.52339E-05-2.85737E-05-2.85687E-05 1.24037E-08 1.12196E-18-8.64785E-19
 -1      2780 9.52360E-05-2.85754E-05-2.85688E-05 1.49482E-08 8.80010E-19-1.01418E-18
 -1      2781 9.52340E-05-2.85735E-05-2.85688E-05 1.11596E-08 1.02051E-18 9.16330E-19
 -1      2782 9.52347E-05-2.85734E-05-2.85691E-05 1.00208E-08 1.24272E-18 7.74421E-19
 -1      2783 9.52362E-05-2.85750E-05-2.85691E-05 1.23018E-08 2.26759E-18 8.86378E-19
 -1      2784 9.52347E-05-2.85732E-05-2.85693E-05 8.93340E-09 1.00937E-18 1.16201E-18
 -1      2785 9.52353E-05-2.85731E-05-2.85695E-05 7.95226E-09 1.47365E-18 1.63751E-18
 -1      2786 9.52364E-05-2.85744E-05-2.85694E-05 9.93509E-09 1.43178E-18 1.95837E-18
 -1      2787 9.52354E-05-2.85729E-05-2.85696E-05 7.02426E-09 1.57893E-18-2.07927E-19
 -1      2788 9.52358E-05-2.85729E-05-2.85698E-05 6.19376E-09 1.23287E-18 2.70345E-19
 -1      2789 9.52365E-05-2.85739E-05-2.85697E-05 7.88149E-09 6.54935E-19 6.92412E-19
 -1      2790 9.52359E-05-2.85727E-05-2.85699E-05 5.41333E-09 1.29986E-18 5.28090E-19
 -1      2791 9.52362E-05-2.85726E-05-2.85701E-05 4.71468E-09 7.22403E-19-4.59331E-19
 -1      2792 9.52367E-05-2.85735E-05-2.85699E-05 6.13606E-09 1.49161E-18-9.44308E-19
 -1      2793 9.52363E-05-2.85725E-05-2.85702E-05 4.06519E-09 2.68463E-19 5.18837E-19
 -1      2794 9.52366E-05-2.85725E-05-2.85703E-05 3.47917E-09 3.12063E-19 8.96387E-19
 -1      2795 9.52369E-05-2.85732E-05-2.85702E-05 4.66733E-09 1.07420E-18 9.63976E-19
 -1      2796 1.17947E-04-3.44371E-05-3.59915E-05-8.93647E-06 1.14717E-18-2.20459E-18
 -1      2797 1.16634E-04-3.04171E-05-3.69411E-05-8.09690E-06 1.71233E-18-2.12306E-18
 -1      2798 1.21241E-04-3.74153E-05-3.59565E-05-7.92193E-06 1.11214E-18-3.85236E-18
 -1      2799 3.68268E-05-7.18165E-06-1.22801E-05 2.61645E-06-9.06511E-19 3.67909E-18
 -1      2800 3.59200E-05-7.71439E-06-1.15657E-05-9.30246E-06-3.85400E-20 3.92557E-18
 -1      2801 1.15014E-04-2.61259E-05-3.83535E-05-5.68786E-06 2.21669E-18-1.82099E-18
 -1      2802 1.14029E-04-2.29625E-05-3.90932E-05-1.69298E-06 2.69743E-18-1.26230E-18
 -1      2803 1.19187E-04-2.80559E-05-3.91997E-05-7.27078E-06 2.16608E-18-3.07791E-18
 -1      2804 1.15762E-04-4.04564E-05-3.22434E-05-9.19592E-07-2.72582E-19-1.74918E-18
 -1      2805 1.16683E-04-4.03618E-05-3.27523E-05-3.14807E-06 2.26510E-19-1.88814E-18
 -1      2806 1.19460E-04-4.18698E-05-3.32739E-05-2.96926E-06 8.26420E-20-3.24162E-18
 -1      2807 1.11589E-04-3.82495E-05-3.13716E-05 3.36283E-06-2.58123E-19-1.20297E-18
 -1      2808 1.13099E-04-3.93388E-05-3.16647E-05 1.51110E-06-3.82909E-19-1.27648E-18
 -1      2809 1.14853E-04-4.13562E-05-3.15483E-05 2.45257E-06-4.30667E-19-2.11231E-18
 -1      2810 1.07492E-04-3.52516E-05-3.09103E-05 5.97508E-06-2.16444E-19-1.11851E-18
 -1      2811 1.09069E-04-3.66182E-05-3.10891E-05 4.81544E-06-1.11861E-19-1.14218E-18
 -1      2812 1.09569E-04-3.81911E-05-3.06618E-05 6.11832E-06-9.52532E-20-1.51981E-18
 -1      2813 1.04188E-04-3.26266E-05-3.06354E-05 7.10195E-06 5.67358E-20-8.35509E-19
 -1      2814 1.05557E-04-3.38001E-05-3.07728E-05 6.57583E-06-3.66524E-20-9.20100E-19
 -1      2815 1.05101E-04-3.46344E-05-3.02599E-05 7.89972E-06-8.85472E-20-1.55921E-18
 -1      2816 1.01756E-04-3.07253E-05-3.04222E-05 7.21278E-06-2.40860E-19-5.64668E-19
 -1      2817 1.02854E-04-3.15769E-05-3.05529E-05 7.14395E-06-5.81516E-20-5.89517E-19
 -1      2818 1.01861E-04-3.17857E-05-3.00732E-05 8.33461E-06-1.16442E-19-9.31752E-19
 -1      2819 1.00029E-04-2.95022E-05-3.02163E-05 6.72296E-06-4.55819E-19-2.45196E-19
 -1      2820 1.00886E-04-3.00606E-05-3.03506E-05 6.93656E-06-3.92405E-19-3.25941E-19
 -1      2821 9.96890E-05-2.98523E-05-2.99552E-05 7.96291E-06-3.94715E-19-1.00891E-18
 -1      2822 9.88044E-05-2.87866E-05-3.00041E-05 5.93191E-06 1.94493E-19-1.44652E-19
 -1      2823 9.94727E-05-2.91269E-05-3.01400E-05 6.29209E-06-8.71858E-20-2.40169E-19
 -1      2824 9.82865E-05-2.86923E-05-2.98407E-05 7.16827E-06-2.94316E-19-8.51936E-19
 -1      2825 9.79194E-05-2.84076E-05-2.97906E-05 5.03398E-06 1.93423E-19-9.23324E-20
 -1      2826 9.84444E-05-2.86019E-05-2.99220E-05 5.44825E-06 2.25019E-19-5.88557E-20
 -1      2827 9.73847E-05-2.80792E-05-2.97108E-05 6.19577E-06 2.07958E-19-8.23964E-19
 -1      2828 9.72632E-05-2.82343E-05-2.95850E-05 4.14574E-06 6.96858E-19 1.02819E-19
 -1      2829 9.76783E-05-2.83372E-05-2.97065E-05 4.55715E-06 7.29154E-19 2.86915E-19
 -1      2830 9.67922E-05-2.78129E-05-2.95676E-05 5.19322E-06 3.56370E-19-6.22640E-19
 -1      2831 9.67651E-05-2.81789E-05-2.93959E-05 3.33090E-06 1.44140E-19 3.38235E-19
 -1      2832 9.70941E-05-2.82271E-05-2.95037E-05 3.70809E-06 3.12306E-19 3.99009E-19
 -1      2833 9.63874E-05-2.77484E-05-2.94202E-05 4.24520E-06 2.57907E-19-2.66415E-19
 -1      2834 9.63814E-05-2.81861E-05-2.92283E-05 2.61899E-06 8.03751E-20 7.11450E-19
 -1      2835 9.66412E-05-2.82030E-05-2.93209E-05 2.94754E-06 1.29305E-19 3.98774E-19
 -1      2836 9.60984E-05-2.77907E-05-2.92774E-05 3.39574E-06 9.55373E-20 2.12489E-19
 -1      2837 9.60839E-05-2.82233E-05-2.90847E-05 2.01844E-06 9.43113E-19 7.71232E-19
 -1      2838 9.62874E-05-2.82231E-05-2.91619E-05 2.29438E-06 5.85743E-19 6.94280E-19
 -1      2839 9.58840E-05-2.78823E-05-2.91458E-05 2.66301E-06 4.70173E-19 3.25735E-19
 -1      2840 9.58537E-05-2.82722E-05-2.89648E-05 1.52550E-06 7.37111E-19 1.46253E-18
 -1      2841 9.60113E-05-2.82633E-05-2.90277E-05 1.75084E-06 1.02892E-18 1.17436E-18
 -1      2842 9.57207E-05-2.79901E-05-2.90294E-05 2.04925E-06 5.28715E-19 1.05191E-18
 -1      2843 9.56768E-05-2.83227E-05-2.88671E-05 1.13002E-06 5.56540E-19 8.05833E-19
 -1      2844 9.57972E-05-2.83099E-05-2.89172E-05 1.30980E-06 1.10651E-18 1.18101E-18
 -1      2845 9.55946E-05-2.80965E-05-2.89296E-05 1.54741E-06 8.56456E-19 1.66458E-18
 -1      2846 9.55426E-05-2.83698E-05-2.87891E-05 8.19079E-07-7.14461E-19 9.44967E-19
 -1      2847 9.56330E-05-2.83560E-05-2.88282E-05 9.59591E-07-5.22277E-19 7.77253E-19
 -1      2848 9.54972E-05-2.81929E-05-2.88462E-05 1.14562E-06 1.99984E-19 1.49352E-18
 -1      2849 9.54423E-05-2.84114E-05-2.87280E-05 5.79203E-07 2.18453E-19 1.08795E-18
 -1      2850 9.55089E-05-2.83980E-05-2.87580E-05 6.86925E-07-3.72160E-19 1.29131E-18
 -1      2851 9.54223E-05-2.82761E-05-2.87783E-05 8.30067E-07-6.95791E-19 1.14974E-18
 -1      2852 9.53687E-05-2.84468E-05-2.86812E-05 3.97581E-07-3.98163E-19 1.76478E-18
 -1      2853 9.54167E-05-2.84346E-05-2.87037E-05 4.78599E-07 5.92724E-20 1.43329E-18
 -1      2854 9.53654E-05-2.83454E-05-2.87240E-05 5.86768E-07-1.98438E-19 2.12864E-18
 -1      2855 9.53158E-05-2.84761E-05-2.86459E-05 2.62706E-07-1.22572E-18 2.73419E-18
 -1      2856 9.53497E-05-2.84654E-05-2.86625E-05 3.22433E-07-1.96178E-19 2.29193E-18
 -1      2857 9.53229E-05-2.84016E-05-2.86815E-05 4.02608E-07-5.92172E-19 3.41837E-18
 -1      2858 9.52789E-05-2.84997E-05-2.86198E-05 1.64630E-07-1.16616E-18 2.86411E-18
 -1      2859 9.53020E-05-2.84907E-05-2.86318E-05 2.07703E-07-1.53963E-18 2.61794E-18
 -1      2860 9.52917E-05-2.84464E-05-2.86488E-05 2.65873E-07-1.05312E-18 3.66669E-18
 -1      2861 9.52539E-05-2.85186E-05-2.86010E-05 9.49969E-08 2.11112E-19 2.73819E-18
 -1      2862 9.52690E-05-2.85110E-05-2.86094E-05 1.25282E-07-3.21130E-19 2.80272E-18
 -1      2863 9.52693E-05-2.84813E-05-2.86241E-05 1.66462E-07-1.03705E-18 3.18854E-18
 -1      2864 9.52378E-05-2.85332E-05-2.85877E-05 4.69535E-08 5.68253E-20 1.54421E-18
 -1      2865 9.52471E-05-2.85271E-05-2.85934E-05 6.75977E-08 8.09707E-19 2.46819E-18
 -1      2866 9.52538E-05-2.85080E-05-2.86058E-05 9.58973E-08 5.34621E-19 3.15567E-18
 -1      2867 9.52280E-05-2.85445E-05-2.85787E-05 1.49903E-08 5.67350E-19 4.61407E-19
 -1      2868 9.52333E-05-2.85396E-05-2.85824E-05 2.85061E-08 1.14718E-19 6.43601E-19
 -1      2869 9.52433E-05-2.85282E-05-2.85926E-05 4.72279E-08 8.05041E-19 1.78626E-18
 -1      2870 9.52227E-05-2.85530E-05-2.85727E-05-5.23956E-09 1.01116E-18-3.38769E-19
 -1      2871 9.52251E-05-2.85492E-05-2.85750E-05 3.11697E-09 1.08318E-18 1.60568E-19
 -1      2872 9.52366E-05-2.85431E-05-2.85832E-05 1.48651E-08 5.71734E-19-2.94884E-19
 -1      2873 9.52204E-05-2.85593E-05-2.85691E-05-1.71053E-08-8.40020E-19 6.87613E-19
 -1      2874 9.52210E-05-2.85563E-05-2.85703E-05-1.23918E-08 2.19042E-19 5.24986E-19
 -1      2875 9.52325E-05-2.85538E-05-2.85768E-05-5.60071E-09 2.82591E-19 1.03039E-18
 -1      2876 9.52201E-05-2.85638E-05-2.85670E-05-2.31720E-08-1.58566E-19 8.22347E-19
 -1      2877 9.52196E-05-2.85616E-05-2.85676E-05-2.09550E-08-6.00257E-19 7.99290E-19
 -1      2878 9.52304E-05-2.85614E-05-2.85726E-05-1.75877E-08-5.54966E-19 4.37505E-19
 -1      2879 9.52210E-05-2.85670E-05-2.85660E-05-2.53565E-08 1.81934E-19 1.65120E-18
 -1      2880 9.52198E-05-2.85654E-05-2.85661E-05-2.47853E-08 5.91609E-20 2.08382E-18
 -1      2881 9.52296E-05-2.85666E-05-2.85699E-05-2.36983E-08-6.94258E-19 6.72945E-19
 -1      2882 9.52226E-05-2.85692E-05-2.85657E-05-2.50628E-08-5.61538E-19 1.61413E-18
 -1      2883 9.52211E-05-2.85680E-05-2.85656E-05-2.55193E-08 4.11210E-19 1.96744E-18
 -1      2884 9.52295E-05-2.85700E-05-2.85684E-05-2.58771E-08 1.81973E-20 3.98098E-18
 -1      2885 9.52245E-05-2.85707E-05-2.85659E-05-2.32960E-08-6.07752E-19 2.06281E-18
 -1      2886 9.52229E-05-2.85698E-05-2.85656E-05-2.43418E-08-7.42293E-19 1.58865E-18
 -1      2887 9.52300E-05-2.85721E-05-2.85677E-05-2.55481E-08-1.90667E-19 3.43157E-18
 -1      2888 9.52265E-05-2.85716E-05-2.85664E-05-2.07562E-08 3.08039E-19 6.77088E-19
 -1      2889 9.52249E-05-2.85710E-05-2.85660E-05-2.20894E-08 2.47920E-19 1.57694E-18
 -1      2890 9.52308E-05-2.85734E-05-2.85675E-05-2.37304E-08 1.86011E-19 1.40489E-18
 -1      2891 9.52284E-05-2.85721E-05-2.85670E-05-1.79149E-08-1.58361E-18 7.06252E-19
 -1      2892 9.52269E-05-2.85717E-05-2.85665E-05-1.93351E-08-7.09533E-19 7.66098E-19
 -1      2893 9.52316E-05-2.85740E-05-2.85676E-05-2.11336E-08-5.14296E-19 1.19381E-18
 -1      2894 9.52301E-05-2.85723E-05-2.85676E-05-1.50748E-08-5.94940E-19 9.60554E-19
 -1      2895 9.52288E-05-2.85721E-05-2.85672E-05-1.64561E-08-1.09933E-18 9.15023E-19
 -1      2896 9.52325E-05-2.85741E-05-2.85679E-05-1.82351E-08-1.29830E-18 3.12670E-19
 -1      2897 9.52316E-05-2.85724E-05-2.85682E-05-1.24172E-08-9.70827E-19 3.37997E-19
 -1      2898 9.52305E-05-2.85723E-05-2.85678E-05-1.36870E-08-1.21188E-18 7.13301E-19
 -1      2899 9.52334E-05-2.85740E-05-2.85683E-05-1.53413E-08-8.70491E-19 2.53069E-19
 -1      2900 9.52328E-05-2.85724E-05-2.85688E-05-1.00370E-08 5.48484E-19 3.60677E-19
 -1      2901 9.52319E-05-2.85723E-05-2.85684E-05-1.11602E-08-2.71321E-19 2.41618E-19
 -1      2902 9.52341E-05-2.85738E-05-2.85687E-05-1.26349E-08-4.02169E-19-4.28595E-19
 -1      2903 9.52339E-05-2.85723E-05-2.85692E-05-7.97027E-09 4.11034E-19 6.86318E-19
 -1      2904 9.52332E-05-2.85723E-05-2.85690E-05-8.93706E-09 7.48125E-19 1.06975E-18
 -1      2905 9.52348E-05-2.85735E-05-2.85691E-05-1.02114E-08 3.44032E-19 1.24368E-19
 -1      2906 9.52348E-05-2.85722E-05-2.85697E-05-6.21368E-09 1.80328E-18 3.02928E-19
 -1      2907 9.52342E-05-2.85722E-05-2.85694E-05-7.03074E-09 1.55472E-18 1.46605E-18
 -1      2908 9.52353E-05-2.85732E-05-2.85695E-05-8.10671E-09 1.02023E-18 1.05473E-18
 -1      2909 9.52355E-05-2.85722E-05-2.85700E-05-4.74215E-09-1.17180E-19 1.62420E-19
 -1      2910 9.52350E-05-2.85721E-05-2.85698E-05-5.41859E-09 1.07696E-18 2.68509E-19
 -1      2911 9.52358E-05-2.85729E-05-2.85698E-05-6.31896E-09 1.35705E-18 1.17764E-18
 -1      2912 9.52362E-05-2.85722E-05-2.85703E-05-3.69523E-09-1.22224E-18 2.23073E-18
 -1      2913 9.52358E-05-2.85722E-05-2.85701E-05-4.27439E-09-9.61794E-19 4.38161E-19
 -1      2914 9.52364E-05-2.85728E-05-2.85701E-05-5.00185E-09-4.35648E-19 1.58469E-18
 -1      2915 9.52368E-05-2.85729E-05-2.85702E-05-4.04504E-09-4.02957E-20-3.46003E-19
 -1      2916 1.24021E-04-1.09302E-05-4.89976E-05-6.31867E-06-4.99114E-18-2.89413E-18
 -1      2917 1.24261E-04-1.16577E-05-4.87625E-05-1.19548E-05-5.18490E-18-1.97295E-18
 -1      2918 9.52399E-05-2.85760E-05-2.85703E-05-3.00832E-10 1.21461E-18 1.00362E-19
 -1      2919 9.52399E-05-2.85759E-05-2.85703E-05-8.21001E-10 2.44820E-18 6.11492E-19
 -1      2920 9.52367E-05-2.85724E-05-2.85704E-05 3.10233E-09-6.42468E-19 1.28092E-18
 -1      2921 9.52368E-05-2.85724E-05-2.85705E-05 2.74865E-09-1.08471E-18 1.20043E-18
 -1      2922 9.52371E-05-2.85728E-05-2.85704E-05 2.87233E-09-3.33208E-19 2.59070E-18
 -1      2923 9.52370E-05-2.85729E-05-2.85703E-05 3.61111E-09 5.90208E-21 2.19902E-18
 -1      2924 9.52392E-05-2.85752E-05-2.85703E-05-2.31335E-09 2.32207E-18-1.56079E-19
 -1      2925 9.52389E-05-2.85749E-05-2.85703E-05-2.62844E-09 2.27789E-18-7.16745E-19
 -1      2926 9.52399E-05-2.85759E-05-2.85703E-05 8.39684E-10-5.30378E-19 3.14669E-19
 -1      2927 9.52399E-05-2.85760E-05-2.85703E-05 3.20064E-10-5.32540E-20 6.54123E-19
 -1      2928 9.52404E-05-2.85764E-05-2.85703E-05 1.10813E-11 3.76147E-19-9.00673E-19
 -1      2929 9.52397E-05-2.85757E-05-2.85703E-05-1.40170E-09 2.27616E-18 3.42170E-19
 -1      2930 9.52395E-05-2.85755E-05-2.85703E-05-1.85058E-09 2.21303E-18 5.89893E-19
 -1      2931 9.52397E-05-2.85757E-05-2.85703E-05-2.35499E-09 1.97519E-18-2.46616E-19
 -1      2932 9.52402E-05-2.85762E-05-2.85703E-05-1.25417E-09 2.10746E-18 6.66744E-19
 -1      2933 9.52395E-05-2.85755E-05-2.85703E-05 1.85041E-09 1.79067E-20-7.00722E-19
 -1      2934 9.52397E-05-2.85757E-05-2.85703E-05 1.40970E-09-8.09910E-19 5.07355E-19
 -1      2935 9.52402E-05-2.85762E-05-2.85703E-05 1.26488E-09 6.33299E-19-7.53293E-20
 -1      2936 9.52389E-05-2.85749E-05-2.85703E-05 2.62662E-09 7.95136E-19 5.28470E-19
 -1      2937 9.52392E-05-2.85752E-05-2.85703E-05 2.31275E-09 4.16427E-19-1.41835E-21
 -1      2938 9.52397E-05-2.85757E-05-2.85703E-05 2.35461E-09 5.53830E-19 6.41440E-19
 -1      2939 9.52382E-05-2.85740E-05-2.85704E-05 3.03206E-09 7.54068E-19 1.45871E-19
 -1      2940 9.52385E-05-2.85744E-05-2.85703E-05 2.91000E-09 1.66586E-18-4.48051E-19
 -1      2941 9.52390E-05-2.85749E-05-2.85703E-05 3.14279E-09 8.53381E-19 2.91088E-19
 -1      2942 9.52375E-05-2.85732E-05-2.85704E-05 2.95797E-09 3.96349E-19 2.60072E-18
 -1      2943 6.36036E-05-2.66084E-05-1.55034E-05-3.64794E-05 2.77393E-18 2.11123E-18
 -1      2944 7.98983E-05-3.62477E-05-1.86148E-05-4.01903E-05 2.96906E-18 1.58718E-18
 -1      2945 9.43577E-05-4.31833E-05-2.15697E-05-3.75680E-05 2.93899E-18 3.97655E-19
 -1      2946 1.08766E-04-4.88934E-05-2.58049E-05-3.25371E-05 2.56820E-18-1.11852E-18
 -1      2947 9.04543E-05-3.95383E-05-2.14184E-05-3.54648E-05 3.05080E-18 6.16931E-19
 -1      2948 3.94455E-05-1.34920E-05-1.05978E-05 2.29989E-05-1.78343E-18 4.07677E-18
 -1      2949 1.33195E-04-3.49699E-05-4.23794E-05 2.44520E-06-1.69025E-18-5.03498E-18
 -1      2950 1.30412E-04-2.64923E-05-4.52048E-05 4.24222E-06-2.82771E-18-4.73015E-18
 -1      2951 4.04646E-05-1.11024E-05-1.21495E-05-1.91306E-05 1.01340E-18 3.82774E-18
 -1      2952 5.09510E-05-1.77243E-05-1.39221E-05-3.00579E-05 1.94638E-18 2.74375E-18
 -1      2953 4.76910E-05-1.10601E-05-1.51200E-05-1.42809E-05 6.91682E-19 3.14916E-18
 -1      2954 1.20501E-04-3.20971E-05-3.80685E-05-2.17736E-05-1.91711E-18-4.93855E-19
 -1      2955 1.19785E-04-3.12459E-05-3.78967E-05-2.15155E-05-2.13022E-18-1.91572E-19
 -1      2956 1.20995E-04-3.25650E-05-3.79390E-05-2.09157E-05-1.40869E-18-5.05837E-19
 -1      2957 9.18909E-05-3.04210E-05-2.60119E-05-1.87307E-05-7.27919E-19-3.18426E-18
 -1      2958 1.34613E-04-3.70163E-05-4.24483E-05-2.69012E-06 2.86361E-18-4.53766E-18
 -1      2959 1.35037E-04-4.35763E-05-3.92920E-05 1.17651E-06 1.75299E-18-4.59769E-18
 -1      2960 1.28144E-04-3.93213E-05-3.85592E-05-4.22672E-06-1.82742E-18-4.43634E-19
 -1      2961 1.20137E-04-3.91768E-05-3.47496E-05 2.58238E-06-5.43689E-19-5.21402E-19
 -1      2962 1.32949E-04-4.94356E-05-3.61695E-05 9.45794E-06 9.97117E-19-4.45433E-18
 -1      2963 1.26903E-04-5.20210E-05-3.21354E-05 1.75296E-05-1.35366E-19-3.49481E-18
 -1      2964 1.02815E-04-3.58991E-05-2.86934E-05-1.41107E-05-1.20490E-19-2.33172E-18
 -1      2965 1.16171E-04-4.09652E-05-3.23054E-05-7.95728E-06 5.42948E-19-1.68369E-18
 -1      2966 1.22502E-04-4.18986E-05-3.47082E-05 5.02222E-07 6.83344E-19-8.02723E-19
 -1      2967 1.03085E-04-3.45229E-05-2.93400E-05-1.00468E-05-8.21410E-19-1.97066E-18
 -1      2968 1.30797E-04-3.00402E-05-4.39648E-05-1.75848E-05-3.75521E-18-1.17843E-19
 -1      2969 1.31658E-04-3.53969E-05-4.12859E-05-1.19352E-05-2.71675E-18-1.32243E-19
 -1      2970 1.28214E-04-3.66666E-05-3.91493E-05-1.22945E-05-1.51581E-18-1.81953E-19
 -1      2971 1.26535E-04-1.60873E-05-4.79991E-05-1.64135E-05-5.14064E-18-1.37066E-18
 -1      2972 1.28616E-04-2.19281E-05-4.59003E-05-1.93306E-05-4.48610E-18-3.94929E-19
 -1      2973 7.78695E-05-2.43195E-05-2.31481E-05 2.58659E-05 2.20271E-18-3.13124E-18
 -1      2974 1.29411E-04-1.84893E-05-4.79598E-05 1.85659E-05 5.18765E-18 8.00446E-20
 -1      2975 1.27337E-04-1.41688E-05-4.91507E-05 1.37577E-05 5.74500E-18-6.22755E-19
 -1      2976 1.27647E-04-1.83319E-05-4.72436E-05 3.24713E-06-3.82541E-18-4.31881E-18
 -1      2977 1.24976E-04-1.32608E-05-4.85117E-05-1.11050E-06-4.57758E-18-3.40028E-18
 -1      2978 1.18827E-04-2.96155E-05-3.83863E-05-2.07218E-05-2.35270E-18-2.31460E-19
 -1      2979 1.16719E-04-2.67912E-05-3.85489E-05-1.87774E-05-2.65169E-18-2.42010E-19
 -1      2980 1.17800E-04-2.39976E-05-4.02685E-05-1.88769E-05-3.01149E-18-3.80635E-19
 -1      2981 1.20443E-04-2.93860E-05-3.90648E-05-2.21365E-05-2.25333E-18-4.87441E-20
 -1      2982 1.27169E-04-1.17758E-05-5.00213E-05 8.48089E-06 5.94384E-18-1.51764E-18
 -1      2983 1.27892E-04-1.29078E-05-4.98458E-05 2.90457E-06 5.73865E-18-2.18378E-18
 -1      2984 5.00319E-05-1.66879E-05-1.38589E-05 2.80062E-05-2.28376E-18 2.84307E-18
 -1      2985 4.16146E-05-1.05032E-05-1.28479E-05 1.72246E-05-1.60042E-18 3.54081E-18
 -1      2986 1.15723E-04-3.71567E-05-3.35538E-05 2.35673E-07 7.62038E-19-8.52115E-19
 -1      2987 1.20411E-04-3.72247E-05-3.58907E-05-8.14773E-06-2.25258E-20-7.29891E-19
 -1      2988 1.23909E-04-3.32733E-05-3.88691E-05 2.26395E-05 2.03707E-18 1.42402E-18
 -1      2989 1.22824E-04-3.43086E-05-3.79254E-05 2.14235E-05 1.85749E-18 2.11960E-18
 -1      2990 1.21266E-04-1.54156E-05-4.56962E-05-1.43852E-05-4.57578E-18-1.44919E-18
 -1      2991 9.52386E-05-2.85744E-05-2.85703E-05-2.90513E-09 2.15954E-18-1.23846E-18
 -1      2992 9.52382E-05-2.85740E-05-2.85704E-05-3.05642E-09 1.55974E-18-4.06163E-19
 -1      2993 9.52390E-05-2.85749E-05-2.85703E-05-3.13858E-09 3.01818E-18-5.61388E-19
 -1      2994 1.24744E-04-3.55375E-05-3.83040E-05 2.21576E-05 1.60682E-18 2.10959E-18
 -1      2995 1.15624E-04-3.85437E-05-3.28764E-05 3.47014E-07-3.41434E-19-8.18710E-19
 -1      2996 1.22869E-04-1.47047E-05-4.67148E-05 1.12009E-05 5.04662E-18-6.75879E-19
 -1      2997 4.35787E-05-9.09666E-06-1.42256E-05 9.54707E-06-1.10366E-18 3.60264E-18
 -1      2998 4.71496E-05-8.63972E-06-1.62994E-05 1.91058E-06-6.87056E-19 2.90998E-18
 -1      2999 5.19231E-05-1.18758E-05-1.68534E-05 1.46823E-05-1.44401E-18 2.76133E-18
 -1      3000 1.16438E-04-2.02403E-05-4.14472E-05 1.02482E-06 3.25298E-18-1.90659E-18
 -1      3001 1.13499E-04-2.15644E-05-3.95557E-05 3.67428E-06 2.84389E-18-5.99198E-19
 -1      3002 1.00988E-04-4.48533E-05-2.40522E-05 3.21029E-05-2.22658E-18-6.56609E-19
 -1      3003 9.08774E-05-4.11199E-05-2.10200E-05 3.78156E-05-2.26412E-18 3.25578E-20
 -1      3004 8.35048E-05-3.55988E-05-2.01703E-05 3.59726E-05-2.65349E-18 6.57298E-19
 -1      3005 1.20360E-04-1.39363E-05-4.59280E-05-2.99486E-06-4.23474E-18-2.93145E-18
 -1      3006 1.25608E-04-1.74233E-05-4.67681E-05-6.20676E-07 4.72729E-18-2.81183E-18
 -1      3007 9.52375E-05-2.85733E-05-2.85704E-05-3.13745E-09 9.20820E-20-9.41925E-19
 -1      3008 1.31321E-04-4.69679E-05-3.62912E-05 3.00720E-06 6.81941E-19-4.63613E-18
 -1      3009 1.22150E-04-5.21367E-05-2.99952E-05 2.17493E-05-9.65088E-19-2.81940E-18
 -1      3010 1.14412E-04-4.93656E-05-2.76908E-05 2.50001E-05-1.64372E-18-2.44420E-18
 -1      3011 1.24494E-04-5.10513E-05-3.15104E-05 1.33357E-05-9.78217E-19-4.12791E-18
 -1      3012 9.52374E-05-2.85733E-05-2.85703E-05 3.52566E-09 2.62386E-19 1.58530E-18
 -1      3013 9.52379E-05-2.85737E-05-2.85703E-05 3.23799E-09 7.97743E-19 1.51697E-18
 -1      3014 9.52382E-05-2.85741E-05-2.85703E-05 3.62947E-09 1.88964E-18-3.80084E-19
 -1      3015 9.52374E-05-2.85734E-05-2.85703E-05 3.92982E-09 4.45365E-19 1.61436E-18
 -1      3016 6.40264E-05-2.30783E-05-1.70401E-05-3.08571E-05 2.23754E-18 2.11832E-18
 -1      3017 6.93358E-05-2.66267E-05-1.81165E-05 3.34081E-05-2.68372E-18 1.87406E-18
 -1      3018 5.90044E-05-2.11670E-05-1.56942E-05 3.07963E-05-2.56445E-18 2.45481E-18
 -1      3019 5.96291E-05-1.84924E-05-1.73334E-05 2.58047E-05-2.28524E-18 2.34988E-18
 -1      3020 1.13761E-04-2.22010E-05-3.93861E-05 7.72143E-06 2.78518E-18 7.46712E-20
 -1      3021 1.12800E-04-4.91071E-05-2.71416E-05-2.64240E-05 2.30086E-18-1.90860E-18
 -1      3022 1.19273E-04-5.13691E-05-2.88741E-05-2.43004E-05 2.18942E-18-2.38683E-18
 -1      3023 1.14920E-04-2.41746E-05-3.89267E-05 1.26793E-05 2.78894E-18 8.87697E-19
 -1      3024 1.16558E-04-2.67387E-05-3.86140E-05 1.57517E-05 2.68901E-18 1.58798E-18
 -1      3025 1.19955E-04-2.68125E-05-4.00394E-05 1.95770E-05 2.99341E-18 1.24945E-18
 -1      3026 1.16762E-04-2.05790E-05-4.14180E-05 1.19400E-05 3.49973E-18-1.13390E-19
 -1      3027 1.26426E-04-5.12204E-05-3.25450E-05-1.82550E-05 1.40147E-18-3.51159E-18
 -1      3028 1.33923E-04-4.24102E-05-3.97357E-05-2.42578E-06-7.44939E-19-4.82046E-18
 -1      3029 1.30108E-04-3.91633E-05-3.91534E-05 2.67093E-06-9.13154E-19-4.81506E-18
 -1      3030 1.34698E-04-3.82433E-05-4.15285E-05 1.47331E-05 2.74410E-18 4.82809E-19
 -1      3031 1.31723E-04-3.39930E-05-4.22893E-05 1.99888E-05 2.90098E-18 1.05646E-18
 -1      3032 1.30707E-04-3.96768E-05-3.89419E-05 1.32718E-05 1.84500E-18 8.10716E-19
 -1      3033 1.28740E-04-2.32172E-05-4.55461E-05 1.95472E-05 4.35015E-18 5.98958E-19
 -1      3034 1.27694E-04-3.61384E-05-3.92493E-05 2.16706E-05 1.90114E-18 1.51129E-18
 -1      3035 1.26275E-04-3.76934E-05-3.82565E-05 1.81694E-05 1.45126E-18 1.03343E-18
 -1      3036 1.27008E-04-2.60924E-05-4.33979E-05-1.98423E-05-3.52757E-18-1.27373E-19
 -1      3037 1.24853E-04-3.91699E-05-3.67956E-05 1.21133E-05 7.26437E-19 5.44113E-19
 -1      3038 1.30666E-04-3.25637E-05-4.23721E-05-5.89245E-06 2.99172E-18-4.63422E-18
 -1      3039 1.10249E-04-3.69698E-05-3.16167E-05 9.26302E-06 7.85252E-19-1.23699E-18
 -1      3040 1.22164E-04-4.03126E-05-3.54294E-05 5.81345E-06 4.65550E-19-1.47503E-19
 -1      3041 1.32338E-04-4.74750E-05-3.64470E-05-8.19194E-06 4.53771E-19-4.43962E-18
 -1      3042 9.54785E-05-3.07135E-05-2.75353E-05 1.59632E-05 1.87332E-18-2.09930E-18
 -1      3043 1.25263E-04-2.40811E-05-4.35794E-05 5.29272E-06-2.84391E-18-3.93426E-18
 -1      3044 1.16788E-04-1.61741E-05-4.34655E-05-1.26812E-05-4.05708E-18-1.51218E-18
 -1      3045 1.18842E-04-1.95642E-05-4.28120E-05-1.78194E-05-3.84669E-18-7.51133E-19
 -1      3046 1.13263E-04-4.18127E-05-3.05087E-05 7.07691E-06-6.58409E-19-2.44034E-18
 -1      3047 1.15995E-04-4.34533E-05-3.11300E-05 5.02299E-06-8.48978E-19-3.01145E-18
 -1      3048 1.16537E-04-1.63498E-05-4.32131E-05-9.40843E-07-3.64754E-18-3.00176E-18
 -1      3049 1.17776E-04-2.05870E-05-4.21648E-05 4.00071E-06-2.91311E-18-3.41047E-18
 -1      3050 1.20999E-04-2.68309E-05-4.05585E-05 6.37845E-06-2.13071E-18-3.96062E-18
 -1      3051 1.22910E-04-3.34074E-05-3.86466E-05 7.29935E-06-1.04500E-18-4.13966E-18
 -1      3052 1.19066E-04-4.31948E-05-3.26031E-05 5.30773E-08 4.70580E-19-3.37201E-18
 -1      3053 1.17364E-04-4.35626E-05-3.15609E-05-2.43068E-06 5.79172E-19-3.12531E-18
 -1      3054 1.13536E-04-4.21530E-05-3.06316E-05-5.03755E-06 4.34730E-19-2.54730E-18
 -1      3055 1.11043E-04-4.06225E-05-3.00837E-05-6.73057E-06 3.51803E-19-2.22519E-18
 -1      3056 1.15450E-04-4.42658E-05-3.06166E-05-7.03535E-06 7.72547E-19-2.96360E-18
 -1      3057 1.07723E-04-3.84756E-05-2.96904E-05-7.81492E-06 2.23678E-19-1.72817E-18
 -1      3058 1.05384E-04-3.65140E-05-2.94413E-05-8.68312E-06 4.31836E-19-1.49234E-18
 -1      3059 1.08006E-04-4.00066E-05-2.92724E-05-1.01335E-05 5.45486E-19-1.75228E-18
 -1      3060 1.02999E-04-3.45583E-05-2.93254E-05-8.79849E-06 3.29660E-19-1.42138E-18
 -1      3061 1.01198E-04-3.28932E-05-2.92289E-05-9.04030E-06 2.08320E-19-1.21266E-18
 -1      3062 1.02353E-04-3.53388E-05-2.88128E-05-1.08235E-05 4.23103E-19-1.61451E-18
 -1      3063 9.96992E-05-3.14635E-05-2.92299E-05-8.69115E-06 2.43244E-19-1.37054E-18
 -1      3064 9.84459E-05-3.02636E-05-2.91970E-05-8.55552E-06 2.70424E-19-1.26357E-18
 -1      3065 9.85641E-05-3.16298E-05-2.87447E-05-1.02124E-05 2.38971E-19-1.16493E-18
 -1      3066 9.75947E-05-2.93467E-05-2.92341E-05-8.01575E-06-8.50714E-21-8.66597E-19
 -1      3067 9.67799E-05-2.85814E-05-2.92175E-05-7.67766E-06-9.70703E-20-8.58230E-19
 -1      3068 9.62989E-05-2.91250E-05-2.88226E-05-9.09685E-06 3.28435E-19-5.49349E-19
 -1      3069 9.63517E-05-2.80657E-05-2.92523E-05-7.09067E-06-4.87441E-19-7.32195E-19
 -1      3070 9.58435E-05-2.76309E-05-2.92315E-05-6.65952E-06-4.56470E-19-9.91762E-19
 -1      3071 9.50804E-05-2.76276E-05-2.89263E-05-7.84633E-06-3.06022E-19-4.63383E-19
 -1      3072 9.56692E-05-2.73929E-05-2.92504E-05-6.08996E-06-1.64809E-19-8.46282E-19
 -1      3073 9.53590E-05-2.71837E-05-2.92198E-05-5.63217E-06 2.16021E-19-4.86760E-19
 -1      3074 9.45159E-05-2.68577E-05-2.90050E-05-6.62732E-06-3.18623E-19-2.76799E-20
 -1      3075 9.53256E-05-2.71215E-05-2.92213E-05-5.10830E-06 2.62773E-19-5.19291E-19
 -1      3076 9.51373E-05-2.70544E-05-2.91823E-05-4.66351E-06 2.11206E-19-3.79762E-19
 -1      3077 9.43299E-05-2.65663E-05-2.90449E-05-5.50460E-06 2.92163E-19-2.17813E-20
 -1      3078 9.51744E-05-2.70942E-05-2.91696E-05-4.19724E-06-1.68298E-19-2.39066E-19
 -1      3079 9.50587E-05-2.71097E-05-2.91256E-05-3.78819E-06 1.31631E-20-7.78666E-20
 -1      3080 9.43450E-05-2.65660E-05-2.90489E-05-4.50183E-06 3.86706E-21-4.33400E-19
 -1      3081 9.51249E-05-2.72017E-05-2.91034E-05-3.38339E-06-3.12617E-19-1.89367E-19
 -1      3082 9.50520E-05-2.72603E-05-2.90582E-05-3.02172E-06-2.86606E-19-7.60670E-19
 -1      3083 9.44540E-05-2.67263E-05-2.90258E-05-3.62571E-06-4.27922E-19-2.48919E-19
 -1      3084 9.51246E-05-2.73730E-05-2.90308E-05-2.67776E-06 2.44685E-19-1.11616E-18
 -1      3085 9.50768E-05-2.74498E-05-2.89872E-05-2.36771E-06 3.26386E-19-7.60340E-19
 -1      3086 9.45954E-05-2.69619E-05-2.89850E-05-2.87482E-06-1.95138E-19-3.73834E-19
 -1      3087 9.51444E-05-2.75645E-05-2.89580E-05-2.08118E-06 1.58378E-19-9.02389E-19
 -1      3088 9.51117E-05-2.76449E-05-2.89180E-05-1.82218E-06 2.67677E-19-1.15778E-18
 -1      3089 9.47368E-05-2.72201E-05-2.89349E-05-2.24293E-06 1.79077E-19-3.10877E-19
 -1      3090 9.51694E-05-2.77514E-05-2.88894E-05-1.58793E-06-1.01295E-19-1.57456E-18
 -1      3091 9.51461E-05-2.78271E-05-2.88540E-05-1.37643E-06-5.78396E-20-1.67884E-18
 -1      3092 9.48626E-05-2.74703E-05-2.88818E-05-1.72065E-06-3.86564E-20-7.48577E-19
 -1      3093 9.51928E-05-2.79206E-05-2.88276E-05-1.18836E-06-1.04571E-19-1.47069E-18
 -1      3094 9.51757E-05-2.79878E-05-2.87973E-05-1.01920E-06-2.46900E-19-1.35638E-18
 -1      3095 9.49674E-05-2.76964E-05-2.88299E-05-1.29652E-06-1.94377E-19-1.04110E-18
 -1      3096 9.52118E-05-2.80666E-05-2.87737E-05-8.70879E-07 3.34367E-19-1.36795E-18
 -1      3097 9.51990E-05-2.81238E-05-2.87485E-05-7.38209E-07 5.71115E-19-7.40319E-19
 -1      3098 9.50505E-05-2.78916E-05-2.87821E-05-9.58058E-07 1.48435E-19-7.02763E-19
 -1      3099 9.52261E-05-2.81883E-05-2.87282E-05-6.23302E-07 1.54131E-19-3.59623E-19
 -1      3100 9.52164E-05-2.82354E-05-2.87076E-05-5.21227E-07 3.26704E-19-4.29660E-19
 -1      3101 9.51141E-05-2.80545E-05-2.87397E-05-6.92640E-07 7.58409E-19-2.77792E-19
 -1      3102 9.52359E-05-2.82870E-05-2.86906E-05-4.33822E-07 4.06067E-19-8.31313E-19
 -1      3103 9.52286E-05-2.83249E-05-2.86742E-05-3.56804E-07 6.00072E-19-6.02124E-19
 -1      3104 9.51611E-05-2.81868E-05-2.87032E-05-4.88158E-07 1.66287E-19-7.54534E-19
 -1      3105 9.52423E-05-2.83651E-05-2.86603E-05-2.91591E-07 7.39592E-19-9.39126E-19
 -1      3106 9.52367E-05-2.83949E-05-2.86473E-05-2.34662E-07 5.21954E-19-6.01147E-19
 -1      3107 9.51948E-05-2.82917E-05-2.86728E-05-3.33494E-07 6.86003E-19-1.27712E-18
 -1      3108 9.52459E-05-2.84257E-05-2.86362E-05-1.87020E-07-2.07541E-19-5.91936E-19
 -1      3109 9.52418E-05-2.84486E-05-2.86263E-05-1.45884E-07-6.48956E-19-2.40650E-19
 -1      3110 9.52180E-05-2.83732E-05-2.86479E-05-2.18786E-07-5.89816E-20-1.44941E-18
 -1      3111 9.52476E-05-2.84716E-05-2.86175E-05-1.11900E-07-9.45088E-19 2.18286E-19
 -1      3112 9.52446E-05-2.84889E-05-2.86100E-05-8.29420E-08-5.43421E-19 2.49935E-19
 -1      3113 9.52334E-05-2.84352E-05-2.86279E-05-1.35537E-07-1.76303E-19-8.31709E-19
 -1      3114 9.52480E-05-2.85058E-05-2.86032E-05-5.93800E-08-6.95361E-19-7.91885E-20
 -1      3115 9.52458E-05-2.85185E-05-2.85977E-05-3.96329E-08-5.37611E-19 4.30468E-19
 -1      3116 9.52429E-05-2.84814E-05-2.86122E-05-7.66076E-08-6.44572E-19-5.62333E-19
 -1      3117 9.52476E-05-2.85306E-05-2.85926E-05-2.38704E-08-4.27178E-19 3.94289E-19
 -1      3118 9.52460E-05-2.85398E-05-2.85886E-05-1.09499E-08-2.42886E-19 3.05067E-19
 -1      3119 9.52483E-05-2.85150E-05-2.86001E-05-3.61314E-08-4.91013E-19-7.23162E-19
 -1      3120 9.52466E-05-2.85482E-05-2.85848E-05-9.03913E-10-4.69063E-19 5.39307E-19
 -1      3121 9.52456E-05-2.85546E-05-2.85819E-05 7.06817E-09 4.53331E-19 1.52532E-19
 -1      3122 9.52509E-05-2.85389E-05-2.85909E-05-9.38446E-09-2.07080E-19-2.05034E-19
 -1      3123 9.52454E-05-2.85602E-05-2.85792E-05 1.30215E-08 7.87190E-19-6.33434E-19
 -1      3124 9.52448E-05-2.85646E-05-2.85773E-05 1.74970E-08 5.57968E-19-4.30601E-19
 -1      3125 9.52516E-05-2.85554E-05-2.85841E-05 7.36455E-09-1.31141E-19-6.17278E-19
 -1      3126 9.52442E-05-2.85682E-05-2.85753E-05 2.06003E-08 2.45469E-19-4.12628E-19
 -1      3127 9.52438E-05-2.85711E-05-2.85740E-05 2.26798E-08 2.54596E-19-5.89627E-19
 -1      3128 9.52510E-05-2.85664E-05-2.85792E-05 1.70089E-08 2.57404E-19-2.10931E-18
 -1      3129 9.52430E-05-2.85732E-05-2.85727E-05 2.38657E-08 6.71339E-19-6.89754E-19
 -1      3130 9.52428E-05-2.85750E-05-2.85719E-05 2.43674E-08 2.63651E-19-3.75148E-19
 -1      3131 9.52498E-05-2.85733E-05-2.85757E-05 2.17503E-08 5.26590E-19-1.64801E-18
 -1      3132 9.52419E-05-2.85761E-05-2.85710E-05 2.43216E-08-3.37338E-19 1.77573E-19
 -1      3133 9.52418E-05-2.85771E-05-2.85706E-05 2.38404E-08 1.47317E-19 5.29133E-19
 -1      3134 9.52483E-05-2.85773E-05-2.85733E-05 2.32317E-08 3.45443E-19-9.00268E-19
 -1      3135 9.52409E-05-2.85775E-05-2.85700E-05 2.30556E-08-2.37517E-19-4.31311E-19
 -1      3136 9.52409E-05-2.85780E-05-2.85698E-05 2.20135E-08-8.59831E-19 2.59060E-19
 -1      3137 9.52466E-05-2.85793E-05-2.85717E-05 2.26537E-08-8.21609E-19 3.20206E-19
 -1      3138 9.52401E-05-2.85779E-05-2.85695E-05 2.08343E-08-1.21383E-18 1.44214E-18
 -1      3139 9.52401E-05-2.85780E-05-2.85694E-05 1.95214E-08-5.01039E-19 7.74333E-19
 -1      3140 9.52450E-05-2.85800E-05-2.85707E-05 2.08725E-08-3.66868E-19 4.61003E-19
 -1      3141 9.52394E-05-2.85778E-05-2.85693E-05 1.81808E-08 4.05321E-19 8.25229E-19
 -1      3142 9.52394E-05-2.85777E-05-2.85693E-05 1.67894E-08 8.85561E-19-7.10405E-20
 -1      3143 9.52435E-05-2.85799E-05-2.85702E-05 1.84814E-08-1.51863E-19 6.84833E-19
 -1      3144 9.52388E-05-2.85772E-05-2.85693E-05 1.54379E-08 7.28938E-19 5.51176E-19
 -1      3145 9.52389E-05-2.85770E-05-2.85694E-05 1.40882E-08 1.67163E-18 1.31086E-18
 -1      3146 9.52422E-05-2.85792E-05-2.85699E-05 1.58771E-08 7.96109E-19 2.63387E-18
 -1      3147 9.52384E-05-2.85765E-05-2.85694E-05 1.28165E-08 2.24414E-18 6.93153E-19
 -1      3148 9.52385E-05-2.85762E-05-2.85695E-05 1.15773E-08 2.51037E-18 7.79295E-19
 -1      3149 9.52411E-05-2.85783E-05-2.85698E-05 1.33113E-08 1.84848E-18 2.00837E-18
 -1      3150 9.52380E-05-2.85758E-05-2.85696E-05 1.04341E-08 2.41758E-18 1.07698E-18
 -1      3151 9.52381E-05-2.85755E-05-2.85697E-05 9.33824E-09 1.92822E-18 1.63361E-18
 -1      3152 9.52402E-05-2.85773E-05-2.85698E-05 1.09317E-08 2.32868E-18 5.11188E-19
 -1      3153 9.52378E-05-2.85750E-05-2.85698E-05 8.34309E-09 1.74339E-19 1.94822E-18
 -1      3154 9.52378E-05-2.85748E-05-2.85699E-05 7.39950E-09-2.44081E-19 4.69370E-19
 -1      3155 9.52394E-05-2.85763E-05-2.85699E-05 8.81285E-09 1.08149E-18 1.76116E-19
 -1      3156 9.52376E-05-2.85744E-05-2.85700E-05 6.55443E-09 6.75352E-19 2.10047E-19
 -1      3157 9.52377E-05-2.85741E-05-2.85701E-05 5.75508E-09 1.56786E-18-2.87141E-19
 -1      3158 9.52388E-05-2.85754E-05-2.85700E-05 6.98216E-09 3.11552E-19 1.58516E-18
 -1      3159 9.52374E-05-2.85738E-05-2.85701E-05 5.13569E-09 2.82380E-18-2.04916E-19
 -1      3160 9.52375E-05-2.85736E-05-2.85702E-05 4.45620E-09 2.05425E-18 1.94798E-18
 -1      3161 9.52379E-05-2.85740E-05-2.85702E-05 4.36046E-09 2.17713E-18 1.25811E-18
 -1      3162 9.52383E-05-2.85747E-05-2.85701E-05 5.52199E-09 2.17651E-18 9.05679E-19
 -1      3163 1.26230E-04-4.16978E-05-3.64164E-05-4.88671E-06 9.33298E-19-4.45341E-18
 -1      3164 1.25691E-04-3.63803E-05-3.84038E-05-7.02906E-06 1.83690E-18-4.49248E-18
 -1      3165 1.19279E-04-1.74709E-05-4.40475E-05 1.08815E-07 3.99122E-18-2.13537E-18
 -1      3166 1.18913E-04-1.59397E-05-4.45529E-05 5.52948E-06 4.35184E-18-1.41695E-18
 -1      3167 1.06842E-04-3.71312E-05-2.97915E-05 9.44109E-06-4.23884E-19-1.82747E-18
 -1      3168 1.09441E-04-3.93255E-05-3.00656E-05 8.39489E-06-2.77847E-19-1.76576E-18
 -1      3169 1.09686E-04-4.11163E-05-2.95279E-05 1.10244E-05-7.87175E-19-2.65765E-18
 -1      3170 1.02202E-04-3.31144E-05-2.95585E-05 9.92160E-06-3.79060E-19-1.12380E-18
 -1      3171 1.04193E-04-3.49530E-05-2.96681E-05 9.60975E-06-3.93716E-19-1.32755E-18
 -1      3172 1.03267E-04-3.57858E-05-2.90219E-05 1.18416E-05-6.66351E-19-1.32239E-18
 -1      3173 9.92157E-05-3.02907E-05-2.95140E-05 9.41000E-06-6.02892E-19-4.38024E-19
 -1      3174 1.00584E-04-3.15706E-05-2.95619E-05 9.54482E-06-3.46331E-19-7.69634E-19
 -1      3175 9.91180E-05-3.16924E-05-2.89604E-05 1.12043E-05-7.56826E-19-4.73726E-19
 -1      3176 9.74395E-05-2.85587E-05-2.95105E-05 8.44132E-06-4.61342E-19-4.09034E-19
 -1      3177 9.83279E-05-2.93447E-05-2.95482E-05 8.81741E-06-5.02211E-19-4.17363E-19
 -1      3178 9.67138E-05-2.90204E-05-2.90471E-05 9.98970E-06-5.98593E-19 2.28744E-19
 -1      3179 9.64419E-05-2.76312E-05-2.94891E-05 7.30802E-06 4.22613E-20-7.48638E-19
 -1      3180 9.70076E-05-2.80587E-05-2.95352E-05 7.79402E-06-2.92815E-19-5.81562E-19
 -1      3181 9.54623E-05-2.74987E-05-2.91452E-05 8.62311E-06-3.13234E-19-1.27792E-19
 -1      3182 9.59054E-05-2.72286E-05-2.94360E-05 6.16300E-06 2.35596E-19-5.17872E-19
 -1      3183 9.62692E-05-2.74236E-05-2.94930E-05 6.67901E-06 1.15862E-19-7.54032E-19
 -1      3184 9.48972E-05-2.67714E-05-2.92045E-05 7.28639E-06-4.66538E-20-8.97594E-19
 -1      3185 9.56255E-05-2.71386E-05-2.93564E-05 5.08566E-06-1.23001E-20-2.32408E-19
 -1      3186 9.58672E-05-2.71950E-05-2.94204E-05 5.58440E-06 3.24080E-19-2.95336E-19
 -1      3187 9.47068E-05-2.65401E-05-2.92169E-05 6.05146E-06 9.81790E-20-6.84849E-21
 -1      3188 9.54812E-05-2.72180E-05-2.92610E-05 4.11610E-06-7.80688E-20 3.56170E-19
 -1      3189 9.56492E-05-2.71984E-05-2.93269E-05 4.57125E-06 8.33068E-20-7.63048E-20
 -1      3190 9.47020E-05-2.65915E-05-2.91904E-05 4.94593E-06-2.46601E-20 5.53243E-19
 -1      3191 9.54054E-05-2.73770E-05-2.91600E-05 3.27158E-06 2.85220E-19 8.36690E-19
 -1      3192 9.55275E-05-2.73205E-05-2.92236E-05 3.67054E-06-4.83523E-20 7.45853E-19
 -1      3193 9.47760E-05-2.67867E-05-2.91377E-05 3.97918E-06-1.54239E-19 6.77056E-19
 -1      3194 9.53626E-05-2.75627E-05-2.90615E-05 2.55514E-06 3.46935E-19 8.00055E-19
 -1      3195 9.54546E-05-2.74924E-05-2.91197E-05 2.89417E-06 4.62348E-19 6.86156E-19
 -1      3196 9.48731E-05-2.70401E-05-2.90706E-05 3.15110E-06 2.95262E-19 9.86780E-19
 -1      3197 9.53354E-05-2.77461E-05-2.89705E-05 1.96090E-06 1.92823E-19 1.49381E-18
 -1      3198 9.54062E-05-2.76748E-05-2.90218E-05 2.24180E-06 1.38390E-19 9.51429E-19
 -1      3199 9.49664E-05-2.73025E-05-2.89983E-05 2.45539E-06-6.71164E-20 1.25051E-18
 -1      3200 9.53157E-05-2.79129E-05-2.88899E-05 1.47788E-06 6.30790E-19 1.79736E-18
 -1      3201 9.53706E-05-2.78469E-05-2.89337E-05 1.70559E-06 8.52227E-19 1.77796E-18
 -1      3202 9.50456E-05-2.75479E-05-2.89273E-05 1.88159E-06 4.01767E-19 1.81711E-18
 -1      3203 9.53000E-05-2.80570E-05-2.88208E-05 1.09253E-06-1.33671E-19 2.03056E-18
 -1      3204 9.53425E-05-2.79993E-05-2.88572E-05 1.27352E-06 2.54096E-19 2.13302E-18
 -1      3205 9.51079E-05-2.77641E-05-2.88616E-05 1.41667E-06 2.96995E-19 1.90943E-18
 -1      3206 9.52869E-05-2.81774E-05-2.87631E-05 7.90556E-07-9.03361E-19 2.01955E-18
 -1      3207 9.53195E-05-2.81287E-05-2.87927E-05 9.31768E-07-6.25094E-19 1.84969E-18
 -1      3208 9.51547E-05-2.79473E-05-2.88033E-05 1.04645E-06-3.69672E-19 2.24799E-18
 -1      3209 9.52759E-05-2.82753E-05-2.87159E-05 5.58067E-07-3.42272E-19 2.63533E-18
 -1      3210 9.53005E-05-2.82353E-05-2.87395E-05 6.66256E-07-6.42014E-19 1.94832E-18
 -1      3211 9.51884E-05-2.80981E-05-2.87532E-05 7.56657E-07-7.55195E-19 2.25772E-18
 -1      3212 9.52667E-05-2.83532E-05-2.86782E-05 3.82281E-07-7.46330E-19 3.07245E-18
 -1      3213 9.52850E-05-2.83211E-05-2.86967E-05 4.63644E-07-6.44547E-19 2.80784E-18
 -1      3214 9.52118E-05-2.82194E-05-2.87113E-05 5.33700E-07-5.78775E-19 2.18641E-18
 -1      3215 9.52592E-05-2.84141E-05-2.86486E-05 2.51889E-07-1.46986E-18 3.09609E-18
 -1      3216 9.52725E-05-2.83888E-05-2.86628E-05 3.11882E-07-5.48366E-19 3.18159E-18
 -1      3217 9.52275E-05-2.83149E-05-2.86771E-05 3.65211E-07-7.61259E-19 2.87010E-18
 -1      3218 9.52532E-05-2.84608E-05-2.86258E-05 1.57182E-07-2.74841E-19 2.18805E-18
 -1      3219 9.52627E-05-2.84412E-05-2.86365E-05 2.00461E-07-1.08273E-18 2.72173E-18
 -1      3220 9.52375E-05-2.83889E-05-2.86497E-05 2.40294E-07-8.10740E-19 2.42888E-18
 -1      3221 9.52485E-05-2.84960E-05-2.86086E-05 9.00357E-08 6.77471E-19 2.15598E-18
 -1      3222 9.52550E-05-2.84811E-05-2.86165E-05 1.20474E-07 4.56821E-19 2.11345E-18
 -1      3223 9.52434E-05-2.84451E-05-2.86281E-05 1.49617E-07 1.79250E-20 9.32600E-19
 -1      3224 9.52449E-05-2.85220E-05-2.85958E-05 4.37926E-08 8.02842E-19 1.63201E-18
 -1      3225 9.52493E-05-2.85109E-05-2.86015E-05 6.45465E-08 9.42754E-19 2.44551E-18
 -1      3226 9.52465E-05-2.84870E-05-2.86114E-05 8.53729E-08 6.36343E-19 1.54756E-18
 -1      3227 9.52422E-05-2.85407E-05-2.85865E-05 1.31062E-08 6.30365E-19 1.81640E-18
 -1      3228 9.52450E-05-2.85326E-05-2.85905E-05 2.66961E-08 8.50517E-19 1.76799E-18
 -1      3229 9.52478E-05-2.85176E-05-2.85988E-05 4.11710E-08 6.24493E-19 2.14016E-18
 -1      3230 9.52403E-05-2.85540E-05-2.85799E-05-6.24034E-09-1.93350E-20 1.29695E-18
 -1      3231 9.52419E-05-2.85482E-05-2.85827E-05 2.16257E-09 2.32924E-19 9.40689E-19
 -1      3232 9.52478E-05-2.85395E-05-2.85895E-05 1.18787E-08 6.84153E-19 1.77601E-18
 -1      3233 9.52389E-05-2.85631E-05-2.85754E-05-1.75140E-08-1.02078E-18 9.98806E-19
 -1      3234 9.52397E-05-2.85591E-05-2.85772E-05-1.27747E-08-1.63881E-19 1.15553E-18
 -1      3235 9.52472E-05-2.85547E-05-2.85826E-05-6.55138E-09-1.46297E-19 1.53435E-18
 -1      3236 9.52380E-05-2.85691E-05-2.85724E-05-2.32007E-08-1.63882E-18 2.21988E-18
 -1      3237 9.52382E-05-2.85664E-05-2.85735E-05-2.09725E-08-1.73485E-18 1.11520E-18
 -1      3238 9.52461E-05-2.85649E-05-2.85778E-05-1.72542E-08-2.21065E-18 2.24846E-18
 -1      3239 9.52374E-05-2.85728E-05-2.85705E-05-2.51568E-08-1.28438E-19 3.38360E-18
 -1      3240 9.52373E-05-2.85711E-05-2.85711E-05-2.45841E-08-7.96593E-19 2.65178E-18
 -1      3241 9.52449E-05-2.85714E-05-2.85744E-05-2.26145E-08-1.62993E-18 2.33972E-18
 -1      3242 9.52370E-05-2.85750E-05-2.85694E-05-2.47404E-08 2.03220E-19 2.61194E-18
 -1      3243 9.52367E-05-2.85739E-05-2.85697E-05-2.52015E-08 8.42703E-19 2.92643E-18
 -1      3244 9.52437E-05-2.85753E-05-2.85722E-05-2.44121E-08 2.54835E-19 1.87467E-18
 -1      3245 9.52367E-05-2.85760E-05-2.85689E-05-2.29224E-08 1.10619E-18 1.05180E-18
 -1      3246 9.52364E-05-2.85755E-05-2.85689E-05-2.39761E-08 7.59050E-19 1.84814E-18
 -1      3247 9.52425E-05-2.85774E-05-2.85708E-05-2.39485E-08 1.48576E-18 2.23333E-18
 -1      3248 9.52366E-05-2.85763E-05-2.85687E-05-2.03777E-08-7.72713E-19 4.14046E-19
 -1      3249 9.52362E-05-2.85761E-05-2.85686E-05-2.17203E-08 2.13517E-19 6.73337E-19
 -1      3250 9.52415E-05-2.85783E-05-2.85700E-05-2.21533E-08 9.93323E-19 7.70278E-19
 -1      3251 9.52366E-05-2.85762E-05-2.85687E-05-1.75593E-08-1.29171E-18 1.71366E-19
 -1      3252 9.52362E-05-2.85762E-05-2.85686E-05-1.89895E-08-1.11105E-18 1.75309E-19
 -1      3253 9.52406E-05-2.85783E-05-2.85696E-05-1.96721E-08-4.48142E-19 4.43000E-19
 -1      3254 9.52366E-05-2.85758E-05-2.85689E-05-1.47571E-08-6.68966E-19-4.61548E-19
 -1      3255 9.52362E-05-2.85759E-05-2.85687E-05-1.61484E-08-1.21538E-18-4.24150E-19
 -1      3256 9.52398E-05-2.85779E-05-2.85694E-05-1.69375E-08-1.00125E-18-2.57795E-19
 -1      3257 9.52367E-05-2.85752E-05-2.85692E-05-1.21432E-08-1.60649E-19-5.73641E-19
 -1      3258 9.52363E-05-2.85754E-05-2.85690E-05-1.34229E-08-2.93102E-19 1.61583E-19
 -1      3259 9.52392E-05-2.85772E-05-2.85694E-05-1.42258E-08-8.23977E-19-1.16995E-18
 -1      3260 9.52367E-05-2.85747E-05-2.85694E-05-9.80645E-09 1.08767E-18 5.31986E-19
 -1      3261 9.52364E-05-2.85749E-05-2.85693E-05-1.09395E-08 4.89992E-19-8.31995E-20
 -1      3262 9.52386E-05-2.85764E-05-2.85695E-05-1.17003E-08 1.30823E-19-1.69740E-19
 -1      3263 9.52368E-05-2.85741E-05-2.85697E-05-7.77967E-09 1.68606E-18-1.85771E-19
 -1      3264 9.52366E-05-2.85743E-05-2.85696E-05-8.75602E-09 1.47965E-18-9.49952E-20
 -1      3265 9.52382E-05-2.85756E-05-2.85697E-05-9.44537E-09 1.39184E-18 9.06610E-20
 -1      3266 9.52369E-05-2.85737E-05-2.85700E-05-6.06372E-09-3.70140E-20 1.52099E-18
 -1      3267 9.52367E-05-2.85738E-05-2.85698E-05-6.88079E-09 8.55993E-19 6.52608E-19
 -1      3268 9.52379E-05-2.85749E-05-2.85699E-05-7.49349E-09 7.54511E-19 6.42222E-19
 -1      3269 9.52407E-05-2.85766E-05-2.85703E-05 1.73619E-09 7.75164E-19 3.01284E-19
 -1      3270 9.52409E-05-2.85767E-05-2.85703E-05 1.11680E-09 7.12332E-19 3.29201E-19
 -1      3271 1.23998E-04-3.66691E-05-3.75174E-05-1.30758E-05-8.33269E-19-5.14837E-20
 -1      3272 1.20814E-04-3.46678E-05-3.68540E-05-1.51073E-05-3.01837E-19-5.62092E-19
 -1      3273 1.21327E-04-3.38806E-05-3.77231E-05-1.85771E-05-1.07759E-18-6.07141E-19
 -1      3274 1.25259E-04-3.37582E-05-3.95878E-05-1.85073E-05-1.88205E-18 1.01750E-19
 -1      3275 9.52400E-05-2.85759E-05-2.85703E-05 2.92015E-09 9.56619E-19 2.75817E-19
 -1      3276 9.52404E-05-2.85763E-05-2.85703E-05 2.41362E-09 7.06191E-19-2.85626E-19
 -1      3277 9.52410E-05-2.85769E-05-2.85704E-05 2.32001E-09 7.71462E-19 2.83605E-20
 -1      3278 9.52410E-05-2.85769E-05-2.85703E-05 3.43040E-10-7.67443E-20-1.84443E-18
 -1      3279 9.52410E-05-2.85769E-05-2.85703E-05-3.30982E-10 9.15674E-19-1.47558E-18
 -1      3280 9.52415E-05-2.85773E-05-2.85704E-05 8.06798E-10 6.09220E-19-7.74163E-19
 -1      3281 1.22212E-04-4.41880E-05-3.35038E-05-1.19091E-06-3.94267E-20-3.96415E-18
 -1      3282 1.27191E-04-4.49327E-05-3.54501E-05-3.97308E-07 4.69428E-19-4.44425E-18
 -1      3283 1.26324E-04-4.93847E-05-3.29740E-05 6.30683E-06-3.53266E-19-4.17849E-18
 -1      3284 1.20522E-04-4.48682E-05-3.23953E-05 1.62130E-06-6.96109E-19-3.41269E-18
 -1      3285 1.15666E-04-1.48771E-05-4.35934E-05-6.94685E-06-4.06650E-18-2.29429E-18
 -1      3286 8.60185E-05-3.52433E-05-2.14871E-05-3.26726E-05 2.90384E-18 7.20243E-19
 -1      3287 9.79171E-05-4.22446E-05-2.39673E-05-3.10970E-05 2.79193E-18-5.17934E-19
 -1      3288 1.07336E-04-4.59862E-05-2.60279E-05-2.64897E-05 2.59759E-18-1.61603E-18
 -1      3289 1.15033E-04-4.87411E-05-2.86451E-05-2.01942E-05 2.00239E-18-2.74683E-18
 -1      3290 1.03224E-04-4.25452E-05-2.57792E-05-2.50494E-05 2.48146E-18-9.97879E-19
 -1      3291 5.02215E-05-9.83012E-06-1.69422E-05-8.87398E-06 4.43911E-19 2.54030E-18
 -1      3292 5.46782E-05-1.33446E-05-1.75049E-05-1.81861E-05 1.23217E-18 2.24067E-18
 -1      3293 1.22599E-04-3.31390E-05-3.82875E-05-2.03424E-05-1.67380E-18-2.09770E-19
 -1      3294 1.25146E-04-3.27074E-05-3.98556E-05 2.30697E-05 2.35073E-18 1.29130E-18
 -1      3295 1.28845E-04-3.34915E-05-4.10281E-05 2.11008E-05 2.67085E-18 1.14148E-18
 -1      3296 1.30062E-04-3.01593E-05-4.30552E-05 2.22220E-05 3.22021E-18 1.09955E-18
 -1      3297 1.23900E-04-3.01214E-05-4.03517E-05 2.26831E-05 2.62731E-18 1.37839E-18
 -1      3298 9.52378E-05-2.85737E-05-2.85703E-05-3.57287E-09 1.79342E-18 2.25578E-20
 -1      3299 9.52390E-05-2.85750E-05-2.85703E-05 3.71772E-09 1.39977E-18 7.58763E-19
 -1      3300 9.52395E-05-2.85755E-05-2.85703E-05 3.41449E-09 8.08103E-19 6.33760E-19
 -1      3301 9.52402E-05-2.85761E-05-2.85703E-05 3.54815E-09 3.29304E-19 4.21084E-19
 -1      3302 1.24586E-04-2.32024E-05-4.37782E-05 2.07377E-05 3.93521E-18 7.45177E-19
 -1      3303 1.27051E-04-4.94436E-05-3.33316E-05-1.00457E-05 1.23421E-18-4.14236E-18
 -1      3304 1.18959E-04-1.71619E-05-4.39283E-05 1.14797E-05 4.21399E-18-3.37605E-19
 -1      3305 6.24383E-05-1.92250E-05-1.82916E-05-2.53343E-05 1.82917E-18 1.77813E-18
 -1      3306 7.40320E-05-2.77849E-05-1.97135E-05-3.18484E-05 2.45989E-18 1.43154E-18
 -1      3307 8.37969E-05-3.11403E-05-2.22244E-05-2.81633E-05 2.38855E-18 5.60524E-19
 -1      3308 1.20645E-04-2.33795E-05-4.21254E-05-2.02542E-05-3.52630E-18-4.18024E-19
 -1      3309 1.24070E-04-2.88516E-05-4.12399E-05-7.36370E-06 2.85408E-18-3.99106E-18
 -1      3310 1.22256E-04-2.22181E-05-4.31453E-05-5.38162E-06 3.50100E-18-3.25017E-18
 -1      3311 1.20510E-04-2.05594E-05-4.32174E-05 1.68218E-05 3.93595E-18 3.67678E-19
 -1      3312 1.25809E-04-3.79800E-05-3.78328E-05 4.75864E-06-7.16246E-19-4.43739E-18
 -1      3313 1.21135E-04-3.83877E-05-3.55474E-05 5.47217E-06-1.90536E-19-3.84569E-18
 -1      3314 1.21230E-04-4.18113E-05-3.41140E-05 3.66004E-06 2.89454E-19-3.70564E-18
 -1      3315 1.27358E-04-4.42493E-05-3.56556E-05 1.03563E-06 3.86948E-19-4.70802E-18
 -1      3316 1.21966E-04-4.98206E-05-3.07441E-05-1.33134E-05 1.62905E-18-3.69576E-18
 -1      3317 1.26141E-04-4.75294E-05-3.38999E-05-5.39782E-06 8.79210E-19-4.31264E-18
 -1      3318 1.23172E-04-4.60735E-05-3.31482E-05-3.24533E-06 7.80619E-19-4.14212E-18
 -1      3319 1.16839E-04-4.78001E-05-2.95343E-05-1.49182E-05 1.82508E-18-3.18507E-18
 -1      3320 1.21966E-04-2.58770E-05-4.13712E-05 2.00865E-05 3.24647E-18 9.47168E-19
 -1      3321 1.18308E-04-4.55166E-05-3.12299E-05 6.57059E-06-8.95499E-19-3.74470E-18
 -1      3322 9.52395E-05-2.85755E-05-2.85703E-05-3.41135E-09 2.41012E-18-1.08974E-18
 -1      3323 9.52390E-05-2.85750E-05-2.85703E-05-3.72283E-09 2.61008E-18 1.20587E-22
 -1      3324 1.09228E-04-4.76080E-05-2.63310E-05 2.70877E-05-1.92748E-18-1.79311E-18
 -1      3325 1.01608E-04-4.28670E-05-2.50387E-05 2.78520E-05-2.29472E-18-1.12993E-18
 -1      3326 1.13773E-04-4.82081E-05-2.82630E-05 2.05804E-05-1.86863E-18-3.17528E-18
 -1      3327 5.66457E-05-1.42947E-05-1.76294E-05 1.94035E-05-1.91731E-18 2.47514E-18
 -1      3328 5.64336E-05-1.25700E-05-1.86352E-05 1.28771E-05-1.08734E-18 2.49785E-18
 -1      3329 6.34652E-05-1.85476E-05-1.90687E-05 2.25831E-05-1.93547E-18 1.94288E-18
 -1      3330 6.48088E-05-1.77889E-05-1.98337E-05-1.98973E-05 1.54351E-18 1.58112E-18
 -1      3331 8.03354E-05-3.15826E-05-2.05955E-05 3.17913E-05-2.59732E-18 1.18812E-18
 -1      3332 1.21674E-04-4.88265E-05-3.12847E-05 1.03966E-05-8.33404E-19-3.59301E-18
 -1      3333 9.52370E-05-2.85736E-05-2.85700E-05-5.47287E-09-4.49599E-19 1.70772E-18
 -1      3334 9.52379E-05-2.85744E-05-2.85701E-05-5.97494E-09-5.45315E-19 3.28677E-18
 -1      3335 9.52373E-05-2.85736E-05-2.85701E-05-4.94886E-09-7.74154E-19 1.96574E-18
 -1      3336 9.52415E-05-2.85773E-05-2.85704E-05-8.06239E-10 8.93368E-19-1.49652E-18
 -1      3337 9.52409E-05-2.85768E-05-2.85703E-05-1.10511E-09 1.77952E-18 3.89277E-19
 -1      3338 9.52407E-05-2.85766E-05-2.85703E-05-1.73624E-09 1.57257E-18 6.26225E-19
 -1      3339 9.52404E-05-2.85763E-05-2.85703E-05-2.40958E-09 1.68872E-18-5.26940E-20
 -1      3340 9.52400E-05-2.85759E-05-2.85703E-05-2.91601E-09 2.07659E-18-6.90843E-19
 -1      3341 9.52402E-05-2.85761E-05-2.85703E-05-3.53289E-09 1.69867E-18-1.36450E-18
 -1      3342 9.52411E-05-2.85769E-05-2.85704E-05-2.31469E-09 2.36489E-18 1.34234E-19
 -1      3343 1.23735E-04-2.89367E-05-4.07570E-05-2.07406E-05-2.76816E-18 7.32948E-20
 -1      3344 1.21632E-04-4.44812E-05-3.31452E-05-1.00598E-06 5.43319E-19-4.04336E-18
 -1      3345 5.40844E-05-1.06350E-05-1.83547E-05-2.56608E-06 6.40966E-20 2.19429E-18
 -1      3346 9.52383E-05-2.85744E-05-2.85703E-05 4.18957E-09 2.14096E-18 4.66393E-19
 -1      3347 9.52387E-05-2.85747E-05-2.85703E-05 3.96891E-09 2.11325E-18-2.49647E-19
 -1      3348 9.52393E-05-2.85753E-05-2.85703E-05 4.29587E-09 1.43281E-18 1.35611E-18
 -1      3349 9.52385E-05-2.85747E-05-2.85702E-05 4.73273E-09 2.83588E-18 9.92282E-19
 -1      3350 9.52384E-05-2.85744E-05-2.85703E-05-4.01624E-09 2.32483E-18 1.19155E-18
 -1      3351 9.52375E-05-2.85736E-05-2.85703E-05-4.12011E-09 1.52935E-18 1.44086E-19
 -1      3352 9.52374E-05-2.85736E-05-2.85702E-05-4.59885E-09 3.67496E-19 1.57538E-18
 -1      3353 9.52389E-05-2.85750E-05-2.85703E-05-4.36031E-09 1.44520E-18 6.54238E-19
 -1      3354 9.52404E-05-2.85763E-05-2.85703E-05 4.23728E-09 1.26589E-20 5.46869E-19
 -1      3355 9.52410E-05-2.85768E-05-2.85703E-05 3.71638E-09 2.61097E-19-1.20301E-18
 -1      3356 1.24472E-04-3.23263E-05-3.97397E-05-2.06379E-05-2.14178E-18-1.46246E-20
 -1      3357 1.16762E-04-4.70411E-05-2.97663E-05 1.35081E-05-1.25297E-18-3.33082E-18
 -1      3358 1.07474E-04-4.06774E-05-2.85644E-05-1.32889E-05 1.19643E-18-1.89425E-18
 -1      3359 1.03875E-04-3.78179E-05-2.81955E-05-1.37838E-05 9.36373E-19-1.78683E-18
 -1      3360 1.00976E-04-3.51561E-05-2.81546E-05-1.30654E-05 4.34826E-19-1.35237E-18
 -1      3361 9.85112E-05-3.28378E-05-2.80859E-05-1.26750E-05 5.49900E-19-1.40279E-18
 -1      3362 9.90223E-05-3.55080E-05-2.73959E-05-1.59590E-05 9.70017E-19-1.46774E-18
 -1      3363 9.69855E-05-3.10929E-05-2.82000E-05-1.15916E-05 6.94909E-19-1.11201E-18
 -1      3364 9.54597E-05-2.95167E-05-2.82415E-05-1.09708E-05 5.47730E-19-8.30057E-19
 -1      3365 9.48041E-05-3.07711E-05-2.75271E-05-1.36097E-05 8.54511E-19-9.54566E-19
 -1      3366 9.47604E-05-2.84284E-05-2.83945E-05-9.90682E-06 5.71545E-19-3.37596E-19
 -1      3367 9.39014E-05-2.74759E-05-2.84648E-05-9.22552E-06 4.22286E-19-3.19559E-19
 -1      3368 9.27398E-05-2.78240E-05-2.78581E-05-1.11619E-05 7.97802E-19-4.45114E-19
 -1      3369 9.36906E-05-2.68992E-05-2.86012E-05-8.30921E-06-3.01405E-19-3.60797E-19
 -1      3370 9.32617E-05-2.63919E-05-2.86625E-05-7.65544E-06-3.75878E-19-1.47054E-19
 -1      3371 9.19327E-05-2.61931E-05-2.81897E-05-9.04385E-06 1.83748E-19-3.25636E-19
 -1      3372 9.33134E-05-2.61561E-05-2.87655E-05-6.89078E-06-3.24940E-19 3.12282E-20
 -1      3373 9.31405E-05-2.59436E-05-2.88056E-05-6.29496E-06-1.01879E-19 4.04310E-19
 -1      3374 9.18299E-05-2.54387E-05-2.84583E-05-7.30945E-06-1.24160E-19-8.41286E-20
 -1      3375 9.33203E-05-2.59210E-05-2.88743E-05-5.65996E-06-6.81542E-20 1.44595E-19
 -1      3376 9.32888E-05-2.58911E-05-2.88925E-05-5.13000E-06 7.43705E-20-1.78326E-19
 -1      3377 9.20907E-05-2.52373E-05-2.86509E-05-5.89779E-06-6.55912E-20-2.49638E-19
 -1      3378 9.35177E-05-2.59914E-05-2.89319E-05-4.60171E-06-2.28601E-19-3.26934E-19
 -1      3379 9.35567E-05-2.60657E-05-2.89323E-05-4.13810E-06-2.65884E-19-5.26829E-19
 -1      3380 9.25131E-05-2.53657E-05-2.87745E-05-4.74138E-06-2.68800E-19-1.87908E-19
 -1      3381 9.37904E-05-2.62279E-05-2.89494E-05-3.69835E-06-3.31286E-19-8.81156E-19
 -1      3382 9.38584E-05-2.63544E-05-2.89372E-05-3.29894E-06-3.21890E-19-6.90874E-19
 -1      3383 9.29810E-05-2.56729E-05-2.88426E-05-3.78725E-06-4.35821E-19-8.40809E-19
 -1      3384 9.40738E-05-2.65396E-05-2.89386E-05-2.93412E-06-1.43360E-19-5.67486E-19
 -1      3385 9.41481E-05-2.66853E-05-2.89187E-05-2.59542E-06 2.62310E-19-1.74272E-19
 -1      3386 9.34312E-05-2.60598E-05-2.88697E-05-2.99768E-06-3.36599E-20-1.41550E-18
 -1      3387 9.43349E-05-2.68696E-05-2.89099E-05-2.29498E-06 2.21842E-19 1.13919E-20
 -1      3388 9.44039E-05-2.70150E-05-2.88861E-05-2.01245E-06 2.72370E-20-2.30347E-19
 -1      3389 9.38325E-05-2.64645E-05-2.88686E-05-2.34584E-06 1.99610E-19-7.01130E-19
 -1      3390 9.45593E-05-2.71852E-05-2.88715E-05-1.76763E-06 1.78324E-20-1.43404E-19
 -1      3391 9.46183E-05-2.73193E-05-2.88467E-05-1.53589E-06-2.09870E-19-2.11526E-19
 -1      3392 9.41731E-05-2.68503E-05-2.88498E-05-1.81150E-06-9.37322E-20 1.02247E-19
 -1      3393 9.47433E-05-2.74689E-05-2.88293E-05-1.33892E-06-2.93832E-19-7.39371E-19
 -1      3394 9.47911E-05-2.75865E-05-2.88054E-05-1.15206E-06-1.97046E-19-1.05900E-18
 -1      3395 9.44517E-05-2.71975E-05-2.88210E-05-1.37803E-06-7.88867E-19-3.41546E-19
 -1      3396 9.48889E-05-2.77133E-05-2.87874E-05-9.95808E-07 8.69522E-21-9.55109E-19
 -1      3397 9.49260E-05-2.78129E-05-2.87656E-05-8.47680E-07 4.67558E-19-6.26718E-19
 -1      3398 9.46731E-05-2.74976E-05-2.87878E-05-1.03081E-06-1.55090E-19-8.65406E-19
 -1      3399 9.50008E-05-2.79174E-05-2.87483E-05-7.25614E-07 6.11891E-19-1.01350E-18
 -1      3400 9.50286E-05-2.79993E-05-2.87290E-05-6.10204E-07 6.76858E-19-1.05951E-18
 -1      3401 9.48445E-05-2.77491E-05-2.87539E-05-7.56602E-07 2.24744E-19-1.21403E-18
 -1      3402 9.50843E-05-2.80833E-05-2.87133E-05-5.16378E-07 3.50556E-19-1.35675E-18
 -1      3403 9.51045E-05-2.81490E-05-2.86969E-05-4.28041E-07 2.73810E-19-1.34323E-18
 -1      3404 9.49741E-05-2.79544E-05-2.87218E-05-5.43344E-07 4.90284E-19-1.62431E-18
 -1      3405 9.51450E-05-2.82152E-05-2.86831E-05-3.57164E-07 4.52839E-19-9.15450E-19
 -1      3406 9.51592E-05-2.82668E-05-2.86694E-05-2.90798E-07 5.65480E-19-1.11040E-18
 -1      3407 9.50697E-05-2.81184E-05-2.86928E-05-3.80182E-07 6.92351E-19-1.19542E-18
 -1      3408 9.51878E-05-2.83178E-05-2.86576E-05-2.38259E-07-1.58839E-19-1.49207E-18
 -1      3409 9.51973E-05-2.83576E-05-2.86465E-05-1.89395E-07-5.70183E-19-1.70886E-18
 -1      3410 9.51384E-05-2.82467E-05-2.86675E-05-2.57530E-07-3.93430E-20-1.33951E-18
 -1      3411 9.52169E-05-2.83962E-05-2.86367E-05-1.51264E-07-1.31216E-20-1.35357E-18
 -1      3412 9.52230E-05-2.84262E-05-2.86279E-05-1.16090E-07-1.35670E-19-1.36585E-18
 -1      3413 9.51863E-05-2.83450E-05-2.86460E-05-1.67097E-07-7.81520E-20-2.17074E-18
 -1      3414 9.52359E-05-2.84547E-05-2.86199E-05-8.90832E-08-5.26499E-19-1.02033E-18
 -1      3415 9.52395E-05-2.84769E-05-2.86130E-05-6.44234E-08-4.23955E-19-4.80417E-19
 -1      3416 9.52186E-05-2.84190E-05-2.86283E-05-1.01857E-07-2.30265E-19-1.04411E-18
 -1      3417 9.52474E-05-2.84976E-05-2.86067E-05-4.58544E-08-4.39298E-19-5.48151E-20
 -1      3418 9.52493E-05-2.85136E-05-2.86013E-05-2.91193E-08-4.22221E-19-1.94828E-19
 -1      3419 9.52393E-05-2.84734E-05-2.86139E-05-5.59784E-08-1.84488E-19 3.95275E-19
 -1      3420 9.52537E-05-2.85282E-05-2.85964E-05-1.68279E-08-8.17090E-19-8.77332E-19
 -1      3421 9.52544E-05-2.85394E-05-2.85923E-05-5.94680E-09-6.43255E-19-1.15792E-18
 -1      3422 9.52517E-05-2.85125E-05-2.86025E-05-2.47124E-08-6.83587E-19-2.64913E-20
 -1      3423 9.52565E-05-2.85494E-05-2.85885E-05 1.77109E-09-4.39261E-19-1.03497E-18
 -1      3424 9.52564E-05-2.85570E-05-2.85856E-05 8.42325E-09-3.63265E-19-1.51969E-18
 -1      3425 9.52582E-05-2.85399E-05-2.85936E-05-4.26092E-09-6.98707E-19-1.44943E-18
 -1      3426 9.52569E-05-2.85635E-05-2.85827E-05 1.28886E-08-1.84107E-19-1.44373E-18
 -1      3427 9.52564E-05-2.85686E-05-2.85806E-05 1.65636E-08-9.90142E-20-1.91592E-18
 -1      3428 9.52608E-05-2.85584E-05-2.85868E-05 8.35848E-09-2.56089E-19-9.85983E-19
 -1      3429 9.52559E-05-2.85726E-05-2.85784E-05 1.87815E-08 1.99940E-19-1.57394E-18
 -1      3430 9.52551E-05-2.85757E-05-2.85769E-05 2.04257E-08 6.96462E-19-1.86552E-18
 -1      3431 9.52609E-05-2.85704E-05-2.85817E-05 1.54464E-08 3.61597E-19-1.34570E-18
 -1      3432 9.52540E-05-2.85779E-05-2.85754E-05 2.11468E-08 9.29908E-19-1.84560E-18
 -1      3433 9.52532E-05-2.85797E-05-2.85744E-05 2.14614E-08 1.24719E-19-1.24539E-18
 -1      3434 9.52594E-05-2.85776E-05-2.85779E-05 1.87450E-08 5.50057E-19-1.15900E-18
 -1      3435 9.52519E-05-2.85807E-05-2.85733E-05 2.12343E-08-8.09789E-19-5.35762E-19
 -1      3436 9.52510E-05-2.85815E-05-2.85726E-05 2.07276E-08-8.66985E-19-1.75250E-20
 -1      3437 9.52570E-05-2.85816E-05-2.85752E-05 1.95482E-08 8.72341E-20-1.87265E-18
 -1      3438 9.52496E-05-2.85818E-05-2.85719E-05 1.99440E-08-4.71572E-19 4.01009E-19
 -1      3439 9.52488E-05-2.85820E-05-2.85715E-05 1.89754E-08 2.99436E-19 1.21545E-18
 -1      3440 9.52543E-05-2.85833E-05-2.85733E-05 1.87965E-08 8.27554E-20 7.55558E-20
 -1      3441 9.52474E-05-2.85817E-05-2.85710E-05 1.79072E-08 2.17535E-19 1.03014E-18
 -1      3442 9.52467E-05-2.85815E-05-2.85708E-05 1.67227E-08-1.06193E-19 1.91169E-18
 -1      3443 9.52516E-05-2.85835E-05-2.85721E-05 1.71566E-08-4.60673E-20 1.15129E-18
 -1      3444 9.52454E-05-2.85810E-05-2.85705E-05 1.55521E-08 3.44402E-19 1.28956E-18
 -1      3445 9.52448E-05-2.85806E-05-2.85703E-05 1.43135E-08 1.29323E-18 1.72693E-18
 -1      3446 9.52490E-05-2.85829E-05-2.85712E-05 1.50874E-08 1.32824E-19 1.20368E-18
 -1      3447 9.52437E-05-2.85799E-05-2.85702E-05 1.31566E-08 1.70116E-18 1.10970E-18
 -1      3448 9.52432E-05-2.85794E-05-2.85701E-05 1.19646E-08 1.66098E-18 8.69578E-19
 -1      3449 9.52466E-05-2.85817E-05-2.85707E-05 1.28930E-08 1.05734E-18 3.55518E-19
 -1      3450 9.52422E-05-2.85787E-05-2.85701E-05 1.08900E-08 1.53905E-18 1.06911E-18
 -1      3451 9.52418E-05-2.85782E-05-2.85701E-05 9.80108E-09 1.77793E-18 9.10104E-19
 -1      3452 9.52446E-05-2.85804E-05-2.85704E-05 1.07639E-08 1.10278E-18 7.15937E-19
 -1      3453 9.52410E-05-2.85775E-05-2.85700E-05 8.84420E-09 1.43051E-18 1.20820E-19
 -1      3454 9.52406E-05-2.85770E-05-2.85701E-05 7.88534E-09 4.77885E-19 3.26510E-19
 -1      3455 9.52429E-05-2.85789E-05-2.85703E-05 8.80937E-09 1.32346E-18 4.08037E-19
 -1      3456 9.52400E-05-2.85764E-05-2.85701E-05 7.05577E-09 8.46909E-19 7.84204E-19
 -1      3457 9.52397E-05-2.85760E-05-2.85702E-05 6.24085E-09 1.65429E-18 2.49204E-18
 -1      3458 9.52415E-05-2.85776E-05-2.85702E-05 7.08130E-09 8.38618E-19 4.26126E-19
 -1      3459 8.08919E-05-2.76726E-05-2.26914E-05-2.47360E-05 1.76696E-18 6.01632E-19
 -1      3460 9.11488E-05-3.48510E-05-2.41900E-05-2.58465E-05 2.14860E-18-1.57760E-19
 -1      3461 1.04628E-04-3.84245E-05-2.82295E-05 1.51586E-05-1.58577E-18-2.00871E-18
 -1      3462 1.08473E-04-4.18177E-05-2.85414E-05 1.48326E-05-1.45252E-18-2.38154E-18
 -1      3463 9.39553E-05-2.72019E-05-2.86077E-05 1.00742E-05-6.20904E-19 2.05874E-19
 -1      3464 9.48516E-05-2.81890E-05-2.85326E-05 1.08111E-05-7.51582E-19 2.68403E-19
 -1      3465 9.33735E-05-2.61518E-05-2.88160E-05 8.37588E-06 1.02996E-19-6.02752E-19
 -1      3466 9.38063E-05-2.66446E-05-2.87585E-05 9.08480E-06 2.62518E-20 1.37422E-20
 -1      3467 9.17219E-05-2.58011E-05-2.82667E-05 9.83074E-06-1.39984E-19 5.33002E-20
 -1      3468 9.33146E-05-2.57796E-05-2.89526E-05 6.90697E-06-8.19658E-20-4.59036E-19
 -1      3469 9.34860E-05-2.59608E-05-2.89225E-05 7.55611E-06-2.75871E-19-5.83289E-19
 -1      3470 9.17470E-05-2.51174E-05-2.85586E-05 7.97663E-06 2.51504E-19-6.58017E-19
 -1      3471 9.35031E-05-2.58045E-05-2.90231E-05 5.64534E-06-3.03634E-19 3.71155E-19
 -1      3472 9.35394E-05-2.58038E-05-2.90179E-05 6.22587E-06-1.95718E-19-3.49446E-19
 -1      3473 9.21138E-05-2.50119E-05-2.87555E-05 6.47371E-06-1.75797E-19-2.96907E-19
 -1      3474 9.37852E-05-2.60409E-05-2.90421E-05 4.56524E-06-2.49614E-19 7.12597E-19
 -1      3475 9.37593E-05-2.59435E-05-2.90555E-05 5.07533E-06 3.70267E-21 4.20782E-19
 -1      3476 9.26068E-05-2.52281E-05-2.88721E-05 5.23653E-06-3.11194E-19 2.47693E-19
 -1      3477 9.40794E-05-2.63715E-05-2.90255E-05 3.64674E-06 4.29657E-20 8.13959E-19
 -1      3478 9.40311E-05-2.62309E-05-2.90507E-05 4.08730E-06-7.73020E-20 9.36900E-19
 -1      3479 9.31124E-05-2.56040E-05-2.89274E-05 4.20655E-06-7.70292E-20 6.14410E-19
 -1      3480 9.43471E-05-2.67262E-05-2.89871E-05 2.87360E-06 6.80599E-20 9.35100E-19
 -1      3481 9.42960E-05-2.65741E-05-2.90184E-05 3.24751E-06 1.38285E-19 6.31878E-19
 -1      3482 9.35745E-05-2.60387E-05-2.89396E-05 3.34603E-06 3.17685E-19 5.25005E-19
 -1      3483 9.45734E-05-2.70658E-05-2.89375E-05 2.23112E-06-1.91637E-19 1.32196E-18
 -1      3484 9.45281E-05-2.69196E-05-2.89707E-05 2.54291E-06 1.17404E-19 1.17906E-18
 -1      3485 9.39701E-05-2.64726E-05-2.89240E-05 2.62947E-06-5.28348E-20 1.24943E-18
 -1      3486 9.47559E-05-2.73705E-05-2.88840E-05 1.70491E-06 6.19925E-19 1.33572E-18
 -1      3487 9.47193E-05-2.72391E-05-2.89163E-05 1.96038E-06 1.72932E-19 1.16008E-18
 -1      3488 9.42948E-05-2.68734E-05-2.88921E-05 2.03787E-06-1.48943E-20 1.19834E-18
 -1      3489 9.48982E-05-2.76327E-05-2.88317E-05 1.28051E-06-2.31847E-19 2.07651E-18
 -1      3490 9.48702E-05-2.75196E-05-2.88614E-05 1.48626E-06 3.36113E-19 2.19739E-18
 -1      3491 9.45530E-05-2.72260E-05-2.88523E-05 1.55519E-06-8.38086E-20 1.49869E-18
 -1      3492 9.50061E-05-2.78514E-05-2.87835E-05 9.43646E-07-4.48433E-19 1.75259E-18
 -1      3493 9.49856E-05-2.77570E-05-2.88096E-05 1.10654E-06-1.49433E-19 1.94398E-18
 -1      3494 9.47531E-05-2.75255E-05-2.88103E-05 1.16681E-06-2.22759E-19 1.98075E-18
 -1      3495 9.50860E-05-2.80295E-05-2.87407E-05 6.80594E-07-3.75374E-19 1.35060E-18
 -1      3496 9.50715E-05-2.79526E-05-2.87631E-05 8.07375E-07-3.85544E-19 1.68560E-18
 -1      3497 9.49049E-05-2.77733E-05-2.87696E-05 8.58970E-07-1.08369E-19 1.08144E-18
 -1      3498 9.51437E-05-2.81715E-05-2.87041E-05 4.78628E-07-1.02951E-18 1.97094E-18
 -1      3499 9.51339E-05-2.81101E-05-2.87227E-05 5.75597E-07-8.66243E-19 1.89153E-18
 -1      3500 9.50176E-05-2.79737E-05-2.87324E-05 6.18826E-07-6.21621E-19 1.45292E-18
 -1      3501 9.51844E-05-2.82825E-05-2.86735E-05 3.26301E-07-9.49094E-19 2.00209E-18
 -1      3502 9.51780E-05-2.82345E-05-2.86886E-05 3.99124E-07-6.13311E-19 1.98407E-18
 -1      3503 9.50994E-05-2.81327E-05-2.86996E-05 4.34598E-07-9.33872E-19 6.52389E-19
 -1      3504 9.52122E-05-2.83679E-05-2.86485E-05 2.13596E-07-1.42949E-19 8.79779E-19
 -1      3505 9.52083E-05-2.83310E-05-2.86606E-05 2.67219E-07-4.49308E-19 1.74049E-18
 -1      3506 9.51574E-05-2.82565E-05-2.86716E-05 2.95755E-07-2.81494E-19 5.13401E-19
 -1      3507 9.52305E-05-2.84323E-05-2.86284E-05 1.31972E-07 8.64461E-21 6.62581E-19
 -1      3508 9.52283E-05-2.84044E-05-2.86379E-05 1.70595E-07-1.02965E-19 7.54348E-19
 -1      3509 9.51974E-05-2.83511E-05-2.86483E-05 1.93114E-07 9.20034E-20 4.19015E-19
 -1      3510 9.52419E-05-2.84800E-05-2.86127E-05 7.43036E-08-2.86768E-19 2.00084E-18
 -1      3511 9.52409E-05-2.84593E-05-2.86200E-05 1.01414E-07-2.47827E-20 1.59893E-18
 -1      3512 9.52240E-05-2.84222E-05-2.86293E-05 1.18855E-07-4.29272E-19 1.02368E-18
 -1      3513 9.52484E-05-2.85145E-05-2.86005E-05 3.47665E-08 7.38304E-19 1.88254E-18
 -1      3514 9.52482E-05-2.84995E-05-2.86061E-05 5.32025E-08-6.87091E-21 1.72202E-18
 -1      3515 9.52408E-05-2.84746E-05-2.86141E-05 6.64562E-08 6.92052E-20 2.49325E-18
 -1      3516 9.52516E-05-2.85390E-05-2.85913E-05 8.69174E-09 6.26832E-19 1.90150E-18
 -1      3517 9.52519E-05-2.85283E-05-2.85954E-05 2.07186E-08 1.19621E-18 2.56828E-18
 -1      3518 9.52507E-05-2.85123E-05-2.86022E-05 3.05936E-08 5.50833E-19 1.96887E-18
 -1      3519 9.52526E-05-2.85557E-05-2.85845E-05-7.59716E-09-1.42809E-18 2.70075E-18
 -1      3520 9.52531E-05-2.85484E-05-2.85875E-05-2.03769E-10-9.77750E-20 2.65163E-18
 -1      3521 9.52558E-05-2.85388E-05-2.85930E-05 6.99833E-09-1.92340E-20 2.88273E-18
 -1      3522 9.52522E-05-2.85668E-05-2.85795E-05-1.69435E-08-2.19458E-18 1.65736E-18
 -1      3523 9.52529E-05-2.85620E-05-2.85816E-05-1.28164E-08-1.70338E-18 2.13009E-18
 -1      3524 9.52576E-05-2.85568E-05-2.85861E-05-7.68872E-09-1.30924E-18 3.15293E-18
 -1      3525 9.52510E-05-2.85738E-05-2.85760E-05-2.15064E-08-6.37292E-19 1.86039E-18
 -1      3526 9.52517E-05-2.85708E-05-2.85774E-05-1.96122E-08-2.05315E-18 1.36605E-18
 -1      3527 9.52574E-05-2.85686E-05-2.85810E-05-1.60641E-08-1.40441E-18 1.97934E-18
 -1      3528 9.52494E-05-2.85778E-05-2.85735E-05-2.28944E-08 1.14118E-18 1.31648E-18
 -1      3529 9.52500E-05-2.85761E-05-2.85745E-05-2.24669E-08 3.37940E-19 1.63299E-18
 -1      3530 9.52560E-05-2.85759E-05-2.85773E-05-2.00981E-08 1.52024E-19 1.39779E-18
 -1      3531 9.52476E-05-2.85798E-05-2.85719E-05-2.22810E-08 1.37526E-18 1.62257E-18
 -1      3532 9.52482E-05-2.85789E-05-2.85725E-05-2.27642E-08 1.25387E-18 1.26944E-18
 -1      3533 9.52539E-05-2.85799E-05-2.85746E-05-2.12573E-08 1.12895E-18 9.35408E-19
 -1      3534 9.52459E-05-2.85804E-05-2.85709E-05-2.05019E-08 1.08147E-18 2.12935E-18
 -1      3535 9.52464E-05-2.85802E-05-2.85712E-05-2.15024E-08 1.51574E-18 2.23896E-18
 -1      3536 9.52516E-05-2.85818E-05-2.85728E-05-2.06106E-08 1.12811E-18 1.84486E-18
 -1      3537 9.52443E-05-2.85802E-05-2.85703E-05-1.81357E-08-1.17978E-19 1.23132E-18
 -1      3538 9.52447E-05-2.85803E-05-2.85705E-05-1.93832E-08 4.54715E-19 2.09565E-18
 -1      3539 9.52493E-05-2.85822E-05-2.85716E-05-1.89181E-08 8.10372E-19 2.37458E-18
 -1      3540 9.52428E-05-2.85795E-05-2.85700E-05-1.55681E-08-7.49631E-19-3.10050E-19
 -1      3541 9.52432E-05-2.85798E-05-2.85700E-05-1.68842E-08-1.12971E-19 2.64854E-19
 -1      3542 9.52471E-05-2.85818E-05-2.85709E-05-1.67049E-08 9.46887E-19 9.07205E-19
 -1      3543 9.52416E-05-2.85785E-05-2.85699E-05-1.30440E-08-4.42625E-19-1.19975E-18
 -1      3544 9.52419E-05-2.85790E-05-2.85698E-05-1.43173E-08-1.61687E-19-5.17347E-19
 -1      3545 9.52451E-05-2.85808E-05-2.85704E-05-1.43207E-08-3.69015E-20-9.40111E-20
 -1      3546 9.52406E-05-2.85775E-05-2.85699E-05-1.07066E-08 3.54493E-19-1.05068E-18
 -1      3547 9.52408E-05-2.85779E-05-2.85698E-05-1.18737E-08-7.30491E-19-1.99036E-18
 -1      3548 9.52434E-05-2.85796E-05-2.85702E-05-1.19865E-08-4.47930E-19-1.61100E-18
 -1      3549 9.52397E-05-2.85765E-05-2.85699E-05-8.62786E-09 8.52897E-19 1.22232E-19
 -1      3550 9.52399E-05-2.85769E-05-2.85699E-05-9.65865E-09 6.72941E-19-5.43935E-19
 -1      3551 9.52419E-05-2.85784E-05-2.85701E-05-9.83114E-09 4.09292E-19-1.34659E-18
 -1      3552 9.52390E-05-2.85756E-05-2.85700E-05-6.83612E-09-8.12662E-19 1.37961E-18
 -1      3553 9.52392E-05-2.85759E-05-2.85700E-05-7.71513E-09 4.70018E-20 6.32447E-19
 -1      3554 9.52407E-05-2.85772E-05-2.85701E-05-7.91945E-09-3.29688E-19 1.00040E-18
 -1      3555 9.52422E-05-2.85779E-05-2.85704E-05 1.31562E-09 1.75599E-18-3.29429E-19
 -1      3556 9.52424E-05-2.85780E-05-2.85704E-05 4.89962E-10 1.72311E-18-1.86378E-18
 -1      3557 9.89903E-05-3.82770E-05-2.58343E-05-2.23587E-05 2.13629E-18-9.70534E-19
 -1      3558 1.05551E-04-4.19261E-05-2.74492E-05-1.88936E-05 1.77949E-18-1.95440E-18
 -1      3559 6.47871E-05-1.59507E-05-2.08662E-05-1.51854E-05 1.14429E-18 1.30173E-18
 -1      3560 7.18799E-05-2.14707E-05-2.15781E-05-2.19794E-05 1.72811E-18 1.09251E-18
 -1      3561 5.72803E-05-1.09954E-05-1.96034E-05 3.49488E-06-1.72952E-19 1.86135E-18
 -1      3562 5.92603E-05-1.19868E-05-2.01784E-05-6.02874E-06 8.65183E-19 1.57823E-18
 -1      3563 1.20974E-04-4.71025E-05-3.15983E-05-6.69763E-06 9.46473E-19-3.92679E-18
 -1      3564 9.55189E-05-2.93191E-05-2.83516E-05 1.19749E-05-1.12566E-18 1.48499E-19
 -1      3565 9.71667E-05-3.10180E-05-2.82982E-05 1.26446E-05-1.11581E-18-1.97628E-19
 -1      3566 9.24220E-05-2.74400E-05-2.78846E-05 1.21236E-05-8.73537E-19 1.99083E-19
 -1      3567 9.87706E-05-3.29621E-05-2.81437E-05 1.38843E-05-1.16030E-18-5.23465E-19
 -1      3568 1.01504E-04-3.55397E-05-2.82102E-05 1.42435E-05-1.26970E-18-1.07569E-18
 -1      3569 9.89428E-05-3.56764E-05-2.72199E-05 1.77132E-05-1.94769E-18-9.64744E-19
 -1      3570 8.99789E-05-3.60643E-05-2.30096E-05 3.03066E-05-2.64327E-18 1.86691E-19
 -1      3571 7.74204E-05-2.76261E-05-2.11751E-05 2.82382E-05-2.43053E-18 1.06448E-18
 -1      3572 9.52415E-05-2.85773E-05-2.85704E-05 2.95600E-09 8.69915E-19-1.17946E-18
 -1      3573 9.52419E-05-2.85776E-05-2.85704E-05 2.23251E-09 1.39898E-18-2.23267E-19
 -1      3574 9.52427E-05-2.85784E-05-2.85705E-05 1.96205E-09 2.31978E-18-3.40672E-19
 -1      3575 9.52418E-05-2.85776E-05-2.85704E-05 3.69770E-09 1.00347E-18-2.31001E-18
 -1      3576 9.82599E-05-3.90784E-05-2.51411E-05 2.51977E-05-2.44949E-18-7.06445E-19
 -1      3577 7.24289E-05-2.30118E-05-2.08751E-05 2.51016E-05-2.31727E-18 1.48877E-18
 -1      3578 6.86185E-05-1.92205E-05-2.10732E-05 1.99042E-05-1.71135E-18 1.34575E-18
 -1      3579 8.15617E-05-2.76015E-05-2.29838E-05 2.41700E-05-2.42778E-18 5.04593E-19
 -1      3580 8.03775E-05-2.51937E-05-2.34385E-05-2.06038E-05 1.60442E-18 7.93630E-19
 -1      3581 9.52381E-05-2.85743E-05-2.85702E-05-4.98045E-09-5.04706E-19 1.70526E-18
 -1      3582 1.11562E-04-4.41659E-05-2.87822E-05-1.43554E-05 1.58961E-18-2.49132E-18
 -1      3583 9.52391E-05-2.85755E-05-2.85702E-05 5.77131E-09 1.11069E-18 2.57611E-18
 -1      3584 9.52389E-05-2.85751E-05-2.85702E-05 5.15777E-09 1.93866E-18 1.85785E-18
 -1      3585 9.52393E-05-2.85754E-05-2.85702E-05 4.95642E-09 1.11748E-18 1.82308E-18
 -1      3586 9.52403E-05-2.85764E-05-2.85702E-05 5.84127E-09 1.58049E-18 3.48885E-18
 -1      3587 9.52431E-05-2.85786E-05-2.85705E-05-9.98695E-13 2.78245E-18-2.80642E-19
 -1      3588 9.52424E-05-2.85780E-05-2.85704E-05-4.89883E-10 6.10785E-19-1.93530E-18
 -1      3589 9.52422E-05-2.85779E-05-2.85704E-05-1.31241E-09 1.34099E-18-1.49026E-18
 -1      3590 9.52389E-05-2.85753E-05-2.85701E-05-6.17819E-09-7.41269E-19 2.12621E-18
 -1      3591 9.52401E-05-2.85763E-05-2.85702E-05-6.34804E-09-1.34771E-18 1.35034E-18
 -1      3592 9.52389E-05-2.85752E-05-2.85702E-05-5.54054E-09-1.34576E-18 2.55417E-18
 -1      3593 1.15995E-04-4.64704E-05-2.97678E-05-1.26984E-05 1.46398E-18-3.10909E-18
 -1      3594 1.10004E-04-4.46063E-05-2.80409E-05 1.87841E-05-1.63530E-18-2.62411E-18
 -1      3595 9.52410E-05-2.85768E-05-2.85703E-05-3.70319E-09 1.38481E-18-1.09993E-18
 -1      3596 9.52404E-05-2.85763E-05-2.85703E-05-4.22492E-09 9.60790E-19-6.12593E-19
 -1      3597 9.52406E-05-2.85766E-05-2.85703E-05-5.06914E-09-1.47529E-19 4.50829E-20
 -1      3598 9.52398E-05-2.85758E-05-2.85703E-05-4.82313E-09 1.21073E-19 2.71368E-19
 -1      3599 9.61581E-05-3.50375E-05-2.60507E-05-2.01877E-05 1.50587E-18-8.64705E-19
 -1      3600 5.90313E-05-1.18952E-05-1.99809E-05 7.24794E-06-5.47898E-19 1.55481E-18
 -1      3601 6.36012E-05-1.30769E-05-2.15296E-05 3.63147E-06 1.56397E-19 1.03281E-18
 -1      3602 6.24170E-05-1.41275E-05-2.06623E-05 1.17627E-05-1.06548E-18 1.35332E-18
 -1      3603 6.53843E-05-1.37330E-05-2.21819E-05-4.39552E-06 4.47023E-19 9.58352E-19
 -1      3604 6.44022E-05-1.41747E-05-2.13164E-05-1.01472E-05 8.65822E-19 1.10346E-18
 -1      3605 7.05904E-05-1.71488E-05-2.28019E-05-1.24038E-05 1.03464E-18 7.14949E-19
 -1      3606 9.44921E-05-3.05499E-05-2.74727E-05 1.48599E-05-1.28975E-18-2.28603E-19
 -1      3607 9.52397E-05-2.85757E-05-2.85703E-05 4.69199E-09 3.49909E-19 2.55298E-18
 -1      3608 9.52405E-05-2.85765E-05-2.85703E-05 4.93841E-09 1.36639E-18 1.69346E-18
 -1      3609 9.52390E-05-2.85752E-05-2.85702E-05-5.14531E-09-2.93737E-19 1.92523E-18
 -1      3610 9.30455E-05-3.19949E-05-2.61068E-05-1.85154E-05 1.14483E-18-9.02343E-19
 -1      3611 9.52411E-05-2.85770E-05-2.85703E-05 5.33714E-09 1.78605E-18 1.26171E-18
 -1      3612 9.22335E-05-2.94620E-05-2.68051E-05-1.49529E-05 9.66462E-19-6.22143E-19
 -1      3613 9.05378E-05-2.75971E-05-2.69634E-05-1.35346E-05 1.20566E-18-4.23135E-19
 -1      3614 9.04658E-05-2.66148E-05-2.73107E-05-1.17937E-05 1.16666E-18-4.02274E-19
 -1      3615 8.97791E-05-2.56178E-05-2.75111E-05-1.05780E-05 8.63256E-19-3.10893E-19
 -1      3616 8.73029E-05-2.53280E-05-2.65946E-05-1.29456E-05 1.16357E-18 2.85741E-20
 -1      3617 9.00794E-05-2.51533E-05-2.77913E-05-9.26572E-06 3.43146E-19-3.91351E-19
 -1      3618 8.98810E-05-2.46825E-05-2.79598E-05-8.30063E-06 1.68915E-21-2.28842E-19
 -1      3619 8.76414E-05-2.39993E-05-2.72751E-05-9.77208E-06 4.57890E-19-3.60030E-19
 -1      3620 9.03310E-05-2.45525E-05-2.81700E-05-7.32656E-06-2.67849E-19-3.48009E-19
 -1      3621 9.03925E-05-2.44053E-05-2.82963E-05-6.55811E-06-1.42791E-19-2.80036E-19
 -1      3622 8.84497E-05-2.35706E-05-2.77986E-05-7.48579E-06 7.06180E-20-5.51331E-19
 -1      3623 9.08832E-05-2.44814E-05-2.84454E-05-5.82292E-06 2.38803E-20-2.62962E-19
 -1      3624 9.10695E-05-2.45284E-05-2.85314E-05-5.20416E-06 2.32094E-19-3.75958E-19
 -1      3625 8.94165E-05-2.36435E-05-2.81796E-05-5.80900E-06-1.01780E-19-1.97196E-19
 -1      3626 9.15449E-05-2.47210E-05-2.86312E-05-4.63621E-06-4.30999E-20-5.62819E-19
 -1      3627 9.17782E-05-2.48766E-05-2.86837E-05-4.13125E-06-6.19623E-19-5.32417E-19
 -1      3628 9.03919E-05-2.40024E-05-2.84436E-05-4.54699E-06-6.67889E-20-5.46818E-19
 -1      3629 9.22101E-05-2.51255E-05-2.87457E-05-3.68348E-06-8.42872E-19-6.05447E-19
 -1      3630 9.24467E-05-2.53329E-05-2.87727E-05-3.26747E-06-5.79983E-19-1.03966E-18
 -1      3631 9.13007E-05-2.45100E-05-2.86161E-05-3.57232E-06-8.17838E-19-1.01306E-18
 -1      3632 9.28233E-05-2.55992E-05-2.88070E-05-2.90930E-06-3.46452E-19-1.49926E-18
 -1      3633 9.30408E-05-2.58225E-05-2.88158E-05-2.56558E-06-9.18952E-20-1.79286E-18
 -1      3634 9.21069E-05-2.50752E-05-2.87204E-05-2.80295E-06-7.96213E-19-1.02715E-18
 -1      3635 9.33590E-05-2.60816E-05-2.88308E-05-2.27720E-06 1.70570E-19-1.58757E-18
 -1      3636 9.35474E-05-2.62986E-05-2.88274E-05-1.99415E-06 5.33505E-20-1.71365E-18
 -1      3637 9.27979E-05-2.56403E-05-2.87755E-05-2.18715E-06 1.45532E-19-1.92962E-18
 -1      3638 9.38095E-05-2.65364E-05-2.88295E-05-1.76203E-06-7.93396E-20-1.17508E-18
 -1      3639 9.39660E-05-2.67349E-05-2.88187E-05-1.53080E-06-1.94393E-19-1.24104E-18
 -1      3640 9.33742E-05-2.61697E-05-2.87967E-05-1.69156E-06 1.51252E-20-2.28703E-18
 -1      3641 9.41770E-05-2.69441E-05-2.88126E-05-1.34500E-06-7.46117E-19-1.06871E-18
 -1      3642 9.43030E-05-2.71180E-05-2.87979E-05-1.15818E-06-8.24912E-19-1.30535E-18
 -1      3643 9.38436E-05-2.66440E-05-2.87956E-05-1.29322E-06-3.43054E-19-2.14037E-18
 -1      3644 9.44694E-05-2.72963E-05-2.87872E-05-1.01081E-06-3.74971E-19-4.61915E-19
 -1      3645 9.45681E-05-2.74437E-05-2.87710E-05-8.61845E-07-1.41221E-19-8.80714E-19
 -1      3646 9.42177E-05-2.70546E-05-2.87809E-05-9.75020E-07-1.91847E-19-1.09213E-18
 -1      3647 9.46966E-05-2.75918E-05-2.87581E-05-7.46313E-07-1.02064E-19-2.79974E-19
 -1      3648 9.47720E-05-2.77135E-05-2.87420E-05-6.29249E-07 3.99646E-19-4.77533E-19
 -1      3649 9.45098E-05-2.74003E-05-2.87587E-05-7.23288E-07 1.90000E-19-2.10768E-19
 -1      3650 9.48692E-05-2.78336E-05-2.87287E-05-5.39901E-07 3.21384E-19-8.44399E-19
 -1      3651 9.49255E-05-2.79319E-05-2.87136E-05-4.49329E-07 4.13365E-19-8.58973E-19
 -1      3652 9.47334E-05-2.76844E-05-2.87334E-05-5.26525E-07-7.65944E-20 4.80619E-19
 -1      3653 9.49975E-05-2.80273E-05-2.87008E-05-3.81274E-07 6.74915E-19-1.28125E-18
 -1      3654 9.50385E-05-2.81049E-05-2.86874E-05-3.12360E-07 6.43570E-19-1.60460E-18
 -1      3655 9.49011E-05-2.79131E-05-2.87078E-05-3.74847E-07 3.27684E-19 3.46697E-19
 -1      3656 9.50906E-05-2.81793E-05-2.86757E-05-2.61390E-07 3.55486E-20-1.82647E-18
 -1      3657 9.51196E-05-2.82395E-05-2.86641E-05-2.09896E-07-2.27411E-19-1.70315E-18
 -1      3658 9.50241E-05-2.80934E-05-2.86836E-05-2.59722E-07 1.34475E-19-9.22123E-19
 -1      3659 9.51564E-05-2.82963E-05-2.86538E-05-1.72436E-07 3.57318E-19-1.90278E-18
 -1      3660 9.51762E-05-2.83420E-05-2.86441E-05-1.34719E-07 5.75096E-19-1.43565E-18
 -1      3661 9.51121E-05-2.82331E-05-2.86618E-05-1.73832E-07-3.70785E-20-1.24145E-18
 -1      3662 9.52013E-05-2.83846E-05-2.86354E-05-1.07777E-07 5.04012E-19-9.06024E-19
 -1      3663 9.52144E-05-2.84187E-05-2.86273E-05-8.07746E-08 3.00100E-19-3.09991E-19
 -1      3664 9.51733E-05-2.83390E-05-2.86428E-05-1.10981E-07 9.07197E-19-1.41523E-18
 -1      3665 9.52308E-05-2.84498E-05-2.86201E-05-6.18874E-08-4.69950E-19 2.18118E-19
 -1      3666 9.52389E-05-2.84747E-05-2.86136E-05-4.30715E-08-1.59884E-19 1.17516E-19
 -1      3667 9.52144E-05-2.84179E-05-2.86268E-05-6.60019E-08 3.92881E-20-5.47579E-19
 -1      3668 9.52490E-05-2.84970E-05-2.86077E-05-3.02447E-08-5.54579E-19-4.26439E-19
 -1      3669 9.52535E-05-2.85147E-05-2.86026E-05-1.75701E-08-9.11784E-19-4.88263E-19
 -1      3670 9.52407E-05-2.84754E-05-2.86135E-05-3.46599E-08-6.34956E-19-4.39288E-19
 -1      3671 9.52592E-05-2.85303E-05-2.85979E-05-9.21657E-09-9.68661E-19-2.74595E-19
 -1      3672 9.52614E-05-2.85425E-05-2.85940E-05-1.05721E-09-5.36673E-19-2.72238E-19
 -1      3673 9.52563E-05-2.85161E-05-2.86028E-05-1.35383E-08-8.44228E-19 3.74953E-19
 -1      3674 9.52640E-05-2.85529E-05-2.85903E-05 4.06518E-09-2.07985E-19 4.79618E-20
 -1      3675 9.52645E-05-2.85610E-05-2.85873E-05 8.97899E-09-1.03524E-19-9.91320E-20
 -1      3676 9.52645E-05-2.85443E-05-2.85944E-05 7.22608E-11-9.92245E-20 1.12023E-18
 -1      3677 9.52651E-05-2.85678E-05-2.85845E-05 1.18256E-08-1.03312E-19-4.40387E-19
 -1      3678 9.52647E-05-2.85729E-05-2.85822E-05 1.44675E-08 6.83552E-19-5.46221E-19
 -1      3679 9.52677E-05-2.85630E-05-2.85877E-05 8.28401E-09-2.09896E-19 1.21025E-18
 -1      3680 9.52640E-05-2.85769E-05-2.85801E-05 1.57601E-08 7.88747E-19-6.64735E-19
 -1      3681 9.52630E-05-2.85799E-05-2.85785E-05 1.68631E-08 3.16346E-19-9.71649E-19
 -1      3682 9.52677E-05-2.85748E-05-2.85827E-05 1.27156E-08 3.94505E-19 5.83370E-20
 -1      3683 9.52616E-05-2.85821E-05-2.85769E-05 1.71363E-08 2.57167E-19-1.31269E-18
 -1      3684 9.52603E-05-2.85836E-05-2.85757E-05 1.72411E-08 2.62516E-19-3.11969E-19
 -1      3685 9.52657E-05-2.85816E-05-2.85789E-05 1.45848E-08 5.90575E-19-7.96203E-19
 -1      3686 9.52586E-05-2.85845E-05-2.85746E-05 1.68828E-08-1.25357E-19-3.94713E-19
 -1      3687 9.52572E-05-2.85850E-05-2.85738E-05 1.63796E-08 1.62420E-19-3.27153E-19
 -1      3688 9.52626E-05-2.85851E-05-2.85761E-05 1.47904E-08 2.58474E-20-1.29465E-18
 -1      3689 9.52554E-05-2.85850E-05-2.85730E-05 1.56640E-08 4.33339E-19-4.60957E-19
 -1      3690 9.52540E-05-2.85849E-05-2.85724E-05 1.48269E-08 3.87716E-19-3.30399E-19
 -1      3691 9.52592E-05-2.85863E-05-2.85741E-05 1.39805E-08 3.85662E-19-2.05247E-18
 -1      3692 9.52522E-05-2.85845E-05-2.85719E-05 1.39423E-08-1.03599E-18 2.55375E-20
 -1      3693 9.52510E-05-2.85840E-05-2.85715E-05 1.29580E-08-3.17711E-19-9.86027E-19
 -1      3694 9.52556E-05-2.85860E-05-2.85727E-05 1.26113E-08-4.02908E-19-1.78468E-18
 -1      3695 9.52494E-05-2.85833E-05-2.85712E-05 1.20287E-08 9.47729E-19-1.17667E-18
 -1      3696 9.52482E-05-2.85826E-05-2.85710E-05 1.10188E-08 9.98780E-19-9.97347E-19
 -1      3697 9.52523E-05-2.85849E-05-2.85718E-05 1.09933E-08 1.77665E-19-1.39628E-18
 -1      3698 9.52468E-05-2.85818E-05-2.85707E-05 1.01231E-08 1.11280E-18-1.04899E-18
 -1      3699 9.52459E-05-2.85810E-05-2.85706E-05 9.16226E-09 1.17693E-18-1.10606E-18
 -1      3700 9.52493E-05-2.85833E-05-2.85712E-05 9.33000E-09 1.16967E-18-1.09799E-18
 -1      3701 9.52446E-05-2.85802E-05-2.85705E-05 8.34310E-09 1.55064E-18-8.71767E-19
 -1      3702 9.52438E-05-2.85795E-05-2.85704E-05 7.47234E-09 1.18923E-18-1.09091E-18
 -1      3703 9.52466E-05-2.85816E-05-2.85708E-05 7.74564E-09 1.46037E-18-2.30355E-18
 -1      3704 9.52428E-05-2.85787E-05-2.85704E-05 6.75365E-09 7.83543E-19-5.27169E-19
 -1      3705 9.52422E-05-2.85780E-05-2.85703E-05 5.99280E-09 9.99012E-19 4.06215E-19
 -1      3706 9.52444E-05-2.85799E-05-2.85705E-05 6.31214E-09 1.68880E-18-2.32551E-18
 -1      3707 9.52423E-05-2.85781E-05-2.85704E-05 5.01181E-09 1.35759E-18-1.69124E-18
 -1      3708 9.19640E-05-3.09701E-05-2.60922E-05 1.87414E-05-1.90644E-18-3.51519E-19
 -1      3709 9.50897E-05-3.41769E-05-2.59827E-05 2.03733E-05-1.97379E-18-4.83480E-19
 -1      3710 8.94279E-05-2.41859E-05-2.79847E-05 8.93590E-06 1.76239E-19-7.01954E-20
 -1      3711 8.95558E-05-2.46204E-05-2.77959E-05 9.96234E-06-1.90548E-19-1.69296E-19
 -1      3712 9.17644E-05-2.47071E-05-2.87519E-05 4.57401E-06-1.48893E-19 3.28773E-19
 -1      3713 9.15032E-05-2.45121E-05-2.87034E-05 5.11318E-06-2.26287E-19 2.57266E-19
 -1      3714 9.24889E-05-2.52338E-05-2.88343E-05 3.65272E-06-1.72911E-19 3.67141E-19
 -1      3715 9.22396E-05-2.49976E-05-2.88135E-05 4.10248E-06-3.43110E-19 2.67212E-19
 -1      3716 9.12099E-05-2.43111E-05-2.86607E-05 3.97792E-06-2.61707E-19-1.10904E-20
 -1      3717 9.31101E-05-2.57718E-05-2.88680E-05 2.89294E-06 5.27303E-20 8.81006E-19
 -1      3718 9.28911E-05-2.55297E-05-2.88660E-05 3.26899E-06 9.87241E-20 7.52798E-19
 -1      3719 9.20825E-05-2.49471E-05-2.87638E-05 3.16521E-06-4.65497E-19 2.53187E-19
 -1      3720 9.36245E-05-2.62787E-05-2.88697E-05 2.26564E-06-3.75133E-19 9.87056E-19
 -1      3721 9.34417E-05-2.60506E-05-2.88794E-05 2.57848E-06-1.48036E-19 8.68292E-19
 -1      3722 9.28106E-05-2.55616E-05-2.88140E-05 2.50104E-06-2.27708E-19 1.04958E-18
 -1      3723 9.40392E-05-2.67323E-05-2.88516E-05 1.75070E-06-2.20838E-19 1.15841E-18
 -1      3724 9.38919E-05-2.65285E-05-2.88679E-05 2.00839E-06 3.14931E-20 1.38723E-18
 -1      3725 9.34042E-05-2.61237E-05-2.88290E-05 1.95566E-06-2.61659E-19 7.24568E-19
 -1      3726 9.43662E-05-2.71240E-05-2.88228E-05 1.33230E-06-3.37948E-19 1.32828E-18
 -1      3727 9.42508E-05-2.69484E-05-2.88420E-05 1.54185E-06-3.67486E-19 1.24070E-18
 -1      3728 9.38786E-05-2.66183E-05-2.88215E-05 1.50940E-06-4.15154E-19 1.53013E-18
 -1      3729 9.46190E-05-2.74527E-05-2.87892E-05 9.96704E-07-5.26535E-20 1.11042E-18
 -1      3730 9.45306E-05-2.73056E-05-2.88091E-05 1.16465E-06-3.00644E-20 1.26968E-18
 -1      3731 9.42508E-05-2.70408E-05-2.88010E-05 1.14749E-06-2.67642E-19 1.73081E-18
 -1      3732 9.48106E-05-2.77222E-05-2.87550E-05 7.31426E-07-2.94013E-19 1.14913E-18
 -1      3733 9.47444E-05-2.76019E-05-2.87740E-05 8.63942E-07-1.58864E-19 1.05202E-18
 -1      3734 9.45377E-05-2.73928E-05-2.87739E-05 8.57553E-07-2.22089E-19 1.15927E-18
 -1      3735 9.49532E-05-2.79388E-05-2.87226E-05 5.24999E-07-1.42565E-18 1.27101E-18
 -1      3736 9.49046E-05-2.78423E-05-2.87398E-05 6.27870E-07-5.35345E-19 1.03168E-18
 -1      3737 9.47549E-05-2.76799E-05-2.87446E-05 6.28561E-07-7.81977E-19 1.10596E-18
 -1      3738 9.50571E-05-2.81097E-05-2.86934E-05 3.67036E-07-2.96304E-19 5.89913E-19
 -1      3739 9.50223E-05-2.80338E-05-2.87084E-05 4.45535E-07-1.00924E-18 8.29218E-19
 -1      3740 9.49164E-05-2.79098E-05-2.87158E-05 4.50506E-07-8.18293E-19 5.11608E-19
 -1      3741 9.51311E-05-2.82421E-05-2.86680E-05 2.48309E-07 7.37391E-20 4.42084E-19
 -1      3742 9.51068E-05-2.81834E-05-2.86806E-05 3.07124E-07-1.80092E-19 7.30302E-19
 -1      3743 9.50341E-05-2.80905E-05-2.86892E-05 3.14360E-07-5.18788E-19 3.17519E-19
 -1      3744 9.51824E-05-2.83430E-05-2.86464E-05 1.60806E-07-4.31608E-20 3.16119E-19
 -1      3745 9.51660E-05-2.82983E-05-2.86569E-05 2.04001E-07 9.37519E-20 3.03801E-19
 -1      3746 9.51179E-05-2.82300E-05-2.86656E-05 2.12125E-07 8.06589E-20 5.18293E-19
 -1      3747 9.52168E-05-2.84183E-05-2.86286E-05 9.77242E-08-6.17020E-19 9.76586E-19
 -1      3748 9.52062E-05-2.83850E-05-2.86371E-05 1.28740E-07-1.81908E-19 1.96356E-19
 -1      3749 9.51760E-05-2.83359E-05-2.86453E-05 1.36862E-07-1.17187E-19 5.65839E-19
 -1      3750 9.52388E-05-2.84734E-05-2.86142E-05 5.34085E-08 2.80947E-19 1.30568E-18
 -1      3751 9.52323E-05-2.84491E-05-2.86210E-05 7.50947E-08-1.46418E-19 1.19926E-18
 -1      3752 9.52148E-05-2.84148E-05-2.86284E-05 8.26825E-08-5.93109E-19 1.82175E-19
 -1      3753 9.52519E-05-2.85129E-05-2.86027E-05 2.32493E-08 7.26299E-20 2.08941E-18
 -1      3754 9.52484E-05-2.84956E-05-2.86080E-05 3.79208E-08 1.03349E-19 1.80095E-18
 -1      3755 9.52397E-05-2.84723E-05-2.86145E-05 4.46912E-08 2.02804E-19 2.56956E-19
 -1      3756 9.52589E-05-2.85404E-05-2.85938E-05 3.56056E-09-1.43222E-19 2.21976E-18
 -1      3757 9.52573E-05-2.85284E-05-2.85979E-05 1.30622E-08 5.50256E-19 2.32063E-18
 -1      3758 9.52545E-05-2.85133E-05-2.86033E-05 1.89005E-08-1.36489E-19 8.38640E-19
 -1      3759 9.52617E-05-2.85590E-05-2.85870E-05-8.55205E-09-1.36318E-18 3.06540E-18
 -1      3760 9.52614E-05-2.85509E-05-2.85900E-05-2.77632E-09-1.05667E-18 2.90663E-18
 -1      3761 9.52623E-05-2.85417E-05-2.85945E-05 2.12306E-09-5.54511E-19 1.79108E-18
 -1      3762 9.52618E-05-2.85709E-05-2.85819E-05-1.53200E-08-6.59028E-19 1.64937E-18
 -1      3763 9.52623E-05-2.85658E-05-2.85841E-05-1.21607E-08-8.53036E-19 2.85653E-18
 -1      3764 9.52653E-05-2.85607E-05-2.85877E-05-8.14227E-09-5.22116E-19 3.05603E-18
 -1      3765 9.52603E-05-2.85782E-05-2.85781E-05-1.84321E-08 4.88817E-19 1.26494E-18
 -1      3766 9.52612E-05-2.85751E-05-2.85797E-05-1.70523E-08-2.42207E-20 1.43593E-18
 -1      3767 9.52654E-05-2.85728E-05-2.85826E-05-1.38223E-08 1.27926E-19 1.17155E-18
 -1      3768 9.52579E-05-2.85821E-05-2.85753E-05-1.91415E-08 1.22460E-18 1.05042E-18
 -1      3769 9.52590E-05-2.85804E-05-2.85765E-05-1.89224E-08 7.65570E-19 5.03775E-19
 -1      3770 9.52636E-05-2.85800E-05-2.85787E-05-1.63736E-08 5.63965E-19 7.87840E-19
 -1      3771 9.52551E-05-2.85837E-05-2.85734E-05-1.83581E-08 6.97019E-19 1.75968E-18
 -1      3772 9.52563E-05-2.85830E-05-2.85742E-05-1.88521E-08 1.36468E-18 2.09370E-18
 -1      3773 9.52608E-05-2.85837E-05-2.85759E-05-1.68759E-08 8.39092E-19 1.30270E-18
 -1      3774 9.52522E-05-2.85839E-05-2.85721E-05-1.67263E-08 9.26469E-19 1.65060E-18
 -1      3775 9.52534E-05-2.85838E-05-2.85726E-05-1.76178E-08 4.32022E-19 2.11768E-18
 -1      3776 9.52576E-05-2.85852E-05-2.85739E-05-1.61116E-08 4.59606E-19 1.43169E-18
 -1      3777 9.52495E-05-2.85831E-05-2.85713E-05-1.46887E-08 6.58906E-19 2.05824E-18
 -1      3778 9.52506E-05-2.85835E-05-2.85716E-05-1.57623E-08 1.57372E-18 2.36186E-18
 -1      3779 9.52543E-05-2.85852E-05-2.85725E-05-1.46339E-08 8.62054E-19 1.02193E-18
 -1      3780 9.52471E-05-2.85819E-05-2.85708E-05-1.25378E-08-1.31795E-19 8.59152E-19
 -1      3781 9.52480E-05-2.85825E-05-2.85709E-05-1.36521E-08 4.41853E-19 1.69963E-18
 -1      3782 9.52512E-05-2.85842E-05-2.85716E-05-1.28218E-08 1.19605E-18 1.97959E-18
 -1      3783 9.52450E-05-2.85805E-05-2.85705E-05-1.04569E-08 1.24987E-19-1.01517E-18
 -1      3784 9.52458E-05-2.85812E-05-2.85705E-05-1.15245E-08-3.63059E-19-1.81742E-19
 -1      3785 9.52485E-05-2.85828E-05-2.85710E-05-1.09250E-08 4.95107E-19 1.04788E-18
 -1      3786 9.52432E-05-2.85791E-05-2.85703E-05-8.55059E-09 4.00801E-19 1.77675E-21
 -1      3787 9.52438E-05-2.85797E-05-2.85703E-05-9.52268E-09 1.44660E-19-6.96355E-19
 -1      3788 9.52460E-05-2.85812E-05-2.85707E-05-9.09965E-09 1.49512E-19-7.69270E-20
 -1      3789 9.52417E-05-2.85777E-05-2.85703E-05-6.87155E-09-7.56574E-19 8.64399E-19
 -1      3790 9.52422E-05-2.85783E-05-2.85702E-05-7.72299E-09-2.66644E-19 2.99497E-19
 -1      3791 9.52440E-05-2.85796E-05-2.85704E-05-7.43703E-09-6.35054E-19-1.07487E-19
 -1      3792 9.52410E-05-2.85770E-05-2.85703E-05-5.58293E-09-1.11446E-18 3.35202E-19
 -1      3793 9.52412E-05-2.85773E-05-2.85702E-05-6.27427E-09-9.94020E-19 8.67199E-19
 -1      3794 9.52426E-05-2.85784E-05-2.85704E-05-6.06441E-09-1.10442E-18 1.03007E-18
 -1      3795 9.52417E-05-2.85775E-05-2.85703E-05-4.95708E-09-4.94912E-19 4.87384E-19
 -1      3796 9.52419E-05-2.85776E-05-2.85704E-05-2.23372E-09 1.30301E-18-6.99357E-19
 -1      3797 9.52415E-05-2.85773E-05-2.85704E-05-2.94992E-09 2.01224E-18-1.17619E-18
 -1      3798 9.52418E-05-2.85776E-05-2.85704E-05-3.69347E-09 6.05271E-19-6.78577E-19
 -1      3799 8.76988E-05-2.85262E-05-2.54227E-05-1.87196E-05 1.22548E-18 1.39410E-19
 -1      3800 9.09608E-05-2.42658E-05-2.85995E-05 5.70283E-06-6.99876E-19 2.00652E-19
 -1      3801 9.07283E-05-2.41703E-05-2.85131E-05 6.35673E-06-3.07241E-19 1.48960E-20
 -1      3802 9.01940E-05-2.37088E-05-2.84822E-05 4.98842E-06-4.81878E-19 1.40773E-19
 -1      3803 8.90934E-05-2.50480E-05-2.74709E-05 1.13558E-05-7.55825E-19-1.37107E-19
 -1      3804 8.97225E-05-2.60432E-05-2.72346E-05 1.26508E-05-1.07711E-18-1.86093E-19
 -1      3805 8.67425E-05-2.33207E-05-2.71852E-05 1.03747E-05-4.77385E-19-4.73151E-19
 -1      3806 8.96274E-05-2.70724E-05-2.68140E-05 1.45893E-05-1.27067E-18-2.12555E-19
 -1      3807 9.11660E-05-2.89451E-05-2.65761E-05 1.61527E-05-1.58262E-18-4.04866E-19
 -1      3808 8.60116E-05-2.44817E-05-2.63771E-05 1.37071E-05-1.07885E-18-2.16452E-19
 -1      3809 9.01401E-05-2.40299E-05-2.83525E-05 7.11445E-06 2.28757E-19-2.76967E-19
 -1      3810 9.00149E-05-2.41257E-05-2.82183E-05 7.92399E-06 2.67228E-19-3.36332E-21
 -1      3811 8.90579E-05-2.32307E-05-2.81998E-05 6.28020E-06-2.63139E-19 3.28240E-19
 -1      3812 8.71945E-05-3.07753E-05-2.41146E-05 2.40685E-05-2.23132E-18 3.51797E-19
 -1      3813 8.15211E-05-2.62389E-05-2.37187E-05 2.15240E-05-1.98046E-18 4.84423E-19
 -1      3814 9.52428E-05-2.85784E-05-2.85705E-05-1.96515E-09 6.99327E-19-1.52247E-18
 -1      3815 9.52992E-05-3.59647E-05-2.53761E-05 2.32598E-05-2.15386E-18-4.88923E-19
 -1      3816 8.78588E-05-2.30148E-05-2.77808E-05 7.99413E-06 1.52697E-19-1.76477E-19
 -1      3817 8.63345E-05-2.71514E-05-2.53593E-05 1.84054E-05-1.81705E-18-2.17416E-19
 -1      3818 9.52424E-05-2.85781E-05-2.85704E-05-4.09072E-09-2.15204E-19-6.95500E-19
 -1      3819 9.52429E-05-2.85786E-05-2.85704E-05-4.59619E-09-1.33782E-18-4.38022E-19
 -1      3820 9.52430E-05-2.85786E-05-2.85705E-05-3.28680E-09 3.80965E-19-1.47004E-18
 -1      3821 8.02690E-05-2.30943E-05-2.44995E-05-1.63452E-05 1.29988E-18 8.15653E-19
 -1      3822 9.52430E-05-2.85786E-05-2.85705E-05 4.20233E-09 1.50081E-18-2.02319E-18
 -1      3823 6.79151E-05-1.67953E-05-2.16801E-05 1.52160E-05-1.32897E-18 1.02151E-18
 -1      3824 6.92899E-05-1.61025E-05-2.27229E-05 1.07646E-05-9.31591E-19 6.38160E-19
 -1      3825 7.47463E-05-2.07603E-05-2.31300E-05 1.74021E-05-1.59562E-18 5.64865E-19
 -1      3826 6.68959E-05-1.41126E-05-2.26478E-05 4.28304E-06-1.18593E-20 7.05009E-19
 -1      3827 6.58978E-05-1.33263E-05-2.23738E-05 6.19734E-07 2.45173E-19 8.83363E-19
 -1      3828 9.52440E-05-2.85793E-05-2.85706E-05 5.17738E-10 3.47661E-18 1.12877E-18
 -1      3829 9.52440E-05-2.85793E-05-2.85706E-05-5.16052E-10 2.22542E-18 1.29669E-18
 -1      3830 6.90833E-05-1.48544E-05-2.32271E-05-3.21226E-06 3.27008E-19 9.64294E-19
 -1      3831 9.52435E-05-2.85789E-05-2.85705E-05 2.65594E-09 1.86604E-18-2.13832E-18
 -1      3832 9.52438E-05-2.85792E-05-2.85705E-05 1.70395E-09 3.13118E-18-1.84387E-18
 -1      3833 9.52448E-05-2.85800E-05-2.85706E-05 1.22211E-09 2.42504E-18-3.93331E-19
 -1      3834 7.63480E-05-2.01695E-05-2.40374E-05-1.43340E-05 1.04954E-18 6.57351E-19
 -1      3835 8.38015E-05-2.33810E-05-2.57987E-05-1.31768E-05 8.93583E-19 7.91582E-19
 -1      3836 8.36148E-05-2.26168E-05-2.61784E-05-1.13351E-05 8.93790E-19 4.38182E-19
 -1      3837 7.45733E-05-1.81611E-05-2.42634E-05-1.00080E-05 6.88370E-19 5.77614E-19
 -1      3838 9.17554E-05-2.47756E-05-2.87163E-05 2.54325E-06-4.38984E-19 3.59036E-19
 -1      3839 9.13503E-05-2.44392E-05-2.86762E-05 2.88186E-06-5.10706E-19 6.79273E-20
 -1      3840 9.52438E-05-2.85792E-05-2.85705E-05-1.46516E-09 1.29056E-18-4.81030E-19
 -1      3841 9.52435E-05-2.85789E-05-2.85705E-05-2.43338E-09 3.73708E-19-1.03705E-18
 -1      3842 9.52441E-05-2.85795E-05-2.85706E-05-2.80836E-09 4.94037E-19-1.40507E-18
 -1      3843 9.52448E-05-2.85800E-05-2.85706E-05-9.72374E-10 1.54411E-18 1.66515E-18
 -1      3844 8.32291E-05-2.53421E-05-2.47425E-05 1.82783E-05-1.67092E-18 1.10266E-19
 -1      3845 7.83700E-05-2.26385E-05-2.37513E-05 1.82830E-05-1.67002E-18 6.94276E-19
 -1      3846 7.68994E-05-2.04661E-05-2.41940E-05 1.46263E-05-9.42993E-19 4.68055E-19
 -1      3847 8.27004E-05-2.37385E-05-2.53248E-05 1.55606E-05-1.20958E-18-2.41394E-19
 -1      3848 8.52695E-05-2.26232E-05-2.68097E-05-9.43347E-06 6.82818E-19 2.77701E-20
 -1      3849 8.55720E-05-2.23799E-05-2.71220E-05-8.15985E-06 2.43765E-19 2.17635E-19
 -1      3850 8.66474E-05-2.25103E-05-2.74689E-05-7.07643E-06 3.17753E-20 2.74355E-19
 -1      3851 8.71210E-05-2.25469E-05-2.77042E-05-6.15698E-06 1.50441E-19 2.31091E-19
 -1      3852 8.44148E-05-2.12430E-05-2.70402E-05-6.70120E-06 3.06743E-19 3.39196E-19
 -1      3853 8.80417E-05-2.28046E-05-2.79488E-05-5.39662E-06 3.54414E-20 1.11461E-20
 -1      3854 8.85456E-05-2.29942E-05-2.81154E-05-4.71935E-06 9.74843E-20 6.79921E-20
 -1      3855 8.63992E-05-2.18245E-05-2.76515E-05-4.96980E-06-3.48282E-20 4.54466E-19
 -1      3856 8.93284E-05-2.33225E-05-2.82833E-05-4.17144E-06-3.29710E-19-2.89974E-19
 -1      3857 8.98116E-05-2.35937E-05-2.83955E-05-3.65787E-06-5.38495E-19-5.64058E-19
 -1      3858 8.80952E-05-2.25387E-05-2.80769E-05-3.75595E-06-3.80519E-19-6.54145E-20
 -1      3859 9.04704E-05-2.39493E-05-2.85069E-05-3.25015E-06-6.63780E-19-8.41352E-19
 -1      3860 9.09071E-05-2.42545E-05-2.85780E-05-2.84972E-06-1.07401E-18-5.45615E-19
 -1      3861 8.95262E-05-2.33073E-05-2.83646E-05-2.87940E-06-9.40543E-19-2.20776E-19
 -1      3862 9.14573E-05-2.46097E-05-2.86481E-05-2.53746E-06-9.34540E-19-6.74243E-19
 -1      3863 9.18368E-05-2.49182E-05-2.86892E-05-2.21892E-06-5.16964E-19-6.94510E-19
 -1      3864 9.07252E-05-2.40757E-05-2.85521E-05-2.22253E-06-7.63409E-19-3.92313E-19
 -1      3865 9.22915E-05-2.52543E-05-2.87299E-05-1.97535E-06-3.83850E-19-1.13764E-18
 -1      3866 9.26116E-05-2.55468E-05-2.87498E-05-1.71917E-06 7.73517E-22-1.73007E-18
 -1      3867 9.17212E-05-2.48087E-05-2.86672E-05-1.71704E-06-8.85233E-19-7.54479E-19
 -1      3868 9.29823E-05-2.58521E-05-2.87700E-05-1.52736E-06-3.76672E-20-1.81472E-18
 -1      3869 9.32458E-05-2.61170E-05-2.87756E-05-1.32075E-06-3.13867E-20-1.78138E-18
 -1      3870 9.25392E-05-2.54817E-05-2.87312E-05-1.32155E-06-3.38522E-19-1.74516E-18
 -1      3871 9.35437E-05-2.63855E-05-2.87821E-05-1.16933E-06 1.09086E-19-1.26870E-18
 -1      3872 9.37557E-05-2.66173E-05-2.87785E-05-1.00327E-06 3.84583E-20-8.19718E-19
 -1      3873 9.32015E-05-2.60805E-05-2.87600E-05-1.00958E-06 1.49811E-19-1.56673E-18
 -1      3874 9.39914E-05-2.68470E-05-2.87761E-05-8.84108E-07 9.87219E-21-7.01664E-19
 -1      3875 9.41585E-05-2.70441E-05-2.87672E-05-7.51650E-07 4.40258E-19-3.48215E-19
 -1      3876 9.37299E-05-2.65988E-05-2.87657E-05-7.63187E-07 2.85271E-19-3.42988E-19
 -1      3877 9.43418E-05-2.72359E-05-2.87596E-05-6.58548E-07 2.76550E-19-2.36217E-19
 -1      3878 9.44709E-05-2.73995E-05-2.87479E-05-5.54018E-07 1.69615E-19 1.12247E-19
 -1      3879 9.41447E-05-2.70368E-05-2.87568E-05-5.69336E-07 6.61815E-19 1.82600E-19
 -1      3880 9.46111E-05-2.75563E-05-2.87377E-05-4.82008E-07-2.05114E-19 3.33860E-19
 -1      3881 9.47088E-05-2.76892E-05-2.87251E-05-4.00566E-07-7.22827E-22-5.19284E-20
 -1      3882 9.44648E-05-2.73989E-05-2.87397E-05-4.17994E-07 1.70790E-19-1.94762E-19
 -1      3883 9.48140E-05-2.78148E-05-2.87138E-05-3.45563E-07-5.80686E-20-1.36879E-19
 -1      3884 9.48865E-05-2.79206E-05-2.87014E-05-2.83018E-07 1.07582E-19-3.96279E-19
 -1      3885 9.47075E-05-2.76924E-05-2.87186E-05-3.01078E-07 4.19216E-21-4.35339E-19
 -1      3886 9.49638E-05-2.80194E-05-2.86903E-05-2.41614E-07-2.87684E-19-5.76257E-19
 -1      3887 9.50163E-05-2.81021E-05-2.86788E-05-1.94342E-07-1.45011E-19-1.27333E-18
 -1      3888 9.48879E-05-2.79258E-05-2.86965E-05-2.11903E-07-5.58949E-19-1.57458E-18
 -1      3889 9.50718E-05-2.81783E-05-2.86685E-05-1.63692E-07-1.36772E-19-1.23698E-18
 -1      3890 9.51088E-05-2.82417E-05-2.86583E-05-1.28592E-07-1.59881E-19-9.91206E-19
 -1      3891 9.50192E-05-2.81080E-05-2.86751E-05-1.44887E-07-2.68670E-19-1.67363E-18
 -1      3892 9.51477E-05-2.82995E-05-2.86491E-05-1.06336E-07 3.61855E-19-1.18705E-18
 -1      3893 9.51730E-05-2.83471E-05-2.86404E-05-8.07911E-08 6.40160E-19-1.47653E-18
 -1      3894 9.51125E-05-2.82476E-05-2.86556E-05-9.53691E-08-1.16121E-19-1.82315E-18
 -1      3895 9.51992E-05-2.83900E-05-2.86324E-05-6.49936E-08 4.10989E-19-1.96252E-18
 -1      3896 9.52158E-05-2.84251E-05-2.86251E-05-4.68297E-08-1.47842E-19-1.27708E-18
 -1      3897 9.51768E-05-2.83526E-05-2.86384E-05-5.94903E-08 3.63348E-19-2.02852E-18
 -1      3898 9.52328E-05-2.84562E-05-2.86184E-05-3.59233E-08-1.61287E-19-8.58637E-19
 -1      3899 9.52431E-05-2.84815E-05-2.86124E-05-2.33656E-08-3.91403E-20-1.80302E-19
 -1      3900 9.52195E-05-2.84300E-05-2.86237E-05-3.40878E-08 5.73381E-19-1.79111E-18
 -1      3901 9.52534E-05-2.85036E-05-2.86070E-05-1.60989E-08-1.33550E-19 3.99799E-19
 -1      3902 9.52591E-05-2.85213E-05-2.86021E-05-7.72237E-09-4.25417E-20 1.13472E-18
 -1      3903 9.52464E-05-2.84857E-05-2.86115E-05-1.66051E-08 5.77684E-19 3.41886E-19
 -1      3904 9.52647E-05-2.85365E-05-2.85977E-05-3.11175E-09-2.34562E-19 1.41408E-18
 -1      3905 9.52674E-05-2.85485E-05-2.85940E-05 2.20879E-09-6.10641E-21 1.50072E-18
 -1      3906 9.52620E-05-2.85248E-05-2.86016E-05-5.00492E-09 5.79249E-20 4.98642E-19
 -1      3907 9.52698E-05-2.85585E-05-2.85905E-05 4.92470E-09-3.06775E-19 1.14781E-18
 -1      3908 9.52705E-05-2.85663E-05-2.85876E-05 8.06256E-09 2.54207E-19 8.06183E-19
 -1      3909 9.52698E-05-2.85514E-05-2.85936E-05 2.31187E-09-4.38133E-19 5.02173E-19
 -1      3910 9.52708E-05-2.85726E-05-2.85849E-05 9.46323E-09 2.79653E-19 7.44648E-19
 -1      3911 9.52701E-05-2.85774E-05-2.85826E-05 1.10845E-08 1.66592E-20 4.13866E-19
 -1      3912 9.52725E-05-2.85686E-05-2.85874E-05 6.58067E-09 2.82339E-20-2.95419E-19
 -1      3913 9.52692E-05-2.85810E-05-2.85806E-05 1.16031E-08 1.29446E-19-4.70246E-19
 -1      3914 9.52678E-05-2.85837E-05-2.85789E-05 1.22064E-08 7.63801E-19-1.06877E-18
 -1      3915 9.52718E-05-2.85792E-05-2.85826E-05 8.74006E-09-4.86003E-19-4.18798E-19
 -1      3916 9.52662E-05-2.85855E-05-2.85774E-05 1.21606E-08 3.81205E-19-1.68088E-18
 -1      3917 9.52645E-05-2.85866E-05-2.85762E-05 1.21119E-08 6.54901E-20-2.14806E-18
 -1      3918 9.52691E-05-2.85850E-05-2.85789E-05 9.49041E-09 1.57693E-19-2.22468E-18
 -1      3919 9.52625E-05-2.85872E-05-2.85751E-05 1.17291E-08 4.12619E-19-1.81704E-18
 -1      3920 9.52606E-05-2.85874E-05-2.85742E-05 1.12908E-08 3.79118E-19-2.04135E-18
 -1      3921 9.52655E-05-2.85877E-05-2.85762E-05 9.34396E-09 5.34608E-19-2.54630E-18
 -1      3922 9.52586E-05-2.85872E-05-2.85734E-05 1.07298E-08-6.93391E-20-1.79101E-18
 -1      3923 9.52568E-05-2.85868E-05-2.85728E-05 1.00849E-08-4.50558E-19-1.29741E-18
 -1      3924 9.52614E-05-2.85882E-05-2.85743E-05 8.66691E-09 2.27132E-19-1.56650E-18
 -1      3925 9.52548E-05-2.85862E-05-2.85723E-05 9.45275E-09-6.46639E-19-9.08787E-19
 -1      3926 9.52532E-05-2.85855E-05-2.85719E-05 8.72484E-09 4.89965E-19-6.52678E-19
 -1      3927 9.52574E-05-2.85874E-05-2.85729E-05 7.71384E-09-3.63604E-19-1.07001E-18
 -1      3928 9.52514E-05-2.85846E-05-2.85715E-05 8.08986E-09 1.01864E-18-7.04367E-19
 -1      3929 9.52500E-05-2.85837E-05-2.85712E-05 7.35816E-09 1.28060E-18-2.84784E-19
 -1      3930 9.52536E-05-2.85858E-05-2.85719E-05 6.65508E-09 5.27371E-19-4.76440E-19
 -1      3931 9.52484E-05-2.85827E-05-2.85710E-05 6.76810E-09 8.51804E-19-9.43773E-19
 -1      3932 9.52472E-05-2.85818E-05-2.85708E-05 6.07646E-09 7.23118E-19-2.29986E-18
 -1      3933 9.52503E-05-2.85840E-05-2.85713E-05 5.60235E-09 6.64580E-19-1.54789E-18
 -1      3934 9.52458E-05-2.85809E-05-2.85707E-05 5.54239E-09 2.07757E-18-2.46326E-18
 -1      3935 9.52448E-05-2.85801E-05-2.85706E-05 4.92407E-09 1.79651E-18-2.44712E-18
 -1      3936 9.52474E-05-2.85820E-05-2.85709E-05 4.63883E-09 1.00138E-18-2.75731E-18
 -1      3937 9.07547E-05-2.40476E-05-2.86025E-05 3.20109E-06-5.36371E-19 3.09614E-19
 -1      3938 9.02747E-05-2.37037E-05-2.85296E-05 3.61643E-06-2.79198E-19 1.79398E-19
 -1      3939 9.05292E-05-2.38570E-05-2.85602E-05 2.53385E-06-3.35687E-19 1.41595E-19
 -1      3940 9.32313E-05-2.60509E-05-2.87983E-05 1.56565E-06-3.62918E-19 5.35836E-19
 -1      3941 9.29626E-05-2.57735E-05-2.87955E-05 1.79586E-06-3.96784E-19 2.20618E-19
 -1      3942 9.37535E-05-2.65719E-05-2.87975E-05 1.20556E-06-9.15702E-19 1.38158E-18
 -1      3943 9.35410E-05-2.63322E-05-2.88037E-05 1.39415E-06-5.73349E-19 1.00950E-18
 -1      3944 9.31526E-05-2.59947E-05-2.87755E-05 1.23956E-06-9.43993E-19 6.63789E-19
 -1      3945 9.41614E-05-2.70122E-05-2.87825E-05 9.13962E-07-3.44396E-19 1.39207E-18
 -1      3946 9.39964E-05-2.68103E-05-2.87939E-05 1.06676E-06-4.82685E-19 1.60260E-18
 -1      3947 9.36989E-05-2.65350E-05-2.87795E-05 9.54381E-07-8.25111E-19 2.47961E-19
 -1      3948 9.44751E-05-2.73764E-05-2.87600E-05 6.80768E-07-2.34749E-19 1.56795E-18
 -1      3949 9.43491E-05-2.72099E-05-2.87737E-05 8.02887E-07-2.36034E-20 1.75276E-18
 -1      3950 9.41245E-05-2.69887E-05-2.87687E-05 7.23271E-07-4.00335E-19 7.64296E-19
 -1      3951 9.47124E-05-2.76718E-05-2.87343E-05 4.96986E-07-5.05013E-19 9.47814E-19
 -1      3952 9.46179E-05-2.75372E-05-2.87485E-05 5.93115E-07-3.01394E-19 1.24281E-18
 -1      3953 9.44510E-05-2.73622E-05-2.87495E-05 5.38356E-07 3.69976E-20 7.94783E-19
 -1      3954 9.48886E-05-2.79071E-05-2.87084E-05 3.54442E-07-9.24338E-19 6.97577E-19
 -1      3955 9.48191E-05-2.78002E-05-2.87220E-05 4.28889E-07-7.43546E-19 7.54235E-19
 -1      3956 9.46976E-05-2.76640E-05-2.87265E-05 3.92589E-07-5.35671E-19 1.27162E-18
 -1      3957 9.50169E-05-2.80912E-05-2.86839E-05 2.45769E-07-1.88950E-19 1.43918E-19
 -1      3958 9.49669E-05-2.80079E-05-2.86964E-05 3.02433E-07-6.23657E-19-7.45858E-20
 -1      3959 9.48803E-05-2.79037E-05-2.87028E-05 2.79542E-07-2.89085E-19 2.48719E-19
 -1      3960 9.51082E-05-2.82328E-05-2.86620E-05 1.64445E-07 1.87987E-20 8.46630E-19
 -1      3961 9.50731E-05-2.81689E-05-2.86729E-05 2.06774E-07 4.88408E-20 6.50881E-19
 -1      3962 9.50132E-05-2.80906E-05-2.86800E-05 1.93394E-07-2.05737E-19 2.82199E-19
 -1      3963 9.51715E-05-2.83398E-05-2.86430E-05 1.04821E-07-1.04837E-19 9.76642E-19
 -1      3964 9.51476E-05-2.82917E-05-2.86523E-05 1.35797E-07 3.28422E-19 1.36557E-18
 -1      3965 9.51075E-05-2.82340E-05-2.86593E-05 1.28978E-07-1.55416E-19 7.63697E-19
 -1      3966 9.52138E-05-2.84190E-05-2.86269E-05 6.21107E-08 3.85881E-20-1.34790E-19
 -1      3967 9.51981E-05-2.83835E-05-2.86346E-05 8.42547E-08 4.55770E-20 5.35998E-19
 -1      3968 9.51726E-05-2.83420E-05-2.86412E-05 8.18071E-08 6.06916E-19 5.59647E-19
 -1      3969 9.52408E-05-2.84765E-05-2.86136E-05 3.23477E-08 2.36156E-19 5.22456E-20
 -1      3970 9.52311E-05-2.84509E-05-2.86199E-05 4.77437E-08-1.53867E-19-9.15406E-19
 -1      3971 9.52160E-05-2.84217E-05-2.86258E-05 4.80745E-08 3.30039E-19-3.82212E-19
 -1      3972 9.52568E-05-2.85172E-05-2.86029E-05 1.23071E-08-5.97036E-20 9.55535E-20
 -1      3973 9.52513E-05-2.84992E-05-2.86079E-05 2.26449E-08 7.80727E-20-3.26275E-19
 -1      3974 9.52434E-05-2.84793E-05-2.86130E-05 2.46215E-08 1.16849E-19-9.81208E-19
 -1      3975 9.52652E-05-2.85452E-05-2.85944E-05-5.81245E-10-1.25870E-18 5.19954E-19
 -1      3976 9.52626E-05-2.85329E-05-2.85983E-05 6.04245E-09-7.12687E-19-8.10725E-20
 -1      3977 9.52596E-05-2.85199E-05-2.86026E-05 8.88041E-09-4.38094E-19-9.79171E-19
 -1      3978 9.52684E-05-2.85638E-05-2.85878E-05-8.32773E-09-2.41458E-19 6.02674E-19
 -1      3979 9.52678E-05-2.85557E-05-2.85908E-05-4.36894E-09-9.00732E-19 6.22431E-19
 -1      3980 9.52679E-05-2.85477E-05-2.85943E-05-1.19521E-09-8.92229E-19-9.97391E-19
 -1      3981 9.52684E-05-2.85754E-05-2.85828E-05-1.24760E-08-7.11516E-20 5.84692E-19
 -1      3982 9.52689E-05-2.85704E-05-2.85850E-05-1.03780E-08 1.68584E-19 7.24906E-19
 -1      3983 9.52709E-05-2.85659E-05-2.85879E-05-7.20528E-09-2.39961E-19-4.39645E-19
 -1      3984 9.52663E-05-2.85821E-05-2.85790E-05-1.41887E-08 9.02046E-19 7.92593E-19
 -1      3985 9.52676E-05-2.85793E-05-2.85806E-05-1.33470E-08 3.32185E-19 6.06460E-19
 -1      3986 9.52706E-05-2.85772E-05-2.85829E-05-1.03771E-08 9.88834E-20-1.38676E-19
 -1      3987 9.52632E-05-2.85855E-05-2.85762E-05-1.43237E-08 5.25310E-19 1.36859E-18
 -1      3988 9.52648E-05-2.85841E-05-2.85774E-05-1.42929E-08 9.83436E-19 4.22476E-19
 -1      3989 9.52682E-05-2.85837E-05-2.85791E-05-1.16339E-08 1.18441E-18 8.16657E-19
 -1      3990 9.52597E-05-2.85866E-05-2.85742E-05-1.34997E-08 1.01312E-18 1.01696E-18
 -1      3991 9.52613E-05-2.85862E-05-2.85750E-05-1.39593E-08 1.11054E-18 1.02693E-18
 -1      3992 9.52648E-05-2.85867E-05-2.85763E-05-1.16560E-08 1.33496E-18 8.82232E-21
 -1      3993 9.52560E-05-2.85862E-05-2.85728E-05-1.21515E-08 9.68169E-19 9.62663E-19
 -1      3994 9.52577E-05-2.85865E-05-2.85733E-05-1.28768E-08 7.36685E-19 2.92350E-19
 -1      3995 9.52609E-05-2.85876E-05-2.85743E-05-1.09331E-08 1.37575E-18 4.91946E-19
 -1      3996 9.52526E-05-2.85850E-05-2.85718E-05-1.05743E-08 1.40940E-18 7.78400E-19
 -1      3997 9.52541E-05-2.85856E-05-2.85722E-05-1.14130E-08 1.46148E-18 4.03702E-19
 -1      3998 9.52570E-05-2.85870E-05-2.85729E-05-9.80820E-09 1.33141E-18-4.74078E-19
 -1      3999 9.52495E-05-2.85834E-05-2.85712E-05-8.96026E-09 8.58454E-19 7.61981E-20
 -1      4000 9.52509E-05-2.85842E-05-2.85714E-05-9.81360E-09 1.58684E-18 9.68272E-19
 -1      4001 9.52534E-05-2.85856E-05-2.85719E-05-8.51348E-09 1.52343E-18-9.01032E-19
 -1      4002 9.52469E-05-2.85817E-05-2.85708E-05-7.42948E-09-9.97843E-20 3.19951E-19
 -1      4003 9.52480E-05-2.85825E-05-2.85709E-05-8.23614E-09-9.07307E-20 2.55363E-19
 -1      4004 9.52501E-05-2.85839E-05-2.85713E-05-7.19865E-09 8.24102E-19-5.68700E-19
 -1      4005 9.52446E-05-2.85800E-05-2.85705E-05-6.05160E-09-3.65016E-19 4.93946E-19
 -1      4006 9.52456E-05-2.85808E-05-2.85706E-05-6.76939E-09-1.91180E-19 1.90528E-19
 -1      4007 9.52473E-05-2.85820E-05-2.85709E-05-5.96404E-09 2.32202E-19-2.77974E-19
 -1      4008 9.52435E-05-2.85790E-05-2.85705E-05-4.99979E-09-1.63107E-18 8.61501E-19
 -1      4009 9.52440E-05-2.85795E-05-2.85705E-05-5.57643E-09-8.32801E-19 3.56847E-19
 -1      4010 9.52454E-05-2.85806E-05-2.85707E-05-4.91331E-09-5.83031E-19-5.83243E-19
 -1      4011 9.52442E-05-2.85796E-05-2.85706E-05-4.07189E-09-9.07626E-19-1.12655E-18
 -1      4012 8.45185E-05-2.16034E-05-2.70022E-05 8.49315E-06-3.05474E-19-3.09033E-19
 -1      4013 8.39665E-05-2.17795E-05-2.66246E-05 9.87281E-06-7.72822E-19-5.45984E-19
 -1      4014 6.98768E-05-1.53946E-05-2.32186E-05 7.58317E-06-4.81303E-19 4.81101E-19
 -1      4015 7.17051E-05-1.58199E-05-2.39650E-05 4.94736E-06-3.93460E-19 1.34526E-19
 -1      4016 7.39022E-05-1.79228E-05-2.40494E-05 1.06825E-05-9.52472E-19 1.46021E-19
 -1      4017 7.22137E-05-1.58330E-05-2.42144E-05-2.35376E-06 3.54427E-19 7.37623E-19
 -1      4018 7.27978E-05-1.63500E-05-2.40897E-05-6.86095E-06 4.45265E-19 9.14397E-19
 -1      4019 7.76080E-05-1.88045E-05-2.51562E-05-8.56551E-06 6.57718E-19 4.38467E-19
 -1      4020 8.95476E-05-2.32992E-05-2.84103E-05 4.02110E-06-2.55936E-19 3.04951E-19
 -1      4021 8.89969E-05-2.29769E-05-2.82914E-05 4.54318E-06-5.48563E-19 5.26861E-19
 -1      4022 8.92209E-05-2.30081E-05-2.83597E-05 3.18486E-06-2.24537E-19 3.32158E-19
 -1      4023 8.32959E-05-2.21517E-05-2.62539E-05 1.14158E-05-7.97943E-19-6.49586E-19
 -1      4024 8.30046E-05-2.27919E-05-2.57645E-05 1.33741E-05-9.78222E-19-2.67226E-19
 -1      4025 8.02158E-05-2.13155E-05-2.52458E-05 1.31149E-05-8.34412E-19-6.02105E-20
 -1      4026 8.12417E-05-2.04329E-05-2.60970E-05 9.41923E-06-7.43041E-19-5.25428E-19
 -1      4027 8.81137E-05-2.25857E-05-2.81080E-05 5.07682E-06-5.17090E-19 5.68656E-19
 -1      4028 8.75112E-05-2.23321E-05-2.79268E-05 5.75791E-06 5.17865E-20 4.82071E-19
 -1      4029 8.76267E-05-2.21327E-05-2.80467E-05 4.02929E-06-3.19139E-19 9.73550E-19
 -1      4030 8.64439E-05-2.19932E-05-2.76558E-05 6.49309E-06-1.25680E-19 1.49827E-19
 -1      4031 8.58322E-05-2.18798E-05-2.73939E-05 7.42442E-06-2.60101E-19-5.02185E-20
 -1      4032 8.33343E-05-2.05081E-05-2.68926E-05 6.81466E-06-3.57378E-19-3.29694E-19
 -1      4033 9.25730E-05-2.54495E-05-2.87756E-05 2.00622E-06-3.19891E-19 1.48253E-19
 -1      4034 9.22396E-05-2.51381E-05-2.87580E-05 2.28535E-06-3.51453E-19-1.31637E-19
 -1      4035 9.15970E-05-2.46491E-05-2.86813E-05 2.01308E-06-3.21526E-19-4.24865E-19
 -1      4036 9.24611E-05-2.53651E-05-2.87471E-05 1.58823E-06-2.98093E-19 1.47878E-19
 -1      4037 9.52453E-05-2.85804E-05-2.85707E-05 3.27554E-09 2.05329E-18-3.50355E-18
 -1      4038 9.52441E-05-2.85795E-05-2.85705E-05 4.03718E-09 1.60028E-18-3.04157E-18
 -1      4039 8.56921E-05-2.12806E-05-2.75771E-05 5.18140E-06-3.90672E-19 2.27773E-19
 -1      4040 9.52460E-05-2.85809E-05-2.85707E-05-6.79601E-10 1.80462E-18 2.46137E-18
 -1      4041 9.52457E-05-2.85807E-05-2.85707E-05-1.65978E-09 2.16452E-18 4.39920E-19
 -1      4042 8.16655E-05-2.08585E-05-2.60388E-05-9.60524E-06 5.50380E-19 3.23087E-19
 -1      4043 7.48881E-05-1.67952E-05-2.48717E-05 3.75417E-06-4.94419E-19-1.22757E-19
 -1      4044 7.28083E-05-1.55736E-05-2.44012E-05 7.34078E-07-9.43970E-20 4.80501E-20
 -1      4045 7.55323E-05-1.69126E-05-2.51368E-05-2.56451E-06 9.85867E-20 2.82855E-19
 -1      4046 9.52458E-05-2.85807E-05-2.85707E-05 1.93703E-09 1.46470E-18-1.80016E-18
 -1      4047 9.52460E-05-2.85809E-05-2.85707E-05 7.30997E-10 1.10246E-18 6.81444E-19
 -1      4048 9.52470E-05-2.85817E-05-2.85709E-05 5.01307E-11 8.15705E-19 1.31383E-18
 -1      4049 9.52466E-05-2.85814E-05-2.85708E-05 2.81400E-09 1.46766E-18-1.82186E-18
 -1      4050 9.52453E-05-2.85804E-05-2.85707E-05-2.46819E-09 9.11165E-19-9.24940E-20
 -1      4051 9.52448E-05-2.85800E-05-2.85706E-05-3.34943E-09-2.90544E-20-1.78207E-19
 -1      4052 9.52454E-05-2.85805E-05-2.85707E-05-3.74470E-09-1.29971E-19 9.22975E-20
 -1      4053 9.52464E-05-2.85813E-05-2.85708E-05-2.23373E-09 1.25091E-18 1.46992E-18
 -1      4054 1.05245E-04-4.18468E-05-2.69866E-05 2.08066E-05-1.85341E-18-1.74282E-18
 -1      4055 9.41173E-05-2.70242E-05-2.87582E-05 5.06980E-07-3.62875E-19 9.20530E-20
 -1      4056 9.39311E-05-2.68133E-05-2.87657E-05 5.99858E-07-6.72104E-19-2.52203E-19
 -1      4057 8.25028E-05-2.01660E-05-2.67059E-05-5.60492E-06 5.18872E-19-2.61943E-19
 -1      4058 8.35245E-05-2.05090E-05-2.70621E-05-4.70853E-06 4.68804E-19 1.25099E-19
 -1      4059 8.52153E-05-2.09334E-05-2.75861E-05 3.53859E-06-7.00608E-19 2.35354E-19
 -1      4060 8.41375E-05-2.04607E-05-2.72963E-05 4.10314E-06-3.06305E-19-5.36582E-21
 -1      4061 8.49690E-05-2.10074E-05-2.74143E-05-4.06942E-06 2.05444E-19-1.90682E-20
 -1      4062 8.59087E-05-2.14115E-05-2.76746E-05-3.45184E-06 6.85615E-20 3.39397E-19
 -1      4063 8.33359E-05-1.99357E-05-2.70997E-05-2.97364E-06 3.40153E-19-6.58661E-19
 -1      4064 8.70302E-05-2.19064E-05-2.79147E-05-3.02874E-06-3.23114E-19 4.43949E-19
 -1      4065 8.78242E-05-2.23276E-05-2.80929E-05-2.59359E-06-4.98821E-19 6.15879E-19
 -1      4066 8.58762E-05-2.11069E-05-2.77005E-05-2.15668E-06-2.95519E-20-2.42714E-19
 -1      4067 8.87145E-05-2.27967E-05-2.82548E-05-2.29254E-06-1.22520E-18 5.66609E-19
 -1      4068 8.93794E-05-2.32136E-05-2.83732E-05-1.97205E-06-1.12028E-18 2.50026E-19
 -1      4069 8.78513E-05-2.21650E-05-2.81086E-05-1.59266E-06-1.02455E-18 3.65673E-19
 -1      4070 9.00978E-05-2.36552E-05-2.84793E-05-1.75194E-06-7.98981E-19-1.15732E-19
 -1      4071 9.06519E-05-2.40530E-05-2.85545E-05-1.50759E-06-1.13456E-18-4.36320E-19
 -1      4072 8.94376E-05-2.31410E-05-2.83809E-05-1.18768E-06-1.23537E-18 2.13337E-19
 -1      4073 9.12336E-05-2.44599E-05-2.86208E-05-1.34371E-06-1.18920E-18-2.57495E-19
 -1      4074 9.16912E-05-2.48271E-05-2.86652E-05-1.15298E-06-7.52526E-19-4.25339E-19
 -1      4075 9.07228E-05-2.40349E-05-2.85563E-05-8.91112E-07-8.09254E-19-1.62686E-19
 -1      4076 9.21606E-05-2.51929E-05-2.87034E-05-1.02938E-06-4.61321E-19-2.09621E-19
 -1      4077 9.25338E-05-2.55220E-05-2.87263E-05-8.78420E-07-4.52096E-20-6.84521E-19
 -1      4078 9.17637E-05-2.48403E-05-2.86629E-05-6.69997E-07-6.09565E-19 8.10323E-19
 -1      4079 9.29094E-05-2.58431E-05-2.87451E-05-7.84494E-07 2.42550E-19-9.62803E-19
 -1      4080 9.32094E-05-2.61303E-05-2.87535E-05-6.64335E-07 3.72984E-19-6.92345E-19
 -1      4081 9.26015E-05-2.55515E-05-2.87215E-05-5.02855E-07 6.35275E-22 2.33195E-19
 -1      4082 9.35067E-05-2.64058E-05-2.87595E-05-5.92801E-07 5.15903E-19-4.51910E-19
 -1      4083 9.37441E-05-2.66505E-05-2.87585E-05-4.97224E-07 9.77297E-19 1.04595E-20
 -1      4084 9.32693E-05-2.61666E-05-2.87474E-05-3.75427E-07 7.78063E-19 2.77300E-20
 -1      4085 9.39762E-05-2.68819E-05-2.87563E-05-4.42861E-07 7.88132E-19 2.99228E-19
 -1      4086 9.41611E-05-2.70859E-05-2.87496E-05-3.67247E-07 7.95750E-19 1.12840E-19
 -1      4087 9.37951E-05-2.66880E-05-2.87519E-05-2.77933E-07 9.11489E-19-3.56874E-19
 -1      4088 9.43397E-05-2.72763E-05-2.87426E-05-3.26172E-07 2.04351E-19-1.23155E-19
 -1      4089 9.44811E-05-2.74430E-05-2.87329E-05-2.66874E-07-9.90618E-20-5.43003E-19
 -1      4090 9.42031E-05-2.71212E-05-2.87432E-05-2.03398E-07-1.05236E-19-1.11161E-18
 -1      4091 9.46162E-05-2.75969E-05-2.87234E-05-2.36115E-07-5.34224E-19-8.49723E-19
 -1      4092 9.47224E-05-2.77305E-05-2.87126E-05-1.90132E-07-4.77193E-19-1.17737E-18
 -1      4093 9.45148E-05-2.74746E-05-2.87269E-05-1.46665E-07-5.95850E-19-1.51493E-18
 -1      4094 9.48227E-05-2.78525E-05-2.87021E-05-1.67368E-07-5.35908E-19-1.34993E-18
 -1      4095 9.49009E-05-2.79577E-05-2.86912E-05-1.32177E-07-6.68115E-19-1.65972E-18
 -1      4096 9.47489E-05-2.77575E-05-2.87072E-05-1.03801E-07-9.02395E-19-1.61122E-18
 -1      4097 9.49739E-05-2.80527E-05-2.86809E-05-1.15575E-07-2.26888E-19-2.30351E-18
 -1      4098 9.50302E-05-2.81340E-05-2.86707E-05-8.90449E-08-3.36953E-20-2.27308E-18
 -1      4099 9.49212E-05-2.79802E-05-2.86866E-05-7.17446E-08-6.63474E-19-2.06931E-18
 -1      4100 9.50821E-05-2.82068E-05-2.86611E-05-7.71525E-08 3.39079E-20-2.17833E-18
 -1      4101 9.51215E-05-2.82684E-05-2.86519E-05-5.74876E-08 1.52767E-19-1.93599E-18
 -1      4102 9.50454E-05-2.81523E-05-2.86668E-05-4.80747E-08 1.25180E-19-2.40796E-18
 -1      4103 9.51572E-05-2.83230E-05-2.86434E-05-4.91561E-08 3.70504E-19-1.78542E-18
 -1      4104 9.51839E-05-2.83689E-05-2.86355E-05-3.48595E-08 6.10269E-19-1.78654E-18
 -1      4105 9.51327E-05-2.82829E-05-2.86488E-05-3.08685E-08 1.66675E-19-1.81227E-18
 -1      4106 9.52077E-05-2.84091E-05-2.86281E-05-2.91851E-08 1.11233E-18-1.93835E-18
 -1      4107 9.52251E-05-2.84425E-05-2.86214E-05-1.90244E-08 1.46325E-18-1.30902E-18
 -1      4108 9.51920E-05-2.83802E-05-2.86329E-05-1.85972E-08 9.66680E-19-2.08082E-18
 -1      4109 9.52401E-05-2.84714E-05-2.86152E-05-1.53021E-08 9.89988E-19-1.40629E-18
 -1      4110 9.52506E-05-2.84951E-05-2.86097E-05-8.27727E-09 1.00664E-18-3.75589E-19
 -1      4111 9.52306E-05-2.84511E-05-2.86194E-05-1.00496E-08 1.19782E-18-1.95057E-18
 -1      4112 9.52594E-05-2.85153E-05-2.86046E-05-5.96267E-09 1.16904E-19-9.98912E-19
 -1      4113 9.52652E-05-2.85317E-05-2.86002E-05-1.27402E-09-3.91285E-19-1.47655E-18
 -1      4114 9.52544E-05-2.85015E-05-2.86081E-05-4.27316E-09 5.37736E-20-2.95091E-18
 -1      4115 9.52697E-05-2.85454E-05-2.85961E-05 4.77250E-11-7.01277E-19-1.63458E-18
 -1      4116 9.52722E-05-2.85563E-05-2.85926E-05 3.02979E-09-5.98924E-19-1.83877E-18
 -1      4117 9.52676E-05-2.85364E-05-2.85990E-05-5.25461E-10-6.13472E-19-3.28405E-18
 -1      4118 9.52738E-05-2.85652E-05-2.85894E-05 3.67052E-09-2.01805E-19-2.20467E-18
 -1      4119 9.52742E-05-2.85721E-05-2.85866E-05 5.43377E-09 2.88042E-19-2.09851E-18
 -1      4120 9.52736E-05-2.85597E-05-2.85917E-05 1.76552E-09-7.15541E-19-2.93202E-18
 -1      4121 9.52739E-05-2.85775E-05-2.85841E-05 5.62408E-09-2.36375E-19-2.15372E-18
 -1      4122 9.52730E-05-2.85816E-05-2.85820E-05 6.54011E-09-7.95838E-19-2.58406E-18
 -1      4123 9.52749E-05-2.85744E-05-2.85860E-05 3.03492E-09-1.27773E-19-3.97416E-18
 -1      4124 9.52716E-05-2.85845E-05-2.85801E-05 6.44736E-09-7.94513E-19-2.81071E-18
 -1      4125 9.52699E-05-2.85866E-05-2.85786E-05 6.79424E-09 2.75994E-19-3.08954E-18
 -1      4126 9.52732E-05-2.85831E-05-2.85816E-05 3.60885E-09-4.55736E-19-2.33064E-18
 -1      4127 9.52679E-05-2.85879E-05-2.85771E-05 6.53724E-09 1.08488E-18-2.60229E-18
 -1      4128 9.52660E-05-2.85886E-05-2.85760E-05 6.51896E-09 9.09262E-19-2.10129E-18
 -1      4129 9.52699E-05-2.85876E-05-2.85782E-05 3.72764E-09 1.00457E-18-2.21026E-18
 -1      4130 9.52638E-05-2.85888E-05-2.85750E-05 6.17981E-09 1.13488E-18-1.70336E-18
 -1      4131 9.52617E-05-2.85887E-05-2.85741E-05 5.94266E-09 9.37484E-19-1.58928E-18
 -1      4132 9.52658E-05-2.85892E-05-2.85758E-05 3.56499E-09 1.51656E-18-1.41361E-18
 -1      4133 9.52595E-05-2.85882E-05-2.85734E-05 5.57621E-09 2.68127E-19-8.83434E-19
 -1      4134 9.52575E-05-2.85876E-05-2.85728E-05 5.22220E-09 4.64601E-19-7.45999E-19
 -1      4135 9.52614E-05-2.85890E-05-2.85740E-05 3.24371E-09 1.21751E-18-5.95377E-19
 -1      4136 9.52555E-05-2.85868E-05-2.85723E-05 4.86345E-09 6.99123E-19 4.27679E-19
 -1      4137 9.52537E-05-2.85859E-05-2.85719E-05 4.46085E-09 1.48511E-18 7.12876E-19
 -1      4138 9.52572E-05-2.85877E-05-2.85727E-05 2.84879E-09 1.67763E-18 1.42997E-18
 -1      4139 9.52518E-05-2.85849E-05-2.85715E-05 4.12630E-09 1.96807E-19 5.94180E-21
 -1      4140 9.52503E-05-2.85839E-05-2.85713E-05 3.72145E-09-7.32908E-19-1.49593E-18
 -1      4141 9.52533E-05-2.85859E-05-2.85718E-05 2.43793E-09-1.16196E-19 1.40232E-18
 -1      4142 9.52490E-05-2.85831E-05-2.85711E-05 3.42610E-09-1.06720E-19-1.74215E-18
 -1      4143 9.52477E-05-2.85821E-05-2.85709E-05 3.05036E-09 8.19781E-19-2.37553E-18
 -1      4144 9.52480E-05-2.85824E-05-2.85710E-05 1.63425E-09 2.17677E-19-9.01864E-19
 -1      4145 9.52503E-05-2.85841E-05-2.85713E-05 2.03041E-09-7.34178E-19 1.27456E-19
 -1      4146 9.04242E-05-2.38404E-05-2.85495E-05 1.77505E-06-4.19504E-19 1.88064E-19
 -1      4147 8.98293E-05-2.34126E-05-2.84692E-05 2.01767E-06-2.00363E-19 3.76515E-19
 -1      4148 8.73500E-05-2.19648E-05-2.80475E-05 2.78089E-06-2.54003E-19-2.66597E-19
 -1      4149 8.64604E-05-2.14893E-05-2.78519E-05 3.18215E-06-4.22579E-19 1.44796E-19
 -1      4150 8.52201E-05-2.06657E-05-2.75973E-05 2.21326E-06-4.03978E-19-8.98460E-19
 -1      4151 9.36846E-05-2.65721E-05-2.87676E-05 6.70769E-07-3.24737E-19-3.11297E-20
 -1      4152 9.34433E-05-2.63183E-05-2.87693E-05 7.84721E-07-5.28672E-19 3.41307E-19
 -1      4153 9.37166E-05-2.65935E-05-2.87573E-05 4.45932E-07-3.51228E-19-6.42394E-19
 -1      4154 9.31275E-05-2.60304E-05-2.87624E-05 8.72489E-07-7.92815E-19 9.15206E-19
 -1      4155 9.28196E-05-2.57310E-05-2.87542E-05 1.01056E-06-4.90658E-19 1.24546E-18
 -1      4156 9.31651E-05-2.60495E-05-2.87510E-05 5.77840E-07-2.65322E-19 4.89919E-19
 -1      4157 9.44486E-05-2.73945E-05-2.87406E-05 3.75909E-07-2.37384E-19 1.21514E-19
 -1      4158 9.43072E-05-2.72225E-05-2.87511E-05 4.50489E-07 7.30168E-20 8.88671E-20
 -1      4159 9.41442E-05-2.70455E-05-2.87493E-05 3.37980E-07-2.35036E-19-8.02369E-19
 -1      4160 9.46982E-05-2.76924E-05-2.87192E-05 2.72713E-07-8.65523E-19 9.71016E-19
 -1      4161 9.45925E-05-2.75546E-05-2.87308E-05 3.31632E-07-6.05121E-19 8.19465E-19
 -1      4162 9.44708E-05-2.74143E-05-2.87331E-05 2.51073E-07-9.40620E-19-9.50580E-20
 -1      4163 9.48828E-05-2.79279E-05-2.86968E-05 1.92868E-07-4.25869E-20 3.95049E-20
 -1      4164 9.48054E-05-2.78194E-05-2.87084E-05 2.38620E-07-3.02114E-19 4.64014E-19
 -1      4165 9.47162E-05-2.77101E-05-2.87130E-05 1.82344E-07-5.07183E-19-2.25344E-19
 -1      4166 9.50167E-05-2.81109E-05-2.86752E-05 1.32226E-07-4.96628E-19 6.24061E-19
 -1      4167 9.49612E-05-2.80270E-05-2.86861E-05 1.67116E-07-2.56982E-19 7.12285E-19
 -1      4168 9.48972E-05-2.79432E-05-2.86918E-05 1.28999E-07-5.38453E-19 2.78427E-19
 -1      4169 9.51114E-05-2.82506E-05-2.86556E-05 8.70788E-08-1.97758E-19 4.04369E-19
 -1      4170 9.50726E-05-2.81868E-05-2.86653E-05 1.13176E-07-1.63561E-19 8.36664E-19
 -1      4171 9.50280E-05-2.81238E-05-2.86713E-05 8.83957E-08-3.84960E-19 9.35413E-19
 -1      4172 9.51765E-05-2.83553E-05-2.86383E-05 5.41994E-08 6.87911E-19 2.91790E-20
 -1      4173 9.51503E-05-2.83077E-05-2.86467E-05 7.33116E-08 6.51453E-19 6.51257E-19
 -1      4174 9.51202E-05-2.82613E-05-2.86525E-05 5.81283E-08 7.38996E-20 1.85012E-19
 -1      4175 9.52197E-05-2.84323E-05-2.86236E-05 3.08499E-08 6.96019E-20-3.23312E-19
 -1      4176 9.52027E-05-2.83975E-05-2.86307E-05 4.45166E-08 3.49671E-19-2.79626E-19
 -1      4177 9.51833E-05-2.83640E-05-2.86360E-05 3.60730E-08 4.89258E-19-1.58433E-19
 -1      4178 9.52468E-05-2.84875E-05-2.86114E-05 1.47615E-08 1.86815E-19-6.90389E-19
 -1      4179 9.52364E-05-2.84627E-05-2.86172E-05 2.42619E-08 2.01265E-19-8.27509E-19
 -1      4180 9.52247E-05-2.84392E-05-2.86219E-05 2.04124E-08 2.67726E-19-2.68335E-19
 -1      4181 9.52625E-05-2.85262E-05-2.86015E-05 4.09419E-09-5.48621E-19-8.58378E-19
 -1      4182 9.52568E-05-2.85089E-05-2.86061E-05 1.04691E-08 1.70037E-19-3.91056E-19
 -1      4183 9.52505E-05-2.84929E-05-2.86101E-05 9.63069E-09 9.03369E-20-5.00045E-19
 -1      4184 9.52704E-05-2.85524E-05-2.85935E-05-2.61353E-09-8.83944E-19-5.83360E-19
 -1      4185 9.52679E-05-2.85408E-05-2.85972E-05 1.46556E-09-6.66839E-19-1.01689E-18
 -1      4186 9.52652E-05-2.85304E-05-2.86005E-05 2.49418E-09-3.30424E-19-9.10458E-19
 -1      4187 9.52730E-05-2.85694E-05-2.85873E-05-6.49999E-09-1.78338E-19-6.95346E-19
 -1      4188 9.52725E-05-2.85620E-05-2.85902E-05-4.06800E-09-8.97432E-19-6.86600E-19
 -1      4189 9.52723E-05-2.85555E-05-2.85929E-05-1.97986E-09-7.73053E-19 1.41127E-19
 -1      4190 9.52722E-05-2.85797E-05-2.85825E-05-8.43449E-09 5.82163E-20-3.73958E-19
 -1      4191 9.52731E-05-2.85753E-05-2.85847E-05-7.15207E-09 3.61157E-19-3.18454E-19
 -1      4192 9.52743E-05-2.85717E-05-2.85869E-05-4.55793E-09-1.94276E-19 1.44674E-19
 -1      4193 9.52695E-05-2.85854E-05-2.85789E-05-9.06762E-09 1.49885E-18 1.17670E-19
 -1      4194 9.52711E-05-2.85831E-05-2.85805E-05-8.56058E-09 6.74967E-19-4.18984E-20
 -1      4195 9.52731E-05-2.85814E-05-2.85822E-05-5.82580E-09 4.21123E-19-7.66051E-21
 -1      4196 9.52658E-05-2.85879E-05-2.85762E-05-8.87579E-09 5.44002E-19 8.25446E-19
 -1      4197 9.52677E-05-2.85870E-05-2.85774E-05-8.86856E-09 1.54665E-18 5.62370E-19
 -1      4198 9.52700E-05-2.85866E-05-2.85787E-05-6.22189E-09 9.41173E-19 6.62202E-19
 -1      4199 9.52617E-05-2.85883E-05-2.85743E-05-8.19956E-09 2.14072E-18 3.65330E-19
 -1      4200 9.52637E-05-2.85883E-05-2.85751E-05-8.49383E-09 1.41642E-18 6.68853E-19
 -1      4201 9.52661E-05-2.85887E-05-2.85761E-05-6.06715E-09 1.29914E-18 1.17353E-18
 -1      4202 9.52576E-05-2.85875E-05-2.85729E-05-7.27546E-09 1.89197E-18 6.03100E-20
 -1      4203 9.52595E-05-2.85880E-05-2.85735E-05-7.73244E-09 2.11772E-18 4.65130E-19
 -1      4204 9.52618E-05-2.85889E-05-2.85742E-05-5.59089E-09 2.62000E-18-1.40482E-19
 -1      4205 9.52538E-05-2.85859E-05-2.85719E-05-6.26166E-09 9.63434E-19-6.87488E-19
 -1      4206 9.52556E-05-2.85867E-05-2.85723E-05-6.78786E-09 1.78658E-18-5.02785E-19
 -1      4207 9.52576E-05-2.85878E-05-2.85729E-05-4.95261E-09 2.08521E-18 6.52225E-19
 -1      4208 9.52504E-05-2.85840E-05-2.85713E-05-5.25730E-09 5.39849E-19 3.08991E-19
 -1      4209 9.52520E-05-2.85849E-05-2.85716E-05-5.79272E-09 6.96641E-19-1.00831E-19
 -1      4210 9.52538E-05-2.85861E-05-2.85719E-05-4.25994E-09 4.68395E-19 2.61629E-19
 -1      4211 7.94749E-05-1.92340E-05-2.58764E-05-6.82875E-06 3.38069E-19 2.54399E-19
 -1      4212 8.90525E-05-2.29370E-05-2.83534E-05 2.21792E-06-3.37311E-19-1.74438E-19
 -1      4213 8.83240E-05-2.24794E-05-2.82252E-05 2.52205E-06-3.72125E-19-2.43892E-19
 -1      4214 8.91005E-05-2.28671E-05-2.83472E-05 1.42756E-06-3.89211E-19-4.36975E-19
 -1      4215 7.90858E-05-1.84500E-05-2.59415E-05-4.64920E-06 2.78929E-19 4.23222E-19
 -1      4216 8.25159E-05-1.98610E-05-2.69045E-05 4.64509E-06-2.29859E-19-1.99441E-19
 -1      4217 8.13614E-05-1.94488E-05-2.65097E-05 5.44619E-06-5.62036E-19-3.21823E-19
 -1      4218 8.23946E-05-1.94008E-05-2.69296E-05 2.81780E-06-4.54666E-19-1.92664E-19
 -1      4219 7.87413E-05-1.80640E-05-2.60398E-05-1.79404E-06-2.03561E-19-3.54798E-19
 -1      4220 8.73870E-05-2.18202E-05-2.80480E-05 1.76910E-06-3.18336E-19-1.36601E-18
 -1      4221 9.52475E-05-2.85820E-05-2.85709E-05-4.32032E-09 5.75716E-20 4.94654E-19
 -1      4222 9.52488E-05-2.85830E-05-2.85711E-05-4.82097E-09-1.57602E-19 6.18868E-19
 -1      4223 9.52461E-05-2.85810E-05-2.85707E-05-4.17751E-09 4.18772E-19 4.07150E-19
 -1      4224 9.15310E-05-2.46627E-05-2.86683E-05 1.41507E-06-8.58106E-20 4.85891E-19
 -1      4225 9.10482E-05-2.42733E-05-2.86216E-05 1.61452E-06-2.35629E-19 3.79296E-19
 -1      4226 9.04743E-05-2.38146E-05-2.85395E-05 1.15336E-06-4.30705E-19 7.94686E-19
 -1      4227 7.77141E-05-1.79394E-05-2.55926E-05 5.34597E-06-4.96617E-19 4.80948E-20
 -1      4228 7.83306E-05-1.87242E-05-2.55546E-05 7.82493E-06-6.71663E-19 1.13531E-19
 -1      4229 7.74562E-05-1.96256E-05-2.47055E-05 1.21718E-05-7.12710E-19-1.07533E-21
 -1      4230 7.76109E-05-1.89569E-05-2.51090E-05 9.65528E-06-5.74450E-19 8.54254E-20
 -1      4231 7.81574E-05-1.78041E-05-2.59274E-05 1.62569E-06-3.60282E-19-3.59068E-19
 -1      4232 9.52503E-05-2.85841E-05-2.85713E-05-3.58080E-09-8.81076E-20 1.03486E-18
 -1      4233 9.24199E-05-2.53942E-05-2.87335E-05 1.11806E-06-8.21343E-19 9.78470E-19
 -1      4234 9.20320E-05-2.50487E-05-2.87099E-05 1.28403E-06-3.76683E-19 6.62806E-19
 -1      4235 9.24628E-05-2.54068E-05-2.87215E-05 7.36801E-07-1.02057E-18 1.38458E-18
 -1      4236 9.52482E-05-2.85825E-05-2.85710E-05 1.84068E-10 4.01451E-19 1.85144E-18
 -1      4237 9.52473E-05-2.85819E-05-2.85709E-05-3.09616E-09 8.05272E-20 1.77531E-18
 -1      4238 9.41401E-05-2.70824E-05-2.87443E-05 3.73398E-08-9.02851E-20-9.83106E-19
 -1      4239 9.39447E-05-2.68711E-05-2.87502E-05 7.26147E-08 1.77467E-19-1.20161E-18
 -1      4240 9.44688E-05-2.74443E-05-2.87288E-05 2.91123E-08-1.13387E-18-1.17636E-18
 -1      4241 9.43205E-05-2.72731E-05-2.87378E-05 5.78657E-08-7.10476E-19-1.15747E-18
 -1      4242 9.52479E-05-2.85823E-05-2.85710E-05-2.29952E-09 5.57149E-19 2.27723E-18
 -1      4243 8.08802E-05-1.88623E-05-2.65875E-05-2.78285E-07-3.30303E-19-5.16329E-19
 -1      4244 9.52505E-05-2.85840E-05-2.85713E-05-5.87607E-10-8.70883E-19 1.56506E-18
 -1      4245 9.52521E-05-2.85850E-05-2.85716E-05-7.80290E-10-1.14321E-18 8.22465E-19
 -1      4246 8.51907E-05-2.08460E-05-2.76233E-05-2.15156E-07 2.93459E-20-1.47860E-18
 -1      4247 8.63432E-05-2.13997E-05-2.78695E-05 1.65994E-08-2.26306E-19-1.04019E-18
 -1      4248 8.73522E-05-2.19641E-05-2.80589E-05-9.01124E-08-4.19759E-19-9.30633E-19
 -1      4249 8.82686E-05-2.24728E-05-2.82250E-05 7.54276E-08-9.96387E-19-6.35879E-19
 -1      4250 8.90716E-05-2.29841E-05-2.83496E-05-1.29190E-08-1.15770E-18 1.31718E-19
 -1      4251 8.98081E-05-2.34508E-05-2.84585E-05 1.05472E-07-8.31755E-19 1.19315E-19
 -1      4252 9.04514E-05-2.39110E-05-2.85372E-05 2.96819E-08-5.82234E-19 6.06019E-19
 -1      4253 9.10453E-05-2.43333E-05-2.86054E-05 1.15613E-07-5.60860E-19 8.33164E-19
 -1      4254 9.15606E-05-2.47418E-05-2.86519E-05 4.94052E-08-8.74048E-19 1.08077E-18
 -1      4255 9.20383E-05-2.51167E-05-2.86915E-05 1.12763E-07-6.34049E-19 8.22883E-19
 -1      4256 9.24491E-05-2.54730E-05-2.87158E-05 5.49216E-08-5.07080E-19 5.37953E-19
 -1      4257 9.28305E-05-2.57993E-05-2.87357E-05 1.02247E-07-2.84441E-19 2.43070E-19
 -1      4258 9.31551E-05-2.61042E-05-2.87452E-05 5.22938E-08 1.24767E-19-1.49435E-19
 -1      4259 9.34563E-05-2.63824E-05-2.87519E-05 8.79714E-08 3.94942E-19-2.75768E-19
 -1      4260 9.37098E-05-2.66386E-05-2.87518E-05 4.55753E-08 4.21128E-19-8.09374E-19
 -1      4261 9.46051E-05-2.75979E-05-2.87196E-05 4.46670E-08-8.24850E-19-1.05868E-18
 -1      4262 9.47158E-05-2.77341E-05-2.87094E-05 2.17054E-08-6.34123E-19-1.03399E-18
 -1      4263 9.48169E-05-2.78558E-05-2.86992E-05 3.34373E-08-7.00786E-19-1.11711E-18
 -1      4264 9.48979E-05-2.79623E-05-2.86888E-05 1.54715E-08-8.45479E-19-8.53757E-19
 -1      4265 9.49715E-05-2.80569E-05-2.86787E-05 2.42539E-08-4.88346E-19-1.35915E-18
 -1      4266 9.50294E-05-2.81389E-05-2.86689E-05 1.04832E-08 2.48169E-19-1.01826E-18
 -1      4267 9.50816E-05-2.82111E-05-2.86595E-05 1.69910E-08 2.72490E-19-1.06131E-18
 -1      4268 9.51220E-05-2.82730E-05-2.86506E-05 6.65771E-09 2.42530E-19-1.28184E-18
 -1      4269 9.51580E-05-2.83271E-05-2.86422E-05 1.14176E-08 3.62109E-19-1.03242E-18
 -1      4270 9.51852E-05-2.83729E-05-2.86345E-05 3.83756E-09 3.36510E-19-7.28432E-19
 -1      4271 9.52091E-05-2.84127E-05-2.86273E-05 7.26298E-09 6.75811E-19-1.35362E-18
 -1      4272 9.52267E-05-2.84459E-05-2.86208E-05 1.84126E-09 8.15740E-19-1.56216E-18
 -1      4273 9.52417E-05-2.84744E-05-2.86147E-05 4.25698E-09 3.48737E-19-1.79692E-18
 -1      4274 9.52523E-05-2.84979E-05-2.86093E-05 4.92024E-10 3.21825E-19-1.62774E-18
 -1      4275 9.52611E-05-2.85179E-05-2.86043E-05 2.15244E-09-7.75158E-21-2.42717E-18
 -1      4276 9.52668E-05-2.85340E-05-2.85999E-05-3.67529E-10-3.92290E-19-2.07693E-18
 -1      4277 9.52713E-05-2.85475E-05-2.85959E-05 7.35706E-10-8.98347E-19-1.88294E-18
 -1      4278 9.52737E-05-2.85581E-05-2.85924E-05-8.69413E-10-8.07376E-19-1.28082E-18
 -1      4279 9.52752E-05-2.85668E-05-2.85892E-05-1.70338E-10-4.78991E-19-1.28087E-18
 -1      4280 9.52754E-05-2.85735E-05-2.85865E-05-1.11961E-09-4.69942E-19-1.33762E-18
 -1      4281 9.52751E-05-2.85788E-05-2.85841E-05-7.07754E-10 1.27857E-19-1.60932E-18
 -1      4282 9.52740E-05-2.85826E-05-2.85820E-05-1.20016E-09 5.69562E-19-1.27222E-18
 -1      4283 9.52726E-05-2.85855E-05-2.85801E-05-9.87270E-10 4.12734E-19-3.01745E-19
 -1      4284 9.52708E-05-2.85873E-05-2.85786E-05-1.17250E-09 4.82277E-19 5.92377E-20
 -1      4285 9.52688E-05-2.85886E-05-2.85772E-05-1.09297E-09 1.77912E-18-3.43168E-19
 -1      4286 9.52667E-05-2.85892E-05-2.85760E-05-1.08124E-09 2.21597E-18-1.12746E-18
 -1      4287 9.52645E-05-2.85893E-05-2.85750E-05-1.08707E-09 1.87871E-18-8.97538E-19
 -1      4288 9.52623E-05-2.85891E-05-2.85742E-05-9.57675E-10 2.02776E-18-7.54765E-19
 -1      4289 9.52601E-05-2.85886E-05-2.85734E-05-1.01435E-09 2.70803E-18-1.37900E-19
 -1      4290 9.52580E-05-2.85879E-05-2.85728E-05-8.23208E-10 1.81276E-18 4.86566E-19
 -1      4291 9.52559E-05-2.85870E-05-2.85723E-05-9.05969E-10 1.34748E-18 7.68199E-19
 -1      4292 9.52540E-05-2.85861E-05-2.85719E-05-6.92719E-10 5.13922E-19 9.92796E-19
 -1      4293 8.39107E-05-2.02212E-05-2.73429E-05-7.86964E-08 1.29982E-19-1.13541E-18
 -1      4294 8.24244E-05-1.95760E-05-2.69834E-05-3.86238E-07-9.24027E-20-9.76217E-19
 -1      4295 9.52492E-05-2.85832E-05-2.85711E-05-7.12276E-10-3.33124E-19 1.33119E-18
 -1      4296 9.15786E-05-2.46619E-05-2.86566E-05 9.26661E-07-6.49703E-19 1.22951E-18
 -3
    1PSTEP                         4           1           1          
  100CL  101 1.000000000        4296                     0    1           1
 -4  ERROR       1    1
 -5  STR(%)      1    1    0    0
 -1         1 1.17909E+01
 -1         2 2.81224E+01
 -1         3 4.08920E-05
 -1         4 4.62003E-05
 -1         5 1.36106E+01
 -1         6 1.42866E+01
 -1         7 1.42866E+01
 -1         8 4.19411E+00
 -1         9 2.77545E+00
 -1        10 3.28487E+00
 -1        11 4.61065E+00
 -1        12 6.85964E+00
 -1        13 8.43264E+00
 -1        14 8.43264E+00
 -1        15 7.70661E+00
 -1        16 7.88267E+00
 -1        17 7.51069E+00
 -1        18 6.22628E+00
 -1        19 4.30203E+00
 -1        20 3.30438E+00
 -1        21 4.39655E+00
 -1        22 9.25003E+00
 -1        23 1.42866E+01
 -1        24 4.33571E+00
 -1        25 3.63213E+00
 -1        26 3.80647E+00
 -1        27 3.80647E+00
 -1        28 3.73113E+00
 -1        29 3.38756E+00
 -1        30 2.86091E+00
 -1        31 1.78118E+00
 -1        32 1.12458E+00
 -1        33 9.04440E-01
 -1        34 9.39679E-01
 -1        35 9.39679E-01
 -1        36 9.19542E-01
 -1        37 7.95603E-01
 -1        38 6.34154E-01
 -1        39 5.07196E-01
 -1        40 4.19332E-01
 -1        41 3.56666E-01
 -1        42 2.91161E-01
 -1        43 2.29773E-01
 -1        44 1.75993E-01
 -1        45 1.31053E-01
 -1        46 9.84980E-02
 -1        47 8.25814E-02
 -1        48 6.75181E-02
 -1        49 5.39994E-02
 -1        50 4.23207E-02
 -1        51 3.25266E-02
 -1        52 2.45133E-02
 -1        53 1.92760E-02
 -1        54 1.58614E-02
 -1        55 1.27821E-02
 -1        56 1.01040E-02
 -1        57 7.84049E-03
 -1        58 6.11298E-03
 -1        59 4.72026E-03
 -1        60 3.57730E-03
 -1        61 2.65792E-03
 -1        62 1.95317E-03
 -1        63 1.58733E-03
 -1        64 1.26783E-03
 -1        65 9.96634E-04
 -1        66 7.71176E-04
 -1        67 5.85793E-04
 -1        68 4.32238E-04
 -1        69 3.81640E-04
 -1        70 3.03798E-04
 -1        71 1.66225E-04
 -1        72 1.36106E+01
 -1        73 3.19526E+00
 -1        74 2.53114E+00
 -1        75 3.16008E+00
 -1        76 3.56217E+00
 -1        77 3.59482E+00
 -1        78 3.59482E+00
 -1        79 3.28194E+00
 -1        80 2.09832E+00
 -1        81 1.15664E+00
 -1        82 9.54403E-01
 -1        83 1.18641E+00
 -1        84 1.18641E+00
 -1        85 1.17655E+00
 -1        86 1.03864E+00
 -1        87 8.73222E-01
 -1        88 7.12230E-01
 -1        89 5.54606E-01
 -1        90 4.14859E-01
 -1        91 3.10286E-01
 -1        92 2.41053E-01
 -1        93 1.82336E-01
 -1        94 1.34431E-01
 -1        95 9.65186E-02
 -1        96 6.72794E-02
 -1        97 4.88759E-02
 -1        98 4.08491E-02
 -1        99 3.33779E-02
 -1       100 2.67293E-02
 -1       101 2.10072E-02
 -1       102 1.74660E-02
 -1       103 1.51298E-02
 -1       104 1.27527E-02
 -1       105 1.05037E-02
 -1       106 8.47615E-03
 -1       107 6.80155E-03
 -1       108 5.43845E-03
 -1       109 4.26888E-03
 -1       110 3.29065E-03
 -1       111 2.49000E-03
 -1       112 1.84702E-03
 -1       113 1.33926E-03
 -1       114 9.92295E-04
 -1       115 7.68271E-04
 -1       116 5.83805E-04
 -1       117 4.31023E-04
 -1       118 2.99036E-04
 -1       119 2.26697E-04
 -1       120 1.35261E-04
 -1       121 5.37742E-05
 -1       122 5.49129E-05
 -1       123 5.49129E-05
 -1       124 3.43272E-05
 -1       125 2.22935E-05
 -1       126 4.19155E-05
 -1       127 5.44865E-05
 -1       128 5.82532E-05
 -1       129 5.82532E-05
 -1       130 5.43296E-05
 -1       131 4.12988E-05
 -1       132 2.25013E-05
 -1       133 3.50897E-05
 -1       134 5.43343E-05
 -1       135 7.17001E-05
 -1       136 7.65514E-05
 -1       137 2.66709E+01
 -1       138 4.34758E+01
 -1       139 4.34758E+01
 -1       140 1.68218E+01
 -1       141 1.20211E+01
 -1       142 1.20211E+01
 -1       143 1.15593E+01
 -1       144 1.18472E+01
 -1       145 1.18472E+01
 -1       146 1.34216E+01
 -1       147 2.86637E+01
 -1       148 5.06546E+01
 -1       149 5.06546E+01
 -1       150 3.38610E+01
 -1       151 3.67922E+01
 -1       152 3.67922E+01
 -1       153 3.20820E+01
 -1       154 3.20820E+01
 -1       155 1.42101E+01
 -1       156 1.11881E+01
 -1       157 1.17909E+01
 -1       158 1.23585E+01
 -1       159 1.23585E+01
 -1       160 1.12931E+01
 -1       161 1.94925E+01
 -1       162 4.60122E+01
 -1       163 4.60122E+01
 -1       164 2.81224E+01
 -1       165 4.19411E+00
 -1       166 2.95878E+00
 -1       167 3.15891E+00
 -1       168 4.15499E+00
 -1       169 6.78588E+00
 -1       170 9.50694E+00
 -1       171 9.50694E+00
 -1       172 1.06058E+01
 -1       173 1.06058E+01
 -1       174 9.54291E+00
 -1       175 8.82238E+00
 -1       176 5.71981E+00
 -1       177 3.79447E+00
 -1       178 3.37112E+00
 -1       179 4.70936E+00
 -1       180 1.36106E+01
 -1       181 4.33571E+00
 -1       182 3.63213E+00
 -1       183 3.52564E+00
 -1       184 3.80647E+00
 -1       185 3.73113E+00
 -1       186 3.38756E+00
 -1       187 2.86091E+00
 -1       188 1.83736E+00
 -1       189 1.12458E+00
 -1       190 8.47472E-01
 -1       191 9.04440E-01
 -1       192 9.39679E-01
 -1       193 9.19542E-01
 -1       194 7.95603E-01
 -1       195 6.60266E-01
 -1       196 5.66618E-01
 -1       197 4.77029E-01
 -1       198 3.80884E-01
 -1       199 2.91161E-01
 -1       200 2.29773E-01
 -1       201 1.79706E-01
 -1       202 1.38784E-01
 -1       203 1.04475E-01
 -1       204 8.25814E-02
 -1       205 6.75181E-02
 -1       206 5.39994E-02
 -1       207 4.23207E-02
 -1       208 3.25266E-02
 -1       209 2.50075E-02
 -1       210 1.94671E-02
 -1       211 1.58614E-02
 -1       212 1.27821E-02
 -1       213 1.01075E-02
 -1       214 8.15741E-03
 -1       215 6.45773E-03
 -1       216 5.24636E-03
 -1       217 4.18520E-03
 -1       218 3.27572E-03
 -1       219 2.51558E-03
 -1       220 1.89366E-03
 -1       221 1.39424E-03
 -1       222 9.99972E-04
 -1       223 7.71176E-04
 -1       224 5.92654E-04
 -1       225 4.52793E-04
 -1       226 3.81640E-04
 -1       227 3.03798E-04
 -1       228 1.70182E-04
 -1       229 3.19526E+00
 -1       230 2.52952E+00
 -1       231 2.53114E+00
 -1       232 3.16008E+00
 -1       233 3.56217E+00
 -1       234 3.59482E+00
 -1       235 3.28194E+00
 -1       236 2.09832E+00
 -1       237 1.15664E+00
 -1       238 8.36974E-01
 -1       239 9.94918E-01
 -1       240 1.18641E+00
 -1       241 1.17655E+00
 -1       242 1.03864E+00
 -1       243 8.73222E-01
 -1       244 7.25914E-01
 -1       245 5.83846E-01
 -1       246 4.50838E-01
 -1       247 3.35700E-01
 -1       248 2.41291E-01
 -1       249 1.82336E-01
 -1       250 1.34431E-01
 -1       251 9.83761E-02
 -1       252 7.06486E-02
 -1       253 4.93192E-02
 -1       254 4.08491E-02
 -1       255 3.33779E-02
 -1       256 2.67293E-02
 -1       257 2.10072E-02
 -1       258 1.74660E-02
 -1       259 1.51298E-02
 -1       260 1.27527E-02
 -1       261 1.05037E-02
 -1       262 8.47615E-03
 -1       263 6.80155E-03
 -1       264 5.43845E-03
 -1       265 4.29376E-03
 -1       266 3.37642E-03
 -1       267 2.60658E-03
 -1       268 1.97439E-03
 -1       269 1.46489E-03
 -1       270 1.06092E-03
 -1       271 7.68271E-04
 -1       272 5.83805E-04
 -1       273 4.31023E-04
 -1       274 3.04247E-04
 -1       275 2.26697E-04
 -1       276 1.35261E-04
 -1       277 8.41756E-05
 -1       278 9.10857E-05
 -1       279 9.10857E-05
 -1       280 4.60635E-05
 -1       281 7.84650E-05
 -1       282 1.04020E-04
 -1       283 1.14561E-04
 -1       284 1.14561E-04
 -1       285 1.14513E-04
 -1       286 1.03351E-04
 -1       287 7.86012E-05
 -1       288 4.75025E-05
 -1       289 9.17208E-05
 -1       290 9.17208E-05
 -1       291 1.08182E-04
 -1       292 3.82811E+01
 -1       293 3.84601E+01
 -1       294 4.34758E+01
 -1       295 1.68218E+01
 -1       296 1.07258E+01
 -1       297 1.20211E+01
 -1       298 1.15593E+01
 -1       299 1.14197E+01
 -1       300 1.18472E+01
 -1       301 1.09589E+01
 -1       302 1.34216E+01
 -1       303 2.86637E+01
 -1       304 5.06546E+01
 -1       305 4.50090E+01
 -1       306 4.86576E+01
 -1       307 4.86576E+01
 -1       308 3.27820E+01
 -1       309 3.20820E+01
 -1       310 1.42101E+01
 -1       311 9.60956E+00
 -1       312 1.11881E+01
 -1       313 1.17909E+01
 -1       314 1.13799E+01
 -1       315 1.23585E+01
 -1       316 1.12931E+01
 -1       317 1.05662E+01
 -1       318 2.03383E+01
 -1       319 4.60122E+01
 -1       320 3.90620E+01
 -1       321 3.82811E+01
 -1       322 4.49406E+00
 -1       323 1.92021E+00
 -1       324 2.77736E+00
 -1       325 5.90865E+00
 -1       326 1.05787E+01
 -1       327 1.27339E+01
 -1       328 2.11055E+01
 -1       329 1.50722E+01
 -1       330 1.32722E+01
 -1       331 8.41465E+00
 -1       332 4.81412E+00
 -1       333 2.49566E+00
 -1       334 1.98200E+00
 -1       335 2.28162E+00
 -1       336 2.48707E+00
 -1       337 2.47847E+00
 -1       338 2.62719E+00
 -1       339 2.55108E+00
 -1       340 2.20606E+00
 -1       341 1.99667E+00
 -1       342 1.64951E+00
 -1       343 1.22311E+00
 -1       344 8.19295E-01
 -1       345 6.99477E-01
 -1       346 6.13180E-01
 -1       347 7.00514E-01
 -1       348 7.14223E-01
 -1       349 6.48768E-01
 -1       350 5.89908E-01
 -1       351 5.24433E-01
 -1       352 4.41103E-01
 -1       353 3.54988E-01
 -1       354 2.75123E-01
 -1       355 2.05987E-01
 -1       356 1.49027E-01
 -1       357 1.04475E-01
 -1       358 7.66572E-02
 -1       359 5.51048E-02
 -1       360 4.09218E-02
 -1       361 3.43437E-02
 -1       362 2.81607E-02
 -1       363 2.26156E-02
 -1       364 1.78140E-02
 -1       365 1.37709E-02
 -1       366 1.13977E-02
 -1       367 9.60213E-03
 -1       368 7.90268E-03
 -1       369 6.44667E-03
 -1       370 5.27090E-03
 -1       371 4.23029E-03
 -1       372 3.41370E-03
 -1       373 2.73326E-03
 -1       374 2.14548E-03
 -1       375 1.65075E-03
 -1       376 1.24336E-03
 -1       377 9.14449E-04
 -1       378 6.54015E-04
 -1       379 4.52793E-04
 -1       380 3.35084E-04
 -1       381 2.33676E-04
 -1       382 1.60741E-04
 -1       383 2.09983E+00
 -1       384 1.96471E+00
 -1       385 1.96933E+00
 -1       386 1.73369E+00
 -1       387 1.82482E+00
 -1       388 1.37497E+00
 -1       389 8.25596E-01
 -1       390 7.10583E-01
 -1       391 7.45692E-01
 -1       392 8.42608E-01
 -1       393 8.58986E-01
 -1       394 8.13799E-01
 -1       395 7.31363E-01
 -1       396 6.36959E-01
 -1       397 5.25893E-01
 -1       398 4.16270E-01
 -1       399 3.17942E-01
 -1       400 2.35044E-01
 -1       401 1.77165E-01
 -1       402 1.33595E-01
 -1       403 9.83761E-02
 -1       404 7.06486E-02
 -1       405 4.93192E-02
 -1       406 3.32653E-02
 -1       407 2.56430E-02
 -1       408 2.19135E-02
 -1       409 1.82625E-02
 -1       410 1.48919E-02
 -1       411 1.19060E-02
 -1       412 9.49211E-03
 -1       413 8.19888E-03
 -1       414 6.89376E-03
 -1       415 5.66498E-03
 -1       416 4.67105E-03
 -1       417 3.77910E-03
 -1       418 2.99780E-03
 -1       419 2.33273E-03
 -1       420 1.78409E-03
 -1       421 1.35175E-03
 -1       422 1.00232E-03
 -1       423 7.24461E-04
 -1       424 5.57663E-04
 -1       425 4.20584E-04
 -1       426 3.04247E-04
 -1       427 2.00670E-04
 -1       428 1.07833E-04
 -1       429 1.01011E-04
 -1       430 1.66332E-04
 -1       431 1.66332E-04
 -1       432 1.08356E-04
 -1       433 1.46486E-04
 -1       434 1.65093E-04
 -1       435 1.65093E-04
 -1       436 1.64564E-04
 -1       437 1.64564E-04
 -1       438 1.46734E-04
 -1       439 1.07765E-04
 -1       440 1.02908E-04
 -1       441 1.48033E-04
 -1       442 2.53398E+01
 -1       443 3.82811E+01
 -1       444 2.60676E+01
 -1       445 1.41394E+01
 -1       446 8.09615E+00
 -1       447 3.10444E+00
 -1       448 1.02929E+01
 -1       449 9.95129E+00
 -1       450 1.00654E+01
 -1       451 7.48198E+00
 -1       452 7.64115E+00
 -1       453 1.33765E+01
 -1       454 2.11053E+01
 -1       455 3.40697E+01
 -1       456 4.50090E+01
 -1       457 4.86576E+01
 -1       458 3.27820E+01
 -1       459 2.19959E+01
 -1       460 1.39014E+01
 -1       461 8.25179E+00
 -1       462 7.41085E+00
 -1       463 9.62124E+00
 -1       464 1.04791E+01
 -1       465 1.02316E+01
 -1       466 8.35651E+00
 -1       467 6.46064E+00
 -1       468 9.61862E+00
 -1       469 1.56935E+01
 -1       470 2.69703E+01
 -1       471 2.77680E+01
 -1       472 7.50444E+00
 -1       473 2.50346E+01
 -1       474 1.33508E+01
 -1       475 3.83052E+00
 -1       476 1.54717E+01
 -1       477 8.92727E+00
 -1       478 1.23702E+01
 -1       479 1.47562E+01
 -1       480 3.37682E+00
 -1       481 1.63778E+00
 -1       482 1.55958E+00
 -1       483 1.62615E+00
 -1       484 1.73513E+00
 -1       485 1.73513E+00
 -1       486 1.85740E+00
 -1       487 2.12481E+00
 -1       488 2.01177E+00
 -1       489 1.47065E+00
 -1       490 1.37823E+00
 -1       491 1.25283E+00
 -1       492 1.21444E+00
 -1       493 9.90812E-01
 -1       494 8.93576E-01
 -1       495 8.27947E-01
 -1       496 7.26944E-01
 -1       497 6.37965E-01
 -1       498 5.65206E-01
 -1       499 4.80986E-01
 -1       500 3.94364E-01
 -1       501 3.13333E-01
 -1       502 2.42045E-01
 -1       503 1.82043E-01
 -1       504 1.33257E-01
 -1       505 9.47281E-02
 -1       506 6.50826E-02
 -1       507 4.28345E-02
 -1       508 2.85671E-02
 -1       509 1.96991E-02
 -1       510 1.73919E-02
 -1       511 1.50324E-02
 -1       512 1.26461E-02
 -1       513 1.03953E-02
 -1       514 8.37010E-03
 -1       515 7.11502E-03
 -1       516 6.08536E-03
 -1       517 5.07349E-03
 -1       518 4.19580E-03
 -1       519 3.44004E-03
 -1       520 2.76196E-03
 -1       521 2.17372E-03
 -1       522 1.70230E-03
 -1       523 1.32903E-03
 -1       524 1.01566E-03
 -1       525 7.58490E-04
 -1       526 5.52036E-04
 -1       527 3.90159E-04
 -1       528 2.66150E-04
 -1       529 2.18449E+00
 -1       530 1.92756E+00
 -1       531 1.52351E+00
 -1       532 1.35957E+00
 -1       533 1.32775E+00
 -1       534 1.08830E+00
 -1       535 1.06059E+00
 -1       536 9.88940E-01
 -1       537 8.70187E-01
 -1       538 7.80056E-01
 -1       539 6.90011E-01
 -1       540 5.80797E-01
 -1       541 4.70165E-01
 -1       542 3.68462E-01
 -1       543 2.80596E-01
 -1       544 2.07960E-01
 -1       545 1.49923E-01
 -1       546 1.04845E-01
 -1       547 7.07102E-02
 -1       548 4.70079E-02
 -1       549 3.28799E-02
 -1       550 2.56430E-02
 -1       551 2.19135E-02
 -1       552 1.82625E-02
 -1       553 1.48919E-02
 -1       554 1.19060E-02
 -1       555 9.56327E-03
 -1       556 8.19888E-03
 -1       557 6.89376E-03
 -1       558 5.66498E-03
 -1       559 4.68180E-03
 -1       560 3.80507E-03
 -1       561 3.03123E-03
 -1       562 2.42916E-03
 -1       563 1.92419E-03
 -1       564 1.49360E-03
 -1       565 1.13509E-03
 -1       566 8.42848E-04
 -1       567 6.09646E-04
 -1       568 4.23118E-04
 -1       569 2.85706E-04
 -1       570 1.97592E-04
 -1       571 1.86376E-04
 -1       572 2.18171E-04
 -1       573 2.19927E-04
 -1       574 2.23684E-04
 -1       575 2.20754E-04
 -1       576 2.20754E-04
 -1       577 2.20517E-04
 -1       578 2.18199E-04
 -1       579 1.86374E-04
 -1       580 1.76865E-04
 -1       581 1.76865E-04
 -1       582 2.50332E+01
 -1       583 2.18595E+00
 -1       584 4.41318E+00
 -1       585 1.31081E+01
 -1       586 6.86107E+00
 -1       587 2.20902E+01
 -1       588 6.36992E+00
 -1       589 2.82159E+01
 -1       590 6.67933E+00
 -1       591 5.26517E+00
 -1       592 8.80145E+00
 -1       593 7.40492E+00
 -1       594 5.26308E+00
 -1       595 7.23321E+00
 -1       596 1.23702E+01
 -1       597 8.35102E+00
 -1       598 1.21237E+01
 -1       599 4.93010E+00
 -1       600 4.83797E+00
 -1       601 7.43942E+00
 -1       602 6.34409E+00
 -1       603 4.04463E+00
 -1       604 4.68503E+00
 -1       605 1.66312E+01
 -1       606 7.54511E+00
 -1       607 1.09236E+00
 -1       608 4.43597E+00
 -1       609 1.78817E+01
 -1       610 7.53968E+00
 -1       611 1.60741E-04
 -1       612 2.33583E+01
 -1       613 1.09110E+01
 -1       614 3.33527E+00
 -1       615 5.80907E+00
 -1       616 4.37943E+00
 -1       617 1.96494E+00
 -1       618 1.87922E+00
 -1       619 1.73513E+00
 -1       620 3.58923E-04
 -1       621 2.54090E+00
 -1       622 3.01842E+00
 -1       623 3.41312E+00
 -1       624 3.40180E+00
 -1       625 2.25183E+00
 -1       626 1.67799E+00
 -1       627 2.00909E+00
 -1       628 1.47341E+00
 -1       629 1.33061E+00
 -1       630 1.11598E+00
 -1       631 9.04460E-01
 -1       632 7.64396E-01
 -1       633 6.49989E-01
 -1       634 5.36928E-01
 -1       635 4.33548E-01
 -1       636 3.43185E-01
 -1       637 2.66609E-01
 -1       638 2.03274E-01
 -1       639 1.51981E-01
 -1       640 1.11240E-01
 -1       641 7.94829E-02
 -1       642 5.51916E-02
 -1       643 3.69712E-02
 -1       644 2.35897E-02
 -1       645 1.39914E-02
 -1       646 9.68326E-03
 -1       647 9.39199E-03
 -1       648 8.61790E-03
 -1       649 7.59969E-03
 -1       650 6.49826E-03
 -1       651 5.41659E-03
 -1       652 4.71115E-03
 -1       653 3.99709E-03
 -1       654 3.30877E-03
 -1       655 2.67971E-03
 -1       656 2.15095E-03
 -1       657 1.70805E-03
 -1       658 1.32903E-03
 -1       659 1.03003E-03
 -1       660 7.92287E-04
 -1       661 5.95031E-04
 -1       662 4.35306E-04
 -1       663 2.82935E-04
 -1       664 2.58236E+00
 -1       665 1.18428E+01
 -1       666 3.76468E+00
 -1       667 2.34234E+00
 -1       668 1.72169E+00
 -1       669 1.53315E+00
 -1       670 1.28975E+00
 -1       671 1.04524E+00
 -1       672 9.03843E-01
 -1       673 7.70433E-01
 -1       674 6.36477E-01
 -1       675 5.12823E-01
 -1       676 4.04347E-01
 -1       677 3.12487E-01
 -1       678 2.36800E-01
 -1       679 1.75860E-01
 -1       680 1.27791E-01
 -1       681 9.06028E-02
 -1       682 6.23758E-02
 -1       683 4.13675E-02
 -1       684 2.60590E-02
 -1       685 1.66075E-02
 -1       686 1.30020E-02
 -1       687 1.18841E-02
 -1       688 1.04492E-02
 -1       689 8.91467E-03
 -1       690 7.41801E-03
 -1       691 6.16007E-03
 -1       692 5.26583E-03
 -1       693 4.45349E-03
 -1       694 3.67778E-03
 -1       695 3.03110E-03
 -1       696 2.45006E-03
 -1       697 1.94031E-03
 -1       698 1.50572E-03
 -1       699 1.17560E-03
 -1       700 9.02597E-04
 -1       701 6.76999E-04
 -1       702 4.89084E-04
 -1       703 3.72877E-04
 -1       704 4.83149E+00
 -1       705 2.95137E-04
 -1       706 1.76865E-04
 -1       707 2.81348E-04
 -1       708 2.95071E-04
 -1       709 2.95137E-04
 -1       710 2.95071E-04
 -1       711 2.80730E-04
 -1       712 2.18324E-04
 -1       713 1.07874E+01
 -1       714 7.05565E+00
 -1       715 3.40180E+00
 -1       716 1.38515E+01
 -1       717 1.29728E+00
 -1       718 2.58236E+00
 -1       719 4.62431E+00
 -1       720 2.91831E+00
 -1       721 6.76612E+00
 -1       722 3.02691E+00
 -1       723 3.36309E+00
 -1       724 4.46316E+00
 -1       725 4.62968E+00
 -1       726 2.46198E+00
 -1       727 4.87365E+00
 -1       728 1.25827E+01
 -1       729 3.58923E-04
 -1       730 1.01858E+01
 -1       731 3.32138E+00
 -1       732 7.35018E+00
 -1       733 4.37285E+00
 -1       734 2.20065E-04
 -1       735 7.57027E+00
 -1       736 5.30578E+00
 -1       737 2.18595E+00
 -1       738 3.51320E+00
 -1       739 4.37943E+00
 -1       740 3.58839E+00
 -1       741 2.57694E+00
 -1       742 2.52913E+00
 -1       743 2.03196E+00
 -1       744 1.54364E+00
 -1       745 1.22502E+00
 -1       746 9.85337E-01
 -1       747 7.70428E-01
 -1       748 5.98653E-01
 -1       749 4.65444E-01
 -1       750 3.59390E-01
 -1       751 2.84022E-01
 -1       752 2.18396E-01
 -1       753 1.63619E-01
 -1       754 1.19350E-01
 -1       755 8.52493E-02
 -1       756 5.98395E-02
 -1       757 4.09397E-02
 -1       758 2.76309E-02
 -1       759 1.78660E-02
 -1       760 1.08466E-02
 -1       761 6.05161E-03
 -1       762 5.69172E-03
 -1       763 5.91068E-03
 -1       764 5.66544E-03
 -1       765 5.15465E-03
 -1       766 4.51570E-03
 -1       767 3.90386E-03
 -1       768 3.42608E-03
 -1       769 2.91707E-03
 -1       770 2.42145E-03
 -1       771 1.96527E-03
 -1       772 1.56168E-03
 -1       773 1.21519E-03
 -1       774 9.24822E-04
 -1       775 6.86524E-04
 -1       776 4.93532E-04
 -1       777 3.39695E-04
 -1       778 2.35137E+00
 -1       779 1.76259E+00
 -1       780 1.42217E+00
 -1       781 1.14126E+00
 -1       782 8.94592E-01
 -1       783 6.97358E-01
 -1       784 5.42587E-01
 -1       785 4.16972E-01
 -1       786 3.18192E-01
 -1       787 2.41819E-01
 -1       788 1.81677E-01
 -1       789 1.34560E-01
 -1       790 9.79616E-02
 -1       791 6.98542E-02
 -1       792 4.85591E-02
 -1       793 3.26770E-02
 -1       794 2.10443E-02
 -1       795 1.27017E-02
 -1       796 7.68588E-03
 -1       797 7.24834E-03
 -1       798 7.09487E-03
 -1       799 6.54750E-03
 -1       800 5.79751E-03
 -1       801 4.97318E-03
 -1       802 4.29808E-03
 -1       803 3.72286E-03
 -1       804 3.13621E-03
 -1       805 2.57989E-03
 -1       806 2.07707E-03
 -1       807 1.63827E-03
 -1       808 1.26568E-03
 -1       809 9.56368E-04
 -1       810 7.04737E-04
 -1       811 5.05826E-04
 -1       812 3.81604E-04
 -1       813 2.39687E+00
 -1       814 3.81604E-04
 -1       815 3.68982E-04
 -1       816 2.72823E+00
 -1       817 5.79271E+00
 -1       818 4.40221E+00
 -1       819 7.61964E+00
 -1       820 2.01332E+00
 -1       821 3.40356E-04
 -1       822 8.33466E+00
 -1       823 2.69518E+00
 -1       824 3.25474E+00
 -1       825 3.64132E-04
 -1       826 4.57893E+00
 -1       827 5.68711E+00
 -1       828 4.31025E-04
 -1       829 3.79223E-04
 -1       830 3.79223E-04
 -1       831 3.07297E-04
 -1       832 3.64132E-04
 -1       833 4.91329E-04
 -1       834 3.57210E+00
 -1       835 2.16458E+00
 -1       836 1.80077E+00
 -1       837 1.30363E+00
 -1       838 9.27915E-01
 -1       839 7.14546E-01
 -1       840 5.70311E-01
 -1       841 4.56301E-01
 -1       842 3.58501E-01
 -1       843 2.76974E-01
 -1       844 2.10372E-01
 -1       845 1.56888E-01
 -1       846 1.14638E-01
 -1       847 8.18122E-02
 -1       848 5.67645E-02
 -1       849 3.90891E-02
 -1       850 2.59165E-02
 -1       851 1.63005E-02
 -1       852 9.46148E-03
 -1       853 4.84415E-03
 -1       854 3.24487E-03
 -1       855 3.97376E-03
 -1       856 4.15994E-03
 -1       857 4.00592E-03
 -1       858 3.65596E-03
 -1       859 3.20979E-03
 -1       860 2.83174E-03
 -1       861 2.45241E-03
 -1       862 2.06508E-03
 -1       863 1.69738E-03
 -1       864 1.36461E-03
 -1       865 1.07374E-03
 -1       866 8.25882E-04
 -1       867 6.18599E-04
 -1       868 5.08079E+00
 -1       869 4.42347E+00
 -1       870 1.50370E+00
 -1       871 1.07749E+00
 -1       872 8.17273E-01
 -1       873 6.56125E-01
 -1       874 5.18964E-01
 -1       875 4.03367E-01
 -1       876 3.08446E-01
 -1       877 2.31976E-01
 -1       878 1.71362E-01
 -1       879 1.24053E-01
 -1       880 8.77039E-02
 -1       881 6.10814E-02
 -1       882 4.16618E-02
 -1       883 2.73115E-02
 -1       884 1.69608E-02
 -1       885 9.75881E-03
 -1       886 4.92248E-03
 -1       887 4.17662E-03
 -1       888 4.74444E-03
 -1       889 4.78238E-03
 -1       890 4.49836E-03
 -1       891 4.03822E-03
 -1       892 3.50114E-03
 -1       893 3.09936E-03
 -1       894 2.66871E-03
 -1       895 2.23657E-03
 -1       896 1.83084E-03
 -1       897 1.46659E-03
 -1       898 1.15015E-03
 -1       899 8.82202E-04
 -1       900 6.62816E-04
 -1       901 4.90670E-04
 -1       902 5.32773E+00
 -1       903 5.24263E+00
 -1       904 2.13410E+00
 -1       905 2.92001E+00
 -1       906 6.78646E+00
 -1       907 4.90670E-04
 -1       908 5.68711E+00
 -1       909 4.39794E-04
 -1       910 4.61274E-04
 -1       911 5.05826E-04
 -1       912 5.20783E-04
 -1       913 5.24263E+00
 -1       914 4.29662E+00
 -1       915 3.89337E+00
 -1       916 1.95768E+00
 -1       917 1.19152E+00
 -1       918 9.27915E-01
 -1       919 7.14546E-01
 -1       920 5.49130E-01
 -1       921 4.20983E-01
 -1       922 3.21448E-01
 -1       923 2.43713E-01
 -1       924 1.82884E-01
 -1       925 1.35407E-01
 -1       926 9.85945E-02
 -1       927 7.03332E-02
 -1       928 4.89096E-02
 -1       929 3.32721E-02
 -1       930 2.22981E-02
 -1       931 1.42660E-02
 -1       932 8.51301E-03
 -1       933 4.76610E-03
 -1       934 2.67608E-03
 -1       935 2.72594E-03
 -1       936 3.08633E-03
 -1       937 3.10613E-03
 -1       938 2.91880E-03
 -1       939 2.61819E-03
 -1       940 2.27216E-03
 -1       941 1.98208E-03
 -1       942 1.67909E-03
 -1       943 1.38743E-03
 -1       944 1.12078E-03
 -1       945 8.85932E-04
 -1       946 6.83429E-04
 -1       947 3.43382E+00
 -1       948 1.40208E+00
 -1       949 6.23923E-01
 -1       950 4.76004E-01
 -1       951 3.62009E-01
 -1       952 2.73526E-01
 -1       953 2.04631E-01
 -1       954 1.51084E-01
 -1       955 1.09720E-01
 -1       956 7.80700E-02
 -1       957 5.41515E-02
 -1       958 3.70074E-02
 -1       959 2.47017E-02
 -1       960 1.57220E-02
 -1       961 9.31067E-03
 -1       962 4.94628E-03
 -1       963 2.77892E-03
 -1       964 3.19616E-03
 -1       965 3.51512E-03
 -1       966 3.48183E-03
 -1       967 3.23811E-03
 -1       968 2.88291E-03
 -1       969 2.51769E-03
 -1       970 2.19336E-03
 -1       971 1.85604E-03
 -1       972 1.53220E-03
 -1       973 1.23684E-03
 -1       974 9.76943E-04
 -1       975 7.55323E-04
 -1       976 5.96681E-04
 -1       977 5.20783E-04
 -1       978 8.17273E-01
 -1       979 1.78219E+00
 -1       980 2.38711E+00
 -1       981 1.07749E+00
 -1       982 5.76084E-04
 -1       983 4.35681E+00
 -1       984 3.57092E+00
 -1       985 5.49620E-04
 -1       986 5.49620E-04
 -1       987 3.89337E+00
 -1       988 3.84994E-01
 -1       989 5.40486E-04
 -1       990 2.28202E+00
 -1       991 2.18534E+00
 -1       992 1.17935E+00
 -1       993 8.48323E-01
 -1       994 6.17916E-01
 -1       995 4.56897E-01
 -1       996 3.41463E-01
 -1       997 2.56073E-01
 -1       998 1.91599E-01
 -1       999 1.42357E-01
 -1      1000 1.04598E-01
 -1      1001 7.57010E-02
 -1      1002 5.37333E-02
 -1      1003 3.72052E-02
 -1      1004 2.52449E-02
 -1      1005 1.76946E-02
 -1      1006 1.20060E-02
 -1      1007 7.80332E-03
 -1      1008 4.76610E-03
 -1      1009 2.62681E-03
 -1      1010 1.94068E-03
 -1      1011 2.30680E-03
 -1      1012 2.37998E-03
 -1      1013 2.27153E-03
 -1      1014 2.06023E-03
 -1      1015 1.80019E-03
 -1      1016 1.52718E-03
 -1      1017 1.27993E-03
 -1      1018 1.05721E-03
 -1      1019 8.55059E-04
 -1      1020 7.39814E-04
 -1      1021 5.13681E-01
 -1      1022 2.17847E-01
 -1      1023 1.62559E-01
 -1      1024 1.19933E-01
 -1      1025 8.71415E-02
 -1      1026 6.20937E-02
 -1      1027 4.31680E-02
 -1      1028 2.92501E-02
 -1      1029 1.97034E-02
 -1      1030 1.27024E-02
 -1      1031 8.09273E-03
 -1      1032 4.94124E-03
 -1      1033 2.77892E-03
 -1      1034 2.21965E-03
 -1      1035 2.60993E-03
 -1      1036 2.67780E-03
 -1      1037 2.54678E-03
 -1      1038 2.30402E-03
 -1      1039 2.00922E-03
 -1      1040 1.71798E-03
 -1      1041 1.45725E-03
 -1      1042 1.20564E-03
 -1      1043 9.75820E-04
 -1      1044 7.73316E-04
 -1      1045 6.22726E-04
 -1      1046 2.25477E+00
 -1      1047 3.57092E+00
 -1      1048 2.99184E+00
 -1      1049 6.94069E-01
 -1      1050 2.20636E+00
 -1      1051 9.54206E-01
 -1      1052 1.35999E+00
 -1      1053 2.89882E-01
 -1      1054 6.32082E-04
 -1      1055 2.21856E+00
 -1      1056 6.37245E-04
 -1      1057 6.32082E-04
 -1      1058 1.14531E-01
 -1      1059 2.01830E+00
 -1      1060 1.03102E+00
 -1      1061 9.04365E-01
 -1      1062 6.10579E-01
 -1      1063 4.61348E-01
 -1      1064 3.53338E-01
 -1      1065 2.71884E-01
 -1      1066 2.08891E-01
 -1      1067 1.59486E-01
 -1      1068 1.20544E-01
 -1      1069 8.99098E-02
 -1      1070 6.59742E-02
 -1      1071 4.74654E-02
 -1      1072 3.33378E-02
 -1      1073 2.30893E-02
 -1      1074 1.59116E-02
 -1      1075 1.05688E-02
 -1      1076 6.67088E-03
 -1      1077 3.89238E-03
 -1      1078 1.96641E-03
 -1      1079 1.42340E-03
 -1      1080 1.73322E-03
 -1      1081 1.89649E-03
 -1      1082 1.87359E-03
 -1      1083 1.73979E-03
 -1      1084 1.54750E-03
 -1      1085 1.33167E-03
 -1      1086 1.11241E-03
 -1      1087 9.02813E-04
 -1      1088 7.39814E-04
 -1      1089 4.51534E-01
 -1      1090 7.91643E-01
 -1      1091 1.53020E-01
 -1      1092 2.02006E-01
 -1      1093 8.44134E-02
 -1      1094 6.10520E-02
 -1      1095 4.31489E-02
 -1      1096 3.05131E-02
 -1      1097 2.09593E-02
 -1      1098 1.38599E-02
 -1      1099 8.69109E-03
 -1      1100 5.01643E-03
 -1      1101 2.72464E-03
 -1      1102 1.60869E-03
 -1      1103 1.94322E-03
 -1      1104 2.02041E-03
 -1      1105 1.93733E-03
 -1      1106 1.87359E-03
 -1      1107 1.73979E-03
 -1      1108 1.54750E-03
 -1      1109 1.33167E-03
 -1      1110 1.11241E-03
 -1      1111 5.95531E-01
 -1      1112 2.25477E+00
 -1      1113 8.84399E-04
 -1      1114 3.45180E-01
 -1      1115 2.64511E-01
 -1      1116 1.42866E+01
 -1      1117 9.24037E+00
 -1      1118 3.48478E+00
 -1      1119 3.03016E+00
 -1      1120 3.94776E+00
 -1      1121 5.73514E+00
 -1      1122 7.64614E+00
 -1      1123 8.43264E+00
 -1      1124 8.06962E+00
 -1      1125 7.79464E+00
 -1      1126 7.69668E+00
 -1      1127 6.86848E+00
 -1      1128 5.26416E+00
 -1      1129 3.80320E+00
 -1      1130 3.85046E+00
 -1      1131 6.82329E+00
 -1      1132 1.14303E+01
 -1      1133 1.42866E+01
 -1      1134 9.31116E+00
 -1      1135 3.98392E+00
 -1      1136 3.71930E+00
 -1      1137 3.80647E+00
 -1      1138 3.76880E+00
 -1      1139 3.55934E+00
 -1      1140 3.12423E+00
 -1      1141 2.32104E+00
 -1      1142 1.45288E+00
 -1      1143 1.01451E+00
 -1      1144 9.22059E-01
 -1      1145 9.39679E-01
 -1      1146 9.29611E-01
 -1      1147 8.57573E-01
 -1      1148 7.14879E-01
 -1      1149 5.70675E-01
 -1      1150 4.63264E-01
 -1      1151 3.87999E-01
 -1      1152 3.23913E-01
 -1      1153 2.60467E-01
 -1      1154 2.02883E-01
 -1      1155 1.53523E-01
 -1      1156 1.14775E-01
 -1      1157 9.05397E-02
 -1      1158 7.50497E-02
 -1      1159 6.07587E-02
 -1      1160 4.81600E-02
 -1      1161 3.74236E-02
 -1      1162 2.85199E-02
 -1      1163 2.18946E-02
 -1      1164 1.75687E-02
 -1      1165 1.43217E-02
 -1      1166 1.14431E-02
 -1      1167 8.97226E-03
 -1      1168 6.97673E-03
 -1      1169 5.41662E-03
 -1      1170 4.14878E-03
 -1      1171 3.11761E-03
 -1      1172 2.30555E-03
 -1      1173 1.77025E-03
 -1      1174 1.42758E-03
 -1      1175 1.13223E-03
 -1      1176 8.83905E-04
 -1      1177 6.78484E-04
 -1      1178 5.09015E-04
 -1      1179 4.06939E-04
 -1      1180 3.42719E-04
 -1      1181 2.35011E-04
 -1      1182 1.06213E-04
 -1      1183 1.36106E+01
 -1      1184 8.40293E+00
 -1      1185 2.86320E+00
 -1      1186 2.84561E+00
 -1      1187 3.36113E+00
 -1      1188 3.57849E+00
 -1      1189 3.59482E+00
 -1      1190 3.43838E+00
 -1      1191 2.69013E+00
 -1      1192 1.62748E+00
 -1      1193 1.05552E+00
 -1      1194 1.07041E+00
 -1      1195 1.18641E+00
 -1      1196 1.18148E+00
 -1      1197 1.10759E+00
 -1      1198 9.55929E-01
 -1      1199 7.92726E-01
 -1      1200 6.33418E-01
 -1      1201 4.84732E-01
 -1      1202 3.62573E-01
 -1      1203 2.75670E-01
 -1      1204 2.11695E-01
 -1      1205 1.58383E-01
 -1      1206 1.15475E-01
 -1      1207 8.18990E-02
 -1      1208 5.80776E-02
 -1      1209 4.48625E-02
 -1      1210 3.71135E-02
 -1      1211 3.00536E-02
 -1      1212 2.38683E-02
 -1      1213 1.92366E-02
 -1      1214 1.62979E-02
 -1      1215 1.39412E-02
 -1      1216 1.16282E-02
 -1      1217 9.48995E-03
 -1      1218 7.63885E-03
 -1      1219 6.12000E-03
 -1      1220 4.85367E-03
 -1      1221 3.77977E-03
 -1      1222 2.89032E-03
 -1      1223 2.16851E-03
 -1      1224 1.59314E-03
 -1      1225 1.16578E-03
 -1      1226 8.80283E-04
 -1      1227 6.76038E-04
 -1      1228 5.07414E-04
 -1      1229 3.65030E-04
 -1      1230 2.62866E-04
 -1      1231 1.80979E-04
 -1      1232 8.80765E-05
 -1      1233 4.73331E-05
 -1      1234 5.43435E-05
 -1      1235 5.49129E-05
 -1      1236 4.46200E-05
 -1      1237 2.83104E-05
 -1      1238 3.21045E-05
 -1      1239 4.82010E-05
 -1      1240 5.63699E-05
 -1      1241 5.82532E-05
 -1      1242 5.62914E-05
 -1      1243 4.78142E-05
 -1      1244 3.19001E-05
 -1      1245 2.87955E-05
 -1      1246 4.47120E-05
 -1      1247 6.30172E-05
 -1      1248 7.41257E-05
 -1      1249 6.13759E-05
 -1      1250 2.73967E+01
 -1      1251 3.50734E+01
 -1      1252 4.34758E+01
 -1      1253 3.01488E+01
 -1      1254 1.44215E+01
 -1      1255 1.20211E+01
 -1      1256 1.17902E+01
 -1      1257 1.17032E+01
 -1      1258 1.18472E+01
 -1      1259 1.26344E+01
 -1      1260 2.10426E+01
 -1      1261 3.96591E+01
 -1      1262 5.06546E+01
 -1      1263 4.22578E+01
 -1      1264 3.53266E+01
 -1      1265 3.67922E+01
 -1      1266 3.44371E+01
 -1      1267 3.20820E+01
 -1      1268 2.31460E+01
 -1      1269 1.26991E+01
 -1      1270 1.14895E+01
 -1      1271 1.17909E+01
 -1      1272 1.20747E+01
 -1      1273 1.23585E+01
 -1      1274 1.18258E+01
 -1      1275 1.53928E+01
 -1      1276 3.27523E+01
 -1      1277 4.60122E+01
 -1      1278 3.70673E+01
 -1      1279 2.81224E+01
 -1      1280 1.42866E+01
 -1      1281 4.19411E+00
 -1      1282 9.24037E+00
 -1      1283 2.86712E+00
 -1      1284 3.57645E+00
 -1      1285 3.57645E+00
 -1      1286 3.22189E+00
 -1      1287 2.96718E+00
 -1      1288 3.05884E+00
 -1      1289 4.38282E+00
 -1      1290 3.71993E+00
 -1      1291 3.65695E+00
 -1      1292 6.82276E+00
 -1      1293 5.69826E+00
 -1      1294 5.47043E+00
 -1      1295 8.96979E+00
 -1      1296 8.18329E+00
 -1      1297 8.14641E+00
 -1      1298 8.96979E+00
 -1      1299 8.96979E+00
 -1      1300 9.50694E+00
 -1      1301 9.15622E+00
 -1      1302 9.51923E+00
 -1      1303 1.00564E+01
 -1      1304 9.24425E+00
 -1      1305 9.15622E+00
 -1      1306 1.06058E+01
 -1      1307 8.52680E+00
 -1      1308 8.71279E+00
 -1      1309 1.00744E+01
 -1      1310 7.52433E+00
 -1      1311 8.16653E+00
 -1      1312 9.18264E+00
 -1      1313 5.01092E+00
 -1      1314 5.97304E+00
 -1      1315 7.27109E+00
 -1      1316 3.54942E+00
 -1      1317 4.04825E+00
 -1      1318 4.75714E+00
 -1      1319 3.88384E+00
 -1      1320 3.33775E+00
 -1      1321 3.58280E+00
 -1      1322 6.97969E+00
 -1      1323 4.55295E+00
 -1      1324 4.04024E+00
 -1      1325 1.36106E+01
 -1      1326 1.14303E+01
 -1      1327 9.15998E+00
 -1      1328 1.36106E+01
 -1      1329 9.31116E+00
 -1      1330 4.33571E+00
 -1      1331 3.98392E+00
 -1      1332 3.63213E+00
 -1      1333 3.98392E+00
 -1      1334 3.57888E+00
 -1      1335 3.66606E+00
 -1      1336 3.57888E+00
 -1      1337 3.80647E+00
 -1      1338 3.80647E+00
 -1      1339 3.66606E+00
 -1      1340 3.76880E+00
 -1      1341 3.73113E+00
 -1      1342 3.76880E+00
 -1      1343 3.55934E+00
 -1      1344 3.38756E+00
 -1      1345 3.55934E+00
 -1      1346 3.12423E+00
 -1      1347 2.86091E+00
 -1      1348 3.12423E+00
 -1      1349 2.34913E+00
 -1      1350 1.80927E+00
 -1      1351 2.34913E+00
 -1      1352 1.45288E+00
 -1      1353 1.12458E+00
 -1      1354 1.48097E+00
 -1      1355 9.86028E-01
 -1      1356 8.75956E-01
 -1      1357 9.86028E-01
 -1      1358 9.04440E-01
 -1      1359 9.22059E-01
 -1      1360 8.75956E-01
 -1      1361 9.39679E-01
 -1      1362 9.39679E-01
 -1      1363 9.22059E-01
 -1      1364 9.29611E-01
 -1      1365 9.19542E-01
 -1      1366 9.29611E-01
 -1      1367 8.57573E-01
 -1      1368 7.95603E-01
 -1      1369 8.57573E-01
 -1      1370 7.27935E-01
 -1      1371 6.47210E-01
 -1      1372 7.27935E-01
 -1      1373 6.00386E-01
 -1      1374 5.36907E-01
 -1      1375 6.13442E-01
 -1      1376 4.92112E-01
 -1      1377 4.48181E-01
 -1      1378 5.21823E-01
 -1      1379 4.00108E-01
 -1      1380 3.68775E-01
 -1      1381 4.28957E-01
 -1      1382 3.23913E-01
 -1      1383 2.91161E-01
 -1      1384 3.36023E-01
 -1      1385 2.60467E-01
 -1      1386 2.29773E-01
 -1      1387 2.60467E-01
 -1      1388 2.04740E-01
 -1      1389 1.77850E-01
 -1      1390 2.04740E-01
 -1      1391 1.57388E-01
 -1      1392 1.34918E-01
 -1      1393 1.59245E-01
 -1      1394 1.17764E-01
 -1      1395 1.01487E-01
 -1      1396 1.21630E-01
 -1      1397 9.05397E-02
 -1      1398 8.25814E-02
 -1      1399 9.35284E-02
 -1      1400 7.50497E-02
 -1      1401 6.75181E-02
 -1      1402 7.50497E-02
 -1      1403 6.07587E-02
 -1      1404 5.39994E-02
 -1      1405 6.07587E-02
 -1      1406 4.81600E-02
 -1      1407 4.23207E-02
 -1      1408 4.81600E-02
 -1      1409 3.74236E-02
 -1      1410 3.25266E-02
 -1      1411 3.74236E-02
 -1      1412 2.87671E-02
 -1      1413 2.47604E-02
 -1      1414 2.87671E-02
 -1      1415 2.19902E-02
 -1      1416 1.93715E-02
 -1      1417 2.22373E-02
 -1      1418 1.75687E-02
 -1      1419 1.58614E-02
 -1      1420 1.76642E-02
 -1      1421 1.43217E-02
 -1      1422 1.27821E-02
 -1      1423 1.43217E-02
 -1      1424 1.14448E-02
 -1      1425 1.01058E-02
 -1      1426 1.14448E-02
 -1      1427 9.13072E-03
 -1      1428 7.99895E-03
 -1      1429 9.13246E-03
 -1      1430 7.14911E-03
 -1      1431 6.28535E-03
 -1      1432 7.30757E-03
 -1      1433 5.67967E-03
 -1      1434 4.98331E-03
 -1      1435 5.85204E-03
 -1      1436 4.45273E-03
 -1      1437 3.88125E-03
 -1      1438 4.71578E-03
 -1      1439 3.42651E-03
 -1      1440 2.96682E-03
 -1      1441 3.73046E-03
 -1      1442 2.58675E-03
 -1      1443 2.23438E-03
 -1      1444 2.89565E-03
 -1      1445 1.92341E-03
 -1      1446 1.74049E-03
 -1      1447 2.20462E-03
 -1      1448 1.49078E-03
 -1      1449 1.33104E-03
 -1      1450 1.64395E-03
 -1      1451 1.13390E-03
 -1      1452 9.98303E-04
 -1      1453 1.19711E-03
 -1      1454 8.83905E-04
 -1      1455 7.71176E-04
 -1      1456 8.85574E-04
 -1      1457 6.81915E-04
 -1      1458 5.89224E-04
 -1      1459 6.81915E-04
 -1      1460 5.19293E-04
 -1      1461 4.42515E-04
 -1      1462 5.22724E-04
 -1      1463 4.06939E-04
 -1      1464 3.81640E-04
 -1      1465 4.17216E-04
 -1      1466 3.42719E-04
 -1      1467 3.03798E-04
 -1      1468 3.42719E-04
 -1      1469 2.36990E-04
 -1      1470 1.68204E-04
 -1      1471 2.36990E-04
 -1      1472 1.21388E-04
 -1      1473 1.23367E-04
 -1      1474 3.19526E+00
 -1      1475 8.40293E+00
 -1      1476 8.40293E+00
 -1      1477 2.53033E+00
 -1      1478 2.86239E+00
 -1      1479 2.86239E+00
 -1      1480 2.84561E+00
 -1      1481 2.53114E+00
 -1      1482 2.53033E+00
 -1      1483 3.36113E+00
 -1      1484 3.16008E+00
 -1      1485 2.84561E+00
 -1      1486 3.57849E+00
 -1      1487 3.56217E+00
 -1      1488 3.36113E+00
 -1      1489 3.59482E+00
 -1      1490 3.59482E+00
 -1      1491 3.57849E+00
 -1      1492 3.28194E+00
 -1      1493 3.43838E+00
 -1      1494 3.43838E+00
 -1      1495 2.09832E+00
 -1      1496 2.69013E+00
 -1      1497 2.69013E+00
 -1      1498 1.15664E+00
 -1      1499 1.62748E+00
 -1      1500 1.62748E+00
 -1      1501 8.95689E-01
 -1      1502 9.96808E-01
 -1      1503 9.96808E-01
 -1      1504 1.09066E+00
 -1      1505 9.74660E-01
 -1      1506 9.15946E-01
 -1      1507 1.18641E+00
 -1      1508 1.18641E+00
 -1      1509 1.09066E+00
 -1      1510 1.17655E+00
 -1      1511 1.18148E+00
 -1      1512 1.18148E+00
 -1      1513 1.03864E+00
 -1      1514 1.10759E+00
 -1      1515 1.10759E+00
 -1      1516 8.73222E-01
 -1      1517 9.55929E-01
 -1      1518 9.55929E-01
 -1      1519 7.19072E-01
 -1      1520 7.99568E-01
 -1      1521 7.99568E-01
 -1      1522 5.69226E-01
 -1      1523 6.48038E-01
 -1      1524 6.54880E-01
 -1      1525 4.32849E-01
 -1      1526 5.02722E-01
 -1      1527 5.17342E-01
 -1      1528 3.22993E-01
 -1      1529 3.75280E-01
 -1      1530 3.93269E-01
 -1      1531 2.41172E-01
 -1      1532 2.75788E-01
 -1      1533 2.88496E-01
 -1      1534 1.82336E-01
 -1      1535 2.11695E-01
 -1      1536 2.11813E-01
 -1      1537 1.34431E-01
 -1      1538 1.58383E-01
 -1      1539 1.58383E-01
 -1      1540 9.74473E-02
 -1      1541 1.16403E-01
 -1      1542 1.16403E-01
 -1      1543 6.89640E-02
 -1      1544 8.35836E-02
 -1      1545 8.45123E-02
 -1      1546 4.90975E-02
 -1      1547 5.82993E-02
 -1      1548 5.99839E-02
 -1      1549 4.08491E-02
 -1      1550 4.48625E-02
 -1      1551 4.50841E-02
 -1      1552 3.33779E-02
 -1      1553 3.71135E-02
 -1      1554 3.71135E-02
 -1      1555 2.67293E-02
 -1      1556 3.00536E-02
 -1      1557 3.00536E-02
 -1      1558 2.10072E-02
 -1      1559 2.38683E-02
 -1      1560 2.38683E-02
 -1      1561 1.74660E-02
 -1      1562 1.92366E-02
 -1      1563 1.92366E-02
 -1      1564 1.51298E-02
 -1      1565 1.62979E-02
 -1      1566 1.62979E-02
 -1      1567 1.27527E-02
 -1      1568 1.39412E-02
 -1      1569 1.39412E-02
 -1      1570 1.05037E-02
 -1      1571 1.16282E-02
 -1      1572 1.16282E-02
 -1      1573 8.47615E-03
 -1      1574 9.48995E-03
 -1      1575 9.48995E-03
 -1      1576 6.80155E-03
 -1      1577 7.63885E-03
 -1      1578 7.63885E-03
 -1      1579 5.43845E-03
 -1      1580 6.12000E-03
 -1      1581 6.12000E-03
 -1      1582 4.28132E-03
 -1      1583 4.86611E-03
 -1      1584 4.86611E-03
 -1      1585 3.33353E-03
 -1      1586 3.82265E-03
 -1      1587 3.83509E-03
 -1      1588 2.54829E-03
 -1      1589 2.94861E-03
 -1      1590 2.99150E-03
 -1      1591 1.91071E-03
 -1      1592 2.23220E-03
 -1      1593 2.29049E-03
 -1      1594 1.40207E-03
 -1      1595 1.65595E-03
 -1      1596 1.71964E-03
 -1      1597 1.02661E-03
 -1      1598 1.20009E-03
 -1      1599 1.26290E-03
 -1      1600 7.68271E-04
 -1      1601 8.80283E-04
 -1      1602 9.14596E-04
 -1      1603 5.83805E-04
 -1      1604 6.76038E-04
 -1      1605 6.76038E-04
 -1      1606 4.31023E-04
 -1      1607 5.07414E-04
 -1      1608 5.07414E-04
 -1      1609 3.01641E-04
 -1      1610 3.67635E-04
 -1      1611 3.67635E-04
 -1      1612 2.26697E-04
 -1      1613 2.62866E-04
 -1      1614 2.65472E-04
 -1      1615 1.35261E-04
 -1      1616 1.80979E-04
 -1      1617 1.80979E-04
 -1      1618 9.45176E-05
 -1      1619 6.95442E-05
 -1      1620 6.89749E-05
 -1      1621 7.29993E-05
 -1      1622 7.29993E-05
 -1      1623 8.76306E-05
 -1      1624 6.27065E-05
 -1      1625 7.29993E-05
 -1      1626 9.10857E-05
 -1      1627 3.41785E-05
 -1      1628 4.01953E-05
 -1      1629 6.85746E-05
 -1      1630 6.01902E-05
 -1      1631 5.03792E-05
 -1      1632 6.22642E-05
 -1      1633 7.92535E-05
 -1      1634 7.29679E-05
 -1      1635 9.12427E-05
 -1      1636 8.64069E-05
 -1      1637 8.45236E-05
 -1      1638 1.09291E-04
 -1      1639 8.64069E-05
 -1      1640 8.64069E-05
 -1      1641 1.14561E-04
 -1      1642 8.44211E-05
 -1      1643 8.63829E-05
 -1      1644 1.14537E-04
 -1      1645 7.23248E-05
 -1      1646 7.88402E-05
 -1      1647 1.08932E-04
 -1      1648 5.05512E-05
 -1      1649 5.99500E-05
 -1      1650 9.09760E-05
 -1      1651 4.12961E-05
 -1      1652 3.50019E-05
 -1      1653 6.30519E-05
 -1      1654 7.30275E-05
 -1      1655 6.34053E-05
 -1      1656 6.96117E-05
 -1      1657 8.17104E-05
 -1      1658 7.30275E-05
 -1      1659 9.17208E-05
 -1      1660 9.23667E-05
 -1      1661 8.99411E-05
 -1      1662 9.99514E-05
 -1      1663 1.39182E-04
 -1      1664 3.24760E+01
 -1      1665 3.32018E+01
 -1      1666 4.09680E+01
 -1      1667 3.25655E+01
 -1      1668 4.34758E+01
 -1      1669 4.34758E+01
 -1      1670 1.68218E+01
 -1      1671 3.01488E+01
 -1      1672 1.13735E+01
 -1      1673 1.37738E+01
 -1      1674 1.20211E+01
 -1      1675 1.20211E+01
 -1      1676 1.15593E+01
 -1      1677 1.17902E+01
 -1      1678 1.16334E+01
 -1      1679 1.14895E+01
 -1      1680 1.18472E+01
 -1      1681 1.18472E+01
 -1      1682 1.21902E+01
 -1      1683 1.14030E+01
 -1      1684 2.10426E+01
 -1      1685 1.34216E+01
 -1      1686 3.96591E+01
 -1      1687 2.86637E+01
 -1      1688 5.06546E+01
 -1      1689 5.06546E+01
 -1      1690 3.94350E+01
 -1      1691 4.78318E+01
 -1      1692 4.27249E+01
 -1      1693 4.12593E+01
 -1      1694 4.27249E+01
 -1      1695 4.27249E+01
 -1      1696 3.24320E+01
 -1      1697 3.47871E+01
 -1      1698 3.20820E+01
 -1      1699 3.20820E+01
 -1      1700 1.42101E+01
 -1      1701 2.31460E+01
 -1      1702 1.03988E+01
 -1      1703 1.19098E+01
 -1      1704 1.14895E+01
 -1      1705 1.11881E+01
 -1      1706 1.17909E+01
 -1      1707 1.17909E+01
 -1      1708 1.18692E+01
 -1      1709 1.15854E+01
 -1      1710 1.23585E+01
 -1      1711 1.23585E+01
 -1      1712 1.12931E+01
 -1      1713 1.18258E+01
 -1      1714 1.50294E+01
 -1      1715 1.09296E+01
 -1      1716 3.31753E+01
 -1      1717 1.99154E+01
 -1      1718 4.60122E+01
 -1      1719 4.60122E+01
 -1      1720 3.35922E+01
 -1      1721 4.25371E+01
 -1      1722 3.32018E+01
 -1      1723 3.32018E+01
 -1      1724 1.37738E+01
 -1      1725 3.01488E+01
 -1      1726 9.45176E-05
 -1      1727 1.09718E-04
 -1      1728 3.83706E+01
 -1      1729 4.09680E+01
 -1      1730 3.82811E+01
 -1      1731 1.13735E+01
 -1      1732 1.17902E+01
 -1      1733 1.14895E+01
 -1      1734 1.16334E+01
 -1      1735 1.14030E+01
 -1      1736 1.21902E+01
 -1      1737 2.10426E+01
 -1      1738 3.96591E+01
 -1      1739 4.78318E+01
 -1      1740 4.68333E+01
 -1      1741 4.86576E+01
 -1      1742 4.07198E+01
 -1      1743 3.24320E+01
 -1      1744 2.31460E+01
 -1      1745 1.19098E+01
 -1      1746 1.03988E+01
 -1      1747 1.14895E+01
 -1      1748 1.15854E+01
 -1      1749 1.18692E+01
 -1      1750 1.18258E+01
 -1      1751 1.09296E+01
 -1      1752 1.54523E+01
 -1      1753 3.31753E+01
 -1      1754 4.25371E+01
 -1      1755 3.86716E+01
 -1      1756 9.39034E+00
 -1      1757 9.39034E+00
 -1      1758 2.53956E+00
 -1      1759 2.43949E+00
 -1      1760 2.86807E+00
 -1      1761 3.48574E+00
 -1      1762 2.34878E+00
 -1      1763 6.34726E+00
 -1      1764 5.03182E+00
 -1      1765 1.00428E+01
 -1      1766 8.68227E+00
 -1      1767 8.24366E+00
 -1      1768 1.11204E+01
 -1      1769 1.11204E+01
 -1      1770 1.16563E+01
 -1      1771 1.58556E+01
 -1      1772 1.53062E+01
 -1      1773 1.69197E+01
 -1      1774 1.23075E+01
 -1      1775 1.28390E+01
 -1      1776 1.10473E+01
 -1      1777 1.14075E+01
 -1      1778 1.41722E+01
 -1      1779 7.06723E+00
 -1      1780 8.61851E+00
 -1      1781 1.08434E+01
 -1      1782 4.30429E+00
 -1      1783 5.26696E+00
 -1      1784 6.61439E+00
 -1      1785 2.93339E+00
 -1      1786 3.14506E+00
 -1      1787 3.65489E+00
 -1      1788 3.34568E+00
 -1      1789 2.67656E+00
 -1      1790 2.23883E+00
 -1      1791 7.94611E+00
 -1      1792 3.49549E+00
 -1      1793 2.13181E+00
 -1      1794 2.73844E+00
 -1      1795 4.41488E+00
 -1      1796 2.50829E+00
 -1      1797 2.84116E+00
 -1      1798 2.38434E+00
 -1      1799 3.05530E+00
 -1      1800 3.00205E+00
 -1      1801 3.07641E+00
 -1      1802 3.21683E+00
 -1      1803 2.55283E+00
 -1      1804 3.17878E+00
 -1      1805 3.14110E+00
 -1      1806 2.58914E+00
 -1      1807 2.96859E+00
 -1      1808 2.79681E+00
 -1      1809 2.37857E+00
 -1      1810 2.69211E+00
 -1      1811 2.42879E+00
 -1      1812 2.10136E+00
 -1      1813 2.25521E+00
 -1      1814 1.74344E+00
 -1      1815 1.82309E+00
 -1      1816 1.53023E+00
 -1      1817 1.17385E+00
 -1      1818 1.43631E+00
 -1      1819 9.71939E-01
 -1      1820 8.33383E-01
 -1      1821 1.02120E+00
 -1      1822 7.73475E-01
 -1      1823 8.01958E-01
 -1      1824 7.59386E-01
 -1      1825 7.58810E-01
 -1      1826 7.76429E-01
 -1      1827 6.56328E-01
 -1      1828 8.20096E-01
 -1      1829 8.10028E-01
 -1      1830 6.56847E-01
 -1      1831 8.16883E-01
 -1      1832 7.54913E-01
 -1      1833 7.07368E-01
 -1      1834 7.22186E-01
 -1      1835 6.54517E-01
 -1      1836 6.81496E-01
 -1      1837 6.25087E-01
 -1      1838 5.78263E-01
 -1      1839 6.19338E-01
 -1      1840 5.45526E-01
 -1      1841 5.00731E-01
 -1      1842 5.57171E-01
 -1      1843 4.59066E-01
 -1      1844 4.10994E-01
 -1      1845 4.82768E-01
 -1      1846 3.67936E-01
 -1      1847 3.23075E-01
 -1      1848 3.98046E-01
 -1      1849 2.83142E-01
 -1      1850 2.52448E-01
 -1      1851 3.15056E-01
 -1      1852 2.17880E-01
 -1      1853 1.92847E-01
 -1      1854 2.40555E-01
 -1      1855 1.64366E-01
 -1      1856 1.43905E-01
 -1      1857 1.77507E-01
 -1      1858 1.21630E-01
 -1      1859 1.04475E-01
 -1      1860 1.26751E-01
 -1      1861 9.05663E-02
 -1      1862 7.96193E-02
 -1      1863 9.05663E-02
 -1      1864 6.88431E-02
 -1      1865 6.13115E-02
 -1      1866 6.58810E-02
 -1      1867 5.42199E-02
 -1      1868 4.74606E-02
 -1      1869 4.80133E-02
 -1      1870 4.41716E-02
 -1      1871 3.83322E-02
 -1      1872 3.76328E-02
 -1      1873 3.52407E-02
 -1      1874 3.03436E-02
 -1      1875 3.12522E-02
 -1      1876 2.75711E-02
 -1      1877 2.38115E-02
 -1      1878 2.53881E-02
 -1      1879 2.14107E-02
 -1      1880 1.86405E-02
 -1      1881 2.02148E-02
 -1      1882 1.66190E-02
 -1      1883 1.48161E-02
 -1      1884 1.57924E-02
 -1      1885 1.36296E-02
 -1      1886 1.20899E-02
 -1      1887 1.25843E-02
 -1      1888 1.11921E-02
 -1      1889 9.85482E-03
 -1      1890 1.04999E-02
 -1      1891 9.00510E-03
 -1      1892 8.03004E-03
 -1      1893 8.75240E-03
 -1      1894 7.30204E-03
 -1      1895 6.45220E-03
 -1      1896 7.17467E-03
 -1      1897 5.86432E-03
 -1      1898 5.25863E-03
 -1      1899 5.85879E-03
 -1      1900 4.73832E-03
 -1      1901 4.20775E-03
 -1      1902 4.75060E-03
 -1      1903 3.79945E-03
 -1      1904 3.34471E-03
 -1      1905 3.82199E-03
 -1      1906 3.00449E-03
 -1      1907 2.62442E-03
 -1      1908 3.07348E-03
 -1      1909 2.33053E-03
 -1      1910 2.01957E-03
 -1      1911 2.43937E-03
 -1      1912 1.77220E-03
 -1      1913 1.52249E-03
 -1      1914 1.89811E-03
 -1      1915 1.31880E-03
 -1      1916 1.12167E-03
 -1      1917 1.44706E-03
 -1      1918 9.57211E-04
 -1      1919 8.42813E-04
 -1      1920 1.07891E-03
 -1      1921 7.12595E-04
 -1      1922 6.23335E-04
 -1      1923 7.84232E-04
 -1      1924 5.22724E-04
 -1      1925 4.52793E-04
 -1      1926 5.53404E-04
 -1      1927 3.93938E-04
 -1      1928 3.58362E-04
 -1      1929 3.93938E-04
 -1      1930 3.07658E-04
 -1      1931 2.68737E-04
 -1      1932 2.84380E-04
 -1      1933 2.32269E-04
 -1      1934 1.65461E-04
 -1      1935 1.34461E-04
 -1      1936 1.97208E-04
 -1      1937 2.31548E+00
 -1      1938 2.31467E+00
 -1      1939 2.29345E+00
 -1      1940 2.56240E+00
 -1      1941 2.24792E+00
 -1      1942 2.03227E+00
 -1      1943 2.76575E+00
 -1      1944 2.56471E+00
 -1      1945 1.96702E+00
 -1      1946 2.66425E+00
 -1      1947 2.64793E+00
 -1      1948 1.85151E+00
 -1      1949 2.55338E+00
 -1      1950 2.70982E+00
 -1      1951 1.77925E+00
 -1      1952 1.73665E+00
 -1      1953 2.32846E+00
 -1      1954 1.59990E+00
 -1      1955 9.91119E-01
 -1      1956 1.46196E+00
 -1      1957 1.10028E+00
 -1      1958 7.73779E-01
 -1      1959 9.33613E-01
 -1      1960 7.68090E-01
 -1      1961 8.70305E-01
 -1      1962 7.91333E-01
 -1      1963 7.28138E-01
 -1      1964 1.01451E+00
 -1      1965 9.18763E-01
 -1      1966 7.94150E-01
 -1      1967 1.01777E+00
 -1      1968 1.02270E+00
 -1      1969 8.50797E-01
 -1      1970 9.26217E-01
 -1      1971 9.95172E-01
 -1      1972 8.36392E-01
 -1      1973 8.02293E-01
 -1      1974 8.85000E-01
 -1      1975 7.72581E-01
 -1      1976 6.81437E-01
 -1      1977 7.55090E-01
 -1      1978 6.84161E-01
 -1      1979 5.54869E-01
 -1      1980 6.25904E-01
 -1      1981 5.81426E-01
 -1      1982 4.33554E-01
 -1      1983 5.00058E-01
 -1      1984 4.71082E-01
 -1      1985 3.26821E-01
 -1      1986 3.84390E-01
 -1      1987 3.67106E-01
 -1      1988 2.38167E-01
 -1      1989 2.85372E-01
 -1      1990 2.76493E-01
 -1      1991 1.79751E-01
 -1      1992 2.09228E-01
 -1      1993 2.06105E-01
 -1      1994 1.34013E-01
 -1      1995 1.57966E-01
 -1      1996 1.55380E-01
 -1      1997 9.83761E-02
 -1      1998 1.16403E-01
 -1      1999 1.15986E-01
 -1      2000 7.06486E-02
 -1      2001 8.45123E-02
 -1      2002 8.45123E-02
 -1      2003 4.93192E-02
 -1      2004 5.99839E-02
 -1      2005 5.99839E-02
 -1      2006 3.70572E-02
 -1      2007 4.12923E-02
 -1      2008 4.12923E-02
 -1      2009 2.95104E-02
 -1      2010 3.32461E-02
 -1      2011 2.94542E-02
 -1      2012 2.43214E-02
 -1      2013 2.76457E-02
 -1      2014 2.37782E-02
 -1      2015 1.96348E-02
 -1      2016 2.24959E-02
 -1      2017 2.00880E-02
 -1      2018 1.61790E-02
 -1      2019 1.79496E-02
 -1      2020 1.65772E-02
 -1      2021 1.35179E-02
 -1      2022 1.46860E-02
 -1      2023 1.33989E-02
 -1      2024 1.11224E-02
 -1      2025 1.23109E-02
 -1      2026 1.06990E-02
 -1      2027 9.35131E-03
 -1      2028 1.04758E-02
 -1      2029 8.84550E-03
 -1      2030 7.68496E-03
 -1      2031 8.69875E-03
 -1      2032 7.54632E-03
 -1      2033 6.23326E-03
 -1      2034 7.07056E-03
 -1      2035 6.27937E-03
 -1      2036 5.05475E-03
 -1      2037 5.73630E-03
 -1      2038 5.16801E-03
 -1      2039 4.03643E-03
 -1      2040 4.60878E-03
 -1      2041 4.22507E-03
 -1      2042 3.18711E-03
 -1      2043 3.64578E-03
 -1      2044 3.38845E-03
 -1      2045 2.46965E-03
 -1      2046 2.85457E-03
 -1      2047 2.66526E-03
 -1      2048 1.87924E-03
 -1      2049 2.19534E-03
 -1      2050 2.05841E-03
 -1      2051 1.40832E-03
 -1      2052 1.66307E-03
 -1      2053 1.56792E-03
 -1      2054 1.03162E-03
 -1      2055 1.23360E-03
 -1      2056 1.17704E-03
 -1      2057 7.46366E-04
 -1      2058 8.92690E-04
 -1      2059 8.63391E-04
 -1      2060 5.70734E-04
 -1      2061 6.62967E-04
 -1      2062 6.41062E-04
 -1      2063 4.25803E-04
 -1      2064 5.02194E-04
 -1      2065 4.89123E-04
 -1      2066 3.04247E-04
 -1      2067 3.67635E-04
 -1      2068 3.62415E-04
 -1      2069 2.13683E-04
 -1      2070 2.52458E-04
 -1      2071 2.52458E-04
 -1      2072 1.21547E-04
 -1      2073 1.67265E-04
 -1      2074 1.54251E-04
 -1      2075 9.60043E-05
 -1      2076 7.35374E-05
 -1      2077 9.60485E-05
 -1      2078 1.28709E-04
 -1      2079 1.28709E-04
 -1      2080 1.33672E-04
 -1      2081 1.28709E-04
 -1      2082 1.25254E-04
 -1      2083 1.37083E-04
 -1      2084 1.66332E-04
 -1      2085 9.34104E-05
 -1      2086 7.72097E-05
 -1      2087 1.04684E-04
 -1      2088 1.25253E-04
 -1      2089 1.12476E-04
 -1      2090 1.27421E-04
 -1      2091 1.39827E-04
 -1      2092 1.34557E-04
 -1      2093 1.55789E-04
 -1      2094 1.39827E-04
 -1      2095 1.39827E-04
 -1      2096 1.65093E-04
 -1      2097 1.39538E-04
 -1      2098 1.39562E-04
 -1      2099 1.64828E-04
 -1      2100 1.33957E-04
 -1      2101 1.39538E-04
 -1      2102 1.64564E-04
 -1      2103 1.12668E-04
 -1      2104 1.25043E-04
 -1      2105 1.55649E-04
 -1      2106 7.76339E-05
 -1      2107 9.31832E-05
 -1      2108 1.27250E-04
 -1      2109 9.73142E-05
 -1      2110 7.52051E-05
 -1      2111 1.05336E-04
 -1      2112 1.19877E-04
 -1      2113 1.19877E-04
 -1      2114 1.25470E-04
 -1      2115 3.44078E+01
 -1      2116 3.19000E+01
 -1      2117 3.82811E+01
 -1      2118 3.82811E+01
 -1      2119 3.22639E+01
 -1      2120 3.21744E+01
 -1      2121 3.21744E+01
 -1      2122 2.57037E+01
 -1      2123 1.54806E+01
 -1      2124 2.88076E+01
 -1      2125 9.41100E+00
 -1      2126 1.24590E+01
 -1      2127 3.62971E+00
 -1      2128 3.13168E+00
 -1      2129 2.51232E+00
 -1      2130 4.50655E+00
 -1      2131 1.09261E+01
 -1      2132 1.11570E+01
 -1      2133 1.06855E+01
 -1      2134 1.07553E+01
 -1      2135 1.09563E+01
 -1      2136 1.07425E+01
 -1      2137 9.22042E+00
 -1      2138 9.66458E+00
 -1      2139 1.05314E+01
 -1      2140 9.30000E+00
 -1      2141 2.10201E+01
 -1      2142 1.33991E+01
 -1      2143 3.58799E+01
 -1      2144 2.48845E+01
 -1      2145 3.95393E+01
 -1      2146 4.23621E+01
 -1      2147 4.68333E+01
 -1      2148 4.50090E+01
 -1      2149 4.86576E+01
 -1      2150 4.86576E+01
 -1      2151 4.68333E+01
 -1      2152 3.27820E+01
 -1      2153 4.07198E+01
 -1      2154 2.70389E+01
 -1      2155 2.73890E+01
 -1      2156 2.73890E+01
 -1      2157 1.40558E+01
 -1      2158 2.29917E+01
 -1      2159 8.93068E+00
 -1      2160 1.12309E+01
 -1      2161 9.29947E+00
 -1      2162 8.51021E+00
 -1      2163 1.07060E+01
 -1      2164 1.04047E+01
 -1      2165 1.09295E+01
 -1      2166 1.11350E+01
 -1      2167 1.12951E+01
 -1      2168 1.08058E+01
 -1      2169 1.03554E+01
 -1      2170 9.82479E+00
 -1      2171 1.03575E+01
 -1      2172 8.51343E+00
 -1      2173 8.87686E+00
 -1      2174 7.40858E+00
 -1      2175 1.49785E+01
 -1      2176 1.00924E+01
 -1      2177 3.08528E+01
 -1      2178 1.80159E+01
 -1      2179 3.30161E+01
 -1      2180 3.64912E+01
 -1      2181 3.30246E+01
 -1      2182 3.34150E+01
 -1      2183 2.73691E+01
 -1      2184 9.76277E+00
 -1      2185 9.11514E+00
 -1      2186 2.00534E+01
 -1      2187 1.78202E+01
 -1      2188 1.78202E+01
 -1      2189 2.30700E+01
 -1      2190 3.20475E+00
 -1      2191 2.62792E+00
 -1      2192 3.55653E+00
 -1      2193 4.34409E+00
 -1      2194 1.11178E+01
 -1      2195 1.37451E+01
 -1      2196 2.84133E+01
 -1      2197 1.93453E+01
 -1      2198 1.28108E-04
 -1      2199 3.30246E+01
 -1      2200 7.80029E+00
 -1      2201 2.13319E+01
 -1      2202 8.03963E+00
 -1      2203 9.29408E+00
 -1      2204 1.00502E+01
 -1      2205 8.51605E+00
 -1      2206 7.83132E+00
 -1      2207 1.79487E+01
 -1      2208 4.07198E+01
 -1      2209 3.95393E+01
 -1      2210 2.75875E+01
 -1      2211 1.72409E+01
 -1      2212 1.05088E+01
 -1      2213 7.39469E+00
 -1      2214 5.65625E+00
 -1      2215 5.73583E+00
 -1      2216 8.77367E+00
 -1      2217 1.01221E+01
 -1      2218 8.89865E+00
 -1      2219 1.00083E+01
 -1      2220 1.10766E+01
 -1      2221 1.26561E+01
 -1      2222 3.63571E+00
 -1      2223 1.41028E+01
 -1      2224 1.30252E+01
 -1      2225 9.75297E+00
 -1      2226 7.41796E+00
 -1      2227 1.21995E+01
 -1      2228 1.03924E+01
 -1      2229 1.28212E+01
 -1      2230 3.68461E+01
 -1      2231 3.48815E+01
 -1      2232 1.40142E+01
 -1      2233 1.49142E+01
 -1      2234 2.93624E+00
 -1      2235 4.09547E+00
 -1      2236 1.80989E+00
 -1      2237 2.06672E+00
 -1      2238 2.50730E+00
 -1      2239 1.92060E+00
 -1      2240 1.77079E+00
 -1      2241 1.59868E+00
 -1      2242 2.02332E+00
 -1      2243 2.05231E+00
 -1      2244 2.12667E+00
 -1      2245 1.91748E+00
 -1      2246 2.11110E+00
 -1      2247 1.64736E+00
 -1      2248 1.84992E+00
 -1      2249 1.91748E+00
 -1      2250 1.73513E+00
 -1      2251 2.24230E+00
 -1      2252 2.20424E+00
 -1      2253 1.74178E+00
 -1      2254 2.33795E+00
 -1      2255 2.16544E+00
 -1      2256 1.99111E+00
 -1      2257 2.10891E+00
 -1      2258 2.00422E+00
 -1      2259 2.06829E+00
 -1      2260 1.73366E+00
 -1      2261 1.56008E+00
 -1      2262 1.74121E+00
 -1      2263 1.51387E+00
 -1      2264 1.30067E+00
 -1      2265 1.42444E+00
 -1      2266 1.23797E+00
 -1      2267 1.03606E+00
 -1      2268 1.31553E+00
 -1      2269 1.01687E+00
 -1      2270 9.56959E-01
 -1      2271 1.23363E+00
 -1      2272 8.45145E-01
 -1      2273 8.01996E-01
 -1      2274 1.10263E+00
 -1      2275 7.53378E-01
 -1      2276 7.97045E-01
 -1      2277 9.42194E-01
 -1      2278 7.64230E-01
 -1      2279 7.71085E-01
 -1      2280 8.60762E-01
 -1      2281 7.20584E-01
 -1      2282 6.87856E-01
 -1      2283 7.77445E-01
 -1      2284 6.43367E-01
 -1      2285 6.13936E-01
 -1      2286 6.82454E-01
 -1      2287 5.77557E-01
 -1      2288 5.44820E-01
 -1      2289 6.01586E-01
 -1      2290 5.02710E-01
 -1      2291 4.61045E-01
 -1      2292 5.23096E-01
 -1      2293 4.17734E-01
 -1      2294 3.74676E-01
 -1      2295 4.37675E-01
 -1      2296 3.34161E-01
 -1      2297 2.94228E-01
 -1      2298 3.53849E-01
 -1      2299 2.58584E-01
 -1      2300 2.24016E-01
 -1      2301 2.77689E-01
 -1      2302 1.94015E-01
 -1      2303 1.65535E-01
 -1      2304 2.12044E-01
 -1      2305 1.41142E-01
 -1      2306 1.18866E-01
 -1      2307 1.57650E-01
 -1      2308 9.96018E-02
 -1      2309 8.56926E-02
 -1      2310 1.13993E-01
 -1      2311 7.08699E-02
 -1      2312 6.00937E-02
 -1      2313 7.99053E-02
 -1      2314 4.89697E-02
 -1      2315 4.18781E-02
 -1      2316 5.39586E-02
 -1      2317 3.47445E-02
 -1      2318 3.14554E-02
 -1      2319 3.57008E-02
 -1      2320 2.70214E-02
 -1      2321 2.39299E-02
 -1      2322 2.41331E-02
 -1      2323 2.27763E-02
 -1      2324 2.00038E-02
 -1      2325 1.85455E-02
 -1      2326 1.88240E-02
 -1      2327 1.64232E-02
 -1      2328 1.62121E-02
 -1      2329 1.52300E-02
 -1      2330 1.32085E-02
 -1      2331 1.38392E-02
 -1      2332 1.20831E-02
 -1      2333 1.08965E-02
 -1      2334 1.15207E-02
 -1      2335 9.88392E-03
 -1      2336 8.98611E-03
 -1      2337 9.38270E-03
 -1      2338 8.35857E-03
 -1      2339 7.50885E-03
 -1      2340 7.74256E-03
 -1      2341 6.99402E-03
 -1      2342 6.26601E-03
 -1      2343 6.60019E-03
 -1      2344 5.76008E-03
 -1      2345 5.17220E-03
 -1      2346 5.57942E-03
 -1      2347 4.73335E-03
 -1      2348 4.21305E-03
 -1      2349 4.63465E-03
 -1      2350 3.83517E-03
 -1      2351 3.42687E-03
 -1      2352 3.81792E-03
 -1      2353 3.08783E-03
 -1      2354 2.74761E-03
 -1      2355 3.10100E-03
 -1      2356 2.45349E-03
 -1      2357 2.15960E-03
 -1      2358 2.46784E-03
 -1      2359 1.92389E-03
 -1      2360 1.67652E-03
 -1      2361 1.93801E-03
 -1      2362 1.48989E-03
 -1      2363 1.28619E-03
 -1      2364 1.51566E-03
 -1      2365 1.12951E-03
 -1      2366 9.65056E-04
 -1      2367 1.17234E-03
 -1      2368 8.36470E-04
 -1      2369 7.06253E-04
 -1      2370 8.87077E-04
 -1      2371 6.03026E-04
 -1      2372 5.02415E-04
 -1      2373 6.55263E-04
 -1      2374 4.21476E-04
 -1      2375 3.62621E-04
 -1      2376 4.71098E-04
 -1      2377 3.00617E-04
 -1      2378 2.49913E-04
 -1      2379 3.28155E-04
 -1      2380 1.95909E+00
 -1      2381 2.07691E+00
 -1      2382 1.87619E+00
 -1      2383 1.83062E+00
 -1      2384 2.05603E+00
 -1      2385 1.44924E+00
 -1      2386 1.67417E+00
 -1      2387 1.72554E+00
 -1      2388 1.09258E+00
 -1      2389 1.36727E+00
 -1      2390 1.44154E+00
 -1      2391 1.01917E+00
 -1      2392 1.07667E+00
 -1      2393 1.34366E+00
 -1      2394 9.16995E-01
 -1      2395 8.99441E-01
 -1      2396 1.20802E+00
 -1      2397 9.51601E-01
 -1      2398 9.03143E-01
 -1      2399 1.07445E+00
 -1      2400 9.23963E-01
 -1      2401 9.15774E-01
 -1      2402 1.02477E+00
 -1      2403 8.41993E-01
 -1      2404 8.64586E-01
 -1      2405 9.29563E-01
 -1      2406 7.55710E-01
 -1      2407 7.96928E-01
 -1      2408 8.25121E-01
 -1      2409 6.63485E-01
 -1      2410 7.10687E-01
 -1      2411 7.35033E-01
 -1      2412 5.53345E-01
 -1      2413 6.08878E-01
 -1      2414 6.35404E-01
 -1      2415 4.43218E-01
 -1      2416 4.98029E-01
 -1      2417 5.25481E-01
 -1      2418 3.43202E-01
 -1      2419 3.92366E-01
 -1      2420 4.19314E-01
 -1      2421 2.57820E-01
 -1      2422 2.99269E-01
 -1      2423 3.24529E-01
 -1      2424 1.92563E-01
 -1      2425 2.21502E-01
 -1      2426 2.44278E-01
 -1      2427 1.41759E-01
 -1      2428 1.63544E-01
 -1      2429 1.78941E-01
 -1      2430 1.01610E-01
 -1      2431 1.19220E-01
 -1      2432 1.27384E-01
 -1      2433 7.06794E-02
 -1      2434 8.45431E-02
 -1      2435 8.77775E-02
 -1      2436 4.81635E-02
 -1      2437 5.88282E-02
 -1      2438 5.88591E-02
 -1      2439 3.30726E-02
 -1      2440 4.10995E-02
 -1      2441 3.99439E-02
 -1      2442 2.56430E-02
 -1      2443 2.94542E-02
 -1      2444 2.92615E-02
 -1      2445 2.19135E-02
 -1      2446 2.37782E-02
 -1      2447 2.37782E-02
 -1      2448 1.82625E-02
 -1      2449 2.00880E-02
 -1      2450 2.00880E-02
 -1      2451 1.48919E-02
 -1      2452 1.65772E-02
 -1      2453 1.65772E-02
 -1      2454 1.19060E-02
 -1      2455 1.33989E-02
 -1      2456 1.33989E-02
 -1      2457 9.52769E-03
 -1      2458 1.07346E-02
 -1      2459 1.07346E-02
 -1      2460 8.19888E-03
 -1      2461 8.84550E-03
 -1      2462 8.88108E-03
 -1      2463 6.89376E-03
 -1      2464 7.54632E-03
 -1      2465 7.54632E-03
 -1      2466 5.66498E-03
 -1      2467 6.27937E-03
 -1      2468 6.27937E-03
 -1      2469 4.67642E-03
 -1      2470 5.17339E-03
 -1      2471 5.17339E-03
 -1      2472 3.79209E-03
 -1      2473 4.23806E-03
 -1      2474 4.24343E-03
 -1      2475 3.01451E-03
 -1      2476 3.40516E-03
 -1      2477 3.41815E-03
 -1      2478 2.38094E-03
 -1      2479 2.71348E-03
 -1      2480 2.73019E-03
 -1      2481 1.85414E-03
 -1      2482 2.12846E-03
 -1      2483 2.17667E-03
 -1      2484 1.42268E-03
 -1      2485 1.63884E-03
 -1      2486 1.70889E-03
 -1      2487 1.06870E-03
 -1      2488 1.24342E-03
 -1      2489 1.31434E-03
 -1      2490 7.83654E-04
 -1      2491 9.22584E-04
 -1      2492 9.88967E-04
 -1      2493 5.83654E-04
 -1      2494 6.67053E-04
 -1      2495 7.26247E-04
 -1      2496 4.21851E-04
 -1      2497 4.90390E-04
 -1      2498 5.16382E-04
 -1      2499 2.94976E-04
 -1      2500 3.53145E-04
 -1      2501 3.54412E-04
 -1      2502 1.99131E-04
 -1      2503 2.50920E-04
 -1      2504 2.41649E-04
 -1      2505 1.83501E-04
 -1      2506 1.66431E-04
 -1      2507 1.47366E-04
 -1      2508 1.91632E-04
 -1      2509 1.82329E-04
 -1      2510 2.02274E-04
 -1      2511 1.60469E-04
 -1      2512 1.93130E-04
 -1      2513 1.66020E-04
 -1      2514 1.62348E-04
 -1      2515 2.21806E-04
 -1      2516 2.05030E-04
 -1      2517 1.92923E-04
 -1      2518 1.92923E-04
 -1      2519 2.19463E-04
 -1      2520 1.92659E-04
 -1      2521 1.92923E-04
 -1      2522 2.20754E-04
 -1      2523 1.92541E-04
 -1      2524 1.92541E-04
 -1      2525 2.20636E-04
 -1      2526 1.82466E-04
 -1      2527 1.91381E-04
 -1      2528 2.19358E-04
 -1      2529 1.47069E-04
 -1      2530 1.66554E-04
 -1      2531 2.02286E-04
 -1      2532 1.39886E-04
 -1      2533 1.42315E-04
 -1      2534 1.81619E-04
 -1      2535 1.62449E-04
 -1      2536 1.39886E-04
 -1      2537 1.76865E-04
 -1      2538 1.54387E-04
 -1      2539 3.16572E+01
 -1      2540 2.64006E+01
 -1      2541 2.07764E+00
 -1      2542 2.07533E+00
 -1      2543 1.96054E+00
 -1      2544 2.18522E+00
 -1      2545 5.95881E+00
 -1      2546 6.25467E+00
 -1      2547 2.00392E+01
 -1      2548 1.44008E+01
 -1      2549 8.67011E+00
 -1      2550 8.24116E+00
 -1      2551 3.35496E+01
 -1      2552 2.80799E+01
 -1      2553 5.59202E+00
 -1      2554 7.39229E+00
 -1      2555 4.87337E+00
 -1      2556 2.46607E+01
 -1      2557 2.04749E+01
 -1      2558 7.38774E+00
 -1      2559 1.04093E+01
 -1      2560 7.77902E+00
 -1      2561 6.38480E+00
 -1      2562 4.83918E+00
 -1      2563 8.52662E+00
 -1      2564 1.13514E+01
 -1      2565 8.67811E+00
 -1      2566 8.84890E+00
 -1      2567 6.37253E+00
 -1      2568 7.66422E+00
 -1      2569 1.03049E+01
 -1      2570 7.43718E+00
 -1      2571 1.67377E+01
 -1      2572 1.28734E+01
 -1      2573 9.80172E+00
 -1      2574 2.44129E+01
 -1      2575 1.79307E+01
 -1      2576 3.50218E+01
 -1      2577 1.20223E+01
 -1      2578 8.98482E+00
 -1      2579 1.30126E+01
 -1      2580 1.70598E+01
 -1      2581 6.17048E+00
 -1      2582 6.59094E+00
 -1      2583 7.22961E+00
 -1      2584 6.12441E+00
 -1      2585 8.83553E+00
 -1      2586 8.95928E+00
 -1      2587 7.35030E+00
 -1      2588 8.28787E+00
 -1      2589 5.25264E+00
 -1      2590 6.20057E+00
 -1      2591 7.15182E+00
 -1      2592 5.57284E+00
 -1      2593 4.36483E+00
 -1      2594 6.51802E+00
 -1      2595 2.21996E+01
 -1      2596 2.18007E+01
 -1      2597 8.80524E+00
 -1      2598 8.74820E+00
 -1      2599 7.47502E+00
 -1      2600 1.93486E+00
 -1      2601 1.78541E+00
 -1      2602 1.35925E+00
 -1      2603 1.50628E+00
 -1      2604 1.35632E+01
 -1      2605 6.68162E+00
 -1      2606 5.17231E+00
 -1      2607 3.77021E+00
 -1      2608 9.37007E+00
 -1      2609 2.18438E+01
 -1      2610 3.84368E+01
 -1      2611 1.04626E+01
 -1      2612 2.08322E+01
 -1      2613 2.16108E+01
 -1      2614 2.19747E+01
 -1      2615 1.81962E-04
 -1      2616 7.15025E+00
 -1      2617 1.81962E-04
 -1      2618 1.08395E+01
 -1      2619 1.04452E+01
 -1      2620 7.10951E+00
 -1      2621 1.60741E-04
 -1      2622 1.54387E-04
 -1      2623 1.68803E-04
 -1      2624 1.97208E-04
 -1      2625 3.08197E+01
 -1      2626 2.41958E+01
 -1      2627 1.48696E+01
 -1      2628 2.47130E+01
 -1      2629 1.21309E+01
 -1      2630 1.81254E+01
 -1      2631 1.43964E+01
 -1      2632 1.85812E+01
 -1      2633 2.35624E+01
 -1      2634 1.07295E+01
 -1      2635 5.84952E+00
 -1      2636 5.19436E+00
 -1      2637 6.89175E+00
 -1      2638 1.84232E+01
 -1      2639 4.88404E+00
 -1      2640 1.35632E+01
 -1      2641 5.40863E+00
 -1      2642 4.29917E+00
 -1      2643 3.58290E+00
 -1      2644 8.05097E+00
 -1      2645 5.53712E+00
 -1      2646 6.60700E+00
 -1      2647 6.01029E+00
 -1      2648 4.10497E+00
 -1      2649 5.80632E+00
 -1      2650 5.54626E+00
 -1      2651 2.53469E+00
 -1      2652 1.94257E+00
 -1      2653 1.52865E+00
 -1      2654 3.20045E+00
 -1      2655 6.86578E+00
 -1      2656 6.40410E+00
 -1      2657 3.04990E+01
 -1      2658 2.51059E+01
 -1      2659 2.08760E-04
 -1      2660 2.13445E-04
 -1      2661 1.87338E+01
 -1      2662 1.75850E+00
 -1      2663 2.62802E+00
 -1      2664 1.73513E+00
 -1      2665 1.73513E+00
 -1      2666 2.89425E-04
 -1      2667 2.78257E-04
 -1      2668 3.22314E-04
 -1      2669 1.95023E+00
 -1      2670 2.03220E+00
 -1      2671 2.43791E+00
 -1      2672 2.57162E+00
 -1      2673 2.76897E+00
 -1      2674 2.71244E+00
 -1      2675 3.21577E+00
 -1      2676 2.70678E+00
 -1      2677 2.43622E+00
 -1      2678 3.40746E+00
 -1      2679 1.86124E+00
 -1      2680 1.81503E+00
 -1      2681 2.82681E+00
 -1      2682 1.52811E+00
 -1      2683 1.46541E+00
 -1      2684 1.96491E+00
 -1      2685 1.63096E+00
 -1      2686 1.61177E+00
 -1      2687 1.84354E+00
 -1      2688 1.34393E+00
 -1      2689 1.23211E+00
 -1      2690 1.74125E+00
 -1      2691 1.16071E+00
 -1      2692 1.11209E+00
 -1      2693 1.40201E+00
 -1      2694 1.00478E+00
 -1      2695 9.71961E-01
 -1      2696 1.22329E+00
 -1      2697 8.66204E-01
 -1      2698 8.15702E-01
 -1      2699 1.01022E+00
 -1      2700 7.45670E-01
 -1      2701 7.01181E-01
 -1      2702 8.34428E-01
 -1      2703 6.43977E-01
 -1      2704 6.07598E-01
 -1      2705 7.07192E-01
 -1      2706 5.51067E-01
 -1      2707 5.08957E-01
 -1      2708 5.93458E-01
 -1      2709 4.57267E-01
 -1      2710 4.13956E-01
 -1      2711 4.85238E-01
 -1      2712 3.68774E-01
 -1      2713 3.28259E-01
 -1      2714 3.88366E-01
 -1      2715 2.89971E-01
 -1      2716 2.54327E-01
 -1      2717 3.04897E-01
 -1      2718 2.22660E-01
 -1      2719 1.92658E-01
 -1      2720 2.34942E-01
 -1      2721 1.67012E-01
 -1      2722 1.42619E-01
 -1      2723 1.77628E-01
 -1      2724 1.22248E-01
 -1      2725 1.02984E-01
 -1      2726 1.31610E-01
 -1      2727 8.71055E-02
 -1      2728 7.22827E-02
 -1      2729 9.53614E-02
 -1      2730 6.01371E-02
 -1      2731 4.90130E-02
 -1      2732 6.73372E-02
 -1      2733 3.99029E-02
 -1      2734 3.27692E-02
 -1      2735 4.60814E-02
 -1      2736 2.60784E-02
 -1      2737 2.16444E-02
 -1      2738 3.02804E-02
 -1      2739 1.68453E-02
 -1      2740 1.56917E-02
 -1      2741 1.87905E-02
 -1      2742 1.35376E-02
 -1      2743 1.23578E-02
 -1      2744 1.18373E-02
 -1      2745 1.22122E-02
 -1      2746 1.10190E-02
 -1      2747 9.53762E-03
 -1      2748 1.06320E-02
 -1      2749 9.50660E-03
 -1      2750 9.00494E-03
 -1      2751 8.99750E-03
 -1      2752 7.98489E-03
 -1      2753 8.10879E-03
 -1      2754 7.43418E-03
 -1      2755 6.80664E-03
 -1      2756 7.04897E-03
 -1      2757 6.26580E-03
 -1      2758 5.75097E-03
 -1      2759 5.95742E-03
 -1      2760 5.39825E-03
 -1      2761 4.89232E-03
 -1      2762 5.06387E-03
 -1      2763 4.53529E-03
 -1      2764 4.09645E-03
 -1      2765 4.35412E-03
 -1      2766 3.75229E-03
 -1      2767 3.37440E-03
 -1      2768 3.65293E-03
 -1      2769 3.05987E-03
 -1      2770 2.72083E-03
 -1      2771 2.99424E-03
 -1      2772 2.45645E-03
 -1      2773 2.16233E-03
 -1      2774 2.41533E-03
 -1      2775 1.94089E-03
 -1      2776 1.70518E-03
 -1      2777 1.92950E-03
 -1      2778 1.51566E-03
 -1      2779 1.32903E-03
 -1      2780 1.51854E-03
 -1      2781 1.17953E-03
 -1      2782 1.02285E-03
 -1      2783 1.17953E-03
 -1      2784 9.03975E-04
 -1      2785 7.75389E-04
 -1      2786 9.11158E-04
 -1      2787 6.76761E-04
 -1      2788 5.73534E-04
 -1      2789 6.93659E-04
 -1      2790 4.93671E-04
 -1      2791 4.12733E-04
 -1      2792 5.15169E-04
 -1      2793 3.36547E-04
 -1      2794 2.74543E-04
 -1      2795 3.59121E-04
 -1      2796 2.05294E+00
 -1      2797 2.25496E+00
 -1      2798 2.56163E+00
 -1      2799 1.76006E+01
 -1      2800 1.84380E+01
 -1      2801 2.84612E+00
 -1      2802 2.97459E+00
 -1      2803 3.17352E+00
 -1      2804 1.83504E+00
 -1      2805 1.85095E+00
 -1      2806 2.44162E+00
 -1      2807 1.40500E+00
 -1      2808 1.52472E+00
 -1      2809 2.03202E+00
 -1      2810 1.29687E+00
 -1      2811 1.31072E+00
 -1      2812 1.62742E+00
 -1      2813 1.13934E+00
 -1      2814 1.17517E+00
 -1      2815 1.41145E+00
 -1      2816 9.57711E-01
 -1      2817 1.01709E+00
 -1      2818 1.16749E+00
 -1      2819 8.41949E-01
 -1      2820 8.87015E-01
 -1      2821 9.74539E-01
 -1      2822 7.30222E-01
 -1      2823 7.75244E-01
 -1      2824 8.37138E-01
 -1      2825 6.08637E-01
 -1      2826 6.63244E-01
 -1      2827 7.03455E-01
 -1      2828 4.91494E-01
 -1      2829 5.46810E-01
 -1      2830 5.74650E-01
 -1      2831 3.86405E-01
 -1      2832 4.37256E-01
 -1      2833 4.58585E-01
 -1      2834 2.96542E-01
 -1      2835 3.40475E-01
 -1      2836 3.58417E-01
 -1      2837 2.22380E-01
 -1      2838 2.58698E-01
 -1      2839 2.74644E-01
 -1      2840 1.62891E-01
 -1      2841 1.91910E-01
 -1      2842 2.06330E-01
 -1      2843 1.16318E-01
 -1      2844 1.38857E-01
 -1      2845 1.51825E-01
 -1      2846 8.06565E-02
 -1      2847 9.77238E-02
 -1      2848 1.09197E-01
 -1      2849 5.46919E-02
 -1      2850 6.65430E-02
 -1      2851 7.64893E-02
 -1      2852 3.71237E-02
 -1      2853 4.41877E-02
 -1      2854 5.18716E-02
 -1      2855 2.58510E-02
 -1      2856 2.94694E-02
 -1      2857 3.37132E-02
 -1      2858 1.92605E-02
 -1      2859 2.11253E-02
 -1      2860 2.13333E-02
 -1      2861 1.56323E-02
 -1      2862 1.74578E-02
 -1      2863 1.48048E-02
 -1      2864 1.33880E-02
 -1      2865 1.50733E-02
 -1      2866 1.24430E-02
 -1      2867 1.11776E-02
 -1      2868 1.26706E-02
 -1      2869 1.11666E-02
 -1      2870 9.23897E-03
 -1      2871 1.04103E-02
 -1      2872 9.68194E-03
 -1      2873 7.80845E-03
 -1      2874 8.49064E-03
 -1      2875 8.16634E-03
 -1      2876 6.52692E-03
 -1      2877 7.17948E-03
 -1      2878 6.78904E-03
 -1      2879 5.46540E-03
 -1      2880 6.07979E-03
 -1      2881 5.71295E-03
 -1      2882 4.56765E-03
 -1      2883 5.05924E-03
 -1      2884 4.85966E-03
 -1      2885 3.74143E-03
 -1      2886 4.17979E-03
 -1      2887 4.06564E-03
 -1      2888 3.03116E-03
 -1      2889 3.41808E-03
 -1      2890 3.35444E-03
 -1      2891 2.43961E-03
 -1      2892 2.74064E-03
 -1      2893 2.74058E-03
 -1      2894 1.93225E-03
 -1      2895 2.18473E-03
 -1      2896 2.19518E-03
 -1      2897 1.49966E-03
 -1      2898 1.71495E-03
 -1      2899 1.72301E-03
 -1      2900 1.15534E-03
 -1      2901 1.33460E-03
 -1      2902 1.34066E-03
 -1      2903 8.72722E-04
 -1      2904 1.01884E-03
 -1      2905 1.03910E-03
 -1      2906 6.43322E-04
 -1      2907 7.59923E-04
 -1      2908 7.89798E-04
 -1      2909 4.56101E-04
 -1      2910 5.49365E-04
 -1      2911 5.83041E-04
 -1      2912 3.29292E-04
 -1      2913 3.97997E-04
 -1      2914 4.30980E-04
 -1      2915 3.65900E-04
 -1      2916 6.13546E+00
 -1      2917 5.84628E+00
 -1      2918 2.57945E-04
 -1      2919 2.57945E-04
 -1      2920 2.21508E-04
 -1      2921 1.68803E-04
 -1      2922 1.76865E-04
 -1      2923 2.29900E-04
 -1      2924 2.49760E-04
 -1      2925 2.33862E-04
 -1      2926 2.57794E-04
 -1      2927 2.57912E-04
 -1      2928 2.95104E-04
 -1      2929 2.57945E-04
 -1      2930 2.56654E-04
 -1      2931 2.88243E-04
 -1      2932 2.95137E-04
 -1      2933 2.56635E-04
 -1      2934 2.57794E-04
 -1      2935 2.95071E-04
 -1      2936 2.33552E-04
 -1      2937 2.49464E-04
 -1      2938 2.87900E-04
 -1      2939 1.97594E-04
 -1      2940 2.02349E-04
 -1      2941 2.49527E-04
 -1      2942 1.76865E-04
 -1      2943 1.37093E+01
 -1      2944 1.19477E+01
 -1      2945 1.00819E+01
 -1      2946 7.70333E+00
 -1      2947 8.92153E+00
 -1      2948 2.06200E+01
 -1      2949 3.72322E+00
 -1      2950 4.87294E+00
 -1      2951 1.94423E+01
 -1      2952 1.52414E+01
 -1      2953 1.28471E+01
 -1      2954 1.19482E+00
 -1      2955 1.46172E+00
 -1      2956 1.63111E+00
 -1      2957 1.23702E+01
 -1      2958 3.92377E+00
 -1      2959 3.49777E+00
 -1      2960 4.77721E+00
 -1      2961 6.71288E+00
 -1      2962 3.66575E+00
 -1      2963 4.79882E+00
 -1      2964 9.56817E+00
 -1      2965 6.99967E+00
 -1      2966 5.57277E+00
 -1      2967 9.56817E+00
 -1      2968 3.93244E+00
 -1      2969 3.97850E+00
 -1      2970 3.82561E+00
 -1      2971 5.11208E+00
 -1      2972 4.10053E+00
 -1      2973 1.37977E+01
 -1      2974 4.86312E+00
 -1      2975 6.00414E+00
 -1      2976 5.48688E+00
 -1      2977 6.03455E+00
 -1      2978 2.04406E+00
 -1      2979 2.15969E+00
 -1      2980 2.74020E+00
 -1      2981 1.87963E+00
 -1      2982 6.20938E+00
 -1      2983 6.13928E+00
 -1      2984 1.52322E+01
 -1      2985 1.79705E+01
 -1      2986 6.77579E+00
 -1      2987 4.53014E+00
 -1      2988 1.80718E+00
 -1      2989 1.80718E+00
 -1      2990 4.09729E+00
 -1      2991 2.72649E-04
 -1      2992 2.91303E-04
 -1      2993 3.20135E-04
 -1      2994 1.71940E+00
 -1      2995 6.56802E+00
 -1      2996 4.66840E+00
 -1      2997 1.67720E+01
 -1      2998 1.10143E+01
 -1      2999 1.13842E+01
 -1      3000 3.54303E+00
 -1      3001 2.75294E+00
 -1      3002 7.44493E+00
 -1      3003 1.03505E+01
 -1      3004 9.13061E+00
 -1      3005 4.73059E+00
 -1      3006 5.34136E+00
 -1      3007 2.91303E-04
 -1      3008 2.75033E+00
 -1      3009 5.52609E+00
 -1      3010 5.95626E+00
 -1      3011 3.64558E+00
 -1      3012 1.98465E-04
 -1      3013 1.98465E-04
 -1      3014 2.19195E-04
 -1      3015 2.51500E-04
 -1      3016 1.23194E+01
 -1      3017 9.24065E+00
 -1      3018 1.27260E+01
 -1      3019 1.00765E+01
 -1      3020 2.75367E+00
 -1      3021 6.18071E+00
 -1      3022 6.82840E+00
 -1      3023 2.18595E+00
 -1      3024 1.96054E+00
 -1      3025 1.96054E+00
 -1      3026 2.75367E+00
 -1      3027 4.99540E+00
 -1      3028 3.77892E+00
 -1      3029 3.45750E+00
 -1      3030 4.10497E+00
 -1      3031 3.85735E+00
 -1      3032 4.37943E+00
 -1      3033 3.89922E+00
 -1      3034 3.12932E+00
 -1      3035 3.87813E+00
 -1      3036 3.19500E+00
 -1      3037 5.37468E+00
 -1      3038 4.19572E+00
 -1      3039 8.86436E+00
 -1      3040 5.37468E+00
 -1      3041 4.09911E+00
 -1      3042 1.05255E+01
 -1      3043 4.01574E+00
 -1      3044 3.92496E+00
 -1      3045 3.19076E+00
 -1      3046 2.65504E+00
 -1      3047 2.96537E+00
 -1      3048 4.02140E+00
 -1      3049 4.01574E+00
 -1      3050 3.40180E+00
 -1      3051 2.82681E+00
 -1      3052 2.12746E+00
 -1      3053 2.29302E+00
 -1      3054 2.26911E+00
 -1      3055 2.00127E+00
 -1      3056 2.55303E+00
 -1      3057 1.75268E+00
 -1      3058 1.68128E+00
 -1      3059 2.28054E+00
 -1      3060 1.43712E+00
 -1      3061 1.32981E+00
 -1      3062 1.78780E+00
 -1      3063 1.17050E+00
 -1      3064 1.06474E+00
 -1      3065 1.38433E+00
 -1      3066 9.44898E-01
 -1      3067 8.74866E-01
 -1      3068 1.10518E+00
 -1      3069 7.67412E-01
 -1      3070 7.10208E-01
 -1      3071 8.77882E-01
 -1      3072 6.24321E-01
 -1      3073 5.67791E-01
 -1      3074 6.84541E-01
 -1      3075 5.01186E-01
 -1      3076 4.49496E-01
 -1      3077 5.32048E-01
 -1      3078 3.96469E-01
 -1      3079 3.51288E-01
 -1      3080 4.12417E-01
 -1      3081 3.13604E-01
 -1      3082 2.75316E-01
 -1      3083 3.21706E-01
 -1      3084 2.42502E-01
 -1      3085 2.10835E-01
 -1      3086 2.51209E-01
 -1      3087 1.83446E-01
 -1      3088 1.57800E-01
 -1      3089 1.91007E-01
 -1      3090 1.35665E-01
 -1      3091 1.15295E-01
 -1      3092 1.41484E-01
 -1      3093 9.82446E-02
 -1      3094 8.23661E-02
 -1      3095 1.02299E-01
 -1      3096 6.96612E-02
 -1      3097 5.75155E-02
 -1      3098 7.25444E-02
 -1      3099 4.80656E-02
 -1      3100 3.89555E-02
 -1      3101 5.03896E-02
 -1      3102 3.23011E-02
 -1      3103 2.56103E-02
 -1      3104 3.42853E-02
 -1      3105 2.07278E-02
 -1      3106 1.59287E-02
 -1      3107 2.27484E-02
 -1      3108 1.24190E-02
 -1      3109 1.02649E-02
 -1      3110 1.43563E-02
 -1      3111 7.86744E-03
 -1      3112 7.72180E-03
 -1      3113 8.44911E-03
 -1      3114 7.54186E-03
 -1      3115 7.15481E-03
 -1      3116 5.87167E-03
 -1      3117 7.26429E-03
 -1      3118 6.75518E-03
 -1      3119 5.80120E-03
 -1      3120 6.63256E-03
 -1      3121 6.08185E-03
 -1      3122 5.78806E-03
 -1      3123 5.82646E-03
 -1      3124 5.28562E-03
 -1      3125 5.41005E-03
 -1      3126 4.96615E-03
 -1      3127 4.61343E-03
 -1      3128 4.83518E-03
 -1      3129 4.30750E-03
 -1      3130 3.95048E-03
 -1      3131 4.20978E-03
 -1      3132 3.71159E-03
 -1      3133 3.36743E-03
 -1      3134 3.66497E-03
 -1      3135 3.11292E-03
 -1      3136 2.79839E-03
 -1      3137 3.17158E-03
 -1      3138 2.55058E-03
 -1      3139 2.28620E-03
 -1      3140 2.66926E-03
 -1      3141 2.05811E-03
 -1      3142 1.83666E-03
 -1      3143 2.19336E-03
 -1      3144 1.63487E-03
 -1      3145 1.44535E-03
 -1      3146 1.76347E-03
 -1      3147 1.27211E-03
 -1      3148 1.12261E-03
 -1      3149 1.38843E-03
 -1      3150 9.77426E-04
 -1      3151 8.58555E-04
 -1      3152 1.07001E-03
 -1      3153 7.39406E-04
 -1      3154 6.40778E-04
 -1      3155 8.05673E-04
 -1      3156 5.44281E-04
 -1      3157 4.64419E-04
 -1      3158 5.90028E-04
 -1      3159 3.87501E-04
 -1      3160 3.11315E-04
 -1      3161 2.79880E-04
 -1      3162 4.16613E-04
 -1      3163 2.56163E+00
 -1      3164 2.58236E+00
 -1      3165 4.31916E+00
 -1      3166 4.09752E+00
 -1      3167 1.94226E+00
 -1      3168 2.03653E+00
 -1      3169 2.96988E+00
 -1      3170 1.52617E+00
 -1      3171 1.64787E+00
 -1      3172 2.05698E+00
 -1      3173 1.23370E+00
 -1      3174 1.35596E+00
 -1      3175 1.59238E+00
 -1      3176 1.02255E+00
 -1      3177 1.09325E+00
 -1      3178 1.28171E+00
 -1      3179 8.32512E-01
 -1      3180 8.99217E-01
 -1      3181 1.01793E+00
 -1      3182 6.66918E-01
 -1      3183 7.33896E-01
 -1      3184 7.95975E-01
 -1      3185 5.27705E-01
 -1      3186 5.89532E-01
 -1      3187 6.19973E-01
 -1      3188 4.10660E-01
 -1      3189 4.64898E-01
 -1      3190 4.79780E-01
 -1      3191 3.15339E-01
 -1      3192 3.61270E-01
 -1      3193 3.67582E-01
 -1      3194 2.39310E-01
 -1      3195 2.77153E-01
 -1      3196 2.80005E-01
 -1      3197 1.78769E-01
 -1      3198 2.09239E-01
 -1      3199 2.11748E-01
 -1      3200 1.31176E-01
 -1      3201 1.55210E-01
 -1      3202 1.58119E-01
 -1      3203 9.42822E-02
 -1      3204 1.12876E-01
 -1      3205 1.16261E-01
 -1      3206 6.61150E-02
 -1      3207 8.02285E-02
 -1      3208 8.39079E-02
 -1      3209 4.49633E-02
 -1      3210 5.54674E-02
 -1      3211 5.92066E-02
 -1      3212 2.93680E-02
 -1      3213 3.70222E-02
 -1      3214 4.06181E-02
 -1      3215 1.88259E-02
 -1      3216 2.35516E-02
 -1      3217 2.68607E-02
 -1      3218 1.28519E-02
 -1      3219 1.46546E-02
 -1      3220 1.68730E-02
 -1      3221 9.78497E-03
 -1      3222 1.03440E-02
 -1      3223 1.01938E-02
 -1      3224 8.84878E-03
 -1      3225 9.56620E-03
 -1      3226 7.46711E-03
 -1      3227 8.00477E-03
 -1      3228 8.77204E-03
 -1      3229 7.17161E-03
 -1      3230 6.98276E-03
 -1      3231 7.73109E-03
 -1      3232 6.82119E-03
 -1      3233 5.97879E-03
 -1      3234 6.60776E-03
 -1      3235 6.17251E-03
 -1      3236 5.11950E-03
 -1      3237 5.56663E-03
 -1      3238 5.38535E-03
 -1      3239 4.37579E-03
 -1      3240 4.78196E-03
 -1      3241 4.63563E-03
 -1      3242 3.70032E-03
 -1      3243 4.08818E-03
 -1      3244 4.01047E-03
 -1      3245 3.08366E-03
 -1      3246 3.40700E-03
 -1      3247 3.42954E-03
 -1      3248 2.51497E-03
 -1      3249 2.80549E-03
 -1      3250 2.85805E-03
 -1      3251 2.00869E-03
 -1      3252 2.26357E-03
 -1      3253 2.32848E-03
 -1      3254 1.57199E-03
 -1      3255 1.78929E-03
 -1      3256 1.85767E-03
 -1      3257 1.22064E-03
 -1      3258 1.38570E-03
 -1      3259 1.45198E-03
 -1      3260 9.29483E-04
 -1      3261 1.06598E-03
 -1      3262 1.11102E-03
 -1      3263 6.90868E-04
 -1      3264 8.03667E-04
 -1      3265 8.30553E-04
 -1      3266 4.97455E-04
 -1      3267 5.91413E-04
 -1      3268 6.05282E-04
 -1      3269 3.38337E-04
 -1      3270 3.38337E-04
 -1      3271 3.51059E+00
 -1      3272 3.41642E+00
 -1      3273 2.18090E+00
 -1      3274 2.71189E+00
 -1      3275 3.31167E-04
 -1      3276 3.38337E-04
 -1      3277 3.81604E-04
 -1      3278 3.32026E-04
 -1      3279 3.32059E-04
 -1      3280 3.75293E-04
 -1      3281 2.63456E+00
 -1      3282 2.65530E+00
 -1      3283 2.82327E+00
 -1      3284 2.53528E+00
 -1      3285 4.12231E+00
 -1      3286 8.29007E+00
 -1      3287 6.42418E+00
 -1      3288 5.72893E+00
 -1      3289 4.85399E+00
 -1      3290 5.09746E+00
 -1      3291 9.73123E+00
 -1      3292 1.07356E+01
 -1      3293 1.84708E+00
 -1      3294 1.94627E+00
 -1      3295 3.19638E+00
 -1      3296 2.67430E+00
 -1      3297 1.87423E+00
 -1      3298 3.58923E-04
 -1      3299 2.79340E-04
 -1      3300 3.10543E-04
 -1      3301 3.60980E-04
 -1      3302 3.23824E+00
 -1      3303 4.40949E+00
 -1      3304 3.89227E+00
 -1      3305 1.10931E+01
 -1      3306 9.56104E+00
 -1      3307 7.06369E+00
 -1      3308 2.91253E+00
 -1      3309 4.19572E+00
 -1      3310 4.78687E+00
 -1      3311 3.32456E+00
 -1      3312 3.04849E+00
 -1      3313 2.47350E+00
 -1      3314 2.18658E+00
 -1      3315 3.10419E+00
 -1      3316 4.28026E+00
 -1      3317 3.38397E+00
 -1      3318 2.97496E+00
 -1      3319 3.82847E+00
 -1      3320 2.09964E+00
 -1      3321 3.15831E+00
 -1      3322 3.22740E-04
 -1      3323 3.61527E-04
 -1      3324 6.05931E+00
 -1      3325 5.96456E+00
 -1      3326 4.47589E+00
 -1      3327 9.13490E+00
 -1      3328 7.93644E+00
 -1      3329 6.62869E+00
 -1      3330 7.97715E+00
 -1      3331 7.46022E+00
 -1      3332 3.55054E+00
 -1      3333 4.60054E-04
 -1      3334 4.68426E-04
 -1      3335 4.01951E-04
 -1      3336 3.74102E-04
 -1      3337 3.37180E-04
 -1      3338 3.37180E-04
 -1      3339 3.37180E-04
 -1      3340 3.30285E-04
 -1      3341 3.71677E-04
 -1      3342 3.79223E-04
 -1      3343 2.74444E+00
 -1      3344 2.63606E+00
 -1      3345 8.90270E+00
 -1      3346 2.63681E-04
 -1      3347 2.62810E-04
 -1      3348 3.23826E-04
 -1      3349 3.23496E-04
 -1      3350 3.61527E-04
 -1      3351 3.61527E-04
 -1      3352 3.68504E-04
 -1      3353 3.64132E-04
 -1      3354 4.15843E-04
 -1      3355 4.36466E-04
 -1      3356 2.16209E+00
 -1      3357 3.98062E+00
 -1      3358 3.05062E+00
 -1      3359 2.80203E+00
 -1      3360 2.09827E+00
 -1      3361 1.85411E+00
 -1      3362 2.86834E+00
 -1      3363 1.67221E+00
 -1      3364 1.51290E+00
 -1      3365 1.98268E+00
 -1      3366 1.26432E+00
 -1      3367 1.14448E+00
 -1      3368 1.55220E+00
 -1      3369 9.56626E-01
 -1      3370 8.49171E-01
 -1      3371 1.11577E+00
 -1      3372 7.42487E-01
 -1      3373 6.56600E-01
 -1      3374 8.21230E-01
 -1      3375 5.84482E-01
 -1      3376 5.17877E-01
 -1      3377 6.42428E-01
 -1      3378 4.60872E-01
 -1      3379 4.07846E-01
 -1      3380 5.13306E-01
 -1      3381 3.58946E-01
 -1      3382 3.21262E-01
 -1      3383 4.07401E-01
 -1      3384 2.80498E-01
 -1      3385 2.47685E-01
 -1      3386 3.17738E-01
 -1      3387 2.14384E-01
 -1      3388 1.86995E-01
 -1      3389 2.43673E-01
 -1      3390 1.60253E-01
 -1      3391 1.38119E-01
 -1      3392 1.83630E-01
 -1      3393 1.16994E-01
 -1      3394 9.99434E-02
 -1      3395 1.35763E-01
 -1      3396 8.35308E-02
 -1      3397 7.08259E-02
 -1      3398 9.82249E-02
 -1      3399 5.83020E-02
 -1      3400 4.88521E-02
 -1      3401 6.92884E-02
 -1      3402 4.00144E-02
 -1      3403 3.33600E-02
 -1      3404 4.79268E-02
 -1      3405 2.67737E-02
 -1      3406 2.18912E-02
 -1      3407 3.25028E-02
 -1      3408 1.70832E-02
 -1      3409 1.35736E-02
 -1      3410 2.11085E-02
 -1      3411 1.01540E-02
 -1      3412 7.75655E-03
 -1      3413 1.28810E-02
 -1      3414 5.44788E-03
 -1      3415 5.26794E-03
 -1      3416 7.15282E-03
 -1      3417 4.46830E-03
 -1      3418 4.57778E-03
 -1      3419 4.04451E-03
 -1      3420 4.94222E-03
 -1      3421 4.81960E-03
 -1      3422 3.60932E-03
 -1      3423 4.91269E-03
 -1      3424 4.65730E-03
 -1      3425 4.06685E-03
 -1      3426 4.58029E-03
 -1      3427 4.26081E-03
 -1      3428 4.08293E-03
 -1      3429 4.08583E-03
 -1      3430 3.77991E-03
 -1      3431 3.83094E-03
 -1      3432 3.55683E-03
 -1      3433 3.31794E-03
 -1      3434 3.43288E-03
 -1      3435 3.12891E-03
 -1      3436 2.87440E-03
 -1      3437 3.02077E-03
 -1      3438 2.68474E-03
 -1      3439 2.43693E-03
 -1      3440 2.64207E-03
 -1      3441 2.24326E-03
 -1      3442 2.01518E-03
 -1      3443 2.25874E-03
 -1      3444 1.83133E-03
 -1      3445 1.62953E-03
 -1      3446 1.88123E-03
 -1      3447 1.46315E-03
 -1      3448 1.28990E-03
 -1      3449 1.53100E-03
 -1      3450 1.14447E-03
 -1      3451 9.99281E-04
 -1      3452 1.21918E-03
 -1      3453 8.75352E-04
 -1      3454 7.56203E-04
 -1      3455 9.49811E-04
 -1      3456 6.52562E-04
 -1      3457 5.56065E-04
 -1      3458 7.22240E-04
 -1      3459 6.70773E+00
 -1      3460 5.43675E+00
 -1      3461 3.38742E+00
 -1      3462 4.00593E+00
 -1      3463 1.32248E+00
 -1      3464 1.46294E+00
 -1      3465 9.86043E-01
 -1      3466 1.10938E+00
 -1      3467 1.29060E+00
 -1      3468 7.57316E-01
 -1      3469 8.55933E-01
 -1      3470 9.47384E-01
 -1      3471 5.99356E-01
 -1      3472 6.76742E-01
 -1      3473 7.36699E-01
 -1      3474 4.67968E-01
 -1      3475 5.30775E-01
 -1      3476 5.87544E-01
 -1      3477 3.60779E-01
 -1      3478 4.10170E-01
 -1      3479 4.61165E-01
 -1      3480 2.75132E-01
 -1      3481 3.13319E-01
 -1      3482 3.55906E-01
 -1      3483 2.06827E-01
 -1      3484 2.36898E-01
 -1      3485 2.70211E-01
 -1      3486 1.52961E-01
 -1      3487 1.76520E-01
 -1      3488 2.01669E-01
 -1      3489 1.11007E-01
 -1      3490 1.29306E-01
 -1      3491 1.47708E-01
 -1      3492 7.87790E-02
 -1      3493 9.28328E-02
 -1      3494 1.05878E-01
 -1      3495 5.48202E-02
 -1      3496 6.54678E-02
 -1      3497 7.43926E-02
 -1      3498 3.71694E-02
 -1      3499 4.51105E-02
 -1      3500 5.13716E-02
 -1      3501 2.41779E-02
 -1      3502 2.99943E-02
 -1      3503 3.44867E-02
 -1      3504 1.48312E-02
 -1      3505 1.90025E-02
 -1      3506 2.21362E-02
 -1      3507 8.72235E-03
 -1      3508 1.12302E-02
 -1      3509 1.33598E-02
 -1      3510 6.08541E-03
 -1      3511 6.30418E-03
 -1      3512 7.34064E-03
 -1      3513 5.63575E-03
 -1      3514 5.71248E-03
 -1      3515 4.54955E-03
 -1      3516 5.64597E-03
 -1      3517 5.91965E-03
 -1      3518 4.46053E-03
 -1      3519 5.28995E-03
 -1      3520 5.66494E-03
 -1      3521 4.76341E-03
 -1      3522 4.73577E-03
 -1      3523 5.14793E-03
 -1      3524 4.64037E-03
 -1      3525 4.16815E-03
 -1      3526 4.50570E-03
 -1      3527 4.26829E-03
 -1      3528 3.61200E-03
 -1      3529 3.89961E-03
 -1      3530 3.76968E-03
 -1      3531 3.11779E-03
 -1      3532 3.41111E-03
 -1      3533 3.30025E-03
 -1      3534 2.62430E-03
 -1      3535 2.90246E-03
 -1      3536 2.88404E-03
 -1      3537 2.15682E-03
 -1      3538 2.40823E-03
 -1      3539 2.45264E-03
 -1      3540 1.73455E-03
 -1      3541 1.95395E-03
 -1      3542 2.03370E-03
 -1      3543 1.36613E-03
 -1      3544 1.55243E-03
 -1      3545 1.64871E-03
 -1      3546 1.05326E-03
 -1      3547 1.20791E-03
 -1      3548 1.30837E-03
 -1      3549 7.93469E-04
 -1      3550 9.19285E-04
 -1      3551 1.01617E-03
 -1      3552 5.84321E-04
 -1      3553 6.83777E-04
 -1      3554 7.72509E-04
 -1      3555 4.36137E-04
 -1      3556 4.29826E-04
 -1      3557 4.68241E+00
 -1      3558 3.98715E+00
 -1      3559 6.47369E+00
 -1      3560 6.83120E+00
 -1      3561 7.71419E+00
 -1      3562 6.43113E+00
 -1      3563 2.91584E+00
 -1      3564 1.77813E+00
 -1      3565 1.94834E+00
 -1      3566 1.81890E+00
 -1      3567 2.34130E+00
 -1      3568 2.63569E+00
 -1      3569 3.67174E+00
 -1      3570 7.06832E+00
 -1      3571 7.17836E+00
 -1      3572 4.36137E-04
 -1      3573 4.36137E-04
 -1      3574 4.90670E-04
 -1      3575 4.90999E-04
 -1      3576 5.68270E+00
 -1      3577 6.62869E+00
 -1      3578 5.68711E+00
 -1      3579 6.23679E+00
 -1      3580 5.20426E+00
 -1      3581 3.97578E-04
 -1      3582 3.46567E+00
 -1      3583 4.66663E-04
 -1      3584 3.89745E-04
 -1      3585 3.73545E-04
 -1      3586 5.29197E-04
 -1      3587 4.75972E-04
 -1      3588 4.15128E-04
 -1      3589 4.20248E-04
 -1      3590 5.05826E-04
 -1      3591 5.84321E-04
 -1      3592 4.68426E-04
 -1      3593 3.48957E+00
 -1      3594 4.39816E+00
 -1      3595 4.50003E-04
 -1      3596 4.42457E-04
 -1      3597 5.13305E-04
 -1      3598 4.34979E-04
 -1      3599 4.32645E+00
 -1      3600 7.71419E+00
 -1      3601 5.24263E+00
 -1      3602 5.46487E+00
 -1      3603 4.76962E+00
 -1      3604 5.95813E+00
 -1      3605 4.81217E+00
 -1      3606 2.52705E+00
 -1      3607 3.90075E-04
 -1      3608 4.65561E-04
 -1      3609 4.34979E-04
 -1      3610 3.62269E+00
 -1      3611 5.54964E-04
 -1      3612 3.02897E+00
 -1      3613 2.84707E+00
 -1      3614 1.87923E+00
 -1      3615 1.63065E+00
 -1      3616 2.92552E+00
 -1      3617 1.24757E+00
 -1      3618 1.05972E+00
 -1      3619 1.57460E+00
 -1      3620 9.27915E-01
 -1      3621 8.21230E-01
 -1      3622 1.05972E+00
 -1      3623 7.14546E-01
 -1      3624 6.42428E-01
 -1      3625 8.21230E-01
 -1      3626 5.59720E-01
 -1      3627 5.02716E-01
 -1      3628 6.31838E-01
 -1      3629 4.38642E-01
 -1      3630 3.89742E-01
 -1      3631 4.85056E-01
 -1      3632 3.39975E-01
 -1      3633 2.99211E-01
 -1      3634 3.71216E-01
 -1      3635 2.60344E-01
 -1      3636 2.27043E-01
 -1      3637 2.82581E-01
 -1      3638 1.96628E-01
 -1      3639 1.69886E-01
 -1      3640 2.13299E-01
 -1      3641 1.46147E-01
 -1      3642 1.25022E-01
 -1      3643 1.59145E-01
 -1      3644 1.06616E-01
 -1      3645 9.02034E-02
 -1      3646 1.17001E-01
 -1      3647 7.60727E-02
 -1      3648 6.35488E-02
 -1      3649 8.44638E-02
 -1      3650 5.28371E-02
 -1      3651 4.39993E-02
 -1      3652 5.96214E-02
 -1      3653 3.61806E-02
 -1      3654 2.95943E-02
 -1      3655 4.10908E-02
 -1      3656 2.41073E-02
 -1      3657 1.92993E-02
 -1      3658 2.77851E-02
 -1      3659 1.52833E-02
 -1      3660 1.18638E-02
 -1      3661 1.82820E-02
 -1      3662 8.98725E-03
 -1      3663 6.67858E-03
 -1      3664 1.13895E-02
 -1      3665 4.80512E-03
 -1      3666 4.00549E-03
 -1      3667 6.63955E-03
 -1      3668 2.96048E-03
 -1      3669 3.32492E-03
 -1      3670 3.72109E-03
 -1      3671 3.34985E-03
 -1      3672 3.44294E-03
 -1      3673 2.70101E-03
 -1      3674 3.62314E-03
 -1      3675 3.54613E-03
 -1      3676 2.90613E-03
 -1      3677 3.55603E-03
 -1      3678 3.38105E-03
 -1      3679 3.09623E-03
 -1      3680 3.28738E-03
 -1      3681 3.06430E-03
 -1      3682 3.01246E-03
 -1      3683 2.91399E-03
 -1      3684 2.72496E-03
 -1      3685 2.76849E-03
 -1      3686 2.55195E-03
 -1      3687 2.36229E-03
 -1      3688 2.44518E-03
 -1      3689 2.21724E-03
 -1      3690 2.02358E-03
 -1      3691 2.12712E-03
 -1      3692 1.87209E-03
 -1      3693 1.68824E-03
 -1      3694 1.83059E-03
 -1      3695 1.54240E-03
 -1      3696 1.37602E-03
 -1      3697 1.53326E-03
 -1      3698 1.24270E-03
 -1      3699 1.09726E-03
 -1      3700 1.25410E-03
 -1      3701 9.79836E-04
 -1      3702 8.55907E-04
 -1      3703 1.00335E-03
 -1      3704 7.54655E-04
 -1      3705 6.51014E-04
 -1      3706 7.84680E-04
 -1      3707 5.87379E-04
 -1      3708 3.17691E+00
 -1      3709 3.92864E+00
 -1      3710 1.23979E+00
 -1      3711 1.45289E+00
 -1      3712 5.71443E-01
 -1      3713 6.40024E-01
 -1      3714 4.39685E-01
 -1      3715 4.97484E-01
 -1      3716 5.49963E-01
 -1      3717 3.35227E-01
 -1      3718 3.82688E-01
 -1      3719 4.19006E-01
 -1      3720 2.52751E-01
 -1      3721 2.90986E-01
 -1      3722 3.17768E-01
 -1      3723 1.87997E-01
 -1      3724 2.18304E-01
 -1      3725 2.39079E-01
 -1      3726 1.37569E-01
 -1      3727 1.61223E-01
 -1      3728 1.77858E-01
 -1      3729 9.87119E-02
 -1      3730 1.16886E-01
 -1      3731 1.30402E-01
 -1      3732 6.95757E-02
 -1      3733 8.28869E-02
 -1      3734 9.38949E-02
 -1      3735 4.79067E-02
 -1      3736 5.76165E-02
 -1      3737 6.61108E-02
 -1      3738 3.21595E-02
 -1      3739 3.93346E-02
 -1      3740 4.55795E-02
 -1      3741 2.08312E-02
 -1      3742 2.60066E-02
 -1      3743 3.08546E-02
 -1      3744 1.27404E-02
 -1      3745 1.63414E-02
 -1      3746 2.02118E-02
 -1      3747 7.11658E-03
 -1      3748 9.53474E-03
 -1      3749 1.25163E-02
 -1      3750 4.56145E-03
 -1      3751 4.93438E-03
 -1      3752 7.12848E-03
 -1      3753 3.76168E-03
 -1      3754 3.47777E-03
 -1      3755 3.86260E-03
 -1      3756 3.98927E-03
 -1      3757 3.97030E-03
 -1      3758 2.98754E-03
 -1      3759 4.00674E-03
 -1      3760 4.14875E-03
 -1      3761 3.35564E-03
 -1      3762 3.76002E-03
 -1      3763 3.99009E-03
 -1      3764 3.49847E-03
 -1      3765 3.36962E-03
 -1      3766 3.63817E-03
 -1      3767 3.35997E-03
 -1      3768 2.99113E-03
 -1      3769 3.19202E-03
 -1      3770 3.06051E-03
 -1      3771 2.59320E-03
 -1      3772 2.80852E-03
 -1      3773 2.70030E-03
 -1      3774 2.21496E-03
 -1      3775 2.43104E-03
 -1      3776 2.35552E-03
 -1      3777 1.84344E-03
 -1      3778 2.04630E-03
 -1      3779 2.02470E-03
 -1      3780 1.49939E-03
 -1      3781 1.68152E-03
 -1      3782 1.69412E-03
 -1      3783 1.19349E-03
 -1      3784 1.35171E-03
 -1      3785 1.38452E-03
 -1      3786 9.29572E-04
 -1      3787 1.06354E-03
 -1      3788 1.10689E-03
 -1      3789 7.09070E-04
 -1      3790 8.18762E-04
 -1      3791 8.66133E-04
 -1      3792 5.51254E-04
 -1      3793 6.29749E-04
 -1      3794 6.76002E-04
 -1      3795 5.58732E-04
 -1      3796 4.50003E-04
 -1      3797 4.50003E-04
 -1      3798 5.20783E-04
 -1      3799 4.48708E+00
 -1      3800 7.36699E-01
 -1      3801 8.17273E-01
 -1      3802 7.20598E-01
 -1      3803 1.64295E+00
 -1      3804 1.95814E+00
 -1      3805 1.59214E+00
 -1      3806 2.26060E+00
 -1      3807 2.65356E+00
 -1      3808 2.08465E+00
 -1      3809 9.47384E-01
 -1      3810 1.07749E+00
 -1      3811 9.47384E-01
 -1      3812 5.11014E+00
 -1      3813 4.56047E+00
 -1      3814 4.91028E-04
 -1      3815 5.60496E+00
 -1      3816 1.23979E+00
 -1      3817 2.91047E+00
 -1      3818 5.48433E-04
 -1      3819 5.86382E-04
 -1      3820 5.48433E-04
 -1      3821 4.61055E+00
 -1      3822 5.87049E-04
 -1      3823 5.02196E+00
 -1      3824 4.79972E+00
 -1      3825 5.02196E+00
 -1      3826 4.40677E+00
 -1      3827 4.40677E+00
 -1      3828 5.20145E-04
 -1      3829 5.05447E-04
 -1      3830 3.93377E+00
 -1      3831 5.20145E-04
 -1      3832 5.20145E-04
 -1      3833 5.49620E-04
 -1      3834 4.61055E+00
 -1      3835 3.89337E+00
 -1      3836 2.92552E+00
 -1      3837 4.09499E+00
 -1      3838 3.73502E-01
 -1      3839 4.30499E-01
 -1      3840 5.00880E-04
 -1      3841 5.30634E-04
 -1      3842 5.58285E-04
 -1      3843 5.45053E-04
 -1      3844 2.85792E+00
 -1      3845 3.98457E+00
 -1      3846 3.31941E+00
 -1      3847 2.33457E+00
 -1      3848 2.07151E+00
 -1      3849 1.68843E+00
 -1      3850 1.18543E+00
 -1      3851 1.05363E+00
 -1      3852 1.68235E+00
 -1      3853 8.88119E-01
 -1      3854 7.81434E-01
 -1      3855 1.01384E+00
 -1      3856 6.66231E-01
 -1      3857 5.83523E-01
 -1      3858 7.33119E-01
 -1      3859 5.03013E-01
 -1      3860 4.38940E-01
 -1      3861 5.37407E-01
 -1      3862 3.81223E-01
 -1      3863 3.31455E-01
 -1      3864 3.99180E-01
 -1      3865 2.88761E-01
 -1      3866 2.49893E-01
 -1      3867 2.98768E-01
 -1      3868 2.17656E-01
 -1      3869 1.87242E-01
 -1      3870 2.23836E-01
 -1      3871 1.62621E-01
 -1      3872 1.38882E-01
 -1      3873 1.66978E-01
 -1      3874 1.20002E-01
 -1      3875 1.01596E-01
 -1      3876 1.23477E-01
 -1      3877 8.71478E-02
 -1      3878 7.30171E-02
 -1      3879 9.01493E-02
 -1      3880 6.20332E-02
 -1      3881 5.13215E-02
 -1      3882 6.47171E-02
 -1      3883 4.30574E-02
 -1      3884 3.52386E-02
 -1      3885 4.54693E-02
 -1      3886 2.92585E-02
 -1      3887 2.37715E-02
 -1      3888 3.12251E-02
 -1      3889 1.99963E-02
 -1      3890 1.59803E-02
 -1      3891 2.14698E-02
 -1      3892 1.31360E-02
 -1      3893 1.02595E-02
 -1      3894 1.48503E-02
 -1      3895 8.15817E-03
 -1      3896 6.28471E-03
 -1      3897 9.90466E-03
 -1      3898 4.76610E-03
 -1      3899 3.72109E-03
 -1      3900 6.28471E-03
 -1      3901 2.65145E-03
 -1      3902 2.67638E-03
 -1      3903 3.69646E-03
 -1      3904 2.33331E-03
 -1      3905 2.51351E-03
 -1      3906 2.28375E-03
 -1      3907 2.69657E-03
 -1      3908 2.70647E-03
 -1      3909 2.12374E-03
 -1      3910 2.74306E-03
 -1      3911 2.64939E-03
 -1      3912 2.34339E-03
 -1      3913 2.59516E-03
 -1      3914 2.44486E-03
 -1      3915 2.32576E-03
 -1      3916 2.33921E-03
 -1      3917 2.16620E-03
 -1      3918 2.16588E-03
 -1      3919 2.03618E-03
 -1      3920 1.89113E-03
 -1      3921 1.93021E-03
 -1      3922 1.75463E-03
 -1      3923 1.60314E-03
 -1      3924 1.66368E-03
 -1      3925 1.47951E-03
 -1      3926 1.33368E-03
 -1      3927 1.40355E-03
 -1      3928 1.22232E-03
 -1      3929 1.08899E-03
 -1      3930 1.16857E-03
 -1      3931 9.87919E-04
 -1      3932 8.70496E-04
 -1      3933 9.56133E-04
 -1      3934 8.12873E-04
 -1      3935 7.11621E-04
 -1      3936 7.97437E-04
 -1      3937 4.94842E-01
 -1      3938 5.68802E-01
 -1      3939 4.49337E-01
 -1      3940 2.11239E-01
 -1      3941 2.45687E-01
 -1      3942 1.56822E-01
 -1      3943 1.83595E-01
 -1      3944 1.90203E-01
 -1      3945 1.14827E-01
 -1      3946 1.35509E-01
 -1      3947 1.41246E-01
 -1      3948 8.26057E-02
 -1      3949 9.84307E-02
 -1      3950 1.03537E-01
 -1      3951 5.81226E-02
 -1      3952 7.00819E-02
 -1      3953 7.46176E-02
 -1      3954 4.00877E-02
 -1      3955 4.86598E-02
 -1      3956 5.26309E-02
 -1      3957 2.69759E-02
 -1      3958 3.31288E-02
 -1      3959 3.62090E-02
 -1      3960 1.77127E-02
 -1      3961 2.22025E-02
 -1      3962 2.44767E-02
 -1      3963 1.10066E-02
 -1      3964 1.42122E-02
 -1      3965 1.62029E-02
 -1      3966 6.51951E-03
 -1      3967 8.70170E-03
 -1      3968 1.03976E-02
 -1      3969 3.86008E-03
 -1      3970 4.94376E-03
 -1      3971 6.51699E-03
 -1      3972 2.98754E-03
 -1      3973 2.77892E-03
 -1      3974 3.86008E-03
 -1      3975 2.86739E-03
 -1      3976 2.70790E-03
 -1      3977 2.49929E-03
 -1      3978 3.04588E-03
 -1      3979 3.06252E-03
 -1      3980 2.41479E-03
 -1      3981 2.95796E-03
 -1      3982 3.07981E-03
 -1      3983 2.64387E-03
 -1      3984 2.71484E-03
 -1      3985 2.89244E-03
 -1      3986 2.61229E-03
 -1      3987 2.41085E-03
 -1      3988 2.59346E-03
 -1      3989 2.42540E-03
 -1      3990 2.10129E-03
 -1      3991 2.26345E-03
 -1      3992 2.15662E-03
 -1      3993 1.78701E-03
 -1      3994 1.95567E-03
 -1      3995 1.86360E-03
 -1      3996 1.49472E-03
 -1      3997 1.65665E-03
 -1      3998 1.58762E-03
 -1      3999 1.22124E-03
 -1      4000 1.36892E-03
 -1      4001 1.33144E-03
 -1      4002 9.76381E-04
 -1      4003 1.10633E-03
 -1      4004 1.09073E-03
 -1      4005 7.64319E-04
 -1      4006 8.75129E-04
 -1      4007 8.74568E-04
 -1      4008 6.09703E-04
 -1      4009 6.89025E-04
 -1      4010 6.98021E-04
 -1      4011 5.99405E-04
 -1      4012 1.82843E+00
 -1      4013 2.01848E+00
 -1      4014 4.40677E+00
 -1      4015 3.57092E+00
 -1      4016 3.96386E+00
 -1      4017 3.28138E+00
 -1      4018 3.64423E+00
 -1      4019 3.44260E+00
 -1      4020 6.58996E-01
 -1      4021 7.55671E-01
 -1      4022 6.03875E-01
 -1      4023 1.99428E+00
 -1      4024 2.29674E+00
 -1      4025 2.24419E+00
 -1      4026 2.23057E+00
 -1      4027 8.85740E-01
 -1      4028 1.01585E+00
 -1      4029 8.24138E-01
 -1      4030 1.21874E+00
 -1      4031 1.38104E+00
 -1      4032 1.80738E+00
 -1      4033 2.81704E-01
 -1      4034 3.25946E-01
 -1      4035 3.37438E-01
 -1      4036 2.53865E-01
 -1      4037 6.44717E-04
 -1      4038 6.16524E-04
 -1      4039 1.15710E+00
 -1      4040 5.90851E-04
 -1      4041 5.86284E-04
 -1      4042 3.03935E+00
 -1      4043 2.89474E+00
 -1      4044 2.89474E+00
 -1      4045 2.60520E+00
 -1      4046 5.93432E-04
 -1      4047 5.93432E-04
 -1      4048 6.34663E-04
 -1      4049 6.88529E-04
 -1      4050 5.86284E-04
 -1      4051 6.04083E-04
 -1      4052 6.27404E-04
 -1      4053 6.32082E-04
 -1      4054 4.50120E+00
 -1      4055 1.00836E-01
 -1      4056 1.17232E-01
 -1      4057 2.10182E+00
 -1      4058 1.59882E+00
 -1      4059 9.92616E-01
 -1      4060 1.19551E+00
 -1      4061 1.04186E+00
 -1      4062 8.76344E-01
 -1      4063 1.46133E+00
 -1      4064 7.29451E-01
 -1      4065 6.14248E-01
 -1      4066 7.57472E-01
 -1      4067 5.39632E-01
 -1      4068 4.59123E-01
 -1      4069 5.35964E-01
 -1      4070 4.05117E-01
 -1      4071 3.47400E-01
 -1      4072 4.07343E-01
 -1      4073 3.06673E-01
 -1      4074 2.63979E-01
 -1      4075 3.12611E-01
 -1      4076 2.32482E-01
 -1      4077 2.00245E-01
 -1      4078 2.40388E-01
 -1      4079 1.75543E-01
 -1      4080 1.50921E-01
 -1      4081 1.84189E-01
 -1      4082 1.31451E-01
 -1      4083 1.12571E-01
 -1      4084 1.40015E-01
 -1      4085 9.72537E-02
 -1      4086 8.28054E-02
 -1      4087 1.05227E-01
 -1      4088 7.08376E-02
 -1      4089 5.98538E-02
 -1      4090 7.79420E-02
 -1      4091 5.05994E-02
 -1      4092 4.23353E-02
 -1      4093 5.67198E-02
 -1      4094 3.52715E-02
 -1      4095 2.92913E-02
 -1      4096 4.04016E-02
 -1      4097 2.41671E-02
 -1      4098 2.03920E-02
 -1      4099 2.82135E-02
 -1      4100 1.68031E-02
 -1      4101 1.39588E-02
 -1      4102 1.95005E-02
 -1      4103 1.12874E-02
 -1      4104 9.18607E-03
 -1      4105 1.32402E-02
 -1      4106 7.23710E-03
 -1      4107 5.71849E-03
 -1      4108 8.61985E-03
 -1      4109 4.32924E-03
 -1      4110 3.25960E-03
 -1      4111 5.28163E-03
 -1      4112 2.29661E-03
 -1      4113 1.95354E-03
 -1      4114 2.92939E-03
 -1      4115 1.68204E-03
 -1      4116 1.86510E-03
 -1      4117 1.69490E-03
 -1      4118 2.02001E-03
 -1      4119 2.05660E-03
 -1      4120 1.57831E-03
 -1      4121 2.13823E-03
 -1      4122 2.08401E-03
 -1      4123 1.81486E-03
 -1      4124 2.07256E-03
 -1      4125 1.96691E-03
 -1      4126 1.88504E-03
 -1      4127 1.90001E-03
 -1      4128 1.76999E-03
 -1      4129 1.80669E-03
 -1      4130 1.67384E-03
 -1      4131 1.53734E-03
 -1      4132 1.64364E-03
 -1      4133 1.42942E-03
 -1      4134 1.30580E-03
 -1      4135 1.43958E-03
 -1      4136 1.19617E-03
 -1      4137 1.08481E-03
 -1      4138 1.22204E-03
 -1      4139 9.80009E-04
 -1      4140 8.78936E-04
 -1      4141 1.00761E-03
 -1      4142 7.97437E-04
 -1      4143 7.39814E-04
 -1      4144 6.88529E-04
 -1      4145 8.21313E-04
 -1      4146 4.18264E-01
 -1      4147 4.82607E-01
 -1      4148 7.42856E-01
 -1      4149 8.72925E-01
 -1      4150 9.11334E-01
 -1      4151 1.36476E-01
 -1      4152 1.57789E-01
 -1      4153 1.33775E-01
 -1      4154 1.82282E-01
 -1      4155 2.09927E-01
 -1      4156 1.77513E-01
 -1      4157 7.32536E-02
 -1      4158 8.57775E-02
 -1      4159 9.94721E-02
 -1      4160 5.21100E-02
 -1      4161 6.15729E-02
 -1      4162 7.27327E-02
 -1      4163 3.61995E-02
 -1      4164 4.31585E-02
 -1      4165 5.21004E-02
 -1      4166 2.51082E-02
 -1      4167 2.98816E-02
 -1      4168 3.68310E-02
 -1      4169 1.68309E-02
 -1      4170 2.03313E-02
 -1      4171 2.57362E-02
 -1      4172 1.09763E-02
 -1      4173 1.32811E-02
 -1      4174 1.74096E-02
 -1      4175 6.81617E-03
 -1      4176 8.39191E-03
 -1      4177 1.12755E-02
 -1      4178 3.89767E-03
 -1      4179 4.97883E-03
 -1      4180 6.85376E-03
 -1      4181 2.47215E-03
 -1      4182 2.75178E-03
 -1      4183 3.87053E-03
 -1      4184 2.10931E-03
 -1      4185 1.91417E-03
 -1      4186 2.16667E-03
 -1      4187 2.31051E-03
 -1      4188 2.27657E-03
 -1      4189 1.77596E-03
 -1      4190 2.28359E-03
 -1      4191 2.34911E-03
 -1      4192 1.98181E-03
 -1      4193 2.12068E-03
 -1      4194 2.24206E-03
 -1      4195 1.97887E-03
 -1      4196 1.94140E-03
 -1      4197 2.08881E-03
 -1      4198 1.90546E-03
 -1      4199 1.72889E-03
 -1      4200 1.87450E-03
 -1      4201 1.80669E-03
 -1      4202 1.50237E-03
 -1      4203 1.63274E-03
 -1      4204 1.64364E-03
 -1      4205 1.26865E-03
 -1      4206 1.39446E-03
 -1      4207 1.43958E-03
 -1      4208 1.04411E-03
 -1      4209 1.15902E-03
 -1      4210 1.22204E-03
 -1      4211 2.58859E+00
 -1      4212 5.54606E-01
 -1      4213 6.44800E-01
 -1      4214 5.23532E-01
 -1      4215 2.50507E+00
 -1      4216 1.80738E+00
 -1      4217 2.25477E+00
 -1      4218 1.64290E+00
 -1      4219 2.11843E+00
 -1      4220 6.93587E-01
 -1      4221 8.28858E-04
 -1      4222 9.30110E-04
 -1      4223 7.02699E-04
 -1      4224 3.17531E-01
 -1      4225 3.65087E-01
 -1      4226 3.98357E-01
 -1      4227 2.91284E+00
 -1      4228 2.91284E+00
 -1      4229 3.28159E+00
 -1      4230 2.88864E+00
 -1      4231 2.23667E+00
 -1      4232 9.98404E-04
 -1      4233 2.41179E-01
 -1      4234 2.77197E-01
 -1      4235 2.33259E-01
 -1      4236 6.85948E-04
 -1      4237 7.58241E-04
 -1      4238 8.71616E-02
 -1      4239 1.02220E-01
 -1      4240 6.35131E-02
 -1      4241 7.51938E-02
 -1      4242 7.58241E-04
 -1      4243 2.13653E+00
 -1      4244 8.93606E-04
 -1      4245 1.00761E-03
 -1      4246 8.48004E-01
 -1      4247 7.01111E-01
 -1      4248 6.03055E-01
 -1      4249 5.28440E-01
 -1      4250 4.56441E-01
 -1      4251 4.02436E-01
 -1      4252 3.49259E-01
 -1      4253 3.08532E-01
 -1      4254 2.68198E-01
 -1      4255 2.36701E-01
 -1      4256 2.05449E-01
 -1      4257 1.80746E-01
 -1      4258 1.56253E-01
 -1      4259 1.36782E-01
 -1      4260 1.17538E-01
 -1      4261 5.42587E-02
 -1      4262 4.53072E-02
 -1      4263 3.82433E-02
 -1      4264 3.19254E-02
 -1      4265 2.68012E-02
 -1      4266 2.20243E-02
 -1      4267 1.84355E-02
 -1      4268 1.48858E-02
 -1      4269 1.22143E-02
 -1      4270 9.62996E-03
 -1      4271 7.68099E-03
 -1      4272 5.84365E-03
 -1      4273 4.45440E-03
 -1      4274 3.30851E-03
 -1      4275 2.34552E-03
 -1      4276 1.78755E-03
 -1      4277 1.51605E-03
 -1      4278 1.68331E-03
 -1      4279 1.83822E-03
 -1      4280 1.87682E-03
 -1      4281 1.95845E-03
 -1      4282 1.91691E-03
 -1      4283 1.90546E-03
 -1      4284 1.87359E-03
 -1      4285 1.80669E-03
 -1      4286 1.73979E-03
 -1      4287 1.64364E-03
 -1      4288 1.54750E-03
 -1      4289 1.43958E-03
 -1      4290 1.33167E-03
 -1      4291 1.22204E-03
 -1      4292 1.11241E-03
 -1      4293 9.67695E-01
 -1      4294 1.52466E+00
 -1      4295 8.12107E-04
 -1      4296 3.04846E-01
 -3
 9999
