    1C
    1UUSER                                                              
    1UDATE              26.october.2022                                 
    1UTIME              23:38:39                                        
    1UHOST                                                              
    1UPGM               CalculiX                                        
    1UVERSION           Version 2.17                             
    1UCOMPILETIME       Thu Jul 23 21:43:50 CEST 2020                    
    1UDIR                                                               
    1UDBN                                                               
    1UMAT    1SOLIDMATERIAL                                             
    2C                          4300                                     1
 -1         1 1.25112E+02 3.50853E+01 0.00000E+00
 -1         2 1.33793E+02 2.82900E+01 0.00000E+00
 -1         3 1.50000E+02 0.00000E+00 0.00000E+00
 -1         4 1.50000E+02 5.00000E+01 0.00000E+00
 -1         5 0.00000E+00 0.00000E+00 0.00000E+00
 -1         6 0.00000E+00 5.00000E+01 0.00000E+00
 -1         7 0.00000E+00 4.70500E+01 0.00000E+00
 -1         8 0.00000E+00 4.41000E+01 0.00000E+00
 -1         9 0.00000E+00 4.11500E+01 0.00000E+00
 -1        10 0.00000E+00 3.82000E+01 0.00000E+00
 -1        11 0.00000E+00 3.52500E+01 0.00000E+00
 -1        12 0.00000E+00 3.23500E+01 0.00000E+00
 -1        13 0.00000E+00 2.94000E+01 0.00000E+00
 -1        14 0.00000E+00 2.64500E+01 0.00000E+00
 -1        15 0.00000E+00 2.35000E+01 0.00000E+00
 -1        16 0.00000E+00 2.05500E+01 0.00000E+00
 -1        17 0.00000E+00 1.76000E+01 0.00000E+00
 -1        18 0.00000E+00 1.47000E+01 0.00000E+00
 -1        19 0.00000E+00 1.17500E+01 0.00000E+00
 -1        20 0.00000E+00 8.80000E+00 0.00000E+00
 -1        21 0.00000E+00 5.85000E+00 0.00000E+00
 -1        22 0.00000E+00 2.90000E+00 0.00000E+00
 -1        23 3.15000E+00 5.00000E+01 0.00000E+00
 -1        24 6.15000E+00 5.00000E+01 0.00000E+00
 -1        25 9.15000E+00 5.00000E+01 0.00000E+00
 -1        26 1.21500E+01 5.00000E+01 0.00000E+00
 -1        27 1.51500E+01 5.00000E+01 0.00000E+00
 -1        28 1.81500E+01 5.00000E+01 0.00000E+00
 -1        29 2.11500E+01 5.00000E+01 0.00000E+00
 -1        30 2.41500E+01 5.00000E+01 0.00000E+00
 -1        31 2.71500E+01 5.00000E+01 0.00000E+00
 -1        32 3.01500E+01 5.00000E+01 0.00000E+00
 -1        33 3.31500E+01 5.00000E+01 0.00000E+00
 -1        34 3.61500E+01 5.00000E+01 0.00000E+00
 -1        35 3.91500E+01 5.00000E+01 0.00000E+00
 -1        36 4.21500E+01 5.00000E+01 0.00000E+00
 -1        37 4.51500E+01 5.00000E+01 0.00000E+00
 -1        38 4.81500E+01 5.00000E+01 0.00000E+00
 -1        39 5.11500E+01 5.00000E+01 0.00000E+00
 -1        40 5.41500E+01 5.00000E+01 0.00000E+00
 -1        41 5.71500E+01 5.00000E+01 0.00000E+00
 -1        42 6.01500E+01 5.00000E+01 0.00000E+00
 -1        43 6.31500E+01 5.00000E+01 0.00000E+00
 -1        44 6.61500E+01 5.00000E+01 0.00000E+00
 -1        45 6.91500E+01 5.00000E+01 0.00000E+00
 -1        46 7.21500E+01 5.00000E+01 0.00000E+00
 -1        47 7.51500E+01 5.00000E+01 0.00000E+00
 -1        48 7.81500E+01 5.00000E+01 0.00000E+00
 -1        49 8.11500E+01 5.00000E+01 0.00000E+00
 -1        50 8.41500E+01 5.00000E+01 0.00000E+00
 -1        51 8.71500E+01 5.00000E+01 0.00000E+00
 -1        52 9.01500E+01 5.00000E+01 0.00000E+00
 -1        53 9.31500E+01 5.00000E+01 0.00000E+00
 -1        54 9.61500E+01 5.00000E+01 0.00000E+00
 -1        55 9.91500E+01 5.00000E+01 0.00000E+00
 -1        56 1.02150E+02 5.00000E+01 0.00000E+00
 -1        57 1.05150E+02 5.00000E+01 0.00000E+00
 -1        58 1.08150E+02 5.00000E+01 0.00000E+00
 -1        59 1.11150E+02 5.00000E+01 0.00000E+00
 -1        60 1.14150E+02 5.00000E+01 0.00000E+00
 -1        61 1.17150E+02 5.00000E+01 0.00000E+00
 -1        62 1.20150E+02 5.00000E+01 0.00000E+00
 -1        63 1.23150E+02 5.00000E+01 0.00000E+00
 -1        64 1.26150E+02 5.00000E+01 0.00000E+00
 -1        65 1.29150E+02 5.00000E+01 0.00000E+00
 -1        66 1.32150E+02 5.00000E+01 0.00000E+00
 -1        67 1.35150E+02 5.00000E+01 0.00000E+00
 -1        68 1.38150E+02 5.00000E+01 0.00000E+00
 -1        69 1.41150E+02 5.00000E+01 0.00000E+00
 -1        70 1.44150E+02 5.00000E+01 0.00000E+00
 -1        71 1.47150E+02 5.00000E+01 0.00000E+00
 -1        72 3.15000E+00 0.00000E+00 0.00000E+00
 -1        73 6.15000E+00 0.00000E+00 0.00000E+00
 -1        74 9.15000E+00 0.00000E+00 0.00000E+00
 -1        75 1.21500E+01 0.00000E+00 0.00000E+00
 -1        76 1.51500E+01 0.00000E+00 0.00000E+00
 -1        77 1.81500E+01 0.00000E+00 0.00000E+00
 -1        78 2.11500E+01 0.00000E+00 0.00000E+00
 -1        79 2.41500E+01 0.00000E+00 0.00000E+00
 -1        80 2.71500E+01 0.00000E+00 0.00000E+00
 -1        81 3.01500E+01 0.00000E+00 0.00000E+00
 -1        82 3.31500E+01 0.00000E+00 0.00000E+00
 -1        83 3.61500E+01 0.00000E+00 0.00000E+00
 -1        84 3.91500E+01 0.00000E+00 0.00000E+00
 -1        85 4.21500E+01 0.00000E+00 0.00000E+00
 -1        86 4.51500E+01 0.00000E+00 0.00000E+00
 -1        87 4.81500E+01 0.00000E+00 0.00000E+00
 -1        88 5.11500E+01 0.00000E+00 0.00000E+00
 -1        89 5.41500E+01 0.00000E+00 0.00000E+00
 -1        90 5.71500E+01 0.00000E+00 0.00000E+00
 -1        91 6.01500E+01 0.00000E+00 0.00000E+00
 -1        92 6.31500E+01 0.00000E+00 0.00000E+00
 -1        93 6.61500E+01 0.00000E+00 0.00000E+00
 -1        94 6.91500E+01 0.00000E+00 0.00000E+00
 -1        95 7.21500E+01 0.00000E+00 0.00000E+00
 -1        96 7.51500E+01 0.00000E+00 0.00000E+00
 -1        97 7.81500E+01 0.00000E+00 0.00000E+00
 -1        98 8.11500E+01 0.00000E+00 0.00000E+00
 -1        99 8.41500E+01 0.00000E+00 0.00000E+00
 -1       100 8.71500E+01 0.00000E+00 0.00000E+00
 -1       101 9.01500E+01 0.00000E+00 0.00000E+00
 -1       102 9.31500E+01 0.00000E+00 0.00000E+00
 -1       103 9.61500E+01 0.00000E+00 0.00000E+00
 -1       104 9.91500E+01 0.00000E+00 0.00000E+00
 -1       105 1.02150E+02 0.00000E+00 0.00000E+00
 -1       106 1.05150E+02 0.00000E+00 0.00000E+00
 -1       107 1.08150E+02 0.00000E+00 0.00000E+00
 -1       108 1.11150E+02 0.00000E+00 0.00000E+00
 -1       109 1.14150E+02 0.00000E+00 0.00000E+00
 -1       110 1.17150E+02 0.00000E+00 0.00000E+00
 -1       111 1.20150E+02 0.00000E+00 0.00000E+00
 -1       112 1.23150E+02 0.00000E+00 0.00000E+00
 -1       113 1.26150E+02 0.00000E+00 0.00000E+00
 -1       114 1.29150E+02 0.00000E+00 0.00000E+00
 -1       115 1.32150E+02 0.00000E+00 0.00000E+00
 -1       116 1.35150E+02 0.00000E+00 0.00000E+00
 -1       117 1.38150E+02 0.00000E+00 0.00000E+00
 -1       118 1.41150E+02 0.00000E+00 0.00000E+00
 -1       119 1.44150E+02 0.00000E+00 0.00000E+00
 -1       120 1.47150E+02 0.00000E+00 0.00000E+00
 -1       121 1.50000E+02 2.95000E+00 0.00000E+00
 -1       122 1.50000E+02 5.90000E+00 0.00000E+00
 -1       123 1.50000E+02 8.85000E+00 0.00000E+00
 -1       124 1.50000E+02 1.18000E+01 0.00000E+00
 -1       125 1.50000E+02 1.47500E+01 0.00000E+00
 -1       126 1.50000E+02 1.76500E+01 0.00000E+00
 -1       127 1.50000E+02 2.06000E+01 0.00000E+00
 -1       128 1.50000E+02 2.35500E+01 0.00000E+00
 -1       129 1.50000E+02 2.65000E+01 0.00000E+00
 -1       130 1.50000E+02 2.94500E+01 0.00000E+00
 -1       131 1.50000E+02 3.24000E+01 0.00000E+00
 -1       132 1.50000E+02 3.53000E+01 0.00000E+00
 -1       133 1.50000E+02 3.82500E+01 0.00000E+00
 -1       134 1.50000E+02 4.12000E+01 0.00000E+00
 -1       135 1.50000E+02 4.41500E+01 0.00000E+00
 -1       136 1.50000E+02 4.71000E+01 0.00000E+00
 -1       137 1.33608E+02 2.66922E+01 0.00000E+00
 -1       138 1.33144E+02 2.53460E+01 0.00000E+00
 -1       139 1.32324E+02 2.39998E+01 0.00000E+00
 -1       140 1.31238E+02 2.28827E+01 0.00000E+00
 -1       141 1.30005E+02 2.20708E+01 0.00000E+00
 -1       142 1.28633E+02 2.15361E+01 0.00000E+00
 -1       143 1.27029E+02 2.12940E+01 0.00000E+00
 -1       144 1.25623E+02 2.13885E+01 0.00000E+00
 -1       145 1.24169E+02 2.18004E+01 0.00000E+00
 -1       146 1.22885E+02 2.24824E+01 0.00000E+00
 -1       147 1.21771E+02 2.34129E+01 0.00000E+00
 -1       148 1.20907E+02 2.45008E+01 0.00000E+00
 -1       149 1.20259E+02 2.57784E+01 0.00000E+00
 -1       150 1.19888E+02 2.71387E+01 0.00000E+00
 -1       151 1.19806E+02 2.87130E+01 0.00000E+00
 -1       152 1.20050E+02 3.01696E+01 0.00000E+00
 -1       153 1.20614E+02 3.15802E+01 0.00000E+00
 -1       154 1.21502E+02 3.28736E+01 0.00000E+00
 -1       155 1.22538E+02 3.38486E+01 0.00000E+00
 -1       156 1.23751E+02 3.45945E+01 0.00000E+00
 -1       157 1.26495E+02 3.52836E+01 0.00000E+00
 -1       158 1.27974E+02 3.51897E+01 0.00000E+00
 -1       159 1.29395E+02 3.47883E+01 0.00000E+00
 -1       160 1.30641E+02 3.41376E+01 0.00000E+00
 -1       161 1.31728E+02 3.32543E+01 0.00000E+00
 -1       162 1.32589E+02 3.22149E+01 0.00000E+00
 -1       163 1.33243E+02 3.10097E+01 0.00000E+00
 -1       164 1.33648E+02 2.97064E+01 0.00000E+00
 -1       165 2.59800E+00 4.55750E+01 0.00000E+00
 -1       166 2.59800E+00 4.26250E+01 0.00000E+00
 -1       167 2.59800E+00 3.96750E+01 0.00000E+00
 -1       168 2.59800E+00 3.67250E+01 0.00000E+00
 -1       169 2.59800E+00 3.38250E+01 0.00000E+00
 -1       170 2.59800E+00 3.08750E+01 0.00000E+00
 -1       171 2.59800E+00 2.79250E+01 0.00000E+00
 -1       172 2.59800E+00 2.49750E+01 0.00000E+00
 -1       173 2.59800E+00 2.20250E+01 0.00000E+00
 -1       174 2.59800E+00 1.90750E+01 0.00000E+00
 -1       175 2.59800E+00 1.61750E+01 0.00000E+00
 -1       176 2.59800E+00 1.32250E+01 0.00000E+00
 -1       177 2.59800E+00 1.02750E+01 0.00000E+00
 -1       178 2.59800E+00 7.32500E+00 0.00000E+00
 -1       179 2.59800E+00 4.37500E+00 0.00000E+00
 -1       180 2.87400E+00 2.18750E+00 0.00000E+00
 -1       181 4.65000E+00 4.74020E+01 0.00000E+00
 -1       182 7.65000E+00 4.74020E+01 0.00000E+00
 -1       183 1.06500E+01 4.74020E+01 0.00000E+00
 -1       184 1.36500E+01 4.74020E+01 0.00000E+00
 -1       185 1.66500E+01 4.74020E+01 0.00000E+00
 -1       186 1.96500E+01 4.74020E+01 0.00000E+00
 -1       187 2.26500E+01 4.74020E+01 0.00000E+00
 -1       188 2.56500E+01 4.74020E+01 0.00000E+00
 -1       189 2.86500E+01 4.74020E+01 0.00000E+00
 -1       190 3.16500E+01 4.74020E+01 0.00000E+00
 -1       191 3.46500E+01 4.74020E+01 0.00000E+00
 -1       192 3.76500E+01 4.74020E+01 0.00000E+00
 -1       193 4.06500E+01 4.74020E+01 0.00000E+00
 -1       194 4.36500E+01 4.74020E+01 0.00000E+00
 -1       195 4.66500E+01 4.74020E+01 0.00000E+00
 -1       196 4.96500E+01 4.74020E+01 0.00000E+00
 -1       197 5.26500E+01 4.74020E+01 0.00000E+00
 -1       198 5.56500E+01 4.74020E+01 0.00000E+00
 -1       199 5.86500E+01 4.74020E+01 0.00000E+00
 -1       200 6.16500E+01 4.74020E+01 0.00000E+00
 -1       201 6.46500E+01 4.74020E+01 0.00000E+00
 -1       202 6.76500E+01 4.74020E+01 0.00000E+00
 -1       203 7.06500E+01 4.74020E+01 0.00000E+00
 -1       204 7.36500E+01 4.74020E+01 0.00000E+00
 -1       205 7.66500E+01 4.74020E+01 0.00000E+00
 -1       206 7.96500E+01 4.74020E+01 0.00000E+00
 -1       207 8.26500E+01 4.74020E+01 0.00000E+00
 -1       208 8.56500E+01 4.74020E+01 0.00000E+00
 -1       209 8.86500E+01 4.74020E+01 0.00000E+00
 -1       210 9.16500E+01 4.74020E+01 0.00000E+00
 -1       211 9.46500E+01 4.74020E+01 0.00000E+00
 -1       212 9.76500E+01 4.74020E+01 0.00000E+00
 -1       213 1.00650E+02 4.74020E+01 0.00000E+00
 -1       214 1.03650E+02 4.74020E+01 0.00000E+00
 -1       215 1.06650E+02 4.74020E+01 0.00000E+00
 -1       216 1.09650E+02 4.74020E+01 0.00000E+00
 -1       217 1.12650E+02 4.74020E+01 0.00000E+00
 -1       218 1.15650E+02 4.74020E+01 0.00000E+00
 -1       219 1.18650E+02 4.74020E+01 0.00000E+00
 -1       220 1.21650E+02 4.74020E+01 0.00000E+00
 -1       221 1.24650E+02 4.74020E+01 0.00000E+00
 -1       222 1.27650E+02 4.74020E+01 0.00000E+00
 -1       223 1.30650E+02 4.74020E+01 0.00000E+00
 -1       224 1.33650E+02 4.74020E+01 0.00000E+00
 -1       225 1.36650E+02 4.74020E+01 0.00000E+00
 -1       226 1.39650E+02 4.74020E+01 0.00000E+00
 -1       227 1.42650E+02 4.74020E+01 0.00000E+00
 -1       228 1.45650E+02 4.74020E+01 0.00000E+00
 -1       229 5.87400E+00 2.18750E+00 0.00000E+00
 -1       230 8.87400E+00 2.18750E+00 0.00000E+00
 -1       231 1.18740E+01 2.18750E+00 0.00000E+00
 -1       232 1.48740E+01 2.18750E+00 0.00000E+00
 -1       233 1.78740E+01 2.18750E+00 0.00000E+00
 -1       234 2.08740E+01 2.18750E+00 0.00000E+00
 -1       235 2.38740E+01 2.18750E+00 0.00000E+00
 -1       236 2.68740E+01 2.18750E+00 0.00000E+00
 -1       237 2.98740E+01 2.18750E+00 0.00000E+00
 -1       238 3.28740E+01 2.18750E+00 0.00000E+00
 -1       239 3.58740E+01 2.18750E+00 0.00000E+00
 -1       240 3.88740E+01 2.18750E+00 0.00000E+00
 -1       241 4.18740E+01 2.18750E+00 0.00000E+00
 -1       242 4.48740E+01 2.18750E+00 0.00000E+00
 -1       243 4.78740E+01 2.18750E+00 0.00000E+00
 -1       244 5.08740E+01 2.18750E+00 0.00000E+00
 -1       245 5.38740E+01 2.18750E+00 0.00000E+00
 -1       246 5.68740E+01 2.18750E+00 0.00000E+00
 -1       247 5.98740E+01 2.18750E+00 0.00000E+00
 -1       248 6.28740E+01 2.18750E+00 0.00000E+00
 -1       249 6.58740E+01 2.18750E+00 0.00000E+00
 -1       250 6.88740E+01 2.18750E+00 0.00000E+00
 -1       251 7.18740E+01 2.18750E+00 0.00000E+00
 -1       252 7.48740E+01 2.18750E+00 0.00000E+00
 -1       253 7.78740E+01 2.18750E+00 0.00000E+00
 -1       254 8.08740E+01 2.18750E+00 0.00000E+00
 -1       255 8.38740E+01 2.18750E+00 0.00000E+00
 -1       256 8.68740E+01 2.18750E+00 0.00000E+00
 -1       257 8.98740E+01 2.18750E+00 0.00000E+00
 -1       258 9.28740E+01 2.18750E+00 0.00000E+00
 -1       259 9.58740E+01 2.18750E+00 0.00000E+00
 -1       260 9.88740E+01 2.18750E+00 0.00000E+00
 -1       261 1.01874E+02 2.18750E+00 0.00000E+00
 -1       262 1.04874E+02 2.18750E+00 0.00000E+00
 -1       263 1.07874E+02 2.18750E+00 0.00000E+00
 -1       264 1.10874E+02 2.18750E+00 0.00000E+00
 -1       265 1.13874E+02 2.18750E+00 0.00000E+00
 -1       266 1.16874E+02 2.18750E+00 0.00000E+00
 -1       267 1.19874E+02 2.18750E+00 0.00000E+00
 -1       268 1.22874E+02 2.18750E+00 0.00000E+00
 -1       269 1.25874E+02 2.18750E+00 0.00000E+00
 -1       270 1.28874E+02 2.18750E+00 0.00000E+00
 -1       271 1.31874E+02 2.18750E+00 0.00000E+00
 -1       272 1.34874E+02 2.18750E+00 0.00000E+00
 -1       273 1.37874E+02 2.18750E+00 0.00000E+00
 -1       274 1.40874E+02 2.18750E+00 0.00000E+00
 -1       275 1.43874E+02 2.18750E+00 0.00000E+00
 -1       276 1.46874E+02 2.18750E+00 0.00000E+00
 -1       277 1.47402E+02 4.42500E+00 0.00000E+00
 -1       278 1.47402E+02 7.37500E+00 0.00000E+00
 -1       279 1.47402E+02 1.03250E+01 0.00000E+00
 -1       280 1.47402E+02 1.32750E+01 0.00000E+00
 -1       281 1.47402E+02 1.61750E+01 0.00000E+00
 -1       282 1.47402E+02 1.91250E+01 0.00000E+00
 -1       283 1.47402E+02 2.20750E+01 0.00000E+00
 -1       284 1.47402E+02 2.50250E+01 0.00000E+00
 -1       285 1.47402E+02 2.79750E+01 0.00000E+00
 -1       286 1.47402E+02 3.09250E+01 0.00000E+00
 -1       287 1.47402E+02 3.38250E+01 0.00000E+00
 -1       288 1.47402E+02 3.67750E+01 0.00000E+00
 -1       289 1.47402E+02 3.97250E+01 0.00000E+00
 -1       290 1.47402E+02 4.26750E+01 0.00000E+00
 -1       291 1.46526E+02 4.50385E+01 0.00000E+00
 -1       292 1.35238E+02 2.73133E+01 0.00000E+00
 -1       293 1.34601E+02 2.55964E+01 0.00000E+00
 -1       294 1.34056E+02 2.38682E+01 0.00000E+00
 -1       295 1.32831E+02 2.24210E+01 0.00000E+00
 -1       296 1.31473E+02 2.11844E+01 0.00000E+00
 -1       297 1.29790E+02 2.05956E+01 0.00000E+00
 -1       298 1.28049E+02 1.99677E+01 0.00000E+00
 -1       299 1.26244E+02 2.01316E+01 0.00000E+00
 -1       300 1.24520E+02 2.02667E+01 0.00000E+00
 -1       301 1.22919E+02 2.09966E+01 0.00000E+00
 -1       302 1.21497E+02 2.19530E+01 0.00000E+00
 -1       303 1.20390E+02 2.32026E+01 0.00000E+00
 -1       304 1.19427E+02 2.45532E+01 0.00000E+00
 -1       305 1.18904E+02 2.61397E+01 0.00000E+00
 -1       306 1.18301E+02 2.78449E+01 0.00000E+00
 -1       307 1.18649E+02 2.96557E+01 0.00000E+00
 -1       308 1.18973E+02 3.14187E+01 0.00000E+00
 -1       309 1.19990E+02 3.29605E+01 0.00000E+00
 -1       310 1.21132E+02 3.43050E+01 0.00000E+00
 -1       311 1.22509E+02 3.52543E+01 0.00000E+00
 -1       312 1.23992E+02 3.60593E+01 0.00000E+00
 -1       313 1.25631E+02 3.63846E+01 0.00000E+00
 -1       314 1.27322E+02 3.66138E+01 0.00000E+00
 -1       315 1.29014E+02 3.61558E+01 0.00000E+00
 -1       316 1.30618E+02 3.56118E+01 0.00000E+00
 -1       317 1.31949E+02 3.46370E+01 0.00000E+00
 -1       318 1.33092E+02 3.35080E+01 0.00000E+00
 -1       319 1.33982E+02 3.21905E+01 0.00000E+00
 -1       320 1.34603E+02 3.07179E+01 0.00000E+00
 -1       321 1.34927E+02 2.91215E+01 0.00000E+00
 -1       322 5.19600E+00 4.11500E+01 0.00000E+00
 -1       323 5.19600E+00 4.41000E+01 0.00000E+00
 -1       324 5.19600E+00 3.52750E+01 0.00000E+00
 -1       325 5.19600E+00 3.23250E+01 0.00000E+00
 -1       326 5.19600E+00 2.93750E+01 0.00000E+00
 -1       327 5.19600E+00 2.64250E+01 0.00000E+00
 -1       328 5.19600E+00 2.34750E+01 0.00000E+00
 -1       329 5.19600E+00 2.05250E+01 0.00000E+00
 -1       330 5.19600E+00 1.76250E+01 0.00000E+00
 -1       331 5.19600E+00 1.46750E+01 0.00000E+00
 -1       332 5.19600E+00 1.17250E+01 0.00000E+00
 -1       333 5.19600E+00 8.77500E+00 0.00000E+00
 -1       334 5.19600E+00 5.82500E+00 0.00000E+00
 -1       335 5.53500E+00 4.00625E+00 0.00000E+00
 -1       336 8.53500E+00 4.00625E+00 0.00000E+00
 -1       337 9.15000E+00 4.48040E+01 0.00000E+00
 -1       338 1.21500E+01 4.48040E+01 0.00000E+00
 -1       339 1.51500E+01 4.48040E+01 0.00000E+00
 -1       340 1.81500E+01 4.48040E+01 0.00000E+00
 -1       341 2.11500E+01 4.48040E+01 0.00000E+00
 -1       342 2.41500E+01 4.48040E+01 0.00000E+00
 -1       343 2.71500E+01 4.48040E+01 0.00000E+00
 -1       344 3.01500E+01 4.48040E+01 0.00000E+00
 -1       345 3.31500E+01 4.48040E+01 0.00000E+00
 -1       346 3.61500E+01 4.48040E+01 0.00000E+00
 -1       347 3.91500E+01 4.48040E+01 0.00000E+00
 -1       348 4.21500E+01 4.48040E+01 0.00000E+00
 -1       349 4.51500E+01 4.48040E+01 0.00000E+00
 -1       350 4.81500E+01 4.48040E+01 0.00000E+00
 -1       351 5.11500E+01 4.48040E+01 0.00000E+00
 -1       352 5.41500E+01 4.48040E+01 0.00000E+00
 -1       353 5.71500E+01 4.48040E+01 0.00000E+00
 -1       354 6.01500E+01 4.48040E+01 0.00000E+00
 -1       355 6.31500E+01 4.48040E+01 0.00000E+00
 -1       356 6.61500E+01 4.48040E+01 0.00000E+00
 -1       357 6.91500E+01 4.48040E+01 0.00000E+00
 -1       358 7.21500E+01 4.48040E+01 0.00000E+00
 -1       359 7.51500E+01 4.48040E+01 0.00000E+00
 -1       360 7.81500E+01 4.48040E+01 0.00000E+00
 -1       361 8.11500E+01 4.48040E+01 0.00000E+00
 -1       362 8.41500E+01 4.48040E+01 0.00000E+00
 -1       363 8.71500E+01 4.48040E+01 0.00000E+00
 -1       364 9.01500E+01 4.48040E+01 0.00000E+00
 -1       365 9.31500E+01 4.48040E+01 0.00000E+00
 -1       366 9.61500E+01 4.48040E+01 0.00000E+00
 -1       367 9.91500E+01 4.48040E+01 0.00000E+00
 -1       368 1.02150E+02 4.48040E+01 0.00000E+00
 -1       369 1.05150E+02 4.48040E+01 0.00000E+00
 -1       370 1.08150E+02 4.48040E+01 0.00000E+00
 -1       371 1.11150E+02 4.48040E+01 0.00000E+00
 -1       372 1.14150E+02 4.48040E+01 0.00000E+00
 -1       373 1.17150E+02 4.48040E+01 0.00000E+00
 -1       374 1.20150E+02 4.48040E+01 0.00000E+00
 -1       375 1.23150E+02 4.48040E+01 0.00000E+00
 -1       376 1.26150E+02 4.48040E+01 0.00000E+00
 -1       377 1.29150E+02 4.48040E+01 0.00000E+00
 -1       378 1.32150E+02 4.48040E+01 0.00000E+00
 -1       379 1.35150E+02 4.48040E+01 0.00000E+00
 -1       380 1.38150E+02 4.48040E+01 0.00000E+00
 -1       381 1.41150E+02 4.48040E+01 0.00000E+00
 -1       382 1.43838E+02 4.49212E+01 0.00000E+00
 -1       383 1.15350E+01 4.00625E+00 0.00000E+00
 -1       384 1.45350E+01 4.00625E+00 0.00000E+00
 -1       385 1.75350E+01 4.00625E+00 0.00000E+00
 -1       386 2.05350E+01 4.00625E+00 0.00000E+00
 -1       387 2.35350E+01 4.00625E+00 0.00000E+00
 -1       388 2.65350E+01 4.00625E+00 0.00000E+00
 -1       389 2.95350E+01 4.00625E+00 0.00000E+00
 -1       390 3.25350E+01 4.00625E+00 0.00000E+00
 -1       391 3.55350E+01 4.00625E+00 0.00000E+00
 -1       392 3.85350E+01 4.00625E+00 0.00000E+00
 -1       393 4.15350E+01 4.00625E+00 0.00000E+00
 -1       394 4.45350E+01 4.00625E+00 0.00000E+00
 -1       395 4.75350E+01 4.00625E+00 0.00000E+00
 -1       396 5.05350E+01 4.00625E+00 0.00000E+00
 -1       397 5.35350E+01 4.00625E+00 0.00000E+00
 -1       398 5.65350E+01 4.00625E+00 0.00000E+00
 -1       399 5.95350E+01 4.00625E+00 0.00000E+00
 -1       400 6.25350E+01 4.00625E+00 0.00000E+00
 -1       401 6.55350E+01 4.00625E+00 0.00000E+00
 -1       402 6.85350E+01 4.00625E+00 0.00000E+00
 -1       403 7.15350E+01 4.00625E+00 0.00000E+00
 -1       404 7.45350E+01 4.00625E+00 0.00000E+00
 -1       405 7.75350E+01 4.00625E+00 0.00000E+00
 -1       406 8.05350E+01 4.00625E+00 0.00000E+00
 -1       407 8.35350E+01 4.00625E+00 0.00000E+00
 -1       408 8.65350E+01 4.00625E+00 0.00000E+00
 -1       409 8.95350E+01 4.00625E+00 0.00000E+00
 -1       410 9.25350E+01 4.00625E+00 0.00000E+00
 -1       411 9.55350E+01 4.00625E+00 0.00000E+00
 -1       412 9.85350E+01 4.00625E+00 0.00000E+00
 -1       413 1.01535E+02 4.00625E+00 0.00000E+00
 -1       414 1.04535E+02 4.00625E+00 0.00000E+00
 -1       415 1.07535E+02 4.00625E+00 0.00000E+00
 -1       416 1.10535E+02 4.00625E+00 0.00000E+00
 -1       417 1.13535E+02 4.00625E+00 0.00000E+00
 -1       418 1.16535E+02 4.00625E+00 0.00000E+00
 -1       419 1.19535E+02 4.00625E+00 0.00000E+00
 -1       420 1.22535E+02 4.00625E+00 0.00000E+00
 -1       421 1.25535E+02 4.00625E+00 0.00000E+00
 -1       422 1.28535E+02 4.00625E+00 0.00000E+00
 -1       423 1.31535E+02 4.00625E+00 0.00000E+00
 -1       424 1.34535E+02 4.00625E+00 0.00000E+00
 -1       425 1.37535E+02 4.00625E+00 0.00000E+00
 -1       426 1.40535E+02 4.00625E+00 0.00000E+00
 -1       427 1.43535E+02 4.00625E+00 0.00000E+00
 -1       428 1.45469E+02 4.21562E+00 0.00000E+00
 -1       429 1.44804E+02 1.18000E+01 0.00000E+00
 -1       430 1.44804E+02 8.85000E+00 0.00000E+00
 -1       431 1.45136E+02 6.53281E+00 0.00000E+00
 -1       432 1.44804E+02 1.47000E+01 0.00000E+00
 -1       433 1.44804E+02 1.76500E+01 0.00000E+00
 -1       434 1.44804E+02 2.06000E+01 0.00000E+00
 -1       435 1.44804E+02 2.35500E+01 0.00000E+00
 -1       436 1.44804E+02 2.65000E+01 0.00000E+00
 -1       437 1.44804E+02 2.94500E+01 0.00000E+00
 -1       438 1.44804E+02 3.23500E+01 0.00000E+00
 -1       439 1.44804E+02 3.53000E+01 0.00000E+00
 -1       440 1.44804E+02 3.82500E+01 0.00000E+00
 -1       441 1.44804E+02 4.12000E+01 0.00000E+00
 -1       442 1.35724E+02 2.42917E+01 0.00000E+00
 -1       443 1.36360E+02 2.84372E+01 0.00000E+00
 -1       444 1.36361E+02 2.60086E+01 0.00000E+00
 -1       445 1.34752E+02 2.20365E+01 0.00000E+00
 -1       446 1.33250E+02 2.05967E+01 0.00000E+00
 -1       447 5.19600E+00 3.82125E+01 0.00000E+00
 -1       448 1.29502E+02 1.86684E+01 0.00000E+00
 -1       449 1.26999E+02 1.84250E+01 0.00000E+00
 -1       450 1.25275E+02 1.85601E+01 0.00000E+00
 -1       451 1.23147E+02 1.93761E+01 0.00000E+00
 -1       452 1.21344E+02 2.01908E+01 0.00000E+00
 -1       453 1.19848E+02 2.16072E+01 0.00000E+00
 -1       454 1.18885E+02 2.29578E+01 0.00000E+00
 -1       455 1.17855E+02 2.49142E+01 0.00000E+00
 -1       456 1.17253E+02 2.66193E+01 0.00000E+00
 -1       457 1.17038E+02 2.90265E+01 0.00000E+00
 -1       458 1.17362E+02 3.07894E+01 0.00000E+00
 -1       459 1.18329E+02 3.29492E+01 0.00000E+00
 -1       460 1.19381E+02 3.46347E+01 0.00000E+00
 -1       461 1.21038E+02 3.59159E+01 0.00000E+00
 -1       462 1.22592E+02 3.68695E+01 0.00000E+00
 -1       463 1.24543E+02 3.75755E+01 0.00000E+00
 -1       464 1.26234E+02 3.78048E+01 0.00000E+00
 -1       465 1.28572E+02 3.78786E+01 0.00000E+00
 -1       466 1.30176E+02 3.73346E+01 0.00000E+00
 -1       467 1.32297E+02 3.65080E+01 0.00000E+00
 -1       468 1.33431E+02 3.49948E+01 0.00000E+00
 -1       469 1.34681E+02 3.36214E+01 0.00000E+00
 -1       470 1.35718E+02 3.20561E+01 0.00000E+00
 -1       471 1.36036E+02 3.00337E+01 0.00000E+00
 -1       472 1.31185E+02 1.92571E+01 0.00000E+00
 -1       473 1.37483E+02 2.71325E+01 0.00000E+00
 -1       474 1.15989E+02 2.78010E+01 0.00000E+00
 -1       475 1.00350E+01 6.60425E+00 0.00000E+00
 -1       476 7.79400E+00 3.08500E+01 0.00000E+00
 -1       477 7.79400E+00 3.38000E+01 0.00000E+00
 -1       478 7.79400E+00 2.49500E+01 0.00000E+00
 -1       479 7.79400E+00 2.20000E+01 0.00000E+00
 -1       480 7.79400E+00 1.91000E+01 0.00000E+00
 -1       481 7.79400E+00 1.61500E+01 0.00000E+00
 -1       482 7.79400E+00 1.32000E+01 0.00000E+00
 -1       483 7.79400E+00 1.02500E+01 0.00000E+00
 -1       484 1.30350E+01 6.60425E+00 0.00000E+00
 -1       485 1.06500E+01 4.22060E+01 0.00000E+00
 -1       486 7.92300E+00 4.16780E+01 0.00000E+00
 -1       487 1.33151E+02 1.84880E+01 0.00000E+00
 -1       488 1.36500E+01 4.22060E+01 0.00000E+00
 -1       489 1.66500E+01 4.22060E+01 0.00000E+00
 -1       490 1.96500E+01 4.22060E+01 0.00000E+00
 -1       491 2.26500E+01 4.22060E+01 0.00000E+00
 -1       492 2.56500E+01 4.22060E+01 0.00000E+00
 -1       493 2.86500E+01 4.22060E+01 0.00000E+00
 -1       494 3.16500E+01 4.22060E+01 0.00000E+00
 -1       495 3.46500E+01 4.22060E+01 0.00000E+00
 -1       496 3.76500E+01 4.22060E+01 0.00000E+00
 -1       497 4.06500E+01 4.22060E+01 0.00000E+00
 -1       498 4.36500E+01 4.22060E+01 0.00000E+00
 -1       499 4.66500E+01 4.22060E+01 0.00000E+00
 -1       500 4.96500E+01 4.22060E+01 0.00000E+00
 -1       501 5.26500E+01 4.22060E+01 0.00000E+00
 -1       502 5.56500E+01 4.22060E+01 0.00000E+00
 -1       503 5.86500E+01 4.22060E+01 0.00000E+00
 -1       504 6.16500E+01 4.22060E+01 0.00000E+00
 -1       505 6.46500E+01 4.22060E+01 0.00000E+00
 -1       506 6.76500E+01 4.22060E+01 0.00000E+00
 -1       507 7.06500E+01 4.22060E+01 0.00000E+00
 -1       508 7.36500E+01 4.22060E+01 0.00000E+00
 -1       509 7.66500E+01 4.22060E+01 0.00000E+00
 -1       510 7.96500E+01 4.22060E+01 0.00000E+00
 -1       511 8.26500E+01 4.22060E+01 0.00000E+00
 -1       512 8.56500E+01 4.22060E+01 0.00000E+00
 -1       513 8.86500E+01 4.22060E+01 0.00000E+00
 -1       514 9.16500E+01 4.22060E+01 0.00000E+00
 -1       515 9.46500E+01 4.22060E+01 0.00000E+00
 -1       516 9.76500E+01 4.22060E+01 0.00000E+00
 -1       517 1.00650E+02 4.22060E+01 0.00000E+00
 -1       518 1.03650E+02 4.22060E+01 0.00000E+00
 -1       519 1.06650E+02 4.22060E+01 0.00000E+00
 -1       520 1.09650E+02 4.22060E+01 0.00000E+00
 -1       521 1.12650E+02 4.22060E+01 0.00000E+00
 -1       522 1.15650E+02 4.22060E+01 0.00000E+00
 -1       523 1.18650E+02 4.22060E+01 0.00000E+00
 -1       524 1.21650E+02 4.22060E+01 0.00000E+00
 -1       525 1.24650E+02 4.22060E+01 0.00000E+00
 -1       526 1.27650E+02 4.22060E+01 0.00000E+00
 -1       527 1.30650E+02 4.22060E+01 0.00000E+00
 -1       528 1.33650E+02 4.22060E+01 0.00000E+00
 -1       529 1.36650E+02 4.22060E+01 0.00000E+00
 -1       530 1.39650E+02 4.22060E+01 0.00000E+00
 -1       531 1.37572E+02 2.45830E+01 0.00000E+00
 -1       532 1.90350E+01 6.60425E+00 0.00000E+00
 -1       533 2.20350E+01 6.60425E+00 0.00000E+00
 -1       534 2.50350E+01 6.60425E+00 0.00000E+00
 -1       535 2.80350E+01 6.60425E+00 0.00000E+00
 -1       536 3.10350E+01 6.60425E+00 0.00000E+00
 -1       537 3.40350E+01 6.60425E+00 0.00000E+00
 -1       538 3.70350E+01 6.60425E+00 0.00000E+00
 -1       539 4.00350E+01 6.60425E+00 0.00000E+00
 -1       540 4.30350E+01 6.60425E+00 0.00000E+00
 -1       541 4.60350E+01 6.60425E+00 0.00000E+00
 -1       542 4.90350E+01 6.60425E+00 0.00000E+00
 -1       543 5.20350E+01 6.60425E+00 0.00000E+00
 -1       544 5.50350E+01 6.60425E+00 0.00000E+00
 -1       545 5.80350E+01 6.60425E+00 0.00000E+00
 -1       546 6.10350E+01 6.60425E+00 0.00000E+00
 -1       547 6.40350E+01 6.60425E+00 0.00000E+00
 -1       548 6.70350E+01 6.60425E+00 0.00000E+00
 -1       549 7.00350E+01 6.60425E+00 0.00000E+00
 -1       550 7.30350E+01 6.60425E+00 0.00000E+00
 -1       551 7.60350E+01 6.60425E+00 0.00000E+00
 -1       552 7.90350E+01 6.60425E+00 0.00000E+00
 -1       553 8.20350E+01 6.60425E+00 0.00000E+00
 -1       554 8.50350E+01 6.60425E+00 0.00000E+00
 -1       555 8.80350E+01 6.60425E+00 0.00000E+00
 -1       556 9.10350E+01 6.60425E+00 0.00000E+00
 -1       557 9.40350E+01 6.60425E+00 0.00000E+00
 -1       558 9.70350E+01 6.60425E+00 0.00000E+00
 -1       559 1.00035E+02 6.60425E+00 0.00000E+00
 -1       560 1.03035E+02 6.60425E+00 0.00000E+00
 -1       561 1.06035E+02 6.60425E+00 0.00000E+00
 -1       562 1.09035E+02 6.60425E+00 0.00000E+00
 -1       563 1.12035E+02 6.60425E+00 0.00000E+00
 -1       564 1.15035E+02 6.60425E+00 0.00000E+00
 -1       565 1.18035E+02 6.60425E+00 0.00000E+00
 -1       566 1.21035E+02 6.60425E+00 0.00000E+00
 -1       567 1.24035E+02 6.60425E+00 0.00000E+00
 -1       568 1.27035E+02 6.60425E+00 0.00000E+00
 -1       569 1.30035E+02 6.60425E+00 0.00000E+00
 -1       570 1.33035E+02 6.60425E+00 0.00000E+00
 -1       571 1.36035E+02 6.60425E+00 0.00000E+00
 -1       572 1.39035E+02 6.60425E+00 0.00000E+00
 -1       573 1.42035E+02 6.60425E+00 0.00000E+00
 -1       574 1.42206E+02 1.61750E+01 0.00000E+00
 -1       575 1.42206E+02 1.91250E+01 0.00000E+00
 -1       576 1.42206E+02 1.03250E+01 0.00000E+00
 -1       577 1.42206E+02 1.32500E+01 0.00000E+00
 -1       578 1.42206E+02 2.20750E+01 0.00000E+00
 -1       579 1.42206E+02 2.50250E+01 0.00000E+00
 -1       580 1.42206E+02 2.79750E+01 0.00000E+00
 -1       581 1.42206E+02 3.08750E+01 0.00000E+00
 -1       582 1.42206E+02 3.38250E+01 0.00000E+00
 -1       583 1.42206E+02 3.67750E+01 0.00000E+00
 -1       584 1.42206E+02 3.97250E+01 0.00000E+00
 -1       585 1.35304E+02 1.99576E+01 0.00000E+00
 -1       586 1.60350E+01 6.60425E+00 0.00000E+00
 -1       587 1.36967E+02 2.24189E+01 0.00000E+00
 -1       588 1.37406E+02 3.12853E+01 0.00000E+00
 -1       589 1.37729E+02 2.96889E+01 0.00000E+00
 -1       590 1.22984E+02 3.88353E+01 0.00000E+00
 -1       591 1.19475E+02 1.97142E+01 0.00000E+00
 -1       592 7.79400E+00 2.79000E+01 0.00000E+00
 -1       593 1.28408E+02 1.69230E+01 0.00000E+00
 -1       594 1.21608E+02 1.83732E+01 0.00000E+00
 -1       595 1.26010E+02 1.68662E+01 0.00000E+00
 -1       596 1.17400E+02 3.47001E+01 0.00000E+00
 -1       597 1.23537E+02 1.72102E+01 0.00000E+00
 -1       598 1.18106E+02 2.13840E+01 0.00000E+00
 -1       599 1.16926E+02 2.31760E+01 0.00000E+00
 -1       600 1.16095E+02 2.52513E+01 0.00000E+00
 -1       601 1.15348E+02 3.02479E+01 0.00000E+00
 -1       602 1.34035E+02 3.66293E+01 0.00000E+00
 -1       603 1.16280E+02 3.25706E+01 0.00000E+00
 -1       604 1.19263E+02 3.64994E+01 0.00000E+00
 -1       605 1.21006E+02 3.77119E+01 0.00000E+00
 -1       606 1.25203E+02 3.90576E+01 0.00000E+00
 -1       607 1.27344E+02 3.97234E+01 0.00000E+00
 -1       608 1.29925E+02 3.92309E+01 0.00000E+00
 -1       609 1.32046E+02 3.84042E+01 0.00000E+00
 -1       610 1.35285E+02 3.52559E+01 0.00000E+00
 -1       611 1.36322E+02 3.36906E+01 0.00000E+00
 -1       612 1.30909E+02 1.73438E+01 0.00000E+00
 -1       613 7.61550E+00 6.21462E+00 0.00000E+00
 -1       614 7.79400E+00 3.67375E+01 0.00000E+00
 -1       615 1.38694E+02 2.57070E+01 0.00000E+00
 -1       616 1.41678E+02 4.22645E+01 0.00000E+00
 -1       617 1.38852E+02 2.83842E+01 0.00000E+00
 -1       618 1.38010E+02 3.29198E+01 0.00000E+00
 -1       619 1.14831E+02 2.64330E+01 0.00000E+00
 -1       620 1.33784E+02 3.85256E+01 0.00000E+00
 -1       621 1.03920E+01 2.05500E+01 0.00000E+00
 -1       622 1.03920E+01 2.35000E+01 0.00000E+00
 -1       623 1.03920E+01 1.46750E+01 0.00000E+00
 -1       624 1.03920E+01 1.17250E+01 0.00000E+00
 -1       625 1.15350E+01 9.20225E+00 0.00000E+00
 -1       626 1.45350E+01 9.20225E+00 0.00000E+00
 -1       627 9.78035E+00 3.93914E+01 0.00000E+00
 -1       628 1.27804E+01 3.93914E+01 0.00000E+00
 -1       629 1.57804E+01 3.93914E+01 0.00000E+00
 -1       630 1.87804E+01 3.93914E+01 0.00000E+00
 -1       631 2.17804E+01 3.93914E+01 0.00000E+00
 -1       632 2.47804E+01 3.93914E+01 0.00000E+00
 -1       633 2.77804E+01 3.93914E+01 0.00000E+00
 -1       634 3.07804E+01 3.93914E+01 0.00000E+00
 -1       635 3.37803E+01 3.93914E+01 0.00000E+00
 -1       636 3.67803E+01 3.93914E+01 0.00000E+00
 -1       637 3.97803E+01 3.93914E+01 0.00000E+00
 -1       638 4.27803E+01 3.93914E+01 0.00000E+00
 -1       639 4.57803E+01 3.93914E+01 0.00000E+00
 -1       640 4.87803E+01 3.93914E+01 0.00000E+00
 -1       641 5.17803E+01 3.93914E+01 0.00000E+00
 -1       642 5.47803E+01 3.93914E+01 0.00000E+00
 -1       643 5.77803E+01 3.93914E+01 0.00000E+00
 -1       644 6.07803E+01 3.93914E+01 0.00000E+00
 -1       645 6.37803E+01 3.93914E+01 0.00000E+00
 -1       646 6.67803E+01 3.93914E+01 0.00000E+00
 -1       647 6.97803E+01 3.93914E+01 0.00000E+00
 -1       648 7.27803E+01 3.93914E+01 0.00000E+00
 -1       649 7.57803E+01 3.93914E+01 0.00000E+00
 -1       650 7.87803E+01 3.93914E+01 0.00000E+00
 -1       651 8.17803E+01 3.93914E+01 0.00000E+00
 -1       652 8.47803E+01 3.93914E+01 0.00000E+00
 -1       653 8.77803E+01 3.93914E+01 0.00000E+00
 -1       654 9.07803E+01 3.93914E+01 0.00000E+00
 -1       655 9.37803E+01 3.93914E+01 0.00000E+00
 -1       656 9.67803E+01 3.93914E+01 0.00000E+00
 -1       657 9.97803E+01 3.93914E+01 0.00000E+00
 -1       658 1.02780E+02 3.93914E+01 0.00000E+00
 -1       659 1.05780E+02 3.93914E+01 0.00000E+00
 -1       660 1.08780E+02 3.93914E+01 0.00000E+00
 -1       661 1.11780E+02 3.93914E+01 0.00000E+00
 -1       662 1.14780E+02 3.93914E+01 0.00000E+00
 -1       663 1.20150E+02 3.98206E+01 0.00000E+00
 -1       664 1.38150E+02 3.96080E+01 0.00000E+00
 -1       665 1.14067E+02 3.21105E+01 0.00000E+00
 -1       666 1.15174E+02 3.45118E+01 0.00000E+00
 -1       667 2.05350E+01 9.20225E+00 0.00000E+00
 -1       668 2.95350E+01 9.20225E+00 0.00000E+00
 -1       669 3.25350E+01 9.20225E+00 0.00000E+00
 -1       670 3.55350E+01 9.20225E+00 0.00000E+00
 -1       671 3.85350E+01 9.20225E+00 0.00000E+00
 -1       672 4.15350E+01 9.20225E+00 0.00000E+00
 -1       673 4.45350E+01 9.20225E+00 0.00000E+00
 -1       674 4.75350E+01 9.20225E+00 0.00000E+00
 -1       675 5.05350E+01 9.20225E+00 0.00000E+00
 -1       676 5.35350E+01 9.20225E+00 0.00000E+00
 -1       677 5.65350E+01 9.20225E+00 0.00000E+00
 -1       678 5.95350E+01 9.20225E+00 0.00000E+00
 -1       679 6.25350E+01 9.20225E+00 0.00000E+00
 -1       680 6.55350E+01 9.20225E+00 0.00000E+00
 -1       681 6.85350E+01 9.20225E+00 0.00000E+00
 -1       682 7.15350E+01 9.20225E+00 0.00000E+00
 -1       683 7.45350E+01 9.20225E+00 0.00000E+00
 -1       684 7.75350E+01 9.20225E+00 0.00000E+00
 -1       685 8.05350E+01 9.20225E+00 0.00000E+00
 -1       686 8.35350E+01 9.20225E+00 0.00000E+00
 -1       687 8.65350E+01 9.20225E+00 0.00000E+00
 -1       688 8.95350E+01 9.20225E+00 0.00000E+00
 -1       689 9.25350E+01 9.20225E+00 0.00000E+00
 -1       690 9.55350E+01 9.20225E+00 0.00000E+00
 -1       691 9.85350E+01 9.20225E+00 0.00000E+00
 -1       692 1.01535E+02 9.20225E+00 0.00000E+00
 -1       693 1.04535E+02 9.20225E+00 0.00000E+00
 -1       694 1.07535E+02 9.20225E+00 0.00000E+00
 -1       695 1.10535E+02 9.20225E+00 0.00000E+00
 -1       696 1.13535E+02 9.20225E+00 0.00000E+00
 -1       697 1.16535E+02 9.20225E+00 0.00000E+00
 -1       698 1.19535E+02 9.20225E+00 0.00000E+00
 -1       699 1.22535E+02 9.20225E+00 0.00000E+00
 -1       700 1.25535E+02 9.20225E+00 0.00000E+00
 -1       701 1.28535E+02 9.20225E+00 0.00000E+00
 -1       702 1.31535E+02 9.20225E+00 0.00000E+00
 -1       703 1.34535E+02 9.20225E+00 0.00000E+00
 -1       704 1.37535E+02 9.20225E+00 0.00000E+00
 -1       705 1.39870E+02 9.76363E+00 0.00000E+00
 -1       706 1.39988E+02 2.35500E+01 0.00000E+00
 -1       707 1.40178E+02 3.96665E+01 0.00000E+00
 -1       708 1.39608E+02 1.76500E+01 0.00000E+00
 -1       709 1.40323E+02 2.65000E+01 0.00000E+00
 -1       710 1.39608E+02 2.06000E+01 0.00000E+00
 -1       711 1.39988E+02 2.94250E+01 0.00000E+00
 -1       712 1.40156E+02 3.23500E+01 0.00000E+00
 -1       713 1.40156E+02 3.53000E+01 0.00000E+00
 -1       714 1.75350E+01 9.20225E+00 0.00000E+00
 -1       715 1.37163E+02 3.53745E+01 0.00000E+00
 -1       716 1.39166E+02 3.08109E+01 0.00000E+00
 -1       717 1.35914E+02 3.67479E+01 0.00000E+00
 -1       718 2.65350E+01 9.20225E+00 0.00000E+00
 -1       719 2.35350E+01 9.20225E+00 0.00000E+00
 -1       720 1.17464E+02 1.94621E+01 0.00000E+00
 -1       721 1.27250E+02 1.51800E+01 0.00000E+00
 -1       722 1.03920E+01 1.76125E+01 0.00000E+00
 -1       723 1.16907E+02 3.70742E+01 0.00000E+00
 -1       724 1.03920E+01 3.23250E+01 0.00000E+00
 -1       725 1.19629E+02 1.75916E+01 0.00000E+00
 -1       726 1.13847E+02 2.85473E+01 0.00000E+00
 -1       727 1.21514E+02 1.60360E+01 0.00000E+00
 -1       728 1.16154E+02 2.13829E+01 0.00000E+00
 -1       729 1.35384E+02 1.75294E+01 0.00000E+00
 -1       730 1.24491E+02 1.50075E+01 0.00000E+00
 -1       731 1.32886E+02 1.62390E+01 0.00000E+00
 -1       732 1.15074E+02 2.36379E+01 0.00000E+00
 -1       733 1.37835E+02 2.00405E+01 0.00000E+00
 -1       734 1.29999E+02 1.51115E+01 0.00000E+00
 -1       735 1.03920E+01 3.52625E+01 0.00000E+00
 -1       736 1.03920E+01 2.64500E+01 0.00000E+00
 -1       737 1.13811E+02 2.48196E+01 0.00000E+00
 -1       738 1.17150E+02 3.96080E+01 0.00000E+00
 -1       739 1.39608E+02 1.47250E+01 0.00000E+00
 -1       740 1.12566E+02 3.04099E+01 0.00000E+00
 -1       741 1.39739E+02 1.22443E+01 0.00000E+00
 -1       742 1.18964E+02 3.87888E+01 0.00000E+00
 -1       743 1.40167E+02 3.74832E+01 0.00000E+00
 -1       744 1.03920E+01 2.93875E+01 0.00000E+00
 -1       745 1.25998E+02 1.30475E+01 0.00000E+00
 -1       746 1.29900E+01 1.32000E+01 0.00000E+00
 -1       747 1.42804E+01 3.67934E+01 0.00000E+00
 -1       748 1.72804E+01 3.67934E+01 0.00000E+00
 -1       749 2.02804E+01 3.67934E+01 0.00000E+00
 -1       750 2.32804E+01 3.67934E+01 0.00000E+00
 -1       751 2.62804E+01 3.67934E+01 0.00000E+00
 -1       752 2.92804E+01 3.67934E+01 0.00000E+00
 -1       753 3.22803E+01 3.67934E+01 0.00000E+00
 -1       754 3.52803E+01 3.67934E+01 0.00000E+00
 -1       755 3.82803E+01 3.67934E+01 0.00000E+00
 -1       756 4.12803E+01 3.67934E+01 0.00000E+00
 -1       757 4.42803E+01 3.67934E+01 0.00000E+00
 -1       758 4.72803E+01 3.67934E+01 0.00000E+00
 -1       759 5.02803E+01 3.67934E+01 0.00000E+00
 -1       760 5.32803E+01 3.67934E+01 0.00000E+00
 -1       761 5.62803E+01 3.67934E+01 0.00000E+00
 -1       762 5.92803E+01 3.67934E+01 0.00000E+00
 -1       763 6.22803E+01 3.67934E+01 0.00000E+00
 -1       764 6.52803E+01 3.67934E+01 0.00000E+00
 -1       765 6.82803E+01 3.67934E+01 0.00000E+00
 -1       766 7.12803E+01 3.67934E+01 0.00000E+00
 -1       767 7.42803E+01 3.67934E+01 0.00000E+00
 -1       768 7.72803E+01 3.67934E+01 0.00000E+00
 -1       769 8.02803E+01 3.67934E+01 0.00000E+00
 -1       770 8.32803E+01 3.67934E+01 0.00000E+00
 -1       771 8.62803E+01 3.67934E+01 0.00000E+00
 -1       772 8.92803E+01 3.67934E+01 0.00000E+00
 -1       773 9.22803E+01 3.67934E+01 0.00000E+00
 -1       774 9.52803E+01 3.67934E+01 0.00000E+00
 -1       775 9.82803E+01 3.67934E+01 0.00000E+00
 -1       776 1.01280E+02 3.67934E+01 0.00000E+00
 -1       777 1.04280E+02 3.67934E+01 0.00000E+00
 -1       778 1.07280E+02 3.67934E+01 0.00000E+00
 -1       779 1.10280E+02 3.67934E+01 0.00000E+00
 -1       780 1.13280E+02 3.67934E+01 0.00000E+00
 -1       781 2.80350E+01 1.18003E+01 0.00000E+00
 -1       782 3.10350E+01 1.18003E+01 0.00000E+00
 -1       783 4.00350E+01 1.18003E+01 0.00000E+00
 -1       784 4.30350E+01 1.18003E+01 0.00000E+00
 -1       785 4.60350E+01 1.18003E+01 0.00000E+00
 -1       786 4.90350E+01 1.18003E+01 0.00000E+00
 -1       787 5.20350E+01 1.18003E+01 0.00000E+00
 -1       788 5.50350E+01 1.18003E+01 0.00000E+00
 -1       789 5.80350E+01 1.18003E+01 0.00000E+00
 -1       790 6.10350E+01 1.18003E+01 0.00000E+00
 -1       791 6.40350E+01 1.18003E+01 0.00000E+00
 -1       792 6.70350E+01 1.18003E+01 0.00000E+00
 -1       793 7.00350E+01 1.18003E+01 0.00000E+00
 -1       794 7.30350E+01 1.18003E+01 0.00000E+00
 -1       795 7.60350E+01 1.18003E+01 0.00000E+00
 -1       796 7.90350E+01 1.18003E+01 0.00000E+00
 -1       797 8.20350E+01 1.18003E+01 0.00000E+00
 -1       798 8.50350E+01 1.18003E+01 0.00000E+00
 -1       799 8.80350E+01 1.18003E+01 0.00000E+00
 -1       800 9.10350E+01 1.18003E+01 0.00000E+00
 -1       801 9.40350E+01 1.18003E+01 0.00000E+00
 -1       802 9.70350E+01 1.18003E+01 0.00000E+00
 -1       803 1.00035E+02 1.18003E+01 0.00000E+00
 -1       804 1.03035E+02 1.18003E+01 0.00000E+00
 -1       805 1.06035E+02 1.18003E+01 0.00000E+00
 -1       806 1.09035E+02 1.18003E+01 0.00000E+00
 -1       807 1.12035E+02 1.18003E+01 0.00000E+00
 -1       808 1.15035E+02 1.18003E+01 0.00000E+00
 -1       809 1.18035E+02 1.18003E+01 0.00000E+00
 -1       810 1.21035E+02 1.18003E+01 0.00000E+00
 -1       811 1.27035E+02 1.15876E+01 0.00000E+00
 -1       812 1.30035E+02 1.15876E+01 0.00000E+00
 -1       813 1.33035E+02 1.15876E+01 0.00000E+00
 -1       814 1.36035E+02 1.15876E+01 0.00000E+00
 -1       815 1.37887E+02 1.19160E+01 0.00000E+00
 -1       816 1.29900E+01 2.20250E+01 0.00000E+00
 -1       817 1.15254E+02 1.93617E+01 0.00000E+00
 -1       818 1.14067E+02 2.17697E+01 0.00000E+00
 -1       819 1.19159E+02 1.51033E+01 0.00000E+00
 -1       820 1.28577E+02 1.32637E+01 0.00000E+00
 -1       821 1.12827E+02 2.69339E+01 0.00000E+00
 -1       822 1.38055E+02 3.74409E+01 0.00000E+00
 -1       823 1.22278E+02 1.34255E+01 0.00000E+00
 -1       824 3.70350E+01 1.18003E+01 0.00000E+00
 -1       825 3.40350E+01 1.18003E+01 0.00000E+00
 -1       826 2.20350E+01 1.18003E+01 0.00000E+00
 -1       827 2.50350E+01 1.18003E+01 0.00000E+00
 -1       828 1.12173E+02 3.43921E+01 0.00000E+00
 -1       829 1.37625E+01 1.12011E+01 0.00000E+00
 -1       830 1.16995E+02 1.69738E+01 0.00000E+00
 -1       831 1.32188E+02 1.37655E+01 0.00000E+00
 -1       832 1.35153E+02 1.49138E+01 0.00000E+00
 -1       833 1.29900E+01 2.49750E+01 0.00000E+00
 -1       834 1.29900E+01 1.61375E+01 0.00000E+00
 -1       835 1.29900E+01 3.08563E+01 0.00000E+00
 -1       836 1.29900E+01 3.37938E+01 0.00000E+00
 -1       837 1.10673E+02 3.26915E+01 0.00000E+00
 -1       838 1.11546E+02 2.87965E+01 0.00000E+00
 -1       839 1.24035E+02 1.18003E+01 0.00000E+00
 -1       840 1.12804E+02 2.29513E+01 0.00000E+00
 -1       841 1.29900E+01 1.90875E+01 0.00000E+00
 -1       842 1.67625E+01 1.12011E+01 0.00000E+00
 -1       843 1.93988E+01 1.15007E+01 0.00000E+00
 -1       844 1.29900E+01 2.79188E+01 0.00000E+00
 -1       845 1.16627E+02 1.43604E+01 0.00000E+00
 -1       846 1.87804E+01 3.41954E+01 0.00000E+00
 -1       847 2.17804E+01 3.41954E+01 0.00000E+00
 -1       848 2.47804E+01 3.41954E+01 0.00000E+00
 -1       849 2.77804E+01 3.41954E+01 0.00000E+00
 -1       850 3.07804E+01 3.41954E+01 0.00000E+00
 -1       851 3.37803E+01 3.41954E+01 0.00000E+00
 -1       852 3.67803E+01 3.41954E+01 0.00000E+00
 -1       853 3.97803E+01 3.41954E+01 0.00000E+00
 -1       854 4.27803E+01 3.41954E+01 0.00000E+00
 -1       855 4.57803E+01 3.41954E+01 0.00000E+00
 -1       856 4.87803E+01 3.41954E+01 0.00000E+00
 -1       857 5.17803E+01 3.41954E+01 0.00000E+00
 -1       858 5.47803E+01 3.41954E+01 0.00000E+00
 -1       859 5.77803E+01 3.41954E+01 0.00000E+00
 -1       860 6.07803E+01 3.41954E+01 0.00000E+00
 -1       861 6.37803E+01 3.41954E+01 0.00000E+00
 -1       862 6.67803E+01 3.41954E+01 0.00000E+00
 -1       863 6.97803E+01 3.41954E+01 0.00000E+00
 -1       864 7.27803E+01 3.41954E+01 0.00000E+00
 -1       865 7.57803E+01 3.41954E+01 0.00000E+00
 -1       866 7.87803E+01 3.41954E+01 0.00000E+00
 -1       867 8.17803E+01 3.41954E+01 0.00000E+00
 -1       868 8.47803E+01 3.41954E+01 0.00000E+00
 -1       869 8.77803E+01 3.41954E+01 0.00000E+00
 -1       870 9.07803E+01 3.41954E+01 0.00000E+00
 -1       871 9.37803E+01 3.41954E+01 0.00000E+00
 -1       872 9.67803E+01 3.41954E+01 0.00000E+00
 -1       873 9.97803E+01 3.41954E+01 0.00000E+00
 -1       874 1.02780E+02 3.41954E+01 0.00000E+00
 -1       875 1.05780E+02 3.41954E+01 0.00000E+00
 -1       876 2.95350E+01 1.43982E+01 0.00000E+00
 -1       877 4.45350E+01 1.43982E+01 0.00000E+00
 -1       878 4.15350E+01 1.43982E+01 0.00000E+00
 -1       879 5.05350E+01 1.43982E+01 0.00000E+00
 -1       880 5.35350E+01 1.43982E+01 0.00000E+00
 -1       881 5.65350E+01 1.43982E+01 0.00000E+00
 -1       882 5.95350E+01 1.43982E+01 0.00000E+00
 -1       883 6.25350E+01 1.43982E+01 0.00000E+00
 -1       884 6.55350E+01 1.43982E+01 0.00000E+00
 -1       885 6.85350E+01 1.43982E+01 0.00000E+00
 -1       886 7.15350E+01 1.43982E+01 0.00000E+00
 -1       887 7.45350E+01 1.43982E+01 0.00000E+00
 -1       888 7.75350E+01 1.43982E+01 0.00000E+00
 -1       889 8.05350E+01 1.43982E+01 0.00000E+00
 -1       890 8.35350E+01 1.43982E+01 0.00000E+00
 -1       891 8.65350E+01 1.43982E+01 0.00000E+00
 -1       892 8.95350E+01 1.43982E+01 0.00000E+00
 -1       893 9.25350E+01 1.43982E+01 0.00000E+00
 -1       894 9.55350E+01 1.43982E+01 0.00000E+00
 -1       895 9.85350E+01 1.43982E+01 0.00000E+00
 -1       896 1.01535E+02 1.43982E+01 0.00000E+00
 -1       897 1.04535E+02 1.43982E+01 0.00000E+00
 -1       898 1.07535E+02 1.43982E+01 0.00000E+00
 -1       899 1.10535E+02 1.43982E+01 0.00000E+00
 -1       900 1.13535E+02 1.43982E+01 0.00000E+00
 -1       901 1.12821E+02 1.96595E+01 0.00000E+00
 -1       902 1.59900E+01 1.32000E+01 0.00000E+00
 -1       903 1.11820E+02 2.50657E+01 0.00000E+00
 -1       904 2.35350E+01 1.43982E+01 0.00000E+00
 -1       905 3.55350E+01 1.43982E+01 0.00000E+00
 -1       906 2.65350E+01 1.43982E+01 0.00000E+00
 -1       907 1.08976E+02 3.47424E+01 0.00000E+00
 -1       908 1.14061E+02 1.66637E+01 0.00000E+00
 -1       909 3.85350E+01 1.43982E+01 0.00000E+00
 -1       910 4.75350E+01 1.43982E+01 0.00000E+00
 -1       911 1.57804E+01 3.41954E+01 0.00000E+00
 -1       912 3.25350E+01 1.43982E+01 0.00000E+00
 -1       913 1.09652E+02 3.10781E+01 0.00000E+00
 -1       914 1.11558E+02 2.08412E+01 0.00000E+00
 -1       915 2.08988E+01 1.40987E+01 0.00000E+00
 -1       916 1.10539E+02 2.69282E+01 0.00000E+00
 -1       917 1.55880E+01 2.05562E+01 0.00000E+00
 -1       918 1.55880E+01 2.93875E+01 0.00000E+00
 -1       919 1.55880E+01 2.35063E+01 0.00000E+00
 -1       920 1.55880E+01 3.23250E+01 0.00000E+00
 -1       921 2.02804E+01 3.15974E+01 0.00000E+00
 -1       922 2.32804E+01 3.15974E+01 0.00000E+00
 -1       923 2.62804E+01 3.15974E+01 0.00000E+00
 -1       924 2.92804E+01 3.15974E+01 0.00000E+00
 -1       925 3.22803E+01 3.15974E+01 0.00000E+00
 -1       926 3.52803E+01 3.15974E+01 0.00000E+00
 -1       927 3.82803E+01 3.15974E+01 0.00000E+00
 -1       928 4.12803E+01 3.15974E+01 0.00000E+00
 -1       929 4.42803E+01 3.15974E+01 0.00000E+00
 -1       930 4.72803E+01 3.15974E+01 0.00000E+00
 -1       931 5.02803E+01 3.15974E+01 0.00000E+00
 -1       932 5.32803E+01 3.15974E+01 0.00000E+00
 -1       933 5.62803E+01 3.15974E+01 0.00000E+00
 -1       934 5.92803E+01 3.15974E+01 0.00000E+00
 -1       935 6.22803E+01 3.15974E+01 0.00000E+00
 -1       936 6.52803E+01 3.15974E+01 0.00000E+00
 -1       937 6.82803E+01 3.15974E+01 0.00000E+00
 -1       938 7.12803E+01 3.15974E+01 0.00000E+00
 -1       939 7.42803E+01 3.15974E+01 0.00000E+00
 -1       940 7.72803E+01 3.15974E+01 0.00000E+00
 -1       941 8.02803E+01 3.15974E+01 0.00000E+00
 -1       942 8.32803E+01 3.15974E+01 0.00000E+00
 -1       943 8.62803E+01 3.15974E+01 0.00000E+00
 -1       944 8.92803E+01 3.15974E+01 0.00000E+00
 -1       945 9.22803E+01 3.15974E+01 0.00000E+00
 -1       946 9.52803E+01 3.15974E+01 0.00000E+00
 -1       947 9.82803E+01 3.15974E+01 0.00000E+00
 -1       948 1.01280E+02 3.15974E+01 0.00000E+00
 -1       949 1.04280E+02 3.15974E+01 0.00000E+00
 -1       950 2.50350E+01 1.69963E+01 0.00000E+00
 -1       951 4.00350E+01 1.69963E+01 0.00000E+00
 -1       952 1.79342E+01 3.19612E+01 0.00000E+00
 -1       953 5.50350E+01 1.69963E+01 0.00000E+00
 -1       954 5.20350E+01 1.69963E+01 0.00000E+00
 -1       955 6.10350E+01 1.69963E+01 0.00000E+00
 -1       956 6.40350E+01 1.69963E+01 0.00000E+00
 -1       957 6.70350E+01 1.69963E+01 0.00000E+00
 -1       958 7.00350E+01 1.69963E+01 0.00000E+00
 -1       959 7.30350E+01 1.69963E+01 0.00000E+00
 -1       960 7.60350E+01 1.69963E+01 0.00000E+00
 -1       961 7.90350E+01 1.69963E+01 0.00000E+00
 -1       962 8.20350E+01 1.69963E+01 0.00000E+00
 -1       963 8.50350E+01 1.69963E+01 0.00000E+00
 -1       964 8.80350E+01 1.69963E+01 0.00000E+00
 -1       965 9.10350E+01 1.69963E+01 0.00000E+00
 -1       966 9.40350E+01 1.69963E+01 0.00000E+00
 -1       967 9.70350E+01 1.69963E+01 0.00000E+00
 -1       968 1.00035E+02 1.69963E+01 0.00000E+00
 -1       969 1.03035E+02 1.69963E+01 0.00000E+00
 -1       970 1.06035E+02 1.69963E+01 0.00000E+00
 -1       971 1.09035E+02 1.69963E+01 0.00000E+00
 -1       972 1.11237E+02 1.72493E+01 0.00000E+00
 -1       973 1.07476E+02 3.21444E+01 0.00000E+00
 -1       974 5.80350E+01 1.69963E+01 0.00000E+00
 -1       975 4.30350E+01 1.69963E+01 0.00000E+00
 -1       976 3.70350E+01 1.69963E+01 0.00000E+00
 -1       977 1.55880E+01 1.76063E+01 0.00000E+00
 -1       978 1.10574E+02 2.29555E+01 0.00000E+00
 -1       979 2.80350E+01 1.69963E+01 0.00000E+00
 -1       980 3.40350E+01 1.69963E+01 0.00000E+00
 -1       981 3.10350E+01 1.69963E+01 0.00000E+00
 -1       982 1.84444E+01 1.36493E+01 0.00000E+00
 -1       983 1.55880E+01 2.64469E+01 0.00000E+00
 -1       984 1.81860E+01 2.20313E+01 0.00000E+00
 -1       985 1.81860E+01 1.90812E+01 0.00000E+00
 -1       986 1.08645E+02 2.92098E+01 0.00000E+00
 -1       987 4.90350E+01 1.69963E+01 0.00000E+00
 -1       988 1.10296E+02 1.89187E+01 0.00000E+00
 -1       989 2.20351E+01 1.69963E+01 0.00000E+00
 -1       990 4.60350E+01 1.69963E+01 0.00000E+00
 -1       991 1.83152E+01 1.63653E+01 0.00000E+00
 -1       992 1.09293E+02 2.48181E+01 0.00000E+00
 -1       993 1.81860E+01 2.79172E+01 0.00000E+00
 -1       994 5.65350E+01 1.95942E+01 0.00000E+00
 -1       995 4.15350E+01 1.95942E+01 0.00000E+00
 -1       996 2.17804E+01 2.89994E+01 0.00000E+00
 -1       997 2.47804E+01 2.89994E+01 0.00000E+00
 -1       998 2.77804E+01 2.89994E+01 0.00000E+00
 -1       999 3.07804E+01 2.89994E+01 0.00000E+00
 -1      1000 3.37803E+01 2.89994E+01 0.00000E+00
 -1      1001 3.67803E+01 2.89994E+01 0.00000E+00
 -1      1002 3.97803E+01 2.89994E+01 0.00000E+00
 -1      1003 4.27803E+01 2.89994E+01 0.00000E+00
 -1      1004 4.57803E+01 2.89994E+01 0.00000E+00
 -1      1005 4.87803E+01 2.89994E+01 0.00000E+00
 -1      1006 5.17803E+01 2.89994E+01 0.00000E+00
 -1      1007 5.47803E+01 2.89994E+01 0.00000E+00
 -1      1008 5.77803E+01 2.89994E+01 0.00000E+00
 -1      1009 6.07803E+01 2.89994E+01 0.00000E+00
 -1      1010 6.37803E+01 2.89994E+01 0.00000E+00
 -1      1011 6.67803E+01 2.89994E+01 0.00000E+00
 -1      1012 6.97803E+01 2.89994E+01 0.00000E+00
 -1      1013 7.27803E+01 2.89994E+01 0.00000E+00
 -1      1014 7.57803E+01 2.89994E+01 0.00000E+00
 -1      1015 7.87803E+01 2.89994E+01 0.00000E+00
 -1      1016 8.17803E+01 2.89994E+01 0.00000E+00
 -1      1017 8.47803E+01 2.89994E+01 0.00000E+00
 -1      1018 8.77803E+01 2.89994E+01 0.00000E+00
 -1      1019 9.07803E+01 2.89994E+01 0.00000E+00
 -1      1020 9.37803E+01 2.89994E+01 0.00000E+00
 -1      1021 9.67803E+01 2.89994E+01 0.00000E+00
 -1      1022 9.97803E+01 2.89994E+01 0.00000E+00
 -1      1023 1.02780E+02 2.89994E+01 0.00000E+00
 -1      1024 5.35350E+01 1.95942E+01 0.00000E+00
 -1      1025 6.55350E+01 1.95942E+01 0.00000E+00
 -1      1026 6.25350E+01 1.95942E+01 0.00000E+00
 -1      1027 7.15350E+01 1.95942E+01 0.00000E+00
 -1      1028 7.45350E+01 1.95942E+01 0.00000E+00
 -1      1029 7.75350E+01 1.95942E+01 0.00000E+00
 -1      1030 8.05350E+01 1.95942E+01 0.00000E+00
 -1      1031 8.35350E+01 1.95942E+01 0.00000E+00
 -1      1032 8.65350E+01 1.95942E+01 0.00000E+00
 -1      1033 8.95350E+01 1.95942E+01 0.00000E+00
 -1      1034 9.25350E+01 1.95942E+01 0.00000E+00
 -1      1035 9.55350E+01 1.95942E+01 0.00000E+00
 -1      1036 9.85350E+01 1.95942E+01 0.00000E+00
 -1      1037 1.01535E+02 1.95942E+01 0.00000E+00
 -1      1038 1.04535E+02 1.95942E+01 0.00000E+00
 -1      1039 1.07535E+02 1.95942E+01 0.00000E+00
 -1      1040 2.95350E+01 1.95942E+01 0.00000E+00
 -1      1041 3.85350E+01 1.95942E+01 0.00000E+00
 -1      1042 2.65350E+01 1.95942E+01 0.00000E+00
 -1      1043 1.81860E+01 2.49719E+01 0.00000E+00
 -1      1044 1.06317E+02 2.93101E+01 0.00000E+00
 -1      1045 3.55350E+01 1.95942E+01 0.00000E+00
 -1      1046 2.35351E+01 1.95943E+01 0.00000E+00
 -1      1047 1.09313E+02 2.10331E+01 0.00000E+00
 -1      1048 3.25350E+01 1.95942E+01 0.00000E+00
 -1      1049 5.95350E+01 1.95942E+01 0.00000E+00
 -1      1050 6.85350E+01 1.95942E+01 0.00000E+00
 -1      1051 5.05350E+01 1.95942E+01 0.00000E+00
 -1      1052 2.17804E+01 2.60541E+01 0.00000E+00
 -1      1053 2.05352E+01 1.95943E+01 0.00000E+00
 -1      1054 4.45350E+01 1.95942E+01 0.00000E+00
 -1      1055 2.17804E+01 2.31134E+01 0.00000E+00
 -1      1056 1.08031E+02 2.28956E+01 0.00000E+00
 -1      1057 2.62804E+01 2.64014E+01 0.00000E+00
 -1      1058 2.92804E+01 2.64014E+01 0.00000E+00
 -1      1059 3.22803E+01 2.64014E+01 0.00000E+00
 -1      1060 3.52803E+01 2.64014E+01 0.00000E+00
 -1      1061 3.82803E+01 2.64014E+01 0.00000E+00
 -1      1062 4.12803E+01 2.64014E+01 0.00000E+00
 -1      1063 4.42803E+01 2.64014E+01 0.00000E+00
 -1      1064 4.72803E+01 2.64014E+01 0.00000E+00
 -1      1065 5.02803E+01 2.64014E+01 0.00000E+00
 -1      1066 5.32803E+01 2.64014E+01 0.00000E+00
 -1      1067 5.62803E+01 2.64014E+01 0.00000E+00
 -1      1068 5.92803E+01 2.64014E+01 0.00000E+00
 -1      1069 6.22803E+01 2.64014E+01 0.00000E+00
 -1      1070 6.52803E+01 2.64014E+01 0.00000E+00
 -1      1071 6.82803E+01 2.64014E+01 0.00000E+00
 -1      1072 7.12803E+01 2.64014E+01 0.00000E+00
 -1      1073 7.42803E+01 2.64014E+01 0.00000E+00
 -1      1074 7.72803E+01 2.64014E+01 0.00000E+00
 -1      1075 8.02803E+01 2.64014E+01 0.00000E+00
 -1      1076 8.32803E+01 2.64014E+01 0.00000E+00
 -1      1077 8.62803E+01 2.64014E+01 0.00000E+00
 -1      1078 8.92803E+01 2.64014E+01 0.00000E+00
 -1      1079 9.22803E+01 2.64014E+01 0.00000E+00
 -1      1080 9.52803E+01 2.64014E+01 0.00000E+00
 -1      1081 9.82803E+01 2.64014E+01 0.00000E+00
 -1      1082 1.01280E+02 2.64014E+01 0.00000E+00
 -1      1083 6.40350E+01 2.21922E+01 0.00000E+00
 -1      1084 1.07862E+02 2.70860E+01 0.00000E+00
 -1      1085 5.50350E+01 2.21922E+01 0.00000E+00
 -1      1086 6.10350E+01 2.21922E+01 0.00000E+00
 -1      1087 7.60350E+01 2.21922E+01 0.00000E+00
 -1      1088 7.30350E+01 2.21922E+01 0.00000E+00
 -1      1089 8.20350E+01 2.21922E+01 0.00000E+00
 -1      1090 8.50350E+01 2.21922E+01 0.00000E+00
 -1      1091 8.80350E+01 2.21922E+01 0.00000E+00
 -1      1092 9.10350E+01 2.21922E+01 0.00000E+00
 -1      1093 9.40350E+01 2.21922E+01 0.00000E+00
 -1      1094 9.70350E+01 2.21922E+01 0.00000E+00
 -1      1095 1.00035E+02 2.21922E+01 0.00000E+00
 -1      1096 1.03035E+02 2.21922E+01 0.00000E+00
 -1      1097 1.06600E+02 2.51635E+01 0.00000E+00
 -1      1098 4.75350E+01 1.95942E+01 0.00000E+00
 -1      1099 4.00350E+01 2.21922E+01 0.00000E+00
 -1      1100 2.80350E+01 2.21922E+01 0.00000E+00
 -1      1101 2.49827E+01 2.25132E+01 0.00000E+00
 -1      1102 3.70350E+01 2.21922E+01 0.00000E+00
 -1      1103 3.10350E+01 2.21922E+01 0.00000E+00
 -1      1104 2.40304E+01 2.62277E+01 0.00000E+00
 -1      1105 5.80350E+01 2.21922E+01 0.00000E+00
 -1      1106 1.06283E+02 2.12449E+01 0.00000E+00
 -1      1107 1.04776E+02 2.65667E+01 0.00000E+00
 -1      1108 7.00350E+01 2.21922E+01 0.00000E+00
 -1      1109 3.40350E+01 2.21922E+01 0.00000E+00
 -1      1110 7.90350E+01 2.21922E+01 0.00000E+00
 -1      1111 6.70350E+01 2.21922E+01 0.00000E+00
 -1      1112 5.20350E+01 2.21922E+01 0.00000E+00
 -1      1113 4.30350E+01 2.21922E+01 0.00000E+00
 -1      1114 4.87803E+01 2.38034E+01 0.00000E+00
 -1      1115 1.04104E+02 2.38058E+01 0.00000E+00
 -1      1116 4.59077E+01 2.29978E+01 0.00000E+00
 -1      1117 0.00000E+00 4.85250E+01 0.00000E+00
 -1      1118 0.00000E+00 4.55750E+01 0.00000E+00
 -1      1119 0.00000E+00 4.26250E+01 0.00000E+00
 -1      1120 0.00000E+00 3.96750E+01 0.00000E+00
 -1      1121 0.00000E+00 3.67250E+01 0.00000E+00
 -1      1122 0.00000E+00 3.38000E+01 0.00000E+00
 -1      1123 0.00000E+00 3.08750E+01 0.00000E+00
 -1      1124 0.00000E+00 2.79250E+01 0.00000E+00
 -1      1125 0.00000E+00 2.49750E+01 0.00000E+00
 -1      1126 0.00000E+00 2.20250E+01 0.00000E+00
 -1      1127 0.00000E+00 1.90750E+01 0.00000E+00
 -1      1128 0.00000E+00 1.61500E+01 0.00000E+00
 -1      1129 0.00000E+00 1.32250E+01 0.00000E+00
 -1      1130 0.00000E+00 1.02750E+01 0.00000E+00
 -1      1131 0.00000E+00 7.32500E+00 0.00000E+00
 -1      1132 0.00000E+00 4.37500E+00 0.00000E+00
 -1      1133 0.00000E+00 1.45000E+00 0.00000E+00
 -1      1134 1.57500E+00 5.00000E+01 0.00000E+00
 -1      1135 4.65000E+00 5.00000E+01 0.00000E+00
 -1      1136 7.65000E+00 5.00000E+01 0.00000E+00
 -1      1137 1.06500E+01 5.00000E+01 0.00000E+00
 -1      1138 1.36500E+01 5.00000E+01 0.00000E+00
 -1      1139 1.66500E+01 5.00000E+01 0.00000E+00
 -1      1140 1.96500E+01 5.00000E+01 0.00000E+00
 -1      1141 2.26500E+01 5.00000E+01 0.00000E+00
 -1      1142 2.56500E+01 5.00000E+01 0.00000E+00
 -1      1143 2.86500E+01 5.00000E+01 0.00000E+00
 -1      1144 3.16500E+01 5.00000E+01 0.00000E+00
 -1      1145 3.46500E+01 5.00000E+01 0.00000E+00
 -1      1146 3.76500E+01 5.00000E+01 0.00000E+00
 -1      1147 4.06500E+01 5.00000E+01 0.00000E+00
 -1      1148 4.36500E+01 5.00000E+01 0.00000E+00
 -1      1149 4.66500E+01 5.00000E+01 0.00000E+00
 -1      1150 4.96500E+01 5.00000E+01 0.00000E+00
 -1      1151 5.26500E+01 5.00000E+01 0.00000E+00
 -1      1152 5.56500E+01 5.00000E+01 0.00000E+00
 -1      1153 5.86500E+01 5.00000E+01 0.00000E+00
 -1      1154 6.16500E+01 5.00000E+01 0.00000E+00
 -1      1155 6.46500E+01 5.00000E+01 0.00000E+00
 -1      1156 6.76500E+01 5.00000E+01 0.00000E+00
 -1      1157 7.06500E+01 5.00000E+01 0.00000E+00
 -1      1158 7.36500E+01 5.00000E+01 0.00000E+00
 -1      1159 7.66500E+01 5.00000E+01 0.00000E+00
 -1      1160 7.96500E+01 5.00000E+01 0.00000E+00
 -1      1161 8.26500E+01 5.00000E+01 0.00000E+00
 -1      1162 8.56500E+01 5.00000E+01 0.00000E+00
 -1      1163 8.86500E+01 5.00000E+01 0.00000E+00
 -1      1164 9.16500E+01 5.00000E+01 0.00000E+00
 -1      1165 9.46500E+01 5.00000E+01 0.00000E+00
 -1      1166 9.76500E+01 5.00000E+01 0.00000E+00
 -1      1167 1.00650E+02 5.00000E+01 0.00000E+00
 -1      1168 1.03650E+02 5.00000E+01 0.00000E+00
 -1      1169 1.06650E+02 5.00000E+01 0.00000E+00
 -1      1170 1.09650E+02 5.00000E+01 0.00000E+00
 -1      1171 1.12650E+02 5.00000E+01 0.00000E+00
 -1      1172 1.15650E+02 5.00000E+01 0.00000E+00
 -1      1173 1.18650E+02 5.00000E+01 0.00000E+00
 -1      1174 1.21650E+02 5.00000E+01 0.00000E+00
 -1      1175 1.24650E+02 5.00000E+01 0.00000E+00
 -1      1176 1.27650E+02 5.00000E+01 0.00000E+00
 -1      1177 1.30650E+02 5.00000E+01 0.00000E+00
 -1      1178 1.33650E+02 5.00000E+01 0.00000E+00
 -1      1179 1.36650E+02 5.00000E+01 0.00000E+00
 -1      1180 1.39650E+02 5.00000E+01 0.00000E+00
 -1      1181 1.42650E+02 5.00000E+01 0.00000E+00
 -1      1182 1.45650E+02 5.00000E+01 0.00000E+00
 -1      1183 1.48575E+02 5.00000E+01 0.00000E+00
 -1      1184 1.57500E+00 0.00000E+00 0.00000E+00
 -1      1185 4.65000E+00 0.00000E+00 0.00000E+00
 -1      1186 7.65000E+00 0.00000E+00 0.00000E+00
 -1      1187 1.06500E+01 0.00000E+00 0.00000E+00
 -1      1188 1.36500E+01 0.00000E+00 0.00000E+00
 -1      1189 1.66500E+01 0.00000E+00 0.00000E+00
 -1      1190 1.96500E+01 0.00000E+00 0.00000E+00
 -1      1191 2.26500E+01 0.00000E+00 0.00000E+00
 -1      1192 2.56500E+01 0.00000E+00 0.00000E+00
 -1      1193 2.86500E+01 0.00000E+00 0.00000E+00
 -1      1194 3.16500E+01 0.00000E+00 0.00000E+00
 -1      1195 3.46500E+01 0.00000E+00 0.00000E+00
 -1      1196 3.76500E+01 0.00000E+00 0.00000E+00
 -1      1197 4.06500E+01 0.00000E+00 0.00000E+00
 -1      1198 4.36500E+01 0.00000E+00 0.00000E+00
 -1      1199 4.66500E+01 0.00000E+00 0.00000E+00
 -1      1200 4.96500E+01 0.00000E+00 0.00000E+00
 -1      1201 5.26500E+01 0.00000E+00 0.00000E+00
 -1      1202 5.56500E+01 0.00000E+00 0.00000E+00
 -1      1203 5.86500E+01 0.00000E+00 0.00000E+00
 -1      1204 6.16500E+01 0.00000E+00 0.00000E+00
 -1      1205 6.46500E+01 0.00000E+00 0.00000E+00
 -1      1206 6.76500E+01 0.00000E+00 0.00000E+00
 -1      1207 7.06500E+01 0.00000E+00 0.00000E+00
 -1      1208 7.36500E+01 0.00000E+00 0.00000E+00
 -1      1209 7.66500E+01 0.00000E+00 0.00000E+00
 -1      1210 7.96500E+01 0.00000E+00 0.00000E+00
 -1      1211 8.26500E+01 0.00000E+00 0.00000E+00
 -1      1212 8.56500E+01 0.00000E+00 0.00000E+00
 -1      1213 8.86500E+01 0.00000E+00 0.00000E+00
 -1      1214 9.16500E+01 0.00000E+00 0.00000E+00
 -1      1215 9.46500E+01 0.00000E+00 0.00000E+00
 -1      1216 9.76500E+01 0.00000E+00 0.00000E+00
 -1      1217 1.00650E+02 0.00000E+00 0.00000E+00
 -1      1218 1.03650E+02 0.00000E+00 0.00000E+00
 -1      1219 1.06650E+02 0.00000E+00 0.00000E+00
 -1      1220 1.09650E+02 0.00000E+00 0.00000E+00
 -1      1221 1.12650E+02 0.00000E+00 0.00000E+00
 -1      1222 1.15650E+02 0.00000E+00 0.00000E+00
 -1      1223 1.18650E+02 0.00000E+00 0.00000E+00
 -1      1224 1.21650E+02 0.00000E+00 0.00000E+00
 -1      1225 1.24650E+02 0.00000E+00 0.00000E+00
 -1      1226 1.27650E+02 0.00000E+00 0.00000E+00
 -1      1227 1.30650E+02 0.00000E+00 0.00000E+00
 -1      1228 1.33650E+02 0.00000E+00 0.00000E+00
 -1      1229 1.36650E+02 0.00000E+00 0.00000E+00
 -1      1230 1.39650E+02 0.00000E+00 0.00000E+00
 -1      1231 1.42650E+02 0.00000E+00 0.00000E+00
 -1      1232 1.45650E+02 0.00000E+00 0.00000E+00
 -1      1233 1.48575E+02 0.00000E+00 0.00000E+00
 -1      1234 1.50000E+02 1.47500E+00 0.00000E+00
 -1      1235 1.50000E+02 4.42500E+00 0.00000E+00
 -1      1236 1.50000E+02 7.37500E+00 0.00000E+00
 -1      1237 1.50000E+02 1.03250E+01 0.00000E+00
 -1      1238 1.50000E+02 1.32750E+01 0.00000E+00
 -1      1239 1.50000E+02 1.62000E+01 0.00000E+00
 -1      1240 1.50000E+02 1.91250E+01 0.00000E+00
 -1      1241 1.50000E+02 2.20750E+01 0.00000E+00
 -1      1242 1.50000E+02 2.50250E+01 0.00000E+00
 -1      1243 1.50000E+02 2.79750E+01 0.00000E+00
 -1      1244 1.50000E+02 3.09250E+01 0.00000E+00
 -1      1245 1.50000E+02 3.38500E+01 0.00000E+00
 -1      1246 1.50000E+02 3.67750E+01 0.00000E+00
 -1      1247 1.50000E+02 3.97250E+01 0.00000E+00
 -1      1248 1.50000E+02 4.26750E+01 0.00000E+00
 -1      1249 1.50000E+02 4.56250E+01 0.00000E+00
 -1      1250 1.50000E+02 4.85500E+01 0.00000E+00
 -1      1251 1.33746E+02 2.74858E+01 0.00000E+00
 -1      1252 1.33410E+02 2.60073E+01 0.00000E+00
 -1      1253 1.32772E+02 2.46498E+01 0.00000E+00
 -1      1254 1.31812E+02 2.34110E+01 0.00000E+00
 -1      1255 1.30643E+02 2.24442E+01 0.00000E+00
 -1      1256 1.29333E+02 2.17672E+01 0.00000E+00
 -1      1257 1.27838E+02 2.13684E+01 0.00000E+00
 -1      1258 1.26323E+02 2.13057E+01 0.00000E+00
 -1      1259 1.24885E+02 2.15551E+01 0.00000E+00
 -1      1260 1.23509E+02 2.21079E+01 0.00000E+00
 -1      1261 1.22304E+02 2.29187E+01 0.00000E+00
 -1      1262 1.21312E+02 2.39353E+01 0.00000E+00
 -1      1263 1.20550E+02 2.51230E+01 0.00000E+00
 -1      1264 1.20039E+02 2.64492E+01 0.00000E+00
 -1      1265 1.19802E+02 2.79235E+01 0.00000E+00
 -1      1266 1.19889E+02 2.94478E+01 0.00000E+00
 -1      1267 1.20294E+02 3.08903E+01 0.00000E+00
 -1      1268 1.21022E+02 3.22519E+01 0.00000E+00
 -1      1269 1.21995E+02 3.33875E+01 0.00000E+00
 -1      1270 1.23126E+02 3.42525E+01 0.00000E+00
 -1      1271 1.24419E+02 3.48752E+01 0.00000E+00
 -1      1272 1.25799E+02 3.52190E+01 0.00000E+00
 -1      1273 1.27237E+02 3.52759E+01 0.00000E+00
 -1      1274 1.28695E+02 3.50266E+01 0.00000E+00
 -1      1275 1.30034E+02 3.44943E+01 0.00000E+00
 -1      1276 1.31206E+02 3.37232E+01 0.00000E+00
 -1      1277 1.32184E+02 3.27554E+01 0.00000E+00
 -1      1278 1.32945E+02 3.16283E+01 0.00000E+00
 -1      1279 1.33477E+02 3.03679E+01 0.00000E+00
 -1      1280 1.33757E+02 2.90019E+01 0.00000E+00
 -1      1281 1.57500E+00 4.85250E+01 0.00000E+00
 -1      1282 1.29900E+00 4.48375E+01 0.00000E+00
 -1      1283 1.29900E+00 4.63125E+01 0.00000E+00
 -1      1284 1.29900E+00 4.18875E+01 0.00000E+00
 -1      1285 1.29900E+00 4.33625E+01 0.00000E+00
 -1      1286 2.59800E+00 4.41000E+01 0.00000E+00
 -1      1287 1.29900E+00 3.89375E+01 0.00000E+00
 -1      1288 1.29900E+00 4.04125E+01 0.00000E+00
 -1      1289 2.59800E+00 4.11500E+01 0.00000E+00
 -1      1290 1.29900E+00 3.59875E+01 0.00000E+00
 -1      1291 1.29900E+00 3.74625E+01 0.00000E+00
 -1      1292 2.59800E+00 3.82000E+01 0.00000E+00
 -1      1293 1.29900E+00 3.30875E+01 0.00000E+00
 -1      1294 1.29900E+00 3.45375E+01 0.00000E+00
 -1      1295 2.59800E+00 3.52750E+01 0.00000E+00
 -1      1296 1.29900E+00 3.01375E+01 0.00000E+00
 -1      1297 1.29900E+00 3.16125E+01 0.00000E+00
 -1      1298 2.59800E+00 3.23500E+01 0.00000E+00
 -1      1299 1.29900E+00 2.71875E+01 0.00000E+00
 -1      1300 1.29900E+00 2.86625E+01 0.00000E+00
 -1      1301 2.59800E+00 2.94000E+01 0.00000E+00
 -1      1302 1.29900E+00 2.42375E+01 0.00000E+00
 -1      1303 1.29900E+00 2.57125E+01 0.00000E+00
 -1      1304 2.59800E+00 2.64500E+01 0.00000E+00
 -1      1305 1.29900E+00 2.12875E+01 0.00000E+00
 -1      1306 1.29900E+00 2.27625E+01 0.00000E+00
 -1      1307 2.59800E+00 2.35000E+01 0.00000E+00
 -1      1308 1.29900E+00 1.83375E+01 0.00000E+00
 -1      1309 1.29900E+00 1.98125E+01 0.00000E+00
 -1      1310 2.59800E+00 2.05500E+01 0.00000E+00
 -1      1311 1.29900E+00 1.54375E+01 0.00000E+00
 -1      1312 1.29900E+00 1.68875E+01 0.00000E+00
 -1      1313 2.59800E+00 1.76250E+01 0.00000E+00
 -1      1314 1.29900E+00 1.24875E+01 0.00000E+00
 -1      1315 1.29900E+00 1.39625E+01 0.00000E+00
 -1      1316 2.59800E+00 1.47000E+01 0.00000E+00
 -1      1317 1.29900E+00 9.53750E+00 0.00000E+00
 -1      1318 1.29900E+00 1.10125E+01 0.00000E+00
 -1      1319 2.59800E+00 1.17500E+01 0.00000E+00
 -1      1320 1.29900E+00 6.58750E+00 0.00000E+00
 -1      1321 1.29900E+00 8.06250E+00 0.00000E+00
 -1      1322 2.59800E+00 8.80000E+00 0.00000E+00
 -1      1323 1.29900E+00 3.63750E+00 0.00000E+00
 -1      1324 1.29900E+00 5.11250E+00 0.00000E+00
 -1      1325 2.59800E+00 5.85000E+00 0.00000E+00
 -1      1326 1.43700E+00 1.09375E+00 0.00000E+00
 -1      1327 1.43700E+00 2.54375E+00 0.00000E+00
 -1      1328 2.73600E+00 3.28125E+00 0.00000E+00
 -1      1329 3.01200E+00 1.09375E+00 0.00000E+00
 -1      1330 3.90000E+00 4.87010E+01 0.00000E+00
 -1      1331 5.40000E+00 4.87010E+01 0.00000E+00
 -1      1332 6.90000E+00 4.87010E+01 0.00000E+00
 -1      1333 8.40000E+00 4.87010E+01 0.00000E+00
 -1      1334 6.15000E+00 4.74020E+01 0.00000E+00
 -1      1335 9.90000E+00 4.87010E+01 0.00000E+00
 -1      1336 1.14000E+01 4.87010E+01 0.00000E+00
 -1      1337 9.15000E+00 4.74020E+01 0.00000E+00
 -1      1338 1.29000E+01 4.87010E+01 0.00000E+00
 -1      1339 1.44000E+01 4.87010E+01 0.00000E+00
 -1      1340 1.21500E+01 4.74020E+01 0.00000E+00
 -1      1341 1.59000E+01 4.87010E+01 0.00000E+00
 -1      1342 1.74000E+01 4.87010E+01 0.00000E+00
 -1      1343 1.51500E+01 4.74020E+01 0.00000E+00
 -1      1344 1.89000E+01 4.87010E+01 0.00000E+00
 -1      1345 2.04000E+01 4.87010E+01 0.00000E+00
 -1      1346 1.81500E+01 4.74020E+01 0.00000E+00
 -1      1347 2.19000E+01 4.87010E+01 0.00000E+00
 -1      1348 2.34000E+01 4.87010E+01 0.00000E+00
 -1      1349 2.11500E+01 4.74020E+01 0.00000E+00
 -1      1350 2.49000E+01 4.87010E+01 0.00000E+00
 -1      1351 2.64000E+01 4.87010E+01 0.00000E+00
 -1      1352 2.41500E+01 4.74020E+01 0.00000E+00
 -1      1353 2.79000E+01 4.87010E+01 0.00000E+00
 -1      1354 2.94000E+01 4.87010E+01 0.00000E+00
 -1      1355 2.71500E+01 4.74020E+01 0.00000E+00
 -1      1356 3.09000E+01 4.87010E+01 0.00000E+00
 -1      1357 3.24000E+01 4.87010E+01 0.00000E+00
 -1      1358 3.01500E+01 4.74020E+01 0.00000E+00
 -1      1359 3.39000E+01 4.87010E+01 0.00000E+00
 -1      1360 3.54000E+01 4.87010E+01 0.00000E+00
 -1      1361 3.31500E+01 4.74020E+01 0.00000E+00
 -1      1362 3.69000E+01 4.87010E+01 0.00000E+00
 -1      1363 3.84000E+01 4.87010E+01 0.00000E+00
 -1      1364 3.61500E+01 4.74020E+01 0.00000E+00
 -1      1365 3.99000E+01 4.87010E+01 0.00000E+00
 -1      1366 4.14000E+01 4.87010E+01 0.00000E+00
 -1      1367 3.91500E+01 4.74020E+01 0.00000E+00
 -1      1368 4.29000E+01 4.87010E+01 0.00000E+00
 -1      1369 4.44000E+01 4.87010E+01 0.00000E+00
 -1      1370 4.21500E+01 4.74020E+01 0.00000E+00
 -1      1371 4.59000E+01 4.87010E+01 0.00000E+00
 -1      1372 4.74000E+01 4.87010E+01 0.00000E+00
 -1      1373 4.51500E+01 4.74020E+01 0.00000E+00
 -1      1374 4.89000E+01 4.87010E+01 0.00000E+00
 -1      1375 5.04000E+01 4.87010E+01 0.00000E+00
 -1      1376 4.81500E+01 4.74020E+01 0.00000E+00
 -1      1377 5.19000E+01 4.87010E+01 0.00000E+00
 -1      1378 5.34000E+01 4.87010E+01 0.00000E+00
 -1      1379 5.11500E+01 4.74020E+01 0.00000E+00
 -1      1380 5.49000E+01 4.87010E+01 0.00000E+00
 -1      1381 5.64000E+01 4.87010E+01 0.00000E+00
 -1      1382 5.41500E+01 4.74020E+01 0.00000E+00
 -1      1383 5.79000E+01 4.87010E+01 0.00000E+00
 -1      1384 5.94000E+01 4.87010E+01 0.00000E+00
 -1      1385 5.71500E+01 4.74020E+01 0.00000E+00
 -1      1386 6.09000E+01 4.87010E+01 0.00000E+00
 -1      1387 6.24000E+01 4.87010E+01 0.00000E+00
 -1      1388 6.01500E+01 4.74020E+01 0.00000E+00
 -1      1389 6.39000E+01 4.87010E+01 0.00000E+00
 -1      1390 6.54000E+01 4.87010E+01 0.00000E+00
 -1      1391 6.31500E+01 4.74020E+01 0.00000E+00
 -1      1392 6.69000E+01 4.87010E+01 0.00000E+00
 -1      1393 6.84000E+01 4.87010E+01 0.00000E+00
 -1      1394 6.61500E+01 4.74020E+01 0.00000E+00
 -1      1395 6.99000E+01 4.87010E+01 0.00000E+00
 -1      1396 7.14000E+01 4.87010E+01 0.00000E+00
 -1      1397 6.91500E+01 4.74020E+01 0.00000E+00
 -1      1398 7.29000E+01 4.87010E+01 0.00000E+00
 -1      1399 7.44000E+01 4.87010E+01 0.00000E+00
 -1      1400 7.21500E+01 4.74020E+01 0.00000E+00
 -1      1401 7.59000E+01 4.87010E+01 0.00000E+00
 -1      1402 7.74000E+01 4.87010E+01 0.00000E+00
 -1      1403 7.51500E+01 4.74020E+01 0.00000E+00
 -1      1404 7.89000E+01 4.87010E+01 0.00000E+00
 -1      1405 8.04000E+01 4.87010E+01 0.00000E+00
 -1      1406 7.81500E+01 4.74020E+01 0.00000E+00
 -1      1407 8.19000E+01 4.87010E+01 0.00000E+00
 -1      1408 8.34000E+01 4.87010E+01 0.00000E+00
 -1      1409 8.11500E+01 4.74020E+01 0.00000E+00
 -1      1410 8.49000E+01 4.87010E+01 0.00000E+00
 -1      1411 8.64000E+01 4.87010E+01 0.00000E+00
 -1      1412 8.41500E+01 4.74020E+01 0.00000E+00
 -1      1413 8.79000E+01 4.87010E+01 0.00000E+00
 -1      1414 8.94000E+01 4.87010E+01 0.00000E+00
 -1      1415 8.71500E+01 4.74020E+01 0.00000E+00
 -1      1416 9.09000E+01 4.87010E+01 0.00000E+00
 -1      1417 9.24000E+01 4.87010E+01 0.00000E+00
 -1      1418 9.01500E+01 4.74020E+01 0.00000E+00
 -1      1419 9.39000E+01 4.87010E+01 0.00000E+00
 -1      1420 9.54000E+01 4.87010E+01 0.00000E+00
 -1      1421 9.31500E+01 4.74020E+01 0.00000E+00
 -1      1422 9.69000E+01 4.87010E+01 0.00000E+00
 -1      1423 9.84000E+01 4.87010E+01 0.00000E+00
 -1      1424 9.61500E+01 4.74020E+01 0.00000E+00
 -1      1425 9.99000E+01 4.87010E+01 0.00000E+00
 -1      1426 1.01400E+02 4.87010E+01 0.00000E+00
 -1      1427 9.91500E+01 4.74020E+01 0.00000E+00
 -1      1428 1.02900E+02 4.87010E+01 0.00000E+00
 -1      1429 1.04400E+02 4.87010E+01 0.00000E+00
 -1      1430 1.02150E+02 4.74020E+01 0.00000E+00
 -1      1431 1.05900E+02 4.87010E+01 0.00000E+00
 -1      1432 1.07400E+02 4.87010E+01 0.00000E+00
 -1      1433 1.05150E+02 4.74020E+01 0.00000E+00
 -1      1434 1.08900E+02 4.87010E+01 0.00000E+00
 -1      1435 1.10400E+02 4.87010E+01 0.00000E+00
 -1      1436 1.08150E+02 4.74020E+01 0.00000E+00
 -1      1437 1.11900E+02 4.87010E+01 0.00000E+00
 -1      1438 1.13400E+02 4.87010E+01 0.00000E+00
 -1      1439 1.11150E+02 4.74020E+01 0.00000E+00
 -1      1440 1.14900E+02 4.87010E+01 0.00000E+00
 -1      1441 1.16400E+02 4.87010E+01 0.00000E+00
 -1      1442 1.14150E+02 4.74020E+01 0.00000E+00
 -1      1443 1.17900E+02 4.87010E+01 0.00000E+00
 -1      1444 1.19400E+02 4.87010E+01 0.00000E+00
 -1      1445 1.17150E+02 4.74020E+01 0.00000E+00
 -1      1446 1.20900E+02 4.87010E+01 0.00000E+00
 -1      1447 1.22400E+02 4.87010E+01 0.00000E+00
 -1      1448 1.20150E+02 4.74020E+01 0.00000E+00
 -1      1449 1.23900E+02 4.87010E+01 0.00000E+00
 -1      1450 1.25400E+02 4.87010E+01 0.00000E+00
 -1      1451 1.23150E+02 4.74020E+01 0.00000E+00
 -1      1452 1.26900E+02 4.87010E+01 0.00000E+00
 -1      1453 1.28400E+02 4.87010E+01 0.00000E+00
 -1      1454 1.26150E+02 4.74020E+01 0.00000E+00
 -1      1455 1.29900E+02 4.87010E+01 0.00000E+00
 -1      1456 1.31400E+02 4.87010E+01 0.00000E+00
 -1      1457 1.29150E+02 4.74020E+01 0.00000E+00
 -1      1458 1.32900E+02 4.87010E+01 0.00000E+00
 -1      1459 1.34400E+02 4.87010E+01 0.00000E+00
 -1      1460 1.32150E+02 4.74020E+01 0.00000E+00
 -1      1461 1.35900E+02 4.87010E+01 0.00000E+00
 -1      1462 1.37400E+02 4.87010E+01 0.00000E+00
 -1      1463 1.35150E+02 4.74020E+01 0.00000E+00
 -1      1464 1.38900E+02 4.87010E+01 0.00000E+00
 -1      1465 1.40400E+02 4.87010E+01 0.00000E+00
 -1      1466 1.38150E+02 4.74020E+01 0.00000E+00
 -1      1467 1.41900E+02 4.87010E+01 0.00000E+00
 -1      1468 1.43400E+02 4.87010E+01 0.00000E+00
 -1      1469 1.41150E+02 4.74020E+01 0.00000E+00
 -1      1470 1.44900E+02 4.87010E+01 0.00000E+00
 -1      1471 1.46400E+02 4.87010E+01 0.00000E+00
 -1      1472 1.44150E+02 4.74020E+01 0.00000E+00
 -1      1473 1.48575E+02 4.85500E+01 0.00000E+00
 -1      1474 1.47825E+02 4.72510E+01 0.00000E+00
 -1      1475 6.01200E+00 1.09375E+00 0.00000E+00
 -1      1476 4.51200E+00 1.09375E+00 0.00000E+00
 -1      1477 4.37400E+00 2.18750E+00 0.00000E+00
 -1      1478 9.01200E+00 1.09375E+00 0.00000E+00
 -1      1479 7.51200E+00 1.09375E+00 0.00000E+00
 -1      1480 7.37400E+00 2.18750E+00 0.00000E+00
 -1      1481 1.20120E+01 1.09375E+00 0.00000E+00
 -1      1482 1.05120E+01 1.09375E+00 0.00000E+00
 -1      1483 1.03740E+01 2.18750E+00 0.00000E+00
 -1      1484 1.50120E+01 1.09375E+00 0.00000E+00
 -1      1485 1.35120E+01 1.09375E+00 0.00000E+00
 -1      1486 1.33740E+01 2.18750E+00 0.00000E+00
 -1      1487 1.80120E+01 1.09375E+00 0.00000E+00
 -1      1488 1.65120E+01 1.09375E+00 0.00000E+00
 -1      1489 1.63740E+01 2.18750E+00 0.00000E+00
 -1      1490 2.10120E+01 1.09375E+00 0.00000E+00
 -1      1491 1.95120E+01 1.09375E+00 0.00000E+00
 -1      1492 1.93740E+01 2.18750E+00 0.00000E+00
 -1      1493 2.40120E+01 1.09375E+00 0.00000E+00
 -1      1494 2.25120E+01 1.09375E+00 0.00000E+00
 -1      1495 2.23740E+01 2.18750E+00 0.00000E+00
 -1      1496 2.70120E+01 1.09375E+00 0.00000E+00
 -1      1497 2.55120E+01 1.09375E+00 0.00000E+00
 -1      1498 2.53740E+01 2.18750E+00 0.00000E+00
 -1      1499 3.00120E+01 1.09375E+00 0.00000E+00
 -1      1500 2.85120E+01 1.09375E+00 0.00000E+00
 -1      1501 2.83740E+01 2.18750E+00 0.00000E+00
 -1      1502 3.30120E+01 1.09375E+00 0.00000E+00
 -1      1503 3.15120E+01 1.09375E+00 0.00000E+00
 -1      1504 3.13740E+01 2.18750E+00 0.00000E+00
 -1      1505 3.60120E+01 1.09375E+00 0.00000E+00
 -1      1506 3.45120E+01 1.09375E+00 0.00000E+00
 -1      1507 3.43740E+01 2.18750E+00 0.00000E+00
 -1      1508 3.90120E+01 1.09375E+00 0.00000E+00
 -1      1509 3.75120E+01 1.09375E+00 0.00000E+00
 -1      1510 3.73740E+01 2.18750E+00 0.00000E+00
 -1      1511 4.20120E+01 1.09375E+00 0.00000E+00
 -1      1512 4.05120E+01 1.09375E+00 0.00000E+00
 -1      1513 4.03740E+01 2.18750E+00 0.00000E+00
 -1      1514 4.50120E+01 1.09375E+00 0.00000E+00
 -1      1515 4.35120E+01 1.09375E+00 0.00000E+00
 -1      1516 4.33740E+01 2.18750E+00 0.00000E+00
 -1      1517 4.80120E+01 1.09375E+00 0.00000E+00
 -1      1518 4.65120E+01 1.09375E+00 0.00000E+00
 -1      1519 4.63740E+01 2.18750E+00 0.00000E+00
 -1      1520 5.10120E+01 1.09375E+00 0.00000E+00
 -1      1521 4.95120E+01 1.09375E+00 0.00000E+00
 -1      1522 4.93740E+01 2.18750E+00 0.00000E+00
 -1      1523 5.40120E+01 1.09375E+00 0.00000E+00
 -1      1524 5.25120E+01 1.09375E+00 0.00000E+00
 -1      1525 5.23740E+01 2.18750E+00 0.00000E+00
 -1      1526 5.70120E+01 1.09375E+00 0.00000E+00
 -1      1527 5.55120E+01 1.09375E+00 0.00000E+00
 -1      1528 5.53740E+01 2.18750E+00 0.00000E+00
 -1      1529 6.00120E+01 1.09375E+00 0.00000E+00
 -1      1530 5.85120E+01 1.09375E+00 0.00000E+00
 -1      1531 5.83740E+01 2.18750E+00 0.00000E+00
 -1      1532 6.30120E+01 1.09375E+00 0.00000E+00
 -1      1533 6.15120E+01 1.09375E+00 0.00000E+00
 -1      1534 6.13740E+01 2.18750E+00 0.00000E+00
 -1      1535 6.60120E+01 1.09375E+00 0.00000E+00
 -1      1536 6.45120E+01 1.09375E+00 0.00000E+00
 -1      1537 6.43740E+01 2.18750E+00 0.00000E+00
 -1      1538 6.90120E+01 1.09375E+00 0.00000E+00
 -1      1539 6.75120E+01 1.09375E+00 0.00000E+00
 -1      1540 6.73740E+01 2.18750E+00 0.00000E+00
 -1      1541 7.20120E+01 1.09375E+00 0.00000E+00
 -1      1542 7.05120E+01 1.09375E+00 0.00000E+00
 -1      1543 7.03740E+01 2.18750E+00 0.00000E+00
 -1      1544 7.50120E+01 1.09375E+00 0.00000E+00
 -1      1545 7.35120E+01 1.09375E+00 0.00000E+00
 -1      1546 7.33740E+01 2.18750E+00 0.00000E+00
 -1      1547 7.80120E+01 1.09375E+00 0.00000E+00
 -1      1548 7.65120E+01 1.09375E+00 0.00000E+00
 -1      1549 7.63740E+01 2.18750E+00 0.00000E+00
 -1      1550 8.10120E+01 1.09375E+00 0.00000E+00
 -1      1551 7.95120E+01 1.09375E+00 0.00000E+00
 -1      1552 7.93740E+01 2.18750E+00 0.00000E+00
 -1      1553 8.40120E+01 1.09375E+00 0.00000E+00
 -1      1554 8.25120E+01 1.09375E+00 0.00000E+00
 -1      1555 8.23740E+01 2.18750E+00 0.00000E+00
 -1      1556 8.70120E+01 1.09375E+00 0.00000E+00
 -1      1557 8.55120E+01 1.09375E+00 0.00000E+00
 -1      1558 8.53740E+01 2.18750E+00 0.00000E+00
 -1      1559 9.00120E+01 1.09375E+00 0.00000E+00
 -1      1560 8.85120E+01 1.09375E+00 0.00000E+00
 -1      1561 8.83740E+01 2.18750E+00 0.00000E+00
 -1      1562 9.30120E+01 1.09375E+00 0.00000E+00
 -1      1563 9.15120E+01 1.09375E+00 0.00000E+00
 -1      1564 9.13740E+01 2.18750E+00 0.00000E+00
 -1      1565 9.60120E+01 1.09375E+00 0.00000E+00
 -1      1566 9.45120E+01 1.09375E+00 0.00000E+00
 -1      1567 9.43740E+01 2.18750E+00 0.00000E+00
 -1      1568 9.90120E+01 1.09375E+00 0.00000E+00
 -1      1569 9.75120E+01 1.09375E+00 0.00000E+00
 -1      1570 9.73740E+01 2.18750E+00 0.00000E+00
 -1      1571 1.02012E+02 1.09375E+00 0.00000E+00
 -1      1572 1.00512E+02 1.09375E+00 0.00000E+00
 -1      1573 1.00374E+02 2.18750E+00 0.00000E+00
 -1      1574 1.05012E+02 1.09375E+00 0.00000E+00
 -1      1575 1.03512E+02 1.09375E+00 0.00000E+00
 -1      1576 1.03374E+02 2.18750E+00 0.00000E+00
 -1      1577 1.08012E+02 1.09375E+00 0.00000E+00
 -1      1578 1.06512E+02 1.09375E+00 0.00000E+00
 -1      1579 1.06374E+02 2.18750E+00 0.00000E+00
 -1      1580 1.11012E+02 1.09375E+00 0.00000E+00
 -1      1581 1.09512E+02 1.09375E+00 0.00000E+00
 -1      1582 1.09374E+02 2.18750E+00 0.00000E+00
 -1      1583 1.14012E+02 1.09375E+00 0.00000E+00
 -1      1584 1.12512E+02 1.09375E+00 0.00000E+00
 -1      1585 1.12374E+02 2.18750E+00 0.00000E+00
 -1      1586 1.17012E+02 1.09375E+00 0.00000E+00
 -1      1587 1.15512E+02 1.09375E+00 0.00000E+00
 -1      1588 1.15374E+02 2.18750E+00 0.00000E+00
 -1      1589 1.20012E+02 1.09375E+00 0.00000E+00
 -1      1590 1.18512E+02 1.09375E+00 0.00000E+00
 -1      1591 1.18374E+02 2.18750E+00 0.00000E+00
 -1      1592 1.23012E+02 1.09375E+00 0.00000E+00
 -1      1593 1.21512E+02 1.09375E+00 0.00000E+00
 -1      1594 1.21374E+02 2.18750E+00 0.00000E+00
 -1      1595 1.26012E+02 1.09375E+00 0.00000E+00
 -1      1596 1.24512E+02 1.09375E+00 0.00000E+00
 -1      1597 1.24374E+02 2.18750E+00 0.00000E+00
 -1      1598 1.29012E+02 1.09375E+00 0.00000E+00
 -1      1599 1.27512E+02 1.09375E+00 0.00000E+00
 -1      1600 1.27374E+02 2.18750E+00 0.00000E+00
 -1      1601 1.32012E+02 1.09375E+00 0.00000E+00
 -1      1602 1.30512E+02 1.09375E+00 0.00000E+00
 -1      1603 1.30374E+02 2.18750E+00 0.00000E+00
 -1      1604 1.35012E+02 1.09375E+00 0.00000E+00
 -1      1605 1.33512E+02 1.09375E+00 0.00000E+00
 -1      1606 1.33374E+02 2.18750E+00 0.00000E+00
 -1      1607 1.38012E+02 1.09375E+00 0.00000E+00
 -1      1608 1.36512E+02 1.09375E+00 0.00000E+00
 -1      1609 1.36374E+02 2.18750E+00 0.00000E+00
 -1      1610 1.41012E+02 1.09375E+00 0.00000E+00
 -1      1611 1.39512E+02 1.09375E+00 0.00000E+00
 -1      1612 1.39374E+02 2.18750E+00 0.00000E+00
 -1      1613 1.44012E+02 1.09375E+00 0.00000E+00
 -1      1614 1.42512E+02 1.09375E+00 0.00000E+00
 -1      1615 1.42374E+02 2.18750E+00 0.00000E+00
 -1      1616 1.47012E+02 1.09375E+00 0.00000E+00
 -1      1617 1.45512E+02 1.09375E+00 0.00000E+00
 -1      1618 1.45374E+02 2.18750E+00 0.00000E+00
 -1      1619 1.48575E+02 1.47500E+00 0.00000E+00
 -1      1620 1.48701E+02 5.16250E+00 0.00000E+00
 -1      1621 1.48701E+02 3.68750E+00 0.00000E+00
 -1      1622 1.48701E+02 8.11250E+00 0.00000E+00
 -1      1623 1.48701E+02 6.63750E+00 0.00000E+00
 -1      1624 1.47402E+02 5.90000E+00 0.00000E+00
 -1      1625 1.48701E+02 1.10625E+01 0.00000E+00
 -1      1626 1.48701E+02 9.58750E+00 0.00000E+00
 -1      1627 1.47402E+02 8.85000E+00 0.00000E+00
 -1      1628 1.48701E+02 1.40125E+01 0.00000E+00
 -1      1629 1.48701E+02 1.25375E+01 0.00000E+00
 -1      1630 1.47402E+02 1.18000E+01 0.00000E+00
 -1      1631 1.48701E+02 1.69125E+01 0.00000E+00
 -1      1632 1.48701E+02 1.54625E+01 0.00000E+00
 -1      1633 1.47402E+02 1.47250E+01 0.00000E+00
 -1      1634 1.48701E+02 1.98625E+01 0.00000E+00
 -1      1635 1.48701E+02 1.83875E+01 0.00000E+00
 -1      1636 1.47402E+02 1.76500E+01 0.00000E+00
 -1      1637 1.48701E+02 2.28125E+01 0.00000E+00
 -1      1638 1.48701E+02 2.13375E+01 0.00000E+00
 -1      1639 1.47402E+02 2.06000E+01 0.00000E+00
 -1      1640 1.48701E+02 2.57625E+01 0.00000E+00
 -1      1641 1.48701E+02 2.42875E+01 0.00000E+00
 -1      1642 1.47402E+02 2.35500E+01 0.00000E+00
 -1      1643 1.48701E+02 2.87125E+01 0.00000E+00
 -1      1644 1.48701E+02 2.72375E+01 0.00000E+00
 -1      1645 1.47402E+02 2.65000E+01 0.00000E+00
 -1      1646 1.48701E+02 3.16625E+01 0.00000E+00
 -1      1647 1.48701E+02 3.01875E+01 0.00000E+00
 -1      1648 1.47402E+02 2.94500E+01 0.00000E+00
 -1      1649 1.48701E+02 3.45625E+01 0.00000E+00
 -1      1650 1.48701E+02 3.31125E+01 0.00000E+00
 -1      1651 1.47402E+02 3.23750E+01 0.00000E+00
 -1      1652 1.48701E+02 3.75125E+01 0.00000E+00
 -1      1653 1.48701E+02 3.60375E+01 0.00000E+00
 -1      1654 1.47402E+02 3.53000E+01 0.00000E+00
 -1      1655 1.48701E+02 4.04625E+01 0.00000E+00
 -1      1656 1.48701E+02 3.89875E+01 0.00000E+00
 -1      1657 1.47402E+02 3.82500E+01 0.00000E+00
 -1      1658 1.48701E+02 4.34125E+01 0.00000E+00
 -1      1659 1.48701E+02 4.19375E+01 0.00000E+00
 -1      1660 1.47402E+02 4.12000E+01 0.00000E+00
 -1      1661 1.48263E+02 4.60692E+01 0.00000E+00
 -1      1662 1.48263E+02 4.45942E+01 0.00000E+00
 -1      1663 1.46964E+02 4.38568E+01 0.00000E+00
 -1      1664 1.46088E+02 4.62202E+01 0.00000E+00
 -1      1665 1.34423E+02 2.70027E+01 0.00000E+00
 -1      1666 1.34515E+02 2.78016E+01 0.00000E+00
 -1      1667 1.33872E+02 2.54712E+01 0.00000E+00
 -1      1668 1.34105E+02 2.61443E+01 0.00000E+00
 -1      1669 1.33190E+02 2.39340E+01 0.00000E+00
 -1      1670 1.33600E+02 2.46071E+01 0.00000E+00
 -1      1671 1.32035E+02 2.26519E+01 0.00000E+00
 -1      1672 1.32577E+02 2.32104E+01 0.00000E+00
 -1      1673 1.30739E+02 2.16276E+01 0.00000E+00
 -1      1674 1.31356E+02 2.20335E+01 0.00000E+00
 -1      1675 1.29211E+02 2.10659E+01 0.00000E+00
 -1      1676 1.29898E+02 2.13332E+01 0.00000E+00
 -1      1677 1.27539E+02 2.06308E+01 0.00000E+00
 -1      1678 1.28341E+02 2.07519E+01 0.00000E+00
 -1      1679 1.25934E+02 2.07600E+01 0.00000E+00
 -1      1680 1.26637E+02 2.07128E+01 0.00000E+00
 -1      1681 1.24344E+02 2.10335E+01 0.00000E+00
 -1      1682 1.25071E+02 2.08276E+01 0.00000E+00
 -1      1683 1.22902E+02 2.17395E+01 0.00000E+00
 -1      1684 1.23544E+02 2.13985E+01 0.00000E+00
 -1      1685 1.21634E+02 2.26830E+01 0.00000E+00
 -1      1686 1.22191E+02 2.22177E+01 0.00000E+00
 -1      1687 1.20649E+02 2.38517E+01 0.00000E+00
 -1      1688 1.21081E+02 2.33078E+01 0.00000E+00
 -1      1689 1.19843E+02 2.51658E+01 0.00000E+00
 -1      1690 1.20167E+02 2.45270E+01 0.00000E+00
 -1      1691 1.19396E+02 2.66392E+01 0.00000E+00
 -1      1692 1.19581E+02 2.59591E+01 0.00000E+00
 -1      1693 1.19054E+02 2.82790E+01 0.00000E+00
 -1      1694 1.19095E+02 2.74918E+01 0.00000E+00
 -1      1695 1.19350E+02 2.99126E+01 0.00000E+00
 -1      1696 1.19228E+02 2.91844E+01 0.00000E+00
 -1      1697 1.19794E+02 3.14994E+01 0.00000E+00
 -1      1698 1.19511E+02 3.07941E+01 0.00000E+00
 -1      1699 1.20746E+02 3.29171E+01 0.00000E+00
 -1      1700 1.20302E+02 3.22704E+01 0.00000E+00
 -1      1701 1.21835E+02 3.40768E+01 0.00000E+00
 -1      1702 1.21317E+02 3.35893E+01 0.00000E+00
 -1      1703 1.23130E+02 3.49244E+01 0.00000E+00
 -1      1704 1.22524E+02 3.45514E+01 0.00000E+00
 -1      1705 1.24552E+02 3.55723E+01 0.00000E+00
 -1      1706 1.23872E+02 3.53269E+01 0.00000E+00
 -1      1707 1.26063E+02 3.58341E+01 0.00000E+00
 -1      1708 1.25372E+02 3.57349E+01 0.00000E+00
 -1      1709 1.27648E+02 3.59018E+01 0.00000E+00
 -1      1710 1.26908E+02 3.59487E+01 0.00000E+00
 -1      1711 1.29204E+02 3.54720E+01 0.00000E+00
 -1      1712 1.28494E+02 3.56727E+01 0.00000E+00
 -1      1713 1.30629E+02 3.48747E+01 0.00000E+00
 -1      1714 1.30007E+02 3.52001E+01 0.00000E+00
 -1      1715 1.31838E+02 3.39456E+01 0.00000E+00
 -1      1716 1.31295E+02 3.43873E+01 0.00000E+00
 -1      1717 1.32841E+02 3.28615E+01 0.00000E+00
 -1      1718 1.32410E+02 3.33812E+01 0.00000E+00
 -1      1719 1.33612E+02 3.16001E+01 0.00000E+00
 -1      1720 1.33285E+02 3.22027E+01 0.00000E+00
 -1      1721 1.34126E+02 3.02122E+01 0.00000E+00
 -1      1722 1.33923E+02 3.08638E+01 0.00000E+00
 -1      1723 1.34360E+02 2.87057E+01 0.00000E+00
 -1      1724 1.34287E+02 2.94139E+01 0.00000E+00
 -1      1725 1.32152E+02 2.18027E+01 0.00000E+00
 -1      1726 1.33443E+02 2.31446E+01 0.00000E+00
 -1      1727 1.48437E+02 2.56875E+00 0.00000E+00
 -1      1728 1.47138E+02 3.30625E+00 0.00000E+00
 -1      1729 1.34919E+02 2.64548E+01 0.00000E+00
 -1      1730 1.34328E+02 2.47323E+01 0.00000E+00
 -1      1731 1.35082E+02 2.82174E+01 0.00000E+00
 -1      1732 1.30631E+02 2.08900E+01 0.00000E+00
 -1      1733 1.28919E+02 2.02817E+01 0.00000E+00
 -1      1734 1.27147E+02 2.00496E+01 0.00000E+00
 -1      1735 1.25382E+02 2.01991E+01 0.00000E+00
 -1      1736 1.23719E+02 2.06317E+01 0.00000E+00
 -1      1737 1.22208E+02 2.14748E+01 0.00000E+00
 -1      1738 1.20944E+02 2.25778E+01 0.00000E+00
 -1      1739 1.19909E+02 2.38779E+01 0.00000E+00
 -1      1740 1.19165E+02 2.53465E+01 0.00000E+00
 -1      1741 1.18603E+02 2.69923E+01 0.00000E+00
 -1      1742 1.18475E+02 2.87503E+01 0.00000E+00
 -1      1743 1.18811E+02 3.05372E+01 0.00000E+00
 -1      1744 1.19481E+02 3.21896E+01 0.00000E+00
 -1      1745 1.20561E+02 3.36328E+01 0.00000E+00
 -1      1746 1.21821E+02 3.47796E+01 0.00000E+00
 -1      1747 1.23251E+02 3.56568E+01 0.00000E+00
 -1      1748 1.24812E+02 3.62219E+01 0.00000E+00
 -1      1749 1.26477E+02 3.64992E+01 0.00000E+00
 -1      1750 1.28168E+02 3.63848E+01 0.00000E+00
 -1      1751 1.29816E+02 3.58838E+01 0.00000E+00
 -1      1752 1.31283E+02 3.51244E+01 0.00000E+00
 -1      1753 1.32520E+02 3.40725E+01 0.00000E+00
 -1      1754 1.33537E+02 3.28493E+01 0.00000E+00
 -1      1755 1.34292E+02 3.14542E+01 0.00000E+00
 -1      1756 1.34765E+02 2.99197E+01 0.00000E+00
 -1      1757 2.87400E+00 4.77875E+01 0.00000E+00
 -1      1758 3.89700E+00 4.04125E+01 0.00000E+00
 -1      1759 3.89700E+00 4.18875E+01 0.00000E+00
 -1      1760 3.89700E+00 4.33625E+01 0.00000E+00
 -1      1761 3.89700E+00 4.48375E+01 0.00000E+00
 -1      1762 5.19600E+00 4.26250E+01 0.00000E+00
 -1      1763 3.89700E+00 3.45500E+01 0.00000E+00
 -1      1764 3.89700E+00 3.60000E+01 0.00000E+00
 -1      1765 3.89700E+00 3.16000E+01 0.00000E+00
 -1      1766 3.89700E+00 3.30750E+01 0.00000E+00
 -1      1767 5.19600E+00 3.38000E+01 0.00000E+00
 -1      1768 3.89700E+00 2.86500E+01 0.00000E+00
 -1      1769 3.89700E+00 3.01250E+01 0.00000E+00
 -1      1770 5.19600E+00 3.08500E+01 0.00000E+00
 -1      1771 3.89700E+00 2.57000E+01 0.00000E+00
 -1      1772 3.89700E+00 2.71750E+01 0.00000E+00
 -1      1773 5.19600E+00 2.79000E+01 0.00000E+00
 -1      1774 3.89700E+00 2.27500E+01 0.00000E+00
 -1      1775 3.89700E+00 2.42250E+01 0.00000E+00
 -1      1776 5.19600E+00 2.49500E+01 0.00000E+00
 -1      1777 3.89700E+00 1.98000E+01 0.00000E+00
 -1      1778 3.89700E+00 2.12750E+01 0.00000E+00
 -1      1779 5.19600E+00 2.20000E+01 0.00000E+00
 -1      1780 3.89700E+00 1.69000E+01 0.00000E+00
 -1      1781 3.89700E+00 1.83500E+01 0.00000E+00
 -1      1782 5.19600E+00 1.90750E+01 0.00000E+00
 -1      1783 3.89700E+00 1.39500E+01 0.00000E+00
 -1      1784 3.89700E+00 1.54250E+01 0.00000E+00
 -1      1785 5.19600E+00 1.61500E+01 0.00000E+00
 -1      1786 3.89700E+00 1.10000E+01 0.00000E+00
 -1      1787 3.89700E+00 1.24750E+01 0.00000E+00
 -1      1788 5.19600E+00 1.32000E+01 0.00000E+00
 -1      1789 3.89700E+00 8.05000E+00 0.00000E+00
 -1      1790 3.89700E+00 9.52500E+00 0.00000E+00
 -1      1791 5.19600E+00 1.02500E+01 0.00000E+00
 -1      1792 3.89700E+00 5.10000E+00 0.00000E+00
 -1      1793 3.89700E+00 6.57500E+00 0.00000E+00
 -1      1794 5.19600E+00 7.30000E+00 0.00000E+00
 -1      1795 4.20450E+00 3.09687E+00 0.00000E+00
 -1      1796 4.06650E+00 4.19063E+00 0.00000E+00
 -1      1797 5.36550E+00 4.91563E+00 0.00000E+00
 -1      1798 5.70450E+00 3.09687E+00 0.00000E+00
 -1      1799 3.62400E+00 4.64885E+01 0.00000E+00
 -1      1800 8.70450E+00 3.09687E+00 0.00000E+00
 -1      1801 7.20450E+00 3.09687E+00 0.00000E+00
 -1      1802 7.03500E+00 4.00625E+00 0.00000E+00
 -1      1803 4.92300E+00 4.57510E+01 0.00000E+00
 -1      1804 8.40000E+00 4.61030E+01 0.00000E+00
 -1      1805 9.90000E+00 4.61030E+01 0.00000E+00
 -1      1806 1.14000E+01 4.61030E+01 0.00000E+00
 -1      1807 1.29000E+01 4.61030E+01 0.00000E+00
 -1      1808 1.06500E+01 4.48040E+01 0.00000E+00
 -1      1809 1.44000E+01 4.61030E+01 0.00000E+00
 -1      1810 1.59000E+01 4.61030E+01 0.00000E+00
 -1      1811 1.36500E+01 4.48040E+01 0.00000E+00
 -1      1812 1.74000E+01 4.61030E+01 0.00000E+00
 -1      1813 1.89000E+01 4.61030E+01 0.00000E+00
 -1      1814 1.66500E+01 4.48040E+01 0.00000E+00
 -1      1815 2.04000E+01 4.61030E+01 0.00000E+00
 -1      1816 2.19000E+01 4.61030E+01 0.00000E+00
 -1      1817 1.96500E+01 4.48040E+01 0.00000E+00
 -1      1818 2.34000E+01 4.61030E+01 0.00000E+00
 -1      1819 2.49000E+01 4.61030E+01 0.00000E+00
 -1      1820 2.26500E+01 4.48040E+01 0.00000E+00
 -1      1821 2.64000E+01 4.61030E+01 0.00000E+00
 -1      1822 2.79000E+01 4.61030E+01 0.00000E+00
 -1      1823 2.56500E+01 4.48040E+01 0.00000E+00
 -1      1824 2.94000E+01 4.61030E+01 0.00000E+00
 -1      1825 3.09000E+01 4.61030E+01 0.00000E+00
 -1      1826 2.86500E+01 4.48040E+01 0.00000E+00
 -1      1827 3.24000E+01 4.61030E+01 0.00000E+00
 -1      1828 3.39000E+01 4.61030E+01 0.00000E+00
 -1      1829 3.16500E+01 4.48040E+01 0.00000E+00
 -1      1830 3.54000E+01 4.61030E+01 0.00000E+00
 -1      1831 3.69000E+01 4.61030E+01 0.00000E+00
 -1      1832 3.46500E+01 4.48040E+01 0.00000E+00
 -1      1833 3.84000E+01 4.61030E+01 0.00000E+00
 -1      1834 3.99000E+01 4.61030E+01 0.00000E+00
 -1      1835 3.76500E+01 4.48040E+01 0.00000E+00
 -1      1836 4.14000E+01 4.61030E+01 0.00000E+00
 -1      1837 4.29000E+01 4.61030E+01 0.00000E+00
 -1      1838 4.06500E+01 4.48040E+01 0.00000E+00
 -1      1839 4.44000E+01 4.61030E+01 0.00000E+00
 -1      1840 4.59000E+01 4.61030E+01 0.00000E+00
 -1      1841 4.36500E+01 4.48040E+01 0.00000E+00
 -1      1842 4.74000E+01 4.61030E+01 0.00000E+00
 -1      1843 4.89000E+01 4.61030E+01 0.00000E+00
 -1      1844 4.66500E+01 4.48040E+01 0.00000E+00
 -1      1845 5.04000E+01 4.61030E+01 0.00000E+00
 -1      1846 5.19000E+01 4.61030E+01 0.00000E+00
 -1      1847 4.96500E+01 4.48040E+01 0.00000E+00
 -1      1848 5.34000E+01 4.61030E+01 0.00000E+00
 -1      1849 5.49000E+01 4.61030E+01 0.00000E+00
 -1      1850 5.26500E+01 4.48040E+01 0.00000E+00
 -1      1851 5.64000E+01 4.61030E+01 0.00000E+00
 -1      1852 5.79000E+01 4.61030E+01 0.00000E+00
 -1      1853 5.56500E+01 4.48040E+01 0.00000E+00
 -1      1854 5.94000E+01 4.61030E+01 0.00000E+00
 -1      1855 6.09000E+01 4.61030E+01 0.00000E+00
 -1      1856 5.86500E+01 4.48040E+01 0.00000E+00
 -1      1857 6.24000E+01 4.61030E+01 0.00000E+00
 -1      1858 6.39000E+01 4.61030E+01 0.00000E+00
 -1      1859 6.16500E+01 4.48040E+01 0.00000E+00
 -1      1860 6.54000E+01 4.61030E+01 0.00000E+00
 -1      1861 6.69000E+01 4.61030E+01 0.00000E+00
 -1      1862 6.46500E+01 4.48040E+01 0.00000E+00
 -1      1863 6.84000E+01 4.61030E+01 0.00000E+00
 -1      1864 6.99000E+01 4.61030E+01 0.00000E+00
 -1      1865 6.76500E+01 4.48040E+01 0.00000E+00
 -1      1866 7.14000E+01 4.61030E+01 0.00000E+00
 -1      1867 7.29000E+01 4.61030E+01 0.00000E+00
 -1      1868 7.06500E+01 4.48040E+01 0.00000E+00
 -1      1869 7.44000E+01 4.61030E+01 0.00000E+00
 -1      1870 7.59000E+01 4.61030E+01 0.00000E+00
 -1      1871 7.36500E+01 4.48040E+01 0.00000E+00
 -1      1872 7.74000E+01 4.61030E+01 0.00000E+00
 -1      1873 7.89000E+01 4.61030E+01 0.00000E+00
 -1      1874 7.66500E+01 4.48040E+01 0.00000E+00
 -1      1875 8.04000E+01 4.61030E+01 0.00000E+00
 -1      1876 8.19000E+01 4.61030E+01 0.00000E+00
 -1      1877 7.96500E+01 4.48040E+01 0.00000E+00
 -1      1878 8.34000E+01 4.61030E+01 0.00000E+00
 -1      1879 8.49000E+01 4.61030E+01 0.00000E+00
 -1      1880 8.26500E+01 4.48040E+01 0.00000E+00
 -1      1881 8.64000E+01 4.61030E+01 0.00000E+00
 -1      1882 8.79000E+01 4.61030E+01 0.00000E+00
 -1      1883 8.56500E+01 4.48040E+01 0.00000E+00
 -1      1884 8.94000E+01 4.61030E+01 0.00000E+00
 -1      1885 9.09000E+01 4.61030E+01 0.00000E+00
 -1      1886 8.86500E+01 4.48040E+01 0.00000E+00
 -1      1887 9.24000E+01 4.61030E+01 0.00000E+00
 -1      1888 9.39000E+01 4.61030E+01 0.00000E+00
 -1      1889 9.16500E+01 4.48040E+01 0.00000E+00
 -1      1890 9.54000E+01 4.61030E+01 0.00000E+00
 -1      1891 9.69000E+01 4.61030E+01 0.00000E+00
 -1      1892 9.46500E+01 4.48040E+01 0.00000E+00
 -1      1893 9.84000E+01 4.61030E+01 0.00000E+00
 -1      1894 9.99000E+01 4.61030E+01 0.00000E+00
 -1      1895 9.76500E+01 4.48040E+01 0.00000E+00
 -1      1896 1.01400E+02 4.61030E+01 0.00000E+00
 -1      1897 1.02900E+02 4.61030E+01 0.00000E+00
 -1      1898 1.00650E+02 4.48040E+01 0.00000E+00
 -1      1899 1.04400E+02 4.61030E+01 0.00000E+00
 -1      1900 1.05900E+02 4.61030E+01 0.00000E+00
 -1      1901 1.03650E+02 4.48040E+01 0.00000E+00
 -1      1902 1.07400E+02 4.61030E+01 0.00000E+00
 -1      1903 1.08900E+02 4.61030E+01 0.00000E+00
 -1      1904 1.06650E+02 4.48040E+01 0.00000E+00
 -1      1905 1.10400E+02 4.61030E+01 0.00000E+00
 -1      1906 1.11900E+02 4.61030E+01 0.00000E+00
 -1      1907 1.09650E+02 4.48040E+01 0.00000E+00
 -1      1908 1.13400E+02 4.61030E+01 0.00000E+00
 -1      1909 1.14900E+02 4.61030E+01 0.00000E+00
 -1      1910 1.12650E+02 4.48040E+01 0.00000E+00
 -1      1911 1.16400E+02 4.61030E+01 0.00000E+00
 -1      1912 1.17900E+02 4.61030E+01 0.00000E+00
 -1      1913 1.15650E+02 4.48040E+01 0.00000E+00
 -1      1914 1.19400E+02 4.61030E+01 0.00000E+00
 -1      1915 1.20900E+02 4.61030E+01 0.00000E+00
 -1      1916 1.18650E+02 4.48040E+01 0.00000E+00
 -1      1917 1.22400E+02 4.61030E+01 0.00000E+00
 -1      1918 1.23900E+02 4.61030E+01 0.00000E+00
 -1      1919 1.21650E+02 4.48040E+01 0.00000E+00
 -1      1920 1.25400E+02 4.61030E+01 0.00000E+00
 -1      1921 1.26900E+02 4.61030E+01 0.00000E+00
 -1      1922 1.24650E+02 4.48040E+01 0.00000E+00
 -1      1923 1.28400E+02 4.61030E+01 0.00000E+00
 -1      1924 1.29900E+02 4.61030E+01 0.00000E+00
 -1      1925 1.27650E+02 4.48040E+01 0.00000E+00
 -1      1926 1.31400E+02 4.61030E+01 0.00000E+00
 -1      1927 1.32900E+02 4.61030E+01 0.00000E+00
 -1      1928 1.30650E+02 4.48040E+01 0.00000E+00
 -1      1929 1.34400E+02 4.61030E+01 0.00000E+00
 -1      1930 1.35900E+02 4.61030E+01 0.00000E+00
 -1      1931 1.33650E+02 4.48040E+01 0.00000E+00
 -1      1932 1.37400E+02 4.61030E+01 0.00000E+00
 -1      1933 1.38900E+02 4.61030E+01 0.00000E+00
 -1      1934 1.36650E+02 4.48040E+01 0.00000E+00
 -1      1935 1.40400E+02 4.61030E+01 0.00000E+00
 -1      1936 1.41900E+02 4.61030E+01 0.00000E+00
 -1      1937 1.39650E+02 4.48040E+01 0.00000E+00
 -1      1938 1.43244E+02 4.61616E+01 0.00000E+00
 -1      1939 1.44744E+02 4.61616E+01 0.00000E+00
 -1      1940 1.45182E+02 4.49799E+01 0.00000E+00
 -1      1941 1.42494E+02 4.48626E+01 0.00000E+00
 -1      1942 1.17045E+01 3.09687E+00 0.00000E+00
 -1      1943 1.02045E+01 3.09687E+00 0.00000E+00
 -1      1944 1.00350E+01 4.00625E+00 0.00000E+00
 -1      1945 1.47045E+01 3.09687E+00 0.00000E+00
 -1      1946 1.32045E+01 3.09687E+00 0.00000E+00
 -1      1947 1.30350E+01 4.00625E+00 0.00000E+00
 -1      1948 1.77045E+01 3.09687E+00 0.00000E+00
 -1      1949 1.62045E+01 3.09687E+00 0.00000E+00
 -1      1950 1.60350E+01 4.00625E+00 0.00000E+00
 -1      1951 2.07045E+01 3.09687E+00 0.00000E+00
 -1      1952 1.92045E+01 3.09687E+00 0.00000E+00
 -1      1953 1.90350E+01 4.00625E+00 0.00000E+00
 -1      1954 2.37045E+01 3.09687E+00 0.00000E+00
 -1      1955 2.22045E+01 3.09687E+00 0.00000E+00
 -1      1956 2.20350E+01 4.00625E+00 0.00000E+00
 -1      1957 2.67045E+01 3.09687E+00 0.00000E+00
 -1      1958 2.52045E+01 3.09687E+00 0.00000E+00
 -1      1959 2.50350E+01 4.00625E+00 0.00000E+00
 -1      1960 2.97045E+01 3.09687E+00 0.00000E+00
 -1      1961 2.82045E+01 3.09687E+00 0.00000E+00
 -1      1962 2.80350E+01 4.00625E+00 0.00000E+00
 -1      1963 3.27045E+01 3.09687E+00 0.00000E+00
 -1      1964 3.12045E+01 3.09687E+00 0.00000E+00
 -1      1965 3.10350E+01 4.00625E+00 0.00000E+00
 -1      1966 3.57045E+01 3.09687E+00 0.00000E+00
 -1      1967 3.42045E+01 3.09687E+00 0.00000E+00
 -1      1968 3.40350E+01 4.00625E+00 0.00000E+00
 -1      1969 3.87045E+01 3.09687E+00 0.00000E+00
 -1      1970 3.72045E+01 3.09687E+00 0.00000E+00
 -1      1971 3.70350E+01 4.00625E+00 0.00000E+00
 -1      1972 4.17045E+01 3.09687E+00 0.00000E+00
 -1      1973 4.02045E+01 3.09687E+00 0.00000E+00
 -1      1974 4.00350E+01 4.00625E+00 0.00000E+00
 -1      1975 4.47045E+01 3.09687E+00 0.00000E+00
 -1      1976 4.32045E+01 3.09687E+00 0.00000E+00
 -1      1977 4.30350E+01 4.00625E+00 0.00000E+00
 -1      1978 4.77045E+01 3.09687E+00 0.00000E+00
 -1      1979 4.62045E+01 3.09687E+00 0.00000E+00
 -1      1980 4.60350E+01 4.00625E+00 0.00000E+00
 -1      1981 5.07045E+01 3.09687E+00 0.00000E+00
 -1      1982 4.92045E+01 3.09687E+00 0.00000E+00
 -1      1983 4.90350E+01 4.00625E+00 0.00000E+00
 -1      1984 5.37045E+01 3.09687E+00 0.00000E+00
 -1      1985 5.22045E+01 3.09687E+00 0.00000E+00
 -1      1986 5.20350E+01 4.00625E+00 0.00000E+00
 -1      1987 5.67045E+01 3.09687E+00 0.00000E+00
 -1      1988 5.52045E+01 3.09687E+00 0.00000E+00
 -1      1989 5.50350E+01 4.00625E+00 0.00000E+00
 -1      1990 5.97045E+01 3.09687E+00 0.00000E+00
 -1      1991 5.82045E+01 3.09687E+00 0.00000E+00
 -1      1992 5.80350E+01 4.00625E+00 0.00000E+00
 -1      1993 6.27045E+01 3.09687E+00 0.00000E+00
 -1      1994 6.12045E+01 3.09687E+00 0.00000E+00
 -1      1995 6.10350E+01 4.00625E+00 0.00000E+00
 -1      1996 6.57045E+01 3.09687E+00 0.00000E+00
 -1      1997 6.42045E+01 3.09687E+00 0.00000E+00
 -1      1998 6.40350E+01 4.00625E+00 0.00000E+00
 -1      1999 6.87045E+01 3.09687E+00 0.00000E+00
 -1      2000 6.72045E+01 3.09687E+00 0.00000E+00
 -1      2001 6.70350E+01 4.00625E+00 0.00000E+00
 -1      2002 7.17045E+01 3.09687E+00 0.00000E+00
 -1      2003 7.02045E+01 3.09687E+00 0.00000E+00
 -1      2004 7.00350E+01 4.00625E+00 0.00000E+00
 -1      2005 7.47045E+01 3.09687E+00 0.00000E+00
 -1      2006 7.32045E+01 3.09687E+00 0.00000E+00
 -1      2007 7.30350E+01 4.00625E+00 0.00000E+00
 -1      2008 7.77045E+01 3.09687E+00 0.00000E+00
 -1      2009 7.62045E+01 3.09687E+00 0.00000E+00
 -1      2010 7.60350E+01 4.00625E+00 0.00000E+00
 -1      2011 8.07045E+01 3.09687E+00 0.00000E+00
 -1      2012 7.92045E+01 3.09687E+00 0.00000E+00
 -1      2013 7.90350E+01 4.00625E+00 0.00000E+00
 -1      2014 8.37045E+01 3.09687E+00 0.00000E+00
 -1      2015 8.22045E+01 3.09687E+00 0.00000E+00
 -1      2016 8.20350E+01 4.00625E+00 0.00000E+00
 -1      2017 8.67045E+01 3.09687E+00 0.00000E+00
 -1      2018 8.52045E+01 3.09687E+00 0.00000E+00
 -1      2019 8.50350E+01 4.00625E+00 0.00000E+00
 -1      2020 8.97045E+01 3.09687E+00 0.00000E+00
 -1      2021 8.82045E+01 3.09687E+00 0.00000E+00
 -1      2022 8.80350E+01 4.00625E+00 0.00000E+00
 -1      2023 9.27045E+01 3.09687E+00 0.00000E+00
 -1      2024 9.12045E+01 3.09687E+00 0.00000E+00
 -1      2025 9.10350E+01 4.00625E+00 0.00000E+00
 -1      2026 9.57045E+01 3.09687E+00 0.00000E+00
 -1      2027 9.42045E+01 3.09687E+00 0.00000E+00
 -1      2028 9.40350E+01 4.00625E+00 0.00000E+00
 -1      2029 9.87045E+01 3.09687E+00 0.00000E+00
 -1      2030 9.72045E+01 3.09687E+00 0.00000E+00
 -1      2031 9.70350E+01 4.00625E+00 0.00000E+00
 -1      2032 1.01704E+02 3.09687E+00 0.00000E+00
 -1      2033 1.00204E+02 3.09687E+00 0.00000E+00
 -1      2034 1.00035E+02 4.00625E+00 0.00000E+00
 -1      2035 1.04704E+02 3.09687E+00 0.00000E+00
 -1      2036 1.03204E+02 3.09687E+00 0.00000E+00
 -1      2037 1.03035E+02 4.00625E+00 0.00000E+00
 -1      2038 1.07704E+02 3.09687E+00 0.00000E+00
 -1      2039 1.06204E+02 3.09687E+00 0.00000E+00
 -1      2040 1.06035E+02 4.00625E+00 0.00000E+00
 -1      2041 1.10704E+02 3.09687E+00 0.00000E+00
 -1      2042 1.09204E+02 3.09687E+00 0.00000E+00
 -1      2043 1.09035E+02 4.00625E+00 0.00000E+00
 -1      2044 1.13704E+02 3.09687E+00 0.00000E+00
 -1      2045 1.12204E+02 3.09687E+00 0.00000E+00
 -1      2046 1.12035E+02 4.00625E+00 0.00000E+00
 -1      2047 1.16704E+02 3.09687E+00 0.00000E+00
 -1      2048 1.15204E+02 3.09687E+00 0.00000E+00
 -1      2049 1.15035E+02 4.00625E+00 0.00000E+00
 -1      2050 1.19704E+02 3.09687E+00 0.00000E+00
 -1      2051 1.18204E+02 3.09687E+00 0.00000E+00
 -1      2052 1.18035E+02 4.00625E+00 0.00000E+00
 -1      2053 1.22704E+02 3.09687E+00 0.00000E+00
 -1      2054 1.21204E+02 3.09687E+00 0.00000E+00
 -1      2055 1.21035E+02 4.00625E+00 0.00000E+00
 -1      2056 1.25704E+02 3.09687E+00 0.00000E+00
 -1      2057 1.24204E+02 3.09687E+00 0.00000E+00
 -1      2058 1.24035E+02 4.00625E+00 0.00000E+00
 -1      2059 1.28704E+02 3.09687E+00 0.00000E+00
 -1      2060 1.27204E+02 3.09687E+00 0.00000E+00
 -1      2061 1.27035E+02 4.00625E+00 0.00000E+00
 -1      2062 1.31704E+02 3.09687E+00 0.00000E+00
 -1      2063 1.30204E+02 3.09687E+00 0.00000E+00
 -1      2064 1.30035E+02 4.00625E+00 0.00000E+00
 -1      2065 1.34704E+02 3.09687E+00 0.00000E+00
 -1      2066 1.33204E+02 3.09687E+00 0.00000E+00
 -1      2067 1.33035E+02 4.00625E+00 0.00000E+00
 -1      2068 1.37704E+02 3.09687E+00 0.00000E+00
 -1      2069 1.36204E+02 3.09687E+00 0.00000E+00
 -1      2070 1.36035E+02 4.00625E+00 0.00000E+00
 -1      2071 1.40704E+02 3.09687E+00 0.00000E+00
 -1      2072 1.39204E+02 3.09687E+00 0.00000E+00
 -1      2073 1.39035E+02 4.00625E+00 0.00000E+00
 -1      2074 1.43704E+02 3.09687E+00 0.00000E+00
 -1      2075 1.42204E+02 3.09687E+00 0.00000E+00
 -1      2076 1.42035E+02 4.00625E+00 0.00000E+00
 -1      2077 1.46171E+02 3.20156E+00 0.00000E+00
 -1      2078 1.44671E+02 3.20156E+00 0.00000E+00
 -1      2079 1.44502E+02 4.11094E+00 0.00000E+00
 -1      2080 1.46435E+02 4.32031E+00 0.00000E+00
 -1      2081 1.46103E+02 1.25375E+01 0.00000E+00
 -1      2082 1.46103E+02 1.10625E+01 0.00000E+00
 -1      2083 1.46103E+02 9.58750E+00 0.00000E+00
 -1      2084 1.46103E+02 8.11250E+00 0.00000E+00
 -1      2085 1.44804E+02 1.03250E+01 0.00000E+00
 -1      2086 1.46269E+02 6.95391E+00 0.00000E+00
 -1      2087 1.46269E+02 5.47891E+00 0.00000E+00
 -1      2088 1.45302E+02 5.37422E+00 0.00000E+00
 -1      2089 1.44970E+02 7.69141E+00 0.00000E+00
 -1      2090 1.46103E+02 1.54375E+01 0.00000E+00
 -1      2091 1.46103E+02 1.39875E+01 0.00000E+00
 -1      2092 1.44804E+02 1.32500E+01 0.00000E+00
 -1      2093 1.46103E+02 1.83875E+01 0.00000E+00
 -1      2094 1.46103E+02 1.69125E+01 0.00000E+00
 -1      2095 1.44804E+02 1.61750E+01 0.00000E+00
 -1      2096 1.46103E+02 2.13375E+01 0.00000E+00
 -1      2097 1.46103E+02 1.98625E+01 0.00000E+00
 -1      2098 1.44804E+02 1.91250E+01 0.00000E+00
 -1      2099 1.46103E+02 2.42875E+01 0.00000E+00
 -1      2100 1.46103E+02 2.28125E+01 0.00000E+00
 -1      2101 1.44804E+02 2.20750E+01 0.00000E+00
 -1      2102 1.46103E+02 2.72375E+01 0.00000E+00
 -1      2103 1.46103E+02 2.57625E+01 0.00000E+00
 -1      2104 1.44804E+02 2.50250E+01 0.00000E+00
 -1      2105 1.46103E+02 3.01875E+01 0.00000E+00
 -1      2106 1.46103E+02 2.87125E+01 0.00000E+00
 -1      2107 1.44804E+02 2.79750E+01 0.00000E+00
 -1      2108 1.46103E+02 3.30875E+01 0.00000E+00
 -1      2109 1.46103E+02 3.16375E+01 0.00000E+00
 -1      2110 1.44804E+02 3.09000E+01 0.00000E+00
 -1      2111 1.46103E+02 3.60375E+01 0.00000E+00
 -1      2112 1.46103E+02 3.45625E+01 0.00000E+00
 -1      2113 1.44804E+02 3.38250E+01 0.00000E+00
 -1      2114 1.46103E+02 3.89875E+01 0.00000E+00
 -1      2115 1.46103E+02 3.75125E+01 0.00000E+00
 -1      2116 1.44804E+02 3.67750E+01 0.00000E+00
 -1      2117 1.46103E+02 4.19375E+01 0.00000E+00
 -1      2118 1.46103E+02 4.04625E+01 0.00000E+00
 -1      2119 1.44804E+02 3.97250E+01 0.00000E+00
 -1      2120 1.34890E+02 2.40799E+01 0.00000E+00
 -1      2121 1.35163E+02 2.49441E+01 0.00000E+00
 -1      2122 1.35799E+02 2.78752E+01 0.00000E+00
 -1      2123 1.35643E+02 2.87794E+01 0.00000E+00
 -1      2124 1.35481E+02 2.58025E+01 0.00000E+00
 -1      2125 1.35799E+02 2.66609E+01 0.00000E+00
 -1      2126 1.36043E+02 2.51501E+01 0.00000E+00
 -1      2127 1.33792E+02 2.22288E+01 0.00000E+00
 -1      2128 1.34404E+02 2.29523E+01 0.00000E+00
 -1      2129 1.32362E+02 2.08905E+01 0.00000E+00
 -1      2130 1.33041E+02 2.15089E+01 0.00000E+00
 -1      2131 3.89700E+00 3.74688E+01 0.00000E+00
 -1      2132 3.89700E+00 3.89437E+01 0.00000E+00
 -1      2133 5.19600E+00 3.96813E+01 0.00000E+00
 -1      2134 5.19600E+00 3.67438E+01 0.00000E+00
 -1      2135 1.28775E+02 1.93180E+01 0.00000E+00
 -1      2136 1.29646E+02 1.96320E+01 0.00000E+00
 -1      2137 1.26622E+02 1.92783E+01 0.00000E+00
 -1      2138 1.27524E+02 1.91963E+01 0.00000E+00
 -1      2139 1.24897E+02 1.94134E+01 0.00000E+00
 -1      2140 1.25760E+02 1.93458E+01 0.00000E+00
 -1      2141 1.26137E+02 1.84926E+01 0.00000E+00
 -1      2142 1.23033E+02 2.01864E+01 0.00000E+00
 -1      2143 1.23833E+02 1.98214E+01 0.00000E+00
 -1      2144 1.21421E+02 2.10719E+01 0.00000E+00
 -1      2145 1.22132E+02 2.05937E+01 0.00000E+00
 -1      2146 1.20119E+02 2.24049E+01 0.00000E+00
 -1      2147 1.20672E+02 2.17801E+01 0.00000E+00
 -1      2148 1.19156E+02 2.37555E+01 0.00000E+00
 -1      2149 1.19637E+02 2.30802E+01 0.00000E+00
 -1      2150 1.19366E+02 2.22825E+01 0.00000E+00
 -1      2151 1.18379E+02 2.55270E+01 0.00000E+00
 -1      2152 1.18641E+02 2.47337E+01 0.00000E+00
 -1      2153 1.17777E+02 2.72321E+01 0.00000E+00
 -1      2154 1.18078E+02 2.63795E+01 0.00000E+00
 -1      2155 1.17554E+02 2.57668E+01 0.00000E+00
 -1      2156 1.17844E+02 2.93411E+01 0.00000E+00
 -1      2157 1.17670E+02 2.84357E+01 0.00000E+00
 -1      2158 1.18167E+02 3.11040E+01 0.00000E+00
 -1      2159 1.18006E+02 3.02226E+01 0.00000E+00
 -1      2160 1.17200E+02 2.99080E+01 0.00000E+00
 -1      2161 1.19159E+02 3.29549E+01 0.00000E+00
 -1      2162 1.18651E+02 3.21839E+01 0.00000E+00
 -1      2163 1.20257E+02 3.44699E+01 0.00000E+00
 -1      2164 1.19686E+02 3.37976E+01 0.00000E+00
 -1      2165 1.21774E+02 3.55851E+01 0.00000E+00
 -1      2166 1.21085E+02 3.51105E+01 0.00000E+00
 -1      2167 1.23292E+02 3.64644E+01 0.00000E+00
 -1      2168 1.22551E+02 3.60619E+01 0.00000E+00
 -1      2169 1.25087E+02 3.69800E+01 0.00000E+00
 -1      2170 1.24268E+02 3.68174E+01 0.00000E+00
 -1      2171 1.26778E+02 3.72093E+01 0.00000E+00
 -1      2172 1.25932E+02 3.70947E+01 0.00000E+00
 -1      2173 1.25388E+02 3.76901E+01 0.00000E+00
 -1      2174 1.28793E+02 3.70172E+01 0.00000E+00
 -1      2175 1.27947E+02 3.72462E+01 0.00000E+00
 -1      2176 1.30397E+02 3.64732E+01 0.00000E+00
 -1      2177 1.29595E+02 3.67452E+01 0.00000E+00
 -1      2178 1.29374E+02 3.76066E+01 0.00000E+00
 -1      2179 1.32123E+02 3.55725E+01 0.00000E+00
 -1      2180 1.31458E+02 3.60599E+01 0.00000E+00
 -1      2181 1.33262E+02 3.42514E+01 0.00000E+00
 -1      2182 1.32690E+02 3.48159E+01 0.00000E+00
 -1      2183 1.34331E+02 3.29059E+01 0.00000E+00
 -1      2184 1.33886E+02 3.35647E+01 0.00000E+00
 -1      2185 1.35161E+02 3.13870E+01 0.00000E+00
 -1      2186 1.34850E+02 3.21233E+01 0.00000E+00
 -1      2187 1.35481E+02 2.95776E+01 0.00000E+00
 -1      2188 1.35320E+02 3.03758E+01 0.00000E+00
 -1      2189 1.36198E+02 2.92354E+01 0.00000E+00
 -1      2190 1.30487E+02 1.99264E+01 0.00000E+00
 -1      2191 1.31329E+02 2.02207E+01 0.00000E+00
 -1      2192 1.30343E+02 1.89627E+01 0.00000E+00
 -1      2193 1.32218E+02 1.99269E+01 0.00000E+00
 -1      2194 6.42300E+00 4.57510E+01 0.00000E+00
 -1      2195 7.17300E+00 4.44520E+01 0.00000E+00
 -1      2196 1.36360E+02 2.72229E+01 0.00000E+00
 -1      2197 1.36921E+02 2.77849E+01 0.00000E+00
 -1      2198 1.36922E+02 2.65706E+01 0.00000E+00
 -1      2199 1.35238E+02 2.31641E+01 0.00000E+00
 -1      2200 1.45665E+02 4.31193E+01 0.00000E+00
 -1      2201 1.34001E+02 2.13166E+01 0.00000E+00
 -1      2202 1.35877E+02 3.10449E+01 0.00000E+00
 -1      2203 1.35199E+02 3.28387E+01 0.00000E+00
 -1      2204 1.34056E+02 3.43081E+01 0.00000E+00
 -1      2205 1.31237E+02 3.69213E+01 0.00000E+00
 -1      2206 1.27403E+02 3.78417E+01 0.00000E+00
 -1      2207 1.23568E+02 3.72225E+01 0.00000E+00
 -1      2208 1.21815E+02 3.63927E+01 0.00000E+00
 -1      2209 1.20210E+02 3.52753E+01 0.00000E+00
 -1      2210 1.17845E+02 3.18693E+01 0.00000E+00
 -1      2211 1.17145E+02 2.78229E+01 0.00000E+00
 -1      2212 1.16621E+02 2.72102E+01 0.00000E+00
 -1      2213 1.16514E+02 2.84137E+01 0.00000E+00
 -1      2214 1.18370E+02 2.39360E+01 0.00000E+00
 -1      2215 1.20596E+02 2.08990E+01 0.00000E+00
 -1      2216 1.24211E+02 1.89681E+01 0.00000E+00
 -1      2217 1.28250E+02 1.85467E+01 0.00000E+00
 -1      2218 1.22246E+02 1.97834E+01 0.00000E+00
 -1      2219 1.18855E+02 3.37920E+01 0.00000E+00
 -1      2220 1.32864E+02 3.57514E+01 0.00000E+00
 -1      2221 1.07850E+01 5.30525E+00 0.00000E+00
 -1      2222 9.28500E+00 5.30525E+00 0.00000E+00
 -1      2223 6.49500E+00 3.01125E+01 0.00000E+00
 -1      2224 6.49500E+00 3.15875E+01 0.00000E+00
 -1      2225 6.49500E+00 3.30625E+01 0.00000E+00
 -1      2226 6.49500E+00 3.45375E+01 0.00000E+00
 -1      2227 7.79400E+00 3.23250E+01 0.00000E+00
 -1      2228 6.49500E+00 2.42125E+01 0.00000E+00
 -1      2229 6.49500E+00 2.56875E+01 0.00000E+00
 -1      2230 6.49500E+00 2.12625E+01 0.00000E+00
 -1      2231 6.49500E+00 2.27375E+01 0.00000E+00
 -1      2232 7.79400E+00 2.34750E+01 0.00000E+00
 -1      2233 6.49500E+00 1.83625E+01 0.00000E+00
 -1      2234 6.49500E+00 1.98125E+01 0.00000E+00
 -1      2235 7.79400E+00 2.05500E+01 0.00000E+00
 -1      2236 6.49500E+00 1.54125E+01 0.00000E+00
 -1      2237 6.49500E+00 1.68875E+01 0.00000E+00
 -1      2238 7.79400E+00 1.76250E+01 0.00000E+00
 -1      2239 6.49500E+00 1.24625E+01 0.00000E+00
 -1      2240 6.49500E+00 1.39375E+01 0.00000E+00
 -1      2241 7.79400E+00 1.46750E+01 0.00000E+00
 -1      2242 6.49500E+00 9.51250E+00 0.00000E+00
 -1      2243 6.49500E+00 1.09875E+01 0.00000E+00
 -1      2244 7.79400E+00 1.17250E+01 0.00000E+00
 -1      2245 1.37850E+01 5.30525E+00 0.00000E+00
 -1      2246 1.22850E+01 5.30525E+00 0.00000E+00
 -1      2247 1.15350E+01 6.60425E+00 0.00000E+00
 -1      2248 9.90000E+00 4.35050E+01 0.00000E+00
 -1      2249 1.14000E+01 4.35050E+01 0.00000E+00
 -1      2250 6.55950E+00 4.28890E+01 0.00000E+00
 -1      2251 8.53650E+00 4.32410E+01 0.00000E+00
 -1      2252 9.28650E+00 4.19420E+01 0.00000E+00
 -1      2253 6.55950E+00 4.14140E+01 0.00000E+00
 -1      2254 1.32168E+02 1.88725E+01 0.00000E+00
 -1      2255 1.33201E+02 1.95423E+01 0.00000E+00
 -1      2256 1.29000E+01 4.35050E+01 0.00000E+00
 -1      2257 1.44000E+01 4.35050E+01 0.00000E+00
 -1      2258 1.21500E+01 4.22060E+01 0.00000E+00
 -1      2259 1.59000E+01 4.35050E+01 0.00000E+00
 -1      2260 1.74000E+01 4.35050E+01 0.00000E+00
 -1      2261 1.51500E+01 4.22060E+01 0.00000E+00
 -1      2262 1.89000E+01 4.35050E+01 0.00000E+00
 -1      2263 2.04000E+01 4.35050E+01 0.00000E+00
 -1      2264 1.81500E+01 4.22060E+01 0.00000E+00
 -1      2265 2.19000E+01 4.35050E+01 0.00000E+00
 -1      2266 2.34000E+01 4.35050E+01 0.00000E+00
 -1      2267 2.11500E+01 4.22060E+01 0.00000E+00
 -1      2268 2.49000E+01 4.35050E+01 0.00000E+00
 -1      2269 2.64000E+01 4.35050E+01 0.00000E+00
 -1      2270 2.41500E+01 4.22060E+01 0.00000E+00
 -1      2271 2.79000E+01 4.35050E+01 0.00000E+00
 -1      2272 2.94000E+01 4.35050E+01 0.00000E+00
 -1      2273 2.71500E+01 4.22060E+01 0.00000E+00
 -1      2274 3.09000E+01 4.35050E+01 0.00000E+00
 -1      2275 3.24000E+01 4.35050E+01 0.00000E+00
 -1      2276 3.01500E+01 4.22060E+01 0.00000E+00
 -1      2277 3.39000E+01 4.35050E+01 0.00000E+00
 -1      2278 3.54000E+01 4.35050E+01 0.00000E+00
 -1      2279 3.31500E+01 4.22060E+01 0.00000E+00
 -1      2280 3.69000E+01 4.35050E+01 0.00000E+00
 -1      2281 3.84000E+01 4.35050E+01 0.00000E+00
 -1      2282 3.61500E+01 4.22060E+01 0.00000E+00
 -1      2283 3.99000E+01 4.35050E+01 0.00000E+00
 -1      2284 4.14000E+01 4.35050E+01 0.00000E+00
 -1      2285 3.91500E+01 4.22060E+01 0.00000E+00
 -1      2286 4.29000E+01 4.35050E+01 0.00000E+00
 -1      2287 4.44000E+01 4.35050E+01 0.00000E+00
 -1      2288 4.21500E+01 4.22060E+01 0.00000E+00
 -1      2289 4.59000E+01 4.35050E+01 0.00000E+00
 -1      2290 4.74000E+01 4.35050E+01 0.00000E+00
 -1      2291 4.51500E+01 4.22060E+01 0.00000E+00
 -1      2292 4.89000E+01 4.35050E+01 0.00000E+00
 -1      2293 5.04000E+01 4.35050E+01 0.00000E+00
 -1      2294 4.81500E+01 4.22060E+01 0.00000E+00
 -1      2295 5.19000E+01 4.35050E+01 0.00000E+00
 -1      2296 5.34000E+01 4.35050E+01 0.00000E+00
 -1      2297 5.11500E+01 4.22060E+01 0.00000E+00
 -1      2298 5.49000E+01 4.35050E+01 0.00000E+00
 -1      2299 5.64000E+01 4.35050E+01 0.00000E+00
 -1      2300 5.41500E+01 4.22060E+01 0.00000E+00
 -1      2301 5.79000E+01 4.35050E+01 0.00000E+00
 -1      2302 5.94000E+01 4.35050E+01 0.00000E+00
 -1      2303 5.71500E+01 4.22060E+01 0.00000E+00
 -1      2304 6.09000E+01 4.35050E+01 0.00000E+00
 -1      2305 6.24000E+01 4.35050E+01 0.00000E+00
 -1      2306 6.01500E+01 4.22060E+01 0.00000E+00
 -1      2307 6.39000E+01 4.35050E+01 0.00000E+00
 -1      2308 6.54000E+01 4.35050E+01 0.00000E+00
 -1      2309 6.31500E+01 4.22060E+01 0.00000E+00
 -1      2310 6.69000E+01 4.35050E+01 0.00000E+00
 -1      2311 6.84000E+01 4.35050E+01 0.00000E+00
 -1      2312 6.61500E+01 4.22060E+01 0.00000E+00
 -1      2313 6.99000E+01 4.35050E+01 0.00000E+00
 -1      2314 7.14000E+01 4.35050E+01 0.00000E+00
 -1      2315 6.91500E+01 4.22060E+01 0.00000E+00
 -1      2316 7.29000E+01 4.35050E+01 0.00000E+00
 -1      2317 7.44000E+01 4.35050E+01 0.00000E+00
 -1      2318 7.21500E+01 4.22060E+01 0.00000E+00
 -1      2319 7.59000E+01 4.35050E+01 0.00000E+00
 -1      2320 7.74000E+01 4.35050E+01 0.00000E+00
 -1      2321 7.51500E+01 4.22060E+01 0.00000E+00
 -1      2322 7.89000E+01 4.35050E+01 0.00000E+00
 -1      2323 8.04000E+01 4.35050E+01 0.00000E+00
 -1      2324 7.81500E+01 4.22060E+01 0.00000E+00
 -1      2325 8.19000E+01 4.35050E+01 0.00000E+00
 -1      2326 8.34000E+01 4.35050E+01 0.00000E+00
 -1      2327 8.11500E+01 4.22060E+01 0.00000E+00
 -1      2328 8.49000E+01 4.35050E+01 0.00000E+00
 -1      2329 8.64000E+01 4.35050E+01 0.00000E+00
 -1      2330 8.41500E+01 4.22060E+01 0.00000E+00
 -1      2331 8.79000E+01 4.35050E+01 0.00000E+00
 -1      2332 8.94000E+01 4.35050E+01 0.00000E+00
 -1      2333 8.71500E+01 4.22060E+01 0.00000E+00
 -1      2334 9.09000E+01 4.35050E+01 0.00000E+00
 -1      2335 9.24000E+01 4.35050E+01 0.00000E+00
 -1      2336 9.01500E+01 4.22060E+01 0.00000E+00
 -1      2337 9.39000E+01 4.35050E+01 0.00000E+00
 -1      2338 9.54000E+01 4.35050E+01 0.00000E+00
 -1      2339 9.31500E+01 4.22060E+01 0.00000E+00
 -1      2340 9.69000E+01 4.35050E+01 0.00000E+00
 -1      2341 9.84000E+01 4.35050E+01 0.00000E+00
 -1      2342 9.61500E+01 4.22060E+01 0.00000E+00
 -1      2343 9.99000E+01 4.35050E+01 0.00000E+00
 -1      2344 1.01400E+02 4.35050E+01 0.00000E+00
 -1      2345 9.91500E+01 4.22060E+01 0.00000E+00
 -1      2346 1.02900E+02 4.35050E+01 0.00000E+00
 -1      2347 1.04400E+02 4.35050E+01 0.00000E+00
 -1      2348 1.02150E+02 4.22060E+01 0.00000E+00
 -1      2349 1.05900E+02 4.35050E+01 0.00000E+00
 -1      2350 1.07400E+02 4.35050E+01 0.00000E+00
 -1      2351 1.05150E+02 4.22060E+01 0.00000E+00
 -1      2352 1.08900E+02 4.35050E+01 0.00000E+00
 -1      2353 1.10400E+02 4.35050E+01 0.00000E+00
 -1      2354 1.08150E+02 4.22060E+01 0.00000E+00
 -1      2355 1.11900E+02 4.35050E+01 0.00000E+00
 -1      2356 1.13400E+02 4.35050E+01 0.00000E+00
 -1      2357 1.11150E+02 4.22060E+01 0.00000E+00
 -1      2358 1.14900E+02 4.35050E+01 0.00000E+00
 -1      2359 1.16400E+02 4.35050E+01 0.00000E+00
 -1      2360 1.14150E+02 4.22060E+01 0.00000E+00
 -1      2361 1.17900E+02 4.35050E+01 0.00000E+00
 -1      2362 1.19400E+02 4.35050E+01 0.00000E+00
 -1      2363 1.17150E+02 4.22060E+01 0.00000E+00
 -1      2364 1.20900E+02 4.35050E+01 0.00000E+00
 -1      2365 1.22400E+02 4.35050E+01 0.00000E+00
 -1      2366 1.20150E+02 4.22060E+01 0.00000E+00
 -1      2367 1.23900E+02 4.35050E+01 0.00000E+00
 -1      2368 1.25400E+02 4.35050E+01 0.00000E+00
 -1      2369 1.23150E+02 4.22060E+01 0.00000E+00
 -1      2370 1.26900E+02 4.35050E+01 0.00000E+00
 -1      2371 1.28400E+02 4.35050E+01 0.00000E+00
 -1      2372 1.26150E+02 4.22060E+01 0.00000E+00
 -1      2373 1.29900E+02 4.35050E+01 0.00000E+00
 -1      2374 1.31400E+02 4.35050E+01 0.00000E+00
 -1      2375 1.29150E+02 4.22060E+01 0.00000E+00
 -1      2376 1.32900E+02 4.35050E+01 0.00000E+00
 -1      2377 1.34400E+02 4.35050E+01 0.00000E+00
 -1      2378 1.32150E+02 4.22060E+01 0.00000E+00
 -1      2379 1.35900E+02 4.35050E+01 0.00000E+00
 -1      2380 1.37400E+02 4.35050E+01 0.00000E+00
 -1      2381 1.35150E+02 4.22060E+01 0.00000E+00
 -1      2382 1.38900E+02 4.35050E+01 0.00000E+00
 -1      2383 1.40400E+02 4.35050E+01 0.00000E+00
 -1      2384 1.38150E+02 4.22060E+01 0.00000E+00
 -1      2385 1.36648E+02 2.44374E+01 0.00000E+00
 -1      2386 1.36967E+02 2.52958E+01 0.00000E+00
 -1      2387 1.97850E+01 5.30525E+00 0.00000E+00
 -1      2388 1.82850E+01 5.30525E+00 0.00000E+00
 -1      2389 2.27850E+01 5.30525E+00 0.00000E+00
 -1      2390 2.12850E+01 5.30525E+00 0.00000E+00
 -1      2391 2.05350E+01 6.60425E+00 0.00000E+00
 -1      2392 2.57850E+01 5.30525E+00 0.00000E+00
 -1      2393 2.42850E+01 5.30525E+00 0.00000E+00
 -1      2394 2.35350E+01 6.60425E+00 0.00000E+00
 -1      2395 2.87850E+01 5.30525E+00 0.00000E+00
 -1      2396 2.72850E+01 5.30525E+00 0.00000E+00
 -1      2397 2.65350E+01 6.60425E+00 0.00000E+00
 -1      2398 3.17850E+01 5.30525E+00 0.00000E+00
 -1      2399 3.02850E+01 5.30525E+00 0.00000E+00
 -1      2400 2.95350E+01 6.60425E+00 0.00000E+00
 -1      2401 3.47850E+01 5.30525E+00 0.00000E+00
 -1      2402 3.32850E+01 5.30525E+00 0.00000E+00
 -1      2403 3.25350E+01 6.60425E+00 0.00000E+00
 -1      2404 3.77850E+01 5.30525E+00 0.00000E+00
 -1      2405 3.62850E+01 5.30525E+00 0.00000E+00
 -1      2406 3.55350E+01 6.60425E+00 0.00000E+00
 -1      2407 4.07850E+01 5.30525E+00 0.00000E+00
 -1      2408 3.92850E+01 5.30525E+00 0.00000E+00
 -1      2409 3.85350E+01 6.60425E+00 0.00000E+00
 -1      2410 4.37850E+01 5.30525E+00 0.00000E+00
 -1      2411 4.22850E+01 5.30525E+00 0.00000E+00
 -1      2412 4.15350E+01 6.60425E+00 0.00000E+00
 -1      2413 4.67850E+01 5.30525E+00 0.00000E+00
 -1      2414 4.52850E+01 5.30525E+00 0.00000E+00
 -1      2415 4.45350E+01 6.60425E+00 0.00000E+00
 -1      2416 4.97850E+01 5.30525E+00 0.00000E+00
 -1      2417 4.82850E+01 5.30525E+00 0.00000E+00
 -1      2418 4.75350E+01 6.60425E+00 0.00000E+00
 -1      2419 5.27850E+01 5.30525E+00 0.00000E+00
 -1      2420 5.12850E+01 5.30525E+00 0.00000E+00
 -1      2421 5.05350E+01 6.60425E+00 0.00000E+00
 -1      2422 5.57850E+01 5.30525E+00 0.00000E+00
 -1      2423 5.42850E+01 5.30525E+00 0.00000E+00
 -1      2424 5.35350E+01 6.60425E+00 0.00000E+00
 -1      2425 5.87850E+01 5.30525E+00 0.00000E+00
 -1      2426 5.72850E+01 5.30525E+00 0.00000E+00
 -1      2427 5.65350E+01 6.60425E+00 0.00000E+00
 -1      2428 6.17850E+01 5.30525E+00 0.00000E+00
 -1      2429 6.02850E+01 5.30525E+00 0.00000E+00
 -1      2430 5.95350E+01 6.60425E+00 0.00000E+00
 -1      2431 6.47850E+01 5.30525E+00 0.00000E+00
 -1      2432 6.32850E+01 5.30525E+00 0.00000E+00
 -1      2433 6.25350E+01 6.60425E+00 0.00000E+00
 -1      2434 6.77850E+01 5.30525E+00 0.00000E+00
 -1      2435 6.62850E+01 5.30525E+00 0.00000E+00
 -1      2436 6.55350E+01 6.60425E+00 0.00000E+00
 -1      2437 7.07850E+01 5.30525E+00 0.00000E+00
 -1      2438 6.92850E+01 5.30525E+00 0.00000E+00
 -1      2439 6.85350E+01 6.60425E+00 0.00000E+00
 -1      2440 7.37850E+01 5.30525E+00 0.00000E+00
 -1      2441 7.22850E+01 5.30525E+00 0.00000E+00
 -1      2442 7.15350E+01 6.60425E+00 0.00000E+00
 -1      2443 7.67850E+01 5.30525E+00 0.00000E+00
 -1      2444 7.52850E+01 5.30525E+00 0.00000E+00
 -1      2445 7.45350E+01 6.60425E+00 0.00000E+00
 -1      2446 7.97850E+01 5.30525E+00 0.00000E+00
 -1      2447 7.82850E+01 5.30525E+00 0.00000E+00
 -1      2448 7.75350E+01 6.60425E+00 0.00000E+00
 -1      2449 8.27850E+01 5.30525E+00 0.00000E+00
 -1      2450 8.12850E+01 5.30525E+00 0.00000E+00
 -1      2451 8.05350E+01 6.60425E+00 0.00000E+00
 -1      2452 8.57850E+01 5.30525E+00 0.00000E+00
 -1      2453 8.42850E+01 5.30525E+00 0.00000E+00
 -1      2454 8.35350E+01 6.60425E+00 0.00000E+00
 -1      2455 8.87850E+01 5.30525E+00 0.00000E+00
 -1      2456 8.72850E+01 5.30525E+00 0.00000E+00
 -1      2457 8.65350E+01 6.60425E+00 0.00000E+00
 -1      2458 9.17850E+01 5.30525E+00 0.00000E+00
 -1      2459 9.02850E+01 5.30525E+00 0.00000E+00
 -1      2460 8.95350E+01 6.60425E+00 0.00000E+00
 -1      2461 9.47850E+01 5.30525E+00 0.00000E+00
 -1      2462 9.32850E+01 5.30525E+00 0.00000E+00
 -1      2463 9.25350E+01 6.60425E+00 0.00000E+00
 -1      2464 9.77850E+01 5.30525E+00 0.00000E+00
 -1      2465 9.62850E+01 5.30525E+00 0.00000E+00
 -1      2466 9.55350E+01 6.60425E+00 0.00000E+00
 -1      2467 1.00785E+02 5.30525E+00 0.00000E+00
 -1      2468 9.92850E+01 5.30525E+00 0.00000E+00
 -1      2469 9.85350E+01 6.60425E+00 0.00000E+00
 -1      2470 1.03785E+02 5.30525E+00 0.00000E+00
 -1      2471 1.02285E+02 5.30525E+00 0.00000E+00
 -1      2472 1.01535E+02 6.60425E+00 0.00000E+00
 -1      2473 1.06785E+02 5.30525E+00 0.00000E+00
 -1      2474 1.05285E+02 5.30525E+00 0.00000E+00
 -1      2475 1.04535E+02 6.60425E+00 0.00000E+00
 -1      2476 1.09785E+02 5.30525E+00 0.00000E+00
 -1      2477 1.08285E+02 5.30525E+00 0.00000E+00
 -1      2478 1.07535E+02 6.60425E+00 0.00000E+00
 -1      2479 1.12785E+02 5.30525E+00 0.00000E+00
 -1      2480 1.11285E+02 5.30525E+00 0.00000E+00
 -1      2481 1.10535E+02 6.60425E+00 0.00000E+00
 -1      2482 1.15785E+02 5.30525E+00 0.00000E+00
 -1      2483 1.14285E+02 5.30525E+00 0.00000E+00
 -1      2484 1.13535E+02 6.60425E+00 0.00000E+00
 -1      2485 1.18785E+02 5.30525E+00 0.00000E+00
 -1      2486 1.17285E+02 5.30525E+00 0.00000E+00
 -1      2487 1.16535E+02 6.60425E+00 0.00000E+00
 -1      2488 1.21785E+02 5.30525E+00 0.00000E+00
 -1      2489 1.20285E+02 5.30525E+00 0.00000E+00
 -1      2490 1.19535E+02 6.60425E+00 0.00000E+00
 -1      2491 1.24785E+02 5.30525E+00 0.00000E+00
 -1      2492 1.23285E+02 5.30525E+00 0.00000E+00
 -1      2493 1.22535E+02 6.60425E+00 0.00000E+00
 -1      2494 1.27785E+02 5.30525E+00 0.00000E+00
 -1      2495 1.26285E+02 5.30525E+00 0.00000E+00
 -1      2496 1.25535E+02 6.60425E+00 0.00000E+00
 -1      2497 1.30785E+02 5.30525E+00 0.00000E+00
 -1      2498 1.29285E+02 5.30525E+00 0.00000E+00
 -1      2499 1.28535E+02 6.60425E+00 0.00000E+00
 -1      2500 1.33785E+02 5.30525E+00 0.00000E+00
 -1      2501 1.32285E+02 5.30525E+00 0.00000E+00
 -1      2502 1.31535E+02 6.60425E+00 0.00000E+00
 -1      2503 1.36785E+02 5.30525E+00 0.00000E+00
 -1      2504 1.35285E+02 5.30525E+00 0.00000E+00
 -1      2505 1.34535E+02 6.60425E+00 0.00000E+00
 -1      2506 1.39785E+02 5.30525E+00 0.00000E+00
 -1      2507 1.38285E+02 5.30525E+00 0.00000E+00
 -1      2508 1.37535E+02 6.60425E+00 0.00000E+00
 -1      2509 1.42785E+02 5.30525E+00 0.00000E+00
 -1      2510 1.41285E+02 5.30525E+00 0.00000E+00
 -1      2511 1.40535E+02 6.60425E+00 0.00000E+00
 -1      2512 1.44336E+02 5.26953E+00 0.00000E+00
 -1      2513 1.43505E+02 1.69125E+01 0.00000E+00
 -1      2514 1.43505E+02 1.54375E+01 0.00000E+00
 -1      2515 1.43505E+02 1.98625E+01 0.00000E+00
 -1      2516 1.43505E+02 1.83875E+01 0.00000E+00
 -1      2517 1.42206E+02 1.76500E+01 0.00000E+00
 -1      2518 1.43505E+02 1.10625E+01 0.00000E+00
 -1      2519 1.43505E+02 9.58750E+00 0.00000E+00
 -1      2520 1.43505E+02 1.39750E+01 0.00000E+00
 -1      2521 1.43505E+02 1.25250E+01 0.00000E+00
 -1      2522 1.42206E+02 1.17875E+01 0.00000E+00
 -1      2523 1.42206E+02 1.47125E+01 0.00000E+00
 -1      2524 1.43505E+02 2.28125E+01 0.00000E+00
 -1      2525 1.43505E+02 2.13375E+01 0.00000E+00
 -1      2526 1.42206E+02 2.06000E+01 0.00000E+00
 -1      2527 1.43505E+02 2.57625E+01 0.00000E+00
 -1      2528 1.43505E+02 2.42875E+01 0.00000E+00
 -1      2529 1.42206E+02 2.35500E+01 0.00000E+00
 -1      2530 1.43505E+02 2.87125E+01 0.00000E+00
 -1      2531 1.43505E+02 2.72375E+01 0.00000E+00
 -1      2532 1.42206E+02 2.65000E+01 0.00000E+00
 -1      2533 1.43505E+02 3.16125E+01 0.00000E+00
 -1      2534 1.43505E+02 3.01625E+01 0.00000E+00
 -1      2535 1.42206E+02 2.94250E+01 0.00000E+00
 -1      2536 1.43505E+02 3.45625E+01 0.00000E+00
 -1      2537 1.43505E+02 3.30875E+01 0.00000E+00
 -1      2538 1.42206E+02 3.23500E+01 0.00000E+00
 -1      2539 1.43505E+02 3.75125E+01 0.00000E+00
 -1      2540 1.43505E+02 3.60375E+01 0.00000E+00
 -1      2541 1.42206E+02 3.53000E+01 0.00000E+00
 -1      2542 1.43505E+02 4.04625E+01 0.00000E+00
 -1      2543 1.43505E+02 3.89875E+01 0.00000E+00
 -1      2544 1.42206E+02 3.82500E+01 0.00000E+00
 -1      2545 1.44321E+02 4.30606E+01 0.00000E+00
 -1      2546 1.34277E+02 2.02771E+01 0.00000E+00
 -1      2547 1.35028E+02 2.09970E+01 0.00000E+00
 -1      2548 1.67850E+01 5.30525E+00 0.00000E+00
 -1      2549 1.52850E+01 5.30525E+00 0.00000E+00
 -1      2550 1.75350E+01 6.60425E+00 0.00000E+00
 -1      2551 1.35860E+02 2.22277E+01 0.00000E+00
 -1      2552 1.36346E+02 2.33553E+01 0.00000E+00
 -1      2553 1.36721E+02 3.06595E+01 0.00000E+00
 -1      2554 1.36562E+02 3.16707E+01 0.00000E+00
 -1      2555 1.37044E+02 2.90631E+01 0.00000E+00
 -1      2556 1.36883E+02 2.98613E+01 0.00000E+00
 -1      2557 1.37568E+02 3.04871E+01 0.00000E+00
 -1      2558 1.23764E+02 3.82054E+01 0.00000E+00
 -1      2559 1.22788E+02 3.78524E+01 0.00000E+00
 -1      2560 1.19661E+02 2.06607E+01 0.00000E+00
 -1      2561 1.20409E+02 1.99525E+01 0.00000E+00
 -1      2562 6.49500E+00 2.71625E+01 0.00000E+00
 -1      2563 6.49500E+00 2.86375E+01 0.00000E+00
 -1      2564 7.79400E+00 2.93750E+01 0.00000E+00
 -1      2565 7.79400E+00 2.64250E+01 0.00000E+00
 -1      2566 1.27704E+02 1.76740E+01 0.00000E+00
 -1      2567 1.28955E+02 1.77957E+01 0.00000E+00
 -1      2568 1.21476E+02 1.92820E+01 0.00000E+00
 -1      2569 1.22377E+02 1.88747E+01 0.00000E+00
 -1      2570 1.25642E+02 1.77132E+01 0.00000E+00
 -1      2571 1.26504E+02 1.76456E+01 0.00000E+00
 -1      2572 1.18391E+02 3.46674E+01 0.00000E+00
 -1      2573 1.17865E+02 3.38247E+01 0.00000E+00
 -1      2574 1.23342E+02 1.82932E+01 0.00000E+00
 -1      2575 1.24406E+02 1.78852E+01 0.00000E+00
 -1      2576 1.18496E+02 2.21709E+01 0.00000E+00
 -1      2577 1.18977E+02 2.14956E+01 0.00000E+00
 -1      2578 1.17391E+02 2.40451E+01 0.00000E+00
 -1      2579 1.17906E+02 2.30669E+01 0.00000E+00
 -1      2580 1.16674E+02 2.59353E+01 0.00000E+00
 -1      2581 1.16975E+02 2.50828E+01 0.00000E+00
 -1      2582 1.16355E+02 3.05187E+01 0.00000E+00
 -1      2583 1.16193E+02 2.96372E+01 0.00000E+00
 -1      2584 1.33733E+02 3.58121E+01 0.00000E+00
 -1      2585 1.33166E+02 3.65686E+01 0.00000E+00
 -1      2586 1.17305E+02 3.27599E+01 0.00000E+00
 -1      2587 1.16821E+02 3.16800E+01 0.00000E+00
 -1      2588 1.20150E+02 3.62077E+01 0.00000E+00
 -1      2589 1.19322E+02 3.55671E+01 0.00000E+00
 -1      2590 1.21799E+02 3.72907E+01 0.00000E+00
 -1      2591 1.21022E+02 3.68139E+01 0.00000E+00
 -1      2592 1.25718E+02 3.84312E+01 0.00000E+00
 -1      2593 1.24873E+02 3.83165E+01 0.00000E+00
 -1      2594 1.27958E+02 3.88010E+01 0.00000E+00
 -1      2595 1.26789E+02 3.87641E+01 0.00000E+00
 -1      2596 1.30051E+02 3.82827E+01 0.00000E+00
 -1      2597 1.29249E+02 3.85547E+01 0.00000E+00
 -1      2598 1.32171E+02 3.74561E+01 0.00000E+00
 -1      2599 1.31111E+02 3.78694E+01 0.00000E+00
 -1      2600 1.30985E+02 3.88175E+01 0.00000E+00
 -1      2601 1.34983E+02 3.44386E+01 0.00000E+00
 -1      2602 1.34358E+02 3.51254E+01 0.00000E+00
 -1      2603 1.34660E+02 3.59426E+01 0.00000E+00
 -1      2604 1.36020E+02 3.28733E+01 0.00000E+00
 -1      2605 1.35501E+02 3.36560E+01 0.00000E+00
 -1      2606 1.35804E+02 3.44732E+01 0.00000E+00
 -1      2607 1.30206E+02 1.80061E+01 0.00000E+00
 -1      2608 1.31047E+02 1.83004E+01 0.00000E+00
 -1      2609 8.07525E+00 5.11044E+00 0.00000E+00
 -1      2610 6.57525E+00 5.11044E+00 0.00000E+00
 -1      2611 6.40575E+00 6.01981E+00 0.00000E+00
 -1      2612 8.82525E+00 6.40944E+00 0.00000E+00
 -1      2613 1.29659E+02 1.71334E+01 0.00000E+00
 -1      2614 7.79400E+00 3.52687E+01 0.00000E+00
 -1      2615 6.49500E+00 3.60062E+01 0.00000E+00
 -1      2616 6.49500E+00 3.74750E+01 0.00000E+00
 -1      2617 1.45350E+01 6.60425E+00 0.00000E+00
 -1      2618 6.40575E+00 7.49481E+00 0.00000E+00
 -1      2619 1.21995E+02 3.82736E+01 0.00000E+00
 -1      2620 1.20134E+02 3.71056E+01 0.00000E+00
 -1      2621 1.32030E+02 1.79159E+01 0.00000E+00
 -1      2622 1.37527E+02 2.58578E+01 0.00000E+00
 -1      2623 1.38088E+02 2.64197E+01 0.00000E+00
 -1      2624 1.38133E+02 2.51450E+01 0.00000E+00
 -1      2625 1.36136E+02 2.11883E+01 0.00000E+00
 -1      2626 1.37270E+02 2.35010E+01 0.00000E+00
 -1      2627 1.43586E+02 6.56853E+00 0.00000E+00
 -1      2628 1.43419E+02 7.72713E+00 0.00000E+00
 -1      2629 1.16840E+02 3.36353E+01 0.00000E+00
 -1      2630 1.42758E+02 4.35929E+01 0.00000E+00
 -1      2631 1.43241E+02 4.17323E+01 0.00000E+00
 -1      2632 1.41942E+02 4.09948E+01 0.00000E+00
 -1      2633 1.41414E+02 4.35342E+01 0.00000E+00
 -1      2634 1.15814E+02 3.14092E+01 0.00000E+00
 -1      2635 1.34228E+02 1.92228E+01 0.00000E+00
 -1      2636 7.70475E+00 8.23231E+00 0.00000E+00
 -1      2637 1.38168E+02 2.77584E+01 0.00000E+00
 -1      2638 1.37606E+02 2.84107E+01 0.00000E+00
 -1      2639 1.38291E+02 2.90365E+01 0.00000E+00
 -1      2640 1.37708E+02 3.21026E+01 0.00000E+00
 -1      2641 1.36864E+02 3.24880E+01 0.00000E+00
 -1      2642 1.37166E+02 3.33052E+01 0.00000E+00
 -1      2643 1.16042E+02 2.65261E+01 0.00000E+00
 -1      2644 1.15463E+02 2.58421E+01 0.00000E+00
 -1      2645 1.15410E+02 2.71170E+01 0.00000E+00
 -1      2646 1.33040E+02 3.75168E+01 0.00000E+00
 -1      2647 1.32915E+02 3.84649E+01 0.00000E+00
 -1      2648 1.33910E+02 3.75775E+01 0.00000E+00
 -1      2649 1.28634E+02 3.94771E+01 0.00000E+00
 -1      2650 1.24093E+02 3.89464E+01 0.00000E+00
 -1      2651 1.16510E+02 2.42137E+01 0.00000E+00
 -1      2652 1.17516E+02 2.22800E+01 0.00000E+00
 -1      2653 1.22572E+02 1.77917E+01 0.00000E+00
 -1      2654 1.18332E+02 3.55998E+01 0.00000E+00
 -1      2655 1.24773E+02 1.70382E+01 0.00000E+00
 -1      2656 1.20541E+02 1.90437E+01 0.00000E+00
 -1      2657 1.18790E+02 2.05491E+01 0.00000E+00
 -1      2658 1.15669E+02 2.90244E+01 0.00000E+00
 -1      2659 6.55950E+00 3.99453E+01 0.00000E+00
 -1      2660 1.27209E+02 1.68946E+01 0.00000E+00
 -1      2661 1.26273E+02 3.93905E+01 0.00000E+00
 -1      2662 1.42120E+02 8.46463E+00 0.00000E+00
 -1      2663 1.40664E+02 4.22352E+01 0.00000E+00
 -1      2664 9.09300E+00 1.98250E+01 0.00000E+00
 -1      2665 9.09300E+00 2.12750E+01 0.00000E+00
 -1      2666 9.09300E+00 2.27500E+01 0.00000E+00
 -1      2667 9.09300E+00 2.42250E+01 0.00000E+00
 -1      2668 1.03920E+01 2.20250E+01 0.00000E+00
 -1      2669 9.09300E+00 1.39375E+01 0.00000E+00
 -1      2670 9.09300E+00 1.54125E+01 0.00000E+00
 -1      2671 9.09300E+00 1.09875E+01 0.00000E+00
 -1      2672 9.09300E+00 1.24625E+01 0.00000E+00
 -1      2673 1.03920E+01 1.32000E+01 0.00000E+00
 -1      2674 1.22850E+01 7.90325E+00 0.00000E+00
 -1      2675 1.07850E+01 7.90325E+00 0.00000E+00
 -1      2676 1.52850E+01 7.90325E+00 0.00000E+00
 -1      2677 1.37850E+01 7.90325E+00 0.00000E+00
 -1      2678 1.30350E+01 9.20225E+00 0.00000E+00
 -1      2679 8.85168E+00 4.05347E+01 0.00000E+00
 -1      2680 1.02152E+01 4.07987E+01 0.00000E+00
 -1      2681 1.17152E+01 4.07987E+01 0.00000E+00
 -1      2682 1.32152E+01 4.07987E+01 0.00000E+00
 -1      2683 1.12804E+01 3.93914E+01 0.00000E+00
 -1      2684 1.47152E+01 4.07987E+01 0.00000E+00
 -1      2685 1.62152E+01 4.07987E+01 0.00000E+00
 -1      2686 1.42804E+01 3.93914E+01 0.00000E+00
 -1      2687 1.77152E+01 4.07987E+01 0.00000E+00
 -1      2688 1.92152E+01 4.07987E+01 0.00000E+00
 -1      2689 1.72804E+01 3.93914E+01 0.00000E+00
 -1      2690 2.07152E+01 4.07987E+01 0.00000E+00
 -1      2691 2.22152E+01 4.07987E+01 0.00000E+00
 -1      2692 2.02804E+01 3.93914E+01 0.00000E+00
 -1      2693 2.37152E+01 4.07987E+01 0.00000E+00
 -1      2694 2.52152E+01 4.07987E+01 0.00000E+00
 -1      2695 2.32804E+01 3.93914E+01 0.00000E+00
 -1      2696 2.67152E+01 4.07987E+01 0.00000E+00
 -1      2697 2.82152E+01 4.07987E+01 0.00000E+00
 -1      2698 2.62804E+01 3.93914E+01 0.00000E+00
 -1      2699 2.97152E+01 4.07987E+01 0.00000E+00
 -1      2700 3.12152E+01 4.07987E+01 0.00000E+00
 -1      2701 2.92804E+01 3.93914E+01 0.00000E+00
 -1      2702 3.27152E+01 4.07987E+01 0.00000E+00
 -1      2703 3.42152E+01 4.07987E+01 0.00000E+00
 -1      2704 3.22803E+01 3.93914E+01 0.00000E+00
 -1      2705 3.57152E+01 4.07987E+01 0.00000E+00
 -1      2706 3.72152E+01 4.07987E+01 0.00000E+00
 -1      2707 3.52803E+01 3.93914E+01 0.00000E+00
 -1      2708 3.87152E+01 4.07987E+01 0.00000E+00
 -1      2709 4.02152E+01 4.07987E+01 0.00000E+00
 -1      2710 3.82803E+01 3.93914E+01 0.00000E+00
 -1      2711 4.17152E+01 4.07987E+01 0.00000E+00
 -1      2712 4.32152E+01 4.07987E+01 0.00000E+00
 -1      2713 4.12803E+01 3.93914E+01 0.00000E+00
 -1      2714 4.47152E+01 4.07987E+01 0.00000E+00
 -1      2715 4.62152E+01 4.07987E+01 0.00000E+00
 -1      2716 4.42803E+01 3.93914E+01 0.00000E+00
 -1      2717 4.77152E+01 4.07987E+01 0.00000E+00
 -1      2718 4.92152E+01 4.07987E+01 0.00000E+00
 -1      2719 4.72803E+01 3.93914E+01 0.00000E+00
 -1      2720 5.07152E+01 4.07987E+01 0.00000E+00
 -1      2721 5.22152E+01 4.07987E+01 0.00000E+00
 -1      2722 5.02803E+01 3.93914E+01 0.00000E+00
 -1      2723 5.37152E+01 4.07987E+01 0.00000E+00
 -1      2724 5.52152E+01 4.07987E+01 0.00000E+00
 -1      2725 5.32803E+01 3.93914E+01 0.00000E+00
 -1      2726 5.67152E+01 4.07987E+01 0.00000E+00
 -1      2727 5.82152E+01 4.07987E+01 0.00000E+00
 -1      2728 5.62803E+01 3.93914E+01 0.00000E+00
 -1      2729 5.97152E+01 4.07987E+01 0.00000E+00
 -1      2730 6.12152E+01 4.07987E+01 0.00000E+00
 -1      2731 5.92803E+01 3.93914E+01 0.00000E+00
 -1      2732 6.27152E+01 4.07987E+01 0.00000E+00
 -1      2733 6.42152E+01 4.07987E+01 0.00000E+00
 -1      2734 6.22803E+01 3.93914E+01 0.00000E+00
 -1      2735 6.57152E+01 4.07987E+01 0.00000E+00
 -1      2736 6.72152E+01 4.07987E+01 0.00000E+00
 -1      2737 6.52803E+01 3.93914E+01 0.00000E+00
 -1      2738 6.87152E+01 4.07987E+01 0.00000E+00
 -1      2739 7.02152E+01 4.07987E+01 0.00000E+00
 -1      2740 6.82803E+01 3.93914E+01 0.00000E+00
 -1      2741 7.17152E+01 4.07987E+01 0.00000E+00
 -1      2742 7.32152E+01 4.07987E+01 0.00000E+00
 -1      2743 7.12803E+01 3.93914E+01 0.00000E+00
 -1      2744 7.47152E+01 4.07987E+01 0.00000E+00
 -1      2745 7.62152E+01 4.07987E+01 0.00000E+00
 -1      2746 7.42803E+01 3.93914E+01 0.00000E+00
 -1      2747 7.77152E+01 4.07987E+01 0.00000E+00
 -1      2748 7.92152E+01 4.07987E+01 0.00000E+00
 -1      2749 7.72803E+01 3.93914E+01 0.00000E+00
 -1      2750 8.07152E+01 4.07987E+01 0.00000E+00
 -1      2751 8.22152E+01 4.07987E+01 0.00000E+00
 -1      2752 8.02803E+01 3.93914E+01 0.00000E+00
 -1      2753 8.37152E+01 4.07987E+01 0.00000E+00
 -1      2754 8.52152E+01 4.07987E+01 0.00000E+00
 -1      2755 8.32803E+01 3.93914E+01 0.00000E+00
 -1      2756 8.67152E+01 4.07987E+01 0.00000E+00
 -1      2757 8.82152E+01 4.07987E+01 0.00000E+00
 -1      2758 8.62803E+01 3.93914E+01 0.00000E+00
 -1      2759 8.97152E+01 4.07987E+01 0.00000E+00
 -1      2760 9.12152E+01 4.07987E+01 0.00000E+00
 -1      2761 8.92803E+01 3.93914E+01 0.00000E+00
 -1      2762 9.27152E+01 4.07987E+01 0.00000E+00
 -1      2763 9.42152E+01 4.07987E+01 0.00000E+00
 -1      2764 9.22803E+01 3.93914E+01 0.00000E+00
 -1      2765 9.57152E+01 4.07987E+01 0.00000E+00
 -1      2766 9.72152E+01 4.07987E+01 0.00000E+00
 -1      2767 9.52803E+01 3.93914E+01 0.00000E+00
 -1      2768 9.87152E+01 4.07987E+01 0.00000E+00
 -1      2769 1.00215E+02 4.07987E+01 0.00000E+00
 -1      2770 9.82803E+01 3.93914E+01 0.00000E+00
 -1      2771 1.01715E+02 4.07987E+01 0.00000E+00
 -1      2772 1.03215E+02 4.07987E+01 0.00000E+00
 -1      2773 1.01280E+02 3.93914E+01 0.00000E+00
 -1      2774 1.04715E+02 4.07987E+01 0.00000E+00
 -1      2775 1.06215E+02 4.07987E+01 0.00000E+00
 -1      2776 1.04280E+02 3.93914E+01 0.00000E+00
 -1      2777 1.07715E+02 4.07987E+01 0.00000E+00
 -1      2778 1.09215E+02 4.07987E+01 0.00000E+00
 -1      2779 1.07280E+02 3.93914E+01 0.00000E+00
 -1      2780 1.10715E+02 4.07987E+01 0.00000E+00
 -1      2781 1.12215E+02 4.07987E+01 0.00000E+00
 -1      2782 1.10280E+02 3.93914E+01 0.00000E+00
 -1      2783 1.13715E+02 4.07987E+01 0.00000E+00
 -1      2784 1.15215E+02 4.07987E+01 0.00000E+00
 -1      2785 1.13280E+02 3.93914E+01 0.00000E+00
 -1      2786 1.19400E+02 4.10133E+01 0.00000E+00
 -1      2787 1.20900E+02 4.10133E+01 0.00000E+00
 -1      2788 1.22317E+02 4.05206E+01 0.00000E+00
 -1      2789 1.23817E+02 4.05206E+01 0.00000E+00
 -1      2790 1.25997E+02 4.09647E+01 0.00000E+00
 -1      2791 1.27497E+02 4.09647E+01 0.00000E+00
 -1      2792 1.28788E+02 4.07184E+01 0.00000E+00
 -1      2793 1.30288E+02 4.07184E+01 0.00000E+00
 -1      2794 1.32217E+02 4.03658E+01 0.00000E+00
 -1      2795 1.33717E+02 4.03658E+01 0.00000E+00
 -1      2796 1.35217E+02 4.03658E+01 0.00000E+00
 -1      2797 1.37400E+02 4.09070E+01 0.00000E+00
 -1      2798 1.38900E+02 4.09070E+01 0.00000E+00
 -1      2799 1.15174E+02 3.23405E+01 0.00000E+00
 -1      2800 1.14708E+02 3.11792E+01 0.00000E+00
 -1      2801 1.16287E+02 3.46059E+01 0.00000E+00
 -1      2802 1.15727E+02 3.35412E+01 0.00000E+00
 -1      2803 2.12850E+01 7.90325E+00 0.00000E+00
 -1      2804 1.97850E+01 7.90325E+00 0.00000E+00
 -1      2805 3.02850E+01 7.90325E+00 0.00000E+00
 -1      2806 2.87850E+01 7.90325E+00 0.00000E+00
 -1      2807 3.32850E+01 7.90325E+00 0.00000E+00
 -1      2808 3.17850E+01 7.90325E+00 0.00000E+00
 -1      2809 3.10350E+01 9.20225E+00 0.00000E+00
 -1      2810 3.62850E+01 7.90325E+00 0.00000E+00
 -1      2811 3.47850E+01 7.90325E+00 0.00000E+00
 -1      2812 3.40350E+01 9.20225E+00 0.00000E+00
 -1      2813 3.92850E+01 7.90325E+00 0.00000E+00
 -1      2814 3.77850E+01 7.90325E+00 0.00000E+00
 -1      2815 3.70350E+01 9.20225E+00 0.00000E+00
 -1      2816 4.22850E+01 7.90325E+00 0.00000E+00
 -1      2817 4.07850E+01 7.90325E+00 0.00000E+00
 -1      2818 4.00350E+01 9.20225E+00 0.00000E+00
 -1      2819 4.52850E+01 7.90325E+00 0.00000E+00
 -1      2820 4.37850E+01 7.90325E+00 0.00000E+00
 -1      2821 4.30350E+01 9.20225E+00 0.00000E+00
 -1      2822 4.82850E+01 7.90325E+00 0.00000E+00
 -1      2823 4.67850E+01 7.90325E+00 0.00000E+00
 -1      2824 4.60350E+01 9.20225E+00 0.00000E+00
 -1      2825 5.12850E+01 7.90325E+00 0.00000E+00
 -1      2826 4.97850E+01 7.90325E+00 0.00000E+00
 -1      2827 4.90350E+01 9.20225E+00 0.00000E+00
 -1      2828 5.42850E+01 7.90325E+00 0.00000E+00
 -1      2829 5.27850E+01 7.90325E+00 0.00000E+00
 -1      2830 5.20350E+01 9.20225E+00 0.00000E+00
 -1      2831 5.72850E+01 7.90325E+00 0.00000E+00
 -1      2832 5.57850E+01 7.90325E+00 0.00000E+00
 -1      2833 5.50350E+01 9.20225E+00 0.00000E+00
 -1      2834 6.02850E+01 7.90325E+00 0.00000E+00
 -1      2835 5.87850E+01 7.90325E+00 0.00000E+00
 -1      2836 5.80350E+01 9.20225E+00 0.00000E+00
 -1      2837 6.32850E+01 7.90325E+00 0.00000E+00
 -1      2838 6.17850E+01 7.90325E+00 0.00000E+00
 -1      2839 6.10350E+01 9.20225E+00 0.00000E+00
 -1      2840 6.62850E+01 7.90325E+00 0.00000E+00
 -1      2841 6.47850E+01 7.90325E+00 0.00000E+00
 -1      2842 6.40350E+01 9.20225E+00 0.00000E+00
 -1      2843 6.92850E+01 7.90325E+00 0.00000E+00
 -1      2844 6.77850E+01 7.90325E+00 0.00000E+00
 -1      2845 6.70350E+01 9.20225E+00 0.00000E+00
 -1      2846 7.22850E+01 7.90325E+00 0.00000E+00
 -1      2847 7.07850E+01 7.90325E+00 0.00000E+00
 -1      2848 7.00350E+01 9.20225E+00 0.00000E+00
 -1      2849 7.52850E+01 7.90325E+00 0.00000E+00
 -1      2850 7.37850E+01 7.90325E+00 0.00000E+00
 -1      2851 7.30350E+01 9.20225E+00 0.00000E+00
 -1      2852 7.82850E+01 7.90325E+00 0.00000E+00
 -1      2853 7.67850E+01 7.90325E+00 0.00000E+00
 -1      2854 7.60350E+01 9.20225E+00 0.00000E+00
 -1      2855 8.12850E+01 7.90325E+00 0.00000E+00
 -1      2856 7.97850E+01 7.90325E+00 0.00000E+00
 -1      2857 7.90350E+01 9.20225E+00 0.00000E+00
 -1      2858 8.42850E+01 7.90325E+00 0.00000E+00
 -1      2859 8.27850E+01 7.90325E+00 0.00000E+00
 -1      2860 8.20350E+01 9.20225E+00 0.00000E+00
 -1      2861 8.72850E+01 7.90325E+00 0.00000E+00
 -1      2862 8.57850E+01 7.90325E+00 0.00000E+00
 -1      2863 8.50350E+01 9.20225E+00 0.00000E+00
 -1      2864 9.02850E+01 7.90325E+00 0.00000E+00
 -1      2865 8.87850E+01 7.90325E+00 0.00000E+00
 -1      2866 8.80350E+01 9.20225E+00 0.00000E+00
 -1      2867 9.32850E+01 7.90325E+00 0.00000E+00
 -1      2868 9.17850E+01 7.90325E+00 0.00000E+00
 -1      2869 9.10350E+01 9.20225E+00 0.00000E+00
 -1      2870 9.62850E+01 7.90325E+00 0.00000E+00
 -1      2871 9.47850E+01 7.90325E+00 0.00000E+00
 -1      2872 9.40350E+01 9.20225E+00 0.00000E+00
 -1      2873 9.92850E+01 7.90325E+00 0.00000E+00
 -1      2874 9.77850E+01 7.90325E+00 0.00000E+00
 -1      2875 9.70350E+01 9.20225E+00 0.00000E+00
 -1      2876 1.02285E+02 7.90325E+00 0.00000E+00
 -1      2877 1.00785E+02 7.90325E+00 0.00000E+00
 -1      2878 1.00035E+02 9.20225E+00 0.00000E+00
 -1      2879 1.05285E+02 7.90325E+00 0.00000E+00
 -1      2880 1.03785E+02 7.90325E+00 0.00000E+00
 -1      2881 1.03035E+02 9.20225E+00 0.00000E+00
 -1      2882 1.08285E+02 7.90325E+00 0.00000E+00
 -1      2883 1.06785E+02 7.90325E+00 0.00000E+00
 -1      2884 1.06035E+02 9.20225E+00 0.00000E+00
 -1      2885 1.11285E+02 7.90325E+00 0.00000E+00
 -1      2886 1.09785E+02 7.90325E+00 0.00000E+00
 -1      2887 1.09035E+02 9.20225E+00 0.00000E+00
 -1      2888 1.14285E+02 7.90325E+00 0.00000E+00
 -1      2889 1.12785E+02 7.90325E+00 0.00000E+00
 -1      2890 1.12035E+02 9.20225E+00 0.00000E+00
 -1      2891 1.17285E+02 7.90325E+00 0.00000E+00
 -1      2892 1.15785E+02 7.90325E+00 0.00000E+00
 -1      2893 1.15035E+02 9.20225E+00 0.00000E+00
 -1      2894 1.20285E+02 7.90325E+00 0.00000E+00
 -1      2895 1.18785E+02 7.90325E+00 0.00000E+00
 -1      2896 1.18035E+02 9.20225E+00 0.00000E+00
 -1      2897 1.23285E+02 7.90325E+00 0.00000E+00
 -1      2898 1.21785E+02 7.90325E+00 0.00000E+00
 -1      2899 1.21035E+02 9.20225E+00 0.00000E+00
 -1      2900 1.26285E+02 7.90325E+00 0.00000E+00
 -1      2901 1.24785E+02 7.90325E+00 0.00000E+00
 -1      2902 1.24035E+02 9.20225E+00 0.00000E+00
 -1      2903 1.29285E+02 7.90325E+00 0.00000E+00
 -1      2904 1.27785E+02 7.90325E+00 0.00000E+00
 -1      2905 1.27035E+02 9.20225E+00 0.00000E+00
 -1      2906 1.32285E+02 7.90325E+00 0.00000E+00
 -1      2907 1.30785E+02 7.90325E+00 0.00000E+00
 -1      2908 1.30035E+02 9.20225E+00 0.00000E+00
 -1      2909 1.35285E+02 7.90325E+00 0.00000E+00
 -1      2910 1.33785E+02 7.90325E+00 0.00000E+00
 -1      2911 1.33035E+02 9.20225E+00 0.00000E+00
 -1      2912 1.38285E+02 7.90325E+00 0.00000E+00
 -1      2913 1.36785E+02 7.90325E+00 0.00000E+00
 -1      2914 1.36035E+02 9.20225E+00 0.00000E+00
 -1      2915 1.40953E+02 8.18394E+00 0.00000E+00
 -1      2916 1.39453E+02 8.18394E+00 0.00000E+00
 -1      2917 1.38703E+02 9.48294E+00 0.00000E+00
 -1      2918 1.41038E+02 1.00443E+01 0.00000E+00
 -1      2919 1.41097E+02 2.42875E+01 0.00000E+00
 -1      2920 1.41097E+02 2.28125E+01 0.00000E+00
 -1      2921 1.39914E+02 4.09362E+01 0.00000E+00
 -1      2922 1.40928E+02 4.09655E+01 0.00000E+00
 -1      2923 1.39164E+02 3.96372E+01 0.00000E+00
 -1      2924 1.40907E+02 1.83875E+01 0.00000E+00
 -1      2925 1.40907E+02 1.69125E+01 0.00000E+00
 -1      2926 1.41265E+02 2.72375E+01 0.00000E+00
 -1      2927 1.41265E+02 2.57625E+01 0.00000E+00
 -1      2928 1.40907E+02 2.13375E+01 0.00000E+00
 -1      2929 1.40907E+02 1.98625E+01 0.00000E+00
 -1      2930 1.39608E+02 1.91250E+01 0.00000E+00
 -1      2931 1.41097E+02 3.01500E+01 0.00000E+00
 -1      2932 1.41097E+02 2.87000E+01 0.00000E+00
 -1      2933 1.41181E+02 3.30875E+01 0.00000E+00
 -1      2934 1.41181E+02 3.16125E+01 0.00000E+00
 -1      2935 1.41181E+02 3.60375E+01 0.00000E+00
 -1      2936 1.41181E+02 3.45625E+01 0.00000E+00
 -1      2937 1.82850E+01 7.90325E+00 0.00000E+00
 -1      2938 1.67850E+01 7.90325E+00 0.00000E+00
 -1      2939 1.60350E+01 9.20225E+00 0.00000E+00
 -1      2940 1.90350E+01 9.20225E+00 0.00000E+00
 -1      2941 1.36743E+02 3.45325E+01 0.00000E+00
 -1      2942 1.36224E+02 3.53152E+01 0.00000E+00
 -1      2943 1.38478E+02 2.29845E+01 0.00000E+00
 -1      2944 1.38780E+02 2.40665E+01 0.00000E+00
 -1      2945 1.38448E+02 3.02499E+01 0.00000E+00
 -1      2946 1.38286E+02 3.10481E+01 0.00000E+00
 -1      2947 8.91450E+00 8.42712E+00 0.00000E+00
 -1      2948 1.35599E+02 3.60019E+01 0.00000E+00
 -1      2949 1.34975E+02 3.66886E+01 0.00000E+00
 -1      2950 1.36539E+02 3.60612E+01 0.00000E+00
 -1      2951 2.72850E+01 7.90325E+00 0.00000E+00
 -1      2952 2.57850E+01 7.90325E+00 0.00000E+00
 -1      2953 2.80350E+01 9.20225E+00 0.00000E+00
 -1      2954 2.42850E+01 7.90325E+00 0.00000E+00
 -1      2955 2.27850E+01 7.90325E+00 0.00000E+00
 -1      2956 2.50350E+01 9.20225E+00 0.00000E+00
 -1      2957 1.17785E+02 2.04231E+01 0.00000E+00
 -1      2958 1.18469E+02 1.95882E+01 0.00000E+00
 -1      2959 1.26630E+02 1.60231E+01 0.00000E+00
 -1      2960 1.27829E+02 1.60515E+01 0.00000E+00
 -1      2961 9.09300E+00 1.68813E+01 0.00000E+00
 -1      2962 9.09300E+00 1.83563E+01 0.00000E+00
 -1      2963 1.03920E+01 1.90812E+01 0.00000E+00
 -1      2964 1.03920E+01 1.61437E+01 0.00000E+00
 -1      2965 1.18085E+02 3.67868E+01 0.00000E+00
 -1      2966 1.17154E+02 3.58872E+01 0.00000E+00
 -1      2967 1.41192E+02 3.96958E+01 0.00000E+00
 -1      2968 9.09300E+00 3.15875E+01 0.00000E+00
 -1      2969 9.09300E+00 3.30625E+01 0.00000E+00
 -1      2970 1.19552E+02 1.86529E+01 0.00000E+00
 -1      2971 1.20618E+02 1.79824E+01 0.00000E+00
 -1      2972 1.14598E+02 2.93976E+01 0.00000E+00
 -1      2973 1.14918E+02 2.81742E+01 0.00000E+00
 -1      2974 1.21561E+02 1.72046E+01 0.00000E+00
 -1      2975 1.22525E+02 1.66231E+01 0.00000E+00
 -1      2976 1.16540E+02 2.22795E+01 0.00000E+00
 -1      2977 1.17130E+02 2.13835E+01 0.00000E+00
 -1      2978 7.48818E+00 3.88019E+01 0.00000E+00
 -1      2979 1.34267E+02 1.80087E+01 0.00000E+00
 -1      2980 1.35344E+02 1.87435E+01 0.00000E+00
 -1      2981 1.24014E+02 1.61089E+01 0.00000E+00
 -1      2982 1.25250E+02 1.59369E+01 0.00000E+00
 -1      2983 1.31898E+02 1.67914E+01 0.00000E+00
 -1      2984 1.33019E+02 1.73635E+01 0.00000E+00
 -1      2985 1.15584E+02 2.44446E+01 0.00000E+00
 -1      2986 1.16000E+02 2.34070E+01 0.00000E+00
 -1      2987 1.36569E+02 1.99990E+01 0.00000E+00
 -1      2988 1.37401E+02 2.12297E+01 0.00000E+00
 -1      2989 1.29204E+02 1.60173E+01 0.00000E+00
 -1      2990 1.30454E+02 1.62276E+01 0.00000E+00
 -1      2991 9.09300E+00 3.45313E+01 0.00000E+00
 -1      2992 9.09300E+00 3.60000E+01 0.00000E+00
 -1      2993 1.03920E+01 3.37938E+01 0.00000E+00
 -1      2994 1.03920E+01 2.49750E+01 0.00000E+00
 -1      2995 9.09300E+00 2.57000E+01 0.00000E+00
 -1      2996 9.09300E+00 2.71750E+01 0.00000E+00
 -1      2997 1.39009E+02 2.95976E+01 0.00000E+00
 -1      2998 1.28624E+02 1.51458E+01 0.00000E+00
 -1      2999 1.36609E+02 1.87849E+01 0.00000E+00
 -1      3000 1.39341E+02 2.46285E+01 0.00000E+00
 -1      3001 1.16040E+02 3.57930E+01 0.00000E+00
 -1      3002 1.14953E+02 2.50354E+01 0.00000E+00
 -1      3003 1.14442E+02 2.42287E+01 0.00000E+00
 -1      3004 1.14321E+02 2.56263E+01 0.00000E+00
 -1      3005 1.31443E+02 1.56753E+01 0.00000E+00
 -1      3006 1.16400E+02 4.09070E+01 0.00000E+00
 -1      3007 1.17900E+02 4.09070E+01 0.00000E+00
 -1      3008 1.24926E+02 4.06318E+01 0.00000E+00
 -1      3009 1.31348E+02 4.03051E+01 0.00000E+00
 -1      3010 1.39608E+02 1.61875E+01 0.00000E+00
 -1      3011 1.40907E+02 1.54500E+01 0.00000E+00
 -1      3012 1.40907E+02 1.39875E+01 0.00000E+00
 -1      3013 1.35967E+02 3.90668E+01 0.00000E+00
 -1      3014 1.13317E+02 3.12602E+01 0.00000E+00
 -1      3015 1.13957E+02 3.03289E+01 0.00000E+00
 -1      3016 1.13207E+02 2.94786E+01 0.00000E+00
 -1      3017 1.23002E+02 1.55218E+01 0.00000E+00
 -1      3018 1.14621E+02 3.33111E+01 0.00000E+00
 -1      3019 2.20350E+01 9.20225E+00 0.00000E+00
 -1      3020 1.40156E+02 2.50250E+01 0.00000E+00
 -1      3021 1.15614E+02 2.25104E+01 0.00000E+00
 -1      3022 1.40156E+02 2.79625E+01 0.00000E+00
 -1      3023 1.40973E+02 1.27472E+01 0.00000E+00
 -1      3024 1.40973E+02 1.12847E+01 0.00000E+00
 -1      3025 1.39805E+02 1.10040E+01 0.00000E+00
 -1      3026 1.39674E+02 1.34847E+01 0.00000E+00
 -1      3027 1.19985E+02 3.82503E+01 0.00000E+00
 -1      3028 1.19113E+02 3.76441E+01 0.00000E+00
 -1      3029 1.20571E+02 1.68138E+01 0.00000E+00
 -1      3030 1.17935E+02 3.79315E+01 0.00000E+00
 -1      3031 1.40156E+02 3.38250E+01 0.00000E+00
 -1      3032 1.41186E+02 3.86041E+01 0.00000E+00
 -1      3033 1.41186E+02 3.71291E+01 0.00000E+00
 -1      3034 1.40161E+02 3.63916E+01 0.00000E+00
 -1      3035 1.40172E+02 3.85749E+01 0.00000E+00
 -1      3036 1.38911E+02 2.17952E+01 0.00000E+00
 -1      3037 1.38773E+02 2.70456E+01 0.00000E+00
 -1      3038 1.38588E+02 3.18654E+01 0.00000E+00
 -1      3039 1.14339E+02 2.74902E+01 0.00000E+00
 -1      3040 1.34849E+02 3.76368E+01 0.00000E+00
 -1      3041 9.66450E+00 9.72612E+00 0.00000E+00
 -1      3042 1.25870E+02 1.50938E+01 0.00000E+00
 -1      3043 1.37587E+02 3.41471E+01 0.00000E+00
 -1      3044 1.21567E+02 3.93279E+01 0.00000E+00
 -1      3045 9.09300E+00 2.86437E+01 0.00000E+00
 -1      3046 9.09300E+00 3.01187E+01 0.00000E+00
 -1      3047 1.03920E+01 3.08563E+01 0.00000E+00
 -1      3048 1.03920E+01 2.79188E+01 0.00000E+00
 -1      3049 1.16809E+02 2.04225E+01 0.00000E+00
 -1      3050 1.09635E+01 1.04636E+01 0.00000E+00
 -1      3051 1.18546E+02 1.85269E+01 0.00000E+00
 -1      3052 1.20578E+02 3.87662E+01 0.00000E+00
 -1      3053 8.78718E+00 3.80644E+01 0.00000E+00
 -1      3054 1.34135E+02 1.68842E+01 0.00000E+00
 -1      3055 1.19557E+02 3.93047E+01 0.00000E+00
 -1      3056 1.15965E+02 3.94997E+01 0.00000E+00
 -1      3057 1.25244E+02 1.40275E+01 0.00000E+00
 -1      3058 1.26624E+02 1.41137E+01 0.00000E+00
 -1      3059 1.16910E+01 1.24625E+01 0.00000E+00
 -1      3060 1.16910E+01 1.39375E+01 0.00000E+00
 -1      3061 1.39509E+02 2.61035E+01 0.00000E+00
 -1      3062 1.35304E+01 3.80924E+01 0.00000E+00
 -1      3063 1.50304E+01 3.80924E+01 0.00000E+00
 -1      3064 1.65304E+01 3.80924E+01 0.00000E+00
 -1      3065 1.80304E+01 3.80924E+01 0.00000E+00
 -1      3066 1.57804E+01 3.67934E+01 0.00000E+00
 -1      3067 1.95304E+01 3.80924E+01 0.00000E+00
 -1      3068 2.10304E+01 3.80924E+01 0.00000E+00
 -1      3069 1.87804E+01 3.67934E+01 0.00000E+00
 -1      3070 2.25304E+01 3.80924E+01 0.00000E+00
 -1      3071 2.40304E+01 3.80924E+01 0.00000E+00
 -1      3072 2.17804E+01 3.67934E+01 0.00000E+00
 -1      3073 2.55304E+01 3.80924E+01 0.00000E+00
 -1      3074 2.70304E+01 3.80924E+01 0.00000E+00
 -1      3075 2.47804E+01 3.67934E+01 0.00000E+00
 -1      3076 2.85304E+01 3.80924E+01 0.00000E+00
 -1      3077 3.00304E+01 3.80924E+01 0.00000E+00
 -1      3078 2.77804E+01 3.67934E+01 0.00000E+00
 -1      3079 3.15304E+01 3.80924E+01 0.00000E+00
 -1      3080 3.30303E+01 3.80924E+01 0.00000E+00
 -1      3081 3.07804E+01 3.67934E+01 0.00000E+00
 -1      3082 3.45303E+01 3.80924E+01 0.00000E+00
 -1      3083 3.60303E+01 3.80924E+01 0.00000E+00
 -1      3084 3.37803E+01 3.67934E+01 0.00000E+00
 -1      3085 3.75303E+01 3.80924E+01 0.00000E+00
 -1      3086 3.90303E+01 3.80924E+01 0.00000E+00
 -1      3087 3.67803E+01 3.67934E+01 0.00000E+00
 -1      3088 4.05303E+01 3.80924E+01 0.00000E+00
 -1      3089 4.20303E+01 3.80924E+01 0.00000E+00
 -1      3090 3.97803E+01 3.67934E+01 0.00000E+00
 -1      3091 4.35303E+01 3.80924E+01 0.00000E+00
 -1      3092 4.50303E+01 3.80924E+01 0.00000E+00
 -1      3093 4.27803E+01 3.67934E+01 0.00000E+00
 -1      3094 4.65303E+01 3.80924E+01 0.00000E+00
 -1      3095 4.80303E+01 3.80924E+01 0.00000E+00
 -1      3096 4.57803E+01 3.67934E+01 0.00000E+00
 -1      3097 4.95303E+01 3.80924E+01 0.00000E+00
 -1      3098 5.10303E+01 3.80924E+01 0.00000E+00
 -1      3099 4.87803E+01 3.67934E+01 0.00000E+00
 -1      3100 5.25303E+01 3.80924E+01 0.00000E+00
 -1      3101 5.40303E+01 3.80924E+01 0.00000E+00
 -1      3102 5.17803E+01 3.67934E+01 0.00000E+00
 -1      3103 5.55303E+01 3.80924E+01 0.00000E+00
 -1      3104 5.70303E+01 3.80924E+01 0.00000E+00
 -1      3105 5.47803E+01 3.67934E+01 0.00000E+00
 -1      3106 5.85303E+01 3.80924E+01 0.00000E+00
 -1      3107 6.00303E+01 3.80924E+01 0.00000E+00
 -1      3108 5.77803E+01 3.67934E+01 0.00000E+00
 -1      3109 6.15303E+01 3.80924E+01 0.00000E+00
 -1      3110 6.30303E+01 3.80924E+01 0.00000E+00
 -1      3111 6.07803E+01 3.67934E+01 0.00000E+00
 -1      3112 6.45303E+01 3.80924E+01 0.00000E+00
 -1      3113 6.60303E+01 3.80924E+01 0.00000E+00
 -1      3114 6.37803E+01 3.67934E+01 0.00000E+00
 -1      3115 6.75303E+01 3.80924E+01 0.00000E+00
 -1      3116 6.90303E+01 3.80924E+01 0.00000E+00
 -1      3117 6.67803E+01 3.67934E+01 0.00000E+00
 -1      3118 7.05303E+01 3.80924E+01 0.00000E+00
 -1      3119 7.20303E+01 3.80924E+01 0.00000E+00
 -1      3120 6.97803E+01 3.67934E+01 0.00000E+00
 -1      3121 7.35303E+01 3.80924E+01 0.00000E+00
 -1      3122 7.50303E+01 3.80924E+01 0.00000E+00
 -1      3123 7.27803E+01 3.67934E+01 0.00000E+00
 -1      3124 7.65303E+01 3.80924E+01 0.00000E+00
 -1      3125 7.80303E+01 3.80924E+01 0.00000E+00
 -1      3126 7.57803E+01 3.67934E+01 0.00000E+00
 -1      3127 7.95303E+01 3.80924E+01 0.00000E+00
 -1      3128 8.10303E+01 3.80924E+01 0.00000E+00
 -1      3129 7.87803E+01 3.67934E+01 0.00000E+00
 -1      3130 8.25303E+01 3.80924E+01 0.00000E+00
 -1      3131 8.40303E+01 3.80924E+01 0.00000E+00
 -1      3132 8.17803E+01 3.67934E+01 0.00000E+00
 -1      3133 8.55303E+01 3.80924E+01 0.00000E+00
 -1      3134 8.70303E+01 3.80924E+01 0.00000E+00
 -1      3135 8.47803E+01 3.67934E+01 0.00000E+00
 -1      3136 8.85303E+01 3.80924E+01 0.00000E+00
 -1      3137 9.00303E+01 3.80924E+01 0.00000E+00
 -1      3138 8.77803E+01 3.67934E+01 0.00000E+00
 -1      3139 9.15303E+01 3.80924E+01 0.00000E+00
 -1      3140 9.30303E+01 3.80924E+01 0.00000E+00
 -1      3141 9.07803E+01 3.67934E+01 0.00000E+00
 -1      3142 9.45303E+01 3.80924E+01 0.00000E+00
 -1      3143 9.60303E+01 3.80924E+01 0.00000E+00
 -1      3144 9.37803E+01 3.67934E+01 0.00000E+00
 -1      3145 9.75303E+01 3.80924E+01 0.00000E+00
 -1      3146 9.90303E+01 3.80924E+01 0.00000E+00
 -1      3147 9.67803E+01 3.67934E+01 0.00000E+00
 -1      3148 1.00530E+02 3.80924E+01 0.00000E+00
 -1      3149 1.02030E+02 3.80924E+01 0.00000E+00
 -1      3150 9.97803E+01 3.67934E+01 0.00000E+00
 -1      3151 1.03530E+02 3.80924E+01 0.00000E+00
 -1      3152 1.05030E+02 3.80924E+01 0.00000E+00
 -1      3153 1.02780E+02 3.67934E+01 0.00000E+00
 -1      3154 1.06530E+02 3.80924E+01 0.00000E+00
 -1      3155 1.08030E+02 3.80924E+01 0.00000E+00
 -1      3156 1.05780E+02 3.67934E+01 0.00000E+00
 -1      3157 1.09530E+02 3.80924E+01 0.00000E+00
 -1      3158 1.11030E+02 3.80924E+01 0.00000E+00
 -1      3159 1.08780E+02 3.67934E+01 0.00000E+00
 -1      3160 1.12530E+02 3.80924E+01 0.00000E+00
 -1      3161 1.14030E+02 3.80924E+01 0.00000E+00
 -1      3162 1.11780E+02 3.67934E+01 0.00000E+00
 -1      3163 1.18650E+02 3.97143E+01 0.00000E+00
 -1      3164 2.87850E+01 1.05013E+01 0.00000E+00
 -1      3165 2.72850E+01 1.05013E+01 0.00000E+00
 -1      3166 3.17850E+01 1.05013E+01 0.00000E+00
 -1      3167 3.02850E+01 1.05013E+01 0.00000E+00
 -1      3168 2.95350E+01 1.18003E+01 0.00000E+00
 -1      3169 4.07850E+01 1.05013E+01 0.00000E+00
 -1      3170 3.92850E+01 1.05013E+01 0.00000E+00
 -1      3171 4.37850E+01 1.05013E+01 0.00000E+00
 -1      3172 4.22850E+01 1.05013E+01 0.00000E+00
 -1      3173 4.15350E+01 1.18003E+01 0.00000E+00
 -1      3174 4.67850E+01 1.05013E+01 0.00000E+00
 -1      3175 4.52850E+01 1.05013E+01 0.00000E+00
 -1      3176 4.45350E+01 1.18003E+01 0.00000E+00
 -1      3177 4.97850E+01 1.05013E+01 0.00000E+00
 -1      3178 4.82850E+01 1.05013E+01 0.00000E+00
 -1      3179 4.75350E+01 1.18003E+01 0.00000E+00
 -1      3180 5.27850E+01 1.05013E+01 0.00000E+00
 -1      3181 5.12850E+01 1.05013E+01 0.00000E+00
 -1      3182 5.05350E+01 1.18003E+01 0.00000E+00
 -1      3183 5.57850E+01 1.05013E+01 0.00000E+00
 -1      3184 5.42850E+01 1.05013E+01 0.00000E+00
 -1      3185 5.35350E+01 1.18003E+01 0.00000E+00
 -1      3186 5.87850E+01 1.05013E+01 0.00000E+00
 -1      3187 5.72850E+01 1.05013E+01 0.00000E+00
 -1      3188 5.65350E+01 1.18003E+01 0.00000E+00
 -1      3189 6.17850E+01 1.05013E+01 0.00000E+00
 -1      3190 6.02850E+01 1.05013E+01 0.00000E+00
 -1      3191 5.95350E+01 1.18003E+01 0.00000E+00
 -1      3192 6.47850E+01 1.05013E+01 0.00000E+00
 -1      3193 6.32850E+01 1.05013E+01 0.00000E+00
 -1      3194 6.25350E+01 1.18003E+01 0.00000E+00
 -1      3195 6.77850E+01 1.05013E+01 0.00000E+00
 -1      3196 6.62850E+01 1.05013E+01 0.00000E+00
 -1      3197 6.55350E+01 1.18003E+01 0.00000E+00
 -1      3198 7.07850E+01 1.05013E+01 0.00000E+00
 -1      3199 6.92850E+01 1.05013E+01 0.00000E+00
 -1      3200 6.85350E+01 1.18003E+01 0.00000E+00
 -1      3201 7.37850E+01 1.05013E+01 0.00000E+00
 -1      3202 7.22850E+01 1.05013E+01 0.00000E+00
 -1      3203 7.15350E+01 1.18003E+01 0.00000E+00
 -1      3204 7.67850E+01 1.05013E+01 0.00000E+00
 -1      3205 7.52850E+01 1.05013E+01 0.00000E+00
 -1      3206 7.45350E+01 1.18003E+01 0.00000E+00
 -1      3207 7.97850E+01 1.05013E+01 0.00000E+00
 -1      3208 7.82850E+01 1.05013E+01 0.00000E+00
 -1      3209 7.75350E+01 1.18003E+01 0.00000E+00
 -1      3210 8.27850E+01 1.05013E+01 0.00000E+00
 -1      3211 8.12850E+01 1.05013E+01 0.00000E+00
 -1      3212 8.05350E+01 1.18003E+01 0.00000E+00
 -1      3213 8.57850E+01 1.05013E+01 0.00000E+00
 -1      3214 8.42850E+01 1.05013E+01 0.00000E+00
 -1      3215 8.35350E+01 1.18003E+01 0.00000E+00
 -1      3216 8.87850E+01 1.05013E+01 0.00000E+00
 -1      3217 8.72850E+01 1.05013E+01 0.00000E+00
 -1      3218 8.65350E+01 1.18003E+01 0.00000E+00
 -1      3219 9.17850E+01 1.05013E+01 0.00000E+00
 -1      3220 9.02850E+01 1.05013E+01 0.00000E+00
 -1      3221 8.95350E+01 1.18003E+01 0.00000E+00
 -1      3222 9.47850E+01 1.05013E+01 0.00000E+00
 -1      3223 9.32850E+01 1.05013E+01 0.00000E+00
 -1      3224 9.25350E+01 1.18003E+01 0.00000E+00
 -1      3225 9.77850E+01 1.05013E+01 0.00000E+00
 -1      3226 9.62850E+01 1.05013E+01 0.00000E+00
 -1      3227 9.55350E+01 1.18003E+01 0.00000E+00
 -1      3228 1.00785E+02 1.05013E+01 0.00000E+00
 -1      3229 9.92850E+01 1.05013E+01 0.00000E+00
 -1      3230 9.85350E+01 1.18003E+01 0.00000E+00
 -1      3231 1.03785E+02 1.05013E+01 0.00000E+00
 -1      3232 1.02285E+02 1.05013E+01 0.00000E+00
 -1      3233 1.01535E+02 1.18003E+01 0.00000E+00
 -1      3234 1.06785E+02 1.05013E+01 0.00000E+00
 -1      3235 1.05285E+02 1.05013E+01 0.00000E+00
 -1      3236 1.04535E+02 1.18003E+01 0.00000E+00
 -1      3237 1.09785E+02 1.05013E+01 0.00000E+00
 -1      3238 1.08285E+02 1.05013E+01 0.00000E+00
 -1      3239 1.07535E+02 1.18003E+01 0.00000E+00
 -1      3240 1.12785E+02 1.05013E+01 0.00000E+00
 -1      3241 1.11285E+02 1.05013E+01 0.00000E+00
 -1      3242 1.10535E+02 1.18003E+01 0.00000E+00
 -1      3243 1.15785E+02 1.05013E+01 0.00000E+00
 -1      3244 1.14285E+02 1.05013E+01 0.00000E+00
 -1      3245 1.13535E+02 1.18003E+01 0.00000E+00
 -1      3246 1.18785E+02 1.05013E+01 0.00000E+00
 -1      3247 1.17285E+02 1.05013E+01 0.00000E+00
 -1      3248 1.16535E+02 1.18003E+01 0.00000E+00
 -1      3249 1.21785E+02 1.05013E+01 0.00000E+00
 -1      3250 1.20285E+02 1.05013E+01 0.00000E+00
 -1      3251 1.19535E+02 1.18003E+01 0.00000E+00
 -1      3252 1.27785E+02 1.03949E+01 0.00000E+00
 -1      3253 1.26285E+02 1.03949E+01 0.00000E+00
 -1      3254 1.30785E+02 1.03949E+01 0.00000E+00
 -1      3255 1.29285E+02 1.03949E+01 0.00000E+00
 -1      3256 1.28535E+02 1.15876E+01 0.00000E+00
 -1      3257 1.33785E+02 1.03949E+01 0.00000E+00
 -1      3258 1.32285E+02 1.03949E+01 0.00000E+00
 -1      3259 1.31535E+02 1.15876E+01 0.00000E+00
 -1      3260 1.36785E+02 1.03949E+01 0.00000E+00
 -1      3261 1.35285E+02 1.03949E+01 0.00000E+00
 -1      3262 1.34535E+02 1.15876E+01 0.00000E+00
 -1      3263 1.38879E+02 1.08398E+01 0.00000E+00
 -1      3264 1.37711E+02 1.05591E+01 0.00000E+00
 -1      3265 1.36961E+02 1.17518E+01 0.00000E+00
 -1      3266 1.38813E+02 1.20801E+01 0.00000E+00
 -1      3267 1.39158E+02 3.85456E+01 0.00000E+00
 -1      3268 1.16910E+01 2.12875E+01 0.00000E+00
 -1      3269 1.16910E+01 2.27625E+01 0.00000E+00
 -1      3270 1.15704E+02 2.03723E+01 0.00000E+00
 -1      3271 1.16359E+02 1.94119E+01 0.00000E+00
 -1      3272 1.14571E+02 2.27038E+01 0.00000E+00
 -1      3273 1.15110E+02 2.15763E+01 0.00000E+00
 -1      3274 1.40072E+02 3.08875E+01 0.00000E+00
 -1      3275 1.19394E+02 1.63475E+01 0.00000E+00
 -1      3276 1.20337E+02 1.55697E+01 0.00000E+00
 -1      3277 1.27914E+02 1.42218E+01 0.00000E+00
 -1      3278 1.29288E+02 1.41876E+01 0.00000E+00
 -1      3279 1.15094E+02 3.69338E+01 0.00000E+00
 -1      3280 1.14227E+02 3.56526E+01 0.00000E+00
 -1      3281 1.13337E+02 2.77406E+01 0.00000E+00
 -1      3282 1.13829E+02 2.66834E+01 0.00000E+00
 -1      3283 1.13319E+02 2.58767E+01 0.00000E+00
 -1      3284 1.37609E+02 3.64077E+01 0.00000E+00
 -1      3285 1.36984E+02 3.70944E+01 0.00000E+00
 -1      3286 1.39798E+02 2.20750E+01 0.00000E+00
 -1      3287 1.21896E+02 1.47308E+01 0.00000E+00
 -1      3288 1.23384E+02 1.42165E+01 0.00000E+00
 -1      3289 3.77850E+01 1.05013E+01 0.00000E+00
 -1      3290 3.62850E+01 1.05013E+01 0.00000E+00
 -1      3291 3.85350E+01 1.18003E+01 0.00000E+00
 -1      3292 3.47850E+01 1.05013E+01 0.00000E+00
 -1      3293 3.32850E+01 1.05013E+01 0.00000E+00
 -1      3294 3.55350E+01 1.18003E+01 0.00000E+00
 -1      3295 2.27850E+01 1.05013E+01 0.00000E+00
 -1      3296 2.12850E+01 1.05013E+01 0.00000E+00
 -1      3297 1.37032E+02 3.81780E+01 0.00000E+00
 -1      3298 2.57850E+01 1.05013E+01 0.00000E+00
 -1      3299 2.42850E+01 1.05013E+01 0.00000E+00
 -1      3300 2.65350E+01 1.18003E+01 0.00000E+00
 -1      3301 1.13674E+02 3.44519E+01 0.00000E+00
 -1      3302 1.13120E+02 3.32513E+01 0.00000E+00
 -1      3303 1.12727E+02 3.55927E+01 0.00000E+00
 -1      3304 1.26488E+01 1.02017E+01 0.00000E+00
 -1      3305 1.20772E+01 1.14631E+01 0.00000E+00
 -1      3306 1.33763E+01 1.22006E+01 0.00000E+00
 -1      3307 1.41488E+01 1.02017E+01 0.00000E+00
 -1      3308 1.39588E+02 2.74421E+01 0.00000E+00
 -1      3309 1.17229E+02 1.82179E+01 0.00000E+00
 -1      3310 1.18312E+02 1.72827E+01 0.00000E+00
 -1      3311 1.18077E+02 1.60385E+01 0.00000E+00
 -1      3312 1.31094E+02 1.44385E+01 0.00000E+00
 -1      3313 1.32537E+02 1.50022E+01 0.00000E+00
 -1      3314 1.34020E+02 1.55764E+01 0.00000E+00
 -1      3315 1.35268E+02 1.62216E+01 0.00000E+00
 -1      3316 1.00862E+01 3.73269E+01 0.00000E+00
 -1      3317 1.16910E+01 2.42375E+01 0.00000E+00
 -1      3318 1.16910E+01 2.57125E+01 0.00000E+00
 -1      3319 1.29900E+01 2.35000E+01 0.00000E+00
 -1      3320 1.29900E+01 1.46687E+01 0.00000E+00
 -1      3321 1.16910E+01 1.54063E+01 0.00000E+00
 -1      3322 1.16910E+01 1.68750E+01 0.00000E+00
 -1      3323 1.16910E+01 3.01219E+01 0.00000E+00
 -1      3324 1.16910E+01 3.15906E+01 0.00000E+00
 -1      3325 1.39420E+02 2.89046E+01 0.00000E+00
 -1      3326 1.16910E+01 3.30594E+01 0.00000E+00
 -1      3327 1.16910E+01 3.45281E+01 0.00000E+00
 -1      3328 1.29900E+01 3.23250E+01 0.00000E+00
 -1      3329 1.27288E+02 1.31556E+01 0.00000E+00
 -1      3330 1.15844E+02 3.82328E+01 0.00000E+00
 -1      3331 1.24138E+02 1.32365E+01 0.00000E+00
 -1      3332 3.25350E+01 1.18003E+01 0.00000E+00
 -1      3333 1.37380E+02 1.62819E+01 0.00000E+00
 -1      3334 1.37380E+02 1.48194E+01 0.00000E+00
 -1      3335 1.12370E+02 3.24010E+01 0.00000E+00
 -1      3336 1.11619E+02 3.15507E+01 0.00000E+00
 -1      3337 1.11423E+02 3.35418E+01 0.00000E+00
 -1      3338 1.12056E+02 2.96032E+01 0.00000E+00
 -1      3339 1.12697E+02 2.86719E+01 0.00000E+00
 -1      3340 1.12186E+02 2.78652E+01 0.00000E+00
 -1      3341 1.24785E+02 1.05013E+01 0.00000E+00
 -1      3342 1.23285E+02 1.05013E+01 0.00000E+00
 -1      3343 1.14660E+02 2.05657E+01 0.00000E+00
 -1      3344 1.13939E+02 2.32946E+01 0.00000E+00
 -1      3345 1.13435E+02 2.23605E+01 0.00000E+00
 -1      3346 1.13307E+02 2.38854E+01 0.00000E+00
 -1      3347 1.17028E+02 3.83411E+01 0.00000E+00
 -1      3348 1.16910E+01 1.98188E+01 0.00000E+00
 -1      3349 1.29900E+01 2.05562E+01 0.00000E+00
 -1      3350 1.16910E+01 1.83500E+01 0.00000E+00
 -1      3351 1.16124E+02 1.81677E+01 0.00000E+00
 -1      3352 1.33671E+02 1.43397E+01 0.00000E+00
 -1      3353 1.30383E+02 1.35146E+01 0.00000E+00
 -1      3354 1.20719E+02 1.42644E+01 0.00000E+00
 -1      3355 1.71488E+01 1.02017E+01 0.00000E+00
 -1      3356 1.56488E+01 1.02017E+01 0.00000E+00
 -1      3357 1.52625E+01 1.12011E+01 0.00000E+00
 -1      3358 1.99669E+01 1.03515E+01 0.00000E+00
 -1      3359 1.84669E+01 1.03515E+01 0.00000E+00
 -1      3360 1.80806E+01 1.13509E+01 0.00000E+00
 -1      3361 2.07169E+01 1.16505E+01 0.00000E+00
 -1      3362 1.39111E+02 3.74621E+01 0.00000E+00
 -1      3363 1.39105E+02 3.63704E+01 0.00000E+00
 -1      3364 1.38660E+02 3.53372E+01 0.00000E+00
 -1      3365 2.35350E+01 1.18003E+01 0.00000E+00
 -1      3366 1.39577E+02 3.01180E+01 0.00000E+00
 -1      3367 1.25535E+02 1.16939E+01 0.00000E+00
 -1      3368 1.39083E+02 3.41099E+01 0.00000E+00
 -1      3369 1.38103E+02 3.85244E+01 0.00000E+00
 -1      3370 1.22535E+02 1.18003E+01 0.00000E+00
 -1      3371 1.15862E+01 3.73269E+01 0.00000E+00
 -1      3372 1.39083E+02 3.26349E+01 0.00000E+00
 -1      3373 1.23362E+01 3.60279E+01 0.00000E+00
 -1      3374 1.39661E+02 3.15805E+01 0.00000E+00
 -1      3375 1.16910E+01 2.86531E+01 0.00000E+00
 -1      3376 1.29900E+01 2.93875E+01 0.00000E+00
 -1      3377 1.16910E+01 2.71844E+01 0.00000E+00
 -1      3378 1.16811E+02 1.56671E+01 0.00000E+00
 -1      3379 1.17893E+02 1.47318E+01 0.00000E+00
 -1      3380 1.23156E+02 1.26129E+01 0.00000E+00
 -1      3381 1.21656E+02 1.26129E+01 0.00000E+00
 -1      3382 1.80304E+01 3.54944E+01 0.00000E+00
 -1      3383 1.95304E+01 3.54944E+01 0.00000E+00
 -1      3384 2.10304E+01 3.54944E+01 0.00000E+00
 -1      3385 2.25304E+01 3.54944E+01 0.00000E+00
 -1      3386 2.02804E+01 3.41954E+01 0.00000E+00
 -1      3387 2.40304E+01 3.54944E+01 0.00000E+00
 -1      3388 2.55304E+01 3.54944E+01 0.00000E+00
 -1      3389 2.32804E+01 3.41954E+01 0.00000E+00
 -1      3390 2.70304E+01 3.54944E+01 0.00000E+00
 -1      3391 2.85304E+01 3.54944E+01 0.00000E+00
 -1      3392 2.62804E+01 3.41954E+01 0.00000E+00
 -1      3393 3.00304E+01 3.54944E+01 0.00000E+00
 -1      3394 3.15304E+01 3.54944E+01 0.00000E+00
 -1      3395 2.92804E+01 3.41954E+01 0.00000E+00
 -1      3396 3.30303E+01 3.54944E+01 0.00000E+00
 -1      3397 3.45303E+01 3.54944E+01 0.00000E+00
 -1      3398 3.22803E+01 3.41954E+01 0.00000E+00
 -1      3399 3.60303E+01 3.54944E+01 0.00000E+00
 -1      3400 3.75303E+01 3.54944E+01 0.00000E+00
 -1      3401 3.52803E+01 3.41954E+01 0.00000E+00
 -1      3402 3.90303E+01 3.54944E+01 0.00000E+00
 -1      3403 4.05303E+01 3.54944E+01 0.00000E+00
 -1      3404 3.82803E+01 3.41954E+01 0.00000E+00
 -1      3405 4.20303E+01 3.54944E+01 0.00000E+00
 -1      3406 4.35303E+01 3.54944E+01 0.00000E+00
 -1      3407 4.12803E+01 3.41954E+01 0.00000E+00
 -1      3408 4.50303E+01 3.54944E+01 0.00000E+00
 -1      3409 4.65303E+01 3.54944E+01 0.00000E+00
 -1      3410 4.42803E+01 3.41954E+01 0.00000E+00
 -1      3411 4.80303E+01 3.54944E+01 0.00000E+00
 -1      3412 4.95303E+01 3.54944E+01 0.00000E+00
 -1      3413 4.72803E+01 3.41954E+01 0.00000E+00
 -1      3414 5.10303E+01 3.54944E+01 0.00000E+00
 -1      3415 5.25303E+01 3.54944E+01 0.00000E+00
 -1      3416 5.02803E+01 3.41954E+01 0.00000E+00
 -1      3417 5.40303E+01 3.54944E+01 0.00000E+00
 -1      3418 5.55303E+01 3.54944E+01 0.00000E+00
 -1      3419 5.32803E+01 3.41954E+01 0.00000E+00
 -1      3420 5.70303E+01 3.54944E+01 0.00000E+00
 -1      3421 5.85303E+01 3.54944E+01 0.00000E+00
 -1      3422 5.62803E+01 3.41954E+01 0.00000E+00
 -1      3423 6.00303E+01 3.54944E+01 0.00000E+00
 -1      3424 6.15303E+01 3.54944E+01 0.00000E+00
 -1      3425 5.92803E+01 3.41954E+01 0.00000E+00
 -1      3426 6.30303E+01 3.54944E+01 0.00000E+00
 -1      3427 6.45303E+01 3.54944E+01 0.00000E+00
 -1      3428 6.22803E+01 3.41954E+01 0.00000E+00
 -1      3429 6.60303E+01 3.54944E+01 0.00000E+00
 -1      3430 6.75303E+01 3.54944E+01 0.00000E+00
 -1      3431 6.52803E+01 3.41954E+01 0.00000E+00
 -1      3432 6.90303E+01 3.54944E+01 0.00000E+00
 -1      3433 7.05303E+01 3.54944E+01 0.00000E+00
 -1      3434 6.82803E+01 3.41954E+01 0.00000E+00
 -1      3435 7.20303E+01 3.54944E+01 0.00000E+00
 -1      3436 7.35303E+01 3.54944E+01 0.00000E+00
 -1      3437 7.12803E+01 3.41954E+01 0.00000E+00
 -1      3438 7.50303E+01 3.54944E+01 0.00000E+00
 -1      3439 7.65303E+01 3.54944E+01 0.00000E+00
 -1      3440 7.42803E+01 3.41954E+01 0.00000E+00
 -1      3441 7.80303E+01 3.54944E+01 0.00000E+00
 -1      3442 7.95303E+01 3.54944E+01 0.00000E+00
 -1      3443 7.72803E+01 3.41954E+01 0.00000E+00
 -1      3444 8.10303E+01 3.54944E+01 0.00000E+00
 -1      3445 8.25303E+01 3.54944E+01 0.00000E+00
 -1      3446 8.02803E+01 3.41954E+01 0.00000E+00
 -1      3447 8.40303E+01 3.54944E+01 0.00000E+00
 -1      3448 8.55303E+01 3.54944E+01 0.00000E+00
 -1      3449 8.32803E+01 3.41954E+01 0.00000E+00
 -1      3450 8.70303E+01 3.54944E+01 0.00000E+00
 -1      3451 8.85303E+01 3.54944E+01 0.00000E+00
 -1      3452 8.62803E+01 3.41954E+01 0.00000E+00
 -1      3453 9.00303E+01 3.54944E+01 0.00000E+00
 -1      3454 9.15303E+01 3.54944E+01 0.00000E+00
 -1      3455 8.92803E+01 3.41954E+01 0.00000E+00
 -1      3456 9.30303E+01 3.54944E+01 0.00000E+00
 -1      3457 9.45303E+01 3.54944E+01 0.00000E+00
 -1      3458 9.22803E+01 3.41954E+01 0.00000E+00
 -1      3459 9.60303E+01 3.54944E+01 0.00000E+00
 -1      3460 9.75303E+01 3.54944E+01 0.00000E+00
 -1      3461 9.52803E+01 3.41954E+01 0.00000E+00
 -1      3462 9.90303E+01 3.54944E+01 0.00000E+00
 -1      3463 1.00530E+02 3.54944E+01 0.00000E+00
 -1      3464 9.82803E+01 3.41954E+01 0.00000E+00
 -1      3465 1.02030E+02 3.54944E+01 0.00000E+00
 -1      3466 1.03530E+02 3.54944E+01 0.00000E+00
 -1      3467 1.01280E+02 3.41954E+01 0.00000E+00
 -1      3468 1.05030E+02 3.54944E+01 0.00000E+00
 -1      3469 1.06530E+02 3.54944E+01 0.00000E+00
 -1      3470 1.04280E+02 3.41954E+01 0.00000E+00
 -1      3471 1.11227E+02 3.55927E+01 0.00000E+00
 -1      3472 1.37496E+02 1.75897E+01 0.00000E+00
 -1      3473 3.02850E+01 1.30992E+01 0.00000E+00
 -1      3474 2.87850E+01 1.30992E+01 0.00000E+00
 -1      3475 1.26516E+02 1.23176E+01 0.00000E+00
 -1      3476 1.27806E+02 1.24257E+01 0.00000E+00
 -1      3477 4.52850E+01 1.30992E+01 0.00000E+00
 -1      3478 4.37850E+01 1.30992E+01 0.00000E+00
 -1      3479 4.22850E+01 1.30992E+01 0.00000E+00
 -1      3480 4.07850E+01 1.30992E+01 0.00000E+00
 -1      3481 4.30350E+01 1.43982E+01 0.00000E+00
 -1      3482 5.12850E+01 1.30992E+01 0.00000E+00
 -1      3483 4.97850E+01 1.30992E+01 0.00000E+00
 -1      3484 5.42850E+01 1.30992E+01 0.00000E+00
 -1      3485 5.27850E+01 1.30992E+01 0.00000E+00
 -1      3486 5.20350E+01 1.43982E+01 0.00000E+00
 -1      3487 5.72850E+01 1.30992E+01 0.00000E+00
 -1      3488 5.57850E+01 1.30992E+01 0.00000E+00
 -1      3489 5.50350E+01 1.43982E+01 0.00000E+00
 -1      3490 6.02850E+01 1.30992E+01 0.00000E+00
 -1      3491 5.87850E+01 1.30992E+01 0.00000E+00
 -1      3492 5.80350E+01 1.43982E+01 0.00000E+00
 -1      3493 6.32850E+01 1.30992E+01 0.00000E+00
 -1      3494 6.17850E+01 1.30992E+01 0.00000E+00
 -1      3495 6.10350E+01 1.43982E+01 0.00000E+00
 -1      3496 6.62850E+01 1.30992E+01 0.00000E+00
 -1      3497 6.47850E+01 1.30992E+01 0.00000E+00
 -1      3498 6.40350E+01 1.43982E+01 0.00000E+00
 -1      3499 6.92850E+01 1.30992E+01 0.00000E+00
 -1      3500 6.77850E+01 1.30992E+01 0.00000E+00
 -1      3501 6.70350E+01 1.43982E+01 0.00000E+00
 -1      3502 7.22850E+01 1.30992E+01 0.00000E+00
 -1      3503 7.07850E+01 1.30992E+01 0.00000E+00
 -1      3504 7.00350E+01 1.43982E+01 0.00000E+00
 -1      3505 7.52850E+01 1.30992E+01 0.00000E+00
 -1      3506 7.37850E+01 1.30992E+01 0.00000E+00
 -1      3507 7.30350E+01 1.43982E+01 0.00000E+00
 -1      3508 7.82850E+01 1.30992E+01 0.00000E+00
 -1      3509 7.67850E+01 1.30992E+01 0.00000E+00
 -1      3510 7.60350E+01 1.43982E+01 0.00000E+00
 -1      3511 8.12850E+01 1.30992E+01 0.00000E+00
 -1      3512 7.97850E+01 1.30992E+01 0.00000E+00
 -1      3513 7.90350E+01 1.43982E+01 0.00000E+00
 -1      3514 8.42850E+01 1.30992E+01 0.00000E+00
 -1      3515 8.27850E+01 1.30992E+01 0.00000E+00
 -1      3516 8.20350E+01 1.43982E+01 0.00000E+00
 -1      3517 8.72850E+01 1.30992E+01 0.00000E+00
 -1      3518 8.57850E+01 1.30992E+01 0.00000E+00
 -1      3519 8.50350E+01 1.43982E+01 0.00000E+00
 -1      3520 9.02850E+01 1.30992E+01 0.00000E+00
 -1      3521 8.87850E+01 1.30992E+01 0.00000E+00
 -1      3522 8.80350E+01 1.43982E+01 0.00000E+00
 -1      3523 9.32850E+01 1.30992E+01 0.00000E+00
 -1      3524 9.17850E+01 1.30992E+01 0.00000E+00
 -1      3525 9.10350E+01 1.43982E+01 0.00000E+00
 -1      3526 9.62850E+01 1.30992E+01 0.00000E+00
 -1      3527 9.47850E+01 1.30992E+01 0.00000E+00
 -1      3528 9.40350E+01 1.43982E+01 0.00000E+00
 -1      3529 9.92850E+01 1.30992E+01 0.00000E+00
 -1      3530 9.77850E+01 1.30992E+01 0.00000E+00
 -1      3531 9.70350E+01 1.43982E+01 0.00000E+00
 -1      3532 1.02285E+02 1.30992E+01 0.00000E+00
 -1      3533 1.00785E+02 1.30992E+01 0.00000E+00
 -1      3534 1.00035E+02 1.43982E+01 0.00000E+00
 -1      3535 1.05285E+02 1.30992E+01 0.00000E+00
 -1      3536 1.03785E+02 1.30992E+01 0.00000E+00
 -1      3537 1.03035E+02 1.43982E+01 0.00000E+00
 -1      3538 1.08285E+02 1.30992E+01 0.00000E+00
 -1      3539 1.06785E+02 1.30992E+01 0.00000E+00
 -1      3540 1.06035E+02 1.43982E+01 0.00000E+00
 -1      3541 1.11285E+02 1.30992E+01 0.00000E+00
 -1      3542 1.09785E+02 1.30992E+01 0.00000E+00
 -1      3543 1.09035E+02 1.43982E+01 0.00000E+00
 -1      3544 1.14285E+02 1.30992E+01 0.00000E+00
 -1      3545 1.12785E+02 1.30992E+01 0.00000E+00
 -1      3546 1.12035E+02 1.43982E+01 0.00000E+00
 -1      3547 1.17331E+02 1.30803E+01 0.00000E+00
 -1      3548 1.15831E+02 1.30803E+01 0.00000E+00
 -1      3549 1.32612E+02 1.26766E+01 0.00000E+00
 -1      3550 1.31112E+02 1.26766E+01 0.00000E+00
 -1      3551 1.13444E+02 2.07146E+01 0.00000E+00
 -1      3552 1.14037E+02 1.95106E+01 0.00000E+00
 -1      3553 1.29306E+02 1.24257E+01 0.00000E+00
 -1      3554 1.38748E+02 1.33205E+01 0.00000E+00
 -1      3555 1.38721E+02 2.03202E+01 0.00000E+00
 -1      3556 1.38721E+02 1.88452E+01 0.00000E+00
 -1      3557 1.48763E+01 1.22006E+01 0.00000E+00
 -1      3558 1.44900E+01 1.32000E+01 0.00000E+00
 -1      3559 1.63762E+01 1.22006E+01 0.00000E+00
 -1      3560 1.12323E+02 2.59998E+01 0.00000E+00
 -1      3561 1.12815E+02 2.49426E+01 0.00000E+00
 -1      3562 1.12312E+02 2.40085E+01 0.00000E+00
 -1      3563 2.42850E+01 1.30992E+01 0.00000E+00
 -1      3564 2.27850E+01 1.30992E+01 0.00000E+00
 -1      3565 3.62850E+01 1.30992E+01 0.00000E+00
 -1      3566 3.47850E+01 1.30992E+01 0.00000E+00
 -1      3567 1.18057E+02 3.91984E+01 0.00000E+00
 -1      3568 1.25016E+02 1.24239E+01 0.00000E+00
 -1      3569 2.72850E+01 1.30992E+01 0.00000E+00
 -1      3570 2.57850E+01 1.30992E+01 0.00000E+00
 -1      3571 2.80350E+01 1.43982E+01 0.00000E+00
 -1      3572 1.20097E+02 1.34518E+01 0.00000E+00
 -1      3573 1.09628E+02 3.57679E+01 0.00000E+00
 -1      3574 1.10575E+02 3.45672E+01 0.00000E+00
 -1      3575 1.09824E+02 3.37170E+01 0.00000E+00
 -1      3576 1.08128E+02 3.57679E+01 0.00000E+00
 -1      3577 1.34094E+02 1.32507E+01 0.00000E+00
 -1      3578 1.18597E+02 1.34518E+01 0.00000E+00
 -1      3579 1.14657E+02 1.80127E+01 0.00000E+00
 -1      3580 1.15528E+02 1.68187E+01 0.00000E+00
 -1      3581 1.35594E+02 1.32507E+01 0.00000E+00
 -1      3582 3.92850E+01 1.30992E+01 0.00000E+00
 -1      3583 3.77850E+01 1.30992E+01 0.00000E+00
 -1      3584 3.70350E+01 1.43982E+01 0.00000E+00
 -1      3585 4.82850E+01 1.30992E+01 0.00000E+00
 -1      3586 4.67850E+01 1.30992E+01 0.00000E+00
 -1      3587 4.60350E+01 1.43982E+01 0.00000E+00
 -1      3588 4.90350E+01 1.43982E+01 0.00000E+00
 -1      3589 1.50304E+01 3.54944E+01 0.00000E+00
 -1      3590 1.65304E+01 3.54944E+01 0.00000E+00
 -1      3591 1.72804E+01 3.41954E+01 0.00000E+00
 -1      3592 3.32850E+01 1.30992E+01 0.00000E+00
 -1      3593 3.17850E+01 1.30992E+01 0.00000E+00
 -1      3594 3.40350E+01 1.43982E+01 0.00000E+00
 -1      3595 1.44900E+01 1.46687E+01 0.00000E+00
 -1      3596 1.15344E+02 1.55120E+01 0.00000E+00
 -1      3597 1.07378E+02 3.44689E+01 0.00000E+00
 -1      3598 1.36352E+01 3.52936E+01 0.00000E+00
 -1      3599 1.43852E+01 3.39946E+01 0.00000E+00
 -1      3600 2.50350E+01 1.43982E+01 0.00000E+00
 -1      3601 3.10350E+01 1.43982E+01 0.00000E+00
 -1      3602 1.36520E+02 1.34149E+01 0.00000E+00
 -1      3603 1.10162E+02 3.18848E+01 0.00000E+00
 -1      3604 1.11109E+02 3.07440E+01 0.00000E+00
 -1      3605 1.10599E+02 2.99373E+01 0.00000E+00
 -1      3606 4.00350E+01 1.43982E+01 0.00000E+00
 -1      3607 1.15081E+02 1.43793E+01 0.00000E+00
 -1      3608 1.13441E+02 1.81616E+01 0.00000E+00
 -1      3609 1.29900E+01 1.76125E+01 0.00000E+00
 -1      3610 1.12181E+02 2.18962E+01 0.00000E+00
 -1      3611 1.12812E+02 2.13054E+01 0.00000E+00
 -1      3612 1.12189E+02 2.02503E+01 0.00000E+00
 -1      3613 2.14669E+01 1.29495E+01 0.00000E+00
 -1      3614 2.01488E+01 1.27997E+01 0.00000E+00
 -1      3615 2.22169E+01 1.42485E+01 0.00000E+00
 -1      3616 1.11683E+02 2.69311E+01 0.00000E+00
 -1      3617 1.11179E+02 2.59969E+01 0.00000E+00
 -1      3618 1.11042E+02 2.78624E+01 0.00000E+00
 -1      3619 1.42890E+01 1.98219E+01 0.00000E+00
 -1      3620 1.42890E+01 2.12906E+01 0.00000E+00
 -1      3621 1.29900E+01 2.64469E+01 0.00000E+00
 -1      3622 1.42890E+01 2.86531E+01 0.00000E+00
 -1      3623 1.42890E+01 3.01219E+01 0.00000E+00
 -1      3624 1.42890E+01 2.27656E+01 0.00000E+00
 -1      3625 1.42890E+01 2.42406E+01 0.00000E+00
 -1      3626 1.55880E+01 2.20313E+01 0.00000E+00
 -1      3627 1.42890E+01 3.15906E+01 0.00000E+00
 -1      3628 1.42890E+01 3.30594E+01 0.00000E+00
 -1      3629 1.95304E+01 3.28964E+01 0.00000E+00
 -1      3630 2.10304E+01 3.28964E+01 0.00000E+00
 -1      3631 1.56842E+01 3.32602E+01 0.00000E+00
 -1      3632 2.25304E+01 3.28964E+01 0.00000E+00
 -1      3633 2.40304E+01 3.28964E+01 0.00000E+00
 -1      3634 2.17804E+01 3.15974E+01 0.00000E+00
 -1      3635 2.55304E+01 3.28964E+01 0.00000E+00
 -1      3636 2.70304E+01 3.28964E+01 0.00000E+00
 -1      3637 2.47804E+01 3.15974E+01 0.00000E+00
 -1      3638 2.85304E+01 3.28964E+01 0.00000E+00
 -1      3639 3.00304E+01 3.28964E+01 0.00000E+00
 -1      3640 2.77804E+01 3.15974E+01 0.00000E+00
 -1      3641 3.15304E+01 3.28964E+01 0.00000E+00
 -1      3642 3.30303E+01 3.28964E+01 0.00000E+00
 -1      3643 3.07804E+01 3.15974E+01 0.00000E+00
 -1      3644 3.45303E+01 3.28964E+01 0.00000E+00
 -1      3645 3.60303E+01 3.28964E+01 0.00000E+00
 -1      3646 3.37803E+01 3.15974E+01 0.00000E+00
 -1      3647 3.75303E+01 3.28964E+01 0.00000E+00
 -1      3648 3.90303E+01 3.28964E+01 0.00000E+00
 -1      3649 3.67803E+01 3.15974E+01 0.00000E+00
 -1      3650 4.05303E+01 3.28964E+01 0.00000E+00
 -1      3651 4.20303E+01 3.28964E+01 0.00000E+00
 -1      3652 3.97803E+01 3.15974E+01 0.00000E+00
 -1      3653 4.35303E+01 3.28964E+01 0.00000E+00
 -1      3654 4.50303E+01 3.28964E+01 0.00000E+00
 -1      3655 4.27803E+01 3.15974E+01 0.00000E+00
 -1      3656 4.65303E+01 3.28964E+01 0.00000E+00
 -1      3657 4.80303E+01 3.28964E+01 0.00000E+00
 -1      3658 4.57803E+01 3.15974E+01 0.00000E+00
 -1      3659 4.95303E+01 3.28964E+01 0.00000E+00
 -1      3660 5.10303E+01 3.28964E+01 0.00000E+00
 -1      3661 4.87803E+01 3.15974E+01 0.00000E+00
 -1      3662 5.25303E+01 3.28964E+01 0.00000E+00
 -1      3663 5.40303E+01 3.28964E+01 0.00000E+00
 -1      3664 5.17803E+01 3.15974E+01 0.00000E+00
 -1      3665 5.55303E+01 3.28964E+01 0.00000E+00
 -1      3666 5.70303E+01 3.28964E+01 0.00000E+00
 -1      3667 5.47803E+01 3.15974E+01 0.00000E+00
 -1      3668 5.85303E+01 3.28964E+01 0.00000E+00
 -1      3669 6.00303E+01 3.28964E+01 0.00000E+00
 -1      3670 5.77803E+01 3.15974E+01 0.00000E+00
 -1      3671 6.15303E+01 3.28964E+01 0.00000E+00
 -1      3672 6.30303E+01 3.28964E+01 0.00000E+00
 -1      3673 6.07803E+01 3.15974E+01 0.00000E+00
 -1      3674 6.45303E+01 3.28964E+01 0.00000E+00
 -1      3675 6.60303E+01 3.28964E+01 0.00000E+00
 -1      3676 6.37803E+01 3.15974E+01 0.00000E+00
 -1      3677 6.75303E+01 3.28964E+01 0.00000E+00
 -1      3678 6.90303E+01 3.28964E+01 0.00000E+00
 -1      3679 6.67803E+01 3.15974E+01 0.00000E+00
 -1      3680 7.05303E+01 3.28964E+01 0.00000E+00
 -1      3681 7.20303E+01 3.28964E+01 0.00000E+00
 -1      3682 6.97803E+01 3.15974E+01 0.00000E+00
 -1      3683 7.35303E+01 3.28964E+01 0.00000E+00
 -1      3684 7.50303E+01 3.28964E+01 0.00000E+00
 -1      3685 7.27803E+01 3.15974E+01 0.00000E+00
 -1      3686 7.65303E+01 3.28964E+01 0.00000E+00
 -1      3687 7.80303E+01 3.28964E+01 0.00000E+00
 -1      3688 7.57803E+01 3.15974E+01 0.00000E+00
 -1      3689 7.95303E+01 3.28964E+01 0.00000E+00
 -1      3690 8.10303E+01 3.28964E+01 0.00000E+00
 -1      3691 7.87803E+01 3.15974E+01 0.00000E+00
 -1      3692 8.25303E+01 3.28964E+01 0.00000E+00
 -1      3693 8.40303E+01 3.28964E+01 0.00000E+00
 -1      3694 8.17803E+01 3.15974E+01 0.00000E+00
 -1      3695 8.55303E+01 3.28964E+01 0.00000E+00
 -1      3696 8.70303E+01 3.28964E+01 0.00000E+00
 -1      3697 8.47803E+01 3.15974E+01 0.00000E+00
 -1      3698 8.85303E+01 3.28964E+01 0.00000E+00
 -1      3699 9.00303E+01 3.28964E+01 0.00000E+00
 -1      3700 8.77803E+01 3.15974E+01 0.00000E+00
 -1      3701 9.15303E+01 3.28964E+01 0.00000E+00
 -1      3702 9.30303E+01 3.28964E+01 0.00000E+00
 -1      3703 9.07803E+01 3.15974E+01 0.00000E+00
 -1      3704 9.45303E+01 3.28964E+01 0.00000E+00
 -1      3705 9.60303E+01 3.28964E+01 0.00000E+00
 -1      3706 9.37803E+01 3.15974E+01 0.00000E+00
 -1      3707 9.75303E+01 3.28964E+01 0.00000E+00
 -1      3708 9.90303E+01 3.28964E+01 0.00000E+00
 -1      3709 9.67803E+01 3.15974E+01 0.00000E+00
 -1      3710 1.00530E+02 3.28964E+01 0.00000E+00
 -1      3711 1.02030E+02 3.28964E+01 0.00000E+00
 -1      3712 9.97803E+01 3.15974E+01 0.00000E+00
 -1      3713 1.03530E+02 3.28964E+01 0.00000E+00
 -1      3714 1.05030E+02 3.28964E+01 0.00000E+00
 -1      3715 1.02780E+02 3.15974E+01 0.00000E+00
 -1      3716 2.57850E+01 1.56973E+01 0.00000E+00
 -1      3717 2.42850E+01 1.56973E+01 0.00000E+00
 -1      3718 4.07850E+01 1.56973E+01 0.00000E+00
 -1      3719 3.92850E+01 1.56973E+01 0.00000E+00
 -1      3720 1.68573E+01 3.30783E+01 0.00000E+00
 -1      3721 1.83573E+01 3.30783E+01 0.00000E+00
 -1      3722 1.91073E+01 3.17793E+01 0.00000E+00
 -1      3723 1.67611E+01 3.21431E+01 0.00000E+00
 -1      3724 5.57850E+01 1.56973E+01 0.00000E+00
 -1      3725 5.42850E+01 1.56973E+01 0.00000E+00
 -1      3726 5.27850E+01 1.56973E+01 0.00000E+00
 -1      3727 5.12850E+01 1.56973E+01 0.00000E+00
 -1      3728 5.35350E+01 1.69963E+01 0.00000E+00
 -1      3729 6.17850E+01 1.56973E+01 0.00000E+00
 -1      3730 6.02850E+01 1.56973E+01 0.00000E+00
 -1      3731 6.47850E+01 1.56973E+01 0.00000E+00
 -1      3732 6.32850E+01 1.56973E+01 0.00000E+00
 -1      3733 6.25350E+01 1.69963E+01 0.00000E+00
 -1      3734 6.77850E+01 1.56973E+01 0.00000E+00
 -1      3735 6.62850E+01 1.56973E+01 0.00000E+00
 -1      3736 6.55350E+01 1.69963E+01 0.00000E+00
 -1      3737 7.07850E+01 1.56973E+01 0.00000E+00
 -1      3738 6.92850E+01 1.56973E+01 0.00000E+00
 -1      3739 6.85350E+01 1.69963E+01 0.00000E+00
 -1      3740 7.37850E+01 1.56973E+01 0.00000E+00
 -1      3741 7.22850E+01 1.56973E+01 0.00000E+00
 -1      3742 7.15350E+01 1.69963E+01 0.00000E+00
 -1      3743 7.67850E+01 1.56973E+01 0.00000E+00
 -1      3744 7.52850E+01 1.56973E+01 0.00000E+00
 -1      3745 7.45350E+01 1.69963E+01 0.00000E+00
 -1      3746 7.97850E+01 1.56973E+01 0.00000E+00
 -1      3747 7.82850E+01 1.56973E+01 0.00000E+00
 -1      3748 7.75350E+01 1.69963E+01 0.00000E+00
 -1      3749 8.27850E+01 1.56973E+01 0.00000E+00
 -1      3750 8.12850E+01 1.56973E+01 0.00000E+00
 -1      3751 8.05350E+01 1.69963E+01 0.00000E+00
 -1      3752 8.57850E+01 1.56973E+01 0.00000E+00
 -1      3753 8.42850E+01 1.56973E+01 0.00000E+00
 -1      3754 8.35350E+01 1.69963E+01 0.00000E+00
 -1      3755 8.87850E+01 1.56973E+01 0.00000E+00
 -1      3756 8.72850E+01 1.56973E+01 0.00000E+00
 -1      3757 8.65350E+01 1.69963E+01 0.00000E+00
 -1      3758 9.17850E+01 1.56973E+01 0.00000E+00
 -1      3759 9.02850E+01 1.56973E+01 0.00000E+00
 -1      3760 8.95350E+01 1.69963E+01 0.00000E+00
 -1      3761 9.47850E+01 1.56973E+01 0.00000E+00
 -1      3762 9.32850E+01 1.56973E+01 0.00000E+00
 -1      3763 9.25350E+01 1.69963E+01 0.00000E+00
 -1      3764 9.77850E+01 1.56973E+01 0.00000E+00
 -1      3765 9.62850E+01 1.56973E+01 0.00000E+00
 -1      3766 9.55350E+01 1.69963E+01 0.00000E+00
 -1      3767 1.00785E+02 1.56973E+01 0.00000E+00
 -1      3768 9.92850E+01 1.56973E+01 0.00000E+00
 -1      3769 9.85350E+01 1.69963E+01 0.00000E+00
 -1      3770 1.03785E+02 1.56973E+01 0.00000E+00
 -1      3771 1.02285E+02 1.56973E+01 0.00000E+00
 -1      3772 1.01535E+02 1.69963E+01 0.00000E+00
 -1      3773 1.06785E+02 1.56973E+01 0.00000E+00
 -1      3774 1.05285E+02 1.56973E+01 0.00000E+00
 -1      3775 1.04535E+02 1.69963E+01 0.00000E+00
 -1      3776 1.09785E+02 1.56973E+01 0.00000E+00
 -1      3777 1.08285E+02 1.56973E+01 0.00000E+00
 -1      3778 1.07535E+02 1.69963E+01 0.00000E+00
 -1      3779 1.12029E+02 1.84544E+01 0.00000E+00
 -1      3780 1.12649E+02 1.69565E+01 0.00000E+00
 -1      3781 1.06628E+02 3.31699E+01 0.00000E+00
 -1      3782 1.08226E+02 3.34434E+01 0.00000E+00
 -1      3783 1.09074E+02 3.24180E+01 0.00000E+00
 -1      3784 1.05878E+02 3.18709E+01 0.00000E+00
 -1      3785 5.87850E+01 1.56973E+01 0.00000E+00
 -1      3786 5.72850E+01 1.56973E+01 0.00000E+00
 -1      3787 5.95350E+01 1.69963E+01 0.00000E+00
 -1      3788 4.37850E+01 1.56973E+01 0.00000E+00
 -1      3789 4.22850E+01 1.56973E+01 0.00000E+00
 -1      3790 4.15350E+01 1.69963E+01 0.00000E+00
 -1      3791 3.77850E+01 1.56973E+01 0.00000E+00
 -1      3792 3.62850E+01 1.56973E+01 0.00000E+00
 -1      3793 3.85350E+01 1.69963E+01 0.00000E+00
 -1      3794 1.42890E+01 1.83469E+01 0.00000E+00
 -1      3795 1.55880E+01 1.90812E+01 0.00000E+00
 -1      3796 1.42890E+01 1.68719E+01 0.00000E+00
 -1      3797 1.13798E+02 1.55310E+01 0.00000E+00
 -1      3798 1.11197E+02 2.40106E+01 0.00000E+00
 -1      3799 1.11689E+02 2.29534E+01 0.00000E+00
 -1      3800 1.11066E+02 2.18983E+01 0.00000E+00
 -1      3801 1.57890E+01 1.54031E+01 0.00000E+00
 -1      3802 2.87850E+01 1.56973E+01 0.00000E+00
 -1      3803 2.72850E+01 1.56973E+01 0.00000E+00
 -1      3804 2.65350E+01 1.69963E+01 0.00000E+00
 -1      3805 3.47850E+01 1.56973E+01 0.00000E+00
 -1      3806 3.32850E+01 1.56973E+01 0.00000E+00
 -1      3807 3.55350E+01 1.69963E+01 0.00000E+00
 -1      3808 1.12386E+02 1.58238E+01 0.00000E+00
 -1      3809 3.17850E+01 1.56973E+01 0.00000E+00
 -1      3810 3.02850E+01 1.56973E+01 0.00000E+00
 -1      3811 2.95350E+01 1.69963E+01 0.00000E+00
 -1      3812 1.89216E+01 1.25750E+01 0.00000E+00
 -1      3813 1.76034E+01 1.24252E+01 0.00000E+00
 -1      3814 1.72172E+01 1.34247E+01 0.00000E+00
 -1      3815 1.96716E+01 1.38740E+01 0.00000E+00
 -1      3816 1.42890E+01 2.57109E+01 0.00000E+00
 -1      3817 1.42890E+01 2.71828E+01 0.00000E+00
 -1      3818 1.55880E+01 2.79172E+01 0.00000E+00
 -1      3819 1.55880E+01 2.49766E+01 0.00000E+00
 -1      3820 1.55880E+01 3.08563E+01 0.00000E+00
 -1      3821 1.67611E+01 3.06743E+01 0.00000E+00
 -1      3822 1.68870E+01 2.12938E+01 0.00000E+00
 -1      3823 1.68870E+01 2.27687E+01 0.00000E+00
 -1      3824 5.65350E+01 1.69963E+01 0.00000E+00
 -1      3825 3.25350E+01 1.69963E+01 0.00000E+00
 -1      3826 1.68870E+01 1.83438E+01 0.00000E+00
 -1      3827 1.68870E+01 1.98188E+01 0.00000E+00
 -1      3828 1.81860E+01 2.05562E+01 0.00000E+00
 -1      3829 1.08564E+02 3.16113E+01 0.00000E+00
 -1      3830 1.09148E+02 3.01440E+01 0.00000E+00
 -1      3831 1.10095E+02 2.90032E+01 0.00000E+00
 -1      3832 1.09592E+02 2.80690E+01 0.00000E+00
 -1      3833 5.05350E+01 1.69963E+01 0.00000E+00
 -1      3834 4.97850E+01 1.56973E+01 0.00000E+00
 -1      3835 4.82850E+01 1.56973E+01 0.00000E+00
 -1      3836 1.10886E+02 1.58238E+01 0.00000E+00
 -1      3837 1.10136E+02 1.71228E+01 0.00000E+00
 -1      3838 1.11559E+02 1.92891E+01 0.00000E+00
 -1      3839 1.10767E+02 1.80840E+01 0.00000E+00
 -1      3840 1.09666E+02 1.79575E+01 0.00000E+00
 -1      3841 1.10927E+02 1.98799E+01 0.00000E+00
 -1      3842 2.35350E+01 1.69963E+01 0.00000E+00
 -1      3843 2.27850E+01 1.56973E+01 0.00000E+00
 -1      3844 4.52850E+01 1.56973E+01 0.00000E+00
 -1      3845 4.45350E+01 1.69963E+01 0.00000E+00
 -1      3846 4.67850E+01 1.56973E+01 0.00000E+00
 -1      3847 1.71526E+01 1.47826E+01 0.00000E+00
 -1      3848 1.69516E+01 1.69858E+01 0.00000E+00
 -1      3849 1.82506E+01 1.77233E+01 0.00000E+00
 -1      3850 1.83798E+01 1.50073E+01 0.00000E+00
 -1      3851 1.10556E+02 2.49419E+01 0.00000E+00
 -1      3852 1.09933E+02 2.38868E+01 0.00000E+00
 -1      3853 1.09916E+02 2.58732E+01 0.00000E+00
 -1      3854 1.68870E+01 2.71820E+01 0.00000E+00
 -1      3855 1.68870E+01 2.86523E+01 0.00000E+00
 -1      3856 2.14669E+01 1.55475E+01 0.00000E+00
 -1      3857 1.80601E+01 2.99392E+01 0.00000E+00
 -1      3858 5.72850E+01 1.82952E+01 0.00000E+00
 -1      3859 5.57850E+01 1.82952E+01 0.00000E+00
 -1      3860 4.22850E+01 1.82952E+01 0.00000E+00
 -1      3861 4.07850E+01 1.82952E+01 0.00000E+00
 -1      3862 2.10304E+01 3.02984E+01 0.00000E+00
 -1      3863 2.25304E+01 3.02984E+01 0.00000E+00
 -1      3864 2.40304E+01 3.02984E+01 0.00000E+00
 -1      3865 2.55304E+01 3.02984E+01 0.00000E+00
 -1      3866 2.32804E+01 2.89994E+01 0.00000E+00
 -1      3867 2.70304E+01 3.02984E+01 0.00000E+00
 -1      3868 2.85304E+01 3.02984E+01 0.00000E+00
 -1      3869 2.62804E+01 2.89994E+01 0.00000E+00
 -1      3870 3.00304E+01 3.02984E+01 0.00000E+00
 -1      3871 3.15304E+01 3.02984E+01 0.00000E+00
 -1      3872 2.92804E+01 2.89994E+01 0.00000E+00
 -1      3873 3.30303E+01 3.02984E+01 0.00000E+00
 -1      3874 3.45303E+01 3.02984E+01 0.00000E+00
 -1      3875 3.22803E+01 2.89994E+01 0.00000E+00
 -1      3876 3.60303E+01 3.02984E+01 0.00000E+00
 -1      3877 3.75303E+01 3.02984E+01 0.00000E+00
 -1      3878 3.52803E+01 2.89994E+01 0.00000E+00
 -1      3879 3.90303E+01 3.02984E+01 0.00000E+00
 -1      3880 4.05303E+01 3.02984E+01 0.00000E+00
 -1      3881 3.82803E+01 2.89994E+01 0.00000E+00
 -1      3882 4.20303E+01 3.02984E+01 0.00000E+00
 -1      3883 4.35303E+01 3.02984E+01 0.00000E+00
 -1      3884 4.12803E+01 2.89994E+01 0.00000E+00
 -1      3885 4.50303E+01 3.02984E+01 0.00000E+00
 -1      3886 4.65303E+01 3.02984E+01 0.00000E+00
 -1      3887 4.42803E+01 2.89994E+01 0.00000E+00
 -1      3888 4.80303E+01 3.02984E+01 0.00000E+00
 -1      3889 4.95303E+01 3.02984E+01 0.00000E+00
 -1      3890 4.72803E+01 2.89994E+01 0.00000E+00
 -1      3891 5.10303E+01 3.02984E+01 0.00000E+00
 -1      3892 5.25303E+01 3.02984E+01 0.00000E+00
 -1      3893 5.02803E+01 2.89994E+01 0.00000E+00
 -1      3894 5.40303E+01 3.02984E+01 0.00000E+00
 -1      3895 5.55303E+01 3.02984E+01 0.00000E+00
 -1      3896 5.32803E+01 2.89994E+01 0.00000E+00
 -1      3897 5.70303E+01 3.02984E+01 0.00000E+00
 -1      3898 5.85303E+01 3.02984E+01 0.00000E+00
 -1      3899 5.62803E+01 2.89994E+01 0.00000E+00
 -1      3900 6.00303E+01 3.02984E+01 0.00000E+00
 -1      3901 6.15303E+01 3.02984E+01 0.00000E+00
 -1      3902 5.92803E+01 2.89994E+01 0.00000E+00
 -1      3903 6.30303E+01 3.02984E+01 0.00000E+00
 -1      3904 6.45303E+01 3.02984E+01 0.00000E+00
 -1      3905 6.22803E+01 2.89994E+01 0.00000E+00
 -1      3906 6.60303E+01 3.02984E+01 0.00000E+00
 -1      3907 6.75303E+01 3.02984E+01 0.00000E+00
 -1      3908 6.52803E+01 2.89994E+01 0.00000E+00
 -1      3909 6.90303E+01 3.02984E+01 0.00000E+00
 -1      3910 7.05303E+01 3.02984E+01 0.00000E+00
 -1      3911 6.82803E+01 2.89994E+01 0.00000E+00
 -1      3912 7.20303E+01 3.02984E+01 0.00000E+00
 -1      3913 7.35303E+01 3.02984E+01 0.00000E+00
 -1      3914 7.12803E+01 2.89994E+01 0.00000E+00
 -1      3915 7.50303E+01 3.02984E+01 0.00000E+00
 -1      3916 7.65303E+01 3.02984E+01 0.00000E+00
 -1      3917 7.42803E+01 2.89994E+01 0.00000E+00
 -1      3918 7.80303E+01 3.02984E+01 0.00000E+00
 -1      3919 7.95303E+01 3.02984E+01 0.00000E+00
 -1      3920 7.72803E+01 2.89994E+01 0.00000E+00
 -1      3921 8.10303E+01 3.02984E+01 0.00000E+00
 -1      3922 8.25303E+01 3.02984E+01 0.00000E+00
 -1      3923 8.02803E+01 2.89994E+01 0.00000E+00
 -1      3924 8.40303E+01 3.02984E+01 0.00000E+00
 -1      3925 8.55303E+01 3.02984E+01 0.00000E+00
 -1      3926 8.32803E+01 2.89994E+01 0.00000E+00
 -1      3927 8.70303E+01 3.02984E+01 0.00000E+00
 -1      3928 8.85303E+01 3.02984E+01 0.00000E+00
 -1      3929 8.62803E+01 2.89994E+01 0.00000E+00
 -1      3930 9.00303E+01 3.02984E+01 0.00000E+00
 -1      3931 9.15303E+01 3.02984E+01 0.00000E+00
 -1      3932 8.92803E+01 2.89994E+01 0.00000E+00
 -1      3933 9.30303E+01 3.02984E+01 0.00000E+00
 -1      3934 9.45303E+01 3.02984E+01 0.00000E+00
 -1      3935 9.22803E+01 2.89994E+01 0.00000E+00
 -1      3936 9.60303E+01 3.02984E+01 0.00000E+00
 -1      3937 9.75303E+01 3.02984E+01 0.00000E+00
 -1      3938 9.52803E+01 2.89994E+01 0.00000E+00
 -1      3939 9.90303E+01 3.02984E+01 0.00000E+00
 -1      3940 1.00530E+02 3.02984E+01 0.00000E+00
 -1      3941 9.82803E+01 2.89994E+01 0.00000E+00
 -1      3942 1.02030E+02 3.02984E+01 0.00000E+00
 -1      3943 1.03530E+02 3.02984E+01 0.00000E+00
 -1      3944 1.01280E+02 2.89994E+01 0.00000E+00
 -1      3945 1.92332E+01 2.97573E+01 0.00000E+00
 -1      3946 5.42850E+01 1.82952E+01 0.00000E+00
 -1      3947 5.27850E+01 1.82952E+01 0.00000E+00
 -1      3948 5.50350E+01 1.95942E+01 0.00000E+00
 -1      3949 6.62850E+01 1.82952E+01 0.00000E+00
 -1      3950 6.47850E+01 1.82952E+01 0.00000E+00
 -1      3951 6.32850E+01 1.82952E+01 0.00000E+00
 -1      3952 6.17850E+01 1.82952E+01 0.00000E+00
 -1      3953 6.40350E+01 1.95942E+01 0.00000E+00
 -1      3954 7.22850E+01 1.82952E+01 0.00000E+00
 -1      3955 7.07850E+01 1.82952E+01 0.00000E+00
 -1      3956 7.52850E+01 1.82952E+01 0.00000E+00
 -1      3957 7.37850E+01 1.82952E+01 0.00000E+00
 -1      3958 7.30350E+01 1.95942E+01 0.00000E+00
 -1      3959 7.82850E+01 1.82952E+01 0.00000E+00
 -1      3960 7.67850E+01 1.82952E+01 0.00000E+00
 -1      3961 7.60350E+01 1.95942E+01 0.00000E+00
 -1      3962 8.12850E+01 1.82952E+01 0.00000E+00
 -1      3963 7.97850E+01 1.82952E+01 0.00000E+00
 -1      3964 7.90350E+01 1.95942E+01 0.00000E+00
 -1      3965 8.42850E+01 1.82952E+01 0.00000E+00
 -1      3966 8.27850E+01 1.82952E+01 0.00000E+00
 -1      3967 8.20350E+01 1.95942E+01 0.00000E+00
 -1      3968 8.72850E+01 1.82952E+01 0.00000E+00
 -1      3969 8.57850E+01 1.82952E+01 0.00000E+00
 -1      3970 8.50350E+01 1.95942E+01 0.00000E+00
 -1      3971 9.02850E+01 1.82952E+01 0.00000E+00
 -1      3972 8.87850E+01 1.82952E+01 0.00000E+00
 -1      3973 8.80350E+01 1.95942E+01 0.00000E+00
 -1      3974 9.32850E+01 1.82952E+01 0.00000E+00
 -1      3975 9.17850E+01 1.82952E+01 0.00000E+00
 -1      3976 9.10350E+01 1.95942E+01 0.00000E+00
 -1      3977 9.62850E+01 1.82952E+01 0.00000E+00
 -1      3978 9.47850E+01 1.82952E+01 0.00000E+00
 -1      3979 9.40350E+01 1.95942E+01 0.00000E+00
 -1      3980 9.92850E+01 1.82952E+01 0.00000E+00
 -1      3981 9.77850E+01 1.82952E+01 0.00000E+00
 -1      3982 9.70350E+01 1.95942E+01 0.00000E+00
 -1      3983 1.02285E+02 1.82952E+01 0.00000E+00
 -1      3984 1.00785E+02 1.82952E+01 0.00000E+00
 -1      3985 1.00035E+02 1.95942E+01 0.00000E+00
 -1      3986 1.05285E+02 1.82952E+01 0.00000E+00
 -1      3987 1.03785E+02 1.82952E+01 0.00000E+00
 -1      3988 1.03035E+02 1.95942E+01 0.00000E+00
 -1      3989 1.08285E+02 1.82952E+01 0.00000E+00
 -1      3990 1.06785E+02 1.82952E+01 0.00000E+00
 -1      3991 1.06035E+02 1.95942E+01 0.00000E+00
 -1      3992 3.02850E+01 1.82952E+01 0.00000E+00
 -1      3993 2.87850E+01 1.82952E+01 0.00000E+00
 -1      3994 3.92850E+01 1.82952E+01 0.00000E+00
 -1      3995 3.77850E+01 1.82952E+01 0.00000E+00
 -1      3996 4.00350E+01 1.95942E+01 0.00000E+00
 -1      3997 2.72850E+01 1.82952E+01 0.00000E+00
 -1      3998 2.57850E+01 1.82952E+01 0.00000E+00
 -1      3999 2.80350E+01 1.95942E+01 0.00000E+00
 -1      4000 1.68870E+01 2.42391E+01 0.00000E+00
 -1      4001 1.68870E+01 2.57094E+01 0.00000E+00
 -1      4002 1.81860E+01 2.35016E+01 0.00000E+00
 -1      4003 1.81860E+01 2.64445E+01 0.00000E+00
 -1      4004 1.05299E+02 3.04538E+01 0.00000E+00
 -1      4005 1.06897E+02 3.07273E+01 0.00000E+00
 -1      4006 3.62850E+01 1.82952E+01 0.00000E+00
 -1      4007 3.47850E+01 1.82952E+01 0.00000E+00
 -1      4008 3.70350E+01 1.95942E+01 0.00000E+00
 -1      4009 2.42850E+01 1.82953E+01 0.00000E+00
 -1      4010 2.27851E+01 1.82953E+01 0.00000E+00
 -1      4011 2.50350E+01 1.95943E+01 0.00000E+00
 -1      4012 1.96070E+01 1.52320E+01 0.00000E+00
 -1      4013 1.09943E+02 2.19943E+01 0.00000E+00
 -1      4014 1.10435E+02 2.09371E+01 0.00000E+00
 -1      4015 1.09804E+02 1.99759E+01 0.00000E+00
 -1      4016 3.32850E+01 1.82952E+01 0.00000E+00
 -1      4017 3.17850E+01 1.82952E+01 0.00000E+00
 -1      4018 3.40350E+01 1.95942E+01 0.00000E+00
 -1      4019 6.02850E+01 1.82952E+01 0.00000E+00
 -1      4020 5.87850E+01 1.82952E+01 0.00000E+00
 -1      4021 5.80350E+01 1.95942E+01 0.00000E+00
 -1      4022 6.92850E+01 1.82952E+01 0.00000E+00
 -1      4023 6.77850E+01 1.82952E+01 0.00000E+00
 -1      4024 6.70350E+01 1.95942E+01 0.00000E+00
 -1      4025 1.07984E+02 3.01941E+01 0.00000E+00
 -1      4026 1.99832E+01 2.84583E+01 0.00000E+00
 -1      4027 2.01751E+01 1.66808E+01 0.00000E+00
 -1      4028 1.04549E+02 2.91548E+01 0.00000E+00
 -1      4029 3.10350E+01 1.95942E+01 0.00000E+00
 -1      4030 5.12850E+01 1.82952E+01 0.00000E+00
 -1      4031 4.97850E+01 1.82952E+01 0.00000E+00
 -1      4032 5.20350E+01 1.95942E+01 0.00000E+00
 -1      4033 6.10350E+01 1.95942E+01 0.00000E+00
 -1      4034 1.99832E+01 2.69856E+01 0.00000E+00
 -1      4035 2.17804E+01 2.75267E+01 0.00000E+00
 -1      4036 1.99832E+01 2.55130E+01 0.00000E+00
 -1      4037 1.08916E+02 1.92565E+01 0.00000E+00
 -1      4038 2.20351E+01 1.95943E+01 0.00000E+00
 -1      4039 2.12851E+01 1.82953E+01 0.00000E+00
 -1      4040 4.75350E+01 1.69963E+01 0.00000E+00
 -1      4041 4.52850E+01 1.82952E+01 0.00000E+00
 -1      4042 4.37850E+01 1.82952E+01 0.00000E+00
 -1      4043 4.30350E+01 1.95942E+01 0.00000E+00
 -1      4044 1.99832E+01 2.25723E+01 0.00000E+00
 -1      4045 1.99832E+01 2.40427E+01 0.00000E+00
 -1      4046 2.17804E+01 2.45837E+01 0.00000E+00
 -1      4047 1.08662E+02 2.38569E+01 0.00000E+00
 -1      4048 1.09303E+02 2.29256E+01 0.00000E+00
 -1      4049 1.08672E+02 2.19644E+01 0.00000E+00
 -1      4050 7.00350E+01 1.95942E+01 0.00000E+00
 -1      4051 1.93606E+01 1.93378E+01 0.00000E+00
 -1      4052 1.93606E+01 2.08128E+01 0.00000E+00
 -1      4053 2.11578E+01 2.13539E+01 0.00000E+00
 -1      4054 2.55304E+01 2.77004E+01 0.00000E+00
 -1      4055 2.70304E+01 2.77004E+01 0.00000E+00
 -1      4056 2.85304E+01 2.77004E+01 0.00000E+00
 -1      4057 3.00304E+01 2.77004E+01 0.00000E+00
 -1      4058 2.77804E+01 2.64014E+01 0.00000E+00
 -1      4059 3.15304E+01 2.77004E+01 0.00000E+00
 -1      4060 3.30303E+01 2.77004E+01 0.00000E+00
 -1      4061 3.07804E+01 2.64014E+01 0.00000E+00
 -1      4062 3.45303E+01 2.77004E+01 0.00000E+00
 -1      4063 3.60303E+01 2.77004E+01 0.00000E+00
 -1      4064 3.37803E+01 2.64014E+01 0.00000E+00
 -1      4065 3.75303E+01 2.77004E+01 0.00000E+00
 -1      4066 3.90303E+01 2.77004E+01 0.00000E+00
 -1      4067 3.67803E+01 2.64014E+01 0.00000E+00
 -1      4068 4.05303E+01 2.77004E+01 0.00000E+00
 -1      4069 4.20303E+01 2.77004E+01 0.00000E+00
 -1      4070 3.97803E+01 2.64014E+01 0.00000E+00
 -1      4071 4.35303E+01 2.77004E+01 0.00000E+00
 -1      4072 4.50303E+01 2.77004E+01 0.00000E+00
 -1      4073 4.27803E+01 2.64014E+01 0.00000E+00
 -1      4074 4.65303E+01 2.77004E+01 0.00000E+00
 -1      4075 4.80303E+01 2.77004E+01 0.00000E+00
 -1      4076 4.57803E+01 2.64014E+01 0.00000E+00
 -1      4077 4.95303E+01 2.77004E+01 0.00000E+00
 -1      4078 5.10303E+01 2.77004E+01 0.00000E+00
 -1      4079 4.87803E+01 2.64014E+01 0.00000E+00
 -1      4080 5.25303E+01 2.77004E+01 0.00000E+00
 -1      4081 5.40303E+01 2.77004E+01 0.00000E+00
 -1      4082 5.17803E+01 2.64014E+01 0.00000E+00
 -1      4083 5.55303E+01 2.77004E+01 0.00000E+00
 -1      4084 5.70303E+01 2.77004E+01 0.00000E+00
 -1      4085 5.47803E+01 2.64014E+01 0.00000E+00
 -1      4086 5.85303E+01 2.77004E+01 0.00000E+00
 -1      4087 6.00303E+01 2.77004E+01 0.00000E+00
 -1      4088 5.77803E+01 2.64014E+01 0.00000E+00
 -1      4089 6.15303E+01 2.77004E+01 0.00000E+00
 -1      4090 6.30303E+01 2.77004E+01 0.00000E+00
 -1      4091 6.07803E+01 2.64014E+01 0.00000E+00
 -1      4092 6.45303E+01 2.77004E+01 0.00000E+00
 -1      4093 6.60303E+01 2.77004E+01 0.00000E+00
 -1      4094 6.37803E+01 2.64014E+01 0.00000E+00
 -1      4095 6.75303E+01 2.77004E+01 0.00000E+00
 -1      4096 6.90303E+01 2.77004E+01 0.00000E+00
 -1      4097 6.67803E+01 2.64014E+01 0.00000E+00
 -1      4098 7.05303E+01 2.77004E+01 0.00000E+00
 -1      4099 7.20303E+01 2.77004E+01 0.00000E+00
 -1      4100 6.97803E+01 2.64014E+01 0.00000E+00
 -1      4101 7.35303E+01 2.77004E+01 0.00000E+00
 -1      4102 7.50303E+01 2.77004E+01 0.00000E+00
 -1      4103 7.27803E+01 2.64014E+01 0.00000E+00
 -1      4104 7.65303E+01 2.77004E+01 0.00000E+00
 -1      4105 7.80303E+01 2.77004E+01 0.00000E+00
 -1      4106 7.57803E+01 2.64014E+01 0.00000E+00
 -1      4107 7.95303E+01 2.77004E+01 0.00000E+00
 -1      4108 8.10303E+01 2.77004E+01 0.00000E+00
 -1      4109 7.87803E+01 2.64014E+01 0.00000E+00
 -1      4110 8.25303E+01 2.77004E+01 0.00000E+00
 -1      4111 8.40303E+01 2.77004E+01 0.00000E+00
 -1      4112 8.17803E+01 2.64014E+01 0.00000E+00
 -1      4113 8.55303E+01 2.77004E+01 0.00000E+00
 -1      4114 8.70303E+01 2.77004E+01 0.00000E+00
 -1      4115 8.47803E+01 2.64014E+01 0.00000E+00
 -1      4116 8.85303E+01 2.77004E+01 0.00000E+00
 -1      4117 9.00303E+01 2.77004E+01 0.00000E+00
 -1      4118 8.77803E+01 2.64014E+01 0.00000E+00
 -1      4119 9.15303E+01 2.77004E+01 0.00000E+00
 -1      4120 9.30303E+01 2.77004E+01 0.00000E+00
 -1      4121 9.07803E+01 2.64014E+01 0.00000E+00
 -1      4122 9.45303E+01 2.77004E+01 0.00000E+00
 -1      4123 9.60303E+01 2.77004E+01 0.00000E+00
 -1      4124 9.37803E+01 2.64014E+01 0.00000E+00
 -1      4125 9.75303E+01 2.77004E+01 0.00000E+00
 -1      4126 9.90303E+01 2.77004E+01 0.00000E+00
 -1      4127 9.67803E+01 2.64014E+01 0.00000E+00
 -1      4128 1.00530E+02 2.77004E+01 0.00000E+00
 -1      4129 1.02030E+02 2.77004E+01 0.00000E+00
 -1      4130 9.97803E+01 2.64014E+01 0.00000E+00
 -1      4131 6.47850E+01 2.08932E+01 0.00000E+00
 -1      4132 6.32850E+01 2.08932E+01 0.00000E+00
 -1      4133 1.09200E+02 2.70071E+01 0.00000E+00
 -1      4134 1.08577E+02 2.59520E+01 0.00000E+00
 -1      4135 5.57850E+01 2.08932E+01 0.00000E+00
 -1      4136 5.42850E+01 2.08932E+01 0.00000E+00
 -1      4137 6.17850E+01 2.08932E+01 0.00000E+00
 -1      4138 6.02850E+01 2.08932E+01 0.00000E+00
 -1      4139 6.25350E+01 2.21922E+01 0.00000E+00
 -1      4140 7.67850E+01 2.08932E+01 0.00000E+00
 -1      4141 7.52850E+01 2.08932E+01 0.00000E+00
 -1      4142 7.37850E+01 2.08932E+01 0.00000E+00
 -1      4143 7.22850E+01 2.08932E+01 0.00000E+00
 -1      4144 7.45350E+01 2.21922E+01 0.00000E+00
 -1      4145 8.27850E+01 2.08932E+01 0.00000E+00
 -1      4146 8.12850E+01 2.08932E+01 0.00000E+00
 -1      4147 8.57850E+01 2.08932E+01 0.00000E+00
 -1      4148 8.42850E+01 2.08932E+01 0.00000E+00
 -1      4149 8.35350E+01 2.21922E+01 0.00000E+00
 -1      4150 8.87850E+01 2.08932E+01 0.00000E+00
 -1      4151 8.72850E+01 2.08932E+01 0.00000E+00
 -1      4152 8.65350E+01 2.21922E+01 0.00000E+00
 -1      4153 9.17850E+01 2.08932E+01 0.00000E+00
 -1      4154 9.02850E+01 2.08932E+01 0.00000E+00
 -1      4155 8.95350E+01 2.21922E+01 0.00000E+00
 -1      4156 9.47850E+01 2.08932E+01 0.00000E+00
 -1      4157 9.32850E+01 2.08932E+01 0.00000E+00
 -1      4158 9.25350E+01 2.21922E+01 0.00000E+00
 -1      4159 9.77850E+01 2.08932E+01 0.00000E+00
 -1      4160 9.62850E+01 2.08932E+01 0.00000E+00
 -1      4161 9.55350E+01 2.21922E+01 0.00000E+00
 -1      4162 1.00785E+02 2.08932E+01 0.00000E+00
 -1      4163 9.92850E+01 2.08932E+01 0.00000E+00
 -1      4164 9.85350E+01 2.21922E+01 0.00000E+00
 -1      4165 1.03785E+02 2.08932E+01 0.00000E+00
 -1      4166 1.02285E+02 2.08932E+01 0.00000E+00
 -1      4167 1.01535E+02 2.21922E+01 0.00000E+00
 -1      4168 1.08253E+02 2.81479E+01 0.00000E+00
 -1      4169 1.07231E+02 2.61247E+01 0.00000E+00
 -1      4170 1.07947E+02 2.49908E+01 0.00000E+00
 -1      4171 1.07316E+02 2.40296E+01 0.00000E+00
 -1      4172 2.26577E+01 2.13539E+01 0.00000E+00
 -1      4173 4.82850E+01 1.82952E+01 0.00000E+00
 -1      4174 4.67850E+01 1.82952E+01 0.00000E+00
 -1      4175 4.60350E+01 1.95942E+01 0.00000E+00
 -1      4176 1.94252E+01 1.79798E+01 0.00000E+00
 -1      4177 4.07850E+01 2.08932E+01 0.00000E+00
 -1      4178 3.92850E+01 2.08932E+01 0.00000E+00
 -1      4179 1.08424E+02 2.03137E+01 0.00000E+00
 -1      4180 2.87850E+01 2.08932E+01 0.00000E+00
 -1      4181 2.72850E+01 2.08932E+01 0.00000E+00
 -1      4182 2.42589E+01 2.10537E+01 0.00000E+00
 -1      4183 2.33815E+01 2.28133E+01 0.00000E+00
 -1      4184 3.77850E+01 2.08932E+01 0.00000E+00
 -1      4185 3.62850E+01 2.08932E+01 0.00000E+00
 -1      4186 3.85350E+01 2.21922E+01 0.00000E+00
 -1      4187 3.17850E+01 2.08932E+01 0.00000E+00
 -1      4188 3.02850E+01 2.08932E+01 0.00000E+00
 -1      4189 2.95350E+01 2.21922E+01 0.00000E+00
 -1      4190 2.29054E+01 2.76135E+01 0.00000E+00
 -1      4191 2.44054E+01 2.76135E+01 0.00000E+00
 -1      4192 2.51554E+01 2.63145E+01 0.00000E+00
 -1      4193 2.29054E+01 2.61409E+01 0.00000E+00
 -1      4194 5.87850E+01 2.08932E+01 0.00000E+00
 -1      4195 5.72850E+01 2.08932E+01 0.00000E+00
 -1      4196 5.95350E+01 2.21922E+01 0.00000E+00
 -1      4197 1.07798E+02 2.11390E+01 0.00000E+00
 -1      4198 1.06909E+02 2.04196E+01 0.00000E+00
 -1      4199 1.05409E+02 2.04196E+01 0.00000E+00
 -1      4200 1.07157E+02 2.20703E+01 0.00000E+00
 -1      4201 2.57589E+01 2.10537E+01 0.00000E+00
 -1      4202 1.03778E+02 2.77831E+01 0.00000E+00
 -1      4203 1.05546E+02 2.79384E+01 0.00000E+00
 -1      4204 7.07850E+01 2.08932E+01 0.00000E+00
 -1      4205 6.92850E+01 2.08932E+01 0.00000E+00
 -1      4206 7.15350E+01 2.21922E+01 0.00000E+00
 -1      4207 3.47850E+01 2.08932E+01 0.00000E+00
 -1      4208 3.32850E+01 2.08932E+01 0.00000E+00
 -1      4209 3.55350E+01 2.21922E+01 0.00000E+00
 -1      4210 7.97850E+01 2.08932E+01 0.00000E+00
 -1      4211 7.82850E+01 2.08932E+01 0.00000E+00
 -1      4212 8.05350E+01 2.21922E+01 0.00000E+00
 -1      4213 6.77850E+01 2.08932E+01 0.00000E+00
 -1      4214 6.62850E+01 2.08932E+01 0.00000E+00
 -1      4215 6.55350E+01 2.21922E+01 0.00000E+00
 -1      4216 6.85350E+01 2.21922E+01 0.00000E+00
 -1      4217 1.03028E+02 2.64841E+01 0.00000E+00
 -1      4218 5.35350E+01 2.21922E+01 0.00000E+00
 -1      4219 5.27850E+01 2.08932E+01 0.00000E+00
 -1      4220 5.12850E+01 2.08932E+01 0.00000E+00
 -1      4221 1.07481E+02 2.92600E+01 0.00000E+00
 -1      4222 5.65350E+01 2.21922E+01 0.00000E+00
 -1      4223 1.04659E+02 2.17186E+01 0.00000E+00
 -1      4224 7.75350E+01 2.21922E+01 0.00000E+00
 -1      4225 2.65089E+01 2.23527E+01 0.00000E+00
 -1      4226 3.25350E+01 2.21922E+01 0.00000E+00
 -1      4227 1.07089E+02 2.81981E+01 0.00000E+00
 -1      4228 1.06319E+02 2.68264E+01 0.00000E+00
 -1      4229 1.05688E+02 2.58651E+01 0.00000E+00
 -1      4230 4.90350E+01 1.95942E+01 0.00000E+00
 -1      4231 4.22850E+01 2.08932E+01 0.00000E+00
 -1      4232 4.15350E+01 2.21922E+01 0.00000E+00
 -1      4233 4.37850E+01 2.08932E+01 0.00000E+00
 -1      4234 2.29054E+01 2.46706E+01 0.00000E+00
 -1      4235 2.45065E+01 2.43704E+01 0.00000E+00
 -1      4236 7.51577E+01 2.42968E+01 0.00000E+00
 -1      4237 7.36577E+01 2.42968E+01 0.00000E+00
 -1      4238 9.01577E+01 2.42968E+01 0.00000E+00
 -1      4239 8.86577E+01 2.42968E+01 0.00000E+00
 -1      4240 6.31577E+01 2.42968E+01 0.00000E+00
 -1      4241 6.16577E+01 2.42968E+01 0.00000E+00
 -1      4242 3.01577E+01 2.42968E+01 0.00000E+00
 -1      4243 3.16577E+01 2.42968E+01 0.00000E+00
 -1      4244 3.31577E+01 2.42968E+01 0.00000E+00
 -1      4245 3.46577E+01 2.42968E+01 0.00000E+00
 -1      4246 3.61577E+01 2.42968E+01 0.00000E+00
 -1      4247 3.76577E+01 2.42968E+01 0.00000E+00
 -1      4248 3.91577E+01 2.42968E+01 0.00000E+00
 -1      4249 4.06577E+01 2.42968E+01 0.00000E+00
 -1      4250 4.21577E+01 2.42968E+01 0.00000E+00
 -1      4251 4.36577E+01 2.42968E+01 0.00000E+00
 -1      4252 4.80303E+01 2.51024E+01 0.00000E+00
 -1      4253 4.95303E+01 2.51024E+01 0.00000E+00
 -1      4254 5.11577E+01 2.42968E+01 0.00000E+00
 -1      4255 5.26577E+01 2.42968E+01 0.00000E+00
 -1      4256 5.41577E+01 2.42968E+01 0.00000E+00
 -1      4257 5.56577E+01 2.42968E+01 0.00000E+00
 -1      4258 5.71577E+01 2.42968E+01 0.00000E+00
 -1      4259 5.86577E+01 2.42968E+01 0.00000E+00
 -1      4260 6.01577E+01 2.42968E+01 0.00000E+00
 -1      4261 6.46577E+01 2.42968E+01 0.00000E+00
 -1      4262 6.61577E+01 2.42968E+01 0.00000E+00
 -1      4263 6.76577E+01 2.42968E+01 0.00000E+00
 -1      4264 6.91577E+01 2.42968E+01 0.00000E+00
 -1      4265 7.06577E+01 2.42968E+01 0.00000E+00
 -1      4266 7.21577E+01 2.42968E+01 0.00000E+00
 -1      4267 7.66577E+01 2.42968E+01 0.00000E+00
 -1      4268 7.81577E+01 2.42968E+01 0.00000E+00
 -1      4269 7.96577E+01 2.42968E+01 0.00000E+00
 -1      4270 8.11577E+01 2.42968E+01 0.00000E+00
 -1      4271 8.26577E+01 2.42968E+01 0.00000E+00
 -1      4272 8.41577E+01 2.42968E+01 0.00000E+00
 -1      4273 8.56577E+01 2.42968E+01 0.00000E+00
 -1      4274 8.71577E+01 2.42968E+01 0.00000E+00
 -1      4275 9.16577E+01 2.42968E+01 0.00000E+00
 -1      4276 9.31577E+01 2.42968E+01 0.00000E+00
 -1      4277 9.46577E+01 2.42968E+01 0.00000E+00
 -1      4278 9.61577E+01 2.42968E+01 0.00000E+00
 -1      4279 9.76577E+01 2.42968E+01 0.00000E+00
 -1      4280 9.91577E+01 2.42968E+01 0.00000E+00
 -1      4281 1.00658E+02 2.42968E+01 0.00000E+00
 -1      4282 1.04440E+02 2.51863E+01 0.00000E+00
 -1      4283 1.05352E+02 2.44847E+01 0.00000E+00
 -1      4284 1.02158E+02 2.42968E+01 0.00000E+00
 -1      4285 4.96577E+01 2.16988E+01 0.00000E+00
 -1      4286 4.81577E+01 2.16988E+01 0.00000E+00
 -1      4287 1.06068E+02 2.33507E+01 0.00000E+00
 -1      4288 2.56315E+01 2.44573E+01 0.00000E+00
 -1      4289 2.71577E+01 2.42968E+01 0.00000E+00
 -1      4290 2.86577E+01 2.42968E+01 0.00000E+00
 -1      4291 1.05194E+02 2.25254E+01 0.00000E+00
 -1      4292 4.67213E+01 2.12960E+01 0.00000E+00
 -1      4293 4.52213E+01 2.12960E+01 0.00000E+00
 -1      4294 4.44713E+01 2.25950E+01 0.00000E+00
 -1      4295 4.73440E+01 2.34006E+01 0.00000E+00
 -1      4296 4.50940E+01 2.46996E+01 0.00000E+00
 -1      4297 5.04077E+01 2.29978E+01 0.00000E+00
 -1      4298 4.65940E+01 2.46996E+01 0.00000E+00
 -1      4299 1.02692E+02 2.51036E+01 0.00000E+00
 -1      4300 1.03570E+02 2.29990E+01 0.00000E+00
 -3
    3C                          2068                                     1
 -1       165    8    0    1
 -2         6         7        23      1117      1281      1134
 -1       166    8    0    1
 -2         7         8       165      1118      1282      1283
 -1       167    8    0    1
 -2         8         9       166      1119      1284      1285
 -1       168    8    0    1
 -2         8       166       165      1285      1286      1282
 -1       169    8    0    1
 -2         9        10       167      1120      1287      1288
 -1       170    8    0    1
 -2         9       167       166      1288      1289      1284
 -1       171    8    0    1
 -2        10        11       168      1121      1290      1291
 -1       172    8    0    1
 -2        10       168       167      1291      1292      1287
 -1       173    8    0    1
 -2        11        12       169      1122      1293      1294
 -1       174    8    0    1
 -2        11       169       168      1294      1295      1290
 -1       175    8    0    1
 -2        12        13       170      1123      1296      1297
 -1       176    8    0    1
 -2        12       170       169      1297      1298      1293
 -1       177    8    0    1
 -2        13        14       171      1124      1299      1300
 -1       178    8    0    1
 -2        13       171       170      1300      1301      1296
 -1       179    8    0    1
 -2        14        15       172      1125      1302      1303
 -1       180    8    0    1
 -2        14       172       171      1303      1304      1299
 -1       181    8    0    1
 -2        15        16       173      1126      1305      1306
 -1       182    8    0    1
 -2        15       173       172      1306      1307      1302
 -1       183    8    0    1
 -2        16        17       174      1127      1308      1309
 -1       184    8    0    1
 -2        16       174       173      1309      1310      1305
 -1       185    8    0    1
 -2        17        18       175      1128      1311      1312
 -1       186    8    0    1
 -2        17       175       174      1312      1313      1308
 -1       187    8    0    1
 -2        18        19       176      1129      1314      1315
 -1       188    8    0    1
 -2        18       176       175      1315      1316      1311
 -1       189    8    0    1
 -2        19        20       177      1130      1317      1318
 -1       190    8    0    1
 -2        19       177       176      1318      1319      1314
 -1       191    8    0    1
 -2        20        21       178      1131      1320      1321
 -1       192    8    0    1
 -2        20       178       177      1321      1322      1317
 -1       193    8    0    1
 -2        21        22       179      1132      1323      1324
 -1       194    8    0    1
 -2        21       179       178      1324      1325      1320
 -1       195    8    0    1
 -2        22         5       180      1133      1326      1327
 -1       196    8    0    1
 -2       179        22       180      1323      1327      1328
 -1       197    8    0    1
 -2         5        72       180      1184      1329      1326
 -1       198    8    0    1
 -2        24        23       181      1135      1330      1331
 -1       199    8    0    1
 -2        25        24       182      1136      1332      1333
 -1       200    8    0    1
 -2        24       181       182      1331      1334      1332
 -1       201    8    0    1
 -2        26        25       183      1137      1335      1336
 -1       202    8    0    1
 -2        25       182       183      1333      1337      1335
 -1       203    8    0    1
 -2        27        26       184      1138      1338      1339
 -1       204    8    0    1
 -2        26       183       184      1336      1340      1338
 -1       205    8    0    1
 -2        28        27       185      1139      1341      1342
 -1       206    8    0    1
 -2        27       184       185      1339      1343      1341
 -1       207    8    0    1
 -2        29        28       186      1140      1344      1345
 -1       208    8    0    1
 -2        28       185       186      1342      1346      1344
 -1       209    8    0    1
 -2        30        29       187      1141      1347      1348
 -1       210    8    0    1
 -2        29       186       187      1345      1349      1347
 -1       211    8    0    1
 -2        31        30       188      1142      1350      1351
 -1       212    8    0    1
 -2        30       187       188      1348      1352      1350
 -1       213    8    0    1
 -2        32        31       189      1143      1353      1354
 -1       214    8    0    1
 -2        31       188       189      1351      1355      1353
 -1       215    8    0    1
 -2        33        32       190      1144      1356      1357
 -1       216    8    0    1
 -2        32       189       190      1354      1358      1356
 -1       217    8    0    1
 -2        34        33       191      1145      1359      1360
 -1       218    8    0    1
 -2        33       190       191      1357      1361      1359
 -1       219    8    0    1
 -2        35        34       192      1146      1362      1363
 -1       220    8    0    1
 -2        34       191       192      1360      1364      1362
 -1       221    8    0    1
 -2        36        35       193      1147      1365      1366
 -1       222    8    0    1
 -2        35       192       193      1363      1367      1365
 -1       223    8    0    1
 -2        37        36       194      1148      1368      1369
 -1       224    8    0    1
 -2        36       193       194      1366      1370      1368
 -1       225    8    0    1
 -2        38        37       195      1149      1371      1372
 -1       226    8    0    1
 -2        37       194       195      1369      1373      1371
 -1       227    8    0    1
 -2        39        38       196      1150      1374      1375
 -1       228    8    0    1
 -2        38       195       196      1372      1376      1374
 -1       229    8    0    1
 -2        40        39       197      1151      1377      1378
 -1       230    8    0    1
 -2        39       196       197      1375      1379      1377
 -1       231    8    0    1
 -2        41        40       198      1152      1380      1381
 -1       232    8    0    1
 -2        40       197       198      1378      1382      1380
 -1       233    8    0    1
 -2        42        41       199      1153      1383      1384
 -1       234    8    0    1
 -2        41       198       199      1381      1385      1383
 -1       235    8    0    1
 -2        43        42       200      1154      1386      1387
 -1       236    8    0    1
 -2        42       199       200      1384      1388      1386
 -1       237    8    0    1
 -2        44        43       201      1155      1389      1390
 -1       238    8    0    1
 -2        43       200       201      1387      1391      1389
 -1       239    8    0    1
 -2        45        44       202      1156      1392      1393
 -1       240    8    0    1
 -2        44       201       202      1390      1394      1392
 -1       241    8    0    1
 -2        46        45       203      1157      1395      1396
 -1       242    8    0    1
 -2        45       202       203      1393      1397      1395
 -1       243    8    0    1
 -2        47        46       204      1158      1398      1399
 -1       244    8    0    1
 -2        46       203       204      1396      1400      1398
 -1       245    8    0    1
 -2        48        47       205      1159      1401      1402
 -1       246    8    0    1
 -2        47       204       205      1399      1403      1401
 -1       247    8    0    1
 -2        49        48       206      1160      1404      1405
 -1       248    8    0    1
 -2        48       205       206      1402      1406      1404
 -1       249    8    0    1
 -2        50        49       207      1161      1407      1408
 -1       250    8    0    1
 -2        49       206       207      1405      1409      1407
 -1       251    8    0    1
 -2        51        50       208      1162      1410      1411
 -1       252    8    0    1
 -2        50       207       208      1408      1412      1410
 -1       253    8    0    1
 -2        52        51       209      1163      1413      1414
 -1       254    8    0    1
 -2        51       208       209      1411      1415      1413
 -1       255    8    0    1
 -2        53        52       210      1164      1416      1417
 -1       256    8    0    1
 -2        52       209       210      1414      1418      1416
 -1       257    8    0    1
 -2        54        53       211      1165      1419      1420
 -1       258    8    0    1
 -2        53       210       211      1417      1421      1419
 -1       259    8    0    1
 -2        55        54       212      1166      1422      1423
 -1       260    8    0    1
 -2        54       211       212      1420      1424      1422
 -1       261    8    0    1
 -2        56        55       213      1167      1425      1426
 -1       262    8    0    1
 -2        55       212       213      1423      1427      1425
 -1       263    8    0    1
 -2        57        56       214      1168      1428      1429
 -1       264    8    0    1
 -2        56       213       214      1426      1430      1428
 -1       265    8    0    1
 -2        58        57       215      1169      1431      1432
 -1       266    8    0    1
 -2        57       214       215      1429      1433      1431
 -1       267    8    0    1
 -2        59        58       216      1170      1434      1435
 -1       268    8    0    1
 -2        58       215       216      1432      1436      1434
 -1       269    8    0    1
 -2        60        59       217      1171      1437      1438
 -1       270    8    0    1
 -2        59       216       217      1435      1439      1437
 -1       271    8    0    1
 -2        61        60       218      1172      1440      1441
 -1       272    8    0    1
 -2        60       217       218      1438      1442      1440
 -1       273    8    0    1
 -2        62        61       219      1173      1443      1444
 -1       274    8    0    1
 -2        61       218       219      1441      1445      1443
 -1       275    8    0    1
 -2        63        62       220      1174      1446      1447
 -1       276    8    0    1
 -2        62       219       220      1444      1448      1446
 -1       277    8    0    1
 -2        64        63       221      1175      1449      1450
 -1       278    8    0    1
 -2        63       220       221      1447      1451      1449
 -1       279    8    0    1
 -2        65        64       222      1176      1452      1453
 -1       280    8    0    1
 -2        64       221       222      1450      1454      1452
 -1       281    8    0    1
 -2        66        65       223      1177      1455      1456
 -1       282    8    0    1
 -2        65       222       223      1453      1457      1455
 -1       283    8    0    1
 -2        67        66       224      1178      1458      1459
 -1       284    8    0    1
 -2        66       223       224      1456      1460      1458
 -1       285    8    0    1
 -2        68        67       225      1179      1461      1462
 -1       286    8    0    1
 -2        67       224       225      1459      1463      1461
 -1       287    8    0    1
 -2        69        68       226      1180      1464      1465
 -1       288    8    0    1
 -2        68       225       226      1462      1466      1464
 -1       289    8    0    1
 -2        70        69       227      1181      1467      1468
 -1       290    8    0    1
 -2        69       226       227      1465      1469      1467
 -1       291    8    0    1
 -2        71        70       228      1182      1470      1471
 -1       292    8    0    1
 -2        70       227       228      1468      1472      1470
 -1       293    8    0    1
 -2         4        71       136      1183      1473      1250
 -1       294    8    0    1
 -2       136        71       228      1473      1471      1474
 -1       295    8    0    1
 -2        72        73       229      1185      1475      1476
 -1       296    8    0    1
 -2        72       229       180      1476      1477      1329
 -1       297    8    0    1
 -2        73        74       230      1186      1478      1479
 -1       298    8    0    1
 -2        73       230       229      1479      1480      1475
 -1       299    8    0    1
 -2        74        75       231      1187      1481      1482
 -1       300    8    0    1
 -2        74       231       230      1482      1483      1478
 -1       301    8    0    1
 -2        75        76       232      1188      1484      1485
 -1       302    8    0    1
 -2        75       232       231      1485      1486      1481
 -1       303    8    0    1
 -2        76        77       233      1189      1487      1488
 -1       304    8    0    1
 -2        76       233       232      1488      1489      1484
 -1       305    8    0    1
 -2        77        78       234      1190      1490      1491
 -1       306    8    0    1
 -2        77       234       233      1491      1492      1487
 -1       307    8    0    1
 -2        78        79       235      1191      1493      1494
 -1       308    8    0    1
 -2        78       235       234      1494      1495      1490
 -1       309    8    0    1
 -2        79        80       236      1192      1496      1497
 -1       310    8    0    1
 -2        79       236       235      1497      1498      1493
 -1       311    8    0    1
 -2        80        81       237      1193      1499      1500
 -1       312    8    0    1
 -2        80       237       236      1500      1501      1496
 -1       313    8    0    1
 -2        81        82       238      1194      1502      1503
 -1       314    8    0    1
 -2        81       238       237      1503      1504      1499
 -1       315    8    0    1
 -2        82        83       239      1195      1505      1506
 -1       316    8    0    1
 -2        82       239       238      1506      1507      1502
 -1       317    8    0    1
 -2        83        84       240      1196      1508      1509
 -1       318    8    0    1
 -2        83       240       239      1509      1510      1505
 -1       319    8    0    1
 -2        84        85       241      1197      1511      1512
 -1       320    8    0    1
 -2        84       241       240      1512      1513      1508
 -1       321    8    0    1
 -2        85        86       242      1198      1514      1515
 -1       322    8    0    1
 -2        85       242       241      1515      1516      1511
 -1       323    8    0    1
 -2        86        87       243      1199      1517      1518
 -1       324    8    0    1
 -2        86       243       242      1518      1519      1514
 -1       325    8    0    1
 -2        87        88       244      1200      1520      1521
 -1       326    8    0    1
 -2        87       244       243      1521      1522      1517
 -1       327    8    0    1
 -2        88        89       245      1201      1523      1524
 -1       328    8    0    1
 -2        88       245       244      1524      1525      1520
 -1       329    8    0    1
 -2        89        90       246      1202      1526      1527
 -1       330    8    0    1
 -2        89       246       245      1527      1528      1523
 -1       331    8    0    1
 -2        90        91       247      1203      1529      1530
 -1       332    8    0    1
 -2        90       247       246      1530      1531      1526
 -1       333    8    0    1
 -2        91        92       248      1204      1532      1533
 -1       334    8    0    1
 -2        91       248       247      1533      1534      1529
 -1       335    8    0    1
 -2        92        93       249      1205      1535      1536
 -1       336    8    0    1
 -2        92       249       248      1536      1537      1532
 -1       337    8    0    1
 -2        93        94       250      1206      1538      1539
 -1       338    8    0    1
 -2        93       250       249      1539      1540      1535
 -1       339    8    0    1
 -2        94        95       251      1207      1541      1542
 -1       340    8    0    1
 -2        94       251       250      1542      1543      1538
 -1       341    8    0    1
 -2        95        96       252      1208      1544      1545
 -1       342    8    0    1
 -2        95       252       251      1545      1546      1541
 -1       343    8    0    1
 -2        96        97       253      1209      1547      1548
 -1       344    8    0    1
 -2        96       253       252      1548      1549      1544
 -1       345    8    0    1
 -2        97        98       254      1210      1550      1551
 -1       346    8    0    1
 -2        97       254       253      1551      1552      1547
 -1       347    8    0    1
 -2        98        99       255      1211      1553      1554
 -1       348    8    0    1
 -2        98       255       254      1554      1555      1550
 -1       349    8    0    1
 -2        99       100       256      1212      1556      1557
 -1       350    8    0    1
 -2        99       256       255      1557      1558      1553
 -1       351    8    0    1
 -2       100       101       257      1213      1559      1560
 -1       352    8    0    1
 -2       100       257       256      1560      1561      1556
 -1       353    8    0    1
 -2       101       102       258      1214      1562      1563
 -1       354    8    0    1
 -2       101       258       257      1563      1564      1559
 -1       355    8    0    1
 -2       102       103       259      1215      1565      1566
 -1       356    8    0    1
 -2       102       259       258      1566      1567      1562
 -1       357    8    0    1
 -2       103       104       260      1216      1568      1569
 -1       358    8    0    1
 -2       103       260       259      1569      1570      1565
 -1       359    8    0    1
 -2       104       105       261      1217      1571      1572
 -1       360    8    0    1
 -2       104       261       260      1572      1573      1568
 -1       361    8    0    1
 -2       105       106       262      1218      1574      1575
 -1       362    8    0    1
 -2       105       262       261      1575      1576      1571
 -1       363    8    0    1
 -2       106       107       263      1219      1577      1578
 -1       364    8    0    1
 -2       106       263       262      1578      1579      1574
 -1       365    8    0    1
 -2       107       108       264      1220      1580      1581
 -1       366    8    0    1
 -2       107       264       263      1581      1582      1577
 -1       367    8    0    1
 -2       108       109       265      1221      1583      1584
 -1       368    8    0    1
 -2       108       265       264      1584      1585      1580
 -1       369    8    0    1
 -2       109       110       266      1222      1586      1587
 -1       370    8    0    1
 -2       109       266       265      1587      1588      1583
 -1       371    8    0    1
 -2       110       111       267      1223      1589      1590
 -1       372    8    0    1
 -2       110       267       266      1590      1591      1586
 -1       373    8    0    1
 -2       111       112       268      1224      1592      1593
 -1       374    8    0    1
 -2       111       268       267      1593      1594      1589
 -1       375    8    0    1
 -2       112       113       269      1225      1595      1596
 -1       376    8    0    1
 -2       112       269       268      1596      1597      1592
 -1       377    8    0    1
 -2       113       114       270      1226      1598      1599
 -1       378    8    0    1
 -2       113       270       269      1599      1600      1595
 -1       379    8    0    1
 -2       114       115       271      1227      1601      1602
 -1       380    8    0    1
 -2       114       271       270      1602      1603      1598
 -1       381    8    0    1
 -2       115       116       272      1228      1604      1605
 -1       382    8    0    1
 -2       115       272       271      1605      1606      1601
 -1       383    8    0    1
 -2       116       117       273      1229      1607      1608
 -1       384    8    0    1
 -2       116       273       272      1608      1609      1604
 -1       385    8    0    1
 -2       117       118       274      1230      1610      1611
 -1       386    8    0    1
 -2       117       274       273      1611      1612      1607
 -1       387    8    0    1
 -2       118       119       275      1231      1613      1614
 -1       388    8    0    1
 -2       118       275       274      1614      1615      1610
 -1       389    8    0    1
 -2       119       120       276      1232      1616      1617
 -1       390    8    0    1
 -2       119       276       275      1617      1618      1613
 -1       391    8    0    1
 -2       120         3       121      1233      1234      1619
 -1       392    8    0    1
 -2       121       122       277      1235      1620      1621
 -1       393    8    0    1
 -2       122       123       278      1236      1622      1623
 -1       394    8    0    1
 -2       122       278       277      1623      1624      1620
 -1       395    8    0    1
 -2       123       124       279      1237      1625      1626
 -1       396    8    0    1
 -2       123       279       278      1626      1627      1622
 -1       397    8    0    1
 -2       124       125       280      1238      1628      1629
 -1       398    8    0    1
 -2       124       280       279      1629      1630      1625
 -1       399    8    0    1
 -2       125       126       281      1239      1631      1632
 -1       400    8    0    1
 -2       125       281       280      1632      1633      1628
 -1       401    8    0    1
 -2       126       127       282      1240      1634      1635
 -1       402    8    0    1
 -2       126       282       281      1635      1636      1631
 -1       403    8    0    1
 -2       127       128       283      1241      1637      1638
 -1       404    8    0    1
 -2       127       283       282      1638      1639      1634
 -1       405    8    0    1
 -2       128       129       284      1242      1640      1641
 -1       406    8    0    1
 -2       128       284       283      1641      1642      1637
 -1       407    8    0    1
 -2       129       130       285      1243      1643      1644
 -1       408    8    0    1
 -2       129       285       284      1644      1645      1640
 -1       409    8    0    1
 -2       130       131       286      1244      1646      1647
 -1       410    8    0    1
 -2       130       286       285      1647      1648      1643
 -1       411    8    0    1
 -2       131       132       287      1245      1649      1650
 -1       412    8    0    1
 -2       131       287       286      1650      1651      1646
 -1       413    8    0    1
 -2       132       133       288      1246      1652      1653
 -1       414    8    0    1
 -2       132       288       287      1653      1654      1649
 -1       415    8    0    1
 -2       133       134       289      1247      1655      1656
 -1       416    8    0    1
 -2       133       289       288      1656      1657      1652
 -1       417    8    0    1
 -2       134       135       290      1248      1658      1659
 -1       418    8    0    1
 -2       134       290       289      1659      1660      1655
 -1       419    8    0    1
 -2       135       136       291      1249      1661      1662
 -1       420    8    0    1
 -2       290       135       291      1658      1662      1663
 -1       421    8    0    1
 -2       136       228       291      1474      1664      1661
 -1       422    8    0    1
 -2         2       137       292      1251      1665      1666
 -1       423    8    0    1
 -2       137       138       293      1252      1667      1668
 -1       424    8    0    1
 -2       138       139       294      1253      1669      1670
 -1       425    8    0    1
 -2       139       140       295      1254      1671      1672
 -1       426    8    0    1
 -2       140       141       296      1255      1673      1674
 -1       427    8    0    1
 -2       141       142       297      1256      1675      1676
 -1       428    8    0    1
 -2       142       143       298      1257      1677      1678
 -1       429    8    0    1
 -2       143       144       299      1258      1679      1680
 -1       430    8    0    1
 -2       144       145       300      1259      1681      1682
 -1       431    8    0    1
 -2       145       146       301      1260      1683      1684
 -1       432    8    0    1
 -2       146       147       302      1261      1685      1686
 -1       433    8    0    1
 -2       147       148       303      1262      1687      1688
 -1       434    8    0    1
 -2       148       149       304      1263      1689      1690
 -1       435    8    0    1
 -2       149       150       305      1264      1691      1692
 -1       436    8    0    1
 -2       150       151       306      1265      1693      1694
 -1       437    8    0    1
 -2       151       152       307      1266      1695      1696
 -1       438    8    0    1
 -2       152       153       308      1267      1697      1698
 -1       439    8    0    1
 -2       153       154       309      1268      1699      1700
 -1       440    8    0    1
 -2       154       155       310      1269      1701      1702
 -1       441    8    0    1
 -2       155       156       311      1270      1703      1704
 -1       442    8    0    1
 -2       156         1       312      1271      1705      1706
 -1       443    8    0    1
 -2         1       157       313      1272      1707      1708
 -1       444    8    0    1
 -2       157       158       314      1273      1709      1710
 -1       445    8    0    1
 -2       158       159       315      1274      1711      1712
 -1       446    8    0    1
 -2       159       160       316      1275      1713      1714
 -1       447    8    0    1
 -2       160       161       317      1276      1715      1716
 -1       448    8    0    1
 -2       161       162       318      1277      1717      1718
 -1       449    8    0    1
 -2       162       163       319      1278      1719      1720
 -1       450    8    0    1
 -2       163       164       320      1279      1721      1722
 -1       451    8    0    1
 -2       164         2       321      1280      1723      1724
 -1       452    8    0    1
 -2       295       140       296      1671      1674      1725
 -1       453    8    0    1
 -2       294       139       295      1669      1672      1726
 -1       454    8    0    1
 -2       120       121       276      1619      1727      1616
 -1       455    8    0    1
 -2       121       277       276      1621      1728      1727
 -1       456    8    0    1
 -2       292       137       293      1665      1668      1729
 -1       457    8    0    1
 -2       293       138       294      1667      1670      1730
 -1       458    8    0    1
 -2         2       292       321      1666      1731      1723
 -1       459    8    0    1
 -2       141       297       296      1676      1732      1673
 -1       460    8    0    1
 -2       142       298       297      1678      1733      1675
 -1       461    8    0    1
 -2       143       299       298      1680      1734      1677
 -1       462    8    0    1
 -2       144       300       299      1682      1735      1679
 -1       463    8    0    1
 -2       145       301       300      1684      1736      1681
 -1       464    8    0    1
 -2       146       302       301      1686      1737      1683
 -1       465    8    0    1
 -2       147       303       302      1688      1738      1685
 -1       466    8    0    1
 -2       148       304       303      1690      1739      1687
 -1       467    8    0    1
 -2       149       305       304      1692      1740      1689
 -1       468    8    0    1
 -2       150       306       305      1694      1741      1691
 -1       469    8    0    1
 -2       151       307       306      1696      1742      1693
 -1       470    8    0    1
 -2       152       308       307      1698      1743      1695
 -1       471    8    0    1
 -2       153       309       308      1700      1744      1697
 -1       472    8    0    1
 -2       154       310       309      1702      1745      1699
 -1       473    8    0    1
 -2       155       311       310      1704      1746      1701
 -1       474    8    0    1
 -2       156       312       311      1706      1747      1703
 -1       475    8    0    1
 -2         1       313       312      1708      1748      1705
 -1       476    8    0    1
 -2       157       314       313      1710      1749      1707
 -1       477    8    0    1
 -2       158       315       314      1712      1750      1709
 -1       478    8    0    1
 -2       159       316       315      1714      1751      1711
 -1       479    8    0    1
 -2       160       317       316      1716      1752      1713
 -1       480    8    0    1
 -2       161       318       317      1718      1753      1715
 -1       481    8    0    1
 -2       162       319       318      1720      1754      1717
 -1       482    8    0    1
 -2       163       320       319      1722      1755      1719
 -1       483    8    0    1
 -2       164       321       320      1724      1756      1721
 -1       484    8    0    1
 -2        23         7       165      1281      1283      1757
 -1       485    8    0    1
 -2       166       167       322      1289      1758      1759
 -1       486    8    0    1
 -2       165       166       323      1286      1760      1761
 -1       487    8    0    1
 -2       166       322       323      1759      1762      1760
 -1       488    8    0    1
 -2       168       169       324      1295      1763      1764
 -1       489    8    0    1
 -2       169       170       325      1298      1765      1766
 -1       490    8    0    1
 -2       169       325       324      1766      1767      1763
 -1       491    8    0    1
 -2       170       171       326      1301      1768      1769
 -1       492    8    0    1
 -2       170       326       325      1769      1770      1765
 -1       493    8    0    1
 -2       171       172       327      1304      1771      1772
 -1       494    8    0    1
 -2       171       327       326      1772      1773      1768
 -1       495    8    0    1
 -2       172       173       328      1307      1774      1775
 -1       496    8    0    1
 -2       172       328       327      1775      1776      1771
 -1       497    8    0    1
 -2       173       174       329      1310      1777      1778
 -1       498    8    0    1
 -2       173       329       328      1778      1779      1774
 -1       499    8    0    1
 -2       174       175       330      1313      1780      1781
 -1       500    8    0    1
 -2       174       330       329      1781      1782      1777
 -1       501    8    0    1
 -2       175       176       331      1316      1783      1784
 -1       502    8    0    1
 -2       175       331       330      1784      1785      1780
 -1       503    8    0    1
 -2       176       177       332      1319      1786      1787
 -1       504    8    0    1
 -2       176       332       331      1787      1788      1783
 -1       505    8    0    1
 -2       177       178       333      1322      1789      1790
 -1       506    8    0    1
 -2       177       333       332      1790      1791      1786
 -1       507    8    0    1
 -2       178       179       334      1325      1792      1793
 -1       508    8    0    1
 -2       178       334       333      1793      1794      1789
 -1       509    8    0    1
 -2       179       180       335      1328      1795      1796
 -1       510    8    0    1
 -2       334       179       335      1792      1796      1797
 -1       511    8    0    1
 -2       180       229       335      1477      1798      1795
 -1       512    8    0    1
 -2       181        23       165      1330      1757      1799
 -1       513    8    0    1
 -2       229       230       336      1480      1800      1801
 -1       514    8    0    1
 -2       229       336       335      1801      1802      1798
 -1       515    8    0    1
 -2       181       165       323      1799      1761      1803
 -1       516    8    0    1
 -2       183       182       337      1337      1804      1805
 -1       517    8    0    1
 -2       184       183       338      1340      1806      1807
 -1       518    8    0    1
 -2       183       337       338      1805      1808      1806
 -1       519    8    0    1
 -2       185       184       339      1343      1809      1810
 -1       520    8    0    1
 -2       184       338       339      1807      1811      1809
 -1       521    8    0    1
 -2       186       185       340      1346      1812      1813
 -1       522    8    0    1
 -2       185       339       340      1810      1814      1812
 -1       523    8    0    1
 -2       187       186       341      1349      1815      1816
 -1       524    8    0    1
 -2       186       340       341      1813      1817      1815
 -1       525    8    0    1
 -2       188       187       342      1352      1818      1819
 -1       526    8    0    1
 -2       187       341       342      1816      1820      1818
 -1       527    8    0    1
 -2       189       188       343      1355      1821      1822
 -1       528    8    0    1
 -2       188       342       343      1819      1823      1821
 -1       529    8    0    1
 -2       190       189       344      1358      1824      1825
 -1       530    8    0    1
 -2       189       343       344      1822      1826      1824
 -1       531    8    0    1
 -2       191       190       345      1361      1827      1828
 -1       532    8    0    1
 -2       190       344       345      1825      1829      1827
 -1       533    8    0    1
 -2       192       191       346      1364      1830      1831
 -1       534    8    0    1
 -2       191       345       346      1828      1832      1830
 -1       535    8    0    1
 -2       193       192       347      1367      1833      1834
 -1       536    8    0    1
 -2       192       346       347      1831      1835      1833
 -1       537    8    0    1
 -2       194       193       348      1370      1836      1837
 -1       538    8    0    1
 -2       193       347       348      1834      1838      1836
 -1       539    8    0    1
 -2       195       194       349      1373      1839      1840
 -1       540    8    0    1
 -2       194       348       349      1837      1841      1839
 -1       541    8    0    1
 -2       196       195       350      1376      1842      1843
 -1       542    8    0    1
 -2       195       349       350      1840      1844      1842
 -1       543    8    0    1
 -2       197       196       351      1379      1845      1846
 -1       544    8    0    1
 -2       196       350       351      1843      1847      1845
 -1       545    8    0    1
 -2       198       197       352      1382      1848      1849
 -1       546    8    0    1
 -2       197       351       352      1846      1850      1848
 -1       547    8    0    1
 -2       199       198       353      1385      1851      1852
 -1       548    8    0    1
 -2       198       352       353      1849      1853      1851
 -1       549    8    0    1
 -2       200       199       354      1388      1854      1855
 -1       550    8    0    1
 -2       199       353       354      1852      1856      1854
 -1       551    8    0    1
 -2       201       200       355      1391      1857      1858
 -1       552    8    0    1
 -2       200       354       355      1855      1859      1857
 -1       553    8    0    1
 -2       202       201       356      1394      1860      1861
 -1       554    8    0    1
 -2       201       355       356      1858      1862      1860
 -1       555    8    0    1
 -2       203       202       357      1397      1863      1864
 -1       556    8    0    1
 -2       202       356       357      1861      1865      1863
 -1       557    8    0    1
 -2       204       203       358      1400      1866      1867
 -1       558    8    0    1
 -2       203       357       358      1864      1868      1866
 -1       559    8    0    1
 -2       205       204       359      1403      1869      1870
 -1       560    8    0    1
 -2       204       358       359      1867      1871      1869
 -1       561    8    0    1
 -2       206       205       360      1406      1872      1873
 -1       562    8    0    1
 -2       205       359       360      1870      1874      1872
 -1       563    8    0    1
 -2       207       206       361      1409      1875      1876
 -1       564    8    0    1
 -2       206       360       361      1873      1877      1875
 -1       565    8    0    1
 -2       208       207       362      1412      1878      1879
 -1       566    8    0    1
 -2       207       361       362      1876      1880      1878
 -1       567    8    0    1
 -2       209       208       363      1415      1881      1882
 -1       568    8    0    1
 -2       208       362       363      1879      1883      1881
 -1       569    8    0    1
 -2       210       209       364      1418      1884      1885
 -1       570    8    0    1
 -2       209       363       364      1882      1886      1884
 -1       571    8    0    1
 -2       211       210       365      1421      1887      1888
 -1       572    8    0    1
 -2       210       364       365      1885      1889      1887
 -1       573    8    0    1
 -2       212       211       366      1424      1890      1891
 -1       574    8    0    1
 -2       211       365       366      1888      1892      1890
 -1       575    8    0    1
 -2       213       212       367      1427      1893      1894
 -1       576    8    0    1
 -2       212       366       367      1891      1895      1893
 -1       577    8    0    1
 -2       214       213       368      1430      1896      1897
 -1       578    8    0    1
 -2       213       367       368      1894      1898      1896
 -1       579    8    0    1
 -2       215       214       369      1433      1899      1900
 -1       580    8    0    1
 -2       214       368       369      1897      1901      1899
 -1       581    8    0    1
 -2       216       215       370      1436      1902      1903
 -1       582    8    0    1
 -2       215       369       370      1900      1904      1902
 -1       583    8    0    1
 -2       217       216       371      1439      1905      1906
 -1       584    8    0    1
 -2       216       370       371      1903      1907      1905
 -1       585    8    0    1
 -2       218       217       372      1442      1908      1909
 -1       586    8    0    1
 -2       217       371       372      1906      1910      1908
 -1       587    8    0    1
 -2       219       218       373      1445      1911      1912
 -1       588    8    0    1
 -2       218       372       373      1909      1913      1911
 -1       589    8    0    1
 -2       220       219       374      1448      1914      1915
 -1       590    8    0    1
 -2       219       373       374      1912      1916      1914
 -1       591    8    0    1
 -2       221       220       375      1451      1917      1918
 -1       592    8    0    1
 -2       220       374       375      1915      1919      1917
 -1       593    8    0    1
 -2       222       221       376      1454      1920      1921
 -1       594    8    0    1
 -2       221       375       376      1918      1922      1920
 -1       595    8    0    1
 -2       223       222       377      1457      1923      1924
 -1       596    8    0    1
 -2       222       376       377      1921      1925      1923
 -1       597    8    0    1
 -2       224       223       378      1460      1926      1927
 -1       598    8    0    1
 -2       223       377       378      1924      1928      1926
 -1       599    8    0    1
 -2       225       224       379      1463      1929      1930
 -1       600    8    0    1
 -2       224       378       379      1927      1931      1929
 -1       601    8    0    1
 -2       226       225       380      1466      1932      1933
 -1       602    8    0    1
 -2       225       379       380      1930      1934      1932
 -1       603    8    0    1
 -2       227       226       381      1469      1935      1936
 -1       604    8    0    1
 -2       226       380       381      1933      1937      1935
 -1       605    8    0    1
 -2       228       227       382      1472      1938      1939
 -1       606    8    0    1
 -2       291       228       382      1664      1939      1940
 -1       607    8    0    1
 -2       227       381       382      1936      1941      1938
 -1       608    8    0    1
 -2       230       231       383      1483      1942      1943
 -1       609    8    0    1
 -2       230       383       336      1943      1944      1800
 -1       610    8    0    1
 -2       231       232       384      1486      1945      1946
 -1       611    8    0    1
 -2       231       384       383      1946      1947      1942
 -1       612    8    0    1
 -2       232       233       385      1489      1948      1949
 -1       613    8    0    1
 -2       232       385       384      1949      1950      1945
 -1       614    8    0    1
 -2       233       234       386      1492      1951      1952
 -1       615    8    0    1
 -2       233       386       385      1952      1953      1948
 -1       616    8    0    1
 -2       234       235       387      1495      1954      1955
 -1       617    8    0    1
 -2       234       387       386      1955      1956      1951
 -1       618    8    0    1
 -2       235       236       388      1498      1957      1958
 -1       619    8    0    1
 -2       235       388       387      1958      1959      1954
 -1       620    8    0    1
 -2       236       237       389      1501      1960      1961
 -1       621    8    0    1
 -2       236       389       388      1961      1962      1957
 -1       622    8    0    1
 -2       237       238       390      1504      1963      1964
 -1       623    8    0    1
 -2       237       390       389      1964      1965      1960
 -1       624    8    0    1
 -2       238       239       391      1507      1966      1967
 -1       625    8    0    1
 -2       238       391       390      1967      1968      1963
 -1       626    8    0    1
 -2       239       240       392      1510      1969      1970
 -1       627    8    0    1
 -2       239       392       391      1970      1971      1966
 -1       628    8    0    1
 -2       240       241       393      1513      1972      1973
 -1       629    8    0    1
 -2       240       393       392      1973      1974      1969
 -1       630    8    0    1
 -2       241       242       394      1516      1975      1976
 -1       631    8    0    1
 -2       241       394       393      1976      1977      1972
 -1       632    8    0    1
 -2       242       243       395      1519      1978      1979
 -1       633    8    0    1
 -2       242       395       394      1979      1980      1975
 -1       634    8    0    1
 -2       243       244       396      1522      1981      1982
 -1       635    8    0    1
 -2       243       396       395      1982      1983      1978
 -1       636    8    0    1
 -2       244       245       397      1525      1984      1985
 -1       637    8    0    1
 -2       244       397       396      1985      1986      1981
 -1       638    8    0    1
 -2       245       246       398      1528      1987      1988
 -1       639    8    0    1
 -2       245       398       397      1988      1989      1984
 -1       640    8    0    1
 -2       246       247       399      1531      1990      1991
 -1       641    8    0    1
 -2       246       399       398      1991      1992      1987
 -1       642    8    0    1
 -2       247       248       400      1534      1993      1994
 -1       643    8    0    1
 -2       247       400       399      1994      1995      1990
 -1       644    8    0    1
 -2       248       249       401      1537      1996      1997
 -1       645    8    0    1
 -2       248       401       400      1997      1998      1993
 -1       646    8    0    1
 -2       249       250       402      1540      1999      2000
 -1       647    8    0    1
 -2       249       402       401      2000      2001      1996
 -1       648    8    0    1
 -2       250       251       403      1543      2002      2003
 -1       649    8    0    1
 -2       250       403       402      2003      2004      1999
 -1       650    8    0    1
 -2       251       252       404      1546      2005      2006
 -1       651    8    0    1
 -2       251       404       403      2006      2007      2002
 -1       652    8    0    1
 -2       252       253       405      1549      2008      2009
 -1       653    8    0    1
 -2       252       405       404      2009      2010      2005
 -1       654    8    0    1
 -2       253       254       406      1552      2011      2012
 -1       655    8    0    1
 -2       253       406       405      2012      2013      2008
 -1       656    8    0    1
 -2       254       255       407      1555      2014      2015
 -1       657    8    0    1
 -2       254       407       406      2015      2016      2011
 -1       658    8    0    1
 -2       255       256       408      1558      2017      2018
 -1       659    8    0    1
 -2       255       408       407      2018      2019      2014
 -1       660    8    0    1
 -2       256       257       409      1561      2020      2021
 -1       661    8    0    1
 -2       256       409       408      2021      2022      2017
 -1       662    8    0    1
 -2       257       258       410      1564      2023      2024
 -1       663    8    0    1
 -2       257       410       409      2024      2025      2020
 -1       664    8    0    1
 -2       258       259       411      1567      2026      2027
 -1       665    8    0    1
 -2       258       411       410      2027      2028      2023
 -1       666    8    0    1
 -2       259       260       412      1570      2029      2030
 -1       667    8    0    1
 -2       259       412       411      2030      2031      2026
 -1       668    8    0    1
 -2       260       261       413      1573      2032      2033
 -1       669    8    0    1
 -2       260       413       412      2033      2034      2029
 -1       670    8    0    1
 -2       261       262       414      1576      2035      2036
 -1       671    8    0    1
 -2       261       414       413      2036      2037      2032
 -1       672    8    0    1
 -2       262       263       415      1579      2038      2039
 -1       673    8    0    1
 -2       262       415       414      2039      2040      2035
 -1       674    8    0    1
 -2       263       264       416      1582      2041      2042
 -1       675    8    0    1
 -2       263       416       415      2042      2043      2038
 -1       676    8    0    1
 -2       264       265       417      1585      2044      2045
 -1       677    8    0    1
 -2       264       417       416      2045      2046      2041
 -1       678    8    0    1
 -2       265       266       418      1588      2047      2048
 -1       679    8    0    1
 -2       265       418       417      2048      2049      2044
 -1       680    8    0    1
 -2       266       267       419      1591      2050      2051
 -1       681    8    0    1
 -2       266       419       418      2051      2052      2047
 -1       682    8    0    1
 -2       267       268       420      1594      2053      2054
 -1       683    8    0    1
 -2       267       420       419      2054      2055      2050
 -1       684    8    0    1
 -2       268       269       421      1597      2056      2057
 -1       685    8    0    1
 -2       268       421       420      2057      2058      2053
 -1       686    8    0    1
 -2       269       270       422      1600      2059      2060
 -1       687    8    0    1
 -2       269       422       421      2060      2061      2056
 -1       688    8    0    1
 -2       270       271       423      1603      2062      2063
 -1       689    8    0    1
 -2       270       423       422      2063      2064      2059
 -1       690    8    0    1
 -2       271       272       424      1606      2065      2066
 -1       691    8    0    1
 -2       271       424       423      2066      2067      2062
 -1       692    8    0    1
 -2       272       273       425      1609      2068      2069
 -1       693    8    0    1
 -2       272       425       424      2069      2070      2065
 -1       694    8    0    1
 -2       273       274       426      1612      2071      2072
 -1       695    8    0    1
 -2       273       426       425      2072      2073      2068
 -1       696    8    0    1
 -2       274       275       427      1615      2074      2075
 -1       697    8    0    1
 -2       274       427       426      2075      2076      2071
 -1       698    8    0    1
 -2       275       276       428      1618      2077      2078
 -1       699    8    0    1
 -2       427       275       428      2074      2078      2079
 -1       700    8    0    1
 -2       276       277       428      1728      2080      2077
 -1       701    8    0    1
 -2       279       280       429      1630      2081      2082
 -1       702    8    0    1
 -2       278       279       430      1627      2083      2084
 -1       703    8    0    1
 -2       279       429       430      2082      2085      2083
 -1       704    8    0    1
 -2       277       278       431      1624      2086      2087
 -1       705    8    0    1
 -2       428       277       431      2080      2087      2088
 -1       706    8    0    1
 -2       278       430       431      2084      2089      2086
 -1       707    8    0    1
 -2       280       281       432      1633      2090      2091
 -1       708    8    0    1
 -2       280       432       429      2091      2092      2081
 -1       709    8    0    1
 -2       281       282       433      1636      2093      2094
 -1       710    8    0    1
 -2       281       433       432      2094      2095      2090
 -1       711    8    0    1
 -2       282       283       434      1639      2096      2097
 -1       712    8    0    1
 -2       282       434       433      2097      2098      2093
 -1       713    8    0    1
 -2       283       284       435      1642      2099      2100
 -1       714    8    0    1
 -2       283       435       434      2100      2101      2096
 -1       715    8    0    1
 -2       284       285       436      1645      2102      2103
 -1       716    8    0    1
 -2       284       436       435      2103      2104      2099
 -1       717    8    0    1
 -2       285       286       437      1648      2105      2106
 -1       718    8    0    1
 -2       285       437       436      2106      2107      2102
 -1       719    8    0    1
 -2       286       287       438      1651      2108      2109
 -1       720    8    0    1
 -2       286       438       437      2109      2110      2105
 -1       721    8    0    1
 -2       287       288       439      1654      2111      2112
 -1       722    8    0    1
 -2       287       439       438      2112      2113      2108
 -1       723    8    0    1
 -2       288       289       440      1657      2114      2115
 -1       724    8    0    1
 -2       288       440       439      2115      2116      2111
 -1       725    8    0    1
 -2       289       290       441      1660      2117      2118
 -1       726    8    0    1
 -2       289       441       440      2118      2119      2114
 -1       727    8    0    1
 -2       293       294       442      1730      2120      2121
 -1       728    8    0    1
 -2       321       292       443      1731      2122      2123
 -1       729    8    0    1
 -2       292       293       444      1729      2124      2125
 -1       730    8    0    1
 -2       293       442       444      2121      2126      2124
 -1       731    8    0    1
 -2       294       295       445      1726      2127      2128
 -1       732    8    0    1
 -2       295       296       446      1725      2129      2130
 -1       733    8    0    1
 -2       167       168       447      1292      2131      2132
 -1       734    8    0    1
 -2       322       167       447      1758      2132      2133
 -1       735    8    0    1
 -2       168       324       447      1764      2134      2131
 -1       736    8    0    1
 -2       297       298       448      1733      2135      2136
 -1       737    8    0    1
 -2       298       299       449      1734      2137      2138
 -1       738    8    0    1
 -2       299       300       450      1735      2139      2140
 -1       739    8    0    1
 -2       299       450       449      2140      2141      2137
 -1       740    8    0    1
 -2       300       301       451      1736      2142      2143
 -1       741    8    0    1
 -2       301       302       452      1737      2144      2145
 -1       742    8    0    1
 -2       302       303       453      1738      2146      2147
 -1       743    8    0    1
 -2       303       304       454      1739      2148      2149
 -1       744    8    0    1
 -2       303       454       453      2149      2150      2146
 -1       745    8    0    1
 -2       304       305       455      1740      2151      2152
 -1       746    8    0    1
 -2       305       306       456      1741      2153      2154
 -1       747    8    0    1
 -2       305       456       455      2154      2155      2151
 -1       748    8    0    1
 -2       306       307       457      1742      2156      2157
 -1       749    8    0    1
 -2       307       308       458      1743      2158      2159
 -1       750    8    0    1
 -2       307       458       457      2159      2160      2156
 -1       751    8    0    1
 -2       308       309       459      1744      2161      2162
 -1       752    8    0    1
 -2       309       310       460      1745      2163      2164
 -1       753    8    0    1
 -2       310       311       461      1746      2165      2166
 -1       754    8    0    1
 -2       311       312       462      1747      2167      2168
 -1       755    8    0    1
 -2       312       313       463      1748      2169      2170
 -1       756    8    0    1
 -2       313       314       464      1749      2171      2172
 -1       757    8    0    1
 -2       313       464       463      2172      2173      2169
 -1       758    8    0    1
 -2       314       315       465      1750      2174      2175
 -1       759    8    0    1
 -2       315       316       466      1751      2176      2177
 -1       760    8    0    1
 -2       315       466       465      2177      2178      2174
 -1       761    8    0    1
 -2       316       317       467      1752      2179      2180
 -1       762    8    0    1
 -2       317       318       468      1753      2181      2182
 -1       763    8    0    1
 -2       318       319       469      1754      2183      2184
 -1       764    8    0    1
 -2       319       320       470      1755      2185      2186
 -1       765    8    0    1
 -2       320       321       471      1756      2187      2188
 -1       766    8    0    1
 -2       321       443       471      2123      2189      2187
 -1       767    8    0    1
 -2       296       297       472      1732      2190      2191
 -1       768    8    0    1
 -2       297       448       472      2136      2192      2190
 -1       769    8    0    1
 -2       446       296       472      2129      2191      2193
 -1       770    8    0    1
 -2       181       323       182      1803      2194      1334
 -1       771    8    0    1
 -2       337       182       323      1804      2194      2195
 -1       772    8    0    1
 -2       443       292       473      2122      2196      2197
 -1       773    8    0    1
 -2       292       444       473      2125      2198      2196
 -1       774    8    0    1
 -2       294       445       442      2128      2199      2120
 -1       775    8    0    1
 -2       441       290       291      2117      1663      2200
 -1       776    8    0    1
 -2       445       295       446      2127      2130      2201
 -1       777    8    0    1
 -2       470       320       471      2185      2188      2202
 -1       778    8    0    1
 -2       469       319       470      2183      2186      2203
 -1       779    8    0    1
 -2       468       318       469      2181      2184      2204
 -1       780    8    0    1
 -2       466       316       467      2176      2180      2205
 -1       781    8    0    1
 -2       464       314       465      2171      2175      2206
 -1       782    8    0    1
 -2       462       312       463      2167      2170      2207
 -1       783    8    0    1
 -2       461       311       462      2165      2168      2208
 -1       784    8    0    1
 -2       460       310       461      2163      2166      2209
 -1       785    8    0    1
 -2       458       308       459      2158      2162      2210
 -1       786    8    0    1
 -2       456       306       474      2153      2211      2212
 -1       787    8    0    1
 -2       306       457       474      2157      2213      2211
 -1       788    8    0    1
 -2       454       304       455      2148      2152      2214
 -1       789    8    0    1
 -2       452       302       453      2144      2147      2215
 -1       790    8    0    1
 -2       450       300       451      2139      2143      2216
 -1       791    8    0    1
 -2       448       298       449      2135      2138      2217
 -1       792    8    0    1
 -2       451       301       452      2142      2145      2218
 -1       793    8    0    1
 -2       459       309       460      2161      2164      2219
 -1       794    8    0    1
 -2       467       317       468      2179      2182      2220
 -1       795    8    0    1
 -2       336       383       475      1944      2221      2222
 -1       796    8    0    1
 -2       325       326       476      1770      2223      2224
 -1       797    8    0    1
 -2       324       325       477      1767      2225      2226
 -1       798    8    0    1
 -2       325       476       477      2224      2227      2225
 -1       799    8    0    1
 -2       327       328       478      1776      2228      2229
 -1       800    8    0    1
 -2       328       329       479      1779      2230      2231
 -1       801    8    0    1
 -2       328       479       478      2231      2232      2228
 -1       802    8    0    1
 -2       329       330       480      1782      2233      2234
 -1       803    8    0    1
 -2       329       480       479      2234      2235      2230
 -1       804    8    0    1
 -2       330       331       481      1785      2236      2237
 -1       805    8    0    1
 -2       330       481       480      2237      2238      2233
 -1       806    8    0    1
 -2       331       332       482      1788      2239      2240
 -1       807    8    0    1
 -2       331       482       481      2240      2241      2236
 -1       808    8    0    1
 -2       332       333       483      1791      2242      2243
 -1       809    8    0    1
 -2       332       483       482      2243      2244      2239
 -1       810    8    0    1
 -2       383       384       484      1947      2245      2246
 -1       811    8    0    1
 -2       383       484       475      2246      2247      2221
 -1       812    8    0    1
 -2       338       337       485      1808      2248      2249
 -1       813    8    0    1
 -2       337       323       486      2195      2250      2251
 -1       814    8    0    1
 -2       485       337       486      2248      2251      2252
 -1       815    8    0    1
 -2       323       322       486      1762      2253      2250
 -1       816    8    0    1
 -2       446       472       487      2193      2254      2255
 -1       817    8    0    1
 -2       339       338       488      1811      2256      2257
 -1       818    8    0    1
 -2       338       485       488      2249      2258      2256
 -1       819    8    0    1
 -2       340       339       489      1814      2259      2260
 -1       820    8    0    1
 -2       339       488       489      2257      2261      2259
 -1       821    8    0    1
 -2       341       340       490      1817      2262      2263
 -1       822    8    0    1
 -2       340       489       490      2260      2264      2262
 -1       823    8    0    1
 -2       342       341       491      1820      2265      2266
 -1       824    8    0    1
 -2       341       490       491      2263      2267      2265
 -1       825    8    0    1
 -2       343       342       492      1823      2268      2269
 -1       826    8    0    1
 -2       342       491       492      2266      2270      2268
 -1       827    8    0    1
 -2       344       343       493      1826      2271      2272
 -1       828    8    0    1
 -2       343       492       493      2269      2273      2271
 -1       829    8    0    1
 -2       345       344       494      1829      2274      2275
 -1       830    8    0    1
 -2       344       493       494      2272      2276      2274
 -1       831    8    0    1
 -2       346       345       495      1832      2277      2278
 -1       832    8    0    1
 -2       345       494       495      2275      2279      2277
 -1       833    8    0    1
 -2       347       346       496      1835      2280      2281
 -1       834    8    0    1
 -2       346       495       496      2278      2282      2280
 -1       835    8    0    1
 -2       348       347       497      1838      2283      2284
 -1       836    8    0    1
 -2       347       496       497      2281      2285      2283
 -1       837    8    0    1
 -2       349       348       498      1841      2286      2287
 -1       838    8    0    1
 -2       348       497       498      2284      2288      2286
 -1       839    8    0    1
 -2       350       349       499      1844      2289      2290
 -1       840    8    0    1
 -2       349       498       499      2287      2291      2289
 -1       841    8    0    1
 -2       351       350       500      1847      2292      2293
 -1       842    8    0    1
 -2       350       499       500      2290      2294      2292
 -1       843    8    0    1
 -2       352       351       501      1850      2295      2296
 -1       844    8    0    1
 -2       351       500       501      2293      2297      2295
 -1       845    8    0    1
 -2       353       352       502      1853      2298      2299
 -1       846    8    0    1
 -2       352       501       502      2296      2300      2298
 -1       847    8    0    1
 -2       354       353       503      1856      2301      2302
 -1       848    8    0    1
 -2       353       502       503      2299      2303      2301
 -1       849    8    0    1
 -2       355       354       504      1859      2304      2305
 -1       850    8    0    1
 -2       354       503       504      2302      2306      2304
 -1       851    8    0    1
 -2       356       355       505      1862      2307      2308
 -1       852    8    0    1
 -2       355       504       505      2305      2309      2307
 -1       853    8    0    1
 -2       357       356       506      1865      2310      2311
 -1       854    8    0    1
 -2       356       505       506      2308      2312      2310
 -1       855    8    0    1
 -2       358       357       507      1868      2313      2314
 -1       856    8    0    1
 -2       357       506       507      2311      2315      2313
 -1       857    8    0    1
 -2       359       358       508      1871      2316      2317
 -1       858    8    0    1
 -2       358       507       508      2314      2318      2316
 -1       859    8    0    1
 -2       360       359       509      1874      2319      2320
 -1       860    8    0    1
 -2       359       508       509      2317      2321      2319
 -1       861    8    0    1
 -2       361       360       510      1877      2322      2323
 -1       862    8    0    1
 -2       360       509       510      2320      2324      2322
 -1       863    8    0    1
 -2       362       361       511      1880      2325      2326
 -1       864    8    0    1
 -2       361       510       511      2323      2327      2325
 -1       865    8    0    1
 -2       363       362       512      1883      2328      2329
 -1       866    8    0    1
 -2       362       511       512      2326      2330      2328
 -1       867    8    0    1
 -2       364       363       513      1886      2331      2332
 -1       868    8    0    1
 -2       363       512       513      2329      2333      2331
 -1       869    8    0    1
 -2       365       364       514      1889      2334      2335
 -1       870    8    0    1
 -2       364       513       514      2332      2336      2334
 -1       871    8    0    1
 -2       366       365       515      1892      2337      2338
 -1       872    8    0    1
 -2       365       514       515      2335      2339      2337
 -1       873    8    0    1
 -2       367       366       516      1895      2340      2341
 -1       874    8    0    1
 -2       366       515       516      2338      2342      2340
 -1       875    8    0    1
 -2       368       367       517      1898      2343      2344
 -1       876    8    0    1
 -2       367       516       517      2341      2345      2343
 -1       877    8    0    1
 -2       369       368       518      1901      2346      2347
 -1       878    8    0    1
 -2       368       517       518      2344      2348      2346
 -1       879    8    0    1
 -2       370       369       519      1904      2349      2350
 -1       880    8    0    1
 -2       369       518       519      2347      2351      2349
 -1       881    8    0    1
 -2       371       370       520      1907      2352      2353
 -1       882    8    0    1
 -2       370       519       520      2350      2354      2352
 -1       883    8    0    1
 -2       372       371       521      1910      2355      2356
 -1       884    8    0    1
 -2       371       520       521      2353      2357      2355
 -1       885    8    0    1
 -2       373       372       522      1913      2358      2359
 -1       886    8    0    1
 -2       372       521       522      2356      2360      2358
 -1       887    8    0    1
 -2       374       373       523      1916      2361      2362
 -1       888    8    0    1
 -2       373       522       523      2359      2363      2361
 -1       889    8    0    1
 -2       375       374       524      1919      2364      2365
 -1       890    8    0    1
 -2       374       523       524      2362      2366      2364
 -1       891    8    0    1
 -2       376       375       525      1922      2367      2368
 -1       892    8    0    1
 -2       375       524       525      2365      2369      2367
 -1       893    8    0    1
 -2       377       376       526      1925      2370      2371
 -1       894    8    0    1
 -2       376       525       526      2368      2372      2370
 -1       895    8    0    1
 -2       378       377       527      1928      2373      2374
 -1       896    8    0    1
 -2       377       526       527      2371      2375      2373
 -1       897    8    0    1
 -2       379       378       528      1931      2376      2377
 -1       898    8    0    1
 -2       378       527       528      2374      2378      2376
 -1       899    8    0    1
 -2       380       379       529      1934      2379      2380
 -1       900    8    0    1
 -2       379       528       529      2377      2381      2379
 -1       901    8    0    1
 -2       381       380       530      1937      2382      2383
 -1       902    8    0    1
 -2       380       529       530      2380      2384      2382
 -1       903    8    0    1
 -2       444       442       531      2126      2385      2386
 -1       904    8    0    1
 -2       385       386       532      1953      2387      2388
 -1       905    8    0    1
 -2       386       387       533      1956      2389      2390
 -1       906    8    0    1
 -2       386       533       532      2390      2391      2387
 -1       907    8    0    1
 -2       387       388       534      1959      2392      2393
 -1       908    8    0    1
 -2       387       534       533      2393      2394      2389
 -1       909    8    0    1
 -2       388       389       535      1962      2395      2396
 -1       910    8    0    1
 -2       388       535       534      2396      2397      2392
 -1       911    8    0    1
 -2       389       390       536      1965      2398      2399
 -1       912    8    0    1
 -2       389       536       535      2399      2400      2395
 -1       913    8    0    1
 -2       390       391       537      1968      2401      2402
 -1       914    8    0    1
 -2       390       537       536      2402      2403      2398
 -1       915    8    0    1
 -2       391       392       538      1971      2404      2405
 -1       916    8    0    1
 -2       391       538       537      2405      2406      2401
 -1       917    8    0    1
 -2       392       393       539      1974      2407      2408
 -1       918    8    0    1
 -2       392       539       538      2408      2409      2404
 -1       919    8    0    1
 -2       393       394       540      1977      2410      2411
 -1       920    8    0    1
 -2       393       540       539      2411      2412      2407
 -1       921    8    0    1
 -2       394       395       541      1980      2413      2414
 -1       922    8    0    1
 -2       394       541       540      2414      2415      2410
 -1       923    8    0    1
 -2       395       396       542      1983      2416      2417
 -1       924    8    0    1
 -2       395       542       541      2417      2418      2413
 -1       925    8    0    1
 -2       396       397       543      1986      2419      2420
 -1       926    8    0    1
 -2       396       543       542      2420      2421      2416
 -1       927    8    0    1
 -2       397       398       544      1989      2422      2423
 -1       928    8    0    1
 -2       397       544       543      2423      2424      2419
 -1       929    8    0    1
 -2       398       399       545      1992      2425      2426
 -1       930    8    0    1
 -2       398       545       544      2426      2427      2422
 -1       931    8    0    1
 -2       399       400       546      1995      2428      2429
 -1       932    8    0    1
 -2       399       546       545      2429      2430      2425
 -1       933    8    0    1
 -2       400       401       547      1998      2431      2432
 -1       934    8    0    1
 -2       400       547       546      2432      2433      2428
 -1       935    8    0    1
 -2       401       402       548      2001      2434      2435
 -1       936    8    0    1
 -2       401       548       547      2435      2436      2431
 -1       937    8    0    1
 -2       402       403       549      2004      2437      2438
 -1       938    8    0    1
 -2       402       549       548      2438      2439      2434
 -1       939    8    0    1
 -2       403       404       550      2007      2440      2441
 -1       940    8    0    1
 -2       403       550       549      2441      2442      2437
 -1       941    8    0    1
 -2       404       405       551      2010      2443      2444
 -1       942    8    0    1
 -2       404       551       550      2444      2445      2440
 -1       943    8    0    1
 -2       405       406       552      2013      2446      2447
 -1       944    8    0    1
 -2       405       552       551      2447      2448      2443
 -1       945    8    0    1
 -2       406       407       553      2016      2449      2450
 -1       946    8    0    1
 -2       406       553       552      2450      2451      2446
 -1       947    8    0    1
 -2       407       408       554      2019      2452      2453
 -1       948    8    0    1
 -2       407       554       553      2453      2454      2449
 -1       949    8    0    1
 -2       408       409       555      2022      2455      2456
 -1       950    8    0    1
 -2       408       555       554      2456      2457      2452
 -1       951    8    0    1
 -2       409       410       556      2025      2458      2459
 -1       952    8    0    1
 -2       409       556       555      2459      2460      2455
 -1       953    8    0    1
 -2       410       411       557      2028      2461      2462
 -1       954    8    0    1
 -2       410       557       556      2462      2463      2458
 -1       955    8    0    1
 -2       411       412       558      2031      2464      2465
 -1       956    8    0    1
 -2       411       558       557      2465      2466      2461
 -1       957    8    0    1
 -2       412       413       559      2034      2467      2468
 -1       958    8    0    1
 -2       412       559       558      2468      2469      2464
 -1       959    8    0    1
 -2       413       414       560      2037      2470      2471
 -1       960    8    0    1
 -2       413       560       559      2471      2472      2467
 -1       961    8    0    1
 -2       414       415       561      2040      2473      2474
 -1       962    8    0    1
 -2       414       561       560      2474      2475      2470
 -1       963    8    0    1
 -2       415       416       562      2043      2476      2477
 -1       964    8    0    1
 -2       415       562       561      2477      2478      2473
 -1       965    8    0    1
 -2       416       417       563      2046      2479      2480
 -1       966    8    0    1
 -2       416       563       562      2480      2481      2476
 -1       967    8    0    1
 -2       417       418       564      2049      2482      2483
 -1       968    8    0    1
 -2       417       564       563      2483      2484      2479
 -1       969    8    0    1
 -2       418       419       565      2052      2485      2486
 -1       970    8    0    1
 -2       418       565       564      2486      2487      2482
 -1       971    8    0    1
 -2       419       420       566      2055      2488      2489
 -1       972    8    0    1
 -2       419       566       565      2489      2490      2485
 -1       973    8    0    1
 -2       420       421       567      2058      2491      2492
 -1       974    8    0    1
 -2       420       567       566      2492      2493      2488
 -1       975    8    0    1
 -2       421       422       568      2061      2494      2495
 -1       976    8    0    1
 -2       421       568       567      2495      2496      2491
 -1       977    8    0    1
 -2       422       423       569      2064      2497      2498
 -1       978    8    0    1
 -2       422       569       568      2498      2499      2494
 -1       979    8    0    1
 -2       423       424       570      2067      2500      2501
 -1       980    8    0    1
 -2       423       570       569      2501      2502      2497
 -1       981    8    0    1
 -2       424       425       571      2070      2503      2504
 -1       982    8    0    1
 -2       424       571       570      2504      2505      2500
 -1       983    8    0    1
 -2       425       426       572      2073      2506      2507
 -1       984    8    0    1
 -2       425       572       571      2507      2508      2503
 -1       985    8    0    1
 -2       426       427       573      2076      2509      2510
 -1       986    8    0    1
 -2       426       573       572      2510      2511      2506
 -1       987    8    0    1
 -2       427       428       431      2079      2088      2512
 -1       988    8    0    1
 -2       432       433       574      2095      2513      2514
 -1       989    8    0    1
 -2       433       434       575      2098      2515      2516
 -1       990    8    0    1
 -2       433       575       574      2516      2517      2513
 -1       991    8    0    1
 -2       430       429       576      2085      2518      2519
 -1       992    8    0    1
 -2       429       432       577      2092      2520      2521
 -1       993    8    0    1
 -2       576       429       577      2518      2521      2522
 -1       994    8    0    1
 -2       432       574       577      2514      2523      2520
 -1       995    8    0    1
 -2       434       435       578      2101      2524      2525
 -1       996    8    0    1
 -2       434       578       575      2525      2526      2515
 -1       997    8    0    1
 -2       435       436       579      2104      2527      2528
 -1       998    8    0    1
 -2       435       579       578      2528      2529      2524
 -1       999    8    0    1
 -2       436       437       580      2107      2530      2531
 -1      1000    8    0    1
 -2       436       580       579      2531      2532      2527
 -1      1001    8    0    1
 -2       437       438       581      2110      2533      2534
 -1      1002    8    0    1
 -2       437       581       580      2534      2535      2530
 -1      1003    8    0    1
 -2       438       439       582      2113      2536      2537
 -1      1004    8    0    1
 -2       438       582       581      2537      2538      2533
 -1      1005    8    0    1
 -2       439       440       583      2116      2539      2540
 -1      1006    8    0    1
 -2       439       583       582      2540      2541      2536
 -1      1007    8    0    1
 -2       440       441       584      2119      2542      2543
 -1      1008    8    0    1
 -2       440       584       583      2543      2544      2539
 -1      1009    8    0    1
 -2       441       291       382      2200      1940      2545
 -1      1010    8    0    1
 -2       445       446       585      2201      2546      2547
 -1      1011    8    0    1
 -2       384       385       586      1950      2548      2549
 -1      1012    8    0    1
 -2       385       532       586      2388      2550      2548
 -1      1013    8    0    1
 -2       442       445       587      2199      2551      2552
 -1      1014    8    0    1
 -2       470       471       588      2202      2553      2554
 -1      1015    8    0    1
 -2       471       443       589      2189      2555      2556
 -1      1016    8    0    1
 -2       471       589       588      2556      2557      2553
 -1      1017    8    0    1
 -2       462       463       590      2207      2558      2559
 -1      1018    8    0    1
 -2       452       453       591      2215      2560      2561
 -1      1019    8    0    1
 -2       326       327       592      1773      2562      2563
 -1      1020    8    0    1
 -2       476       326       592      2223      2563      2564
 -1      1021    8    0    1
 -2       327       478       592      2229      2565      2562
 -1      1022    8    0    1
 -2       448       449       593      2217      2566      2567
 -1      1023    8    0    1
 -2       451       452       594      2218      2568      2569
 -1      1024    8    0    1
 -2       449       450       595      2141      2570      2571
 -1      1025    8    0    1
 -2       459       460       596      2219      2572      2573
 -1      1026    8    0    1
 -2       450       451       597      2216      2574      2575
 -1      1027    8    0    1
 -2       453       454       598      2150      2576      2577
 -1      1028    8    0    1
 -2       454       455       599      2214      2578      2579
 -1      1029    8    0    1
 -2       455       456       600      2155      2580      2581
 -1      1030    8    0    1
 -2       457       458       601      2160      2582      2583
 -1      1031    8    0    1
 -2       467       468       602      2220      2584      2585
 -1      1032    8    0    1
 -2       458       459       603      2210      2586      2587
 -1      1033    8    0    1
 -2       460       461       604      2209      2588      2589
 -1      1034    8    0    1
 -2       461       462       605      2208      2590      2591
 -1      1035    8    0    1
 -2       463       464       606      2173      2592      2593
 -1      1036    8    0    1
 -2       464       465       607      2206      2594      2595
 -1      1037    8    0    1
 -2       465       466       608      2178      2596      2597
 -1      1038    8    0    1
 -2       466       467       609      2205      2598      2599
 -1      1039    8    0    1
 -2       466       609       608      2599      2600      2596
 -1      1040    8    0    1
 -2       468       469       610      2204      2601      2602
 -1      1041    8    0    1
 -2       468       610       602      2602      2603      2584
 -1      1042    8    0    1
 -2       469       470       611      2203      2604      2605
 -1      1043    8    0    1
 -2       469       611       610      2605      2606      2601
 -1      1044    8    0    1
 -2       472       448       612      2192      2607      2608
 -1      1045    8    0    1
 -2       335       336       613      1802      2609      2610
 -1      1046    8    0    1
 -2       334       335       613      1797      2610      2611
 -1      1047    8    0    1
 -2       336       475       613      2222      2612      2609
 -1      1048    8    0    1
 -2       448       593       612      2567      2613      2607
 -1      1049    8    0    1
 -2       324       477       614      2226      2614      2615
 -1      1050    8    0    1
 -2       324       614       447      2615      2616      2134
 -1      1051    8    0    1
 -2       484       384       586      2245      2549      2617
 -1      1052    8    0    1
 -2       333       334       613      1794      2611      2618
 -1      1053    8    0    1
 -2       605       462       590      2590      2559      2619
 -1      1054    8    0    1
 -2       604       461       605      2588      2591      2620
 -1      1055    8    0    1
 -2       487       472       612      2254      2608      2621
 -1      1056    8    0    1
 -2       473       444       615      2198      2622      2623
 -1      1057    8    0    1
 -2       444       531       615      2386      2624      2622
 -1      1058    8    0    1
 -2       445       585       587      2547      2625      2551
 -1      1059    8    0    1
 -2       531       442       587      2385      2552      2626
 -1      1060    8    0    1
 -2       427       431       573      2512      2627      2509
 -1      1061    8    0    1
 -2       431       430       573      2089      2628      2627
 -1      1062    8    0    1
 -2       603       459       596      2586      2573      2629
 -1      1063    8    0    1
 -2       441       382       616      2545      2630      2631
 -1      1064    8    0    1
 -2       584       441       616      2542      2631      2632
 -1      1065    8    0    1
 -2       382       381       616      1941      2633      2630
 -1      1066    8    0    1
 -2       601       458       603      2582      2587      2634
 -1      1067    8    0    1
 -2       585       446       487      2546      2255      2635
 -1      1068    8    0    1
 -2       333       613       483      2618      2636      2242
 -1      1069    8    0    1
 -2       443       473       617      2197      2637      2638
 -1      1070    8    0    1
 -2       443       617       589      2638      2639      2555
 -1      1071    8    0    1
 -2       470       588       618      2554      2640      2641
 -1      1072    8    0    1
 -2       470       618       611      2641      2642      2604
 -1      1073    8    0    1
 -2       600       456       619      2580      2643      2644
 -1      1074    8    0    1
 -2       456       474       619      2212      2645      2643
 -1      1075    8    0    1
 -2       609       467       620      2598      2646      2647
 -1      1076    8    0    1
 -2       467       602       620      2585      2648      2646
 -1      1077    8    0    1
 -2       607       465       608      2594      2597      2649
 -1      1078    8    0    1
 -2       590       463       606      2558      2593      2650
 -1      1079    8    0    1
 -2       599       455       600      2578      2581      2651
 -1      1080    8    0    1
 -2       598       454       599      2576      2579      2652
 -1      1081    8    0    1
 -2       597       451       594      2574      2569      2653
 -1      1082    8    0    1
 -2       596       460       604      2572      2589      2654
 -1      1083    8    0    1
 -2       595       450       597      2570      2575      2655
 -1      1084    8    0    1
 -2       452       591       594      2561      2656      2568
 -1      1085    8    0    1
 -2       591       453       598      2560      2577      2657
 -1      1086    8    0    1
 -2       474       457       601      2213      2583      2658
 -1      1087    8    0    1
 -2       486       322       447      2253      2133      2659
 -1      1088    8    0    1
 -2       449       595       593      2571      2660      2566
 -1      1089    8    0    1
 -2       464       607       606      2595      2661      2592
 -1      1090    8    0    1
 -2       573       430       576      2628      2519      2662
 -1      1091    8    0    1
 -2       616       381       530      2633      2383      2663
 -1      1092    8    0    1
 -2       479       480       621      2235      2664      2665
 -1      1093    8    0    1
 -2       478       479       622      2232      2666      2667
 -1      1094    8    0    1
 -2       479       621       622      2665      2668      2666
 -1      1095    8    0    1
 -2       481       482       623      2241      2669      2670
 -1      1096    8    0    1
 -2       482       483       624      2244      2671      2672
 -1      1097    8    0    1
 -2       482       624       623      2672      2673      2669
 -1      1098    8    0    1
 -2       475       484       625      2247      2674      2675
 -1      1099    8    0    1
 -2       484       586       626      2617      2676      2677
 -1      1100    8    0    1
 -2       484       626       625      2677      2678      2674
 -1      1101    8    0    1
 -2       485       486       627      2252      2679      2680
 -1      1102    8    0    1
 -2       488       485       628      2258      2681      2682
 -1      1103    8    0    1
 -2       485       627       628      2680      2683      2681
 -1      1104    8    0    1
 -2       489       488       629      2261      2684      2685
 -1      1105    8    0    1
 -2       488       628       629      2682      2686      2684
 -1      1106    8    0    1
 -2       490       489       630      2264      2687      2688
 -1      1107    8    0    1
 -2       489       629       630      2685      2689      2687
 -1      1108    8    0    1
 -2       491       490       631      2267      2690      2691
 -1      1109    8    0    1
 -2       490       630       631      2688      2692      2690
 -1      1110    8    0    1
 -2       492       491       632      2270      2693      2694
 -1      1111    8    0    1
 -2       491       631       632      2691      2695      2693
 -1      1112    8    0    1
 -2       493       492       633      2273      2696      2697
 -1      1113    8    0    1
 -2       492       632       633      2694      2698      2696
 -1      1114    8    0    1
 -2       494       493       634      2276      2699      2700
 -1      1115    8    0    1
 -2       493       633       634      2697      2701      2699
 -1      1116    8    0    1
 -2       495       494       635      2279      2702      2703
 -1      1117    8    0    1
 -2       494       634       635      2700      2704      2702
 -1      1118    8    0    1
 -2       496       495       636      2282      2705      2706
 -1      1119    8    0    1
 -2       495       635       636      2703      2707      2705
 -1      1120    8    0    1
 -2       497       496       637      2285      2708      2709
 -1      1121    8    0    1
 -2       496       636       637      2706      2710      2708
 -1      1122    8    0    1
 -2       498       497       638      2288      2711      2712
 -1      1123    8    0    1
 -2       497       637       638      2709      2713      2711
 -1      1124    8    0    1
 -2       499       498       639      2291      2714      2715
 -1      1125    8    0    1
 -2       498       638       639      2712      2716      2714
 -1      1126    8    0    1
 -2       500       499       640      2294      2717      2718
 -1      1127    8    0    1
 -2       499       639       640      2715      2719      2717
 -1      1128    8    0    1
 -2       501       500       641      2297      2720      2721
 -1      1129    8    0    1
 -2       500       640       641      2718      2722      2720
 -1      1130    8    0    1
 -2       502       501       642      2300      2723      2724
 -1      1131    8    0    1
 -2       501       641       642      2721      2725      2723
 -1      1132    8    0    1
 -2       503       502       643      2303      2726      2727
 -1      1133    8    0    1
 -2       502       642       643      2724      2728      2726
 -1      1134    8    0    1
 -2       504       503       644      2306      2729      2730
 -1      1135    8    0    1
 -2       503       643       644      2727      2731      2729
 -1      1136    8    0    1
 -2       505       504       645      2309      2732      2733
 -1      1137    8    0    1
 -2       504       644       645      2730      2734      2732
 -1      1138    8    0    1
 -2       506       505       646      2312      2735      2736
 -1      1139    8    0    1
 -2       505       645       646      2733      2737      2735
 -1      1140    8    0    1
 -2       507       506       647      2315      2738      2739
 -1      1141    8    0    1
 -2       506       646       647      2736      2740      2738
 -1      1142    8    0    1
 -2       508       507       648      2318      2741      2742
 -1      1143    8    0    1
 -2       507       647       648      2739      2743      2741
 -1      1144    8    0    1
 -2       509       508       649      2321      2744      2745
 -1      1145    8    0    1
 -2       508       648       649      2742      2746      2744
 -1      1146    8    0    1
 -2       510       509       650      2324      2747      2748
 -1      1147    8    0    1
 -2       509       649       650      2745      2749      2747
 -1      1148    8    0    1
 -2       511       510       651      2327      2750      2751
 -1      1149    8    0    1
 -2       510       650       651      2748      2752      2750
 -1      1150    8    0    1
 -2       512       511       652      2330      2753      2754
 -1      1151    8    0    1
 -2       511       651       652      2751      2755      2753
 -1      1152    8    0    1
 -2       513       512       653      2333      2756      2757
 -1      1153    8    0    1
 -2       512       652       653      2754      2758      2756
 -1      1154    8    0    1
 -2       514       513       654      2336      2759      2760
 -1      1155    8    0    1
 -2       513       653       654      2757      2761      2759
 -1      1156    8    0    1
 -2       515       514       655      2339      2762      2763
 -1      1157    8    0    1
 -2       514       654       655      2760      2764      2762
 -1      1158    8    0    1
 -2       516       515       656      2342      2765      2766
 -1      1159    8    0    1
 -2       515       655       656      2763      2767      2765
 -1      1160    8    0    1
 -2       517       516       657      2345      2768      2769
 -1      1161    8    0    1
 -2       516       656       657      2766      2770      2768
 -1      1162    8    0    1
 -2       518       517       658      2348      2771      2772
 -1      1163    8    0    1
 -2       517       657       658      2769      2773      2771
 -1      1164    8    0    1
 -2       519       518       659      2351      2774      2775
 -1      1165    8    0    1
 -2       518       658       659      2772      2776      2774
 -1      1166    8    0    1
 -2       520       519       660      2354      2777      2778
 -1      1167    8    0    1
 -2       519       659       660      2775      2779      2777
 -1      1168    8    0    1
 -2       521       520       661      2357      2780      2781
 -1      1169    8    0    1
 -2       520       660       661      2778      2782      2780
 -1      1170    8    0    1
 -2       522       521       662      2360      2783      2784
 -1      1171    8    0    1
 -2       521       661       662      2781      2785      2783
 -1      1172    8    0    1
 -2       524       523       663      2366      2786      2787
 -1      1173    8    0    1
 -2       525       524       590      2369      2788      2789
 -1      1174    8    0    1
 -2       526       525       607      2372      2790      2791
 -1      1175    8    0    1
 -2       527       526       608      2375      2792      2793
 -1      1176    8    0    1
 -2       528       527       620      2378      2794      2795
 -1      1177    8    0    1
 -2       529       528       620      2381      2795      2796
 -1      1178    8    0    1
 -2       530       529       664      2384      2797      2798
 -1      1179    8    0    1
 -2       601       603       665      2634      2799      2800
 -1      1180    8    0    1
 -2       603       596       666      2629      2801      2802
 -1      1181    8    0    1
 -2       532       533       667      2391      2803      2804
 -1      1182    8    0    1
 -2       535       536       668      2400      2805      2806
 -1      1183    8    0    1
 -2       536       537       669      2403      2807      2808
 -1      1184    8    0    1
 -2       536       669       668      2808      2809      2805
 -1      1185    8    0    1
 -2       537       538       670      2406      2810      2811
 -1      1186    8    0    1
 -2       537       670       669      2811      2812      2807
 -1      1187    8    0    1
 -2       538       539       671      2409      2813      2814
 -1      1188    8    0    1
 -2       538       671       670      2814      2815      2810
 -1      1189    8    0    1
 -2       539       540       672      2412      2816      2817
 -1      1190    8    0    1
 -2       539       672       671      2817      2818      2813
 -1      1191    8    0    1
 -2       540       541       673      2415      2819      2820
 -1      1192    8    0    1
 -2       540       673       672      2820      2821      2816
 -1      1193    8    0    1
 -2       541       542       674      2418      2822      2823
 -1      1194    8    0    1
 -2       541       674       673      2823      2824      2819
 -1      1195    8    0    1
 -2       542       543       675      2421      2825      2826
 -1      1196    8    0    1
 -2       542       675       674      2826      2827      2822
 -1      1197    8    0    1
 -2       543       544       676      2424      2828      2829
 -1      1198    8    0    1
 -2       543       676       675      2829      2830      2825
 -1      1199    8    0    1
 -2       544       545       677      2427      2831      2832
 -1      1200    8    0    1
 -2       544       677       676      2832      2833      2828
 -1      1201    8    0    1
 -2       545       546       678      2430      2834      2835
 -1      1202    8    0    1
 -2       545       678       677      2835      2836      2831
 -1      1203    8    0    1
 -2       546       547       679      2433      2837      2838
 -1      1204    8    0    1
 -2       546       679       678      2838      2839      2834
 -1      1205    8    0    1
 -2       547       548       680      2436      2840      2841
 -1      1206    8    0    1
 -2       547       680       679      2841      2842      2837
 -1      1207    8    0    1
 -2       548       549       681      2439      2843      2844
 -1      1208    8    0    1
 -2       548       681       680      2844      2845      2840
 -1      1209    8    0    1
 -2       549       550       682      2442      2846      2847
 -1      1210    8    0    1
 -2       549       682       681      2847      2848      2843
 -1      1211    8    0    1
 -2       550       551       683      2445      2849      2850
 -1      1212    8    0    1
 -2       550       683       682      2850      2851      2846
 -1      1213    8    0    1
 -2       551       552       684      2448      2852      2853
 -1      1214    8    0    1
 -2       551       684       683      2853      2854      2849
 -1      1215    8    0    1
 -2       552       553       685      2451      2855      2856
 -1      1216    8    0    1
 -2       552       685       684      2856      2857      2852
 -1      1217    8    0    1
 -2       553       554       686      2454      2858      2859
 -1      1218    8    0    1
 -2       553       686       685      2859      2860      2855
 -1      1219    8    0    1
 -2       554       555       687      2457      2861      2862
 -1      1220    8    0    1
 -2       554       687       686      2862      2863      2858
 -1      1221    8    0    1
 -2       555       556       688      2460      2864      2865
 -1      1222    8    0    1
 -2       555       688       687      2865      2866      2861
 -1      1223    8    0    1
 -2       556       557       689      2463      2867      2868
 -1      1224    8    0    1
 -2       556       689       688      2868      2869      2864
 -1      1225    8    0    1
 -2       557       558       690      2466      2870      2871
 -1      1226    8    0    1
 -2       557       690       689      2871      2872      2867
 -1      1227    8    0    1
 -2       558       559       691      2469      2873      2874
 -1      1228    8    0    1
 -2       558       691       690      2874      2875      2870
 -1      1229    8    0    1
 -2       559       560       692      2472      2876      2877
 -1      1230    8    0    1
 -2       559       692       691      2877      2878      2873
 -1      1231    8    0    1
 -2       560       561       693      2475      2879      2880
 -1      1232    8    0    1
 -2       560       693       692      2880      2881      2876
 -1      1233    8    0    1
 -2       561       562       694      2478      2882      2883
 -1      1234    8    0    1
 -2       561       694       693      2883      2884      2879
 -1      1235    8    0    1
 -2       562       563       695      2481      2885      2886
 -1      1236    8    0    1
 -2       562       695       694      2886      2887      2882
 -1      1237    8    0    1
 -2       563       564       696      2484      2888      2889
 -1      1238    8    0    1
 -2       563       696       695      2889      2890      2885
 -1      1239    8    0    1
 -2       564       565       697      2487      2891      2892
 -1      1240    8    0    1
 -2       564       697       696      2892      2893      2888
 -1      1241    8    0    1
 -2       565       566       698      2490      2894      2895
 -1      1242    8    0    1
 -2       565       698       697      2895      2896      2891
 -1      1243    8    0    1
 -2       566       567       699      2493      2897      2898
 -1      1244    8    0    1
 -2       566       699       698      2898      2899      2894
 -1      1245    8    0    1
 -2       567       568       700      2496      2900      2901
 -1      1246    8    0    1
 -2       567       700       699      2901      2902      2897
 -1      1247    8    0    1
 -2       568       569       701      2499      2903      2904
 -1      1248    8    0    1
 -2       568       701       700      2904      2905      2900
 -1      1249    8    0    1
 -2       569       570       702      2502      2906      2907
 -1      1250    8    0    1
 -2       569       702       701      2907      2908      2903
 -1      1251    8    0    1
 -2       570       571       703      2505      2909      2910
 -1      1252    8    0    1
 -2       570       703       702      2910      2911      2906
 -1      1253    8    0    1
 -2       571       572       704      2508      2912      2913
 -1      1254    8    0    1
 -2       571       704       703      2913      2914      2909
 -1      1255    8    0    1
 -2       572       573       705      2511      2915      2916
 -1      1256    8    0    1
 -2       704       572       705      2912      2916      2917
 -1      1257    8    0    1
 -2       573       576       705      2662      2918      2915
 -1      1258    8    0    1
 -2       578       579       706      2529      2919      2920
 -1      1259    8    0    1
 -2       616       530       707      2663      2921      2922
 -1      1260    8    0    1
 -2       530       664       707      2798      2923      2921
 -1      1261    8    0    1
 -2       574       575       708      2517      2924      2925
 -1      1262    8    0    1
 -2       579       580       709      2532      2926      2927
 -1      1263    8    0    1
 -2       575       578       710      2526      2928      2929
 -1      1264    8    0    1
 -2       575       710       708      2929      2930      2924
 -1      1265    8    0    1
 -2       580       581       711      2535      2931      2932
 -1      1266    8    0    1
 -2       581       582       712      2538      2933      2934
 -1      1267    8    0    1
 -2       582       583       713      2541      2935      2936
 -1      1268    8    0    1
 -2       586       532       714      2550      2937      2938
 -1      1269    8    0    1
 -2       626       586       714      2676      2938      2939
 -1      1270    8    0    1
 -2       532       667       714      2804      2940      2937
 -1      1271    8    0    1
 -2       610       611       715      2606      2941      2942
 -1      1272    8    0    1
 -2       531       587       706      2626      2943      2944
 -1      1273    8    0    1
 -2       588       589       716      2557      2945      2946
 -1      1274    8    0    1
 -2       613       475       483      2612      2947      2636
 -1      1275    8    0    1
 -2       602       610       717      2603      2948      2949
 -1      1276    8    0    1
 -2       610       715       717      2942      2950      2948
 -1      1277    8    0    1
 -2       608       526       607      2792      2791      2649
 -1      1278    8    0    1
 -2       534       535       718      2397      2951      2952
 -1      1279    8    0    1
 -2       535       668       718      2806      2953      2951
 -1      1280    8    0    1
 -2       533       534       719      2394      2954      2955
 -1      1281    8    0    1
 -2       534       718       719      2952      2956      2954
 -1      1282    8    0    1
 -2       591       598       720      2657      2957      2958
 -1      1283    8    0    1
 -2       593       595       721      2660      2959      2960
 -1      1284    8    0    1
 -2       480       481       722      2238      2961      2962
 -1      1285    8    0    1
 -2       621       480       722      2664      2962      2963
 -1      1286    8    0    1
 -2       481       623       722      2670      2964      2961
 -1      1287    8    0    1
 -2       596       604       723      2654      2965      2966
 -1      1288    8    0    1
 -2       584       616       707      2632      2922      2967
 -1      1289    8    0    1
 -2       477       476       724      2227      2968      2969
 -1      1290    8    0    1
 -2       594       591       725      2656      2970      2971
 -1      1291    8    0    1
 -2       474       601       726      2658      2972      2973
 -1      1292    8    0    1
 -2       597       594       727      2653      2974      2975
 -1      1293    8    0    1
 -2       598       599       728      2652      2976      2977
 -1      1294    8    0    1
 -2       486       447       627      2659      2978      2679
 -1      1295    8    0    1
 -2       585       487       729      2635      2979      2980
 -1      1296    8    0    1
 -2       595       597       730      2655      2981      2982
 -1      1297    8    0    1
 -2       487       612       731      2621      2983      2984
 -1      1298    8    0    1
 -2       599       600       732      2651      2985      2986
 -1      1299    8    0    1
 -2       587       585       733      2625      2987      2988
 -1      1300    8    0    1
 -2       612       593       734      2613      2989      2990
 -1      1301    8    0    1
 -2       614       477       735      2614      2991      2992
 -1      1302    8    0    1
 -2       477       724       735      2969      2993      2991
 -1      1303    8    0    1
 -2       478       622       736      2667      2994      2995
 -1      1304    8    0    1
 -2       478       736       592      2995      2996      2565
 -1      1305    8    0    1
 -2       589       617       716      2639      2997      2945
 -1      1306    8    0    1
 -2       734       593       721      2989      2960      2998
 -1      1307    8    0    1
 -2       733       585       729      2987      2980      2999
 -1      1308    8    0    1
 -2       615       531       706      2624      2944      3000
 -1      1309    8    0    1
 -2       596       723       666      2966      3001      2801
 -1      1310    8    0    1
 -2       732       600       737      2985      3002      3003
 -1      1311    8    0    1
 -2       600       619       737      2644      3004      3002
 -1      1312    8    0    1
 -2       731       612       734      2983      2990      3005
 -1      1313    8    0    1
 -2       523       522       738      2363      3006      3007
 -1      1314    8    0    1
 -2       525       590       606      2789      2650      3008
 -1      1315    8    0    1
 -2       527       608       609      2793      2600      3009
 -1      1316    8    0    1
 -2       574       708       739      2925      3010      3011
 -1      1317    8    0    1
 -2       574       739       577      3011      3012      2523
 -1      1318    8    0    1
 -2       529       620       664      2796      3013      2797
 -1      1319    8    0    1
 -2       601       665       740      2800      3014      3015
 -1      1320    8    0    1
 -2       601       740       726      3015      3016      2972
 -1      1321    8    0    1
 -2       730       597       727      2981      2975      3017
 -1      1322    8    0    1
 -2       603       666       665      2802      3018      2799
 -1      1323    8    0    1
 -2       533       719       667      2955      3019      2803
 -1      1324    8    0    1
 -2       706       579       709      2919      2927      3020
 -1      1325    8    0    1
 -2       728       599       732      2976      2986      3021
 -1      1326    8    0    1
 -2       580       711       709      2932      3022      2926
 -1      1327    8    0    1
 -2       576       577       741      2522      3023      3024
 -1      1328    8    0    1
 -2       705       576       741      2918      3024      3025
 -1      1329    8    0    1
 -2       577       739       741      3012      3026      3023
 -1      1330    8    0    1
 -2       604       605       742      2620      3027      3028
 -1      1331    8    0    1
 -2       727       594       725      2974      2971      3029
 -1      1332    8    0    1
 -2       723       604       742      2965      3028      3030
 -1      1333    8    0    1
 -2       582       713       712      2936      3031      2933
 -1      1334    8    0    1
 -2       583       584       743      2544      3032      3033
 -1      1335    8    0    1
 -2       713       583       743      2935      3033      3034
 -1      1336    8    0    1
 -2       584       707       743      2967      3035      3032
 -1      1337    8    0    1
 -2       706       587       733      2943      2988      3036
 -1      1338    8    0    1
 -2       617       473       615      2637      2623      3037
 -1      1339    8    0    1
 -2       588       716       618      2946      3038      2640
 -1      1340    8    0    1
 -2       619       474       726      2645      2973      3039
 -1      1341    8    0    1
 -2       620       602       717      2648      2949      3040
 -1      1342    8    0    1
 -2       483       475       625      2947      2675      3041
 -1      1343    8    0    1
 -2       721       595       730      2959      2982      3042
 -1      1344    8    0    1
 -2       607       525       606      2790      3008      2661
 -1      1345    8    0    1
 -2       611       618       715      2642      3043      2941
 -1      1346    8    0    1
 -2       590       524       663      2788      2787      3044
 -1      1347    8    0    1
 -2       476       592       744      2564      3045      3046
 -1      1348    8    0    1
 -2       724       476       744      2968      3046      3047
 -1      1349    8    0    1
 -2       592       736       744      2996      3048      3045
 -1      1350    8    0    1
 -2       720       598       728      2957      2977      3049
 -1      1351    8    0    1
 -2       483       625       624      3041      3050      2671
 -1      1352    8    0    1
 -2       725       591       720      2970      2958      3051
 -1      1353    8    0    1
 -2       590       663       605      3044      3052      2619
 -1      1354    8    0    1
 -2       627       447       614      2978      2616      3053
 -1      1355    8    0    1
 -2       729       487       731      2979      2984      3054
 -1      1356    8    0    1
 -2       605       663       742      3052      3055      3027
 -1      1357    8    0    1
 -2       738       522       662      3006      2784      3056
 -1      1358    8    0    1
 -2       721       730       745      3042      3057      3058
 -1      1359    8    0    1
 -2       623       624       746      2673      3059      3060
 -1      1360    8    0    1
 -2       615       706       709      3000      3020      3061
 -1      1361    8    0    1
 -2       629       628       747      2686      3062      3063
 -1      1362    8    0    1
 -2       630       629       748      2689      3064      3065
 -1      1363    8    0    1
 -2       629       747       748      3063      3066      3064
 -1      1364    8    0    1
 -2       631       630       749      2692      3067      3068
 -1      1365    8    0    1
 -2       630       748       749      3065      3069      3067
 -1      1366    8    0    1
 -2       632       631       750      2695      3070      3071
 -1      1367    8    0    1
 -2       631       749       750      3068      3072      3070
 -1      1368    8    0    1
 -2       633       632       751      2698      3073      3074
 -1      1369    8    0    1
 -2       632       750       751      3071      3075      3073
 -1      1370    8    0    1
 -2       634       633       752      2701      3076      3077
 -1      1371    8    0    1
 -2       633       751       752      3074      3078      3076
 -1      1372    8    0    1
 -2       635       634       753      2704      3079      3080
 -1      1373    8    0    1
 -2       634       752       753      3077      3081      3079
 -1      1374    8    0    1
 -2       636       635       754      2707      3082      3083
 -1      1375    8    0    1
 -2       635       753       754      3080      3084      3082
 -1      1376    8    0    1
 -2       637       636       755      2710      3085      3086
 -1      1377    8    0    1
 -2       636       754       755      3083      3087      3085
 -1      1378    8    0    1
 -2       638       637       756      2713      3088      3089
 -1      1379    8    0    1
 -2       637       755       756      3086      3090      3088
 -1      1380    8    0    1
 -2       639       638       757      2716      3091      3092
 -1      1381    8    0    1
 -2       638       756       757      3089      3093      3091
 -1      1382    8    0    1
 -2       640       639       758      2719      3094      3095
 -1      1383    8    0    1
 -2       639       757       758      3092      3096      3094
 -1      1384    8    0    1
 -2       641       640       759      2722      3097      3098
 -1      1385    8    0    1
 -2       640       758       759      3095      3099      3097
 -1      1386    8    0    1
 -2       642       641       760      2725      3100      3101
 -1      1387    8    0    1
 -2       641       759       760      3098      3102      3100
 -1      1388    8    0    1
 -2       643       642       761      2728      3103      3104
 -1      1389    8    0    1
 -2       642       760       761      3101      3105      3103
 -1      1390    8    0    1
 -2       644       643       762      2731      3106      3107
 -1      1391    8    0    1
 -2       643       761       762      3104      3108      3106
 -1      1392    8    0    1
 -2       645       644       763      2734      3109      3110
 -1      1393    8    0    1
 -2       644       762       763      3107      3111      3109
 -1      1394    8    0    1
 -2       646       645       764      2737      3112      3113
 -1      1395    8    0    1
 -2       645       763       764      3110      3114      3112
 -1      1396    8    0    1
 -2       647       646       765      2740      3115      3116
 -1      1397    8    0    1
 -2       646       764       765      3113      3117      3115
 -1      1398    8    0    1
 -2       648       647       766      2743      3118      3119
 -1      1399    8    0    1
 -2       647       765       766      3116      3120      3118
 -1      1400    8    0    1
 -2       649       648       767      2746      3121      3122
 -1      1401    8    0    1
 -2       648       766       767      3119      3123      3121
 -1      1402    8    0    1
 -2       650       649       768      2749      3124      3125
 -1      1403    8    0    1
 -2       649       767       768      3122      3126      3124
 -1      1404    8    0    1
 -2       651       650       769      2752      3127      3128
 -1      1405    8    0    1
 -2       650       768       769      3125      3129      3127
 -1      1406    8    0    1
 -2       652       651       770      2755      3130      3131
 -1      1407    8    0    1
 -2       651       769       770      3128      3132      3130
 -1      1408    8    0    1
 -2       653       652       771      2758      3133      3134
 -1      1409    8    0    1
 -2       652       770       771      3131      3135      3133
 -1      1410    8    0    1
 -2       654       653       772      2761      3136      3137
 -1      1411    8    0    1
 -2       653       771       772      3134      3138      3136
 -1      1412    8    0    1
 -2       655       654       773      2764      3139      3140
 -1      1413    8    0    1
 -2       654       772       773      3137      3141      3139
 -1      1414    8    0    1
 -2       656       655       774      2767      3142      3143
 -1      1415    8    0    1
 -2       655       773       774      3140      3144      3142
 -1      1416    8    0    1
 -2       657       656       775      2770      3145      3146
 -1      1417    8    0    1
 -2       656       774       775      3143      3147      3145
 -1      1418    8    0    1
 -2       658       657       776      2773      3148      3149
 -1      1419    8    0    1
 -2       657       775       776      3146      3150      3148
 -1      1420    8    0    1
 -2       659       658       777      2776      3151      3152
 -1      1421    8    0    1
 -2       658       776       777      3149      3153      3151
 -1      1422    8    0    1
 -2       660       659       778      2779      3154      3155
 -1      1423    8    0    1
 -2       659       777       778      3152      3156      3154
 -1      1424    8    0    1
 -2       661       660       779      2782      3157      3158
 -1      1425    8    0    1
 -2       660       778       779      3155      3159      3157
 -1      1426    8    0    1
 -2       662       661       780      2785      3160      3161
 -1      1427    8    0    1
 -2       661       779       780      3158      3162      3160
 -1      1428    8    0    1
 -2       663       523       738      2786      3007      3163
 -1      1429    8    0    1
 -2       718       668       781      2953      3164      3165
 -1      1430    8    0    1
 -2       668       669       782      2809      3166      3167
 -1      1431    8    0    1
 -2       668       782       781      3167      3168      3164
 -1      1432    8    0    1
 -2       671       672       783      2818      3169      3170
 -1      1433    8    0    1
 -2       672       673       784      2821      3171      3172
 -1      1434    8    0    1
 -2       672       784       783      3172      3173      3169
 -1      1435    8    0    1
 -2       673       674       785      2824      3174      3175
 -1      1436    8    0    1
 -2       673       785       784      3175      3176      3171
 -1      1437    8    0    1
 -2       674       675       786      2827      3177      3178
 -1      1438    8    0    1
 -2       674       786       785      3178      3179      3174
 -1      1439    8    0    1
 -2       675       676       787      2830      3180      3181
 -1      1440    8    0    1
 -2       675       787       786      3181      3182      3177
 -1      1441    8    0    1
 -2       676       677       788      2833      3183      3184
 -1      1442    8    0    1
 -2       676       788       787      3184      3185      3180
 -1      1443    8    0    1
 -2       677       678       789      2836      3186      3187
 -1      1444    8    0    1
 -2       677       789       788      3187      3188      3183
 -1      1445    8    0    1
 -2       678       679       790      2839      3189      3190
 -1      1446    8    0    1
 -2       678       790       789      3190      3191      3186
 -1      1447    8    0    1
 -2       679       680       791      2842      3192      3193
 -1      1448    8    0    1
 -2       679       791       790      3193      3194      3189
 -1      1449    8    0    1
 -2       680       681       792      2845      3195      3196
 -1      1450    8    0    1
 -2       680       792       791      3196      3197      3192
 -1      1451    8    0    1
 -2       681       682       793      2848      3198      3199
 -1      1452    8    0    1
 -2       681       793       792      3199      3200      3195
 -1      1453    8    0    1
 -2       682       683       794      2851      3201      3202
 -1      1454    8    0    1
 -2       682       794       793      3202      3203      3198
 -1      1455    8    0    1
 -2       683       684       795      2854      3204      3205
 -1      1456    8    0    1
 -2       683       795       794      3205      3206      3201
 -1      1457    8    0    1
 -2       684       685       796      2857      3207      3208
 -1      1458    8    0    1
 -2       684       796       795      3208      3209      3204
 -1      1459    8    0    1
 -2       685       686       797      2860      3210      3211
 -1      1460    8    0    1
 -2       685       797       796      3211      3212      3207
 -1      1461    8    0    1
 -2       686       687       798      2863      3213      3214
 -1      1462    8    0    1
 -2       686       798       797      3214      3215      3210
 -1      1463    8    0    1
 -2       687       688       799      2866      3216      3217
 -1      1464    8    0    1
 -2       687       799       798      3217      3218      3213
 -1      1465    8    0    1
 -2       688       689       800      2869      3219      3220
 -1      1466    8    0    1
 -2       688       800       799      3220      3221      3216
 -1      1467    8    0    1
 -2       689       690       801      2872      3222      3223
 -1      1468    8    0    1
 -2       689       801       800      3223      3224      3219
 -1      1469    8    0    1
 -2       690       691       802      2875      3225      3226
 -1      1470    8    0    1
 -2       690       802       801      3226      3227      3222
 -1      1471    8    0    1
 -2       691       692       803      2878      3228      3229
 -1      1472    8    0    1
 -2       691       803       802      3229      3230      3225
 -1      1473    8    0    1
 -2       692       693       804      2881      3231      3232
 -1      1474    8    0    1
 -2       692       804       803      3232      3233      3228
 -1      1475    8    0    1
 -2       693       694       805      2884      3234      3235
 -1      1476    8    0    1
 -2       693       805       804      3235      3236      3231
 -1      1477    8    0    1
 -2       694       695       806      2887      3237      3238
 -1      1478    8    0    1
 -2       694       806       805      3238      3239      3234
 -1      1479    8    0    1
 -2       695       696       807      2890      3240      3241
 -1      1480    8    0    1
 -2       695       807       806      3241      3242      3237
 -1      1481    8    0    1
 -2       696       697       808      2893      3243      3244
 -1      1482    8    0    1
 -2       696       808       807      3244      3245      3240
 -1      1483    8    0    1
 -2       697       698       809      2896      3246      3247
 -1      1484    8    0    1
 -2       697       809       808      3247      3248      3243
 -1      1485    8    0    1
 -2       698       699       810      2899      3249      3250
 -1      1486    8    0    1
 -2       698       810       809      3250      3251      3246
 -1      1487    8    0    1
 -2       700       701       811      2905      3252      3253
 -1      1488    8    0    1
 -2       701       702       812      2908      3254      3255
 -1      1489    8    0    1
 -2       701       812       811      3255      3256      3252
 -1      1490    8    0    1
 -2       702       703       813      2911      3257      3258
 -1      1491    8    0    1
 -2       702       813       812      3258      3259      3254
 -1      1492    8    0    1
 -2       703       704       814      2914      3260      3261
 -1      1493    8    0    1
 -2       703       814       813      3261      3262      3257
 -1      1494    8    0    1
 -2       704       705       815      2917      3263      3264
 -1      1495    8    0    1
 -2       814       704       815      3260      3264      3265
 -1      1496    8    0    1
 -2       705       741       815      3025      3266      3263
 -1      1497    8    0    1
 -2       707       664       743      2923      3267      3035
 -1      1498    8    0    1
 -2       622       621       816      2668      3268      3269
 -1      1499    8    0    1
 -2       720       728       817      3049      3270      3271
 -1      1500    8    0    1
 -2       728       732       818      3021      3272      3273
 -1      1501    8    0    1
 -2       711       581       712      2931      2934      3274
 -1      1502    8    0    1
 -2       727       725       819      3029      3275      3276
 -1      1503    8    0    1
 -2       734       721       820      2998      3277      3278
 -1      1504    8    0    1
 -2       666       723       780      3001      3279      3280
 -1      1505    8    0    1
 -2       619       726       821      3039      3281      3282
 -1      1506    8    0    1
 -2       619       821       737      3282      3283      3004
 -1      1507    8    0    1
 -2       717       715       822      2950      3284      3285
 -1      1508    8    0    1
 -2       710       578       706      2928      2920      3286
 -1      1509    8    0    1
 -2       730       727       823      3017      3287      3288
 -1      1510    8    0    1
 -2       670       671       824      2815      3289      3290
 -1      1511    8    0    1
 -2       671       783       824      3170      3291      3289
 -1      1512    8    0    1
 -2       669       670       825      2812      3292      3293
 -1      1513    8    0    1
 -2       670       824       825      3290      3294      3292
 -1      1514    8    0    1
 -2       667       719       826      3019      3295      3296
 -1      1515    8    0    1
 -2       664       620       717      3013      3040      3297
 -1      1516    8    0    1
 -2       719       718       827      2956      3298      3299
 -1      1517    8    0    1
 -2       718       781       827      3165      3300      3298
 -1      1518    8    0    1
 -2       665       666       828      3018      3301      3302
 -1      1519    8    0    1
 -2       666       780       828      3280      3303      3301
 -1      1520    8    0    1
 -2       624       625       829      3050      3304      3305
 -1      1521    8    0    1
 -2       746       624       829      3059      3305      3306
 -1      1522    8    0    1
 -2       625       626       829      2678      3307      3304
 -1      1523    8    0    1
 -2       617       615       709      3037      3061      3308
 -1      1524    8    0    1
 -2       725       720       830      3051      3309      3310
 -1      1525    8    0    1
 -2       725       830       819      3310      3311      3275
 -1      1526    8    0    1
 -2       731       734       831      3005      3312      3313
 -1      1527    8    0    1
 -2       729       731       832      3054      3314      3315
 -1      1528    8    0    1
 -2       627       614       735      3053      2992      3316
 -1      1529    8    0    1
 -2       736       622       833      2994      3317      3318
 -1      1530    8    0    1
 -2       622       816       833      3269      3319      3317
 -1      1531    8    0    1
 -2       623       746       834      3060      3320      3321
 -1      1532    8    0    1
 -2       623       834       722      3321      3322      2964
 -1      1533    8    0    1
 -2       724       744       835      3047      3323      3324
 -1      1534    8    0    1
 -2       617       709       711      3308      3022      3325
 -1      1535    8    0    1
 -2       735       724       836      2993      3326      3327
 -1      1536    8    0    1
 -2       724       835       836      3324      3328      3326
 -1      1537    8    0    1
 -2       721       745       820      3058      3329      3277
 -1      1538    8    0    1
 -2       662       780       723      3161      3279      3330
 -1      1539    8    0    1
 -2       745       730       823      3057      3288      3331
 -1      1540    8    0    1
 -2       782       669       825      3166      3293      3332
 -1      1541    8    0    1
 -2       739       708       832      3010      3333      3334
 -1      1542    8    0    1
 -2       740       665       837      3014      3335      3336
 -1      1543    8    0    1
 -2       665       828       837      3302      3337      3335
 -1      1544    8    0    1
 -2       726       740       838      3016      3338      3339
 -1      1545    8    0    1
 -2       726       838       821      3339      3340      3281
 -1      1546    8    0    1
 -2       699       700       839      2902      3341      3342
 -1      1547    8    0    1
 -2       817       728       818      3270      3273      3343
 -1      1548    8    0    1
 -2       818       732       840      3272      3344      3345
 -1      1549    8    0    1
 -2       732       737       840      3003      3346      3344
 -1      1550    8    0    1
 -2       738       662       723      3056      3330      3347
 -1      1551    8    0    1
 -2       816       621       841      3268      3348      3349
 -1      1552    8    0    1
 -2       621       722       841      2963      3350      3348
 -1      1553    8    0    1
 -2       720       817       830      3271      3351      3309
 -1      1554    8    0    1
 -2       731       831       832      3313      3352      3314
 -1      1555    8    0    1
 -2       734       820       831      3278      3353      3312
 -1      1556    8    0    1
 -2       727       819       823      3276      3354      3287
 -1      1557    8    0    1
 -2       626       714       842      2939      3355      3356
 -1      1558    8    0    1
 -2       626       842       829      3356      3357      3307
 -1      1559    8    0    1
 -2       714       667       843      2940      3358      3359
 -1      1560    8    0    1
 -2       842       714       843      3355      3359      3360
 -1      1561    8    0    1
 -2       667       826       843      3296      3361      3358
 -1      1562    8    0    1
 -2       713       743       822      3034      3362      3363
 -1      1563    8    0    1
 -2       822       715       713      3284      3364      3363
 -1      1564    8    0    1
 -2       826       719       827      3295      3299      3365
 -1      1565    8    0    1
 -2       617       711       716      3325      3366      2997
 -1      1566    8    0    1
 -2       839       700       811      3341      3253      3367
 -1      1567    8    0    1
 -2       713       715       618      3364      3043      3368
 -1      1568    8    0    1
 -2       664       717       822      3297      3285      3369
 -1      1569    8    0    1
 -2       699       839       810      3342      3370      3249
 -1      1570    8    0    1
 -2       628       627       735      2683      3316      3371
 -1      1571    8    0    1
 -2       713       618       712      3368      3372      3031
 -1      1572    8    0    1
 -2       628       735       747      3371      3373      3062
 -1      1573    8    0    1
 -2       664       822       743      3369      3362      3267
 -1      1574    8    0    1
 -2       618       716       712      3038      3374      3372
 -1      1575    8    0    1
 -2       835       744       844      3323      3375      3376
 -1      1576    8    0    1
 -2       744       736       844      3048      3377      3375
 -1      1577    8    0    1
 -2       819       830       845      3311      3378      3379
 -1      1578    8    0    1
 -2       810       839       823      3370      3380      3381
 -1      1579    8    0    1
 -2       749       748       846      3069      3382      3383
 -1      1580    8    0    1
 -2       750       749       847      3072      3384      3385
 -1      1581    8    0    1
 -2       749       846       847      3383      3386      3384
 -1      1582    8    0    1
 -2       751       750       848      3075      3387      3388
 -1      1583    8    0    1
 -2       750       847       848      3385      3389      3387
 -1      1584    8    0    1
 -2       752       751       849      3078      3390      3391
 -1      1585    8    0    1
 -2       751       848       849      3388      3392      3390
 -1      1586    8    0    1
 -2       753       752       850      3081      3393      3394
 -1      1587    8    0    1
 -2       752       849       850      3391      3395      3393
 -1      1588    8    0    1
 -2       754       753       851      3084      3396      3397
 -1      1589    8    0    1
 -2       753       850       851      3394      3398      3396
 -1      1590    8    0    1
 -2       755       754       852      3087      3399      3400
 -1      1591    8    0    1
 -2       754       851       852      3397      3401      3399
 -1      1592    8    0    1
 -2       756       755       853      3090      3402      3403
 -1      1593    8    0    1
 -2       755       852       853      3400      3404      3402
 -1      1594    8    0    1
 -2       757       756       854      3093      3405      3406
 -1      1595    8    0    1
 -2       756       853       854      3403      3407      3405
 -1      1596    8    0    1
 -2       758       757       855      3096      3408      3409
 -1      1597    8    0    1
 -2       757       854       855      3406      3410      3408
 -1      1598    8    0    1
 -2       759       758       856      3099      3411      3412
 -1      1599    8    0    1
 -2       758       855       856      3409      3413      3411
 -1      1600    8    0    1
 -2       760       759       857      3102      3414      3415
 -1      1601    8    0    1
 -2       759       856       857      3412      3416      3414
 -1      1602    8    0    1
 -2       761       760       858      3105      3417      3418
 -1      1603    8    0    1
 -2       760       857       858      3415      3419      3417
 -1      1604    8    0    1
 -2       762       761       859      3108      3420      3421
 -1      1605    8    0    1
 -2       761       858       859      3418      3422      3420
 -1      1606    8    0    1
 -2       763       762       860      3111      3423      3424
 -1      1607    8    0    1
 -2       762       859       860      3421      3425      3423
 -1      1608    8    0    1
 -2       764       763       861      3114      3426      3427
 -1      1609    8    0    1
 -2       763       860       861      3424      3428      3426
 -1      1610    8    0    1
 -2       765       764       862      3117      3429      3430
 -1      1611    8    0    1
 -2       764       861       862      3427      3431      3429
 -1      1612    8    0    1
 -2       766       765       863      3120      3432      3433
 -1      1613    8    0    1
 -2       765       862       863      3430      3434      3432
 -1      1614    8    0    1
 -2       767       766       864      3123      3435      3436
 -1      1615    8    0    1
 -2       766       863       864      3433      3437      3435
 -1      1616    8    0    1
 -2       768       767       865      3126      3438      3439
 -1      1617    8    0    1
 -2       767       864       865      3436      3440      3438
 -1      1618    8    0    1
 -2       769       768       866      3129      3441      3442
 -1      1619    8    0    1
 -2       768       865       866      3439      3443      3441
 -1      1620    8    0    1
 -2       770       769       867      3132      3444      3445
 -1      1621    8    0    1
 -2       769       866       867      3442      3446      3444
 -1      1622    8    0    1
 -2       771       770       868      3135      3447      3448
 -1      1623    8    0    1
 -2       770       867       868      3445      3449      3447
 -1      1624    8    0    1
 -2       772       771       869      3138      3450      3451
 -1      1625    8    0    1
 -2       771       868       869      3448      3452      3450
 -1      1626    8    0    1
 -2       773       772       870      3141      3453      3454
 -1      1627    8    0    1
 -2       772       869       870      3451      3455      3453
 -1      1628    8    0    1
 -2       774       773       871      3144      3456      3457
 -1      1629    8    0    1
 -2       773       870       871      3454      3458      3456
 -1      1630    8    0    1
 -2       775       774       872      3147      3459      3460
 -1      1631    8    0    1
 -2       774       871       872      3457      3461      3459
 -1      1632    8    0    1
 -2       776       775       873      3150      3462      3463
 -1      1633    8    0    1
 -2       775       872       873      3460      3464      3462
 -1      1634    8    0    1
 -2       777       776       874      3153      3465      3466
 -1      1635    8    0    1
 -2       776       873       874      3463      3467      3465
 -1      1636    8    0    1
 -2       778       777       875      3156      3468      3469
 -1      1637    8    0    1
 -2       777       874       875      3466      3470      3468
 -1      1638    8    0    1
 -2       780       779       828      3162      3471      3303
 -1      1639    8    0    1
 -2       832       708       729      3333      3472      3315
 -1      1640    8    0    1
 -2       781       782       876      3168      3473      3474
 -1      1641    8    0    1
 -2       820       745       811      3329      3475      3476
 -1      1642    8    0    1
 -2       784       785       877      3176      3477      3478
 -1      1643    8    0    1
 -2       783       784       878      3173      3479      3480
 -1      1644    8    0    1
 -2       784       877       878      3478      3481      3479
 -1      1645    8    0    1
 -2       786       787       879      3182      3482      3483
 -1      1646    8    0    1
 -2       787       788       880      3185      3484      3485
 -1      1647    8    0    1
 -2       787       880       879      3485      3486      3482
 -1      1648    8    0    1
 -2       788       789       881      3188      3487      3488
 -1      1649    8    0    1
 -2       788       881       880      3488      3489      3484
 -1      1650    8    0    1
 -2       789       790       882      3191      3490      3491
 -1      1651    8    0    1
 -2       789       882       881      3491      3492      3487
 -1      1652    8    0    1
 -2       790       791       883      3194      3493      3494
 -1      1653    8    0    1
 -2       790       883       882      3494      3495      3490
 -1      1654    8    0    1
 -2       791       792       884      3197      3496      3497
 -1      1655    8    0    1
 -2       791       884       883      3497      3498      3493
 -1      1656    8    0    1
 -2       792       793       885      3200      3499      3500
 -1      1657    8    0    1
 -2       792       885       884      3500      3501      3496
 -1      1658    8    0    1
 -2       793       794       886      3203      3502      3503
 -1      1659    8    0    1
 -2       793       886       885      3503      3504      3499
 -1      1660    8    0    1
 -2       794       795       887      3206      3505      3506
 -1      1661    8    0    1
 -2       794       887       886      3506      3507      3502
 -1      1662    8    0    1
 -2       795       796       888      3209      3508      3509
 -1      1663    8    0    1
 -2       795       888       887      3509      3510      3505
 -1      1664    8    0    1
 -2       796       797       889      3212      3511      3512
 -1      1665    8    0    1
 -2       796       889       888      3512      3513      3508
 -1      1666    8    0    1
 -2       797       798       890      3215      3514      3515
 -1      1667    8    0    1
 -2       797       890       889      3515      3516      3511
 -1      1668    8    0    1
 -2       798       799       891      3218      3517      3518
 -1      1669    8    0    1
 -2       798       891       890      3518      3519      3514
 -1      1670    8    0    1
 -2       799       800       892      3221      3520      3521
 -1      1671    8    0    1
 -2       799       892       891      3521      3522      3517
 -1      1672    8    0    1
 -2       800       801       893      3224      3523      3524
 -1      1673    8    0    1
 -2       800       893       892      3524      3525      3520
 -1      1674    8    0    1
 -2       801       802       894      3227      3526      3527
 -1      1675    8    0    1
 -2       801       894       893      3527      3528      3523
 -1      1676    8    0    1
 -2       802       803       895      3230      3529      3530
 -1      1677    8    0    1
 -2       802       895       894      3530      3531      3526
 -1      1678    8    0    1
 -2       803       804       896      3233      3532      3533
 -1      1679    8    0    1
 -2       803       896       895      3533      3534      3529
 -1      1680    8    0    1
 -2       804       805       897      3236      3535      3536
 -1      1681    8    0    1
 -2       804       897       896      3536      3537      3532
 -1      1682    8    0    1
 -2       805       806       898      3239      3538      3539
 -1      1683    8    0    1
 -2       805       898       897      3539      3540      3535
 -1      1684    8    0    1
 -2       806       807       899      3242      3541      3542
 -1      1685    8    0    1
 -2       806       899       898      3542      3543      3538
 -1      1686    8    0    1
 -2       807       808       900      3245      3544      3545
 -1      1687    8    0    1
 -2       807       900       899      3545      3546      3541
 -1      1688    8    0    1
 -2       808       809       845      3248      3547      3548
 -1      1689    8    0    1
 -2       812       813       831      3259      3549      3550
 -1      1690    8    0    1
 -2       817       818       901      3343      3551      3552
 -1      1691    8    0    1
 -2       811       812       820      3256      3553      3476
 -1      1692    8    0    1
 -2       741       739       815      3026      3554      3266
 -1      1693    8    0    1
 -2       711       712       716      3274      3374      3366
 -1      1694    8    0    1
 -2       708       710       733      2930      3555      3556
 -1      1695    8    0    1
 -2       746       829       902      3306      3557      3558
 -1      1696    8    0    1
 -2       829       842       902      3357      3559      3557
 -1      1697    8    0    1
 -2       737       821       903      3283      3560      3561
 -1      1698    8    0    1
 -2       737       903       840      3561      3562      3346
 -1      1699    8    0    1
 -2       710       706       733      3286      3036      3555
 -1      1700    8    0    1
 -2       826       827       904      3365      3563      3564
 -1      1701    8    0    1
 -2       825       824       905      3294      3565      3566
 -1      1702    8    0    1
 -2       663       738       742      3163      3567      3055
 -1      1703    8    0    1
 -2       738       723       742      3347      3030      3567
 -1      1704    8    0    1
 -2       620       527       609      2794      3009      2647
 -1      1705    8    0    1
 -2       839       811       745      3367      3475      3568
 -1      1706    8    0    1
 -2       827       781       906      3300      3569      3570
 -1      1707    8    0    1
 -2       781       876       906      3474      3571      3569
 -1      1708    8    0    1
 -2       729       708       733      3472      3556      2999
 -1      1709    8    0    1
 -2       810       823       819      3381      3354      3572
 -1      1710    8    0    1
 -2       828       779       907      3471      3573      3574
 -1      1711    8    0    1
 -2       837       828       907      3337      3574      3575
 -1      1712    8    0    1
 -2       779       778       907      3159      3576      3573
 -1      1713    8    0    1
 -2       812       831       820      3550      3353      3553
 -1      1714    8    0    1
 -2       831       813       832      3549      3577      3352
 -1      1715    8    0    1
 -2       810       819       809      3572      3578      3251
 -1      1716    8    0    1
 -2       830       817       908      3351      3579      3580
 -1      1717    8    0    1
 -2       813       814       832      3262      3581      3577
 -1      1718    8    0    1
 -2       824       783       909      3291      3582      3583
 -1      1719    8    0    1
 -2       824       909       905      3583      3584      3565
 -1      1720    8    0    1
 -2       785       786       910      3179      3585      3586
 -1      1721    8    0    1
 -2       877       785       910      3477      3586      3587
 -1      1722    8    0    1
 -2       786       879       910      3483      3588      3585
 -1      1723    8    0    1
 -2       748       747       911      3066      3589      3590
 -1      1724    8    0    1
 -2       748       911       846      3590      3591      3382
 -1      1725    8    0    1
 -2       809       819       845      3578      3379      3547
 -1      1726    8    0    1
 -2       782       825       912      3332      3592      3593
 -1      1727    8    0    1
 -2       825       905       912      3566      3594      3592
 -1      1728    8    0    1
 -2       834       746       902      3320      3558      3595
 -1      1729    8    0    1
 -2       845       830       908      3378      3580      3596
 -1      1730    8    0    1
 -2       907       778       875      3576      3469      3597
 -1      1731    8    0    1
 -2       911       747       836      3589      3598      3599
 -1      1732    8    0    1
 -2       827       906       904      3570      3600      3563
 -1      1733    8    0    1
 -2       876       782       912      3473      3593      3601
 -1      1734    8    0    1
 -2       739       832       815      3334      3602      3554
 -1      1735    8    0    1
 -2       740       837       913      3336      3603      3604
 -1      1736    8    0    1
 -2       740       913       838      3604      3605      3338
 -1      1737    8    0    1
 -2       783       878       909      3480      3606      3582
 -1      1738    8    0    1
 -2       808       845       900      3548      3607      3544
 -1      1739    8    0    1
 -2       817       901       908      3552      3608      3579
 -1      1740    8    0    1
 -2       841       722       834      3350      3322      3609
 -1      1741    8    0    1
 -2       818       840       914      3345      3610      3611
 -1      1742    8    0    1
 -2       818       914       901      3611      3612      3551
 -1      1743    8    0    1
 -2       823       839       745      3380      3568      3331
 -1      1744    8    0    1
 -2       843       826       915      3361      3613      3614
 -1      1745    8    0    1
 -2       826       904       915      3564      3615      3613
 -1      1746    8    0    1
 -2       903       821       916      3560      3616      3617
 -1      1747    8    0    1
 -2       821       838       916      3340      3618      3616
 -1      1748    8    0    1
 -2       832       814       815      3581      3265      3602
 -1      1749    8    0    1
 -2       816       841       917      3349      3619      3620
 -1      1750    8    0    1
 -2       735       836       747      3327      3598      3373
 -1      1751    8    0    1
 -2       736       833       844      3318      3621      3377
 -1      1752    8    0    1
 -2       835       844       918      3376      3622      3623
 -1      1753    8    0    1
 -2       833       816       919      3319      3624      3625
 -1      1754    8    0    1
 -2       816       917       919      3620      3626      3624
 -1      1755    8    0    1
 -2       836       835       920      3328      3627      3628
 -1      1756    8    0    1
 -2       847       846       921      3386      3629      3630
 -1      1757    8    0    1
 -2       911       836       920      3599      3628      3631
 -1      1758    8    0    1
 -2       848       847       922      3389      3632      3633
 -1      1759    8    0    1
 -2       847       921       922      3630      3634      3632
 -1      1760    8    0    1
 -2       849       848       923      3392      3635      3636
 -1      1761    8    0    1
 -2       848       922       923      3633      3637      3635
 -1      1762    8    0    1
 -2       850       849       924      3395      3638      3639
 -1      1763    8    0    1
 -2       849       923       924      3636      3640      3638
 -1      1764    8    0    1
 -2       851       850       925      3398      3641      3642
 -1      1765    8    0    1
 -2       850       924       925      3639      3643      3641
 -1      1766    8    0    1
 -2       852       851       926      3401      3644      3645
 -1      1767    8    0    1
 -2       851       925       926      3642      3646      3644
 -1      1768    8    0    1
 -2       853       852       927      3404      3647      3648
 -1      1769    8    0    1
 -2       852       926       927      3645      3649      3647
 -1      1770    8    0    1
 -2       854       853       928      3407      3650      3651
 -1      1771    8    0    1
 -2       853       927       928      3648      3652      3650
 -1      1772    8    0    1
 -2       855       854       929      3410      3653      3654
 -1      1773    8    0    1
 -2       854       928       929      3651      3655      3653
 -1      1774    8    0    1
 -2       856       855       930      3413      3656      3657
 -1      1775    8    0    1
 -2       855       929       930      3654      3658      3656
 -1      1776    8    0    1
 -2       857       856       931      3416      3659      3660
 -1      1777    8    0    1
 -2       856       930       931      3657      3661      3659
 -1      1778    8    0    1
 -2       858       857       932      3419      3662      3663
 -1      1779    8    0    1
 -2       857       931       932      3660      3664      3662
 -1      1780    8    0    1
 -2       859       858       933      3422      3665      3666
 -1      1781    8    0    1
 -2       858       932       933      3663      3667      3665
 -1      1782    8    0    1
 -2       860       859       934      3425      3668      3669
 -1      1783    8    0    1
 -2       859       933       934      3666      3670      3668
 -1      1784    8    0    1
 -2       861       860       935      3428      3671      3672
 -1      1785    8    0    1
 -2       860       934       935      3669      3673      3671
 -1      1786    8    0    1
 -2       862       861       936      3431      3674      3675
 -1      1787    8    0    1
 -2       861       935       936      3672      3676      3674
 -1      1788    8    0    1
 -2       863       862       937      3434      3677      3678
 -1      1789    8    0    1
 -2       862       936       937      3675      3679      3677
 -1      1790    8    0    1
 -2       864       863       938      3437      3680      3681
 -1      1791    8    0    1
 -2       863       937       938      3678      3682      3680
 -1      1792    8    0    1
 -2       865       864       939      3440      3683      3684
 -1      1793    8    0    1
 -2       864       938       939      3681      3685      3683
 -1      1794    8    0    1
 -2       866       865       940      3443      3686      3687
 -1      1795    8    0    1
 -2       865       939       940      3684      3688      3686
 -1      1796    8    0    1
 -2       867       866       941      3446      3689      3690
 -1      1797    8    0    1
 -2       866       940       941      3687      3691      3689
 -1      1798    8    0    1
 -2       868       867       942      3449      3692      3693
 -1      1799    8    0    1
 -2       867       941       942      3690      3694      3692
 -1      1800    8    0    1
 -2       869       868       943      3452      3695      3696
 -1      1801    8    0    1
 -2       868       942       943      3693      3697      3695
 -1      1802    8    0    1
 -2       870       869       944      3455      3698      3699
 -1      1803    8    0    1
 -2       869       943       944      3696      3700      3698
 -1      1804    8    0    1
 -2       871       870       945      3458      3701      3702
 -1      1805    8    0    1
 -2       870       944       945      3699      3703      3701
 -1      1806    8    0    1
 -2       872       871       946      3461      3704      3705
 -1      1807    8    0    1
 -2       871       945       946      3702      3706      3704
 -1      1808    8    0    1
 -2       873       872       947      3464      3707      3708
 -1      1809    8    0    1
 -2       872       946       947      3705      3709      3707
 -1      1810    8    0    1
 -2       874       873       948      3467      3710      3711
 -1      1811    8    0    1
 -2       873       947       948      3708      3712      3710
 -1      1812    8    0    1
 -2       875       874       949      3470      3713      3714
 -1      1813    8    0    1
 -2       874       948       949      3711      3715      3713
 -1      1814    8    0    1
 -2       904       906       950      3600      3716      3717
 -1      1815    8    0    1
 -2       909       878       951      3606      3718      3719
 -1      1816    8    0    1
 -2       846       911       952      3591      3720      3721
 -1      1817    8    0    1
 -2       921       846       952      3629      3721      3722
 -1      1818    8    0    1
 -2       911       920       952      3631      3723      3720
 -1      1819    8    0    1
 -2       880       881       953      3489      3724      3725
 -1      1820    8    0    1
 -2       879       880       954      3486      3726      3727
 -1      1821    8    0    1
 -2       880       953       954      3725      3728      3726
 -1      1822    8    0    1
 -2       882       883       955      3495      3729      3730
 -1      1823    8    0    1
 -2       883       884       956      3498      3731      3732
 -1      1824    8    0    1
 -2       883       956       955      3732      3733      3729
 -1      1825    8    0    1
 -2       884       885       957      3501      3734      3735
 -1      1826    8    0    1
 -2       884       957       956      3735      3736      3731
 -1      1827    8    0    1
 -2       885       886       958      3504      3737      3738
 -1      1828    8    0    1
 -2       885       958       957      3738      3739      3734
 -1      1829    8    0    1
 -2       886       887       959      3507      3740      3741
 -1      1830    8    0    1
 -2       886       959       958      3741      3742      3737
 -1      1831    8    0    1
 -2       887       888       960      3510      3743      3744
 -1      1832    8    0    1
 -2       887       960       959      3744      3745      3740
 -1      1833    8    0    1
 -2       888       889       961      3513      3746      3747
 -1      1834    8    0    1
 -2       888       961       960      3747      3748      3743
 -1      1835    8    0    1
 -2       889       890       962      3516      3749      3750
 -1      1836    8    0    1
 -2       889       962       961      3750      3751      3746
 -1      1837    8    0    1
 -2       890       891       963      3519      3752      3753
 -1      1838    8    0    1
 -2       890       963       962      3753      3754      3749
 -1      1839    8    0    1
 -2       891       892       964      3522      3755      3756
 -1      1840    8    0    1
 -2       891       964       963      3756      3757      3752
 -1      1841    8    0    1
 -2       892       893       965      3525      3758      3759
 -1      1842    8    0    1
 -2       892       965       964      3759      3760      3755
 -1      1843    8    0    1
 -2       893       894       966      3528      3761      3762
 -1      1844    8    0    1
 -2       893       966       965      3762      3763      3758
 -1      1845    8    0    1
 -2       894       895       967      3531      3764      3765
 -1      1846    8    0    1
 -2       894       967       966      3765      3766      3761
 -1      1847    8    0    1
 -2       895       896       968      3534      3767      3768
 -1      1848    8    0    1
 -2       895       968       967      3768      3769      3764
 -1      1849    8    0    1
 -2       896       897       969      3537      3770      3771
 -1      1850    8    0    1
 -2       896       969       968      3771      3772      3767
 -1      1851    8    0    1
 -2       897       898       970      3540      3773      3774
 -1      1852    8    0    1
 -2       897       970       969      3774      3775      3770
 -1      1853    8    0    1
 -2       898       899       971      3543      3776      3777
 -1      1854    8    0    1
 -2       898       971       970      3777      3778      3773
 -1      1855    8    0    1
 -2       908       901       972      3608      3779      3780
 -1      1856    8    0    1
 -2       907       875       973      3597      3781      3782
 -1      1857    8    0    1
 -2       837       907       973      3575      3782      3783
 -1      1858    8    0    1
 -2       875       949       973      3714      3784      3781
 -1      1859    8    0    1
 -2       881       882       974      3492      3785      3786
 -1      1860    8    0    1
 -2       882       955       974      3730      3787      3785
 -1      1861    8    0    1
 -2       878       877       975      3481      3788      3789
 -1      1862    8    0    1
 -2       878       975       951      3789      3790      3718
 -1      1863    8    0    1
 -2       905       909       976      3584      3791      3792
 -1      1864    8    0    1
 -2       909       951       976      3719      3793      3791
 -1      1865    8    0    1
 -2       917       841       977      3619      3794      3795
 -1      1866    8    0    1
 -2       841       834       977      3609      3796      3794
 -1      1867    8    0    1
 -2       845       908       900      3596      3797      3607
 -1      1868    8    0    1
 -2       840       903       978      3562      3798      3799
 -1      1869    8    0    1
 -2       840       978       914      3799      3800      3610
 -1      1870    8    0    1
 -2       834       902       977      3595      3801      3796
 -1      1871    8    0    1
 -2       906       876       979      3571      3802      3803
 -1      1872    8    0    1
 -2       906       979       950      3803      3804      3716
 -1      1873    8    0    1
 -2       912       905       980      3594      3805      3806
 -1      1874    8    0    1
 -2       905       976       980      3792      3807      3805
 -1      1875    8    0    1
 -2       900       908       972      3797      3780      3808
 -1      1876    8    0    1
 -2       876       912       981      3601      3809      3810
 -1      1877    8    0    1
 -2       876       981       979      3810      3811      3802
 -1      1878    8    0    1
 -2       842       843       982      3360      3812      3813
 -1      1879    8    0    1
 -2       902       842       982      3559      3813      3814
 -1      1880    8    0    1
 -2       843       915       982      3614      3815      3812
 -1      1881    8    0    1
 -2       844       833       983      3621      3816      3817
 -1      1882    8    0    1
 -2       918       844       983      3622      3817      3818
 -1      1883    8    0    1
 -2       833       919       983      3625      3819      3816
 -1      1884    8    0    1
 -2       835       918       920      3623      3820      3627
 -1      1885    8    0    1
 -2       920       918       952      3820      3821      3723
 -1      1886    8    0    1
 -2       919       917       984      3626      3822      3823
 -1      1887    8    0    1
 -2       881       974       953      3786      3824      3724
 -1      1888    8    0    1
 -2       912       980       981      3806      3825      3809
 -1      1889    8    0    1
 -2       917       977       985      3795      3826      3827
 -1      1890    8    0    1
 -2       917       985       984      3827      3828      3822
 -1      1891    8    0    1
 -2       913       837       973      3603      3783      3829
 -1      1892    8    0    1
 -2       838       913       986      3605      3830      3831
 -1      1893    8    0    1
 -2       838       986       916      3831      3832      3618
 -1      1894    8    0    1
 -2       879       954       987      3727      3833      3834
 -1      1895    8    0    1
 -2       879       987       910      3834      3835      3588
 -1      1896    8    0    1
 -2       971       899       972      3776      3836      3837
 -1      1897    8    0    1
 -2       972       901       988      3779      3838      3839
 -1      1898    8    0    1
 -2       971       972       988      3837      3839      3840
 -1      1899    8    0    1
 -2       901       914       988      3612      3841      3838
 -1      1900    8    0    1
 -2       899       900       972      3546      3808      3836
 -1      1901    8    0    1
 -2       904       950       989      3717      3842      3843
 -1      1902    8    0    1
 -2       975       877       990      3788      3844      3845
 -1      1903    8    0    1
 -2       877       910       990      3587      3846      3844
 -1      1904    8    0    1
 -2       977       902       991      3801      3847      3848
 -1      1905    8    0    1
 -2       985       977       991      3826      3848      3849
 -1      1906    8    0    1
 -2       902       982       991      3814      3850      3847
 -1      1907    8    0    1
 -2       978       903       992      3798      3851      3852
 -1      1908    8    0    1
 -2       903       916       992      3617      3853      3851
 -1      1909    8    0    1
 -2       918       983       993      3818      3854      3855
 -1      1910    8    0    1
 -2       915       904       989      3615      3843      3856
 -1      1911    8    0    1
 -2       952       918       993      3821      3855      3857
 -1      1912    8    0    1
 -2       953       974       994      3824      3858      3859
 -1      1913    8    0    1
 -2       951       975       995      3790      3860      3861
 -1      1914    8    0    1
 -2       922       921       996      3634      3862      3863
 -1      1915    8    0    1
 -2       923       922       997      3637      3864      3865
 -1      1916    8    0    1
 -2       922       996       997      3863      3866      3864
 -1      1917    8    0    1
 -2       924       923       998      3640      3867      3868
 -1      1918    8    0    1
 -2       923       997       998      3865      3869      3867
 -1      1919    8    0    1
 -2       925       924       999      3643      3870      3871
 -1      1920    8    0    1
 -2       924       998       999      3868      3872      3870
 -1      1921    8    0    1
 -2       926       925      1000      3646      3873      3874
 -1      1922    8    0    1
 -2       925       999      1000      3871      3875      3873
 -1      1923    8    0    1
 -2       927       926      1001      3649      3876      3877
 -1      1924    8    0    1
 -2       926      1000      1001      3874      3878      3876
 -1      1925    8    0    1
 -2       928       927      1002      3652      3879      3880
 -1      1926    8    0    1
 -2       927      1001      1002      3877      3881      3879
 -1      1927    8    0    1
 -2       929       928      1003      3655      3882      3883
 -1      1928    8    0    1
 -2       928      1002      1003      3880      3884      3882
 -1      1929    8    0    1
 -2       930       929      1004      3658      3885      3886
 -1      1930    8    0    1
 -2       929      1003      1004      3883      3887      3885
 -1      1931    8    0    1
 -2       931       930      1005      3661      3888      3889
 -1      1932    8    0    1
 -2       930      1004      1005      3886      3890      3888
 -1      1933    8    0    1
 -2       932       931      1006      3664      3891      3892
 -1      1934    8    0    1
 -2       931      1005      1006      3889      3893      3891
 -1      1935    8    0    1
 -2       933       932      1007      3667      3894      3895
 -1      1936    8    0    1
 -2       932      1006      1007      3892      3896      3894
 -1      1937    8    0    1
 -2       934       933      1008      3670      3897      3898
 -1      1938    8    0    1
 -2       933      1007      1008      3895      3899      3897
 -1      1939    8    0    1
 -2       935       934      1009      3673      3900      3901
 -1      1940    8    0    1
 -2       934      1008      1009      3898      3902      3900
 -1      1941    8    0    1
 -2       936       935      1010      3676      3903      3904
 -1      1942    8    0    1
 -2       935      1009      1010      3901      3905      3903
 -1      1943    8    0    1
 -2       937       936      1011      3679      3906      3907
 -1      1944    8    0    1
 -2       936      1010      1011      3904      3908      3906
 -1      1945    8    0    1
 -2       938       937      1012      3682      3909      3910
 -1      1946    8    0    1
 -2       937      1011      1012      3907      3911      3909
 -1      1947    8    0    1
 -2       939       938      1013      3685      3912      3913
 -1      1948    8    0    1
 -2       938      1012      1013      3910      3914      3912
 -1      1949    8    0    1
 -2       940       939      1014      3688      3915      3916
 -1      1950    8    0    1
 -2       939      1013      1014      3913      3917      3915
 -1      1951    8    0    1
 -2       941       940      1015      3691      3918      3919
 -1      1952    8    0    1
 -2       940      1014      1015      3916      3920      3918
 -1      1953    8    0    1
 -2       942       941      1016      3694      3921      3922
 -1      1954    8    0    1
 -2       941      1015      1016      3919      3923      3921
 -1      1955    8    0    1
 -2       943       942      1017      3697      3924      3925
 -1      1956    8    0    1
 -2       942      1016      1017      3922      3926      3924
 -1      1957    8    0    1
 -2       944       943      1018      3700      3927      3928
 -1      1958    8    0    1
 -2       943      1017      1018      3925      3929      3927
 -1      1959    8    0    1
 -2       945       944      1019      3703      3930      3931
 -1      1960    8    0    1
 -2       944      1018      1019      3928      3932      3930
 -1      1961    8    0    1
 -2       946       945      1020      3706      3933      3934
 -1      1962    8    0    1
 -2       945      1019      1020      3931      3935      3933
 -1      1963    8    0    1
 -2       947       946      1021      3709      3936      3937
 -1      1964    8    0    1
 -2       946      1020      1021      3934      3938      3936
 -1      1965    8    0    1
 -2       948       947      1022      3712      3939      3940
 -1      1966    8    0    1
 -2       947      1021      1022      3937      3941      3939
 -1      1967    8    0    1
 -2       949       948      1023      3715      3942      3943
 -1      1968    8    0    1
 -2       948      1022      1023      3940      3944      3942
 -1      1969    8    0    1
 -2       921       952       993      3722      3857      3945
 -1      1970    8    0    1
 -2       954       953      1024      3728      3946      3947
 -1      1971    8    0    1
 -2       953       994      1024      3859      3948      3946
 -1      1972    8    0    1
 -2       956       957      1025      3736      3949      3950
 -1      1973    8    0    1
 -2       955       956      1026      3733      3951      3952
 -1      1974    8    0    1
 -2       956      1025      1026      3950      3953      3951
 -1      1975    8    0    1
 -2       958       959      1027      3742      3954      3955
 -1      1976    8    0    1
 -2       959       960      1028      3745      3956      3957
 -1      1977    8    0    1
 -2       959      1028      1027      3957      3958      3954
 -1      1978    8    0    1
 -2       960       961      1029      3748      3959      3960
 -1      1979    8    0    1
 -2       960      1029      1028      3960      3961      3956
 -1      1980    8    0    1
 -2       961       962      1030      3751      3962      3963
 -1      1981    8    0    1
 -2       961      1030      1029      3963      3964      3959
 -1      1982    8    0    1
 -2       962       963      1031      3754      3965      3966
 -1      1983    8    0    1
 -2       962      1031      1030      3966      3967      3962
 -1      1984    8    0    1
 -2       963       964      1032      3757      3968      3969
 -1      1985    8    0    1
 -2       963      1032      1031      3969      3970      3965
 -1      1986    8    0    1
 -2       964       965      1033      3760      3971      3972
 -1      1987    8    0    1
 -2       964      1033      1032      3972      3973      3968
 -1      1988    8    0    1
 -2       965       966      1034      3763      3974      3975
 -1      1989    8    0    1
 -2       965      1034      1033      3975      3976      3971
 -1      1990    8    0    1
 -2       966       967      1035      3766      3977      3978
 -1      1991    8    0    1
 -2       966      1035      1034      3978      3979      3974
 -1      1992    8    0    1
 -2       967       968      1036      3769      3980      3981
 -1      1993    8    0    1
 -2       967      1036      1035      3981      3982      3977
 -1      1994    8    0    1
 -2       968       969      1037      3772      3983      3984
 -1      1995    8    0    1
 -2       968      1037      1036      3984      3985      3980
 -1      1996    8    0    1
 -2       969       970      1038      3775      3986      3987
 -1      1997    8    0    1
 -2       969      1038      1037      3987      3988      3983
 -1      1998    8    0    1
 -2       970       971      1039      3778      3989      3990
 -1      1999    8    0    1
 -2       970      1039      1038      3990      3991      3986
 -1      2000    8    0    1
 -2       979       981      1040      3811      3992      3993
 -1      2001    8    0    1
 -2       976       951      1041      3793      3994      3995
 -1      2002    8    0    1
 -2       951       995      1041      3861      3996      3994
 -1      2003    8    0    1
 -2       950       979      1042      3804      3997      3998
 -1      2004    8    0    1
 -2       979      1040      1042      3993      3999      3997
 -1      2005    8    0    1
 -2       983       919      1043      3819      4000      4001
 -1      2006    8    0    1
 -2       919       984      1043      3823      4002      4000
 -1      2007    8    0    1
 -2       993       983      1043      3854      4001      4003
 -1      2008    8    0    1
 -2       973       949      1044      3784      4004      4005
 -1      2009    8    0    1
 -2       980       976      1045      3807      4006      4007
 -1      2010    8    0    1
 -2       976      1041      1045      3995      4008      4006
 -1      2011    8    0    1
 -2       989       950      1046      3842      4009      4010
 -1      2012    8    0    1
 -2       950      1042      1046      3998      4011      4009
 -1      2013    8    0    1
 -2       982       915       991      3815      4012      3850
 -1      2014    8    0    1
 -2       914       978      1047      3800      4013      4014
 -1      2015    8    0    1
 -2       914      1047       988      4014      4015      3841
 -1      2016    8    0    1
 -2       981       980      1048      3825      4016      4017
 -1      2017    8    0    1
 -2       980      1045      1048      4007      4018      4016
 -1      2018    8    0    1
 -2       974       955      1049      3787      4019      4020
 -1      2019    8    0    1
 -2       974      1049       994      4020      4021      3858
 -1      2020    8    0    1
 -2       957       958      1050      3739      4022      4023
 -1      2021    8    0    1
 -2       957      1050      1025      4023      4024      3949
 -1      2022    8    0    1
 -2       913       973      1044      3829      4005      4025
 -1      2023    8    0    1
 -2       921       993       996      3945      4026      3862
 -1      2024    8    0    1
 -2       991       915       989      4012      3856      4027
 -1      2025    8    0    1
 -2       949      1023      1044      3943      4028      4004
 -1      2026    8    0    1
 -2       981      1048      1040      4017      4029      3992
 -1      2027    8    0    1
 -2       987       954      1051      3833      4030      4031
 -1      2028    8    0    1
 -2       954      1024      1051      3947      4032      4030
 -1      2029    8    0    1
 -2       955      1026      1049      3952      4033      4019
 -1      2030    8    0    1
 -2       996       993      1052      4026      4034      4035
 -1      2031    8    0    1
 -2       993      1043      1052      4003      4036      4034
 -1      2032    8    0    1
 -2      1039       971       988      3989      3840      4037
 -1      2033    8    0    1
 -2       989      1046      1053      4010      4038      4039
 -1      2034    8    0    1
 -2       990       910       987      3846      3835      4040
 -1      2035    8    0    1
 -2       975       990      1054      3845      4041      4042
 -1      2036    8    0    1
 -2       975      1054       995      4042      4043      3860
 -1      2037    8    0    1
 -2      1043       984      1055      4002      4044      4045
 -1      2038    8    0    1
 -2      1043      1055      1052      4045      4046      4036
 -1      2039    8    0    1
 -2       978       992      1056      3852      4047      4048
 -1      2040    8    0    1
 -2       978      1056      1047      4048      4049      4013
 -1      2041    8    0    1
 -2       958      1027      1050      3955      4050      4022
 -1      2042    8    0    1
 -2       984       985      1053      3828      4051      4052
 -1      2043    8    0    1
 -2       984      1053      1055      4052      4053      4044
 -1      2044    8    0    1
 -2       998       997      1057      3869      4054      4055
 -1      2045    8    0    1
 -2       999       998      1058      3872      4056      4057
 -1      2046    8    0    1
 -2       998      1057      1058      4055      4058      4056
 -1      2047    8    0    1
 -2      1000       999      1059      3875      4059      4060
 -1      2048    8    0    1
 -2       999      1058      1059      4057      4061      4059
 -1      2049    8    0    1
 -2      1001      1000      1060      3878      4062      4063
 -1      2050    8    0    1
 -2      1000      1059      1060      4060      4064      4062
 -1      2051    8    0    1
 -2      1002      1001      1061      3881      4065      4066
 -1      2052    8    0    1
 -2      1001      1060      1061      4063      4067      4065
 -1      2053    8    0    1
 -2      1003      1002      1062      3884      4068      4069
 -1      2054    8    0    1
 -2      1002      1061      1062      4066      4070      4068
 -1      2055    8    0    1
 -2      1004      1003      1063      3887      4071      4072
 -1      2056    8    0    1
 -2      1003      1062      1063      4069      4073      4071
 -1      2057    8    0    1
 -2      1005      1004      1064      3890      4074      4075
 -1      2058    8    0    1
 -2      1004      1063      1064      4072      4076      4074
 -1      2059    8    0    1
 -2      1006      1005      1065      3893      4077      4078
 -1      2060    8    0    1
 -2      1005      1064      1065      4075      4079      4077
 -1      2061    8    0    1
 -2      1007      1006      1066      3896      4080      4081
 -1      2062    8    0    1
 -2      1006      1065      1066      4078      4082      4080
 -1      2063    8    0    1
 -2      1008      1007      1067      3899      4083      4084
 -1      2064    8    0    1
 -2      1007      1066      1067      4081      4085      4083
 -1      2065    8    0    1
 -2      1009      1008      1068      3902      4086      4087
 -1      2066    8    0    1
 -2      1008      1067      1068      4084      4088      4086
 -1      2067    8    0    1
 -2      1010      1009      1069      3905      4089      4090
 -1      2068    8    0    1
 -2      1009      1068      1069      4087      4091      4089
 -1      2069    8    0    1
 -2      1011      1010      1070      3908      4092      4093
 -1      2070    8    0    1
 -2      1010      1069      1070      4090      4094      4092
 -1      2071    8    0    1
 -2      1012      1011      1071      3911      4095      4096
 -1      2072    8    0    1
 -2      1011      1070      1071      4093      4097      4095
 -1      2073    8    0    1
 -2      1013      1012      1072      3914      4098      4099
 -1      2074    8    0    1
 -2      1012      1071      1072      4096      4100      4098
 -1      2075    8    0    1
 -2      1014      1013      1073      3917      4101      4102
 -1      2076    8    0    1
 -2      1013      1072      1073      4099      4103      4101
 -1      2077    8    0    1
 -2      1015      1014      1074      3920      4104      4105
 -1      2078    8    0    1
 -2      1014      1073      1074      4102      4106      4104
 -1      2079    8    0    1
 -2      1016      1015      1075      3923      4107      4108
 -1      2080    8    0    1
 -2      1015      1074      1075      4105      4109      4107
 -1      2081    8    0    1
 -2      1017      1016      1076      3926      4110      4111
 -1      2082    8    0    1
 -2      1016      1075      1076      4108      4112      4110
 -1      2083    8    0    1
 -2      1018      1017      1077      3929      4113      4114
 -1      2084    8    0    1
 -2      1017      1076      1077      4111      4115      4113
 -1      2085    8    0    1
 -2      1019      1018      1078      3932      4116      4117
 -1      2086    8    0    1
 -2      1018      1077      1078      4114      4118      4116
 -1      2087    8    0    1
 -2      1020      1019      1079      3935      4119      4120
 -1      2088    8    0    1
 -2      1019      1078      1079      4117      4121      4119
 -1      2089    8    0    1
 -2      1021      1020      1080      3938      4122      4123
 -1      2090    8    0    1
 -2      1020      1079      1080      4120      4124      4122
 -1      2091    8    0    1
 -2      1022      1021      1081      3941      4125      4126
 -1      2092    8    0    1
 -2      1021      1080      1081      4123      4127      4125
 -1      2093    8    0    1
 -2      1023      1022      1082      3944      4128      4129
 -1      2094    8    0    1
 -2      1022      1081      1082      4126      4130      4128
 -1      2095    8    0    1
 -2      1026      1025      1083      3953      4131      4132
 -1      2096    8    0    1
 -2       992       916      1084      3853      4133      4134
 -1      2097    8    0    1
 -2      1024       994      1085      3948      4135      4136
 -1      2098    8    0    1
 -2      1049      1026      1086      4033      4137      4138
 -1      2099    8    0    1
 -2      1026      1083      1086      4132      4139      4137
 -1      2100    8    0    1
 -2      1028      1029      1087      3961      4140      4141
 -1      2101    8    0    1
 -2      1027      1028      1088      3958      4142      4143
 -1      2102    8    0    1
 -2      1028      1087      1088      4141      4144      4142
 -1      2103    8    0    1
 -2      1030      1031      1089      3967      4145      4146
 -1      2104    8    0    1
 -2      1031      1032      1090      3970      4147      4148
 -1      2105    8    0    1
 -2      1031      1090      1089      4148      4149      4145
 -1      2106    8    0    1
 -2      1032      1033      1091      3973      4150      4151
 -1      2107    8    0    1
 -2      1032      1091      1090      4151      4152      4147
 -1      2108    8    0    1
 -2      1033      1034      1092      3976      4153      4154
 -1      2109    8    0    1
 -2      1033      1092      1091      4154      4155      4150
 -1      2110    8    0    1
 -2      1034      1035      1093      3979      4156      4157
 -1      2111    8    0    1
 -2      1034      1093      1092      4157      4158      4153
 -1      2112    8    0    1
 -2      1035      1036      1094      3982      4159      4160
 -1      2113    8    0    1
 -2      1035      1094      1093      4160      4161      4156
 -1      2114    8    0    1
 -2      1036      1037      1095      3985      4162      4163
 -1      2115    8    0    1
 -2      1036      1095      1094      4163      4164      4159
 -1      2116    8    0    1
 -2      1037      1038      1096      3988      4165      4166
 -1      2117    8    0    1
 -2      1037      1096      1095      4166      4167      4162
 -1      2118    8    0    1
 -2      1084       916       986      4133      3832      4168
 -1      2119    8    0    1
 -2       992      1084      1097      4134      4169      4170
 -1      2120    8    0    1
 -2       992      1097      1056      4170      4171      4047
 -1      2121    8    0    1
 -2      1053      1046      1055      4038      4172      4053
 -1      2122    8    0    1
 -2       990       987      1098      4040      4173      4174
 -1      2123    8    0    1
 -2       990      1098      1054      4174      4175      4041
 -1      2124    8    0    1
 -2       989      1053       991      4039      4176      4027
 -1      2125    8    0    1
 -2      1041       995      1099      3996      4177      4178
 -1      2126    8    0    1
 -2       991      1053       985      4176      4051      3849
 -1      2127    8    0    1
 -2       988      1047      1039      4015      4179      4037
 -1      2128    8    0    1
 -2      1042      1040      1100      3999      4180      4181
 -1      2129    8    0    1
 -2      1055      1046      1101      4172      4182      4183
 -1      2130    8    0    1
 -2      1045      1041      1102      4008      4184      4185
 -1      2131    8    0    1
 -2      1041      1099      1102      4178      4186      4184
 -1      2132    8    0    1
 -2      1040      1048      1103      4029      4187      4188
 -1      2133    8    0    1
 -2      1040      1103      1100      4188      4189      4180
 -1      2134    8    0    1
 -2       997       996      1104      3866      4190      4191
 -1      2135    8    0    1
 -2      1057       997      1104      4054      4191      4192
 -1      2136    8    0    1
 -2       996      1052      1104      4035      4193      4190
 -1      2137    8    0    1
 -2       994      1049      1105      4021      4194      4195
 -1      2138    8    0    1
 -2      1049      1086      1105      4138      4196      4194
 -1      2139    8    0    1
 -2      1039      1047      1106      4179      4197      4198
 -1      2140    8    0    1
 -2      1038      1039      1106      3991      4198      4199
 -1      2141    8    0    1
 -2      1047      1056      1106      4049      4200      4197
 -1      2142    8    0    1
 -2      1046      1042      1101      4011      4201      4182
 -1      2143    8    0    1
 -2      1044      1023      1107      4028      4202      4203
 -1      2144    8    0    1
 -2      1050      1027      1108      4050      4204      4205
 -1      2145    8    0    1
 -2      1027      1088      1108      4143      4206      4204
 -1      2146    8    0    1
 -2      1048      1045      1109      4018      4207      4208
 -1      2147    8    0    1
 -2      1045      1102      1109      4185      4209      4207
 -1      2148    8    0    1
 -2      1029      1030      1110      3964      4210      4211
 -1      2149    8    0    1
 -2      1030      1089      1110      4146      4212      4210
 -1      2150    8    0    1
 -2      1025      1050      1111      4024      4213      4214
 -1      2151    8    0    1
 -2      1083      1025      1111      4131      4214      4215
 -1      2152    8    0    1
 -2      1050      1108      1111      4205      4216      4213
 -1      2153    8    0    1
 -2      1023      1082      1107      4129      4217      4202
 -1      2154    8    0    1
 -2      1024      1085      1112      4136      4218      4219
 -1      2155    8    0    1
 -2      1024      1112      1051      4219      4220      4032
 -1      2156    8    0    1
 -2       986       913      1044      3830      4025      4221
 -1      2157    8    0    1
 -2      1085       994      1105      4135      4195      4222
 -1      2158    8    0    1
 -2      1038      1106      1096      4199      4223      4165
 -1      2159    8    0    1
 -2      1087      1029      1110      4140      4211      4224
 -1      2160    8    0    1
 -2      1101      1042      1100      4201      4181      4225
 -1      2161    8    0    1
 -2      1048      1109      1103      4208      4226      4187
 -1      2162    8    0    1
 -2      1084       986      1044      4168      4221      4227
 -1      2163    8    0    1
 -2      1097      1084      1107      4169      4228      4229
 -1      2164    8    0    1
 -2      1098       987      1051      4173      4031      4230
 -1      2165    8    0    1
 -2      1099       995      1113      4177      4231      4232
 -1      2166    8    0    1
 -2       995      1054      1113      4043      4233      4231
 -1      2167    8    0    1
 -2      1084      1044      1107      4227      4203      4228
 -1      2168    8    0    1
 -2      1052      1055      1104      4046      4234      4193
 -1      2169    8    0    1
 -2      1104      1055      1101      4234      4183      4235
 -1      2170    8    0    1
 -2      1088      1087      1073      4144      4236      4237
 -1      2171    8    0    1
 -2      1091      1092      1078      4155      4238      4239
 -1      2172    8    0    1
 -2      1086      1083      1069      4139      4240      4241
 -1      2173    8    0    1
 -2      1059      1058      1103      4061      4242      4243
 -1      2174    8    0    1
 -2      1060      1059      1109      4064      4244      4245
 -1      2175    8    0    1
 -2      1061      1060      1102      4067      4246      4247
 -1      2176    8    0    1
 -2      1062      1061      1099      4070      4248      4249
 -1      2177    8    0    1
 -2      1063      1062      1113      4073      4250      4251
 -1      2178    8    0    1
 -2      1065      1064      1114      4079      4252      4253
 -1      2179    8    0    1
 -2      1066      1065      1112      4082      4254      4255
 -1      2180    8    0    1
 -2      1067      1066      1085      4085      4256      4257
 -1      2181    8    0    1
 -2      1068      1067      1105      4088      4258      4259
 -1      2182    8    0    1
 -2      1069      1068      1086      4091      4260      4241
 -1      2183    8    0    1
 -2      1070      1069      1083      4094      4240      4261
 -1      2184    8    0    1
 -2      1071      1070      1111      4097      4262      4263
 -1      2185    8    0    1
 -2      1072      1071      1108      4100      4264      4265
 -1      2186    8    0    1
 -2      1073      1072      1088      4103      4266      4237
 -1      2187    8    0    1
 -2      1074      1073      1087      4106      4236      4267
 -1      2188    8    0    1
 -2      1075      1074      1110      4109      4268      4269
 -1      2189    8    0    1
 -2      1076      1075      1089      4112      4270      4271
 -1      2190    8    0    1
 -2      1077      1076      1090      4115      4272      4273
 -1      2191    8    0    1
 -2      1078      1077      1091      4118      4274      4239
 -1      2192    8    0    1
 -2      1079      1078      1092      4121      4238      4275
 -1      2193    8    0    1
 -2      1080      1079      1093      4124      4276      4277
 -1      2194    8    0    1
 -2      1081      1080      1094      4127      4278      4279
 -1      2195    8    0    1
 -2      1082      1081      1095      4130      4280      4281
 -1      2196    8    0    1
 -2      1095      1081      1094      4280      4279      4164
 -1      2197    8    0    1
 -2      1090      1076      1089      4272      4271      4149
 -1      2198    8    0    1
 -2      1097      1107      1115      4229      4282      4283
 -1      2199    8    0    1
 -2      1105      1067      1085      4258      4257      4222
 -1      2200    8    0    1
 -2      1085      1066      1112      4256      4255      4218
 -1      2201    8    0    1
 -2      1099      1061      1102      4248      4247      4186
 -1      2202    8    0    1
 -2      1090      1091      1077      4152      4274      4273
 -1      2203    8    0    1
 -2      1092      1093      1079      4158      4276      4275
 -1      2204    8    0    1
 -2      1093      1094      1080      4161      4278      4277
 -1      2205    8    0    1
 -2      1095      1096      1082      4167      4284      4281
 -1      2206    8    0    1
 -2      1075      1110      1089      4269      4212      4270
 -1      2207    8    0    1
 -2      1087      1110      1074      4224      4268      4267
 -1      2208    8    0    1
 -2      1108      1088      1072      4206      4266      4265
 -1      2209    8    0    1
 -2      1098      1051      1114      4230      4285      4286
 -1      2210    8    0    1
 -2      1102      1060      1109      4246      4245      4209
 -1      2211    8    0    1
 -2      1056      1097      1115      4171      4283      4287
 -1      2212    8    0    1
 -2      1057      1104      1101      4192      4235      4288
 -1      2213    8    0    1
 -2      1101      1100      1057      4225      4289      4288
 -1      2214    8    0    1
 -2      1100      1103      1058      4189      4242      4290
 -1      2215    8    0    1
 -2      1057      1100      1058      4289      4290      4058
 -1      2216    8    0    1
 -2      1109      1059      1103      4244      4243      4226
 -1      2217    8    0    1
 -2      1106      1056      1115      4200      4287      4291
 -1      2218    8    0    1
 -2      1054      1098      1116      4175      4292      4293
 -1      2219    8    0    1
 -2      1113      1054      1116      4233      4293      4294
 -1      2220    8    0    1
 -2      1098      1114      1116      4286      4295      4292
 -1      2221    8    0    1
 -2      1105      1086      1068      4196      4260      4259
 -1      2222    8    0    1
 -2      1070      1083      1111      4261      4215      4262
 -1      2223    8    0    1
 -2      1062      1099      1113      4249      4232      4250
 -1      2224    8    0    1
 -2      1108      1071      1111      4264      4263      4216
 -1      2225    8    0    1
 -2      1063      1113      1116      4251      4294      4296
 -1      2226    8    0    1
 -2      1065      1114      1112      4253      4297      4254
 -1      2227    8    0    1
 -2      1064      1063      1116      4076      4296      4298
 -1      2228    8    0    1
 -2      1114      1051      1112      4285      4220      4297
 -1      2229    8    0    1
 -2      1064      1116      1114      4298      4295      4252
 -1      2230    8    0    1
 -2      1107      1082      1115      4217      4299      4282
 -1      2231    8    0    1
 -2      1096      1106      1115      4223      4291      4300
 -1      2232    8    0    1
 -2      1082      1096      1115      4284      4300      4299
 -3
    1PSTEP                         1           1           1          
  100CL  101 1.000000000        4300                     0    1           1
 -4  DISP        4    1
 -5  D1          1    2    1    0
 -5  D2          1    2    2    0
 -5  D3          1    2    3    0
 -5  ALL         1    2    0    0    1ALL
 -1         1 1.20565E-02-1.25783E-03-9.21782E-14
 -1         2 1.51153E-02-3.68940E-04-1.03348E-13
 -1         3 1.41813E-02-8.31439E-05-1.25988E-13
 -1         4 1.47248E-02-5.15243E-04-1.23383E-13
 -1         5 0.00000E+00 0.00000E+00 0.00000E+00
 -1         6 0.00000E+00 0.00000E+00 0.00000E+00
 -1         7 0.00000E+00 0.00000E+00 0.00000E+00
 -1         8 0.00000E+00 0.00000E+00 0.00000E+00
 -1         9 0.00000E+00 0.00000E+00 0.00000E+00
 -1        10 0.00000E+00 0.00000E+00 0.00000E+00
 -1        11 0.00000E+00 0.00000E+00 0.00000E+00
 -1        12 0.00000E+00 0.00000E+00 0.00000E+00
 -1        13 0.00000E+00 0.00000E+00 0.00000E+00
 -1        14 0.00000E+00 0.00000E+00 0.00000E+00
 -1        15 0.00000E+00 0.00000E+00 0.00000E+00
 -1        16 0.00000E+00 0.00000E+00 0.00000E+00
 -1        17 0.00000E+00 0.00000E+00 0.00000E+00
 -1        18 0.00000E+00 0.00000E+00 0.00000E+00
 -1        19 0.00000E+00 0.00000E+00 0.00000E+00
 -1        20 0.00000E+00 0.00000E+00 0.00000E+00
 -1        21 0.00000E+00 0.00000E+00 0.00000E+00
 -1        22 0.00000E+00 0.00000E+00 0.00000E+00
 -1        23 4.11413E-04-2.60741E-04 4.44252E-17
 -1        24 7.03435E-04-4.00988E-04-5.97734E-17
 -1        25 9.73550E-04-4.98375E-04-3.09309E-16
 -1        26 1.23809E-03-5.67140E-04-7.01560E-16
 -1        27 1.50168E-03-6.16427E-04-1.23469E-15
 -1        28 1.76641E-03-6.51622E-04-1.90760E-15
 -1        29 2.03323E-03-6.76440E-04-2.71794E-15
 -1        30 2.30251E-03-6.93580E-04-3.66771E-15
 -1        31 2.57430E-03-7.05068E-04-4.75265E-15
 -1        32 2.84846E-03-7.12434E-04-5.96957E-15
 -1        33 3.12475E-03-7.16837E-04-7.31146E-15
 -1        34 3.40289E-03-7.19143E-04-8.76793E-15
 -1        35 3.68260E-03-7.19990E-04-1.03377E-14
 -1        36 3.96359E-03-7.19834E-04-1.20174E-14
 -1        37 4.24562E-03-7.18991E-04-1.38027E-14
 -1        38 4.52847E-03-7.17665E-04-1.56936E-14
 -1        39 4.81197E-03-7.15973E-04-1.76850E-14
 -1        40 5.09599E-03-7.13966E-04-1.97776E-14
 -1        41 5.38043E-03-7.11641E-04-2.19648E-14
 -1        42 5.66527E-03-7.08956E-04-2.42486E-14
 -1        43 5.95052E-03-7.05843E-04-2.66314E-14
 -1        44 6.23627E-03-7.02215E-04-2.91108E-14
 -1        45 6.52266E-03-6.97980E-04-3.16905E-14
 -1        46 6.80996E-03-6.93058E-04-3.43703E-14
 -1        47 7.09851E-03-6.87398E-04-3.71428E-14
 -1        48 7.38882E-03-6.81012E-04-4.00019E-14
 -1        49 7.68156E-03-6.74016E-04-4.29422E-14
 -1        50 7.97762E-03-6.66688E-04-4.59507E-14
 -1        51 8.27813E-03-6.59566E-04-4.90200E-14
 -1        52 8.58452E-03-6.53566E-04-5.21437E-14
 -1        53 8.89853E-03-6.50164E-04-5.53137E-14
 -1        54 9.22219E-03-6.51632E-04-5.85293E-14
 -1        55 9.55767E-03-6.61338E-04-6.17891E-14
 -1        56 9.90691E-03-6.84051E-04-6.50925E-14
 -1        57 1.02709E-02-7.26120E-04-6.84369E-14
 -1        58 1.06486E-02-7.95171E-04-7.18064E-14
 -1        59 1.10346E-02-8.98689E-04-7.52039E-14
 -1        60 1.14181E-02-1.04063E-03-7.86384E-14
 -1        61 1.17819E-02-1.21572E-03-8.21137E-14
 -1        62 1.21070E-02-1.40336E-03-8.56363E-14
 -1        63 1.23819E-02-1.56662E-03-8.92128E-14
 -1        64 1.26128E-02-1.66323E-03-9.28390E-14
 -1        65 1.28246E-02-1.66611E-03-9.65243E-14
 -1        66 1.30477E-02-1.57860E-03-1.00278E-13
 -1        67 1.33000E-02-1.42961E-03-1.04091E-13
 -1        68 1.35801E-02-1.25325E-03-1.07942E-13
 -1        69 1.38738E-02-1.07131E-03-1.11829E-13
 -1        70 1.41672E-02-8.88832E-04-1.15725E-13
 -1        71 1.44544E-02-7.01093E-04-1.19646E-13
 -1        72 4.13859E-04 2.61446E-04 5.69071E-17
 -1        73 7.03259E-04 4.03695E-04-2.55499E-17
 -1        74 9.74086E-04 5.00149E-04-2.44355E-16
 -1        75 1.23892E-03 5.68853E-04-5.99920E-16
 -1        76 1.50264E-03 6.18187E-04-1.09066E-15
 -1        77 1.76743E-03 6.53473E-04-1.71599E-15
 -1        78 2.03429E-03 6.78401E-04-2.47335E-15
 -1        79 2.30360E-03 6.95664E-04-3.35883E-15
 -1        80 2.57540E-03 7.07279E-04-4.37174E-15
 -1        81 2.84957E-03 7.14776E-04-5.51098E-15
 -1        82 3.12587E-03 7.19311E-04-6.77339E-15
 -1        83 3.40402E-03 7.21750E-04-8.15527E-15
 -1        84 3.68373E-03 7.22730E-04-9.65426E-15
 -1        85 3.96473E-03 7.22708E-04-1.12727E-14
 -1        86 4.24676E-03 7.21999E-04-1.30077E-14
 -1        87 4.52962E-03 7.20809E-04-1.48591E-14
 -1        88 4.81313E-03 7.19255E-04-1.68214E-14
 -1        89 5.09717E-03 7.17391E-04-1.88934E-14
 -1        90 5.38164E-03 7.15218E-04-2.10794E-14
 -1        91 5.66652E-03 7.12704E-04-2.33820E-14
 -1        92 5.95182E-03 7.09789E-04-2.57888E-14
 -1        93 6.23763E-03 7.06406E-04-2.82856E-14
 -1        94 6.52410E-03 7.02491E-04-3.08779E-14
 -1        95 6.81146E-03 6.98003E-04-3.35514E-14
 -1        96 7.10005E-03 6.92953E-04-3.63134E-14
 -1        97 7.39030E-03 6.87430E-04-3.91588E-14
 -1        98 7.68277E-03 6.81652E-04-4.20880E-14
 -1        99 7.97811E-03 6.76018E-04-4.50957E-14
 -1       100 8.27711E-03 6.71183E-04-4.81780E-14
 -1       101 8.58059E-03 6.68129E-04-5.13356E-14
 -1       102 8.88934E-03 6.68254E-04-5.45595E-14
 -1       103 9.20400E-03 6.73424E-04-5.78528E-14
 -1       104 9.52475E-03 6.85971E-04-6.12042E-14
 -1       105 9.85100E-03 7.08555E-04-6.46025E-14
 -1       106 1.01809E-02 7.43788E-04-6.80560E-14
 -1       107 1.05111E-02 7.93501E-04-7.15775E-14
 -1       108 1.08362E-02 8.57594E-04-7.51650E-14
 -1       109 1.11494E-02 9.32576E-04-7.88157E-14
 -1       110 1.14435E-02 1.01031E-03-8.25197E-14
 -1       111 1.17133E-02 1.07786E-03-8.62671E-14
 -1       112 1.19584E-02 1.11945E-03-9.00633E-14
 -1       113 1.21840E-02 1.12054E-03-9.39105E-14
 -1       114 1.24006E-02 1.07259E-03-9.78040E-14
 -1       115 1.26197E-02 9.75802E-04-1.01750E-13
 -1       116 1.28503E-02 8.38165E-04-1.05748E-13
 -1       117 1.30962E-02 6.71490E-04-1.09786E-13
 -1       118 1.33568E-02 4.87203E-04-1.13873E-13
 -1       119 1.36292E-02 2.94214E-04-1.17981E-13
 -1       120 1.39102E-02 9.93178E-05-1.22094E-13
 -1       121 1.43681E-02-1.67810E-04-1.25880E-13
 -1       122 1.45528E-02-2.56951E-04-1.25773E-13
 -1       123 1.47434E-02-3.52357E-04-1.25644E-13
 -1       124 1.49487E-02-4.49014E-04-1.25516E-13
 -1       125 1.51736E-02-5.35350E-04-1.25360E-13
 -1       126 1.54089E-02-5.94221E-04-1.25202E-13
 -1       127 1.56448E-02-6.11130E-04-1.25033E-13
 -1       128 1.58452E-02-5.75467E-04-1.24866E-13
 -1       129 1.59724E-02-4.93682E-04-1.24690E-13
 -1       130 1.59987E-02-3.90094E-04-1.24498E-13
 -1       131 1.59204E-02-2.98126E-04-1.24319E-13
 -1       132 1.57632E-02-2.45640E-04-1.24166E-13
 -1       133 1.55564E-02-2.41328E-04-1.24023E-13
 -1       134 1.53350E-02-2.80707E-04-1.23860E-13
 -1       135 1.51194E-02-3.49609E-04-1.23695E-13
 -1       136 1.49159E-02-4.31409E-04-1.23537E-13
 -1       137 1.50359E-02-1.43741E-04-1.03127E-13
 -1       138 1.48533E-02 5.06718E-05-1.02545E-13
 -1       139 1.45419E-02 2.44518E-04-1.01510E-13
 -1       140 1.41420E-02 4.08647E-04-1.00144E-13
 -1       141 1.37019E-02 5.31720E-04-9.86092E-14
 -1       142 1.32205E-02 6.15742E-04-9.68981E-14
 -1       143 1.26746E-02 6.60001E-04-9.48978E-14
 -1       144 1.22010E-02 6.55159E-04-9.31443E-14
 -1       145 1.17224E-02 6.06725E-04-9.13336E-14
 -1       146 1.13039E-02 5.21988E-04-8.97318E-14
 -1       147 1.09451E-02 4.04953E-04-8.83460E-14
 -1       148 1.06688E-02 2.67955E-04-8.72705E-14
 -1       149 1.04624E-02 1.07282E-04-8.64699E-14
 -1       150 1.03448E-02-6.69813E-05-8.60095E-14
 -1       151 1.03181E-02-2.68423E-04-8.58862E-14
 -1       152 1.03950E-02-4.65136E-04-8.61511E-14
 -1       153 1.05750E-02-6.62842E-04-8.68033E-14
 -1       154 1.08608E-02-8.58762E-04-8.78441E-14
 -1       155 1.11987E-02-1.01922E-03-8.90679E-14
 -1       156 1.16002E-02-1.15492E-03-9.05235E-14
 -1       157 1.25284E-02-1.31525E-03-9.38784E-14
 -1       158 1.30366E-02-1.32579E-03-9.57231E-14
 -1       159 1.35351E-02-1.28402E-03-9.75246E-14
 -1       160 1.39762E-02-1.19854E-03-9.91256E-14
 -1       161 1.43672E-02-1.07591E-03-1.00535E-13
 -1       162 1.46803E-02-9.28786E-04-1.01674E-13
 -1       163 1.49198E-02-7.57439E-04-1.02557E-13
 -1       164 1.50672E-02-5.72011E-04-1.03128E-13
 -1       165 2.40426E-04-1.25513E-04-2.41845E-17
 -1       166 2.25286E-04-9.46068E-05-4.52553E-17
 -1       167 2.19518E-04-7.27642E-05-5.69477E-17
 -1       168 2.16712E-04-5.50899E-05-6.33140E-17
 -1       169 2.15211E-04-3.99543E-05-6.66818E-17
 -1       170 2.14371E-04-2.59079E-05-6.81286E-17
 -1       171 2.13950E-04-1.26405E-05-6.87215E-17
 -1       172 2.13827E-04 2.72596E-07-6.88299E-17
 -1       173 2.13969E-04 1.31980E-05-6.81048E-17
 -1       174 2.14413E-04 2.65052E-05-6.63159E-17
 -1       175 2.15260E-04 4.03822E-05-6.36427E-17
 -1       176 2.16815E-04 5.59007E-05-5.89670E-17
 -1       177 2.19677E-04 7.38032E-05-5.14217E-17
 -1       178 2.25457E-04 9.60067E-05-3.84417E-17
 -1       179 2.39355E-04 1.27589E-04-1.56498E-17
 -1       180 2.97736E-04 1.85499E-04 8.53132E-18
 -1       181 4.68668E-04-2.63548E-04-6.73425E-17
 -1       182 7.66844E-04-3.82141E-04-2.73409E-16
 -1       183 1.05073E-03-4.65035E-04-6.15488E-16
 -1       184 1.32816E-03-5.23832E-04-1.09496E-15
 -1       185 1.60280E-03-5.65553E-04-1.71058E-15
 -1       186 1.87673E-03-5.94889E-04-2.46230E-15
 -1       187 2.15109E-03-6.15148E-04-3.34904E-15
 -1       188 2.42646E-03-6.28758E-04-4.36929E-15
 -1       189 2.70310E-03-6.37535E-04-5.51963E-15
 -1       190 2.98107E-03-6.42845E-04-6.79601E-15
 -1       191 3.26033E-03-6.45707E-04-8.19176E-15
 -1       192 3.54075E-03-6.46872E-04-9.70033E-15
 -1       193 3.82219E-03-6.46882E-04-1.13211E-14
 -1       194 4.10449E-03-6.46116E-04-1.30497E-14
 -1       195 4.38752E-03-6.44821E-04-1.48843E-14
 -1       196 4.67114E-03-6.43150E-04-1.68218E-14
 -1       197 4.95527E-03-6.41173E-04-1.88587E-14
 -1       198 5.23982E-03-6.38903E-04-2.09949E-14
 -1       199 5.52478E-03-6.36305E-04-2.32281E-14
 -1       200 5.81014E-03-6.33311E-04-2.55567E-14
 -1       201 6.09597E-03-6.29825E-04-2.79875E-14
 -1       202 6.38237E-03-6.25740E-04-3.05168E-14
 -1       203 6.66953E-03-6.20946E-04-3.31457E-14
 -1       204 6.95769E-03-6.15350E-04-3.58689E-14
 -1       205 7.24722E-03-6.08896E-04-3.86823E-14
 -1       206 7.53857E-03-6.01603E-04-4.15774E-14
 -1       207 7.83234E-03-5.93614E-04-4.45472E-14
 -1       208 8.12930E-03-5.85269E-04-4.75819E-14
 -1       209 8.43038E-03-5.77214E-04-5.06754E-14
 -1       210 8.73668E-03-5.70554E-04-5.38210E-14
 -1       211 9.04949E-03-5.67070E-04-5.70134E-14
 -1       212 9.37015E-03-5.69512E-04-6.02525E-14
 -1       213 9.69997E-03-5.81944E-04-6.35350E-14
 -1       214 1.00399E-02-6.10087E-04-6.68576E-14
 -1       215 1.03899E-02-6.61419E-04-7.02172E-14
 -1       216 1.07485E-02-7.44539E-04-7.36093E-14
 -1       217 1.11115E-02-8.66951E-04-7.70324E-14
 -1       218 1.14716E-02-1.03028E-03-8.04910E-14
 -1       219 1.18187E-02-1.22310E-03-8.39941E-14
 -1       220 1.21429E-02-1.41499E-03-8.75514E-14
 -1       221 1.24409E-02-1.56003E-03-9.11603E-14
 -1       222 1.27199E-02-1.61585E-03-9.48225E-14
 -1       223 1.29951E-02-1.56820E-03-9.85447E-14
 -1       224 1.32798E-02-1.43863E-03-1.02330E-13
 -1       225 1.35770E-02-1.26647E-03-1.06162E-13
 -1       226 1.38809E-02-1.08367E-03-1.10031E-13
 -1       227 1.41833E-02-9.03007E-04-1.13923E-13
 -1       228 1.44788E-02-7.20975E-04-1.17830E-13
 -1       229 6.04624E-04 3.31035E-04-9.40512E-17
 -1       230 8.93752E-04 4.32657E-04-3.24207E-16
 -1       231 1.17268E-03 5.04417E-04-6.85981E-16
 -1       232 1.44707E-03 5.55528E-04-1.18009E-15
 -1       233 1.71993E-03 5.91811E-04-1.80603E-15
 -1       234 1.99287E-03 6.17250E-04-2.56221E-15
 -1       235 2.26675E-03 6.34721E-04-3.44638E-15
 -1       236 2.54196E-03 6.46360E-04-4.45575E-15
 -1       237 2.81863E-03 6.53774E-04-5.58923E-15
 -1       238 3.09675E-03 6.58170E-04-6.84489E-15
 -1       239 3.37620E-03 6.60447E-04-8.21997E-15
 -1       240 3.65683E-03 6.61264E-04-9.71189E-15
 -1       241 3.93848E-03 6.61092E-04-1.13216E-14
 -1       242 4.22097E-03 6.60251E-04-1.30463E-14
 -1       243 4.50417E-03 6.58950E-04-1.48852E-14
 -1       244 4.78794E-03 6.57306E-04-1.68361E-14
 -1       245 5.07220E-03 6.55371E-04-1.88980E-14
 -1       246 5.35688E-03 6.53139E-04-2.10707E-14
 -1       247 5.64198E-03 6.50571E-04-2.33557E-14
 -1       248 5.92750E-03 6.47599E-04-2.57484E-14
 -1       249 6.21353E-03 6.44142E-04-2.82346E-14
 -1       250 6.50020E-03 6.40120E-04-3.08150E-14
 -1       251 6.78771E-03 6.35474E-04-3.34779E-14
 -1       252 7.07632E-03 6.30186E-04-3.62270E-14
 -1       253 7.36639E-03 6.24318E-04-3.90639E-14
 -1       254 7.65835E-03 6.18049E-04-4.19839E-14
 -1       255 7.95271E-03 6.11739E-04-4.49827E-14
 -1       256 8.25004E-03 6.05998E-04-4.80566E-14
 -1       257 8.55097E-03 6.01771E-04-5.12023E-14
 -1       258 8.85606E-03 6.00428E-04-5.44169E-14
 -1       259 9.16572E-03 6.03841E-04-5.76949E-14
 -1       260 9.48007E-03 6.14407E-04-6.10306E-14
 -1       261 9.79868E-03 6.34942E-04-6.44196E-14
 -1       262 1.01203E-02 6.68347E-04-6.78637E-14
 -1       263 1.04426E-02 7.16906E-04-7.13695E-14
 -1       264 1.07621E-02 7.81115E-04-7.49345E-14
 -1       265 1.10744E-02 8.58107E-04-7.85597E-14
 -1       266 1.13747E-02 9.40138E-04-8.22400E-14
 -1       267 1.16594E-02 1.01411E-03-8.59706E-14
 -1       268 1.19277E-02 1.06328E-03-8.97521E-14
 -1       269 1.21825E-02 1.07157E-03-9.35854E-14
 -1       270 1.24301E-02 1.02900E-03-9.74641E-14
 -1       271 1.26777E-02 9.35082E-04-1.01396E-13
 -1       272 1.29312E-02 7.98100E-04-1.05369E-13
 -1       273 1.31934E-02 6.30768E-04-1.09385E-13
 -1       274 1.34639E-02 4.45344E-04-1.13449E-13
 -1       275 1.37411E-02 2.51099E-04-1.17540E-13
 -1       276 1.40231E-02 5.48476E-05-1.21638E-13
 -1       277 1.42120E-02-4.48486E-05-1.22282E-13
 -1       278 1.43968E-02-1.33813E-04-1.22178E-13
 -1       279 1.45933E-02-2.24079E-04-1.22060E-13
 -1       280 1.48103E-02-3.10593E-04-1.21931E-13
 -1       281 1.50453E-02-3.84095E-04-1.21795E-13
 -1       282 1.52957E-02-4.37407E-04-1.21649E-13
 -1       283 1.55307E-02-4.60905E-04-1.21500E-13
 -1       284 1.57101E-02-4.53103E-04-1.21343E-13
 -1       285 1.57944E-02-4.23327E-04-1.21178E-13
 -1       286 1.57642E-02-3.90189E-04-1.21007E-13
 -1       287 1.56342E-02-3.73483E-04-1.20850E-13
 -1       288 1.54349E-02-3.84267E-04-1.20693E-13
 -1       289 1.52077E-02-4.24000E-04-1.20533E-13
 -1       290 1.49814E-02-4.86072E-04-1.20372E-13
 -1       291 1.47254E-02-6.00615E-04-1.19100E-13
 -1       292 1.51212E-02-3.24004E-04-1.05255E-13
 -1       293 1.49289E-02-1.88163E-04-1.04470E-13
 -1       294 1.45917E-02-4.37836E-05-1.03809E-13
 -1       295 1.41612E-02 1.74511E-04-1.02253E-13
 -1       296 1.37025E-02 3.93578E-04-1.00535E-13
 -1       297 1.32954E-02 5.87288E-04-9.83946E-14
 -1       298 1.28560E-02 7.18929E-04-9.62092E-14
 -1       299 1.24562E-02 7.39841E-04-9.39424E-14
 -1       300 1.20725E-02 6.82724E-04-9.17984E-14
 -1       301 1.16700E-02 5.45136E-04-8.98081E-14
 -1       302 1.12810E-02 3.74103E-04-8.80486E-14
 -1       303 1.09168E-02 2.07877E-04-8.66853E-14
 -1       304 1.06167E-02 5.04158E-05-8.55109E-14
 -1       305 1.03955E-02-7.13250E-05-8.48640E-14
 -1       306 1.02845E-02-1.86582E-04-8.41290E-14
 -1       307 1.03272E-02-2.95585E-04-8.45141E-14
 -1       308 1.05112E-02-4.15172E-04-8.48717E-14
 -1       309 1.08160E-02-6.03257E-04-8.60495E-14
 -1       310 1.11930E-02-8.12146E-04-8.73829E-14
 -1       311 1.15773E-02-1.02980E-03-8.90126E-14
 -1       312 1.19864E-02-1.22432E-03-9.07880E-14
 -1       313 1.23719E-02-1.35854E-03-9.27842E-14
 -1       314 1.27631E-02-1.41473E-03-9.48666E-14
 -1       315 1.31743E-02-1.35655E-03-9.69964E-14
 -1       316 1.35799E-02-1.22239E-03-9.90410E-14
 -1       317 1.39984E-02-1.04476E-03-1.00770E-13
 -1       318 1.43900E-02-8.58055E-04-1.02276E-13
 -1       319 1.47325E-02-6.88871E-04-1.03467E-13
 -1       320 1.49922E-02-5.47703E-04-1.04324E-13
 -1       321 1.51324E-02-4.30646E-04-1.04796E-13
 -1       322 4.55408E-04-1.64793E-04-1.95190E-16
 -1       323 4.74295E-04-2.12972E-04-1.60486E-16
 -1       324 4.40428E-04-9.40023E-05-2.28831E-16
 -1       325 4.37458E-04-6.49007E-05-2.35817E-16
 -1       326 4.35831E-04-3.78980E-05-2.39243E-16
 -1       327 4.35117E-04-1.20149E-05-2.40415E-16
 -1       328 4.35148E-04 1.35327E-05-2.39053E-16
 -1       329 4.35929E-04 3.94729E-05-2.35414E-16
 -1       330 4.37601E-04 6.61246E-05-2.28750E-16
 -1       331 4.40669E-04 9.53962E-05-2.18551E-16
 -1       332 4.46069E-04 1.28307E-04-2.02702E-16
 -1       333 4.55917E-04 1.67288E-04-1.78023E-16
 -1       334 4.75925E-04 2.17034E-04-1.39456E-16
 -1       335 5.32063E-04 2.69965E-04-1.23934E-16
 -1       336 8.24571E-04 3.73502E-04-3.59738E-16
 -1       337 8.63341E-04-3.57392E-04-5.13478E-16
 -1       338 1.14972E-03-4.26165E-04-9.42585E-16
 -1       339 1.43253E-03-4.75359E-04-1.50493E-15
 -1       340 1.71328E-03-5.10125E-04-2.20061E-15
 -1       341 1.99309E-03-5.34267E-04-3.02838E-15
 -1       342 2.27272E-03-5.50612E-04-3.98713E-15
 -1       343 2.55263E-03-5.61280E-04-5.07414E-15
 -1       344 2.83309E-03-5.67863E-04-6.28770E-15
 -1       345 3.11421E-03-5.71556E-04-7.62218E-15
 -1       346 3.39601E-03-5.73243E-04-9.07118E-15
 -1       347 3.67846E-03-5.73567E-04-1.06319E-14
 -1       348 3.96151E-03-5.72979E-04-1.23027E-14
 -1       349 4.24508E-03-5.71786E-04-1.40815E-14
 -1       350 4.52910E-03-5.70179E-04-1.59644E-14
 -1       351 4.81352E-03-5.68262E-04-1.79483E-14
 -1       352 5.09828E-03-5.66069E-04-2.00305E-14
 -1       353 5.38337E-03-5.63578E-04-2.22133E-14
 -1       354 5.66879E-03-5.60730E-04-2.44911E-14
 -1       355 5.95457E-03-5.57433E-04-2.68698E-14
 -1       356 6.24077E-03-5.53574E-04-2.93471E-14
 -1       357 6.52750E-03-5.49031E-04-3.19241E-14
 -1       358 6.81493E-03-5.43686E-04-3.45996E-14
 -1       359 7.10325E-03-5.37442E-04-3.73667E-14
 -1       360 7.39276E-03-5.30257E-04-4.02181E-14
 -1       361 7.68379E-03-5.22175E-04-4.31486E-14
 -1       362 7.97679E-03-5.13396E-04-4.61488E-14
 -1       363 8.27229E-03-5.04354E-04-4.92122E-14
 -1       364 8.57091E-03-4.95847E-04-5.23308E-14
 -1       365 8.87340E-03-4.89211E-04-5.54982E-14
 -1       366 9.18058E-03-4.86563E-04-5.87121E-14
 -1       367 9.49344E-03-4.91118E-04-6.19742E-14
 -1       368 9.81305E-03-5.07544E-04-6.52806E-14
 -1       369 1.01406E-02-5.42282E-04-6.86266E-14
 -1       370 1.04774E-02-6.03554E-04-7.20047E-14
 -1       371 1.08244E-02-7.00514E-04-7.54187E-14
 -1       372 1.11810E-02-8.40539E-04-7.88672E-14
 -1       373 1.15431E-02-1.02325E-03-8.23513E-14
 -1       374 1.19016E-02-1.23124E-03-8.58863E-14
 -1       375 1.22452E-02-1.42244E-03-8.94721E-14
 -1       376 1.25700E-02-1.53916E-03-9.31132E-14
 -1       377 1.28858E-02-1.54097E-03-9.68119E-14
 -1       378 1.32074E-02-1.43534E-03-1.00572E-13
 -1       379 1.35392E-02-1.26813E-03-1.04384E-13
 -1       380 1.38727E-02-1.08463E-03-1.08235E-13
 -1       381 1.41976E-02-9.07093E-04-1.12115E-13
 -1       382 1.44678E-02-7.56460E-04-1.15603E-13
 -1       383 1.11008E-03 4.47832E-04-7.22871E-16
 -1       384 1.39087E-03 5.00915E-04-1.21565E-15
 -1       385 1.66921E-03 5.38557E-04-1.83823E-15
 -1       386 1.94665E-03 5.64883E-04-2.58963E-15
 -1       387 2.22411E-03 5.82906E-04-3.46777E-15
 -1       388 2.50214E-03 5.94865E-04-4.47014E-15
 -1       389 2.78099E-03 6.02443E-04-5.59500E-15
 -1       390 3.06078E-03 6.06901E-04-6.84161E-15
 -1       391 3.34149E-03 6.09178E-04-8.20704E-15
 -1       392 3.62307E-03 6.09960E-04-9.68884E-15
 -1       393 3.90543E-03 6.09735E-04-1.12868E-14
 -1       394 4.18845E-03 6.08838E-04-1.29994E-14
 -1       395 4.47204E-03 6.07486E-04-1.48266E-14
 -1       396 4.75611E-03 6.05800E-04-1.67642E-14
 -1       397 5.04061E-03 6.03831E-04-1.88120E-14
 -1       398 5.32548E-03 6.01578E-04-2.09695E-14
 -1       399 5.61071E-03 5.98995E-04-2.32383E-14
 -1       400 5.89634E-03 5.96010E-04-2.56158E-14
 -1       401 6.18242E-03 5.92536E-04-2.80895E-14
 -1       402 6.46906E-03 5.88483E-04-3.06564E-14
 -1       403 6.75642E-03 5.83776E-04-3.33083E-14
 -1       404 7.04470E-03 5.78380E-04-3.60454E-14
 -1       405 7.33420E-03 5.72329E-04-3.88718E-14
 -1       406 7.62523E-03 5.65773E-04-4.17803E-14
 -1       407 7.91822E-03 5.59030E-04-4.47684E-14
 -1       408 8.21361E-03 5.52660E-04-4.78316E-14
 -1       409 8.51190E-03 5.47550E-04-5.09681E-14
 -1       410 8.81356E-03 5.45013E-04-5.41701E-14
 -1       411 9.11901E-03 5.46867E-04-5.74357E-14
 -1       412 9.42848E-03 5.55483E-04-6.07605E-14
 -1       413 9.74190E-03 5.73718E-04-6.41360E-14
 -1       414 1.00587E-02 6.04639E-04-6.75693E-14
 -1       415 1.03776E-02 6.50894E-04-7.10597E-14
 -1       416 1.06963E-02 7.13610E-04-7.46073E-14
 -1       417 1.10116E-02 7.90782E-04-7.82126E-14
 -1       418 1.13197E-02 8.75523E-04-8.18702E-14
 -1       419 1.16170E-02 9.55087E-04-8.55864E-14
 -1       420 1.19014E-02 1.01206E-03-8.93524E-14
 -1       421 1.21746E-02 1.02863E-03-9.31705E-14
 -1       422 1.24412E-02 9.92787E-04-9.70355E-14
 -1       423 1.27073E-02 9.02965E-04-1.00950E-13
 -1       424 1.29777E-02 7.67710E-04-1.04906E-13
 -1       425 1.32539E-02 6.00817E-04-1.08904E-13
 -1       426 1.35349E-02 4.15503E-04-1.12949E-13
 -1       427 1.38186E-02 2.21233E-04-1.17026E-13
 -1       428 1.40149E-02 8.81521E-05-1.19654E-13
 -1       429 1.44421E-02-1.02103E-04-1.18493E-13
 -1       430 1.42391E-02-8.73385E-06-1.18602E-13
 -1       431 1.41249E-02 4.10611E-05-1.19131E-13
 -1       432 1.46668E-02-1.93356E-04-1.18378E-13
 -1       433 1.49197E-02-2.79125E-04-1.18251E-13
 -1       434 1.51800E-02-3.48243E-04-1.18121E-13
 -1       435 1.54109E-02-3.91546E-04-1.17979E-13
 -1       436 1.55616E-02-4.07946E-04-1.17830E-13
 -1       437 1.55911E-02-4.10607E-04-1.17676E-13
 -1       438 1.54965E-02-4.21051E-04-1.17522E-13
 -1       439 1.53082E-02-4.55367E-04-1.17371E-13
 -1       440 1.50763E-02-5.15355E-04-1.17213E-13
 -1       441 1.48404E-02-5.92769E-04-1.17058E-13
 -1       442 1.47847E-02-2.09174E-04-1.05992E-13
 -1       443 1.51708E-02-3.86454E-04-1.06681E-13
 -1       444 1.50428E-02-3.08640E-04-1.06769E-13
 -1       445 1.43061E-02-1.41710E-05-1.04794E-13
 -1       446 1.38607E-02 2.17772E-04-1.02873E-13
 -1       447 4.45681E-04-1.26402E-04-2.16298E-16
 -1       448 1.30182E-02 6.66599E-04-9.80901E-14
 -1       449 1.25917E-02 7.80444E-04-9.49266E-14
 -1       450 1.23066E-02 7.60850E-04-9.27665E-14
 -1       451 1.19094E-02 6.21886E-04-9.01183E-14
 -1       452 1.15405E-02 4.36503E-04-8.78957E-14
 -1       453 1.11403E-02 2.29892E-04-8.60628E-14
 -1       454 1.08315E-02 8.24737E-05-8.48920E-14
 -1       455 1.04919E-02-6.83618E-05-8.36438E-14
 -1       456 1.03179E-02-1.48706E-04-8.29119E-14
 -1       457 1.02732E-02-2.23310E-04-8.26303E-14
 -1       458 1.03857E-02-2.89617E-04-8.29871E-14
 -1       459 1.06992E-02-4.38807E-04-8.40911E-14
 -1       460 1.10622E-02-6.23624E-04-8.53002E-14
 -1       461 1.14800E-02-8.79414E-04-8.72398E-14
 -1       462 1.18511E-02-1.10849E-03-8.90779E-14
 -1       463 1.22467E-02-1.32461E-03-9.14204E-14
 -1       464 1.25508E-02-1.42654E-03-9.34837E-14
 -1       465 1.29548E-02-1.42467E-03-9.63830E-14
 -1       466 1.32650E-02-1.31964E-03-9.84162E-14
 -1       467 1.37113E-02-1.09120E-03-1.01140E-13
 -1       468 1.41223E-02-8.89901E-04-1.02653E-13
 -1       469 1.45188E-02-6.92469E-04-1.04315E-13
 -1       470 1.48587E-02-5.40038E-04-1.05716E-13
 -1       471 1.51019E-02-4.43399E-04-1.06204E-13
 -1       472 1.33494E-02 5.01480E-04-1.00234E-13
 -1       473 1.51634E-02-3.62212E-04-1.08196E-13
 -1       474 1.02461E-02-1.82912E-04-8.14137E-14
 -1       475 9.31314E-04 3.46025E-04-6.11802E-16
 -1       476 6.65801E-04-7.51263E-05-5.07400E-16
 -1       477 6.69777E-04-1.15883E-04-4.97340E-16
 -1       478 6.63121E-04 1.10419E-06-5.11272E-16
 -1       479 6.63843E-04 3.87621E-05-5.06326E-16
 -1       480 6.65988E-04 7.68124E-05-4.96487E-16
 -1       481 6.70089E-04 1.17721E-04-4.81074E-16
 -1       482 6.77113E-04 1.62337E-04-4.58130E-16
 -1       483 6.89042E-04 2.12701E-04-4.23703E-16
 -1       484 1.21722E-03 4.06526E-04-1.06062E-15
 -1       485 9.76347E-04-3.28609E-04-7.81784E-16
 -1       486 7.12681E-04-2.51720E-04-4.39146E-16
 -1       487 1.35694E-02 3.46103E-04-1.02813E-13
 -1       488 1.26227E-03-3.83510E-04-1.29277E-15
 -1       489 1.54731E-03-4.23284E-04-1.93434E-15
 -1       490 1.83145E-03-4.51380E-04-2.70581E-15
 -1       491 2.11501E-03-4.70699E-04-3.60586E-15
 -1       492 2.39829E-03-4.83535E-04-4.63266E-15
 -1       493 2.68156E-03-4.91660E-04-5.78497E-15
 -1       494 2.96495E-03-4.96422E-04-7.05870E-15
 -1       495 3.24858E-03-4.98832E-04-8.44820E-15
 -1       496 3.53247E-03-4.99632E-04-9.95142E-15
 -1       497 3.81665E-03-4.99355E-04-1.15632E-14
 -1       498 4.10109E-03-4.98368E-04-1.32848E-14
 -1       499 4.38577E-03-4.96909E-04-1.51131E-14
 -1       500 4.67068E-03-4.95117E-04-1.70430E-14
 -1       501 4.95580E-03-4.93055E-04-1.90728E-14
 -1       502 5.24111E-03-4.90724E-04-2.12037E-14
 -1       503 5.52662E-03-4.88080E-04-2.34329E-14
 -1       504 5.81235E-03-4.85042E-04-2.57589E-14
 -1       505 6.09831E-03-4.81505E-04-2.81837E-14
 -1       506 6.38456E-03-4.77346E-04-3.07106E-14
 -1       507 6.67117E-03-4.72442E-04-3.33347E-14
 -1       508 6.95823E-03-4.66677E-04-3.60552E-14
 -1       509 7.24587E-03-4.59972E-04-3.88619E-14
 -1       510 7.53423E-03-4.52313E-04-4.17520E-14
 -1       511 7.82349E-03-4.43799E-04-4.47164E-14
 -1       512 8.11385E-03-4.34705E-04-4.77480E-14
 -1       513 8.40556E-03-4.25580E-04-5.08402E-14
 -1       514 8.69893E-03-4.17375E-04-5.39864E-14
 -1       515 8.99434E-03-4.11617E-04-5.71775E-14
 -1       516 9.29238E-03-4.10643E-04-6.04145E-14
 -1       517 9.59397E-03-4.17882E-04-6.37023E-14
 -1       518 9.90068E-03-4.38194E-04-6.70302E-14
 -1       519 1.02151E-02-4.78195E-04-7.03977E-14
 -1       520 1.05413E-02-5.46478E-04-7.37991E-14
 -1       521 1.08841E-02-6.53258E-04-7.72339E-14
 -1       522 1.12474E-02-8.08238E-04-8.07067E-14
 -1       523 1.16285E-02-1.01241E-03-8.42182E-14
 -1       524 1.20143E-02-1.24236E-03-8.77781E-14
 -1       525 1.23864E-02-1.43315E-03-9.13960E-14
 -1       526 1.27437E-02-1.50477E-03-9.50692E-14
 -1       527 1.31025E-02-1.42975E-03-9.88088E-14
 -1       528 1.34746E-02-1.25980E-03-1.02605E-13
 -1       529 1.38498E-02-1.06696E-03-1.06441E-13
 -1       530 1.42079E-02-8.91240E-04-1.10306E-13
 -1       531 1.49463E-02-2.94171E-04-1.08410E-13
 -1       532 1.78411E-03 4.81144E-04-2.33834E-15
 -1       533 2.06613E-03 5.02540E-04-3.16619E-15
 -1       534 2.34789E-03 5.16917E-04-4.11694E-15
 -1       535 2.62975E-03 5.26188E-04-5.18972E-15
 -1       536 2.91191E-03 5.31802E-04-6.38340E-15
 -1       537 3.19447E-03 5.34846E-04-7.69621E-15
 -1       538 3.47747E-03 5.36120E-04-9.12421E-15
 -1       539 3.76091E-03 5.36203E-04-1.06684E-14
 -1       540 4.04475E-03 5.35495E-04-1.23264E-14
 -1       541 4.32896E-03 5.34264E-04-1.40985E-14
 -1       542 4.61349E-03 5.32671E-04-1.59821E-14
 -1       543 4.89830E-03 5.30795E-04-1.79742E-14
 -1       544 5.18339E-03 5.28654E-04-2.00745E-14
 -1       545 5.46873E-03 5.26217E-04-2.22840E-14
 -1       546 5.75434E-03 5.23418E-04-2.46040E-14
 -1       547 6.04024E-03 5.20171E-04-2.70258E-14
 -1       548 6.32651E-03 5.16375E-04-2.95425E-14
 -1       549 6.61322E-03 5.11937E-04-3.21501E-14
 -1       550 6.90051E-03 5.06786E-04-3.48428E-14
 -1       551 7.18852E-03 5.00900E-04-3.76223E-14
 -1       552 7.47747E-03 4.94342E-04-4.04880E-14
 -1       553 7.76760E-03 4.87311E-04-4.34353E-14
 -1       554 8.05923E-03 4.80195E-04-4.64569E-14
 -1       555 8.35270E-03 4.73658E-04-4.95540E-14
 -1       556 8.64844E-03 4.68725E-04-5.27227E-14
 -1       557 8.94693E-03 4.66880E-04-5.59531E-14
 -1       558 9.24868E-03 4.70145E-04-5.92418E-14
 -1       559 9.55424E-03 4.81117E-04-6.25821E-14
 -1       560 9.86411E-03 5.02871E-04-6.59774E-14
 -1       561 1.01786E-02 5.38647E-04-6.94302E-14
 -1       562 1.04973E-02 5.91124E-04-7.29366E-14
 -1       563 1.08191E-02 6.61132E-04-7.64977E-14
 -1       564 1.11411E-02 7.45668E-04-8.01107E-14
 -1       565 1.14589E-02 8.35635E-04-8.37811E-14
 -1       566 1.17680E-02 9.14666E-04-8.75074E-14
 -1       567 1.20660E-02 9.61386E-04-9.12843E-14
 -1       568 1.23555E-02 9.56364E-04-9.51068E-14
 -1       569 1.26427E-02 8.90971E-04-9.89841E-14
 -1       570 1.29334E-02 7.71093E-04-1.02904E-13
 -1       571 1.32295E-02 6.12470E-04-1.06864E-13
 -1       572 1.35285E-02 4.31914E-04-1.10870E-13
 -1       573 1.38261E-02 2.41108E-04-1.14920E-13
 -1       574 1.45169E-02-1.07791E-04-1.14845E-13
 -1       575 1.47889E-02-2.17712E-04-1.14734E-13
 -1       576 1.40718E-02 1.08211E-04-1.15045E-13
 -1       577 1.42781E-02 3.30219E-06-1.14949E-13
 -1       578 1.50680E-02-3.10262E-04-1.14613E-13
 -1       579 1.53002E-02-3.70110E-04-1.14478E-13
 -1       580 1.54125E-02-3.98933E-04-1.14334E-13
 -1       581 1.53662E-02-4.23522E-04-1.14191E-13
 -1       582 1.51855E-02-4.74519E-04-1.14046E-13
 -1       583 1.49395E-02-5.59581E-04-1.13898E-13
 -1       584 1.46877E-02-6.64934E-04-1.13746E-13
 -1       585 1.40581E-02 7.33504E-05-1.05589E-13
 -1       586 1.50135E-03 4.50222E-04-1.63611E-15
 -1       587 1.46092E-02-1.77254E-04-1.07693E-13
 -1       588 1.50468E-02-4.57682E-04-1.07934E-13
 -1       589 1.51737E-02-4.13052E-04-1.08418E-13
 -1       590 1.20738E-02-1.22925E-03-8.94958E-14
 -1       591 1.13209E-02 3.16384E-04-8.56348E-14
 -1       592 6.63732E-04-3.65179E-05-5.11716E-16
 -1       593 1.27575E-02 7.57986E-04-9.67446E-14
 -1       594 1.17404E-02 5.46182E-04-8.82429E-14
 -1       595 1.24230E-02 7.97478E-04-9.37182E-14
 -1       596 1.08585E-02-4.77767E-04-8.29677E-14
 -1       597 1.20723E-02 7.11594E-04-9.06313E-14
 -1       598 1.09622E-02 1.29327E-04-8.39801E-14
 -1       599 1.06337E-02-1.76245E-05-8.25630E-14
 -1       600 1.03756E-02-1.17043E-04-8.15657E-14
 -1       601 1.02813E-02-2.26619E-04-8.06367E-14
 -1       602 1.39597E-02-9.35793E-04-1.03356E-13
 -1       603 1.05127E-02-3.20036E-04-8.16936E-14
 -1       604 1.13088E-02-7.32562E-04-8.51210E-14
 -1       605 1.16909E-02-9.79459E-04-8.71568E-14
 -1       606 1.24128E-02-1.40163E-03-9.21813E-14
 -1       607 1.27241E-02-1.47208E-03-9.47887E-14
 -1       608 1.31045E-02-1.39014E-03-9.80266E-14
 -1       609 1.34708E-02-1.20839E-03-1.00739E-13
 -1       610 1.43224E-02-7.49212E-04-1.05021E-13
 -1       611 1.46690E-02-5.94861E-04-1.06428E-13
 -1       612 1.31365E-02 5.92752E-04-9.99350E-14
 -1       613 7.03861E-04 2.90884E-04-3.32643E-16
 -1       614 6.76586E-04-1.60112E-04-4.80112E-16
 -1       615 1.51208E-02-3.46219E-04-1.09837E-13
 -1       616 1.44314E-02-7.85357E-04-1.12932E-13
 -1       617 1.52406E-02-3.91689E-04-1.09934E-13
 -1       618 1.49153E-02-5.05185E-04-1.08645E-13
 -1       619 1.02512E-02-1.49031E-04-8.00716E-14
 -1       620 1.37215E-02-1.07149E-03-1.02949E-13
 -1       621 8.99730E-04 7.41121E-05-8.64356E-16
 -1       622 8.97636E-04 2.51783E-05-8.76062E-16
 -1       623 9.11825E-04 1.78229E-04-8.16496E-16
 -1       624 9.24211E-04 2.36797E-04-7.74944E-16
 -1       625 1.04892E-03 3.13924E-04-8.95063E-16
 -1       626 1.33466E-03 3.61568E-04-1.42511E-15
 -1       627 8.72365E-04-2.47157E-04-7.08069E-16
 -1       628 1.15616E-03-2.99421E-04-1.19626E-15
 -1       629 1.44190E-03-3.38853E-04-1.81301E-15
 -1       630 1.72822E-03-3.67432E-04-2.55685E-15
 -1       631 2.01456E-03-3.87458E-04-3.42663E-15
 -1       632 2.30074E-03-4.00983E-04-4.42128E-15
 -1       633 2.58674E-03-4.09696E-04-5.53982E-15
 -1       634 2.87261E-03-4.14931E-04-6.77866E-15
 -1       635 3.15837E-03-4.17711E-04-8.13436E-15
 -1       636 3.44407E-03-4.18797E-04-9.60299E-15
 -1       637 3.72974E-03-4.18745E-04-1.11808E-14
 -1       638 4.01539E-03-4.17942E-04-1.28669E-14
 -1       639 4.30104E-03-4.16644E-04-1.46603E-14
 -1       640 4.58670E-03-4.15009E-04-1.65569E-14
 -1       641 4.87238E-03-4.13111E-04-1.85567E-14
 -1       642 5.15808E-03-4.10968E-04-2.06567E-14
 -1       643 5.44381E-03-4.08546E-04-2.28549E-14
 -1       644 5.72956E-03-4.05779E-04-2.51512E-14
 -1       645 6.01535E-03-4.02573E-04-2.75464E-14
 -1       646 6.30118E-03-3.98814E-04-3.00410E-14
 -1       647 6.58704E-03-3.94387E-04-3.26363E-14
 -1       648 6.87293E-03-3.89179E-04-3.53270E-14
 -1       649 7.15884E-03-3.83106E-04-3.81060E-14
 -1       650 7.44475E-03-3.76137E-04-4.09695E-14
 -1       651 7.73061E-03-3.68332E-04-4.39104E-14
 -1       652 8.01636E-03-3.59891E-04-4.69244E-14
 -1       653 8.30194E-03-3.51228E-04-5.00029E-14
 -1       654 8.58724E-03-3.43057E-04-5.31368E-14
 -1       655 8.87225E-03-3.36512E-04-5.63164E-14
 -1       656 9.15707E-03-3.33282E-04-5.95415E-14
 -1       657 9.44218E-03-3.35786E-04-6.28165E-14
 -1       658 9.72880E-03-3.47385E-04-6.61365E-14
 -1       659 1.00196E-02-3.72719E-04-6.94988E-14
 -1       660 1.03194E-02-4.18321E-04-7.28940E-14
 -1       661 1.06363E-02-4.93849E-04-7.63250E-14
 -1       662 1.09817E-02-6.13668E-04-7.97915E-14
 -1       663 1.17173E-02-1.01333E-03-8.60769E-14
 -1       664 1.42248E-02-8.48439E-04-1.08502E-13
 -1       665 1.03372E-02-2.54494E-04-7.91225E-14
 -1       666 1.06234E-02-3.70699E-04-8.03716E-14
 -1       667 1.90573E-03 4.20772E-04-2.85821E-15
 -1       668 2.76019E-03 4.55591E-04-5.92251E-15
 -1       669 3.04487E-03 4.59569E-04-7.18324E-15
 -1       670 3.32961E-03 4.61493E-04-8.55926E-15
 -1       671 3.61446E-03 4.62023E-04-1.00507E-14
 -1       672 3.89942E-03 4.61624E-04-1.16562E-14
 -1       673 4.18451E-03 4.60617E-04-1.33753E-14
 -1       674 4.46971E-03 4.59202E-04-1.52052E-14
 -1       675 4.75503E-03 4.57493E-04-1.71420E-14
 -1       676 5.04046E-03 4.55530E-04-1.91880E-14
 -1       677 5.32600E-03 4.53305E-04-2.13414E-14
 -1       678 5.61165E-03 4.50766E-04-2.36025E-14
 -1       679 5.89743E-03 4.47834E-04-2.59699E-14
 -1       680 6.18336E-03 4.44412E-04-2.84346E-14
 -1       681 6.46947E-03 4.40398E-04-3.09950E-14
 -1       682 6.75580E-03 4.35700E-04-3.36433E-14
 -1       683 7.04244E-03 4.30257E-04-3.63772E-14
 -1       684 7.32946E-03 4.24065E-04-3.91985E-14
 -1       685 7.61699E-03 4.17214E-04-4.21043E-14
 -1       686 7.90519E-03 4.09940E-04-4.50879E-14
 -1       687 8.19431E-03 4.02682E-04-4.81455E-14
 -1       688 8.48466E-03 3.96164E-04-5.12777E-14
 -1       689 8.77671E-03 3.91477E-04-5.44763E-14
 -1       690 9.07110E-03 3.90178E-04-5.77289E-14
 -1       691 9.36874E-03 3.94376E-04-6.10364E-14
 -1       692 9.67083E-03 4.06780E-04-6.43960E-14
 -1       693 9.97882E-03 4.30662E-04-6.78126E-14
 -1       694 1.02942E-02 4.69617E-04-7.12827E-14
 -1       695 1.06180E-02 5.26885E-04-7.48023E-14
 -1       696 1.09494E-02 6.03863E-04-7.83729E-14
 -1       697 1.12850E-02 6.97268E-04-8.19960E-14
 -1       698 1.16181E-02 7.95285E-04-8.56811E-14
 -1       699 1.19417E-02 8.75454E-04-8.94133E-14
 -1       700 1.22536E-02 9.08872E-04-9.31940E-14
 -1       701 1.25595E-02 8.74324E-04-9.70283E-14
 -1       702 1.28688E-02 7.71023E-04-1.00911E-13
 -1       703 1.31862E-02 6.17809E-04-1.04838E-13
 -1       704 1.35081E-02 4.39171E-04-1.08813E-13
 -1       705 1.37897E-02 2.73852E-04-1.11923E-13
 -1       706 1.50146E-02-3.09204E-04-1.11626E-13
 -1       707 1.44651E-02-7.51228E-04-1.11119E-13
 -1       708 1.43550E-02-4.64593E-05-1.11342E-13
 -1       709 1.52592E-02-3.75236E-04-1.11938E-13
 -1       710 1.46633E-02-1.87056E-04-1.11240E-13
 -1       711 1.52800E-02-4.06987E-04-1.11367E-13
 -1       712 1.51330E-02-4.59009E-04-1.11452E-13
 -1       713 1.48655E-02-5.57511E-04-1.11308E-13
 -1       714 1.62037E-03 3.96255E-04-2.07983E-15
 -1       715 1.45342E-02-6.54406E-04-1.07437E-13
 -1       716 1.51775E-02-4.29668E-04-1.10238E-13
 -1       717 1.42098E-02-8.05646E-04-1.05762E-13
 -1       718 2.47551E-03 4.48659E-04-4.78067E-15
 -1       719 2.19073E-03 4.37576E-04-3.75946E-15
 -1       720 1.10739E-02 2.19446E-04-8.32216E-14
 -1       721 1.25565E-02 8.07866E-04-9.53125E-14
 -1       722 9.04186E-04 1.24618E-04-8.45146E-16
 -1       723 1.10627E-02-5.94378E-04-8.23367E-14
 -1       724 9.03815E-04-1.22205E-04-8.66742E-16
 -1       725 1.14981E-02 4.50874E-04-8.58353E-14
 -1       726 1.01805E-02-1.79571E-04-7.89053E-14
 -1       727 1.18179E-02 6.36391E-04-8.81466E-14
 -1       728 1.07474E-02 5.78986E-05-8.16576E-14
 -1       729 1.37957E-02 2.13620E-04-1.05766E-13
 -1       730 1.22137E-02 7.92606E-04-9.18446E-14
 -1       731 1.33411E-02 4.74667E-04-1.02528E-13
 -1       732 1.04469E-02-6.63264E-05-8.03758E-14
 -1       733 1.43954E-02-8.53631E-05-1.08916E-13
 -1       734 1.28971E-02 7.08256E-04-9.88200E-14
 -1       735 9.11215E-04-1.75586E-04-8.46694E-16
 -1       736 8.97573E-04-2.31579E-05-8.80274E-16
 -1       737 1.02830E-02-1.05839E-04-7.88899E-14
 -1       738 1.12948E-02-7.64386E-04-8.25479E-14
 -1       739 1.40981E-02 9.20111E-05-1.11433E-13
 -1       740 1.01670E-02-1.98710E-04-7.74037E-14
 -1       741 1.39321E-02 1.88576E-04-1.11680E-13
 -1       742 1.14839E-02-8.52834E-04-8.47052E-14
 -1       743 1.46571E-02-6.51470E-04-1.11214E-13
 -1       744 8.99522E-04-7.18266E-05-8.77543E-16
 -1       745 1.23687E-02 8.41191E-04-9.37592E-14
 -1       746 1.16155E-03 2.43676E-04-1.22914E-15
 -1       747 1.28325E-03-2.57289E-04-1.53640E-15
 -1       748 1.56929E-03-2.86462E-04-2.22539E-15
 -1       749 1.85660E-03-3.07592E-04-3.03890E-15
 -1       750 2.14441E-03-3.22293E-04-3.97533E-15
 -1       751 2.43232E-03-3.32071E-04-5.03492E-15
 -1       752 2.72011E-03-3.38203E-04-6.21502E-15
 -1       753 3.00769E-03-3.41709E-04-7.51328E-15
 -1       754 3.29502E-03-3.43375E-04-8.92402E-15
 -1       755 3.58210E-03-3.43784E-04-1.04459E-14
 -1       756 3.86895E-03-3.43355E-04-1.20761E-14
 -1       757 4.15558E-03-3.42377E-04-1.38129E-14
 -1       758 4.44203E-03-3.41033E-04-1.56551E-14
 -1       759 4.72831E-03-3.39426E-04-1.76003E-14
 -1       760 5.01445E-03-3.37596E-04-1.96495E-14
 -1       761 5.30044E-03-3.35535E-04-2.17968E-14
 -1       762 5.58630E-03-3.33199E-04-2.40418E-14
 -1       763 5.87201E-03-3.30514E-04-2.63875E-14
 -1       764 6.15754E-03-3.27388E-04-2.88318E-14
 -1       765 6.44285E-03-3.23721E-04-3.13759E-14
 -1       766 6.72786E-03-3.19413E-04-3.40185E-14
 -1       767 7.01247E-03-3.14382E-04-3.67513E-14
 -1       768 7.29656E-03-3.08584E-04-3.95702E-14
 -1       769 7.57994E-03-3.02041E-04-4.24716E-14
 -1       770 7.86237E-03-2.94877E-04-4.54478E-14
 -1       771 8.14356E-03-2.87369E-04-4.84959E-14
 -1       772 8.42314E-03-2.80004E-04-5.16075E-14
 -1       773 8.70074E-03-2.73542E-04-5.47684E-14
 -1       774 8.97596E-03-2.69093E-04-5.79748E-14
 -1       775 9.24858E-03-2.68174E-04-6.12296E-14
 -1       776 9.51877E-03-2.72776E-04-6.45284E-14
 -1       777 9.78756E-03-2.85480E-04-6.78723E-14
 -1       778 1.00577E-02-3.09862E-04-7.12570E-14
 -1       779 1.03348E-02-3.51455E-04-7.46727E-14
 -1       780 1.06301E-02-4.21379E-04-7.81248E-14
 -1       781 2.60670E-03 3.78481E-04-5.46045E-15
 -1       782 2.89344E-03 3.83397E-04-6.67016E-15
 -1       783 3.75268E-03 3.87099E-04-1.09887E-14
 -1       784 4.03883E-03 3.86409E-04-1.26554E-14
 -1       785 4.32489E-03 3.85261E-04-1.44322E-14
 -1       786 4.61087E-03 3.83799E-04-1.63162E-14
 -1       787 4.89679E-03 3.82091E-04-1.83072E-14
 -1       788 5.18264E-03 3.80150E-04-2.04061E-14
 -1       789 5.46845E-03 3.77945E-04-2.26123E-14
 -1       790 5.75421E-03 3.75413E-04-2.49232E-14
 -1       791 6.03991E-03 3.72466E-04-2.73364E-14
 -1       792 6.32555E-03 3.69009E-04-2.98459E-14
 -1       793 6.61113E-03 3.64940E-04-3.24472E-14
 -1       794 6.89663E-03 3.60176E-04-3.51356E-14
 -1       795 7.18204E-03 3.54665E-04-3.79124E-14
 -1       796 7.46739E-03 3.48415E-04-4.07763E-14
 -1       797 7.75270E-03 3.41531E-04-4.37217E-14
 -1       798 8.03808E-03 3.34255E-04-4.67420E-14
 -1       799 8.32371E-03 3.27026E-04-4.98365E-14
 -1       800 8.60993E-03 3.20548E-04-5.30020E-14
 -1       801 8.89732E-03 3.15870E-04-5.62259E-14
 -1       802 9.18682E-03 3.14484E-04-5.94985E-14
 -1       803 9.47987E-03 3.18437E-04-6.28255E-14
 -1       804 9.77854E-03 3.30468E-04-6.62065E-14
 -1       805 1.00856E-02 3.54149E-04-6.96398E-14
 -1       806 1.04040E-02 3.93922E-04-7.31249E-14
 -1       807 1.07363E-02 4.54695E-04-7.66553E-14
 -1       808 1.10826E-02 5.40002E-04-8.02358E-14
 -1       809 1.14377E-02 6.47502E-04-8.38715E-14
 -1       810 1.17905E-02 7.59902E-04-8.75604E-14
 -1       811 1.24556E-02 8.57545E-04-9.50886E-14
 -1       812 1.27821E-02 7.78191E-04-9.89332E-14
 -1       813 1.31195E-02 6.28570E-04-1.02828E-13
 -1       814 1.34657E-02 4.45923E-04-1.06774E-13
 -1       815 1.36991E-02 3.15798E-04-1.09223E-13
 -1       816 1.13822E-03 5.90591E-05-1.32936E-15
 -1       817 1.08119E-02 1.50160E-04-8.05897E-14
 -1       818 1.05108E-02 6.17631E-06-7.91964E-14
 -1       819 1.15266E-02 5.51282E-04-8.52682E-14
 -1       820 1.26662E-02 8.00078E-04-9.70340E-14
 -1       821 1.01501E-02-1.45512E-04-7.77345E-14
 -1       822 1.44115E-02-7.34116E-04-1.08488E-13
 -1       823 1.19394E-02 7.56355E-04-8.91005E-14
 -1       824 3.46641E-03 3.87093E-04-9.43489E-15
 -1       825 3.18001E-03 3.86031E-04-7.99484E-15
 -1       826 2.03274E-03 3.57735E-04-3.39837E-15
 -1       827 2.31978E-03 3.70335E-04-4.37002E-15
 -1       828 1.03579E-02-2.97944E-04-7.68977E-14
 -1       829 1.24623E-03 3.00849E-04-1.33116E-15
 -1       830 1.11729E-02 3.49557E-04-8.26592E-14
 -1       831 1.31131E-02 6.12577E-04-1.01678E-13
 -1       832 1.35547E-02 3.66223E-04-1.05530E-13
 -1       833 1.13685E-03 1.19591E-06-1.34057E-15
 -1       834 1.14975E-03 1.79108E-04-1.27579E-15
 -1       835 1.14199E-03-1.15204E-04-1.33330E-15
 -1       836 1.14922E-03-1.76149E-04-1.31341E-15
 -1       837 1.01488E-02-2.30318E-04-7.51958E-14
 -1       838 1.00801E-02-1.64100E-04-7.62396E-14
 -1       839 1.21315E-02 8.43135E-04-9.12966E-14
 -1       840 1.03251E-02-4.46329E-05-7.77183E-14
 -1       841 1.14233E-03 1.17815E-04-1.30837E-15
 -1       842 1.53228E-03 3.35564E-04-1.96512E-15
 -1       843 1.78229E-03 3.49868E-04-2.63358E-15
 -1       844 1.13805E-03-5.65206E-05-1.34210E-15
 -1       845 1.12212E-02 4.75611E-04-8.21947E-14
 -1       846 1.70111E-03-2.30019E-04-2.65904E-15
 -1       847 1.98932E-03-2.44648E-04-3.53792E-15
 -1       848 2.27827E-03-2.54701E-04-4.53844E-15
 -1       849 2.56744E-03-2.61252E-04-5.65981E-15
 -1       850 2.85650E-03-2.65217E-04-6.89985E-15
 -1       851 3.14529E-03-2.67331E-04-8.25412E-15
 -1       852 3.43371E-03-2.68159E-04-9.72025E-15
 -1       853 3.72175E-03-2.68117E-04-1.12940E-14
 -1       854 4.00941E-03-2.67499E-04-1.29753E-14
 -1       855 4.29671E-03-2.66502E-04-1.47623E-14
 -1       856 4.58367E-03-2.65245E-04-1.66535E-14
 -1       857 4.87033E-03-2.63787E-04-1.86488E-14
 -1       858 5.15670E-03-2.62143E-04-2.07453E-14
 -1       859 5.44279E-03-2.60289E-04-2.29393E-14
 -1       860 5.72856E-03-2.58178E-04-2.52345E-14
 -1       861 6.01399E-03-2.55741E-04-2.76286E-14
 -1       862 6.29900E-03-2.52901E-04-3.01225E-14
 -1       863 6.58349E-03-2.49580E-04-3.27150E-14
 -1       864 6.86729E-03-2.45709E-04-3.54006E-14
 -1       865 7.15022E-03-2.41247E-04-3.81754E-14
 -1       866 7.43200E-03-2.36203E-04-4.10330E-14
 -1       867 7.71230E-03-2.30658E-04-4.39713E-14
 -1       868 7.99069E-03-2.24807E-04-4.69842E-14
 -1       869 8.26663E-03-2.18993E-04-5.00692E-14
 -1       870 8.53952E-03-2.13745E-04-5.32079E-14
 -1       871 8.80863E-03-2.09816E-04-5.63989E-14
 -1       872 9.07316E-03-2.08190E-04-5.96364E-14
 -1       873 9.33234E-03-2.10063E-04-6.29154E-14
 -1       874 9.58551E-03-2.16785E-04-6.62386E-14
 -1       875 9.83240E-03-2.29903E-04-6.96054E-14
 -1       876 2.74116E-03 3.06633E-04-6.15668E-15
 -1       877 4.17923E-03 3.10754E-04-1.36634E-14
 -1       878 3.89222E-03 3.11567E-04-1.19390E-14
 -1       879 4.75248E-03 3.08226E-04-1.74330E-14
 -1       880 5.03877E-03 3.06637E-04-1.94779E-14
 -1       881 5.32485E-03 3.04832E-04-2.16298E-14
 -1       882 5.61072E-03 3.02768E-04-2.38868E-14
 -1       883 5.89635E-03 3.00378E-04-2.62483E-14
 -1       884 6.18173E-03 2.97574E-04-2.87073E-14
 -1       885 6.46679E-03 2.94265E-04-3.12597E-14
 -1       886 6.75148E-03 2.90358E-04-3.39003E-14
 -1       887 7.03571E-03 2.85775E-04-3.66311E-14
 -1       888 7.31941E-03 2.80471E-04-3.94537E-14
 -1       889 7.60249E-03 2.74451E-04-4.23591E-14
 -1       890 7.88491E-03 2.67805E-04-4.53418E-14
 -1       891 8.16670E-03 2.60737E-04-4.84014E-14
 -1       892 8.44798E-03 2.53615E-04-5.15299E-14
 -1       893 8.72912E-03 2.47021E-04-5.47220E-14
 -1       894 9.01083E-03 2.41829E-04-5.79683E-14
 -1       895 9.29432E-03 2.39304E-04-6.12624E-14
 -1       896 9.58156E-03 2.41282E-04-6.46083E-14
 -1       897 9.87556E-03 2.50463E-04-6.80103E-14
 -1       898 1.01805E-02 2.70916E-04-7.14580E-14
 -1       899 1.05015E-02 3.08665E-04-7.49545E-14
 -1       900 1.08440E-02 3.72406E-04-7.84942E-14
 -1       901 1.05267E-02 9.38140E-05-7.77228E-14
 -1       902 1.44666E-03 2.76929E-04-1.84230E-15
 -1       903 1.01518E-02-1.00785E-04-7.65727E-14
 -1       904 2.16418E-03 2.92129E-04-3.95901E-15
 -1       905 3.31731E-03 3.11444E-04-8.82069E-15
 -1       906 2.45270E-03 3.01023E-04-4.99842E-15
 -1       907 1.01145E-02-2.67945E-04-7.32232E-14
 -1       908 1.08223E-02 2.69386E-04-7.91531E-14
 -1       909 3.60492E-03 3.11883E-04-1.03233E-14
 -1       910 4.46597E-03 3.09610E-04-1.54952E-14
 -1       911 1.41449E-03-2.09668E-04-1.90244E-15
 -1       912 3.02938E-03 3.09870E-04-7.43116E-15
 -1       913 1.00192E-02-1.88026E-04-7.40457E-14
 -1       914 1.03381E-02 3.46205E-05-7.62539E-14
 -1       915 1.91218E-03 2.88821E-04-3.13441E-15
 -1       916 1.00302E-02-1.26877E-04-7.50893E-14
 -1       917 1.38415E-03 9.99955E-05-1.86802E-15
 -1       918 1.38385E-03-9.71025E-05-1.89382E-15
 -1       919 1.38098E-03 3.39763E-05-1.88881E-15
 -1       920 1.39019E-03-1.64236E-04-1.87659E-15
 -1       921 1.83671E-03-1.69503E-04-3.11218E-15
 -1       922 2.12577E-03-1.78652E-04-4.05390E-15
 -1       923 2.41562E-03-1.84821E-04-5.11538E-15
 -1       924 2.70568E-03-1.88728E-04-6.29564E-15
 -1       925 2.99559E-03-1.90977E-04-7.59259E-15
 -1       926 3.28516E-03-1.92050E-04-9.00226E-15
 -1       927 3.57427E-03-1.92314E-04-1.05207E-14
 -1       928 3.86289E-03-1.92034E-04-1.21465E-14
 -1       929 4.15102E-03-1.91397E-04-1.38780E-14
 -1       930 4.43868E-03-1.90521E-04-1.57156E-14
 -1       931 4.72591E-03-1.89472E-04-1.76564E-14
 -1       932 5.01272E-03-1.88280E-04-1.97011E-14
 -1       933 5.29912E-03-1.86940E-04-2.18456E-14
 -1       934 5.58510E-03-1.85427E-04-2.40877E-14
 -1       935 5.87061E-03-1.83698E-04-2.64311E-14
 -1       936 6.15556E-03-1.81703E-04-2.88741E-14
 -1       937 6.43985E-03-1.79387E-04-3.14160E-14
 -1       938 6.72330E-03-1.76704E-04-3.40560E-14
 -1       939 7.00568E-03-1.73627E-04-3.67837E-14
 -1       940 7.28669E-03-1.70164E-04-3.95994E-14
 -1       941 7.56594E-03-1.66380E-04-4.24975E-14
 -1       942 7.84295E-03-1.62419E-04-4.54738E-14
 -1       943 8.11714E-03-1.58536E-04-4.85221E-14
 -1       944 8.38779E-03-1.55125E-04-5.16401E-14
 -1       945 8.65403E-03-1.52734E-04-5.48118E-14
 -1       946 8.91481E-03-1.52072E-04-5.80329E-14
 -1       947 9.16886E-03-1.53972E-04-6.12969E-14
 -1       948 9.41458E-03-1.59308E-04-6.45996E-14
 -1       949 9.64978E-03-1.68837E-04-6.79477E-14
 -1       950 2.29942E-03 2.24056E-04-4.53898E-15
 -1       951 3.74505E-03 2.36102E-04-1.12240E-14
 -1       952 1.61271E-03-1.68829E-04-2.45743E-15
 -1       953 5.18098E-03 2.31313E-04-2.06554E-14
 -1       954 4.89453E-03 2.32668E-04-1.85572E-14
 -1       955 5.75280E-03 2.27980E-04-2.51673E-14
 -1       956 6.03811E-03 2.25890E-04-2.75751E-14
 -1       957 6.32292E-03 2.23418E-04-3.00788E-14
 -1       958 6.60715E-03 2.20478E-04-3.26714E-14
 -1       959 6.89066E-03 2.16988E-04-3.53581E-14
 -1       960 7.17330E-03 2.12874E-04-3.81347E-14
 -1       961 7.45488E-03 2.08083E-04-4.09999E-14
 -1       962 7.73525E-03 2.02599E-04-4.39466E-14
 -1       963 8.01425E-03 1.96460E-04-4.69679E-14
 -1       964 8.29180E-03 1.89779E-04-5.00610E-14
 -1       965 8.56797E-03 1.82774E-04-5.32207E-14
 -1       966 8.84306E-03 1.75804E-04-5.64383E-14
 -1       967 9.11776E-03 1.69429E-04-5.97056E-14
 -1       968 9.39340E-03 1.64532E-04-6.30201E-14
 -1       969 9.67224E-03 1.62568E-04-6.63866E-14
 -1       970 9.95797E-03 1.66071E-04-6.98007E-14
 -1       971 1.02563E-02 1.79699E-04-7.32617E-14
 -1       972 1.04775E-02 1.89360E-04-7.58330E-14
 -1       973 9.90081E-03-1.95145E-04-7.15519E-14
 -1       974 5.46707E-03 2.29766E-04-2.28593E-14
 -1       975 4.03302E-03 2.35648E-04-1.28977E-14
 -1       976 3.45664E-03 2.36057E-04-9.66078E-15
 -1       977 1.39073E-03 1.67495E-04-1.83385E-15
 -1       978 1.01519E-02-3.74429E-05-7.51258E-14
 -1       979 2.58902E-03 2.29821E-04-5.64564E-15
 -1       980 3.16779E-03 2.35258E-04-8.20812E-15
 -1       981 2.87855E-03 2.33343E-04-6.86920E-15
 -1       982 1.67896E-03 2.85760E-04-2.44638E-15
 -1       983 1.38089E-03-3.13284E-05-1.89736E-15
 -1       984 1.62922E-03 7.32167E-05-2.52080E-15
 -1       985 1.63442E-03 1.45838E-04-2.48745E-15
 -1       986 9.91816E-03-1.49400E-04-7.29100E-14
 -1       987 4.60773E-03 2.33855E-04-1.65645E-14
 -1       988 1.03090E-02 1.08385E-04-7.47617E-14
 -1       989 2.01012E-03 2.15243E-04-3.54971E-15
 -1       990 4.32057E-03 2.34864E-04-1.46780E-14
 -1       991 1.65487E-03 2.14775E-04-2.47514E-15
 -1       992 9.99434E-03-7.66794E-05-7.36558E-14
 -1       993 1.62902E-03-7.01811E-05-2.54292E-15
 -1       994 5.32336E-03 1.56296E-04-2.18413E-14
 -1       995 3.88662E-03 1.59984E-04-1.21359E-14
 -1       996 1.97569E-03-1.05087E-04-3.58281E-15
 -1       997 2.26554E-03-1.09785E-04-4.58415E-15
 -1       998 2.55605E-03-1.12871E-04-5.70424E-15
 -1       999 2.84667E-03-1.14750E-04-6.94101E-15
 -1      1000 3.13706E-03-1.15747E-04-8.29271E-15
 -1      1001 3.42702E-03-1.16127E-04-9.75580E-15
 -1      1002 3.71644E-03-1.16086E-04-1.13260E-14
 -1      1003 4.00531E-03-1.15766E-04-1.30016E-14
 -1      1004 4.29361E-03-1.15260E-04-1.47837E-14
 -1      1005 4.58139E-03-1.14627E-04-1.66723E-14
 -1      1006 4.86865E-03-1.13896E-04-1.86628E-14
 -1      1007 5.15541E-03-1.13076E-04-2.07562E-14
 -1      1008 5.44167E-03-1.12158E-04-2.29488E-14
 -1      1009 5.72739E-03-1.11123E-04-2.52409E-14
 -1      1010 6.01250E-03-1.09945E-04-2.76321E-14
 -1      1011 6.29687E-03-1.08597E-04-3.01228E-14
 -1      1012 6.58034E-03-1.07056E-04-3.27135E-14
 -1      1013 6.86268E-03-1.05316E-04-3.53983E-14
 -1      1014 7.14359E-03-1.03393E-04-3.81714E-14
 -1      1015 7.42269E-03-1.01345E-04-4.10270E-14
 -1      1016 7.69951E-03-9.92900E-05-4.39625E-14
 -1      1017 7.97347E-03-9.74238E-05-4.69765E-14
 -1      1018 8.24389E-03-9.60471E-05-5.00638E-14
 -1      1019 8.50992E-03-9.55829E-05-5.32142E-14
 -1      1020 8.77052E-03-9.65849E-05-5.64184E-14
 -1      1021 9.02442E-03-9.97217E-05-5.96631E-14
 -1      1022 9.26989E-03-1.05730E-04-6.29518E-14
 -1      1023 9.50452E-03-1.15292E-04-6.62821E-14
 -1      1024 5.03695E-03 1.57303E-04-1.96900E-14
 -1      1025 6.17954E-03 1.52163E-04-2.89024E-14
 -1      1026 5.89472E-03 1.53776E-04-2.64505E-14
 -1      1027 6.74686E-03 1.47909E-04-3.40905E-14
 -1      1028 7.02900E-03 1.45117E-04-3.68247E-14
 -1      1029 7.30983E-03 1.41781E-04-3.96471E-14
 -1      1030 7.58907E-03 1.37829E-04-4.25552E-14
 -1      1031 7.86645E-03 1.33197E-04-4.55381E-14
 -1      1032 8.14168E-03 1.27838E-04-4.85950E-14
 -1      1033 8.41454E-03 1.21724E-04-5.17201E-14
 -1      1034 8.68491E-03 1.14859E-04-5.49096E-14
 -1      1035 8.95289E-03 1.07297E-04-5.81505E-14
 -1      1036 9.21890E-03 9.91822E-05-6.14382E-14
 -1      1037 9.48394E-03 9.08826E-05-6.47751E-14
 -1      1038 9.75003E-03 8.33387E-05-6.81528E-14
 -1      1039 1.00206E-02 7.86001E-05-7.15788E-14
 -1      1040 2.72834E-03 1.56945E-04-6.31003E-15
 -1      1041 3.59778E-03 1.60119E-04-1.05152E-14
 -1      1042 2.43799E-03 1.53689E-04-5.13874E-15
 -1      1043 1.62747E-03 1.56525E-06-2.53867E-15
 -1      1044 9.76487E-03-1.37209E-04-7.02611E-14
 -1      1045 3.30841E-03 1.59815E-04-9.00141E-15
 -1      1046 2.14788E-03 1.48599E-04-4.08358E-15
 -1      1047 1.01276E-02 2.79682E-05-7.36494E-14
 -1      1048 3.01856E-03 1.58857E-04-7.59853E-15
 -1      1049 5.60930E-03 1.55134E-04-2.40960E-14
 -1      1050 6.46364E-03 1.50232E-04-3.14508E-14
 -1      1051 4.75008E-03 1.58184E-04-1.76433E-14
 -1      1052 1.97286E-03-2.69288E-05-3.58212E-15
 -1      1053 1.85863E-03 1.41098E-04-3.14584E-15
 -1      1054 4.17494E-03 1.59560E-04-1.38649E-14
 -1      1055 1.97340E-03 5.09391E-05-3.56439E-15
 -1      1056 9.95584E-03-2.23316E-05-7.21953E-14
 -1      1057 2.40829E-03-3.83499E-05-5.12681E-15
 -1      1058 2.69918E-03-3.91788E-05-6.30236E-15
 -1      1059 2.99002E-03-3.96362E-05-7.59404E-15
 -1      1060 3.28053E-03-3.98294E-05-8.99912E-15
 -1      1061 3.57053E-03-3.98395E-05-1.05137E-14
 -1      1062 3.85995E-03-3.97260E-05-1.21346E-14
 -1      1063 4.14876E-03-3.95304E-05-1.38612E-14
 -1      1064 4.43699E-03-3.92809E-05-1.56937E-14
 -1      1065 4.72465E-03-3.89925E-05-1.76325E-14
 -1      1066 5.01177E-03-3.86712E-05-1.96742E-14
 -1      1067 5.29834E-03-3.83201E-05-2.18160E-14
 -1      1068 5.58435E-03-3.79348E-05-2.40583E-14
 -1      1069 5.86972E-03-3.75118E-05-2.63978E-14
 -1      1070 6.15437E-03-3.70484E-05-2.88385E-14
 -1      1071 6.43814E-03-3.65475E-05-3.13798E-14
 -1      1072 6.72083E-03-3.60225E-05-3.40166E-14
 -1      1073 7.00215E-03-3.55043E-05-3.67457E-14
 -1      1074 7.28178E-03-3.50512E-05-3.95632E-14
 -1      1075 7.55928E-03-3.47610E-05-4.24594E-14
 -1      1076 7.83415E-03-3.47866E-05-4.54328E-14
 -1      1077 8.10579E-03-3.53534E-05-4.84855E-14
 -1      1078 8.37349E-03-3.67773E-05-5.16048E-14
 -1      1079 8.63642E-03-3.94805E-05-5.47873E-14
 -1      1080 8.89356E-03-4.39980E-05-5.80166E-14
 -1      1081 9.14363E-03-5.09688E-05-6.12876E-14
 -1      1082 9.38478E-03-6.10392E-05-6.46042E-14
 -1      1083 6.03657E-03 8.03164E-05-2.77356E-14
 -1      1084 9.86336E-03-1.09403E-04-7.20214E-14
 -1      1085 5.17967E-03 8.22933E-05-2.08318E-14
 -1      1086 5.75156E-03 8.10949E-05-2.53350E-14
 -1      1087 7.16700E-03 7.49470E-05-3.82999E-14
 -1      1088 6.88627E-03 7.67488E-05-3.55185E-14
 -1      1089 7.72287E-03 6.99212E-05-4.41094E-14
 -1      1090 7.99720E-03 6.64625E-05-4.71292E-14
 -1      1091 8.26856E-03 6.21700E-05-5.02214E-14
 -1      1092 8.53651E-03 5.68455E-05-5.33794E-14
 -1      1093 8.80062E-03 5.02482E-05-5.65930E-14
 -1      1094 9.06056E-03 4.20986E-05-5.98558E-14
 -1      1095 9.31608E-03 3.21082E-05-6.31654E-14
 -1      1096 9.56709E-03 2.01899E-05-6.65153E-14
 -1      1097 9.79708E-03-6.52148E-05-7.05786E-14
 -1      1098 4.46275E-03 1.58942E-04-1.57003E-14
 -1      1099 3.74047E-03 8.38843E-05-1.13807E-14
 -1      1100 2.57951E-03 8.12919E-05-5.75761E-15
 -1      1101 2.28345E-03 7.01006E-05-4.62326E-15
 -1      1102 3.45092E-03 8.38168E-05-9.80899E-15
 -1      1103 2.87029E-03 8.26803E-05-6.99342E-15
 -1      1104 2.19031E-03-3.26418E-05-4.32097E-15
 -1      1105 5.46590E-03 8.17435E-05-2.30339E-14
 -1      1106 9.85995E-03 3.08439E-05-7.01720E-14
 -1      1107 9.65052E-03-8.08308E-05-6.85184E-14
 -1      1108 6.60411E-03 7.81983E-05-3.28301E-14
 -1      1109 3.16083E-03 8.34609E-05-8.34563E-15
 -1      1110 7.44600E-03 7.27063E-05-4.11662E-14
 -1      1111 6.32080E-03 7.93675E-05-3.02349E-14
 -1      1112 4.89291E-03 8.27648E-05-1.87305E-14
 -1      1113 4.02943E-03 8.37600E-05-1.30576E-14
 -1      1114 4.58092E-03 3.63828E-05-1.66057E-14
 -1      1115 9.62825E-03-2.19164E-05-6.77400E-14
 -1      1116 4.30536E-03 6.00049E-05-1.47841E-14
 -1      1117 0.00000E+00 0.00000E+00 0.00000E+00
 -1      1118 0.00000E+00 0.00000E+00 0.00000E+00
 -1      1119 0.00000E+00 0.00000E+00 0.00000E+00
 -1      1120 0.00000E+00 0.00000E+00 0.00000E+00
 -1      1121 0.00000E+00 0.00000E+00 0.00000E+00
 -1      1122 0.00000E+00 0.00000E+00 0.00000E+00
 -1      1123 0.00000E+00 0.00000E+00 0.00000E+00
 -1      1124 0.00000E+00 0.00000E+00 0.00000E+00
 -1      1125 0.00000E+00 0.00000E+00 0.00000E+00
 -1      1126 0.00000E+00 0.00000E+00 0.00000E+00
 -1      1127 0.00000E+00 0.00000E+00 0.00000E+00
 -1      1128 0.00000E+00 0.00000E+00 0.00000E+00
 -1      1129 0.00000E+00 0.00000E+00 0.00000E+00
 -1      1130 0.00000E+00 0.00000E+00 0.00000E+00
 -1      1131 0.00000E+00 0.00000E+00 0.00000E+00
 -1      1132 0.00000E+00 0.00000E+00 0.00000E+00
 -1      1133 0.00000E+00 0.00000E+00 0.00000E+00
 -1      1134 2.11679E-04-1.48333E-04 1.95970E-17
 -1      1135 5.51677E-04-3.37509E-04-2.70508E-17
 -1      1136 8.33534E-04-4.58998E-04-2.01526E-16
 -1      1137 1.10316E-03-5.40686E-04-5.23643E-16
 -1      1138 1.36862E-03-5.97952E-04-9.87234E-16
 -1      1139 1.63349E-03-6.38689E-04-1.59135E-15
 -1      1140 1.89962E-03-6.67550E-04-2.33284E-15
 -1      1141 2.16785E-03-6.87658E-04-3.21147E-15
 -1      1142 2.43848E-03-7.01303E-04-4.22820E-15
 -1      1143 2.71150E-03-7.10216E-04-5.37930E-15
 -1      1144 2.98674E-03-7.15707E-04-6.65823E-15
 -1      1145 3.26396E-03-7.18763E-04-8.05783E-15
 -1      1146 3.54288E-03-7.20118E-04-9.56883E-15
 -1      1147 3.82322E-03-7.20304E-04-1.11932E-14
 -1      1148 4.10471E-03-7.19693E-04-1.29256E-14
 -1      1149 4.38714E-03-7.18536E-04-1.47626E-14
 -1      1150 4.67031E-03-7.16984E-04-1.67043E-14
 -1      1151 4.95406E-03-7.15115E-04-1.87462E-14
 -1      1152 5.23828E-03-7.12946E-04-2.08863E-14
 -1      1153 5.52293E-03-7.10452E-04-2.31233E-14
 -1      1154 5.80799E-03-7.07570E-04-2.54569E-14
 -1      1155 6.09350E-03-7.04219E-04-2.78877E-14
 -1      1156 6.37960E-03-7.00302E-04-3.04157E-14
 -1      1157 6.66649E-03-6.95725E-04-3.30430E-14
 -1      1158 6.95447E-03-6.90411E-04-3.57680E-14
 -1      1159 7.24397E-03-6.84325E-04-3.85838E-14
 -1      1160 7.53558E-03-6.77509E-04-4.14835E-14
 -1      1161 7.83009E-03-6.70129E-04-4.44554E-14
 -1      1162 8.12850E-03-6.62552E-04-4.74953E-14
 -1      1163 8.43208E-03-6.55447E-04-5.05936E-14
 -1      1164 8.74241E-03-6.49939E-04-5.37379E-14
 -1      1165 9.06135E-03-6.47820E-04-5.69292E-14
 -1      1166 9.39094E-03-6.51835E-04-6.01653E-14
 -1      1167 9.73320E-03-6.66030E-04-6.34456E-14
 -1      1168 1.00896E-02-6.96088E-04-6.67713E-14
 -1      1169 1.04599E-02-7.49427E-04-7.01274E-14
 -1      1170 1.08413E-02-8.34517E-04-7.35100E-14
 -1      1171 1.12258E-02-9.58544E-04-7.69267E-14
 -1      1172 1.15996E-02-1.12246E-03-8.03846E-14
 -1      1173 1.19448E-02-1.31390E-03-8.38824E-14
 -1      1174 1.22453E-02-1.50212E-03-8.74286E-14
 -1      1175 1.24976E-02-1.64283E-03-9.10281E-14
 -1      1176 1.27175E-02-1.69643E-03-9.46894E-14
 -1      1177 1.29339E-02-1.64969E-03-9.84122E-14
 -1      1178 1.31717E-02-1.52210E-03-1.02193E-13
 -1      1179 1.34389E-02-1.35039E-03-1.06021E-13
 -1      1180 1.37269E-02-1.16600E-03-1.09889E-13
 -1      1181 1.40208E-02-9.82527E-04-1.13779E-13
 -1      1182 1.43106E-02-7.97744E-04-1.17686E-13
 -1      1183 1.45884E-02-6.10679E-04-1.21519E-13
 -1      1184 2.28438E-04 1.60711E-04 2.93141E-17
 -1      1185 5.53850E-04 3.42141E-04 2.16840E-19
 -1      1186 8.34464E-04 4.61168E-04-1.50867E-16
 -1      1187 1.10405E-03 5.42375E-04-4.39739E-16
 -1      1188 1.36952E-03 5.99634E-04-8.63743E-16
 -1      1189 1.63444E-03 6.40459E-04-1.42178E-15
 -1      1190 1.90063E-03 6.69425E-04-2.11368E-15
 -1      1191 2.16890E-03 6.89652E-04-2.93412E-15
 -1      1192 2.43955E-03 7.03425E-04-3.88316E-15
 -1      1193 2.71259E-03 7.12470E-04-4.95930E-15
 -1      1194 2.98785E-03 7.18095E-04-6.15968E-15
 -1      1195 3.26507E-03 7.21287E-04-7.48167E-15
 -1      1196 3.54400E-03 7.22778E-04-8.92149E-15
 -1      1197 3.82434E-03 7.23100E-04-1.04804E-14
 -1      1198 4.10585E-03 7.22625E-04-1.21564E-14
 -1      1199 4.38828E-03 7.21604E-04-1.39510E-14
 -1      1200 4.67146E-03 7.20190E-04-1.58582E-14
 -1      1201 4.95522E-03 7.18462E-04-1.78741E-14
 -1      1202 5.23948E-03 7.16441E-04-2.00027E-14
 -1      1203 5.52415E-03 7.14105E-04-2.22469E-14
 -1      1204 5.80925E-03 7.11403E-04-2.46013E-14
 -1      1205 6.09483E-03 7.08267E-04-2.70512E-14
 -1      1206 6.38099E-03 7.04622E-04-2.95927E-14
 -1      1207 6.66794E-03 7.00408E-04-3.22263E-14
 -1      1208 6.95596E-03 6.95597E-04-3.49454E-14
 -1      1209 7.24543E-03 6.90224E-04-3.77493E-14
 -1      1210 7.53684E-03 6.84425E-04-4.06347E-14
 -1      1211 7.83081E-03 6.78486E-04-4.36015E-14
 -1      1212 8.12803E-03 6.72909E-04-4.66454E-14
 -1      1213 8.42931E-03 6.68491E-04-4.97652E-14
 -1      1214 8.73544E-03 6.66406E-04-5.29564E-14
 -1      1215 9.04712E-03 6.68295E-04-5.62146E-14
 -1      1216 9.36473E-03 6.76304E-04-5.95383E-14
 -1      1217 9.68806E-03 6.93050E-04-6.29117E-14
 -1      1218 1.00159E-02 7.21385E-04-6.63350E-14
 -1      1219 1.03457E-02 7.63864E-04-6.98233E-14
 -1      1220 1.06731E-02 8.21768E-04-7.33777E-14
 -1      1221 1.09921E-02 8.93680E-04-7.70010E-14
 -1      1222 1.12957E-02 9.73912E-04-8.06770E-14
 -1      1223 1.15778E-02 1.05154E-03-8.44036E-14
 -1      1224 1.18353E-02 1.11121E-03-8.81755E-14
 -1      1225 1.20707E-02 1.13638E-03-9.19943E-14
 -1      1226 1.22918E-02 1.11436E-03-9.58623E-14
 -1      1227 1.25097E-02 1.04071E-03-9.97830E-14
 -1      1228 1.27348E-02 9.20243E-04-1.03751E-13
 -1      1229 1.29733E-02 7.64101E-04-1.07771E-13
 -1      1230 1.32267E-02 5.84941E-04-1.11835E-13
 -1      1231 1.34931E-02 3.93348E-04-1.15934E-13
 -1      1232 1.37698E-02 1.97204E-04-1.20041E-13
 -1      1233 1.40463E-02 7.57647E-06-1.24045E-13
 -1      1234 1.42755E-02-1.25550E-04-1.25933E-13
 -1      1235 1.44598E-02-2.11662E-04-1.25828E-13
 -1      1236 1.46450E-02-3.03408E-04-1.25709E-13
 -1      1237 1.48414E-02-3.99003E-04-1.25583E-13
 -1      1238 1.50575E-02-4.90224E-04-1.25442E-13
 -1      1239 1.52923E-02-5.62821E-04-1.25282E-13
 -1      1240 1.55365E-02-6.01480E-04-1.25117E-13
 -1      1241 1.57659E-02-5.92905E-04-1.24951E-13
 -1      1242 1.59398E-02-5.34602E-04-1.24782E-13
 -1      1243 1.60213E-02-4.41774E-04-1.24591E-13
 -1      1244 1.59926E-02-3.43800E-04-1.24401E-13
 -1      1245 1.58659E-02-2.72108E-04-1.24237E-13
 -1      1246 1.56735E-02-2.44352E-04-1.24099E-13
 -1      1247 1.54504E-02-2.62716E-04-1.23944E-13
 -1      1248 1.52264E-02-3.17160E-04-1.23774E-13
 -1      1249 1.50152E-02-3.92597E-04-1.23616E-13
 -1      1250 1.48187E-02-4.75731E-04-1.23468E-13
 -1      1251 1.51412E-02-2.72563E-04-1.03294E-13
 -1      1252 1.49865E-02-8.53873E-05-1.02871E-13
 -1      1253 1.47088E-02 1.02918E-04-1.02074E-13
 -1      1254 1.43214E-02 2.96066E-04-1.00871E-13
 -1      1255 1.38833E-02 4.66560E-04-9.94209E-14
 -1      1256 1.34246E-02 5.99895E-04-9.77987E-14
 -1      1257 1.29302E-02 6.85046E-04-9.59407E-14
 -1      1258 1.24469E-02 7.07616E-04-9.40493E-14
 -1      1259 1.19923E-02 6.66070E-04-9.22472E-14
 -1      1260 1.15530E-02 5.72850E-04-9.05277E-14
 -1      1261 1.11566E-02 4.44344E-04-8.90266E-14
 -1      1262 1.08186E-02 2.98250E-04-8.77876E-14
 -1      1263 1.05495E-02 1.45235E-04-8.68324E-14
 -1      1264 1.03623E-02-1.07225E-05-8.61977E-14
 -1      1265 1.02745E-02-1.74887E-04-8.58965E-14
 -1      1266 1.03047E-02-3.46737E-04-8.59718E-14
 -1      1267 1.04534E-02-5.24183E-04-8.64301E-14
 -1      1268 1.07146E-02-7.17709E-04-8.72833E-14
 -1      1269 1.10550E-02-9.10022E-04-8.84333E-14
 -1      1270 1.14385E-02-1.08476E-03-8.97849E-14
 -1      1271 1.18651E-02-1.23382E-03-9.13533E-14
 -1      1272 1.23122E-02-1.33577E-03-9.30467E-14
 -1      1273 1.27768E-02-1.37515E-03-9.48269E-14
 -1      1274 1.32565E-02-1.34704E-03-9.66536E-14
 -1      1275 1.37149E-02-1.25629E-03-9.83596E-14
 -1      1276 1.41378E-02-1.12289E-03-9.98689E-14
 -1      1277 1.45109E-02-9.65555E-04-1.01139E-13
 -1      1278 1.48172E-02-7.98468E-04-1.02157E-13
 -1      1279 1.50390E-02-6.28768E-04-1.02889E-13
 -1      1280 1.51555E-02-4.57521E-04-1.03292E-13
 -1      1281 1.66712E-04-1.10340E-04-1.40946E-18
 -1      1282 1.12549E-04-5.69689E-05-2.69831E-17
 -1      1283 1.17631E-04-6.75783E-05-2.00035E-17
 -1      1284 1.08426E-04-4.34831E-05-3.85705E-17
 -1      1285 1.10292E-04-4.95986E-05-3.50604E-17
 -1      1286 2.26346E-04-1.07613E-04-8.24265E-17
 -1      1287 1.06842E-04-3.36048E-05-4.50350E-17
 -1      1288 1.07689E-04-3.83265E-05-4.32055E-17
 -1      1289 2.19111E-04-8.24442E-05-1.03311E-16
 -1      1290 1.06061E-04-2.53445E-05-4.87755E-17
 -1      1291 1.06493E-04-2.93772E-05-4.78133E-17
 -1      1292 2.15869E-04-6.32647E-05-1.15576E-16
 -1      1293 1.05655E-04-1.80861E-05-5.08762E-17
 -1      1294 1.05886E-04-2.16529E-05-5.04696E-17
 -1      1295 2.14204E-04-4.71756E-05-1.22718E-16
 -1      1296 1.05433E-04-1.12359E-05-5.20010E-17
 -1      1297 1.05557E-04-1.46202E-05-5.18384E-17
 -1      1298 2.13283E-04-3.27449E-05-1.26825E-16
 -1      1299 1.05332E-04-4.68779E-06-5.24483E-17
 -1      1300 1.05385E-04-7.94025E-06-5.23805E-17
 -1      1301 2.12784E-04-1.91852E-05-1.28803E-16
 -1      1302 1.05321E-04 1.74242E-06-5.24076E-17
 -1      1303 1.05319E-04-1.47015E-06-5.24076E-17
 -1      1304 2.12568E-04-6.15885E-06-1.29522E-16
 -1      1305 1.05394E-04 8.22229E-06-5.17164E-17
 -1      1306 1.05337E-04 4.96331E-06-5.19197E-17
 -1      1307 2.12576E-04 6.70655E-06-1.28790E-16
 -1      1308 1.05573E-04 1.49278E-05-5.05103E-17
 -1      1309 1.05445E-04 1.15286E-05-5.09168E-17
 -1      1310 2.12810E-04 1.97589E-05-1.26743E-16
 -1      1311 1.05908E-04 2.19453E-05-4.82877E-17
 -1      1312 1.05672E-04 1.83546E-05-4.89653E-17
 -1      1313 2.13324E-04 3.32582E-05-1.23030E-16
 -1      1314 1.06535E-04 2.98113E-05-4.47911E-17
 -1      1315 1.06095E-04 2.57346E-05-4.59973E-17
 -1      1316 2.14270E-04 4.77838E-05-1.17067E-16
 -1      1317 1.07729E-04 3.89103E-05-3.93972E-17
 -1      1318 1.06876E-04 3.41165E-05-4.14572E-17
 -1      1319 2.15980E-04 6.41957E-05-1.07946E-16
 -1      1320 1.10271E-04 5.03384E-05-3.03848E-17
 -1      1321 1.08432E-04 4.41539E-05-3.42472E-17
 -1      1322 2.19213E-04 8.36944E-05-9.39055E-17
 -1      1323 1.16947E-04 6.76138E-05-1.54499E-17
 -1      1324 1.12195E-04 5.77679E-05-2.27005E-17
 -1      1325 2.26333E-04 1.09433E-04-7.20046E-17
 -1      1326 1.57590E-04 1.09857E-04 8.18573E-18
 -1      1327 1.35672E-04 8.60865E-05-6.73561E-18
 -1      1328 2.56060E-04 1.52083E-04-4.54823E-17
 -1      1329 3.35110E-04 2.20732E-04-6.54587E-18
 -1      1330 4.21573E-04-2.61730E-04-4.56314E-17
 -1      1331 5.74685E-04-3.36786E-04-1.03121E-16
 -1      1332 7.21890E-04-3.97385E-04-1.99141E-16
 -1      1333 8.65076E-04-4.46680E-04-3.30966E-16
 -1      1334 6.12125E-04-3.30874E-04-1.90671E-16
 -1      1335 1.00512E-03-4.87755E-04-4.96809E-16
 -1      1336 1.14298E-03-5.21749E-04-6.97589E-16
 -1      1337 9.05391E-04-4.31571E-04-4.64675E-16
 -1      1338 1.27950E-03-5.50531E-04-9.32902E-16
 -1      1339 1.41517E-03-5.74577E-04-1.20367E-15
 -1      1340 1.18786E-03-5.01002E-04-8.75575E-16
 -1      1341 1.55044E-03-5.94955E-04-1.50850E-15
 -1      1342 1.68556E-03-6.11998E-04-1.84795E-15
 -1      1343 1.46483E-03-5.49795E-04-1.42319E-15
 -1      1344 1.82077E-03-6.26334E-04-2.22103E-15
 -1      1345 1.95619E-03-6.38256E-04-2.62775E-15
 -1      1346 1.73956E-03-5.84129E-04-2.10697E-15
 -1      1347 2.09193E-03-6.48169E-04-3.06904E-15
 -1      1348 2.22804E-03-6.56321E-04-3.54446E-15
 -1      1349 2.01392E-03-6.07990E-04-2.92546E-15
 -1      1350 2.36458E-03-6.62989E-04-4.05387E-15
 -1      1351 2.50155E-03-6.68377E-04-4.59597E-15
 -1      1352 2.28888E-03-6.24195E-04-3.87891E-15
 -1      1353 2.63897E-03-6.72682E-04-5.17094E-15
 -1      1354 2.77683E-03-6.76068E-04-5.77847E-15
 -1      1355 2.56493E-03-6.34822E-04-4.96376E-15
 -1      1356 2.91512E-03-6.78675E-04-6.41644E-15
 -1      1357 3.05383E-03-6.80632E-04-7.08553E-15
 -1      1358 2.84226E-03-6.41427E-04-6.17651E-15
 -1      1359 3.19292E-03-6.82040E-04-7.78383E-15
 -1      1360 3.33238E-03-6.82996E-04-8.51054E-15
 -1      1361 3.12087E-03-6.45177E-04-7.51169E-15
 -1      1362 3.47219E-03-6.83571E-04-9.26552E-15
 -1      1363 3.61231E-03-6.83839E-04-1.00484E-14
 -1      1364 3.40070E-03-6.46938E-04-8.96313E-15
 -1      1365 3.75273E-03-6.83847E-04-1.08596E-14
 -1      1366 3.89341E-03-6.83649E-04-1.16982E-14
 -1      1367 3.68161E-03-6.47340E-04-1.05277E-14
 -1      1368 4.03434E-03-6.83275E-04-1.25633E-14
 -1      1369 4.17548E-03-6.82764E-04-1.34547E-14
 -1      1370 3.96346E-03-6.46829E-04-1.22020E-14
 -1      1371 4.31682E-03-6.82130E-04-1.43724E-14
 -1      1372 4.45834E-03-6.81401E-04-1.53157E-14
 -1      1373 4.24611E-03-6.45709E-04-1.39829E-14
 -1      1374 4.60002E-03-6.80582E-04-1.62847E-14
 -1      1375 4.74184E-03-6.79689E-04-1.72801E-14
 -1      1376 4.52942E-03-6.44169E-04-1.58680E-14
 -1      1377 4.88380E-03-6.78719E-04-1.83000E-14
 -1      1378 5.02588E-03-6.77682E-04-1.93444E-14
 -1      1379 4.81328E-03-6.42314E-04-1.78552E-14
 -1      1380 5.16807E-03-6.76569E-04-2.04136E-14
 -1      1381 5.31036E-03-6.75382E-04-2.15067E-14
 -1      1382 5.09762E-03-6.40179E-04-1.99424E-14
 -1      1383 5.45277E-03-6.74107E-04-2.26245E-14
 -1      1384 5.59527E-03-6.72745E-04-2.37666E-14
 -1      1385 5.38237E-03-6.37749E-04-2.21277E-14
 -1      1386 5.73789E-03-6.71276E-04-2.49322E-14
 -1      1387 5.88062E-03-6.69697E-04-2.61225E-14
 -1      1388 5.66754E-03-6.34965E-04-2.44091E-14
 -1      1389 6.02347E-03-6.67987E-04-2.73378E-14
 -1      1390 6.16647E-03-6.66143E-04-2.85773E-14
 -1      1391 5.95315E-03-6.31742E-04-2.67889E-14
 -1      1392 6.30962E-03-6.64140E-04-2.98423E-14
 -1      1393 6.45296E-03-6.61977E-04-3.11310E-14
 -1      1394 6.23929E-03-6.27971E-04-2.92684E-14
 -1      1395 6.59652E-03-6.59627E-04-3.24442E-14
 -1      1396 6.74032E-03-6.57095E-04-3.37819E-14
 -1      1397 6.52611E-03-6.23539E-04-3.18460E-14
 -1      1398 6.88442E-03-6.54353E-04-3.51435E-14
 -1      1399 7.02886E-03-6.51413E-04-3.65289E-14
 -1      1400 6.81382E-03-6.18331E-04-3.45206E-14
 -1      1401 7.17370E-03-6.48252E-04-3.79357E-14
 -1      1402 7.31900E-03-6.44895E-04-3.93634E-14
 -1      1403 7.10273E-03-6.12263E-04-3.72881E-14
 -1      1404 7.46485E-03-6.41323E-04-4.08110E-14
 -1      1405 7.61133E-03-6.37586E-04-4.22782E-14
 -1      1406 7.39325E-03-6.05296E-04-4.01406E-14
 -1      1407 7.75853E-03-6.33674E-04-4.37633E-14
 -1      1408 7.90657E-03-6.29669E-04-4.52651E-14
 -1      1409 7.68592E-03-5.97486E-04-4.30725E-14
 -1      1410 8.05558E-03-6.25584E-04-4.67836E-14
 -1      1411 8.20569E-03-6.21545E-04-4.83178E-14
 -1      1412 7.98142E-03-5.89039E-04-4.60742E-14
 -1      1413 8.35706E-03-6.17603E-04-4.98646E-14
 -1      1414 8.50984E-03-6.13947E-04-5.14243E-14
 -1      1415 8.28059E-03-5.80402E-04-4.91378E-14
 -1      1416 8.66422E-03-6.10690E-04-5.29974E-14
 -1      1417 8.82040E-03-6.08109E-04-5.45815E-14
 -1      1418 8.58444E-03-5.72388E-04-5.22567E-14
 -1      1419 8.97857E-03-6.06417E-04-5.61782E-14
 -1      1420 9.13894E-03-6.06003E-04-5.77848E-14
 -1      1421 8.89416E-03-5.66366E-04-5.54257E-14
 -1      1422 9.30172E-03-6.07238E-04-5.94032E-14
 -1      1423 9.46710E-03-6.10654E-04-6.10321E-14
 -1      1424 9.21101E-03-5.64520E-04-5.86406E-14
 -1      1425 9.63524E-03-6.16850E-04-6.26728E-14
 -1      1426 9.80627E-03-6.26521E-04-6.43248E-14
 -1      1427 9.53627E-03-5.70198E-04-6.18996E-14
 -1      1428 9.98027E-03-6.40570E-04-6.59862E-14
 -1      1429 1.01572E-02-6.59846E-04-6.76579E-14
 -1      1430 9.87097E-03-5.88314E-04-6.52029E-14
 -1      1431 1.03369E-02-6.85578E-04-6.93357E-14
 -1      1432 1.05190E-02-7.18684E-04-7.10202E-14
 -1      1433 1.02155E-02-6.25685E-04-6.85435E-14
 -1      1434 1.07031E-02-7.60576E-04-7.27139E-14
 -1      1435 1.08884E-02-8.11980E-04-7.44165E-14
 -1      1436 1.05692E-02-6.90940E-04-7.19166E-14
 -1      1437 1.10739E-02-8.74016E-04-7.61271E-14
 -1      1438 1.12583E-02-9.46678E-04-7.78483E-14
 -1      1439 1.09292E-02-7.93283E-04-7.53255E-14
 -1      1440 1.14402E-02-1.02985E-03-7.95772E-14
 -1      1441 1.16179E-02-1.12193E-03-8.13163E-14
 -1      1442 1.12903E-02-9.38974E-04-7.87688E-14
 -1      1443 1.17897E-02-1.22040E-03-8.30679E-14
 -1      1444 1.19541E-02-1.32131E-03-8.48311E-14
 -1      1445 1.16440E-02-1.12470E-03-8.22504E-14
 -1      1446 1.21101E-02-1.41934E-03-8.66062E-14
 -1      1447 1.22573E-02-1.50856E-03-8.83930E-14
 -1      1448 1.19803E-02-1.32940E-03-8.57800E-14
 -1      1449 1.23960E-02-1.58250E-03-9.01960E-14
 -1      1450 1.25278E-02-1.63571E-03-9.20138E-14
 -1      1451 1.22918E-02-1.51138E-03-8.93617E-14
 -1      1452 1.26545E-02-1.66397E-03-9.38440E-14
 -1      1453 1.27791E-02-1.66544E-03-9.56916E-14
 -1      1454 1.25796E-02-1.62038E-03-9.29989E-14
 -1      1455 1.29038E-02-1.64085E-03-9.75538E-14
 -1      1456 1.30312E-02-1.59294E-03-9.94295E-14
 -1      1457 1.28559E-02-1.62376E-03-9.66932E-14
 -1      1458 1.31625E-02-1.52652E-03-1.01320E-13
 -1      1459 1.32986E-02-1.44658E-03-1.03222E-13
 -1      1460 1.31358E-02-1.52656E-03-1.00447E-13
 -1      1461 1.34393E-02-1.35843E-03-1.05138E-13
 -1      1462 1.35836E-02-1.26631E-03-1.07060E-13
 -1      1463 1.34276E-02-1.36498E-03-1.04254E-13
 -1      1464 1.37306E-02-1.17323E-03-1.08995E-13
 -1      1465 1.38787E-02-1.08090E-03-1.10937E-13
 -1      1466 1.37291E-02-1.17995E-03-1.08103E-13
 -1      1467 1.40271E-02-9.89428E-04-1.12880E-13
 -1      1468 1.41745E-02-8.98591E-04-1.14826E-13
 -1      1469 1.40326E-02-9.95526E-04-1.11980E-13
 -1      1470 1.43206E-02-8.06926E-04-1.16782E-13
 -1      1471 1.44653E-02-7.13559E-04-1.18742E-13
 -1      1472 1.43314E-02-8.14853E-04-1.15877E-13
 -1      1473 1.46829E-02-5.69452E-04-1.21596E-13
 -1      1474 1.46975E-02-5.81798E-04-1.20686E-13
 -1      1475 6.43134E-04 3.72000E-04-9.60197E-17
 -1      1476 4.92992E-04 3.03680E-04-3.41795E-17
 -1      1477 4.44920E-04 2.65881E-04-6.30735E-17
 -1      1478 9.28756E-04 4.71964E-04-3.22550E-16
 -1      1479 7.87874E-04 4.26472E-04-1.92487E-16
 -1      1480 7.44811E-04 3.90698E-04-2.27289E-16
 -1      1481 1.20369E-03 5.41393E-04-6.81570E-16
 -1      1482 1.06700E-03 5.09708E-04-4.85140E-16
 -1      1483 1.03089E-03 4.76141E-04-5.24103E-16
 -1      1484 1.47428E-03 5.90608E-04-1.17425E-15
 -1      1485 1.33920E-03 5.68139E-04-9.11367E-16
 -1      1486 1.30884E-03 5.35978E-04-9.52512E-16
 -1      1487 1.74386E-03 6.25533E-04-1.79956E-15
 -1      1488 1.60903E-03 6.09616E-04-1.47007E-15
 -1      1489 1.58311E-03 5.78288E-04-1.51257E-15
 -1      1490 2.01412E-03 6.50038E-04-2.55541E-15
 -1      1491 1.87882E-03 6.38916E-04-2.16126E-15
 -1      1492 1.85632E-03 6.08050E-04-2.20333E-15
 -1      1493 2.28586E-03 6.66874E-04-3.43872E-15
 -1      1494 2.14977E-03 6.59283E-04-2.98112E-15
 -1      1495 2.12989E-03 6.28651E-04-3.02257E-15
 -1      1496 2.55940E-03 6.78085E-04-4.45031E-15
 -1      1497 2.42240E-03 6.73081E-04-3.92870E-15
 -1      1498 2.40450E-03 6.42542E-04-3.96895E-15
 -1      1499 2.83480E-03 6.85217E-04-5.58528E-15
 -1      1500 2.69687E-03 6.82084E-04-5.00254E-15
 -1      1501 2.68047E-03 6.51554E-04-5.04027E-15
 -1      1502 3.11194E-03 6.89433E-04-6.84453E-15
 -1      1503 2.97316E-03 6.87631E-04-6.19992E-15
 -1      1504 2.95787E-03 6.57063E-04-6.23485E-15
 -1      1505 3.39066E-03 6.91602E-04-8.22178E-15
 -1      1506 3.25112E-03 6.90731E-04-7.51829E-15
 -1      1507 3.23664E-03 6.60099E-04-7.55014E-15
 -1      1508 3.67075E-03 6.92360E-04-9.71798E-15
 -1      1509 3.53055E-03 6.92127E-04-8.95513E-15
 -1      1510 3.51667E-03 6.61421E-04-8.98354E-15
 -1      1511 3.95199E-03 6.92161E-04-1.13310E-14
 -1      1512 3.81124E-03 6.92359E-04-1.05095E-14
 -1      1513 3.79779E-03 6.61580E-04-1.05341E-14
 -1      1514 4.23419E-03 6.91316E-04-1.30600E-14
 -1      1515 4.09298E-03 6.91805E-04-1.21810E-14
 -1      1516 4.07984E-03 6.60959E-04-1.22005E-14
 -1      1517 4.51716E-03 6.90024E-04-1.49064E-14
 -1      1518 4.37559E-03 6.90717E-04-1.39692E-14
 -1      1519 4.36267E-03 6.59812E-04-1.39834E-14
 -1      1520 4.80076E-03 6.88398E-04-1.68618E-14
 -1      1521 4.65889E-03 6.89249E-04-1.58701E-14
 -1      1522 4.64614E-03 6.58293E-04-1.58782E-14
 -1      1523 5.08488E-03 6.86485E-04-1.89285E-14
 -1      1524 4.94276E-03 6.87477E-04-1.78813E-14
 -1      1525 4.93014E-03 6.56480E-04-1.78841E-14
 -1      1526 5.36945E-03 6.84280E-04-2.11088E-14
 -1      1527 5.22711E-03 6.85420E-04-2.00046E-14
 -1      1528 5.21461E-03 6.54390E-04-2.00015E-14
 -1      1529 5.65445E-03 6.81740E-04-2.34006E-14
 -1      1530 5.51190E-03 6.83054E-04-2.22407E-14
 -1      1531 5.49950E-03 6.51995E-04-2.22303E-14
 -1      1532 5.93990E-03 6.78799E-04-2.57960E-14
 -1      1533 5.79711E-03 6.80322E-04-2.45855E-14
 -1      1534 5.78482E-03 6.49235E-04-2.45673E-14
 -1      1535 6.22588E-03 6.75377E-04-2.82871E-14
 -1      1536 6.08282E-03 6.77150E-04-2.70301E-14
 -1      1537 6.07062E-03 6.46031E-04-2.70054E-14
 -1      1538 6.51254E-03 6.71398E-04-3.08684E-14
 -1      1539 6.36911E-03 6.73457E-04-2.95668E-14
 -1      1540 6.35699E-03 6.42294E-04-2.95366E-14
 -1      1541 6.80010E-03 6.66802E-04-3.35397E-14
 -1      1542 6.65619E-03 6.69173E-04-3.21936E-14
 -1      1543 6.64412E-03 6.37947E-04-3.21583E-14
 -1      1544 7.08885E-03 6.61577E-04-3.62972E-14
 -1      1545 6.94430E-03 6.64258E-04-3.49077E-14
 -1      1546 6.93223E-03 6.32939E-04-3.48655E-14
 -1      1547 7.37920E-03 6.55786E-04-3.91360E-14
 -1      1548 7.23380E-03 6.58733E-04-3.77058E-14
 -1      1549 7.22162E-03 6.27279E-04-3.76595E-14
 -1      1550 7.67163E-03 6.49616E-04-4.20593E-14
 -1      1551 7.52512E-03 6.52717E-04-4.05881E-14
 -1      1552 7.51270E-03 6.21070E-04-4.05374E-14
 -1      1553 7.96672E-03 6.43430E-04-4.50600E-14
 -1      1554 7.81880E-03 6.46478E-04-4.35494E-14
 -1      1555 7.80593E-03 6.14560E-04-4.34953E-14
 -1      1556 8.26513E-03 6.37846E-04-4.81373E-14
 -1      1557 8.11547E-03 6.40495E-04-4.65891E-14
 -1      1558 8.10185E-03 6.08212E-04-4.65294E-14
 -1      1559 8.56754E-03 6.33819E-04-5.12859E-14
 -1      1560 8.41579E-03 6.35546E-04-4.97028E-14
 -1      1561 8.40105E-03 6.02780E-04-4.96380E-14
 -1      1562 8.87458E-03 6.32733E-04-5.45071E-14
 -1      1563 8.72044E-03 6.32789E-04-5.28881E-14
 -1      1564 8.70409E-03 5.99408E-04-5.28181E-14
 -1      1565 9.18670E-03 6.36484E-04-5.77902E-14
 -1      1566 9.02998E-03 6.33861E-04-5.61405E-14
 -1      1567 9.01145E-03 5.99722E-04-5.60634E-14
 -1      1568 9.50395E-03 6.47499E-04-6.11334E-14
 -1      1569 9.34469E-03 6.40925E-04-5.94547E-14
 -1      1570 9.32338E-03 6.05895E-04-5.93710E-14
 -1      1571 9.82570E-03 6.68634E-04-6.45265E-14
 -1      1572 9.66432E-03 6.56652E-04-6.28237E-14
 -1      1573 9.63967E-03 6.20637E-04-6.27330E-14
 -1      1574 1.01504E-02 7.02837E-04-6.79762E-14
 -1      1575 9.98780E-03 6.84006E-04-6.62434E-14
 -1      1576 9.95949E-03 6.47002E-04-6.61488E-14
 -1      1577 1.04751E-02 7.52411E-04-7.14882E-14
 -1      1578 1.03130E-02 7.25726E-04-6.97245E-14
 -1      1579 1.02811E-02 6.87890E-04-6.96232E-14
 -1      1580 1.07956E-02 8.17806E-04-7.50677E-14
 -1      1581 1.06362E-02 7.83360E-04-7.32691E-14
 -1      1582 1.06016E-02 7.45089E-04-7.31588E-14
 -1      1583 1.11066E-02 8.95991E-04-7.87048E-14
 -1      1584 1.09527E-02 8.55814E-04-7.68798E-14
 -1      1585 1.09171E-02 8.17815E-04-7.67566E-14
 -1      1586 1.14028E-02 9.78915E-04-8.23949E-14
 -1      1587 1.12569E-02 9.37684E-04-8.05435E-14
 -1      1588 1.12232E-02 9.00963E-04-8.04089E-14
 -1      1589 1.16802E-02 1.05309E-03-8.61366E-14
 -1      1590 1.15440E-02 1.01813E-03-8.42588E-14
 -1      1591 1.15157E-02 9.83835E-04-8.41147E-14
 -1      1592 1.19383E-02 1.10150E-03-8.99240E-14
 -1      1593 1.18116E-02 1.08153E-03-8.80242E-14
 -1      1594 1.17924E-02 1.05060E-03-8.78715E-14
 -1      1595 1.21811E-02 1.10802E-03-9.37601E-14
 -1      1596 1.20612E-02 1.11065E-03-9.18365E-14
 -1      1597 1.20542E-02 1.08346E-03-9.16761E-14
 -1      1598 1.24159E-02 1.06293E-03-9.76477E-14
 -1      1599 1.22989E-02 1.09200E-03-9.56966E-14
 -1      1600 1.23057E-02 1.06810E-03-9.55303E-14
 -1      1601 1.26515E-02 9.66194E-04-1.01583E-13
 -1      1602 1.25331E-02 1.02052E-03-9.96092E-14
 -1      1603 1.25537E-02 9.98859E-04-9.94340E-14
 -1      1604 1.28947E-02 8.26515E-04-1.05568E-13
 -1      1605 1.27718E-02 9.00890E-04-1.03572E-13
 -1      1606 1.28046E-02 8.80279E-04-1.03387E-13
 -1      1607 1.31487E-02 6.56883E-04-1.09600E-13
 -1      1608 1.30202E-02 7.44601E-04-1.07578E-13
 -1      1609 1.30628E-02 7.24137E-04-1.07383E-13
 -1      1610 1.34135E-02 4.69652E-04-1.13671E-13
 -1      1611 1.32798E-02 5.64816E-04-1.11629E-13
 -1      1612 1.33293E-02 5.44049E-04-1.11424E-13
 -1      1613 1.36873E-02 2.74113E-04-1.17764E-13
 -1      1614 1.35494E-02 3.72457E-04-1.15715E-13
 -1      1615 1.36031E-02 3.51247E-04-1.15500E-13
 -1      1616 1.39678E-02 7.72214E-05-1.21867E-13
 -1      1617 1.38269E-02 1.75483E-04-1.19816E-13
 -1      1618 1.38824E-02 1.53697E-04-1.19591E-13
 -1      1619 1.41400E-02-3.47166E-05-1.23989E-13
 -1      1620 1.43812E-02-1.51082E-04-1.24027E-13
 -1      1621 1.42901E-02-1.07134E-04-1.24081E-13
 -1      1622 1.45674E-02-2.41378E-04-1.23911E-13
 -1      1623 1.44733E-02-1.95932E-04-1.23970E-13
 -1      1624 1.43026E-02-8.85012E-05-1.22231E-13
 -1      1625 1.47682E-02-3.31676E-04-1.23788E-13
 -1      1626 1.46655E-02-2.86905E-04-1.23849E-13
 -1      1627 1.44909E-02-1.77577E-04-1.22118E-13
 -1      1628 1.49913E-02-4.14544E-04-1.23647E-13
 -1      1629 1.48768E-02-3.74671E-04-1.23721E-13
 -1      1630 1.46970E-02-2.65298E-04-1.21996E-13
 -1      1631 1.52316E-02-4.78255E-04-1.23501E-13
 -1      1632 1.51093E-02-4.49341E-04-1.23575E-13
 -1      1633 1.49255E-02-3.44754E-04-1.21865E-13
 -1      1634 1.54825E-02-5.13569E-04-1.23343E-13
 -1      1635 1.53577E-02-5.00283E-04-1.23424E-13
 -1      1636 1.51747E-02-4.08279E-04-1.21724E-13
 -1      1637 1.57086E-02-5.11548E-04-1.23185E-13
 -1      1638 1.56010E-02-5.17390E-04-1.23262E-13
 -1      1639 1.54279E-02-4.47356E-04-1.21575E-13
 -1      1640 1.58679E-02-4.74216E-04-1.23016E-13
 -1      1641 1.57991E-02-4.96664E-04-1.23105E-13
 -1      1642 1.56470E-02-4.56105E-04-1.21421E-13
 -1      1643 1.59242E-02-4.16049E-04-1.22836E-13
 -1      1644 1.59104E-02-4.46369E-04-1.22927E-13
 -1      1645 1.57875E-02-4.37882E-04-1.21257E-13
 -1      1646 1.58659E-02-3.59952E-04-1.22662E-13
 -1      1647 1.59089E-02-3.86215E-04-1.22749E-13
 -1      1648 1.58157E-02-4.06688E-04-1.21087E-13
 -1      1649 1.57149E-02-3.27560E-04-1.22505E-13
 -1      1650 1.58000E-02-3.39963E-04-1.22581E-13
 -1      1651 1.57285E-02-3.82364E-04-1.20924E-13
 -1      1652 1.55042E-02-3.28868E-04-1.22357E-13
 -1      1653 1.56143E-02-3.23711E-04-1.22431E-13
 -1      1654 1.55533E-02-3.80213E-04-1.20770E-13
 -1      1655 1.52739E-02-3.63985E-04-1.22197E-13
 -1      1656 1.53895E-02-3.42635E-04-1.22280E-13
 -1      1657 1.53294E-02-4.06376E-04-1.20615E-13
 -1      1658 1.50496E-02-4.24401E-04-1.22034E-13
 -1      1659 1.51601E-02-3.91756E-04-1.22116E-13
 -1      1660 1.50954E-02-4.57636E-04-1.20457E-13
 -1      1661 1.48194E-02-5.20966E-04-1.21322E-13
 -1      1662 1.49224E-02-4.82182E-04-1.21397E-13
 -1      1663 1.48521E-02-5.45908E-04-1.19740E-13
 -1      1664 1.46001E-02-6.62849E-04-1.18470E-13
 -1      1665 1.51287E-02-2.85798E-04-1.04187E-13
 -1      1666 1.51806E-02-3.42034E-04-1.04297E-13
 -1      1667 1.49092E-02-1.37965E-04-1.03503E-13
 -1      1668 1.50248E-02-2.03533E-04-1.03787E-13
 -1      1669 1.45417E-02 2.88759E-05-1.02659E-13
 -1      1670 1.47247E-02-6.08606E-05-1.03174E-13
 -1      1671 1.41000E-02 2.53602E-04-1.01205E-13
 -1      1672 1.43085E-02 1.50897E-04-1.01886E-13
 -1      1673 1.36437E-02 4.64952E-04-9.95890E-14
 -1      1674 1.38449E-02 3.69611E-04-1.00359E-13
 -1      1675 1.32256E-02 6.41507E-04-9.76709E-14
 -1      1676 1.34232E-02 5.69814E-04-9.85288E-14
 -1      1677 1.27743E-02 7.48739E-04-9.55832E-14
 -1      1678 1.29783E-02 7.10559E-04-9.65848E-14
 -1      1679 1.23719E-02 7.48350E-04-9.35711E-14
 -1      1680 1.25508E-02 7.57581E-04-9.44528E-14
 -1      1681 1.19713E-02 6.67327E-04-9.15840E-14
 -1      1682 1.21596E-02 7.17191E-04-9.24924E-14
 -1      1683 1.15622E-02 5.20552E-04-8.97881E-14
 -1      1684 1.17462E-02 5.93637E-04-9.05870E-14
 -1      1685 1.11695E-02 3.45387E-04-8.82204E-14
 -1      1686 1.13480E-02 4.27990E-04-8.89086E-14
 -1      1687 1.08152E-02 1.81086E-04-8.69925E-14
 -1      1688 1.09691E-02 2.56349E-04-8.75322E-14
 -1      1689 1.05268E-02 2.68688E-05-8.59935E-14
 -1      1690 1.06532E-02 9.32310E-05-8.63952E-14
 -1      1691 1.03283E-02-9.47651E-05-8.54388E-14
 -1      1692 1.04056E-02-4.00209E-05-8.56695E-14
 -1      1693 1.02484E-02-2.13665E-04-8.50133E-14
 -1      1694 1.02670E-02-1.63915E-04-8.50723E-14
 -1      1695 1.03226E-02-3.32728E-04-8.53307E-14
 -1      1696 1.02715E-02-2.77912E-04-8.51996E-14
 -1      1697 1.05369E-02-4.69184E-04-8.58361E-14
 -1      1698 1.04222E-02-3.99533E-04-8.55102E-14
 -1      1699 1.08659E-02-6.70087E-04-8.69501E-14
 -1      1700 1.06990E-02-5.76132E-04-8.64300E-14
 -1      1701 1.12486E-02-8.81184E-04-8.82332E-14
 -1      1702 1.10716E-02-7.83269E-04-8.76205E-14
 -1      1703 1.16435E-02-1.09613E-03-8.97833E-14
 -1      1704 1.14565E-02-9.99474E-04-8.90554E-14
 -1      1705 1.20589E-02-1.28046E-03-9.15032E-14
 -1      1706 1.18703E-02-1.19987E-03-9.06760E-14
 -1      1707 1.24523E-02-1.39615E-03-9.33581E-14
 -1      1708 1.22715E-02-1.35279E-03-9.25069E-14
 -1      1709 1.28586E-02-1.42630E-03-9.53181E-14
 -1      1710 1.26713E-02-1.42672E-03-9.43996E-14
 -1      1711 1.32863E-02-1.35036E-03-9.72786E-14
 -1      1712 1.30895E-02-1.39559E-03-9.63816E-14
 -1      1713 1.37004E-02-1.20264E-03-9.90990E-14
 -1      1714 1.35087E-02-1.27789E-03-9.82983E-14
 -1      1715 1.41245E-02-1.02019E-03-1.00664E-13
 -1      1716 1.39324E-02-1.10840E-03-9.99599E-14
 -1      1717 1.45094E-02-8.34500E-04-1.01978E-13
 -1      1718 1.43373E-02-9.18649E-04-1.01410E-13
 -1      1719 1.48395E-02-6.66829E-04-1.03016E-13
 -1      1720 1.46954E-02-7.41616E-04-1.02572E-13
 -1      1721 1.50753E-02-5.26443E-04-1.03729E-13
 -1      1722 1.49799E-02-5.87536E-04-1.03445E-13
 -1      1723 1.51850E-02-4.05366E-04-1.04078E-13
 -1      1724 1.51521E-02-4.59639E-04-1.03965E-13
 -1      1725 1.38933E-02 2.61308E-04-1.01402E-13
 -1      1726 1.43665E-02 1.89569E-05-1.03029E-13
 -1      1727 1.41956E-02-5.73968E-05-1.23762E-13
 -1      1728 1.41178E-02 5.42316E-06-1.21962E-13
 -1      1729 1.50808E-02-2.92231E-04-1.04856E-13
 -1      1730 1.47852E-02-1.63938E-04-1.04131E-13
 -1      1731 1.51956E-02-3.72869E-04-1.05026E-13
 -1      1732 1.34578E-02 5.01026E-04-9.94822E-14
 -1      1733 1.30407E-02 6.90877E-04-9.73270E-14
 -1      1734 1.26580E-02 7.80996E-04-9.51024E-14
 -1      1735 1.22848E-02 7.55365E-04-9.28924E-14
 -1      1736 1.19151E-02 6.33617E-04-9.08193E-14
 -1      1737 1.15194E-02 4.49398E-04-8.89466E-14
 -1      1738 1.11275E-02 2.55249E-04-8.73851E-14
 -1      1739 1.07687E-02 8.10384E-05-8.61068E-14
 -1      1740 1.04789E-02-5.30281E-05-8.51911E-14
 -1      1741 1.02897E-02-1.56701E-04-8.45021E-14
 -1      1742 1.02489E-02-2.30342E-04-8.43245E-14
 -1      1743 1.03763E-02-3.22692E-04-8.46908E-14
 -1      1744 1.06478E-02-4.58783E-04-8.54607E-14
 -1      1745 1.10207E-02-6.64001E-04-8.67201E-14
 -1      1746 1.14238E-02-8.99758E-04-8.82075E-14
 -1      1747 1.18286E-02-1.13604E-03-8.99164E-14
 -1      1748 1.22113E-02-1.33010E-03-9.18065E-14
 -1      1749 1.25802E-02-1.44048E-03-9.38481E-14
 -1      1750 1.29435E-02-1.43525E-03-9.59508E-14
 -1      1751 1.33369E-02-1.31750E-03-9.80342E-14
 -1      1752 1.37426E-02-1.12851E-03-9.99178E-14
 -1      1753 1.41639E-02-9.18795E-04-1.01529E-13
 -1      1754 1.45583E-02-7.24570E-04-1.02874E-13
 -1      1755 1.48913E-02-5.70308E-04-1.03898E-13
 -1      1756 1.51180E-02-4.59494E-04-1.04566E-13
 -1      1757 2.85264E-04-1.76222E-04-4.38966E-17
 -1      1758 3.32179E-04-1.16750E-04-1.64894E-16
 -1      1759 3.36336E-04-1.32998E-04-1.53293E-16
 -1      1760 3.42232E-04-1.51987E-04-1.39591E-16
 -1      1761 3.51789E-04-1.73991E-04-1.20197E-16
 -1      1762 4.58353E-04-1.88061E-04-2.22546E-16
 -1      1763 3.24546E-04-6.53614E-05-1.89546E-16
 -1      1764 3.25696E-04-7.66490E-05-1.85561E-16
 -1      1765 3.23056E-04-4.38735E-05-1.94804E-16
 -1      1766 3.23709E-04-5.43597E-05-1.92609E-16
 -1      1767 4.36484E-04-7.92708E-05-2.82448E-16
 -1      1768 3.22270E-04-2.37621E-05-1.97162E-16
 -1      1769 3.22602E-04-3.36719E-05-1.96119E-16
 -1      1770 4.34489E-04-5.13007E-05-2.88574E-16
 -1      1771 3.21976E-04-4.33550E-06-1.97826E-16
 -1      1772 3.22073E-04-1.39838E-05-1.97880E-16
 -1      1773 4.33466E-04-2.49147E-05-2.91420E-16
 -1      1774 3.22098E-04 1.49743E-05-1.96105E-16
 -1      1775 3.21984E-04 5.31594E-06-1.97203E-16
 -1      1776 4.33169E-04 7.56809E-07-2.91406E-16
 -1      1777 3.22666E-04 3.47154E-05-1.92622E-16
 -1      1778 3.22314E-04 2.47734E-05-1.94682E-16
 -1      1779 4.33525E-04 2.64570E-05-2.88398E-16
 -1      1780 3.23797E-04 5.51457E-05-1.86185E-16
 -1      1781 3.23133E-04 4.47865E-05-1.89722E-16
 -1      1782 4.34604E-04 5.27031E-05-2.82218E-16
 -1      1783 3.25859E-04 7.77912E-05-1.76603E-16
 -1      1784 3.24659E-04 6.62128E-05-1.82092E-16
 -1      1785 4.36663E-04 8.05742E-05-2.72568E-16
 -1      1786 3.29553E-04 1.03626E-04-1.61749E-16
 -1      1787 3.27402E-04 9.02770E-05-1.70111E-16
 -1      1788 4.40318E-04 1.11537E-04-2.57688E-16
 -1      1789 3.36594E-04 1.35084E-04-1.38832E-16
 -1      1790 3.32409E-04 1.18585E-04-1.51897E-16
 -1      1791 4.46796E-04 1.47303E-04-2.35136E-16
 -1      1792 3.52326E-04 1.77581E-04-1.03135E-16
 -1      1793 3.42828E-04 1.54733E-04-1.23192E-16
 -1      1794 4.59340E-04 1.91425E-04-2.00862E-16
 -1      1795 4.07732E-04 2.33667E-04-7.88351E-17
 -1      1796 3.78118E-04 2.02641E-04-9.49761E-17
 -1      1797 4.95891E-04 2.43967E-04-1.69949E-16
 -1      1798 5.58593E-04 3.02479E-04-1.45459E-16
 -1      1799 3.40050E-04-1.90893E-04-8.35242E-17
 -1      1800 8.53645E-04 4.07086E-04-3.80135E-16
 -1      1801 7.07225E-04 3.59347E-04-2.46683E-16
 -1      1802 6.73455E-04 3.28778E-04-2.62214E-16
 -1      1803 4.58990E-04-2.36694E-04-1.55231E-16
 -1      1804 8.07299E-04-3.74079E-04-4.28463E-16
 -1      1805 9.52581E-04-4.15262E-04-6.04985E-16
 -1      1806 1.09544E-03-4.49951E-04-8.14683E-16
 -1      1807 1.23712E-03-4.78850E-04-1.05828E-15
 -1      1808 1.00401E-03-3.97874E-04-7.51013E-16
 -1      1809 1.37754E-03-5.03340E-04-1.33547E-15
 -1      1810 1.51725E-03-5.23719E-04-1.64684E-15
 -1      1811 1.28972E-03-4.55846E-04-1.24592E-15
 -1      1812 1.65643E-03-5.40906E-04-1.99145E-15
 -1      1813 1.79530E-03-5.55142E-04-2.36955E-15
 -1      1814 1.57215E-03-4.96804E-04-1.87421E-15
 -1      1815 1.93404E-03-5.67035E-04-2.78088E-15
 -1      1816 2.07271E-03-5.76788E-04-3.22549E-15
 -1      1817 1.85280E-03-5.25370E-04-2.63542E-15
 -1      1818 2.21149E-03-5.84820E-04-3.70370E-15
 -1      1819 2.35035E-03-5.91303E-04-4.21423E-15
 -1      1820 2.13274E-03-5.44886E-04-3.52818E-15
 -1      1821 2.48941E-03-5.96532E-04-4.75713E-15
 -1      1822 2.62865E-03-6.00648E-04-5.33196E-15
 -1      1823 2.41263E-03-5.57808E-04-4.55079E-15
 -1      1824 2.76813E-03-6.03865E-04-5.93812E-15
 -1      1825 2.90782E-03-6.06294E-04-6.57501E-15
 -1      1826 2.69289E-03-5.65971E-04-5.70080E-15
 -1      1827 3.04777E-03-6.08088E-04-7.24224E-15
 -1      1828 3.18794E-03-6.09335E-04-7.93811E-15
 -1      1829 2.97372E-03-5.70748E-04-6.97402E-15
 -1      1830 3.32835E-03-6.10144E-04-8.66269E-15
 -1      1831 3.46896E-03-6.10580E-04-9.41581E-15
 -1      1832 3.25520E-03-5.73161E-04-8.36444E-15
 -1      1833 3.60980E-03-6.10718E-04-1.01974E-14
 -1      1834 3.75082E-03-6.10609E-04-1.10064E-14
 -1      1835 3.53733E-03-5.73957E-04-9.86907E-15
 -1      1836 3.89204E-03-6.10302E-04-1.18420E-14
 -1      1837 4.03342E-03-6.09832E-04-1.27055E-14
 -1      1838 3.82008E-03-5.73671E-04-1.14847E-14
 -1      1839 4.17497E-03-6.09229E-04-1.35954E-14
 -1      1840 4.31665E-03-6.08517E-04-1.45111E-14
 -1      1841 4.10338E-03-5.72671E-04-1.32090E-14
 -1      1842 4.45847E-03-6.07713E-04-1.54527E-14
 -1      1843 4.60042E-03-6.06830E-04-1.64198E-14
 -1      1844 4.38717E-03-5.71198E-04-1.50391E-14
 -1      1845 4.74248E-03-6.05874E-04-1.74131E-14
 -1      1846 4.88465E-03-6.04853E-04-1.84310E-14
 -1      1847 4.67138E-03-5.69392E-04-1.69722E-14
 -1      1848 5.02692E-03-6.03762E-04-1.94726E-14
 -1      1849 5.16929E-03-6.02604E-04-2.05396E-14
 -1      1850 4.95597E-03-5.67312E-04-1.90050E-14
 -1      1851 5.31175E-03-6.01367E-04-2.16313E-14
 -1      1852 5.45431E-03-6.00051E-04-2.27480E-14
 -1      1853 5.24090E-03-5.64962E-04-2.11372E-14
 -1      1854 5.59696E-03-5.98637E-04-2.38885E-14
 -1      1855 5.73971E-03-5.97123E-04-2.50528E-14
 -1      1856 5.52616E-03-5.62296E-04-2.33689E-14
 -1      1857 5.88257E-03-5.95487E-04-2.62424E-14
 -1      1858 6.02555E-03-5.93724E-04-2.74564E-14
 -1      1859 5.81177E-03-5.59232E-04-2.56972E-14
 -1      1860 6.16866E-03-5.91808E-04-2.86958E-14
 -1      1861 6.31191E-03-5.89736E-04-2.99602E-14
 -1      1862 6.09778E-03-5.55663E-04-2.81252E-14
 -1      1863 6.45533E-03-5.87479E-04-3.12488E-14
 -1      1864 6.59894E-03-5.85036E-04-3.25607E-14
 -1      1865 6.38428E-03-5.51465E-04-3.06518E-14
 -1      1866 6.74276E-03-5.82377E-04-3.38981E-14
 -1      1867 6.88685E-03-5.79507E-04-3.52586E-14
 -1      1868 6.67140E-03-5.46509E-04-3.32769E-14
 -1      1869 7.03120E-03-5.76398E-04-3.66414E-14
 -1      1870 7.17591E-03-5.73062E-04-3.80464E-14
 -1      1871 6.95932E-03-5.40676E-04-3.59961E-14
 -1      1872 7.32098E-03-5.69477E-04-3.94723E-14
 -1      1873 7.46650E-03-5.65669E-04-4.09175E-14
 -1      1874 7.24830E-03-5.33883E-04-3.88036E-14
 -1      1875 7.61250E-03-5.61628E-04-4.23831E-14
 -1      1876 7.75910E-03-5.57400E-04-4.38662E-14
 -1      1877 7.53864E-03-5.26108E-04-4.16938E-14
 -1      1878 7.90631E-03-5.52996E-04-4.53653E-14
 -1      1879 8.05430E-03-5.48492E-04-4.68820E-14
 -1      1880 7.83075E-03-5.17446E-04-4.46583E-14
 -1      1881 8.20306E-03-5.43939E-04-4.84130E-14
 -1      1882 8.35280E-03-5.39449E-04-4.99579E-14
 -1      1883 8.12509E-03-5.08175E-04-4.76888E-14
 -1      1884 8.50352E-03-5.35138E-04-5.15172E-14
 -1      1885 8.65547E-03-5.31177E-04-5.30893E-14
 -1      1886 8.42225E-03-4.98863E-04-5.07785E-14
 -1      1887 8.80860E-03-5.27776E-04-5.46730E-14
 -1      1888 8.96324E-03-5.25187E-04-5.62689E-14
 -1      1889 8.72288E-03-4.90516E-04-5.39218E-14
 -1      1890 9.11932E-03-5.23769E-04-5.78787E-14
 -1      1891 9.27716E-03-5.23882E-04-5.94963E-14
 -1      1892 9.02775E-03-4.84791E-04-5.71145E-14
 -1      1893 9.43672E-03-5.26092E-04-6.11254E-14
 -1      1894 9.59828E-03-5.30912E-04-6.27666E-14
 -1      1895 9.33771E-03-4.84290E-04-6.03519E-14
 -1      1896 9.76183E-03-5.39175E-04-6.44187E-14
 -1      1897 9.92752E-03-5.51593E-04-6.60801E-14
 -1      1898 9.65374E-03-4.92929E-04-6.36344E-14
 -1      1899 1.00955E-02-5.69288E-04-6.77515E-14
 -1      1900 1.02655E-02-5.93204E-04-6.94305E-14
 -1      1901 9.97696E-03-5.16336E-04-6.69578E-14
 -1      1902 1.04380E-02-6.24663E-04-7.11193E-14
 -1      1903 1.06122E-02-6.64800E-04-7.28159E-14
 -1      1904 1.03086E-02-5.62132E-04-7.03206E-14
 -1      1905 1.07889E-02-7.14813E-04-7.45224E-14
 -1      1906 1.09664E-02-7.75727E-04-7.62376E-14
 -1      1907 1.06501E-02-6.39698E-04-7.37187E-14
 -1      1908 1.11459E-02-8.47936E-04-7.79589E-14
 -1      1909 1.13248E-02-9.31617E-04-7.96903E-14
 -1      1910 1.10020E-02-7.58584E-04-7.71491E-14
 -1      1911 1.15041E-02-1.02534E-03-8.14340E-14
 -1      1912 1.16805E-02-1.12705E-03-8.31879E-14
 -1      1913 1.13627E-02-9.24212E-04-8.06154E-14
 -1      1914 1.18547E-02-1.23266E-03-8.49546E-14
 -1      1915 1.20238E-02-1.33661E-03-8.67316E-14
 -1      1916 1.17256E-02-1.12949E-03-8.41263E-14
 -1      1917 1.21872E-02-1.43254E-03-8.85236E-14
 -1      1918 1.23458E-02-1.51254E-03-9.03296E-14
 -1      1919 1.20785E-02-1.34401E-03-8.76860E-14
 -1      1920 1.24977E-02-1.57059E-03-9.21495E-14
 -1      1921 1.26480E-02-1.60126E-03-9.39840E-14
 -1      1922 1.24109E-02-1.51187E-03-9.12990E-14
 -1      1923 1.27943E-02-1.60255E-03-9.58325E-14
 -1      1924 1.29434E-02-1.57543E-03-9.76972E-14
 -1      1925 1.27261E-02-1.57605E-03-9.49700E-14
 -1      1926 1.30929E-02-1.52312E-03-9.95749E-14
 -1      1927 1.32465E-02-1.45210E-03-1.01466E-13
 -1      1928 1.30408E-02-1.51734E-03-9.87005E-14
 -1      1929 1.34028E-02-1.36774E-03-1.03368E-13
 -1      1930 1.35607E-02-1.27656E-03-1.05283E-13
 -1      1931 1.33679E-02-1.36822E-03-1.02485E-13
 -1      1932 1.37200E-02-1.18293E-03-1.07208E-13
 -1      1933 1.38781E-02-1.08968E-03-1.09141E-13
 -1      1934 1.37035E-02-1.18260E-03-1.06314E-13
 -1      1935 1.40358E-02-9.98328E-04-1.11084E-13
 -1      1936 1.41904E-02-9.08801E-04-1.13026E-13
 -1      1937 1.40352E-02-9.97504E-04-1.10181E-13
 -1      1938 1.43232E-02-8.31552E-04-1.14766E-13
 -1      1939 1.44726E-02-7.42487E-04-1.16720E-13
 -1      1940 1.45975E-02-6.82286E-04-1.17354E-13
 -1      1941 1.43337E-02-8.33826E-04-1.13864E-13
 -1      1942 1.13873E-03 4.80049E-04-7.42733E-16
 -1      1943 9.96943E-04 4.46797E-04-5.45028E-16
 -1      1944 9.64551E-04 4.17340E-04-5.61942E-16
 -1      1945 1.41788E-03 5.31540E-04-1.23638E-15
 -1      1946 1.27871E-03 5.08086E-04-9.73085E-16
 -1      1947 1.24906E-03 4.79945E-04-9.89904E-16
 -1      1948 1.69430E-03 5.67852E-04-1.85994E-15
 -1      1949 1.55625E-03 5.51348E-04-1.53177E-15
 -1      1950 1.52936E-03 5.24172E-04-1.54722E-15
 -1      1951 1.96991E-03 5.93168E-04-2.61293E-15
 -1      1952 1.83211E-03 5.81714E-04-2.22046E-15
 -1      1953 1.80764E-03 5.55175E-04-2.23375E-15
 -1      1954 2.24579E-03 6.10446E-04-3.49242E-15
 -1      1955 2.10778E-03 6.02687E-04-3.03682E-15
 -1      1956 2.08530E-03 5.76552E-04-3.04760E-15
 -1      1957 2.52250E-03 6.21866E-04-4.49859E-15
 -1      1958 2.38403E-03 6.16794E-04-3.98012E-15
 -1      1959 2.36316E-03 5.90905E-04-3.98756E-15
 -1      1960 2.80029E-03 6.29059E-04-5.62647E-15
 -1      1961 2.66126E-03 6.25920E-04-5.04703E-15
 -1      1962 2.64165E-03 6.00171E-04-5.05074E-15
 -1      1963 3.07922E-03 6.33248E-04-6.87803E-15
 -1      1964 2.93961E-03 6.31476E-04-6.23716E-15
 -1      1965 2.92100E-03 6.05797E-04-6.23622E-15
 -1      1966 3.35926E-03 6.35341E-04-8.24693E-15
 -1      1967 3.21911E-03 6.34518E-04-7.54775E-15
 -1      1968 3.20126E-03 6.08864E-04-7.54212E-15
 -1      1969 3.64032E-03 6.36000E-04-9.73443E-15
 -1      1970 3.49967E-03 6.35822E-04-8.97599E-15
 -1      1971 3.48241E-03 6.10166E-04-8.96566E-15
 -1      1972 3.92226E-03 6.35698E-04-1.13372E-14
 -1      1973 3.78119E-03 6.35951E-04-1.05212E-14
 -1      1974 3.76437E-03 6.10276E-04-1.05051E-14
 -1      1975 4.20497E-03 6.34755E-04-1.30559E-14
 -1      1976 4.06353E-03 6.35295E-04-1.21824E-14
 -1      1977 4.04704E-03 6.09596E-04-1.21605E-14
 -1      1978 4.48833E-03 6.33378E-04-1.48889E-14
 -1      1979 4.34658E-03 6.34114E-04-1.39580E-14
 -1      1980 4.33034E-03 6.08390E-04-1.39309E-14
 -1      1981 4.77222E-03 6.31681E-04-1.68330E-14
 -1      1982 4.63021E-03 6.32566E-04-1.58472E-14
 -1      1983 4.61416E-03 6.06820E-04-1.58129E-14
 -1      1984 5.05657E-03 6.29709E-04-1.88875E-14
 -1      1985 4.91434E-03 6.30729E-04-1.78465E-14
 -1      1986 4.89843E-03 6.04964E-04-1.78064E-14
 -1      1987 5.34135E-03 6.27457E-04-2.10535E-14
 -1      1988 5.19891E-03 6.28620E-04-1.99565E-14
 -1      1989 5.18311E-03 6.02842E-04-1.99092E-14
 -1      1990 5.62652E-03 6.24876E-04-2.33294E-14
 -1      1991 5.48389E-03 6.26210E-04-2.21776E-14
 -1      1992 5.46817E-03 6.00423E-04-2.21226E-14
 -1      1993 5.91213E-03 6.21893E-04-2.57097E-14
 -1      1994 5.76927E-03 6.23438E-04-2.45068E-14
 -1      1995 5.75361E-03 5.97646E-04-2.44444E-14
 -1      1996 6.19823E-03 6.18419E-04-2.81889E-14
 -1      1997 6.05511E-03 6.20221E-04-2.69377E-14
 -1      1998 6.03948E-03 5.94422E-04-2.68678E-14
 -1      1999 6.48495E-03 6.14363E-04-3.07586E-14
 -1      2000 6.34150E-03 6.16465E-04-2.94627E-14
 -1      2001 6.32587E-03 5.90658E-04-2.93862E-14
 -1      2002 6.77247E-03 6.09650E-04-3.34174E-14
 -1      2003 6.62860E-03 6.12087E-04-3.20778E-14
 -1      2004 6.61290E-03 5.86262E-04-3.19953E-14
 -1      2005 7.06104E-03 6.04246E-04-3.61633E-14
 -1      2006 6.91661E-03 6.07029E-04-3.47791E-14
 -1      2007 6.90076E-03 5.81169E-04-3.46909E-14
 -1      2008 7.35096E-03 5.98189E-04-3.89920E-14
 -1      2009 7.20580E-03 6.01287E-04-3.75670E-14
 -1      2010 7.18970E-03 5.75366E-04-3.74730E-14
 -1      2011 7.64261E-03 5.91631E-04-4.19062E-14
 -1      2012 7.49653E-03 5.94950E-04-4.04386E-14
 -1      2013 7.48001E-03 5.68927E-04-4.03384E-14
 -1      2014 7.93645E-03 5.84898E-04-4.48965E-14
 -1      2015 7.78922E-03 5.88251E-04-4.33925E-14
 -1      2016 7.77208E-03 5.62067E-04-4.32866E-14
 -1      2017 8.23299E-03 5.78565E-04-4.79644E-14
 -1      2018 8.08434E-03 5.81629E-04-4.64208E-14
 -1      2019 8.06632E-03 5.55203E-04-4.63104E-14
 -1      2020 8.53273E-03 5.73542E-04-5.11025E-14
 -1      2021 8.38241E-03 5.75815E-04-4.95246E-14
 -1      2022 8.36320E-03 5.49040E-04-4.94089E-14
 -1      2023 8.83618E-03 5.71174E-04-5.43107E-14
 -1      2024 8.68395E-03 5.71926E-04-5.26979E-14
 -1      2025 8.66319E-03 5.44661E-04-5.25775E-14
 -1      2026 9.14370E-03 5.73335E-04-5.75808E-14
 -1      2027 8.98940E-03 5.71561E-04-5.59381E-14
 -1      2028 8.96671E-03 5.43633E-04-5.58110E-14
 -1      2029 9.45539E-03 5.82467E-04-6.09107E-14
 -1      2030 9.29902E-03 5.76879E-04-5.92393E-14
 -1      2031 9.27407E-03 5.48087E-04-5.91060E-14
 -1      2032 9.77096E-03 6.01515E-04-6.42928E-14
 -1      2033 9.61274E-03 5.90594E-04-6.25951E-14
 -1      2034 9.58533E-03 5.60725E-04-6.24561E-14
 -1      2035 1.00895E-02 6.33629E-04-6.77330E-14
 -1      2036 9.92995E-03 6.15807E-04-6.60061E-14
 -1      2037 9.90019E-03 5.84684E-04-6.58612E-14
 -1      2038 1.04091E-02 6.81489E-04-7.12294E-14
 -1      2039 1.02493E-02 6.55543E-04-6.94742E-14
 -1      2040 1.02177E-02 6.23106E-04-6.93236E-14
 -1      2041 1.07272E-02 7.46121E-04-7.47881E-14
 -1      2042 1.05686E-02 7.11830E-04-7.30006E-14
 -1      2043 1.05363E-02 6.78263E-04-7.28421E-14
 -1      2044 1.10400E-02 8.25210E-04-7.84023E-14
 -1      2045 1.08846E-02 7.84247E-04-7.65881E-14
 -1      2046 1.08533E-02 7.50133E-04-7.64202E-14
 -1      2047 1.13436E-02 9.11344E-04-8.20716E-14
 -1      2048 1.11934E-02 8.68115E-04-8.02306E-14
 -1      2049 1.11651E-02 8.34533E-04-8.00516E-14
 -1      2050 1.16346E-02 9.91186E-04-8.57942E-14
 -1      2051 1.14909E-02 9.53044E-04-8.39260E-14
 -1      2052 1.14681E-02 9.21460E-04-8.37385E-14
 -1      2053 1.19117E-02 1.04700E-03-8.95676E-14
 -1      2054 1.17748E-02 1.02314E-03-8.76754E-14
 -1      2055 1.17591E-02 9.94978E-04-8.74785E-14
 -1      2056 1.21770E-02 1.06115E-03-9.33898E-14
 -1      2057 1.20454E-02 1.06001E-03-9.14727E-14
 -1      2058 1.20379E-02 1.03606E-03-9.12691E-14
 -1      2059 1.24355E-02 1.02223E-03-9.72619E-14
 -1      2060 1.23065E-02 1.04846E-03-9.53190E-14
 -1      2061 1.23074E-02 1.02843E-03-9.51076E-14
 -1      2062 1.26937E-02 9.29278E-04-1.01182E-13
 -1      2063 1.25641E-02 9.82030E-04-9.92169E-14
 -1      2064 1.25735E-02 9.64777E-04-9.89970E-14
 -1      2065 1.29564E-02 7.91156E-04-1.05147E-13
 -1      2066 1.28241E-02 8.65033E-04-1.03159E-13
 -1      2067 1.28418E-02 8.49217E-04-1.02932E-13
 -1      2068 1.32258E-02 6.21710E-04-1.09158E-13
 -1      2069 1.30902E-02 7.09523E-04-1.07147E-13
 -1      2070 1.31154E-02 6.94226E-04-1.06910E-13
 -1      2071 1.35012E-02 4.34149E-04-1.13210E-13
 -1      2072 1.33628E-02 5.29607E-04-1.11179E-13
 -1      2073 1.33945E-02 5.14493E-04-1.10933E-13
 -1      2074 1.37810E-02 2.38032E-04-1.17285E-13
 -1      2075 1.36407E-02 3.36792E-04-1.15245E-13
 -1      2076 1.36770E-02 3.21829E-04-1.14991E-13
 -1      2077 1.40197E-02 7.20890E-05-1.20647E-13
 -1      2078 1.38782E-02 1.71167E-04-1.18600E-13
 -1      2079 1.39168E-02 1.56141E-04-1.18342E-13
 -1      2080 1.41132E-02 2.21276E-05-1.20969E-13
 -1      2081 1.46252E-02-2.02845E-04-1.20215E-13
 -1      2082 1.45164E-02-1.59136E-04-1.20274E-13
 -1      2083 1.44140E-02-1.14044E-04-1.20330E-13
 -1      2084 1.43169E-02-6.94010E-05-1.20386E-13
 -1      2085 1.43359E-02-5.31935E-05-1.18548E-13
 -1      2086 1.42594E-02-4.51939E-05-1.20652E-13
 -1      2087 1.41681E-02-1.10150E-06-1.20703E-13
 -1      2088 1.40691E-02 6.60023E-05-1.19391E-13
 -1      2089 1.41796E-02 1.80479E-05-1.18864E-13
 -1      2090 1.48586E-02-2.84549E-04-1.20090E-13
 -1      2091 1.47386E-02-2.45264E-04-1.20154E-13
 -1      2092 1.45501E-02-1.45848E-04-1.18440E-13
 -1      2093 1.51165E-02-3.54458E-04-1.19956E-13
 -1      2094 1.49859E-02-3.22169E-04-1.20024E-13
 -1      2095 1.47926E-02-2.35642E-04-1.18319E-13
 -1      2096 1.53718E-02-4.02448E-04-1.19812E-13
 -1      2097 1.52466E-02-3.81923E-04-1.19885E-13
 -1      2098 1.50576E-02-3.15268E-04-1.18190E-13
 -1      2099 1.55833E-02-4.22796E-04-1.19663E-13
 -1      2100 1.54861E-02-4.15860E-04-1.19737E-13
 -1      2101 1.53154E-02-3.73463E-04-1.18052E-13
 -1      2102 1.57032E-02-4.19168E-04-1.19504E-13
 -1      2103 1.56574E-02-4.22451E-04-1.19586E-13
 -1      2104 1.55185E-02-4.03056E-04-1.17906E-13
 -1      2105 1.57005E-02-4.07144E-04-1.19343E-13
 -1      2106 1.57178E-02-4.11919E-04-1.19424E-13
 -1      2107 1.56146E-02-4.09593E-04-1.17756E-13
 -1      2108 1.55830E-02-4.06645E-04-1.19187E-13
 -1      2109 1.56542E-02-4.03776E-04-1.19263E-13
 -1      2110 1.55780E-02-4.12883E-04-1.17602E-13
 -1      2111 1.53829E-02-4.30445E-04-1.19034E-13
 -1      2112 1.54902E-02-4.15051E-04-1.19110E-13
 -1      2113 1.54263E-02-4.34322E-04-1.17449E-13
 -1      2114 1.51479E-02-4.79546E-04-1.18877E-13
 -1      2115 1.52673E-02-4.52463E-04-1.18955E-13
 -1      2116 1.52040E-02-4.83218E-04-1.17296E-13
 -1      2117 1.49129E-02-5.47056E-04-1.18718E-13
 -1      2118 1.50291E-02-5.11982E-04-1.18797E-13
 -1      2119 1.49611E-02-5.54327E-04-1.17139E-13
 -1      2120 1.46928E-02-1.85434E-04-1.04895E-13
 -1      2121 1.48718E-02-2.45641E-04-1.05221E-13
 -1      2122 1.51971E-02-3.70428E-04-1.05968E-13
 -1      2123 1.51992E-02-3.91220E-04-1.05740E-13
 -1      2124 1.50154E-02-2.99240E-04-1.05614E-13
 -1      2125 1.51239E-02-3.36731E-04-1.06006E-13
 -1      2126 1.49484E-02-2.98262E-04-1.06374E-13
 -1      2127 1.42025E-02 2.93000E-05-1.03522E-13
 -1      2128 1.44261E-02-8.04382E-05-1.04297E-13
 -1      2129 1.37371E-02 2.84001E-04-1.01714E-13
 -1      2130 1.39574E-02 1.60096E-04-1.02570E-13
 -1      2131 3.27169E-04-8.89412E-05-1.80384E-16
 -1      2132 3.29257E-04-1.02110E-04-1.73527E-16
 -1      2133 4.46299E-04-1.45073E-04-2.52443E-16
 -1      2134 4.39992E-04-1.09909E-04-2.71064E-16
 -1      2135 1.29214E-02 7.30677E-04-9.71711E-14
 -1      2136 1.30973E-02 6.51552E-04-9.82661E-14
 -1      2137 1.25444E-02 8.07967E-04-9.44603E-14
 -1      2138 1.26970E-02 7.93685E-04-9.55947E-14
 -1      2139 1.22393E-02 7.55552E-04-9.23004E-14
 -1      2140 1.23900E-02 7.94912E-04-9.33796E-14
 -1      2141 1.24597E-02 8.13719E-04-9.38650E-14
 -1      2142 1.18542E-02 5.89255E-04-8.99798E-14
 -1      2143 1.20264E-02 6.74930E-04-9.09734E-14
 -1      2144 1.14739E-02 3.80634E-04-8.79949E-14
 -1      2145 1.16550E-02 4.83042E-04-8.88687E-14
 -1      2146 1.10701E-02 1.72143E-04-8.63926E-14
 -1      2147 1.12521E-02 2.64675E-04-8.70732E-14
 -1      2148 1.07347E-02 1.62727E-05-8.52078E-14
 -1      2149 1.08979E-02 9.09820E-05-8.57989E-14
 -1      2150 1.10049E-02 1.16122E-04-8.54870E-14
 -1      2151 1.04245E-02-1.08937E-04-8.42602E-14
 -1      2152 1.05466E-02-6.42085E-05-8.45814E-14
 -1      2153 1.02627E-02-1.79460E-04-8.35290E-14
 -1      2154 1.03272E-02-1.51041E-04-8.38940E-14
 -1      2155 1.03713E-02-1.42208E-04-8.32851E-14
 -1      2156 1.02632E-02-2.35027E-04-8.35749E-14
 -1      2157 1.02366E-02-2.11465E-04-8.33859E-14
 -1      2158 1.04252E-02-3.04629E-04-8.39301E-14
 -1      2159 1.03248E-02-2.68441E-04-8.37526E-14
 -1      2160 1.02873E-02-2.35821E-04-8.28154E-14
 -1      2161 1.07660E-02-4.62428E-04-8.50740E-14
 -1      2162 1.05981E-02-3.81686E-04-8.44837E-14
 -1      2163 1.11630E-02-6.70204E-04-8.63470E-14
 -1      2164 1.09680E-02-5.62575E-04-8.56817E-14
 -1      2165 1.15788E-02-9.35393E-04-8.81374E-14
 -1      2166 1.13906E-02-8.12741E-04-8.73202E-14
 -1      2167 1.19626E-02-1.17892E-03-8.99506E-14
 -1      2168 1.17809E-02-1.06326E-03-8.90641E-14
 -1      2169 1.23321E-02-1.38173E-03-9.21241E-14
 -1      2170 1.21736E-02-1.30012E-03-9.11257E-14
 -1      2171 1.26462E-02-1.46923E-03-9.41967E-14
 -1      2172 1.24932E-02-1.43845E-03-9.31578E-14
 -1      2173 1.24200E-02-1.41853E-03-9.24703E-14
 -1      2174 1.30173E-02-1.42904E-03-9.67090E-14
 -1      2175 1.28572E-02-1.46708E-03-9.56469E-14
 -1      2176 1.33570E-02-1.28440E-03-9.87465E-14
 -1      2177 1.31854E-02-1.36920E-03-9.77268E-14
 -1      2178 1.30791E-02-1.40786E-03-9.74169E-14
 -1      2179 1.37871E-02-1.04615E-03-1.00967E-13
 -1      2180 1.35965E-02-1.15405E-03-1.00101E-13
 -1      2181 1.42143E-02-8.29794E-04-1.02472E-13
 -1      2182 1.40171E-02-9.34730E-04-1.01721E-13
 -1      2183 1.46141E-02-6.36901E-04-1.03894E-13
 -1      2184 1.44317E-02-7.19626E-04-1.03298E-13
 -1      2185 1.49456E-02-4.98975E-04-1.05023E-13
 -1      2186 1.48020E-02-5.52593E-04-1.04592E-13
 -1      2187 1.51614E-02-4.19387E-04-1.05505E-13
 -1      2188 1.50840E-02-4.50197E-04-1.05267E-13
 -1      2189 1.51897E-02-3.99560E-04-1.06445E-13
 -1      2190 1.32778E-02 5.58018E-04-9.93356E-14
 -1      2191 1.34604E-02 4.43671E-04-1.00407E-13
 -1      2192 1.31483E-02 6.05776E-04-9.91798E-14
 -1      2193 1.35648E-02 3.56417E-04-1.01564E-13
 -1      2194 6.07925E-04-2.98095E-04-2.56536E-16
 -1      2195 6.63642E-04-2.92375E-04-3.51553E-16
 -1      2196 1.51771E-02-3.63492E-04-1.06723E-13
 -1      2197 1.52105E-02-3.76726E-04-1.07437E-13
 -1      2198 1.51431E-02-3.60049E-04-1.07480E-13
 -1      2199 1.45532E-02-1.57667E-04-1.05384E-13
 -1      2200 1.47805E-02-6.01962E-04-1.18083E-13
 -1      2201 1.40599E-02 6.93325E-05-1.03832E-13
 -1      2202 1.50238E-02-4.55997E-04-1.05963E-13
 -1      2203 1.47015E-02-5.68117E-04-1.05017E-13
 -1      2204 1.43035E-02-7.50435E-04-1.03490E-13
 -1      2205 1.34483E-02-1.21991E-03-9.97891E-14
 -1      2206 1.27504E-02-1.48213E-03-9.49485E-14
 -1      2207 1.20886E-02-1.24094E-03-9.02660E-14
 -1      2208 1.17081E-02-9.87315E-04-8.81711E-14
 -1      2209 1.12976E-02-7.18585E-04-8.62772E-14
 -1      2210 1.05101E-02-3.20841E-04-8.35450E-14
 -1      2211 1.02347E-02-1.95049E-04-8.27800E-14
 -1      2212 1.02470E-02-1.83708E-04-8.21727E-14
 -1      2213 1.02243E-02-1.99086E-04-8.20323E-14
 -1      2214 1.06481E-02-3.94033E-05-8.42725E-14
 -1      2215 1.13773E-02 3.10627E-04-8.69938E-14
 -1      2216 1.21442E-02 7.25540E-04-9.14556E-14
 -1      2217 1.27895E-02 7.72660E-04-9.65246E-14
 -1      2218 1.17665E-02 5.33493E-04-8.90206E-14
 -1      2219 1.08842E-02-4.86003E-04-8.47026E-14
 -1      2220 1.38743E-02-9.72536E-04-1.01905E-13
 -1      2221 1.01666E-03 3.99777E-04-7.06764E-16
 -1      2222 8.72185E-04 3.63394E-04-5.19414E-16
 -1      2223 5.47753E-04-5.52887E-05-4.11455E-16
 -1      2224 5.48793E-04-7.20035E-05-4.08622E-16
 -1      2225 5.50218E-04-8.93252E-05-4.04435E-16
 -1      2226 5.52084E-04-1.07310E-04-3.98607E-16
 -1      2227 6.65258E-04-9.54751E-05-5.51385E-16
 -1      2228 5.46365E-04 8.85415E-06-4.12905E-16
 -1      2229 5.46345E-04-6.97989E-06-4.14219E-16
 -1      2230 5.47123E-04 4.08584E-05-4.07931E-16
 -1      2231 5.46621E-04 2.47872E-05-4.10858E-16
 -1      2232 6.61294E-04 1.99265E-05-5.58269E-16
 -1      2233 5.48956E-04 7.34740E-05-3.98620E-16
 -1      2234 5.47889E-04 5.69847E-05-4.03987E-16
 -1      2235 6.62625E-04 5.77757E-05-5.50436E-16
 -1      2236 5.52359E-04 1.08940E-04-3.84201E-16
 -1      2237 5.50429E-04 9.08685E-05-3.92115E-16
 -1      2238 6.65495E-04 9.72383E-05-5.37019E-16
 -1      2239 5.58254E-04 1.48271E-04-3.62178E-16
 -1      2240 5.54928E-04 1.28048E-04-3.74294E-16
 -1      2241 6.70602E-04 1.40003E-04-5.16433E-16
 -1      2242 5.68599E-04 1.93867E-04-3.29543E-16
 -1      2243 5.62752E-04 1.70150E-04-3.47473E-16
 -1      2244 6.79271E-04 1.87543E-04-4.85899E-16
 -1      2245 1.30214E-03 4.56721E-04-1.17705E-15
 -1      2246 1.15981E-03 4.30777E-04-9.25624E-16
 -1      2247 1.07183E-03 3.81296E-04-8.58390E-16
 -1      2248 9.15235E-04-3.46329E-04-6.84701E-16
 -1      2249 1.05934E-03-3.79652E-04-9.03276E-16
 -1      2250 5.88507E-04-2.37948E-04-3.26236E-16
 -1      2251 7.81343E-04-3.04761E-04-5.20742E-16
 -1      2252 8.40759E-04-2.93566E-04-6.40032E-16
 -1      2253 5.78984E-04-2.10176E-04-3.48246E-16
 -1      2254 1.34275E-02 4.21391E-04-1.01537E-13
 -1      2255 1.36682E-02 2.70592E-04-1.02854E-13
 -1      2256 1.20260E-03-4.08046E-04-1.15462E-15
 -1      2257 1.34542E-03-4.31925E-04-1.43891E-15
 -1      2258 1.11702E-03-3.60481E-04-1.06187E-15
 -1      2259 1.48760E-03-4.52143E-04-1.75603E-15
 -1      2260 1.62939E-03-4.68988E-04-2.10647E-15
 -1      2261 1.40336E-03-4.07252E-04-1.63734E-15
 -1      2262 1.77082E-03-4.83124E-04-2.48936E-15
 -1      2263 1.91201E-03-4.94774E-04-2.90489E-15
 -1      2264 1.68850E-03-4.40494E-04-2.34291E-15
 -1      2265 2.05305E-03-5.04426E-04-3.35257E-15
 -1      2266 2.19397E-03-5.12261E-04-3.83307E-15
 -1      2267 1.97269E-03-4.63555E-04-3.17744E-15
 -1      2268 2.33488E-03-5.18636E-04-4.34518E-15
 -1      2269 2.47577E-03-5.23698E-04-4.88930E-15
 -1      2270 2.25634E-03-4.79078E-04-4.14042E-15
 -1      2271 2.61673E-03-5.27707E-04-5.46464E-15
 -1      2272 2.75773E-03-5.30781E-04-6.07050E-15
 -1      2273 2.53976E-03-4.89102E-04-5.22928E-15
 -1      2274 2.89883E-03-5.33109E-04-6.70677E-15
 -1      2275 3.04001E-03-5.34783E-04-7.37287E-15
 -1      2276 2.82318E-03-4.95178E-04-6.44138E-15
 -1      2277 3.18132E-03-5.35939E-04-8.06760E-15
 -1      2278 3.32272E-03-5.36648E-04-8.79066E-15
 -1      2279 3.10676E-03-4.98475E-04-7.77216E-15
 -1      2280 3.46424E-03-5.37006E-04-9.54210E-15
 -1      2281 3.60586E-03-5.37065E-04-1.03218E-14
 -1      2282 3.39055E-03-4.99857E-04-9.21786E-15
 -1      2283 3.74760E-03-5.36891E-04-1.11293E-14
 -1      2284 3.88943E-03-5.36521E-04-1.19633E-14
 -1      2285 3.67461E-03-4.99950E-04-1.07750E-14
 -1      2286 4.03137E-03-5.35998E-04-1.28236E-14
 -1      2287 4.17339E-03-5.35347E-04-1.37122E-14
 -1      2288 3.95893E-03-4.99194E-04-1.24415E-14
 -1      2289 4.31551E-03-5.34593E-04-1.46268E-14
 -1      2290 4.45771E-03-5.33753E-04-1.55664E-14
 -1      2291 4.24349E-03-4.97884E-04-1.42153E-14
 -1      2292 4.59999E-03-5.32837E-04-1.65322E-14
 -1      2293 4.74234E-03-5.31856E-04-1.75239E-14
 -1      2294 4.52830E-03-4.96201E-04-1.60942E-14
 -1      2295 4.88477E-03-5.30808E-04-1.85399E-14
 -1      2296 5.02726E-03-5.29697E-04-1.95798E-14
 -1      2297 4.81331E-03-4.94239E-04-1.80748E-14
 -1      2298 5.16983E-03-5.28517E-04-2.06449E-14
 -1      2299 5.31245E-03-5.27266E-04-2.17355E-14
 -1      2300 5.09853E-03-4.92024E-04-2.01550E-14
 -1      2301 5.45515E-03-5.25929E-04-2.28502E-14
 -1      2302 5.59792E-03-5.24503E-04-2.39899E-14
 -1      2303 5.38395E-03-4.89530E-04-2.23339E-14
 -1      2304 5.74076E-03-5.22968E-04-2.51544E-14
 -1      2305 5.88369E-03-5.21318E-04-2.63424E-14
 -1      2306 5.66958E-03-4.86689E-04-2.46122E-14
 -1      2307 6.02669E-03-5.19530E-04-2.75560E-14
 -1      2308 6.16980E-03-5.17597E-04-2.87946E-14
 -1      2309 5.95544E-03-4.83403E-04-2.69884E-14
 -1      2310 6.31300E-03-5.15493E-04-3.00584E-14
 -1      2311 6.45633E-03-5.13211E-04-3.13454E-14
 -1      2312 6.24157E-03-4.79553E-04-2.94653E-14
 -1      2313 6.59979E-03-5.10723E-04-3.26576E-14
 -1      2314 6.74340E-03-5.08028E-04-3.39937E-14
 -1      2315 6.52803E-03-4.75008E-04-3.20402E-14
 -1      2316 6.88718E-03-5.05097E-04-3.53525E-14
 -1      2317 7.03116E-03-5.01933E-04-3.67337E-14
 -1      2318 6.81491E-03-4.69638E-04-3.47105E-14
 -1      2319 7.17535E-03-4.98514E-04-3.81375E-14
 -1      2320 7.31981E-03-4.94849E-04-3.95621E-14
 -1      2321 7.10231E-03-4.63335E-04-3.74720E-14
 -1      2322 7.46452E-03-4.90928E-04-4.10058E-14
 -1      2323 7.60958E-03-4.86774E-04-4.24699E-14
 -1      2324 7.39036E-03-4.56035E-04-4.03196E-14
 -1      2325 7.75496E-03-4.82394E-04-4.39517E-14
 -1      2326 7.90077E-03-4.77831E-04-4.54505E-14
 -1      2327 7.67922E-03-4.47757E-04-4.32444E-14
 -1      2328 8.04699E-03-4.73124E-04-4.69640E-14
 -1      2329 8.19374E-03-4.68344E-04-4.84948E-14
 -1      2330 7.96909E-03-4.38660E-04-4.62406E-14
 -1      2331 8.34099E-03-4.63582E-04-5.00403E-14
 -1      2332 8.48891E-03-4.58950E-04-5.15995E-14
 -1      2333 8.26017E-03-4.29120E-04-4.93013E-14
 -1      2334 8.63743E-03-4.54614E-04-5.31706E-14
 -1      2335 8.78675E-03-4.50748E-04-5.47548E-14
 -1      2336 8.55272E-03-4.19838E-04-5.24191E-14
 -1      2337 8.93682E-03-4.47631E-04-5.63508E-14
 -1      2338 9.08787E-03-4.45523E-04-5.79591E-14
 -1      2339 8.84706E-03-4.12001E-04-5.55884E-14
 -1      2340 9.23983E-03-4.44858E-04-5.95788E-14
 -1      2341 9.39299E-03-4.46028E-04-6.12077E-14
 -1      2342 9.14364E-03-4.07483E-04-5.88025E-14
 -1      2343 9.54734E-03-4.49658E-04-6.28492E-14
 -1      2344 9.70316E-03-4.56340E-04-6.45023E-14
 -1      2345 9.44316E-03-4.09117E-04-6.20648E-14
 -1      2346 9.86059E-03-4.66911E-04-6.61650E-14
 -1      2347 1.00199E-02-4.82253E-04-6.78377E-14
 -1      2348 9.74684E-03-4.21030E-04-6.53710E-14
 -1      2349 1.01815E-02-5.03370E-04-6.95196E-14
 -1      2350 1.03454E-02-5.31552E-04-7.12111E-14
 -1      2351 1.00568E-02-4.49015E-04-6.87183E-14
 -1      2352 1.05126E-02-5.67797E-04-7.29114E-14
 -1      2353 1.06828E-02-6.13867E-04-7.46202E-14
 -1      2354 1.03765E-02-5.00888E-04-7.21032E-14
 -1      2355 1.08573E-02-6.70403E-04-7.63362E-14
 -1      2356 1.10349E-02-7.39281E-04-7.80617E-14
 -1      2357 1.07111E-02-5.86669E-04-7.55211E-14
 -1      2358 1.12175E-02-8.20165E-04-7.97953E-14
 -1      2359 1.14021E-02-9.13852E-04-8.15409E-14
 -1      2360 1.10661E-02-7.17637E-04-7.89745E-14
 -1      2361 1.15901E-02-1.01818E-03-8.32977E-14
 -1      2362 1.17769E-02-1.13007E-03-8.50662E-14
 -1      2363 1.14430E-02-9.02054E-04-8.24667E-14
 -1      2364 1.19625E-02-1.24484E-03-8.68466E-14
 -1      2365 1.21432E-02-1.35229E-03-8.86388E-14
 -1      2366 1.18321E-02-1.13282E-03-8.60053E-14
 -1      2367 1.23173E-02-1.44555E-03-9.04473E-14
 -1      2368 1.24873E-02-1.51244E-03-9.22694E-14
 -1      2369 1.22123E-02-1.36461E-03-8.95941E-14
 -1      2370 1.26498E-02-1.54801E-03-9.41076E-14
 -1      2371 1.28151E-02-1.54727E-03-9.59603E-14
 -1      2372 1.25682E-02-1.51229E-03-9.32422E-14
 -1      2373 1.29791E-02-1.51212E-03-9.78252E-14
 -1      2374 1.31496E-02-1.44980E-03-9.97077E-14
 -1      2375 1.29142E-02-1.50769E-03-9.69498E-14
 -1      2376 1.33246E-02-1.36550E-03-1.01603E-13
 -1      2377 1.35020E-02-1.27311E-03-1.03506E-13
 -1      2378 1.32766E-02-1.36548E-03-1.00715E-13
 -1      2379 1.36816E-02-1.17705E-03-1.05421E-13
 -1      2380 1.38582E-02-1.08191E-03-1.07346E-13
 -1      2381 1.36546E-02-1.16818E-03-1.04529E-13
 -1      2382 1.40327E-02-9.90359E-04-1.09279E-13
 -1      2383 1.42013E-02-9.03036E-04-1.11220E-13
 -1      2384 1.40274E-02-9.77993E-04-1.08378E-13
 -1      2385 1.48823E-02-2.92953E-04-1.07195E-13
 -1      2386 1.50172E-02-3.29127E-04-1.07584E-13
 -1      2387 1.86535E-03 5.25239E-04-2.50102E-15
 -1      2388 1.72511E-03 5.12487E-04-2.12211E-15
 -1      2389 2.14545E-03 5.44523E-04-3.35253E-15
 -1      2390 2.00545E-03 5.35857E-04-2.91137E-15
 -1      2391 1.92465E-03 4.94621E-04-2.77273E-15
 -1      2392 2.42552E-03 5.57318E-04-4.32857E-15
 -1      2393 2.28547E-03 5.51626E-04-3.82486E-15
 -1      2394 2.20676E-03 5.11886E-04-3.66161E-15
 -1      2395 2.70594E-03 5.65428E-04-5.42647E-15
 -1      2396 2.56568E-03 5.61877E-04-4.86278E-15
 -1      2397 2.48871E-03 5.23203E-04-4.67275E-15
 -1      2398 2.98691E-03 5.70208E-04-6.64653E-15
 -1      2399 2.84636E-03 5.68172E-04-6.02118E-15
 -1      2400 2.77081E-03 5.30240E-04-5.80562E-15
 -1      2401 3.26851E-03 5.72663E-04-7.98408E-15
 -1      2402 3.12764E-03 5.71679E-04-7.30073E-15
 -1      2403 3.05322E-03 5.34251E-04-7.05849E-15
 -1      2404 3.55075E-03 5.73531E-04-9.43919E-15
 -1      2405 3.40956E-03 5.73261E-04-8.69704E-15
 -1      2406 3.33603E-03 5.36165E-04-8.42849E-15
 -1      2407 3.83358E-03 5.73337E-04-1.10093E-14
 -1      2408 3.69210E-03 5.73542E-04-1.02099E-14
 -1      2409 3.61926E-03 5.36658E-04-9.91428E-15
 -1      2410 4.11696E-03 5.72444E-04-1.26949E-14
 -1      2411 3.97521E-03 5.72961E-04-1.18377E-14
 -1      2412 3.90290E-03 5.36209E-04-1.15157E-14
 -1      2413 4.40080E-03 5.71086E-04-1.44939E-14
 -1      2414 4.25883E-03 5.71812E-04-1.35802E-14
 -1      2415 4.18693E-03 5.35144E-04-1.32306E-14
 -1      2416 4.68506E-03 5.69401E-04-1.64036E-14
 -1      2417 4.54289E-03 5.70278E-04-1.54347E-14
 -1      2418 4.47130E-03 5.33668E-04-1.50584E-14
 -1      2419 4.96969E-03 5.67448E-04-1.84233E-14
 -1      2420 4.82734E-03 5.68455E-04-1.74000E-14
 -1      2421 4.75597E-03 5.31893E-04-1.69950E-14
 -1      2422 5.25465E-03 5.65229E-04-2.05533E-14
 -1      2423 5.11213E-03 5.66372E-04-1.94747E-14
 -1      2424 5.04092E-03 5.29863E-04-1.90423E-14
 -1      2425 5.53994E-03 5.62703E-04-2.27923E-14
 -1      2426 5.39726E-03 5.64007E-04-2.16589E-14
 -1      2427 5.32614E-03 5.27565E-04-2.11979E-14
 -1      2428 5.82557E-03 5.59797E-04-2.51375E-14
 -1      2429 5.68271E-03 5.61301E-04-2.39526E-14
 -1      2430 5.61162E-03 5.24946E-04-2.34621E-14
 -1      2431 6.11159E-03 5.56416E-04-2.75838E-14
 -1      2432 5.96853E-03 5.58169E-04-2.63480E-14
 -1      2433 5.89739E-03 5.21925E-04-2.58315E-14
 -1      2434 6.39809E-03 5.52460E-04-3.01224E-14
 -1      2435 6.25477E-03 5.54513E-04-2.88416E-14
 -1      2436 6.18349E-03 5.18401E-04-2.82984E-14
 -1      2437 6.68518E-03 5.47837E-04-3.27526E-14
 -1      2438 6.54155E-03 5.50233E-04-3.14265E-14
 -1      2439 6.47001E-03 5.14271E-04-3.08598E-14
 -1      2440 6.97303E-03 5.42484E-04-3.54694E-14
 -1      2441 6.82899E-03 5.45250E-04-3.40995E-14
 -1      2442 6.75703E-03 5.09443E-04-3.35102E-14
 -1      2443 7.26186E-03 5.36398E-04-3.82698E-14
 -1      2444 7.11730E-03 5.39526E-04-3.68588E-14
 -1      2445 7.04471E-03 5.03860E-04-3.62459E-14
 -1      2446 7.55193E-03 5.29672E-04-4.11560E-14
 -1      2447 7.40671E-03 5.33101E-04-3.97022E-14
 -1      2448 7.33323E-03 4.97530E-04-3.90674E-14
 -1      2449 7.84357E-03 5.22552E-04-4.41218E-14
 -1      2450 7.69752E-03 5.26137E-04-4.26297E-14
 -1      2451 7.62280E-03 4.90566E-04-4.19732E-14
 -1      2452 8.13713E-03 5.15501E-04-4.71637E-14
 -1      2453 7.99007E-03 5.18979E-04-4.56338E-14
 -1      2454 7.91370E-03 4.83244E-04-4.49575E-14
 -1      2455 8.43303E-03 5.09290E-04-5.02791E-14
 -1      2456 8.28474E-03 5.12232E-04-4.87129E-14
 -1      2457 8.20626E-03 4.76071E-04-4.80171E-14
 -1      2458 8.73170E-03 5.05090E-04-5.34620E-14
 -1      2459 8.58198E-03 5.06854E-04-5.18620E-14
 -1      2460 8.50085E-03 4.69875E-04-5.11487E-14
 -1      2461 9.03357E-03 5.04578E-04-5.67085E-14
 -1      2462 8.88220E-03 5.04258E-04-5.50772E-14
 -1      2463 8.79790E-03 4.65903E-04-5.43467E-14
 -1      2464 9.33900E-03 5.10011E-04-6.00135E-14
 -1      2465 9.18583E-03 5.06403E-04-5.83531E-14
 -1      2466 9.09790E-03 4.65922E-04-5.76041E-14
 -1      2467 9.64825E-03 5.24224E-04-6.33722E-14
 -1      2468 9.49317E-03 5.15841E-04-6.16866E-14
 -1      2469 9.40139E-03 4.72288E-04-6.09189E-14
 -1      2470 9.96131E-03 5.50466E-04-6.67886E-14
 -1      2471 9.80438E-03 5.35650E-04-6.50736E-14
 -1      2472 9.70891E-03 4.87942E-04-6.42883E-14
 -1      2473 1.02777E-02 5.91921E-04-7.02592E-14
 -1      2474 1.01193E-02 5.69127E-04-6.85165E-14
 -1      2475 1.00209E-02 5.16233E-04-6.77136E-14
 -1      2476 1.05964E-02 6.50762E-04-7.37853E-14
 -1      2477 1.04371E-02 6.19107E-04-7.20143E-14
 -1      2478 1.03375E-02 5.60424E-04-7.11920E-14
 -1      2479 1.09152E-02 7.26596E-04-7.73676E-14
 -1      2480 1.07562E-02 6.86721E-04-7.55704E-14
 -1      2481 1.06580E-02 6.22688E-04-7.47251E-14
 -1      2482 1.12306E-02 8.14415E-04-8.10049E-14
 -1      2483 1.10737E-02 7.69540E-04-7.91804E-14
 -1      2484 1.09806E-02 7.02404E-04-7.83130E-14
 -1      2485 1.15386E-02 9.02810E-04-8.46986E-14
 -1      2486 1.13859E-02 8.59527E-04-8.28454E-14
 -1      2487 1.13014E-02 7.93808E-04-8.19566E-14
 -1      2488 1.18358E-02 9.73978E-04-8.84419E-14
 -1      2489 1.16886E-02 9.41841E-04-8.65625E-14
 -1      2490 1.16155E-02 8.83837E-04-8.56551E-14
 -1      2491 1.21216E-02 1.00744E-03-9.22380E-14
 -1      2492 1.19797E-02 9.96637E-04-9.03351E-14
 -1      2493 1.19189E-02 9.52359E-04-8.94028E-14
 -1      2494 1.23999E-02 9.87135E-04-9.60821E-14
 -1      2495 1.22610E-02 1.00461E-03-9.41532E-14
 -1      2496 1.22114E-02 9.77040E-04-9.32029E-14
 -1      2497 1.26768E-02 9.08288E-04-9.99733E-14
 -1      2498 1.25378E-02 9.54774E-04-9.80212E-14
 -1      2499 1.24979E-02 9.42364E-04-9.70500E-14
 -1      2500 1.29577E-02 7.78743E-04-1.03911E-13
 -1      2501 1.28164E-02 8.48955E-04-1.01937E-13
 -1      2502 1.27857E-02 8.47040E-04-1.00946E-13
 -1      2503 1.32439E-02 6.13812E-04-1.07895E-13
 -1      2504 1.31001E-02 6.99673E-04-1.05898E-13
 -1      2505 1.30792E-02 7.03437E-04-1.04889E-13
 -1      2506 1.35334E-02 4.28768E-04-1.11920E-13
 -1      2507 1.33885E-02 5.23015E-04-1.09901E-13
 -1      2508 1.33775E-02 5.29606E-04-1.08876E-13
 -1      2509 1.38232E-02 2.34267E-04-1.15974E-13
 -1      2510 1.36785E-02 3.32342E-04-1.13944E-13
 -1      2511 1.36767E-02 3.40876E-04-1.12901E-13
 -1      2512 1.39701E-02 1.33133E-04-1.18079E-13
 -1      2513 1.47233E-02-1.96032E-04-1.16554E-13
 -1      2514 1.45933E-02-1.46184E-04-1.16612E-13
 -1      2515 1.49971E-02-2.88487E-04-1.16430E-13
 -1      2516 1.48588E-02-2.44678E-04-1.16493E-13
 -1      2517 1.46521E-02-1.66272E-04-1.14795E-13
 -1      2518 1.42548E-02 4.61242E-06-1.16774E-13
 -1      2519 1.41552E-02 5.31902E-05-1.16821E-13
 -1      2520 1.44724E-02-9.49388E-05-1.16669E-13
 -1      2521 1.43601E-02-4.53221E-05-1.16721E-13
 -1      2522 1.41692E-02 5.84388E-05-1.15002E-13
 -1      2523 1.43920E-02-5.16139E-05-1.14902E-13
 -1      2524 1.52605E-02-3.58127E-04-1.16296E-13
 -1      2525 1.51336E-02-3.27275E-04-1.16364E-13
 -1      2526 1.49387E-02-2.72681E-04-1.14677E-13
 -1      2527 1.54564E-02-3.94608E-04-1.16156E-13
 -1      2528 1.53715E-02-3.79868E-04-1.16227E-13
 -1      2529 1.52110E-02-3.51098E-04-1.14549E-13
 -1      2530 1.55256E-02-4.07314E-04-1.16012E-13
 -1      2531 1.55097E-02-4.01340E-04-1.16085E-13
 -1      2532 1.53976E-02-3.90383E-04-1.14414E-13
 -1      2533 1.54495E-02-4.22983E-04-1.15863E-13
 -1      2534 1.55041E-02-4.11795E-04-1.15937E-13
 -1      2535 1.54319E-02-4.07459E-04-1.14273E-13
 -1      2536 1.52586E-02-4.66658E-04-1.15714E-13
 -1      2537 1.53641E-02-4.40289E-04-1.15787E-13
 -1      2538 1.53072E-02-4.38653E-04-1.14129E-13
 -1      2539 1.50146E-02-5.40979E-04-1.15564E-13
 -1      2540 1.51393E-02-5.00875E-04-1.15641E-13
 -1      2541 1.50771E-02-5.07643E-04-1.13985E-13
 -1      2542 1.47674E-02-6.33277E-04-1.15407E-13
 -1      2543 1.48895E-02-5.86462E-04-1.15483E-13
 -1      2544 1.48159E-02-6.07828E-04-1.13834E-13
 -1      2545 1.46507E-02-6.74638E-04-1.16333E-13
 -1      2546 1.39325E-02 1.16911E-04-1.04235E-13
 -1      2547 1.41526E-02-7.62766E-07-1.05191E-13
 -1      2548 1.58458E-03 4.97053E-04-1.77497E-15
 -1      2549 1.44364E-03 4.78725E-04-1.46003E-15
 -1      2550 1.64191E-03 4.69198E-04-2.00819E-15
 -1      2551 1.44553E-02-1.40023E-04-1.06238E-13
 -1      2552 1.46937E-02-2.31596E-04-1.06837E-13
 -1      2553 1.51021E-02-4.25613E-04-1.07070E-13
 -1      2554 1.49783E-02-4.57830E-04-1.06823E-13
 -1      2555 1.52127E-02-3.95119E-04-1.07549E-13
 -1      2556 1.51714E-02-4.05353E-04-1.07310E-13
 -1      2557 1.51491E-02-4.14191E-04-1.08172E-13
 -1      2558 1.21875E-02-1.29840E-03-9.04748E-14
 -1      2559 1.20143E-02-1.18031E-03-8.93050E-14
 -1      2560 1.12740E-02 2.45930E-04-8.58662E-14
 -1      2561 1.14653E-02 3.56336E-04-8.67802E-14
 -1      2562 5.46560E-04-2.28962E-05-4.14287E-16
 -1      2563 5.47019E-04-3.89339E-05-4.13230E-16
 -1      2564 6.62475E-04-5.58056E-05-5.59069E-16
 -1      2565 6.61241E-04-1.77024E-05-5.61156E-16
 -1      2566 1.26759E-02 8.05754E-04-9.58547E-14
 -1      2567 1.28560E-02 7.44311E-04-9.74365E-14
 -1      2568 1.16911E-02 4.87796E-04-8.80875E-14
 -1      2569 1.18610E-02 5.89425E-04-8.91945E-14
 -1      2570 1.23874E-02 8.12699E-04-9.32596E-14
 -1      2571 1.25054E-02 8.24557E-04-9.43432E-14
 -1      2572 1.09736E-02-5.06448E-04-8.41400E-14
 -1      2573 1.07909E-02-4.18084E-04-8.35370E-14
 -1      2574 1.20397E-02 6.85216E-04-9.03878E-14
 -1      2575 1.22069E-02 7.63452E-04-9.17135E-14
 -1      2576 1.09210E-02 6.64749E-05-8.44455E-14
 -1      2577 1.10748E-02 1.41125E-04-8.50332E-14
 -1      2578 1.05612E-02-8.10582E-05-8.31116E-14
 -1      2579 1.07363E-02-1.49959E-05-8.37319E-14
 -1      2580 1.03247E-02-1.56056E-04-8.22472E-14
 -1      2581 1.04174E-02-1.30714E-04-8.26104E-14
 -1      2582 1.03082E-02-2.31141E-04-8.18179E-14
 -1      2583 1.02496E-02-2.14862E-04-8.16406E-14
 -1      2584 1.39981E-02-8.86204E-04-1.03015E-13
 -1      2585 1.38032E-02-9.97609E-04-1.02256E-13
 -1      2586 1.05967E-02-3.33645E-04-8.28984E-14
 -1      2587 1.04334E-02-2.74925E-04-8.23471E-14
 -1      2588 1.14281E-02-7.77900E-04-8.61872E-14
 -1      2589 1.12198E-02-6.46316E-04-8.52200E-14
 -1      2590 1.18094E-02-1.03975E-03-8.81311E-14
 -1      2591 1.16355E-02-9.16466E-04-8.72104E-14
 -1      2592 1.24905E-02-1.45159E-03-9.28521E-14
 -1      2593 1.23630E-02-1.39567E-03-9.18223E-14
 -1      2594 1.28162E-02-1.48850E-03-9.56039E-14
 -1      2595 1.26519E-02-1.49075E-03-9.41577E-14
 -1      2596 1.31445E-02-1.37900E-03-9.82402E-14
 -1      2597 1.30130E-02-1.43887E-03-9.72227E-14
 -1      2598 1.35428E-02-1.15143E-03-1.00953E-13
 -1      2599 1.33384E-02-1.27640E-03-9.95944E-14
 -1      2600 1.32580E-02-1.32311E-03-9.93950E-14
 -1      2601 1.43979E-02-6.81846E-04-1.04674E-13
 -1      2602 1.41976E-02-7.81150E-04-1.03844E-13
 -1      2603 1.41185E-02-8.17153E-04-1.04195E-13
 -1      2604 1.47686E-02-5.28572E-04-1.06075E-13
 -1      2605 1.45888E-02-5.97484E-04-1.05373E-13
 -1      2606 1.44925E-02-6.35508E-04-1.05728E-13
 -1      2607 1.30523E-02 6.48868E-04-9.90305E-14
 -1      2608 1.31997E-02 5.59653E-04-1.00107E-13
 -1      2609 7.57937E-04 3.34191E-04-3.86193E-16
 -1      2610 6.11512E-04 2.84832E-04-2.56007E-16
 -1      2611 5.84783E-04 2.58062E-04-2.63705E-16
 -1      2612 8.13757E-04 3.22861E-04-5.00048E-16
 -1      2613 1.29254E-02 7.09009E-04-9.83541E-14
 -1      2614 6.70185E-04-1.37957E-04-5.36707E-16
 -1      2615 5.54543E-04-1.26220E-04-3.91180E-16
 -1      2616 5.57741E-04-1.46218E-04-3.81571E-16
 -1      2617 1.35787E-03 4.32704E-04-1.37004E-15
 -1      2618 5.72277E-04 2.27864E-04-2.91962E-16
 -1      2619 1.19186E-02-1.11418E-03-8.83371E-14
 -1      2620 1.15297E-02-8.40482E-04-8.61481E-14
 -1      2621 1.33198E-02 4.81223E-04-1.01386E-13
 -1      2622 1.51041E-02-3.54319E-04-1.08301E-13
 -1      2623 1.51742E-02-3.68159E-04-1.09016E-13
 -1      2624 1.50631E-02-3.44978E-04-1.09124E-13
 -1      2625 1.43301E-02-8.59705E-05-1.06642E-13
 -1      2626 1.47968E-02-2.69008E-04-1.08050E-13
 -1      2627 1.39752E-02 1.43465E-04-1.17022E-13
 -1      2628 1.40291E-02 1.18564E-04-1.16764E-13
 -1      2629 1.06727E-02-3.60192E-04-8.23408E-14
 -1      2630 1.44498E-02-7.76063E-04-1.14272E-13
 -1      2631 1.46393E-02-6.88383E-04-1.14997E-13
 -1      2632 1.45574E-02-7.23816E-04-1.13347E-13
 -1      2633 1.43110E-02-8.47746E-04-1.12533E-13
 -1      2634 1.03611E-02-2.44909E-04-8.11755E-14
 -1      2635 1.37886E-02 1.94784E-04-1.04206E-13
 -1      2636 6.89560E-04 2.51214E-04-4.22676E-16
 -1      2637 1.52411E-02-3.85332E-04-1.09065E-13
 -1      2638 1.52355E-02-3.87608E-04-1.08308E-13
 -1      2639 1.52467E-02-3.93931E-04-1.09173E-13
 -1      2640 1.50011E-02-4.55178E-04-1.08288E-13
 -1      2641 1.48926E-02-4.82910E-04-1.07180E-13
 -1      2642 1.48058E-02-5.14190E-04-1.07535E-13
 -1      2643 1.02653E-02-1.70513E-04-8.15002E-14
 -1      2644 1.02874E-02-1.54937E-04-8.08271E-14
 -1      2645 1.02217E-02-1.74939E-04-8.07548E-14
 -1      2646 1.36735E-02-1.07216E-03-1.02055E-13
 -1      2647 1.35703E-02-1.14188E-03-1.01856E-13
 -1      2648 1.38046E-02-9.95691E-04-1.03163E-13
 -1      2649 1.28986E-02-1.47797E-03-9.64193E-14
 -1      2650 1.22665E-02-1.34788E-03-9.08522E-14
 -1      2651 1.04836E-02-1.02162E-04-8.20708E-14
 -1      2652 1.07998E-02 1.84003E-05-8.32789E-14
 -1      2653 1.19422E-02 6.46976E-04-8.94468E-14
 -1      2654 1.10932E-02-5.68693E-04-8.40517E-14
 -1      2655 1.22662E-02 7.91945E-04-9.21831E-14
 -1      2656 1.15647E-02 4.24681E-04-8.69488E-14
 -1      2657 1.11647E-02 1.96082E-04-8.48180E-14
 -1      2658 1.02185E-02-2.01265E-04-8.10363E-14
 -1      2659 5.71744E-04-1.85297E-04-3.66000E-16
 -1      2660 1.25880E-02 8.20847E-04-9.52439E-14
 -1      2661 1.25810E-02-1.48251E-03-9.35008E-14
 -1      2662 1.39439E-02 1.78607E-04-1.14990E-13
 -1      2663 1.43200E-02-8.37691E-04-1.11625E-13
 -1      2664 7.80156E-04 7.73246E-05-7.15275E-16
 -1      2665 7.78892E-04 5.54651E-05-7.21713E-16
 -1      2666 7.78043E-04 3.35555E-05-7.26592E-16
 -1      2667 7.77619E-04 1.18941E-05-7.30102E-16
 -1      2668 8.96449E-04 4.96755E-05-9.17520E-16
 -1      2669 7.91525E-04 1.73113E-04-6.68668E-16
 -1      2670 7.87509E-04 1.47699E-04-6.84064E-16
 -1      2671 8.03405E-04 2.28309E-04-6.28187E-16
 -1      2672 7.96775E-04 1.99920E-04-6.50508E-16
 -1      2673 9.14831E-04 2.07812E-04-8.40446E-16
 -1      2674 1.12985E-03 3.61935E-04-1.01742E-15
 -1      2675 9.86241E-04 3.32866E-04-7.88554E-16
 -1      2676 1.41609E-03 4.07837E-04-1.56952E-15
 -1      2677 1.27304E-03 3.86800E-04-1.27769E-15
 -1      2678 1.18968E-03 3.41479E-04-1.18368E-15
 -1      2679 7.88864E-04-2.52488E-04-6.10053E-16
 -1      2680 9.20055E-04-2.88274E-04-7.89516E-16
 -1      2681 1.06286E-03-3.17406E-04-1.02261E-15
 -1      2682 1.20614E-03-3.42591E-04-1.28824E-15
 -1      2683 1.01133E-03-2.76383E-04-9.79062E-16
 -1      2684 1.34934E-03-3.64188E-04-1.58592E-15
 -1      2685 1.49258E-03-3.82454E-04-1.91619E-15
 -1      2686 1.29702E-03-3.22210E-04-1.52996E-15
 -1      2687 1.63562E-03-3.97916E-04-2.27861E-15
 -1      2688 1.77858E-03-4.10791E-04-2.67280E-15
 -1      2689 1.58371E-03-3.55846E-04-2.20912E-15
 -1      2690 1.92137E-03-4.21544E-04-3.09855E-15
 -1      2691 2.06406E-03-4.30345E-04-3.55603E-15
 -1      2692 1.87048E-03-3.79699E-04-3.01495E-15
 -1      2693 2.20665E-03-4.37572E-04-4.04577E-15
 -1      2694 2.34916E-03-4.43361E-04-4.56635E-15
 -1      2695 2.15705E-03-3.96039E-04-3.94629E-15
 -1      2696 2.49161E-03-4.48003E-04-5.11814E-15
 -1      2697 2.63403E-03-4.51606E-04-5.70067E-15
 -1      2698 2.44335E-03-4.06772E-04-5.00228E-15
 -1      2699 2.77643E-03-4.54390E-04-6.31270E-15
 -1      2700 2.91881E-03-4.56440E-04-6.95487E-15
 -1      2701 2.72944E-03-4.13420E-04-6.17998E-15
 -1      2702 3.06120E-03-4.57918E-04-7.62624E-15
 -1      2703 3.20359E-03-4.58888E-04-8.32601E-15
 -1      2704 3.01535E-03-4.17162E-04-7.47603E-15
 -1      2705 3.34600E-03-4.59469E-04-9.05436E-15
 -1      2706 3.48843E-03-4.59706E-04-9.81006E-15
 -1      2707 3.30116E-03-4.18885E-04-8.88712E-15
 -1      2708 3.63089E-03-4.59686E-04-1.05938E-14
 -1      2709 3.77337E-03-4.59439E-04-1.14053E-14
 -1      2710 3.58689E-03-4.19240E-04-1.04097E-14
 -1      2711 3.91589E-03-4.59023E-04-1.22438E-14
 -1      2712 4.05842E-03-4.58460E-04-1.31081E-14
 -1      2713 3.87258E-03-4.18690E-04-1.20417E-14
 -1      2714 4.20100E-03-4.57787E-04-1.39997E-14
 -1      2715 4.34359E-03-4.57016E-04-1.49176E-14
 -1      2716 4.15825E-03-4.17551E-04-1.37813E-14
 -1      2717 4.48622E-03-4.56169E-04-1.58620E-14
 -1      2718 4.62887E-03-4.55251E-04-1.68315E-14
 -1      2719 4.44392E-03-4.16023E-04-1.56263E-14
 -1      2720 4.77156E-03-4.54272E-04-1.78260E-14
 -1      2721 4.91427E-03-4.53231E-04-1.88463E-14
 -1      2722 4.72961E-03-4.14216E-04-1.75743E-14
 -1      2723 5.05701E-03-4.52129E-04-1.98912E-14
 -1      2724 5.19978E-03-4.50962E-04-2.09604E-14
 -1      2725 5.01531E-03-4.12172E-04-1.96233E-14
 -1      2726 5.34257E-03-4.49721E-04-2.20550E-14
 -1      2727 5.48540E-03-4.48401E-04-2.31734E-14
 -1      2728 5.30103E-03-4.09877E-04-2.17722E-14
 -1      2729 5.62826E-03-4.46986E-04-2.43173E-14
 -1      2730 5.77115E-03-4.45470E-04-2.54862E-14
 -1      2731 5.58679E-03-4.07277E-04-2.40196E-14
 -1      2732 5.91408E-03-4.43832E-04-2.66792E-14
 -1      2733 6.05705E-03-4.42064E-04-2.78970E-14
 -1      2734 5.87258E-03-4.04288E-04-2.63662E-14
 -1      2735 6.20006E-03-4.40144E-04-2.91398E-14
 -1      2736 6.34312E-03-4.38061E-04-3.04076E-14
 -1      2737 6.15841E-03-4.00799E-04-2.88120E-14
 -1      2738 6.48622E-03-4.35793E-04-3.16995E-14
 -1      2739 6.62939E-03-4.33332E-04-3.30161E-14
 -1      2740 6.44427E-03-3.96691E-04-3.13561E-14
 -1      2741 6.77261E-03-4.30653E-04-3.43553E-14
 -1      2742 6.91590E-03-4.27754E-04-3.57173E-14
 -1      2743 6.73018E-03-3.91841E-04-3.39969E-14
 -1      2744 7.05926E-03-4.24614E-04-3.71030E-14
 -1      2745 7.20272E-03-4.21235E-04-3.85091E-14
 -1      2746 7.01612E-03-3.86141E-04-3.67303E-14
 -1      2747 7.34624E-03-4.17606E-04-3.99361E-14
 -1      2748 7.48988E-03-4.13738E-04-4.13829E-14
 -1      2749 7.30206E-03-3.79519E-04-3.95501E-14
 -1      2750 7.63359E-03-4.09635E-04-4.28509E-14
 -1      2751 7.77744E-03-4.05322E-04-4.43355E-14
 -1      2752 7.58798E-03-3.71972E-04-4.24526E-14
 -1      2753 7.92138E-03-4.00830E-04-4.58364E-14
 -1      2754 8.06548E-03-3.96204E-04-4.73533E-14
 -1      2755 7.87381E-03-3.63607E-04-4.54283E-14
 -1      2756 8.20966E-03-3.91515E-04-4.88865E-14
 -1      2757 8.35404E-03-3.86837E-04-5.04368E-14
 -1      2758 8.15947E-03-3.54703E-04-4.84703E-14
 -1      2759 8.49850E-03-3.82301E-04-5.19992E-14
 -1      2760 8.64321E-03-3.78023E-04-5.35735E-14
 -1      2761 8.44487E-03-3.45788E-04-5.15747E-14
 -1      2762 8.78803E-03-3.74214E-04-5.51614E-14
 -1      2763 8.93315E-03-3.71057E-04-5.67600E-14
 -1      2764 8.72991E-03-3.37746E-04-5.47317E-14
 -1      2765 9.07845E-03-3.68865E-04-5.83709E-14
 -1      2766 9.22419E-03-3.67919E-04-5.99937E-14
 -1      2767 9.01460E-03-3.31938E-04-5.79349E-14
 -1      2768 9.37028E-03-3.68655E-04-6.16260E-14
 -1      2769 9.51706E-03-3.71512E-04-6.32705E-14
 -1      2770 9.29918E-03-3.30365E-04-6.11861E-14
 -1      2771 9.66458E-03-3.77042E-04-6.49277E-14
 -1      2772 9.81331E-03-3.85956E-04-6.65949E-14
 -1      2773 9.58447E-03-3.35848E-04-6.44817E-14
 -1      2774 9.96355E-03-3.98875E-04-6.82706E-14
 -1      2775 1.01159E-02-4.16980E-04-6.99562E-14
 -1      2776 9.87237E-03-3.52287E-04-6.78201E-14
 -1      2777 1.02712E-02-4.40850E-04-7.16522E-14
 -1      2778 1.04300E-02-4.72461E-04-7.33565E-14
 -1      2779 1.01668E-02-3.85117E-04-7.11988E-14
 -1      2780 1.05939E-02-5.12133E-04-7.50687E-14
 -1      2781 1.07633E-02-5.63129E-04-7.67890E-14
 -1      2782 1.04748E-02-4.42234E-04-7.46120E-14
 -1      2783 1.09408E-02-6.25547E-04-7.85200E-14
 -1      2784 1.11246E-02-7.03010E-04-8.02591E-14
 -1      2785 1.08074E-02-5.36205E-04-7.80614E-14
 -1      2786 1.16896E-02-1.01148E-03-8.51594E-14
 -1      2787 1.18926E-02-1.13976E-03-8.69407E-14
 -1      2788 1.20699E-02-1.24469E-03-8.86535E-14
 -1      2789 1.22712E-02-1.36427E-03-9.04622E-14
 -1      2790 1.25468E-02-1.49164E-03-9.31026E-14
 -1      2791 1.27312E-02-1.51633E-03-9.49505E-14
 -1      2792 1.28907E-02-1.49131E-03-9.65612E-14
 -1      2793 1.30825E-02-1.43055E-03-9.84356E-14
 -1      2794 1.33559E-02-1.28837E-03-1.00884E-13
 -1      2795 1.35621E-02-1.17665E-03-1.02790E-13
 -1      2796 1.37677E-02-1.06920E-03-1.04704E-13
 -1      2797 1.40229E-02-9.57083E-04-1.07478E-13
 -1      2798 1.42100E-02-8.70469E-04-1.09411E-13
 -1      2799 1.04097E-02-2.59496E-04-8.04140E-14
 -1      2800 1.02907E-02-2.24299E-04-7.98876E-14
 -1      2801 1.07388E-02-3.89748E-04-8.16735E-14
 -1      2802 1.05671E-02-3.18040E-04-8.10389E-14
 -1      2803 1.98549E-03 4.63277E-04-3.04925E-15
 -1      2804 1.84344E-03 4.53013E-04-2.63262E-15
 -1      2805 2.83629E-03 4.94594E-04-6.18766E-15
 -1      2806 2.69453E-03 4.91984E-04-5.58906E-15
 -1      2807 3.11997E-03 4.97917E-04-7.47265E-15
 -1      2808 2.97812E-03 4.96545E-04-6.81528E-15
 -1      2809 2.90241E-03 4.58578E-04-6.57228E-15
 -1      2810 3.40385E-03 4.99361E-04-8.87479E-15
 -1      2811 3.26189E-03 4.98836E-04-8.15939E-15
 -1      2812 3.18719E-03 4.61279E-04-7.89013E-15
 -1      2813 3.68799E-03 4.99542E-04-1.03923E-14
 -1      2814 3.54589E-03 4.99582E-04-9.61933E-15
 -1      2815 3.47203E-03 4.62311E-04-9.32437E-15
 -1      2816 3.97237E-03 4.98891E-04-1.20242E-14
 -1      2817 3.83015E-03 4.99301E-04-1.11940E-14
 -1      2818 3.75697E-03 4.62230E-04-1.08728E-14
 -1      2819 4.25699E-03 4.97697E-04-1.37686E-14
 -1      2820 4.11465E-03 4.98350E-04-1.28819E-14
 -1      2821 4.04201E-03 4.61420E-04-1.25345E-14
 -1      2822 4.54183E-03 4.96137E-04-1.56238E-14
 -1      2823 4.39939E-03 4.96956E-04-1.46825E-14
 -1      2824 4.32717E-03 4.60133E-04-1.43079E-14
 -1      2825 4.82688E-03 4.94304E-04-1.75885E-14
 -1      2826 4.68433E-03 4.95252E-04-1.65930E-14
 -1      2827 4.61244E-03 4.58521E-04-1.61915E-14
 -1      2828 5.11212E-03 4.92222E-04-1.96623E-14
 -1      2829 4.96948E-03 4.93293E-04-1.86113E-14
 -1      2830 4.89782E-03 4.56654E-04-1.81824E-14
 -1      2831 5.39756E-03 4.89866E-04-2.18432E-14
 -1      2832 5.25482E-03 4.91080E-04-2.07391E-14
 -1      2833 5.18331E-03 4.54543E-04-2.02824E-14
 -1      2834 5.68319E-03 4.87176E-04-2.41328E-14
 -1      2835 5.54035E-03 4.88567E-04-2.29750E-14
 -1      2836 5.46892E-03 4.52153E-04-2.24892E-14
 -1      2837 5.96904E-03 4.84061E-04-2.65244E-14
 -1      2838 5.82608E-03 4.85676E-04-2.53163E-14
 -1      2839 5.75464E-03 4.49414E-04-2.48035E-14
 -1      2840 6.25515E-03 4.80420E-04-2.90139E-14
 -1      2841 6.11206E-03 4.82311E-04-2.77575E-14
 -1      2842 6.04051E-03 4.46232E-04-2.72181E-14
 -1      2843 6.54159E-03 4.76146E-04-3.15962E-14
 -1      2844 6.39832E-03 4.78366E-04-3.02932E-14
 -1      2845 6.32655E-03 4.42502E-04-2.97296E-14
 -1      2846 6.82842E-03 4.71150E-04-3.42673E-14
 -1      2847 6.68494E-03 4.73741E-04-3.29207E-14
 -1      2848 6.61279E-03 4.38120E-04-3.23326E-14
 -1      2849 7.11577E-03 4.65383E-04-3.70231E-14
 -1      2850 6.97201E-03 4.68363E-04-3.56346E-14
 -1      2851 6.89930E-03 4.33000E-04-3.50233E-14
 -1      2852 7.40377E-03 4.58862E-04-3.98660E-14
 -1      2853 7.25967E-03 4.62211E-04-3.84343E-14
 -1      2854 7.18615E-03 4.27099E-04-3.78010E-14
 -1      2855 7.69260E-03 4.51721E-04-4.27907E-14
 -1      2856 7.54806E-03 4.55356E-04-4.13175E-14
 -1      2857 7.47343E-03 4.20447E-04-4.06636E-14
 -1      2858 7.98250E-03 4.44261E-04-4.57928E-14
 -1      2859 7.83739E-03 4.48006E-04-4.42823E-14
 -1      2860 7.76130E-03 4.13191E-04-4.36077E-14
 -1      2861 8.27376E-03 4.37024E-04-4.88705E-14
 -1      2862 8.12793E-03 4.40573E-04-4.73232E-14
 -1      2863 8.04994E-03 4.05652E-04-4.66291E-14
 -1      2864 8.56674E-03 4.30881E-04-5.20174E-14
 -1      2865 8.42000E-03 4.33751E-04-5.04346E-14
 -1      2866 8.33963E-03 3.98396E-04-4.97223E-14
 -1      2867 8.86191E-03 4.27129E-04-5.52291E-14
 -1      2868 8.71401E-03 4.28612E-04-5.36154E-14
 -1      2869 8.63073E-03 3.92317E-04-5.28856E-14
 -1      2870 9.15988E-03 4.27592E-04-5.84979E-14
 -1      2871 9.01050E-03 4.26702E-04-5.68575E-14
 -1      2872 8.92380E-03 3.88735E-04-5.61108E-14
 -1      2873 9.46143E-03 4.34690E-04-6.18228E-14
 -1      2874 9.31017E-03 4.30137E-04-6.01538E-14
 -1      2875 9.21962E-03 3.89495E-04-5.93907E-14
 -1      2876 9.76746E-03 4.51444E-04-6.52023E-14
 -1      2877 9.61386E-03 4.41642E-04-6.35052E-14
 -1      2878 9.51926E-03 3.97050E-04-6.27246E-14
 -1      2879 1.00790E-02 4.81311E-04-6.86358E-14
 -1      2880 9.92255E-03 4.64490E-04-6.69124E-14
 -1      2881 9.82412E-03 4.14484E-04-6.61134E-14
 -1      2882 1.03967E-02 5.27717E-04-7.21216E-14
 -1      2883 1.02372E-02 5.02215E-04-7.03722E-14
 -1      2884 1.01358E-02 4.45414E-04-6.95550E-14
 -1      2885 1.07206E-02 5.93032E-04-7.56616E-14
 -1      2886 1.05581E-02 5.57897E-04-7.38855E-14
 -1      2887 1.04558E-02 4.93583E-04-7.30499E-14
 -1      2888 1.10487E-02 6.76687E-04-7.92553E-14
 -1      2889 1.08845E-02 6.32768E-04-7.74513E-14
 -1      2890 1.07844E-02 5.61855E-04-7.65955E-14
 -1      2891 1.13767E-02 7.72319E-04-8.29060E-14
 -1      2892 1.12133E-02 7.23757E-04-8.10734E-14
 -1      2893 1.11196E-02 6.50010E-04-8.01950E-14
 -1      2894 1.16982E-02 8.65001E-04-8.66047E-14
 -1      2895 1.15387E-02 8.20506E-04-8.47489E-14
 -1      2896 1.14558E-02 7.51104E-04-8.38478E-14
 -1      2897 1.20081E-02 9.31295E-04-9.03598E-14
 -1      2898 1.18545E-02 9.03273E-04-8.84763E-14
 -1      2899 1.17850E-02 8.47352E-04-8.75544E-14
 -1      2900 1.23068E-02 9.46204E-04-9.41628E-14
 -1      2901 1.21581E-02 9.46618E-04-9.22553E-14
 -1      2902 1.21011E-02 9.10884E-04-9.13112E-14
 -1      2903 1.26014E-02 8.94919E-04-9.80140E-14
 -1      2904 1.24536E-02 9.28996E-04-9.60831E-14
 -1      2905 1.24064E-02 9.13341E-04-9.51179E-14
 -1      2906 1.29005E-02 7.81070E-04-1.01915E-13
 -1      2907 1.27497E-02 8.44686E-04-9.99587E-14
 -1      2908 1.27105E-02 8.42205E-04-9.89743E-14
 -1      2909 1.32071E-02 6.22939E-04-1.05863E-13
 -1      2910 1.30529E-02 7.05974E-04-1.03883E-13
 -1      2911 1.30226E-02 7.08401E-04-1.02881E-13
 -1      2912 1.35176E-02 4.41339E-04-1.09854E-13
 -1      2913 1.33624E-02 5.33921E-04-1.07853E-13
 -1      2914 1.33433E-02 5.36723E-04-1.06834E-13
 -1      2915 1.38078E-02 2.62705E-04-1.13423E-13
 -1      2916 1.36534E-02 3.58330E-04-1.11410E-13
 -1      2917 1.36454E-02 3.60795E-04-1.10377E-13
 -1      2918 1.39285E-02 1.93503E-04-1.13489E-13
 -1      2919 1.51841E-02-3.54521E-04-1.13054E-13
 -1      2920 1.50512E-02-3.18612E-04-1.13118E-13
 -1      2921 1.43304E-02-8.19505E-04-1.10721E-13
 -1      2922 1.44455E-02-7.70337E-04-1.12032E-13
 -1      2923 1.43436E-02-7.93137E-04-1.09818E-13
 -1      2924 1.45778E-02-1.43669E-04-1.13042E-13
 -1      2925 1.44360E-02-7.86272E-05-1.13094E-13
 -1      2926 1.53661E-02-3.92633E-04-1.13145E-13
 -1      2927 1.53017E-02-3.78194E-04-1.13211E-13
 -1      2928 1.48819E-02-2.65479E-04-1.12926E-13
 -1      2929 1.47279E-02-2.08019E-04-1.12985E-13
 -1      2930 1.45034E-02-1.27692E-04-1.11293E-13
 -1      2931 1.53464E-02-4.10977E-04-1.12790E-13
 -1      2932 1.53753E-02-3.99221E-04-1.12857E-13
 -1      2933 1.51724E-02-4.58752E-04-1.12757E-13
 -1      2934 1.52779E-02-4.28572E-04-1.12828E-13
 -1      2935 1.49076E-02-5.52674E-04-1.12614E-13
 -1      2936 1.50442E-02-5.00777E-04-1.12685E-13
 -1      2937 1.70123E-03 4.40545E-04-2.24693E-15
 -1      2938 1.55877E-03 4.25663E-04-1.89254E-15
 -1      2939 1.47613E-03 3.82193E-04-1.77519E-15
 -1      2940 1.76214E-03 4.11228E-04-2.49097E-15
 -1      2941 1.45947E-02-5.95529E-04-1.06936E-13
 -1      2942 1.44208E-02-6.70265E-04-1.06233E-13
 -1      2943 1.48339E-02-2.77957E-04-1.09660E-13
 -1      2944 1.49908E-02-3.23794E-04-1.10014E-13
 -1      2945 1.52039E-02-4.08662E-04-1.09325E-13
 -1      2946 1.51382E-02-4.21334E-04-1.09083E-13
 -1      2947 8.03108E-04 2.78215E-04-5.58676E-16
 -1      2948 1.42449E-02-7.54224E-04-1.05399E-13
 -1      2949 1.40661E-02-8.48868E-04-1.04567E-13
 -1      2950 1.43655E-02-7.06329E-04-1.06605E-13
 -1      2951 2.55276E-03 4.88541E-04-5.02074E-15
 -1      2952 2.41102E-03 4.84163E-04-4.48213E-15
 -1      2953 2.61763E-03 4.53441E-04-5.37195E-15
 -1      2954 2.26923E-03 4.78611E-04-3.97366E-15
 -1      2955 2.12741E-03 4.71754E-04-3.49615E-15
 -1      2956 2.33275E-03 4.44824E-04-4.29045E-15
 -1      2957 1.10439E-02 1.49685E-04-8.36122E-14
 -1      2958 1.12175E-02 2.44452E-04-8.44383E-14
 -1      2959 1.24981E-02 8.33015E-04-9.45283E-14
 -1      2960 1.26451E-02 8.12462E-04-9.60449E-14
 -1      2961 7.84355E-04 1.23447E-04-6.96505E-16
 -1      2962 7.81964E-04 1.00013E-04-7.06913E-16
 -1      2963 8.99569E-04 9.94407E-05-9.01582E-16
 -1      2964 9.05314E-04 1.51576E-04-8.76672E-16
 -1      2965 1.12018E-02-6.34065E-04-8.37329E-14
 -1      2966 1.09799E-02-5.09482E-04-8.26607E-14
 -1      2967 1.45784E-02-7.04781E-04-1.12441E-13
 -1      2968 7.81697E-04-9.79550E-05-7.23475E-16
 -1      2969 7.84016E-04-1.21303E-04-7.16712E-16
 -1      2970 1.14469E-02 3.74334E-04-8.57516E-14
 -1      2971 1.16463E-02 4.93188E-04-8.70528E-14
 -1      2972 1.01991E-02-1.93019E-04-7.97811E-14
 -1      2973 1.01904E-02-1.84440E-04-8.01686E-14
 -1      2974 1.18171E-02 5.98489E-04-8.82107E-14
 -1      2975 1.19656E-02 6.86176E-04-8.93997E-14
 -1      2976 1.06993E-02-9.66322E-06-8.21199E-14
 -1      2977 1.08630E-02 6.04617E-05-8.28266E-14
 -1      2978 6.52865E-04-1.88382E-04-4.72685E-16
 -1      2979 1.36618E-02 2.69208E-04-1.04296E-13
 -1      2980 1.38984E-02 1.32089E-04-1.05683E-13
 -1      2981 1.21700E-02 7.76070E-04-9.12491E-14
 -1      2982 1.23246E-02 8.20997E-04-9.27967E-14
 -1      2983 1.32181E-02 5.42252E-04-1.01249E-13
 -1      2984 1.34205E-02 4.14882E-04-1.02688E-13
 -1      2985 1.04016E-02-1.16313E-04-8.09779E-14
 -1      2986 1.05321E-02-7.46740E-05-8.14732E-14
 -1      2987 1.42206E-02-3.27673E-05-1.07253E-13
 -1      2988 1.44928E-02-1.54868E-04-1.08305E-13
 -1      2989 1.28183E-02 7.56340E-04-9.77978E-14
 -1      2990 1.29882E-02 6.72374E-04-9.93976E-14
 -1      2991 7.87074E-04-1.45441E-04-7.07916E-16
 -1      2992 7.90944E-04-1.70593E-04-6.96288E-16
 -1      2993 9.04845E-04-1.49040E-04-9.03845E-16
 -1      2994 8.95421E-04 1.00965E-06-9.25638E-16
 -1      2995 7.77589E-04-9.72013E-06-7.31755E-16
 -1      2996 7.77954E-04-3.13649E-05-7.32148E-16
 -1      2997 1.52572E-02-4.02258E-04-1.10085E-13
 -1      2998 1.27189E-02 7.92535E-04-9.70749E-14
 -1      2999 1.40827E-02 4.51879E-05-1.07347E-13
 -1      3000 1.50898E-02-3.44619E-04-1.10731E-13
 -1      3001 1.08403E-02-4.50724E-04-8.13595E-14
 -1      3002 1.03185E-02-1.33899E-04-8.02317E-14
 -1      3003 1.03484E-02-1.07940E-04-7.96368E-14
 -1      3004 1.02492E-02-1.42472E-04-7.94903E-14
 -1      3005 1.30947E-02 6.15640E-04-1.00685E-13
 -1      3006 1.12833E-02-7.80071E-04-8.16354E-14
 -1      3007 1.14805E-02-8.85989E-04-8.33941E-14
 -1      3008 1.24151E-02-1.44258E-03-9.18075E-14
 -1      3009 1.32376E-02-1.34759E-03-9.97889E-14
 -1      3010 1.42156E-02 2.06674E-05-1.11394E-13
 -1      3011 1.43063E-02-1.28594E-05-1.13145E-13
 -1      3012 1.41873E-02 4.89822E-05-1.13192E-13
 -1      3013 1.39694E-02-9.42524E-04-1.05729E-13
 -1      3014 1.02283E-02-2.11042E-04-7.82713E-14
 -1      3015 1.02099E-02-2.00198E-04-7.90256E-14
 -1      3016 1.01504E-02-1.83918E-04-7.81641E-14
 -1      3017 1.20393E-02 7.42686E-04-9.00006E-14
 -1      3018 1.04601E-02-2.85191E-04-7.97540E-14
 -1      3019 2.04764E-03 4.31348E-04-3.32990E-15
 -1      3020 1.51776E-02-3.59234E-04-1.11787E-13
 -1      3021 1.05882E-02-3.46530E-05-8.10238E-14
 -1      3022 1.53225E-02-3.91978E-04-1.11662E-13
 -1      3023 1.41025E-02 9.60125E-05-1.13319E-13
 -1      3024 1.40012E-02 1.52054E-04-1.13365E-13
 -1      3025 1.38553E-02 2.34863E-04-1.11810E-13
 -1      3026 1.40074E-02 1.41860E-04-1.11564E-13
 -1      3027 1.16134E-02-9.03155E-04-8.59395E-14
 -1      3028 1.14315E-02-7.78181E-04-8.49240E-14
 -1      3029 1.16877E-02 5.50195E-04-8.70019E-14
 -1      3030 1.12888E-02-7.03670E-04-8.35269E-14
 -1      3031 1.50190E-02-4.90156E-04-1.11390E-13
 -1      3032 1.46721E-02-6.57872E-04-1.12490E-13
 -1      3033 1.48056E-02-5.96547E-04-1.12568E-13
 -1      3034 1.47646E-02-5.93268E-04-1.11273E-13
 -1      3035 1.45582E-02-6.95853E-04-1.11178E-13
 -1      3036 1.47315E-02-2.33747E-04-1.10278E-13
 -1      3037 1.52363E-02-3.80116E-04-1.09886E-13
 -1      3038 1.50834E-02-4.41212E-04-1.09439E-13
 -1      3039 1.01813E-02-1.71921E-04-7.94994E-14
 -1      3040 1.39428E-02-9.26854E-04-1.04363E-13
 -1      3041 8.64864E-04 2.66535E-04-6.78629E-16
 -1      3042 1.23900E-02 8.36457E-04-9.35855E-14
 -1      3043 1.47381E-02-5.48645E-04-1.08042E-13
 -1      3044 1.19159E-02-1.12415E-03-8.77939E-14
 -1      3045 7.78735E-04-5.31468E-05-7.30969E-16
 -1      3046 7.79956E-04-7.53328E-05-7.28042E-16
 -1      3047 8.99285E-04-9.70888E-05-9.19647E-16
 -1      3048 8.96319E-04-4.75237E-05-9.26383E-16
 -1      3049 1.09203E-02 1.12847E-04-8.24476E-14
 -1      3050 9.82952E-04 2.75773E-04-8.76876E-16
 -1      3051 1.13095E-02 3.21220E-04-8.45364E-14
 -1      3052 1.17391E-02-9.92593E-04-8.66298E-14
 -1      3053 7.69981E-04-2.02386E-04-6.35315E-16
 -1      3054 1.35457E-02 3.45082E-04-1.04157E-13
 -1      3055 1.16228E-02-9.28304E-04-8.54004E-14
 -1      3056 1.11436E-02-6.73125E-04-8.11746E-14
 -1      3057 1.23033E-02 8.41161E-04-9.28124E-14
 -1      3058 1.24605E-02 8.47115E-04-9.45512E-14
 -1      3059 1.04027E-03 2.43270E-04-1.03097E-15
 -1      3060 1.03364E-03 2.11543E-04-1.05597E-15
 -1      3061 1.52186E-02-3.74000E-04-1.10892E-13
 -1      3062 1.21718E-03-2.80410E-04-1.40510E-15
 -1      3063 1.36020E-03-2.98760E-04-1.71521E-15
 -1      3064 1.50351E-03-3.14515E-04-2.05689E-15
 -1      3065 1.64709E-03-3.27861E-04-2.43037E-15
 -1      3066 1.42445E-03-2.74127E-04-1.90650E-15
 -1      3067 1.79075E-03-3.39132E-04-2.83511E-15
 -1      3068 1.93447E-03-3.48489E-04-3.27062E-15
 -1      3069 1.71163E-03-2.99024E-04-2.65647E-15
 -1      3070 2.07819E-03-3.56249E-04-3.73783E-15
 -1      3071 2.22188E-03-3.62552E-04-4.23576E-15
 -1      3072 1.99957E-03-3.16620E-04-3.53099E-15
 -1      3073 2.36554E-03-3.67665E-04-4.76423E-15
 -1      3074 2.50914E-03-3.71701E-04-5.32369E-15
 -1      3075 2.28772E-03-3.28543E-04-4.52816E-15
 -1      3076 2.65269E-03-3.74874E-04-5.91264E-15
 -1      3077 2.79617E-03-3.77271E-04-6.53114E-15
 -1      3078 2.57578E-03-3.36213E-04-5.64696E-15
 -1      3079 2.93960E-03-3.79058E-04-7.17922E-15
 -1      3080 3.08298E-03-3.80300E-04-7.85629E-15
 -1      3081 2.86362E-03-3.40789E-04-6.88470E-15
 -1      3082 3.22630E-03-3.81122E-04-8.56189E-15
 -1      3083 3.36958E-03-3.81572E-04-9.29481E-15
 -1      3084 3.15119E-03-3.43176E-04-8.23841E-15
 -1      3085 3.51282E-03-3.81740E-04-1.00553E-14
 -1      3086 3.65600E-03-3.81659E-04-1.08437E-14
 -1      3087 3.43847E-03-3.44056E-04-9.70356E-15
 -1      3088 3.79916E-03-3.81394E-04-1.16593E-14
 -1      3089 3.94228E-03-3.80967E-04-1.25018E-14
 -1      3090 3.72549E-03-3.43925E-04-1.12789E-14
 -1      3091 4.08538E-03-3.80420E-04-1.33714E-14
 -1      3092 4.22844E-03-3.79766E-04-1.42662E-14
 -1      3093 4.01227E-03-3.43131E-04-1.29630E-14
 -1      3094 4.37149E-03-3.79033E-04-1.51880E-14
 -1      3095 4.51450E-03-3.78227E-04-1.61359E-14
 -1      3096 4.29884E-03-3.41905E-04-1.47526E-14
 -1      3097 4.65751E-03-3.77360E-04-1.71091E-14
 -1      3098 4.80049E-03-3.76435E-04-1.81083E-14
 -1      3099 4.58522E-03-3.40384E-04-1.66462E-14
 -1      3100 4.94345E-03-3.75455E-04-1.91320E-14
 -1      3101 5.08640E-03-3.74417E-04-2.01808E-14
 -1      3102 4.87145E-03-3.38636E-04-1.86426E-14
 -1      3103 5.22934E-03-3.73318E-04-2.12552E-14
 -1      3104 5.37227E-03-3.72151E-04-2.23533E-14
 -1      3105 5.15753E-03-3.36673E-04-2.07401E-14
 -1      3106 5.51518E-03-3.70906E-04-2.34770E-14
 -1      3107 5.65807E-03-3.69575E-04-2.46251E-14
 -1      3108 5.44347E-03-3.34464E-04-2.29361E-14
 -1      3109 5.80095E-03-3.68145E-04-2.57975E-14
 -1      3110 5.94382E-03-3.66603E-04-2.69961E-14
 -1      3111 5.72927E-03-3.31946E-04-2.52316E-14
 -1      3112 6.08667E-03-3.64936E-04-2.82182E-14
 -1      3113 6.22950E-03-3.63128E-04-2.94656E-14
 -1      3114 6.01491E-03-3.29033E-04-2.76263E-14
 -1      3115 6.37229E-03-3.61166E-04-3.07379E-14
 -1      3116 6.51507E-03-3.59035E-04-3.20344E-14
 -1      3117 6.30035E-03-3.25622E-04-3.01207E-14
 -1      3118 6.65780E-03-3.56722E-04-3.33545E-14
 -1      3119 6.80050E-03-3.54211E-04-3.46972E-14
 -1      3120 6.58554E-03-3.21608E-04-3.27134E-14
 -1      3121 6.94314E-03-3.51497E-04-3.60638E-14
 -1      3122 7.08573E-03-3.48564E-04-3.74525E-14
 -1      3123 6.87038E-03-3.16891E-04-3.53993E-14
 -1      3124 7.22822E-03-3.45417E-04-3.88613E-14
 -1      3125 7.37066E-03-3.42044E-04-4.02911E-14
 -1      3126 7.15476E-03-3.11399E-04-3.81740E-14
 -1      3127 7.51296E-03-3.38465E-04-4.17421E-14
 -1      3128 7.65517E-03-3.34676E-04-4.32125E-14
 -1      3129 7.43851E-03-3.05106E-04-4.10333E-14
 -1      3130 7.79720E-03-3.30721E-04-4.47001E-14
 -1      3131 7.93909E-03-3.26604E-04-4.62048E-14
 -1      3132 7.72142E-03-2.98070E-04-4.39708E-14
 -1      3133 8.08075E-03-3.22407E-04-4.77260E-14
 -1      3134 8.22221E-03-3.18148E-04-4.92642E-14
 -1      3135 8.00321E-03-2.90472E-04-4.69806E-14
 -1      3136 8.36337E-03-3.13957E-04-5.08161E-14
 -1      3137 8.50429E-03-3.09875E-04-5.23827E-14
 -1      3138 8.28353E-03-2.82669E-04-5.00576E-14
 -1      3139 8.64482E-03-3.06096E-04-5.39626E-14
 -1      3140 8.78507E-03-3.02690E-04-5.55534E-14
 -1      3141 8.56199E-03-2.75258E-04-5.31912E-14
 -1      3142 8.92486E-03-2.99930E-04-5.71563E-14
 -1      3143 9.06438E-03-2.97934E-04-5.87720E-14
 -1      3144 8.83817E-03-2.69141E-04-5.63764E-14
 -1      3145 9.20344E-03-2.97054E-04-6.03982E-14
 -1      3146 9.34233E-03-2.97491E-04-6.20345E-14
 -1      3147 9.11170E-03-2.65591E-04-5.96074E-14
 -1      3148 9.48091E-03-2.99663E-04-6.36834E-14
 -1      3149 9.61965E-03-3.03918E-04-6.53430E-14
 -1      3150 9.38252E-03-2.66304E-04-6.28847E-14
 -1      3151 9.75854E-03-3.10692E-04-6.70132E-14
 -1      3152 9.89837E-03-3.20651E-04-6.86937E-14
 -1      3153 9.65113E-03-2.73443E-04-6.62040E-14
 -1      3154 1.00393E-02-3.34177E-04-7.03824E-14
 -1      3155 1.01828E-02-3.52535E-04-7.20821E-14
 -1      3156 9.91943E-03-2.89798E-04-6.95662E-14
 -1      3157 1.03294E-02-3.75970E-04-7.37914E-14
 -1      3158 1.04812E-02-4.07173E-04-7.55079E-14
 -1      3159 1.01918E-02-3.19360E-04-7.29662E-14
 -1      3160 1.06397E-02-4.46053E-04-7.72300E-14
 -1      3161 1.08071E-02-4.98382E-04-7.89651E-14
 -1      3162 1.04775E-02-3.69265E-04-7.64000E-14
 -1      3163 1.15192E-02-8.76325E-04-8.43164E-14
 -1      3164 2.68333E-03 4.17885E-04-5.72707E-15
 -1      3165 2.54035E-03 4.14659E-04-5.15426E-15
 -1      3166 2.96917E-03 4.22185E-04-6.96020E-15
 -1      3167 2.82627E-03 4.20365E-04-6.32899E-15
 -1      3168 2.74979E-03 3.81953E-04-6.08569E-15
 -1      3169 3.82622E-03 4.24725E-04-1.13556E-14
 -1      3170 3.68341E-03 4.24971E-04-1.05517E-14
 -1      3171 4.11185E-03 4.23801E-04-1.30473E-14
 -1      3172 3.96904E-03 4.24329E-04-1.21874E-14
 -1      3173 3.89576E-03 3.87074E-04-1.18413E-14
 -1      3174 4.39748E-03 4.22461E-04-1.48487E-14
 -1      3175 4.25466E-03 4.23175E-04-1.39342E-14
 -1      3176 4.18189E-03 3.86074E-04-1.35616E-14
 -1      3177 4.68312E-03 4.20828E-04-1.67595E-14
 -1      3178 4.54030E-03 4.21677E-04-1.57907E-14
 -1      3179 4.46793E-03 3.84712E-04-1.53919E-14
 -1      3180 4.96879E-03 4.18958E-04-1.87787E-14
 -1      3181 4.82595E-03 4.19922E-04-1.77560E-14
 -1      3182 4.75389E-03 3.83089E-04-1.73299E-14
 -1      3183 5.25448E-03 4.16846E-04-2.09038E-14
 -1      3184 5.11163E-03 4.17934E-04-1.98274E-14
 -1      3185 5.03979E-03 3.81242E-04-1.93749E-14
 -1      3186 5.54021E-03 4.14449E-04-2.31375E-14
 -1      3187 5.39734E-03 4.15687E-04-2.20070E-14
 -1      3188 5.32564E-03 3.79155E-04-2.15268E-14
 -1      3189 5.82598E-03 4.11690E-04-2.54745E-14
 -1      3190 5.68309E-03 4.13120E-04-2.42935E-14
 -1      3191 5.61143E-03 3.76779E-04-2.37855E-14
 -1      3192 6.11179E-03 4.08475E-04-2.79128E-14
 -1      3193 5.96888E-03 4.10146E-04-2.66816E-14
 -1      3194 5.89718E-03 3.74033E-04-2.61475E-14
 -1      3195 6.39767E-03 4.04697E-04-3.04452E-14
 -1      3196 6.25472E-03 4.06663E-04-2.91674E-14
 -1      3197 6.18287E-03 3.70821E-04-2.86075E-14
 -1      3198 6.68362E-03 4.00255E-04-3.30686E-14
 -1      3199 6.54063E-03 4.02565E-04-3.17455E-14
 -1      3200 6.46849E-03 3.67039E-04-3.11612E-14
 -1      3201 6.96967E-03 3.95066E-04-3.57805E-14
 -1      3202 6.82662E-03 3.97757E-04-3.44139E-14
 -1      3203 6.75405E-03 3.62587E-04-3.38050E-14
 -1      3204 7.25586E-03 3.89094E-04-3.85791E-14
 -1      3205 7.11274E-03 3.92178E-04-3.71689E-14
 -1      3206 7.03951E-03 3.57388E-04-3.65376E-14
 -1      3207 7.54225E-03 3.82378E-04-4.14621E-14
 -1      3208 7.39902E-03 3.85824E-04-4.00108E-14
 -1      3209 7.32490E-03 3.51412E-04-3.93582E-14
 -1      3210 7.82894E-03 3.75076E-04-4.44250E-14
 -1      3211 7.68554E-03 3.78787E-04-4.29335E-14
 -1      3212 7.61022E-03 3.44702E-04-4.22613E-14
 -1      3213 8.11609E-03 3.67517E-04-4.74656E-14
 -1      3214 7.97244E-03 3.71303E-04-4.59355E-14
 -1      3215 7.89553E-03 3.37417E-04-4.52436E-14
 -1      3216 8.40395E-03 3.60271E-04-5.05758E-14
 -1      3217 8.25990E-03 3.63812E-04-4.90120E-14
 -1      3218 8.18096E-03 3.29884E-04-4.83016E-14
 -1      3219 8.69294E-03 3.54232E-04-5.37533E-14
 -1      3220 8.54826E-03 3.57034E-04-5.21563E-14
 -1      3221 8.46676E-03 3.22659E-04-5.14291E-14
 -1      3222 8.98369E-03 3.50709E-04-5.69907E-14
 -1      3223 8.83803E-03 3.52056E-04-5.53650E-14
 -1      3224 8.75339E-03 3.16604E-04-5.46213E-14
 -1      3225 9.27718E-03 3.51528E-04-6.02805E-14
 -1      3226 9.13002E-03 3.50432E-04-5.86286E-14
 -1      3227 9.04160E-03 3.12979E-04-5.78692E-14
 -1      3228 9.57484E-03 3.59134E-04-6.36256E-14
 -1      3229 9.42540E-03 3.54282E-04-6.19471E-14
 -1      3230 9.33260E-03 3.13549E-04-6.11706E-14
 -1      3231 9.87859E-03 3.76667E-04-6.70226E-14
 -1      3232 9.72585E-03 3.66391E-04-6.53161E-14
 -1      3233 9.62818E-03 3.20720E-04-6.45233E-14
 -1      3234 1.01908E-02 4.07955E-04-7.04726E-14
 -1      3235 1.00335E-02 3.90254E-04-6.87415E-14
 -1      3236 9.93087E-03 3.37693E-04-6.79298E-14
 -1      3237 1.05136E-02 4.57241E-04-7.39738E-14
 -1      3238 1.03509E-02 4.29982E-04-7.22170E-14
 -1      3239 1.02438E-02 3.68621E-04-7.13877E-14
 -1      3240 1.08481E-02 5.28233E-04-7.75270E-14
 -1      3241 1.06796E-02 4.89760E-04-7.57451E-14
 -1      3242 1.05701E-02 4.18535E-04-7.48966E-14
 -1      3243 1.11920E-02 6.21547E-04-8.11294E-14
 -1      3244 1.10194E-02 5.72292E-04-7.93193E-14
 -1      3245 1.09115E-02 4.92597E-04-7.84521E-14
 -1      3246 1.15382E-02 7.29739E-04-8.47860E-14
 -1      3247 1.13657E-02 6.74939E-04-8.29524E-14
 -1      3248 1.12654E-02 5.92682E-04-8.20589E-14
 -1      3249 1.18764E-02 8.31556E-04-8.84954E-14
 -1      3250 1.17091E-02 7.83803E-04-8.66329E-14
 -1      3251 1.16226E-02 7.10649E-04-8.57206E-14
 -1      3252 1.25086E-02 8.81288E-04-9.60694E-14
 -1      3253 1.23530E-02 8.98371E-04-9.41568E-14
 -1      3254 1.28226E-02 7.86550E-04-9.99319E-14
 -1      3255 1.26638E-02 8.42881E-04-9.79948E-14
 -1      3256 1.26152E-02 8.43603E-04-9.70178E-14
 -1      3257 1.31487E-02 6.31589E-04-1.03846E-13
 -1      3258 1.29839E-02 7.14175E-04-1.01882E-13
 -1      3259 1.29429E-02 7.22012E-04-1.00887E-13
 -1      3260 1.34835E-02 4.48089E-04-1.07806E-13
 -1      3261 1.33160E-02 5.41384E-04-1.05820E-13
 -1      3262 1.32856E-02 5.46505E-04-1.04807E-13
 -1      3263 1.37422E-02 2.99427E-04-1.10575E-13
 -1      3264 1.35959E-02 3.83653E-04-1.09029E-13
 -1      3265 1.35767E-02 3.85097E-04-1.08006E-13
 -1      3266 1.38117E-02 2.54243E-04-1.10457E-13
 -1      3267 1.44391E-02-7.36720E-04-1.09867E-13
 -1      3268 1.01651E-03 6.82010E-05-1.13042E-15
 -1      3269 1.01534E-03 4.12206E-05-1.13752E-15
 -1      3270 1.07931E-02 8.41507E-05-8.11350E-14
 -1      3271 1.09513E-02 1.62970E-04-8.19125E-14
 -1      3272 1.04789E-02-5.11476E-05-7.97931E-14
 -1      3273 1.06265E-02 6.42966E-06-8.04323E-14
 -1      3274 1.52497E-02-4.19666E-04-1.11421E-13
 -1      3275 1.15399E-02 5.01239E-04-8.55679E-14
 -1      3276 1.16885E-02 5.96040E-04-8.67177E-14
 -1      3277 1.26108E-02 8.26277E-04-9.61860E-14
 -1      3278 1.27680E-02 7.77566E-04-9.79435E-14
 -1      3279 1.08412E-02-4.76231E-04-8.02295E-14
 -1      3280 1.06348E-02-3.76942E-04-7.92516E-14
 -1      3281 1.01415E-02-1.64646E-04-7.83307E-14
 -1      3282 1.01821E-02-1.57228E-04-7.89115E-14
 -1      3283 1.01899E-02-1.39064E-04-7.83191E-14
 -1      3284 1.44625E-02-6.77646E-04-1.07968E-13
 -1      3285 1.43032E-02-7.51651E-04-1.07131E-13
 -1      3286 1.48529E-02-2.67634E-04-1.11433E-13
 -1      3287 1.19031E-02 7.11244E-04-8.86372E-14
 -1      3288 1.20859E-02 7.91190E-04-9.04846E-14
 -1      3289 3.54058E-03 4.25015E-04-9.77610E-15
 -1      3290 3.39776E-03 4.24827E-04-9.02902E-15
 -1      3291 3.60951E-03 3.87528E-04-1.02311E-14
 -1      3292 3.25491E-03 4.24333E-04-8.31095E-15
 -1      3293 3.11206E-03 4.23487E-04-7.62114E-15
 -1      3294 3.32312E-03 3.87143E-04-8.73460E-15
 -1      3295 2.11107E-03 3.98793E-04-3.61504E-15
 -1      3296 1.96785E-03 3.90859E-04-3.16254E-15
 -1      3297 1.41983E-02-8.17374E-04-1.07140E-13
 -1      3298 2.39731E-03 4.10498E-04-4.61145E-15
 -1      3299 2.25422E-03 4.05292E-04-4.09838E-15
 -1      3300 2.46280E-03 3.75716E-04-4.93629E-15
 -1      3301 1.04826E-02-3.10384E-04-7.86347E-14
 -1      3302 1.03442E-02-2.59833E-04-7.80157E-14
 -1      3303 1.04855E-02-3.39757E-04-7.75159E-14
 -1      3304 1.14501E-03 3.10559E-04-1.14328E-15
 -1      3305 1.08236E-03 2.71628E-04-1.07552E-15
 -1      3306 1.20142E-03 2.73045E-04-1.32163E-15
 -1      3307 1.28818E-03 3.32533E-04-1.41854E-15
 -1      3308 1.52868E-02-3.86252E-04-1.10937E-13
 -1      3309 1.11487E-02 2.72987E-04-8.29524E-14
 -1      3310 1.13511E-02 3.87271E-04-8.42563E-14
 -1      3311 1.13696E-02 4.47626E-04-8.39686E-14
 -1      3312 1.29949E-02 6.75526E-04-1.00263E-13
 -1      3313 1.32032E-02 5.56825E-04-1.02123E-13
 -1      3314 1.34339E-02 4.21186E-04-1.04042E-13
 -1      3315 1.36524E-02 2.90782E-04-1.05659E-13
 -1      3316 8.87889E-04-2.11811E-04-8.23831E-16
 -1      3317 1.01474E-03 1.44466E-05-1.14234E-15
 -1      3318 1.01471E-03-1.22284E-05-1.14496E-15
 -1      3319 1.13542E-03 3.01635E-05-1.38100E-15
 -1      3320 1.15307E-03 2.11822E-04-1.29652E-15
 -1      3321 1.02828E-03 1.81149E-04-1.07683E-15
 -1      3322 1.02410E-03 1.51829E-04-1.09446E-15
 -1      3323 1.01805E-03-9.29865E-05-1.13996E-15
 -1      3324 1.02043E-03-1.20697E-04-1.13360E-15
 -1      3325 1.52924E-02-3.96860E-04-1.10657E-13
 -1      3326 1.02363E-03-1.49100E-04-1.12447E-15
 -1      3327 1.02769E-03-1.78334E-04-1.11235E-15
 -1      3328 1.14324E-03-1.45898E-04-1.36927E-15
 -1      3329 1.25158E-02 8.49183E-04-9.54072E-14
 -1      3330 1.10374E-02-5.88471E-04-8.10702E-14
 -1      3331 1.21654E-02 8.31278E-04-9.14322E-14
 -1      3332 3.03656E-03 3.85487E-04-7.35234E-15
 -1      3333 1.39432E-02 1.45636E-04-1.08443E-13
 -1      3334 1.38255E-02 2.20641E-04-1.08486E-13
 -1      3335 1.02375E-02-2.27654E-04-7.71602E-14
 -1      3336 1.01464E-02-2.04567E-04-7.63068E-14
 -1      3337 1.02391E-02-2.49466E-04-7.60513E-14
 -1      3338 1.01025E-02-1.75847E-04-7.68311E-14
 -1      3339 1.01156E-02-1.70003E-04-7.75798E-14
 -1      3340 1.00925E-02-1.56928E-04-7.69951E-14
 -1      3341 1.21990E-02 8.92202E-04-9.22568E-14
 -1      3342 1.20393E-02 8.69846E-04-9.03709E-14
 -1      3343 1.06617E-02 5.57755E-05-7.99000E-14
 -1      3344 1.03821E-02-7.53159E-05-7.90508E-14
 -1      3345 1.04093E-02-3.78856E-05-7.84623E-14
 -1      3346 1.02953E-02-9.13190E-05-7.83108E-14
 -1      3347 1.11991E-02-6.66248E-04-8.24509E-14
 -1      3348 1.01832E-03 9.54605E-05-1.12101E-15
 -1      3349 1.13809E-03 8.85559E-05-1.36451E-15
 -1      3350 1.02080E-03 1.23230E-04-1.10919E-15
 -1      3351 1.10058E-02 2.34305E-04-8.16304E-14
 -1      3352 1.33162E-02 5.00119E-04-1.03614E-13
 -1      3353 1.28764E-02 7.36351E-04-9.93648E-14
 -1      3354 1.17552E-02 6.69369E-04-8.71881E-14
 -1      3355 1.57477E-03 3.67285E-04-2.06188E-15
 -1      3356 1.43142E-03 3.51341E-04-1.72461E-15
 -1      3357 1.38748E-03 3.21009E-04-1.67198E-15
 -1      3358 1.84293E-03 3.86579E-04-2.78429E-15
 -1      3359 1.69963E-03 3.75166E-04-2.38885E-15
 -1      3360 1.65599E-03 3.44973E-04-2.32564E-15
 -1      3361 1.90654E-03 3.55690E-04-3.04135E-15
 -1      3362 1.45355E-02-6.79891E-04-1.09859E-13
 -1      3363 1.46469E-02-6.22807E-04-1.09905E-13
 -1      3364 1.47079E-02-5.81243E-04-1.09377E-13
 -1      3365 2.17560E-03 3.65686E-04-3.90593E-15
 -1      3366 1.52628E-02-4.07202E-04-1.10807E-13
 -1      3367 1.22976E-02 8.76046E-04-9.31988E-14
 -1      3368 1.48914E-02-5.13893E-04-1.09981E-13
 -1      3369 1.43077E-02-7.82699E-04-1.08502E-13
 -1      3370 1.19697E-02 8.19278E-04-8.94321E-14
 -1      3371 1.02884E-03-2.35581E-04-1.06233E-15
 -1      3372 1.50445E-02-4.59788E-04-1.10050E-13
 -1      3373 1.09377E-03-2.17613E-04-1.21084E-15
 -1      3374 1.51790E-02-4.31176E-04-1.10848E-13
 -1      3375 1.01632E-03-6.57704E-05-1.14387E-15
 -1      3376 1.13783E-03-8.59776E-05-1.38383E-15
 -1      3377 1.01523E-03-3.89324E-05-1.14549E-15
 -1      3378 1.12156E-02 4.09649E-04-8.24397E-14
 -1      3379 1.13842E-02 5.09278E-04-8.37398E-14
 -1      3380 1.20480E-02 8.18238E-04-9.02084E-14
 -1      3381 1.18742E-02 7.67287E-04-8.83424E-14
 -1      3382 1.63337E-03-2.59721E-04-2.48053E-15
 -1      3383 1.77730E-03-2.69322E-04-2.88785E-15
 -1      3384 1.92145E-03-2.77393E-04-3.32567E-15
 -1      3385 2.06575E-03-2.84069E-04-3.79471E-15
 -1      3386 1.84395E-03-2.38745E-04-3.12364E-15
 -1      3387 2.21012E-03-2.89564E-04-4.29382E-15
 -1      3388 2.35453E-03-2.93991E-04-4.82353E-15
 -1      3389 2.13288E-03-2.50865E-04-4.06199E-15
 -1      3390 2.49892E-03-2.97537E-04-5.38336E-15
 -1      3391 2.64327E-03-3.00293E-04-5.97295E-15
 -1      3392 2.42220E-03-2.58944E-04-5.12187E-15
 -1      3393 2.78756E-03-3.02414E-04-6.59213E-15
 -1      3394 2.93178E-03-3.03968E-04-7.24041E-15
 -1      3395 2.71152E-03-2.63999E-04-6.30146E-15
 -1      3396 3.07593E-03-3.05076E-04-7.91690E-15
 -1      3397 3.21998E-03-3.05789E-04-8.62183E-15
 -1      3398 3.00060E-03-2.66867E-04-7.59774E-15
 -1      3399 3.36395E-03-3.06199E-04-9.35406E-15
 -1      3400 3.50783E-03-3.06341E-04-1.01137E-14
 -1      3401 3.28932E-03-2.68197E-04-9.00651E-15
 -1      3402 3.65163E-03-3.06281E-04-1.09009E-14
 -1      3403 3.79534E-03-3.06044E-04-1.17153E-14
 -1      3404 3.57763E-03-2.68479E-04-1.05253E-14
 -1      3405 3.93898E-03-3.05677E-04-1.25563E-14
 -1      3406 4.08253E-03-3.05193E-04-1.34240E-14
 -1      3407 3.86554E-03-2.68063E-04-1.21524E-14
 -1      3408 4.22602E-03-3.04624E-04-1.43186E-14
 -1      3409 4.36943E-03-3.03977E-04-1.52389E-14
 -1      3410 4.15306E-03-2.67192E-04-1.38860E-14
 -1      3411 4.51279E-03-3.03271E-04-1.61849E-14
 -1      3412 4.65608E-03-3.02508E-04-1.71570E-14
 -1      3413 4.44022E-03-2.66020E-04-1.57261E-14
 -1      3414 4.79931E-03-3.01697E-04-1.81556E-14
 -1      3415 4.94249E-03-3.00834E-04-1.91779E-14
 -1      3416 4.72706E-03-2.64631E-04-1.76694E-14
 -1      3417 5.08561E-03-2.99923E-04-2.02251E-14
 -1      3418 5.22868E-03-2.98957E-04-2.12987E-14
 -1      3419 5.01360E-03-2.63060E-04-1.97137E-14
 -1      3420 5.37169E-03-2.97932E-04-2.23964E-14
 -1      3421 5.51465E-03-2.96840E-04-2.35189E-14
 -1      3422 5.29984E-03-2.61298E-04-2.18583E-14
 -1      3423 5.65755E-03-2.95673E-04-2.46674E-14
 -1      3424 5.80039E-03-2.94420E-04-2.58398E-14
 -1      3425 5.58579E-03-2.59307E-04-2.41035E-14
 -1      3426 5.94316E-03-2.93071E-04-2.70369E-14
 -1      3427 6.08586E-03-2.91613E-04-2.82586E-14
 -1      3428 5.87141E-03-2.57024E-04-2.64491E-14
 -1      3429 6.22847E-03-2.90036E-04-2.95059E-14
 -1      3430 6.37100E-03-2.88326E-04-3.07781E-14
 -1      3431 6.15666E-03-2.54374E-04-2.88926E-14
 -1      3432 6.51341E-03-2.86474E-04-3.20732E-14
 -1      3433 6.65571E-03-2.84465E-04-3.33923E-14
 -1      3434 6.44142E-03-2.51273E-04-3.14345E-14
 -1      3435 6.79786E-03-2.82295E-04-3.47355E-14
 -1      3436 6.93986E-03-2.79948E-04-3.61007E-14
 -1      3437 6.72559E-03-2.47643E-04-3.40731E-14
 -1      3438 7.08167E-03-2.77429E-04-3.74886E-14
 -1      3439 7.22328E-03-2.74723E-04-3.88963E-14
 -1      3440 7.00898E-03-2.43420E-04-3.68026E-14
 -1      3441 7.36463E-03-2.71849E-04-4.03246E-14
 -1      3442 7.50573E-03-2.68795E-04-4.17745E-14
 -1      3443 7.29134E-03-2.38580E-04-3.96186E-14
 -1      3444 7.64648E-03-2.65599E-04-4.32425E-14
 -1      3445 7.78689E-03-2.62254E-04-4.47297E-14
 -1      3446 7.57238E-03-2.33156E-04-4.25146E-14
 -1      3447 7.92686E-03-2.58828E-04-4.62356E-14
 -1      3448 8.06639E-03-2.55318E-04-4.77582E-14
 -1      3449 7.85169E-03-2.27274E-04-4.54887E-14
 -1      3450 8.20536E-03-2.51833E-04-4.92971E-14
 -1      3451 8.34375E-03-2.48377E-04-5.08503E-14
 -1      3452 8.12879E-03-2.21185E-04-4.85351E-14
 -1      3453 8.48144E-03-2.45111E-04-5.24179E-14
 -1      3454 8.61843E-03-2.42047E-04-5.39993E-14
 -1      3455 8.40308E-03-2.15310E-04-5.16441E-14
 -1      3456 8.75453E-03-2.39406E-04-5.55919E-14
 -1      3457 8.88981E-03-2.37211E-04-5.71986E-14
 -1      3458 8.67386E-03-2.10271E-04-5.48070E-14
 -1      3459 9.02404E-03-2.35746E-04-5.88154E-14
 -1      3460 9.15732E-03-2.35045E-04-6.04432E-14
 -1      3461 8.94032E-03-2.06913E-04-5.80205E-14
 -1      3462 9.28943E-03-2.35454E-04-6.20823E-14
 -1      3463 9.42059E-03-2.37019E-04-6.37326E-14
 -1      3464 9.20163E-03-2.06294E-04-6.12787E-14
 -1      3465 9.55053E-03-2.40129E-04-6.53938E-14
 -1      3466 9.67974E-03-2.44864E-04-6.70648E-14
 -1      3467 9.45700E-03-2.09617E-04-6.45804E-14
 -1      3468 9.80790E-03-2.51609E-04-6.87468E-14
 -1      3469 9.93604E-03-2.60625E-04-7.04375E-14
 -1      3470 9.70585E-03-2.18091E-04-6.79247E-14
 -1      3471 1.03478E-02-3.12684E-04-7.57909E-14
 -1      3472 1.40755E-02 6.48207E-05-1.08553E-13
 -1      3473 2.81702E-03 3.45636E-04-6.44827E-15
 -1      3474 2.67315E-03 3.43402E-04-5.84243E-15
 -1      3475 1.24149E-02 8.67937E-04-9.44367E-14
 -1      3476 1.25559E-02 8.49461E-04-9.60764E-14
 -1      3477 4.25215E-03 3.48249E-04-1.40780E-14
 -1      3478 4.10890E-03 3.48816E-04-1.31899E-14
 -1      3479 3.96560E-03 3.49285E-04-1.23292E-14
 -1      3480 3.82224E-03 3.49644E-04-1.14957E-14
 -1      3481 4.03572E-03 3.11400E-04-1.28192E-14
 -1      3482 4.82475E-03 3.45318E-04-1.79015E-14
 -1      3483 4.68166E-03 3.46137E-04-1.69050E-14
 -1      3484 5.11083E-03 3.43524E-04-1.99725E-14
 -1      3485 4.96781E-03 3.44449E-04-1.89241E-14
 -1      3486 4.89570E-03 3.07545E-04-1.84738E-14
 -1      3487 5.39677E-03 3.41494E-04-2.21513E-14
 -1      3488 5.25382E-03 3.42541E-04-2.10483E-14
 -1      3489 5.18190E-03 3.05832E-04-2.05725E-14
 -1      3490 5.68258E-03 3.39171E-04-2.44351E-14
 -1      3491 5.53969E-03 3.40374E-04-2.32803E-14
 -1      3492 5.46789E-03 3.03887E-04-2.27766E-14
 -1      3493 5.96824E-03 3.36476E-04-2.68202E-14
 -1      3494 5.82543E-03 3.37876E-04-2.56149E-14
 -1      3495 5.75365E-03 3.01653E-04-2.50851E-14
 -1      3496 6.25374E-03 3.33312E-04-2.93023E-14
 -1      3497 6.11101E-03 3.34959E-04-2.80488E-14
 -1      3498 6.03917E-03 2.99048E-04-2.74929E-14
 -1      3499 6.53904E-03 3.29577E-04-3.18774E-14
 -1      3500 6.39641E-03 3.31523E-04-3.05796E-14
 -1      3501 6.32441E-03 2.95978E-04-2.99984E-14
 -1      3502 6.82409E-03 3.25176E-04-3.45427E-14
 -1      3503 6.68159E-03 3.27466E-04-3.31991E-14
 -1      3504 6.60930E-03 2.92346E-04-3.25950E-14
 -1      3505 7.10887E-03 3.20037E-04-3.72976E-14
 -1      3506 6.96651E-03 3.22704E-04-3.59092E-14
 -1      3507 6.89377E-03 2.88060E-04-3.52819E-14
 -1      3508 7.39331E-03 3.14131E-04-4.01390E-14
 -1      3509 7.25112E-03 3.17182E-04-3.87068E-14
 -1      3510 7.17773E-03 2.83051E-04-3.80580E-14
 -1      3511 7.67740E-03 3.07501E-04-4.30612E-14
 -1      3512 7.53539E-03 3.10904E-04-4.15903E-14
 -1      3513 7.46111E-03 2.77291E-04-4.09197E-14
 -1      3514 7.96115E-03 3.00300E-04-4.60646E-14
 -1      3515 7.81930E-03 3.03962E-04-4.45534E-14
 -1      3516 7.74382E-03 2.70815E-04-4.38643E-14
 -1      3517 8.24466E-03 2.92836E-04-4.91377E-14
 -1      3518 8.10291E-03 2.96580E-04-4.75913E-14
 -1      3519 8.02584E-03 2.63758E-04-4.68838E-14
 -1      3520 8.52819E-03 2.85627E-04-5.22808E-14
 -1      3521 8.38639E-03 2.89162E-04-5.07025E-14
 -1      3522 8.30725E-03 2.56392E-04-4.99741E-14
 -1      3523 8.81222E-03 2.79476E-04-5.54874E-14
 -1      3524 8.67008E-03 2.82357E-04-5.38765E-14
 -1      3525 8.58828E-03 2.49174E-04-5.31337E-14
 -1      3526 9.09761E-03 2.75553E-04-5.87454E-14
 -1      3527 8.95466E-03 2.77139E-04-5.71097E-14
 -1      3528 8.86944E-03 2.42812E-04-5.63523E-14
 -1      3529 9.38579E-03 2.75520E-04-6.20588E-14
 -1      3530 9.24122E-03 2.74902E-04-6.03958E-14
 -1      3531 9.15171E-03 2.38346E-04-5.96227E-14
 -1      3532 9.67894E-03 2.81702E-04-6.54205E-14
 -1      3533 9.53157E-03 2.77608E-04-6.37338E-14
 -1      3534 9.43670E-03 2.37283E-04-6.29432E-14
 -1      3535 9.98020E-03 2.97359E-04-6.88351E-14
 -1      3536 9.82834E-03 2.88005E-04-6.71210E-14
 -1      3537 9.72698E-03 2.41831E-04-6.63161E-14
 -1      3538 1.02936E-02 3.27049E-04-7.23004E-14
 -1      3539 1.01352E-02 3.09956E-04-7.05616E-14
 -1      3540 1.00263E-02 2.55314E-04-6.97378E-14
 -1      3541 1.06235E-02 3.76831E-04-7.58149E-14
 -1      3542 1.04564E-02 3.48765E-04-7.40516E-14
 -1      3543 1.03398E-02 2.82855E-04-7.32111E-14
 -1      3544 1.09726E-02 4.53841E-04-7.93760E-14
 -1      3545 1.07960E-02 4.11364E-04-7.75906E-14
 -1      3546 1.06733E-02 3.31927E-04-7.67293E-14
 -1      3547 1.13444E-02 5.64819E-04-8.30429E-14
 -1      3548 1.11605E-02 5.06739E-04-8.12290E-14
 -1      3549 1.31065E-02 6.30295E-04-1.02269E-13
 -1      3550 1.29315E-02 7.16872E-04-1.00321E-13
 -1      3551 1.05247E-02 3.50570E-05-7.84686E-14
 -1      3552 1.06691E-02 1.03620E-04-7.91614E-14
 -1      3553 1.27204E-02 8.05606E-04-9.79963E-14
 -1      3554 1.38869E-02 2.05307E-04-1.10336E-13
 -1      3555 1.45325E-02-1.55115E-04-1.10079E-13
 -1      3556 1.43654E-02-7.55425E-05-1.10132E-13
 -1      3557 1.34432E-03 2.91418E-04-1.61737E-15
 -1      3558 1.30196E-03 2.62555E-04-1.56103E-15
 -1      3559 1.48764E-03 3.07220E-04-1.94385E-15
 -1      3560 1.01341E-02-1.31294E-04-7.71643E-14
 -1      3561 1.02048E-02-1.16048E-04-7.77361E-14
 -1      3562 1.02210E-02-8.79210E-05-7.71533E-14
 -1      3563 2.24120E-03 3.32001E-04-4.20119E-15
 -1      3564 2.09716E-03 3.26186E-04-3.71313E-15
 -1      3565 3.39183E-03 3.49711E-04-9.16183E-15
 -1      3566 3.24823E-03 3.49266E-04-8.44049E-15
 -1      3567 1.14042E-02-7.96102E-04-8.36333E-14
 -1      3568 1.22531E-02 8.60862E-04-9.25396E-14
 -1      3569 2.52922E-03 3.40459E-04-5.26609E-15
 -1      3570 2.38523E-03 3.36721E-04-4.71891E-15
 -1      3571 2.59646E-03 3.04789E-04-5.59969E-15
 -1      3572 1.16841E-02 6.70815E-04-8.64207E-14
 -1      3573 1.02161E-02-2.97220E-04-7.39567E-14
 -1      3574 1.02312E-02-2.70071E-04-7.50609E-14
 -1      3575 1.01268E-02-2.39916E-04-7.42156E-14
 -1      3576 1.00845E-02-2.80974E-04-7.22447E-14
 -1      3577 1.33124E-02 5.12883E-04-1.04191E-13
 -1      3578 1.14973E-02 6.02421E-04-8.45880E-14
 -1      3579 1.08324E-02 1.99495E-04-7.98858E-14
 -1      3580 1.10033E-02 2.95501E-04-8.09130E-14
 -1      3581 1.34972E-02 4.11931E-04-1.06165E-13
 -1      3582 3.67883E-03 3.49855E-04-1.06893E-14
 -1      3583 3.53536E-03 3.49897E-04-9.91106E-15
 -1      3584 3.46100E-03 3.12093E-04-9.59219E-15
 -1      3585 4.53853E-03 3.46900E-04-1.59353E-14
 -1      3586 4.39537E-03 3.47609E-04-1.49929E-14
 -1      3587 4.32263E-03 3.10363E-04-1.45962E-14
 -1      3588 4.60928E-03 3.09059E-04-1.64815E-14
 -1      3589 1.34672E-03-2.35135E-04-1.75839E-15
 -1      3590 1.48981E-03-2.48378E-04-2.10384E-15
 -1      3591 1.55611E-03-2.21441E-04-2.30695E-15
 -1      3592 3.10456E-03 3.48480E-04-7.74784E-15
 -1      3593 2.96083E-03 3.47308E-04-7.08339E-15
 -1      3594 3.17315E-03 3.11227E-04-8.14633E-15
 -1      3595 1.29517E-03 2.27685E-04-1.59044E-15
 -1      3596 1.10329E-02 3.63590E-04-8.06807E-14
 -1      3597 9.96697E-03-2.40259E-04-7.14171E-14
 -1      3598 1.21342E-03-2.16400E-04-1.46806E-15
 -1      3599 1.27964E-03-1.94133E-04-1.63766E-15
 -1      3600 2.30776E-03 2.97784E-04-4.50140E-15
 -1      3601 2.88496E-03 3.08998E-04-6.81494E-15
 -1      3602 1.36209E-02 3.43582E-04-1.07381E-13
 -1      3603 1.00697E-02-2.00739E-04-7.46272E-14
 -1      3604 1.00850E-02-1.86163E-04-7.57288E-14
 -1      3605 1.00342E-02-1.71286E-04-7.51489E-14
 -1      3606 3.74852E-03 3.12046E-04-1.11501E-14
 -1      3607 1.10370E-02 4.15295E-04-8.03507E-14
 -1      3608 1.06810E-02 1.67287E-04-7.84482E-14
 -1      3609 1.14369E-03 1.48694E-04-1.33693E-15
 -1      3610 1.03307E-02-1.82141E-05-7.69949E-14
 -1      3611 1.04248E-02 5.17901E-06-7.77300E-14
 -1      3612 1.04291E-02 5.04866E-05-7.69947E-14
 -1      3613 1.97135E-03 3.24115E-04-3.30400E-15
 -1      3614 1.84564E-03 3.20818E-04-2.91898E-15
 -1      3615 2.03721E-03 2.91867E-04-3.57251E-15
 -1      3616 1.00781E-02-1.40162E-04-7.64186E-14
 -1      3617 1.00721E-02-1.21081E-04-7.58387E-14
 -1      3618 1.00368E-02-1.46385E-04-7.56735E-14
 -1      3619 1.26108E-03 1.10553E-04-1.61945E-15
 -1      3620 1.25887E-03 7.90684E-05-1.63182E-15
 -1      3621 1.13534E-03-2.76975E-05-1.38737E-15
 -1      3622 1.25865E-03-7.63368E-05-1.65070E-15
 -1      3623 1.26076E-03-1.07785E-04-1.64587E-15
 -1      3624 1.25741E-03 4.77856E-05-1.64127E-15
 -1      3625 1.25667E-03 1.67191E-05-1.64777E-15
 -1      3626 1.38057E-03 6.70984E-05-1.92252E-15
 -1      3627 1.26372E-03-1.39708E-04-1.63796E-15
 -1      3628 1.26754E-03-1.72222E-04-1.62655E-15
 -1      3629 1.76724E-03-2.00923E-04-2.92427E-15
 -1      3630 1.91157E-03-2.07303E-04-3.36349E-15
 -1      3631 1.40049E-03-1.87467E-04-1.93259E-15
 -1      3632 2.05616E-03-2.12631E-04-3.83336E-15
 -1      3633 2.20093E-03-2.17002E-04-4.33358E-15
 -1      3634 1.98005E-03-1.75007E-04-3.60794E-15
 -1      3635 2.34581E-03-2.20565E-04-4.86350E-15
 -1      3636 2.49073E-03-2.23399E-04-5.42352E-15
 -1      3637 2.26982E-03-1.82515E-04-4.60831E-15
 -1      3638 2.63565E-03-2.25635E-04-6.01300E-15
 -1      3639 2.78052E-03-2.27334E-04-6.63197E-15
 -1      3640 2.56002E-03-1.87404E-04-5.72779E-15
 -1      3641 2.92533E-03-2.28605E-04-7.28024E-15
 -1      3642 3.07005E-03-2.29492E-04-7.95646E-15
 -1      3643 2.85020E-03-1.90349E-04-6.96491E-15
 -1      3644 3.21467E-03-2.30083E-04-8.66070E-15
 -1      3645 3.35918E-03-2.30408E-04-9.39246E-15
 -1      3646 3.14009E-03-1.91898E-04-8.31715E-15
 -1      3647 3.50358E-03-2.30535E-04-1.01521E-14
 -1      3648 3.64786E-03-2.30481E-04-1.09380E-14
 -1      3649 3.42953E-03-1.92475E-04-9.78030E-15
 -1      3650 3.79203E-03-2.30298E-04-1.17514E-14
 -1      3651 3.93607E-03-2.29995E-04-1.25908E-14
 -1      3652 3.71848E-03-1.92395E-04-1.13523E-14
 -1      3653 4.08001E-03-2.29609E-04-1.34570E-14
 -1      3654 4.22384E-03-2.29144E-04-1.43503E-14
 -1      3655 4.00691E-03-1.91882E-04-1.30305E-14
 -1      3656 4.36757E-03-2.28623E-04-1.52689E-14
 -1      3657 4.51119E-03-2.28048E-04-1.62140E-14
 -1      3658 4.29486E-03-1.91085E-04-1.48143E-14
 -1      3659 4.65473E-03-2.27431E-04-1.71852E-14
 -1      3660 4.79817E-03-2.26770E-04-1.81822E-14
 -1      3661 4.58234E-03-1.90094E-04-1.67036E-14
 -1      3662 4.94152E-03-2.26072E-04-1.92044E-14
 -1      3663 5.08477E-03-2.25331E-04-2.02502E-14
 -1      3664 4.86938E-03-1.88954E-04-1.86951E-14
 -1      3665 5.22794E-03-2.24549E-04-2.13225E-14
 -1      3666 5.37102E-03-2.23717E-04-2.24200E-14
 -1      3667 5.15601E-03-1.87675E-04-2.07892E-14
 -1      3668 5.51401E-03-2.22834E-04-2.35421E-14
 -1      3669 5.65690E-03-2.21888E-04-2.46898E-14
 -1      3670 5.44222E-03-1.86239E-04-2.29829E-14
 -1      3671 5.79969E-03-2.20878E-04-2.58623E-14
 -1      3672 5.94236E-03-2.19789E-04-2.70588E-14
 -1      3673 5.72798E-03-1.84611E-04-2.52764E-14
 -1      3674 6.08491E-03-2.18618E-04-2.82801E-14
 -1      3675 6.22733E-03-2.17351E-04-2.95271E-14
 -1      3676 6.01324E-03-1.82739E-04-2.76700E-14
 -1      3677 6.36958E-03-2.15985E-04-3.07975E-14
 -1      3678 6.51167E-03-2.14504E-04-3.20926E-14
 -1      3679 6.29788E-03-1.80569E-04-3.01613E-14
 -1      3680 6.65357E-03-2.12911E-04-3.34113E-14
 -1      3681 6.79524E-03-2.11188E-04-3.47529E-14
 -1      3682 6.58177E-03-1.78047E-04-3.27511E-14
 -1      3683 6.93666E-03-2.09344E-04-3.61172E-14
 -1      3684 7.07780E-03-2.07362E-04-3.75042E-14
 -1      3685 6.86470E-03-1.75129E-04-3.54337E-14
 -1      3686 7.21861E-03-2.05262E-04-3.89118E-14
 -1      3687 7.35906E-03-2.03028E-04-4.03390E-14
 -1      3688 7.14640E-03-1.71802E-04-3.82057E-14
 -1      3689 7.49908E-03-2.00696E-04-4.17879E-14
 -1      3690 7.63864E-03-1.98250E-04-4.32559E-14
 -1      3691 7.42652E-03-1.68093E-04-4.10613E-14
 -1      3692 7.77764E-03-1.95752E-04-4.47436E-14
 -1      3693 7.91606E-03-1.93187E-04-4.62493E-14
 -1      3694 7.70462E-03-1.64098E-04-4.39982E-14
 -1      3695 8.05377E-03-1.90649E-04-4.77721E-14
 -1      3696 8.19074E-03-1.88124E-04-4.93120E-14
 -1      3697 7.98016E-03-1.60009E-04-4.70088E-14
 -1      3698 8.32682E-03-1.85748E-04-5.08671E-14
 -1      3699 8.46197E-03-1.83504E-04-5.24363E-14
 -1      3700 8.25246E-03-1.56140E-04-5.00896E-14
 -1      3701 8.59601E-03-1.81580E-04-5.40192E-14
 -1      3702 8.72889E-03-1.79951E-04-5.56161E-14
 -1      3703 8.52070E-03-1.52953E-04-5.32305E-14
 -1      3704 8.86040E-03-1.78864E-04-5.72235E-14
 -1      3705 8.99051E-03-1.78270E-04-5.88431E-14
 -1      3706 8.78390E-03-1.51070E-04-5.64252E-14
 -1      3707 9.11893E-03-1.78481E-04-6.04736E-14
 -1      3708 9.24566E-03-1.79397E-04-6.21144E-14
 -1      3709 9.04085E-03-1.51251E-04-5.96655E-14
 -1      3710 9.37035E-03-1.81403E-04-6.37671E-14
 -1      3711 9.49305E-03-1.84297E-04-6.54298E-14
 -1      3712 9.29003E-03-1.54331E-04-6.29511E-14
 -1      3713 9.61324E-03-1.88543E-04-6.71013E-14
 -1      3714 9.73124E-03-1.93743E-04-6.87835E-14
 -1      3715 9.52949E-03-1.61074E-04-6.62767E-14
 -1      3716 2.37523E-03 2.63027E-04-4.80569E-15
 -1      3717 2.23058E-03 2.59060E-04-4.28364E-15
 -1      3718 3.81858E-03 2.74112E-04-1.16137E-14
 -1      3719 3.67467E-03 2.74284E-04-1.08054E-14
 -1      3720 1.51171E-03-1.90987E-04-2.21410E-15
 -1      3721 1.65525E-03-1.99743E-04-2.59954E-15
 -1      3722 1.72326E-03-1.70143E-04-2.81635E-15
 -1      3723 1.49971E-03-1.67646E-04-2.19945E-15
 -1      3724 5.25300E-03 2.68185E-04-2.11732E-14
 -1      3725 5.10990E-03 2.69012E-04-2.00979E-14
 -1      3726 4.96673E-03 2.69788E-04-1.90486E-14
 -1      3727 4.82348E-03 2.70519E-04-1.80257E-14
 -1      3728 5.03783E-03 2.32074E-04-1.96250E-14
 -1      3729 5.82465E-03 2.64252E-04-2.57356E-14
 -1      3730 5.68186E-03 2.65347E-04-2.45571E-14
 -1      3731 6.10998E-03 2.61781E-04-2.81677E-14
 -1      3732 5.96736E-03 2.63068E-04-2.69401E-14
 -1      3733 5.89558E-03 2.26995E-04-2.63878E-14
 -1      3734 6.39489E-03 2.58859E-04-3.06945E-14
 -1      3735 6.25249E-03 2.60384E-04-2.94192E-14
 -1      3736 6.18066E-03 2.24705E-04-2.88428E-14
 -1      3737 6.67931E-03 2.55392E-04-3.33121E-14
 -1      3738 6.53717E-03 2.57201E-04-3.19918E-14
 -1      3739 6.46520E-03 2.21985E-04-3.13905E-14
 -1      3740 6.96311E-03 2.51292E-04-3.60218E-14
 -1      3741 6.82129E-03 2.53428E-04-3.46554E-14
 -1      3742 6.74908E-03 2.18746E-04-3.40312E-14
 -1      3743 7.24618E-03 2.46491E-04-3.88191E-14
 -1      3744 7.10474E-03 2.48985E-04-3.74094E-14
 -1      3745 7.03215E-03 2.14904E-04-3.67624E-14
 -1      3746 7.52838E-03 2.40956E-04-4.17023E-14
 -1      3747 7.38739E-03 2.43820E-04-4.02502E-14
 -1      3748 7.31425E-03 2.10390E-04-3.95822E-14
 -1      3749 7.80960E-03 2.34711E-04-4.46665E-14
 -1      3750 7.66911E-03 2.37924E-04-4.31740E-14
 -1      3751 7.59518E-03 2.05163E-04-4.24870E-14
 -1      3752 8.08975E-03 2.27860E-04-4.77032E-14
 -1      3753 7.94980E-03 2.31358E-04-4.61765E-14
 -1      3754 7.87479E-03 1.99223E-04-4.54686E-14
 -1      3755 8.36888E-03 2.20624E-04-5.08126E-14
 -1      3756 8.22942E-03 2.24278E-04-4.92492E-14
 -1      3757 8.15295E-03 1.92635E-04-4.85251E-14
 -1      3758 8.64719E-03 2.13375E-04-5.39857E-14
 -1      3759 8.50810E-03 2.16975E-04-5.23917E-14
 -1      3760 8.42963E-03 1.85548E-04-5.16494E-14
 -1      3761 8.92521E-03 2.06695E-04-5.72150E-14
 -1      3762 8.78617E-03 2.09918E-04-5.55936E-14
 -1      3763 8.70501E-03 1.78228E-04-5.48364E-14
 -1      3764 9.20394E-03 2.01459E-04-6.04966E-14
 -1      3765 9.06437E-03 2.03817E-04-5.88492E-14
 -1      3766 8.97955E-03 1.71099E-04-5.80777E-14
 -1      3767 9.48515E-03 1.98977E-04-6.38285E-14
 -1      3768 9.34406E-03 1.99735E-04-6.21564E-14
 -1      3769 9.25429E-03 1.64824E-04-6.13698E-14
 -1      3770 9.77170E-03 2.01290E-04-6.72085E-14
 -1      3771 9.62748E-03 1.99289E-04-6.55127E-14
 -1      3772 9.53102E-03 1.60460E-04-6.47113E-14
 -1      3773 1.00680E-02 2.11760E-04-7.06390E-14
 -1      3774 9.91822E-03 2.05072E-04-6.89178E-14
 -1      3775 9.81281E-03 1.59826E-04-6.80996E-14
 -1      3776 1.03802E-02 2.36164E-04-7.41160E-14
 -1      3777 1.02216E-02 2.21446E-04-7.23703E-14
 -1      3778 1.01046E-02 1.66266E-04-7.15344E-14
 -1      3779 1.05094E-02 1.32729E-04-7.67882E-14
 -1      3780 1.06494E-02 2.16702E-04-7.74988E-14
 -1      3781 9.86188E-03-2.06686E-04-7.05854E-14
 -1      3782 9.99366E-03-2.21716E-04-7.23963E-14
 -1      3783 1.00161E-02-2.04252E-04-7.33764E-14
 -1      3784 9.76996E-03-1.77250E-04-6.97521E-14
 -1      3785 5.53898E-03 2.66360E-04-2.34033E-14
 -1      3786 5.39603E-03 2.67305E-04-2.22746E-14
 -1      3787 5.61005E-03 2.28938E-04-2.40307E-14
 -1      3788 4.10612E-03 2.73433E-04-1.33116E-14
 -1      3789 3.96240E-03 2.73824E-04-1.24494E-14
 -1      3790 3.88898E-03 2.36097E-04-1.20799E-14
 -1      3791 3.53065E-03 2.74298E-04-1.00255E-14
 -1      3792 3.38654E-03 2.74134E-04-9.27347E-15
 -1      3793 3.60073E-03 2.36375E-04-1.04623E-14
 -1      3794 1.26415E-03 1.42656E-04-1.60387E-15
 -1      3795 1.38536E-03 1.33993E-04-1.89471E-15
 -1      3796 1.26810E-03 1.75380E-04-1.58475E-15
 -1      3797 1.08424E-02 3.15827E-04-7.88392E-14
 -1      3798 1.01436E-02-7.91277E-05-7.58597E-14
 -1      3799 1.02314E-02-5.32812E-05-7.64265E-14
 -1      3800 1.02358E-02-1.46665E-05-7.56973E-14
 -1      3801 1.41570E-03 2.21950E-04-1.88409E-15
 -1      3802 2.66452E-03 2.68698E-04-5.93700E-15
 -1      3803 2.51989E-03 2.66213E-04-5.35704E-15
 -1      3804 2.44354E-03 2.27771E-04-5.11445E-15
 -1      3805 3.24232E-03 2.73732E-04-8.54899E-15
 -1      3806 3.09800E-03 2.73061E-04-7.85265E-15
 -1      3807 3.31202E-03 2.36049E-04-8.95514E-15
 -1      3808 1.06648E-02 2.69372E-04-7.71707E-14
 -1      3809 2.95359E-03 2.72038E-04-7.18540E-15
 -1      3810 2.80909E-03 2.70620E-04-6.54679E-15
 -1      3811 2.73332E-03 2.32242E-04-6.27899E-15
 -1      3812 1.72919E-03 3.18736E-04-2.57936E-15
 -1      3813 1.60375E-03 3.12488E-04-2.24022E-15
 -1      3814 1.56127E-03 2.83240E-04-2.17336E-15
 -1      3815 1.79433E-03 2.88896E-04-2.81845E-15
 -1      3816 1.25663E-03-1.41849E-05-1.65163E-15
 -1      3817 1.25728E-03-4.51751E-05-1.65273E-15
 -1      3818 1.38039E-03-6.43242E-05-1.94014E-15
 -1      3819 1.37897E-03 1.32506E-06-1.93752E-15
 -1      3820 1.38496E-03-1.30913E-04-1.92965E-15
 -1      3821 1.49611E-03-1.32391E-04-2.20996E-15
 -1      3822 1.50481E-03 8.78627E-05-2.22453E-15
 -1      3823 1.50316E-03 5.31176E-05-2.23632E-15
 -1      3824 5.32412E-03 2.30612E-04-2.17759E-14
 -1      3825 3.02286E-03 2.34813E-04-7.55978E-15
 -1      3826 1.51073E-03 1.58313E-04-2.19009E-15
 -1      3827 1.50733E-03 1.22889E-04-2.20935E-15
 -1      3828 1.62999E-03 1.09742E-04-2.54663E-15
 -1      3829 9.95339E-03-1.86034E-04-7.28036E-14
 -1      3830 9.95386E-03-1.64672E-04-7.34846E-14
 -1      3831 9.99054E-03-1.54400E-04-7.45767E-14
 -1      3832 9.95739E-03-1.38326E-04-7.40046E-14
 -1      3833 4.75119E-03 2.33362E-04-1.75793E-14
 -1      3834 4.68017E-03 2.71202E-04-1.70298E-14
 -1      3835 4.53678E-03 2.71843E-04-1.60595E-14
 -1      3836 1.04958E-02 2.44039E-04-7.54067E-14
 -1      3837 1.03664E-02 1.76859E-04-7.45536E-14
 -1      3838 1.04180E-02 9.01966E-05-7.62464E-14
 -1      3839 1.03930E-02 1.39472E-04-7.53055E-14
 -1      3840 1.02846E-02 1.37837E-04-7.40198E-14
 -1      3841 1.03250E-02 6.24273E-05-7.55160E-14
 -1      3842 2.15382E-03 2.20676E-04-4.06726E-15
 -1      3843 2.08599E-03 2.54145E-04-3.79158E-15
 -1      3844 4.24976E-03 2.72967E-04-1.42010E-14
 -1      3845 4.17679E-03 2.35423E-04-1.38060E-14
 -1      3846 4.39331E-03 2.72431E-04-1.51164E-14
 -1      3847 1.54858E-03 2.48074E-04-2.18970E-15
 -1      3848 1.52090E-03 1.91741E-04-2.18422E-15
 -1      3849 1.64286E-03 1.80677E-04-2.52345E-15
 -1      3850 1.66517E-03 2.50906E-04-2.50243E-15
 -1      3851 1.00653E-02-9.55279E-05-7.51201E-14
 -1      3852 1.00600E-02-6.61446E-05-7.43976E-14
 -1      3853 9.99976E-03-1.06889E-04-7.43821E-14
 -1      3854 1.50302E-03-5.02669E-05-2.25163E-15
 -1      3855 1.50457E-03-8.48841E-05-2.24962E-15
 -1      3856 1.95959E-03 2.53054E-04-3.37947E-15
 -1      3857 1.61863E-03-1.19783E-04-2.54511E-15
 -1      3858 5.39527E-03 1.93130E-04-2.23801E-14
 -1      3859 5.25219E-03 1.93798E-04-2.12789E-14
 -1      3860 3.95971E-03 1.98015E-04-1.25482E-14
 -1      3861 3.81553E-03 1.98227E-04-1.17114E-14
 -1      3862 1.90467E-03-1.38182E-04-3.38562E-15
 -1      3863 2.04939E-03-1.41882E-04-3.85603E-15
 -1      3864 2.19437E-03-1.44936E-04-4.35623E-15
 -1      3865 2.33953E-03-1.47418E-04-4.88609E-15
 -1      3866 2.11952E-03-1.07943E-04-4.10770E-15
 -1      3867 2.48478E-03-1.49414E-04-5.44603E-15
 -1      3868 2.63006E-03-1.50972E-04-6.03475E-15
 -1      3869 2.40999E-03-1.11754E-04-5.16720E-15
 -1      3870 2.77533E-03-1.52177E-04-6.65319E-15
 -1      3871 2.92054E-03-1.53060E-04-7.30053E-15
 -1      3872 2.70078E-03-1.14156E-04-6.34452E-15
 -1      3873 3.06567E-03-1.53694E-04-7.97622E-15
 -1      3874 3.21068E-03-1.54099E-04-8.67993E-15
 -1      3875 2.99147E-03-1.15520E-04-7.63780E-15
 -1      3876 3.35558E-03-1.54334E-04-9.41083E-15
 -1      3877 3.50035E-03-1.54411E-04-1.01694E-14
 -1      3878 3.28178E-03-1.16146E-04-9.04412E-15
 -1      3879 3.64498E-03-1.54377E-04-1.09541E-14
 -1      3880 3.78947E-03-1.54236E-04-1.17663E-14
 -1      3881 3.57157E-03-1.16266E-04-1.05588E-14
 -1      3882 3.93383E-03-1.54023E-04-1.26052E-14
 -1      3883 4.07805E-03-1.53739E-04-1.34701E-14
 -1      3884 3.86079E-03-1.16046E-04-1.21815E-14
 -1      3885 4.22214E-03-1.53409E-04-1.43618E-14
 -1      3886 4.36609E-03-1.53030E-04-1.52793E-14
 -1      3887 4.14944E-03-1.15603E-04-1.39104E-14
 -1      3888 4.50993E-03-1.52620E-04-1.62231E-14
 -1      3889 4.65363E-03-1.52174E-04-1.71937E-14
 -1      3890 4.43752E-03-1.15012E-04-1.57451E-14
 -1      3891 4.79723E-03-1.51702E-04-1.81897E-14
 -1      3892 4.94070E-03-1.51199E-04-1.92105E-14
 -1      3893 4.72507E-03-1.14315E-04-1.76846E-14
 -1      3894 5.08406E-03-1.50670E-04-2.02571E-14
 -1      3895 5.22730E-03-1.50108E-04-2.13287E-14
 -1      3896 5.01211E-03-1.13529E-04-1.97266E-14
 -1      3897 5.37043E-03-1.49515E-04-2.24256E-14
 -1      3898 5.51343E-03-1.48883E-04-2.35471E-14
 -1      3899 5.29865E-03-1.12653E-04-2.18697E-14
 -1      3900 5.65631E-03-1.48213E-04-2.46933E-14
 -1      3901 5.79904E-03-1.47494E-04-2.58648E-14
 -1      3902 5.58466E-03-1.11671E-04-2.41124E-14
 -1      3903 5.94163E-03-1.46726E-04-2.70610E-14
 -1      3904 6.08406E-03-1.45898E-04-2.82817E-14
 -1      3905 5.87009E-03-1.10558E-04-2.64538E-14
 -1      3906 6.22631E-03-1.45012E-04-2.95280E-14
 -1      3907 6.36836E-03-1.44055E-04-3.07981E-14
 -1      3908 6.15485E-03-1.09285E-04-2.88951E-14
 -1      3909 6.51019E-03-1.43031E-04-3.20933E-14
 -1      3910 6.65177E-03-1.41927E-04-3.34114E-14
 -1      3911 6.43879E-03-1.07827E-04-3.14365E-14
 -1      3912 6.79306E-03-1.40753E-04-3.47519E-14
 -1      3913 6.93405E-03-1.39494E-04-3.61162E-14
 -1      3914 6.72171E-03-1.06164E-04-3.40723E-14
 -1      3915 7.07466E-03-1.38170E-04-3.75016E-14
 -1      3916 7.21488E-03-1.36765E-04-3.89088E-14
 -1      3917 7.00334E-03-1.04298E-04-3.67988E-14
 -1      3918 7.35464E-03-1.35312E-04-4.03364E-14
 -1      3919 7.49388E-03-1.33795E-04-4.17841E-14
 -1      3920 7.28334E-03-1.02262E-04-3.96128E-14
 -1      3921 7.63254E-03-1.32268E-04-4.32522E-14
 -1      3922 7.77056E-03-1.30711E-04-4.47403E-14
 -1      3923 7.56127E-03-1.00139E-04-4.25078E-14
 -1      3924 7.90783E-03-1.29206E-04-4.62460E-14
 -1      3925 8.04430E-03-1.27732E-04-4.77691E-14
 -1      3926 7.83660E-03-9.80810E-05-4.54822E-14
 -1      3927 8.17983E-03-1.26404E-04-4.93095E-14
 -1      3928 8.31436E-03-1.25196E-04-5.08666E-14
 -1      3929 8.10868E-03-9.63320E-05-4.85293E-14
 -1      3930 8.44773E-03-1.24269E-04-5.24386E-14
 -1      3931 8.57985E-03-1.23583E-04-5.40250E-14
 -1      3932 8.37673E-03-9.52517E-05-5.16449E-14
 -1      3933 8.71053E-03-1.23353E-04-5.56231E-14
 -1      3934 8.83965E-03-1.23510E-04-5.72329E-14
 -1      3935 8.63978E-03-9.53302E-05-5.48180E-14
 -1      3936 8.96699E-03-1.24338E-04-5.88548E-14
 -1      3937 9.09237E-03-1.25706E-04-6.04875E-14
 -1      3938 8.89663E-03-9.71862E-05-5.80401E-14
 -1      3939 9.21550E-03-1.27990E-04-6.21316E-14
 -1      3940 9.33616E-03-1.30938E-04-6.37855E-14
 -1      3941 9.14573E-03-1.01533E-04-6.13088E-14
 -1      3942 9.45390E-03-1.35048E-04-6.54498E-14
 -1      3943 9.56848E-03-1.39871E-04-6.71239E-14
 -1      3944 9.38494E-03-1.09123E-04-6.46190E-14
 -1      3945 1.73071E-03-1.19021E-04-2.86486E-15
 -1      3946 5.10901E-03 1.94421E-04-2.02036E-14
 -1      3947 4.96572E-03 1.95007E-04-1.91540E-14
 -1      3948 5.18025E-03 1.56854E-04-2.07835E-14
 -1      3949 6.25125E-03 1.87847E-04-2.95169E-14
 -1      3950 6.10893E-03 1.88923E-04-2.82667E-14
 -1      3951 5.96646E-03 1.89906E-04-2.70407E-14
 -1      3952 5.82384E-03 1.90812E-04-2.58377E-14
 -1      3953 6.03728E-03 1.53009E-04-2.76933E-14
 -1      3954 6.81867E-03 1.82445E-04-3.47524E-14
 -1      3955 6.67713E-03 1.83984E-04-3.34088E-14
 -1      3956 7.10096E-03 1.78938E-04-3.75052E-14
 -1      3957 6.95995E-03 1.80771E-04-3.61174E-14
 -1      3958 6.88811E-03 1.46516E-04-3.54741E-14
 -1      3959 7.38203E-03 1.74794E-04-4.03478E-14
 -1      3960 7.24166E-03 1.76955E-04-3.89158E-14
 -1      3961 7.16958E-03 1.43421E-04-3.82507E-14
 -1      3962 7.66164E-03 1.69958E-04-4.32702E-14
 -1      3963 7.52203E-03 1.72472E-04-4.17983E-14
 -1      3964 7.44959E-03 1.39731E-04-4.11131E-14
 -1      3965 7.93958E-03 1.64402E-04-4.62731E-14
 -1      3966 7.80082E-03 1.67278E-04-4.47640E-14
 -1      3967 7.72784E-03 1.35370E-04-4.40573E-14
 -1      3968 8.21564E-03 1.58140E-04-4.93454E-14
 -1      3969 8.07784E-03 1.61366E-04-4.78001E-14
 -1      3970 8.00403E-03 1.30276E-04-4.70773E-14
 -1      3971 8.48973E-03 1.51237E-04-5.24852E-14
 -1      3972 8.35291E-03 1.54771E-04-5.09068E-14
 -1      3973 8.27792E-03 1.24399E-04-5.01653E-14
 -1      3974 8.76195E-03 1.43834E-04-5.56861E-14
 -1      3975 8.62604E-03 1.47594E-04-5.40791E-14
 -1      3976 8.54930E-03 1.17710E-04-5.33210E-14
 -1      3977 9.03269E-03 1.36179E-04-5.89391E-14
 -1      3978 8.89743E-03 1.40021E-04-5.73063E-14
 -1      3979 8.81815E-03 1.10207E-04-5.65362E-14
 -1      3980 9.30285E-03 1.28696E-04-6.22417E-14
 -1      3981 9.16771E-03 1.32371E-04-6.05834E-14
 -1      3982 9.08470E-03 1.01937E-04-5.97989E-14
 -1      3983 9.57417E-03 1.22162E-04-6.55885E-14
 -1      3984 9.43814E-03 1.25209E-04-6.39092E-14
 -1      3985 9.34966E-03 9.30539E-05-6.31089E-14
 -1      3986 9.84967E-03 1.18105E-04-6.89863E-14
 -1      3987 9.71102E-03 1.19611E-04-6.72831E-14
 -1      3988 9.61447E-03 8.39818E-05-6.64663E-14
 -1      3989 1.01346E-02 1.19751E-04-7.24275E-14
 -1      3990 9.99042E-03 1.17714E-04-7.07019E-14
 -1      3991 9.88198E-03 7.58629E-05-6.98696E-14
 -1      3992 2.80284E-03 1.95426E-04-6.62571E-15
 -1      3993 2.65777E-03 1.93951E-04-6.01259E-15
 -1      3994 3.67123E-03 1.98337E-04-1.09018E-14
 -1      3995 3.52679E-03 1.98340E-04-1.01197E-14
 -1      3996 3.74210E-03 1.60231E-04-1.13447E-14
 -1      3997 2.51267E-03 1.92022E-04-5.42844E-15
 -1      3998 2.36757E-03 1.89589E-04-4.87352E-15
 -1      3999 2.58253E-03 1.55828E-04-5.74706E-15
 -1      4000 1.50232E-03 1.86506E-05-2.24489E-15
 -1      4001 1.50227E-03-1.57542E-05-2.24990E-15
 -1      4002 1.62656E-03 3.74583E-05-2.57262E-15
 -1      4003 1.62646E-03-3.43744E-05-2.58426E-15
 -1      4004 9.70060E-03-1.49949E-04-6.91091E-14
 -1      4005 9.81824E-03-1.61670E-04-7.09152E-14
 -1      4006 3.38223E-03 1.98190E-04-9.36457E-15
 -1      4007 3.23755E-03 1.97874E-04-8.63734E-15
 -1      4008 3.45291E-03 1.60205E-04-9.77781E-15
 -1      4009 2.22253E-03 1.86540E-04-4.34872E-15
 -1      4010 2.07762E-03 1.82808E-04-3.85251E-15
 -1      4011 2.29205E-03 1.51771E-04-4.63461E-15
 -1      4012 1.78200E-03 2.52351E-04-2.83574E-15
 -1      4013 1.01369E-02-1.31838E-05-7.43958E-14
 -1      4014 1.02281E-02 2.10575E-05-7.49558E-14
 -1      4015 1.02138E-02 5.79221E-05-7.42122E-14
 -1      4016 3.09275E-03 1.97332E-04-7.93869E-15
 -1      4017 2.94784E-03 1.96541E-04-7.26779E-15
 -1      4018 3.16319E-03 1.59648E-04-8.32116E-15
 -1      4019 5.68110E-03 1.91644E-04-2.46602E-14
 -1      4020 5.53824E-03 1.92415E-04-2.35081E-14
 -1      4021 5.46644E-03 1.55764E-04-2.29868E-14
 -1      4022 6.53537E-03 1.85387E-04-3.20878E-14
 -1      4023 6.39340E-03 1.86674E-04-3.07908E-14
 -1      4024 6.32175E-03 1.51231E-04-3.01926E-14
 -1      4025 9.88094E-03-1.58408E-04-7.21553E-14
 -1      4026 1.80070E-03-8.76502E-05-3.08236E-15
 -1      4027 1.83105E-03 2.16882E-04-3.02791E-15
 -1      4028 9.63162E-03-1.24456E-04-6.82711E-14
 -1      4029 2.87301E-03 1.58304E-04-6.97691E-15
 -1      4030 4.82233E-03 1.95555E-04-1.81311E-14
 -1      4031 4.67884E-03 1.96071E-04-1.71340E-14
 -1      4032 4.89358E-03 1.57808E-04-1.86848E-14
 -1      4033 5.75214E-03 1.54499E-04-2.52907E-14
 -1      4034 1.79914E-03-4.98705E-05-3.08311E-15
 -1      4035 1.97275E-03-6.61418E-05-3.62466E-15
 -1      4036 1.79846E-03-1.21834E-05-3.07973E-15
 -1      4037 1.01598E-02 8.43728E-05-7.31735E-14
 -1      4038 2.00205E-03 1.45590E-04-3.63887E-15
 -1      4039 1.93292E-03 1.78272E-04-3.38550E-15
 -1      4040 4.46418E-03 2.34487E-04-1.56395E-14
 -1      4041 4.24771E-03 1.97385E-04-1.43030E-14
 -1      4042 4.10377E-03 1.97734E-04-1.34128E-14
 -1      4043 4.03074E-03 1.59908E-04-1.30198E-14
 -1      4044 1.79963E-03 6.30552E-05-3.06124E-15
 -1      4045 1.79862E-03 2.54080E-05-3.07263E-15
 -1      4046 1.97160E-03 1.20248E-05-3.61527E-15
 -1      4047 9.96853E-03-5.53966E-05-7.29359E-14
 -1      4048 1.00482E-02-3.69762E-05-7.36656E-14
 -1      4049 1.00333E-02-5.61944E-06-7.29293E-14
 -1      4050 6.60542E-03 1.49092E-04-3.27876E-14
 -1      4051 1.74508E-03 1.44343E-04-2.84748E-15
 -1      4052 1.74215E-03 1.06708E-04-2.86673E-15
 -1      4053 1.91421E-03 9.67809E-05-3.39453E-15
 -1      4054 2.33574E-03-7.45345E-05-4.89229E-15
 -1      4055 2.48117E-03-7.55601E-05-5.45107E-15
 -1      4056 2.62666E-03-7.63718E-05-6.03911E-15
 -1      4057 2.77215E-03-7.69828E-05-6.65635E-15
 -1      4058 2.55302E-03-3.88884E-05-5.73738E-15
 -1      4059 2.91759E-03-7.74409E-05-7.30221E-15
 -1      4060 3.06295E-03-7.77526E-05-7.97672E-15
 -1      4061 2.84410E-03-3.95054E-05-6.96990E-15
 -1      4062 3.20821E-03-7.79594E-05-8.67859E-15
 -1      4063 3.35334E-03-7.80624E-05-9.40876E-15
 -1      4064 3.13493E-03-3.98087E-05-8.31641E-15
 -1      4065 3.49833E-03-7.80959E-05-1.01663E-14
 -1      4066 3.64318E-03-7.80575E-05-1.09497E-14
 -1      4067 3.42531E-03-3.98924E-05-9.77517E-15
 -1      4068 3.78787E-03-7.79747E-05-1.17606E-14
 -1      4069 3.93242E-03-7.78432E-05-1.25980E-14
 -1      4070 3.71511E-03-3.98266E-05-1.13422E-14
 -1      4071 4.07681E-03-7.76838E-05-1.34620E-14
 -1      4072 4.22106E-03-7.74907E-05-1.43521E-14
 -1      4073 4.00430E-03-3.96614E-05-1.30154E-14
 -1      4074 4.36516E-03-7.72806E-05-1.52696E-14
 -1      4075 4.50911E-03-7.70459E-05-1.62123E-14
 -1      4076 4.29287E-03-3.94322E-05-1.47952E-14
 -1      4077 4.65294E-03-7.67992E-05-1.71811E-14
 -1      4078 4.79662E-03-7.65329E-05-1.81771E-14
 -1      4079 4.58085E-03-3.91579E-05-1.66805E-14
 -1      4080 4.94017E-03-7.62550E-05-1.91969E-14
 -1      4081 5.08359E-03-7.59593E-05-2.02424E-14
 -1      4082 4.86827E-03-3.88465E-05-1.86690E-14
 -1      4083 5.22688E-03-7.56514E-05-2.13143E-14
 -1      4084 5.37003E-03-7.53238E-05-2.24107E-14
 -1      4085 5.15515E-03-3.85074E-05-2.07607E-14
 -1      4086 5.51304E-03-7.49807E-05-2.35315E-14
 -1      4087 5.65590E-03-7.46145E-05-2.46779E-14
 -1      4088 5.44146E-03-3.81364E-05-2.29528E-14
 -1      4089 5.79861E-03-7.42290E-05-2.58491E-14
 -1      4090 5.94114E-03-7.38161E-05-2.70442E-14
 -1      4091 5.72717E-03-3.77293E-05-2.52455E-14
 -1      4092 6.08349E-03-7.33805E-05-2.82653E-14
 -1      4093 6.22563E-03-7.29132E-05-2.95111E-14
 -1      4094 6.01220E-03-3.72820E-05-2.76372E-14
 -1      4095 6.36755E-03-7.24216E-05-3.07798E-14
 -1      4096 6.50921E-03-7.18953E-05-3.20741E-14
 -1      4097 6.29643E-03-3.67935E-05-3.01270E-14
 -1      4098 6.65059E-03-7.13468E-05-3.33935E-14
 -1      4099 6.79166E-03-7.07640E-05-3.47341E-14
 -1      4100 6.57967E-03-3.62708E-05-3.27147E-14
 -1      4101 6.93237E-03-7.01669E-05-3.60972E-14
 -1      4102 7.07268E-03-6.95416E-05-3.74828E-14
 -1      4103 6.86168E-03-3.57344E-05-3.53969E-14
 -1      4104 7.21254E-03-6.89195E-05-3.88897E-14
 -1      4105 7.35191E-03-6.82844E-05-4.03178E-14
 -1      4106 7.14215E-03-3.52273E-05-3.81673E-14
 -1      4107 7.49070E-03-6.76834E-05-4.17649E-14
 -1      4108 7.62887E-03-6.70976E-05-4.32321E-14
 -1      4109 7.42069E-03-3.48257E-05-4.10229E-14
 -1      4110 7.76633E-03-6.65956E-05-4.47202E-14
 -1      4111 7.90302E-03-6.61546E-05-4.62264E-14
 -1      4112 7.69682E-03-3.46536E-05-4.39581E-14
 -1      4113 8.03882E-03-6.58720E-05-4.77502E-14
 -1      4114 8.17367E-03-6.57180E-05-4.92913E-14
 -1      4115 7.96998E-03-3.48998E-05-4.69701E-14
 -1      4116 8.30744E-03-6.58281E-05-5.08498E-14
 -1      4117 8.44003E-03-6.61597E-05-5.24235E-14
 -1      4118 8.23950E-03-3.58373E-05-5.00535E-14
 -1      4119 8.57130E-03-6.68978E-05-5.40106E-14
 -1      4120 8.70111E-03-6.79746E-05-5.56113E-14
 -1      4121 8.50457E-03-3.78419E-05-5.32010E-14
 -1      4122 8.82930E-03-6.96414E-05-5.72243E-14
 -1      4123 8.95568E-03-7.17794E-05-5.88475E-14
 -1      4124 8.76426E-03-4.14072E-05-5.64041E-14
 -1      4125 9.08004E-03-7.47338E-05-6.04819E-14
 -1      4126 9.20212E-03-7.82796E-05-6.21291E-14
 -1      4127 9.01736E-03-4.71491E-05-5.96533E-14
 -1      4128 9.32162E-03-8.29058E-05-6.37837E-14
 -1      4129 9.43816E-03-8.82602E-05-6.54508E-14
 -1      4130 9.26228E-03-5.57863E-05-6.29467E-14
 -1      4131 6.10807E-03 1.16323E-04-2.83475E-14
 -1      4132 5.96571E-03 1.16951E-04-2.71230E-14
 -1      4133 9.93869E-03-1.19665E-04-7.35580E-14
 -1      4134 9.91371E-03-9.73365E-05-7.28442E-14
 -1      4135 5.25154E-03 1.19389E-04-2.13658E-14
 -1      4136 5.10830E-03 1.19776E-04-2.02905E-14
 -1      4137 5.82317E-03 1.17522E-04-2.59209E-14
 -1      4138 5.68048E-03 1.18048E-04-2.47454E-14
 -1      4139 5.89421E-03 8.07306E-05-2.65529E-14
 -1      4140 7.23813E-03 1.08378E-04-3.89981E-14
 -1      4141 7.09799E-03 1.09747E-04-3.75868E-14
 -1      4142 6.95747E-03 1.10981E-04-3.61982E-14
 -1      4143 6.81660E-03 1.12107E-04-3.48325E-14
 -1      4144 7.02682E-03 7.58625E-05-3.69247E-14
 -1      4145 7.79394E-03 1.01425E-04-4.48443E-14
 -1      4146 7.65578E-03 1.03419E-04-4.33520E-14
 -1      4147 8.06839E-03 9.68751E-05-4.78813E-14
 -1      4148 7.93148E-03 9.92592E-05-4.63551E-14
 -1      4149 7.86007E-03 6.81495E-05-4.56299E-14
 -1      4150 8.34006E-03 9.14573E-05-5.09861E-14
 -1      4151 8.20458E-03 9.42915E-05-4.94246E-14
 -1      4152 8.13279E-03 6.42278E-05-4.86854E-14
 -1      4153 8.60865E-03 8.50398E-05-5.41578E-14
 -1      4154 8.47474E-03 8.83914E-05-5.25642E-14
 -1      4155 8.40224E-03 5.93448E-05-5.18076E-14
 -1      4156 8.87396E-03 7.74750E-05-5.73832E-14
 -1      4157 8.74169E-03 8.14179E-05-5.57639E-14
 -1      4158 8.66799E-03 5.32615E-05-5.49921E-14
 -1      4159 9.13600E-03 6.86091E-05-6.06565E-14
 -1      4160 9.00532E-03 7.32167E-05-5.90138E-14
 -1      4161 8.92962E-03 4.56816E-05-5.82283E-14
 -1      4162 9.39510E-03 5.83309E-05-6.39756E-14
 -1      4163 9.26578E-03 6.36415E-05-6.23105E-14
 -1      4164 9.18681E-03 3.62528E-05-6.15112E-14
 -1      4165 9.65218E-03 4.67162E-05-6.73414E-14
 -1      4166 9.52365E-03 5.26946E-05-6.56525E-14
 -1      4167 9.43934E-03 2.46270E-05-6.48409E-14
 -1      4168 9.87699E-03-1.29340E-04-7.24716E-14
 -1      4169 9.82127E-03-8.97522E-05-7.13072E-14
 -1      4170 9.88892E-03-7.44392E-05-7.21218E-14
 -1      4171 9.86516E-03-4.94035E-05-7.13954E-14
 -1      4172 2.05900E-03 9.93805E-05-3.86269E-15
 -1      4173 4.53524E-03 1.96547E-04-1.61638E-14
 -1      4174 4.39153E-03 1.96989E-04-1.52194E-14
 -1      4175 4.31885E-03 1.59353E-04-1.48020E-14
 -1      4176 1.75481E-03 1.79553E-04-2.84310E-15
 -1      4177 3.81333E-03 1.22073E-04-1.17895E-14
 -1      4178 3.66875E-03 1.22134E-04-1.09786E-14
 -1      4179 1.00732E-02 4.71832E-05-7.26218E-14
 -1      4180 2.65311E-03 1.19209E-04-6.07058E-15
 -1      4181 2.50771E-03 1.17974E-04-5.48335E-15
 -1      4182 2.21431E-03 1.09981E-04-4.39015E-15
 -1      4183 2.12729E-03 6.06188E-05-4.11650E-15
 -1      4184 3.52403E-03 1.22113E-04-1.01939E-14
 -1      4185 3.37917E-03 1.22008E-04-9.43654E-15
 -1      4186 3.59554E-03 8.39550E-05-1.06132E-14
 -1      4187 2.94381E-03 1.20895E-04-7.33209E-15
 -1      4188 2.79849E-03 1.20177E-04-6.68671E-15
 -1      4189 2.72433E-03 8.22152E-05-6.39835E-15
 -1      4190 2.08151E-03-6.97441E-05-3.98547E-15
 -1      4191 2.22666E-03-7.11908E-05-4.49236E-15
 -1      4192 2.29839E-03-3.55820E-05-4.75390E-15
 -1      4193 2.08047E-03-2.98595E-05-3.98263E-15
 -1      4194 5.53764E-03 1.18529E-04-2.35940E-14
 -1      4195 5.39466E-03 1.18976E-04-2.24670E-14
 -1      4196 5.60885E-03 8.14448E-05-2.42016E-14
 -1      4197 9.98887E-03 2.27455E-05-7.19149E-14
 -1      4198 9.93503E-03 4.81522E-05-7.08857E-14
 -1      4199 9.80348E-03 5.32771E-05-6.91738E-14
 -1      4200 9.90515E-03-5.84096E-07-7.11945E-14
 -1      4201 2.35957E-03 1.11857E-04-4.91827E-15
 -1      4202 9.56964E-03-9.76129E-05-6.74080E-14
 -1      4203 9.69698E-03-1.09167E-04-6.93990E-14
 -1      4204 6.67541E-03 1.13121E-04-3.34886E-14
 -1      4205 6.53393E-03 1.14045E-04-3.21670E-14
 -1      4206 6.74537E-03 7.74939E-05-3.41909E-14
 -1      4207 3.23417E-03 1.21781E-04-8.70721E-15
 -1      4208 3.08905E-03 1.21427E-04-8.00545E-15
 -1      4209 3.30562E-03 8.37765E-05-9.09673E-15
 -1      4210 7.51707E-03 1.05225E-04-4.18795E-14
 -1      4211 7.37783E-03 1.06882E-04-4.04293E-14
 -1      4212 7.58455E-03 7.13001E-05-4.26490E-14
 -1      4213 6.39220E-03 1.14878E-04-3.08700E-14
 -1      4214 6.25024E-03 1.15637E-04-2.95962E-14
 -1      4215 6.17885E-03 7.98664E-05-2.90026E-14
 -1      4216 6.46263E-03 7.88062E-05-3.15493E-14
 -1      4217 9.51535E-03-7.08044E-05-6.65614E-14
 -1      4218 5.03637E-03 8.25602E-05-1.97988E-14
 -1      4219 4.96493E-03 1.20136E-04-1.92407E-14
 -1      4220 4.82144E-03 1.20475E-04-1.82165E-14
 -1      4221 9.83463E-03-1.41319E-04-7.15883E-14
 -1      4222 5.32289E-03 8.20456E-05-2.19495E-14
 -1      4223 9.70809E-03 2.14598E-05-6.83451E-14
 -1      4224 7.30666E-03 7.38307E-05-3.97453E-14
 -1      4225 2.43067E-03 7.59078E-05-5.21390E-15
 -1      4226 3.01517E-03 8.32497E-05-7.69083E-15
 -1      4227 9.80248E-03-1.22960E-04-7.11455E-14
 -1      4228 9.75256E-03-9.55384E-05-7.02719E-14
 -1      4229 9.71619E-03-7.46567E-05-6.95557E-14
 -1      4230 4.60646E-03 1.58641E-04-1.66898E-14
 -1      4231 3.95776E-03 1.21959E-04-1.26284E-14
 -1      4232 3.88486E-03 8.39011E-05-1.22382E-14
 -1      4233 4.10205E-03 1.21791E-04-1.34939E-14
 -1      4234 2.08027E-03 9.91952E-06-3.97538E-15
 -1      4235 2.23532E-03 1.84535E-05-4.51340E-15
 -1      4236 7.08409E-03 2.00020E-05-3.75499E-14
 -1      4237 6.94387E-03 2.03471E-05-3.61626E-14
 -1      4238 8.45171E-03 9.93471E-06-5.25099E-14
 -1      4239 8.31879E-03 1.19143E-05-5.09331E-14
 -1      4240 5.95310E-03 2.15807E-05-2.70992E-14
 -1      4241 5.81060E-03 2.16684E-05-2.59009E-14
 -1      4242 2.78352E-03 2.15320E-05-6.68648E-15
 -1      4243 2.92903E-03 2.17000E-05-7.33250E-15
 -1      4244 3.07446E-03 2.18142E-05-8.00660E-15
 -1      4245 3.21978E-03 2.19164E-05-8.70894E-15
 -1      4246 3.36498E-03 2.19775E-05-9.43885E-15
 -1      4247 3.51003E-03 2.20341E-05-1.01964E-14
 -1      4248 3.65493E-03 2.20599E-05-1.09814E-14
 -1      4249 3.79968E-03 2.20857E-05-1.17923E-14
 -1      4250 3.94427E-03 2.20885E-05-1.26309E-14
 -1      4251 4.08870E-03 2.20937E-05-1.34955E-14
 -1      4252 4.50885E-03-1.40362E-06-1.61820E-14
 -1      4253 4.65272E-03-1.35848E-06-1.71496E-14
 -1      4254 4.80866E-03 2.20059E-05-1.82140E-14
 -1      4255 4.95223E-03 2.19776E-05-1.92357E-14
 -1      4256 5.09565E-03 2.19397E-05-2.02840E-14
 -1      4257 5.23894E-03 2.19020E-05-2.13580E-14
 -1      4258 5.38208E-03 2.18534E-05-2.24557E-14
 -1      4259 5.52508E-03 2.18025E-05-2.35792E-14
 -1      4260 5.66792E-03 2.17380E-05-2.47272E-14
 -1      4261 6.09540E-03 2.14841E-05-2.83223E-14
 -1      4262 6.23750E-03 2.13623E-05-2.95689E-14
 -1      4263 6.37936E-03 2.12267E-05-3.08390E-14
 -1      4264 6.52095E-03 2.10554E-05-3.21349E-14
 -1      4265 6.66226E-03 2.08633E-05-3.34547E-14
 -1      4266 6.80325E-03 2.06207E-05-3.47977E-14
 -1      4267 7.22385E-03 1.96112E-05-3.89592E-14
 -1      4268 7.36312E-03 1.91195E-05-4.03872E-14
 -1      4269 7.50183E-03 1.85607E-05-4.18377E-14
 -1      4270 7.63993E-03 1.78603E-05-4.33070E-14
 -1      4271 7.77735E-03 1.70622E-05-4.47962E-14
 -1      4272 7.91402E-03 1.60668E-05-4.63056E-14
 -1      4273 8.04987E-03 1.49307E-05-4.78313E-14
 -1      4274 8.18483E-03 1.35222E-05-4.93728E-14
 -1      4275 8.58344E-03 7.67874E-06-5.40992E-14
 -1      4276 8.71397E-03 4.92142E-06-5.57029E-14
 -1      4277 8.84308E-03 1.79219E-06-5.73195E-14
 -1      4278 8.97079E-03-2.00422E-06-5.89468E-14
 -1      4279 9.09682E-03-6.28243E-06-6.05860E-14
 -1      4280 9.22126E-03-1.14381E-05-6.22357E-14
 -1      4281 9.34366E-03-1.71817E-05-6.38956E-14
 -1      4282 9.63152E-03-5.38724E-05-6.81409E-14
 -1      4283 9.70923E-03-4.56808E-05-6.91651E-14
 -1      4284 9.46426E-03-2.41061E-05-6.55676E-14
 -1      4285 4.66539E-03 9.74412E-05-1.71586E-14
 -1      4286 4.52161E-03 9.76736E-05-1.61892E-14
 -1      4287 9.78551E-03-2.60004E-05-6.99657E-14
 -1      4288 2.34434E-03 1.62759E-05-4.91381E-15
 -1      4289 2.49241E-03 2.10807E-05-5.48148E-15
 -1      4290 2.63797E-03 2.13406E-05-6.06963E-15
 -1      4291 9.73434E-03-1.18484E-06-6.89643E-14
 -1      4292 4.38394E-03 1.09614E-04-1.52744E-14
 -1      4293 4.23990E-03 1.09829E-04-1.43577E-14
 -1      4294 4.16734E-03 7.19145E-05-1.39412E-14
 -1      4295 4.44313E-03 4.81952E-05-1.57153E-14
 -1      4296 4.22683E-03 1.02980E-05-1.43546E-14
 -1      4297 4.73697E-03 5.96767E-05-1.76856E-14
 -1      4298 4.37098E-03 1.03172E-05-1.52715E-14
 -1      4299 9.49852E-03-4.29649E-05-6.61754E-14
 -1      4300 9.59400E-03-3.32627E-06-6.71359E-14
 -3
    1PSTEP                         2           1           1          
  100CL  101 1.000000000        4300                     0    1           1
 -4  STRESS      6    1
 -5  SXX         1    4    1    1
 -5  SYY         1    4    2    2
 -5  SZZ         1    4    3    3
 -5  SXY         1    4    1    2
 -5  SYZ         1    4    2    3
 -5  SZX         1    4    3    1
 -1         1 6.06236E+01 4.18117E+00 3.31426E+00 1.43335E+01-3.91867E-13-1.53599E-12
 -1         2-9.68640E-01-2.98563E+01-4.10029E+00-3.22313E-01-2.95811E-12-8.63962E-14
 -1         3 2.00333E+01 3.65782E-02 3.03345E-02 3.43801E-02-4.26804E-13-3.77529E-13
 -1         4 1.99638E+01-3.54497E-02 7.59470E-02 3.66055E-02 1.89107E-13 1.13293E-13
 -1         5 3.27688E+01 6.14288E+00 2.74238E+00 6.22426E+00-4.00235E-14 2.93154E-12
 -1         6 3.57527E+01 1.22635E+01 5.12532E+00-8.64660E+00-1.69531E-13 2.89996E-12
 -1         7 2.08199E+01 6.10002E+00-1.28576E-01-4.72522E+00-2.46470E-14 6.06369E-13
 -1         8 1.96728E+01 5.93524E+00 5.10109E-02-3.27424E+00-3.39867E-14-1.17494E-13
 -1         9 1.91375E+01 5.77204E+00 4.91088E-02-2.52594E+00-2.93845E-14-5.14510E-13
 -1        10 1.88954E+01 5.69216E+00 5.10589E-02-1.95077E+00-2.10908E-14-7.07959E-13
 -1        11 1.87735E+01 5.65117E+00 5.02499E-02-1.45559E+00-1.67700E-14-8.02430E-13
 -1        12 1.87096E+01 5.62943E+00 4.87253E-02-1.01478E+00-8.71221E-15-8.37534E-13
 -1        13 1.86758E+01 5.61795E+00 4.73996E-02-5.95144E-01-4.63529E-15-8.46678E-13
 -1        14 1.86617E+01 5.61309E+00 4.66801E-02-1.91141E-01-1.66102E-15-8.50017E-13
 -1        15 1.86622E+01 5.61325E+00 4.67221E-02 2.08123E-01 4.91339E-15-8.48574E-13
 -1        16 1.86774E+01 5.61844E+00 4.75434E-02 6.12961E-01 9.64972E-15-8.32816E-13
 -1        17 1.87124E+01 5.63020E+00 4.90612E-02 1.03460E+00 1.06067E-14-7.93986E-13
 -1        18 1.87775E+01 5.65232E+00 5.08171E-02 1.47858E+00 1.89497E-14-7.28372E-13
 -1        19 1.89011E+01 5.69380E+00 5.15359E-02 1.97966E+00 2.70972E-14-6.08106E-13
 -1        20 1.91429E+01 5.77463E+00 4.87998E-02 2.56326E+00 3.60077E-14-3.92445E-13
 -1        21 1.96683E+01 5.94983E+00 4.59586E-02 3.30832E+00 4.11685E-14 3.76032E-14
 -1        22 2.12026E+01 6.38175E+00 1.39746E-01 4.52275E+00 7.29972E-15 9.24139E-13
 -1        23 2.30308E+01-1.37928E+00-9.38381E-01-7.11070E-01-1.10984E-13 2.30221E-12
 -1        24 1.93688E+01-9.94932E-02-3.09835E-01 6.32464E-02-4.29882E-14 1.73700E-12
 -1        25 1.86809E+01-5.63219E-02-6.87783E-02 6.07358E-02-3.27819E-15 1.20555E-12
 -1        26 1.84788E+01-2.20874E-02-6.48480E-03 3.29736E-02-6.67641E-15 8.55375E-13
 -1        27 1.84905E+01-1.18009E-02 1.56205E-03 2.26188E-02-1.16492E-14 6.09129E-13
 -1        28 1.86051E+01-6.23358E-03 1.77987E-03 1.63265E-02-4.77694E-15 4.74986E-13
 -1        29 1.87653E+01-3.07433E-03 1.73073E-03 1.21783E-02-1.43012E-14 3.53270E-13
 -1        30 1.89398E+01-1.21526E-03 1.91912E-03 9.22254E-03-1.75837E-15 1.05236E-13
 -1        31 1.91108E+01-1.15876E-04 2.08602E-03 7.00123E-03-6.03422E-15-1.60419E-13
 -1        32 1.92684E+01 5.14377E-04 2.12455E-03 5.28039E-03-2.06897E-14-2.95370E-13
 -1        33 1.94078E+01 8.44584E-04 2.04164E-03 3.92841E-03 4.52622E-14-3.97283E-13
 -1        34 1.95271E+01 9.79736E-04 1.87457E-03 2.86164E-03 1.42907E-14-2.79189E-13
 -1        35 1.96265E+01 9.87878E-04 1.65826E-03 2.02064E-03-2.26148E-14-3.97502E-13
 -1        36 1.97075E+01 9.13714E-04 1.41776E-03 1.35977E-03 1.88844E-14-4.16314E-13
 -1        37 1.97722E+01 7.86027E-04 1.16844E-03 8.42517E-04-2.68957E-14-4.13248E-13
 -1        38 1.98234E+01 6.22087E-04 9.17538E-04 4.39453E-04-5.66754E-15-6.50234E-13
 -1        39 1.98637E+01 4.30487E-04 6.65554E-04 1.27353E-04 1.85611E-14-7.49228E-13
 -1        40 1.98965E+01 2.13066E-04 4.07369E-04-1.11042E-04-8.39412E-15-7.09601E-13
 -1        41 1.99249E+01-3.37657E-05 1.32954E-04-2.86890E-04 2.88461E-14-6.16187E-13
 -1        42 1.99527E+01-3.18088E-04-1.72255E-04-4.04781E-04 6.92539E-15-4.00875E-13
 -1        43 1.99839E+01-6.51799E-04-5.27324E-04-4.61873E-04-2.75421E-14-3.01296E-13
 -1        44 2.00233E+01-1.05008E-03-9.56119E-04-4.46483E-04 2.64724E-15-6.55608E-14
 -1        45 2.00768E+01-1.53077E-03-1.48788E-03-3.35897E-04-4.61618E-15-1.09767E-13
 -1        46 2.01515E+01-2.11343E-03-2.15796E-03-9.30274E-05-7.11334E-15-3.83028E-13
 -1        47 2.02559E+01-2.81737E-03-3.00829E-03 3.38540E-04-1.61425E-14-3.84214E-13
 -1        48 2.04011E+01-3.65771E-03-4.08674E-03 1.04170E-03-2.41838E-14-5.71480E-13
 -1        49 2.06004E+01-4.63760E-03-5.44300E-03 2.13562E-03 4.68316E-14-5.10639E-13
 -1        50 2.08699E+01-5.73305E-03-7.11611E-03 3.78783E-03-1.52715E-14-4.77095E-13
 -1        51 2.12288E+01-6.86530E-03-9.10314E-03 6.22582E-03 3.75480E-14-3.48800E-13
 -1        52 2.16985E+01-7.85268E-03-1.12882E-02 9.73836E-03-7.76977E-15-5.73547E-14
 -1        53 2.23001E+01-8.33362E-03-1.32950E-02 1.46414E-02-3.30331E-14 1.54890E-13
 -1        54 2.30498E+01-7.65922E-03-1.42123E-02 2.11504E-02 5.21017E-14 1.91215E-13
 -1        55 2.39475E+01-4.78445E-03-1.21600E-02 2.90434E-02-7.10356E-14 1.28826E-13
 -1        56 2.49575E+01 1.73013E-03-3.82096E-03 3.69301E-02 1.22999E-14-1.19117E-13
 -1        57 2.59764E+01 1.33212E-02 1.54692E-02 4.09571E-02 6.87368E-14 1.69646E-13
 -1        58 2.67932E+01 3.01905E-02 4.95855E-02 3.32291E-02-3.83524E-14 5.53438E-13
 -1        59 2.70613E+01 4.88462E-02 9.51111E-02 1.78912E-03 4.74113E-14 5.53685E-13
 -1        60 2.63400E+01 5.97111E-02 1.31900E-01-6.34068E-02-1.00509E-13 6.96512E-13
 -1        61 2.42910E+01 4.89305E-02 1.20437E-01-1.53733E-01 6.37576E-14 6.40404E-13
 -1        62 2.10498E+01 9.19349E-03 2.68375E-02-2.22957E-01 4.92462E-14 8.35783E-13
 -1        63 1.75320E+01-4.55002E-02-1.22181E-01-2.01513E-01-1.63322E-13 6.23855E-13
 -1        64 1.51681E+01-8.11015E-02-2.24792E-01-6.84039E-02 1.12809E-14-8.18061E-14
 -1        65 1.49428E+01-7.17003E-02-1.93475E-01 9.86389E-02-1.64764E-14-1.63061E-13
 -1        66 1.65681E+01-2.58629E-02-5.53036E-02 1.85084E-01 2.58255E-14-2.04815E-13
 -1        67 1.87488E+01 2.11659E-02 7.34113E-02 1.56285E-01 1.06881E-13-4.29656E-14
 -1        68 2.02562E+01 4.07410E-02 1.15741E-01 6.80926E-02 6.78333E-14-1.72876E-13
 -1        69 2.06597E+01 2.98180E-02 7.90176E-02-8.73747E-03 8.76139E-14-9.07785E-14
 -1        70 2.03143E+01 9.69640E-03 1.42912E-02-2.77721E-02-2.14438E-14 7.23007E-14
 -1        71 1.99502E+01 2.20752E-02 4.66827E-03 5.85545E-03-8.03534E-14-1.29184E-13
 -1        72 2.10434E+01-4.04900E-01-9.80433E-01-3.11651E-01 4.33022E-14 2.64788E-12
 -1        73 1.93333E+01-6.58828E-02-2.91123E-01-5.38411E-02 2.26104E-14 1.95692E-12
 -1        74 1.86903E+01-2.05061E-02-6.42679E-02-2.03504E-02 1.92110E-14 1.45773E-12
 -1        75 1.84879E+01-9.87944E-03-9.31273E-03-1.54499E-02-1.85019E-15 1.14986E-12
 -1        76 1.84996E+01-5.16503E-03 6.76239E-04-1.23839E-02 1.85797E-14 9.18024E-13
 -1        77 1.86133E+01-2.61219E-03 1.74221E-03-1.01180E-02 2.03522E-14 6.65303E-13
 -1        78 1.87725E+01-1.14028E-03 1.88257E-03-8.38138E-03-1.84615E-14 6.35140E-13
 -1        79 1.89460E+01-2.73741E-04 2.07895E-03-6.95108E-03 9.46339E-16 5.07074E-13
 -1        80 1.91160E+01 2.27988E-04 2.22259E-03-5.72286E-03-1.45832E-15 3.56782E-13
 -1        81 1.92728E+01 5.00433E-04 2.23803E-03-4.65285E-03 6.53483E-15 2.69909E-13
 -1        82 1.94114E+01 6.25128E-04 2.13445E-03-3.72213E-03 1.18169E-14 1.64467E-13
 -1        83 1.95301E+01 6.53939E-04 1.94866E-03-2.91836E-03-3.98366E-15 1.14587E-13
 -1        84 1.96290E+01 6.20656E-04 1.71521E-03-2.22972E-03 2.35661E-14-2.87473E-14
 -1        85 1.97095E+01 5.47203E-04 1.45883E-03-1.64318E-03-3.26161E-15-1.84155E-13
 -1        86 1.97740E+01 4.47182E-04 1.19445E-03-1.14463E-03 6.43432E-15-3.34502E-13
 -1        87 1.98249E+01 3.28111E-04 9.28814E-04-7.19503E-04-1.81883E-14-3.19063E-13
 -1        88 1.98653E+01 1.92960E-04 6.61983E-04-3.53748E-04-3.97508E-14-1.54972E-13
 -1        89 1.98983E+01 4.13176E-05 3.88617E-04-3.48360E-05 4.75800E-14-2.02477E-13
 -1        90 1.99271E+01-1.29631E-04 9.90611E-05 2.47102E-04-8.33083E-15-3.45094E-13
 -1        91 1.99555E+01-3.24145E-04-2.19672E-04 4.97993E-04 1.30327E-14-5.57639E-13
 -1        92 1.99874E+01-5.46842E-04-5.82835E-04 7.18254E-04-4.41182E-14-4.30724E-13
 -1        93 2.00276E+01-8.01284E-04-1.00654E-03 9.00772E-04 2.78182E-14-2.92441E-13
 -1        94 2.00813E+01-1.08798E-03-1.50558E-03 1.02827E-03-2.88644E-15-5.81407E-13
 -1        95 2.01546E+01-1.40146E-03-2.08991E-03 1.06991E-03 2.80788E-14-6.22650E-13
 -1        96 2.02548E+01-1.72606E-03-2.75879E-03 9.77156E-04 2.35295E-14-4.17964E-13
 -1        97 2.03896E+01-2.02987E-03-3.49127E-03 6.79072E-04-3.30016E-14-3.33435E-13
 -1        98 2.05673E+01-2.25655E-03-4.23102E-03 7.81460E-05-4.92329E-15-2.20118E-13
 -1        99 2.07958E+01-2.31516E-03-4.86299E-03-9.51031E-04-4.65249E-14-5.13586E-13
 -1       100 2.10811E+01-2.06952E-03-5.17978E-03-2.55491E-03-7.08930E-15-6.47228E-13
 -1       101 2.14248E+01-1.33174E-03-4.83824E-03-4.87568E-03-2.69281E-14-7.57050E-13
 -1       102 2.18201E+01 1.29219E-04-3.31636E-03-7.98968E-03 1.37169E-15-9.13508E-13
 -1       103 2.22465E+01 2.54401E-03 9.72626E-05-1.17835E-02-2.66451E-14-9.09331E-13
 -1       104 2.26626E+01 6.03399E-03 6.20647E-03-1.57418E-02-6.86669E-15-6.36186E-13
 -1       105 2.29986E+01 1.04078E-02 1.55734E-02-1.86526E-02-1.94537E-14-5.70763E-13
 -1       106 2.31525E+01 1.48759E-02 2.78018E-02-1.83419E-02-3.89272E-15-7.09756E-13
 -1       107 2.29963E+01 1.78236E-02 4.04556E-02-1.17728E-02 5.61166E-14-1.07779E-12
 -1       108 2.24021E+01 1.69960E-02 4.81939E-02 3.89118E-03-1.55041E-15-1.33963E-12
 -1       109 2.12965E+01 1.05104E-02 4.35172E-02 2.88015E-02 2.44748E-14-9.65564E-13
 -1       110 1.97334E+01-1.37935E-03 2.07095E-02 5.73176E-02-2.84366E-14-9.25853E-13
 -1       111 1.79503E+01-1.50408E-02-1.78404E-02 7.73547E-02-4.21629E-14-8.82707E-13
 -1       112 1.63432E+01-2.46070E-02-5.79778E-02 7.56746E-02-8.21025E-14-3.12219E-13
 -1       113 1.53270E+01-2.57401E-02-7.98255E-02 4.81072E-02 1.01740E-13-4.47434E-13
 -1       114 1.51348E+01-1.87348E-02-7.17502E-02 5.65178E-03 1.03112E-14-7.90632E-13
 -1       115 1.56968E+01-8.11833E-03-4.03131E-02-3.18839E-02 4.08666E-14-1.03179E-12
 -1       116 1.67005E+01 7.69707E-04-5.12833E-03-4.99768E-02 5.48322E-14-1.46313E-12
 -1       117 1.77839E+01 5.37948E-03 1.65522E-02-4.84119E-02-5.04891E-15-1.94300E-12
 -1       118 1.87146E+01 7.42715E-03 2.24711E-02-3.90669E-02 4.89560E-14-1.84923E-12
 -1       119 1.94285E+01 1.11802E-02 2.63112E-02-3.43668E-02-5.88966E-15-1.45471E-12
 -1       120 1.98957E+01 1.00009E-03 3.05627E-02-3.01560E-02 1.46896E-13-9.78767E-13
 -1       121 2.00012E+01-1.27978E-01 2.04536E-02-3.83261E-02-5.96241E-13 1.52355E-13
 -1       122 1.99892E+01-5.73800E-01-7.35612E-03-5.20139E-02 4.96549E-13-1.04417E-13
 -1       123 1.99663E+01-9.07696E-01-5.54677E-02-4.10402E-02 6.75611E-13 1.16778E-13
 -1       124 1.99467E+01-6.45096E-01-1.00635E-01-3.38683E-03 9.19233E-13 3.34362E-13
 -1       125 1.99411E+01 6.35851E-01-1.25810E-01 6.32173E-02 1.32579E-12-3.78820E-14
 -1       126 1.99558E+01 3.10522E+00-1.08100E-01 1.40215E-01 1.16779E-12 1.90088E-13
 -1       127 1.99998E+01 6.62476E+00-2.44053E-02 2.02223E-01 1.19715E-12 1.52779E-13
 -1       128 2.00595E+01 1.03228E+01 1.08022E-01 1.95479E-01 1.08089E-12-6.00986E-14
 -1       129 2.01062E+01 1.29012E+01 2.19356E-01 9.49283E-02 1.51742E-12 2.38302E-13
 -1       130 2.01119E+01 1.32812E+01 2.31782E-01-5.71795E-02 1.01938E-12-4.38087E-13
 -1       131 2.00723E+01 1.13430E+01 1.36118E-01-1.75106E-01 1.73042E-13-1.13496E-13
 -1       132 2.00145E+01 8.06285E+00 4.77810E-03-1.99296E-01-9.15643E-13 2.56084E-13
 -1       133 1.99683E+01 4.62146E+00-8.95328E-02-1.48767E-01-3.81806E-13 7.01743E-14
 -1       134 1.99440E+01 2.00006E+00-1.18895E-01-7.61096E-02 4.88356E-13 8.72622E-14
 -1       135 1.99603E+01 5.36571E-01-8.44845E-02-3.62023E-02 2.12779E-13-3.32900E-13
 -1       136 1.99612E+01 2.91898E-02-2.85731E-02 4.79734E-02-2.19222E-13-3.94801E-15
 -1       137-1.72520E+00-2.31671E+01-3.59820E+00-4.36812E+00-2.79149E-12-4.47586E-13
 -1       138-1.57983E+00-9.26826E+00-2.44359E+00-3.11065E+00-1.18039E-12-4.70790E-13
 -1       139 5.14991E+00 5.11599E+00-7.86513E-01 5.46809E+00 2.64788E-13 4.42590E-13
 -1       140 2.10410E+01 1.21114E+01 9.66545E-01 1.55947E+01 1.52350E-12 2.20846E-12
 -1       141 4.16276E+01 1.07368E+01 2.39755E+00 2.03322E+01 1.43865E-12 2.63312E-12
 -1       142 6.11478E+01 5.00104E+00 3.42877E+00 1.56594E+01 5.72743E-13 2.14495E-12
 -1       143 7.07331E+01 1.08534E+00 3.80444E+00 2.70898E+00 1.80800E-13 2.80310E-13
 -1       144 6.54608E+01 2.62997E+00 3.47206E+00-1.07849E+01 8.01772E-14-1.09091E-12
 -1       145 4.83917E+01 7.81014E+00 2.55456E+00-1.84476E+01 5.46951E-13-1.39611E-12
 -1       146 2.74909E+01 1.14076E+01 1.25097E+00-1.73565E+01 1.06165E-12-1.67055E-12
 -1       147 1.02046E+01 8.92676E+00-1.79516E-01-9.58155E+00 1.73622E-12-1.60266E-12
 -1       148 8.02030E-01-2.09613E-01-1.49948E+00-8.74306E-01 1.59195E-12-1.18838E-12
 -1       149-1.93955E+00-1.30945E+01-2.57662E+00 4.28332E+00 2.38420E-13-6.60583E-14
 -1       150-1.21047E+00-2.38613E+01-3.26101E+00 3.21381E+00-2.92488E-13 9.22751E-14
 -1       151-9.32060E-01-2.70760E+01-3.47904E+00-1.31463E+00 7.17829E-14 7.42600E-14
 -1       152-2.05271E+00-2.04820E+01-3.15122E+00-5.13044E+00-6.16118E-13-2.67411E-13
 -1       153-1.70284E+00-7.78217E+00-2.28956E+00-2.98028E+00-1.10661E-12-5.81313E-13
 -1       154 5.19062E+00 4.82828E+00-9.23605E-01 5.21683E+00-8.97671E-13-7.76545E-13
 -1       155 1.98895E+01 1.02977E+01 5.53475E-01 1.41914E+01-1.00231E-12-1.26632E-12
 -1       156 4.06199E+01 8.98304E+00 2.07562E+00 1.84630E+01-7.70745E-13-1.69831E-12
 -1       157 7.15286E+01 1.06110E+00 4.00382E+00 2.59564E+00-1.64365E-13-7.54771E-13
 -1       158 6.87193E+01 2.78998E+00 3.96588E+00-1.11426E+01 1.18680E-13-1.70419E-14
 -1       159 5.24707E+01 8.49976E+00 3.12281E+00-2.01168E+01 8.04357E-14-4.43479E-13
 -1       160 3.15404E+01 1.26380E+01 1.79998E+00-1.94900E+01-9.83102E-14 1.24456E-13
 -1       161 1.28673E+01 1.07634E+01 1.82275E-01-1.17305E+01-7.42406E-13 6.58362E-13
 -1       162 1.83948E+00 1.55550E+00-1.40469E+00-2.13709E+00-2.56350E-13 3.43781E-13
 -1       163-2.01854E+00-1.23173E+01-2.80494E+00 4.26072E+00-1.10356E-13 2.25681E-13
 -1       164-1.56044E+00-2.48554E+01-3.76513E+00 4.57448E+00-9.86877E-13-6.54060E-14
 -1       165 2.10146E+01 3.69402E+00-5.73655E-02-3.61003E+00-4.11230E-13 2.19182E-13
 -1       166 1.99918E+01 4.20741E+00-4.57953E-02-2.80872E+00-3.88557E-13-2.26024E-13
 -1       167 1.95071E+01 4.47804E+00-3.17252E-02-2.19461E+00-3.19186E-13-4.89015E-13
 -1       168 1.92680E+01 4.61458E+00-2.38262E-02-1.67430E+00-2.47364E-13-6.21332E-13
 -1       169 1.91365E+01 4.69721E+00-1.95878E-02-1.21869E+00-1.71670E-13-6.68601E-13
 -1       170 1.90626E+01 4.74794E+00-1.74496E-02-7.91912E-01-1.05046E-13-6.90124E-13
 -1       171 1.90253E+01 4.77576E+00-1.64259E-02-3.86792E-01-2.36550E-14-7.12667E-13
 -1       172 1.90143E+01 4.78429E+00-1.61317E-02 8.26249E-03 3.15155E-14-7.11517E-13
 -1       173 1.90270E+01 4.77449E+00-1.64645E-02 4.03648E-01 8.96958E-14-7.06839E-13
 -1       174 1.90663E+01 4.74496E+00-1.75186E-02 8.09797E-01 1.46106E-13-6.82177E-13
 -1       175 1.91411E+01 4.69254E+00-1.96868E-02 1.23119E+00 2.09690E-13-6.21531E-13
 -1       176 1.92770E+01 4.60540E+00-2.40068E-02 1.69783E+00 2.93703E-13-5.40082E-13
 -1       177 1.95242E+01 4.45961E+00-3.28507E-02 2.22617E+00 3.79038E-13-3.92521E-13
 -1       178 2.00141E+01 4.18388E+00-4.72104E-02 2.84642E+00 4.32016E-13-1.14520E-13
 -1       179 2.11361E+01 3.46367E+00-5.97752E-02 3.53640E+00 4.15593E-13 4.09534E-13
 -1       180 2.24206E+01 1.14332E+00-3.36467E-01 3.01459E+00 3.12188E-13 1.12291E-12
 -1       181 2.19729E+01 8.58288E-01 6.10414E-04-1.95860E+00-3.67567E-13 7.34215E-13
 -1       182 2.04489E+01 1.90053E-01-9.98814E-03-7.63853E-01-3.13895E-13 5.50632E-13
 -1       183 1.96735E+01 1.01640E-01 1.35605E-02-2.85490E-01-2.24178E-13 3.86436E-13
 -1       184 1.93340E+01 4.72233E-02 9.98966E-03-6.77234E-02-1.75237E-13 2.42529E-13
 -1       185 1.92045E+01 2.25710E-02 5.15570E-03 3.96344E-02-1.13694E-13 1.26388E-13
 -1       186 1.91913E+01 9.50813E-03 2.42915E-03 9.22508E-02-8.39531E-14 7.20320E-14
 -1       187 1.92402E+01 2.10539E-03 1.12525E-03 1.14596E-01-1.20814E-13 2.89895E-14
 -1       188 1.93194E+01-2.13578E-03 4.90376E-04 1.19463E-01-1.24874E-13-1.43874E-14
 -1       189 1.94104E+01-4.45103E-03 1.54527E-04 1.14260E-01-9.61237E-14-3.09050E-14
 -1       190 1.95019E+01-5.54026E-03-3.26819E-05 1.03579E-01-4.51295E-14-1.41466E-14
 -1       191 1.95875E+01-5.84024E-03-1.34431E-04 9.03656E-02-2.39229E-15-1.53058E-13
 -1       192 1.96639E+01-5.63789E-03-1.82089E-04 7.65193E-02-5.23574E-14-2.16705E-13
 -1       193 1.97300E+01-5.12417E-03-1.94082E-04 6.32557E-02-4.28274E-14-2.10711E-13
 -1       194 1.97857E+01-4.42316E-03-1.82132E-04 5.13375E-02-6.14749E-14-3.05658E-13
 -1       195 1.98320E+01-3.60974E-03-1.53698E-04 4.12395E-02-1.20531E-13-3.40893E-13
 -1       196 1.98706E+01-2.72113E-03-1.13216E-04 3.32697E-02-4.21431E-14-3.45741E-13
 -1       197 1.99033E+01-1.76494E-03-6.28642E-05 2.76625E-02 1.93596E-14-4.25032E-13
 -1       198 1.99326E+01-7.24722E-04-3.08134E-06 2.46522E-02 2.74859E-14-4.41413E-13
 -1       199 1.99610E+01 4.36380E-04 6.70733E-05 2.45335E-02 8.13135E-14-4.10228E-13
 -1       200 1.99918E+01 1.77327E-03 1.49643E-04 2.77123E-02 7.36149E-14-3.10558E-13
 -1       201 2.00284E+01 3.35771E-03 2.47532E-04 3.47516E-02 1.16126E-13-2.43633E-13
 -1       202 2.00752E+01 5.27776E-03 3.64223E-04 4.64125E-02-2.78459E-14-1.75670E-13
 -1       203 2.01372E+01 7.63706E-03 5.03351E-04 6.36931E-02-9.60206E-14-7.36676E-14
 -1       204 2.02205E+01 1.05526E-02 6.67935E-04 8.78595E-02-2.41297E-14-1.94035E-13
 -1       205 2.03326E+01 1.41478E-02 8.58950E-04 1.20463E-01-1.28128E-13-1.61606E-13
 -1       206 2.04822E+01 1.85351E-02 1.07267E-03 1.63321E-01-1.24213E-14-2.76196E-13
 -1       207 2.06794E+01 2.37756E-02 1.29593E-03 2.18418E-01 2.20776E-14-4.68434E-13
 -1       208 2.09359E+01 2.97943E-02 1.49822E-03 2.87645E-01 7.53978E-14-3.95252E-13
 -1       209 2.12638E+01 3.62104E-02 1.61980E-03 3.72218E-01 1.65913E-13-2.96647E-13
 -1       210 2.16749E+01 4.20186E-02 1.55713E-03 4.71497E-01 9.56571E-14-8.14167E-14
 -1       211 2.21773E+01 4.50356E-02 1.15305E-03 5.80773E-01 1.57314E-14 4.60138E-14
 -1       212 2.27707E+01 4.10456E-02 2.12072E-04 6.87433E-01-9.58872E-14 2.68890E-14
 -1       213 2.34386E+01 2.27748E-02-1.41836E-03 7.65047E-01-3.41635E-14 1.18208E-13
 -1       214 2.41357E+01-2.05308E-02-3.65855E-03 7.66014E-01 1.68942E-13 3.10691E-13
 -1       215 2.47746E+01-1.00621E-01-5.92236E-03 6.16887E-01 1.14129E-13 1.16801E-13
 -1       216 2.52129E+01-2.20126E-01-6.95295E-03 2.28172E-01 2.59107E-14 1.73190E-13
 -1       217 2.52584E+01-3.50833E-01-5.76130E-03-4.59552E-01 5.76136E-14 1.97647E-13
 -1       218 2.47142E+01-4.08538E-01-2.82419E-03-1.37555E+00 2.16641E-14 5.27861E-13
 -1       219 2.34961E+01-2.69467E-01-1.25284E-03-2.20470E+00 4.18242E-15 4.67872E-13
 -1       220 2.18088E+01 1.11258E-01-5.07481E-03-2.41946E+00-2.47112E-13 1.98454E-13
 -1       221 2.02337E+01 5.35344E-01-1.28029E-02-1.65845E+00-3.03603E-13-1.98348E-14
 -1       222 1.94403E+01 6.63364E-01-1.46105E-02-2.15781E-01-1.08715E-13-1.93705E-13
 -1       223 1.96416E+01 3.75707E-01-6.88461E-03 1.03146E+00-4.73432E-14-1.90436E-13
 -1       224 2.03912E+01-5.96366E-02 1.58447E-03 1.39258E+00 2.37820E-13-4.40672E-14
 -1       225 2.10281E+01-3.15419E-01 2.33970E-03 9.30065E-01 5.65993E-14 1.63064E-16
 -1       226 2.11940E+01-3.05659E-01 5.27232E-04 1.87547E-01 2.74615E-14-6.17445E-14
 -1       227 2.09083E+01-1.16642E-01-1.25221E-03-3.20432E-01 4.40622E-14-2.40105E-13
 -1       228 2.04173E+01 1.07709E-01-4.00336E-04-3.58651E-01 7.65152E-14-5.00255E-14
 -1       229 2.09648E+01 2.77014E-01-5.13300E-02 1.16463E+00 3.31322E-13 9.51107E-13
 -1       230 1.98703E+01 1.26841E-01 8.31080E-03 4.42941E-01 2.43118E-13 7.03383E-13
 -1       231 1.93643E+01 5.80658E-02 1.27325E-02 1.49895E-01 1.50974E-13 5.04485E-13
 -1       232 1.91548E+01 2.77288E-02 7.62550E-03 1.06091E-02 1.46807E-13 3.75914E-13
 -1       233 1.91053E+01 1.30783E-02 3.82012E-03-5.85430E-02 1.19745E-13 2.94824E-13
 -1       234 1.91414E+01 5.12353E-03 1.90419E-03-9.09736E-02 1.87468E-14 2.21852E-13
 -1       235 1.92206E+01 5.79265E-04 1.00175E-03-1.02720E-01 8.96781E-14 1.32595E-13
 -1       236 1.93184E+01-2.01144E-03 5.40836E-04-1.02504E-01 7.44609E-14 5.50178E-14
 -1       237 1.94201E+01-3.39214E-03 2.77758E-04-9.55217E-02 1.27612E-14-2.91346E-14
 -1       238 1.95170E+01-3.99709E-03 1.17758E-04-8.50465E-02 3.82298E-14 1.32627E-14
 -1       239 1.96047E+01-4.10272E-03 2.06855E-05-7.31848E-02 6.31523E-14-1.62133E-14
 -1       240 1.96812E+01-3.89178E-03-3.44337E-05-6.12914E-02 8.73943E-14-5.80764E-14
 -1       241 1.97460E+01-3.48533E-03-6.06350E-05-5.02250E-02 9.94177E-14-1.02466E-13
 -1       242 1.97999E+01-2.96084E-03-6.66097E-05-4.05199E-02 6.23703E-14-2.28535E-13
 -1       243 1.98444E+01-2.36348E-03-5.82059E-05-3.25088E-02-4.18740E-14-1.67538E-13
 -1       244 1.98813E+01-1.71378E-03-3.92920E-05-2.64141E-02-6.33553E-14-2.12298E-13
 -1       245 1.99130E+01-1.01332E-03-1.23525E-05-2.24178E-02 7.67166E-14-2.03215E-13
 -1       246 1.99420E+01-2.49166E-04 2.10557E-05-2.07137E-02 9.87606E-14-1.72129E-13
 -1       247 1.99712E+01 6.02260E-04 5.99063E-05-2.15468E-02 4.79031E-14-1.62748E-13
 -1       248 2.00040E+01 1.57134E-03 1.03304E-04-2.52389E-02-6.44038E-14-2.12393E-13
 -1       249 2.00440E+01 2.69066E-03 1.50035E-04-3.22017E-02-2.15218E-14-2.41552E-13
 -1       250 2.00956E+01 3.98865E-03 1.98022E-04-4.29300E-02 1.04175E-13-2.64474E-13
 -1       251 2.01635E+01 5.48008E-03 2.43652E-04-5.79710E-02 5.97702E-14-4.58229E-13
 -1       252 2.02531E+01 7.15144E-03 2.80943E-04-7.78543E-02-1.07993E-13-4.69148E-13
 -1       253 2.03703E+01 8.93855E-03 3.00630E-04-1.02965E-01-8.13131E-14-3.52668E-13
 -1       254 2.05208E+01 1.06929E-02 2.89383E-04-1.33331E-01-2.88383E-14-1.75521E-13
 -1       255 2.07098E+01 1.21327E-02 2.29734E-04-1.68287E-01 1.43534E-13-2.93276E-14
 -1       256 2.09405E+01 1.27774E-02 1.01919E-04-2.05973E-01 5.63105E-14-2.21146E-13
 -1       257 2.12126E+01 1.18675E-02-1.10348E-04-2.42631E-01 2.44627E-14-3.84583E-13
 -1       258 2.15196E+01 8.29336E-03-4.07528E-04-2.71692E-01 2.27853E-14-5.91868E-13
 -1       259 2.18450E+01 5.89902E-04-7.53698E-04-2.82808E-01-5.28051E-14-3.62327E-13
 -1       260 2.21589E+01-1.28740E-02-1.05180E-03-2.61204E-01-6.55235E-14-4.78068E-13
 -1       261 2.24136E+01-3.32887E-02-1.13229E-03-1.88264E-01 1.02500E-13-3.87381E-13
 -1       262 2.25431E+01-6.01048E-02-7.92387E-04-4.49131E-02-5.64334E-14-4.94169E-13
 -1       263 2.24680E+01-8.89547E-02 7.43055E-05 1.80174E-01 2.17568E-13-4.89361E-13
 -1       264 2.21116E+01-1.09570E-01 1.25297E-03 4.76528E-01-7.88102E-14-4.18027E-13
 -1       265 2.14306E+01-1.06168E-01 2.06815E-03 7.95550E-01-2.37412E-13-1.25183E-13
 -1       266 2.04556E+01-6.40546E-02 1.56781E-03 1.04424E+00 3.11233E-14 4.03219E-14
 -1       267 1.93238E+01 1.69544E-02-6.54309E-04 1.10808E+00-1.36506E-13-4.26117E-14
 -1       268 1.82690E+01 1.11204E-01-3.49457E-03 9.10804E-01-9.75431E-14 7.89507E-14
 -1       269 1.75460E+01 1.73849E-01-4.74745E-03 4.81905E-01 2.92336E-13-1.39412E-13
 -1       270 1.73123E+01 1.71331E-01-3.00935E-03-3.15307E-02 4.64516E-15-5.10334E-14
 -1       271 1.75469E+01 1.09376E-01 6.08988E-04-4.42718E-01 2.49366E-13-2.15781E-13
 -1       272 1.80748E+01 2.84399E-02 3.33595E-03-6.37515E-01 2.65930E-13-3.57638E-13
 -1       273 1.86775E+01-2.83396E-02 3.51589E-03-6.27491E-01 1.41267E-13-4.18026E-13
 -1       274 1.91999E+01-4.51410E-02 2.09804E-03-5.10512E-01-1.64528E-14-3.18115E-13
 -1       275 1.95831E+01-4.27488E-02 1.90628E-03-3.78730E-01-1.66441E-13-3.89919E-13
 -1       276 1.98485E+01-6.72007E-02 6.29674E-03-2.35455E-01-1.42815E-13-4.56620E-15
 -1       277 1.99640E+01-2.24764E-01 4.35017E-03-3.02759E-01-1.42062E-13 7.18305E-13
 -1       278 2.01097E+01-3.56193E-01 6.38888E-03-1.88281E-01 1.15364E-13 3.04360E-13
 -1       279 2.02493E+01-2.49643E-01 6.16178E-03 2.51907E-01 3.99657E-13 3.31599E-13
 -1       280 2.03591E+01 3.15569E-01 5.42270E-03 9.85498E-01 4.12362E-13 2.73255E-13
 -1       281 2.03764E+01 1.47529E+00 2.06735E-03 1.85373E+00 4.50209E-13-1.10197E-13
 -1       282 2.02228E+01 3.27019E+00-2.40852E-03 2.57208E+00 4.00097E-13 2.47437E-14
 -1       283 1.98727E+01 5.40413E+00-4.55842E-03 2.68761E+00 5.63986E-13 1.13904E-13
 -1       284 1.94557E+01 7.27554E+00-3.30279E-03 1.87297E+00 7.42120E-13 1.77480E-14
 -1       285 1.92376E+01 8.16980E+00-1.87677E-03 2.80793E-01 4.19095E-13-4.50319E-13
 -1       286 1.93849E+01 7.71079E+00-3.24389E-03-1.39985E+00 2.47381E-13-5.26607E-13
 -1       287 1.97725E+01 6.18242E+00-4.71044E-03-2.40829E+00-2.25590E-13-6.76743E-13
 -1       288 2.01481E+01 4.19182E+00-3.95018E-03-2.50589E+00-1.91272E-13 3.42054E-13
 -1       289 2.03321E+01 2.40431E+00 1.02745E-04-1.93084E+00 3.12953E-14 7.78305E-13
 -1       290 2.03223E+01 1.14727E+00-1.76587E-04-1.12234E+00 7.02773E-14-8.74543E-14
 -1       291 2.04183E+01 4.78731E-01 4.71895E-03-7.32348E-01-3.69407E-14-4.13545E-13
 -1       292-3.06576E-01-1.05112E+01-7.69468E-01 2.23732E+00-9.26745E-13-1.37085E-13
 -1       293 3.86075E+00-9.82245E+00-8.10706E-01 4.67211E+00-1.20165E-12 5.12285E-13
 -1       294 1.32462E+01-6.11619E+00-3.21602E-01 7.52888E+00-6.83148E-13 1.04364E-12
 -1       295 2.34611E+01-1.76898E+00 2.18900E-02 7.96845E+00-2.49967E-13 1.22166E-12
 -1       296 3.35821E+01 2.06980E+00 3.25482E-01 6.79366E+00 1.94456E-13 5.64493E-13
 -1       297 4.22879E+01 5.89880E+00 7.57131E-01 6.38041E+00 6.60590E-13 6.16840E-13
 -1       298 4.65500E+01 7.64056E+00 8.27534E-01 2.78069E+00 8.87790E-13 1.31603E-13
 -1       299 4.95153E+01 7.05653E+00 1.05499E+00-8.05727E-01 6.63275E-13 5.28882E-14
 -1       300 4.39395E+01 6.07066E+00 7.52838E-01-3.76395E+00 3.55119E-13-4.69208E-13
 -1       301 3.62518E+01 3.78766E+00 5.07778E-01-6.69610E+00 6.94118E-13-6.53699E-13
 -1       302 2.60997E+01 6.34844E-01 1.39168E-01-7.51986E+00 8.38302E-13-8.91370E-13
 -1       303 1.55828E+01-2.82068E+00-2.57949E-01-6.81066E+00 6.14175E-13-8.83987E-13
 -1       304 7.51206E+00-7.06052E+00-5.75235E-01-5.22437E+00 2.51993E-13-1.04845E-12
 -1       305 1.35722E+00-1.07391E+01-8.75471E-01-2.90402E+00 2.65066E-14-2.74031E-13
 -1       306-1.08785E+00-1.04700E+01-6.46141E-01-1.24332E+00-1.67998E-13 1.58651E-13
 -1       307-6.43273E-01-1.18707E+01-8.93410E-01 1.26868E+00-3.22076E-13-4.93827E-13
 -1       308 4.36458E+00-9.17973E+00-6.24012E-01 4.04460E+00-3.23602E-13-2.66231E-13
 -1       309 1.18036E+01-5.77623E+00-4.63716E-01 5.44746E+00-4.50084E-13-2.85105E-13
 -1       310 2.22175E+01-1.79482E+00-7.18803E-02 6.52324E+00-4.99212E-13-7.56561E-13
 -1       311 3.26976E+01 2.12516E+00 3.86255E-01 6.70123E+00-3.95961E-13-9.03444E-13
 -1       312 4.20759E+01 4.69311E+00 7.48806E-01 4.39769E+00-5.91829E-13-7.67497E-13
 -1       313 4.88536E+01 6.50239E+00 1.10105E+00 1.73974E+00-3.37369E-13-7.99832E-13
 -1       314 4.86533E+01 7.66677E+00 1.02142E+00-1.99069E+00-3.27405E-13-6.94490E-13
 -1       315 4.68930E+01 6.71690E+00 1.08310E+00-5.79184E+00 2.13093E-13-1.39083E-13
 -1       316 3.87472E+01 4.53053E+00 6.89040E-01-7.48430E+00 2.02831E-13-3.12028E-13
 -1       317 2.87903E+01 1.63562E+00 3.04483E-01-8.70300E+00 9.99201E-15-6.19227E-13
 -1       318 1.83079E+01-2.53632E+00-1.98668E-01-7.82188E+00 1.59817E-13-1.33837E-13
 -1       319 9.27752E+00-7.06383E+00-6.54770E-01-6.02878E+00-8.82627E-15 7.59809E-14
 -1       320 2.53817E+00-1.09658E+01-1.02863E+00-3.71616E+00-6.24056E-13-3.73479E-13
 -1       321-1.03409E+00-1.32728E+01-1.21221E+00-1.16304E+00-1.20785E-12-8.93896E-13
 -1       322 2.01465E+01 3.01500E+00-1.77882E-02-2.10978E+00-4.09944E-13-2.28963E-13
 -1       323 2.07559E+01 2.20992E+00-1.78461E-02-2.36303E+00-4.48102E-13 4.24608E-14
 -1       324 1.95822E+01 3.69225E+00-1.56164E-02-1.31818E+00-2.51590E-13-4.80040E-13
 -1       325 1.94597E+01 3.84845E+00-1.36968E-02-9.23593E-01-1.70659E-13-5.21083E-13
 -1       326 1.93905E+01 3.93953E+00-1.27053E-02-5.43714E-01-7.73193E-14-5.29956E-13
 -1       327 1.93598E+01 3.98091E+00-1.22898E-02-1.73191E-01 1.00305E-14-5.47951E-13
 -1       328 1.93611E+01 3.97930E+00-1.23090E-02 1.94337E-01 7.35482E-14-5.46924E-13
 -1       329 1.93946E+01 3.93440E+00-1.27560E-02 5.65206E-01 1.44171E-13-5.32975E-13
 -1       330 1.94656E+01 3.84112E+00-1.37660E-02 9.39041E-01 2.28728E-13-5.09746E-13
 -1       331 1.95929E+01 3.67882E+00-1.56541E-02 1.33296E+00 3.05520E-13-4.12580E-13
 -1       332 1.98088E+01 3.41008E+00-1.88322E-02 1.73822E+00 3.97313E-13-3.18608E-13
 -1       333 2.01798E+01 2.95527E+00-2.29376E-02 2.12677E+00 4.66143E-13-1.51992E-13
 -1       334 2.07499E+01 2.12943E+00-3.04670E-02 2.32176E+00 4.73762E-13 1.57699E-13
 -1       335 2.10967E+01 1.18770E+00-2.49198E-02 1.92158E+00 4.32855E-13 4.75293E-13
 -1       336 2.03931E+01 4.89278E-01 8.33533E-03 9.26986E-01 3.50645E-13 3.28545E-13
 -1       337 2.04598E+01 6.75140E-01 1.25645E-02-1.02530E+00-3.47060E-13 9.17793E-14
 -1       338 2.00378E+01 3.37346E-01 7.16426E-03-4.57564E-01-2.77644E-13 4.27713E-14
 -1       339 1.97839E+01 1.76806E-01 4.17565E-03-1.48349E-01-2.01964E-13 1.24079E-14
 -1       340 1.96486E+01 9.05813E-02 1.93098E-03 2.27856E-02-1.20696E-13-2.52081E-14
 -1       341 1.95933E+01 4.13535E-02 8.08413E-04 1.13887E-01-1.17479E-13-6.32393E-14
 -1       342 1.95880E+01 1.23113E-02 2.79311E-04 1.56976E-01-1.35968E-13-6.89848E-14
 -1       343 1.96119E+01-4.74302E-03 1.51180E-05 1.70930E-01-8.94114E-14-5.16961E-14
 -1       344 1.96512E+01-1.42674E-02-1.23556E-04 1.67493E-01-8.13894E-14-6.85484E-14
 -1       345 1.96967E+01-1.89256E-02-1.93271E-04 1.54240E-01-1.10989E-13-1.40584E-13
 -1       346 1.97430E+01-2.04173E-02-2.20592E-04 1.36150E-01-4.05792E-14-1.14364E-13
 -1       347 1.97867E+01-1.98654E-02-2.20752E-04 1.16500E-01-7.49440E-14-1.74019E-13
 -1       348 1.98263E+01-1.80137E-02-2.03460E-04 9.74373E-02-6.86742E-14-2.37530E-13
 -1       349 1.98612E+01-1.53397E-02-1.74940E-04 8.03617E-02-8.96748E-14-1.85492E-13
 -1       350 1.98917E+01-1.21241E-02-1.38917E-04 6.61993E-02-8.73765E-14-1.91613E-13
 -1       351 1.99187E+01-8.49752E-03-9.72359E-05 5.56083E-02-8.23420E-14-2.09607E-13
 -1       352 1.99435E+01-4.47233E-03-5.02825E-05 4.91358E-02 1.23698E-14-1.92500E-13
 -1       353 1.99676E+01 3.47916E-05 2.72913E-06 4.73418E-02 6.46957E-14-2.26903E-13
 -1       354 1.99932E+01 5.18773E-03 6.35577E-05 5.08997E-02 1.31462E-13-2.39872E-13
 -1       355 2.00223E+01 1.12205E-02 1.34795E-04 6.06789E-02 5.32164E-14-2.81108E-13
 -1       356 2.00580E+01 1.84298E-02 2.19750E-04 7.78150E-02 1.44829E-13-3.22580E-13
 -1       357 2.01032E+01 2.71679E-02 3.22305E-04 1.03768E-01-3.24989E-14-2.34865E-13
 -1       358 2.01619E+01 3.78309E-02 4.46649E-04 1.40366E-01-1.25336E-13-1.85468E-13
 -1       359 2.02384E+01 5.08333E-02 5.96732E-04 1.89820E-01-4.96451E-14-2.31946E-13
 -1       360 2.03377E+01 6.65518E-02 7.75114E-04 2.54695E-01-7.11889E-14-2.20662E-13
 -1       361 2.04654E+01 8.52071E-02 9.80645E-04 3.37776E-01-9.82094E-14-2.39115E-13
 -1       362 2.06276E+01 1.06625E-01 1.20406E-03 4.41759E-01 5.09846E-14-2.52680E-13
 -1       363 2.08307E+01 1.29775E-01 1.42012E-03 5.68596E-01 1.46922E-13-2.91809E-13
 -1       364 2.10806E+01 1.51926E-01 1.57470E-03 7.18232E-01 2.05392E-13-3.45129E-13
 -1       365 2.13829E+01 1.67198E-01 1.56650E-03 8.86331E-01 2.06335E-13-2.50072E-13
 -1       366 2.17415E+01 1.64288E-01 1.22697E-03 1.06041E+00 4.34194E-14 2.64743E-15
 -1       367 2.21586E+01 1.23504E-01 3.13756E-04 1.21380E+00-4.47504E-15 1.28202E-13
 -1       368 2.26345E+01 1.44185E-02-1.43370E-03 1.29728E+00 4.55190E-14 1.56258E-13
 -1       369 2.31668E+01-2.01444E-01-4.11910E-03 1.23040E+00 1.06572E-13 4.59900E-14
 -1       370 2.37453E+01-5.52531E-01-7.32497E-03 8.99270E-01 1.89361E-13 4.43710E-15
 -1       371 2.43328E+01-1.00763E+00-9.62294E-03 1.79087E-01 1.54223E-13 2.14759E-13
 -1       372 2.48201E+01-1.39128E+00-1.11335E-02-9.84530E-01 1.30979E-13 3.52998E-13
 -1       373 2.49899E+01-1.33500E+00-1.34533E-02-2.40101E+00 4.51115E-14 2.05707E-13
 -1       374 2.45827E+01-4.39792E-01-1.84243E-02-3.45948E+00-1.06090E-13 3.05006E-13
 -1       375 2.36495E+01 1.12109E+00-2.85846E-02-3.26334E+00-3.43676E-13 4.04426E-13
 -1       376 2.27894E+01 2.27703E+00-3.80124E-02-1.54591E+00-4.19848E-13 4.03845E-13
 -1       377 2.26617E+01 1.93693E+00-3.08944E-02 6.56345E-01-9.54219E-14 2.24665E-13
 -1       378 2.30595E+01 4.50063E-01-2.12619E-02 1.81269E+00 2.30768E-13 3.24905E-13
 -1       379 2.32207E+01-8.09684E-01-1.40738E-02 1.47021E+00 1.18169E-13 8.25986E-14
 -1       380 2.28398E+01-1.17680E+00-7.70105E-03 3.60481E-01-2.63071E-13 1.50005E-13
 -1       381 2.20260E+01-7.57644E-01-9.46681E-03-6.19366E-01-2.18508E-13 1.54351E-14
 -1       382 2.11948E+01-1.02659E-01 2.34365E-03-9.43458E-01-9.46292E-14-1.58740E-13
 -1       383 1.98917E+01 2.28475E-01 1.07916E-02 3.98338E-01 2.53990E-13 2.48079E-13
 -1       384 1.96032E+01 1.15345E-01 6.16863E-03 1.19668E-01 1.90122E-13 1.54721E-13
 -1       385 1.94688E+01 5.76380E-02 2.80037E-03-2.91567E-02 1.61429E-13 1.20073E-13
 -1       386 1.94291E+01 2.57119E-02 1.17407E-03-1.05977E-01 6.89262E-14 4.90991E-14
 -1       387 1.94449E+01 7.23856E-03 4.47879E-04-1.41072E-01 9.28188E-14-7.27099E-15
 -1       388 1.94910E+01-3.49704E-03 9.84446E-05-1.51404E-01 9.30011E-14 5.77317E-15
 -1       389 1.95512E+01-9.44893E-03-8.37854E-05-1.47168E-01 6.80215E-14-3.37531E-14
 -1       390 1.96155E+01-1.23353E-02-1.79614E-04-1.34817E-01 6.09178E-15-6.62270E-14
 -1       391 1.96779E+01-1.32379E-02-2.23140E-04-1.18543E-01 9.18234E-14-6.42166E-14
 -1       392 1.97352E+01-1.28664E-02-2.32740E-04-1.01079E-01 1.21068E-13-4.24220E-14
 -1       393 1.97857E+01-1.16911E-02-2.20117E-04-8.42014E-02 1.74865E-13-1.77610E-13
 -1       394 1.98293E+01-1.00155E-02-1.92959E-04-6.90496E-02 1.31980E-13-1.78488E-13
 -1       395 1.98665E+01-8.02133E-03-1.56087E-04-5.63615E-02-6.06872E-14-2.09254E-13
 -1       396 1.98985E+01-5.79877E-03-1.12200E-04-4.66407E-02-1.28519E-14-1.49399E-13
 -1       397 1.99269E+01-3.36839E-03-6.24159E-05-4.02828E-02 4.82460E-14-1.59166E-13
 -1       398 1.99535E+01-6.98250E-04-6.70644E-06-3.76716E-02 7.28260E-14-7.30856E-14
 -1       399 1.99806E+01 2.28126E-03 5.57240E-05-3.92478E-02 9.89455E-15-6.63787E-14
 -1       400 2.00109E+01 5.66271E-03 1.26046E-04-4.55550E-02 1.80050E-14-6.57804E-14
 -1       401 2.00471E+01 9.54448E-03 2.05339E-04-5.72602E-02-2.29910E-14-2.03502E-13
 -1       402 2.00928E+01 1.40077E-02 2.93977E-04-7.51434E-02 2.06896E-13-2.92855E-13
 -1       403 2.01516E+01 1.90825E-02 3.90765E-04-1.00044E-01 1.14971E-13-3.69808E-13
 -1       404 2.02277E+01 2.46983E-02 4.91698E-04-1.32747E-01-1.21792E-13-3.73189E-13
 -1       405 2.03254E+01 3.06085E-02 5.88240E-04-1.73776E-01-1.91716E-13-2.51461E-13
 -1       406 2.04490E+01 3.62811E-02 6.65035E-04-2.23065E-01-6.97823E-14-2.24777E-13
 -1       407 2.06025E+01 4.07449E-02 6.97205E-04-2.79438E-01 1.31953E-13-1.29629E-13
 -1       408 2.07883E+01 4.23884E-02 6.47846E-04-3.39861E-01 1.13335E-13-1.10030E-13
 -1       409 2.10067E+01 3.87295E-02 4.67261E-04-3.98412E-01 1.64884E-13-1.39582E-13
 -1       410 2.12539E+01 2.62293E-02 9.69934E-05-4.44993E-01 1.07726E-13-1.82656E-13
 -1       411 2.15204E+01 3.36178E-04-5.16760E-04-4.63985E-01-8.01962E-14-3.15687E-13
 -1       412 2.17881E+01-4.38577E-02-1.39474E-03-4.33399E-01-3.09139E-14-2.20463E-13
 -1       413 2.20284E+01-1.09709E-01-2.48017E-03-3.25735E-01-4.53556E-14-1.53165E-13
 -1       414 2.22001E+01-1.95107E-01-3.58921E-03-1.12648E-01 1.24562E-14-1.52183E-14
 -1       415 2.22501E+01-2.86371E-01-4.38762E-03 2.23810E-01 1.15656E-13 1.15382E-13
 -1       416 2.21190E+01-3.52074E-01-4.43820E-03 6.71594E-01-1.34845E-13 4.15986E-13
 -1       417 2.17567E+01-3.43883E-01-3.43155E-03 1.16432E+00-3.30664E-13 3.38071E-13
 -1       418 2.11517E+01-2.15261E-01-1.36834E-03 1.56817E+00 1.62036E-14 1.43732E-13
 -1       419 2.03698E+01 3.79994E-02 9.77549E-04 1.70828E+00-2.48405E-13 9.44123E-14
 -1       420 1.95726E+01 3.40517E-01 3.06298E-03 1.45407E+00-1.41082E-13 1.72562E-13
 -1       421 1.89755E+01 5.51647E-01 4.66288E-03 8.28614E-01 2.81840E-13 3.07153E-13
 -1       422 1.87361E+01 5.57973E-01 5.79123E-03 4.59880E-02 7.84212E-14 4.18337E-14
 -1       423 1.88536E+01 3.68090E-01 5.84712E-03-5.99724E-01 2.92355E-13-2.72352E-16
 -1       424 1.91775E+01 1.06867E-01 4.25537E-03-9.16526E-01 1.23008E-13 4.63997E-14
 -1       425 1.95181E+01-8.61133E-02 1.29387E-03-9.09716E-01 7.34534E-14 2.28262E-13
 -1       426 1.97537E+01-1.51356E-01-8.20989E-04-7.27169E-01 4.38928E-15 2.27685E-13
 -1       427 1.98735E+01-1.43199E-01-7.81673E-04-5.22571E-01-2.04483E-13 4.19495E-13
 -1       428 1.99371E+01-1.63446E-01 1.29638E-03-4.07325E-01-4.71601E-13 5.24452E-13
 -1       429 2.11256E+01-3.31288E-01 9.64043E-03 9.05040E-01-4.68234E-14 4.30297E-13
 -1       430 2.06648E+01-3.59580E-01 3.62980E-03 2.73816E-02-6.18158E-14 3.77070E-13
 -1       431 2.02516E+01-2.73510E-01 2.69109E-03-3.37223E-01-4.17067E-13 7.69922E-13
 -1       432 2.13850E+01-4.05967E-02 1.01238E-02 2.14280E+00-1.52920E-14-1.12054E-13
 -1       433 2.11735E+01 6.93508E-01 8.66826E-03 3.48249E+00-1.47827E-13-4.61278E-14
 -1       434 2.02547E+01 1.95304E+00 4.95263E-03 4.31081E+00 1.87584E-14 2.26671E-13
 -1       435 1.87443E+01 3.54971E+00 5.09198E-03 3.88794E+00 1.23414E-13 9.19464E-14
 -1       436 1.74374E+01 4.81027E+00 6.96649E-03 1.87442E+00 1.79841E-13-2.39933E-13
 -1       437 1.72866E+01 4.99217E+00 7.68415E-03-9.98327E-01 1.82008E-13-6.96984E-13
 -1       438 1.83863E+01 4.01852E+00 4.61928E-03-3.26757E+00-9.27947E-14-1.06597E-12
 -1       439 1.99179E+01 2.52132E+00 4.79122E-03-4.07061E+00-6.52425E-14 2.25308E-14
 -1       440 2.09681E+01 1.24446E+00 8.09803E-03-3.50652E+00 5.52642E-14 7.40819E-13
 -1       441 2.12524E+01 4.97330E-01 1.17777E-02-2.30733E+00-2.41428E-13 7.64319E-14
 -1       442 1.24136E+01-6.39502E+00-3.21192E-02 8.46861E+00-8.70665E-13 1.01164E-12
 -1       443 1.62334E+00-5.18363E+00-9.58837E-02-3.71385E-01-6.91042E-13-4.69125E-13
 -1       444 5.93341E+00-5.10318E+00 2.00832E-02 6.06852E+00-4.65114E-13 1.59442E-13
 -1       445 2.34248E+01-6.25182E+00 4.50631E-02 7.57673E+00-8.13016E-13 6.67764E-13
 -1       446 3.01586E+01-3.70325E+00-1.82385E-02 4.36925E+00-5.62418E-13 5.31242E-14
 -1       447 1.98031E+01 3.43126E+00-1.76776E-02-1.73767E+00-3.38438E-13-4.01609E-13
 -1       448 3.57191E+01 6.11744E+00-6.81766E-02 4.60043E-02 4.08409E-13-3.66512E-13
 -1       449 3.66269E+01 8.78744E+00-3.22620E-02 6.70118E-01 8.08853E-13-1.46046E-14
 -1       450 3.64726E+01 7.59624E+00-9.15477E-03 1.20911E+00 6.23668E-13-1.13042E-13
 -1       451 3.55221E+01 3.20205E+00 1.45316E-02-1.26963E-01 5.61648E-13-3.66623E-13
 -1       452 3.14498E+01-1.60530E+00-6.85569E-03-2.24319E+00 5.72917E-13-3.66540E-13
 -1       453 2.47123E+01-5.06105E+00-2.16770E-02-5.49658E+00 3.43170E-13-7.73034E-13
 -1       454 1.74304E+01-6.32961E+00-1.66795E-02-7.16057E+00 1.20404E-13-8.84310E-13
 -1       455 8.07962E+00-6.56936E+00-6.87047E-02-6.71585E+00 1.16282E-13-9.23470E-13
 -1       456 3.04162E+00-5.57475E+00-1.23306E-03-4.24266E+00-1.13798E-14-4.76300E-13
 -1       457 1.42687E+00-5.09984E+00 1.35761E-02 1.12942E+00-2.55140E-13-1.98896E-13
 -1       458 4.59441E+00-6.02512E+00-2.28756E-02 4.69435E+00-6.66550E-14-1.22194E-13
 -1       459 1.30934E+01-7.13236E+00-2.71336E-02 6.66438E+00 6.48925E-14-1.64702E-13
 -1       460 2.20270E+01-6.68453E+00-2.51927E-02 5.44869E+00-4.84890E-14-3.88023E-13
 -1       461 2.97391E+01-3.56037E+00 1.19344E-04 2.69035E+00-2.24043E-13-7.12375E-13
 -1       462 3.46523E+01 6.81136E-01 3.33165E-02 3.99960E-02-3.28706E-13-8.73884E-13
 -1       463 3.75472E+01 5.63960E+00 9.62690E-02-1.50228E+00-4.76355E-13-8.12905E-13
 -1       464 3.85773E+01 8.15730E+00 1.24412E-01-1.46963E+00-4.02761E-13-6.68743E-13
 -1       465 3.72377E+01 7.54372E+00 4.78520E-02-4.77930E-01-2.26569E-13-7.28764E-13
 -1       466 3.68092E+01 4.32214E+00 6.97092E-02-7.76306E-01 8.11018E-14-4.12725E-13
 -1       467 3.31183E+01-1.73465E+00-2.88385E-02-2.56288E+00 1.49096E-13-2.05516E-13
 -1       468 2.72972E+01-4.57563E+00-7.21015E-04-6.28315E+00 2.24917E-13-6.64593E-13
 -1       469 1.93001E+01-6.73525E+00-4.94447E-02-8.09549E+00 5.73708E-14-3.13374E-13
 -1       470 1.13038E+01-6.57089E+00-2.62864E-02-8.11867E+00-1.82021E-13-4.69416E-13
 -1       471 3.37301E+00-6.33266E+00-1.80014E-01-4.51320E+00-7.98986E-13-1.05846E-12
 -1       472 3.46044E+01 1.93509E+00-2.01285E-02 9.27495E-01 8.18928E-14-3.27641E-13
 -1       473 5.52004E+00-2.21940E+00 1.56232E-01 3.20922E+00-5.22755E-13 4.26381E-13
 -1       474 3.62564E+00-2.81979E+00 1.67965E-01-1.61219E+00-1.15716E-13-3.90687E-13
 -1       475 2.03741E+01 8.31991E-01 4.02605E-03 9.71496E-01 3.34416E-13 2.51694E-14
 -1       476 1.97320E+01 3.10419E+00-5.34214E-03-6.33550E-01-1.03504E-13-4.60025E-13
 -1       477 1.98291E+01 2.93039E+00-5.73711E-03-9.49325E-01-1.75504E-13-4.35575E-13
 -1       478 1.96642E+01 3.22685E+00-5.01945E-03 8.81371E-03 4.62534E-14-5.03858E-13
 -1       479 1.96827E+01 3.19382E+00-5.10159E-03 3.30319E-01 1.06343E-13-4.80174E-13
 -1       480 1.97366E+01 3.09699E+00-5.41390E-03 6.45668E-01 1.79668E-13-4.60679E-13
 -1       481 1.98353E+01 2.91919E+00-5.96930E-03 9.61088E-01 2.77144E-13-3.97384E-13
 -1       482 1.99914E+01 2.63394E+00-6.52622E-03 1.25631E+00 3.36075E-13-3.20977E-13
 -1       483 2.02337E+01 2.18793E+00-5.69348E-03 1.50105E+00 3.94655E-13-2.04034E-13
 -1       484 2.01125E+01 4.53561E-01 5.06176E-03 4.63635E-01 2.60685E-13 1.26784E-14
 -1       485 2.03442E+01 9.72659E-01 2.76300E-03-9.38977E-01-3.27955E-13-9.59978E-14
 -1       486 2.03980E+01 1.75577E+00-5.86292E-03-1.53668E+00-3.94805E-13-1.59416E-13
 -1       487 3.10781E+01-2.12908E+00-8.67927E-02 7.57120E-01-5.14727E-13-2.35527E-13
 -1       488 2.01720E+01 5.46298E-01 2.34996E-03-4.67337E-01-2.40265E-13-7.64154E-14
 -1       489 2.00249E+01 3.05424E-01 1.26842E-03-1.66663E-01-1.68588E-13-4.14132E-14
 -1       490 1.99245E+01 1.62806E-01 5.59365E-04 1.49197E-02-1.37725E-13-6.48542E-14
 -1       491 1.98659E+01 7.60652E-02 2.24606E-04 1.17624E-01-1.37942E-13-7.18300E-14
 -1       492 1.98385E+01 2.30064E-02 6.67821E-05 1.68979E-01-1.13460E-13-7.05811E-14
 -1       493 1.98322E+01-8.75319E-03-1.43970E-05 1.87551E-01-1.08937E-13-1.27697E-13
 -1       494 1.98392E+01-2.66264E-02-5.79585E-05 1.85907E-01-1.23308E-13-9.53061E-14
 -1       495 1.98536E+01-3.53263E-02-7.93488E-05 1.72591E-01-8.20611E-14-9.16178E-14
 -1       496 1.98717E+01-3.79696E-02-8.64115E-05 1.53404E-01-1.99866E-14-1.56974E-13
 -1       497 1.98910E+01-3.66486E-02-8.40726E-05 1.32266E-01-1.01848E-13-8.59433E-14
 -1       498 1.99099E+01-3.27511E-02-7.55747E-05 1.11804E-01-1.12650E-13-1.41569E-13
 -1       499 1.99280E+01-2.71549E-02-6.29564E-05 9.37891E-02-9.10718E-14-2.19882E-13
 -1       500 1.99451E+01-2.03564E-02-4.73344E-05 7.94518E-02-1.04784E-13-1.72192E-13
 -1       501 1.99615E+01-1.25576E-02-2.90983E-05 6.97260E-02-1.56078E-14-1.57460E-13
 -1       502 1.99779E+01-3.72787E-03-8.05861E-06 6.54367E-02-9.45372E-15-1.86909E-13
 -1       503 1.99952E+01 6.35188E-03 1.64572E-05 6.74475E-02 1.45702E-14-2.40207E-13
 -1       504 2.00145E+01 1.80580E-02 4.55504E-05 7.67780E-02 5.45361E-14-3.55016E-13
 -1       505 2.00373E+01 3.19001E-02 8.07247E-05 9.46958E-02 5.71072E-14-2.73981E-13
 -1       506 2.00652E+01 4.85003E-02 1.23857E-04 1.22789E-01 4.39312E-14-3.57177E-13
 -1       507 2.00998E+01 6.85669E-02 1.77160E-04 1.63015E-01 3.28106E-14-2.40860E-13
 -1       508 2.01432E+01 9.28504E-02 2.43067E-04 2.17718E-01-2.67407E-14-1.08512E-13
 -1       509 2.01975E+01 1.22058E-01 3.23956E-04 2.89597E-01-7.13992E-14-1.41266E-13
 -1       510 2.02647E+01 1.56682E-01 4.21508E-04 3.81599E-01-1.15328E-13-9.38752E-14
 -1       511 2.03468E+01 1.96675E-01 5.35349E-04 4.96667E-01-1.26096E-13-9.10944E-15
 -1       512 2.04458E+01 2.40834E-01 6.60352E-04 6.37257E-01-3.74605E-14-1.42359E-13
 -1       513 2.05634E+01 2.85687E-01 7.81619E-04 8.04475E-01 2.24144E-13-2.38993E-13
 -1       514 2.07021E+01 3.23587E-01 8.65768E-04 9.96600E-01 2.40378E-13-1.94235E-13
 -1       515 2.08660E+01 3.39651E-01 8.46865E-04 1.20666E+00 1.58496E-13-2.19203E-13
 -1       516 2.10647E+01 3.07350E-01 6.06102E-04 1.41865E+00 4.56844E-14-1.59167E-13
 -1       517 2.13190E+01 1.83479E-01-5.54856E-05 1.60179E+00 7.18651E-14-2.35823E-13
 -1       518 2.16700E+01-9.40506E-02-1.35919E-03 1.70218E+00 1.09082E-13-1.94956E-13
 -1       519 2.21874E+01-5.95780E-01-3.38722E-03 1.63160E+00 1.13400E-13-2.69427E-13
 -1       520 2.29642E+01-1.35589E+00-5.73825E-03 1.25619E+00 2.11793E-13-2.41983E-13
 -1       521 2.40642E+01-2.25723E+00-5.93035E-03 4.03209E-01 1.07807E-13-1.54075E-13
 -1       522 2.53935E+01-2.83015E+00-7.98277E-03-1.05549E+00 9.41275E-14-7.98695E-14
 -1       523 2.64979E+01-2.24498E+00-3.42201E-02-2.89483E+00 7.88961E-14 1.07956E-13
 -1       524 2.67974E+01 2.17322E-01-6.05302E-02-4.13086E+00-1.07475E-13 3.63078E-14
 -1       525 2.59741E+01 3.56589E+00-1.69297E-01-3.29302E+00-4.08402E-13-1.16981E-14
 -1       526 2.57803E+01 4.53763E+00-1.65566E-01-3.88742E-01-2.53200E-13-1.60314E-14
 -1       527 2.62426E+01 2.34779E+00-1.29013E-01 1.95700E+00 1.33574E-15-4.99874E-14
 -1       528 2.61596E+01-7.50506E-01-6.00159E-02 1.78562E+00-2.20206E-14 2.00569E-14
 -1       529 2.52794E+01-2.40820E+00-1.22322E-02 2.24548E-01-6.37554E-14 3.66408E-14
 -1       530 2.37268E+01-1.96866E+00-1.02204E-02-1.21405E+00-2.10389E-13 1.32117E-13
 -1       531 1.26727E+01-3.54534E+00 1.56274E-01 7.67809E+00-3.98126E-13 4.00548E-13
 -1       532 1.98102E+01 1.29056E-01 1.01527E-03-2.00563E-02 1.60124E-13-3.21574E-14
 -1       533 1.97523E+01 5.94634E-02 3.68328E-04-1.18478E-01 1.24936E-13-9.26415E-14
 -1       534 1.97335E+01 1.76575E-02 8.32105E-05-1.66528E-01 1.29205E-13-1.69775E-13
 -1       535 1.97393E+01-7.12353E-03-5.41530E-05-1.83060E-01 5.47217E-14-1.73525E-13
 -1       536 1.97595E+01-2.09994E-02-1.23288E-04-1.80431E-01 2.29326E-14-9.05222E-14
 -1       537 1.97869E+01-2.77403E-02-1.55071E-04-1.66854E-01 8.90769E-14-9.58543E-14
 -1       538 1.98167E+01-2.98008E-02-1.63252E-04-1.47829E-01 1.64507E-13-1.42150E-13
 -1       539 1.98463E+01-2.88159E-02-1.56152E-04-1.27032E-01 1.33815E-13-1.23783E-13
 -1       540 1.98740E+01-2.58691E-02-1.39277E-04-1.06904E-01 9.84607E-14-9.54444E-14
 -1       541 1.98993E+01-2.16519E-02-1.16174E-04-8.90656E-02 3.84087E-14-1.79370E-14
 -1       542 1.99222E+01-1.65663E-02-8.89147E-05-7.46161E-02-2.86907E-14-8.38865E-14
 -1       543 1.99433E+01-1.07972E-02-5.84651E-05-6.43590E-02-4.46093E-16-1.49451E-13
 -1       544 1.99634E+01-4.36575E-03-2.49901E-05-5.89684E-02-4.86637E-14-2.71816E-15
 -1       545 1.99839E+01 2.82589E-03 1.19308E-05-5.91126E-02 3.10121E-14 3.70275E-14
 -1       546 2.00061E+01 1.09544E-02 5.30727E-05-6.55391E-02 3.65200E-14 8.82789E-14
 -1       547 2.00319E+01 2.02322E-02 9.93036E-05-7.91236E-02 1.59548E-13 7.56822E-14
 -1       548 2.00632E+01 3.08552E-02 1.51289E-04-1.00878E-01 1.79047E-13-1.62790E-13
 -1       549 2.01022E+01 4.29303E-02 2.09058E-04-1.31909E-01 1.26373E-13-7.21033E-14
 -1       550 2.01515E+01 5.63722E-02 2.71394E-04-1.73301E-01-1.70001E-14 9.42456E-16
 -1       551 2.02138E+01 7.07524E-02 3.34952E-04-2.25913E-01-8.83642E-14-1.23216E-13
 -1       552 2.02919E+01 8.50824E-02 3.93030E-04-2.90034E-01-4.38995E-14-4.10352E-13
 -1       553 2.03887E+01 9.75103E-02 4.33951E-04-3.64849E-01 8.99514E-15-5.22990E-13
 -1       554 2.05069E+01 1.04920E-01 4.39161E-04-4.47678E-01 7.79780E-14-3.36832E-13
 -1       555 2.06491E+01 1.02452E-01 3.81505E-04-5.32901E-01 1.01139E-13-3.63576E-13
 -1       556 2.08170E+01 8.30417E-02 2.24730E-04-6.10587E-01-2.16946E-14-1.12377E-13
 -1       557 2.10117E+01 3.72504E-02-7.36449E-05-6.64881E-01-9.83277E-14 1.91129E-13
 -1       558 2.12328E+01-4.60331E-02-5.53046E-04-6.72496E-01-1.56767E-13 2.67117E-13
 -1       559 2.14772E+01-1.76926E-01-1.22732E-03-6.02097E-01-1.61497E-13 3.21285E-13
 -1       560 2.17368E+01-3.58332E-01-2.04698E-03-4.16221E-01-1.25175E-13 4.29780E-13
 -1       561 2.19928E+01-5.74696E-01-2.85148E-03-7.86501E-02-5.13468E-14 5.71866E-13
 -1       562 2.22077E+01-7.76679E-01-3.33567E-03 4.28673E-01-8.30090E-14 5.17717E-13
 -1       563 2.23179E+01-8.69813E-01-3.06448E-03 1.07563E+00-6.45729E-14 3.59010E-13
 -1       564 2.22405E+01-7.29856E-01-1.91443E-03 1.74539E+00-7.00764E-14 1.59726E-13
 -1       565 2.19150E+01-2.70681E-01 8.53944E-05 2.21727E+00-3.23562E-14 3.60155E-13
 -1       566 2.13798E+01 4.38937E-01 8.34536E-04 2.22712E+00-2.66047E-13 1.96430E-13
 -1       567 2.08204E+01 1.11926E+00 9.26322E-04 1.63393E+00 8.18072E-14 1.05787E-13
 -1       568 2.04890E+01 1.40071E+00 1.22860E-03 6.04843E-01 2.58379E-13 3.20023E-13
 -1       569 2.04942E+01 1.13221E+00 1.79423E-03-4.23526E-01 1.72844E-13 4.56212E-13
 -1       570 2.07045E+01 5.18675E-01 2.17554E-03-1.03837E+00 1.79787E-13 4.78965E-13
 -1       571 2.08706E+01-6.13616E-02 1.08631E-03-1.12637E+00 6.19730E-16 3.55660E-13
 -1       572 2.08272E+01-3.54083E-01-2.68030E-03-8.75029E-01-1.18858E-13 4.73115E-13
 -1       573 2.05896E+01-3.56949E-01-1.21105E-03-5.53188E-01-3.04142E-13 1.00605E-12
 -1       574 2.27726E+01-1.29138E+00 7.25869E-03 3.16161E+00-3.33702E-13-1.26251E-13
 -1       575 2.18298E+01-9.65870E-01 2.05070E-02 4.88615E+00-1.35277E-13 7.58161E-15
 -1       576 2.17272E+01-7.32552E-01 3.63383E-03 2.60148E-01-2.82817E-13 3.41553E-13
 -1       577 2.25140E+01-1.08111E+00 3.88119E-03 1.47647E+00-2.94043E-13 2.39568E-13
 -1       578 1.93193E+01 1.96972E-01 4.17384E-02 5.68591E+00-2.45057E-13 5.91718E-13
 -1       579 1.59081E+01 1.91288E+00 5.89606E-02 4.29962E+00 6.20099E-14 1.96329E-13
 -1       580 1.40394E+01 2.89085E+00 6.72102E-02 6.26458E-01 5.24079E-13-2.80821E-13
 -1       581 1.52597E+01 2.26617E+00 5.79108E-02-3.27802E+00 1.27879E-13-1.22312E-12
 -1       582 1.85224E+01 6.18429E-01 3.96817E-02-5.25539E+00 1.15793E-13-5.33249E-13
 -1       583 2.13307E+01-6.81960E-01 1.84662E-02-4.85247E+00 3.70316E-14 2.06306E-13
 -1       584 2.24996E+01-1.07661E+00 7.25580E-03-3.26338E+00-4.64200E-13 3.84180E-13
 -1       585 2.76358E+01-5.55235E+00 6.15561E-03 4.74372E+00-8.10334E-13 6.80012E-16
 -1       586 1.99251E+01 2.46453E-01 2.46197E-03 1.58294E-01 1.97280E-13-2.31753E-14
 -1       587 1.98852E+01-5.39472E+00 9.16892E-02 8.15767E+00-7.89889E-13 7.80084E-13
 -1       588 9.92327E+00-3.30739E+00 1.57681E-01-6.63374E+00-2.28921E-13-9.30200E-13
 -1       589 6.52738E+00-1.92685E+00 1.93182E-01-3.39599E+00-8.86652E-14-1.17198E-12
 -1       590 3.18528E+01 2.00568E+00-1.36703E-01-3.52002E+00-3.79585E-13-4.83405E-13
 -1       591 2.82880E+01-4.88577E+00-4.12058E-02-2.16541E+00 1.95042E-13-1.75832E-13
 -1       592 1.96798E+01 3.19825E+00-5.09645E-03-3.12751E-01-2.40162E-14-4.71538E-13
 -1       593 3.10514E+01 7.12938E+00-1.90783E-01-4.81064E-01 5.73638E-13-6.47860E-13
 -1       594 3.14701E+01-3.32619E-01-1.05617E-01 1.31085E+00 4.11303E-13 2.35090E-14
 -1       595 3.08795E+01 7.49672E+00-2.03282E-01 1.53069E+00 6.26305E-13-3.54352E-13
 -1       596 1.98964E+01-6.74784E+00 6.25979E-02 5.73777E+00 4.95021E-14-4.38097E-13
 -1       597 3.10639E+01 4.21443E+00-1.68208E-01 2.76977E+00 3.83096E-13 1.86781E-13
 -1       598 2.28058E+01-6.48607E+00 3.33510E-02-5.60182E+00-1.24289E-13-7.15719E-13
 -1       599 1.56043E+01-5.85632E+00 1.00660E-01-7.26500E+00-2.73392E-14-6.66300E-13
 -1       600 8.70137E+00-3.95903E+00 1.55857E-01-6.08009E+00 6.68562E-14-8.50736E-13
 -1       601 6.47433E+00-2.32984E+00 2.09914E-01 3.23627E+00-2.07768E-13-1.27454E-13
 -1       602 2.95809E+01-4.88680E+00-5.72130E-02-3.35740E+00 4.46383E-13-2.97734E-13
 -1       603 1.19273E+01-4.87536E+00 1.44342E-01 6.22571E+00-6.09582E-14-2.98025E-14
 -1       604 2.73100E+01-6.13528E+00-2.98047E-04 2.30398E+00-6.31092E-14-6.73871E-13
 -1       605 3.10123E+01-2.93421E+00-9.36848E-02-1.12502E+00-9.37705E-15-7.22242E-13
 -1       606 3.26645E+01 6.20983E+00-1.51125E-01-2.77684E+00-3.18995E-13-5.15817E-13
 -1       607 3.07025E+01 7.14702E+00-2.07806E-01-8.19215E-01-3.40991E-13-4.42072E-13
 -1       608 3.16632E+01 4.51362E+00-1.63206E-01 1.32357E+00-4.29240E-14-4.87915E-13
 -1       609 3.17538E+01 1.08009E-01-1.13290E-01 7.36626E-01 2.09499E-13-4.35041E-13
 -1       610 2.51488E+01-6.53723E+00 2.83481E-02-6.45026E+00 2.64941E-13-6.82853E-13
 -1       611 1.86680E+01-6.00922E+00 8.36167E-02-8.17133E+00 1.79426E-13-4.89074E-13
 -1       612 3.13379E+01 2.97123E+00-1.61217E-01-1.25706E+00 1.65604E-13-5.01821E-13
 -1       613 2.05860E+01 1.30525E+00-9.96773E-04 1.54745E+00 4.31284E-13 6.41158E-14
 -1       614 1.99727E+01 2.64923E+00-9.85959E-03-1.23861E+00-2.63917E-13-3.85574E-13
 -1       615 1.07111E+01-1.08476E+00 1.90362E-01 5.61316E+00-2.26288E-13 4.65836E-13
 -1       616 2.26253E+01-1.12652E+00-7.18141E-04-1.77157E+00-4.58185E-13 2.70511E-13
 -1       617 7.90100E+00 1.82887E-02 2.09026E-01-7.07508E-02-4.60985E-14-7.25142E-13
 -1       618 1.58690E+01-3.71835E+00 1.29773E-01-7.72847E+00 4.30073E-14-7.91811E-13
 -1       619 7.48039E+00-1.89116E+00 1.80297E-01-3.84654E+00 2.94237E-13-8.12864E-13
 -1       620 3.02586E+01-3.28553E+00-6.24876E-02-2.28288E-01 2.16002E-13-4.78572E-13
 -1       621 1.99594E+01 2.44937E+00-1.58260E-03 3.94004E-01 1.30349E-13-4.13969E-13
 -1       622 1.99274E+01 2.52430E+00-1.51239E-03 1.35686E-01 6.77681E-14-4.69714E-13
 -1       623 2.01202E+01 2.04595E+00-1.56446E-03 8.49450E-01 2.68481E-13-3.18961E-13
 -1       624 2.02388E+01 1.67590E+00-2.24720E-03 9.91911E-01 2.96289E-13-2.21301E-13
 -1       625 2.03195E+01 1.03678E+00 2.92957E-03 8.30959E-01 2.84571E-13-1.43353E-13
 -1       626 2.02056E+01 6.13965E-01 1.07076E-03 4.19529E-01 2.37334E-13-1.18710E-13
 -1       627 2.02805E+01 1.67826E+00-4.08734E-06-1.14000E+00-2.99570E-13-2.22009E-13
 -1       628 2.02880E+01 1.03401E+00-1.86654E-04-6.79646E-01-2.23200E-13-1.77614E-13
 -1       629 2.02328E+01 6.24844E-01 2.91382E-04-3.36148E-01-1.54785E-13-1.46456E-13
 -1       630 2.01657E+01 3.60966E-01 1.86477E-06-1.03946E-01-1.50140E-13-1.49737E-13
 -1       631 2.01049E+01 1.92114E-01-7.63843E-05 4.27446E-02-1.06926E-13-1.11355E-13
 -1       632 2.00579E+01 8.43757E-02-7.76985E-05 1.27499E-01-1.10086E-13-1.39209E-13
 -1       633 2.00246E+01 1.69399E-02-6.51038E-05 1.69505E-01-1.26352E-13-7.27199E-14
 -1       634 2.00027E+01-2.34464E-02-5.42543E-05 1.83291E-01-9.41337E-14-1.61525E-14
 -1       635 1.99895E+01-4.55483E-02-4.57757E-05 1.79454E-01-9.52698E-14-3.66026E-14
 -1       636 1.99826E+01-5.53184E-02-3.84425E-05 1.65542E-01-6.10429E-14-4.06299E-14
 -1       637 1.99800E+01-5.68397E-02-3.16270E-05 1.46840E-01-4.78499E-15-8.96282E-14
 -1       638 1.99804E+01-5.28858E-02-2.50984E-05 1.26999E-01-4.94622E-14-3.96649E-14
 -1       639 1.99828E+01-4.52765E-02-1.87815E-05 1.08533E-01-1.00502E-13 1.42102E-14
 -1       640 1.99867E+01-3.51153E-02-1.25859E-05 9.31970E-02-1.54223E-13-5.86031E-14
 -1       641 1.99916E+01-2.29583E-02-6.33415E-06 8.22906E-02-3.51732E-14 6.96171E-16
 -1       642 1.99975E+01-8.93367E-03 2.29925E-07 7.68823E-02-3.71174E-14-2.65841E-14
 -1       643 2.00044E+01 7.17117E-03 7.42146E-06 7.79910E-02-3.86950E-14-7.72280E-14
 -1       644 2.00123E+01 2.58433E-02 1.56054E-05 8.67234E-02-6.89438E-14-1.70730E-13
 -1       645 2.00215E+01 4.77930E-02 2.52069E-05 1.04378E-01 1.52202E-13-2.04842E-13
 -1       646 2.00321E+01 7.39089E-02 3.66913E-05 1.32519E-01 1.05504E-13-9.15238E-14
 -1       647 2.00441E+01 1.05208E-01 5.05539E-05 1.73020E-01 8.45182E-14-4.03297E-14
 -1       648 2.00575E+01 1.42764E-01 6.72732E-05 2.28074E-01-1.05505E-14-8.43446E-14
 -1       649 2.00718E+01 1.87585E-01 8.72314E-05 3.00155E-01-1.12509E-13-1.20256E-13
 -1       650 2.00862E+01 2.40400E-01 1.10565E-04 3.91918E-01-7.78686E-14-1.82222E-13
 -1       651 2.00994E+01 3.01265E-01 1.36903E-04 5.06023E-01-1.35298E-13-1.70339E-13
 -1       652 2.01095E+01 3.68868E-01 1.64916E-04 6.44833E-01-9.48555E-14-8.98040E-14
 -1       653 2.01142E+01 4.39320E-01 1.91594E-04 8.09993E-01 1.12036E-13-7.52545E-14
 -1       654 2.01118E+01 5.04117E-01 2.11152E-04 1.00184E+00 2.16666E-13-2.19178E-13
 -1       655 2.01031E+01 5.46903E-01 2.13507E-04 1.21866E+00 6.31642E-14-3.57661E-13
 -1       656 2.00959E+01 5.38612E-01 1.82196E-04 1.45575E+00 2.60358E-13-3.49604E-13
 -1       657 2.01128E+01 4.31025E-01 9.42101E-05 1.70402E+00 1.35550E-13-1.35409E-13
 -1       658 2.02051E+01 1.50141E-01-5.88135E-05 1.94668E+00 6.21625E-14-1.21718E-13
 -1       659 2.04721E+01-4.04152E-01 2.86435E-05 2.15021E+00 1.15115E-13-2.35507E-13
 -1       660 2.10880E+01-1.33986E+00 1.61048E-03 2.24017E+00 5.17491E-14-3.86004E-13
 -1       661 2.22927E+01-2.67986E+00 4.75425E-03 2.04603E+00 1.87015E-13-5.45239E-13
 -1       662 2.43359E+01-4.14581E+00 9.73053E-03 1.22247E+00 2.58328E-13-4.67155E-13
 -1       663 2.87247E+01-2.59144E+00-6.28290E-02-2.82498E+00-2.03429E-13-2.75696E-13
 -1       664 2.55172E+01-3.69400E+00 2.13304E-02-2.39964E+00 8.58922E-14 3.31076E-13
 -1       665 1.18419E+01-2.30893E+00 1.25693E-01 4.58973E+00-3.22454E-13-2.24820E-14
 -1       666 1.76235E+01-4.74732E+00 8.62735E-02 5.40988E+00-1.98171E-13-5.53179E-13
 -1       667 2.00262E+01 1.90277E-01 2.63849E-04-2.09842E-02 1.54385E-13-9.43746E-14
 -1       668 1.99253E+01-1.35282E-02-3.00638E-05-1.87369E-01 7.70371E-15-6.14718E-14
 -1       669 1.99206E+01-3.48118E-02-4.52879E-05-1.85652E-01 6.78572E-14-1.45131E-13
 -1       670 1.99229E+01-4.49148E-02-5.19174E-05-1.72450E-01 1.15336E-13-1.10756E-13
 -1       671 1.99295E+01-4.75745E-02-5.24331E-05-1.53519E-01 1.35810E-13-9.47599E-14
 -1       672 1.99384E+01-4.53223E-02-4.87668E-05-1.32794E-01 8.95609E-14-3.36965E-14
 -1       673 1.99484E+01-3.98378E-02-4.23559E-05-1.12951E-01-9.79775E-15 4.18939E-14
 -1       674 1.99588E+01-3.21768E-02-3.41527E-05-9.58218E-02 1.74962E-14 3.32004E-14
 -1       675 1.99694E+01-2.29294E-02-2.46651E-05-8.27025E-02 2.74559E-14 3.76896E-14
 -1       676 1.99802E+01-1.23341E-02-1.41018E-05-7.45950E-02-3.43799E-14 6.51695E-15
 -1       677 1.99916E+01-3.69529E-04-2.38583E-06-7.23825E-02-6.71769E-14-4.47724E-14
 -1       678 2.00040E+01 1.31676E-02 1.07423E-05-7.69584E-02-4.62597E-15-1.24945E-14
 -1       679 2.00183E+01 2.85868E-02 2.55961E-05-8.93094E-02 1.28430E-13-1.04262E-13
 -1       680 2.00351E+01 4.62194E-02 4.25168E-05-1.10556E-01 1.50575E-13-2.07590E-14
 -1       681 2.00554E+01 6.63105E-02 6.17157E-05-1.41940E-01 1.56759E-13 6.01331E-14
 -1       682 2.00804E+01 8.88713E-02 8.31298E-05-1.84752E-01 1.43855E-13 8.71358E-15
 -1       683 2.01114E+01 1.13471E-01 1.06178E-04-2.40177E-01 1.90094E-14-1.01943E-13
 -1       684 2.01500E+01 1.38938E-01 1.29409E-04-3.09023E-01 8.37638E-14-1.90435E-13
 -1       685 2.01980E+01 1.62951E-01 1.50012E-04-3.91312E-01-1.64861E-14-1.54399E-13
 -1       686 2.02579E+01 1.81484E-01 1.63164E-04-4.85675E-01-1.39576E-14-2.00114E-13
 -1       687 2.03332E+01 1.88111E-01 1.61253E-04-5.88507E-01-8.96415E-15-1.34810E-14
 -1       688 2.04288E+01 1.73249E-01 1.33052E-04-6.92838E-01-6.83678E-14 6.02077E-14
 -1       689 2.05520E+01 1.23546E-01 6.30151E-05-7.86884E-01-2.62852E-13 1.32080E-13
 -1       690 2.07133E+01 2.19891E-02-6.88815E-05-8.52305E-01-1.74006E-13 1.98308E-13
 -1       691 2.09274E+01-1.50171E-01-2.86975E-04-8.62321E-01-1.00489E-13 3.07256E-13
 -1       692 2.12116E+01-4.07639E-01-6.05049E-04-7.80220E-01-1.43788E-13 2.46874E-13
 -1       693 2.15811E+01-7.48540E-01-1.00143E-03-5.59785E-01-1.58620E-13 3.32726E-13
 -1       694 2.20360E+01-1.13254E+00-1.39297E-03-1.51443E-01-3.48242E-14 3.91539E-13
 -1       695 2.25380E+01-1.45193E+00-1.70509E-03 4.78294E-01-2.61097E-14 3.89578E-13
 -1       696 2.29830E+01-1.51093E+00-1.64302E-03 1.30037E+00-6.61519E-14 3.32023E-13
 -1       697 2.32012E+01-1.07256E+00-2.55441E-03 2.15028E+00-1.65806E-13 4.09953E-13
 -1       698 2.30559E+01-3.05224E-02-3.24784E-03 2.67368E+00-4.15383E-14 7.27396E-13
 -1       699 2.25836E+01 1.35899E+00-9.03721E-03 2.47385E+00 7.59805E-14 5.02332E-13
 -1       700 2.21449E+01 2.35902E+00-1.28955E-02 1.42214E+00 2.57621E-13 3.62454E-13
 -1       701 2.20644E+01 2.35722E+00-1.12052E-02-3.60458E-05 3.06692E-13 7.81980E-14
 -1       702 2.23137E+01 1.39700E+00-7.50613E-03-1.01679E+00 1.50615E-13-5.41931E-14
 -1       703 2.25207E+01 1.77799E-01-3.36272E-03-1.23480E+00 7.80557E-14 1.23632E-13
 -1       704 2.23513E+01-5.87438E-01-5.08515E-04-8.47627E-01-3.63297E-13 4.07032E-13
 -1       705 2.21882E+01-8.36305E-01 1.13449E-03-2.77109E-01-4.22182E-13 7.67789E-13
 -1       706 1.66727E+01-1.25101E+00 1.26536E-01 6.90248E+00 3.64986E-15 6.87481E-13
 -1       707 2.37528E+01-2.45563E+00-2.84391E-03-3.06453E+00-5.34729E-14 3.28278E-13
 -1       708 2.44514E+01-3.22906E+00 1.62669E-04 3.97143E+00-5.55543E-13 2.18853E-14
 -1       709 1.19056E+01 1.03671E+00 1.40195E-01 3.45071E+00 3.04754E-13 3.82687E-13
 -1       710 2.17310E+01-3.03103E+00 8.67228E-03 6.34159E+00-4.14989E-13 3.41512E-13
 -1       711 1.07315E+01 8.96581E-01 1.33630E-01-2.06483E+00 2.45188E-13-1.46356E-12
 -1       712 1.53895E+01-5.33816E-01 1.30348E-01-5.94778E+00 3.01939E-13-8.57835E-13
 -1       713 2.07229E+01-2.37715E+00 6.36786E-02-6.18615E+00 2.01020E-13-3.93757E-13
 -1       714 2.01044E+01 3.53560E-01 6.41607E-04 1.48582E-01 1.82994E-13-1.16798E-13
 -1       715 2.30011E+01-5.52452E+00 8.02093E-02-6.75534E+00 2.16563E-13-6.26522E-13
 -1       716 1.12134E+01-6.00011E-01 1.71134E-01-4.86395E+00 2.53780E-13-1.22789E-12
 -1       717 2.69699E+01-5.91742E+00-1.70247E-02-4.39434E+00 3.76844E-13-3.79429E-13
 -1       718 1.99411E+01 2.44754E-02-1.28547E-06-1.69285E-01 1.23462E-13-4.36777E-14
 -1       719 1.99731E+01 8.75933E-02 4.79287E-05-1.19463E-01 1.62683E-13-7.39272E-14
 -1       720 2.55455E+01-5.84800E+00-2.24159E-03-3.04872E+00-3.94511E-14-3.05986E-13
 -1       721 2.75110E+01 6.40630E+00-1.65265E-01 4.97275E-01 5.05804E-13-2.88110E-13
 -1       722 2.00235E+01 2.29467E+00-1.64651E-03 6.37986E-01 2.02976E-13-3.51510E-13
 -1       723 2.46018E+01-6.02341E+00 3.85706E-02 2.81447E+00-3.11036E-14-7.35580E-13
 -1       724 2.00179E+01 2.30549E+00-1.54625E-03-6.29196E-01-1.07281E-13-3.79675E-13
 -1       725 2.88566E+01-3.12975E+00-5.44796E-02 8.33999E-01 3.21999E-13 3.24359E-14
 -1       726 7.45284E+00-6.74844E-01 1.72765E-01-1.13517E-01 7.69014E-14-6.05183E-13
 -1       727 2.85855E+01 6.30669E-01-1.08455E-01 3.02568E+00 4.55341E-13 1.89751E-13
 -1       728 2.04633E+01-5.77033E+00 6.87621E-02-5.77937E+00-8.60007E-14-5.83769E-13
 -1       729 2.83800E+01-3.73802E+00-1.33307E-02 1.65192E+00-4.66725E-13-1.73960E-13
 -1       730 2.73526E+01 4.91367E+00-1.36403E-01 2.67136E+00 3.12216E-13-2.01870E-13
 -1       731 2.90341E+01-1.77975E-01-9.42913E-02-1.10003E+00-3.42431E-13-5.06602E-13
 -1       732 1.39648E+01-3.95488E+00 1.15886E-01-6.38242E+00 3.95448E-14-8.01331E-13
 -1       733 2.43488E+01-4.90409E+00 2.80032E-02 5.95289E+00-2.84332E-13 4.42578E-13
 -1       734 2.76858E+01 4.24984E+00-1.28048E-01-1.39684E+00 2.90740E-13-7.10319E-13
 -1       735 2.01198E+01 2.06129E+00-1.07776E-03-8.53619E-01-1.74676E-13-3.50712E-13
 -1       736 1.99265E+01 2.52598E+00-1.49915E-03-1.26525E-01 1.65084E-14-4.41776E-13
 -1       737 1.16641E+01-2.10741E+00 1.24695E-01-5.04045E+00 7.27526E-14-4.10481E-13
 -1       738 2.64249E+01-4.51662E+00-2.14533E-02-3.10351E-01 1.16245E-13-4.10087E-13
 -1       739 2.42947E+01-2.14977E+00 1.63732E-02 1.75867E+00-4.52922E-13-2.74137E-13
 -1       740 1.05132E+01-4.84905E-01 1.04627E-01 2.23109E+00 5.48207E-14-3.28387E-13
 -1       741 2.33244E+01-1.38500E+00 1.03583E-03 5.22691E-01-3.02361E-13 1.68866E-13
 -1       742 2.82335E+01-4.55238E+00-3.42910E-02-8.06437E-01 4.86000E-14-6.78749E-13
 -1       743 2.30147E+01-2.77879E+00 2.46369E-02-4.76352E+00-3.21791E-14-1.65359E-13
 -1       744 1.99563E+01 2.45509E+00-1.53214E-03-3.84260E-01-4.37936E-14-4.06042E-13
 -1       745 2.49510E+01 4.67241E+00-7.83193E-02 1.51794E+00 3.65173E-13-1.20486E-13
 -1       746 2.02655E+01 1.30844E+00 7.17931E-04 6.32255E-01 2.19598E-13-2.51351E-13
 -1       747 2.02924E+01 1.07994E+00 5.08323E-04-5.02914E-01-1.45606E-13-2.36563E-13
 -1       748 2.02901E+01 6.72983E-01-3.06775E-05-2.44273E-01-1.42659E-13-2.25458E-13
 -1       749 2.02622E+01 3.94352E-01 1.69346E-06-6.39820E-02-1.07077E-13-2.01664E-13
 -1       750 2.02226E+01 2.07931E-01-5.19569E-06 5.26666E-02-1.24171E-13-1.68196E-13
 -1       751 2.01820E+01 8.58269E-02-7.99500E-06 1.20792E-01-1.10590E-13-1.25618E-13
 -1       752 2.01451E+01 8.56438E-03-9.68087E-06 1.54254E-01-6.56210E-14-9.64202E-14
 -1       753 2.01135E+01-3.75005E-02-1.12181E-05 1.64406E-01-1.15571E-13-9.57100E-14
 -1       754 2.00876E+01-6.20090E-02-1.19495E-05 1.59925E-01-5.04825E-14-5.77670E-14
 -1       755 2.00670E+01-7.17777E-02-1.18737E-05 1.47184E-01-4.40463E-14-9.75418E-14
 -1       756 2.00509E+01-7.15777E-02-1.11390E-05 1.30738E-01-3.62205E-14-1.43491E-13
 -1       757 2.00388E+01-6.46619E-02-9.99448E-06 1.13795E-01-6.20748E-14-1.52561E-13
 -1       758 2.00298E+01-5.31337E-02-8.74239E-06 9.86094E-02-6.33194E-14-9.72096E-14
 -1       759 2.00233E+01-3.82170E-02-7.54760E-06 8.68081E-02-1.11794E-13 8.03007E-16
 -1       760 2.00187E+01-2.04550E-02-6.45466E-06 7.96463E-02-8.69446E-14-3.41781E-14
 -1       761 2.00153E+01 1.45430E-04-5.46369E-06 7.82072E-02-4.53775E-15-1.31921E-14
 -1       762 2.00125E+01 2.40006E-02-4.61175E-06 8.35568E-02-1.00882E-13 1.71761E-15
 -1       763 2.00096E+01 5.18604E-02-3.90265E-06 9.68569E-02 3.32782E-14-8.49007E-15
 -1       764 2.00056E+01 8.47332E-02-3.34796E-06 1.19441E-01 7.13312E-14-8.69397E-14
 -1       765 1.99995E+01 1.23812E-01-2.91354E-06 1.52858E-01 9.75076E-14-2.92492E-13
 -1       766 1.99897E+01 1.70385E-01-2.53300E-06 1.98878E-01 4.30750E-14-2.44154E-13
 -1       767 1.99743E+01 2.25703E-01-2.08036E-06 2.59457E-01-1.27762E-13-2.74622E-13
 -1       768 1.99507E+01 2.90775E-01-1.30796E-06 3.36662E-01-1.30229E-13-2.43377E-13
 -1       769 1.99153E+01 3.66021E-01 2.67942E-07 4.32543E-01-1.01481E-13-2.74332E-13
 -1       770 1.98640E+01 4.50700E-01 3.56125E-06 5.48988E-01-4.39931E-14-9.17723E-14
 -1       771 1.97912E+01 5.41961E-01 1.02122E-05 6.87593E-01-3.51174E-14-1.32835E-13
 -1       772 1.96912E+01 6.33298E-01 2.29559E-05 8.49665E-01-1.39505E-14-3.67446E-13
 -1       773 1.95588E+01 7.12119E-01 4.58804E-05 1.03657E+00-8.39311E-15-6.14846E-13
 -1       774 1.93920E+01 7.56049E-01 8.43764E-05 1.25073E+00 2.97264E-13-4.37515E-13
 -1       775 1.91967E+01 7.27577E-01 1.45902E-04 1.49778E+00 2.31600E-13-2.36019E-13
 -1       776 1.89965E+01 5.66654E-01 2.50538E-04 1.78987E+00 1.95438E-13-2.08505E-13
 -1       777 1.88506E+01 1.80444E-01 4.26896E-04 2.14849E+00-2.64014E-15-8.80394E-14
 -1       778 1.88827E+01-5.55917E-01 4.12856E-03 2.59167E+00-5.55303E-14-2.46711E-13
 -1       779 1.93485E+01-1.81663E+00 1.09863E-02 3.11003E+00 1.08252E-13-2.29923E-13
 -1       780 2.06548E+01-3.69943E+00 3.53531E-02 3.55973E+00 1.36745E-13-2.09426E-13
 -1       781 2.00890E+01 2.26940E-02-1.11709E-05-1.59968E-01 6.23734E-14-8.41420E-14
 -1       782 2.00611E+01-2.44262E-02-1.30380E-05-1.75375E-01 5.87323E-14-1.33622E-13
 -1       783 2.00162E+01-6.41011E-02-1.42570E-05-1.43380E-01 3.09771E-14-8.94853E-14
 -1       784 2.00098E+01-5.96141E-02-1.26822E-05-1.24712E-01 1.52518E-14-9.44884E-14
 -1       785 2.00062E+01-5.07698E-02-1.04624E-05-1.07297E-01 3.22539E-14-3.30718E-14
 -1       786 2.00047E+01-3.88681E-02-7.94614E-06-9.29289E-02-3.60347E-16-9.79871E-14
 -1       787 2.00047E+01-2.45916E-02-5.33845E-06-8.29339E-02 4.41485E-14-1.68294E-14
 -1       788 2.00059E+01-8.15797E-03-2.52631E-06-7.83890E-02 1.54344E-16-1.58704E-13
 -1       789 2.00081E+01 1.05518E-02 6.73652E-07-8.02895E-02-6.05766E-14-1.93625E-13
 -1       790 2.00109E+01 3.18782E-02 4.26791E-06-8.96640E-02 6.78230E-15-1.35715E-13
 -1       791 2.00144E+01 5.62677E-02 8.42454E-06-1.07649E-01 9.35632E-14 6.94488E-15
 -1       792 2.00183E+01 8.41344E-02 1.32321E-05-1.35514E-01-8.67516E-15 1.44682E-13
 -1       793 2.00226E+01 1.15684E-01 1.87710E-05-1.74641E-01 8.88083E-14 2.71766E-13
 -1       794 2.00273E+01 1.50671E-01 2.50651E-05-2.26441E-01 1.69505E-13 2.48435E-13
 -1       795 2.00328E+01 1.88069E-01 3.20195E-05-2.92190E-01 1.16749E-13 7.19007E-14
 -1       796 2.00398E+01 2.25601E-01 3.93347E-05-3.72779E-01 5.81414E-14 4.80162E-14
 -1       797 2.00498E+01 2.59124E-01 4.63887E-05-4.68339E-01-1.46288E-14-1.11147E-13
 -1       798 2.00656E+01 2.81826E-01 5.20717E-05-5.77720E-01-9.39788E-14-1.13390E-13
 -1       799 2.00926E+01 2.83257E-01 5.45222E-05-6.97789E-01-2.60309E-13 7.93725E-14
 -1       800 2.01398E+01 2.48339E-01 5.05113E-05-8.22475E-01-4.11162E-14 1.17844E-13
 -1       801 2.02219E+01 1.56660E-01 3.37108E-05-9.41440E-01-2.70261E-13-8.46135E-14
 -1       802 2.03617E+01-1.71191E-02-8.88310E-06-1.03810E+00-2.53830E-13 1.04997E-13
 -1       803 2.05919E+01-3.00148E-01-1.06998E-04-1.08661E+00-1.81684E-13 1.25135E-13
 -1       804 2.09548E+01-7.12465E-01-2.66826E-04-1.04723E+00-1.33111E-13 1.44442E-13
 -1       805 2.14946E+01-1.24702E+00-4.55152E-04-8.60856E-01-1.41995E-13-1.54923E-14
 -1       806 2.22369E+01-1.83358E+00-5.32601E-04-4.48296E-01-2.69505E-13 1.72609E-13
 -1       807 2.31397E+01-2.28288E+00-1.55507E-03 2.77182E-01-7.65283E-14 4.51880E-13
 -1       808 2.40377E+01-2.25073E+00-4.53568E-03 1.31188E+00-3.14935E-13 6.15136E-13
 -1       809 2.46201E+01-1.27005E+00-6.78633E-03 2.45590E+00-1.77740E-13 5.01036E-13
 -1       810 2.45605E+01 7.18548E-01-4.06989E-02 3.06304E+00 1.43602E-13 1.30124E-13
 -1       811 2.36834E+01 3.82745E+00-3.85954E-02 7.43521E-01 4.08994E-13-5.08200E-14
 -1       812 2.39245E+01 2.82636E+00-4.48343E-02-8.75224E-01 1.88947E-13 9.54837E-14
 -1       813 2.42828E+01 8.11602E-01-3.58294E-02-1.41786E+00 1.00297E-14 1.98425E-13
 -1       814 2.41212E+01-7.35200E-01-4.93186E-04-8.63672E-01-1.81688E-13 4.74038E-13
 -1       815 2.38889E+01-1.38782E+00-7.97920E-03-1.50888E-01-4.96595E-13 5.54102E-13
 -1       816 2.01380E+01 1.88866E+00-3.15408E-04 1.99145E-01 8.77364E-14-3.74229E-13
 -1       817 2.30213E+01-5.25341E+00 1.97069E-02-3.68746E+00-2.08290E-13-3.51061E-13
 -1       818 1.81304E+01-4.13803E+00 5.64751E-02-5.44483E+00-2.23120E-14-4.99637E-13
 -1       819 2.69995E+01-1.89706E+00-3.56997E-02 2.25789E+00 2.80291E-13 1.55926E-13
 -1       820 2.52584E+01 4.52993E+00-7.71127E-02-3.80102E-01 3.09124E-13-1.44208E-13
 -1       821 9.58037E+00-4.82981E-01 1.17136E-01-2.33797E+00 1.73300E-13-9.56436E-13
 -1       822 2.47764E+01-4.47749E+00 2.05001E-02-4.57605E+00 6.21896E-14-3.56187E-13
 -1       823 2.58257E+01 1.95339E+00-6.23494E-02 3.23385E+00 2.01839E-13-2.08836E-13
 -1       824 2.00261E+01-6.21149E-02-1.49135E-05-1.60757E-01 7.97168E-14-1.38811E-13
 -1       825 2.00406E+01-5.04500E-02-1.44853E-05-1.73173E-01 8.22771E-14-1.42318E-13
 -1       826 2.01698E+01 2.24624E-01-2.13031E-05-3.19638E-02 1.28375E-13-1.37522E-13
 -1       827 2.01253E+01 1.00627E-01-1.44936E-05-1.16754E-01 1.15249E-13-1.13068E-13
 -1       828 1.66162E+01-2.19971E+00 4.76989E-02 4.10311E+00-1.08221E-14-1.15331E-13
 -1       829 2.02778E+01 9.41107E-01-9.23887E-05 5.51506E-01 2.16533E-13-1.73299E-13
 -1       830 2.62742E+01-4.44159E+00-3.65069E-03-4.74324E-01-3.33518E-14 2.10342E-13
 -1       831 2.62781E+01 1.46663E+00-6.09842E-02-1.62560E+00-4.08354E-15-3.58789E-13
 -1       832 2.69801E+01-1.86446E+00-3.03886E-02-2.99934E-01-4.02221E-13-2.90359E-13
 -1       833 2.01262E+01 1.92688E+00-3.14121E-04 3.26215E-03 2.98764E-14-4.30095E-13
 -1       834 2.02216E+01 1.58032E+00-7.87581E-05 5.35640E-01 1.98666E-13-3.01363E-13
 -1       835 2.01683E+01 1.78166E+00-2.25642E-04-3.75602E-01-6.63337E-14-3.39723E-13
 -1       836 2.02140E+01 1.58941E+00-1.22924E-03-5.27506E-01-1.18368E-13-3.16058E-13
 -1       837 1.45364E+01-6.35552E-01 4.10693E-02 3.09959E+00 1.10146E-13-1.90331E-13
 -1       838 1.06595E+01 1.86249E-01 7.54845E-02 1.67687E-01 7.32293E-14-6.50327E-13
 -1       839 2.41271E+01 2.97482E+00-4.00963E-02 2.42742E+00 2.89995E-13-7.63859E-14
 -1       840 1.56272E+01-2.62676E+00 6.95726E-02-5.07152E+00-2.18991E-14-4.86363E-13
 -1       841 2.01705E+01 1.77580E+00-2.70012E-04 3.80936E-01 1.63446E-13-3.20509E-13
 -1       842 2.02316E+01 5.73057E-01 3.97681E-05 2.57996E-01 1.94478E-13-1.45881E-13
 -1       843 2.01983E+01 3.70503E-01-3.33405E-05 8.47406E-02 1.44575E-13-1.16759E-13
 -1       844 2.01366E+01 1.89177E+00-2.92840E-04-1.92654E-01-1.60967E-14-3.70428E-13
 -1       845 2.54768E+01-3.03553E+00-8.99518E-03 1.08911E+00-1.44483E-13 3.26845E-13
 -1       846 2.03381E+01 6.66451E-01-1.50668E-05-1.53358E-01-1.00388E-13-2.34912E-13
 -1       847 2.03316E+01 3.88147E-01-1.02692E-05-2.47389E-02-8.71834E-14-1.80970E-13
 -1       848 2.03039E+01 1.98062E-01-3.58740E-06 5.92205E-02-8.57858E-14-1.67978E-13
 -1       849 2.02669E+01 7.20753E-02-2.02410E-06 1.07725E-01-9.75949E-14-1.33298E-13
 -1       850 2.02275E+01-7.54470E-03-8.89566E-07 1.30603E-01-1.12864E-13-1.23496E-13
 -1       851 2.01895E+01-5.41890E-02-3.49592E-07 1.36193E-01-9.50305E-14-1.05461E-13
 -1       852 2.01550E+01-7.77377E-02-2.16621E-07 1.31028E-01-5.32220E-14-1.30725E-13
 -1       853 2.01250E+01-8.53508E-02-1.82719E-07 1.19994E-01-3.34564E-14-1.29303E-13
 -1       854 2.00995E+01-8.20878E-02-1.02795E-07 1.06633E-01-6.67152E-14-1.91236E-13
 -1       855 2.00782E+01-7.13757E-02-3.77289E-09 9.34733E-02-8.85607E-14-1.96707E-13
 -1       856 2.00606E+01-5.53737E-02-9.68934E-08 8.23311E-02-1.56698E-14-1.84873E-13
 -1       857 2.00458E+01-3.52647E-02-2.95807E-07 7.45565E-02-3.09034E-14-5.06024E-14
 -1       858 2.00328E+01-1.14617E-02-3.86556E-07 7.12297E-02-7.03440E-14-5.64979E-15
 -1       859 2.00205E+01 1.62261E-02-4.37488E-07 7.33231E-02-3.05324E-14-6.59863E-14
 -1       860 2.00076E+01 4.84533E-02-4.06885E-07 8.18116E-02-9.05211E-14-7.62629E-14
 -1       861 1.99924E+01 8.62272E-02-3.91781E-07 9.77452E-02 1.91091E-15-1.29916E-13
 -1       862 1.99730E+01 1.30806E-01-3.69678E-07 1.22288E-01-5.65557E-14-1.71424E-13
 -1       863 1.99471E+01 1.83587E-01-3.02792E-07 1.56722E-01 4.54174E-14-2.85698E-13
 -1       864 1.99117E+01 2.45964E-01-1.33771E-07 2.02406E-01-1.12805E-13-3.44193E-13
 -1       865 1.98632E+01 3.19127E-01 2.38251E-07 2.60703E-01-1.33720E-13-2.01658E-13
 -1       866 1.97968E+01 4.03770E-01 9.91827E-07 3.32868E-01-1.33864E-13-9.10431E-14
 -1       867 1.97068E+01 4.99643E-01 2.42606E-06 4.19931E-01 4.59839E-15-3.35077E-15
 -1       868 1.95859E+01 6.04872E-01 5.00213E-06 5.22644E-01-1.88614E-13-1.33715E-13
 -1       869 1.94258E+01 7.14940E-01 9.35281E-06 6.41615E-01-1.88932E-13-1.53997E-13
 -1       870 1.92163E+01 8.21175E-01 1.61963E-05 7.77896E-01-8.35834E-14-1.29718E-13
 -1       871 1.89470E+01 9.08556E-01 2.62916E-05 9.34442E-01 2.74027E-13-8.30482E-15
 -1       872 1.86072E+01 9.52625E-01 4.36088E-05 1.11910E+00 3.22159E-13-1.53012E-13
 -1       873 1.81890E+01 9.15148E-01 9.53853E-05 1.35021E+00 1.56610E-13-2.83143E-13
 -1       874 1.76929E+01 7.36871E-01 5.40496E-04 1.66561E+00 1.93799E-13-4.45338E-13
 -1       875 1.71286E+01 3.27701E-01 1.12050E-03 2.12837E+00-2.30478E-14-2.10755E-13
 -1       876 2.01921E+01 1.13814E-02-4.42410E-06-1.41779E-01 7.44798E-14-1.68185E-13
 -1       877 2.00610E+01-6.97327E-02-1.25310E-06-1.07307E-01 1.59334E-15-6.19021E-14
 -1       878 2.00783E+01-7.74459E-02-2.33577E-06-1.22718E-01 3.34165E-14-5.09014E-14
 -1       879 2.00361E+01-4.00892E-02 7.51060E-08-8.29543E-02-3.25806E-14-2.61029E-13
 -1       880 2.00270E+01-2.01943E-02-3.86828E-07-7.68043E-02 3.77349E-14-1.55022E-13
 -1       881 2.00192E+01 2.75643E-03-1.18073E-07-7.61152E-02-1.43025E-14-1.20465E-13
 -1       882 2.00117E+01 2.90261E-02 1.71060E-07-8.18930E-02-1.28897E-13-8.20432E-14
 -1       883 2.00037E+01 5.91169E-02 6.54279E-07-9.52084E-02-5.00057E-14 2.58049E-14
 -1       884 1.99941E+01 9.35982E-02 1.30094E-06-1.17258E-01-3.37216E-14 1.92781E-13
 -1       885 1.99819E+01 1.32917E-01 2.14062E-06-1.49387E-01 7.53598E-14 1.96409E-14
 -1       886 1.99661E+01 1.77148E-01 3.23930E-06-1.93069E-01 1.18004E-13-1.85492E-14
 -1       887 1.99458E+01 2.25657E-01 4.68976E-06-2.49853E-01 2.06366E-13 6.14746E-14
 -1       888 1.99202E+01 2.76645E-01 6.61510E-06-3.21256E-01 6.39386E-14 9.10248E-14
 -1       889 1.98896E+01 3.26533E-01 9.18581E-06-4.08599E-01-1.42267E-14 1.17977E-13
 -1       890 1.98551E+01 3.69164E-01 1.26608E-05-5.12806E-01-1.05907E-13 3.05951E-13
 -1       891 1.98203E+01 3.94807E-01 1.74600E-05-6.34133E-01-2.31333E-13 4.20626E-13
 -1       892 1.97923E+01 3.88988E-01 2.41683E-05-7.71814E-01-1.61350E-13 9.14046E-14
 -1       893 1.97843E+01 3.31274E-01 3.28608E-05-9.23533E-01-5.49997E-14 2.63146E-13
 -1       894 1.98179E+01 1.94364E-01 4.01369E-05-1.08439E+00-2.76794E-13 7.66245E-14
 -1       895 1.99279E+01-5.57051E-02 3.42132E-05-1.24468E+00-1.66140E-13-1.26950E-13
 -1       896 2.01662E+01-4.56377E-01-3.10675E-05-1.38504E+00-2.65389E-13 9.12831E-14
 -1       897 2.06059E+01-1.03852E+00-1.06041E-05-1.46639E+00-2.05708E-13 2.89138E-13
 -1       898 2.13368E+01-1.79876E+00 7.64393E-04-1.41029E+00-2.65802E-13 3.07953E-13
 -1       899 2.24355E+01-2.64011E+00 3.15513E-03-1.09320E+00-4.95123E-13 3.34502E-13
 -1       900 2.39091E+01-3.28087E+00 9.17094E-03-3.22367E-01-3.31575E-13 5.88702E-13
 -1       901 2.06416E+01-3.89288E+00 1.43140E-02-3.89320E+00-2.81504E-13-1.01027E-13
 -1       902 2.02964E+01 8.26377E-01-1.78873E-04 3.46641E-01 1.63412E-13-2.38928E-13
 -1       903 1.26246E+01-9.09808E-01 6.96329E-02-3.71911E+00 9.82582E-14-4.66637E-13
 -1       904 2.02686E+01 2.29317E-01-3.16777E-05-4.48146E-02 1.16608E-13-2.55289E-13
 -1       905 2.01259E+01-6.67265E-02-2.58408E-06-1.48885E-01 4.82312E-14-1.17456E-13
 -1       906 2.02303E+01 9.61852E-02-1.05849E-05-1.09395E-01 5.91820E-14-1.96828E-13
 -1       907 1.71076E+01-6.88355E-01 1.53621E-02 2.97067E+00 3.65680E-14-1.36901E-13
 -1       908 2.38977E+01-4.17578E+00 6.48871E-03-1.58101E+00-2.21994E-13 1.87302E-14
 -1       909 2.00998E+01-7.76358E-02-2.49058E-06-1.37597E-01 4.94776E-14-9.56150E-14
 -1       910 2.00471E+01-5.68203E-02 1.01745E-07-9.35272E-02 5.45153E-14-1.68261E-13
 -1       911 2.03077E+01 1.06029E+00 2.27292E-04-3.34404E-01-1.03333E-13-2.83200E-13
 -1       912 2.01568E+01-3.95084E-02-2.90197E-06-1.52268E-01 8.93841E-14-1.36008E-13
 -1       913 1.35054E+01 2.50032E-01 2.69269E-02 1.84359E+00 5.32992E-14-3.03270E-13
 -1       914 1.85970E+01-2.83079E+00 2.88611E-02-4.15518E+00-2.74134E-13-2.26666E-13
 -1       915 2.02864E+01 3.88144E-01-2.14978E-04 4.62226E-02 1.42527E-13-2.39971E-13
 -1       916 1.20176E+01 2.17260E-01 5.09531E-02-1.67174E+00-1.11420E-13-8.69128E-13
 -1       917 2.02848E+01 1.33728E+00-1.62934E-05 1.97381E-01 1.20214E-13-3.02847E-13
 -1       918 2.02842E+01 1.34203E+00 1.93406E-04-1.94114E-01-2.30124E-14-3.39782E-13
 -1       919 2.02745E+01 1.40581E+00-2.23519E-05 6.94004E-02 6.63375E-14-3.57951E-13
 -1       920 2.02957E+01 1.21202E+00 4.87477E-04-2.99882E-01-6.88606E-14-2.64099E-13
 -1       921 2.03814E+01 6.13175E-01-2.32755E-04-7.96615E-02-6.56215E-14-2.54788E-13
 -1       922 2.03808E+01 3.49556E-01 6.58144E-06 4.27400E-03-5.26963E-14-1.81596E-13
 -1       923 2.03571E+01 1.66957E-01-2.48786E-06 5.72885E-02-7.28259E-14-1.54634E-13
 -1       924 2.03203E+01 4.62219E-02 1.23947E-06 8.68848E-02-9.68367E-14-1.72039E-13
 -1       925 2.02780E+01-2.90367E-02 1.48769E-06 9.97237E-02-1.01247E-13-1.93605E-13
 -1       926 2.02354E+01-7.16255E-02 2.31005E-06 1.01341E-01-7.69533E-14-1.72248E-13
 -1       927 2.01952E+01-9.11892E-02 2.63121E-06 9.61509E-02-2.66533E-14-1.50383E-13
 -1       928 2.01591E+01-9.47904E-02 2.55336E-06 8.74847E-02-1.52931E-14-9.66066E-14
 -1       929 2.01274E+01-8.74135E-02 1.83308E-06 7.77712E-02-4.59571E-14 7.92461E-15
 -1       930 2.01000E+01-7.23638E-02 1.08506E-06 6.87629E-02-6.11529E-14-7.00182E-14
 -1       931 2.00762E+01-5.16473E-02 6.60172E-07 6.17476E-02 3.15793E-15-1.31371E-13
 -1       932 2.00550E+01-2.62697E-02 2.06590E-07 5.76940E-02-4.95721E-14-1.53181E-13
 -1       933 2.00349E+01 3.59270E-03-6.01373E-07 5.74157E-02-1.97788E-15-1.97975E-13
 -1       934 2.00143E+01 3.83654E-02-1.48147E-06 6.16663E-02 1.70548E-14-1.35906E-13
 -1       935 1.99912E+01 7.89299E-02-2.64496E-06 7.11909E-02-5.51862E-14-8.13855E-14
 -1       936 1.99632E+01 1.26496E-01-4.11861E-06 8.67609E-02-6.35429E-14-9.48928E-14
 -1       937 1.99276E+01 1.82462E-01-5.93413E-06 1.09172E-01-4.12237E-14-1.41807E-13
 -1       938 1.98809E+01 2.48256E-01-8.14553E-06 1.39203E-01-1.12153E-13-1.52515E-13
 -1       939 1.98188E+01 3.25131E-01-1.08213E-05 1.77527E-01-6.17813E-14-1.68333E-13
 -1       940 1.97363E+01 4.13905E-01-1.40507E-05 2.24599E-01-3.22848E-14-2.02165E-14
 -1       941 1.96270E+01 5.14588E-01-1.79894E-05 2.80513E-01-7.62213E-14 1.24176E-14
 -1       942 1.94834E+01 6.25892E-01-2.29877E-05 3.44888E-01-1.51592E-13-7.99381E-15
 -1       943 1.92959E+01 7.44570E-01-2.98621E-05 4.16880E-01-1.28063E-13 3.05264E-14
 -1       944 1.90529E+01 8.64565E-01-4.02875E-05 4.95492E-01-6.33340E-14 1.20789E-13
 -1       945 1.87396E+01 9.75961E-01-5.69134E-05 5.80516E-01 1.75727E-13 1.09435E-13
 -1       946 1.83371E+01 1.06368E+00-7.99862E-05 6.74605E-01 2.62941E-13-1.53141E-13
 -1       947 1.78197E+01 1.10601E+00-8.73924E-05 7.87068E-01 1.18074E-13-2.60694E-13
 -1       948 1.71502E+01 1.07359E+00 2.82629E-04 9.40664E-01 7.50306E-14-3.06106E-13
 -1       949 1.62666E+01 9.27062E-01 5.88621E-04 1.18676E+00 1.51988E-13-3.43028E-13
 -1       950 2.03357E+01 2.08576E-01-8.88184E-06-5.19895E-02 6.91522E-14-2.46451E-13
 -1       951 2.01476E+01-8.99732E-02 3.01787E-06-1.07142E-01-1.53569E-14 2.53224E-14
 -1       952 2.03513E+01 8.79090E-01-2.15959E-04-1.74700E-01-7.51892E-14-2.42997E-13
 -1       953 2.00366E+01-9.47338E-03 4.23321E-07-6.52112E-02-7.00444E-14-7.91021E-15
 -1       954 2.00533E+01-3.52603E-02 1.01699E-06-6.77146E-02-7.06398E-14-1.03372E-13
 -1       955 2.00033E+01 5.44576E-02-1.02693E-06-7.60947E-02-9.64826E-14-3.09194E-14
 -1       956 1.99835E+01 9.37525E-02-2.13864E-06-9.14413E-02-4.08111E-14-6.32016E-14
 -1       957 1.99594E+01 1.38828E-01-3.36014E-06-1.14913E-01 8.09670E-14-1.27278E-13
 -1       958 1.99291E+01 1.90123E-01-4.70577E-06-1.47873E-01 7.31843E-14 3.21063E-14
 -1       959 1.98904E+01 2.47529E-01-6.17161E-06-1.91887E-01 9.14172E-14-6.38216E-14
 -1       960 1.98416E+01 3.09969E-01-7.73330E-06-2.48723E-01 9.72341E-14 5.91185E-14
 -1       961 1.97810E+01 3.74852E-01-9.33190E-06-3.20359E-01 1.40216E-14 8.85886E-14
 -1       962 1.97079E+01 4.37357E-01-1.08390E-05-4.08991E-01-1.31107E-13 1.59222E-13
 -1       963 1.96230E+01 4.89536E-01-1.19778E-05-5.17098E-01-9.02379E-14 6.93309E-14
 -1       964 1.95297E+01 5.19219E-01-1.22160E-05-6.47563E-01-1.09256E-13-9.60749E-16
 -1       965 1.94356E+01 5.08740E-01-1.09508E-05-8.03867E-01-1.19303E-13-1.35242E-14
 -1       966 1.93551E+01 4.33521E-01-9.44026E-06-9.90263E-01-5.08614E-14-1.44120E-14
 -1       967 1.93134E+01 2.60613E-01-1.59249E-05-1.21151E+00-9.12527E-14 7.69257E-14
 -1       968 1.93528E+01-5.23121E-02-2.96140E-05-1.47083E+00-4.89019E-13 2.10046E-13
 -1       969 1.95401E+01-5.55334E-01-2.19334E-04-1.76408E+00-3.84999E-13 5.70254E-13
 -1       970 1.99845E+01-1.30285E+00 1.24534E-04-2.06562E+00-1.56061E-13 5.82613E-13
 -1       971 2.08433E+01-2.32042E+00 1.09064E-03-2.28428E+00-3.21062E-13 2.53154E-13
 -1       972 2.17253E+01-3.23348E+00-1.28253E-03-2.40786E+00-3.67007E-13-1.89619E-13
 -1       973 1.53343E+01 4.46714E-01 8.95796E-03 1.86870E+00 5.07350E-14-3.53908E-13
 -1       974 2.00204E+01 2.02698E-02 3.02741E-08-6.76951E-02-1.19207E-13 7.45709E-14
 -1       975 2.01182E+01-8.62598E-02 2.33632E-06-9.54585E-02 9.88420E-14-6.29479E-14
 -1       976 2.01815E+01-8.20575E-02 4.44655E-06-1.16748E-01-2.00818E-15-5.69238E-14
 -1       977 2.02977E+01 1.20269E+00-6.64747E-04 3.03089E-01 1.44846E-13-2.79326E-13
 -1       978 1.58127E+01-1.44583E+00 2.92873E-02-3.93162E+00-7.24655E-14-2.83835E-13
 -1       979 2.03003E+01 7.62547E-02 1.35909E-06-9.51865E-02 3.61713E-14-2.01100E-13
 -1       980 2.02194E+01-5.71628E-02 4.57519E-06-1.21090E-01 3.45121E-14-1.55803E-13
 -1       981 2.02599E+01-7.79795E-03 4.20192E-06-1.15816E-01 8.92403E-14-1.81062E-13
 -1       982 2.02896E+01 5.82368E-01-2.43840E-05 1.68006E-01 1.35995E-13-2.27831E-13
 -1       983 2.02742E+01 1.40701E+00 7.15136E-06-6.53068E-02-1.76299E-15-3.54301E-13
 -1       984 2.03676E+01 9.68993E-01 3.65276E-04 7.94958E-02 1.04693E-13-2.76589E-13
 -1       985 2.03597E+01 8.87923E-01 3.59550E-04 1.43537E-01 1.16401E-13-2.79268E-13
 -1       986 1.33891E+01 6.98253E-01 3.12440E-02 3.68625E-01-6.55250E-14-4.99812E-13
 -1       987 2.00718E+01-5.71014E-02 3.36733E-06-7.42890E-02 2.11105E-14-8.72126E-14
 -1       988 2.00662E+01-2.64023E+00 1.31015E-02-3.15206E+00-1.44407E-13 1.52244E-15
 -1       989 2.03587E+01 4.06702E-01 9.74512E-05 2.17636E-02 1.49881E-13-2.36257E-13
 -1       990 2.00932E+01-7.45585E-02 5.26968E-06-8.39644E-02 1.10785E-13-8.99584E-14
 -1       991 2.03468E+01 7.46291E-01 5.12089E-04 1.73285E-01 1.11193E-13-2.68817E-13
 -1       992 1.43237E+01-1.87696E-01 2.33250E-02-2.74272E+00-1.90518E-13-5.60795E-13
 -1       993 2.03689E+01 9.68881E-01-7.28460E-05-7.84119E-02-1.15518E-14-2.87434E-13
 -1       994 2.00351E+01 6.83276E-03-1.33359E-06-4.86715E-02-1.52840E-13 2.72547E-14
 -1       995 2.01726E+01-9.78688E-02 5.40702E-06-7.26345E-02 6.61695E-14-7.68772E-14
 -1       996 2.04149E+01 5.29356E-01 3.49571E-04-2.67001E-02-1.40193E-14-1.96046E-13
 -1       997 2.04119E+01 2.88059E-01 7.00531E-05 1.70133E-02-1.42175E-14-1.94954E-13
 -1       998 2.03858E+01 1.21362E-01-4.04249E-05 4.35614E-02-9.27785E-14-1.92487E-13
 -1       999 2.03463E+01 1.32482E-02-1.80629E-05 5.77995E-02-1.10787E-13-1.64407E-13
 -1      1000 2.03012E+01-5.23512E-02-7.72050E-06 6.29710E-02-8.85552E-14-1.41917E-13
 -1      1001 2.02553E+01-8.73112E-02-1.36416E-06 6.22827E-02-1.07268E-14-6.63106E-14
 -1      1002 2.02119E+01-1.00686E-01 3.08382E-06 5.82076E-02-1.28934E-14-4.39012E-14
 -1      1003 2.01724E+01-9.90525E-02 3.33901E-06 5.26055E-02-1.77623E-14-1.52325E-13
 -1      1004 2.01374E+01-8.70311E-02 8.10434E-07 4.68251E-02-9.88367E-14-1.20085E-13
 -1      1005 2.01065E+01-6.75661E-02 6.28949E-07 4.18703E-02-6.91285E-14-1.41231E-13
 -1      1006 2.00788E+01-4.23549E-02 2.68336E-07 3.84689E-02-5.18537E-15-1.30532E-13
 -1      1007 2.00529E+01-1.20933E-02-6.99230E-07 3.71439E-02-7.61796E-14-1.41076E-13
 -1      1008 2.00271E+01 2.33514E-02-4.44061E-06 3.84272E-02-1.82747E-14-2.20359E-13
 -1      1009 1.99993E+01 6.45972E-02-8.08580E-06 4.27403E-02-2.95123E-14-1.89462E-13
 -1      1010 1.99670E+01 1.12711E-01-1.25270E-05 5.04779E-02-1.22204E-13-1.72513E-13
 -1      1011 1.99272E+01 1.69000E-01-1.77749E-05 6.19969E-02-8.07065E-14-1.55345E-13
 -1      1012 1.98762E+01 2.34836E-01-2.38905E-05 7.75630E-02-5.23915E-14-1.95805E-13
 -1      1013 1.98099E+01 3.11445E-01-3.09642E-05 9.72657E-02 6.95932E-15 5.39852E-15
 -1      1014 1.97233E+01 3.99641E-01-3.91329E-05 1.20891E-01-3.14660E-14 5.55958E-14
 -1      1015 1.96103E+01 4.99492E-01-4.86706E-05 1.47754E-01 1.79755E-14 1.80395E-14
 -1      1016 1.94637E+01 6.09903E-01-6.02254E-05 1.76513E-01-3.95345E-14 1.79062E-13
 -1      1017 1.92748E+01 7.28114E-01-7.53410E-05 2.04987E-01 3.69779E-14 3.71282E-13
 -1      1018 1.90327E+01 8.49159E-01-9.73941E-05 2.30082E-01-1.03492E-13 4.73731E-13
 -1      1019 1.87235E+01 9.65334E-01-1.32560E-04 2.47933E-01-9.25688E-14 3.46738E-13
 -1      1020 1.83281E+01 1.06583E+00-1.89027E-04 2.54513E-01 4.53881E-14 1.66575E-13
 -1      1021 1.78185E+01 1.13653E+00-2.95266E-04 2.47194E-01-1.94194E-14-1.14006E-13
 -1      1022 1.71538E+01 1.15914E+00-1.52125E-04 2.25707E-01 7.66420E-14-3.07762E-13
 -1      1023 1.62639E+01 1.11724E+00-5.89633E-04 1.99061E-01 2.06360E-13-1.43112E-13
 -1      1024 2.00580E+01-2.46260E-02 5.85329E-06-4.85439E-02-8.88728E-14 8.50598E-14
 -1      1025 1.99535E+01 1.33533E-01-1.24949E-05-7.64109E-02 3.71496E-14-7.80972E-14
 -1      1026 1.99849E+01 8.51753E-02-8.32732E-06-6.17810E-02 1.64372E-14-5.20648E-14
 -1      1027 1.98651E+01 2.52182E-01-2.19050E-05-1.27347E-01 1.16413E-13-1.26502E-13
 -1      1028 1.98024E+01 3.22611E-01-2.68966E-05-1.66652E-01-2.22093E-14 8.67772E-15
 -1      1029 1.97234E+01 3.98890E-01-3.17803E-05-2.17801E-01-9.44398E-14 9.06755E-14
 -1      1030 1.96254E+01 4.77803E-01-3.62030E-05-2.83409E-01-9.93448E-14 1.34655E-13
 -1      1031 1.95063E+01 5.53631E-01-3.96978E-05-3.66872E-01 1.20623E-14-5.80543E-14
 -1      1032 1.93651E+01 6.17268E-01-4.17509E-05-4.72726E-01-1.11105E-13-6.57987E-14
 -1      1033 1.92033E+01 6.55179E-01-4.23310E-05-6.07225E-01-1.61589E-13-3.79463E-14
 -1      1034 1.90256E+01 6.48178E-01-4.44141E-05-7.79201E-01-9.95486E-14-4.60790E-14
 -1      1035 1.88426E+01 5.69949E-01-6.47509E-05-1.00126E+00-1.79455E-13 8.13714E-14
 -1      1036 1.86744E+01 3.84802E-01-1.49001E-04-1.29123E+00-3.39865E-13 2.13513E-13
 -1      1037 1.85589E+01 4.36156E-02-2.89741E-04-1.67217E+00-6.09762E-13-5.43828E-15
 -1      1038 1.85633E+01-5.12881E-01 9.00054E-04-2.16113E+00-2.73389E-13-7.18415E-14
 -1      1039 1.88208E+01-1.38770E+00 2.99306E-03-2.77308E+00-1.16521E-13 2.74703E-14
 -1      1040 2.03412E+01 4.52320E-02-1.53293E-05-7.24479E-02 4.91391E-14-1.93054E-13
 -1      1041 2.02113E+01-9.46942E-02 3.85229E-06-7.98529E-02-5.05300E-14-1.15303E-13
 -1      1042 2.03778E+01 1.68449E-01-1.90432E-05-4.80891E-02 3.11518E-14-1.73406E-13
 -1      1043 2.03692E+01 9.94948E-01 5.72374E-05 1.69113E-03 6.05244E-14-3.14878E-13
 -1      1044 1.47639E+01 9.54785E-01 4.36366E-03 3.32931E-01 9.16174E-14-1.92087E-13
 -1      1045 2.02537E+01-7.50126E-02 3.63671E-07-8.42019E-02-6.53884E-14-7.11569E-14
 -1      1046 2.04000E+01 3.54539E-01 2.15708E-05-4.44852E-03 1.18294E-13-2.03547E-13
 -1      1047 1.78877E+01-1.66580E+00 1.00884E-02-3.43751E+00-1.58679E-13-1.10449E-13
 -1      1048 2.02981E+01-3.16369E-02-5.83416E-06-8.29493E-02 1.17083E-14-9.72635E-14
 -1      1049 2.00114E+01 4.32202E-02-4.61685E-06-5.28349E-02-9.23650E-14 6.04434E-14
 -1      1050 1.99145E+01 1.89061E-01-1.70520E-05-9.78188E-02 6.33816E-14-1.61641E-13
 -1      1051 2.00821E+01-5.15788E-02-3.06917E-05-5.18244E-02-1.28277E-15 1.21784E-13
 -1      1052 2.04275E+01 5.61384E-01 1.95280E-04-7.38146E-03 2.41468E-14-2.42662E-13
 -1      1053 2.03947E+01 6.21231E-01-4.90473E-04 6.42381E-02 1.08324E-13-2.65523E-13
 -1      1054 2.01385E+01-8.96690E-02 1.50248E-05-6.45999E-02 6.63500E-14-9.44047E-15
 -1      1055 2.04283E+01 5.53773E-01 4.38788E-05 1.41741E-02 6.95433E-14-2.51748E-13
 -1      1056 1.62935E+01-5.48090E-01 8.85294E-03-2.89887E+00-3.62363E-13-2.91020E-13
 -1      1057 2.04231E+01 2.13545E-01-6.25093E-05 1.05593E-02-5.25832E-14-2.04348E-13
 -1      1058 2.03917E+01 7.04680E-02 4.42951E-05 1.79903E-02-8.85635E-14-1.39907E-13
 -1      1059 2.03486E+01-2.04583E-02 3.78410E-05 2.14569E-02-7.17007E-14-1.27263E-13
 -1      1060 2.03011E+01-7.31732E-02 3.16711E-05 2.23113E-02-1.75796E-14-8.21075E-14
 -1      1061 2.02538E+01-9.85502E-02 2.62122E-05 2.15333E-02 2.64176E-14-1.04455E-13
 -1      1062 2.02094E+01-1.04752E-01 1.61323E-05 1.99260E-02-3.68187E-14-4.45903E-14
 -1      1063 2.01688E+01-9.75348E-02-1.63761E-05 1.80506E-02-3.68585E-14-5.03871E-14
 -1      1064 2.01327E+01-8.09581E-02-2.02492E-06 1.61712E-02-5.81892E-14 2.07469E-14
 -1      1065 2.01008E+01-5.76759E-02 1.73995E-05 1.44903E-02-1.04110E-13-3.53462E-14
 -1      1066 2.00714E+01-2.86314E-02-3.45047E-07 1.36750E-02-2.50675E-14-1.57640E-13
 -1      1067 2.00428E+01 5.81013E-03 7.08533E-06 1.37467E-02-4.10510E-14-1.09756E-13
 -1      1068 2.00130E+01 4.58777E-02 6.53649E-06 1.46638E-02 4.64305E-14-1.02318E-13
 -1      1069 1.99796E+01 9.24504E-02 6.65731E-06 1.65375E-02 4.95709E-14 3.31850E-14
 -1      1070 1.99397E+01 1.46670E-01 6.97908E-06 1.93489E-02-1.70281E-14 2.15325E-13
 -1      1071 1.98899E+01 2.09787E-01 7.15032E-06 2.29417E-02-2.61410E-14 2.87784E-13
 -1      1072 1.98262E+01 2.82938E-01 6.70315E-06 2.69452E-02-6.36097E-14 2.87325E-13
 -1      1073 1.97440E+01 3.66869E-01 4.92518E-06 3.06529E-02-3.97077E-14 7.72100E-14
 -1      1074 1.96380E+01 4.61599E-01 6.96108E-07 3.28538E-02-4.24371E-14 1.95133E-13
 -1      1075 1.95019E+01 5.66011E-01-7.79694E-06 3.16064E-02 8.93591E-14 1.76319E-13
 -1      1076 1.93286E+01 6.77373E-01-2.36116E-05 2.39546E-02 5.43265E-14 2.10710E-13
 -1      1077 1.91096E+01 7.90829E-01-5.21799E-05 5.58238E-03-9.40639E-15 2.07789E-13
 -1      1078 1.88342E+01 8.98922E-01-1.03526E-04-2.96018E-02-1.57290E-13 1.81049E-13
 -1      1079 1.84886E+01 9.91267E-01-1.95353E-04-9.00019E-02-1.45763E-13 1.79401E-13
 -1      1080 1.80533E+01 1.05455E+00-3.48279E-04-1.87197E-01-9.95196E-14 5.61500E-14
 -1      1081 1.74974E+01 1.07364E+00-4.54557E-04-3.38033E-01-1.97744E-13-6.58957E-14
 -1      1082 1.67632E+01 1.03643E+00-1.00661E-03-5.55703E-01 1.76700E-13-2.33939E-13
 -1      1083 1.99602E+01 1.19006E-01 2.71855E-06-3.82413E-02 9.97586E-14-1.31255E-13
 -1      1084 1.39601E+01 6.56346E-01 1.24955E-02-1.03015E+00-2.44519E-13-7.74872E-13
 -1      1085 2.00529E+01-9.29709E-03 3.05125E-06-2.63520E-02-4.12079E-14 8.42720E-14
 -1      1086 1.99951E+01 6.98713E-02 2.29233E-06-3.14233E-02 2.22217E-14-1.73514E-13
 -1      1087 1.97096E+01 3.98208E-01 2.83251E-06-1.14435E-01-1.44750E-13 1.58855E-13
 -1      1088 1.97963E+01 3.15392E-01 2.71435E-06-8.54289E-02-5.90924E-14 1.22637E-13
 -1      1089 1.94634E+01 5.80890E-01 8.28969E-06-2.05961E-01 1.60332E-13-2.58032E-14
 -1      1090 1.92952E+01 6.71124E-01 1.84559E-05-2.76372E-01 2.81481E-14 1.89802E-14
 -1      1091 1.90915E+01 7.49213E-01 3.94396E-05-3.71308E-01-1.32964E-13-7.74498E-14
 -1      1092 1.88488E+01 8.01669E-01 7.66895E-05-5.00204E-01-2.02057E-13-9.27342E-14
 -1      1093 1.85645E+01 8.09984E-01 1.30342E-04-6.76785E-01-2.07993E-13 5.74878E-14
 -1      1094 1.82372E+01 7.49487E-01 1.90672E-04-9.21092E-01-2.95186E-13 1.86725E-13
 -1      1095 1.78677E+01 5.86213E-01-6.67437E-05-1.26301E+00-2.07318E-13 4.25359E-14
 -1      1096 1.74695E+01 2.79563E-01 2.61827E-03-1.73838E+00-3.37334E-13-3.42745E-13
 -1      1097 1.53147E+01 4.29889E-01 6.96898E-03-1.76222E+00-4.01743E-13-5.99663E-13
 -1      1098 2.01087E+01-7.36430E-02-1.24663E-05-5.74239E-02 1.09601E-14 1.43494E-13
 -1      1099 2.02197E+01-1.02819E-01 4.21764E-06-4.11081E-02-3.15222E-16-1.94308E-13
 -1      1100 2.03973E+01 1.17505E-01-7.07046E-06-3.11033E-02 3.87586E-16-1.79180E-13
 -1      1101 2.04253E+01 2.89438E-01 1.06278E-04-1.04282E-02 4.89159E-14-2.14523E-13
 -1      1102 2.02645E+01-9.00561E-02 6.41311E-06-4.40068E-02 1.93374E-15-1.23519E-13
 -1      1103 2.03575E+01 9.67679E-03 1.63935E-05-4.10444E-02-2.46969E-14-8.28238E-14
 -1      1104 2.04340E+01 3.64403E-01-3.25001E-04 1.14300E-03-1.25759E-14-2.12625E-13
 -1      1105 2.00251E+01 2.74013E-02 1.73044E-06-2.76521E-02-2.10004E-14-7.60061E-15
 -1      1106 1.76403E+01-5.67406E-01 3.57820E-03-2.54097E+00-2.40562E-13-2.67453E-13
 -1      1107 1.56240E+01 8.61923E-01-4.86643E-04-8.67676E-01-8.69292E-14-4.49662E-13
 -1      1108 1.98643E+01 2.41126E-01 2.87469E-06-6.41349E-02 1.06255E-14-8.18924E-14
 -1      1109 2.03115E+01-5.55834E-02 1.04596E-05-4.45657E-02 8.54927E-15-9.28832E-14
 -1      1110 1.96001E+01 4.87889E-01 4.11312E-06-1.53518E-01-2.40278E-14 9.01646E-14
 -1      1111 1.99178E+01 1.75805E-01 2.91810E-06-4.88292E-02 3.78999E-14-1.28964E-13
 -1      1112 2.00806E+01-4.07760E-02 1.64197E-05-2.70093E-02-7.78363E-14 1.00194E-13
 -1      1113 2.01790E+01-1.00529E-01 1.35857E-05-3.71577E-02-3.21110E-15-1.81107E-13
 -1      1114 2.01172E+01-7.03110E-02 2.56220E-05-1.29404E-02-1.30381E-13-1.10250E-13
 -1      1115 1.66252E+01 4.69500E-01-2.20361E-03-1.63606E+00-1.72374E-13-5.55618E-13
 -1      1116 2.01473E+01-8.91944E-02-7.91598E-06-2.40172E-02-3.12637E-14-1.06664E-13
 -1      1117 2.79641E+01 9.08690E+00 2.32534E+00-6.69823E+00-4.69624E-14 1.72271E-12
 -1      1118 2.05486E+01 6.22754E+00 2.09811E-01-3.90374E+00-2.69507E-14 3.19793E-13
 -1      1119 1.94351E+01 5.85313E+00 7.53263E-02-2.88751E+00-1.90403E-14-3.00210E-13
 -1      1120 1.90263E+01 5.72603E+00 6.04054E-02-2.23470E+00-1.32602E-14-5.94745E-13
 -1      1121 1.88396E+01 5.66915E+00 5.75383E-02-1.70113E+00-9.64159E-15-7.38199E-13
 -1      1122 1.87457E+01 5.64036E+00 5.54969E-02-1.23380E+00-6.06980E-15-8.04452E-13
 -1      1123 1.86964E+01 5.62503E+00 5.37232E-02-8.04125E-01-3.46945E-15-8.27840E-13
 -1      1124 1.86722E+01 5.61741E+00 5.24983E-02-3.92749E-01-1.76291E-15-8.32836E-13
 -1      1125 1.86653E+01 5.61523E+00 5.21067E-02 8.47086E-03 1.47473E-15-8.33469E-13
 -1      1126 1.86733E+01 5.61777E+00 5.26202E-02 4.10100E-01 3.12229E-15-8.23367E-13
 -1      1127 1.86985E+01 5.62577E+00 5.40114E-02 8.22842E-01 4.57967E-15-8.01510E-13
 -1      1128 1.87495E+01 5.64172E+00 5.62253E-02 1.25518E+00 7.90687E-15-7.42940E-13
 -1      1129 1.88450E+01 5.67104E+00 5.84449E-02 1.72692E+00 1.17267E-14-6.51463E-13
 -1      1130 1.90318E+01 5.72767E+00 6.04087E-02 2.26797E+00 1.60497E-14-4.82255E-13
 -1      1131 1.94318E+01 5.85032E+00 6.92429E-02 2.92816E+00 2.10526E-14-1.60540E-13
 -1      1132 2.04546E+01 6.18240E+00 1.53335E-01 3.87830E+00 2.37865E-14 4.85473E-13
 -1      1133 2.52185E+01 7.99472E+00 1.43047E+00 5.84633E+00 5.32352E-14 1.84544E-12
 -1      1134 2.88138E+01 3.61633E+00 1.27116E+00-4.21706E+00-1.95316E-13 2.62002E-12
 -1      1135 2.02293E+01-1.77774E-01-6.16373E-01-1.09843E-01-6.79248E-14 2.14517E-12
 -1      1136 1.88357E+01-9.63581E-02-2.36346E-01 6.25454E-02-2.62550E-14 1.46106E-12
 -1      1137 1.85021E+01-4.80594E-02-5.95919E-02 4.05152E-02-1.15216E-14 1.03459E-12
 -1      1138 1.84474E+01-2.46310E-02-1.52256E-02 2.68021E-02-1.75090E-14 7.36383E-13
 -1      1139 1.85295E+01-1.30551E-02-4.99599E-03 1.90877E-02-7.39729E-15 5.43149E-13
 -1      1140 1.86769E+01-6.60361E-03-1.47563E-03 1.41471E-02-1.18790E-14 4.44079E-13
 -1      1141 1.88499E+01-2.82806E-03 5.72080E-04 1.07188E-02-1.56630E-14 2.19703E-13
 -1      1142 1.90258E+01-5.88193E-04 1.89914E-03 8.18354E-03-6.97023E-15-9.37271E-15
 -1      1143 1.91919E+01 7.14057E-04 2.65488E-03 6.23174E-03-5.15690E-15-2.33439E-13
 -1      1144 1.93414E+01 1.42021E-03 2.97485E-03 4.69779E-03 2.65928E-16-3.86660E-13
 -1      1145 1.94710E+01 1.73972E-03 2.99244E-03 3.48266E-03 3.08150E-14-3.12263E-13
 -1      1146 1.95803E+01 1.80774E-03 2.81464E-03 2.51935E-03-9.18609E-15-3.42542E-13
 -1      1147 1.96703E+01 1.71350E-03 2.51801E-03 1.75783E-03 6.04492E-15-4.25907E-13
 -1      1148 1.97427E+01 1.51542E-03 2.15309E-03 1.15853E-03-3.64250E-15-4.12056E-13
 -1      1149 1.98001E+01 1.24992E-03 1.74993E-03 6.89398E-04-1.88419E-14-5.14573E-13
 -1      1150 1.98453E+01 9.37012E-04 1.32244E-03 3.24747E-04 4.45648E-15-6.94298E-13
 -1      1151 1.98812E+01 5.84032E-04 8.71623E-04 4.48177E-05 2.61233E-15-7.45943E-13
 -1      1152 1.99111E+01 1.88252E-04 3.87827E-04-1.64145E-04 1.63111E-14-6.96152E-13
 -1      1153 1.99384E+01-2.61314E-04-1.47781E-04-3.09519E-04 1.45721E-14-4.97013E-13
 -1      1154 1.99670E+01-7.82659E-04-7.62383E-04-3.91567E-04-1.58619E-14-3.60008E-13
 -1      1155 2.00013E+01-1.39988E-03-1.49122E-03-4.02248E-04 3.65105E-16-1.37941E-13
 -1      1156 2.00465E+01-2.14243E-03-2.37768E-03-3.23372E-04 7.65531E-15-4.48360E-14
 -1      1157 2.01090E+01-3.04407E-03-3.47356E-03-1.23819E-04-3.43134E-14-2.76539E-13
 -1      1158 2.01967E+01-4.14102E-03-4.83870E-03 2.44570E-04 9.51133E-15-3.97875E-13
 -1      1159 2.03191E+01-5.46795E-03-6.53896E-03 8.52885E-04-2.45391E-14-4.54474E-13
 -1      1160 2.04885E+01-7.04963E-03-8.63942E-03 1.80322E-03 2.30375E-14-5.63348E-13
 -1      1161 2.07196E+01-8.88422E-03-1.11870E-02 3.23879E-03 1.14140E-14-5.10272E-13
 -1      1162 2.10300E+01-1.09109E-02-1.41707E-02 5.35411E-03 2.35823E-14-4.72002E-13
 -1      1163 2.14404E+01-1.29508E-02-1.74366E-02 8.39867E-03 1.95672E-14-2.19933E-13
 -1      1164 2.19727E+01-1.46037E-02-2.05198E-02 1.26562E-02-4.47596E-14 2.49523E-14
 -1      1165 2.26471E+01-1.50841E-02-2.23357E-02 1.83585E-02 3.56312E-14 2.40370E-13
 -1      1166 2.34744E+01-1.29944E-02-2.06880E-02 2.54500E-02 4.18882E-15 1.97693E-13
 -1      1167 2.44413E+01-6.10330E-03-1.16712E-02 3.30624E-02-1.66123E-14-3.01668E-14
 -1      1168 2.54844E+01 8.61548E-03 1.05271E-02 3.85400E-02 1.97616E-14-9.80951E-14
 -1      1169 2.64526E+01 3.40295E-02 5.20048E-02 3.60737E-02 5.84610E-14 4.61048E-13
 -1      1170 2.70663E+01 6.99375E-02 1.13078E-01 1.59731E-02-6.11317E-15 4.70343E-13
 -1      1171 2.69113E+01 1.07094E-01 1.76625E-01-3.24951E-02-3.43475E-15 6.56523E-13
 -1      1172 2.55483E+01 1.21451E-01 1.98269E-01-1.10159E-01-3.81917E-14 6.61360E-13
 -1      1173 2.28121E+01 7.96015E-02 1.20660E-01-1.90280E-01 4.28815E-14 7.70162E-13
 -1      1174 1.92185E+01-2.96648E-02-6.65402E-02-2.14847E-01 1.67644E-14 8.04856E-13
 -1      1175 1.60520E+01-1.50558E-01-2.65098E-01-1.37111E-01-8.72497E-14 2.70450E-13
 -1      1176 1.46910E+01-1.87431E-01-3.22774E-01 1.51696E-02 1.47798E-14-1.78028E-13
 -1      1177 1.55397E+01-1.06770E-01-1.89324E-01 1.43643E-01 4.15206E-15-7.45515E-14
 -1      1178 1.76759E+01 1.60440E-02 1.85568E-02 1.72299E-01 6.30748E-14-1.71196E-13
 -1      1179 1.96683E+01 8.74768E-02 1.47626E-01 1.13521E-01 5.19307E-14 2.16355E-14
 -1      1180 2.06273E+01 8.57962E-02 1.49394E-01 3.12353E-02-2.37657E-16-3.14325E-13
 -1      1181 2.05571E+01 3.56313E-02 6.66042E-02-1.85375E-02 6.14868E-14 1.66143E-13
 -1      1182 2.00962E+01-1.96308E-02-8.80578E-03-9.42306E-03-3.66332E-14-2.64878E-13
 -1      1183 1.99434E+01 2.15194E-02 4.42807E-02 1.89693E-02 5.01287E-14 5.88657E-14
 -1      1184 2.77935E+01 5.25749E-01 3.76947E-01 1.96666E+00-3.40630E-14 2.96752E-12
 -1      1185 2.00869E+01-6.62504E-02-5.73636E-01 1.29451E-01 1.96371E-14 2.34193E-12
 -1      1186 1.89102E+01-4.06166E-02-1.93235E-01 1.94059E-02 2.26468E-14 1.70761E-12
 -1      1187 1.85310E+01-2.14327E-02-5.05748E-02 1.45292E-03 1.50891E-14 1.30881E-12
 -1      1188 1.84601E+01-1.24232E-02-1.34326E-02-4.08540E-03 1.47907E-15 1.05509E-12
 -1      1189 1.85359E+01-7.41644E-03-4.68898E-03-5.54644E-03 2.01419E-14 8.04534E-13
 -1      1190 1.86802E+01-4.33522E-03-1.95453E-03-5.74183E-03-2.57303E-15 6.44255E-13
 -1      1191 1.88514E+01-2.35890E-03-3.61496E-04-5.46833E-03-1.48124E-15 6.14829E-13
 -1      1192 1.90264E+01-1.07889E-03 7.65024E-04-4.97933E-03 1.22423E-15 4.35476E-13
 -1      1193 1.91920E+01-2.63338E-04 1.48723E-03-4.38910E-03 7.64375E-15 3.18631E-13
 -1      1194 1.93412E+01 2.34663E-04 1.86964E-03-3.76438E-03 1.45287E-14 1.97049E-13
 -1      1195 1.94707E+01 5.13418E-04 1.99948E-03-3.14729E-03 1.36271E-16 1.37391E-13
 -1      1196 1.95800E+01 6.40176E-04 1.95615E-03-2.56311E-03 1.19552E-14 5.18995E-14
 -1      1197 1.96701E+01 6.60885E-04 1.79959E-03-2.02493E-03-8.86335E-18-1.21237E-13
 -1      1198 1.97427E+01 6.06020E-04 1.57046E-03-1.53693E-03 5.06694E-15-2.39767E-13
 -1      1199 1.98003E+01 4.94302E-04 1.29325E-03-1.09705E-03 5.33162E-15-3.75458E-13
 -1      1200 1.98459E+01 3.35238E-04 9.79268E-04-6.99063E-04-1.49248E-14-2.53523E-13
 -1      1201 1.98823E+01 1.30976E-04 6.29061E-04-3.34367E-04 1.14163E-14-1.24743E-13
 -1      1202 1.99129E+01-1.22210E-04 2.34331E-04 6.39983E-06 3.26757E-15-2.68227E-13
 -1      1203 1.99411E+01-4.32564E-04-2.20398E-04 3.31782E-04 1.62829E-14-4.59179E-13
 -1      1204 1.99706E+01-8.11365E-04-7.56097E-04 6.47795E-04 1.89289E-15-5.51466E-13
 -1      1205 2.00059E+01-1.27099E-03-1.39716E-03 9.55864E-04-2.16974E-14-3.17484E-13
 -1      1206 2.00519E+01-1.82204E-03-2.16833E-03 1.25015E-03 2.29391E-14-4.67216E-13
 -1      1207 2.01142E+01-2.46895E-03-3.08980E-03 1.51396E-03-1.64766E-15-5.97552E-13
 -1      1208 2.01996E+01-3.20309E-03-4.16912E-03 1.71496E-03 1.32875E-14-5.92792E-13
 -1      1209 2.03154E+01-3.99232E-03-5.38810E-03 1.79896E-03 4.33383E-15-3.42880E-13
 -1      1210 2.04698E+01-4.76537E-03-6.68195E-03 1.68232E-03-4.31004E-14-2.37759E-13
 -1      1211 2.06710E+01-5.38989E-03-7.90731E-03 1.24392E-03-1.06226E-14-4.48134E-13
 -1      1212 2.09262E+01-5.64402E-03-8.79588E-03 3.19429E-04-1.43008E-14-4.84930E-13
 -1      1213 2.12398E+01-5.18513E-03-8.89332E-03-1.29543E-03-2.10093E-14-7.20506E-13
 -1      1214 2.16100E+01-3.52847E-03-7.49316E-03-3.81923E-03-1.07496E-14-8.52259E-13
 -1      1215 2.20244E+01-6.59375E-05-3.60013E-03-7.41274E-03 2.59646E-14-9.86360E-13
 -1      1216 2.24536E+01 5.81703E-03 3.99446E-03-1.20260E-02-1.93026E-15-8.18158E-13
 -1      1217 2.28434E+01 1.44404E-02 1.63726E-02-1.71329E-02-5.01141E-14-5.86088E-13
 -1      1218 2.31089E+01 2.52692E-02 3.36844E-02-2.13707E-02-2.35185E-14-5.87316E-13
 -1      1219 2.31336E+01 3.61602E-02 5.37937E-02-2.22526E-02 2.29287E-14-8.60806E-13
 -1      1220 2.27838E+01 4.28681E-02 7.08175E-02-1.63982E-02 5.59509E-14-1.27943E-12
 -1      1221 2.19484E+01 3.98239E-02 7.50327E-02-9.30139E-04 1.71430E-14-1.15087E-12
 -1      1222 2.06049E+01 2.31182E-02 5.63493E-02 2.37441E-02-1.12558E-14-9.83692E-13
 -1      1223 1.88920E+01-5.05616E-03 1.19336E-02 5.11709E-02 5.42305E-14-1.00611E-12
 -1      1224 1.71339E+01-3.43687E-02-4.63506E-02 6.94105E-02-9.21407E-14-6.16229E-13
 -1      1225 1.57605E+01-5.11631E-02-9.36887E-02 6.72278E-02-1.43973E-14-3.20112E-13
 -1      1226 1.51232E+01-4.83227E-02-1.07055E-01 4.29167E-02 4.50438E-14-6.35230E-13
 -1      1227 1.53150E+01-3.08013E-02-8.25647E-02 7.28895E-03 1.88599E-14-9.28008E-13
 -1      1228 1.61323E+01-1.09536E-02-3.85109E-02-2.33126E-02 9.33585E-15-1.25329E-12
 -1      1229 1.72129E+01 1.20843E-03-5.18029E-04-3.82537E-02 4.81129E-14-1.72077E-12
 -1      1230 1.82416E+01 4.65618E-03 1.78256E-02-3.88051E-02 4.39753E-14-2.02648E-12
 -1      1231 1.90740E+01 8.17571E-03 2.48662E-02-3.52277E-02 2.97037E-14-1.57316E-12
 -1      1232 1.96915E+01 2.23525E-02 4.06653E-02-3.54518E-02 6.65472E-14-1.35549E-12
 -1      1233 1.99859E+01 7.40886E-03 3.13287E-02-4.23581E-03-4.85827E-14-6.56259E-13
 -1      1234 2.00009E+01-1.96845E-02 2.40159E-02-9.54016E-03-6.55018E-13-1.11454E-14
 -1      1235 2.00011E+01-3.38752E-01 1.21911E-02-3.91016E-02-6.57113E-14-2.99616E-14
 -1      1236 1.99610E+01-8.11690E-01-5.33657E-02-4.51322E-02 7.81084E-13 7.09016E-14
 -1      1237 1.99188E+01-9.29677E-01-1.24841E-01-2.07232E-02 6.78272E-13 4.40143E-14
 -1      1238 1.98878E+01-2.18060E-01-1.78839E-01 3.04060E-02 1.34883E-12 1.03913E-13
 -1      1239 1.98843E+01 1.65935E+00-1.84178E-01 1.02523E-01 1.09626E-12 7.69836E-14
 -1      1240 1.99363E+01 4.74920E+00-1.04262E-01 1.71426E-01 1.35586E-12 9.02551E-14
 -1      1241 2.00456E+01 8.56265E+00 6.76972E-02 1.98982E-01 1.16046E-12-7.91103E-14
 -1      1242 2.01728E+01 1.19305E+01 2.64056E-01 1.45652E-01 1.25092E-12 1.12847E-13
 -1      1243 2.02388E+01 1.35268E+01 3.64555E-01 1.88995E-02 1.43330E-12-1.85192E-13
 -1      1244 2.01934E+01 1.26693E+01 2.96825E-01-1.15974E-01 6.26554E-13-2.26477E-13
 -1      1245 2.00787E+01 9.84499E+00 1.14533E-01-1.87421E-01-3.43253E-13 3.92316E-14
 -1      1246 1.99612E+01 6.27494E+00-6.57851E-02-1.74516E-01-8.53345E-13 3.56165E-14
 -1      1247 1.99010E+01 3.12732E+00-1.61895E-01-1.11191E-01 8.92342E-14 9.72139E-14
 -1      1248 1.99015E+01 1.02561E+00-1.73935E-01-5.83268E-02 3.81278E-13-1.64065E-13
 -1      1249 1.98915E+01 1.18822E-01-1.15714E-01 2.13463E-02 3.36059E-14-1.70467E-13
 -1      1250 2.00184E+01-5.69169E-02 2.20345E-02 1.93520E-02-4.54220E-14 1.38994E-13
 -1      1251-1.56963E+00-2.86058E+01-4.45397E+00-2.72876E+00-3.11584E-12-3.63078E-13
 -1      1252-2.10782E+00-1.77843E+01-3.58395E+00-4.69204E+00-2.02105E-12-4.46976E-13
 -1      1253 1.06335E+00-2.11189E+00-1.80115E+00 5.43199E-01-5.30465E-13-1.67533E-13
 -1      1254 1.26877E+01 9.55883E+00 2.43246E-01 1.07370E+01 9.87432E-13 1.36136E-12
 -1      1255 3.18613E+01 1.25140E+01 2.13070E+00 1.87066E+01 1.65234E-12 2.77867E-12
 -1      1256 5.32652E+01 8.51702E+00 3.62365E+00 1.91549E+01 9.65950E-13 2.43339E-12
 -1      1257 6.84645E+01 3.35281E+00 4.38211E+00 9.68371E+00 3.49415E-13 1.41642E-12
 -1      1258 7.09573E+01 1.91725E+00 4.46514E+00-4.35124E+00 8.62990E-14-5.43454E-13
 -1      1259 5.87716E+01 5.73750E+00 3.66423E+00-1.53861E+01 2.89241E-13-1.11089E-12
 -1      1260 3.88143E+01 1.04246E+01 2.38229E+00-1.87756E+01 8.55427E-13-1.64180E-12
 -1      1261 1.87430E+01 1.09829E+01 7.44585E-01-1.38090E+01 1.42553E-12-1.70730E-12
 -1      1262 4.94794E+00 4.66782E+00-9.00554E-01-4.96171E+00 1.90647E-12-1.46949E-12
 -1      1263-1.10673E+00-7.09966E+00-2.30285E+00 2.30834E+00 8.55094E-13-6.86118E-13
 -1      1264-1.81782E+00-2.00576E+01-3.42845E+00 4.45527E+00-4.39648E-14 6.93334E-14
 -1      1265-1.24650E+00-2.73122E+01-3.90243E+00 1.11399E+00-9.27036E-14 9.73735E-14
 -1      1266-1.56834E+00-2.59324E+01-3.92928E+00-3.74617E+00-1.23901E-13-7.87703E-14
 -1      1267-2.38919E+00-1.52055E+01-3.14571E+00-4.79273E+00-9.42801E-13-4.93106E-13
 -1      1268 9.84206E-01-1.58454E+00-1.83847E+00 4.90514E-01-1.07470E-12-7.48956E-13
 -1      1269 1.21160E+01 8.16467E+00-1.35381E-01 9.79706E+00-8.13793E-13-9.40803E-13
 -1      1270 3.06103E+01 1.04196E+01 1.63664E+00 1.70178E+01-9.85989E-13-1.54166E-12
 -1      1271 5.20369E+01 7.18527E+00 3.25584E+00 1.72182E+01-5.88751E-13-1.72573E-12
 -1      1272 6.86752E+01 2.81215E+00 4.44359E+00 9.02632E+00-2.22468E-13-1.24356E-12
 -1      1273 7.27145E+01 2.24156E+00 4.78783E+00-4.42489E+00-2.43833E-14-2.83218E-13
 -1      1274 6.29129E+01 5.95719E+00 4.27329E+00-1.65755E+01 1.23179E-13-1.75748E-13
 -1      1275 4.29689E+01 1.14389E+01 2.97761E+00-2.06374E+01-2.55351E-14-2.52021E-13
 -1      1276 2.22788E+01 1.26129E+01 1.27526E+00-1.61068E+01-5.26024E-13 4.02123E-13
 -1      1277 6.83948E+00 6.60215E+00-6.24115E-01-6.77223E+00-4.40536E-13 6.34603E-13
 -1      1278-6.82534E-01-5.75194E+00-2.36507E+00 1.68993E+00-3.39506E-13 1.87628E-13
 -1      1279-2.15130E+00-1.98884E+01-3.74161E+00 5.10778E+00-2.62235E-13 1.71529E-14
 -1      1280-1.28325E+00-2.97159E+01-4.58862E+00 2.49351E+00-2.14506E-12 2.09277E-14
 -1      1281 2.22680E+01 1.83826E+00-7.25889E-01-2.79052E+00-7.19425E-14 1.42969E-12
 -1      1282 2.03604E+01 4.69031E+00-4.86363E-02-3.30675E+00-2.12871E-13 2.80886E-14
 -1      1283 2.08679E+01 4.81080E+00-1.13353E-01-4.16104E+00-2.69423E-13 3.51871E-13
 -1      1284 1.95321E+01 4.99327E+00-1.96940E-02-2.65407E+00-2.14544E-13-4.29119E-13
 -1      1285 1.98306E+01 5.09025E+00 2.64776E-04-3.04520E+00-2.43548E-13-2.29899E-13
 -1      1286 2.05271E+01 3.95276E+00-2.58911E-02-3.07474E+00-3.73465E-13 3.19744E-14
 -1      1287 1.91842E+01 5.08444E+00-3.55427E-03-2.07040E+00-1.76470E-13-6.60822E-13
 -1      1288 1.93330E+01 5.13969E+00 1.05601E-02-2.36321E+00-2.00381E-13-5.57918E-13
 -1      1289 1.97537E+01 4.36590E+00-2.45146E-02-2.48895E+00-3.37501E-13-3.46320E-13
 -1      1290 1.90090E+01 5.13080E+00 3.26982E-03-1.56426E+00-1.34399E-13-7.71973E-13
 -1      1291 1.90869E+01 5.16043E+00 1.25477E-02-1.81429E+00-1.51898E-13-7.22832E-13
 -1      1292 1.93917E+01 4.55489E+00-2.00499E-02-1.93163E+00-2.71725E-13-5.50920E-13
 -1      1293 1.89150E+01 5.16067E+00 6.50803E-03-1.11674E+00-9.28623E-14-8.20082E-13
 -1      1294 1.89576E+01 5.17703E+00 1.26718E-02-1.33813E+00-1.06534E-13-7.96673E-13
 -1      1295 1.92055E+01 4.66158E+00-1.61267E-02-1.44418E+00-1.97065E-13-6.32980E-13
 -1      1296 1.88634E+01 5.18037E+00 8.17613E-03-6.93666E-01-5.35596E-14-8.32582E-13
 -1      1297 1.88864E+01 5.18923E+00 1.19544E-02-9.03825E-01-6.53479E-14-8.27871E-13
 -1      1298 1.91022E+01 4.72690E+00-1.40408E-02-1.00407E+00-1.35456E-13-6.80383E-13
 -1      1299 1.88394E+01 5.19225E+00 9.27805E-03-2.89098E-01-9.70946E-15-8.43110E-13
 -1      1300 1.88493E+01 5.19609E+00 1.10534E-02-4.91150E-01-2.21468E-14-8.36567E-13
 -1      1301 1.90463E+01 4.76573E+00-1.29364E-02-5.88674E-01-6.39780E-14-6.90677E-13
 -1      1302 1.88356E+01 5.19719E+00 1.02121E-02 1.08176E-01 2.45704E-14-8.40399E-13
 -1      1303 1.88353E+01 5.19705E+00 1.01401E-02-9.14267E-02 1.09950E-14-8.43022E-13
 -1      1304 1.90221E+01 4.78373E+00-1.24794E-02-1.89061E-01 4.10192E-15-7.10817E-13
 -1      1305 1.88510E+01 5.19573E+00 1.11517E-02 5.08483E-01 5.84931E-14-8.29963E-13
 -1      1306 1.88404E+01 5.19161E+00 9.21609E-03 3.06010E-01 4.59251E-14-8.40146E-13
 -1      1307 1.90229E+01 4.78310E+00-1.24956E-02 2.05716E-01 5.69096E-14-7.04159E-13
 -1      1308 1.88898E+01 5.18808E+00 1.20875E-02 9.22639E-01 9.07642E-14-7.96174E-13
 -1      1309 1.88659E+01 5.17903E+00 8.12434E-03 7.11516E-01 7.85487E-14-8.17223E-13
 -1      1310 1.90490E+01 4.76367E+00-1.29817E-02 6.06002E-01 1.11164E-13-6.89084E-13
 -1      1311 1.89619E+01 5.17514E+00 1.28972E-02 1.35577E+00 1.30854E-13-7.34836E-13
 -1      1312 1.89185E+01 5.15836E+00 6.43886E-03 1.13292E+00 1.13846E-13-7.69163E-13
 -1      1313 1.91066E+01 4.72327E+00-1.40027E-02 1.01922E+00 1.72588E-13-6.44134E-13
 -1      1314 1.90949E+01 5.15673E+00 1.28293E-02 1.84038E+00 1.82156E-13-6.27352E-13
 -1      1315 1.90152E+01 5.12634E+00 3.13446E-03 1.58760E+00 1.61272E-13-6.91697E-13
 -1      1316 1.92123E+01 4.65491E+00-1.61471E-02 1.46227E+00 2.38326E-13-5.74717E-13
 -1      1317 1.93439E+01 5.13353E+00 1.01787E-02 2.39748E+00 2.35499E-13-4.45630E-13
 -1      1318 1.91936E+01 5.07637E+00-4.38353E-03 2.10020E+00 2.10561E-13-5.57235E-13
 -1      1319 1.94053E+01 4.54248E+00-1.99845E-02 1.95792E+00 3.21312E-13-4.57519E-13
 -1      1320 1.98559E+01 5.09952E+00 6.06573E-03 3.08364E+00 2.70686E-13-9.06358E-14
 -1      1321 1.95437E+01 4.98448E+00-2.05445E-02 2.69623E+00 2.41994E-13-3.04277E-13
 -1      1322 1.97750E+01 4.34648E+00-2.45579E-02 2.52779E+00 3.87166E-13-2.43916E-13
 -1      1323 2.11040E+01 4.90707E+00 8.32903E-03 4.05379E+00 2.36117E-13 6.04711E-13
 -1      1324 2.03349E+01 4.73392E+00-4.79634E-02 3.41607E+00 2.26083E-13 1.78767E-13
 -1      1325 2.05651E+01 3.91597E+00-2.24045E-02 3.17818E+00 4.03056E-13 1.57180E-13
 -1      1326 2.72036E+01 3.20542E+00 9.29020E-01 4.58223E+00 1.20390E-13 1.94034E-12
 -1      1327 2.20208E+01 3.52223E+00-1.81995E-01 3.88489E+00 1.19765E-13 1.00991E-12
 -1      1328 2.21132E+01 2.56180E+00-3.25393E-02 3.45643E+00 3.84914E-13 7.89119E-13
 -1      1329 2.14278E+01 3.59570E-01-7.63534E-01 1.18376E+00 2.11185E-13 1.85579E-12
 -1      1330 2.20022E+01 1.31409E-01-4.00894E-01-1.28555E+00-2.21156E-13 1.49064E-12
 -1      1331 2.06797E+01 3.06701E-01-1.64839E-01-8.05611E-01-2.18214E-13 1.22554E-12
 -1      1332 2.00821E+01 1.53475E-01-7.35257E-02-4.02009E-01-1.75634E-13 1.11158E-12
 -1      1333 1.96124E+01 9.11673E-02-1.49298E-02-3.29861E-01-1.56493E-13 8.67473E-13
 -1      1334 2.09735E+01 3.69037E-01-1.04290E-01-1.27362E+00-3.68643E-13 6.61443E-13
 -1      1335 1.92551E+01 6.44945E-02 3.03249E-03-1.35271E-01-1.18132E-13 7.78207E-13
 -1      1336 1.91009E+01 4.12669E-02 1.32122E-02-1.17477E-01-1.15269E-13 6.14050E-13
 -1      1337 1.99229E+01 1.33888E-01-3.51481E-02-5.03799E-01-2.69222E-13 4.78286E-13
 -1      1338 1.89406E+01 3.15429E-02 1.32254E-02-2.79400E-02-8.43275E-14 5.32387E-13
 -1      1339 1.89213E+01 1.94020E-02 1.10403E-02-1.85491E-02-8.84605E-14 4.12378E-13
 -1      1340 1.94458E+01 5.54483E-02-8.53705E-03-1.69873E-01-2.06285E-13 3.23777E-13
 -1      1341 1.88653E+01 1.60193E-02 8.76187E-03 2.51229E-02-6.03790E-14 3.61338E-13
 -1      1342 1.89078E+01 9.07491E-03 6.42734E-03 2.97544E-02-5.37868E-14 2.90688E-13
 -1      1343 1.92370E+01 2.44213E-02-3.51932E-03-1.09754E-02-1.50312E-13 1.90379E-13
 -1      1344 1.89079E+01 7.85080E-03 4.66475E-03 5.09121E-02-4.10955E-14 2.74723E-13
 -1      1345 1.89783E+01 3.49311E-03 3.63818E-03 5.27980E-02-4.62332E-14 2.17367E-13
 -1      1346 1.91803E+01 1.01880E-02-2.22118E-03 6.77243E-02-9.66070E-14 1.07877E-13
 -1      1347 1.90078E+01 3.17732E-03 2.43811E-03 6.15719E-02-6.81279E-14 1.87697E-13
 -1      1348 1.90884E+01 3.16318E-04 2.20826E-03 6.18334E-02-6.46924E-14 7.32660E-14
 -1      1349 1.92065E+01 2.75801E-03-1.32187E-03 1.04517E-01-1.05196E-13 5.21631E-14
 -1      1350 1.91320E+01 4.28251E-04 1.32862E-03 6.34846E-02-5.85056E-14 4.45390E-14
 -1      1351 1.92128E+01-1.48343E-03 1.43666E-03 6.27937E-02-6.56233E-14-7.30327E-14
 -1      1352 1.92756E+01-1.32737E-03-5.54719E-04 1.17720E-01-1.18870E-13 1.18247E-14
 -1      1353 1.92613E+01-1.16208E-03 7.44222E-04 6.03629E-02-5.97695E-14-1.05368E-13
 -1      1354 1.93369E+01-2.43313E-03 9.68221E-04 5.91505E-02-5.72110E-14-1.60330E-13
 -1      1355 1.93637E+01-3.53729E-03 6.68699E-06 1.17294E-01-1.19820E-13-2.71176E-14
 -1      1356 1.93849E+01-2.01720E-03 4.08497E-04 5.45190E-02-4.94098E-14-1.65460E-13
 -1      1357 1.94523E+01-2.84018E-03 6.57286E-04 5.30683E-02-7.20067E-15-2.19137E-13
 -1      1358 1.94567E+01-4.60602E-03 3.61508E-04 1.09178E-01-7.20834E-14-3.57821E-14
 -1      1359 1.94968E+01-2.39536E-03 2.05450E-04 4.74390E-02 2.77640E-14-2.58809E-13
 -1      1360 1.95549E+01-2.89957E-03 4.42799E-04 4.59350E-02 1.46678E-14-2.23568E-13
 -1      1361 1.95463E+01-4.95587E-03 5.53905E-04 9.71115E-02-2.09145E-14-7.85901E-14
 -1      1362 1.95944E+01-2.46388E-03 8.26881E-05 4.00828E-02-3.01409E-14-2.53915E-13
 -1      1363 1.96431E+01-2.73996E-03 2.94558E-04 3.86439E-02-5.42064E-14-3.05791E-13
 -1      1364 1.96278E+01-4.85255E-03 6.31671E-04 8.34997E-02-2.50616E-14-2.12472E-13
 -1      1365 1.96770E+01-2.33402E-03 1.24874E-05 3.30623E-02-3.35866E-14-3.07537E-13
 -1      1366 1.97169E+01-2.44645E-03 1.94643E-04 3.17615E-02-1.73681E-14-3.26205E-13
 -1      1367 1.96991E+01-4.47013E-03 6.32526E-04 6.98890E-02-5.06137E-14-2.08584E-13
 -1      1368 1.97454E+01-2.07922E-03-2.19629E-05 2.67590E-02-1.62147E-14-3.48372E-13
 -1      1369 1.97775E+01-2.07350E-03 1.31205E-04 2.56396E-02-3.55945E-14-3.70776E-13
 -1      1370 1.97599E+01-3.92236E-03 5.83111E-04 5.72602E-02-5.90494E-14-2.67890E-13
 -1      1371 1.98010E+01-1.74570E-03-3.16359E-05 2.14071E-02-7.86570E-14-3.80596E-13
 -1      1372 1.98266E+01-1.65288E-03 9.60829E-05 2.04948E-02-7.92379E-14-4.82913E-13
 -1      1373 1.98106E+01-3.28003E-03 5.01048E-04 4.62261E-02-8.42990E-14-3.45366E-13
 -1      1374 1.98461E+01-1.35915E-03-2.39203E-05 1.71552E-02-2.67506E-14-5.39534E-13
 -1      1375 1.98664E+01-1.19905E-03 8.36477E-05 1.64667E-02-1.84314E-14-5.75773E-13
 -1      1376 1.98527E+01-2.58164E-03 3.97021E-04 3.71732E-02-9.01359E-14-3.37876E-13
 -1      1377 1.98829E+01-9.29268E-04-3.85881E-06 1.41137E-02 3.25445E-14-5.93930E-13
 -1      1378 1.98995E+01-7.12853E-04 9.01311E-05 1.36643E-02-3.83680E-15-5.54160E-13
 -1      1379 1.98879E+01-1.84055E-03 2.76373E-04 3.03690E-02 9.40190E-15-3.83467E-13
 -1      1380 1.99141E+01-4.52820E-04 2.50501E-05 1.23926E-02 1.32818E-14-5.56224E-13
 -1      1381 1.99288E+01-1.84145E-04 1.13172E-04 1.22021E-02 4.31790E-14-5.10116E-13
 -1      1382 1.99184E+01-1.04992E-03 1.40247E-04 2.60449E-02-6.01681E-15-4.33810E-13
 -1      1383 1.99429E+01 8.42365E-05 6.02583E-05 1.21320E-02 7.91538E-14-5.10642E-13
 -1      1384 1.99573E+01 4.06455E-04 1.51469E-04 1.22294E-02 5.72655E-14-4.06126E-13
 -1      1385 1.99467E+01-1.85956E-04-1.35815E-05 2.44628E-02 6.71486E-14-4.66133E-13
 -1      1386 1.99725E+01 7.05436E-04 9.96605E-05 1.35285E-02 1.68775E-14-3.93969E-13
 -1      1387 1.99888E+01 1.08640E-03 2.04452E-04 1.39568E-02 2.28408E-15-3.61633E-13
 -1      1388 1.99756E+01 7.90045E-04-1.90116E-04 2.59712E-02 5.34811E-14-3.48522E-13
 -1      1389 2.00069E+01 1.44305E-03 1.41077E-04 1.68586E-02 5.77144E-14-2.66392E-13
 -1      1390 2.00274E+01 1.89050E-03 2.71897E-04 1.76789E-02 6.14927E-14-1.67685E-13
 -1      1391 2.00084E+01 1.93065E-03-3.96707E-04 3.10527E-02 1.09325E-13-2.63563E-13
 -1      1392 2.00506E+01 2.33773E-03 1.81633E-04 2.25003E-02 7.72982E-16-1.47270E-13
 -1      1393 2.00782E+01 2.86032E-03 3.53379E-04 2.37958E-02-9.64176E-15-1.51668E-13
 -1      1394 2.00492E+01 3.30200E-03-6.42735E-04 4.03680E-02 3.89322E-14-2.13798E-13
 -1      1395 2.01091E+01 3.43817E-03 2.16915E-04 3.09533E-02-5.74244E-14-1.42512E-13
 -1      1396 2.01473E+01 4.04332E-03 4.47404E-04 3.28337E-02-6.41284E-14-2.27344E-13
 -1      1397 2.01024E+01 4.98383E-03-9.39325E-04 5.47957E-02-5.99037E-14-1.08595E-13
 -1      1398 2.01891E+01 4.80029E-03 2.39743E-04 4.28571E-02-1.15740E-14-2.65496E-13
 -1      1399 2.02422E+01 5.49069E-03 5.49974E-04 4.54619E-02-1.25009E-14-3.00299E-13
 -1      1400 2.01737E+01 7.06889E-03-1.29897E-03 7.54674E-02-7.85950E-14-1.17727E-13
 -1      1401 2.02985E+01 6.48457E-03 2.38341E-04 5.90018E-02-6.52528E-14-2.79482E-13
 -1      1402 2.03720E+01 7.25222E-03 6.52238E-04 6.25029E-02-7.53740E-14-3.68595E-13
 -1      1403 2.02698E+01 9.66000E-03-1.73489E-03 1.03793E-01-5.27098E-14-2.12048E-13
 -1      1404 2.04473E+01 8.54920E-03 1.93670E-04 8.03236E-02-1.93481E-14-4.20115E-13
 -1      1405 2.05477E+01 9.36470E-03 7.36781E-04 8.49243E-02 3.02534E-14-4.34154E-13
 -1      1406 2.03986E+01 1.28610E-02-2.25972E-03 1.41459E-01-7.78498E-14-1.64593E-13
 -1      1407 2.06474E+01 1.10341E-02 7.58304E-05 1.07863E-01 3.05958E-14-4.35409E-13
 -1      1408 2.07825E+01 1.18274E-02 7.72257E-04 1.13788E-01-4.62304E-15-4.17065E-13
 -1      1409 2.05698E+01 1.67538E-02-2.88281E-03 1.90376E-01 2.73006E-14-4.12591E-13
 -1      1410 2.09126E+01 1.39265E-02-1.59870E-04 1.42648E-01 2.25523E-14-4.28904E-13
 -1      1411 2.10916E+01 1.45527E-02 7.06958E-04 1.50115E-01 7.09758E-14-3.86450E-13
 -1      1412 2.07942E+01 2.13472E-02-3.60481E-03 2.52498E-01 1.91431E-14-4.75531E-13
 -1      1413 2.12585E+01 1.70923E-02-5.74570E-04 1.85419E-01 8.97767E-14-3.13100E-13
 -1      1414 2.14915E+01 1.72724E-02 4.64740E-04 1.94570E-01 9.10695E-14-2.03523E-13
 -1      1415 2.10839E+01 2.64700E-02-4.40648E-03 3.29418E-01 1.25047E-13-3.41928E-13
 -1      1416 2.17014E+01 2.01441E-02-1.23759E-03 2.36061E-01 5.52063E-14-7.93809E-14
 -1      1417 2.19980E+01 1.93700E-02-4.64965E-05 2.46820E-01 2.62698E-14 5.97153E-14
 -1      1418 2.14513E+01 3.15620E-02-5.22645E-03 4.21493E-01 1.45192E-13-2.57192E-13
 -1      1419 2.22555E+01 2.22096E-02-2.19052E-03 2.92526E-01 3.42515E-14 1.43476E-13
 -1      1420 2.26224E+01 1.96058E-02-8.91021E-04 3.04314E-01 3.95239E-14 1.67533E-13
 -1      1421 2.19071E+01 3.52971E-02-5.91773E-03 5.26180E-01 6.14985E-14 1.69144E-14
 -1      1422 2.29278E+01 2.15606E-02-3.35075E-03 3.48911E-01 7.30535E-16 4.86451E-14
 -1      1423 2.33626E+01 1.57314E-02-1.98781E-03 3.60137E-01-5.55103E-14 7.59254E-14
 -1      1424 2.24566E+01 3.49670E-02-6.16810E-03 6.35038E-01-7.20817E-14 3.73000E-14
 -1      1425 2.37077E+01 1.51309E-02-4.31259E-03 3.92430E-01-8.08172E-14 8.87866E-14
 -1      1426 2.41901E+01 4.12119E-03-2.88735E-03 3.99664E-01-2.86923E-15 1.39194E-14
 -1      1427 2.30935E+01 2.56515E-02-5.37111E-03 7.28870E-01-5.89923E-14 1.13325E-13
 -1      1428 2.45518E+01-1.81647E-03-4.05331E-03 3.99452E-01 4.85751E-14 1.43344E-13
 -1      1429 2.50285E+01-2.00768E-02-2.50037E-03 3.96369E-01 1.04428E-13 2.25191E-13
 -1      1430 2.37897E+01-4.20069E-04-2.46998E-03 7.71028E-01 5.50520E-14 2.17487E-13
 -1      1431 2.53606E+01-3.50134E-02-7.52296E-04 3.32487E-01 9.74750E-14 2.22922E-13
 -1      1432 2.57282E+01-6.10191E-02 9.03887E-04 3.09216E-01 2.17118E-14 3.20256E-13
 -1      1433 2.44815E+01-5.29314E-02 4.07583E-03 7.01086E-01 1.64857E-13 2.49730E-13
 -1      1434 2.59550E+01-8.75272E-02 7.62459E-03 1.43883E-01-1.57097E-14 3.35816E-13
 -1      1435 2.60515E+01-1.16390E-01 8.56507E-03 8.88160E-02 3.17767E-14 3.49328E-13
 -1      1436 2.50547E+01-1.37861E-01 1.57737E-02 4.36559E-01 5.34815E-14 1.21939E-13
 -1      1437 2.60690E+01-1.50898E-01 2.07171E-02-2.02392E-01 1.03339E-13 4.06670E-13
 -1      1438 2.57004E+01-1.67183E-01 1.85116E-02-2.94706E-01 9.87058E-15 4.13718E-13
 -1      1439 2.53364E+01-2.43092E-01 3.21899E-02-1.00564E-01 5.57488E-14 1.99262E-13
 -1      1440 2.54007E+01-1.92605E-01 3.20699E-02-6.80159E-01-7.20899E-14 6.02650E-13
 -1      1441 2.44341E+01-1.70235E-01 2.26319E-02-7.92616E-01 1.51563E-14 5.76372E-13
 -1      1442 2.51148E+01-3.18970E-01 4.71156E-02-9.11429E-01 2.60209E-15 3.29188E-13
 -1      1443 2.37701E+01-1.56630E-01 2.82412E-02-1.13736E+00 2.21767E-14 5.66686E-13
 -1      1444 2.22912E+01-7.62194E-02 8.76712E-03-1.21594E+00-4.96651E-14 6.00117E-13
 -1      1445 2.42202E+01-2.76443E-01 4.65202E-02-1.80862E+00 6.39436E-14 5.56478E-13
 -1      1446 2.13740E+01-6.80345E-03-1.01813E-03-1.29969E+00-4.35429E-14 5.24317E-13
 -1      1447 1.97976E+01 1.08939E-01-2.57935E-02-1.27286E+00-2.10724E-13 3.06172E-13
 -1      1448 2.26882E+01-5.15511E-02 1.40591E-02-2.36216E+00-1.28348E-13 4.47253E-13
 -1      1449 1.89454E+01 1.94636E-01-4.29789E-02-9.50156E-01-2.56115E-13 2.39753E-13
 -1      1450 1.78834E+01 2.73450E-01-5.93798E-02-8.01425E-01-1.63331E-13-4.54914E-14
 -1      1451 2.09321E+01 2.79961E-01-4.59494E-02-2.09546E+00-3.12358E-13 9.40220E-15
 -1      1452 1.74637E+01 2.98518E-01-6.33236E-02-1.98136E-01-6.37788E-14-1.63206E-13
 -1      1453 1.73267E+01 2.78963E-01-6.02455E-02-1.22726E-02-5.96606E-14-2.43607E-13
 -1      1454 1.96594E+01 4.98966E-01-9.12659E-02-9.54621E-01-2.29948E-13-6.47980E-14
 -1      1455 1.74556E+01 2.15118E-01-4.33574E-02 5.10558E-01-2.20796E-14-1.58075E-13
 -1      1456 1.81268E+01 1.17003E-01-2.36354E-02 6.12256E-01-3.88752E-15-1.84047E-13
 -1      1457 1.93870E+01 4.36775E-01-7.65787E-02 4.45843E-01-1.25802E-14-1.71078E-13
 -1      1458 1.85574E+01 2.67959E-02-3.21021E-03 7.69219E-01 1.06011E-13-1.57957E-13
 -1      1459 1.94965E+01-7.01004E-02 1.74642E-02 7.46667E-01 1.98788E-13-9.35085E-14
 -1      1460 1.99731E+01 1.45492E-01-1.80433E-02 1.26889E+00 5.93223E-14-1.68587E-13
 -1      1461 1.98662E+01-1.15217E-01 2.26864E-02 5.57637E-01 6.33660E-14-3.63598E-14
 -1      1462 2.05428E+01-1.55694E-01 3.37472E-02 4.65565E-01 3.89567E-14-3.79904E-14
 -1      1463 2.07675E+01-1.47376E-01 2.91046E-02 1.19424E+00 1.75008E-13-7.06241E-14
 -1      1464 2.06524E+01-1.42062E-01 2.42998E-02 1.55056E-01 4.30940E-14-2.04239E-13
 -1      1465 2.08629E+01-1.24861E-01 2.67930E-02 6.97281E-02 5.15924E-14-7.54232E-14
 -1      1466 2.12029E+01-2.58196E-01 4.14207E-02 5.58428E-01-3.76262E-15-7.23041E-14
 -1      1467 2.07261E+01-7.73432E-02 1.03750E-02-1.44582E-01 1.15402E-13-8.58352E-14
 -1      1468 2.06039E+01-2.90255E-02 1.05767E-02-1.76321E-01 4.17132E-14-5.82659E-14
 -1      1469 2.11162E+01-1.83104E-01 2.53488E-02-8.75857E-02 4.51687E-14-5.15356E-14
 -1      1470 2.03600E+01 2.11934E-02-4.19850E-03-1.85127E-01-2.07213E-15 4.27245E-14
 -1      1471 2.02055E+01 5.36212E-02 5.50904E-03-1.66760E-01-7.22859E-15-3.77224E-14
 -1      1472 2.06853E+01 5.46494E-03 8.26574E-03-3.62405E-01 6.01186E-14-1.72473E-13
 -1      1473 1.99843E+01 2.89577E-02-5.43026E-03 5.18963E-03-1.46303E-13 6.18583E-14
 -1      1474 2.01672E+01 1.31386E-01-4.21743E-03-1.62421E-01-2.88953E-14-6.10493E-14
 -1      1475 2.02607E+01 7.54737E-02-1.52088E-01 4.83786E-01 1.84908E-13 1.44155E-12
 -1      1476 2.15309E+01 2.16135E-01-2.29286E-01 7.20774E-01 1.67075E-13 1.74126E-12
 -1      1477 2.17294E+01 8.81744E-01-8.54756E-02 2.06471E+00 3.24685E-13 1.12126E-12
 -1      1478 1.93326E+01 3.23809E-02-2.13304E-02 1.85951E-01 1.36407E-13 1.06716E-12
 -1      1479 1.97531E+01 1.13620E-01-6.26974E-02 2.37962E-01 1.27884E-13 1.28547E-12
 -1      1480 2.03043E+01 1.87671E-01-5.51930E-02 7.86056E-01 2.81032E-13 8.42704E-13
 -1      1481 1.89510E+01 1.51060E-02 5.66561E-03 5.34485E-02 7.90791E-14 8.17738E-13
 -1      1482 1.90895E+01 5.16292E-02 9.78315E-04 7.97646E-02 8.61455E-14 9.63764E-13
 -1      1483 1.95594E+01 7.18358E-02-1.21594E-02 2.98869E-01 2.02227E-13 6.20188E-13
 -1      1484 1.88407E+01 7.12379E-03 6.97347E-03-9.05347E-03 8.45391E-14 6.39941E-13
 -1      1485 1.88552E+01 2.58655E-02 1.10874E-02 5.35185E-03 6.45157E-14 7.48769E-13
 -1      1486 1.92242E+01 3.10369E-02-2.46860E-03 8.33726E-02 1.39498E-13 4.44950E-13
 -1      1487 1.88668E+01 3.20949E-03 4.78040E-03-3.93129E-02 6.81267E-14 4.72613E-13
 -1      1488 1.88230E+01 1.38138E-02 8.51824E-03-3.11877E-02 6.58195E-14 5.79686E-13
 -1      1489 1.91077E+01 1.32671E-02-1.62424E-03-2.16175E-02 1.35566E-13 3.44334E-13
 -1      1490 1.89611E+01 1.04882E-03 3.29414E-03-5.27338E-02-4.51614E-15 4.11141E-13
 -1      1491 1.88905E+01 7.28003E-03 5.36617E-03-4.82591E-02 2.07222E-14 4.27004E-13
 -1      1492 1.91090E+01 4.53582E-03-1.63748E-03-7.31014E-02 6.89312E-14 2.80463E-13
 -1      1493 1.90854E+01-2.00380E-04 2.51255E-03-5.66595E-02 4.37462E-14 3.20765E-13
 -1      1494 1.90053E+01 3.44236E-03 3.43034E-03-5.44451E-02 3.09474E-14 3.74561E-13
 -1      1495 1.91717E+01-1.25081E-04-1.38082E-03-9.57044E-02 4.57996E-14 1.91161E-13
 -1      1496 1.92181E+01-9.09112E-04 2.04759E-03-5.51275E-02 3.70165E-14 2.13348E-13
 -1      1497 1.91379E+01 1.10801E-03 2.32783E-03-5.43345E-02 3.97852E-14 2.65367E-13
 -1      1498 1.92636E+01-2.64531E-03-1.00455E-03-1.01837E-01 8.35305E-14 9.79659E-14
 -1      1499 1.93465E+01-1.27259E-03 1.70390E-03-5.05680E-02-4.58462E-16 1.42429E-13
 -1      1500 1.92717E+01-3.02182E-04 1.64930E-03-5.06553E-02 3.58860E-15 1.71732E-13
 -1      1501 1.93656E+01-3.91822E-03-6.61513E-04-9.84969E-02 5.22435E-14 2.57841E-14
 -1      1502 1.94639E+01-1.41085E-03 1.41435E-03-4.45207E-02 2.69378E-14 1.04592E-13
 -1      1503 1.93972E+01-1.11141E-03 1.18943E-03-4.51269E-02 2.70469E-14 1.28725E-13
 -1      1504 1.94664E+01-4.42108E-03-3.96829E-04-8.99512E-02 2.73993E-14-1.97863E-14
 -1      1505 1.95668E+01-1.40321E-03 1.16084E-03-3.79756E-02 2.34419E-14 4.36959E-14
 -1      1506 1.95094E+01-1.52120E-03 8.58450E-04-3.88566E-02 2.77439E-14 8.48501E-14
 -1      1507 1.95598E+01-4.44287E-03-2.07553E-04-7.89104E-02 5.14812E-14 2.73050E-14
 -1      1508 1.96544E+01-1.30314E-03 9.38794E-04-3.15659E-02 6.37615E-14-4.27208E-14
 -1      1509 1.96062E+01-1.66442E-03 6.14719E-04-3.25564E-02 4.39997E-14 4.44414E-15
 -1      1510 1.96426E+01-4.16949E-03-7.88731E-05-6.71200E-02 7.83456E-14-5.75937E-14
 -1      1511 1.97271E+01-1.14614E-03 7.46052E-04-2.56876E-02 4.12868E-14-1.41964E-13
 -1      1512 1.96876E+01-1.63051E-03 4.35063E-04-2.66763E-02 4.94625E-14-7.82551E-14
 -1      1513 1.97136E+01-3.72282E-03 3.27797E-06-5.56967E-02 9.44210E-14-6.64332E-14
 -1      1514 1.97863E+01-9.54542E-04 5.80161E-04-2.05831E-02 2.46967E-14-2.53992E-13
 -1      1515 1.97546E+01-1.47888E-03 3.04339E-04-2.14946E-02 3.22964E-14-1.88899E-13
 -1      1516 1.97732E+01-3.18132E-03 4.95943E-05-4.53441E-02 7.30170E-14-1.58191E-13
 -1      1517 1.98341E+01-7.40649E-04 4.37882E-04-1.64000E-02-4.14851E-14-2.32920E-13
 -1      1518 1.98089E+01-1.24692E-03 2.11728E-04-1.71821E-02-7.51496E-15-2.54941E-13
 -1      1519 1.98225E+01-2.59222E-03 6.74073E-05-3.65001E-02 2.90905E-14-2.14114E-13
 -1      1520 1.98729E+01-5.09066E-04 3.15204E-04-1.32365E-02-6.20664E-14-2.05978E-13
 -1      1521 1.98528E+01-9.55271E-04 1.49185E-04-1.38492E-02-3.55256E-14-2.58082E-13
 -1      1522 1.98632E+01-1.97949E-03 6.10823E-05-2.94450E-02-4.22829E-14-1.77157E-13
 -1      1523 1.99054E+01-2.58416E-04 2.07479E-04-1.11753E-02 7.18365E-14-1.91052E-13
 -1      1524 1.98889E+01-6.11393E-04 1.10615E-04-1.15829E-02 7.34574E-15-1.91686E-13
 -1      1525 1.98974E+01-1.34952E-03 3.23516E-05-2.43823E-02-1.93264E-14-2.34671E-13
 -1      1526 1.99346E+01 1.72195E-05 1.09575E-04-1.03099E-02 2.18996E-14-2.47871E-13
 -1      1527 1.99199E+01-2.12387E-04 9.13623E-05-1.04739E-02 6.69875E-14-2.02715E-13
 -1      1528 1.99275E+01-6.95428E-04-1.94293E-05-2.14996E-02 1.10462E-13-1.59583E-13
 -1      1529 1.99636E+01 3.26996E-04 1.60239E-05-1.07642E-02 3.62400E-14-3.50924E-13
 -1      1530 1.99492E+01 2.52737E-04 8.78219E-05-1.06376E-02 3.82794E-14-2.62666E-13
 -1      1531 1.99563E+01-5.88224E-07-9.70634E-05-2.10151E-02 7.62187E-14-1.77914E-13
 -1      1532 1.99963E+01 6.81907E-04-7.88480E-05-1.27052E-02-6.32737E-14-3.15034E-13
 -1      1533 1.99800E+01 8.00867E-04 9.70986E-05-1.22282E-02-2.75861E-14-3.62707E-13
 -1      1534 1.99869E+01 7.58107E-04-2.05278E-04-2.32104E-02-9.74969E-16-1.79255E-13
 -1      1535 2.00368E+01 1.09302E-03-1.80742E-04-1.63492E-02 2.30112E-14-2.72614E-13
 -1      1536 2.00163E+01 1.45226E-03 1.16639E-04-1.54465E-02-3.48952E-14-3.10272E-13
 -1      1537 2.00227E+01 1.60682E-03-3.50394E-04-2.84497E-02-5.79672E-14-2.37704E-13
 -1      1538 2.00898E+01 1.56896E-03-2.95088E-04-2.19591E-02 4.42726E-14-4.04640E-13
 -1      1539 2.00626E+01 2.22707E-03 1.43808E-04-2.05382E-02 6.83044E-14-2.71006E-13
 -1      1540 2.00678E+01 2.57042E-03-5.39753E-04-3.71838E-02 6.26796E-14-2.31865E-13
 -1      1541 2.01610E+01 2.11209E-03-4.26484E-04-2.98272E-02 6.15382E-14-4.86749E-13
 -1      1542 2.01240E+01 3.14021E-03 1.75378E-04-2.77810E-02 3.26162E-14-4.64044E-13
 -1      1543 2.01267E+01 3.66627E-03-7.80714E-04-4.99325E-02 7.14892E-14-3.69584E-13
 -1      1544 2.02565E+01 2.71267E-03-5.77636E-04-4.02392E-02-4.49457E-14-4.28551E-13
 -1      1545 2.02064E+01 4.19319E-03 2.06937E-04-3.74533E-02-3.00639E-14-5.07643E-13
 -1      1546 2.02045E+01 4.89488E-03-1.07889E-03-6.72349E-02-1.63685E-14-4.53732E-13
 -1      1547 2.03831E+01 3.34000E-03-7.47372E-04-5.34066E-02-3.56313E-14-3.36890E-13
 -1      1548 2.03160E+01 5.36154E-03 2.32262E-04-4.97748E-02-1.55395E-14-3.41493E-13
 -1      1549 2.03067E+01 6.22567E-03-1.43510E-03-8.95539E-02-1.09601E-13-4.07703E-13
 -1      1550 2.05479E+01 3.92932E-03-9.27029E-04-6.93540E-02-6.01017E-15-1.84320E-13
 -1      1551 2.04598E+01 6.57553E-03 2.42897E-04-6.48069E-02-6.15673E-14-2.64413E-13
 -1      1552 2.04393E+01 7.57524E-03-1.84038E-03-1.17109E-01-8.67781E-14-2.64624E-13
 -1      1553 2.07571E+01 4.36331E-03-1.09407E-03-8.77393E-02 3.65400E-14-3.18516E-13
 -1      1554 2.06445E+01 7.69163E-03 2.28443E-04-8.22934E-02 8.39994E-14-1.60792E-13
 -1      1555 2.06078E+01 8.77557E-03-2.26781E-03-1.49609E-01 1.06354E-13-7.69057E-14
 -1      1556 2.10154E+01 4.44797E-03-1.20137E-03-1.07582E-01 3.62135E-14-4.23329E-13
 -1      1557 2.08754E+01 8.45283E-03 1.78613E-04-1.01419E-01 5.20829E-15-3.64234E-13
 -1      1558 2.08166E+01 9.52920E-03-2.66014E-03-1.85836E-01 6.42511E-14-1.54171E-13
 -1      1559 2.13229E+01 3.88561E-03-1.16078E-03-1.26882E-01 4.08885E-15-5.35154E-13
 -1      1560 2.11553E+01 8.43865E-03 8.88538E-05-1.20464E-01 7.85212E-15-4.96063E-13
 -1      1561 2.10676E+01 9.35180E-03-2.91187E-03-2.23053E-01 2.31128E-14-2.66729E-13
 -1      1562 2.16728E+01 2.25527E-03-8.21602E-04-1.42117E-01-9.62278E-15-6.96403E-13
 -1      1563 2.14812E+01 7.01441E-03-2.81624E-05-1.36355E-01-4.61464E-15-6.58243E-13
 -1      1564 2.13578E+01 7.51090E-03-2.84682E-03-2.56203E-01 6.56513E-14-5.44188E-13
 -1      1565 2.20461E+01-9.73550E-04 4.77792E-05-1.47709E-01-6.92288E-14-5.86930E-13
 -1      1566 2.18411E+01 3.30923E-03-1.23868E-04-1.44153E-01-1.66381E-14-6.48909E-13
 -1      1567 2.16764E+01 2.99062E-03-2.19729E-03-2.76966E-01-1.92674E-14-5.10967E-13
 -1      1568 2.24064E+01-6.34216E-03 1.74995E-03-1.35656E-01-3.24297E-14-5.44394E-13
 -1      1569 2.22086E+01-3.71056E-03-9.20844E-05-1.36671E-01-5.86902E-14-6.22447E-13
 -1      1570 2.20013E+01-5.44536E-03-6.03753E-04-2.72928E-01-6.94180E-14-3.63281E-13
 -1      1571 2.26949E+01-1.41361E-02 4.56670E-03-9.58486E-02 5.68011E-14-5.18344E-13
 -1      1572 2.25382E+01-1.49521E-02 2.37645E-04-1.04609E-01 2.49609E-14-5.14423E-13
 -1      1573 2.22943E+01-1.89538E-02 2.32459E-03-2.27486E-01 6.36253E-15-4.47419E-13
 -1      1574 2.28280E+01-2.38657E-02 8.50906E-03-1.79410E-02-9.35146E-15-6.05964E-13
 -1      1575 2.27611E+01-3.05314E-02 1.05106E-03-3.79735E-02-1.92017E-14-5.74037E-13
 -1      1576 2.24991E+01-3.78683E-02 6.82530E-03-1.21709E-01 1.20832E-14-4.34873E-13
 -1      1577 2.27035E+01-3.35159E-02 1.28710E-02 1.04084E-01 1.17137E-13-7.18420E-13
 -1      1578 2.27861E+01-4.86482E-02 2.38981E-03 7.02074E-02 8.97268E-14-5.82671E-13
 -1      1579 2.25420E+01-6.03412E-02 1.26218E-02 6.00599E-02 8.91127E-14-4.50800E-13
 -1      1580 2.22225E+01-3.89623E-02 1.57514E-02 2.64116E-01-2.73080E-14-8.58445E-13
 -1      1581 2.25124E+01-6.43157E-02 3.86445E-03 2.17180E-01 4.06402E-14-7.74580E-13
 -1      1582 2.23417E+01-8.05707E-02 1.84541E-02 3.19212E-01 1.00132E-13-4.74290E-13
 -1      1583 2.13309E+01-3.45574E-02 1.41103E-02 4.34979E-01-1.12407E-13-5.26433E-13
 -1      1584 2.18590E+01-6.91117E-02 4.40163E-03 3.82035E-01-1.17276E-13-7.39457E-13
 -1      1585 2.18326E+01-8.78699E-02 2.18450E-02 6.27520E-01-1.69946E-13-2.46957E-13
 -1      1586 2.00743E+01-1.60769E-02 5.18318E-03 5.65376E-01-4.28628E-14-3.93879E-13
 -1      1587 2.08116E+01-5.39012E-02 2.43050E-03 5.20975E-01 1.72471E-14-4.31787E-13
 -1      1588 2.10013E+01-6.90562E-02 1.98101E-02 9.15096E-01-9.41868E-14-3.85629E-14
 -1      1589 1.86387E+01 1.44131E-02-1.06738E-02 5.93205E-01-4.54747E-14-4.29455E-13
 -1      1590 1.94732E+01-1.53935E-02-3.03656E-03 5.75654E-01-3.11719E-14-4.98747E-13
 -1      1591 1.99279E+01-1.66854E-02 1.07637E-02 1.07744E+00-3.99996E-14-1.02286E-13
 -1      1592 1.73318E+01 4.57789E-02-2.76397E-02 4.78817E-01-7.09719E-14-1.44829E-13
 -1      1593 1.80814E+01 3.68939E-02-1.07352E-02 5.00482E-01-1.16633E-13-3.78579E-13
 -1      1594 1.88014E+01 5.99293E-02-3.02992E-03 1.01638E+00-1.62287E-13 8.79106E-14
 -1      1595 1.64781E+01 6.23677E-02-3.64693E-02 2.41263E-01 1.91501E-13-3.29448E-13
 -1      1596 1.69543E+01 8.11220E-02-1.66836E-02 2.98104E-01 9.11840E-14-2.19762E-13
 -1      1597 1.78781E+01 1.30569E-01-1.55576E-02 7.05122E-01 1.25736E-13-6.54442E-14
 -1      1598 1.62660E+01 5.54661E-02-3.11356E-02-3.71618E-02 4.67950E-14-4.44563E-13
 -1      1599 1.63634E+01 9.58744E-02-1.65962E-02 3.34591E-02 6.72414E-14-2.76137E-13
 -1      1600 1.73780E+01 1.58606E-01-2.09059E-02 2.31264E-01 1.05679E-13-7.37093E-14
 -1      1601 1.66520E+01 3.07468E-02-1.45855E-02-2.55076E-01 1.16573E-13-5.94875E-13
 -1      1602 1.64010E+01 7.63504E-02-9.64685E-03-1.97107E-01 1.20173E-13-4.47385E-13
 -1      1603 1.73755E+01 1.28443E-01-1.79510E-02-2.35474E-01 1.32144E-13-1.42926E-13
 -1      1604 1.74011E+01 3.60838E-03 3.26576E-03-3.53186E-01 1.47276E-13-9.15400E-13
 -1      1605 1.69419E+01 3.79069E-02 2.72983E-04-3.23209E-01 1.76247E-13-6.98434E-13
 -1      1606 1.77680E+01 5.98660E-02-1.07845E-02-5.41028E-01 2.62535E-13-2.82292E-13
 -1      1607 1.82314E+01-1.26333E-02 1.35752E-02-3.41535E-01 1.06849E-13-1.15023E-12
 -1      1608 1.77285E+01 3.45617E-03 7.68267E-03-3.37102E-01 1.48589E-13-9.52870E-13
 -1      1609 1.83487E+01-7.43028E-03-4.81398E-03-6.32908E-01 1.73067E-13-4.01183E-13
 -1      1610 1.89520E+01-1.55357E-02 1.51896E-02-2.75540E-01-2.52149E-14-1.08322E-12
 -1      1611 1.85146E+01-1.33782E-02 9.90704E-03-2.83061E-01-5.93154E-14-1.15459E-12
 -1      1612 1.89227E+01-4.34367E-02-2.23261E-03-5.67335E-01 4.71420E-14-4.32453E-13
 -1      1613 1.94977E+01-1.55838E-02 1.42811E-02-2.03200E-01-1.29750E-13-8.93043E-13
 -1      1614 1.91625E+01-1.75019E-02 8.85760E-03-2.12784E-01-9.45233E-14-1.05365E-12
 -1      1615 1.93845E+01-4.72559E-02-4.59479E-04-4.41801E-01-8.02206E-14-3.75769E-13
 -1      1616 1.98576E+01-2.93491E-02 1.56567E-02-1.26118E-01-5.85951E-14-5.46467E-13
 -1      1617 1.96408E+01-2.78885E-02 1.03360E-02-1.37567E-01-4.51969E-14-7.60341E-13
 -1      1618 1.97203E+01-5.17191E-02 6.65404E-03-3.07037E-01-1.02075E-13-1.96254E-13
 -1      1619 1.99480E+01-5.65085E-02 2.15365E-02-4.53686E-02-3.03872E-13-3.03975E-13
 -1      1620 2.00035E+01-3.78547E-01 6.64451E-03-1.69787E-01 1.71974E-13 2.62154E-13
 -1      1621 1.99760E+01-1.94633E-01 9.16447E-03-1.54105E-01-2.08295E-13 4.26184E-13
 -1      1622 2.00695E+01-5.72434E-01-1.70780E-03-9.52108E-02 3.99160E-13 2.90084E-13
 -1      1623 2.00355E+01-4.56682E-01 1.73424E-03-1.22011E-01 2.85411E-13 1.34746E-13
 -1      1624 2.00251E+01-3.23133E-01-6.89764E-03-2.61774E-01-7.21333E-14 3.80387E-13
 -1      1625 2.01298E+01-3.55946E-01-1.00850E-02 1.53425E-01 6.45873E-13 3.02213E-13
 -1      1626 2.01009E+01-5.26480E-01-8.84920E-03 9.04286E-02 4.50556E-13 2.28354E-13
 -1      1627 2.01537E+01-3.76766E-01-2.09051E-02 1.63010E-02 2.87289E-13 2.89423E-13
 -1      1628 2.01700E+01 5.72050E-01-1.79790E-02 5.56103E-01 8.61183E-13 5.96745E-14
 -1      1629 2.01579E+01-7.02013E-02-2.03889E-02 4.62071E-01 6.67432E-13 3.10162E-13
 -1      1630 2.02532E+01-8.20603E-02-3.90650E-02 6.06006E-01 4.66732E-13 2.99247E-13
 -1      1631 2.01565E+01 2.34986E+00-2.19488E-02 1.02074E+00 7.57588E-13 1.28456E-13
 -1      1632 2.01814E+01 1.17667E+00-2.83735E-02 9.21332E-01 7.84622E-13-8.04877E-14
 -1      1633 2.03024E+01 7.65086E-01-4.98955E-02 1.41823E+00 3.83815E-13-9.76753E-14
 -1      1634 2.00590E+01 4.92199E+00-1.42807E-02 1.38483E+00 8.18373E-13 2.40415E-14
 -1      1635 2.01325E+01 3.29662E+00-2.64733E-02 1.32003E+00 7.90076E-13 1.21054E-13
 -1      1636 2.02434E+01 2.27073E+00-4.37050E-02 2.23221E+00 4.44228E-13 1.24185E-13
 -1      1637 1.98840E+01 7.72856E+00 8.43464E-03 1.40066E+00 8.98767E-13-1.35576E-13
 -1      1638 1.99906E+01 6.05609E+00-7.02210E-03 1.42939E+00 8.22703E-13 2.14939E-13
 -1      1639 2.00316E+01 4.32959E+00-1.06954E-02 2.67426E+00 4.43236E-13 1.81497E-13
 -1      1640 1.97089E+01 9.88009E+00 3.57321E-02 9.13509E-01 1.09762E-12 1.25185E-13
 -1      1641 1.97956E+01 8.72755E+00 2.35782E-02 1.05796E+00 8.53664E-13 8.04565E-15
 -1      1642 1.97227E+01 6.47195E+00 4.77461E-02 2.33395E+00 6.75481E-13-7.54501E-14
 -1      1643 1.96511E+01 1.05312E+01 4.61048E-02 4.40522E-02 6.52915E-13-5.31162E-13
 -1      1644 1.96615E+01 1.03579E+01 4.47447E-02 2.49959E-01 8.57495E-13-8.12544E-15
 -1      1645 1.94730E+01 7.97031E+00 9.96924E-02 1.10515E+00 5.61804E-13-7.36911E-14
 -1      1646 1.97556E+01 9.42702E+00 2.88322E-02-8.20110E-01 2.45748E-13-3.49287E-13
 -1      1647 1.96854E+01 1.02846E+01 3.98029E-02-6.56161E-01 6.11386E-13-4.07563E-13
 -1      1648 1.94445E+01 8.20202E+00 1.05608E-01-5.78744E-01 4.56314E-13-5.88529E-13
 -1      1649 1.99433E+01 7.13801E+00-9.00867E-04-1.29710E+00-4.34638E-13-1.17325E-13
 -1      1650 1.98408E+01 8.60847E+00 1.40269E-02-1.24321E+00-4.66294E-15-3.73191E-13
 -1      1651 1.96575E+01 7.10883E+00 6.17949E-02-1.95338E+00-9.67768E-14-7.15466E-13
 -1      1652 2.01016E+01 4.49795E+00-2.36808E-02-1.29622E+00-2.82344E-13 1.81161E-13
 -1      1653 2.00214E+01 6.07674E+00-1.07878E-02-1.34194E+00-5.84005E-13 3.26185E-13
 -1      1654 1.99596E+01 5.21337E+00 1.83325E-03-2.50504E+00-2.39135E-13-4.76841E-14
 -1      1655 2.01651E+01 2.31629E+00-2.78382E-02-9.68405E-01 1.66984E-13 4.21871E-13
 -1      1656 2.01313E+01 3.55237E+00-2.16717E-02-1.05750E+00-1.87877E-13 4.81910E-13
 -1      1657 2.01920E+01 3.22057E+00-3.69380E-02-2.24101E+00-7.66123E-14 4.99861E-13
 -1      1658 2.01633E+01 9.57661E-01-4.62770E-03-5.65898E-01 8.54091E-14-1.88766E-13
 -1      1659 2.01373E+01 1.66538E+00-2.13399E-02-6.31205E-01 2.94265E-13 4.13124E-14
 -1      1660 2.02790E+01 1.66042E+00-4.35495E-02-1.52931E+00 5.00008E-14 2.93255E-13
 -1      1661 2.01878E+01 3.22338E-01 1.09823E-02-3.14856E-01-1.65356E-13-3.07905E-13
 -1      1662 2.01961E+01 6.01259E-01-8.65723E-03-4.07287E-01 1.17848E-13-2.98992E-13
 -1      1663 2.03502E+01 7.25858E-01-3.03599E-02-9.06653E-01 5.62094E-14-1.45281E-13
 -1      1664 2.03784E+01 2.22844E-01-2.79731E-02-5.44976E-01 1.33001E-14-4.03544E-13
 -1      1665-4.11212E-01-1.61792E+01-1.75028E+00-5.90047E-01-1.78402E-12-2.91295E-13
 -1      1666-4.97363E-01-1.89551E+01-2.01030E+00 6.53958E-01-1.86431E-12-2.19602E-13
 -1      1667 1.80206E+00-9.23310E+00-1.29102E+00 8.44709E-01-1.21592E-12 8.45990E-14
 -1      1668 9.38183E-01-1.53089E+01-1.91870E+00 1.27619E-01-1.91669E-12-3.66270E-14
 -1      1669 9.76262E+00-7.03986E-01-3.61576E-01 6.20793E+00-2.70006E-13 6.50369E-13
 -1      1670 5.78874E+00-7.07005E+00-1.27112E+00 2.78028E+00-8.94618E-13 1.87850E-13
 -1      1671 2.19556E+01 5.16772E+00 4.71092E-01 1.12211E+01 6.39044E-13 1.52678E-12
 -1      1672 1.41680E+01 1.58324E+00-5.23000E-01 7.19331E+00 5.77316E-14 8.54317E-13
 -1      1673 3.67287E+01 6.39587E+00 1.16050E+00 1.29744E+01 8.66585E-13 1.48281E-12
 -1      1674 2.73672E+01 6.15344E+00 3.06936E-01 1.13414E+01 7.18092E-13 1.41087E-12
 -1      1675 5.03507E+01 5.58987E+00 1.75145E+00 1.10952E+01 6.35061E-13 1.36668E-12
 -1      1676 4.14598E+01 7.42019E+00 1.11352E+00 1.32270E+01 9.58233E-13 1.48326E-12
 -1      1677 5.73336E+01 4.13122E+00 1.85715E+00 3.13499E+00 5.71432E-13 2.59764E-13
 -1      1678 5.30947E+01 5.43055E+00 1.59991E+00 8.59941E+00 6.95721E-13 1.03384E-12
 -1      1679 5.66125E+01 4.20173E+00 1.79086E+00-5.35429E+00 3.54661E-13-5.69933E-13
 -1      1680 5.89531E+01 3.66983E+00 1.95818E+00 4.81931E-01 4.32099E-13 5.48728E-14
 -1      1681 4.57817E+01 5.97509E+00 1.20538E+00-1.07497E+01 4.50848E-13-9.42135E-13
 -1      1682 5.33845E+01 4.38190E+00 1.75515E+00-7.38450E+00 2.45318E-13-7.97695E-13
 -1      1683 3.16894E+01 6.77575E+00 5.26620E-01-1.20549E+01 8.19900E-13-1.11844E-12
 -1      1684 4.12720E+01 5.92689E+00 1.29780E+00-1.23176E+01 6.64024E-13-1.04072E-12
 -1      1685 1.80801E+01 4.36080E+00-2.22847E-01-8.90740E+00 1.17562E-12-1.21392E-12
 -1      1686 2.63728E+01 6.10338E+00 6.49823E-01-1.19763E+01 9.95759E-13-1.23723E-12
 -1      1687 7.96317E+00-1.29576E+00-9.23833E-01-4.20860E+00 1.06759E-12-9.74887E-13
 -1      1688 1.30417E+01 3.14401E+00-9.39494E-02-7.83030E+00 1.18527E-12-1.21858E-12
 -1      1689 2.65209E+00-9.41444E+00-1.45837E+00-7.53681E-01 2.44138E-13-6.04905E-13
 -1      1690 4.80574E+00-3.62481E+00-7.89058E-01-2.96329E+00 8.52429E-13-1.09585E-12
 -1      1691 4.33278E-02-1.62894E+01-1.79664E+00 2.62799E-01-1.51879E-13-5.79675E-14
 -1      1692 3.16564E-01-1.15536E+01-1.40513E+00 5.23620E-01 1.43885E-13-1.26510E-13
 -1      1693-7.67238E-01-1.77815E+01-1.67589E+00-9.19331E-01-1.07327E-13 9.69225E-14
 -1      1694-7.06576E-01-1.64499E+01-1.56823E+00 5.85677E-01-2.46803E-13 1.14297E-13
 -1      1695-7.79407E-01-1.55955E+01-1.65185E+00-1.60960E+00-4.60743E-13-3.79641E-13
 -1      1696-6.68493E-01-1.84606E+01-1.85172E+00-2.64271E-01-1.25039E-13-2.22322E-13
 -1      1697 2.18307E+00-8.33949E+00-1.10870E+00 6.84000E-01-6.87339E-13-4.57745E-13
 -1      1698 1.10570E+00-1.38085E+01-1.63530E+00-3.32068E-01-5.39346E-13-3.42198E-13
 -1      1699 8.91539E+00-3.54670E-01-4.75366E-01 5.06351E+00-7.03881E-13-5.02709E-13
 -1      1700 4.84875E+00-6.17234E+00-1.30017E+00 1.60674E+00-7.56284E-13-4.28324E-13
 -1      1701 2.09979E+01 4.32089E+00 3.01002E-01 9.88669E+00-6.99218E-13-1.04294E-12
 -1      1702 1.36691E+01 1.36773E+00-6.15355E-01 6.32056E+00-6.43929E-13-7.89813E-13
 -1      1703 3.58670E+01 5.75873E+00 1.10174E+00 1.22724E+01-6.36824E-13-1.26210E-12
 -1      1704 2.61579E+01 5.63382E+00 2.04845E-01 1.06598E+01-7.16094E-13-1.07847E-12
 -1      1705 5.01250E+01 4.52711E+00 1.72862E+00 9.29804E+00-5.03125E-13-1.13920E-12
 -1      1706 4.11419E+01 5.91040E+00 1.02260E+00 1.12156E+01-6.45928E-13-1.20881E-12
 -1      1707 5.88777E+01 3.57878E+00 2.10868E+00 2.51832E+00-3.21632E-13-7.90423E-13
 -1      1708 5.40125E+01 4.61692E+00 1.74512E+00 7.59976E+00-3.98001E-13-1.07103E-12
 -1      1709 5.76483E+01 4.61381E+00 1.98500E+00-5.92894E+00-1.37779E-13-3.88523E-13
 -1      1710 5.88630E+01 3.94779E+00 2.01459E+00-1.71354E-01-3.09752E-13-5.80785E-13
 -1      1711 4.91537E+01 6.75048E+00 1.64971E+00-1.26444E+01 1.90278E-13-2.22822E-13
 -1      1712 5.64539E+01 4.71805E+00 2.12259E+00-8.71445E+00 2.11053E-13-2.52021E-14
 -1      1713 3.49889E+01 7.61516E+00 8.53421E-01-1.34350E+01 9.21485E-14-2.08056E-13
 -1      1714 4.45160E+01 6.62259E+00 1.65654E+00-1.35350E+01 1.67477E-13-4.18554E-13
 -1      1715 2.06536E+01 5.77245E+00 1.07036E-02-1.05603E+01-4.22995E-13-4.92939E-14
 -1      1716 2.95178E+01 7.29134E+00 9.59507E-01-1.36762E+01-7.21645E-14-2.36922E-13
 -1      1717 9.93590E+00-3.83600E-01-8.65002E-01-5.40934E+00-5.61773E-14 2.32148E-13
 -1      1718 1.57039E+01 4.11706E+00 8.39455E-02-9.35023E+00-2.19380E-13 3.12639E-13
 -1      1719 3.42145E+00-9.02025E+00-1.63495E+00-1.14590E+00-8.59313E-14 1.55764E-13
 -1      1720 6.11617E+00-2.69766E+00-7.94085E-01-3.90988E+00-1.47882E-13 2.71561E-13
 -1      1721 4.13005E-01-1.69126E+01-2.14845E+00 4.32615E-01-7.53841E-13-2.74322E-13
 -1      1722 9.77523E-01-1.13535E+01-1.57703E+00 8.67574E-02-3.08864E-13 7.16094E-15
 -1      1723-7.83239E-01-2.05005E+01-2.27570E+00-4.16355E-01-2.03315E-12-3.25961E-13
 -1      1724-8.21945E-01-1.84007E+01-2.12575E+00 1.33147E+00-1.14053E-12-4.78201E-13
 -1      1725 2.91213E+01 5.43530E-01 4.42232E-01 7.59957E+00-9.90874E-14 1.03451E-12
 -1      1726 1.83478E+01-4.14366E+00-1.82576E-01 7.67331E+00-4.60076E-13 1.22830E-12
 -1      1727 1.99495E+01-1.05652E-01 1.81019E-02-1.38607E-01-3.76416E-13 5.04514E-14
 -1      1728 1.99018E+01-1.46414E-01 4.61858E-03-2.71779E-01-1.49835E-13 5.24793E-13
 -1      1729 1.15212E+00-1.14265E+01-1.26932E+00 3.34891E+00-1.13309E-12 1.58429E-13
 -1      1730 8.17043E+00-8.32710E+00-7.82875E-01 6.16872E+00-9.31033E-13 7.28549E-13
 -1      1731-1.36216E+00-1.29318E+01-1.43546E+00 4.79675E-01-1.17513E-12-4.43812E-13
 -1      1732 3.86264E+01 4.62934E+00 9.38840E-01 6.66191E+00 5.28355E-13 5.63549E-13
 -1      1733 4.60070E+01 7.51669E+00 1.42471E+00 4.76192E+00 7.56173E-13 3.96239E-13
 -1      1734 4.96196E+01 8.14405E+00 1.59955E+00 1.09415E+00 8.10629E-13 1.71259E-13
 -1      1735 4.80419E+01 7.35611E+00 1.49907E+00-2.40779E+00 4.60909E-13-1.80300E-13
 -1      1736 4.12602E+01 5.50572E+00 1.10814E+00-5.46121E+00 5.74533E-13-5.87641E-13
 -1      1737 3.17475E+01 2.64172E+00 6.10051E-01-7.25167E+00 8.01359E-13-8.05467E-13
 -1      1738 2.10037E+01-9.24119E-01 3.51888E-02-7.30450E+00 7.50289E-13-9.56124E-13
 -1      1739 1.12860E+01-5.26453E+00-5.62837E-01-5.87401E+00 3.95906E-13-9.03833E-13
 -1      1740 4.02583E+00-9.46839E+00-9.96719E-01-3.99040E+00 1.75526E-13-7.21020E-13
 -1      1741-3.88904E-01-1.17244E+01-1.17851E+00-2.01169E+00-7.58282E-14-6.80567E-14
 -1      1742-1.46949E+00-1.22191E+01-1.19600E+00 3.73978E-03-2.32342E-13-1.57818E-13
 -1      1743 1.32570E+00-1.12682E+01-1.11257E+00 2.61029E+00-3.56493E-13-3.93241E-13
 -1      1744 7.67180E+00-8.15717E+00-8.18393E-01 4.55347E+00-3.75144E-13-3.55771E-13
 -1      1745 1.69552E+01-3.87123E+00-3.03718E-01 6.00462E+00-5.01155E-13-4.79838E-13
 -1      1746 2.76885E+01 3.96182E-01 2.96564E-01 6.66563E+00-4.14557E-13-8.04690E-13
 -1      1747 3.83244E+01 3.90225E+00 9.58371E-01 5.77025E+00-5.04152E-13-8.54761E-13
 -1      1748 4.66313E+01 6.29272E+00 1.44868E+00 3.20297E+00-4.40564E-13-8.61755E-13
 -1      1749 5.02910E+01 7.80545E+00 1.68585E+00-1.38683E-01-3.58269E-13-7.34773E-13
 -1      1750 4.93188E+01 7.97831E+00 1.69217E+00-3.98175E+00-4.94604E-14-4.60243E-13
 -1      1751 4.39256E+01 6.30370E+00 1.38704E+00-6.83667E+00 1.91888E-13-2.01394E-13
 -1      1752 3.45601E+01 3.61032E+00 8.66058E-01-8.28993E+00 1.31339E-13-5.15032E-13
 -1      1753 2.37509E+01-2.34982E-01 1.79299E-01-8.36831E+00 7.67164E-14-4.10894E-13
 -1      1754 1.36103E+01-5.02074E+00-5.33338E-01-6.87627E+00-4.21885E-15 1.07692E-13
 -1      1755 5.51313E+00-9.64597E+00-1.12083E+00-4.76450E+00-2.26152E-13-1.49564E-13
 -1      1756 2.07823E-01-1.31121E+01-1.53535E+00-2.37618E+00-9.13714E-13-7.59171E-13
 -1      1757 2.28609E+01 1.98498E+00-2.35764E-02-2.72227E+00-2.65159E-13 1.17251E-12
 -1      1758 1.98238E+01 3.71444E+00-3.55596E-02-2.15168E+00-3.53614E-13-3.07167E-13
 -1      1759 2.00592E+01 3.56221E+00-4.02472E-02-2.44468E+00-4.06591E-13-1.82611E-13
 -1      1760 2.03648E+01 3.18184E+00-4.57106E-02-2.58464E+00-4.03875E-13-2.68535E-14
 -1      1761 2.05849E+01 2.81006E+00-1.42515E-01-2.85307E+00-4.23557E-13 1.80300E-13
 -1      1762 2.04246E+01 2.69346E+00-4.42695E-03-2.22564E+00-4.29462E-13-8.69929E-14
 -1      1763 1.93539E+01 4.18960E+00-2.02135E-02-1.27045E+00-2.11015E-13-5.14607E-13
 -1      1764 1.94273E+01 4.14929E+00-1.75107E-02-1.49468E+00-2.55682E-13-4.94760E-13
 -1      1765 1.92574E+01 4.29475E+00-1.68009E-02-8.59512E-01-1.38745E-13-5.44745E-13
 -1      1766 1.93002E+01 4.27102E+00-1.43386E-02-1.07021E+00-1.76699E-13-5.35964E-13
 -1      1767 1.95261E+01 3.78298E+00-9.22089E-03-1.11994E+00-2.06992E-13-5.06853E-13
 -1      1768 1.92057E+01 4.35517E+00-1.48058E-02-4.66637E-01-4.66676E-14-5.58803E-13
 -1      1769 1.92278E+01 4.34238E+00-1.33114E-02-6.66888E-01-9.08252E-14-5.43624E-13
 -1      1770 1.94288E+01 3.90331E+00-9.19878E-03-7.33036E-01-1.23287E-13-5.25704E-13
 -1      1771 1.91862E+01 4.38081E+00-1.36678E-02-8.35937E-02 2.09524E-14-5.70873E-13
 -1      1772 1.91927E+01 4.37689E+00-1.32157E-02-2.78981E-01-6.92353E-15-5.72674E-13
 -1      1773 1.93783E+01 3.96789E+00-9.15663E-03-3.58165E-01-3.06705E-14-5.38788E-13
 -1      1774 1.91944E+01 4.37552E+00-1.31679E-02 2.98028E-01 8.53253E-14-5.61986E-13
 -1      1775 1.91867E+01 4.37998E+00-1.37511E-02 1.02481E-01 5.22556E-14-5.65506E-13
 -1      1776 1.93634E+01 3.98732E+00-9.14438E-03 1.05599E-02 3.68037E-14-5.53722E-13
 -1      1777 1.92318E+01 4.33834E+00-1.33276E-02 6.86642E-01 1.45126E-13-5.48016E-13
 -1      1778 1.92085E+01 4.35202E+00-1.49154E-02 4.85894E-01 1.20533E-13-5.60543E-13
 -1      1779 1.93809E+01 3.96461E+00-9.18735E-03 3.79475E-01 1.12311E-13-5.42691E-13
 -1      1780 1.93056E+01 4.26496E+00-1.44081E-02 1.08418E+00 2.22645E-13-5.02352E-13
 -1      1781 1.92621E+01 4.28941E+00-1.69726E-02 8.76264E-01 1.86842E-13-5.34831E-13
 -1      1782 1.94339E+01 3.89712E+00-9.19479E-03 7.51518E-01 1.77611E-13-5.21333E-13
 -1      1783 1.94377E+01 4.13774E+00-1.74010E-02 1.51409E+00 3.06926E-13-4.21899E-13
 -1      1784 1.93610E+01 4.18031E+00-2.05048E-02 1.28459E+00 2.57065E-13-4.58862E-13
 -1      1785 1.95340E+01 3.77322E+00-9.23688E-03 1.13514E+00 2.62762E-13-4.61960E-13
 -1      1786 1.96674E+01 3.92118E+00-2.51930E-02 1.97912E+00 3.94144E-13-3.02893E-13
 -1      1787 1.95343E+01 3.99794E+00-2.69056E-02 1.72179E+00 3.41914E-13-3.78461E-13
 -1      1788 1.97078E+01 3.56610E+00-8.70320E-03 1.53477E+00 3.46416E-13-3.68173E-13
 -1      1789 2.00766E+01 3.52284E+00-4.51812E-02 2.47154E+00 4.56595E-13-9.15344E-14
 -1      1790 1.98363E+01 3.68330E+00-3.97248E-02 2.18244E+00 4.15127E-13-2.17219E-13
 -1      1791 2.00048E+01 3.22295E+00-5.26675E-03 1.93406E+00 4.24515E-13-2.25368E-13
 -1      1792 2.09225E+01 2.68182E+00-5.76442E-02 2.85730E+00 4.44629E-13 3.16649E-13
 -1      1793 2.04148E+01 3.09696E+00-5.04301E-02 2.61547E+00 4.40481E-13 6.51007E-14
 -1      1794 2.05185E+01 2.60997E+00 3.18861E-03 2.24403E+00 4.65458E-13-1.40513E-15
 -1      1795 2.17330E+01 1.21296E+00-1.22091E-01 2.32947E+00 3.81910E-13 8.44491E-13
 -1      1796 2.12764E+01 2.26304E+00 1.17054E-04 2.74001E+00 4.18759E-13 4.98865E-13
 -1      1797 2.09391E+01 1.68503E+00-2.29538E-02 2.13971E+00 4.52199E-13 3.17302E-13
 -1      1798 2.09545E+01 7.78670E-01-6.24424E-02 1.52377E+00 3.94851E-13 7.20968E-13
 -1      1799 2.17988E+01 2.45827E+00 9.08523E-02-3.04781E+00-3.66172E-13 5.38292E-13
 -1      1800 2.01039E+01 2.97947E-01-8.91110E-03 6.56621E-01 2.99122E-13 5.18238E-13
 -1      1801 2.06559E+01 4.40411E-01-1.24638E-02 1.03366E+00 3.26246E-13 6.33694E-13
 -1      1802 2.07469E+01 8.45120E-01 2.24703E-03 1.41467E+00 3.84606E-13 4.07058E-13
 -1      1803 2.15090E+01 1.74277E+00 7.94522E-02-2.33670E+00-3.98123E-13 3.80661E-13
 -1      1804 2.05235E+01 5.00460E-01 3.25279E-02-9.21152E-01-3.13118E-13 3.15867E-13
 -1      1805 2.00916E+01 3.51836E-01 7.58357E-03-6.29370E-01-2.70223E-13 2.31295E-13
 -1      1806 1.98971E+01 2.57355E-01 2.73812E-02-3.91029E-01-2.50897E-13 2.14834E-13
 -1      1807 1.97062E+01 1.78158E-01 1.03949E-02-2.53137E-01-2.28883E-13 1.45170E-13
 -1      1808 2.02013E+01 4.83977E-01-5.67798E-03-7.22536E-01-3.16413E-13 7.13158E-14
 -1      1809 1.95843E+01 1.32776E-01 1.66453E-02-1.19557E-01-1.90375E-13 1.32134E-13
 -1      1810 1.95063E+01 9.30794E-02 6.97567E-03-4.87391E-02-1.55323E-13 6.09525E-14
 -1      1811 1.98752E+01 2.44411E-01-5.63254E-03-2.95289E-01-2.43625E-13 2.78692E-14
 -1      1812 1.94414E+01 6.83170E-02 8.67707E-03 2.46850E-02-1.18207E-13 5.46395E-14
 -1      1813 1.94270E+01 4.66101E-02 4.11929E-03 6.08198E-02-9.60601E-14 1.26895E-14
 -1      1814 1.96927E+01 1.25371E-01-4.52505E-03-5.84846E-02-1.65788E-13 6.48570E-16
 -1      1815 1.94009E+01 3.22187E-02 4.22578E-03 9.93925E-02-1.04043E-13-4.82904E-16
 -1      1816 1.94206E+01 1.97687E-02 2.43273E-03 1.16072E-01-1.05840E-13-3.62274E-14
 -1      1817 1.96061E+01 6.08321E-02-3.39215E-03 7.08830E-02-1.28200E-13-3.96727E-14
 -1      1818 1.94188E+01 1.10883E-02 1.84211E-03 1.33827E-01-1.28079E-13-2.63074E-14
 -1      1819 1.94557E+01 3.89092E-03 1.44195E-03 1.39116E-01-1.22308E-13-3.33621E-14
 -1      1820 1.95817E+01 2.37994E-02-2.30128E-03 1.36981E-01-1.29398E-13-7.44154E-14
 -1      1821 1.94680E+01-1.34417E-03 5.39630E-04 1.44298E-01-1.19577E-13-3.46106E-14
 -1      1822 1.95120E+01-5.35178E-03 8.22912E-04 1.42905E-01-7.70522E-14-3.47731E-14
 -1      1823 1.95949E+01 2.13818E-03-1.42158E-03 1.64895E-01-1.23597E-13-5.50120E-14
 -1      1824 1.95316E+01-8.38332E-03-1.82778E-04 1.40632E-01-8.30424E-14-2.81069E-14
 -1      1825 1.95766E+01-1.03769E-02 4.22146E-04 1.35490E-01-4.70617E-14-1.73660E-14
 -1      1826 1.96291E+01-1.02462E-02-7.87399E-04 1.69764E-01-8.47492E-14-5.90128E-14
 -1      1827 1.95993E+01-1.19582E-02-5.69763E-04 1.29055E-01-6.86030E-14-5.89851E-14
 -1      1828 1.96418E+01-1.26625E-02 1.65074E-04 1.22055E-01-4.38165E-14-1.13213E-13
 -1      1829 1.96731E+01-1.67645E-02-3.60577E-04 1.61162E-01-1.06712E-13-1.21044E-13
 -1      1830 1.96647E+01-1.32824E-02-7.50790E-04 1.13618E-01-3.85903E-14-1.29860E-13
 -1      1831 1.97029E+01-1.31660E-02 9.06474E-06 1.05990E-01-2.70825E-14-1.54020E-13
 -1      1832 1.97200E+01-1.94969E-02-8.94943E-05 1.45320E-01-6.54998E-14-1.39055E-13
 -1      1833 1.97245E+01-1.31524E-02-8.02192E-04 9.69685E-02-5.47049E-14-1.73350E-13
 -1      1834 1.97577E+01-1.25234E-02-7.35953E-05 8.95079E-02-5.02143E-14-1.72157E-13
 -1      1835 1.97656E+01-1.97843E-02 6.96207E-05 1.26337E-01-5.91457E-14-1.39555E-13
 -1      1836 1.97773E+01-1.20969E-02-7.72449E-04 8.08263E-02-5.20216E-14-2.33079E-13
 -1      1837 1.98054E+01-1.11544E-02-1.01533E-04 7.40412E-02-7.21769E-14-2.65306E-13
 -1      1838 1.98074E+01-1.85107E-02 1.49364E-04 1.06907E-01-7.45783E-14-2.14128E-13
 -1      1839 1.98226E+01-1.04593E-02-6.93240E-04 6.62986E-02-9.28013E-14-2.33215E-13
 -1      1840 1.98461E+01-9.32389E-03-8.67543E-05 6.05122E-02-8.77049E-14-2.41434E-13
 -1      1841 1.98447E+01-1.62530E-02 1.72833E-04 8.87898E-02-8.61084E-14-2.45531E-13
 -1      1842 1.98611E+01-8.44708E-03-5.85115E-04 5.41032E-02-9.79630E-14-2.51748E-13
 -1      1843 1.98808E+01-7.18088E-03-3.60531E-05 4.95296E-02-5.71215E-14-2.22981E-13
 -1      1844 1.98773E+01-1.33674E-02 1.55825E-04 7.31383E-02-9.08813E-14-1.86961E-13
 -1      1845 1.98941E+01-6.16545E-03-4.60864E-04 4.47335E-02-3.92645E-14-2.33746E-13
 -1      1846 1.99109E+01-4.78488E-03 4.80557E-05 4.15358E-02-1.49302E-14-3.11083E-13
 -1      1847 1.99058E+01-1.00456E-02 1.08616E-04 6.07370E-02-7.60447E-14-2.26273E-13
 -1      1848 1.99230E+01-3.63924E-03-3.27772E-04 3.85860E-02-2.05321E-15-3.41759E-13
 -1      1849 1.99382E+01-2.12431E-03 1.66704E-04 3.69212E-02 1.54560E-15-3.42437E-13
 -1      1850 1.99314E+01-6.35112E-03 3.72898E-05 5.21827E-02-3.72807E-14-1.97221E-13
 -1      1851 1.99500E+01-8.28839E-04-1.89212E-04 3.60596E-02 5.22152E-14-3.55867E-13
 -1      1852 1.99648E+01 8.70828E-04 3.24243E-04 3.61155E-02 7.83780E-14-3.27389E-13
 -1      1853 1.99555E+01-2.24584E-03-5.52500E-05 4.80241E-02 2.19982E-14-2.09109E-13
 -1      1854 1.99772E+01 2.35913E-03-4.58463E-05 3.76373E-02 7.58826E-14-2.92699E-13
 -1      1855 1.99932E+01 4.32033E-03 5.27952E-04 3.96634E-02 9.97943E-14-2.28905E-13
 -1      1856 1.99798E+01 2.39281E-03-1.68475E-04 4.88742E-02 9.07393E-14-2.58653E-13
 -1      1857 2.00075E+01 6.06450E-03 1.03409E-04 4.39534E-02 1.20338E-13-2.37469E-13
 -1      1858 2.00266E+01 8.38802E-03 7.87804E-04 4.82874E-02 1.13564E-13-2.54468E-13
 -1      1859 2.00066E+01 7.75981E-03-3.03528E-04 5.55008E-02 9.15605E-14-2.51409E-13
 -1      1860 2.00440E+01 1.04686E-02 2.60528E-04 5.58522E-02 1.18125E-13-2.64130E-13
 -1      1861 2.00683E+01 1.32775E-02 1.11617E-03 6.29441E-02 4.15606E-14-2.07549E-13
 -1      1862 2.00383E+01 1.41145E-02-4.62565E-04 6.89039E-02 1.07577E-13-3.03260E-13
 -1      1863 2.00904E+01 1.57900E-02 4.27527E-04 7.44384E-02-3.85405E-14-1.61439E-13
 -1      1864 2.01226E+01 1.92275E-02 1.52723E-03 8.48713E-02-5.31234E-14-1.32280E-13
 -1      1865 2.00780E+01 2.17743E-02-6.48055E-04 9.03791E-02 5.00190E-14-2.27973E-13
 -1      1866 2.01513E+01 2.22785E-02 6.05502E-04 1.01118E-01-1.19314E-13-1.64907E-13
 -1      1867 2.01943E+01 2.65030E-02 2.03576E-03 1.15624E-01-7.84355E-14-2.12323E-13
 -1      1868 2.01291E+01 3.11061E-02-8.61973E-04 1.21569E-01-9.69343E-14-2.28832E-13
 -1      1869 2.02318E+01 3.02022E-02 7.93394E-04 1.37625E-01-1.97035E-14-2.54672E-13
 -1      1870 2.02895E+01 3.53750E-02 2.65453E-03 1.57090E-01-7.73899E-14-2.10078E-13
 -1      1871 2.01956E+01 4.25093E-02-1.10480E-03 1.64492E-01-6.10193E-14-2.36866E-13
 -1      1872 2.03381E+01 3.98188E-02 9.86332E-04 1.86013E-01-1.08028E-13-1.74999E-13
 -1      1873 2.04149E+01 4.60768E-02 3.38913E-03 2.11459E-01-4.75525E-14-2.10828E-13
 -1      1874 2.02823E+01 5.63777E-02-1.37435E-03 2.21540E-01-5.34550E-14-2.28388E-13
 -1      1875 2.04775E+01 5.13131E-02 1.17339E-03 2.48584E-01-7.40685E-14-2.84657E-13
 -1      1876 2.05784E+01 5.87105E-02 4.22810E-03 2.81106E-01-8.39346E-15-3.64100E-13
 -1      1877 2.03945E+01 7.30149E-02-1.66454E-03 2.95396E-01-1.12819E-13-2.52664E-13
 -1      1878 2.06580E+01 6.46691E-02 1.33477E-03 3.27687E-01 1.56184E-14-3.80893E-13
 -1      1879 2.07888E+01 7.30602E-02 5.12509E-03 3.68291E-01 5.88273E-14-2.82974E-13
 -1      1880 2.05381E+01 9.24615E-02-1.96455E-03 3.88819E-01-5.29232E-15-2.41096E-13
 -1      1881 2.08885E+01 7.94175E-02 1.43902E-03 4.25266E-01 1.30108E-13-2.86728E-13
 -1      1882 2.10552E+01 8.82342E-02 5.96865E-03 4.74523E-01 1.65125E-13-2.61252E-13
 -1      1883 2.07194E+01 1.14152E-01-2.25945E-03 5.04171E-01 9.75488E-14-3.14787E-13
 -1      1884 2.11782E+01 9.41655E-02 1.44223E-03 5.41944E-01 1.80044E-13-3.19951E-13
 -1      1885 2.13862E+01 1.02017E-01 6.53535E-03 5.99322E-01 1.56170E-13-2.22540E-13
 -1      1886 2.09449E+01 1.36272E-01-2.53430E-03 6.42472E-01 1.66349E-13-3.22634E-13
 -1      1887 2.15353E+01 1.05767E-01 1.29436E-03 6.75306E-01 1.08950E-13-1.78017E-13
 -1      1888 2.17881E+01 1.09773E-01 6.42651E-03 7.37931E-01 6.78333E-14-1.64847E-13
 -1      1889 2.12204E+01 1.54619E-01-2.78457E-03 8.01659E-01 2.17211E-13-3.12719E-13
 -1      1890 2.19657E+01 1.07976E-01 9.62457E-04 8.16868E-01-3.39984E-15 2.15225E-15
 -1      1891 2.22620E+01 1.02793E-01 5.00452E-03 8.77446E-01-6.60509E-14 3.34910E-14
 -1      1892 2.15512E+01 1.60750E-01-3.03508E-03 9.73542E-01 1.10880E-13-1.34114E-13
 -1      1893 2.24702E+01 8.95698E-02 4.82913E-04 9.47131E-01-9.96061E-14 1.73244E-13
 -1      1894 2.27998E+01 6.62932E-02 1.38459E-03 9.90822E-01-1.89656E-14 1.61408E-13
 -1      1895 2.19405E+01 1.39354E-01-3.36172E-03 1.13888E+00 1.66876E-14 1.01381E-13
 -1      1896 2.30403E+01 3.25078E-02 4.61448E-05 1.02846E+00 4.30916E-15 1.20230E-13
 -1      1897 2.33781E+01-2.16140E-02-5.39119E-03 1.02912E+00 1.30243E-13 1.42002E-13
 -1      1898 2.23899E+01 6.55510E-02-3.88081E-03 1.26019E+00 2.21791E-14 1.35238E-13
 -1      1899 2.36519E+01-8.76059E-02 3.81726E-05 9.97033E-01 1.48011E-13 7.86168E-14
 -1      1900 2.39515E+01-1.86076E-01-1.57811E-02 9.15031E-01 1.29764E-13 4.07088E-14
 -1      1901 2.28984E+01-9.50010E-02-4.61469E-03 1.27307E+00 8.69721E-14 2.41452E-14
 -1      1902 2.42555E+01-2.92993E-01 8.04310E-04 7.59606E-01 1.22951E-13-5.82694E-15
 -1      1903 2.44450E+01-4.38493E-01-2.84465E-02 5.47157E-01 8.15962E-14 6.20905E-14
 -1      1904 2.34598E+01-3.75710E-01-5.06959E-03 1.08029E+00 1.42380E-13 6.31335E-14
 -1      1905 2.47602E+01-5.76778E-01 1.82407E-03 2.10036E-01 1.09756E-13 1.73736E-13
 -1      1906 2.47482E+01-7.36397E-01-3.86468E-02-1.64949E-01 6.94583E-14 2.32858E-13
 -1      1907 2.40520E+01-7.75037E-01-3.46288E-03 5.60754E-01 2.05113E-13 7.40675E-14
 -1      1908 2.50138E+01-8.51915E-01-6.95328E-04-7.06357E-01 8.30846E-14 3.04587E-13
 -1      1909 2.47185E+01-9.27738E-01-3.81592E-02-1.20887E+00 9.34773E-14 4.33703E-13
 -1      1910 2.46052E+01-1.18770E+00 2.75922E-03-3.80938E-01 1.28210E-13 2.72199E-13
 -1      1911 2.48103E+01-9.05510E-01-1.21789E-02-1.85926E+00 6.14699E-14 3.56234E-13
 -1      1912 2.42181E+01-7.51199E-01-1.94807E-02-2.32536E+00 7.54483E-14 3.39388E-13
 -1      1913 2.49555E+01-1.34102E+00 1.16877E-02-1.68757E+00 6.60834E-14 2.86541E-13
 -1      1914 2.39909E+01-4.67230E-01-3.16265E-02-2.79496E+00-1.43718E-14 3.74875E-13
 -1      1915 2.32190E+01-2.31306E-02 9.22661E-03-2.93535E+00-1.74761E-13 3.77538E-13
 -1      1916 2.48528E+01-8.54891E-01 1.49269E-02-2.97061E+00 6.44883E-16 1.91884E-13
 -1      1917 2.27016E+01 4.68763E-01-4.27612E-02-2.82494E+00-3.20584E-13 2.76890E-13
 -1      1918 2.20036E+01 9.70930E-01 1.71229E-02-2.42174E+00-2.92141E-13 2.04692E-13
 -1      1919 2.41565E+01 3.65915E-01-6.72207E-03-3.45047E+00-2.78812E-13 3.97392E-13
 -1      1920 2.15399E+01 1.33257E+00-2.54047E-02-1.63058E+00-3.49706E-13 2.46466E-13
 -1      1921 2.11676E+01 1.48459E+00-9.93538E-03-8.34825E-01-2.91017E-13 1.57178E-13
 -1      1922 2.32061E+01 1.67926E+00-5.03108E-02-2.48006E+00-3.31117E-13 3.97891E-13
 -1      1923 2.11170E+01 1.38228E+00 1.29468E-02 1.71517E-01-1.04750E-13 6.52343E-15
 -1      1924 2.11523E+01 1.04022E+00-3.78812E-02 8.54074E-01-5.94143E-14 1.66533E-15
 -1      1925 2.26897E+01 2.08060E+00-6.15120E-02-4.17746E-01-2.68861E-13 2.77836E-13
 -1      1926 2.13995E+01 5.76897E-01 2.64815E-02 1.39775E+00 5.84879E-14 1.34004E-13
 -1      1927 2.16909E+01 6.62378E-02-3.74215E-02 1.57548E+00 2.66081E-13 2.64056E-13
 -1      1928 2.28548E+01 1.20611E+00-2.88365E-02 1.32937E+00 8.98517E-14 2.75860E-13
 -1      1929 2.18147E+01-3.34518E-01 5.07858E-03 1.43666E+00 1.32264E-13 1.56404E-13
 -1      1930 2.20900E+01-6.26298E-01-1.82450E-02 1.16964E+00 1.15722E-13 8.01303E-14
 -1      1931 2.31778E+01-1.69618E-01-3.68995E-03 1.70192E+00 1.40049E-13 2.27275E-13
 -1      1932 2.19043E+01-7.43832E-01-2.18222E-02 6.67771E-01-9.72365E-14 7.43277E-14
 -1      1933 2.20017E+01-7.22907E-01 4.87259E-03 2.62024E-01-1.03730E-13-1.27072E-14
 -1      1934 2.30758E+01-9.67529E-01 1.44948E-02 9.27833E-01-4.50627E-14 3.66079E-14
 -1      1935 2.15805E+01-5.99341E-01-3.40600E-02-1.97406E-01-7.54917E-14-9.31594E-14
 -1      1936 2.14743E+01-3.77979E-01 1.53616E-02-4.70407E-01-7.80556E-14-1.42529E-13
 -1      1937 2.24570E+01-9.72247E-01 1.40023E-03-1.55937E-01-2.43286E-13 5.09456E-14
 -1      1938 2.10115E+01-1.80540E-01-2.99192E-02-6.17826E-01-2.75951E-14-2.02501E-13
 -1      1939 2.08216E+01 7.24402E-02 2.51679E-02-6.47296E-01 6.20910E-14-2.08612E-13
 -1      1940 2.08229E+01 1.76769E-01 3.05757E-03-8.70977E-01-6.87948E-14-3.32746E-13
 -1      1941 2.16149E+01-3.89956E-01 1.00974E-02-8.08162E-01-1.46678E-13-8.95946E-14
 -1      1942 1.96215E+01 1.42043E-01 7.88325E-03 2.58987E-01 2.08802E-13 3.71071E-13
 -1      1943 1.98934E+01 2.04102E-01 1.64332E-02 4.31995E-01 2.45089E-13 4.74946E-13
 -1      1944 2.01048E+01 3.50559E-01-1.53293E-03 6.54474E-01 3.07657E-13 2.95176E-13
 -1      1945 1.93795E+01 7.19335E-02 6.94712E-03 5.59936E-02 1.81438E-13 2.54952E-13
 -1      1946 1.94943E+01 1.01813E-01 1.41916E-02 1.44528E-01 1.65582E-13 3.24444E-13
 -1      1947 1.97123E+01 1.65205E-01-1.94844E-03 2.55709E-01 2.15212E-13 2.08028E-13
 -1      1948 1.92893E+01 3.61628E-02 4.42837E-03-4.94997E-02 1.42181E-13 2.05071E-13
 -1      1949 1.93193E+01 5.19829E-02 8.33209E-03-2.26934E-03 1.53049E-13 2.52763E-13
 -1      1950 1.95122E+01 8.06993E-02-2.83247E-03 4.36959E-02 1.86937E-13 1.44974E-13
 -1      1951 1.92878E+01 1.62053E-02 2.86195E-03-1.02002E-01 4.55649E-14 1.41469E-13
 -1      1952 1.92724E+01 2.50762E-02 4.34883E-03-7.73671E-02 9.46138E-14 1.90014E-13
 -1      1953 1.94334E+01 3.74758E-02-2.84890E-03-6.82330E-02 1.16196E-13 9.05226E-14
 -1      1954 1.93353E+01 4.56512E-03 1.98813E-03-1.24074E-01 9.86527E-14 7.34678E-14
 -1      1955 1.92968E+01 9.60073E-03 2.14450E-03-1.12643E-01 4.64798E-14 1.17176E-13
 -1      1956 1.94271E+01 1.36373E-02-2.31075E-03-1.23772E-01 7.25260E-14 1.95401E-14
 -1      1957 1.94069E+01-2.23629E-03 1.44396E-03-1.28249E-01 7.11393E-14 2.57332E-14
 -1      1958 1.93583E+01 5.15603E-04 9.45679E-04-1.24755E-01 9.63771E-14 6.05694E-14
 -1      1959 1.94617E+01 4.10374E-05-1.69049E-03-1.46278E-01 1.08531E-13-1.03836E-14
 -1      1960 1.94875E+01-6.02063E-03 1.06205E-03-1.22055E-01 4.23966E-14-5.94748E-14
 -1      1961 1.94365E+01-4.69278E-03 2.71911E-04-1.23293E-01 6.77539E-14 4.44339E-15
 -1      1962 1.95174E+01-7.58098E-03-1.16872E-03-1.49219E-01 7.80783E-14 1.51912E-14
 -1      1963 1.95678E+01-7.85958E-03 7.77215E-04-1.10259E-01 1.04998E-14-6.89388E-14
 -1      1964 1.95188E+01-7.43027E-03-1.11110E-04-1.14171E-01 1.39484E-14-8.99982E-14
 -1      1965 1.95813E+01-1.15003E-02-7.76494E-04-1.40871E-01 4.40305E-14-4.44339E-14
 -1      1966 1.96426E+01-8.43372E-03 5.62428E-04-9.59456E-02 7.75219E-14-2.61338E-14
 -1      1967 1.95981E+01-8.56480E-03-3.19059E-04-1.01179E-01 5.89640E-14-2.91455E-14
 -1      1968 1.96458E+01-1.30608E-02-4.95909E-04-1.26535E-01 4.57171E-14-7.36308E-14
 -1      1969 1.97092E+01-8.19224E-03 4.02778E-04-8.11198E-02 9.10255E-14-1.90184E-14
 -1      1970 1.96703E+01-8.66070E-03-4.15106E-04-8.67806E-02 8.31565E-14-3.20876E-14
 -1      1971 1.97063E+01-1.31142E-02-3.01285E-04-1.09659E-01 1.01048E-13-5.86074E-14
 -1      1972 1.97666E+01-7.43310E-03 2.88029E-04-6.70702E-02 1.50252E-13-1.43283E-13
 -1      1973 1.97336E+01-8.09242E-03-4.38018E-04-7.25710E-02 1.28711E-13-1.15264E-13
 -1      1974 1.97606E+01-1.22177E-02-1.71116E-04-9.24901E-02 1.57902E-13-1.00299E-13
 -1      1975 1.98152E+01-6.34828E-03 2.10801E-04-5.46151E-02 8.51891E-14-2.20279E-13
 -1      1976 1.97877E+01-7.10540E-03-4.12984E-04-5.95712E-02 1.05292E-13-1.39503E-13
 -1      1977 1.98079E+01-1.07342E-02-8.93682E-05-7.64797E-02 1.35670E-13-1.65198E-13
 -1      1978 1.98560E+01-5.05186E-03 1.65992E-04-4.42773E-02-7.69724E-14-2.37672E-13
 -1      1979 1.98332E+01-5.85220E-03-3.56410E-04-4.84320E-02 7.34493E-15-2.75065E-13
 -1      1980 1.98483E+01-8.88965E-03-4.45512E-05-6.25632E-02 6.51164E-14-2.18812E-13
 -1      1981 1.98904E+01-3.59909E-03 1.50448E-04-3.64121E-02-4.08277E-14-1.76262E-13
 -1      1982 1.98714E+01-4.41609E-03-2.78551E-04-3.95813E-02-4.22917E-14-1.77360E-13
 -1      1983 1.98828E+01-6.80909E-03-2.87110E-05-5.13578E-02-5.58393E-14-1.89432E-13
 -1      1984 1.99203E+01-2.00029E-03 1.62699E-04-3.13047E-02 5.63243E-14-1.86259E-13
 -1      1985 1.99040E+01-2.82765E-03-1.85231E-04-3.33342E-02-2.20675E-14-1.75975E-13
 -1      1986 1.99128E+01-4.54155E-03-3.66638E-05-4.33101E-02 1.57999E-14-1.37636E-13
 -1      1987 1.99482E+01-2.31911E-04 2.02706E-04-2.92433E-02 8.51379E-14-1.25434E-13
 -1      1988 1.99332E+01-1.07741E-03-7.90870E-05-2.99758E-02 8.50779E-14-1.46665E-13
 -1      1989 1.99401E+01-2.07852E-03-6.54204E-05-3.88074E-02 7.03495E-14-1.21960E-13
 -1      1990 1.99764E+01 1.75384E-03 2.71553E-04-3.05728E-02 1.03210E-14-1.45256E-13
 -1      1991 1.99614E+01 8.73622E-04 3.94389E-05-2.98229E-02 6.46655E-14-1.08392E-13
 -1      1992 1.99666E+01 6.30820E-04-1.13709E-04-3.82598E-02 5.28266E-14-2.45684E-14
 -1      1993 2.00080E+01 4.01922E-03 3.70997E-04-3.57295E-02-1.53994E-14-1.55409E-13
 -1      1994 1.99912E+01 3.08401E-03 1.71215E-04-3.32669E-02 5.51324E-15-1.01796E-13
 -1      1995 1.99949E+01 3.66558E-03-1.81557E-04-4.21575E-02-1.67618E-16-1.05191E-13
 -1      1996 2.00464E+01 6.62936E-03 5.02738E-04-4.52574E-02-2.64656E-14-2.48859E-13
 -1      1997 2.00259E+01 5.62095E-03 3.17517E-04-4.07979E-02-2.06355E-14-2.39909E-13
 -1      1998 2.00277E+01 7.11808E-03-2.69890E-04-5.11044E-02 1.77185E-14-1.53761E-13
 -1      1999 2.00953E+01 9.63636E-03 6.67292E-04-5.97983E-02 1.70942E-13-3.20284E-13
 -1      2000 2.00690E+01 8.54602E-03 4.78983E-04-5.30062E-02 7.56589E-14-2.51538E-13
 -1      2001 2.00681E+01 1.10747E-02-3.80054E-04-6.58234E-02 6.92000E-14-2.11042E-13
 -1      2002 2.01590E+01 1.30561E-02 8.62201E-04-8.00480E-02 8.47999E-14-4.80089E-13
 -1      2003 2.01245E+01 1.18950E-02 6.54287E-04-7.05543E-02 1.25831E-13-3.50857E-13
 -1      2004 2.01197E+01 1.55890E-02-5.13246E-04-8.71257E-02 1.84781E-13-3.44980E-13
 -1      2005 2.02422E+01 1.68335E-02 1.07934E-03-1.06662E-01-1.00288E-13-4.90660E-13
 -1      2006 2.01968E+01 1.56477E-02 8.38379E-04-9.41058E-02-4.31734E-14-4.71860E-13
 -1      2007 2.01864E+01 2.06416E-02-6.69766E-04-1.15828E-01-1.44565E-14-3.72579E-13
 -1      2008 2.03501E+01 2.07903E-02 1.30095E-03-1.40084E-01-1.60701E-13-3.30530E-13
 -1      2009 2.02909E+01 1.96829E-02 1.02013E-03-1.24192E-01-1.72204E-13-4.12384E-13
 -1      2010 2.02725E+01 2.60805E-02-8.48013E-04-1.52595E-01-1.51074E-13-2.96637E-13
 -1      2011 2.04877E+01 2.45493E-02 1.49429E-03-1.80270E-01-5.35571E-14-2.03928E-13
 -1      2012 2.04118E+01 2.37118E-02 1.17931E-03-1.60985E-01-7.36952E-14-3.17816E-13
 -1      2013 2.03823E+01 3.15329E-02-1.04310E-03-1.97673E-01-1.31095E-13-2.48974E-13
 -1      2014 2.06592E+01 2.74280E-02 1.60489E-03-2.26254E-01 1.45022E-13-3.11121E-14
 -1      2015 2.05643E+01 2.71828E-02 1.28302E-03-2.03943E-01 7.84446E-14-1.64467E-13
 -1      2016 2.05202E+01 3.62785E-02-1.24493E-03-2.50472E-01 6.44399E-14-1.66417E-13
 -1      2017 2.08676E+01 2.83008E-02 1.54995E-03-2.75510E-01 7.93546E-14-1.39777E-13
 -1      2018 2.07522E+01 2.91541E-02 1.28215E-03-2.51278E-01 1.28342E-13-6.78468E-14
 -1      2019 2.06893E+01 3.90793E-02-1.43523E-03-3.08935E-01 1.29337E-13-1.20257E-13
 -1      2020 2.11126E+01 2.54448E-02 1.21511E-03-3.23071E-01 4.71111E-14-2.65871E-13
 -1      2021 2.09772E+01 2.81387E-02 1.10941E-03-2.99199E-01 6.94902E-14-1.44579E-13
 -1      2022 2.08915E+01 3.79724E-02-1.58314E-03-3.68654E-01 9.89418E-14-9.42937E-14
 -1      2023 2.13887E+01 1.64238E-02 4.62208E-04-3.60426E-01 1.14918E-13-4.53923E-13
 -1      2024 2.12369E+01 2.19589E-02 6.81980E-04-3.40933E-01 9.03717E-14-3.63239E-13
 -1      2025 2.11252E+01 3.00711E-02-1.63797E-03-4.21715E-01 1.66345E-13-1.73996E-13
 -1      2026 2.16825E+01-1.85290E-03-8.39522E-04-3.74354E-01-6.49266E-14-4.46911E-13
 -1      2027 2.15231E+01 7.70379E-03-8.66449E-05-3.65611E-01-5.48310E-14-4.64165E-13
 -1      2028 2.13840E+01 1.15007E-02-1.51858E-03-4.55372E-01 1.62136E-14-1.82300E-13
 -1      2029 2.19697E+01-3.26229E-02-2.74260E-03-3.46206E-01-5.83119E-14-3.82918E-13
 -1      2030 2.18181E+01-1.79945E-02-1.25962E-03-3.57354E-01-4.21260E-14-3.24735E-13
 -1      2031 2.16548E+01-2.22547E-02-1.09973E-03-4.50915E-01-7.40609E-14-3.40793E-13
 -1      2032 2.22123E+01-7.78704E-02-5.10215E-03-2.52710E-01 5.61760E-14-2.63138E-13
 -1      2033 2.20922E+01-5.79895E-02-2.83173E-03-2.95338E-01-3.34698E-14-3.98497E-13
 -1      2034 2.19144E+01-7.50960E-02-2.02490E-04-3.83600E-01-1.91821E-14-1.76367E-13
 -1      2035 2.23571E+01-1.35546E-01-7.43392E-03-7.01792E-02-5.05637E-14-2.58117E-13
 -1      2036 2.23008E+01-1.12437E-01-4.67227E-03-1.56303E-01 5.69492E-14-2.13830E-13
 -1      2037 2.21281E+01-1.47473E-01 1.38875E-03-2.25267E-01-1.18902E-14-6.51408E-14
 -1      2038 2.23396E+01-1.95413E-01-8.84916E-03 2.15485E-01 1.96695E-13-2.66281E-13
 -1      2039 2.23843E+01-1.75076E-01-6.47621E-03 7.83790E-02 1.51016E-14-2.23639E-13
 -1      2040 2.22481E+01-2.31533E-01 3.83697E-03 4.79025E-02 4.83077E-14 2.55210E-14
 -1      2041 2.20944E+01-2.35270E-01-8.28588E-03 5.91641E-01-1.32747E-13-7.54423E-14
 -1      2042 2.22745E+01-2.28757E-01-7.74700E-03 4.09190E-01 6.86716E-14-9.75201E-14
 -1      2043 2.22167E+01-3.05255E-01 7.03188E-03 4.40109E-01 2.06675E-14 2.80121E-13
 -1      2044 2.15769E+01-2.22661E-01-5.24595E-03 9.98563E-01-3.05679E-13 7.69497E-14
 -1      2045 2.19098E+01-2.43863E-01-7.86814E-03 7.99642E-01-2.85218E-13-4.98707E-14
 -1      2046 2.19758E+01-3.30178E-01 1.01920E-02 9.13674E-01-2.51769E-13 3.60594E-13
 -1      2047 2.07966E+01-1.29006E-01-7.78639E-04 1.32060E+00 5.98215E-14 1.20045E-13
 -1      2048 2.12658E+01-1.86475E-01-6.18751E-03 1.16138E+00-1.63191E-13 8.57751E-14
 -1      2049 2.14904E+01-2.61513E-01 1.15699E-02 1.36916E+00-2.07586E-13 2.46672E-13
 -1      2050 1.98504E+01 4.30757E-02 2.27469E-03 1.41281E+00-2.42877E-13-8.34922E-15
 -1      2051 2.03931E+01-4.15634E-02-2.43929E-03 1.36265E+00-6.72960E-14 4.22266E-14
 -1      2052 2.07841E+01-7.67146E-02 8.98074E-03 1.65009E+00-1.94606E-14 5.84029E-14
 -1      2053 1.89291E+01 2.38407E-01 1.51525E-03 1.17505E+00-1.05181E-13 1.48084E-13
 -1      2054 1.94410E+01 1.58835E-01 3.10269E-03 1.27983E+00-1.90951E-13 6.29444E-14
 -1      2055 1.99721E+01 1.88061E-01 1.81861E-03 1.59827E+00-2.71394E-13 1.26094E-13
 -1      2056 1.82652E+01 3.64625E-01-2.22039E-03 6.39377E-01 2.86412E-13 1.18847E-13
 -1      2057 1.86300E+01 3.31314E-01 9.09018E-03 8.80677E-01 9.18259E-14 1.36193E-13
 -1      2058 1.92516E+01 4.30448E-01-6.35039E-03 1.15441E+00 1.04384E-13 1.83820E-13
 -1      2059 1.80214E+01 3.55146E-01-4.76209E-03-1.01389E-02 1.44372E-14-2.04246E-14
 -1      2060 1.81603E+01 3.87222E-01 1.30671E-02 2.80427E-01 1.43788E-13 1.13050E-15
 -1      2061 1.88215E+01 5.33250E-01-9.55420E-03 4.38298E-01 1.47559E-13 2.58709E-13
 -1      2062 1.81950E+01 2.24709E-01-2.92404E-03-5.34402E-01 2.87577E-13-2.03643E-13
 -1      2063 1.81057E+01 3.01664E-01 1.28212E-02-3.01639E-01 1.43564E-13-2.83922E-14
 -1      2064 1.87645E+01 4.47728E-01-5.80212E-03-2.87402E-01 2.22218E-13-3.60215E-14
 -1      2065 1.86264E+01 5.76674E-02 2.26093E-03-7.84469E-01 1.95105E-13-1.83058E-13
 -1      2066 1.83813E+01 1.35263E-01 8.32682E-03-6.71507E-01 2.46787E-13-1.55905E-13
 -1      2067 1.89984E+01 2.33998E-01 4.82137E-04-7.71719E-01 2.49906E-13 2.19443E-15
 -1      2068 1.91078E+01-5.93248E-02 7.10716E-03-7.71923E-01 6.31986E-14-8.56190E-14
 -1      2069 1.88090E+01-1.58665E-02 1.87696E-03-7.69507E-01 1.17815E-13-4.64923E-14
 -1      2070 1.93426E+01 1.48170E-02 3.57237E-03-9.21162E-01 1.17157E-14 1.29001E-13
 -1      2071 1.94929E+01-9.56021E-02 8.83776E-03-6.20914E-01-1.73295E-14-8.37013E-14
 -1      2072 1.92233E+01-8.95172E-02-2.99289E-03-6.73486E-01 4.82440E-14-1.58335E-13
 -1      2073 1.96362E+01-1.13271E-01 2.31807E-03-8.17959E-01 1.24434E-13 1.85095E-13
 -1      2074 1.97385E+01-9.07124E-02 7.06427E-03-4.49697E-01-1.23519E-13-1.84711E-14
 -1      2075 1.95415E+01-9.62803E-02-4.00100E-03-5.10687E-01 5.63438E-15 8.89488E-14
 -1      2076 1.98124E+01-1.45213E-01-6.26315E-04-6.20694E-01-1.01927E-13 3.41025E-13
 -1      2077 1.98828E+01-1.17615E-01 4.81051E-03-3.14845E-01-2.91519E-13 2.95207E-13
 -1      2078 1.97506E+01-1.03814E-01-2.93306E-03-3.91196E-01-3.24356E-13 1.16768E-13
 -1      2079 1.99069E+01-1.58136E-01-1.59894E-03-4.65754E-01-3.58020E-13 4.47800E-13
 -1      2080 1.99629E+01-1.80962E-01 1.08681E-02-3.53051E-01-3.23878E-13 6.83608E-13
 -1      2081 2.07941E+01 4.40502E-02 3.76681E-02 9.74087E-01 2.65962E-13 3.49205E-13
 -1      2082 2.06585E+01-2.69585E-01 2.71740E-03 5.65021E-01 1.72495E-13 4.06199E-13
 -1      2083 2.05110E+01-2.60341E-01 2.96132E-02 1.59997E-01 2.37927E-13 2.48411E-13
 -1      2084 2.03525E+01-3.44345E-01 8.77670E-04-7.94223E-02 8.70849E-14 3.82515E-13
 -1      2085 2.08771E+01-3.83078E-01-8.42081E-03 4.38561E-01 4.63475E-15 3.74119E-13
 -1      2086 2.02176E+01-2.90091E-01 1.97210E-02-2.53331E-01-1.15977E-13 5.39113E-13
 -1      2087 2.00760E+01-2.42625E-01 2.73305E-03-3.21582E-01-3.71429E-13 6.16401E-13
 -1      2088 2.00800E+01-2.24250E-01-1.54187E-03-3.80377E-01-4.60135E-13 5.60592E-13
 -1      2089 2.04699E+01-3.36093E-01 7.69349E-04-1.66215E-01-2.28096E-13 6.95694E-13
 -1      2090 2.08942E+01 7.61910E-01 3.02594E-02 2.02710E+00 2.32247E-13-2.12119E-13
 -1      2091 2.08709E+01 1.72780E-01 9.05955E-03 1.54279E+00 1.47238E-13 1.80019E-13
 -1      2092 2.12296E+01-2.42830E-01-1.47545E-02 1.50837E+00-6.62109E-14 1.40981E-13
 -1      2093 2.06399E+01 1.99176E+00 5.35495E-03 3.04245E+00 1.46256E-13-9.27453E-14
 -1      2094 2.08251E+01 1.12977E+00 1.79302E-02 2.63681E+00 1.35979E-13 4.30281E-14
 -1      2095 2.12439E+01 2.56975E-01-2.30380E-02 2.81809E+00-6.59000E-14-4.92974E-14
 -1      2096 1.99217E+01 3.63032E+00-3.20077E-02 3.48286E+00 2.59820E-13 2.52293E-13
 -1      2097 2.03497E+01 2.65276E+00 2.62093E-02 3.41095E+00 2.00440E-13 1.87501E-13
 -1      2098 2.06818E+01 1.26995E+00-2.05513E-02 3.93850E+00-6.54242E-14-3.04680E-14
 -1      2099 1.89330E+01 5.31063E+00-5.55059E-02 2.82210E+00 3.83454E-13-8.15910E-14
 -1      2100 1.94474E+01 4.48548E+00 2.47910E-02 3.27916E+00 3.39218E-13 6.19782E-14
 -1      2101 1.94945E+01 2.76068E+00 4.87799E-03 4.18108E+00 1.41929E-13 1.48402E-13
 -1      2102 1.82505E+01 6.38187E+00-4.36926E-02 1.00271E+00 3.26833E-13-3.53266E-13
 -1      2103 1.85211E+01 5.99377E+00 2.44930E-04 1.91096E+00 5.11934E-13-4.46969E-14
 -1      2104 1.81487E+01 4.29473E+00 5.74534E-02 2.95670E+00 1.49978E-13-3.54924E-14
 -1      2105 1.83829E+01 6.28697E+00-7.98374E-03-1.24612E+00 2.53183E-13-5.99333E-13
 -1      2106 1.82046E+01 6.47906E+00-3.70344E-02-2.86567E-01 3.69079E-13-5.63757E-13
 -1      2107 1.74568E+01 5.07996E+00 8.98864E-02 4.47275E-01 1.04734E-13-4.89588E-13
 -1      2108 1.92079E+01 5.09590E+00 2.03409E-02-2.83823E+00-2.34944E-13-9.35425E-13
 -1      2109 1.87297E+01 5.75669E+00-5.71532E-02-2.26850E+00-3.04964E-15-7.41535E-13
 -1      2110 1.79122E+01 4.63996E+00 6.88187E-02-2.19742E+00 7.94798E-14-9.41566E-13
 -1      2111 2.01522E+01 3.39009E+00 2.62196E-02-3.26175E+00-1.24930E-13 2.40289E-13
 -1      2112 1.96927E+01 4.28783E+00-4.01218E-02-3.21356E+00-1.25198E-13-2.70142E-13
 -1      2113 1.91588E+01 3.30352E+00 1.54960E-02-3.75359E+00-1.43450E-13-5.47926E-13
 -1      2114 2.07078E+01 1.86410E+00 1.73488E-02-2.68778E+00 1.08978E-13 7.09775E-13
 -1      2115 2.04827E+01 2.71328E+00-3.55469E-03-3.01558E+00-1.29410E-14 4.70514E-13
 -1      2116 2.04156E+01 1.84028E+00-1.66251E-02-3.83958E+00 3.72003E-14 4.54163E-13
 -1      2117 2.07880E+01 8.55574E-01 6.48077E-03-1.70433E+00-7.79442E-14-5.32699E-14
 -1      2118 2.07827E+01 1.47439E+00 1.97240E-02-2.15227E+00-1.53488E-14 4.84071E-13
 -1      2119 2.10778E+01 8.00079E-01-2.23047E-02-2.92217E+00-7.25700E-14 4.25136E-13
 -1      2120 1.27092E+01-6.14756E+00-1.30220E-01 8.04923E+00-7.08766E-13 1.09338E-12
 -1      2121 8.20298E+00-7.93242E+00-4.14341E-01 6.48221E+00-1.04827E-12 7.66526E-13
 -1      2122 6.45504E-01-7.75648E+00-4.02046E-01 1.01282E+00-8.19025E-13-2.06446E-13
 -1      2123 3.82087E-01-9.23097E+00-6.28904E-01-1.04143E+00-9.38999E-13-7.27862E-13
 -1      2124 5.03932E+00-7.47195E+00-3.17894E-01 5.64684E+00-7.91978E-13 4.14391E-13
 -1      2125 2.83754E+00-7.37453E+00-2.82386E-01 4.04341E+00-6.55920E-13 4.56302E-14
 -1      2126 8.90669E+00-6.07738E+00-1.28079E-01 7.28465E+00-7.90035E-13 5.06511E-13
 -1      2127 2.34332E+01-4.14869E+00 6.23806E-02 7.79509E+00-5.13645E-13 1.01313E-12
 -1      2128 1.84414E+01-6.14051E+00-1.81070E-01 7.47023E+00-7.68996E-13 9.95592E-13
 -1      2129 3.15323E+01-7.88295E-01 1.31512E-01 5.64028E+00-9.35085E-14 3.03202E-13
 -1      2130 2.68484E+01-2.97220E+00-1.19277E-01 6.05456E+00-5.01155E-13 6.95666E-13
 -1      2131 1.95239E+01 4.01767E+00-2.49942E-02-1.69942E+00-2.91815E-13-4.53774E-13
 -1      2132 1.96482E+01 3.94394E+00-2.46564E-02-1.95576E+00-3.36323E-13-3.85483E-13
 -1      2133 1.99643E+01 3.23749E+00-1.87435E-02-1.92525E+00-3.62954E-13-3.18781E-13
 -1      2134 1.96950E+01 3.58958E+00-6.70196E-03-1.51975E+00-2.85150E-13-4.40680E-13
 -1      2135 4.03952E+01 6.84118E+00 1.97988E-01 1.60449E+00 6.91891E-13-8.11573E-14
 -1      2136 3.87689E+01 5.55686E+00 1.37308E-01 2.76335E+00 4.88998E-13 9.78106E-14
 -1      2137 4.24845E+01 7.78210E+00 3.33058E-01 3.24353E-01 7.21811E-13 1.06651E-13
 -1      2138 4.09321E+01 7.98271E+00 1.41019E-01 1.39594E+00 8.21121E-13 7.33580E-14
 -1      2139 3.97885E+01 6.54172E+00 1.40802E-01-8.83502E-01 4.31488E-13-1.98896E-13
 -1      2140 4.22941E+01 7.20920E+00 3.37785E-01-2.65743E-02 5.76983E-13-1.67644E-14
 -1      2141 3.71545E+01 8.65805E+00 2.96795E-01 9.51820E-01 7.14262E-13-1.23096E-14
 -1      2142 3.57160E+01 3.14095E+00 8.30967E-02-3.16738E+00 5.89577E-13-5.63105E-13
 -1      2143 3.91664E+01 4.63639E+00 2.63937E-01-2.11050E+00 4.44395E-13-3.93241E-13
 -1      2144 2.87801E+01-8.48208E-01-9.41880E-02-4.72346E+00 7.06740E-13-6.77458E-13
 -1      2145 3.35158E+01 1.04455E+00 2.10687E-01-4.41855E+00 6.40654E-13-5.32241E-13
 -1      2146 2.01696E+01-4.14636E+00-2.53191E-01-6.17005E+00 5.18585E-13-9.35252E-13
 -1      2147 2.52688E+01-2.24181E+00 7.38201E-02-6.45338E+00 5.97355E-13-8.17735E-13
 -1      2148 1.23965E+01-6.55058E+00-3.36416E-01-6.20724E+00 1.66867E-13-9.28368E-13
 -1      2149 1.67496E+01-4.55269E+00-3.42283E-02-7.02953E+00 3.70926E-13-8.74911E-13
 -1      2150 2.11896E+01-5.71216E+00 3.92217E-03-6.35941E+00 2.48357E-13-9.26620E-13
 -1      2151 4.72915E+00-8.38570E+00-4.46258E-01-4.74434E+00 1.22846E-13-6.38212E-13
 -1      2152 7.97252E+00-6.68007E+00-1.98763E-01-6.11149E+00 2.02061E-13-9.69141E-13
 -1      2153 1.00008E+00-7.69767E+00-2.46571E-01-2.65435E+00-6.68909E-15-1.22680E-13
 -1      2154 2.35913E+00-8.15930E+00-3.68701E-01-3.84629E+00 7.43849E-15-3.39617E-13
 -1      2155 5.28707E+00-6.44931E+00-1.79061E-01-5.47035E+00 4.66294E-14-7.37632E-13
 -1      2156 5.31191E-01-8.41610E+00-3.88426E-01 1.45844E+00-3.04978E-13-3.09308E-13
 -1      2157 1.77281E-01-7.55338E+00-2.62061E-01-1.51011E-01-2.54591E-13 3.78031E-14
 -1      2158 4.60780E+00-7.43385E+00-2.13625E-01 4.51879E+00-1.86962E-13-6.04516E-14
 -1      2159 2.03861E+00-8.67445E+00-4.15177E-01 2.82836E+00-1.82354E-13-2.87659E-13
 -1      2160 2.85395E+00-5.89773E+00-1.27957E-01 2.87602E+00-1.44079E-13-2.25930E-13
 -1      2161 1.27103E+01-6.46825E+00-1.45712E-01 6.16398E+00-2.02505E-13-2.59542E-13
 -1      2162 8.62598E+00-7.93064E+00-3.38499E-01 5.25383E+00-1.38556E-13-1.57874E-13
 -1      2163 2.21963E+01-4.26837E+00 2.73083E-02 5.98796E+00-2.75224E-13-5.79869E-13
 -1      2164 1.70134E+01-6.27432E+00-3.08964E-01 5.50069E+00-2.16271E-13-3.33761E-13
 -1      2165 3.10715E+01-7.10055E-01 2.11771E-01 4.65466E+00-3.17635E-13-8.48766E-13
 -1      2166 2.58830E+01-2.85399E+00-1.73491E-01 4.55833E+00-3.90354E-13-6.39933E-13
 -1      2167 3.78825E+01 2.68772E+00 3.08975E-01 2.33056E+00-5.43746E-13-7.31193E-13
 -1      2168 3.36164E+01 1.00172E+00 3.53723E-02 3.15370E+00-4.14224E-13-9.09051E-13
 -1      2169 4.26641E+01 5.98678E+00 4.67080E-01 3.10978E-01-3.26239E-13-9.01723E-13
 -1      2170 3.95111E+01 4.85677E+00 2.15098E-01 1.11482E+00-5.10175E-13-8.08131E-13
 -1      2171 4.30723E+01 7.71435E+00 3.67578E-01-1.40237E+00-3.20188E-13-7.89303E-13
 -1      2172 4.33547E+01 7.09324E+00 4.55541E-01-2.15365E-01-3.02758E-13-7.71883E-13
 -1      2173 3.86973E+01 7.30277E+00 4.03028E-01-1.48551E+00-4.65794E-13-7.76268E-13
 -1      2174 4.17171E+01 6.72694E+00 3.56429E-01-2.67986E+00-8.93174E-14-5.37237E-13
 -1      2175 4.23313E+01 7.49866E+00 3.48945E-01-1.54873E+00-2.27596E-13-8.03302E-13
 -1      2176 3.75030E+01 4.10576E+00 1.51305E-01-3.86190E+00 9.30922E-14-1.64091E-13
 -1      2177 4.12466E+01 5.46885E+00 4.37998E-01-3.36273E+00 1.42969E-13-3.03479E-13
 -1      2178 3.76789E+01 6.32060E+00 3.57328E-01-6.35017E-01-7.27196E-14-7.16205E-13
 -1      2179 3.10843E+01-5.25501E-01-2.74481E-02-5.41594E+00 1.58873E-13-4.34763E-13
 -1      2180 3.54324E+01 1.34148E+00 2.45695E-01-4.96221E+00 1.69240E-13-2.04947E-13
 -1      2181 2.26900E+01-3.70212E+00-2.31568E-01-6.99268E+00 1.90292E-13-5.42399E-13
 -1      2182 2.78521E+01-1.52451E+00 1.30767E-01-7.38784E+00 1.59261E-13-6.70908E-13
 -1      2183 1.42755E+01-6.80050E+00-3.89203E-01-7.10294E+00-3.73035E-14-1.11078E-13
 -1      2184 1.89494E+01-4.60696E+00-2.06205E-02-8.00455E+00 1.25122E-13-2.73004E-13
 -1      2185 6.95205E+00-8.42493E+00-4.77959E-01-5.89943E+00-3.55604E-13-5.06151E-13
 -1      2186 1.05498E+01-6.75973E+00-2.02566E-01-7.25835E+00-7.96030E-14-3.05658E-13
 -1      2187 1.25188E+00-9.50443E+00-6.23543E-01-2.62067E+00-1.00475E-12-9.90374E-13
 -1      2188 3.05306E+00-8.47902E+00-4.96246E-01-4.31684E+00-7.32525E-13-7.49234E-13
 -1      2189 2.18370E+00-6.21490E+00-3.20313E-01-2.39154E+00-7.89313E-13-7.86482E-13
 -1      2190 3.80044E+01 3.84299E+00 2.94536E-01 3.59121E+00 3.80043E-13 1.03140E-13
 -1      2191 3.39198E+01 1.77528E+00-2.73074E-02 3.66637E+00 1.47153E-13 1.28453E-13
 -1      2192 3.56323E+01 4.35607E+00 1.96663E-01 4.59063E-01 1.90709E-13-4.09284E-13
 -1      2193 3.28974E+01-8.00051E-01 1.14384E-01 2.68504E+00-1.72612E-13-9.80882E-14
 -1      2194 2.07369E+01 1.10848E+00-2.08992E-02-1.61528E+00-3.79956E-13 2.91251E-13
 -1      2195 2.06283E+01 1.33224E+00-1.78421E-02-1.67689E+00-4.08134E-13 9.10660E-14
 -1      2196 2.91155E+00-5.97936E+00-2.00930E-01 2.82781E+00-6.84258E-13 2.23155E-13
 -1      2197 3.60689E+00-3.59951E+00 5.85460E-02 1.59723E+00-6.10595E-13 7.16649E-14
 -1      2198 5.57586E+00-3.86229E+00-7.08831E-03 4.50025E+00-4.64434E-13 2.67342E-13
 -1      2199 1.80141E+01-6.46753E+00 3.42576E-04 8.29329E+00-7.92977E-13 9.41898E-13
 -1      2200 2.08453E+01 5.34783E-01 1.43142E-02-1.45673E+00-1.29834E-13-8.74648E-14
 -1      2201 2.70580E+01-5.03003E+00 8.95507E-02 5.93354E+00-7.32442E-13 4.25437E-13
 -1      2202 7.05575E+00-6.66049E+00-2.00485E-01-6.44407E+00-4.48863E-13-8.16180E-13
 -1      2203 1.51418E+01-6.99480E+00-1.43526E-01-8.09155E+00-6.14508E-14-2.89921E-13
 -1      2204 2.33829E+01-5.74639E+00-6.74224E-03-7.21737E+00 1.09246E-13-4.70846E-13
 -1      2205 3.54180E+01 1.46156E+00 1.74143E-01-1.67539E+00 1.21111E-13-1.74860E-13
 -1      2206 3.87058E+01 8.28945E+00 3.61878E-01-9.86815E-01-2.86271E-13-7.16628E-13
 -1      2207 3.67432E+01 3.43068E+00 2.88918E-01-7.28672E-01-3.99569E-13-8.25173E-13
 -1      2208 3.26057E+01-1.26392E+00 1.77029E-01 1.39571E+00-2.75474E-13-8.98892E-13
 -1      2209 2.60462E+01-5.20176E+00 3.26320E-02 4.04383E+00-1.53377E-13-5.19085E-13
 -1      2210 8.60135E+00-6.90111E+00-1.15719E-01 5.74160E+00-2.61458E-14-6.33660E-14
 -1      2211 1.55221E+00-6.22378E+00-1.30125E-01-1.49805E+00-1.22097E-13-1.21236E-13
 -1      2212 3.24441E+00-4.27781E+00 3.02983E-02-2.86190E+00-4.50751E-14-4.08784E-13
 -1      2213 2.39579E+00-3.98139E+00 4.35051E-02-2.98601E-01-1.73301E-13-3.04534E-13
 -1      2214 1.26242E+01-6.71525E+00-1.12747E-01-7.01078E+00 1.05249E-13-8.87096E-13
 -1      2215 2.84777E+01-3.26728E+00 1.06998E-01-3.97154E+00 4.82475E-13-5.23359E-13
 -1      2216 3.67903E+01 5.73777E+00 2.59405E-01 5.22258E-01 6.01408E-13-1.57041E-13
 -1      2217 3.69890E+01 7.85374E+00 2.16622E-01 3.62543E-01 6.68132E-13-1.97925E-13
 -1      2218 3.39333E+01 1.03159E+00 2.02046E-01-1.17380E+00 5.49692E-13-4.16889E-13
 -1      2219 1.76467E+01-7.04795E+00-4.63034E-02 6.13674E+00 3.99680E-14-2.81497E-13
 -1      2220 3.07756E+01-2.85920E+00 1.81658E-01-4.60172E+00 2.07667E-13-4.60298E-13
 -1      2221 2.01492E+01 5.06460E-01 3.73228E-03 6.77486E-01 2.90956E-13 1.40492E-13
 -1      2222 2.04170E+01 7.00002E-01 2.07892E-02 9.69106E-01 3.41444E-13 1.80830E-13
 -1      2223 1.95590E+01 3.51619E+00-1.11144E-02-5.91269E-01-9.44550E-14-5.02017E-13
 -1      2224 1.95947E+01 3.47014E+00-1.05108E-02-7.75680E-01-1.38360E-13-4.91527E-13
 -1      2225 1.96417E+01 3.38158E+00-1.28040E-02-9.39897E-01-1.68609E-13-4.83953E-13
 -1      2226 1.97028E+01 3.30097E+00-1.27880E-02-1.12977E+00-2.16813E-13-4.57887E-13
 -1      2227 1.97862E+01 3.03346E+00 3.07532E-04-7.91605E-01-1.34904E-13-4.51493E-13
 -1      2228 1.95116E+01 3.59879E+00-9.61544E-03 9.94321E-02 5.85801E-14-5.35388E-13
 -1      2229 1.95109E+01 3.59961E+00-9.62375E-03-8.00328E-02 2.28363E-14-5.25449E-13
 -1      2230 1.95378E+01 3.55938E+00-9.71727E-03 4.45453E-01 1.31384E-13-5.09702E-13
 -1      2231 1.95203E+01 3.58194E+00-1.01374E-02 2.64629E-01 8.96967E-14-5.22011E-13
 -1      2232 1.96777E+01 3.22153E+00-8.98450E-04 1.69554E-01 7.56857E-14-4.98860E-13
 -1      2233 1.95998E+01 3.46284E+00-1.06126E-02 7.89422E-01 2.08613E-13-4.92598E-13
 -1      2234 1.95634E+01 3.50985E+00-1.12074E-02 6.07988E-01 1.56324E-13-5.03125E-13
 -1      2235 1.97146E+01 3.15799E+00-5.01115E-04 4.87981E-01 1.36943E-13-4.73647E-13
 -1      2236 1.97109E+01 3.28911E+00-1.29485E-02 1.14268E+00 2.93473E-13-4.08524E-13
 -1      2237 1.96480E+01 3.37245E+00-1.28815E-02 9.53449E-01 2.49180E-13-4.60422E-13
 -1      2238 1.97919E+01 3.02434E+00 2.58623E-04 8.03642E-01 2.26695E-13-4.27530E-13
 -1      2239 1.98906E+01 3.00345E+00-1.81699E-02 1.48975E+00 3.71207E-13-3.29226E-13
 -1      2240 1.97908E+01 3.14474E+00-1.51851E-02 1.29931E+00 3.16326E-13-3.75561E-13
 -1      2241 1.99215E+01 2.79914E+00 1.92887E-03 1.10977E+00 3.04636E-13-3.60688E-13
 -1      2242 2.01695E+01 2.54394E+00-2.83911E-02 1.79409E+00 4.38123E-13-1.81199E-13
 -1      2243 2.00180E+01 2.78331E+00-1.70890E-02 1.61963E+00 3.91601E-13-2.60097E-13
 -1      2244 2.01168E+01 2.44851E+00 5.86007E-03 1.37561E+00 3.58420E-13-2.57794E-13
 -1      2245 1.98723E+01 2.68238E-01 4.73033E-03 2.84962E-01 2.16027E-13 8.37381E-14
 -1      2246 2.00329E+01 3.67979E-01 2.01559E-02 4.42104E-01 2.53326E-13 1.31539E-13
 -1      2247 2.02116E+01 6.34647E-01-2.22910E-03 7.04309E-01 2.97205E-13 3.03950E-14
 -1      2248 2.04026E+01 8.55118E-01 1.33182E-02-9.98864E-01-3.35660E-13-7.72559E-15
 -1      2249 2.01906E+01 6.26883E-01-4.63937E-03-6.91668E-01-3.00943E-13-3.15225E-14
 -1      2250 2.05482E+01 1.95516E+00-1.36882E-02-1.89530E+00-4.12692E-13-6.50383E-14
 -1      2251 2.04104E+01 1.20922E+00-8.69737E-03-1.28901E+00-3.78984E-13-3.26846E-14
 -1      2252 2.03830E+01 1.38590E+00 9.57664E-03-1.23755E+00-3.63893E-13-1.16919E-13
 -1      2253 2.02957E+01 2.39761E+00 7.49347E-04-1.83548E+00-4.02050E-13-1.85782E-13
 -1      2254 3.25123E+01-3.01613E-01-1.56682E-01 9.67912E-01-1.03362E-13-2.84106E-13
 -1      2255 3.07681E+01-2.72562E+00-5.62199E-03 2.41518E+00-5.04725E-13-7.96030E-14
 -1      2256 2.01247E+01 4.69301E-01 1.58405E-02-4.73981E-01-2.57201E-13-1.18588E-14
 -1      2257 1.99851E+01 3.44508E-01 2.34112E-04-3.03354E-01-2.16290E-13-3.31992E-14
 -1      2258 2.02465E+01 7.51651E-01 2.03719E-04-6.93629E-01-2.90659E-13-7.99592E-14
 -1      2259 1.99203E+01 2.59066E-01 1.05540E-02-1.65238E-01-1.88139E-13-1.01984E-14
 -1      2260 1.98428E+01 1.87828E-01 8.53780E-04-6.87431E-02-1.46410E-13-4.06882E-14
 -1      2261 2.00828E+01 4.19753E-01-2.22974E-03-3.11413E-01-2.02283E-13-6.32905E-14
 -1      2262 1.97974E+01 1.38161E-01 6.20468E-03 1.37235E-02-1.36116E-13-4.75972E-14
 -1      2263 1.97631E+01 9.59711E-02 8.27368E-04 6.65703E-02-1.29905E-13-6.83365E-14
 -1      2264 1.99613E+01 2.29510E-01-2.73336E-03-7.24794E-02-1.54226E-13-5.54414E-14
 -1      2265 1.97365E+01 6.59342E-02 3.45480E-03 1.12399E-01-1.34279E-13-6.13917E-14
 -1      2266 1.97297E+01 4.05013E-02 7.13489E-04 1.38684E-01-1.29523E-13-8.22202E-14
 -1      2267 1.98850E+01 1.16131E-01-2.44087E-03 6.83460E-02-1.41610E-13-6.50356E-14
 -1      2268 1.97173E+01 2.21053E-02 1.77157E-03 1.60824E-01-1.23931E-13-7.14501E-14
 -1      2269 1.97268E+01 6.93228E-03 5.83390E-04 1.70778E-01-9.80547E-14-7.06468E-14
 -1      2270 1.98449E+01 4.72212E-02-1.90502E-03 1.44549E-01-1.21390E-13-6.92774E-14
 -1      2271 1.97243E+01-4.13600E-03 7.35935E-04 1.77905E-01-9.56229E-14-8.55519E-14
 -1      2272 1.97426E+01-1.27642E-02 4.57783E-04 1.77963E-01-8.56074E-14-1.07675E-13
 -1      2273 1.98303E+01 5.54438E-03-1.38741E-03 1.78983E-01-1.21820E-13-1.03879E-13
 -1      2274 1.97462E+01-1.90489E-02 1.04102E-04 1.75918E-01-1.06108E-13-1.04998E-13
 -1      2275 1.97684E+01-2.34132E-02 3.49895E-04 1.70266E-01-1.26407E-13-1.20157E-13
 -1      2276 1.98323E+01-1.87426E-02-9.68695E-04 1.87102E-01-1.15079E-13-1.24268E-13
 -1      2277 1.97754E+01-2.65247E-02-2.66062E-04 1.63004E-01-1.12905E-13-1.11057E-13
 -1      2278 1.97984E+01-2.80998E-02 2.66194E-04 1.54411E-01-5.03316E-14-1.27661E-13
 -1      2279 1.98443E+01-3.16560E-02-6.55764E-04 1.79396E-01-1.11531E-13-5.76772E-14
 -1      2280 1.98071E+01-2.91041E-02-4.63621E-04 1.44606E-01-3.03830E-14-1.28096E-13
 -1      2281 1.98292E+01-2.88698E-02 2.08180E-04 1.34912E-01-4.16688E-14-1.57214E-13
 -1      2282 1.98614E+01-3.70738E-02-4.33733E-04 1.62996E-01-5.16256E-14-1.64420E-13
 -1      2283 1.98384E+01-2.84848E-02-5.47865E-04 1.24360E-01-9.58588E-14-1.22851E-13
 -1      2284 1.98585E+01-2.70921E-02 1.75335E-04 1.14782E-01-9.09897E-14-1.12373E-13
 -1      2285 1.98806E+01-3.75727E-02-2.84828E-04 1.42738E-01-5.50665E-14-1.14209E-13
 -1      2286 1.98676E+01-2.57960E-02-5.59424E-04 1.04680E-01-1.01820E-13-1.75157E-13
 -1      2287 1.98855E+01-2.36644E-02 1.67122E-04 9.60226E-02-1.03736E-13-1.86763E-13
 -1      2288 1.99001E+01-3.48717E-02-1.93741E-04 1.21876E-01-1.15625E-13-8.90745E-14
 -1      2289 1.98940E+01-2.17610E-02-5.26333E-04 8.71678E-02-9.05283E-14-2.10786E-13
 -1      2290 1.99098E+01-1.91397E-02 1.83927E-04 7.99727E-02-9.09041E-14-1.97313E-13
 -1      2291 1.99188E+01-3.00892E-02-1.48684E-04 1.02595E-01-1.05601E-13-2.02975E-13
 -1      2292 1.99179E+01-1.68016E-02-4.67814E-04 7.29157E-02-8.67783E-14-1.96455E-13
 -1      2293 1.99320E+01-1.38101E-02 2.27449E-04 6.75720E-02-9.36392E-14-1.95803E-13
 -1      2294 1.99363E+01-2.39023E-02-1.41185E-04 8.63849E-02-9.26049E-14-1.90884E-13
 -1      2295 1.99397E+01-1.11086E-02-3.96851E-04 6.27276E-02-7.56971E-14-1.58411E-13
 -1      2296 1.99527E+01-7.76528E-03 3.00864E-04 5.95591E-02 1.63915E-14-1.23818E-13
 -1      2297 1.99530E+01-1.66543E-02-1.65576E-04 7.43209E-02-7.32875E-14-1.55899E-13
 -1      2298 1.99604E+01-4.69088E-03-3.22058E-04 5.72943E-02-3.80161E-15-1.56343E-13
 -1      2299 1.99732E+01-9.33031E-04 4.08878E-04 5.66265E-02 7.34001E-15-1.81927E-13
 -1      2300 1.99692E+01-8.42811E-03-2.18452E-04 6.72757E-02-5.27246E-15-1.72932E-13
 -1      2301 1.99812E+01 2.58934E-03-2.49065E-04 5.73298E-02 2.25810E-14-2.22689E-13
 -1      2302 1.99948E+01 6.89192E-03 5.57723E-04 5.95442E-02 7.85504E-14-2.64467E-13
 -1      2303 1.99858E+01 9.01634E-04-2.98114E-04 6.60886E-02-3.14088E-15-1.93212E-13
 -1      2304 2.00038E+01 1.09920E-02-1.81610E-04 6.36806E-02 1.31174E-13-2.97215E-13
 -1      2305 2.00194E+01 1.60271E-02 7.55110E-04 6.92587E-02 2.30708E-14-3.25644E-13
 -1      2306 2.00037E+01 1.16314E-02-4.03959E-04 7.16968E-02 4.59847E-14-3.05372E-13
 -1      2307 2.00299E+01 2.08809E-02-1.22439E-04 7.74137E-02 1.74983E-14-2.84870E-13
 -1      2308 2.00489E+01 2.68867E-02 1.01006E-03 8.69744E-02 1.09408E-13-3.43030E-13
 -1      2309 2.00244E+01 2.42021E-02-5.35816E-04 8.52407E-02 4.60147E-14-3.26831E-13
 -1      2310 2.00618E+01 3.27093E-02-7.40662E-05 9.98887E-02 1.18049E-13-4.01907E-13
 -1      2311 2.00858E+01 3.99665E-02 1.33248E-03 1.14217E-01 4.79416E-14-3.42414E-13
 -1      2312 2.00492E+01 3.91774E-02-6.93173E-04 1.08146E-01 4.57637E-14-3.22585E-13
 -1      2313 2.01019E+01 4.70029E-02-3.94014E-05 1.32811E-01-1.74239E-14-3.11634E-13
 -1      2314 2.01329E+01 5.58236E-02 1.73230E-03 1.52878E-01-6.08479E-14-2.09324E-13
 -1      2315 2.00798E+01 5.72213E-02-8.74215E-04 1.42183E-01 4.02614E-14-2.99715E-13
 -1      2316 2.01531E+01 6.43324E-02-2.22059E-05 1.78264E-01-5.90205E-14-1.22799E-13
 -1      2317 2.01934E+01 7.50373E-02 2.21773E-03 2.05232E-01-3.22443E-14-1.43026E-13
 -1      2318 2.01181E+01 7.90650E-02-1.07467E-03 1.89503E-01-4.83958E-15-1.79106E-13
 -1      2319 2.02186E+01 8.52606E-02-2.71886E-05 2.38703E-01-8.75307E-14-1.29271E-13
 -1      2320 2.02707E+01 9.81328E-02 2.79207E-03 2.73900E-01-5.76886E-14-1.46408E-13
 -1      2321 2.01662E+01 1.05443E-01-1.28656E-03 2.52634E-01-5.19517E-14-1.50686E-13
 -1      2322 2.03019E+01 1.10234E-01-5.93214E-05 3.16882E-01-8.07192E-14-1.48524E-13
 -1      2323 2.03687E+01 1.25426E-01 3.44807E-03 3.61728E-01-9.36646E-14-1.44662E-13
 -1      2324 2.02261E+01 1.36969E-01-1.49724E-03 3.34408E-01-8.85173E-14-1.37507E-13
 -1      2325 2.04068E+01 1.39372E-01-1.21506E-04 4.15674E-01-1.05058E-13-1.08896E-13
 -1      2326 2.04913E+01 1.56721E-01 4.15819E-03 4.71502E-01-5.50265E-15-8.36525E-14
 -1      2327 2.03000E+01 1.73889E-01-1.68970E-03 4.37790E-01-1.14778E-13-6.76778E-14
 -1      2328 2.05373E+01 1.72054E-01-2.08974E-04 5.37666E-01 1.56255E-14-1.90792E-13
 -1      2329 2.06426E+01 1.90747E-01 4.85888E-03 6.05376E-01 5.34193E-14-2.55487E-13
 -1      2330 2.03899E+01 2.15608E-01-1.84616E-03 5.65518E-01-6.79696E-14-5.89825E-14
 -1      2331 2.06976E+01 2.06174E-01-2.97637E-04 6.84406E-01 1.62344E-13-2.62552E-13
 -1      2332 2.08264E+01 2.24138E-01 5.42668E-03 7.63809E-01 1.96680E-13-2.51061E-13
 -1      2333 2.04976E+01 2.59830E-01-1.95902E-03 7.19439E-01 9.18065E-14-2.25718E-13
 -1      2334 2.08919E+01 2.36814E-01-3.22153E-04 8.55023E-01 1.78217E-13-2.84588E-13
 -1      2335 2.10465E+01 2.49696E-01 5.64488E-03 9.43700E-01 2.64709E-13-1.93155E-13
 -1      2336 2.06254E+01 3.01031E-01-2.05601E-03 8.99348E-01 1.98763E-13-2.13527E-13
 -1      2337 2.11252E+01 2.54070E-01-1.38874E-04 1.04387E+00 2.29504E-13-2.16047E-13
 -1      2338 2.13067E+01 2.53670E-01 5.16248E-03 1.13527E+00 1.23343E-13-9.35412E-14
 -1      2339 2.07763E+01 3.27946E-01-2.24879E-03 1.10106E+00 2.29819E-13-2.23472E-13
 -1      2340 2.14050E+01 2.39812E-01 5.27082E-04 1.23666E+00 5.07967E-14-1.08573E-13
 -1      2341 2.16130E+01 2.12019E-01 3.45303E-03 1.31722E+00 6.24204E-14-3.47536E-15
 -1      2342 2.09568E+01 3.19779E-01-2.81153E-03 1.31333E+00 8.85234E-14-1.82655E-13
 -1      2343 2.17434E+01 1.63731E-01 2.13106E-03 1.40448E+00 8.33636E-14-1.23314E-13
 -1      2344 2.19758E+01 8.67738E-02-1.91502E-04 1.44976E+00 8.96428E-14 1.88476E-14
 -1      2345 2.11808E+01 2.41407E-01-4.27176E-03 1.51307E+00 3.27966E-14-2.15394E-13
 -1      2346 2.21624E+01-1.90981E-02 5.30954E-03 1.49544E+00 6.80256E-14 5.84558E-15
 -1      2347 2.24146E+01-1.73400E-01-6.56042E-03 1.46615E+00 1.11212E-13-4.34967E-14
 -1      2348 2.14775E+01 3.97049E-02-7.40347E-03 1.65833E+00 1.01995E-13-2.09341E-13
 -1      2349 2.26963E+01-3.62510E-01 1.05979E-02 1.42467E+00 8.86919E-14-5.65424E-14
 -1      2350 2.29592E+01-6.17790E-01-1.61269E-02 1.26571E+00 1.49017E-13-6.88473E-14
 -1      2351 2.18999E+01-3.52216E-01-1.28314E-02 1.67846E+00 1.23188E-13-2.65489E-13
 -1      2352 2.33845E+01-9.00144E-01 1.74174E-02 1.06839E+00 2.42646E-13-5.49370E-14
 -1      2353 2.36375E+01-1.24289E+00-2.75710E-02 7.18512E-01 1.84091E-13 5.10130E-14
 -1      2354 2.25296E+01-9.86163E-01-1.96897E-02 1.46247E+00 1.56653E-13-2.23113E-13
 -1      2355 2.42330E+01-1.56948E+00 2.20255E-02 2.79774E-01 1.09897E-13 6.44177E-14
 -1      2356 2.44279E+01-1.88724E+00-3.69647E-02-2.92055E-01 7.55507E-14 1.22842E-13
 -1      2357 2.34545E+01-1.81945E+00-2.32702E-02 8.54927E-01 1.96587E-13-2.60577E-13
 -1      2358 2.51193E+01-2.07465E+00 1.20854E-02-1.02434E+00 7.93723E-14 8.73824E-14
 -1      2359 2.51729E+01-2.09729E+00-3.67348E-02-1.73328E+00 6.17830E-14 9.27390E-14
 -1      2360 2.46806E+01-2.55516E+00-1.41136E-02-3.02732E-01 6.96650E-14-1.44741E-13
 -1      2361 2.57094E+01-1.84191E+00-3.09308E-02-2.62441E+00 8.94953E-14 1.52338E-13
 -1      2362 2.55375E+01-1.22428E+00-2.11642E-02-3.18860E+00 2.51448E-14 1.81784E-13
 -1      2363 2.59409E+01-2.55232E+00-1.23264E-02-1.96895E+00 1.20508E-13 2.53512E-14
 -1      2364 2.55924E+01-2.86060E-01-9.04162E-02-3.72840E+00-1.49106E-13 1.42244E-13
 -1      2365 2.52256E+01 9.19736E-01-5.43811E-03-3.68463E+00-2.61138E-13 2.63761E-13
 -1      2366 2.67086E+01-1.01359E+00-2.55204E-02-3.57825E+00-4.69833E-14 9.33351E-14
 -1      2367 2.48384E+01 2.06561E+00-1.31627E-01-3.19105E+00-3.30527E-13 2.06359E-13
 -1      2368 2.44710E+01 2.99316E+00-6.36485E-02-2.37672E+00-3.75019E-13 2.51788E-13
 -1      2369 2.65902E+01 1.95213E+00-5.75145E-02-3.85864E+00-2.79193E-13-1.64868E-14
 -1      2370 2.43318E+01 3.37893E+00-7.22284E-02-9.82153E-01-3.58907E-13 2.30670E-13
 -1      2371 2.41812E+01 3.07636E+00-1.25463E-01 7.90159E-02-1.92971E-13 2.24504E-13
 -1      2372 2.61901E+01 4.22110E+00-5.13245E-02-1.78351E+00-3.19411E-13 6.46705E-14
 -1      2373 2.44455E+01 2.31933E+00-3.24211E-03 1.21425E+00-2.28151E-14 2.02264E-13
 -1      2374 2.45679E+01 1.12612E+00-9.88469E-02 1.76249E+00 1.24085E-13 1.10729E-13
 -1      2375 2.61167E+01 3.61385E+00-6.08203E-02 8.65689E-01-1.29508E-13-1.52760E-14
 -1      2376 2.45920E+01-1.14481E-02-2.14586E-02 1.74654E+00 4.05301E-14 3.76348E-15
 -1      2377 2.46480E+01-9.26412E-01-5.97577E-02 1.57326E+00 8.87242E-14 1.93699E-14
 -1      2378 2.62418E+01 7.42231E-01-1.08762E-01 1.92448E+00-5.51781E-14-7.31359E-15
 -1      2379 2.42506E+01-1.52912E+00-1.82973E-02 8.37758E-01 7.55403E-14 5.81479E-15
 -1      2380 2.40440E+01-1.73786E+00-2.25564E-03 2.79836E-01-1.39807E-13 5.54591E-14
 -1      2381 2.57876E+01-1.67229E+00-1.66102E-02 1.07520E+00 2.11983E-14 1.15449E-13
 -1      2382 2.32645E+01-1.62826E+00-3.56198E-02-4.35040E-01-2.44751E-13 2.66536E-13
 -1      2383 2.28892E+01-1.30346E+00 1.20754E-02-9.03260E-01-2.43913E-13 2.42820E-13
 -1      2384 2.44267E+01-2.20198E+00-3.29553E-02-5.26369E-01-1.31198E-13 4.22926E-15
 -1      2385 1.23373E+01-4.96253E+00 2.34106E-02 8.18120E+00-6.55476E-13 6.52867E-13
 -1      2386 9.38045E+00-4.15212E+00 1.23337E-01 6.79652E+00-4.62214E-13 1.62093E-13
 -1      2387 1.96249E+01 7.25737E-02 2.07274E-03-6.65372E-02 1.12845E-13-5.11380E-15
 -1      2388 1.96522E+01 1.04308E-01 6.89382E-03-2.03600E-02 1.62032E-13 3.86782E-14
 -1      2389 1.96014E+01 3.06597E-02 1.33661E-03-1.32139E-01 9.39197E-14-5.87771E-14
 -1      2390 1.95983E+01 4.95750E-02 3.67715E-03-1.09656E-01 8.97496E-14-2.78051E-14
 -1      2391 1.97692E+01 8.98375E-02-3.15160E-03-7.18883E-02 1.45302E-13-6.58276E-14
 -1      2392 1.96134E+01 5.58929E-03 8.65552E-04-1.60499E-01 1.13098E-13-8.45070E-14
 -1      2393 1.95934E+01 1.68592E-02 1.81471E-03-1.52299E-01 1.15468E-13-8.08257E-14
 -1      2394 1.97350E+01 3.57743E-02-2.27743E-03-1.44158E-01 1.28847E-13-1.25859E-13
 -1      2395 1.96455E+01-9.06069E-03 5.43954E-04-1.66065E-01 6.59933E-14-8.16416E-14
 -1      2396 1.96172E+01-2.60655E-03 7.14338E-04-1.66429E-01 7.55739E-14-6.39295E-14
 -1      2397 1.97315E+01 3.60612E-03-1.51026E-03-1.75820E-01 8.82825E-14-1.89827E-13
 -1      2398 1.96872E+01-1.69934E-02 3.20589E-04-1.58176E-01 2.04709E-14-5.79806E-14
 -1      2399 1.96560E+01-1.36552E-02 6.18365E-05-1.63444E-01 5.36975E-14-7.40222E-14
 -1      2400 1.97466E+01-1.49619E-02-9.32946E-04-1.82362E-01 5.23394E-14-1.41576E-13
 -1      2401 1.97318E+01-2.05291E-02 1.70584E-04-1.42983E-01 7.72435E-14-9.56776E-14
 -1      2402 1.97010E+01-1.92257E-02-3.13128E-04-1.50760E-01 3.92577E-14-6.62562E-14
 -1      2403 1.97718E+01-2.47665E-02-5.28797E-04-1.73982E-01 4.66860E-14-7.94887E-14
 -1      2404 1.97752E+01-2.11891E-02 7.77604E-05-1.24571E-01 1.55408E-13-1.26955E-13
 -1      2405 1.97467E+01-2.12075E-02-5.08584E-04-1.33276E-01 1.39594E-13-1.00906E-13
 -1      2406 1.98013E+01-2.88495E-02-2.59788E-04-1.57494E-01 1.40148E-13-1.06704E-13
 -1      2407 1.98153E+01-1.99871E-02 3.00489E-05-1.05638E-01 1.52841E-13-1.44768E-13
 -1      2408 1.97899E+01-2.08536E-02-5.86961E-04-1.14233E-01 1.52876E-13-1.01631E-13
 -1      2409 1.98316E+01-2.92033E-02-9.09736E-05-1.37458E-01 1.48160E-13-1.70954E-13
 -1      2410 1.98510E+01-1.75900E-02 1.88558E-05-8.79575E-02 1.20177E-13-1.42829E-13
 -1      2411 1.98290E+01-1.89970E-02-5.90019E-04-9.57651E-02 1.38564E-13-1.16556E-13
 -1      2412 1.98605E+01-2.71488E-02 4.75518E-06-1.16911E-01 1.14547E-13-8.44817E-14
 -1      2413 1.98824E+01-1.44148E-02 3.87833E-05-7.26966E-02 1.49522E-14-9.09907E-14
 -1      2414 1.98635E+01-1.61751E-02-5.46053E-04-7.92692E-02 1.16817E-13-8.68954E-14
 -1      2415 1.98871E+01-2.35461E-02 4.72766E-05-9.78711E-02 7.10544E-14-5.75224E-14
 -1      2416 1.99101E+01-1.06925E-02 8.72335E-05-6.06493E-02-2.69322E-14-1.18525E-13
 -1      2417 1.98937E+01-1.27090E-02-4.74038E-04-6.56762E-02-3.87845E-14-9.77800E-14
 -1      2418 1.99111E+01-1.89232E-02 5.06988E-05-8.16869E-02 2.34197E-14-8.27349E-14
 -1      2419 1.99350E+01-6.51399E-03 1.63936E-04-5.24117E-02 1.79151E-14-1.55511E-13
 -1      2420 1.99204E+01-8.75777E-03-3.86335E-04-5.56473E-02 1.07604E-14-1.24271E-13
 -1      2421 1.99330E+01-1.35611E-02 2.47156E-05-6.93023E-02-2.34682E-14-1.18203E-13
 -1      2422 1.99587E+01-1.86463E-03 2.70422E-04-4.85114E-02 2.08702E-14-2.07099E-14
 -1      2423 1.99448E+01-4.35755E-03-2.90592E-04-4.97226E-02 1.99790E-14-7.38051E-14
 -1      2424 1.99534E+01-7.55525E-03-2.43354E-05-6.14499E-02-4.16873E-14-8.99147E-14
 -1      2425 1.99828E+01 3.34598E-03 4.09450E-04-4.95041E-02 3.56742E-14 1.97097E-15
 -1      2426 1.99686E+01 5.45984E-04-1.91114E-04-4.84311E-02 6.22921E-14 1.73831E-14
 -1      2427 1.99734E+01-8.63201E-04-9.25605E-05-5.87966E-02-5.14859E-15 2.80192E-14
 -1      2428 2.00094E+01 9.25612E-03 5.84244E-04-5.60374E-02 2.36636E-14 2.09432E-14
 -1      2429 1.99936E+01 6.06951E-03-8.99327E-05-5.23690E-02 2.70390E-14 2.75980E-14
 -1      2430 1.99944E+01 6.65399E-03-1.77713E-04-6.20475E-02 3.16555E-14 3.37490E-14
 -1      2431 2.00408E+01 1.60208E-02 7.97416E-04-6.88848E-02 4.66000E-14-6.94621E-14
 -1      2432 2.00219E+01 1.23632E-02 1.23496E-05-6.22467E-02 8.65006E-14 2.23307E-14
 -1      2433 2.00180E+01 1.51913E-02-2.78529E-04-7.20129E-02 8.20876E-14 8.93333E-14
 -1      2434 2.00797E+01 2.37722E-02 1.04941E-03-8.89433E-02 1.84788E-13-2.26477E-13
 -1      2435 2.00560E+01 1.95764E-02 1.15871E-04-7.89048E-02 7.08754E-14-1.81098E-13
 -1      2436 2.00460E+01 2.49529E-02-3.94065E-04-8.96374E-02 1.63365E-13-5.30035E-14
 -1      2437 2.01290E+01 3.25634E-02 1.33619E-03-1.17183E-01 1.16991E-13-1.98156E-13
 -1      2438 2.00987E+01 2.78110E-02 2.20928E-04-1.03287E-01 1.94666E-13-1.78266E-13
 -1      2439 2.00807E+01 3.60914E-02-5.23057E-04-1.15983E-01 1.75762E-13-1.28904E-13
 -1      2440 2.01921E+01 4.22877E-02 1.64598E-03-1.54531E-01-7.00609E-14-1.69952E-13
 -1      2441 2.01531E+01 3.70552E-02 3.27477E-04-1.36357E-01 4.50651E-14-1.77462E-13
 -1      2442 2.01243E+01 4.86207E-02-6.63362E-04-1.52152E-01 3.35337E-14-2.85199E-14
 -1      2443 2.02724E+01 5.25600E-02 1.95454E-03-2.01663E-01-1.20060E-13-1.78909E-13
 -1      2444 2.02227E+01 4.70861E-02 4.34770E-04-1.78940E-01-1.33953E-13-1.82661E-13
 -1      2445 2.01796E+01 6.22913E-02-8.11517E-04-1.99128E-01-7.85218E-14-3.57862E-14
 -1      2446 2.03736E+01 6.25454E-02 2.21900E-03-2.58654E-01-1.02389E-13-3.26579E-13
 -1      2447 2.03109E+01 5.73285E-02 5.41176E-04-2.31444E-01-1.14033E-13-3.06386E-13
 -1      2448 2.02492E+01 7.64070E-02-9.62601E-04-2.57503E-01-4.12892E-14-2.52774E-13
 -1      2449 2.04987E+01 7.07225E-02 2.37002E-03-3.24459E-01 6.81420E-14-3.27242E-13
 -1      2450 2.04214E+01 6.66537E-02 6.44349E-04-2.93433E-01-2.69818E-14-3.54907E-13
 -1      2451 2.03362E+01 8.95670E-02-1.11065E-03-3.27040E-01-2.47616E-14-5.17669E-13
 -1      2452 2.06504E+01 7.45746E-02 2.30342E-03-3.96139E-01 9.10381E-14-2.54793E-13
 -1      2453 2.05574E+01 7.31083E-02 7.41942E-04-3.62980E-01 1.08087E-13-2.57819E-13
 -1      2454 2.04434E+01 9.93145E-02-1.24982E-03-4.06033E-01 7.28870E-14-4.10947E-13
 -1      2455 2.08298E+01 7.02342E-02 1.87361E-03-4.67811E-01 1.45151E-13-2.71484E-13
 -1      2456 2.07214E+01 7.35774E-02 8.32944E-04-4.35756E-01 9.95847E-14-2.23814E-13
 -1      2457 2.05735E+01 1.01696E-01-1.37640E-03-4.90383E-01 6.07603E-14-3.35912E-13
 -1      2458 2.10358E+01 5.21771E-02 8.94758E-04-5.29312E-01 2.09578E-14-9.45134E-14
 -1      2459 2.09143E+01 6.34336E-02 9.19205E-04-5.03827E-01 1.32760E-13-1.24979E-13
 -1      2460 2.07287E+01 9.07908E-02-1.49045E-03-5.72383E-01 3.90154E-14-2.48956E-13
 -1      2461 2.12640E+01 1.32160E-02-8.39464E-04-5.64733E-01-3.49337E-14 1.11088E-14
 -1      2462 2.11346E+01 3.63288E-02 1.00513E-03-5.54195E-01-2.08300E-14 5.54026E-14
 -1      2463 2.09107E+01 5.83887E-02-1.59424E-03-6.39214E-01-8.76613E-14 3.94720E-14
 -1      2464 2.15050E+01-5.46845E-02-3.49906E-03-5.51267E-01-1.25566E-13 3.84328E-15
 -1      2465 2.13772E+01-1.55080E-02 1.08996E-03-5.67380E-01-1.37442E-13-1.79749E-14
 -1      2466 2.11196E+01-5.74254E-03-1.68018E-03-6.71367E-01-1.12658E-13 2.34563E-13
 -1      2467 2.17431E+01-1.57868E-01-7.09801E-03-4.59401E-01-1.30652E-13 1.21585E-13
 -1      2468 2.16315E+01-9.97711E-02 1.14347E-03-5.16705E-01-5.41297E-14 4.82949E-14
 -1      2469 2.13541E+01-1.12168E-01-1.69588E-03-6.41533E-01-1.22148E-13 2.20231E-13
 -1      2470 2.19541E+01-2.95523E-01-1.12899E-02-2.56326E-01-4.10943E-14 2.31400E-13
 -1      2471 2.18790E+01-2.20290E-01 1.05147E-03-3.69745E-01-9.33669E-14 1.45953E-13
 -1      2472 2.16087E+01-2.67308E-01-1.47292E-03-5.15158E-01-1.59281E-13 3.80430E-13
 -1      2473 2.21030E+01-4.50581E-01-1.50938E-02 8.45812E-02 1.11469E-14 3.45603E-13
 -1      2474 2.20895E+01-3.69806E-01 5.33176E-04-9.44574E-02-3.52357E-14 3.06425E-13
 -1      2475 2.18703E+01-4.64642E-01-6.35350E-04-2.54932E-01-8.80752E-14 5.33408E-13
 -1      2476 2.21434E+01-5.78908E-01-1.66614E-02 5.65295E-01-1.07261E-13 5.32391E-13
 -1      2477 2.22176E+01-5.19477E-01-9.07770E-04 3.26628E-01 3.71578E-15 4.70223E-13
 -1      2478 2.21115E+01-6.71357E-01 1.41831E-03 1.67287E-01-7.07045E-14 5.43417E-13
 -1      2479 2.20211E+01-6.05521E-01-1.36098E-02 1.13569E+00-1.59490E-13 3.93752E-13
 -1      2480 2.22022E+01-6.09546E-01-3.78382E-03 8.71688E-01-1.06411E-13 4.96392E-13
 -1      2481 2.22822E+01-8.15079E-01 5.24024E-03 7.47217E-01-6.00533E-14 4.36601E-13
 -1      2482 2.16915E+01-4.45696E-01-4.53521E-03 1.66814E+00-4.46132E-14 1.93921E-13
 -1      2483 2.19785E+01-5.54968E-01-8.02944E-03 1.44897E+00-1.72335E-13 3.29482E-13
 -1      2484 2.23069E+01-7.86791E-01 1.01808E-02 1.41333E+00-6.85853E-14 1.79589E-13
 -1      2485 2.11560E+01-6.44841E-02 8.16425E-03 1.96359E+00-1.50963E-13 2.30675E-13
 -1      2486 2.15141E+01-2.84529E-01-1.16829E-02 1.88307E+00 1.14557E-14 1.85791E-13
 -1      2487 2.21080E+01-4.84497E-01 1.31409E-02 1.99703E+00-4.25283E-14 2.56659E-13
 -1      2488 2.05073E+01 4.47856E-01 1.73480E-02 1.82805E+00-2.02990E-13 1.83580E-13
 -1      2489 2.08655E+01 1.83004E-01-1.15613E-02 1.95809E+00-3.04222E-13 1.84773E-13
 -1      2490 2.16663E+01 9.58661E-02 9.22175E-03 2.25026E+00-2.00487E-13 3.44075E-13
 -1      2491 1.99341E+01 8.67621E-01 1.62919E-02 1.21127E+00 1.44631E-13 2.31994E-13
 -1      2492 2.02065E+01 6.84807E-01-3.91853E-03 1.54150E+00-6.03380E-14 1.61270E-13
 -1      2493 2.10937E+01 7.75167E-01-3.70794E-03 1.96012E+00-5.27989E-14 7.38882E-14
 -1      2494 1.96366E+01 9.66332E-01 6.20702E-03 3.10469E-01 2.34004E-13 2.24985E-13
 -1      2495 1.97616E+01 9.66853E-01 9.31237E-03 7.23421E-01 3.15143E-13 3.46897E-13
 -1      2496 2.06265E+01 1.24261E+00-1.47044E-02 1.13151E+00 1.28736E-13 3.10190E-13
 -1      2497 1.96770E+01 7.02828E-01-4.45760E-03-5.13306E-01 2.00930E-13 2.57571E-13
 -1      2498 1.96511E+01 8.74831E-01 1.94592E-02-1.77896E-01 1.77051E-13 2.49283E-13
 -1      2499 2.04637E+01 1.24936E+00-1.39276E-02 7.78070E-02 2.64157E-13 3.46742E-13
 -1      2500 1.99275E+01 2.62188E-01-8.12830E-03-9.69385E-01 1.89631E-13 3.67221E-13
 -1      2501 1.98041E+01 4.89984E-01 1.89146E-02-8.11704E-01 1.83565E-13 3.63889E-13
 -1      2502 2.05934E+01 8.22285E-01-1.80142E-03-7.58017E-01 9.25943E-14 4.38520E-13
 -1      2503 2.01758E+01-1.02937E-01-5.13152E-03-1.00985E+00 1.89282E-14 3.17295E-13
 -1      2504 2.00295E+01 5.84877E-02 8.51810E-03-1.02083E+00 2.78532E-16 3.50361E-13
 -1      2505 2.08046E+01 2.38706E-01 9.84595E-03-1.10516E+00 1.27106E-13 4.59175E-13
 -1      2506 2.02802E+01-2.55702E-01 1.12920E-03-7.94165E-01-3.95114E-14 4.08973E-13
 -1      2507 2.01662E+01-2.08352E-01-3.95086E-03-8.93550E-01 2.95088E-14 3.92808E-13
 -1      2508 2.08786E+01-1.96849E-01 1.19352E-02-1.00951E+00-4.90841E-14 3.43231E-13
 -1      2509 2.02179E+01-2.40807E-01 3.88780E-03-5.39904E-01-2.58773E-13 7.15290E-13
 -1      2510 2.01560E+01-2.56762E-01-9.08098E-03-6.41640E-01-1.05179E-13 6.14904E-13
 -1      2511 2.07359E+01-3.40043E-01 1.22635E-02-7.09444E-01-2.02758E-13 7.00375E-13
 -1      2512 2.00614E+01-2.11354E-01-3.21241E-03-4.29325E-01-3.80248E-13 5.56374E-13
 -1      2513 2.19495E+01-2.77368E-01 2.12693E-02 3.33467E+00-2.43575E-13-2.32626E-14
 -1      2514 2.20741E+01-6.53103E-01 4.64739E-03 2.64181E+00-1.05299E-13-1.86471E-13
 -1      2515 2.09020E+01 4.75821E-01-1.23516E-02 4.59896E+00-7.55385E-14 1.15739E-13
 -1      2516 2.15829E+01-8.45629E-02 3.97447E-02 4.14817E+00-1.39422E-13 1.41415E-14
 -1      2517 2.22728E+01-1.16901E+00-1.47156E-02 4.03284E+00-2.39158E-13 4.15067E-14
 -1      2518 2.15018E+01-5.10700E-01 3.46456E-02 5.97203E-01-1.70914E-13 3.55020E-13
 -1      2519 2.11496E+01-5.68369E-01-1.50132E-02 1.38323E-01-1.73334E-13 3.50617E-13
 -1      2520 2.19990E+01-5.30845E-01 3.53708E-02 1.81857E+00-1.63611E-13 4.68028E-15
 -1      2521 2.17754E+01-7.11801E-01-9.27067E-03 1.19306E+00-2.13303E-13 3.06790E-13
 -1      2522 2.21158E+01-9.04744E-01-1.12616E-03 8.50189E-01-2.63557E-13 2.71726E-13
 -1      2523 2.26613E+01-1.19300E+00 1.09341E-03 2.29675E+00-2.81293E-13-7.43255E-14
 -1      2524 1.87786E+01 1.79976E+00-4.88593E-02 4.76004E+00-1.43774E-14 4.46206E-13
 -1      2525 1.99754E+01 1.14720E+00 7.76109E-02 4.94278E+00-1.30790E-13 4.31498E-13
 -1      2526 2.05574E+01-4.39944E-01 2.69875E-03 5.35419E+00-2.10070E-13 2.43134E-13
 -1      2527 1.64742E+01 3.26800E+00-4.29679E-02 3.01945E+00 1.13562E-13-1.91791E-14
 -1      2528 1.75470E+01 2.77300E+00 8.16457E-02 4.06976E+00 8.44307E-14 2.12622E-13
 -1      2529 1.76186E+01 1.04823E+00 5.00150E-02 5.12834E+00-3.26822E-14 4.24875E-13
 -1      2530 1.56704E+01 3.89437E+00 1.48892E-02-2.39801E-01 2.48831E-13-5.19099E-13
 -1      2531 1.58006E+01 3.82211E+00 3.10848E-02 1.29102E+00 2.76204E-13-3.37508E-13
 -1      2532 1.50058E+01 2.52215E+00 1.24059E-01 2.53924E+00 3.09230E-13-4.91274E-14
 -1      2533 1.70187E+01 3.17166E+00 7.38050E-02-3.26237E+00 3.89599E-14-1.18311E-12
 -1      2534 1.61126E+01 3.54175E+00-3.38417E-02-2.06692E+00 2.24131E-13-1.00916E-12
 -1      2535 1.47102E+01 2.71488E+00 1.36030E-01-1.37679E+00 3.14974E-13-6.82739E-13
 -1      2536 1.94273E+01 1.64038E+00 8.21327E-02-4.61030E+00-4.89773E-14-3.24164E-13
 -1      2537 1.81992E+01 2.23738E+00-5.37377E-02-4.22336E+00 3.07978E-14-7.52610E-13
 -1      2538 1.69022E+01 1.47364E+00 6.88704E-02-4.39800E+00 9.25857E-14-8.85618E-13
 -1      2539 2.12543E+01 3.43338E-01 5.08368E-02-4.14956E+00 2.46331E-16 5.78914E-13
 -1      2540 2.04511E+01 8.86996E-01-2.30993E-02-4.46469E+00-1.45738E-14 1.41056E-13
 -1      2541 1.99094E+01-9.66211E-02 8.12569E-04-5.13779E+00 5.47826E-14-1.88311E-13
 -1      2542 2.18998E+01-2.50025E-01 2.71109E-02-2.79433E+00-3.43477E-13 2.05600E-13
 -1      2543 2.16881E+01 8.23896E-02 1.23930E-02-3.39560E+00-2.15961E-13 5.74127E-13
 -1      2544 2.19528E+01-9.39305E-01-5.04634E-03-4.06657E+00-1.72890E-13 3.95350E-13
 -1      2545 2.12243E+01 8.35801E-02-2.09957E-02-1.59034E+00-2.20162E-13 3.45730E-15
 -1      2546 2.85443E+01-4.84237E+00-1.17365E-01 4.68414E+00-7.50622E-13 5.05984E-14
 -1      2547 2.58317E+01-5.70502E+00 1.15086E-01 5.96434E+00-7.96641E-13 3.10876E-13
 -1      2548 1.97059E+01 1.43380E-01 3.27559E-03 5.95643E-02 1.80545E-13 4.47869E-14
 -1      2549 1.97843E+01 1.98184E-01 1.23605E-02 1.45810E-01 1.90552E-13 7.40237E-14
 -1      2550 1.98501E+01 1.81132E-01-3.79898E-03 6.50168E-02 1.80924E-13-2.79874E-14
 -1      2551 2.12103E+01-6.06708E+00-7.75878E-02 7.95839E+00-8.08631E-13 6.06959E-13
 -1      2552 1.65423E+01-5.65601E+00 1.32391E-01 8.23509E+00-8.33583E-13 9.89112E-13
 -1      2553 6.80099E+00-4.73622E+00 1.22727E-02-5.54689E+00-4.95604E-13-1.09629E-12
 -1      2554 1.04306E+01-4.95846E+00 4.06485E-02-7.33819E+00-2.34757E-13-6.89532E-13
 -1      2555 4.06011E+00-3.38871E+00 7.63078E-02-1.87527E+00-3.99361E-13-7.66331E-13
 -1      2556 5.01775E+00-4.04633E+00 2.75491E-02-4.03947E+00-4.61076E-13-1.05327E-12
 -1      2557 8.29289E+00-2.78905E+00 1.61278E-01-5.03301E+00-1.98647E-13-1.14764E-12
 -1      2558 3.43653E+01 3.59907E+00-1.39631E-01-2.31616E+00-4.21690E-13-5.72292E-13
 -1      2559 3.33103E+01 1.31883E+00-9.05953E-02-1.87810E+00-3.27155E-13-6.74016E-13
 -1      2560 2.66669E+01-4.90254E+00-5.85374E-03-3.71534E+00 2.44166E-13-3.54522E-13
 -1      2561 2.95349E+01-3.42416E+00-1.20831E-01-2.30490E+00 3.77129E-13-2.35867E-13
 -1      2562 1.95182E+01 3.58498E+00-1.00910E-02-2.45219E-01-3.62582E-15-5.14882E-13
 -1      2563 1.95343E+01 3.56426E+00-9.66745E-03-4.25929E-01-5.55088E-14-5.07841E-13
 -1      2564 1.97107E+01 3.16376E+00-5.61872E-04-4.73168E-01-6.68838E-14-4.63451E-13
 -1      2565 1.96763E+01 3.22365E+00-9.12935E-04-1.51963E-01 1.02441E-14-4.90021E-13
 -1      2566 3.37002E+01 7.86357E+00-1.62725E-01 2.27963E-01 6.99163E-13-3.72119E-13
 -1      2567 3.33639E+01 6.66529E+00-1.43594E-01-3.26731E-01 4.94549E-13-4.92106E-13
 -1      2568 3.14791E+01-8.62460E-01-5.13885E-02-3.23295E-01 4.59112E-13-2.52687E-13
 -1      2569 3.31402E+01 1.26716E+00-1.44173E-01 4.91743E-01 4.77396E-13-1.98286E-13
 -1      2570 3.34821E+01 7.49995E+00-1.50186E-01 1.52249E+00 7.32248E-13-2.61222E-13
 -1      2571 3.35123E+01 8.00700E+00-1.86642E-01 9.52411E-01 7.54730E-13-2.17496E-13
 -1      2572 2.07143E+01-6.82602E+00-4.83792E-02 5.68988E+00-6.37268E-14-3.91624E-13
 -1      2573 1.67023E+01-6.80001E+00 5.42917E-02 6.10776E+00 9.28424E-14-3.55830E-13
 -1      2574 3.32969E+01 3.69745E+00-9.34322E-02 1.54405E+00 4.72206E-13-7.17204E-14
 -1      2575 3.34331E+01 5.74823E+00-1.91397E-01 1.88045E+00 4.86333E-13-7.16094E-14
 -1      2576 2.02416E+01-6.35240E+00 1.81111E-02-6.25565E+00-2.52576E-14-7.70453E-13
 -1      2577 2.35108E+01-5.86843E+00-5.80642E-02-5.60854E+00 9.99756E-14-6.73142E-13
 -1      2578 1.19685E+01-6.06711E+00 4.25099E-02-6.96989E+00-1.66533E-14-8.24535E-13
 -1      2579 1.63531E+01-6.20736E+00 5.60038E-03-7.27545E+00 4.39093E-14-7.40852E-13
 -1      2580 5.89511E+00-4.59339E+00 1.08132E-01-5.10877E+00 6.82510E-14-6.32105E-13
 -1      2581 8.34488E+00-5.22352E+00 5.26208E-02-6.50444E+00 5.59552E-14-8.24896E-13
 -1      2582 5.54696E+00-4.08656E+00 1.04086E-01 4.05948E+00-1.41359E-13-1.46716E-13
 -1      2583 4.09898E+00-3.58336E+00 1.68877E-01 2.09506E+00-1.76831E-13-1.67200E-13
 -1      2584 2.86911E+01-4.78778E+00-1.12313E-02-4.68206E+00 3.56687E-13-4.65350E-13
 -1      2585 3.10326E+01-3.37840E+00-1.07722E-01-2.93451E+00 3.03951E-13-2.45415E-13
 -1      2586 1.23733E+01-6.07892E+00 2.57580E-02 6.53547E+00-1.94844E-14-8.34333E-14
 -1      2587 8.31292E+00-5.29554E+00 8.28169E-02 5.44138E+00-5.99520E-14-4.47420E-14
 -1      2588 2.82978E+01-5.00220E+00-6.46556E-02 2.58073E+00-1.38611E-13-7.02577E-13
 -1      2589 2.47665E+01-6.26362E+00 8.63188E-03 3.77416E+00-1.18877E-13-5.50004E-13
 -1      2590 3.25444E+01-1.23971E+00-1.04557E-01-4.39467E-01-1.25209E-13-8.59868E-13
 -1      2591 3.04205E+01-3.18606E+00-6.39194E-02 6.32765E-01-1.12521E-13-7.51510E-13
 -1      2592 3.52808E+01 7.10501E+00-1.00936E-01-1.98469E+00-3.84526E-13-5.10994E-13
 -1      2593 3.48812E+01 5.95213E+00-8.65477E-02-2.29127E+00-4.15723E-13-5.92582E-13
 -1      2594 3.38487E+01 7.29138E+00-1.43695E-01-4.26335E-01-2.51132E-13-4.92814E-13
 -1      2595 3.44102E+01 7.52019E+00-1.30629E-01-1.34586E+00-3.23075E-13-5.37195E-13
 -1      2596 3.41485E+01 4.26898E+00-9.41367E-02 4.69308E-01-8.48210E-14-4.69846E-13
 -1      2597 3.40423E+01 5.80391E+00-1.84609E-01 2.66998E-01-1.47105E-13-4.47170E-13
 -1      2598 3.24031E+01-8.39993E-01-1.05080E-01-9.90453E-01 1.75152E-13-2.91378E-13
 -1      2599 3.39854E+01 2.00447E+00-8.59019E-02-1.95253E-01 1.50352E-13-3.73590E-13
 -1      2600 3.21863E+01 2.43831E+00 3.19115E-02 1.21925E+00 6.88338E-14-4.59466E-13
 -1      2601 2.23619E+01-6.53646E+00 1.47670E-03-7.18194E+00 1.61260E-13-4.56857E-13
 -1      2602 2.60005E+01-5.74035E+00-4.21812E-02-6.41823E+00 2.30593E-13-5.34045E-13
 -1      2603 2.75844E+01-5.79723E+00 2.49298E-02-4.95910E+00 2.97706E-13-5.21833E-13
 -1      2604 1.50547E+01-6.12563E+00 4.44977E-02-8.16764E+00 2.40363E-14-4.21066E-13
 -1      2605 1.88993E+01-6.39715E+00 1.22004E-02-8.24477E+00 1.37390E-13-4.34621E-13
 -1      2606 2.20732E+01-6.37680E+00 7.98994E-02-7.36250E+00 2.32703E-13-5.87502E-13
 -1      2607 3.32714E+01 4.34620E+00-1.88458E-01-4.46742E-01 2.91239E-13-4.76647E-13
 -1      2608 3.29201E+01 2.53250E+00-8.31645E-02-3.13346E-01 1.08524E-13-4.43978E-13
 -1      2609 2.04915E+01 8.74947E-01-7.30960E-03 1.22636E+00 3.95722E-13 1.96149E-13
 -1      2610 2.08419E+01 1.25694E+00-6.04952E-03 1.72707E+00 4.20899E-13 2.58177E-13
 -1      2611 2.06477E+01 1.71564E+00-1.57894E-02 1.92119E+00 4.49829E-13 1.14121E-13
 -1      2612 2.04499E+01 1.05804E+00-9.39131E-03 1.24106E+00 3.94060E-13 4.66270E-14
 -1      2613 3.14251E+01 5.19124E+00-1.02256E-01-9.73220E-01 4.01679E-13-6.49786E-13
 -1      2614 1.99129E+01 2.81066E+00 1.14333E-03-1.09705E+00-2.18801E-13-4.07036E-13
 -1      2615 1.97799E+01 3.15638E+00-1.62051E-02-1.28673E+00-2.53444E-13-4.33152E-13
 -1      2616 1.98831E+01 3.01294E+00-1.85370E-02-1.47662E+00-2.98173E-13-4.00855E-13
 -1      2617 1.99958E+01 3.40384E-01-3.50496E-03 3.04201E-01 2.36170E-13-3.03620E-15
 -1      2618 2.04231E+01 2.11581E+00-1.27799E-02 1.87418E+00 4.41072E-13-4.75887E-14
 -1      2619 3.18675E+01-4.02387E-01-1.26355E-02-2.27548E+00-2.60861E-13-5.97827E-13
 -1      2620 2.94099E+01-4.49438E+00 2.45991E-02 5.45927E-01-5.24164E-14-6.51812E-13
 -1      2621 3.14568E+01 4.36304E-01-7.25387E-02-2.77999E-01-1.54252E-13-3.58352E-13
 -1      2622 8.58141E+00-3.08394E+00 1.21967E-01 5.84243E+00-3.94296E-13 2.39475E-13
 -1      2623 8.20257E+00-1.56946E+00 2.20094E-01 4.45589E+00-4.11032E-13 4.36873E-13
 -1      2624 1.16044E+01-2.37790E+00 1.22822E-01 6.47740E+00-3.14720E-13 2.41807E-13
 -1      2625 2.40895E+01-5.69422E+00 9.06758E-02 6.60809E+00-7.76990E-13 3.27481E-13
 -1      2626 1.62239E+01-4.50851E+00 1.09823E-01 8.13899E+00-5.93886E-13 8.25076E-13
 -1      2627 2.04184E+01-3.23991E-01-4.29929E-03-4.33995E-01-3.10253E-13 1.00003E-12
 -1      2628 2.06933E+01-3.50118E-01 1.51610E-02-2.54114E-01-2.70787E-13 8.02635E-13
 -1      2629 1.60047E+01-5.89491E+00 1.29028E-01 6.09510E+00 2.87548E-14-2.98761E-13
 -1      2630 2.19134E+01-5.47455E-01 2.07780E-02-1.35162E+00-2.66839E-13 1.62613E-13
 -1      2631 2.19433E+01-3.35327E-01 1.36298E-02-2.08730E+00-3.75817E-13 1.33608E-13
 -1      2632 2.25448E+01-1.15941E+00-2.01626E-02-2.52171E+00-4.92607E-13 2.23565E-13
 -1      2633 2.22820E+01-1.00522E+00-3.90680E-02-1.19278E+00-3.23235E-13 2.63886E-13
 -1      2634 9.05483E+00-3.71157E+00 1.54901E-01 4.77084E+00-8.81240E-14-4.92939E-14
 -1      2635 2.95849E+01-3.90459E+00 8.47434E-03 2.64831E+00-7.21388E-13-1.36557E-13
 -1      2636 2.04370E+01 1.80812E+00 1.25473E-02 1.56191E+00 4.09017E-13-7.61613E-14
 -1      2637 6.62235E+00-1.12038E+00 1.52821E-01 1.50242E+00-3.03868E-13-9.46465E-14
 -1      2638 5.13801E+00-2.37185E+00 1.35644E-01-1.88236E-01-3.28590E-13-5.57332E-13
 -1      2639 7.06124E+00-1.04530E+00 1.22959E-01-1.69647E+00-6.79318E-15-1.04144E-12
 -1      2640 1.29801E+01-3.37494E+00 1.96611E-01-7.25463E+00-7.89646E-14-7.64583E-13
 -1      2641 1.38840E+01-5.08251E+00 9.74560E-02-7.88305E+00-1.38667E-13-6.00339E-13
 -1      2642 1.69378E+01-5.07392E+00-2.77179E-02-7.93824E+00 8.30724E-14-6.48259E-13
 -1      2643 5.51195E+00-3.66203E+00 1.22218E-01-4.05225E+00 8.27116E-14-6.56475E-13
 -1      2644 7.99103E+00-2.99496E+00 1.24249E-01-4.87978E+00 2.31232E-13-8.04745E-13
 -1      2645 5.49045E+00-2.30708E+00 1.55588E-01-2.83414E+00 7.19147E-14-5.83866E-13
 -1      2646 3.16354E+01-2.67187E+00-5.26725E-02-1.34706E+00 1.42095E-13-3.48943E-13
 -1      2647 3.09142E+01-1.76408E+00-1.85958E-01 3.13437E-01 1.68393E-13-4.46254E-13
 -1      2648 3.02118E+01-3.79793E+00 8.88925E-02-1.81841E+00 3.39173E-13-3.11057E-13
 -1      2649 3.16853E+01 6.19171E+00 1.24159E-03 4.13925E-01-2.17382E-13-4.75828E-13
 -1      2650 3.25326E+01 4.36871E+00-2.48706E-02-3.27948E+00-2.95070E-13-5.53335E-13
 -1      2651 1.20674E+01-5.02055E+00 1.08583E-01-6.76986E+00-1.19682E-13-8.23508E-13
 -1      2652 1.93078E+01-6.25101E+00 9.44267E-02-6.50041E+00-4.59632E-14-6.75850E-13
 -1      2653 3.15939E+01 2.04417E+00-4.53335E-02 2.05428E+00 3.74811E-13 2.74336E-13
 -1      2654 2.37930E+01-6.56749E+00 7.52091E-02 4.05812E+00-7.35245E-14-5.27356E-13
 -1      2655 3.12530E+01 6.02258E+00-9.10417E-02 2.18736E+00 5.21749E-13-1.11897E-13
 -1      2656 3.01749E+01-2.61631E+00-6.06686E-04-3.96865E-01 3.37227E-13-1.83603E-13
 -1      2657 2.57733E+01-5.70448E+00 4.89070E-02-3.95068E+00 4.28546E-14-3.98570E-13
 -1      2658 4.81500E+00-2.66044E+00 1.59188E-01 9.11753E-01-1.42594E-13-2.51743E-13
 -1      2659 2.01192E+01 2.61303E+00-9.97700E-03-1.67578E+00-3.67493E-13-2.85268E-13
 -1      2660 3.12148E+01 7.50145E+00-1.11888E-01 5.41079E-01 5.86531E-13-5.26067E-13
 -1      2661 3.19582E+01 6.95824E+00-4.10015E-02-1.76474E+00-3.02203E-13-4.76563E-13
 -1      2662 2.11447E+01-5.47500E-01-5.21071E-03-1.82682E-01-3.58796E-13 6.92350E-13
 -1      2663 2.31417E+01-1.53307E+00-7.23095E-03-1.50522E+00-3.33817E-13 1.82581E-13
 -1      2664 1.98443E+01 2.76510E+00-6.28886E-03 5.16118E-01 1.54898E-13-4.36139E-13
 -1      2665 1.98194E+01 2.81486E+00-5.69763E-03 3.65271E-01 1.12854E-13-4.42129E-13
 -1      2666 1.98024E+01 2.85239E+00-5.61209E-03 2.29791E-01 8.66609E-14-4.78501E-13
 -1      2667 1.97938E+01 2.86929E+00-5.43092E-03 7.52018E-02 6.09144E-14-4.83705E-13
 -1      2668 1.99488E+01 2.50108E+00 3.64844E-03 2.65131E-01 9.09320E-14-4.47208E-13
 -1      2669 2.00437E+01 2.32386E+00-1.07272E-02 1.04555E+00 3.07509E-13-3.21269E-13
 -1      2670 1.99790E+01 2.47299E+00-6.34337E-03 9.09879E-01 2.73471E-13-3.57159E-13
 -1      2671 2.02169E+01 1.90862E+00-1.19520E-02 1.22707E+00 3.39613E-13-2.18711E-13
 -1      2672 2.01244E+01 2.14639E+00-4.79377E-03 1.13381E+00 3.13213E-13-2.66537E-13
 -1      2673 2.01896E+01 1.88653E+00 6.47676E-03 9.26204E-01 2.87784E-13-2.69459E-13
 -1      2674 2.02134E+01 7.26907E-01-3.45553E-03 6.42386E-01 2.71098E-13-6.62351E-14
 -1      2675 2.03553E+01 9.51734E-01 9.16694E-03 9.06110E-01 3.05569E-13-5.83299E-14
 -1      2676 2.00710E+01 4.15704E-01-1.38974E-03 2.87757E-01 2.18997E-13-6.90705E-14
 -1      2677 2.01716E+01 5.53436E-01 1.02581E-02 4.50143E-01 2.50015E-13-4.79333E-14
 -1      2678 2.02542E+01 8.22573E-01 1.03816E-03 6.16848E-01 2.64267E-13-1.23889E-13
 -1      2679 2.03201E+01 1.70946E+00-9.94269E-03-1.33155E+00-3.42624E-13-1.96673E-13
 -1      2680 2.02866E+01 1.32811E+00-7.10957E-03-1.03298E+00-3.17949E-13-1.58970E-13
 -1      2681 2.03162E+01 1.01323E+00 4.38584E-03-8.10419E-01-2.66592E-13-1.39000E-13
 -1      2682 2.02210E+01 7.82976E-01-5.00015E-03-5.71010E-01-2.31019E-13-1.28896E-13
 -1      2683 2.02789E+01 1.36037E+00 1.50346E-03-8.96761E-01-2.68046E-13-1.92845E-13
 -1      2684 2.02093E+01 5.98871E-01 5.73481E-03-4.07115E-01-1.89707E-13-1.21139E-13
 -1      2685 2.01279E+01 4.57268E-01-2.93129E-03-2.49470E-01-1.58511E-13-9.13393E-14
 -1      2686 2.02565E+01 8.33434E-01 2.39852E-03-5.03212E-01-1.91232E-13-1.61145E-13
 -1      2687 2.01037E+01 3.44320E-01 4.65826E-03-1.40479E-01-1.50782E-13-8.45566E-14
 -1      2688 2.00467E+01 2.56397E-01-1.54154E-03-4.26603E-02-1.37109E-13-9.56553E-14
 -1      2689 2.01926E+01 4.91662E-01-7.04675E-04-2.16554E-01-1.59045E-13-1.43902E-13
 -1      2690 2.00225E+01 1.85744E-01 3.34345E-03 2.48192E-02-1.15897E-13-7.03312E-14
 -1      2691 1.99879E+01 1.30503E-01-6.34422E-04 8.17916E-02-1.23152E-13-8.81399E-14
 -1      2692 2.01278E+01 2.74748E-01-1.60278E-03-2.80606E-02-1.27655E-13-1.20340E-13
 -1      2693 1.99683E+01 8.60126E-02 2.24556E-03 1.19710E-01-1.24238E-13-9.84453E-14
 -1      2694 1.99508E+01 5.15000E-02-8.74556E-05 1.49559E-01-1.06983E-13-9.60651E-14
 -1      2695 2.00747E+01 1.36452E-01-1.69383E-03 8.68671E-02-1.17830E-13-1.31660E-13
 -1      2696 1.99366E+01 2.38215E-02 1.40990E-03 1.67334E-01-1.16023E-13-7.24061E-14
 -1      2697 1.99308E+01 2.87498E-03 2.16400E-04 1.79583E-01-1.19429E-13-8.02473E-14
 -1      2698 2.00358E+01 4.90935E-02-1.48786E-03 1.49634E-01-1.12082E-13-1.24481E-13
 -1      2699 1.99212E+01-1.36862E-02 8.05704E-04 1.84219E-01-9.56161E-14-7.70064E-14
 -1      2700 1.99230E+01-2.55948E-02 3.69635E-04 1.85428E-01-1.06830E-13-7.32606E-14
 -1      2701 2.00094E+01-4.53305E-03-1.21101E-03 1.77084E-01-1.09244E-13-3.38956E-14
 -1      2702 1.99171E+01-3.46982E-02 3.87577E-04 1.81980E-01-1.11556E-13-6.32415E-14
 -1      2703 1.99233E+01-4.05565E-02 4.35127E-04 1.76668E-01-8.03009E-14-5.02586E-14
 -1      2704 1.99929E+01-3.55093E-02-9.49189E-04 1.81743E-01-1.06394E-13-2.19570E-14
 -1      2705 1.99201E+01-4.46458E-02 1.11635E-04 1.68710E-01-7.08764E-14-7.00405E-14
 -1      2706 1.99286E+01-4.64756E-02 4.52681E-04 1.59976E-01-4.13974E-14-1.01914E-13
 -1      2707 1.99837E+01-5.12198E-02-7.29296E-04 1.72650E-01-8.62828E-14-4.48238E-14
 -1      2708 1.99273E+01-4.72124E-02-5.99706E-05 1.49991E-01-7.51976E-15-1.24123E-13
 -1      2709 1.99367E+01-4.63880E-02 4.47487E-04 1.39948E-01-4.17520E-14-1.24207E-13
 -1      2710 1.99795E+01-5.66884E-02-5.56047E-04 1.56195E-01-2.58589E-14-5.20211E-14
 -1      2711 1.99367E+01-4.48972E-02-1.57672E-04 1.29642E-01-8.19120E-14-7.76276E-14
 -1      2712 1.99462E+01-4.23356E-02 4.36235E-04 1.19722E-01-9.70966E-14-7.79475E-14
 -1      2713 1.99789E+01-5.53412E-02-4.26319E-04 1.36824E-01-1.59013E-14-8.42080E-14
 -1      2714 1.99471E+01-3.93555E-02-2.04897E-04 1.10258E-01-1.00693E-13-9.64216E-14
 -1      2715 1.99563E+01-3.56379E-02 4.30692E-04 1.01435E-01-1.01635E-13-1.32821E-13
 -1      2716 1.99806E+01-4.94704E-02-3.34801E-04 1.17602E-01-8.84031E-14 3.05447E-14
 -1      2717 1.99578E+01-3.16181E-02-2.19168E-04 9.36220E-02-9.52135E-14-1.54813E-13
 -1      2718 1.99667E+01-2.70722E-02 4.39783E-04 8.65799E-02-1.37938E-13-1.42014E-13
 -1      2719 1.99840E+01-4.05332E-02-2.76244E-04 1.00651E-01-1.10779E-13-1.70342E-14
 -1      2720 1.99688E+01-2.22414E-02-2.13372E-04 8.10116E-02-7.60049E-14-9.40498E-14
 -1      2721 1.99774E+01-1.69994E-02 4.70877E-04 7.62707E-02-1.62732E-14-1.03153E-13
 -1      2722 1.99885E+01-2.93556E-02-2.46086E-04 8.74875E-02-1.07511E-13-2.50584E-14
 -1      2723 1.99799E+01-1.14139E-02-1.96956E-04 7.34389E-02-2.67139E-14-1.20076E-13
 -1      2724 1.99887E+01-5.45383E-03 5.30572E-04 7.14544E-02-1.66781E-14-1.34451E-13
 -1      2725 1.99939E+01-1.62768E-02-2.40598E-04 7.92881E-02-4.15387E-14-1.63681E-14
 -1      2726 1.99916E+01 9.67581E-04-1.76932E-04 7.18336E-02-6.19855E-15-1.43250E-13
 -1      2727 2.00009E+01 7.79240E-03 6.25130E-04 7.30726E-02-1.26971E-14-1.61301E-13
 -1      2728 2.00003E+01-1.25258E-03-2.56825E-04 7.70899E-02-3.61771E-14-4.61688E-14
 -1      2729 2.00043E+01 1.52423E-02-1.58726E-04 7.71868E-02-1.74924E-14-2.10148E-13
 -1      2730 2.00148E+01 2.31807E-02 7.60717E-04 8.21894E-02-1.86136E-14-2.40161E-13
 -1      2731 2.00076E+01 1.60683E-02-2.92217E-04 8.19506E-02-5.71140E-14-1.15551E-13
 -1      2732 2.00188E+01 3.19426E-02-1.46937E-04 9.06627E-02 1.05228E-13-2.84976E-13
 -1      2733 2.00312E+01 4.13285E-02 9.43449E-04 1.00089E-01 1.17510E-13-2.25626E-13
 -1      2734 2.00160E+01 3.62862E-02-3.44123E-04 9.50690E-02 4.46405E-14-2.16107E-13
 -1      2735 2.00357E+01 5.17592E-02-1.45982E-04 1.13682E-01 6.91792E-14-1.56600E-13
 -1      2736 2.00508E+01 6.29962E-02 1.17913E-03 1.28349E-01 2.86021E-14-1.61259E-13
 -1      2737 2.00257E+01 6.02030E-02-4.09246E-04 1.17874E-01 1.36097E-13-1.49262E-13
 -1      2738 2.00559E+01 7.55059E-02-1.60620E-04 1.47982E-01 3.57387E-14-1.20001E-13
 -1      2739 2.00746E+01 8.90468E-02 1.47262E-03 1.68884E-01 8.08439E-14-1.01717E-13
 -1      2740 2.00367E+01 8.87756E-02-4.82924E-04 1.52082E-01 6.75970E-14-4.92034E-14
 -1      2741 2.00802E+01 1.04072E-01-1.96298E-04 1.95644E-01 1.66785E-14-9.41793E-14
 -1      2742 2.01036E+01 1.20386E-01 1.82671E-03 2.23960E-01-3.11295E-14-3.83647E-14
 -1      2743 2.00492E+01 1.23056E-01-5.58292E-04 1.99729E-01 4.95190E-14-6.80217E-14
 -1      2744 2.01095E+01 1.38340E-01-2.59115E-04 2.59084E-01-9.16862E-14-8.86802E-14
 -1      2745 2.01386E+01 1.57855E-01 2.24031E-03 2.96159E-01-8.89033E-14-1.03658E-13
 -1      2746 2.00628E+01 1.64099E-01-6.25479E-04 2.63148E-01-7.99788E-14-1.53730E-13
 -1      2747 2.01443E+01 1.79044E-01-3.54950E-04 3.40988E-01-7.66924E-14-1.66647E-13
 -1      2748 2.01801E+01 2.02030E-01 2.70576E-03 3.88269E-01-1.27214E-13-1.50662E-13
 -1      2749 2.00771E+01 2.12790E-01-6.71228E-04 3.44913E-01-7.77563E-14-1.27115E-13
 -1      2750 2.01850E+01 2.26491E-01-4.86898E-04 4.44165E-01-1.22515E-13-1.30391E-13
 -1      2751 2.02286E+01 2.52851E-01 3.20520E-03 5.03073E-01-1.27829E-13-1.10424E-13
 -1      2752 2.00909E+01 2.69551E-01-6.79751E-04 4.47691E-01-1.13184E-13-1.90056E-13
 -1      2753 2.02317E+01 2.80072E-01-6.49447E-04 5.71263E-01-1.14946E-13-7.54848E-14
 -1      2754 2.02838E+01 3.08955E-01 3.70614E-03 6.42953E-01-5.79254E-14-1.08004E-13
 -1      2755 2.01027E+01 3.33792E-01-6.36563E-04 5.74014E-01-1.01775E-13-1.36450E-13
 -1      2756 2.02841E+01 3.37367E-01-8.16755E-04 7.24305E-01-5.16725E-15-1.15214E-13
 -1      2757 2.03456E+01 3.66494E-01 4.15707E-03 8.09249E-01 1.80432E-13-2.18772E-13
 -1      2758 2.01104E+01 4.02956E-01-5.38455E-04 7.25914E-01-5.44667E-15-9.32596E-14
 -1      2759 2.03425E+01 3.92619E-01-9.21031E-04 9.03929E-01 2.17559E-13-2.53726E-13
 -1      2760 2.04143E+01 4.17140E-01 4.48473E-03 1.00124E+00 2.37771E-13-2.20708E-13
 -1      2761 2.01120E+01 4.70884E-01-4.15132E-04 9.04420E-01 1.65475E-13-1.42630E-13
 -1      2762 2.04086E+01 4.34211E-01-8.15657E-04 1.10823E+00 1.60034E-13-2.70796E-13
 -1      2763 2.04926E+01 4.44913E-01 4.59404E-03 1.21458E+00 9.93007E-14-3.42998E-13
 -1      2764 2.01067E+01 5.25149E-01-3.71081E-04 1.10889E+00 1.30914E-13-2.72138E-13
 -1      2765 2.04888E+01 4.40802E-01-2.18327E-04 1.33097E+00 1.88992E-13-2.84136E-13
 -1      2766 2.05895E+01 4.21521E-01 4.36412E-03 1.43900E+00 1.68140E-13-1.94004E-13
 -1      2767 2.00981E+01 5.42933E-01-6.59323E-04 1.33618E+00 1.89852E-13-4.03440E-13
 -1      2768 2.06003E+01 3.76009E-01 1.36449E-03 1.55886E+00 6.76288E-14-1.16741E-13
 -1      2769 2.07275E+01 3.00571E-01 3.60283E-03 1.65487E+00 5.21812E-14-1.49159E-13
 -1      2770 2.00999E+01 4.85241E-01-1.79722E-03 1.57944E+00 1.83824E-13-2.08107E-13
 -1      2771 2.07804E+01 1.82724E-01 4.70448E-03 1.76688E+00 7.86117E-14-1.41540E-13
 -1      2772 2.09536E+01 1.31439E-02 1.98294E-03 1.82743E+00 9.46360E-14-1.38702E-13
 -1      2773 2.01462E+01 2.90111E-01-4.70270E-03 1.82592E+00 1.05672E-13-1.28226E-13
 -1      2774 2.11015E+01-2.18279E-01 1.09758E-02 1.90956E+00 1.00901E-13-2.22358E-13
 -1      2775 2.13524E+01-5.27534E-01-1.24024E-03 1.89696E+00 1.25924E-13-2.43340E-13
 -1      2776 2.03081E+01-1.31473E-01-1.06496E-02 2.05082E+00 7.34584E-14-1.73653E-13
 -1      2777 2.16848E+01-9.13644E-01 2.13921E-02 1.90372E+00 1.04745E-13-2.88440E-13
 -1      2778 2.20537E+01-1.39179E+00-7.05095E-03 1.75981E+00 7.34725E-14-3.46069E-13
 -1      2779 2.07156E+01-8.87004E-01-2.08966E-02 2.20273E+00 1.19819E-13-2.53541E-13
 -1      2780 2.26919E+01-1.93560E+00 3.44620E-02 1.59917E+00 2.16008E-13-4.64123E-13
 -1      2781 2.32000E+01-2.52904E+00-1.66919E-02 1.24279E+00 1.90721E-13-4.20188E-13
 -1      2782 2.15750E+01-2.04313E+00-3.40279E-02 2.16085E+00 8.65525E-14-4.81162E-13
 -1      2783 2.42553E+01-3.10087E+00 4.35726E-02 7.50533E-01 1.58179E-13-3.06547E-13
 -1      2784 2.48891E+01-3.51223E+00-1.81380E-02 7.94360E-02 1.34868E-13-2.34233E-13
 -1      2785 2.31492E+01-3.48119E+00-4.43112E-02 1.68590E+00 2.31312E-13-5.64973E-13
 -1      2786 2.76113E+01-2.52451E+00-7.30423E-02-2.81551E+00-5.51226E-14-1.16594E-13
 -1      2787 2.78055E+01-1.06924E+00-5.58568E-02-3.42932E+00-1.02501E-13-1.49214E-13
 -1      2788 2.90637E+01 8.80662E-01-1.58298E-01-3.87107E+00-2.09679E-13-2.68160E-13
 -1      2789 2.88908E+01 3.14447E+00-1.28515E-01-3.53514E+00-4.12087E-13-3.21743E-13
 -1      2790 2.80237E+01 5.40288E+00-2.16482E-01-2.15068E+00-3.85053E-13-2.50987E-13
 -1      2791 2.79564E+01 5.61740E+00-2.94244E-01-7.16119E-01-3.00232E-13-2.71814E-13
 -1      2792 2.84963E+01 4.80959E+00-1.99908E-01 4.56010E-01-7.42184E-14-4.29649E-13
 -1      2793 2.85766E+01 3.11017E+00-2.79915E-01 1.49398E+00 3.89688E-14-3.76872E-13
 -1      2794 2.86466E+01-1.55215E-02-7.74329E-02 1.24569E+00 1.27565E-13-3.58880E-13
 -1      2795 2.82411E+01-1.79426E+00-7.63628E-02 9.04635E-01 1.15533E-13-2.57815E-13
 -1      2796 2.75537E+01-2.92407E+00-2.83439E-02-2.68699E-02 6.60340E-14-2.04198E-13
 -1      2797 2.54346E+01-3.10254E+00-2.92765E-03-1.14070E+00-3.04722E-14 1.16266E-13
 -1      2798 2.46860E+01-2.71685E+00 3.02850E-02-1.75953E+00-5.70186E-14 9.29274E-14
 -1      2799 1.17337E+01-3.61270E+00 9.84091E-02 5.43931E+00-1.78399E-13-2.12885E-14
 -1      2800 9.14154E+00-2.33426E+00 1.40457E-01 3.93123E+00-2.49079E-13-8.52374E-14
 -1      2801 1.84788E+01-5.91338E+00-3.56781E-02 5.66414E+00-3.26406E-14-4.74357E-13
 -1      2802 1.49599E+01-4.68995E+00 1.60580E-01 5.72726E+00-1.47285E-13-2.80553E-13
 -1      2803 1.98924E+01 1.18551E-01-2.41571E-04-7.13687E-02 1.42827E-13-8.57812E-14
 -1      2804 1.99273E+01 1.70169E-01 4.95679E-03-1.61260E-02 1.60386E-13-5.87766E-14
 -1      2805 1.98433E+01-1.84608E-02 2.37882E-04-1.84274E-01 1.13808E-14-7.67831E-14
 -1      2806 1.98350E+01-7.35635E-03 8.80011E-04-1.83885E-01 3.51349E-14-1.19798E-13
 -1      2807 1.98543E+01-3.18625E-02 2.48214E-04-1.76456E-01 8.06279E-14-1.27736E-13
 -1      2808 1.98416E+01-2.62147E-02 2.96483E-04-1.82265E-01 3.52621E-14-8.97364E-14
 -1      2809 1.99202E+01-2.51266E-02-8.50217E-04-1.87147E-01 3.61800E-14-8.88455E-14
 -1      2810 1.98702E+01-3.75352E-02 2.41470E-04-1.60235E-01 1.43858E-13-1.15096E-13
 -1      2811 1.98557E+01-3.55036E-02-6.58998E-05-1.69248E-01 1.37329E-13-1.14070E-13
 -1      2812 1.99200E+01-4.04471E-02-5.50490E-04-1.79398E-01 1.02084E-13-1.52685E-13
 -1      2813 1.98882E+01-3.80962E-02 2.31923E-04-1.40312E-01 1.18674E-13-1.15137E-13
 -1      2814 1.98734E+01-3.84411E-02-2.76399E-04-1.50513E-01 1.35274E-13-8.76746E-14
 -1      2815 1.99252E+01-4.65749E-02-3.40076E-04-1.63132E-01 1.26401E-13-8.88519E-14
 -1      2816 1.99064E+01-3.53056E-02 2.27723E-04-1.19862E-01 9.76226E-14-6.05430E-14
 -1      2817 1.98923E+01-3.71982E-02-3.84545E-04-1.29902E-01 1.21134E-13-7.13853E-14
 -1      2818 1.99334E+01-4.66157E-02-1.99765E-04-1.43168E-01 1.03097E-13-9.90457E-14
 -1      2819 1.99240E+01-3.03146E-02 2.34238E-04-1.01025E-01-1.25744E-14 1.76045E-14
 -1      2820 1.99110E+01-3.32211E-02-4.25980E-04-1.10001E-01 3.03367E-14-1.73737E-14
 -1      2821 1.99431E+01-4.26522E-02-1.12948E-04-1.22792E-01 5.28984E-14 1.69886E-14
 -1      2822 1.99407E+01-2.38265E-02 2.55670E-04-8.52617E-02 8.53169E-15-1.99654E-14
 -1      2823 1.99288E+01-2.74311E-02-4.26247E-04-9.25544E-02 2.83955E-14-5.61807E-15
 -1      2824 1.99534E+01-3.60349E-02-6.65303E-05-1.04242E-01 1.27242E-14 1.70152E-15
 -1      2825 1.99566E+01-1.62087E-02 2.95823E-04-7.36175E-02 2.14864E-14-5.74263E-14
 -1      2826 1.99455E+01-2.03597E-02-4.03492E-04-7.87742E-02-1.20726E-14-2.21982E-14
 -1      2827 1.99640E+01-2.75741E-02-5.06107E-05-8.90704E-02 2.34942E-14 5.44906E-14
 -1      2828 1.99722E+01-7.57624E-03 3.58350E-04-6.69285E-02-6.78074E-14-3.19335E-14
 -1      2829 1.99615E+01-1.22446E-02-3.70505E-04-6.95731E-02-1.31580E-14-6.96546E-14
 -1      2830 1.99746E+01-1.76749E-02-5.78605E-05-7.84183E-02 2.20734E-15 2.47620E-14
 -1      2831 1.99883E+01 2.14175E-03 4.46767E-04-6.59695E-02-2.54750E-14-1.40798E-14
 -1      2832 1.99773E+01-3.10451E-03-3.36130E-04-6.57362E-02-5.46637E-14-3.48729E-14
 -1      2833 1.99856E+01-6.43965E-03-8.29795E-05-7.32215E-02-5.50998E-14-3.72722E-14
 -1      2834 2.00058E+01 1.31422E-02 5.64207E-04-7.15600E-02 1.25432E-14 6.12960E-15
 -1      2835 1.99939E+01 7.19868E-03-3.06280E-04-6.80488E-02 1.36963E-14 2.44540E-14
 -1      2836 1.99974E+01 6.24855E-03-1.22147E-04-7.43639E-02-3.68078E-14-3.15542E-14
 -1      2837 2.00260E+01 2.56885E-02 7.12866E-04-8.46302E-02 1.36547E-13-4.10633E-14
 -1      2838 2.00122E+01 1.89010E-02-2.84643E-04-7.73806E-02 7.82070E-14-1.81100E-14
 -1      2839 2.00106E+01 2.06491E-02-1.72599E-04-8.27828E-02 7.61204E-14-5.98130E-14
 -1      2840 2.00503E+01 4.00404E-02 8.93146E-04-1.06244E-01 1.59895E-13-4.22211E-14
 -1      2841 2.00336E+01 3.22733E-02-2.72978E-04-9.47310E-02 1.89675E-13 3.73423E-14
 -1      2842 2.00259E+01 3.70850E-02-2.32249E-04-9.95311E-02 1.26312E-13-9.81302E-14
 -1      2843 2.00802E+01 5.63619E-02 1.10232E-03-1.37571E-01 1.38130E-13-1.34161E-14
 -1      2844 2.00595E+01 4.75418E-02-2.71071E-04-1.21228E-01 1.83505E-13-2.25771E-14
 -1      2845 2.00442E+01 5.58466E-02-2.99417E-04-1.25792E-01 1.64040E-13 3.96556E-14
 -1      2846 2.01177E+01 7.45922E-02 1.33266E-03-1.79793E-01 5.34118E-14-3.43629E-14
 -1      2847 2.00916E+01 6.47804E-02-2.76240E-04-1.58070E-01 1.17167E-13-5.15877E-14
 -1      2848 2.00666E+01 7.70649E-02-3.72874E-04-1.62836E-01 1.44118E-13 2.48392E-14
 -1      2849 2.01645E+01 9.42614E-02 1.56886E-03-2.33921E-01-4.30923E-14-1.41891E-13
 -1      2850 2.01319E+01 8.37580E-02-2.82233E-04-2.06391E-01-1.09007E-14-5.54063E-14
 -1      2851 2.00944E+01 1.00533E-01-4.52261E-04-2.11910E-01 6.23972E-14-3.32715E-14
 -1      2852 2.02231E+01 1.14228E-01 1.78466E-03-3.00487E-01 3.35441E-14-3.22139E-13
 -1      2853 2.01825E+01 1.03720E-01-2.77354E-04-2.67024E-01 3.44839E-14-2.00448E-13
 -1      2854 2.01289E+01 1.25452E-01-5.39169E-04-2.74025E-01 5.71130E-14-1.43022E-13
 -1      2855 2.02956E+01 1.32316E-01 1.93881E-03-3.79076E-01-1.25431E-14-3.42250E-13
 -1      2856 2.02457E+01 1.23078E-01-2.41572E-04-3.40118E-01 1.26386E-14-3.12524E-13
 -1      2857 2.01719E+01 1.50077E-01-6.39289E-04-3.49616E-01 4.26698E-14-1.88567E-13
 -1      2858 2.03847E+01 1.44828E-01 1.97045E-03-4.67640E-01 2.44103E-14-2.45851E-13
 -1      2859 2.03243E+01 1.38993E-01-1.42463E-04-4.24573E-01 8.29062E-16-3.48768E-13
 -1      2860 2.02256E+01 1.71231E-01-7.66056E-04-4.38042E-01-3.41680E-14-1.75552E-13
 -1      2861 2.04932E+01 1.45959E-01 1.79445E-03-5.61545E-01 4.13688E-14-2.09438E-13
 -1      2862 2.04214E+01 1.46834E-01 6.98514E-05-5.17227E-01 4.56821E-14-1.81185E-13
 -1      2863 2.02929E+01 1.83674E-01-9.46057E-04-5.36857E-01 9.25888E-15-1.14813E-13
 -1      2864 2.06245E+01 1.27186E-01 1.29792E-03-6.52324E-01-6.52530E-14-9.21446E-14
 -1      2865 2.05408E+01 1.39560E-01 4.67581E-04-6.11755E-01 3.14377E-14-1.23921E-13
 -1      2866 2.03778E+01 1.79369E-01-1.22562E-03-6.40829E-01-3.63844E-14 5.99973E-14
 -1      2867 2.07827E+01 7.68928E-02 3.39522E-04-7.26156E-01-1.91427E-13 1.25856E-13
 -1      2868 2.06872E+01 1.07185E-01 1.14631E-03-6.97249E-01-1.35958E-13 2.30006E-15
 -1      2869 2.04864E+01 1.46792E-01-1.67576E-03-7.40652E-01-1.78583E-13 5.15697E-14
 -1      2870 2.09728E+01-1.91739E-02-1.24413E-03-7.62246E-01-1.46033E-13 2.57474E-13
 -1      2871 2.08666E+01 3.67031E-02 2.21363E-03-7.56542E-01-1.25480E-13 2.10785E-13
 -1      2872 2.06273E+01 7.06638E-02-2.38749E-03-8.21345E-01-1.78331E-13 1.78272E-13
 -1      2873 2.12006E+01-1.75494E-01-3.61211E-03-7.31568E-01-1.35262E-13 3.11976E-13
 -1      2874 2.10860E+01-8.66917E-02 3.74717E-03-7.64539E-01-7.12501E-14 3.19673E-13
 -1      2875 2.08129E+01-6.70121E-02-3.44094E-03-8.60433E-01-1.38301E-13 2.13769E-13
 -1      2876 2.14705E+01-4.00521E-01-6.83711E-03-5.97047E-01-1.49105E-13 3.44108E-13
 -1      2877 2.13527E+01-2.75612E-01 5.69915E-03-6.87234E-01-1.61434E-13 3.37146E-13
 -1      2878 2.10591E+01-2.83048E-01-4.81552E-03-8.26234E-01-1.20100E-13 2.77800E-13
 -1      2879 2.17804E+01-6.84286E-01-1.07044E-02-3.17390E-01-5.55177E-14 4.80455E-13
 -1      2880 2.16692E+01-5.31544E-01 7.70850E-03-4.83050E-01-1.27567E-13 4.13180E-13
 -1      2881 2.13828E+01-5.83747E-01-6.19619E-03-6.77231E-01-1.78949E-13 2.57946E-13
 -1      2882 2.21118E+01-9.78986E-01-1.43226E-02 1.41407E-01-9.68589E-14 3.71341E-13
 -1      2883 2.20248E+01-8.28995E-01 8.82109E-03-1.09879E-01-3.28498E-14 4.90222E-13
 -1      2884 2.17934E+01-9.47389E-01-6.71062E-03-3.65135E-01-6.09113E-14 4.13980E-13
 -1      2885 2.24150E+01-1.17781E+00-1.54196E-02 7.81340E-01-1.82480E-14 2.88813E-13
 -1      2886 2.23789E+01-1.09414E+00 7.23373E-03 4.56447E-01-1.73780E-14 3.69810E-13
 -1      2887 2.22755E+01-1.29854E+00-4.82482E-03 1.52727E-01-4.42250E-14 3.87524E-13
 -1      2888 2.25999E+01-1.11421E+00-1.06033E-02 1.52854E+00-5.84710E-14 1.69606E-13
 -1      2889 2.26451E+01-1.18839E+00 8.04837E-04 1.18452E+00-6.06533E-14 3.14864E-13
 -1      2890 2.27619E+01-1.48286E+00 1.25728E-03 8.81772E-01-5.41535E-14 3.61252E-13
 -1      2891 2.25567E+01-6.26447E-01 1.97813E-03 2.18743E+00-3.13144E-14 4.06354E-13
 -1      2892 2.26990E+01-9.34281E-01-1.14252E-02 1.93311E+00-1.03746E-13 3.21730E-13
 -1      2893 2.31158E+01-1.28221E+00 1.06913E-02 1.72942E+00-1.46858E-13 3.50974E-13
 -1      2894 2.22328E+01 2.85414E-01 1.68105E-02 2.44703E+00-1.60246E-13 4.50861E-13
 -1      2895 2.24481E+01-2.22523E-01-2.42234E-02 2.42276E+00-1.69183E-14 5.46969E-13
 -1      2896 2.31673E+01-5.31354E-01 1.55476E-02 2.43671E+00-7.29728E-14 5.64971E-13
 -1      2897 2.17284E+01 1.31344E+00 1.89740E-02 2.03788E+00 1.16420E-13 2.43887E-13
 -1      2898 2.19487E+01 8.07174E-01-2.97732E-02 2.33018E+00-1.13809E-13 3.50048E-13
 -1      2899 2.28574E+01 6.85207E-01 8.83122E-03 2.62138E+00-6.01255E-15 6.57064E-13
 -1      2900 2.13296E+01 1.89904E+00 3.97638E-03 9.99297E-01 2.04101E-13 2.96094E-13
 -1      2901 2.14711E+01 1.68873E+00-1.59066E-02 1.52503E+00 2.14294E-13 2.43386E-13
 -1      2902 2.23711E+01 1.85671E+00-1.57228E-02 1.98221E+00 1.75275E-13 4.52805E-13
 -1      2903 2.12660E+01 1.69206E+00-1.74567E-02-2.08232E-01 2.42879E-13 2.62143E-13
 -1      2904 2.12891E+01 1.89998E+00 7.06098E-03 3.17874E-01 2.26229E-13 2.16127E-13
 -1      2905 2.20901E+01 2.34947E+00-2.66182E-02 7.11008E-01 2.57559E-13 2.51815E-13
 -1      2906 2.14763E+01 8.75264E-01-2.77120E-02-1.00881E+00 1.70519E-13 1.09386E-13
 -1      2907 2.14257E+01 1.33539E+00 1.98802E-02-7.06597E-01 1.98387E-13 2.84954E-13
 -1      2908 2.21987E+01 1.87997E+00-1.15237E-02-5.43390E-01 2.51626E-13 1.80077E-14
 -1      2909 2.16610E+01 2.28467E-04-2.11897E-02-1.16123E+00 7.30284E-14 1.76511E-13
 -1      2910 2.16222E+01 4.18619E-01 1.47156E-02-1.13659E+00 1.37405E-13 2.84640E-13
 -1      2911 2.24561E+01 8.08488E-01 1.05500E-02-1.16688E+00 5.98696E-14-2.95887E-14
 -1      2912 2.15545E+01-4.95370E-01-1.48351E-02-8.50073E-01-2.39676E-13 5.12709E-13
 -1      2913 2.16074E+01-2.94247E-01 5.60677E-04-9.89659E-01-1.36658E-13 3.73397E-13
 -1      2914 2.24826E+01-2.01321E-01 1.47965E-02-1.05659E+00-1.18011E-13 2.25774E-13
 -1      2915 2.13425E+01-6.03628E-01-8.22922E-03-4.19177E-01-4.03238E-13 8.20953E-13
 -1      2916 2.14870E+01-5.92235E-01-1.15187E-02-5.91191E-01-2.92649E-13 6.69565E-13
 -1      2917 2.23323E+01-6.90515E-01 2.46665E-02-5.64849E-01-4.05567E-13 6.23647E-13
 -1      2918 2.20015E+01-7.58152E-01 2.42639E-02-7.52291E-03-3.52074E-13 6.25818E-13
 -1      2919 1.58738E+01 2.82649E-01-2.93709E-02 5.48570E+00 4.04225E-14 4.41758E-13
 -1      2920 1.82828E+01-4.33806E-01 1.48635E-01 6.18472E+00-9.52502E-14 6.65842E-13
 -1      2921 2.37977E+01-2.26952E+00-1.74151E-02-2.14375E+00-1.32654E-13 1.73362E-13
 -1      2922 2.32752E+01-1.74096E+00 2.61124E-02-2.36827E+00-2.65663E-13 1.96540E-13
 -1      2923 2.44920E+01-3.09613E+00-3.73047E-02-2.77249E+00 5.85382E-15 3.39411E-13
 -1      2924 2.30306E+01-2.02854E+00 1.16821E-02 4.42715E+00-3.81148E-13 1.23089E-14
 -1      2925 2.35230E+01-2.23647E+00-2.67835E-02 3.59595E+00-4.72796E-13 1.34405E-13
 -1      2926 1.27814E+01 1.90950E+00 3.09295E-02 1.98848E+00 5.48500E-13 7.47874E-14
 -1      2927 1.41353E+01 1.50930E+00 1.49750E-01 3.87245E+00 1.36325E-13 3.58324E-13
 -1      2928 2.03412E+01-1.43267E+00 1.12152E-05 5.97556E+00-3.02284E-13 3.86233E-13
 -1      2929 2.19774E+01-1.92713E+00 7.56465E-02 5.58364E+00-2.61333E-13 1.16379E-13
 -1      2930 2.32238E+01-3.08086E+00 6.11389E-03 5.16847E+00-5.47073E-13 6.78312E-14
 -1      2931 1.31903E+01 1.64734E+00 1.38095E-01-2.69101E+00 1.73873E-13-1.24106E-12
 -1      2932 1.23148E+01 1.89732E+00 6.88332E-02-6.47047E-01 4.62130E-13-7.18953E-13
 -1      2933 1.72993E+01 1.35522E-01 1.79695E-01-5.56527E+00 2.47455E-13-6.93154E-13
 -1      2934 1.49585E+01 7.58320E-01-2.61417E-02-4.57192E+00 1.54564E-13-9.09467E-13
 -1      2935 2.11841E+01-1.44326E+00 9.61412E-02-5.44253E+00 1.47068E-13-1.89012E-13
 -1      2936 1.93078E+01-9.64162E-01-4.29584E-02-5.69686E+00 1.67392E-13-4.78895E-13
 -1      2937 1.99621E+01 2.31222E-01-6.33893E-04 6.25402E-02 1.69231E-13-6.57795E-14
 -1      2938 2.00266E+01 3.14608E-01 7.49140E-03 1.59758E-01 1.85724E-13-5.99689E-14
 -1      2939 2.01469E+01 4.78937E-01-1.22856E-03 2.79945E-01 2.13375E-13-1.21696E-13
 -1      2940 2.00569E+01 2.67317E-01-2.04055E-03 6.07804E-02 1.72752E-13-1.12921E-13
 -1      2941 2.11440E+01-5.67816E+00 1.64504E-01-7.39719E+00 1.90487E-13-5.58557E-13
 -1      2942 2.37808E+01-6.13173E+00-3.69847E-02-6.64321E+00 2.67508E-13-7.68071E-13
 -1      2943 1.76321E+01-3.45729E+00-4.40510E-02 7.63542E+00-3.56631E-13 7.52842E-13
 -1      2944 1.50458E+01-2.29078E+00 2.36227E-01 7.17223E+00-2.06946E-13 5.82742E-13
 -1      2945 9.06216E+00-1.18766E+00 2.35765E-01-4.10905E+00 1.42220E-13-1.22274E-12
 -1      2946 1.05379E+01-1.98956E+00 1.39467E-01-5.77483E+00 3.21410E-14-9.32698E-13
 -1      2947 2.03385E+01 1.50034E+00-1.89854E-03 1.26664E+00 3.70164E-13-1.01106E-13
 -1      2948 2.61657E+01-6.04064E+00 6.76670E-02-5.33513E+00 3.00565E-13-5.97536E-13
 -1      2949 2.80403E+01-5.57797E+00-1.28491E-01-4.03045E+00 3.57311E-13-3.24393E-13
 -1      2950 2.50921E+01-5.70398E+00 7.44765E-02-5.56372E+00 3.24685E-13-5.03042E-13
 -1      2951 1.98416E+01 6.56195E-03 1.84457E-04-1.76800E-01 6.96078E-14-1.39182E-13
 -1      2952 1.98416E+01 2.59014E-02 1.78726E-03-1.65779E-01 1.24938E-13-1.25305E-13
 -1      2953 1.99290E+01 3.99165E-03-1.25658E-03-1.79380E-01 5.97914E-14-5.44085E-14
 -1      2954 1.98553E+01 4.91168E-02 4.43946E-05-1.43983E-01 1.50428E-13-1.13210E-13
 -1      2955 1.98692E+01 8.10102E-02 3.14123E-03-1.15726E-01 1.56366E-13-7.65854E-14
 -1      2956 1.99511E+01 5.38528E-02-1.76952E-03-1.46032E-01 1.48767E-13-4.36892E-14
 -1      2957 2.43721E+01-5.98340E+00 9.31385E-02-4.20515E+00-1.01988E-13-4.91274E-13
 -1      2958 2.65811E+01-5.57242E+00-1.44744E-01-2.72045E+00 7.24976E-14-2.46428E-13
 -1      2959 2.91294E+01 6.98596E+00-1.83543E-01 1.06840E+00 5.55528E-13-2.75498E-13
 -1      2960 2.92141E+01 6.78947E+00-1.77937E-01-4.52550E-02 5.33962E-13-3.67442E-13
 -1      2961 1.99227E+01 2.59605E+00-7.92386E-03 7.94362E-01 2.45356E-13-3.76668E-13
 -1      2962 1.98790E+01 2.68814E+00-6.12944E-03 6.45393E-01 1.89306E-13-4.02097E-13
 -1      2963 1.99977E+01 2.38850E+00 4.35955E-03 5.16666E-01 1.66153E-13-3.84006E-13
 -1      2964 2.00795E+01 2.19090E+00 5.73837E-03 7.45501E-01 2.37868E-13-3.34424E-13
 -1      2965 2.56767E+01-6.27223E+00-7.75184E-02 2.64601E+00-5.14450E-14-7.24580E-13
 -1      2966 2.24878E+01-6.19711E+00 1.24769E-01 4.16799E+00-1.76109E-14-5.52962E-13
 -1      2967 2.30616E+01-1.73771E+00-4.33359E-03-3.15068E+00-2.65051E-13 2.79162E-13
 -1      2968 1.98741E+01 2.69716E+00-5.98763E-03-6.35017E-01-9.87500E-14-4.24061E-13
 -1      2969 1.99172E+01 2.60746E+00-7.57756E-03-7.84043E-01-1.45165E-13-4.09556E-13
 -1      2970 2.87582E+01-3.78573E+00 3.56887E-02-5.30553E-01 2.33201E-13-1.55612E-13
 -1      2971 2.98710E+01-1.93313E+00-1.82822E-01 9.84057E-01 3.79710E-13 4.88498E-15
 -1      2972 6.74556E+00-1.51456E+00 1.37150E-01 1.44253E+00-1.05881E-13-3.60101E-13
 -1      2973 5.71025E+00-1.65755E+00 2.31593E-01-8.64011E-01-8.67709E-15-4.99628E-13
 -1      2974 3.00865E+01 2.84024E-01-4.88571E-02 2.29200E+00 4.54525E-13 2.35756E-13
 -1      2975 2.95849E+01 2.21300E+00-2.27903E-01 2.82274E+00 4.14585E-13 2.05988E-13
 -1      2976 1.82242E+01-5.68641E+00 1.40125E-01-6.43137E+00-1.93179E-14-5.78468E-13
 -1      2977 2.13512E+01-6.24806E+00-4.12711E-02-5.75623E+00-1.14103E-13-7.26464E-13
 -1      2978 2.00853E+01 2.52675E+00-2.17498E-03-1.45736E+00-3.22668E-13-3.06095E-13
 -1      2979 2.94216E+01-3.17738E+00-1.72488E-01 1.30477E+00-6.08935E-13-1.43649E-13
 -1      2980 2.82705E+01-4.24325E+00 1.42212E-01 2.98857E+00-6.22306E-13-1.62648E-13
 -1      2981 2.92173E+01 4.69716E+00-1.11353E-01 2.79192E+00 3.72258E-13-4.33958E-14
 -1      2982 2.89588E+01 6.08618E+00-2.11088E-01 2.03324E+00 4.17277E-13-2.43253E-13
 -1      2983 2.99756E+01 1.16274E+00-2.23106E-01-1.09146E+00-8.24479E-14-4.60257E-13
 -1      2984 3.01610E+01-8.92701E-01-4.87362E-03-2.72308E-01-3.98986E-13-3.73507E-13
 -1      2985 1.14102E+01-3.89924E+00 1.53868E-01-6.20965E+00 1.66533E-15-9.59066E-13
 -1      2986 1.45642E+01-4.96203E+00 5.05555E-02-6.87353E+00 1.07969E-14-7.60864E-13
 -1      2987 2.54959E+01-5.58348E+00-1.96168E-01 5.53193E+00-4.68722E-13 2.81945E-13
 -1      2988 2.25457E+01-4.90542E+00 2.14958E-01 6.93237E+00-5.77274E-13 5.39315E-13
 -1      2989 2.91841E+01 5.48842E+00-2.22335E-01-8.68957E-01 4.12365E-13-7.14921E-13
 -1      2990 2.95395E+01 3.84154E+00-7.87941E-02-1.41138E+00 2.29289E-13-6.00867E-13
 -1      2991 1.99716E+01 2.48978E+00-5.52553E-03-9.01423E-01-1.69735E-13-3.91144E-13
 -1      2992 2.00327E+01 2.35991E+00-6.92588E-03-1.03532E+00-2.18941E-13-3.69694E-13
 -1      2993 2.00725E+01 2.20549E+00 6.01227E-03-7.39380E-01-1.43237E-13-3.62954E-13
 -1      2994 1.99321E+01 2.53863E+00 3.43910E-03 4.58933E-03 4.83952E-14-4.52049E-13
 -1      2995 1.97931E+01 2.87013E+00-5.47982E-03-6.18747E-02 3.21829E-14-4.77053E-13
 -1      2996 1.98006E+01 2.85551E+00-5.53396E-03-2.16540E-01-7.55672E-15-4.55147E-13
 -1      2997 9.42534E+00-2.95314E-01 1.79158E-01-2.57491E+00 1.66117E-13-1.20964E-12
 -1      2998 2.76665E+01 5.39294E+00-1.30492E-01-5.13096E-01 3.20174E-13-5.60774E-13
 -1      2999 2.64399E+01-4.60107E+00-5.21935E-02 3.92663E+00-2.52867E-13 5.72736E-14
 -1      3000 1.38531E+01-1.04616E+00 1.84511E-01 6.21633E+00-1.06415E-13 4.54026E-13
 -1      3001 2.12255E+01-5.52336E+00 7.36815E-02 4.27858E+00-9.30089E-14-6.30369E-13
 -1      3002 1.03580E+01-3.03713E+00 1.51422E-01-5.55316E+00 1.08802E-13-7.26280E-13
 -1      3003 1.27679E+01-3.02409E+00 1.14748E-01-5.62864E+00 6.86395E-14-6.76792E-13
 -1      3004 9.50526E+00-2.01017E+00 1.21601E-01-4.50307E+00 2.07868E-13-6.33299E-13
 -1      3005 2.84975E+01 2.04792E+00-1.05461E-01-1.33603E+00 1.83881E-14-6.18366E-13
 -1      3006 2.59823E+01-3.62845E+00 1.50680E-02-7.16450E-01 1.32487E-13-2.19868E-13
 -1      3007 2.65596E+01-3.37947E+00-3.03018E-02-1.61514E+00 1.16097E-13-1.83768E-13
 -1      3008 2.89922E+01 4.62813E+00-2.75842E-01-3.08159E+00-3.65596E-13-2.99677E-13
 -1      3009 2.91692E+01 1.50806E+00-9.03226E-02 1.60775E+00 9.63396E-14-3.93310E-13
 -1      3010 2.45338E+01-2.60336E+00 5.92343E-02 2.80237E+00-4.10701E-13-1.31604E-13
 -1      3011 2.36133E+01-1.71339E+00 3.90524E-02 2.41795E+00-4.00547E-13-2.73079E-13
 -1      3012 2.33361E+01-1.64552E+00-2.07078E-02 1.63675E+00-4.09375E-13 3.79172E-14
 -1      3013 2.74748E+01-3.82879E+00-6.95458E-02-1.46406E+00 1.96582E-13-8.03784E-14
 -1      3014 1.10809E+01-1.35801E+00 1.14398E-01 3.30780E+00-1.40069E-13-1.55626E-13
 -1      3015 8.77110E+00-1.35409E+00 1.97025E-01 2.69139E+00-1.05825E-13-2.66231E-13
 -1      3016 8.87354E+00-6.03508E-01 1.01168E-01 1.14631E+00 6.20250E-14-4.41591E-13
 -1      3017 2.81405E+01 2.80732E+00-1.06046E-01 2.93885E+00 3.16469E-13-7.47596E-14
 -1      3018 1.47411E+01-3.51278E+00 1.50326E-01 5.09500E+00-2.73753E-13-2.87492E-13
 -1      3019 1.99920E+01 1.35152E-01-2.26109E-03-7.26637E-02 1.60615E-13-8.84596E-14
 -1      3020 1.42366E+01-8.01804E-02 1.36343E-01 5.24469E+00 1.01391E-13 4.74232E-13
 -1      3021 1.72262E+01-4.91743E+00 1.07831E-01-6.21812E+00-2.54102E-14-5.86739E-13
 -1      3022 1.12236E+01 1.14279E+00 2.03195E-01 7.39054E-01 3.71977E-13-4.96159E-13
 -1      3023 2.29756E+01-1.24414E+00 1.96250E-02 9.94581E-01-2.44439E-13 2.40590E-13
 -1      3024 2.24718E+01-1.08786E+00-1.78908E-02 4.13510E-01-2.66598E-13 2.76072E-13
 -1      3025 2.27127E+01-1.10635E+00-1.24676E-02 1.23866E-01-3.75788E-13 4.74348E-13
 -1      3026 2.38333E+01-1.70228E+00 1.79941E-02 1.10713E+00-4.28879E-13-6.93607E-15
 -1      3027 2.93586E+01-3.82282E+00-1.11809E-01-9.25076E-01 2.87270E-14-6.74322E-13
 -1      3028 2.78690E+01-5.19595E+00 7.14026E-03 5.69140E-01 1.05679E-14-6.26693E-13
 -1      3029 2.88593E+01-1.26529E+00-6.60605E-02 1.90819E+00 4.62248E-13 1.91097E-13
 -1      3030 2.66289E+01-5.39573E+00 2.25363E-02 9.58896E-01-2.91989E-14-7.05977E-13
 -1      3031 1.82219E+01-1.51903E+00 9.68067E-02-6.17618E+00 2.73857E-13-7.49796E-13
 -1      3032 2.28551E+01-1.87740E+00 3.56149E-02-3.95035E+00-2.64084E-13 1.66765E-13
 -1      3033 2.20383E+01-1.69740E+00-2.36105E-03-4.76860E+00 4.75878E-14-7.92942E-15
 -1      3034 2.19000E+01-2.52087E+00 6.61575E-02-5.46603E+00 1.20397E-13-2.34916E-13
 -1      3035 2.35119E+01-2.61288E+00 4.00252E-02-3.89573E+00-5.65919E-14 1.17286E-13
 -1      3036 2.04069E+01-3.21582E+00 8.51988E-02 6.73936E+00-1.99576E-13 6.30253E-13
 -1      3037 9.10478E+00-5.65672E-01 2.05432E-01 2.87461E+00-1.46813E-13 1.23707E-13
 -1      3038 1.34605E+01-2.18295E+00 1.75477E-01-6.32323E+00 1.04874E-13-8.84154E-13
 -1      3039 7.36385E+00-1.33448E+00 1.71527E-01-1.89727E+00 2.08639E-13-7.36911E-13
 -1      3040 2.87802E+01-4.84499E+00-4.41410E-02-2.47705E+00 2.64538E-13-2.86257E-13
 -1      3041 2.02907E+01 1.58779E+00-1.18622E-03 1.16546E+00 3.41943E-13-1.64620E-13
 -1      3042 2.74988E+01 5.74766E+00-1.30868E-01 1.63240E+00 4.57828E-13-2.83076E-13
 -1      3043 1.96143E+01-4.69380E+00 1.40477E-01-7.40110E+00 1.12327E-13-6.96991E-13
 -1      3044 3.01330E+01-4.61813E-01-1.14554E-01-3.23079E+00-3.16414E-13-3.24768E-13
 -1      3045 1.98163E+01 2.82004E+00-5.67614E-03-3.51654E-01-3.44034E-14-4.32734E-13
 -1      3046 1.98405E+01 2.77177E+00-6.16254E-03-5.05202E-01-7.37678E-14-4.33499E-13
 -1      3047 1.99934E+01 2.39631E+00 4.33286E-03-5.07554E-01-7.16619E-14-3.98925E-13
 -1      3048 1.99468E+01 2.50464E+00 3.66042E-03-2.55668E-01-1.78814E-14-4.18698E-13
 -1      3049 2.31426E+01-5.83507E+00 6.83187E-02-4.47187E+00-5.62328E-14-4.02629E-13
 -1      3050 2.02795E+01 1.36661E+00 2.08970E-03 9.19299E-01 2.86773E-13-1.89429E-13
 -1      3051 2.74321E+01-4.57892E+00 3.53585E-03-1.10143E+00 1.26045E-13-2.11942E-13
 -1      3052 2.98206E+01-2.78086E+00-9.06592E-02-2.10150E+00-1.29521E-13-4.97047E-13
 -1      3053 2.01446E+01 2.17289E+00 4.39091E-04-1.20668E+00-2.78397E-13-3.02635E-13
 -1      3054 2.88773E+01-2.00171E+00-2.64884E-02 1.60898E-01-4.45838E-13-2.99316E-13
 -1      3055 2.85492E+01-3.46248E+00 3.48185E-03-1.77347E+00-8.92446E-14-5.35488E-13
 -1      3056 2.52943E+01-4.27425E+00-8.18458E-03 4.53722E-01 1.78154E-13-4.15536E-13
 -1      3057 2.61552E+01 4.94805E+00-5.81551E-02 2.10770E+00 3.57048E-13-1.79332E-13
 -1      3058 2.61778E+01 5.46383E+00-1.30447E-01 9.76759E-01 4.55275E-13-3.08694E-13
 -1      3059 2.02401E+01 1.48136E+00-6.13770E-03 8.03429E-01 2.64356E-13-2.28146E-13
 -1      3060 2.02020E+01 1.66957E+00-7.10500E-05 7.47106E-01 2.37154E-13-2.78485E-13
 -1      3061 1.11873E+01-1.24829E-01 1.07791E-01 4.51992E+00 3.02258E-14 4.00596E-13
 -1      3062 2.02890E+01 1.06294E+00 8.94009E-04-5.93447E-01-1.80935E-13-2.06000E-13
 -1      3063 2.02556E+01 8.41955E-01-4.99505E-03-4.17273E-01-1.58264E-13-1.94703E-13
 -1      3064 2.02662E+01 6.59139E-01 3.77372E-03-2.93168E-01-1.50131E-13-1.80564E-13
 -1      3065 2.02266E+01 5.07307E-01-3.28390E-03-1.74166E-01-1.55029E-13-1.96352E-13
 -1      3066 2.02890E+01 8.76659E-01 1.09330E-03-3.67899E-01-1.51877E-13-2.26825E-13
 -1      3067 2.02194E+01 3.86878E-01 3.57041E-03-8.68453E-02-1.26222E-13-1.73425E-13
 -1      3068 2.01833E+01 2.86130E-01-2.02598E-03-1.02964E-02-9.93463E-14-1.57098E-13
 -1      3069 2.02730E+01 5.32244E-01-2.51824E-04-1.51006E-01-1.30379E-13-2.12784E-13
 -1      3070 2.01684E+01 2.07185E-01 2.74328E-03 4.52310E-02-1.19428E-13-1.64542E-13
 -1      3071 2.01405E+01 1.41305E-01-1.10111E-03 9.05696E-02-1.22427E-13-1.57408E-13
 -1      3072 2.02383E+01 2.99523E-01-7.88661E-04-3.26917E-03-1.19943E-13-1.99803E-13
 -1      3073 2.01234E+01 9.02990E-02 1.93451E-03 1.22152E-01-9.68939E-14-1.37999E-13
 -1      3074 2.01038E+01 4.82776E-02-4.74596E-04 1.45656E-01-1.14830E-13-1.10783E-13
 -1      3075 2.01983E+01 1.45364E-01-9.46790E-04 8.84651E-02-1.13990E-13-1.33771E-13
 -1      3076 2.00873E+01 1.63277E-02 1.26396E-03 1.60336E-01-9.74469E-14-6.84176E-14
 -1      3077 2.00745E+01-9.27292E-03-7.52809E-05 1.69246E-01-7.73824E-14-4.11489E-14
 -1      3078 2.01600E+01 4.58834E-02-9.15363E-04 1.38713E-01-9.17708E-14-1.01861E-13
 -1      3079 2.00598E+01-2.81463E-02 7.53323E-04 1.72686E-01-9.68991E-14-3.72011E-14
 -1      3080 2.00522E+01-4.24573E-02 1.66592E-04 1.72351E-01-9.10992E-14-8.22310E-14
 -1      3081 2.01264E+01-1.55531E-02-8.08120E-04 1.60098E-01-8.77712E-14-1.05838E-13
 -1      3082 2.00397E+01-5.23733E-02 3.86033E-04 1.68833E-01-8.94432E-14-5.57760E-14
 -1      3083 2.00357E+01-5.89777E-02 3.04604E-04 1.63101E-01-6.59013E-14-5.43967E-14
 -1      3084 2.00982E+01-5.06263E-02-6.80240E-04 1.62622E-01-9.52041E-14-7.94995E-14
 -1      3085 2.00254E+01-6.28048E-02 1.33075E-04 1.55745E-01-5.77300E-14-5.89902E-14
 -1      3086 2.00241E+01-6.42043E-02 3.76857E-04 1.47333E-01-4.08487E-14-7.53491E-14
 -1      3087 2.00754E+01-6.75809E-02-5.56832E-04 1.53787E-01-3.92125E-14-7.06558E-14
 -1      3088 2.00158E+01-6.39319E-02-3.49694E-05 1.38353E-01-3.08415E-14-1.07297E-13
 -1      3089 2.00162E+01-6.18464E-02 4.10293E-04 1.29154E-01-1.95842E-14-1.27316E-13
 -1      3090 2.00575E+01-7.22143E-02-4.47946E-04 1.39036E-01-4.92263E-14-1.18737E-13
 -1      3091 2.00097E+01-5.88228E-02-1.43786E-04 1.20097E-01-4.00166E-14-9.18520E-14
 -1      3092 2.00113E+01-5.43908E-02 4.24169E-04 1.11425E-01-8.50165E-14-6.77091E-14
 -1      3093 2.00437E+01-6.85364E-02-3.56218E-04 1.22231E-01-2.64209E-14-1.35941E-13
 -1      3094 2.00063E+01-4.94839E-02-2.14469E-04 1.03370E-01-7.50234E-14-3.66356E-14
 -1      3095 2.00087E+01-4.34031E-02 4.32389E-04 9.61531E-02-1.19927E-13-2.81370E-14
 -1      3096 2.00334E+01-5.92212E-02-2.80969E-04 1.06088E-01-6.30986E-14-1.42782E-13
 -1      3097 2.00048E+01-3.71147E-02-2.63786E-04 8.98718E-02-1.36501E-13 4.74735E-15
 -1      3098 2.00079E+01-2.97441E-02 4.45205E-04 8.48001E-02-7.90336E-14 1.98975E-14
 -1      3099 2.00259E+01-4.59277E-02-2.19998E-04 9.25361E-02-7.54159E-14-4.42798E-15
 -1      3100 2.00049E+01-2.22930E-02-3.05121E-04 8.08874E-02-6.88267E-14-5.39632E-14
 -1      3101 2.00086E+01-1.37268E-02 4.70409E-04 7.85278E-02-3.28524E-14-6.15884E-14
 -1      3102 2.00205E+01-2.95341E-02-1.69962E-04 8.30070E-02-1.34472E-13-1.97147E-14
 -1      3103 2.00061E+01-5.10859E-03-3.49414E-04 7.74981E-02-2.02972E-14-1.83971E-14
 -1      3104 2.00104E+01 4.76857E-03 5.13912E-04 7.83866E-02-3.16244E-14-3.60272E-14
 -1      3105 2.00166E+01-1.03103E-02-1.27045E-04 7.86622E-02-1.61651E-14-3.00960E-14
 -1      3106 2.00081E+01 1.47352E-02-4.05895E-04 8.07516E-02-6.84714E-14-2.74393E-14
 -1      3107 2.00130E+01 2.62060E-02 5.80051E-04 8.54608E-02-9.80320E-14-6.25988E-14
 -1      3108 2.00136E+01 1.19539E-02-8.69026E-05 8.05708E-02-4.60564E-14-1.16958E-14
 -1      3109 2.00105E+01 3.78433E-02-4.82807E-04 9.17865E-02-2.18402E-14-9.41329E-14
 -1      3110 2.00162E+01 5.13234E-02 6.71831E-04 1.00978E-01 8.93172E-14-1.10026E-13
 -1      3111 2.00108E+01 3.78482E-02-4.41570E-05 8.98427E-02-5.29396E-14 1.77253E-14
 -1      3112 2.00130E+01 6.50642E-02-5.88003E-04 1.11924E-01 1.03470E-13-1.37270E-13
 -1      3113 2.00195E+01 8.10725E-02 7.90820E-04 1.26381E-01 1.15317E-13-1.44173E-13
 -1      3114 2.00075E+01 6.82594E-02 7.82316E-06 1.07723E-01 7.73557E-14-3.62159E-14
 -1      3115 2.00150E+01 9.74311E-02-7.29298E-04 1.42724E-01 1.09799E-13-2.32231E-13
 -1      3116 2.00225E+01 1.16556E-01 9.36824E-04 1.63376E-01 1.01300E-13-2.03340E-13
 -1      3117 2.00026E+01 1.04298E-01 7.74092E-05 1.35652E-01 7.49803E-14-2.02604E-13
 -1      3118 2.00159E+01 1.36092E-01-9.14629E-04 1.86015E-01 8.27100E-14-1.69138E-13
 -1      3119 2.00242E+01 1.58947E-01 1.10736E-03 2.13931E-01 3.92000E-14-1.75511E-13
 -1      3120 1.99949E+01 1.47217E-01 1.75314E-04 1.75290E-01 8.05558E-14-2.65434E-13
 -1      3121 2.00145E+01 1.82207E-01-1.15195E-03 2.43879E-01-5.89917E-14-2.24386E-13
 -1      3122 2.00236E+01 2.09356E-01 1.29718E-03 2.80246E-01-9.61589E-14-2.27100E-13
 -1      3123 1.99827E+01 1.98302E-01 3.15072E-04 2.28502E-01-4.37899E-14-2.56819E-13
 -1      3124 2.00093E+01 2.36789E-01-1.44860E-03 3.18595E-01-8.38222E-14-2.01784E-13
 -1      3125 2.00188E+01 2.68625E-01 1.49815E-03 3.64661E-01-7.94571E-14-2.23844E-13
 -1      3126 1.99637E+01 2.58704E-01 5.13160E-04 2.97304E-01-1.20517E-13-2.10696E-13
 -1      3127 1.99983E+01 3.00423E-01-1.80987E-03 4.12527E-01-6.74695E-14-2.93187E-13
 -1      3128 2.00075E+01 3.36956E-01 1.70043E-03 4.69506E-01-1.00105E-13-2.27034E-13
 -1      3129 1.99351E+01 3.29162E-01 7.88147E-04 3.83761E-01-1.44306E-13-3.01444E-13
 -1      3130 1.99784E+01 3.72781E-01-2.23616E-03 5.27961E-01-7.67015E-14-1.23573E-13
 -1      3131 1.99863E+01 4.13277E-01 1.89654E-03 5.96881E-01-6.96992E-14-2.45023E-14
 -1      3132 1.98928E+01 4.09543E-01 1.15777E-03 4.89851E-01-2.51060E-14-1.67568E-13
 -1      3133 1.99461E+01 4.51806E-01-2.71793E-03 6.66889E-01-1.09010E-13-8.83154E-14
 -1      3134 1.99516E+01 4.94180E-01 2.09103E-03 7.48391E-01 4.41467E-14-6.81636E-14
 -1      3135 1.98322E+01 4.98077E-01 1.63189E-03 6.17322E-01-7.26357E-14-8.51982E-14
 -1      3136 1.98974E+01 5.32332E-01-3.22694E-03 8.30792E-01 8.54673E-14-1.38973E-13
 -1      3137 1.98996E+01 5.72155E-01 2.32008E-03 9.24875E-01 1.14187E-13-2.42964E-13
 -1      3138 1.97476E+01 5.90095E-01 2.19801E-03 7.67622E-01-2.81729E-14-2.60720E-13
 -1      3139 1.98290E+01 6.03849E-01-3.70107E-03 1.02050E+00 1.12720E-13-3.86920E-13
 -1      3140 1.98285E+01 6.32791E-01 2.68640E-03 1.12625E+00 3.88959E-14-4.17721E-13
 -1      3141 1.96334E+01 6.76020E-01 2.79371E-03 9.42064E-01-2.07665E-14-4.91527E-13
 -1      3142 1.97408E+01 6.47043E-01-4.01545E-03 1.23629E+00 1.94784E-13-3.88394E-13
 -1      3143 1.97415E+01 6.50557E-01 3.41213E-03 1.35164E+00 2.85018E-13-3.98053E-13
 -1      3144 1.94856E+01 7.38255E-01 3.25740E-03 1.14248E+00 1.54181E-13-5.68397E-13
 -1      3145 1.96405E+01 6.28758E-01-3.91863E-03 1.47842E+00 2.46523E-13-3.51740E-13
 -1      3146 1.96543E+01 5.82865E-01 4.89632E-03 1.59983E+00 2.11239E-13-2.23314E-13
 -1      3147 1.93052E+01 7.46584E-01 3.24246E-03 1.37279E+00 2.79807E-13-3.04238E-13
 -1      3148 1.95529E+01 4.95336E-01-2.86060E-03 1.74789E+00 1.90714E-13-2.22985E-13
 -1      3149 1.96061E+01 3.62690E-01 7.69190E-03 1.86955E+00 1.05864E-13-1.66409E-13
 -1      3150 1.91049E+01 6.51620E-01 2.05822E-03 1.64163E+00 2.10048E-13-2.09231E-13
 -1      3151 1.95366E+01 1.65300E-01 4.68485E-04 2.04578E+00 4.04367E-14-1.47536E-13
 -1      3152 1.96787E+01-1.08551E-01 1.19686E-02 2.15665E+00 8.34229E-14-1.65734E-13
 -1      3153 1.89218E+01 3.75925E-01-1.64715E-03 1.96556E+00 9.34735E-14-1.46305E-13
 -1      3154 1.97108E+01-4.69009E-01 1.09560E-02 2.36239E+00 6.93706E-14-2.84267E-13
 -1      3155 2.00212E+01-9.53029E-01 1.82705E-02 2.43832E+00 2.99335E-14-3.32826E-13
 -1      3156 1.88423E+01-1.99763E-01-1.03246E-02 2.36611E+00-6.32524E-15-1.20293E-13
 -1      3157 2.02950E+01-1.54011E+00 3.34036E-02 2.65496E+00 1.08713E-13-3.42691E-13
 -1      3158 2.08909E+01-2.28153E+00 2.55438E-02 2.62748E+00 1.43882E-13-3.21172E-13
 -1      3159 1.90300E+01-1.21040E+00-2.36621E-02 2.85008E+00 2.37154E-14-2.73830E-13
 -1      3160 2.16165E+01-3.08184E+00 7.26524E-02 2.73822E+00 1.27314E-13-3.19516E-13
 -1      3161 2.25472E+01-4.03289E+00 1.42714E-02 2.49530E+00 2.08486E-13-3.64266E-13
 -1      3162 1.98256E+01-2.81568E+00-4.36821E-02 3.33836E+00 1.19117E-13-1.35968E-13
 -1      3163 2.76146E+01-3.68658E+00-3.27808E-02-1.53136E+00-3.19363E-15-3.45272E-13
 -1      3164 2.00081E+01 2.40818E-03-1.23244E-04-1.74180E-01 2.51731E-14-8.19305E-14
 -1      3165 2.00186E+01 2.79564E-02 1.58699E-03-1.62823E-01 1.01264E-13-5.93324E-14
 -1      3166 1.99917E+01-3.08381E-02 1.04700E-04-1.80913E-01 5.84066E-14-1.34529E-13
 -1      3167 1.99956E+01-1.61887E-02 9.13952E-04-1.80132E-01 2.67128E-14-9.95645E-14
 -1      3168 2.00717E+01-2.10514E-03-9.58664E-04-1.68606E-01 5.36982E-14-1.06694E-13
 -1      3169 1.99778E+01-5.45189E-02 3.33761E-04-1.38288E-01 3.20488E-14-6.50838E-14
 -1      3170 1.99734E+01-5.55422E-02-7.16679E-05-1.48144E-01 1.00114E-13-1.01326E-13
 -1      3171 1.99796E+01-4.93235E-02 3.50140E-04-1.19006E-01 6.07168E-15 3.14089E-15
 -1      3172 1.99744E+01-5.25470E-02-1.94469E-04-1.28591E-01 3.89282E-14-2.59168E-14
 -1      3173 2.00120E+01-6.22122E-02-3.08378E-04-1.34039E-01 1.15552E-14-9.83541E-14
 -1      3174 1.99830E+01-4.09188E-02 3.62067E-04-1.01724E-01 2.14915E-15-8.39921E-15
 -1      3175 1.99774E+01-4.56355E-02-2.65356E-04-1.10058E-01 2.37337E-14 3.13175E-14
 -1      3176 2.00073E+01-5.54495E-02-2.28571E-04-1.15909E-01 3.39832E-14-7.61908E-14
 -1      3177 1.99875E+01-3.02216E-02 3.78537E-04-8.79851E-02 2.30470E-14-1.29559E-14
 -1      3178 1.99817E+01-3.60286E-02-3.04849E-04-9.43677E-02 2.92486E-15-2.45579E-14
 -1      3179 2.00049E+01-4.50114E-02-1.72100E-04-9.99539E-02 8.02137E-15-7.02316E-14
 -1      3180 1.99929E+01-1.76710E-02 4.06336E-04-7.89510E-02-6.91228E-15 3.84180E-16
 -1      3181 1.99869E+01-2.43958E-02-3.28387E-04-8.28440E-02 1.81223E-14 1.00746E-14
 -1      3182 2.00043E+01-3.18822E-02-1.34184E-04-8.77237E-02 1.49748E-14-5.91198E-14
 -1      3183 1.99993E+01-3.34941E-03 4.50791E-04-7.56009E-02-3.49573E-14-9.17283E-14
 -1      3184 1.99929E+01-1.09901E-02-3.47554E-04-7.65343E-02 6.26058E-15-4.93739E-14
 -1      3185 2.00050E+01-1.65053E-02-1.09980E-04-8.04112E-02 3.42566E-14-5.71178E-14
 -1      3186 2.00067E+01 1.29146E-02 5.15899E-04-7.88779E-02-7.55744E-14-8.40822E-14
 -1      3187 1.99996E+01 4.24063E-03-3.70882E-04-7.63840E-02-7.40521E-14-1.04619E-13
 -1      3188 2.00067E+01 1.07520E-03-9.54567E-05-7.90472E-02-3.71930E-14-2.28063E-13
 -1      3189 2.00153E+01 3.14519E-02 6.04286E-04-8.97879E-02 9.21108E-14-6.15841E-14
 -1      3190 2.00073E+01 2.15563E-02-4.04531E-04-8.33588E-02 1.45940E-14-4.47249E-14
 -1      3191 2.00092E+01 2.10932E-02-8.73131E-05-8.46396E-02-4.52405E-14-1.44811E-13
 -1      3192 2.00256E+01 5.26513E-02 7.17118E-04-1.09457E-01 9.29681E-14-5.83608E-14
 -1      3193 2.00161E+01 4.13287E-02-4.52418E-04-9.85234E-02 1.26769E-13-6.96019E-14
 -1      3194 2.00123E+01 4.39461E-02-8.28750E-05-9.82686E-02 8.05008E-14-7.01586E-14
 -1      3195 2.00378E+01 7.68359E-02 8.53567E-04-1.39137E-01 9.71632E-14 9.98425E-14
 -1      3196 2.00264E+01 6.39311E-02-5.16012E-04-1.23075E-01 9.87072E-14 4.12490E-14
 -1      3197 2.00160E+01 7.00677E-02-8.00420E-05-1.21137E-01 3.88194E-14 5.54274E-14
 -1      3198 2.00526E+01 1.04099E-01 1.01020E-03-1.80161E-01 1.37217E-13 1.65110E-13
 -1      3199 2.00387E+01 8.95974E-02-5.93723E-04-1.58327E-01 1.29725E-13 1.54774E-13
 -1      3200 2.00201E+01 9.97705E-02-7.79375E-05-1.54574E-01 4.46690E-14 2.22209E-13
 -1      3201 2.00706E+01 1.34077E-01 1.18011E-03-2.33820E-01 9.14314E-14 9.80778E-14
 -1      3202 2.00536E+01 1.18230E-01-6.79544E-04-2.05628E-01 1.53354E-13 1.64467E-13
 -1      3203 2.00246E+01 1.33036E-01-7.77975E-05-1.99980E-01 1.35275E-13 2.66812E-13
 -1      3204 2.00928E+01 1.65631E-01 1.35194E-03-3.01150E-01 8.02940E-14-3.03861E-14
 -1      3205 2.00718E+01 1.49133E-01-7.60918E-04-2.66205E-01 9.76482E-14-1.19730E-15
 -1      3206 2.00297E+01 1.69227E-01-8.46659E-05-2.58707E-01 1.43383E-13 1.84507E-13
 -1      3207 2.01204E+01 1.96407E-01 1.50894E-03-3.82604E-01-5.39610E-15-7.39360E-14
 -1      3208 2.00946E+01 1.80636E-01-8.15543E-04-3.40896E-01 7.38337E-14-4.73793E-14
 -1      3209 2.00360E+01 2.06684E-01-1.10276E-04-3.31853E-01 7.40221E-14 6.60400E-14
 -1      3210 2.01554E+01 2.22246E-01 1.62816E-03-4.77560E-01-4.00888E-14-1.54571E-13
 -1      3211 2.01237E+01 2.09588E-01-8.06817E-04-4.29760E-01-3.36787E-14-1.41686E-13
 -1      3212 2.00443E+01 2.42181E-01-1.77632E-04-4.19946E-01 2.71069E-14-6.37008E-14
 -1      3213 2.02011E+01 2.36431E-01 1.67949E-03-5.83651E-01-7.25002E-14-8.88360E-14
 -1      3214 2.01619E+01 2.30680E-01-6.77701E-04-5.31502E-01-5.25366E-15-1.91429E-13
 -1      3215 2.00570E+01 2.70206E-01-3.27835E-04-5.22503E-01-4.27248E-14-1.01680E-13
 -1      3216 2.02625E+01 2.28826E-01 1.62356E-03-6.95852E-01-1.55858E-13 8.45593E-14
 -1      3217 2.02136E+01 2.35640E-01-3.43007E-04-6.42698E-01-1.14916E-13 5.24830E-14
 -1      3218 2.00778E+01 2.82067E-01-6.29406E-04-6.37417E-01-1.88570E-13-3.86045E-14
 -1      3219 2.03479E+01 1.85058E-01 1.40501E-03-8.05289E-01-2.04602E-13 7.66218E-14
 -1      3220 2.02861E+01 2.12354E-01 3.18868E-04-7.56737E-01-6.14484E-14 1.30045E-13
 -1      3221 2.01137E+01 2.64895E-01-1.18928E-03-7.60131E-01-1.43500E-13 1.62735E-13
 -1      3222 2.04700E+01 8.62121E-02 9.35256E-04-8.97704E-01-2.43241E-13 6.08291E-14
 -1      3223 2.03906E+01 1.44235E-01 1.47096E-03-8.62421E-01-2.73055E-13 2.58950E-14
 -1      3224 2.01761E+01 2.00782E-01-2.16174E-03-8.82507E-01-1.71211E-13-5.80264E-14
 -1      3225 2.06476E+01-9.00335E-02 5.47879E-05-9.51520E-01-1.67256E-13 2.10511E-13
 -1      3226 2.05442E+01 1.04733E-02 3.30940E-03-9.42110E-01-2.28121E-13 1.89785E-13
 -1      3227 2.02832E+01 6.66210E-02-3.74401E-03-9.91183E-01-2.62695E-13 6.12180E-14
 -1      3228 2.09056E+01-3.64953E-01-1.51921E-03-9.35523E-01-1.99729E-13 2.05662E-13
 -1      3229 2.07707E+01-2.11483E-01 6.01468E-03-9.69293E-01-1.73611E-13 2.20395E-13
 -1      3230 2.04620E+01-1.64112E-01-6.13384E-03-1.06510E+00-1.99413E-13 2.46518E-14
 -1      3231 2.12720E+01-7.47847E-01-4.18889E-03-8.06639E-01-1.92730E-13 1.85275E-13
 -1      3232 2.10998E+01-5.38788E-01 9.63476E-03-9.05670E-01-1.21279E-13 2.01483E-13
 -1      3233 2.07499E+01-5.15286E-01-9.38592E-03-1.07174E+00-1.57859E-13 2.08116E-13
 -1      3234 2.17679E+01-1.21438E+00-8.26732E-03-5.10031E-01-6.35012E-14 1.67008E-13
 -1      3235 2.15602E+01-9.67653E-01 1.37616E-02-6.98952E-01-1.74708E-13 1.31051E-13
 -1      3236 2.11910E+01-9.93352E-01-1.30324E-02-9.61997E-01-1.66148E-13 4.51468E-14
 -1      3237 2.23850E+01-1.67235E+00-1.35281E-02 1.14434E-02-1.57949E-13 3.20709E-13
 -1      3238 2.21613E+01-1.44539E+00 1.69099E-02-2.86102E-01-9.45783E-14 2.66143E-13
 -1      3239 2.18231E+01-1.55814E+00-1.55008E-02-6.66748E-01-1.82253E-13 2.47787E-14
 -1      3240 2.30519E+01-1.91830E+00-1.69401E-02 7.88209E-01-7.15691E-14 4.75873E-13
 -1      3241 2.28588E+01-1.83209E+00 1.53950E-02 3.88446E-01-9.19003E-14 4.84398E-13
 -1      3242 2.26472E+01-2.07990E+00-1.45618E-02-1.02301E-01-1.84320E-13 3.15036E-13
 -1      3243 2.36055E+01-1.64753E+00-1.42975E-02 1.73727E+00-2.44591E-13 4.51271E-13
 -1      3244 2.35090E+01-1.86714E+00 3.76305E-03 1.30581E+00-1.53514E-13 4.99354E-13
 -1      3245 2.35648E+01-2.27971E+00-7.45672E-03 7.78154E-01-1.63196E-13 5.99225E-13
 -1      3246 2.38231E+01-5.69958E-01 2.00300E-03 2.56328E+00-8.18581E-14 6.38122E-13
 -1      3247 2.38701E+01-1.21654E+00-1.97847E-02 2.27680E+00-1.88475E-13 4.90032E-13
 -1      3248 2.43432E+01-1.77138E+00 3.05013E-03 1.88684E+00-2.82152E-13 6.13063E-13
 -1      3249 2.35985E+01 1.15219E+00 1.16043E-02 2.75643E+00 1.25044E-13 3.21540E-13
 -1      3250 2.37519E+01 2.13871E-01-5.33569E-02 2.81232E+00 4.29122E-14 4.85017E-13
 -1      3251 2.46392E+01-2.29454E-01 6.18596E-03 2.80190E+00 9.19230E-15 3.27186E-13
 -1      3252 2.28436E+01 3.06199E+00-3.15994E-02 3.65862E-01 4.01287E-13-2.16947E-14
 -1      3253 2.28924E+01 3.07198E+00-2.62796E-02 1.09371E+00 3.22796E-13 1.57741E-13
 -1      3254 2.30621E+01 1.98983E+00-6.08222E-02-9.09308E-01 1.64181E-13-1.68442E-14
 -1      3255 2.30120E+01 2.66513E+00 1.56029E-03-4.23395E-01 3.16882E-13-9.41432E-14
 -1      3256 2.38000E+01 3.32499E+00-5.49405E-02-1.08337E-01 3.84123E-13-8.28001E-14
 -1      3257 2.33547E+01 3.82875E-01-4.74323E-02-1.27400E+00 4.02360E-14 2.25198E-13
 -1      3258 2.33137E+01 1.21148E+00 1.15577E-02-1.21196E+00 2.46313E-14-1.35027E-14
 -1      3259 2.41724E+01 1.89764E+00 1.09227E-03-1.21098E+00 4.93494E-14 1.24331E-13
 -1      3260 2.31875E+01-7.12362E-01-2.35422E-02-8.31033E-01-2.99756E-13 3.81705E-13
 -1      3261 2.33081E+01-2.28536E-01 1.07749E-04-1.04776E+00-5.07060E-14 3.06090E-13
 -1      3262 2.42589E+01 5.10161E-02 1.72829E-03-1.15977E+00-5.72788E-14 3.52281E-13
 -1      3263 2.29983E+01-1.11494E+00-1.47261E-02-1.89238E-01-4.91371E-13 5.72567E-13
 -1      3264 2.30971E+01-9.33590E-01-4.04867E-03-5.12093E-01-4.58075E-13 4.55923E-13
 -1      3265 2.40415E+01-1.06072E+00 1.32522E-02-5.21787E-01-3.33946E-13 6.10161E-13
 -1      3266 2.36193E+01-1.39302E+00-5.21129E-03 2.01874E-01-4.35673E-13 3.37526E-13
 -1      3267 2.43183E+01-3.35511E+00 5.41152E-03-3.63630E+00-2.58994E-15 1.03067E-13
 -1      3268 2.00441E+01 2.16059E+00-4.29043E-03 2.92576E-01 1.15523E-13-3.92285E-13
 -1      3269 2.00309E+01 2.19940E+00-3.31341E-03 1.70849E-01 6.67324E-14-4.28453E-13
 -1      3270 2.19433E+01-5.35496E+00 1.23438E-01-4.62948E+00-1.42199E-13-4.70840E-13
 -1      3271 2.39704E+01-5.68999E+00-9.99477E-02-3.45123E+00-8.72497E-14-3.24565E-13
 -1      3272 1.61717E+01-3.99598E+00 1.16155E-01-5.89559E+00 3.89966E-15-5.36612E-13
 -1      3273 1.90502E+01-5.04619E+00-1.17368E-02-5.67071E+00-4.01207E-14-5.45369E-13
 -1      3274 1.29489E+01 2.08804E-01 1.33083E-01-4.14215E+00 1.76553E-13-1.09641E-12
 -1      3275 2.80036E+01-2.37376E+00 2.01925E-02 1.62011E+00 2.76258E-13 2.25986E-13
 -1      3276 2.75871E+01-8.29022E-01-1.54814E-01 2.53281E+00 3.59601E-13 2.56344E-13
 -1      3277 2.63161E+01 5.34647E+00-1.50250E-01 9.22973E-02 3.56895E-13-2.88708E-13
 -1      3278 2.65185E+01 4.57138E+00-3.80990E-02-9.16625E-01 2.34826E-13-4.42802E-13
 -1      3279 2.22498E+01-4.95967E+00-4.05917E-02 3.28624E+00 8.75029E-14-4.77857E-13
 -1      3280 1.93463E+01-4.10662E+00 1.20498E-01 4.38883E+00-2.73219E-14-4.60770E-13
 -1      3281 8.37264E+00-6.55817E-01 8.44344E-02-1.27839E+00 2.04982E-13-8.22425E-13
 -1      3282 8.62834E+00-1.12938E+00 1.91830E-01-3.05838E+00 3.08392E-13-8.85014E-13
 -1      3283 1.05394E+01-1.29504E+00 1.30519E-01-3.68318E+00 7.15261E-14-6.03920E-13
 -1      3284 2.39885E+01-4.92312E+00 7.34383E-02-5.51429E+00 1.17281E-13-4.85850E-13
 -1      3285 2.56705E+01-5.14420E+00-3.21793E-02-4.45949E+00 2.50189E-13-3.81587E-13
 -1      3286 1.94177E+01-2.19523E+00 1.14743E-01 6.70672E+00-2.13857E-13 6.09950E-13
 -1      3287 2.73092E+01 1.48747E+00-4.98595E-03 3.20647E+00 2.85640E-13 1.54043E-15
 -1      3288 2.64595E+01 3.23006E+00-1.67880E-01 2.89929E+00 1.99396E-13-1.60452E-13
 -1      3289 1.99784E+01-5.49564E-02 3.00512E-04-1.57383E-01 1.23439E-13-1.14531E-13
 -1      3290 1.99755E+01-5.26672E-02 1.29888E-04-1.66085E-01 8.76818E-14-1.21248E-13
 -1      3291 2.00197E+01-6.35997E-02-4.16922E-04-1.52189E-01 7.09160E-14-1.03679E-13
 -1      3292 1.99825E+01-4.82429E-02 2.32785E-04-1.73122E-01 8.73664E-14-1.27957E-13
 -1      3293 1.99822E+01-4.09819E-02 4.44438E-04-1.78591E-01 9.39500E-14-1.53575E-13
 -1      3294 2.00314E+01-5.69615E-02-5.60055E-04-1.67269E-01 7.32216E-14-1.62359E-13
 -1      3295 2.00725E+01 1.50449E-01-1.07271E-03-7.66987E-02 1.45051E-13-1.17790E-13
 -1      3296 2.01034E+01 2.15707E-01 3.09906E-03-2.30556E-02 1.46794E-13-1.03931E-13
 -1      3297 2.63209E+01-4.73012E+00 3.60649E-02-3.26121E+00 2.57953E-13 3.06491E-14
 -1      3298 2.00343E+01 5.90159E-02-5.09331E-04-1.43667E-01 1.19612E-13-6.30793E-14
 -1      3299 2.00542E+01 1.00582E-01 2.48142E-03-1.15565E-01 1.24524E-13-8.71421E-14
 -1      3300 2.01028E+01 6.00498E-02-1.19426E-03-1.39813E-01 9.50913E-14-9.94997E-14
 -1      3301 1.68854E+01-3.47292E+00 7.01281E-03 4.77162E+00-1.16754E-13-3.05506E-13
 -1      3302 1.43363E+01-2.25194E+00 8.52900E-02 4.36011E+00-2.18939E-13-3.88162E-14
 -1      3303 1.87383E+01-2.98117E+00 6.95001E-02 3.89582E+00 1.08066E-13-1.86191E-13
 -1      3304 2.02909E+01 9.88422E-01-7.43088E-04 6.89650E-01 2.48550E-13-1.70485E-13
 -1      3305 2.02671E+01 1.30742E+00 3.05722E-03 7.70743E-01 2.54765E-13-1.96261E-13
 -1      3306 2.02698E+01 1.12764E+00 8.13167E-05 5.92617E-01 2.26954E-13-2.15071E-13
 -1      3307 2.02318E+01 7.75458E-01-3.74331E-03 4.83943E-01 2.22162E-13-1.50458E-13
 -1      3308 9.78849E+00 5.40333E-01 1.47075E-01 1.76706E+00 7.75491E-14-1.39583E-13
 -1      3309 2.61240E+01-4.95004E+00 8.81209E-02-1.64096E+00-3.55098E-15-1.33477E-13
 -1      3310 2.72864E+01-3.97609E+00-1.22543E-01 9.92676E-02 1.27052E-13 1.68726E-13
 -1      3311 2.67355E+01-3.25367E+00-1.87030E-02 8.77411E-01 3.97382E-14 2.97155E-13
 -1      3312 2.68569E+01 2.61281E+00-1.77729E-01-1.45298E+00 2.06904E-13-5.25097E-13
 -1      3313 2.77266E+01 8.74279E-01 3.41615E-03-1.43174E+00-1.86920E-13-5.08517E-13
 -1      3314 2.77480E+01-1.28971E+00-1.90951E-01-5.39993E-01-4.54883E-13-2.97689E-13
 -1      3315 2.79409E+01-2.55117E+00 1.06143E-01 5.34252E-01-4.14963E-13-2.67147E-13
 -1      3316 2.01982E+01 1.89138E+00 1.82782E-03-1.00656E+00-2.28466E-13-2.97494E-13
 -1      3317 2.00238E+01 2.21817E+00-3.67154E-03 6.59563E-02 5.38406E-14-4.41666E-13
 -1      3318 2.00234E+01 2.21906E+00-3.62281E-03-5.80854E-02 2.17473E-14-4.25371E-13
 -1      3319 2.01378E+01 1.92231E+00 4.96948E-03 1.01461E-01 5.03707E-14-4.17952E-13
 -1      3320 2.02566E+01 1.46051E+00 7.48493E-03 5.88096E-01 2.06268E-13-2.77670E-13
 -1      3321 2.01568E+01 1.79973E+00-7.80552E-03 6.83497E-01 2.36134E-13-3.09587E-13
 -1      3322 2.01214E+01 1.93076E+00-2.91657E-03 5.90165E-01 1.97238E-13-3.22959E-13
 -1      3323 2.00617E+01 2.11108E+00-3.04810E-03-3.83476E-01-5.09921E-14-3.70958E-13
 -1      3324 2.00862E+01 2.03335E+00-5.23599E-03-4.97872E-01-9.29393E-14-3.60397E-13
 -1      3325 9.47593E+00 4.78536E-01 2.23104E-01-1.05391E+00 8.37663E-14-1.23357E-12
 -1      3326 2.01196E+01 1.94009E+00-2.43056E-03-5.83972E-01-1.09678E-13-3.39109E-13
 -1      3327 2.01582E+01 1.80956E+00-6.33279E-03-6.82332E-01-1.48071E-13-3.34907E-13
 -1      3328 2.01978E+01 1.70197E+00 5.03244E-03-4.53642E-01-9.83238E-14-3.31576E-13
 -1      3329 2.51138E+01 4.56074E+00-9.16066E-02 5.64089E-01 3.77802E-13-2.41245E-13
 -1      3330 2.45511E+01-4.98445E+00 6.53082E-02 1.92627E+00 1.78288E-13-5.62040E-13
 -1      3331 2.53841E+01 3.40805E+00-7.52188E-02 2.43959E+00 2.09409E-13-1.12490E-13
 -1      3332 2.00483E+01-3.83641E-02-7.41510E-04-1.74841E-01 7.75693E-14-1.36179E-13
 -1      3333 2.59212E+01-2.92514E+00-2.08343E-02 1.89516E+00-3.45109E-13-2.40752E-13
 -1      3334 2.55862E+01-2.36607E+00-5.77205E-02 8.57303E-01-3.75217E-13-3.07700E-13
 -1      3335 1.33298E+01-1.42976E+00 9.45252E-02 3.81580E+00-1.06172E-13-1.71960E-13
 -1      3336 1.25196E+01-5.98395E-01 4.74152E-02 2.75030E+00 6.08506E-14-2.80560E-13
 -1      3337 1.55907E+01-1.37841E+00 7.16918E-02 3.55078E+00 8.47412E-16-1.70832E-13
 -1      3338 1.04430E+01-1.96509E-01 4.99251E-02 1.13562E+00 8.64272E-14-4.71900E-13
 -1      3339 9.30194E+00-1.90493E-01 1.84925E-01 3.92820E-02 9.93038E-14-6.41251E-13
 -1      3340 1.00293E+01-1.52579E-01 7.81560E-02-1.01994E+00 1.84865E-13-8.39814E-13
 -1      3341 2.31338E+01 2.73545E+00-4.24941E-03 1.90706E+00 3.13201E-13 1.43373E-13
 -1      3342 2.32878E+01 2.04714E+00-5.68325E-02 2.42903E+00 2.31039E-13 1.52449E-13
 -1      3343 2.06298E+01-4.74374E+00 5.24165E-02-4.68514E+00-1.31027E-13-4.51956E-13
 -1      3344 1.48782E+01-3.28491E+00 9.41157E-02-5.71309E+00 1.52656E-16-6.33715E-13
 -1      3345 1.68736E+01-3.34727E+00 7.84533E-02-5.19339E+00-6.02990E-14-4.41841E-13
 -1      3346 1.36189E+01-2.39170E+00 7.10810E-02-5.09188E+00 3.90521E-14-5.04471E-13
 -1      3347 2.56379E+01-5.17226E+00 2.27003E-02 1.18188E+00 8.53831E-15-5.50856E-13
 -1      3348 2.00646E+01 2.10518E+00-3.05474E-03 3.91080E-01 1.48673E-13-3.65547E-13
 -1      3349 2.01604E+01 1.84763E+00 5.31756E-03 2.90994E-01 1.29141E-13-3.42730E-13
 -1      3350 2.00902E+01 2.02474E+00-5.34794E-03 5.04345E-01 1.86816E-13-3.32165E-13
 -1      3351 2.48138E+01-4.92905E+00 2.17956E-02-2.10683E+00-5.08760E-14-1.08691E-13
 -1      3352 2.67266E+01-1.29846E-01-1.60769E-02-1.05480E+00-2.36190E-13-2.65111E-13
 -1      3353 2.58081E+01 3.05323E+00-7.03325E-02-1.08370E+00 1.84998E-13-2.29997E-13
 -1      3354 2.65811E+01 6.91793E-02-1.98079E-02 2.83943E+00 2.89390E-13-1.91097E-14
 -1      3355 2.01637E+01 4.58389E-01-2.67108E-03 2.01617E-01 1.88699E-13-1.45804E-13
 -1      3356 2.02202E+01 5.99562E-01 2.74922E-03 3.39970E-01 2.13202E-13-1.47310E-13
 -1      3357 2.02549E+01 7.58484E-01 1.78960E-03 4.02451E-01 2.07029E-13-1.48996E-13
 -1      3358 2.01122E+01 2.74426E-01-1.64974E-03 3.08832E-02 1.46375E-13-1.24539E-13
 -1      3359 2.01557E+01 3.70311E-01 3.27290E-03 1.19746E-01 1.68873E-13-1.26443E-13
 -1      3360 2.02109E+01 4.73157E-01-9.49905E-05 1.69617E-01 1.73515E-13-1.25032E-13
 -1      3361 2.01789E+01 2.96298E-01-1.27322E-03 2.43130E-02 1.39519E-13-1.29443E-13
 -1      3362 2.37904E+01-3.71680E+00-1.15861E-02-4.74344E+00 2.13510E-14-2.91482E-13
 -1      3363 2.27706E+01-3.57739E+00 5.23184E-02-5.48076E+00 9.77690E-14-4.10377E-13
 -1      3364 2.15112E+01-4.06553E+00-2.77789E-02-6.52662E+00 1.73424E-13-5.46264E-13
 -1      3365 2.01425E+01 1.59969E-01-1.40129E-03-7.66785E-02 1.21226E-13-1.30470E-13
 -1      3366 1.06674E+01-2.45679E-02 2.16604E-02-3.50197E+00 2.27693E-13-1.57591E-12
 -1      3367 2.38891E+01 3.38733E+00-6.39868E-02 1.61268E+00 3.31103E-13-1.72388E-15
 -1      3368 1.86563E+01-2.86482E+00 1.74820E-01-6.84303E+00 1.64917E-13-6.33361E-13
 -1      3369 2.53471E+01-3.97023E+00 7.56146E-02-3.46145E+00 9.35545E-14 1.39433E-13
 -1      3370 2.44134E+01 1.88182E+00-9.93958E-03 2.81587E+00 1.70385E-13 3.98136E-14
 -1      3371 2.02182E+01 1.54025E+00-2.67678E-03-7.85997E-01-2.04022E-13-2.61781E-13
 -1      3372 1.53109E+01-2.19094E+00 2.82609E-02-6.80421E+00 2.36505E-13-9.61245E-13
 -1      3373 2.02211E+01 1.55561E+00 1.32724E-03-6.81515E-01-1.63043E-13-2.73211E-13
 -1      3374 1.35798E+01-4.72297E-01 2.54744E-01-5.38270E+00 2.10928E-13-1.04074E-12
 -1      3375 2.00419E+01 2.16508E+00-4.21685E-03-2.84460E-01-3.39106E-14-3.89212E-13
 -1      3376 2.01584E+01 1.85228E+00 5.34040E-03-2.84834E-01-3.91263E-14-3.53790E-13
 -1      3377 2.00296E+01 2.20173E+00-3.33794E-03-1.62934E-01 5.40867E-15-4.02738E-13
 -1      3378 2.59955E+01-3.58011E+00 5.96601E-02 3.95262E-01-1.14230E-13 3.15791E-13
 -1      3379 2.61030E+01-2.54867E+00-5.73919E-02 1.60230E+00 7.29364E-14 2.17147E-13
 -1      3380 2.50177E+01 2.65861E+00 6.59472E-03 2.82299E+00 2.32897E-13-1.64911E-13
 -1      3381 2.50835E+01 1.14249E+00-1.29208E-01 3.10829E+00 2.31185E-13-8.09266E-14
 -1      3382 2.03168E+01 6.76806E-01 2.16133E-03-2.00915E-01-1.21000E-13-2.27606E-13
 -1      3383 2.02986E+01 5.23120E-01-2.83239E-03-1.09191E-01-1.11111E-13-2.18501E-13
 -1      3384 2.03006E+01 3.98162E-01 2.38409E-03-4.64167E-02-1.00841E-13-1.98700E-13
 -1      3385 2.02763E+01 2.92628E-01-1.93802E-03 1.39521E-02-1.07634E-13-1.83382E-13
 -1      3386 2.03342E+01 5.25888E-01 2.86817E-04-8.68522E-02-9.13474E-14-2.05178E-13
 -1      3387 2.02667E+01 2.08617E-01 1.99320E-03 5.41115E-02-9.30275E-14-1.52942E-13
 -1      3388 2.02429E+01 1.38113E-01-1.14528E-03 9.02300E-02-1.06500E-13-1.52091E-13
 -1      3389 2.03156E+01 2.92311E-01-1.18008E-04 1.90128E-02-8.51793E-14-1.79527E-13
 -1      3390 2.02274E+01 8.31429E-02 1.48860E-03 1.12728E-01-1.12254E-13-1.28456E-13
 -1      3391 2.02064E+01 3.78348E-02-5.59344E-04 1.31339E-01-8.29225E-14-1.25920E-13
 -1      3392 2.02828E+01 1.34105E-01-4.33450E-04 8.47714E-02-9.98535E-14-1.45113E-13
 -1      3393 2.01886E+01 3.45392E-03 1.03364E-03 1.41209E-01-7.76299E-14-1.09098E-13
 -1      3394 2.01712E+01-2.39795E-02-1.58847E-04 1.47907E-01-1.07750E-13-1.01836E-13
 -1      3395 2.02446E+01 3.12873E-02-5.76225E-04 1.20060E-01-9.77069E-14-1.22835E-13
 -1      3396 2.01533E+01-4.38961E-02 6.66766E-04 1.49361E-01-1.20879E-13-8.16872E-14
 -1      3397 2.01393E+01-5.88107E-02 9.93657E-05 1.48470E-01-5.89652E-14-6.38638E-14
 -1      3398 2.02060E+01-3.17809E-02-6.11930E-04 1.33976E-01-1.15824E-13-1.22485E-13
 -1      3399 2.01226E+01-6.86819E-02 3.88264E-04 1.44773E-01-3.27652E-14-1.00306E-13
 -1      3400 2.01118E+01-7.49488E-02 2.55735E-04 1.39501E-01-3.41428E-14-1.13404E-13
 -1      3401 2.01701E+01-6.67761E-02-5.87331E-04 1.33948E-01-7.28555E-14-1.19030E-13
 -1      3402 2.00969E+01-7.79319E-02 1.84376E-04 1.33074E-01-4.30386E-14-1.21307E-13
 -1      3403 2.00887E+01-7.83018E-02 3.42995E-04 1.25732E-01-3.89365E-14-1.33343E-13
 -1      3404 2.01381E+01-8.22429E-02-5.31320E-04 1.25673E-01-4.92117E-14-1.18106E-13
 -1      3405 2.00758E+01-7.66067E-02 3.75607E-05 1.18321E-01-4.76665E-14-1.49158E-13
 -1      3406 2.00698E+01-7.29756E-02 3.86263E-04 1.10546E-01-6.47489E-14-1.68749E-13
 -1      3407 2.01107E+01-8.43040E-02-4.60551E-04 1.13350E-01-4.47252E-14-1.55696E-13
 -1      3408 2.00589E+01-6.80892E-02-6.94986E-05 1.03388E-01-8.73118E-14-1.87709E-13
 -1      3409 2.00547E+01-6.16944E-02 4.04278E-04 9.63403E-02-6.79122E-14-1.97773E-13
 -1      3410 2.00876E+01-7.72086E-02-3.84001E-04 1.00001E-01-8.49508E-14-2.10399E-13
 -1      3411 2.00454E+01-5.45471E-02-1.52097E-04 9.03173E-02-5.49206E-14-1.85921E-13
 -1      3412 2.00426E+01-4.61190E-02 4.10482E-04 8.48381E-02-6.21113E-14-1.50004E-13
 -1      3413 2.00684E+01-6.37519E-02-3.06277E-04 8.77859E-02-4.97138E-14-1.70736E-13
 -1      3414 2.00346E+01-3.72135E-02-2.23021E-04 8.06061E-02-8.14812E-14-6.87990E-14
 -1      3415 2.00328E+01-2.70883E-02 4.14693E-04 7.73429E-02-7.04396E-14 1.15275E-14
 -1      3416 2.00525E+01-4.56040E-02-2.28488E-04 7.82781E-02-2.04833E-14-1.67169E-13
 -1      3417 2.00257E+01-1.65910E-02-2.93337E-04 7.54290E-02-9.10526E-14 2.33859E-14
 -1      3418 2.00246E+01-4.79440E-03 4.23823E-04 7.49362E-02-4.90821E-14 2.50236E-15
 -1      3419 2.00388E+01-2.35589E-02-1.48800E-04 7.26857E-02-3.48573E-14-8.51292E-16
 -1      3420 2.00177E+01 7.39259E-03-3.72530E-04 7.58201E-02-3.41626E-14-3.02124E-14
 -1      3421 2.00170E+01 2.10777E-02 4.41884E-04 7.86348E-02-7.17845E-14-6.21956E-14
 -1      3422 2.00264E+01 2.27536E-03-6.47077E-05 7.20289E-02-6.50952E-14-2.63063E-14
 -1      3423 2.00097E+01 3.52577E-02-4.68979E-04 8.28067E-02-8.33455E-14-6.43294E-14
 -1      3424 2.00090E+01 5.12363E-02 4.70690E-04 8.95031E-02-1.95103E-14-3.39382E-14
 -1      3425 2.00140E+01 3.23289E-02 2.90724E-05 7.72779E-02-5.50179E-14-1.19002E-13
 -1      3426 2.00004E+01 6.78712E-02-5.90633E-04 9.75018E-02 2.65058E-14-7.17922E-14
 -1      3427 1.99993E+01 8.66906E-02 5.09872E-04 1.08727E-01 3.86886E-14-1.18619E-13
 -1      3428 2.00002E+01 6.74411E-02 1.39439E-04 8.94427E-02-4.40157E-14-6.00443E-14
 -1      3429 1.99885E+01 1.06358E-01-7.45116E-04 1.21162E-01 1.24321E-14-1.60248E-13
 -1      3430 1.99865E+01 1.28662E-01 5.56779E-04 1.37655E-01 2.98440E-14-2.45232E-13
 -1      3431 1.99833E+01 1.08755E-01 2.75150E-04 1.09630E-01-2.26801E-14-2.20696E-13
 -1      3432 1.99722E+01 1.52008E-01-9.39847E-04 1.55211E-01 6.06055E-14-2.89109E-13
 -1      3433 1.99685E+01 1.78482E-01 6.06146E-04 1.77801E-01 4.24562E-14-2.64797E-13
 -1      3434 1.99611E+01 1.57612E-01 4.47412E-04 1.39062E-01-3.92045E-15-2.09975E-13
 -1      3435 1.99492E+01 2.06160E-01-1.18221E-03 2.01224E-01-4.09049E-14-2.75968E-13
 -1      3436 1.99430E+01 2.37455E-01 6.49949E-04 2.30810E-01-1.35985E-13-3.35727E-13
 -1      3437 1.99311E+01 2.15424E-01 6.70222E-04 1.79063E-01-2.87366E-14-2.96504E-13
 -1      3438 1.99168E+01 2.70036E-01-1.47967E-03 2.60874E-01-1.09379E-13-2.70669E-13
 -1      3439 1.99066E+01 3.06657E-01 6.77844E-04 2.98374E-01-1.12299E-13-2.01675E-13
 -1      3440 1.98899E+01 2.83504E-01 9.60700E-04 2.30999E-01-1.21446E-13-3.09173E-13
 -1      3441 1.98712E+01 3.44489E-01-1.83997E-03 3.35837E-01-1.52967E-13-1.66292E-13
 -1      3442 1.98552E+01 3.86619E-01 6.79019E-04 3.82127E-01-1.56034E-13-1.58234E-13
 -1      3443 1.98336E+01 3.62819E-01 1.33916E-03 2.96183E-01-1.50795E-13-9.78718E-14
 -1      3444 1.98077E+01 4.29603E-01-2.27184E-03 4.27670E-01-6.25435E-14-5.37650E-14
 -1      3445 1.97839E+01 4.76824E-01 6.47015E-04 4.83502E-01-8.22394E-15-8.55111E-14
 -1      3446 1.97568E+01 4.53622E-01 1.82859E-03 3.75763E-01-3.88341E-14-5.85007E-15
 -1      3447 1.97206E+01 5.24060E-01-2.78677E-03 5.37715E-01-1.57217E-13-1.02389E-13
 -1      3448 1.96862E+01 5.74913E-01 5.90094E-04 6.03654E-01-9.78444E-14-1.25473E-13
 -1      3449 1.96532E+01 5.54885E-01 2.45288E-03 4.70633E-01-1.09505E-13-1.02387E-13
 -1      3450 1.96029E+01 6.24129E-01-3.40287E-03 6.67095E-01-8.12983E-14-2.12116E-13
 -1      3451 1.95550E+01 6.75440E-01 5.51109E-04 7.43538E-01-9.85531E-14-3.03700E-13
 -1      3452 1.95151E+01 6.63448E-01 3.23308E-03 5.81461E-01-1.63287E-13-1.71769E-13
 -1      3453 1.94467E+01 7.22115E-01-4.15187E-03 8.17006E-01-7.39078E-14-3.04990E-13
 -1      3454 1.93830E+01 7.67962E-01 6.42122E-04 9.04395E-01-7.22755E-14-3.81347E-13
 -1      3455 1.93332E+01 7.72746E-01 4.18024E-03 7.09040E-01-1.39795E-13-1.13472E-13
 -1      3456 1.92442E+01 8.03993E-01-5.08950E-03 9.89605E-01 1.08652E-13-3.66869E-13
 -1      3457 1.91640E+01 8.34187E-01 1.10121E-03 1.08903E+00 2.83141E-13-3.07273E-13
 -1      3458 1.90974E+01 8.70947E-01 5.28291E-03 8.55288E-01 7.79191E-14-3.74387E-14
 -1      3459 1.89892E+01 8.45956E-01-6.30231E-03 1.19000E+00 3.45571E-13-2.97967E-13
 -1      3460 1.88965E+01 8.43892E-01 2.39086E-03 1.30441E+00 2.96240E-13-2.15133E-13
 -1      3461 1.87969E+01 9.38289E-01 6.48799E-03 1.02543E+00 3.23856E-13-1.09120E-13
 -1      3462 1.86813E+01 8.09554E-01-7.86434E-03 1.43002E+00 1.43829E-13-2.41925E-13
 -1      3463 1.85896E+01 7.49047E-01 5.32652E-03 1.56625E+00 1.37052E-13-3.08209E-13
 -1      3464 1.84223E+01 9.43364E-01 7.67679E-03 1.23221E+00 2.24416E-13-2.17922E-13
 -1      3465 1.83335E+01 6.35139E-01-9.43591E-03 1.73426E+00 1.86812E-13-3.44506E-13
 -1      3466 1.82753E+01 4.74895E-01 1.13127E-02 1.90548E+00 7.06396E-14-3.07286E-13
 -1      3467 1.79683E+01 8.37074E-01 8.52462E-03 1.50315E+00 1.61824E-13-3.94640E-13
 -1      3468 1.79888E+01 2.36772E-01-7.63027E-03 2.14847E+00-2.60493E-14-1.57495E-13
 -1      3469 1.80164E+01-9.43653E-02 1.96511E-02 2.37537E+00-7.77282E-14-2.00797E-13
 -1      3470 1.74363E+01 5.38764E-01 5.79754E-03 1.88746E+00 1.13537E-13-4.03480E-13
 -1      3471 1.80717E+01-1.97817E+00 4.73999E-02 3.57251E+00 6.65449E-14-1.88301E-13
 -1      3472 2.60695E+01-3.90453E+00-1.47789E-01 3.02262E+00-4.24820E-13-7.06444E-14
 -1      3473 2.01273E+01-8.37935E-03-2.18969E-04-1.59000E-01 7.21293E-14-1.42874E-13
 -1      3474 2.01433E+01 2.06211E-02 1.27770E-03-1.49435E-01 6.10097E-14-1.02984E-13
 -1      3475 2.43497E+01 4.26720E+00-3.73151E-02 1.12990E+00 3.77913E-13-4.30688E-14
 -1      3476 2.44966E+01 4.26358E+00-2.18380E-02 1.92131E-01 3.94192E-13-1.01636E-13
 -1      3477 2.00342E+01-5.97561E-02 3.96252E-04-1.07573E-01 6.20977E-15-7.87835E-14
 -1      3478 2.00358E+01-6.47226E-02-9.07695E-05-1.15770E-01 6.10353E-15-9.96547E-14
 -1      3479 2.00448E+01-6.82253E-02 3.73206E-04-1.24017E-01 1.38757E-14-9.15099E-14
 -1      3480 2.00479E+01-7.04842E-02 2.76118E-05-1.32680E-01 2.44737E-14-8.47642E-14
 -1      3481 2.00684E+01-7.40481E-02-3.73277E-04-1.14984E-01 1.74219E-14-3.19148E-14
 -1      3482 2.00209E+01-3.15997E-02 4.17062E-04-8.31763E-02 1.22893E-14-1.57640E-13
 -1      3483 2.00204E+01-3.99562E-02-2.36720E-04-8.78732E-02-2.20966E-14-1.82531E-13
 -1      3484 2.00170E+01-1.33330E-02 4.32607E-04-7.78192E-02 1.66414E-14-1.28659E-13
 -1      3485 2.00158E+01-2.30219E-02-2.92151E-04-7.98574E-02 5.14483E-14-7.58546E-14
 -1      3486 2.00310E+01-3.03467E-02-1.63779E-04-7.96717E-02-2.70874E-14-2.11253E-13
 -1      3487 2.00142E+01 7.60545E-03 4.60299E-04-7.84214E-02-4.20626E-14-1.97909E-13
 -1      3488 2.00124E+01-3.47229E-03-3.49488E-04-7.72878E-02-2.42883E-14-1.66859E-13
 -1      3489 2.00227E+01-8.85882E-03-1.04344E-04-7.62095E-02 4.70624E-14-1.22999E-13
 -1      3490 2.00119E+01 3.15277E-02 5.03559E-04-8.59984E-02-8.12945E-14-1.60438E-13
 -1      3491 2.00096E+01 1.88698E-02-4.16403E-04-8.11710E-02-6.30360E-14-1.42879E-13
 -1      3492 2.00153E+01 1.58128E-02-4.51542E-05-7.87115E-02-8.25741E-14-1.04550E-13
 -1      3493 2.00096E+01 5.89120E-02 5.64681E-04-1.01651E-01 1.24433E-14 8.03486E-14
 -1      3494 2.00069E+01 4.44141E-02-4.98629E-04-9.25606E-02-1.57056E-14-7.94399E-14
 -1      3495 2.00077E+01 4.40552E-02 1.60718E-05-8.82109E-02-8.23392E-14-4.67993E-14
 -1      3496 2.00068E+01 9.02491E-02 6.44557E-04-1.26610E-01-4.83698E-14 1.94864E-13
 -1      3497 2.00037E+01 7.36640E-02-5.99551E-04-1.12627E-01 2.40735E-14 1.46541E-13
 -1      3498 1.99990E+01 7.64094E-02 8.22240E-05-1.05840E-01-5.59019E-14 9.68333E-14
 -1      3499 2.00029E+01 1.25859E-01 7.43000E-04-1.62235E-01 4.10010E-14 1.26822E-13
 -1      3500 1.99995E+01 1.07051E-01-7.20165E-04-1.42679E-01-1.30125E-14 7.29427E-14
 -1      3501 1.99883E+01 1.13387E-01 1.54727E-04-1.32870E-01 3.55868E-14 1.25772E-13
 -1      3502 1.99974E+01 1.65645E-01 8.58885E-04-2.09966E-01 1.45931E-13 8.76045E-14
 -1      3503 1.99935E+01 1.44724E-01-8.57806E-04-1.84147E-01 9.69321E-14 8.80551E-14
 -1      3504 1.99746E+01 1.55251E-01 2.32809E-04-1.70712E-01 1.00904E-13-2.11250E-14
 -1      3505 1.99900E+01 2.08757E-01 9.90612E-04-2.71215E-01 1.54268E-13 2.58202E-14
 -1      3506 1.99856E+01 1.86262E-01-1.00459E-03-2.38506E-01 2.04511E-13 1.01327E-13
 -1      3507 1.99567E+01 2.01720E-01 3.11754E-04-2.20881E-01 1.65459E-13 5.27627E-14
 -1      3508 1.99807E+01 2.53134E-01 1.13709E-03-3.47185E-01 6.36734E-14 8.91772E-14
 -1      3509 1.99754E+01 2.30283E-01-1.14505E-03-3.07143E-01 7.23303E-14 7.34808E-14
 -1      3510 1.99340E+01 2.51570E-01 3.80103E-04-2.84915E-01 9.79436E-14 6.54681E-14
 -1      3511 1.99705E+01 2.94885E-01 1.29950E-03-4.38615E-01-2.64836E-14 2.06856E-14
 -1      3512 1.99635E+01 2.73907E-01-1.25275E-03-3.91148E-01 4.54418E-14 9.35419E-14
 -1      3513 1.99061E+01 3.02094E-01 4.15386E-04-3.64241E-01 6.12337E-14 8.27641E-14
 -1      3514 1.99613E+01 3.27493E-01 1.48379E-03-5.45413E-01-9.06294E-14 1.42304E-13
 -1      3515 1.99513E+01 3.12057E-01-1.28538E-03-4.91016E-01-2.52686E-14 9.23557E-14
 -1      3516 1.98736E+01 3.48392E-01 3.77771E-04-4.59993E-01-6.45870E-14 1.74397E-13
 -1      3517 1.99577E+01 3.40830E-01 1.70304E-03-6.66186E-01-2.89258E-13 2.54112E-13
 -1      3518 1.99421E+01 3.36562E-01-1.17769E-03-6.06245E-01-1.82354E-13 1.92636E-13
 -1      3519 1.98387E+01 3.82458E-01 2.00838E-04-5.72771E-01-1.54222E-13 3.85787E-13
 -1      3520 1.99680E+01 3.20068E-01 1.97647E-03-7.97594E-01-9.46940E-14 1.38738E-13
 -1      3521 1.99425E+01 3.35112E-01-8.30825E-04-7.34798E-01-2.27733E-13 1.15095E-13
 -1      3522 1.98065E+01 3.92087E-01-2.21396E-04-7.02336E-01-2.11289E-13 2.34364E-13
 -1      3523 2.00063E+01 2.44687E-01 2.31606E-03-9.33431E-01-1.39951E-13 3.89018E-14
 -1      3524 1.99636E+01 2.90184E-01-9.60856E-05-8.72336E-01-1.27887E-14 1.61375E-13
 -1      3525 1.97866E+01 3.59664E-01-1.05207E-03-8.47173E-01-1.22529E-13 2.13887E-13
 -1      3526 2.00950E+01 8.81413E-02 2.68480E-03-1.06313E+00-2.94297E-13 6.15647E-14
 -1      3527 2.00242E+01 1.78301E-01 1.24779E-03-1.01102E+00-2.95253E-13-1.37279E-15
 -1      3528 1.97957E+01 2.61066E-01-2.53328E-03-1.00373E+00-1.69204E-13 1.95276E-13
 -1      3529 2.02681E+01-1.80633E-01 2.89942E-03-1.16910E+00-1.46325E-13 1.45429E-14
 -1      3530 2.01537E+01-2.95651E-02 3.52110E-03-1.13738E+00-2.40531E-13 4.96207E-15
 -1      3531 1.98612E+01 6.52807E-02-5.00266E-03-1.16482E+00-1.86926E-13-7.97191E-14
 -1      3532 2.05726E+01-5.91444E-01 2.46423E-03-1.22197E+00-1.90837E-13 1.20900E-13
 -1      3533 2.03950E+01-3.64716E-01 7.14236E-03-1.22836E+00-1.70225E-13 1.30742E-13
 -1      3534 2.00249E+01-2.63879E-01-8.87525E-03-1.31617E+00-2.20337E-13-1.03791E-14
 -1      3535 2.10658E+01-1.15789E+00 3.92918E-04-1.17248E+00-1.94956E-13 1.70272E-13
 -1      3536 2.08061E+01-8.51237E-01 1.26326E-02-1.24409E+00-1.63852E-13 1.64660E-13
 -1      3537 2.03482E+01-7.61316E-01-1.44944E-02-1.42922E+00-2.23153E-13 2.08314E-13
 -1      3538 2.18042E+01-1.84217E+00-3.33593E-03-9.40472E-01-2.81951E-13 2.25149E-13
 -1      3539 2.14525E+01-1.48345E+00 2.00856E-02-1.11621E+00-1.87468E-13 1.99441E-13
 -1      3540 2.09126E+01-1.44170E+00-2.12927E-02-1.44687E+00-2.46479E-13 3.33497E-13
 -1      3541 2.27962E+01-2.51133E+00-1.44152E-02-4.23651E-01-3.04151E-13 2.94568E-13
 -1      3542 2.23777E+01-2.18237E+00 2.69143E-02-7.45388E-01-4.36992E-13 2.30468E-13
 -1      3543 2.17987E+01-2.24740E+00-2.67218E-02-1.26444E+00-3.86386E-13 2.65787E-13
 -1      3544 2.39576E+01-2.79610E+00-2.06943E-02 4.89671E-01-3.51786E-13 6.34071E-13
 -1      3545 2.35624E+01-2.70527E+00 3.41339E-02 1.99212E-02-2.20489E-13 4.70243E-13
 -1      3546 2.30749E+01-3.03075E+00-3.28515E-02-7.38513E-01-4.11571E-13 4.54139E-13
 -1      3547 2.50336E+01-2.14228E+00-2.36818E-02 1.75634E+00-1.87385E-13 2.41824E-13
 -1      3548 2.47694E+01-2.60315E+00 1.34999E-02 1.21360E+00-2.85085E-13 4.26917E-13
 -1      3549 2.51689E+01 9.85134E-01-1.15711E-01-1.48054E+00-2.10890E-14-2.04958E-14
 -1      3550 2.51121E+01 2.34314E+00-1.50761E-02-1.23874E+00 2.16910E-14 3.35634E-14
 -1      3551 1.95187E+01-3.95059E+00 7.48040E-02-4.63149E+00-1.04618E-13-2.59737E-13
 -1      3552 2.16103E+01-4.66681E+00-5.50847E-02-3.85347E+00-2.61707E-13-2.23172E-13
 -1      3553 2.45226E+01 3.55281E+00-1.08661E-01-6.34810E-01 2.57197E-13 8.00271E-14
 -1      3554 2.40954E+01-1.83677E+00-1.59272E-02 8.26484E-01-4.63895E-13 1.76232E-13
 -1      3555 2.28367E+01-3.93747E+00-1.58420E-02 6.17433E+00-4.00749E-13 4.27977E-13
 -1      3556 2.47038E+01-3.74609E+00 1.53867E-01 4.72749E+00-4.81263E-13 1.15762E-13
 -1      3557 2.02855E+01 8.84619E-01 6.76538E-05 4.45838E-01 1.90000E-13-1.96518E-13
 -1      3558 2.02774E+01 1.05778E+00-1.95074E-03 4.84501E-01 1.94861E-13-2.47758E-13
 -1      3559 2.02600E+01 6.98808E-01-1.51868E-03 3.00731E-01 1.74223E-13-1.81907E-13
 -1      3560 1.10084E+01-7.52879E-01 4.88613E-02-3.07973E+00 4.11719E-14-6.56419E-13
 -1      3561 1.21711E+01-1.46863E+00 1.18963E-01-4.36126E+00 7.54813E-14-3.44891E-13
 -1      3562 1.40992E+01-1.75772E+00 8.81141E-02-4.42857E+00 7.89022E-14-4.62318E-13
 -1      3563 2.01970E+01 1.60550E-01-1.21205E-03-8.12023E-02 1.17888E-13-1.92392E-13
 -1      3564 2.02233E+01 2.33279E-01 2.30355E-03-3.62731E-02 1.17490E-13-2.00466E-13
 -1      3565 2.00768E+01-6.48098E-02 2.29100E-04-1.55194E-01 4.94005E-14-1.24447E-13
 -1      3566 2.00847E+01-5.71519E-02 4.51756E-04-1.60255E-01 5.82382E-14-1.21528E-13
 -1      3567 2.72502E+01-4.65464E+00-6.32833E-02-4.83759E-01 1.00541E-13-5.30950E-13
 -1      3568 2.45026E+01 3.73862E+00-9.44718E-02 1.98741E+00 3.11792E-13 1.16747E-14
 -1      3569 2.01602E+01 5.63944E-02-6.56157E-04-1.35102E-01 6.05415E-14-1.32209E-13
 -1      3570 2.01815E+01 1.03517E-01 1.86538E-03-1.11217E-01 9.33066E-14-1.50444E-13
 -1      3571 2.02081E+01 5.26232E-02-7.38870E-04-1.26730E-01 6.33799E-14-1.76539E-13
 -1      3572 2.58481E+01-3.75214E-01-7.12515E-03 2.74098E+00 2.66703E-13-4.18138E-14
 -1      3573 1.82830E+01-1.23299E+00 4.04831E-02 3.03863E+00 6.09408E-14-2.52253E-13
 -1      3574 1.68365E+01-1.45510E+00 1.24721E-02 3.51452E+00 1.76768E-14-1.96981E-13
 -1      3575 1.57996E+01-6.93704E-01 1.19547E-02 3.02177E+00 7.67806E-14-1.00024E-13
 -1      3576 1.80135E+01-6.19988E-01 1.06793E-02 2.75635E+00-2.91022E-14-1.98608E-13
 -1      3577 2.56503E+01-2.84332E-01-1.99788E-02-9.67170E-01-1.60372E-13 1.86854E-14
 -1      3578 2.57470E+01-1.59583E+00-3.14192E-02 2.35664E+00 9.66449E-14 1.60040E-13
 -1      3579 2.36565E+01-4.54744E+00 9.55970E-02-2.52122E+00-2.53848E-13-1.28542E-13
 -1      3580 2.48383E+01-4.44556E+00-8.59888E-02-1.10084E+00-7.65100E-14 1.50087E-13
 -1      3581 2.54190E+01-1.13558E+00-2.27277E-02-6.02475E-01-2.76730E-13 9.15500E-14
 -1      3582 2.00587E+01-7.08434E-02 3.24309E-04-1.40825E-01 4.21166E-14-8.22766E-14
 -1      3583 2.00639E+01-6.91087E-02 2.01070E-04-1.48633E-01 6.50438E-14-8.38245E-14
 -1      3584 2.01110E+01-7.28900E-02-5.46547E-04-1.43471E-01 5.04712E-14-7.68698E-14
 -1      3585 2.00265E+01-4.72130E-02 4.07685E-04-9.34761E-02 3.27041E-14-1.27258E-13
 -1      3586 2.00269E+01-5.40888E-02-1.73590E-04-1.00270E-01 5.45003E-14-8.92711E-14
 -1      3587 2.00531E+01-6.36342E-02-2.94470E-04-1.00311E-01 3.08186E-14-1.01332E-13
 -1      3588 2.00409E+01-4.87302E-02-2.25300E-04-8.80784E-02 2.16535E-14-2.11932E-13
 -1      3589 2.02975E+01 1.07325E+00-2.88773E-04-4.20272E-01-1.25578E-13-2.76527E-13
 -1      3590 2.02963E+01 8.59611E-01-3.31676E-03-2.90634E-01-1.21114E-13-2.63381E-13
 -1      3591 2.03243E+01 8.61201E-01 9.55069E-04-2.41094E-01-1.04927E-13-2.48971E-13
 -1      3592 2.00995E+01-4.59734E-02 6.03774E-05-1.63125E-01 8.79302E-14-1.31993E-13
 -1      3593 2.01110E+01-2.96104E-02 8.03717E-04-1.62751E-01 9.30557E-14-1.33829E-13
 -1      3594 2.01391E+01-5.39771E-02-6.34908E-04-1.51020E-01 7.03473E-14-1.32262E-13
 -1      3595 2.02705E+01 1.19477E+00 3.53192E-04 4.51056E-01 1.80950E-13-2.75083E-13
 -1      3596 2.47825E+01-3.70330E+00-3.55441E-03-2.43723E-01-1.10537E-13 2.71163E-13
 -1      3597 1.70739E+01-1.82651E-01-4.66636E-03 2.54384E+00-3.17038E-14-1.37194E-13
 -1      3598 2.02580E+01 1.34102E+00 1.64926E-03-5.22020E-01-1.30665E-13-2.81763E-13
 -1      3599 2.02627E+01 1.32816E+00 1.63092E-03-4.31972E-01-1.08404E-13-2.92658E-13
 -1      3600 2.02461E+01 1.61297E-01-7.14650E-04-7.89163E-02 8.91853E-14-2.18154E-13
 -1      3601 2.01717E+01-1.50802E-02-7.07857E-04-1.47761E-01 8.55234E-14-1.49340E-13
 -1      3602 2.53788E+01-1.57583E+00 1.63795E-02-2.08742E-01-4.26787E-13 1.10185E-13
 -1      3603 1.40103E+01-2.14055E-01 3.63870E-02 2.44641E+00 1.13015E-13-2.25327E-13
 -1      3604 1.22034E+01-1.03881E-01 1.01870E-01 2.05492E+00 3.58168E-14-3.67990E-13
 -1      3605 1.20575E+01 2.06767E-01 3.66927E-02 1.10677E+00-4.27887E-14-4.62262E-13
 -1      3606 2.00875E+01-7.81149E-02-4.57310E-04-1.30235E-01 4.42954E-14-1.09047E-13
 -1      3607 2.45899E+01-3.25439E+00-4.06542E-02 3.40380E-01-1.95121E-13 5.90644E-13
 -1      3608 2.23610E+01-4.09711E+00 1.04813E-02-2.80957E+00-3.28355E-13-1.04137E-13
 -1      3609 2.02022E+01 1.69745E+00 6.52784E-03 4.60419E-01 1.81266E-13-3.06957E-13
 -1      3610 1.71300E+01-2.73690E+00 3.73616E-02-4.61030E+00-1.29844E-13-3.59084E-13
 -1      3611 1.83559E+01-3.47781E+00 2.91526E-02-4.78575E+00-1.33824E-13-3.57155E-13
 -1      3612 1.96304E+01-3.32826E+00 4.11347E-02-3.98125E+00-2.83340E-13-1.23962E-13
 -1      3613 2.02273E+01 3.03822E-01-1.31142E-03 6.96329E-03 1.21567E-13-1.91581E-13
 -1      3614 2.02463E+01 3.86869E-01 2.34381E-03 6.81396E-02 1.37620E-13-1.70610E-13
 -1      3615 2.02733E+01 3.09442E-01-7.47948E-04-2.19583E-03 1.31897E-13-2.47796E-13
 -1      3616 1.09913E+01-7.40897E-02 1.38026E-01-1.98927E+00-2.88328E-14-9.33698E-13
 -1      3617 1.22582E+01-3.34019E-01 5.71584E-02-2.65792E+00-6.91495E-14-7.28334E-13
 -1      3618 1.12060E+01 1.49219E-01 1.82576E-02-8.17291E-01 3.40439E-14-7.55687E-13
 -1      3619 2.02212E+01 1.54753E+00-4.20091E-03 2.85021E-01 1.36712E-13-3.16872E-13
 -1      3620 2.02107E+01 1.60635E+00-2.05237E-03 2.01595E-01 1.06287E-13-3.33389E-13
 -1      3621 2.01371E+01 1.92383E+00 4.98208E-03-9.49001E-02 6.92355E-15-3.94548E-13
 -1      3622 2.02087E+01 1.60963E+00-2.27165E-03-1.96718E-01-1.54742E-14-3.58356E-13
 -1      3623 2.02193E+01 1.55275E+00-4.11595E-03-2.79777E-01-3.78837E-14-3.39146E-13
 -1      3624 2.02021E+01 1.63935E+00-3.32657E-03 1.30423E-01 7.61555E-14-3.65557E-13
 -1      3625 2.01980E+01 1.65916E+00-2.66187E-03 3.98139E-02 4.45968E-14-4.12753E-13
 -1      3626 2.02853E+01 1.38579E+00 5.09139E-03 1.33853E-01 9.63768E-14-3.26842E-13
 -1      3627 2.02354E+01 1.49001E+00-6.54109E-04-3.41795E-01-5.98131E-14-2.99054E-13
 -1      3628 2.02488E+01 1.39291E+00-3.66797E-03-4.07925E-01-9.38999E-14-2.92575E-13
 -1      3629 2.03616E+01 6.44907E-01 1.43076E-03-1.17239E-01-8.11744E-14-2.38207E-13
 -1      3630 2.03544E+01 4.96452E-01-2.05192E-03-5.27532E-02-7.66039E-14-2.08575E-13
 -1      3631 2.02992E+01 1.14098E+00 8.55721E-04-3.16509E-01-8.83039E-14-2.76113E-13
 -1      3632 2.03585E+01 3.73611E-01 1.49976E-03-1.13990E-02-6.52927E-14-1.79955E-13
 -1      3633 2.03415E+01 2.69908E-01-1.54018E-03 3.15742E-02-6.39359E-14-1.79118E-13
 -1      3634 2.03805E+01 4.81844E-01 7.96017E-04-3.60396E-02-5.91178E-14-2.34156E-13
 -1      3635 2.03327E+01 1.86367E-01 1.25679E-03 5.70358E-02-7.94863E-14-1.62849E-13
 -1      3636 2.03119E+01 1.16783E-01-9.14667E-04 8.26408E-02-8.43053E-14-1.53181E-13
 -1      3637 2.03679E+01 2.57793E-01 2.07242E-04 3.18947E-02-5.85813E-14-1.51700E-13
 -1      3638 2.02956E+01 6.20771E-02 9.93723E-04 9.61973E-02-9.84082E-14-1.63297E-13
 -1      3639 2.02742E+01 1.76105E-02-4.26458E-04 1.09067E-01-1.10383E-13-1.79134E-13
 -1      3640 2.03369E+01 1.05926E-01-1.62444E-04 7.29325E-02-9.36676E-14-1.54994E-13
 -1      3641 2.02545E+01-1.61912E-02 7.36160E-04 1.14207E-01-1.22372E-13-1.72181E-13
 -1      3642 2.02344E+01-4.25665E-02-8.41134E-05 1.18371E-01-9.73981E-14-1.58270E-13
 -1      3643 2.02971E+01 7.81119E-03-3.94590E-04 9.38893E-02-9.38498E-14-2.02945E-13
 -1      3644 2.02139E+01-6.14908E-02 5.13044E-04 1.17973E-01-8.46019E-14-1.44735E-13
 -1      3645 2.01960E+01-7.50713E-02 1.38618E-04 1.16629E-01-6.41946E-14-1.63748E-13
 -1      3646 2.02546E+01-5.11409E-02-5.07975E-04 1.00904E-01-9.00150E-14-1.64004E-13
 -1      3647 2.01763E+01-8.35826E-02 3.31273E-04 1.12951E-01-5.88952E-14-1.37790E-13
 -1      3648 2.01609E+01-8.82681E-02 2.72086E-04 1.08510E-01-2.20308E-14-1.50341E-13
 -1      3649 2.02133E+01-8.21812E-02-5.40298E-04 9.89542E-02-5.76227E-14-1.71506E-13
 -1      3650 2.01429E+01-8.95977E-02 1.87449E-04 1.03240E-01-2.50025E-14-1.25405E-13
 -1      3651 2.01301E+01-8.81763E-02 3.42896E-04 9.74685E-02-5.20650E-14-1.27604E-13
 -1      3652 2.01753E+01-9.36879E-02-5.19625E-04 9.19058E-02-6.79612E-15-1.31950E-13
 -1      3653 2.01141E+01-8.45851E-02 7.31192E-05 9.18255E-02-5.59847E-14-9.62752E-14
 -1      3654 2.01036E+01-7.89609E-02 3.72647E-04 8.59914E-02-6.24359E-14-8.03120E-14
 -1      3655 2.01417E+01-9.17047E-02-4.66606E-04 8.26308E-02-3.19325E-14-3.05582E-14
 -1      3656 2.00896E+01-7.19410E-02-2.13912E-05 8.08490E-02-7.83832E-14-1.02827E-13
 -1      3657 2.00810E+01-6.33230E-02 3.77676E-04 7.58693E-02-2.97531E-14-9.25980E-14
 -1      3658 2.01124E+01-8.03869E-02-3.93895E-04 7.32079E-02-5.30594E-14-2.45151E-14
 -1      3659 2.00687E+01-5.37739E-02-1.05168E-04 7.18657E-02-4.34213E-15-1.21929E-13
 -1      3660 2.00616E+01-4.28368E-02 3.69307E-04 6.84244E-02-3.05485E-14-1.10565E-13
 -1      3661 2.00871E+01-6.23926E-02-3.06526E-04 6.51485E-02-2.08601E-14-8.79125E-14
 -1      3662 2.00505E+01-3.11971E-02-1.87085E-04 6.60419E-02-4.95006E-14-1.13123E-13
 -1      3663 2.00444E+01-1.81891E-02 3.56101E-04 6.46827E-02-3.28454E-14-9.82045E-14
 -1      3664 2.00649E+01-3.92276E-02-2.06317E-04 5.95788E-02-2.97347E-14-1.70388E-13
 -1      3665 2.00337E+01-4.52508E-03-2.75519E-04 6.43275E-02-3.89240E-14-1.32436E-13
 -1      3666 2.00281E+01 1.06377E-02 3.42101E-04 6.55356E-02-2.00421E-14-1.13584E-13
 -1      3667 2.00445E+01-1.14872E-02-9.71088E-05 5.73804E-02-1.50311E-14-2.05353E-13
 -1      3668 2.00171E+01 2.65371E-02-3.77034E-04 6.75920E-02 2.61077E-15-1.11296E-13
 -1      3669 2.00112E+01 4.41881E-02 3.28961E-04 7.18433E-02-4.90227E-14-1.14005E-13
 -1      3670 2.00245E+01 2.09621E-02 2.58235E-05 5.93353E-02 7.47158E-15-1.68965E-13
 -1      3671 1.99988E+01 6.27471E-02-4.98612E-04 7.67028E-02-7.88071E-14-6.28100E-14
 -1      3672 1.99919E+01 8.34072E-02 3.15727E-04 8.44977E-02-1.79954E-14-6.27256E-14
 -1      3673 2.00030E+01 5.87818E-02 1.68769E-04 6.61913E-02-2.43697E-14-1.13315E-13
 -1      3674 1.99770E+01 1.05205E-01-6.46912E-04 9.25777E-02-1.56218E-14-8.18234E-14
 -1      3675 1.99681E+01 1.29524E-01 2.98898E-04 1.04459E-01-6.59282E-14-9.97668E-14
 -1      3676 1.99780E+01 1.03026E-01 3.39001E-04 7.87054E-02-5.34557E-14-6.83786E-14
 -1      3677 1.99492E+01 1.55236E-01-8.27940E-04 1.16205E-01-7.65908E-14-9.62882E-14
 -1      3678 1.99371E+01 1.83924E-01 2.72038E-04 1.32754E-01-3.83170E-15-1.84786E-13
 -1      3679 1.99468E+01 1.55012E-01 5.46578E-04 9.76626E-02-6.54935E-14-1.35892E-13
 -1      3680 1.99124E+01 2.14250E-01-1.04747E-03 1.48625E-01-3.82998E-14-2.34423E-13
 -1      3681 1.98957E+01 2.47999E-01 2.25612E-04 1.70437E-01-9.78701E-14-2.56452E-13
 -1      3682 1.99063E+01 2.16167E-01 8.04118E-04 1.23852E-01-6.41426E-14-1.45200E-13
 -1      3683 1.98632E+01 2.83574E-01-1.31124E-03 1.90867E-01-9.25487E-14-2.68960E-13
 -1      3684 1.98399E+01 3.22948E-01 1.47049E-04 2.18510E-01-1.22151E-13-2.27662E-13
 -1      3685 1.98528E+01 2.87852E-01 1.12711E-03 1.58005E-01-9.73627E-14-1.77579E-13
 -1      3686 1.97970E+01 3.64213E-01-1.62573E-03 2.43853E-01-1.36486E-13-1.19492E-13
 -1      3687 1.97649E+01 4.09497E-01 2.15878E-05 2.77803E-01-9.70390E-14-8.28577E-14
 -1      3688 1.97817E+01 3.71126E-01 1.53450E-03 2.00692E-01-4.58747E-14-1.15955E-13
 -1      3689 1.97084E+01 4.56519E-01-2.00003E-03 3.08276E-01-8.28306E-14-5.82462E-14
 -1      3690 1.96644E+01 5.07501E-01-1.65235E-04 3.48854E-01-1.85890E-14-2.16992E-14
 -1      3691 1.96873E+01 4.66430E-01 2.04963E-03 2.52193E-01-5.05463E-14 1.25210E-14
 -1      3692 1.95905E+01 5.59707E-01-2.45008E-03 3.84488E-01-8.27177E-14-5.80535E-14
 -1      3693 1.95310E+01 6.15372E-01-4.22000E-04 4.31820E-01-1.35783E-13-7.24202E-14
 -1      3694 1.95628E+01 5.73163E-01 2.70177E-03 3.12369E-01-1.21084E-13-3.84552E-14
 -1      3695 1.94350E+01 6.71163E-01-3.00744E-03 4.72476E-01-1.63186E-13-4.75819E-14
 -1      3696 1.93558E+01 7.29262E-01-7.40545E-04 5.26554E-01-1.92563E-13-4.68258E-14
 -1      3697 1.93997E+01 6.89103E-01 3.52927E-03 3.80606E-01-1.26565E-13 8.92185E-14
 -1      3698 1.92317E+01 7.85476E-01-3.73556E-03 5.72098E-01-1.58134E-13 4.53143E-14
 -1      3699 1.91278E+01 8.41937E-01-1.07664E-03 6.33061E-01-4.16128E-14 4.41533E-14
 -1      3700 1.91877E+01 8.09661E-01 4.58566E-03 4.55961E-01-1.11921E-13 5.58347E-14
 -1      3701 1.89681E+01 8.93089E-01-4.75776E-03 6.83856E-01 5.41080E-14-7.04200E-15
 -1      3702 1.88344E+01 9.41220E-01-1.31914E-03 7.52703E-01 2.22103E-13 7.45148E-14
 -1      3703 1.89139E+01 9.26944E-01 5.95232E-03 5.37775E-01 7.99444E-14 1.29216E-13
 -1      3704 1.86291E+01 9.78466E-01-6.30054E-03 8.10675E-01 2.66858E-13-4.42695E-14
 -1      3705 1.84608E+01 1.00791E+00-1.24561E-03 8.90738E-01 2.67982E-13-7.75801E-14
 -1      3706 1.85618E+01 1.02860E+00 7.76223E-03 6.27151E-01 1.97013E-13-3.82851E-14
 -1      3707 1.81960E+01 1.01764E+00-8.75569E-03 9.61339E-01 1.76592E-13-1.41992E-13
 -1      3708 1.79904E+01 1.01307E+00-3.98513E-04 1.06093E+00 1.97211E-13-1.81955E-13
 -1      3709 1.81099E+01 1.09642E+00 1.02494E-02 7.29866E-01 1.95291E-13-2.35966E-13
 -1      3710 1.76457E+01 9.75359E-01-1.26168E-02 1.15695E+00 1.55935E-13-2.28750E-13
 -1      3711 1.74066E+01 9.14809E-01 3.07741E-03 1.29339E+00 1.21436E-13-2.61061E-13
 -1      3712 1.75281E+01 1.10516E+00 1.39786E-02 8.61661E-01 1.19311E-13-3.12317E-13
 -1      3713 1.69521E+01 8.01643E-01-1.63597E-02 1.44640E+00 1.76484E-13-3.35846E-13
 -1      3714 1.67001E+01 6.46292E-01 1.33897E-02 1.64776E+00 1.18630E-13-2.85704E-13
 -1      3715 1.67649E+01 1.01984E+00 1.83692E-02 1.05704E+00 7.19906E-14-3.08900E-13
 -1      3716 2.02828E+01 1.48897E-01-1.13729E-03-8.07752E-02 6.15222E-14-2.28242E-13
 -1      3717 2.03052E+01 2.23656E-01 1.71640E-03-4.71186E-02 9.45358E-14-2.43422E-13
 -1      3718 2.01138E+01-8.35454E-02 3.34908E-04-1.15324E-01 2.77122E-14-2.14442E-14
 -1      3719 2.01247E+01-8.31929E-02 2.10545E-04-1.21839E-01 2.44459E-14-4.72605E-14
 -1      3720 2.03294E+01 9.69291E-01 2.01555E-04-2.50756E-01-8.04714E-14-2.64628E-13
 -1      3721 2.03401E+01 7.71247E-01-2.01513E-03-1.62701E-01-7.74850E-14-2.50615E-13
 -1      3722 2.03649E+01 7.48710E-01 2.64916E-04-1.23822E-01-7.60572E-14-2.41944E-13
 -1      3723 2.03218E+01 1.04208E+00-8.18251E-04-2.35406E-01-7.28386E-14-2.54556E-13
 -1      3724 2.00284E+01-2.56449E-03 3.93653E-04-7.08668E-02-2.80692E-14-4.09008E-14
 -1      3725 2.00318E+01-1.54351E-02-2.71015E-04-7.09928E-02 7.55846E-15-8.24192E-14
 -1      3726 2.00407E+01-2.69998E-02 3.93391E-04-7.24970E-02-2.62847E-14-1.56512E-13
 -1      3727 2.00448E+01-3.81044E-02-1.93304E-04-7.52390E-02-6.04930E-14-1.53999E-13
 -1      3728 2.00445E+01-2.25516E-02-1.43790E-04-6.62667E-02-6.57734E-14-5.93409E-14
 -1      3729 2.00038E+01 5.77620E-02 4.20250E-04-8.57804E-02-8.16825E-14-1.19290E-14
 -1      3730 2.00071E+01 4.08017E-02-4.56650E-04-7.91350E-02-1.25309E-13-1.96801E-14
 -1      3731 1.99891E+01 9.47636E-02 4.51763E-04-1.04435E-01-7.00442E-14 1.50883E-14
 -1      3732 1.99930E+01 7.52939E-02-5.76372E-04-9.35538E-02-4.55083E-14-7.42445E-15
 -1      3733 1.99937E+01 7.42526E-02 1.71267E-04-8.34544E-02-5.13803E-14-3.90998E-14
 -1      3734 1.99709E+01 1.37092E-01 4.97939E-04-1.32185E-01 8.91292E-14-3.02641E-14
 -1      3735 1.99760E+01 1.14843E-01-7.19280E-04-1.16415E-01 2.09851E-14 7.41981E-16
 -1      3736 1.99722E+01 1.16578E-01 2.99135E-04-1.02811E-01 1.60082E-14-1.53958E-13
 -1      3737 1.99477E+01 1.85001E-01 5.60884E-04-1.70445E-01 9.81962E-14 2.29727E-14
 -1      3738 1.99544E+01 1.59890E-01-8.86593E-04-1.49073E-01 1.24145E-13 4.31514E-14
 -1      3739 1.99454E+01 1.64923E-01 4.41307E-04-1.30966E-01 8.32403E-14-9.39925E-15
 -1      3740 1.99182E+01 2.38118E-01 6.44180E-04-2.20774E-01 1.27563E-13 6.67522E-14
 -1      3741 1.99269E+01 2.10423E-01-1.07641E-03-1.93050E-01 9.22187E-14-2.86415E-15
 -1      3742 1.99113E+01 2.19455E-01 5.95731E-04-1.69384E-01 8.66224E-14-1.41183E-14
 -1      3743 1.98809E+01 2.95001E-01 7.54742E-04-2.84816E-01 7.79325E-14 1.01029E-13
 -1      3744 1.98920E+01 2.65597E-01-1.28248E-03-2.50001E-01 1.42209E-13 1.46888E-13
 -1      3745 1.98681E+01 2.79578E-01 7.55201E-04-2.19732E-01 7.42926E-14 4.97303E-15
 -1      3746 1.98352E+01 3.52568E-01 9.05719E-04-3.64234E-01-1.40555E-15 8.17699E-14
 -1      3747 1.98487E+01 3.23234E-01-1.49245E-03-3.21659E-01 8.56379E-14 1.05050E-13
 -1      3748 1.98139E+01 3.43447E-01 9.04179E-04-2.83883E-01 7.99695E-14 6.53791E-14
 -1      3749 1.97815E+01 4.05343E-01 1.12083E-03-4.60609E-01-1.48721E-13 1.79850E-13
 -1      3750 1.97966E+01 3.79161E-01-1.68544E-03-4.09766E-01-6.60547E-14 1.48520E-13
 -1      3751 1.97475E+01 4.07332E-01 1.01422E-03-3.63923E-01-7.21964E-14 1.34357E-13
 -1      3752 1.97219E+01 4.44511E-01 1.44023E-03-5.75354E-01-1.48635E-13 2.07976E-13
 -1      3753 1.97368E+01 4.26364E-01-1.82821E-03-5.15985E-01-1.17623E-13 2.03773E-13
 -1      3754 1.96688E+01 4.64808E-01 1.03731E-03-4.62185E-01-1.17189E-13 1.01817E-13
 -1      3755 1.96619E+01 4.56796E-01 1.92703E-03-7.09600E-01-1.47666E-13 4.95800E-15
 -1      3756 1.96730E+01 4.53952E-01-1.86836E-03-6.41822E-01-1.74141E-13 1.89173E-13
 -1      3757 1.95796E+01 5.05743E-01 8.95808E-04-5.81342E-01-9.73139E-14 2.87574E-15
 -1      3758 1.96121E+01 4.23198E-01 2.67038E-03-8.64049E-01-1.29126E-13 1.33299E-13
 -1      3759 1.96126E+01 4.45953E-01-1.72074E-03-7.88531E-01-1.34332E-13 5.74372E-14
 -1      3760 1.94851E+01 5.15104E-01 4.66551E-04-7.24563E-01-1.33166E-13 2.01429E-14
 -1      3761 1.95909E+01 3.17770E-01 3.77151E-03-1.03857E+00-1.22403E-13 8.97124E-14
 -1      3762 1.95700E+01 3.80066E-01-1.23913E-03-9.56904E-01-4.66786E-14 1.35796E-13
 -1      3763 1.93958E+01 4.71582E-01-4.46626E-04-8.95703E-01-8.33239E-14-1.79070E-14
 -1      3764 1.96289E+01 1.06826E-01 5.28372E-03-1.23094E+00-1.32398E-13-4.31184E-14
 -1      3765 1.95691E+01 2.26607E-01-1.59708E-04-1.14656E+00-1.61180E-13 4.58623E-14
 -1      3766 1.93305E+01 3.46110E-01-2.16358E-03-1.09928E+00-4.36977E-14-1.40320E-14
 -1      3767 1.97736E+01-2.50216E-01 7.08286E-03-1.43349E+00-3.97264E-13 9.97952E-14
 -1      3768 1.96495E+01-5.16096E-02 2.01026E-03-1.35376E+00-2.98000E-13 1.04025E-14
 -1      3769 1.93214E+01 1.00496E-01-5.20417E-03-1.33943E+00-2.84027E-13 1.51474E-13
 -1      3770 2.00956E+01-7.96053E-01 8.59160E-03-1.62515E+00-2.53852E-13 4.15605E-13
 -1      3771 1.98727E+01-4.96687E-01 6.12781E-03-1.56598E+00-3.30784E-13 3.30579E-13
 -1      3772 1.94210E+01-3.12521E-01-1.03939E-02-1.61590E+00-4.79013E-13 4.13467E-13
 -1      3773 2.06931E+01-1.56001E+00 8.69591E-03-1.75418E+00-2.31418E-13 4.14686E-13
 -1      3774 2.03311E+01-1.14721E+00 1.39985E-02-1.74924E+00-1.87003E-13 4.34248E-13
 -1      3775 1.97129E+01-9.46629E-01-1.88757E-02-1.91563E+00-2.40718E-13 5.97266E-13
 -1      3776 2.17024E+01-2.49351E+00 1.41627E-02-1.69429E+00-3.93740E-13 2.98917E-13
 -1      3777 2.11533E+01-2.01872E+00 2.58165E-02-1.81744E+00-2.93215E-13 3.27070E-13
 -1      3778 2.03317E+01-1.84170E+00-2.88349E-02-2.18586E+00-2.42911E-13 4.44427E-13
 -1      3779 2.13115E+01-3.48007E+00 5.28330E-02-3.10780E+00-3.37681E-13-2.04111E-13
 -1      3780 2.26256E+01-3.79974E+00-6.54807E-02-2.05551E+00-3.22191E-13-1.54536E-13
 -1      3781 1.62160E+01 3.65280E-01-8.46903E-03 2.00279E+00 5.52949E-15-2.15225E-13
 -1      3782 1.61949E+01-8.45606E-02 2.99288E-02 2.44611E+00 8.76339E-15-1.54711E-13
 -1      3783 1.49053E+01-9.28925E-02 1.65481E-02 2.46531E+00 5.03356E-14-2.75596E-13
 -1      3784 1.58341E+01 6.85911E-01 9.47365E-03 1.52418E+00 1.51295E-13-4.22073E-13
 -1      3785 2.00165E+01 2.55261E-02 4.01602E-04-7.49613E-02-1.33362E-13 3.63106E-15
 -1      3786 2.00196E+01 1.07505E-02-3.56315E-04-7.19670E-02-5.50224E-14 4.33282E-15
 -1      3787 2.00119E+01 3.73877E-02 5.68455E-05-7.16267E-02-1.13713E-13 1.09093E-14
 -1      3788 2.00903E+01-7.76068E-02 3.79069E-04-1.01742E-01 4.26672E-14-6.87935E-14
 -1      3789 2.00990E+01-8.16142E-02 7.26436E-05-1.08698E-01 6.04879E-14-2.42303E-14
 -1      3790 2.01313E+01-8.87189E-02-4.70390E-04-1.01336E-01 4.58572E-14-3.96493E-14
 -1      3791 2.01415E+01-8.00154E-02 2.44857E-04-1.27591E-01 1.77091E-14-8.31079E-14
 -1      3792 2.01550E+01-7.32683E-02 3.94460E-04-1.32117E-01 3.56450E-14-1.03869E-13
 -1      3793 2.01627E+01-8.67260E-02-5.26759E-04-1.12091E-01-2.01545E-14-3.94887E-16
 -1      3794 2.02370E+01 1.48193E+00-1.16175E-03 3.44804E-01 1.52098E-13-3.01134E-13
 -1      3795 2.02974E+01 1.28376E+00 4.98197E-03 2.50870E-01 1.27710E-13-2.88469E-13
 -1      3796 2.02523E+01 1.37974E+00-5.56004E-03 4.15433E-01 1.77054E-13-2.96363E-13
 -1      3797 2.40449E+01-3.61567E+00 7.72377E-02-9.11164E-01-2.22619E-13 2.54195E-13
 -1      3798 1.42072E+01-1.22275E+00 2.28494E-02-3.85847E+00 3.87815E-14-3.89397E-13
 -1      3799 1.56884E+01-2.03907E+00 4.12390E-02-4.49321E+00-3.43059E-14-3.64077E-13
 -1      3800 1.72252E+01-2.13545E+00 4.78423E-02-4.08321E+00-1.87213E-13-2.30345E-13
 -1      3801 2.03057E+01 1.03053E+00 3.55872E-03 3.32871E-01 1.55364E-13-2.72085E-13
 -1      3802 2.02464E+01 4.15150E-02-5.80891E-04-1.18788E-01 5.72547E-14-1.69186E-13
 -1      3803 2.02679E+01 8.99864E-02 1.30629E-03-1.00961E-01 4.38496E-14-2.02504E-13
 -1      3804 2.03159E+01 1.41640E-01-2.52244E-04-7.46920E-02 4.46507E-14-2.28238E-13
 -1      3805 2.01734E+01-6.26041E-02 8.36804E-05-1.35412E-01 3.90319E-14-1.56345E-13
 -1      3806 2.01898E+01-4.65306E-02 6.36213E-04-1.35781E-01 5.77013E-14-1.67790E-13
 -1      3807 2.01983E+01-7.04108E-02-5.57373E-04-1.19222E-01 1.80583E-14-1.07092E-13
 -1      3808 2.28819E+01-3.32899E+00 3.89531E-03-1.41159E+00-3.58335E-13 1.67670E-13
 -1      3809 2.02090E+01-2.50096E-02-1.79265E-04-1.34437E-01 6.53479E-14-1.32310E-13
 -1      3810 2.02281E+01 4.47550E-03 9.42741E-04-1.27678E-01 7.78369E-14-1.92796E-13
 -1      3811 2.02778E+01 3.33666E-02-4.50796E-04-1.06293E-01 6.73843E-14-1.88720E-13
 -1      3812 2.02445E+01 4.71057E-01-1.68484E-03 1.26245E-01 1.39241E-13-1.55932E-13
 -1      3813 2.02637E+01 5.83176E-01 1.56245E-03 2.15358E-01 1.65162E-13-1.73925E-13
 -1      3814 2.02888E+01 7.10189E-01 1.19574E-03 2.54744E-01 1.47152E-13-2.26217E-13
 -1      3815 2.02851E+01 4.78901E-01-2.15682E-03 1.05203E-01 1.41741E-13-2.44116E-13
 -1      3816 2.01977E+01 1.65970E+00-2.69940E-03-3.45603E-02 1.35346E-14-3.93517E-13
 -1      3817 2.02015E+01 1.64153E+00-3.22390E-03-1.25120E-01-1.35696E-14-3.60440E-13
 -1      3818 2.02851E+01 1.38831E+00 5.27480E-03-1.30230E-01-1.58632E-14-3.47828E-13
 -1      3819 2.02799E+01 1.42027E+00 5.01778E-03 2.01472E-03 3.10306E-14-3.71282E-13
 -1      3820 2.02959E+01 1.28892E+00 4.63435E-03-2.49294E-01-3.98585E-14-2.91062E-13
 -1      3821 2.03201E+01 1.10635E+00-8.94301E-04-1.90462E-01-5.14425E-14-2.82250E-13
 -1      3822 2.03207E+01 1.14604E+00-3.19948E-03 1.34887E-01 1.14481E-13-2.95108E-13
 -1      3823 2.03191E+01 1.18062E+00-2.12030E-03 7.83508E-02 8.38160E-14-3.14589E-13
 -1      3824 2.00283E+01 5.31097E-03-4.64306E-05-6.62263E-02-1.00282E-13 3.44905E-14
 -1      3825 2.02374E+01-3.33404E-02-5.41773E-04-1.18970E-01 7.00652E-14-1.60505E-13
 -1      3826 2.03219E+01 1.03531E+00-4.18607E-03 2.19078E-01 1.24212E-13-2.79045E-13
 -1      3827 2.03243E+01 1.10555E+00-8.58701E-04 1.73832E-01 1.16149E-13-2.95501E-13
 -1      3828 2.03680E+01 9.40239E-01 4.25101E-03 1.13463E-01 1.10944E-13-2.78770E-13
 -1      3829 1.44293E+01 3.25387E-01 9.64503E-03 1.81050E+00 8.81873E-14-3.51837E-13
 -1      3830 1.33615E+01 4.50224E-01 5.55856E-03 1.09565E+00 1.45465E-14-3.36854E-13
 -1      3831 1.21857E+01 4.79813E-01 9.00550E-02 2.95766E-01-4.76286E-14-5.72535E-13
 -1      3832 1.26131E+01 4.63632E-01 2.18790E-02-5.78022E-01-9.84508E-14-7.04967E-13
 -1      3833 2.00618E+01-4.65017E-02-2.42779E-04-7.08588E-02-3.68808E-14-8.42723E-14
 -1      3834 2.00546E+01-4.79594E-02 3.99129E-04-7.89000E-02 6.45872E-15-1.94400E-13
 -1      3835 2.00597E+01-5.72263E-02-1.16717E-04-8.37344E-02 4.20132E-14-1.68742E-13
 -1      3836 2.21815E+01-2.87217E+00 4.07269E-02-1.72316E+00-3.87588E-13 1.69848E-13
 -1      3837 2.11701E+01-2.81832E+00-4.45475E-02-2.35231E+00-3.34055E-13 5.41667E-15
 -1      3838 2.02575E+01-3.26298E+00-1.36747E-02-3.51360E+00-2.34873E-13-8.84084E-14
 -1      3839 2.09593E+01-2.91910E+00 2.81512E-02-2.76714E+00-2.51496E-13-9.83668E-14
 -1      3840 2.05113E+01-2.44147E+00 3.19577E-02-2.68688E+00-2.24280E-13 8.05107E-14
 -1      3841 1.93435E+01-2.70736E+00 2.72620E-02-3.61782E+00-2.17237E-13-1.33386E-13
 -1      3842 2.03452E+01 3.07049E-01-4.63922E-05-1.59420E-02 1.12188E-13-2.37997E-13
 -1      3843 2.03135E+01 3.13157E-01-1.71514E-03-1.01365E-02 1.30283E-13-2.54148E-13
 -1      3844 2.00775E+01-7.21830E-02-3.12045E-05-9.53639E-02 7.63429E-14-9.44523E-14
 -1      3845 2.01044E+01-8.09067E-02-4.00513E-04-8.96647E-02 1.07589E-13-9.11386E-14
 -1      3846 2.00708E+01-6.51456E-02 3.98664E-04-8.90622E-02 7.82605E-14-1.58574E-13
 -1      3847 2.03156E+01 7.88825E-01-2.23615E-03 2.57482E-01 1.39550E-13-2.63158E-13
 -1      3848 2.03245E+01 9.75007E-01 1.02435E-03 2.42699E-01 1.20690E-13-2.65963E-13
 -1      3849 2.03533E+01 8.23639E-01 1.58945E-03 1.59139E-01 1.06479E-13-2.60010E-13
 -1      3850 2.03188E+01 6.69510E-01 1.26629E-03 1.71856E-01 1.25031E-13-2.59856E-13
 -1      3851 1.35887E+01-5.22120E-01 7.17017E-02-3.21625E+00-6.51632E-14-5.65548E-13
 -1      3852 1.50598E+01-7.89889E-01 4.06159E-02-3.31989E+00-1.16502E-13-4.24862E-13
 -1      3853 1.30927E+01-4.73283E-02-4.45543E-03-2.27151E+00-1.61302E-13-6.93806E-13
 -1      3854 2.03185E+01 1.18237E+00-2.14423E-03-7.51265E-02 8.15180E-15-3.19224E-13
 -1      3855 2.03211E+01 1.15116E+00-2.61606E-03-1.32011E-01-2.25593E-14-3.25294E-13
 -1      3856 2.03273E+01 4.04937E-01 2.84306E-03 3.50176E-02 1.51007E-13-2.39825E-13
 -1      3857 2.03629E+01 9.38961E-01 2.95629E-03-1.30988E-01-5.42110E-14-2.72956E-13
 -1      3858 2.00281E+01 1.42125E-02 3.00860E-04-5.83219E-02-1.39884E-13 2.44168E-14
 -1      3859 2.00357E+01-1.85105E-03-2.51913E-04-5.69492E-02-1.04248E-13 1.30627E-14
 -1      3860 2.01462E+01-9.17495E-02 3.43314E-04-8.44608E-02 1.11304E-13-7.65569E-14
 -1      3861 2.01610E+01-9.34456E-02 2.03445E-04-8.93923E-02 3.07564E-14-1.95952E-14
 -1      3862 2.03976E+01 5.71867E-01-2.35995E-04-5.49334E-02-3.46639E-14-2.35785E-13
 -1      3863 2.03963E+01 4.36984E-01-1.23431E-03-1.11064E-02-3.64293E-14-2.11822E-13
 -1      3864 2.03970E+01 3.21110E-01 5.00723E-04 9.65843E-03-3.32970E-14-1.81871E-13
 -1      3865 2.03840E+01 2.25063E-01-9.54974E-04 3.71178E-02-3.94823E-14-1.73312E-13
 -1      3866 2.04131E+01 4.07426E-01 4.40881E-04-3.51112E-03-9.17741E-15-1.96359E-13
 -1      3867 2.03728E+01 1.46461E-01 6.31912E-04 4.96132E-02-8.78289E-14-1.62564E-13
 -1      3868 2.03531E+01 8.22512E-02-5.84548E-04 6.54296E-02-9.80257E-14-1.51871E-13
 -1      3869 2.03981E+01 2.03688E-01 1.40334E-04 3.09946E-02-5.16770E-14-2.03500E-13
 -1      3870 2.03347E+01 3.16167E-02 5.93346E-04 7.15320E-02-9.77373E-14-1.42312E-13
 -1      3871 2.03127E+01-8.78142E-03-2.15542E-04 7.91130E-02-1.02279E-13-1.74384E-13
 -1      3872 2.03645E+01 6.67224E-02-1.67619E-04 5.11523E-02-1.03686E-13-1.81457E-13
 -1      3873 2.02909E+01-3.92958E-02 4.88055E-04 8.05890E-02-9.40412E-14-1.69369E-13
 -1      3874 2.02690E+01-6.23689E-02 4.14817E-05 8.25945E-02-8.40770E-14-1.47573E-13
 -1      3875 2.03218E+01-2.03063E-02-4.00580E-04 6.06820E-02-8.89505E-14-1.57181E-13
 -1      3876 2.02466E+01-7.84863E-02 3.80713E-04 8.11382E-02-4.69638E-14-1.21559E-13
 -1      3877 2.02261E+01-8.92749E-02 2.02512E-04 7.96825E-02-7.58763E-15-9.45681E-14
 -1      3878 2.02762E+01-7.06385E-02-5.21318E-04 6.28051E-02-6.31056E-14-1.13037E-13
 -1      3879 2.02046E+01-9.52942E-02 2.80145E-04 7.66056E-02-1.50588E-14-7.44459E-14
 -1      3880 2.01864E+01-9.75262E-02 2.92052E-04 7.32976E-02-1.31300E-14-6.93922E-14
 -1      3881 2.02316E+01-9.47828E-02-5.56955E-04 6.03354E-02 1.26733E-15-3.39464E-14
 -1      3882 2.01666E+01-9.65571E-02 1.87496E-04 6.95738E-02-2.09730E-14-1.10797E-13
 -1      3883 2.01507E+01-9.28861E-02 3.28550E-04 6.56017E-02-3.97856E-14-7.83526E-14
 -1      3884 2.01904E+01-1.00583E-01-5.31735E-04 5.54245E-02-2.18410E-14-9.01565E-14
 -1      3885 2.01330E+01-8.70735E-02 1.01180E-04 6.19280E-02-8.84336E-14-6.48503E-14
 -1      3886 2.01194E+01-7.92629E-02 3.30550E-04 5.81571E-02-8.72670E-14-1.03335E-13
 -1      3887 2.01534E+01-9.36567E-02-4.70759E-04 4.96983E-02-5.75679E-14-1.49265E-13
 -1      3888 2.01037E+01-6.99910E-02 1.96701E-05 5.50498E-02-5.92148E-14-1.12020E-13
 -1      3889 2.00920E+01-5.91203E-02 3.14855E-04 5.21127E-02-3.11533E-14-1.17149E-13
 -1      3890 2.01207E+01-7.77747E-02-3.83546E-04 4.42990E-02-6.33055E-14-1.38790E-13
 -1      3891 2.00778E+01-4.71881E-02-6.08405E-05 4.99429E-02-1.18645E-14-1.49704E-13
 -1      3892 2.00674E+01-3.38149E-02 2.87213E-04 4.83119E-02-3.87338E-14-1.11537E-13
 -1      3893 2.00917E+01-5.53098E-02-2.77075E-04 4.00825E-02-4.22188E-14-1.40504E-13
 -1      3894 2.00540E+01-1.95091E-02-1.48350E-04 4.73516E-02-8.24892E-14-1.19840E-13
 -1      3895 2.00442E+01-3.73626E-03 2.49958E-04 4.74347E-02-3.57001E-14-1.65101E-13
 -1      3896 2.00653E+01-2.74543E-02-1.59007E-04 3.77090E-02-4.47106E-14-1.10651E-13
 -1      3897 2.00308E+01 1.29948E-02-2.46588E-04 4.79572E-02-1.09061E-14-1.74345E-13
 -1      3898 2.00209E+01 3.13663E-02 2.05247E-04 5.01155E-02 3.77916E-15-1.68281E-13
 -1      3899 2.00398E+01 5.55823E-03-2.39005E-05 3.76626E-02-4.62442E-14-2.11974E-13
 -1      3900 2.00064E+01 5.08463E-02-3.59816E-04 5.23545E-02 2.17728E-14-1.35689E-13
 -1      3901 1.99952E+01 7.22546E-02 1.52748E-04 5.69339E-02-3.28564E-14-1.17258E-13
 -1      3902 2.00135E+01 4.40766E-02 1.34540E-04 4.04439E-02-6.38272E-15-2.26291E-13
 -1      3903 1.99784E+01 9.50109E-02-4.93709E-04 6.11180E-02-7.96607E-14-1.25048E-13
 -1      3904 1.99649E+01 1.20060E-01 8.86719E-05 6.84653E-02-9.03981E-14-1.61986E-13
 -1      3905 1.99839E+01 8.89563E-02 3.19805E-04 4.64520E-02-7.19880E-14-1.61750E-13
 -1      3906 1.99442E+01 1.46745E-01-6.52178E-04 7.48194E-02-1.22477E-13-1.88924E-13
 -1      3907 1.99268E+01 1.76124E-01 6.22227E-06 8.52763E-02-6.32143E-14-2.11671E-13
 -1      3908 1.99484E+01 1.41396E-01 5.40338E-04 5.60654E-02-1.35468E-13-1.37987E-13
 -1      3909 1.99005E+01 2.07434E-01-8.38954E-04 9.39982E-02-4.79027E-14-1.80347E-13
 -1      3910 1.98776E+01 2.41826E-01-1.04588E-04 1.07876E-01-9.92887E-14-1.92062E-13
 -1      3911 1.99038E+01 2.02749E-01 8.06933E-04 6.95981E-02-5.46787E-14-1.62090E-13
 -1      3912 1.98435E+01 2.78408E-01-1.05722E-03 1.19098E-01-8.47471E-14-7.20008E-14
 -1      3913 1.98129E+01 3.18381E-01-2.57296E-04 1.36629E-01-2.22101E-14-6.94498E-14
 -1      3914 1.98461E+01 2.74330E-01 1.13264E-03 8.72325E-02-2.63857E-14-1.48245E-13
 -1      3915 1.97685E+01 3.60707E-01-1.31001E-03 1.50360E-01-3.82372E-14-2.50708E-14
 -1      3916 1.97277E+01 4.06573E-01-4.69224E-04 1.71637E-01-4.59684E-15 2.34330E-14
 -1      3917 1.97708E+01 3.57177E-01 1.53326E-03 1.08913E-01 2.54853E-15 2.76625E-14
 -1      3918 1.96700E+01 4.54779E-01-1.60161E-03 1.87686E-01-1.59413E-14 5.08535E-14
 -1      3919 1.96157E+01 5.06404E-01-7.61319E-04 2.12580E-01-6.19627E-14 4.83010E-14
 -1      3920 1.96724E+01 4.51757E-01 2.02851E-03 1.34198E-01-8.71583E-16 4.03352E-14
 -1      3921 1.95412E+01 5.60080E-01-1.94116E-03 2.30471E-01-1.10981E-13 1.32182E-13
 -1      3922 1.94694E+01 6.16648E-01-1.15733E-03 2.58564E-01-1.42931E-13 6.75232E-14
 -1      3923 1.95444E+01 5.57586E-01 2.64431E-03 1.62085E-01-1.95036E-14 9.72743E-14
 -1      3924 1.93738E+01 6.74563E-01-2.35013E-03 2.77468E-01-1.19279E-13 1.78859E-13
 -1      3925 1.92797E+01 7.34283E-01-1.68207E-03 3.08040E-01-3.92207E-14 1.66967E-13
 -1      3926 1.93790E+01 6.72778E-01 3.41755E-03 1.90819E-01-2.51790E-14 2.78248E-13
 -1      3927 1.91574E+01 7.94046E-01-2.87698E-03 3.26760E-01-1.14221E-13 2.63707E-13
 -1      3928 1.90351E+01 8.53813E-01-2.35874E-03 3.58909E-01-1.02123E-13 2.92540E-13
 -1      3929 1.91666E+01 7.93532E-01 4.40558E-03 2.17766E-01-1.41869E-14 4.24155E-13
 -1      3930 1.88792E+01 9.11485E-01-3.62362E-03 3.76007E-01-6.96259E-14 2.05256E-13
 -1      3931 1.87212E+01 9.66512E-01-3.20423E-03 4.09054E-01 6.19195E-14 2.27479E-13
 -1      3932 1.88951E+01 9.13611E-01 5.70537E-03 2.39436E-01-8.95682E-14 4.01789E-13
 -1      3933 1.85218E+01 1.01617E+00-4.78838E-03 4.23259E-01 1.05001E-13 7.76333E-14
 -1      3934 1.83186E+01 1.05964E+00-4.21723E-03 4.57659E-01 1.71658E-13-8.40755E-15
 -1      3935 1.85485E+01 1.02393E+00 7.49161E-03 2.51848E-01-1.88767E-14 1.97495E-13
 -1      3936 1.80611E+01 1.09292E+00-6.72713E-03 4.68800E-01 1.29083E-13-1.86727E-13
 -1      3937 1.77999E+01 1.11547E+00-5.46165E-03 5.07879E-01 4.78283E-14-1.84540E-13
 -1      3938 1.81043E+01 1.11236E+00 1.00798E-02 2.51554E-01 2.60561E-14 6.21530E-14
 -1      3939 1.74618E+01 1.12100E+00-1.00285E-02 5.17912E-01 6.68446E-14-3.25598E-13
 -1      3940 1.71252E+01 1.11203E+00-6.18203E-03 5.70193E-01 9.88784E-14-3.44110E-13
 -1      3941 1.75294E+01 1.16314E+00 1.40191E-02 2.37665E-01-2.78868E-15-2.27945E-13
 -1      3942 1.66684E+01 1.07139E+00-1.60006E-02 5.88329E-01 1.40591E-13-2.80980E-13
 -1      3943 1.62465E+01 1.02530E+00-8.34308E-04 6.65716E-01 1.30624E-13-2.17749E-13
 -1      3944 1.67687E+01 1.16147E+00 2.09063E-02 2.12626E-01 1.57308E-13-2.61249E-13
 -1      3945 2.03781E+01 7.91079E-01-3.61462E-04-8.42939E-02-4.22181E-14-2.73818E-13
 -1      3946 2.00477E+01-1.64283E-02 3.21639E-04-5.70740E-02-7.31973E-14 9.60685E-15
 -1      3947 2.00558E+01-3.02943E-02-1.46357E-04-5.80304E-02-7.60117E-14-2.25499E-14
 -1      3948 2.00462E+01-9.05198E-03-9.16580E-05-4.84481E-02-9.72541E-14 7.89963E-14
 -1      3949 1.99564E+01 1.37012E-01 2.67917E-04-9.55646E-02 7.43553E-14-1.04433E-13
 -1      3950 1.99677E+01 1.12511E-01-6.32195E-04-8.42710E-02 2.41796E-14-8.11580E-14
 -1      3951 1.99843E+01 9.02246E-02 2.71306E-04-7.66025E-02-1.48924E-14-7.33378E-14
 -1      3952 1.99935E+01 6.89154E-02-4.81938E-04-6.91560E-02-3.06453E-14-7.34622E-14
 -1      3953 1.99701E+01 1.09706E-01 3.55094E-04-6.88318E-02 2.91355E-14-5.20767E-14
 -1      3954 1.98773E+01 2.50892E-01 3.01430E-04-1.59300E-01 1.32723E-13-1.18349E-13
 -1      3955 1.98956E+01 2.19428E-01-1.02263E-03-1.38272E-01 8.47077E-14-7.90872E-14
 -1      3956 1.98214E+01 3.17474E-01 3.52880E-04-2.07240E-01-2.08338E-15-1.90349E-14
 -1      3957 1.98445E+01 2.82969E-01-1.26788E-03-1.80125E-01 4.27174E-14-6.88957E-14
 -1      3958 1.98365E+01 2.88498E-01 1.00195E-03-1.46538E-01 8.80094E-14-6.41930E-14
 -1      3959 1.97515E+01 3.88253E-01 4.46727E-04-2.68496E-01-5.08571E-14 6.21888E-14
 -1      3960 1.97802E+01 3.51893E-01-1.54718E-03-2.34335E-01 1.35833E-14 2.17993E-14
 -1      3961 1.97664E+01 3.62175E-01 1.26214E-03-1.91664E-01-8.42808E-14 5.65814E-14
 -1      3962 1.96658E+01 4.59244E-01 6.10329E-04-3.45491E-01-1.01021E-13 1.16760E-13
 -1      3963 1.97004E+01 4.23285E-01-1.85862E-03-3.03187E-01-6.05089E-14 1.29592E-13
 -1      3964 1.96788E+01 4.40123E-01 1.52981E-03-2.49911E-01-9.55050E-14 1.40672E-13
 -1      3965 1.95638E+01 5.23668E-01 8.88557E-04-4.41191E-01-6.71076E-14 6.32231E-14
 -1      3966 1.96038E+01 4.91864E-01-2.19811E-03-3.89464E-01-8.95563E-14 7.39176E-14
 -1      3967 1.95711E+01 5.17859E-01 1.78280E-03-3.24273E-01-5.71877E-14 7.03417E-16
 -1      3968 1.94469E+01 5.70981E-01 1.35280E-03-5.59357E-01-1.14869E-13-2.32028E-14
 -1      3969 1.94903E+01 5.49085E-01-2.55862E-03-4.96642E-01-9.07672E-14-2.00268E-14
 -1      3970 1.94417E+01 5.87941E-01 1.98449E-03-4.18693E-01-2.68404E-14-1.13406E-13
 -1      3971 1.93196E+01 5.85717E-01 2.11307E-03-7.04939E-01-1.32556E-13-3.59484E-14
 -1      3972 1.93626E+01 5.82070E-01-2.92702E-03-6.29241E-01-1.25665E-13 2.72155E-14
 -1      3973 1.92908E+01 6.38997E-01 2.07639E-03-5.38533E-01-1.63077E-13 1.99117E-14
 -1      3974 1.91921E+01 5.46178E-01 3.33293E-03-8.84612E-01-1.04216E-13-5.02004E-14
 -1      3975 1.92268E+01 5.72380E-01-3.27365E-03-7.93329E-01-9.63694E-14-6.57654E-14
 -1      3976 1.91212E+01 6.54586E-01 1.96345E-03-6.91283E-01-1.29198E-13-8.21005E-14
 -1      3977 1.90827E+01 4.22907E-01 5.23731E-03-1.10728E+00-1.32275E-13 4.28614E-14
 -1      3978 1.90960E+01 4.94625E-01-3.52003E-03-9.97176E-01-1.35749E-13-4.17407E-14
 -1      3979 1.89401E+01 6.11829E-01 1.47923E-03-8.87586E-01-1.16181E-13 2.56576E-15
 -1      3980 1.90236E+01 1.76801E-01 8.08529E-03-1.38390E+00-4.31827E-13 1.88594E-13
 -1      3981 1.89936E+01 3.14842E-01-3.43742E-03-1.25174E+00-1.99931E-13 1.47318E-13
 -1      3982 1.87618E+01 4.79501E-01 2.89849E-04-1.14255E+00-2.50141E-13 1.60506E-13
 -1      3983 1.90670E+01-2.43275E-01 1.12801E-02-1.72505E+00-5.40360E-13 2.79898E-13
 -1      3984 1.89613E+01-1.11013E-02-2.25706E-03-1.56949E+00-5.82951E-13 1.62524E-13
 -1      3985 1.86131E+01 2.14598E-01-2.40561E-03-1.47654E+00-4.96478E-13 1.10958E-13
 -1      3986 1.92981E+01-8.96601E-01 1.42605E-02-2.12987E+00-1.78971E-13 3.08230E-13
 -1      3987 1.90722E+01-5.34747E-01 2.94828E-03-1.95636E+00-3.24376E-13 2.56424E-13
 -1      3988 1.85463E+01-2.47785E-01-8.92700E-03-1.91198E+00-4.55708E-13-4.04279E-14
 -1      3989 1.98459E+01-1.85668E+00 1.18927E-02-2.56737E+00-2.50232E-13 1.11155E-13
 -1      3990 1.94488E+01-1.32744E+00 1.39637E-02-2.40517E+00-1.33558E-13 2.48940E-13
 -1      3991 1.86480E+01-9.66335E-01-1.76976E-02-2.46325E+00-1.63359E-13-5.29186E-14
 -1      3992 2.03009E+01 1.72964E-02-3.88846E-04-9.44337E-02 7.45702E-14-2.05606E-13
 -1      3993 2.03225E+01 6.33097E-02 8.35474E-04-8.28561E-02 4.98286E-14-2.12102E-13
 -1      3994 2.01803E+01-9.22508E-02 2.70889E-04-9.39384E-02-5.23569E-14-1.54340E-14
 -1      3995 2.01975E+01-8.75326E-02 3.29089E-04-9.76782E-02-3.59825E-14-5.75811E-14
 -1      3996 2.01901E+01-9.70173E-02-5.42931E-04-7.63109E-02 1.24853E-14-9.35059E-14
 -1      3997 2.03387E+01 1.20082E-01-8.41208E-04-7.17732E-02 2.88414E-14-2.14034E-13
 -1      3998 2.03586E+01 1.91834E-01 1.03699E-03-4.89820E-02 4.34944E-14-2.08017E-13
 -1      3999 2.03578E+01 1.06271E-01-1.31239E-04-6.10120E-02 4.26017E-14-1.82397E-13
 -1      4000 2.03181E+01 1.19472E+00-2.65932E-03 3.16277E-02 6.95741E-14-3.32314E-13
 -1      4001 2.03179E+01 1.19521E+00-2.69198E-03-2.85138E-02 2.77258E-14-3.44783E-13
 -1      4002 2.03751E+01 9.95681E-01 5.49900E-03 4.08165E-02 8.94483E-14-2.89039E-13
 -1      4003 2.03749E+01 9.97041E-01 5.59317E-03-3.72942E-02 2.12828E-14-2.99527E-13
 -1      4004 1.54832E+01 9.16433E-01-1.51543E-02 7.93568E-01 1.08207E-13-2.88339E-13
 -1      4005 1.50156E+01 7.12652E-01 1.24925E-02 1.10196E+00 1.15080E-13-3.29399E-13
 -1      4006 2.02184E+01-7.87876E-02 1.47514E-04-1.00918E-01-4.00522E-14-6.61290E-14
 -1      4007 2.02379E+01-6.47812E-02 4.76604E-04-1.01898E-01-1.17763E-14-1.10074E-13
 -1      4008 2.02304E+01-8.56484E-02-5.59985E-04-8.21939E-02-7.30607E-14-8.86030E-14
 -1      4009 2.03664E+01 2.78182E-01-1.44043E-03-2.82712E-02 9.05219E-14-2.35720E-13
 -1      4010 2.03809E+01 3.85345E-01 1.48722E-03 9.98524E-03 1.36080E-13-2.21797E-13
 -1      4011 2.03876E+01 2.61264E-01 2.76859E-04-2.74044E-02 6.64900E-14-1.67972E-13
 -1      4012 2.03173E+01 5.57522E-01-1.46974E-03 1.10672E-01 1.33575E-13-2.60681E-13
 -1      4013 1.68803E+01-1.56818E+00 1.74056E-02-3.67703E+00-1.15081E-13-1.99264E-13
 -1      4014 1.81715E+01-2.28498E+00-5.46465E-03-3.80207E+00-2.08627E-13-2.02560E-13
 -1      4015 1.89852E+01-2.17141E+00 1.43152E-02-3.33498E+00-1.75009E-13-4.86330E-14
 -1      4016 2.02594E+01-4.51416E-02-6.37357E-05-1.02421E-01 1.62621E-14-1.30442E-13
 -1      4017 2.02806E+01-1.78312E-02 6.48630E-04-9.85153E-02 5.87216E-14-1.60087E-13
 -1      4018 2.02738E+01-5.41379E-02-5.17317E-04-8.38783E-02-1.87604E-14-8.30429E-14
 -1      4019 2.00075E+01 4.95439E-02 2.83181E-04-6.45338E-02-1.03917E-13-2.10080E-15
 -1      4020 2.00156E+01 3.10410E-02-3.56481E-04-6.03720E-02-1.01817E-13 6.51315E-14
 -1      4021 2.00232E+01 2.50309E-02 4.02816E-05-5.05659E-02-1.26193E-13-6.75147E-15
 -1      4022 1.99215E+01 1.90515E-01 2.76204E-04-1.22646E-01 4.35043E-14-8.65242E-14
 -1      4023 1.99358E+01 1.62541E-01-8.11348E-04-1.06858E-01 7.74563E-14-8.72950E-14
 -1      4024 1.99354E+01 1.61864E-01 5.45533E-04-8.67988E-02 5.04298E-14-1.02528E-13
 -1      4025 1.40940E+01 6.37464E-01 1.33709E-02 1.03192E+00 1.00971E-13-2.73240E-13
 -1      4026 2.03930E+01 7.39949E-01-7.83963E-04-5.43116E-02-1.74929E-14-2.22525E-13
 -1      4027 2.03506E+01 5.70712E-01-3.77559E-04 9.24792E-02 1.35357E-13-2.56991E-13
 -1      4028 1.56204E+01 1.05405E+00 2.73487E-02 2.70761E-01 1.16776E-13-1.27231E-13
 -1      4029 2.03176E+01 6.04360E-03-3.87146E-04-7.81848E-02 3.41635E-14-1.52937E-13
 -1      4030 2.00681E+01-4.27626E-02 3.30674E-04-5.98795E-02-4.88704E-14 1.00021E-14
 -1      4031 2.00772E+01-5.44969E-02-6.01146E-05-6.26356E-02-8.30051E-15 3.56937E-14
 -1      4032 2.00690E+01-3.83550E-02-2.83970E-04-5.00682E-02-6.06743E-14 8.67436E-14
 -1      4033 1.99986E+01 6.43649E-02 1.87855E-04-5.70859E-02-4.45988E-14 3.08963E-15
 -1      4034 2.03965E+01 7.52812E-01-2.75297E-03-3.69651E-02 9.35722E-15-2.54727E-13
 -1      4035 2.04233E+01 5.53559E-01 2.54035E-03-1.63575E-02-4.55160E-15-2.14630E-13
 -1      4036 2.03978E+01 7.65866E-01-2.46193E-03-5.50851E-03 4.59997E-14-2.72547E-13
 -1      4037 1.93436E+01-2.04362E+00-2.12564E-02-2.97739E+00-1.46686E-13 4.33022E-14
 -1      4038 2.03966E+01 4.89548E-01 7.39483E-04 2.76111E-02 1.19547E-13-2.40591E-13
 -1      4039 2.03738E+01 5.10020E-01-2.26864E-03 4.22708E-02 1.27781E-13-2.39031E-13
 -1      4040 2.00814E+01-6.62386E-02-3.19273E-04-7.90062E-02 6.99051E-14-7.28308E-14
 -1      4041 2.01166E+01-8.16397E-02 4.08620E-04-7.47436E-02 7.49859E-14-4.10029E-14
 -1      4042 2.01289E+01-8.77655E-02 8.53427E-05-7.97022E-02 1.02040E-13-3.92937E-14
 -1      4043 2.01537E+01-9.43632E-02-5.10714E-04-6.85938E-02 8.07702E-14-5.24073E-14
 -1      4044 2.03961E+01 7.52509E-01-1.68244E-03 4.31430E-02 9.05447E-14-2.53733E-13
 -1      4045 2.03960E+01 7.62346E-01-3.01961E-03 1.19064E-02 6.79084E-14-2.79016E-13
 -1      4046 2.04317E+01 5.68270E-01 3.63919E-03 2.52982E-03 4.99155E-14-2.48400E-13
 -1      4047 1.52785E+01-4.10685E-01-8.33611E-03-2.83602E+00-2.25964E-13-3.68998E-13
 -1      4048 1.60672E+01-1.00257E+00 1.74640E-02-3.40588E+00-1.99004E-13-2.59686E-13
 -1      4049 1.71231E+01-1.08890E+00 3.02773E-02-3.16976E+00-2.64636E-13-1.62486E-13
 -1      4050 1.98918E+01 2.21437E-01 7.61351E-04-1.12202E-01 8.03228E-14-1.78581E-13
 -1      4051 2.03757E+01 7.54790E-01-2.14296E-04 1.02713E-01 1.16098E-13-2.73590E-13
 -1      4052 2.03803E+01 7.88498E-01-2.18506E-03 7.44146E-02 1.08301E-13-2.80570E-13
 -1      4053 2.04148E+01 5.96399E-01 2.37277E-03 4.01472E-02 8.91876E-14-2.60643E-13
 -1      4054 2.04175E+01 2.51262E-01 2.09838E-05 1.34396E-02-3.74766E-14-1.96722E-13
 -1      4055 2.04041E+01 1.66213E-01-3.59064E-04 2.74280E-02-7.05089E-14-1.98355E-13
 -1      4056 2.03889E+01 9.68967E-02 2.96415E-04 2.99682E-02-8.31491E-14-1.78914E-13
 -1      4057 2.03689E+01 4.12398E-02-8.23333E-05 3.85562E-02-9.81723E-14-1.73856E-13
 -1      4058 2.04053E+01 1.40820E-01-1.86978E-04 1.42397E-02-6.90943E-14-1.63724E-13
 -1      4059 2.03478E+01-2.66889E-03 3.53369E-04 3.87725E-02-9.10875E-14-1.70005E-13
 -1      4060 2.03250E+01-3.65286E-02 1.41475E-04 4.29649E-02-7.69679E-14-1.42651E-13
 -1      4061 2.03670E+01 2.35398E-02-6.62094E-04 1.96804E-02-8.34940E-14-1.43113E-13
 -1      4062 2.03015E+01-6.19169E-02 3.65798E-04 4.18251E-02-6.07370E-14-1.17916E-13
 -1      4063 2.02785E+01-8.00355E-02 2.77286E-04 4.30486E-02-2.64373E-14-8.49346E-14
 -1      4064 2.03213E+01-4.84081E-02-9.42692E-04 2.18464E-02-4.51685E-14-8.89941E-14
 -1      4065 2.02550E+01-9.22141E-02 3.42276E-04 4.11675E-02 9.64368E-15-9.59945E-14
 -1      4066 2.02332E+01-9.92146E-02 3.46442E-04 4.05687E-02 2.19536E-14-1.01148E-13
 -1      4067 2.02738E+01-8.74318E-02-1.05322E-03 2.18844E-02-8.90133E-15-8.87556E-14
 -1      4068 2.02111E+01-1.02163E-01 2.93953E-04 3.84024E-02-2.35173E-14-4.32071E-14
 -1      4069 2.01913E+01-1.01426E-01 3.55999E-04 3.68472E-02-2.00235E-14-7.29437E-14
 -1      4070 2.02282E+01-1.03078E-01-1.03127E-03 2.06863E-02 5.74546E-15-8.13480E-14
 -1      4071 2.01712E+01-9.79473E-02 2.38827E-04 3.46670E-02 1.30443E-15-1.07922E-13
 -1      4072 2.01535E+01-9.18608E-02 2.85763E-04 3.27727E-02-4.21709E-14-6.24506E-14
 -1      4073 2.01865E+01-1.02335E-01-8.44259E-04 1.89809E-02-4.16366E-14-5.80261E-14
 -1      4074 2.01356E+01-8.38036E-02 1.60521E-04 3.10220E-02-6.77893E-14-6.11099E-14
 -1      4075 2.01201E+01-7.38755E-02 2.57773E-04 2.92785E-02-5.87330E-14-5.89327E-14
 -1      4076 2.01488E+01-9.00293E-02-6.24407E-04 1.71392E-02-5.27288E-14-1.22332E-14
 -1      4077 2.01039E+01-6.25044E-02 6.18810E-05 2.80349E-02-6.57311E-14-9.70005E-14
 -1      4078 2.00903E+01-4.96023E-02 2.71051E-04 2.69028E-02-8.95468E-15-1.04293E-13
 -1      4079 2.01151E+01-6.97091E-02-4.28012E-04 1.53007E-02-7.19440E-14 1.47234E-14
 -1      4080 2.00752E+01-3.55744E-02-9.13791E-06 2.58835E-02 1.51916E-15-1.57305E-13
 -1      4081 2.00624E+01-2.00188E-02 1.91670E-04 2.56190E-02-2.15297E-14-1.39212E-13
 -1      4082 2.00852E+01-4.36926E-02-3.20663E-04 1.40001E-02-6.13632E-14-1.01369E-13
 -1      4083 2.00478E+01-3.36212E-03-8.88817E-05 2.53335E-02-6.04874E-14-1.58039E-13
 -1      4084 2.00351E+01 1.48255E-02 1.21337E-04 2.61462E-02-3.86144E-14-1.74327E-13
 -1      4085 2.00565E+01-1.16452E-02-1.56629E-04 1.36766E-02-3.10560E-14-1.13155E-13
 -1      4086 2.00199E+01 3.41999E-02-2.00386E-04 2.65479E-02 2.22850E-14-1.90662E-13
 -1      4087 2.00061E+01 5.53497E-02 3.59174E-05 2.86154E-02-1.47609E-14-1.74346E-13
 -1      4088 2.00280E+01 2.58857E-02 1.09231E-04 1.41648E-02 1.08677E-14-1.35830E-13
 -1      4089 1.99891E+01 7.78938E-02-3.25385E-04 2.97721E-02-2.91870E-14-6.29889E-14
 -1      4090 1.99731E+01 1.02523E-01-6.70736E-05 3.32526E-02-4.55966E-14-5.96944E-14
 -1      4091 1.99972E+01 6.95511E-02 4.24969E-04 1.55692E-02 3.05304E-14-2.96830E-14
 -1      4092 1.99528E+01 1.28821E-01-4.68475E-04 3.52022E-02-1.06487E-13 3.36062E-14
 -1      4093 1.99330E+01 1.57556E-01-1.95695E-04 4.02163E-02-4.58547E-14 8.65218E-14
 -1      4094 1.99616E+01 1.20351E-01 7.96360E-04 1.79310E-02 2.00435E-14 8.83058E-14
 -1      4095 1.99078E+01 1.88260E-01-6.31933E-04 4.29496E-02-3.49894E-14 6.43769E-14
 -1      4096 1.98824E+01 2.21742E-01-3.61310E-04 4.95500E-02-3.06805E-14 6.35068E-14
 -1      4097 1.99179E+01 1.79500E-01 1.23765E-03 2.11687E-02-3.00235E-14 2.61243E-13
 -1      4098 1.98502E+01 2.57469E-01-8.16548E-04 5.29755E-02-1.82659E-14 7.28375E-14
 -1      4099 1.98171E+01 2.96231E-01-5.79429E-04 6.10998E-02-6.94642E-15 1.83812E-13
 -1      4100 1.98625E+01 2.48217E-01 1.76654E-03 2.50278E-02-4.18560E-14 2.76037E-13
 -1      4101 1.97757E+01 3.37442E-01-1.02146E-03 6.49889E-02-6.89471E-15 7.88240E-14
 -1      4102 1.97322E+01 3.81767E-01-8.70768E-04 7.43908E-02-4.03807E-14 7.44670E-14
 -1      4103 1.97913E+01 3.27467E-01 2.40344E-03 2.89822E-02-6.13743E-14 1.93638E-13
 -1      4104 1.96791E+01 4.28607E-01-1.24433E-03 7.82996E-02-3.80124E-14 9.65895E-14
 -1      4105 1.96221E+01 4.78348E-01-1.26277E-03 8.84586E-02 3.18472E-14 1.22066E-13
 -1      4106 1.96994E+01 4.17665E-01 3.17200E-03 3.20902E-02-1.89830E-14 6.79793E-14
 -1      4107 1.95543E+01 5.30453E-01-1.48268E-03 9.16256E-02 7.87837E-14 9.45970E-14
 -1      4108 1.94800E+01 5.84808E-01-1.79196E-03 1.01641E-01 9.26014E-14 1.97117E-13
 -1      4109 1.95810E+01 5.18300E-01 4.10138E-03 3.27980E-02 1.43817E-14 2.41047E-13
 -1      4110 1.93940E+01 6.41075E-01-1.73743E-03 1.02861E-01 1.79078E-14 1.86510E-13
 -1      4111 1.92978E+01 6.98332E-01-2.50815E-03 1.11345E-01 5.23674E-14 3.27551E-13
 -1      4112 1.94296E+01 6.27497E-01 5.23127E-03 2.86859E-02 6.34841E-14 2.15907E-13
 -1      4113 1.91896E+01 7.56658E-01-2.02040E-03 1.08826E-01 7.06825E-14 3.23938E-13
 -1      4114 1.90658E+01 8.13921E-01-3.48282E-03 1.13828E-01-2.69812E-14 3.41884E-13
 -1      4115 1.92376E+01 7.41535E-01 6.62222E-03 1.61557E-02 5.39252E-14 1.79733E-13
 -1      4116 1.89304E+01 8.70941E-01-2.36836E-03 1.05039E-01-1.57217E-13 3.39564E-13
 -1      4117 1.87713E+01 9.23879E-01-4.82678E-03 1.04055E-01-1.60224E-13 3.24481E-13
 -1      4118 1.89956E+01 8.54370E-01 8.37444E-03-9.94599E-03-9.04319E-14 1.86074E-13
 -1      4119 1.86022E+01 9.74770E-01-2.86662E-03 8.55664E-02-9.91399E-14 2.74458E-13
 -1      4120 1.83977E+01 1.01744E+00-6.72696E-03 7.57130E-02-3.97068E-14 1.71081E-13
 -1      4121 1.86922E+01 9.57269E-01 1.06596E-02-5.67927E-02-1.38118E-13 1.88366E-13
 -1      4122 1.81853E+01 1.05589E+00-3.68210E-03 4.30147E-02-3.97251E-14 1.29133E-13
 -1      4123 1.79203E+01 1.08067E+00-9.51080E-03 2.15389E-02-2.79593E-14 3.55832E-14
 -1      4124 1.83116E+01 1.03866E+00 1.37638E-02-1.34247E-01-1.30632E-13 1.11452E-13
 -1      4125 1.76494E+01 1.09949E+00-5.03868E-03-3.09554E-02-1.51171E-13-6.46929E-14
 -1      4126 1.73024E+01 1.09738E+00-1.29566E-02-6.60211E-02-6.63624E-14-1.30934E-13
 -1      4127 1.78300E+01 1.08430E+00 1.80458E-02-2.56093E-01-1.47712E-13 5.71275E-14
 -1      4128 1.69476E+01 1.08067E+00-8.94358E-03-1.42756E-01 1.44349E-13-2.47123E-13
 -1      4129 1.64952E+01 1.04951E+00-1.43561E-02-1.93999E-01 2.14009E-13-2.07166E-13
 -1      4130 1.72024E+01 1.07684E+00 2.19800E-02-4.40932E-01-2.10401E-14-1.13800E-13
 -1      4131 1.99568E+01 1.26525E-01 7.12221E-05-5.70585E-02 5.74852E-14-8.68522E-14
 -1      4132 1.99721E+01 1.01058E-01-5.09458E-04-5.02468E-02 8.50835E-14-6.98803E-14
 -1      4133 1.31145E+01 4.93282E-01 7.27263E-02-1.32937E+00-1.36965E-13-8.20458E-13
 -1      4134 1.40933E+01 2.55831E-01 2.11030E-02-1.86445E+00-2.09628E-13-6.80246E-13
 -1      4135 2.00442E+01-7.69008E-04 2.34763E-04-3.76182E-02-1.07242E-13 9.82816E-14
 -1      4136 2.00554E+01-1.72336E-02-1.02159E-04-3.72863E-02-8.59464E-14 1.24713E-13
 -1      4137 1.99900E+01 7.78506E-02 1.24175E-04-4.64768E-02 1.99925E-14-1.10468E-13
 -1      4138 2.00029E+01 5.58098E-02-3.53221E-04-4.22125E-02-3.16908E-14-3.51136E-14
 -1      4139 1.99790E+01 9.49910E-02 5.69021E-04-3.46833E-02 6.69576E-14-1.82494E-13
 -1      4140 1.97163E+01 3.98671E-01-1.84620E-05-1.64877E-01-1.51784E-13 1.64526E-13
 -1      4141 1.97544E+01 3.57382E-01-1.57244E-03-1.41659E-01-1.07572E-13 1.32353E-13
 -1      4142 1.97991E+01 3.19106E-01-3.43342E-05-1.25124E-01-1.10296E-14 1.00272E-13
 -1      4143 1.98294E+01 2.81423E-01-1.22001E-03-1.07235E-01 3.84295E-14 2.53207E-14
 -1      4144 1.97596E+01 3.59667E-01 2.57082E-03-9.94395E-02-1.02745E-13 1.73880E-13
 -1      4145 1.94851E+01 5.67728E-01 2.36404E-04-2.84292E-01 1.18179E-13-5.79048E-14
 -1      4146 1.95419E+01 5.24457E-01-2.54377E-03-2.46415E-01 3.43608E-14 6.83294E-14
 -1      4147 1.93310E+01 6.45142E-01 5.80025E-04-3.71832E-01-4.59636E-14-1.43342E-14
 -1      4148 1.93977E+01 6.06155E-01-3.21702E-03-3.23667E-01 6.51332E-14-1.66554E-14
 -1      4149 1.93934E+01 6.32207E-01 5.21451E-03-2.39816E-01 1.01419E-13-1.79965E-14
 -1      4150 1.91493E+01 7.03989E-01 1.18711E-03-4.85821E-01-1.74487E-13-1.01749E-13
 -1      4151 1.92248E+01 6.75268E-01-4.07594E-03-4.24333E-01-1.24093E-13-4.57030E-14
 -1      4152 1.92109E+01 7.17981E-01 6.43573E-03-3.21921E-01-6.22050E-14-1.14540E-14
 -1      4153 1.89410E+01 7.28137E-01 2.20695E-03-6.35346E-01-1.54073E-13-5.87033E-14
 -1      4154 1.90219E+01 7.18091E-01-5.19809E-03-5.56192E-01-1.80781E-13-5.68471E-14
 -1      4155 1.89918E+01 7.85247E-01 7.91700E-03-4.33011E-01-1.74200E-13-8.24800E-14
 -1      4156 1.87103E+01 6.95481E-01 3.86313E-03-8.33506E-01-1.46321E-13 1.61486E-13
 -1      4157 1.87904E+01 7.15508E-01-6.70270E-03-7.30410E-01-1.06589E-13 1.21483E-13
 -1      4158 1.87335E+01 8.18160E-01 9.75986E-03-5.84544E-01-2.01335E-13-4.33058E-14
 -1      4159 1.84675E+01 5.76406E-01 6.54862E-03-1.09924E+00-3.19687E-13 2.96585E-13
 -1      4160 1.85349E+01 6.41721E-01-8.75048E-03-9.63199E-01-2.42967E-13 3.10739E-13
 -1      4161 1.84340E+01 7.95303E-01 1.20601E-02-7.93222E-01-2.44594E-13 1.65448E-13
 -1      4162 1.82335E+01 3.29736E-01 1.08867E-02-1.46017E+00-4.31340E-13 2.92089E-15
 -1      4163 1.82661E+01 4.62391E-01-1.13984E-02-1.27859E+00-3.32686E-13 2.05810E-13
 -1      4164 1.80923E+01 6.87596E-01 1.44322E-02-1.08343E+00-2.66116E-13 1.28876E-13
 -1      4165 1.80282E+01-1.05368E-01 1.20070E-02-1.96225E+00-3.65469E-13-2.11685E-13
 -1      4166 1.80097E+01 1.40808E-01-1.05369E-02-1.71236E+00-4.80140E-13-1.80961E-13
 -1      4167 1.77021E+01 4.45786E-01 1.10762E-02-1.48687E+00-2.40775E-13-1.55558E-13
 -1      4168 1.35473E+01 6.56000E-01-1.14354E-02-3.56661E-01-1.58539E-13-6.56039E-13
 -1      4169 1.46037E+01 5.18951E-01-7.15347E-03-1.42943E+00-3.01006E-13-6.66790E-13
 -1      4170 1.48614E+01 1.43412E-01 3.02772E-02-2.23890E+00-2.93734E-13-6.13872E-13
 -1      4171 1.58003E+01-3.84013E-02 2.06459E-02-2.33189E+00-3.91339E-13-4.80341E-13
 -1      4172 2.04141E+01 4.53903E-01-9.62866E-04 6.63964E-03 9.33625E-14-2.34467E-13
 -1      4173 2.00909E+01-6.47921E-02 4.13669E-04-6.61912E-02 4.93077E-14 5.80839E-14
 -1      4174 2.01011E+01-7.41168E-02-1.56232E-05-7.03574E-02 7.25100E-14 6.20732E-14
 -1      4175 2.01219E+01-8.22901E-02-5.21651E-04-6.09138E-02 6.37353E-15 7.15682E-14
 -1      4176 2.03713E+01 6.89092E-01 1.10041E-03 1.17189E-01 1.01806E-13-2.51841E-13
 -1      4177 2.01965E+01-9.99066E-02 3.56504E-04-5.74140E-02 3.48739E-15-1.54340E-13
 -1      4178 2.02160E+01-9.80145E-02 3.39709E-04-5.97026E-02-2.37355E-14-1.76025E-13
 -1      4179 1.83898E+01-1.49527E+00 2.11389E-02-3.07648E+00-1.56010E-13-2.44123E-14
 -1      4180 2.03685E+01 7.99660E-02-4.71155E-04-5.25733E-02 1.39883E-14-1.71986E-13
 -1      4181 2.03882E+01 1.44444E-01 5.46397E-04-3.88025E-02 2.12725E-14-1.83562E-13
 -1      4182 2.04129E+01 3.23246E-01 2.08095E-04-6.35856E-03 8.31987E-14-1.87858E-13
 -1      4183 2.04255E+01 4.20573E-01 1.70801E-04 2.26917E-03 5.39639E-14-2.18145E-13
 -1      4184 2.02381E+01-9.21377E-02 2.88658E-04-6.25748E-02-1.92211E-14-1.51500E-13
 -1      4185 2.02597E+01-8.15385E-02 4.34717E-04-6.32471E-02-2.97772E-14-9.27486E-14
 -1      4186 2.02386E+01-9.78880E-02-1.09100E-03-4.27866E-02 7.41018E-16-1.51284E-13
 -1      4187 2.03275E+01-1.16411E-02-9.38310E-05-6.27447E-02-3.49762E-15-6.81401E-14
 -1      4188 2.03501E+01 2.89907E-02 6.09541E-04-5.58518E-02 1.11111E-14-1.23714E-13
 -1      4189 2.03744E+01 6.24385E-02-5.26261E-04-3.68204E-02-2.50154E-14-1.30709E-13
 -1      4190 2.04249E+01 4.46055E-01-3.25528E-04-9.59256E-03-1.64491E-14-1.90568E-13
 -1      4191 2.04224E+01 3.27851E-01-9.67994E-05 9.84740E-03-1.95717E-14-1.96713E-13
 -1      4192 2.04262E+01 2.91414E-01 2.25290E-04 5.54943E-03-3.04077E-14-2.17158E-13
 -1      4193 2.04286E+01 4.63227E-01-5.96222E-04-3.21975E-03 3.49876E-15-2.24951E-13
 -1      4194 2.00184E+01 3.57097E-02 1.79004E-04-4.02393E-02-8.28565E-14 1.51144E-14
 -1      4195 2.00299E+01 1.66308E-02-2.22735E-04-3.81101E-02-1.14457E-13-1.75000E-15
 -1      4196 2.00105E+01 4.88261E-02 2.39758E-04-2.94265E-02-2.79472E-15-1.11066E-13
 -1      4197 1.77197E+01-1.11679E+00-7.35952E-03-2.98176E+00-1.80772E-13-1.31349E-13
 -1      4198 1.82605E+01-9.72677E-01 1.51398E-02-2.65917E+00-1.47949E-13-8.36315E-14
 -1      4199 1.81155E+01-5.35227E-01 3.94778E-03-2.33276E+00-2.54866E-13-1.83001E-13
 -1      4200 1.69824E+01-5.64354E-01 3.57023E-03-2.70859E+00-3.42355E-13-3.15345E-13
 -1      4201 2.04008E+01 2.26705E-01-8.87917E-04-2.97302E-02 4.12053E-14-1.92228E-13
 -1      4202 1.58872E+01 9.84412E-01-1.59740E-02-3.05475E-01 7.53859E-14-2.34643E-13
 -1      4203 1.51557E+01 8.91486E-01-9.12096E-03-2.97359E-01-3.69299E-14-3.02578E-13
 -1      4204 1.98645E+01 2.46788E-01-1.52549E-05-9.50874E-02 5.48804E-14-9.69789E-14
 -1      4205 1.98884E+01 2.13266E-01-9.33234E-04-8.15896E-02 4.42079E-14-1.50606E-13
 -1      4206 1.98353E+01 2.80374E-01 1.93975E-03-7.44231E-02-1.23751E-14 1.78113E-14
 -1      4207 2.02826E+01-6.54165E-02 1.45810E-04-6.50981E-02-3.13047E-14-8.54489E-14
 -1      4208 2.03055E+01-4.23453E-02 5.28582E-04-6.28492E-02 7.57555E-15-8.86730E-14
 -1      4209 2.02843E+01-7.43415E-02-1.06471E-03-4.46360E-02-2.35525E-15-1.00243E-13
 -1      4210 1.96127E+01 4.83070E-01 5.81455E-05-2.16825E-01-8.59148E-14 1.50171E-13
 -1      4211 1.96598E+01 4.39539E-01-2.00638E-03-1.87073E-01-8.10092E-14 1.80319E-13
 -1      4212 1.95430E+01 5.39264E-01 4.18706E-03-1.78782E-01 7.20804E-14 1.22175E-14
 -1      4213 1.99160E+01 1.82621E-01 2.30132E-05-7.28835E-02 5.23220E-14-1.35098E-13
 -1      4214 1.99349E+01 1.53278E-01-6.99798E-04-6.30303E-02 4.90693E-14-1.23803E-13
 -1      4215 1.99414E+01 1.48386E-01 9.53252E-04-4.33373E-02 6.97397E-14-1.39258E-13
 -1      4216 1.98946E+01 2.09960E-01 1.40544E-03-5.62172E-02 1.10877E-14-1.11518E-13
 -1      4217 1.62902E+01 9.76503E-01 2.65428E-02-6.89956E-01 8.92634E-14-3.16147E-13
 -1      4218 2.00658E+01-2.54222E-02-2.67096E-04-2.65930E-02-6.96961E-14 7.67634E-14
 -1      4219 2.00697E+01-3.22666E-02 3.05651E-04-3.79963E-02-8.23549E-14 1.02323E-13
 -1      4220 2.00820E+01-4.61510E-02 1.69634E-04-3.93752E-02-5.60749E-15 1.10693E-13
 -1      4221 1.41553E+01 8.48618E-01 4.38702E-02 3.18627E-01 6.31314E-14-3.43905E-13
 -1      4222 2.00387E+01 8.93167E-03-4.34581E-05-2.69213E-02-2.23395E-14 4.74626E-14
 -1      4223 1.75293E+01-1.43993E-01-3.94701E-03-2.13579E+00-3.14878E-13-3.13613E-13
 -1      4224 1.96636E+01 4.46825E-01 3.31400E-03-1.33293E-01-6.67271E-14 1.37943E-13
 -1      4225 2.04097E+01 2.02067E-01 1.17012E-05-2.13789E-02 3.68236E-14-2.15049E-13
 -1      4226 2.03309E+01-2.44102E-02-8.92792E-04-4.33056E-02-2.70594E-15-8.52272E-14
 -1      4227 1.42842E+01 7.68603E-01-1.89825E-02-3.18854E-01-9.10608E-14-4.53898E-13
 -1      4228 1.49029E+01 7.84733E-01 3.48035E-02-9.52593E-01-2.11194E-13-6.39281E-13
 -1      4229 1.54212E+01 6.25679E-01-1.68039E-02-1.31012E+00-2.35982E-13-5.64862E-13
 -1      4230 2.00943E+01-6.32783E-02-4.32786E-04-5.45650E-02 1.83225E-14 1.44706E-13
 -1      4231 2.01762E+01-9.87336E-02 2.46496E-04-5.41629E-02 3.39071E-14-1.06986E-13
 -1      4232 2.01963E+01-1.02925E-01-9.72937E-04-3.93011E-02-1.21240E-15-2.01307E-13
 -1      4233 2.01595E+01-9.44476E-02 5.04398E-04-5.11003E-02 5.03187E-14-7.69130E-14
 -1      4234 2.04317E+01 4.59071E-01-4.05471E-04 4.10605E-03 3.18987E-14-2.38000E-13
 -1      4235 2.04312E+01 3.29773E-01 3.00002E-04-5.19116E-03 1.98972E-14-2.23095E-13
 -1      4236 1.97194E+01 3.82393E-01-1.70828E-03-4.09226E-02-7.01564E-14 6.82041E-14
 -1      4237 1.97636E+01 3.40006E-01-1.82932E-03-2.88860E-02-7.72382E-14 9.87341E-14
 -1      4238 1.88140E+01 8.52315E-01-4.47973E-03-2.64988E-01-1.64193E-13 3.35113E-14
 -1      4239 1.89385E+01 8.16520E-01-7.16752E-03-2.07663E-01-1.12082E-13 8.97938E-14
 -1      4240 1.99684E+01 1.05720E-01-4.21524E-04-1.05797E-02 7.55847E-14-4.93921E-14
 -1      4241 1.99863E+01 8.10476E-02-3.65523E-04-7.71660E-03 4.67923E-14-5.45656E-14
 -1      4242 2.03783E+01 4.03126E-02 2.34489E-04-1.14552E-02-6.49116E-14-1.04306E-13
 -1      4243 2.03570E+01-3.91688E-03 6.18485E-04-9.07311E-03-4.91937E-14-1.09074E-13
 -1      4244 2.03340E+01-3.76430E-02 5.08947E-04-1.18074E-02-2.41297E-14-9.19772E-14
 -1      4245 2.03103E+01-6.32266E-02 7.13916E-04-1.04312E-02 2.92145E-15-9.41221E-14
 -1      4246 2.02867E+01-8.11745E-02 6.47904E-04-1.12842E-02-8.90878E-15-1.01999E-13
 -1      4247 2.02630E+01-9.34222E-02 7.22043E-04-1.06010E-02 2.88669E-15-9.54586E-14
 -1      4248 2.02404E+01-1.00234E-01 6.77663E-04-1.03108E-02 2.32169E-14-1.11607E-13
 -1      4249 2.02179E+01-1.03131E-01 6.43884E-04-1.00394E-02-5.93073E-15-1.31764E-13
 -1      4250 2.01971E+01-1.02212E-01 5.84037E-04-9.24593E-03-3.80420E-14-1.39977E-13
 -1      4251 2.01763E+01-9.86843E-02 3.80006E-04-9.09530E-03-5.16029E-14-1.31888E-13
 -1      4252 2.01259E+01-7.53255E-02 3.59279E-04 1.52246E-03-1.03429E-13-3.67665E-14
 -1      4253 2.01099E+01-6.36989E-02 3.65394E-04 1.02689E-03-1.48285E-13-5.89686E-14
 -1      4254 2.00914E+01-4.91580E-02 1.00157E-04-6.68821E-03-1.36814E-13 3.70041E-14
 -1      4255 2.00769E+01-3.44887E-02 1.65670E-04-6.48471E-03-7.52753E-14-5.33624E-14
 -1      4256 2.00629E+01-1.87723E-02 1.42871E-04-6.51255E-03-3.75092E-14-3.39096E-14
 -1      4257 2.00483E+01-1.66908E-03 3.13926E-05-6.26805E-03-1.82690E-14-1.05916E-14
 -1      4258 2.00341E+01 1.67337E-02-2.74367E-06-6.98984E-03-2.78939E-15-3.06456E-15
 -1      4259 2.00188E+01 3.66297E-02-1.47565E-04-6.60422E-03 4.64728E-14-2.96925E-14
 -1      4260 2.00034E+01 5.79346E-02-1.96635E-04-8.26876E-03 3.24353E-14-7.88121E-14
 -1      4261 1.99479E+01 1.32587E-01-6.27601E-04-9.92160E-03 5.50569E-14 2.88685E-14
 -1      4262 1.99261E+01 1.61165E-01-6.80347E-04-1.42947E-02 2.39381E-14 4.28704E-14
 -1      4263 1.99005E+01 1.92352E-01-9.46809E-04-1.36753E-02 8.84491E-15 1.06354E-13
 -1      4264 1.98732E+01 2.25332E-01-9.78226E-04-1.99701E-02-1.02981E-14 1.11201E-13
 -1      4265 1.98405E+01 2.61310E-01-1.34024E-03-1.96582E-02-4.99701E-14 9.64365E-14
 -1      4266 1.98057E+01 2.99010E-01-1.31980E-03-2.84354E-02-9.26591E-14 1.35528E-13
 -1      4267 1.96651E+01 4.28203E-01-2.44150E-03-4.28630E-02-8.01224E-14 1.22309E-13
 -1      4268 1.96092E+01 4.74678E-01-2.14531E-03-5.92473E-02-4.19946E-14 1.16329E-13
 -1      4269 1.95396E+01 5.24430E-01-3.21360E-03-6.37933E-02 3.86316E-14 5.75949E-14
 -1      4270 1.94699E+01 5.73571E-01-2.63206E-03-8.60634E-02 9.69419E-14 5.62026E-14
 -1      4271 1.93812E+01 6.25457E-01-4.19809E-03-9.48686E-02 9.30908E-14 9.29873E-14
 -1      4272 1.92954E+01 6.74720E-01-3.17241E-03-1.25215E-01 6.91192E-14 6.43486E-14
 -1      4273 1.91834E+01 7.25685E-01-5.47431E-03-1.40660E-01 1.25907E-14 1.01025E-13
 -1      4274 1.90793E+01 7.71086E-01-3.77885E-03-1.82226E-01-8.33349E-14 9.03516E-14
 -1      4275 1.86374E+01 8.85752E-01-9.47679E-03-3.05083E-01-1.97853E-13 3.93711E-14
 -1      4276 1.84908E+01 9.04152E-01-5.31281E-03-3.84760E-01-2.38847E-13 2.05305E-14
 -1      4277 1.82684E+01 9.17028E-01-1.26865E-02-4.46082E-01-2.08102E-13-3.67822E-14
 -1      4278 1.80986E+01 9.07980E-01-6.19547E-03-5.57661E-01-1.99805E-13-2.06945E-14
 -1      4279 1.78159E+01 8.89537E-01-1.69300E-02-6.50076E-01-2.21263E-13-8.29057E-14
 -1      4280 1.76245E+01 8.40421E-01-6.05495E-03-8.07308E-01-1.49688E-13-8.37603E-14
 -1      4281 1.72616E+01 7.84401E-01-1.82755E-02-9.50607E-01-2.38221E-15-1.02912E-13
 -1      4282 1.61131E+01 6.40504E-01-9.00852E-03-1.28499E+00-1.20231E-13-4.73522E-13
 -1      4283 1.60185E+01 4.55097E-01 1.12361E-02-1.68916E+00-3.31572E-13-5.56039E-13
 -1      4284 1.70404E+01 6.82311E-01-1.23970E-03-1.15664E+00-4.31714E-14-2.81468E-13
 -1      4285 2.01005E+01-6.05855E-02 2.03597E-04-3.30889E-02-3.99594E-14 5.64956E-16
 -1      4286 2.01142E+01-7.19246E-02 9.24284E-05-3.50271E-02-7.01680E-14-7.21910E-15
 -1      4287 1.64300E+01-1.16479E-02-1.54798E-03-2.24138E+00-3.16163E-13-5.09899E-13
 -1      4288 2.04267E+01 2.53141E-01 1.25034E-04-6.83356E-05 2.15626E-15-2.34019E-13
 -1      4289 2.04132E+01 1.65777E-01-7.56981E-05-9.59392E-03-1.56766E-14-1.93972E-13
 -1      4290 2.03980E+01 9.59013E-02 4.21145E-04-5.92174E-03-4.76528E-14-1.43391E-13
 -1      4291 1.71280E+01-2.57737E-02 1.41298E-02-2.09241E+00-2.38382E-13-4.91919E-13
 -1      4292 2.01292E+01-8.08094E-02 4.66214E-04-4.11411E-02-5.76761E-14-6.51980E-15
 -1      4293 2.01437E+01-8.93049E-02 8.69214E-05-4.38454E-02-9.89351E-15-3.14565E-14
 -1      4294 2.01610E+01-9.58151E-02-7.56497E-04-3.06222E-02-2.50068E-14-1.23235E-13
 -1      4295 2.01306E+01-8.04817E-02-5.48282E-04-1.83826E-02-9.14870E-14-1.22637E-13
 -1      4296 2.01599E+01-9.28635E-02 5.09309E-04-3.23267E-03-2.79980E-14-7.77117E-14
 -1      4297 2.00972E+01-5.60762E-02-4.53152E-04-2.00032E-02-1.03764E-13 1.64061E-14
 -1      4298 2.01410E+01-8.48872E-02 2.04926E-04-3.39724E-03-2.83518E-14-4.80296E-14
 -1      4299 1.66509E+01 7.61384E-01-8.65645E-03-1.08318E+00 5.51104E-14-3.68730E-13
 -1      4300 1.70473E+01 3.60244E-01-1.30704E-03-1.68151E+00-2.09887E-13-4.55469E-13
 -3
    1PSTEP                         3           1           1          
  100CL  101 1.000000000        4300                     0    1           1
 -4  TOSTRAIN    6    1
 -5  EXX         1    4    1    1
 -5  EYY         1    4    2    2
 -5  EZZ         1    4    3    3
 -5  EXY         1    4    1    2
 -5  EYZ         1    4    2    3
 -5  EZX         1    4    3    1
 -1         1 2.77976E-04-7.14295E-05-7.67961E-05 8.87310E-05-2.42564E-18-9.50710E-18
 -1         2 4.38969E-05-1.34932E-04 2.45105E-05-1.99527E-06-1.83123E-17-5.35060E-19
 -1         3 9.53009E-05-2.84881E-05-2.85268E-05 2.12829E-07-2.64213E-18-2.33708E-18
 -1         4 9.50079E-05-2.87970E-05-2.81074E-05 2.26606E-07 1.17065E-18 7.01338E-19
 -1         5 1.43349E-04-2.14784E-05-4.25291E-05 3.85311E-05-2.47704E-19 1.81475E-17
 -1         6 1.45410E-04 2.57580E-10-4.41882E-05-5.35266E-05-1.04905E-18 1.79524E-17
 -1         7 9.06118E-05-5.11354E-07-3.90693E-05-2.92514E-05-1.52995E-19 3.75368E-18
 -1         8 8.51282E-05 8.61853E-08-3.63400E-05-2.02691E-05-2.10408E-19-7.27342E-19
 -1         9 8.28150E-05 7.64622E-08-3.53512E-05-1.56367E-05-1.81847E-19-3.18508E-18
 -1        10 8.17735E-05 3.91456E-08-3.48820E-05-1.20762E-05-1.30582E-19-4.38261E-18
 -1        11 8.12530E-05 1.91791E-08-3.46532E-05-9.01078E-06-1.03798E-19-4.96742E-18
 -1        12 8.09816E-05 9.21510E-09-3.45380E-05-6.28199E-06-5.39371E-20-5.18473E-18
 -1        13 8.08392E-05 4.66570E-09-3.44797E-05-3.68423E-06-2.86949E-20-5.24135E-18
 -1        14 8.07796E-05 2.78830E-09-3.44559E-05-1.18325E-06-1.02837E-20-5.26202E-18
 -1        15 8.07817E-05 2.77215E-09-3.44567E-05 1.28838E-06 3.04150E-20-5.25308E-18
 -1        16 8.08457E-05 4.55905E-09-3.44819E-05 3.79452E-06 5.97348E-20-5.15553E-18
 -1        17 8.09933E-05 8.43652E-09-3.45415E-05 6.40467E-06 6.56599E-20-4.91515E-18
 -1        18 8.12694E-05 1.81870E-08-3.46578E-05 9.15314E-06 1.17314E-19-4.50898E-18
 -1        19 8.17975E-05 3.81896E-08-3.48901E-05 1.22550E-05 1.67726E-19-3.76446E-18
 -1        20 8.28376E-05 8.14911E-08-3.53641E-05 1.58678E-05 2.22915E-19-2.42944E-18
 -1        21 8.50930E-05 1.69375E-07-3.63784E-05 2.04801E-05 2.54772E-19 2.32787E-19
 -1        22 9.16485E-05-9.98452E-08-3.87408E-05 2.79980E-05 4.53163E-20 5.72090E-18
 -1        23 1.12982E-04-3.81286E-05-3.53993E-05-4.40186E-06-6.87103E-19 1.42518E-17
 -1        24 9.28170E-05-2.77008E-05-2.90030E-05 3.91526E-07-2.66104E-19 1.07528E-17
 -1        25 8.91355E-05-2.68570E-05-2.69341E-05 3.75984E-07-2.02891E-20 7.46292E-18
 -1        26 8.80351E-05-2.64942E-05-2.63976E-05 2.04122E-07-4.13309E-20 5.29524E-18
 -1        27 8.80646E-05-2.64734E-05-2.63907E-05 1.40021E-07-7.21148E-20 3.77082E-18
 -1        28 8.86019E-05-2.66109E-05-2.65613E-05 1.01069E-07-2.95717E-20 2.94041E-18
 -1        29 8.93604E-05-2.68247E-05-2.67949E-05 7.53893E-08-8.85314E-20 2.18689E-18
 -1        30 9.01885E-05-2.70654E-05-2.70460E-05 5.70919E-08-1.08851E-20 6.51454E-19
 -1        31 9.10009E-05-2.73047E-05-2.72910E-05 4.33409E-08-3.73545E-20-9.93052E-19
 -1        32 9.17507E-05-2.75269E-05-2.75170E-05 3.26881E-08-1.28079E-19-1.82849E-18
 -1        33 9.24140E-05-2.77243E-05-2.77169E-05 2.43187E-08 2.80194E-19-2.45937E-18
 -1        34 9.29822E-05-2.78939E-05-2.78884E-05 1.77149E-08 8.84662E-20-1.72831E-18
 -1        35 9.34559E-05-2.80356E-05-2.80314E-05 1.25087E-08-1.39996E-19-2.46072E-18
 -1        36 9.38420E-05-2.81513E-05-2.81481E-05 8.41760E-09 1.16904E-19-2.57718E-18
 -1        37 9.41508E-05-2.82440E-05-2.82416E-05 5.21558E-09-1.66497E-19-2.55820E-18
 -1        38 9.43947E-05-2.83174E-05-2.83156E-05 2.72042E-09-3.50847E-20-4.02526E-18
 -1        39 9.45876E-05-2.83757E-05-2.83742E-05 7.88375E-10 1.14902E-19-4.63808E-18
 -1        40 9.47442E-05-2.84231E-05-2.84219E-05-6.87402E-10-5.19635E-20-4.39277E-18
 -1        41 9.48804E-05-2.84645E-05-2.84635E-05-1.77598E-09 1.78571E-19-3.81449E-18
 -1        42 9.50134E-05-2.85051E-05-2.85042E-05-2.50579E-09 4.28715E-20-2.48161E-18
 -1        43 9.51630E-05-2.85507E-05-2.85500E-05-2.85921E-09-1.70499E-19-1.86517E-18
 -1        44 9.53521E-05-2.86084E-05-2.86078E-05-2.76394E-09 1.63875E-20-4.05852E-19
 -1        45 9.56083E-05-2.86864E-05-2.86861E-05-2.07936E-09-2.85764E-20-6.79512E-19
 -1        46 9.59654E-05-2.87948E-05-2.87951E-05-5.75884E-10-4.40353E-20-2.37112E-18
 -1        47 9.64652E-05-2.89462E-05-2.89474E-05 2.09573E-09-9.99302E-20-2.37847E-18
 -1        48 9.71593E-05-2.91561E-05-2.91587E-05 6.44862E-09-1.49710E-19-3.53773E-18
 -1        49 9.81115E-05-2.94434E-05-2.94484E-05 1.32205E-08 2.89910E-19-3.16110E-18
 -1        50 9.93990E-05-2.98313E-05-2.98399E-05 2.34485E-08-9.45379E-20-2.95344E-18
 -1        51 1.01113E-04-3.03466E-05-3.03605E-05 3.85408E-08 2.32441E-19-2.15923E-18
 -1        52 1.03353E-04-3.10191E-05-3.10404E-05 6.02851E-08-4.80981E-20-3.55056E-19
 -1        53 1.06222E-04-3.18780E-05-3.19087E-05 9.06373E-08-2.04489E-19 9.58835E-19
 -1        54 1.09792E-04-3.29445E-05-3.29850E-05 1.30931E-07 3.22533E-19 1.18373E-18
 -1        55 1.14060E-04-3.42162E-05-3.42618E-05 1.79792E-07-4.39745E-19 7.97541E-19
 -1        56 1.18848E-04-3.56398E-05-3.56742E-05 2.28615E-07 7.61433E-20-7.37369E-19
 -1        57 1.23656E-04-3.70678E-05-3.70545E-05 2.53544E-07 4.25513E-19 1.05020E-18
 -1        58 1.27473E-04-3.82031E-05-3.80830E-05 2.05704E-07-2.37421E-19 3.42604E-18
 -1        59 1.28658E-04-3.85623E-05-3.82759E-05 1.10755E-08 2.93490E-19 3.42759E-18
 -1        60 1.25155E-04-3.75326E-05-3.70857E-05-3.92518E-07-6.22212E-19 4.31185E-18
 -1        61 1.15430E-04-3.46405E-05-3.41979E-05-9.51678E-07 3.94688E-19 3.96438E-18
 -1        62 1.00186E-04-3.00657E-05-2.99565E-05-1.38021E-06 3.04859E-19 5.17394E-18
 -1        63 8.37251E-05-2.50878E-05-2.55625E-05-1.24746E-06-1.01104E-18 3.86189E-18
 -1        64 7.26660E-05-2.17338E-05-2.26233E-05-4.23453E-07 6.98207E-20-5.06407E-19
 -1        65 7.15349E-05-2.14119E-05-2.21657E-05 6.10622E-07-1.01988E-19-1.00929E-18
 -1        66 7.90116E-05-2.37129E-05-2.38951E-05 1.14576E-06 1.59879E-19-1.26785E-18
 -1        67 8.91450E-05-2.67881E-05-2.64647E-05 9.67479E-07 6.61647E-19-2.66021E-19
 -1        68 9.62348E-05-2.89088E-05-2.84446E-05 4.21525E-07 4.19917E-19-1.06999E-18
 -1        69 9.82239E-05-2.94847E-05-2.91801E-05-5.40891E-08 5.42377E-19-5.61950E-19
 -1        70 9.67003E-05-2.89946E-05-2.89662E-05-1.71923E-07-1.32750E-19 4.47568E-19
 -1        71 9.49628E-05-2.84019E-05-2.85096E-05 3.62480E-08-4.97424E-19-7.99708E-19
 -1        72 1.02186E-04-3.05895E-05-3.41523E-05-1.92927E-06 2.68112E-19 1.63917E-17
 -1        73 9.25732E-05-2.75168E-05-2.89111E-05-3.33302E-07 1.39976E-19 1.21143E-17
 -1        74 8.91226E-05-2.67063E-05-2.69772E-05-1.25979E-07 1.18925E-19 9.02400E-18
 -1        75 8.80651E-05-2.64450E-05-2.64415E-05-9.56425E-08-1.14565E-20 7.11821E-18
 -1        76 8.80996E-05-2.64535E-05-2.64174E-05-7.66623E-08 1.15019E-19 5.68300E-18
 -1        77 8.86361E-05-2.66054E-05-2.65784E-05-6.26353E-08 1.25989E-19 4.11857E-18
 -1        78 8.93918E-05-2.68260E-05-2.68073E-05-5.18848E-08-1.14285E-19 3.93181E-18
 -1        79 9.02164E-05-2.70700E-05-2.70554E-05-4.30305E-08 5.85851E-21 3.13903E-18
 -1        80 9.10252E-05-2.73107E-05-2.72984E-05-3.54272E-08-9.02776E-21 2.20865E-18
 -1        81 9.17714E-05-2.75334E-05-2.75227E-05-2.88034E-08 4.04536E-20 1.67087E-18
 -1        82 9.24315E-05-2.77307E-05-2.77214E-05-2.30417E-08 7.31525E-20 1.01813E-18
 -1        83 9.29967E-05-2.78998E-05-2.78918E-05-1.80661E-08-2.46607E-20 7.09349E-19
 -1        84 9.34679E-05-2.80409E-05-2.80341E-05-1.38030E-08 1.45885E-19-1.77963E-19
 -1        85 9.38520E-05-2.81559E-05-2.81503E-05-1.01721E-08-2.01909E-20-1.14001E-18
 -1        86 9.41594E-05-2.82481E-05-2.82435E-05-7.08579E-09 3.98315E-20-2.07073E-18
 -1        87 9.44026E-05-2.83211E-05-2.83174E-05-4.45407E-09-1.12594E-19-1.97515E-18
 -1        88 9.45956E-05-2.83791E-05-2.83762E-05-2.18987E-09-2.46077E-19-9.59352E-19
 -1        89 9.47531E-05-2.84265E-05-2.84243E-05-2.15651E-10 2.94543E-19-1.25343E-18
 -1        90 9.48911E-05-2.84681E-05-2.84667E-05 1.52968E-09-5.15718E-20-2.13630E-18
 -1        91 9.50269E-05-2.85091E-05-2.85084E-05 3.08281E-09 8.06788E-20-3.45205E-18
 -1        92 9.51799E-05-2.85553E-05-2.85555E-05 4.44633E-09-2.73113E-19-2.66639E-18
 -1        93 9.53720E-05-2.86132E-05-2.86145E-05 5.57621E-09 1.72208E-19-1.81035E-18
 -1        94 9.56287E-05-2.86905E-05-2.86931E-05 6.36548E-09-1.78681E-20-3.59919E-18
 -1        95 9.59795E-05-2.87960E-05-2.88003E-05 6.62327E-09 1.73821E-19-3.85450E-18
 -1        96 9.64579E-05-2.89397E-05-2.89461E-05 6.04906E-09 1.45658E-19-2.58740E-18
 -1        97 9.71013E-05-2.91327E-05-2.91417E-05 4.20378E-09-2.04296E-19-2.06412E-18
 -1        98 9.79489E-05-2.93866E-05-2.93988E-05 4.83761E-10-3.04762E-20-1.36264E-18
 -1        99 9.90380E-05-2.97124E-05-2.97282E-05-5.88733E-09-2.88012E-19-3.17935E-18
 -1       100 1.00397E-04-3.01183E-05-3.01376E-05-1.58161E-08-4.38859E-20-4.00666E-18
 -1       101 1.02031E-04-3.06062E-05-3.06279E-05-3.01828E-08-1.66697E-19-4.68649E-18
 -1       102 1.03910E-04-3.11662E-05-3.11875E-05-4.94599E-08 8.49132E-21-5.65505E-18
 -1       103 1.05932E-04-3.17688E-05-3.17839E-05-7.29453E-08-1.64945E-19-5.62918E-18
 -1       104 1.07900E-04-3.23553E-05-3.23542E-05-9.74490E-08-4.25082E-20-3.93831E-18
 -1       105 1.09480E-04-3.28278E-05-3.27958E-05-1.15469E-07-1.20428E-19-3.53329E-18
 -1       106 1.10189E-04-3.30439E-05-3.29638E-05-1.13545E-07-2.41024E-20-4.39373E-18
 -1       107 1.09423E-04-3.28247E-05-3.26846E-05-7.28795E-08 3.47389E-19-6.67202E-18
 -1       108 1.06584E-04-3.19910E-05-3.17978E-05 2.40883E-08-9.59943E-21-8.29294E-18
 -1       109 1.01335E-04-3.04357E-05-3.02313E-05 1.78295E-07 1.51513E-19-5.97723E-18
 -1       110 9.39410E-05-2.82267E-05-2.80900E-05 3.54823E-07-1.76036E-19-5.73153E-18
 -1       111 8.55244E-05-2.56894E-05-2.57067E-05 4.78863E-07-2.61010E-19-5.46439E-18
 -1       112 7.79426E-05-2.33817E-05-2.35883E-05 4.68462E-07-5.08254E-19-1.93278E-18
 -1       113 7.31367E-05-2.19043E-05-2.22391E-05 2.97807E-07 6.29805E-19-2.76982E-18
 -1       114 7.21998E-05-2.16079E-05-2.19361E-05 3.49872E-08 6.38352E-20-4.89439E-18
 -1       115 7.48161E-05-2.24051E-05-2.26044E-05-1.97377E-07 2.52978E-19-6.38729E-18
 -1       116 7.95326E-05-2.38469E-05-2.38834E-05-3.09380E-07 3.39438E-19-9.05734E-18
 -1       117 8.46540E-05-2.54036E-05-2.53345E-05-2.99693E-07-3.12555E-20-1.20280E-17
 -1       118 8.90745E-05-2.67319E-05-2.66388E-05-2.41843E-07 3.03061E-19-1.14476E-17
 -1       119 9.24632E-05-2.77394E-05-2.76457E-05-2.12747E-07-3.64588E-20-9.00536E-18
 -1       120 9.46964E-05-2.84613E-05-2.82783E-05-1.86680E-07 9.09359E-19-6.05904E-18
 -1       121 9.53976E-05-2.92118E-05-2.82930E-05-2.37257E-07-3.69101E-18 9.43146E-19
 -1       122 9.60170E-05-3.12779E-05-2.77714E-05-3.21991E-07 3.07388E-18-6.46394E-19
 -1       123 9.64536E-05-3.27664E-05-2.74907E-05-2.54058E-07 4.18232E-18 7.22910E-19
 -1       124 9.60498E-05-3.14234E-05-2.80530E-05-2.09661E-08 5.69050E-18 2.06987E-18
 -1       125 9.42291E-05-2.52797E-05-2.99948E-05 3.91345E-07 8.20730E-18-2.34499E-19
 -1       126 9.07461E-05-1.35671E-05-3.34591E-05 8.68000E-07 7.22911E-18 1.17673E-18
 -1       127 8.58080E-05 3.01021E-06-3.81513E-05 1.25186E-06 7.41106E-18 9.45773E-19
 -1       128 8.06203E-05 2.03453E-05-4.28889E-05 1.21011E-06 6.69130E-18-3.72046E-19
 -1       129 7.70002E-05 3.23977E-05-4.61089E-05 5.87651E-07 9.39354E-18 1.47521E-18
 -1       130 7.64667E-05 3.41816E-05-4.66008E-05-3.53968E-07 6.31047E-18-2.71195E-18
 -1       131 7.91835E-05 2.51450E-05-4.42307E-05-1.08399E-06 1.07134E-18-7.02581E-19
 -1       132 8.37820E-05 9.79554E-06-4.00877E-05-1.23374E-06-5.66834E-18 1.58528E-18
 -1       133 8.86130E-05-6.39132E-06-3.55546E-05-9.20940E-07-2.36370E-18 4.34412E-19
 -1       134 9.22839E-05-1.87974E-05-3.19148E-05-4.71155E-07 3.02301E-18 5.40189E-19
 -1       135 9.44033E-05-2.58389E-05-2.96836E-05-2.24109E-07 1.31723E-18-2.06082E-18
 -1       136 9.50525E-05-2.83362E-05-2.86938E-05 2.96978E-07-1.35711E-18-2.44366E-20
 -1       137 3.00209E-05-1.02715E-04 1.84262E-05-2.70408E-05-1.72803E-17-2.77080E-18
 -1       138 9.20820E-06-3.83868E-05 3.86113E-06-1.92564E-05-7.30693E-18-2.91464E-18
 -1       139 1.83384E-05 1.81284E-05-1.84109E-05 3.38501E-05 1.63901E-18 2.73973E-18
 -1       140 8.15124E-05 2.62338E-05-4.27579E-05 9.65387E-05 9.43341E-18 1.36715E-17
 -1       141 1.79463E-04-1.17653E-05-6.33893E-05 1.25866E-04 8.90592E-18 1.63007E-17
 -1       142 2.79137E-04-6.84377E-05-7.81708E-05 9.69392E-05 3.54557E-18 1.32764E-17
 -1       143 3.29839E-04-1.01314E-04-8.44813E-05 1.67699E-05 1.11917E-18 1.73552E-18
 -1       144 3.03001E-04-8.59518E-05-8.07389E-05-6.67639E-05 4.96189E-19-6.75297E-18
 -1       145 2.15630E-04-3.55893E-05-6.81238E-05-1.14199E-04 3.38538E-18-8.64397E-18
 -1       146 1.12826E-04 1.32620E-05-4.96123E-05-1.07445E-04 6.57086E-18-1.03414E-17
 -1       147 3.60973E-05 2.81868E-05-2.81853E-05-5.93143E-05 1.07459E-17-9.92045E-18
 -1       148 6.26075E-06-1.80189E-09-7.98669E-06-5.41237E-06 9.85353E-18-7.35733E-18
 -1       149 1.31514E-05-5.59031E-05 9.20761E-06 2.65158E-05 1.47553E-18-4.08905E-19
 -1       150 3.29820E-05-1.07237E-04 2.02882E-05 1.98950E-05-1.81138E-18 5.71271E-19
 -1       151 3.92116E-05-1.22632E-04 2.34446E-05-8.13817E-06 4.44375E-19 4.59727E-19
 -1       152 2.39869E-05-9.00989E-05 1.71865E-05-3.17599E-05-3.81250E-18-1.65537E-18
 -1       153 6.27943E-06-3.13545E-05 2.64736E-06-1.84494E-05-6.84911E-18-3.59841E-18
 -1       154 1.91391E-05 1.68961E-05-1.87108E-05 3.22947E-05-5.55865E-18-4.80606E-18
 -1       155 7.92101E-05 1.98326E-05-4.04890E-05 8.78512E-05-6.20282E-18-7.83717E-18
 -1       156 1.77630E-04-1.82172E-05-6.09774E-05 1.14295E-04-4.77282E-18-1.05155E-17
 -1       157 3.33377E-04-1.02851E-04-8.46338E-05 1.60683E-05-1.01747E-18-4.67234E-18
 -1       158 3.17583E-04-9.05503E-05-8.32709E-05-6.89779E-05 7.34713E-19-1.06514E-19
 -1       159 2.33257E-04-3.89443E-05-7.22302E-05-1.24532E-04 4.97526E-19-2.74523E-18
 -1       160 1.29567E-04 1.25521E-05-5.45407E-05-1.20653E-04-6.07323E-19 7.68682E-19
 -1       161 4.56359E-05 3.26123E-05-3.28902E-05-7.26173E-05-4.59346E-18 4.07465E-18
 -1       162 8.54399E-06 6.78602E-06-1.15390E-05-1.32296E-05-1.58776E-18 2.12775E-18
 -1       163 1.19911E-05-5.17632E-05 7.12291E-06 2.63759E-05-6.83979E-19 1.39697E-18
 -1       164 3.34559E-05-1.10751E-04 1.98078E-05 2.83182E-05-6.10880E-18-4.05041E-19
 -1       165 9.48742E-05-1.23483E-05-3.55712E-05-2.23478E-05-2.54566E-18 1.35689E-18
 -1       166 8.92539E-05-8.45901E-06-3.47884E-05-1.73873E-05-2.40536E-18-1.39921E-18
 -1       167 8.65392E-05-6.49801E-06-3.44156E-05-1.35857E-05-1.97591E-18-3.02727E-18
 -1       168 8.51941E-05-5.51747E-06-3.42314E-05-1.03647E-05-1.53130E-18-3.84634E-18
 -1       169 8.44440E-05-4.94223E-06-3.41415E-05-7.54425E-06-1.06272E-18-4.13895E-18
 -1       170 8.40163E-05-4.59805E-06-3.40981E-05-4.90231E-06-6.50285E-19-4.27218E-18
 -1       171 8.37975E-05-4.41379E-06-3.40797E-05-2.39443E-06-1.46436E-19-4.41174E-18
 -1       172 8.37328E-05-4.35798E-06-3.40749E-05 5.11487E-08 1.95096E-19-4.40464E-18
 -1       173 8.38074E-05-4.42221E-06-3.40805E-05 2.49877E-06 5.55260E-19-4.37565E-18
 -1       174 8.40384E-05-4.61748E-06-3.40995E-05 5.01303E-06 9.04465E-19-4.22298E-18
 -1       175 8.44725E-05-4.97083E-06-3.41418E-05 7.62167E-06 1.29808E-18-3.84758E-18
 -1       176 8.52502E-05-5.57376E-06-3.42320E-05 1.05104E-05 1.81816E-18-3.34341E-18
 -1       177 8.66484E-05-6.60854E-06-3.44190E-05 1.37810E-05 2.34642E-18-2.42991E-18
 -1       178 8.93956E-05-8.60087E-06-3.47933E-05 1.76207E-05 2.67437E-18-7.08953E-19
 -1       179 9.57855E-05-1.36154E-05-3.54272E-05 2.18920E-05 2.57270E-18 2.53520E-18
 -1       180 1.05612E-04-2.61044E-05-3.52650E-05 1.86617E-05 1.93260E-18 6.95160E-18
 -1       181 1.03406E-04-2.73036E-05-3.26130E-05-1.21247E-05-2.27550E-18 4.54515E-18
 -1       182 9.71185E-05-2.82934E-05-2.95318E-05-4.72861E-06-1.94319E-18 3.40868E-18
 -1       183 9.35188E-05-2.76404E-05-2.81856E-05-1.76732E-06-1.38775E-18 2.39221E-18
 -1       184 9.19847E-05-2.74093E-05-2.76398E-05-4.19240E-07-1.08480E-18 1.50137E-18
 -1       185 9.14106E-05-2.73349E-05-2.74427E-05 2.45356E-07-7.03826E-19 7.82402E-19
 -1       186 9.13703E-05-2.73744E-05-2.74182E-05 5.71076E-07-5.19710E-19 4.45911E-19
 -1       187 9.16152E-05-2.74775E-05-2.74836E-05 7.09404E-07-7.47896E-19 1.79458E-19
 -1       188 9.19997E-05-2.76101E-05-2.75938E-05 7.39532E-07-7.73028E-19-8.90661E-20
 -1       189 9.24367E-05-2.77506E-05-2.77221E-05 7.07322E-07-5.95051E-19-1.91317E-19
 -1       190 9.28741E-05-2.78862E-05-2.78521E-05 6.41205E-07-2.79373E-19-8.75746E-20
 -1       191 9.32823E-05-2.80098E-05-2.79744E-05 5.59406E-07-1.48094E-20-9.47501E-19
 -1       192 9.36461E-05-2.81179E-05-2.80842E-05 4.73691E-07-3.24117E-19-1.34151E-18
 -1       193 9.39598E-05-2.82098E-05-2.81793E-05 3.91583E-07-2.65122E-19-1.30440E-18
 -1       194 9.42241E-05-2.82860E-05-2.82598E-05 3.17804E-07-3.80559E-19-1.89217E-18
 -1       195 9.44436E-05-2.83484E-05-2.83270E-05 2.55292E-07-7.46143E-19-2.11029E-18
 -1       196 9.46258E-05-2.83993E-05-2.83832E-05 2.05955E-07-2.60886E-19-2.14030E-18
 -1       197 9.47803E-05-2.84416E-05-2.84311E-05 1.71244E-07 1.19845E-19-2.63115E-18
 -1       198 9.49181E-05-2.84786E-05-2.84741E-05 1.52609E-07 1.70151E-19-2.73256E-18
 -1       199 9.50518E-05-2.85138E-05-2.85161E-05 1.51874E-07 5.03369E-19-2.53951E-18
 -1       200 9.51962E-05-2.85515E-05-2.85615E-05 1.71553E-07 4.55711E-19-1.92250E-18
 -1       201 9.53682E-05-2.85964E-05-2.86156E-05 2.15129E-07 7.18872E-19-1.50821E-18
 -1       202 9.55880E-05-2.86542E-05-2.86846E-05 2.87316E-07-1.72379E-19-1.08748E-18
 -1       203 9.58797E-05-2.87317E-05-2.87759E-05 3.94290E-07-5.94413E-19-4.56037E-19
 -1       204 9.62722E-05-2.88372E-05-2.88984E-05 5.43892E-07-1.49374E-19-1.20117E-18
 -1       205 9.68005E-05-2.89804E-05-2.90627E-05 7.45724E-07-7.93172E-19-1.00042E-18
 -1       206 9.75061E-05-2.91735E-05-2.92816E-05 1.01103E-06-7.68947E-20-1.70979E-18
 -1       207 9.84375E-05-2.94306E-05-2.95698E-05 1.35211E-06 1.36672E-19-2.89983E-18
 -1       208 9.96499E-05-2.97687E-05-2.99438E-05 1.78066E-06 4.66747E-19-2.44680E-18
 -1       209 1.01202E-04-3.02068E-05-3.04209E-05 2.30421E-06 1.02708E-18-1.83638E-18
 -1       210 1.03152E-04-3.07663E-05-3.10168E-05 2.91879E-06 5.92162E-19-5.04009E-19
 -1       211 1.05540E-04-3.14690E-05-3.17407E-05 3.59526E-06 9.73873E-20 2.84850E-19
 -1       212 1.08373E-04-3.23345E-05-3.25873E-05 4.25553E-06-5.93587E-19 1.66450E-19
 -1       213 1.11582E-04-3.33732E-05-3.35229E-05 4.73600E-06-2.11488E-19 7.31757E-19
 -1       214 1.14967E-04-3.45722E-05-3.44677E-05 4.74199E-06 1.04583E-18 1.92332E-18
 -1       215 1.18126E-04-3.58629E-05-3.52767E-05 3.81883E-06 7.06520E-19 7.23065E-19
 -1       216 1.20386E-04-3.70568E-05-3.57371E-05 1.41250E-06 1.60404E-19 1.07213E-18
 -1       217 1.20787E-04-3.77458E-05-3.56097E-05-2.84485E-06 3.56647E-19 1.22353E-18
 -1       218 1.18274E-04-3.72474E-05-3.47359E-05-8.51533E-06 1.34122E-19 3.26768E-18
 -1       219 1.12273E-04-3.48472E-05-3.31869E-05-1.36481E-05 2.59007E-20 2.89634E-18
 -1       220 1.03700E-04-3.06184E-05-3.13386E-05-1.49776E-05-1.52974E-18 1.22850E-18
 -1       221 9.56046E-05-2.63378E-05-2.97311E-05-1.02666E-05-1.87945E-18-1.22773E-19
 -1       222 9.16462E-05-2.45922E-05-2.87891E-05-1.33579E-06-6.73021E-19-1.19914E-18
 -1       223 9.30047E-05-2.62606E-05-2.86290E-05 6.38524E-06-2.93073E-19-1.17887E-18
 -1       224 9.71838E-05-2.94165E-05-2.90375E-05 8.62075E-06 1.47222E-18-2.72791E-19
 -1       225 1.00581E-04-3.15455E-05-2.95785E-05 5.75754E-06 3.50377E-19 1.02901E-21
 -1       226 1.01360E-04-3.17335E-05-2.98380E-05 1.16101E-06 1.69992E-19-3.82226E-19
 -1       227 9.97316E-05-3.04226E-05-2.97083E-05-1.98363E-06 2.72764E-19-1.48637E-18
 -1       228 9.70720E-05-2.86541E-05-2.93234E-05-2.22022E-06 4.73665E-19-3.09680E-19
 -1       229 9.95102E-05-2.85573E-05-3.05899E-05 7.20964E-06 2.05110E-18 5.88782E-18
 -1       230 9.44276E-05-2.77941E-05-2.85278E-05 2.74202E-06 1.50502E-18 4.35427E-18
 -1       231 9.21096E-05-2.74049E-05-2.76855E-05 9.27922E-07 9.34605E-19 3.12302E-18
 -1       232 9.11630E-05-2.72429E-05-2.73674E-05 6.56756E-08 9.08804E-19 2.32709E-18
 -1       233 9.09535E-05-2.72365E-05-2.72938E-05-3.62409E-07 7.41282E-19 1.82510E-18
 -1       234 9.11392E-05-2.73231E-05-2.73430E-05-5.63170E-07 1.16052E-19 1.37337E-18
 -1       235 9.15246E-05-2.74567E-05-2.74541E-05-6.35884E-07 5.55149E-19 8.20823E-19
 -1       236 9.19946E-05-2.76081E-05-2.75923E-05-6.34547E-07 4.60948E-19 3.40587E-19
 -1       237 9.24809E-05-2.77595E-05-2.77368E-05-5.91325E-07 7.89979E-20-1.80357E-19
 -1       238 9.29437E-05-2.79007E-05-2.78752E-05-5.26479E-07 2.36661E-19 8.21031E-20
 -1       239 9.33617E-05-2.80263E-05-2.80008E-05-4.53049E-07 3.90943E-19-1.00368E-19
 -1       240 9.37255E-05-2.81345E-05-2.81106E-05-3.79423E-07 5.41012E-19-3.59521E-19
 -1       241 9.40337E-05-2.82251E-05-2.82039E-05-3.10917E-07 6.15443E-19-6.34314E-19
 -1       242 9.42897E-05-2.82996E-05-2.82817E-05-2.50838E-07 3.86102E-19-1.41474E-18
 -1       243 9.45006E-05-2.83603E-05-2.83460E-05-2.01245E-07-2.59220E-19-1.03714E-18
 -1       244 9.46756E-05-2.84100E-05-2.83997E-05-1.63516E-07-3.92200E-19-1.31423E-18
 -1       245 9.48254E-05-2.84520E-05-2.84458E-05-1.38777E-07 4.74912E-19-1.25800E-18
 -1       246 9.49623E-05-2.84898E-05-2.84881E-05-1.28228E-07 6.11375E-19-1.06556E-18
 -1       247 9.51002E-05-2.85276E-05-2.85309E-05-1.33385E-07 2.96543E-19-1.00749E-18
 -1       248 9.52548E-05-2.85698E-05-2.85789E-05-1.56241E-07-3.98690E-19-1.31481E-18
 -1       249 9.54436E-05-2.86217E-05-2.86374E-05-1.99344E-07-1.33230E-19-1.49532E-18
 -1       250 9.56872E-05-2.86892E-05-2.87127E-05-2.65757E-07 6.44895E-19-1.63722E-18
 -1       251 9.60083E-05-2.87792E-05-2.88116E-05-3.58868E-07 3.70007E-19-2.83666E-18
 -1       252 9.64328E-05-2.88994E-05-2.89419E-05-4.81955E-07-6.68528E-19-2.90425E-18
 -1       253 9.69882E-05-2.90583E-05-2.91118E-05-6.37402E-07-5.03367E-19-2.18318E-18
 -1       254 9.77024E-05-2.92649E-05-2.93293E-05-8.25380E-07-1.78523E-19-1.08656E-18
 -1       255 9.86002E-05-2.95279E-05-2.96016E-05-1.04177E-06 8.88543E-19-1.81552E-19
 -1       256 9.96981E-05-2.98543E-05-2.99327E-05-1.27507E-06 3.48588E-19-1.36900E-18
 -1       257 1.00996E-04-3.02471E-05-3.03212E-05-1.50200E-06 1.51435E-19-2.38075E-18
 -1       258 1.02463E-04-3.07022E-05-3.07560E-05-1.68190E-06 1.41052E-19-3.66394E-18
 -1       259 1.04024E-04-3.12033E-05-3.12116E-05-1.75072E-06-3.26889E-19-2.24298E-18
 -1       260 1.05538E-04-3.17153E-05-3.16421E-05-1.61698E-06-4.05626E-19-2.95946E-18
 -1       261 1.06780E-04-3.21763E-05-3.19772E-05-1.16544E-06 6.34528E-19-2.39807E-18
 -1       262 1.07435E-04-3.24895E-05-3.21223E-05-2.78033E-07-3.49350E-19-3.05914E-18
 -1       263 1.07118E-04-3.25209E-05-3.19698E-05 1.11537E-06 1.34684E-18-3.02938E-18
 -1       264 1.05448E-04-3.21116E-05-3.14256E-05 2.94994E-06-4.87871E-19-2.58780E-18
 -1       265 1.02199E-04-3.11236E-05-3.04536E-05 4.92484E-06-1.46969E-18-7.74949E-19
 -1       266 9.74968E-05-2.95295E-05-2.91233E-05 6.46434E-06 1.92669E-19 2.49610E-19
 -1       267 9.19949E-05-2.75238E-05-2.76328E-05 6.85955E-06-8.45036E-19-2.63791E-19
 -1       268 8.68414E-05-2.55640E-05-2.62741E-05 5.63831E-06-6.03835E-19 4.88725E-19
 -1       269 8.33110E-05-2.42312E-05-2.53367E-05 2.98322E-06 1.80970E-18-8.63023E-19
 -1       270 8.21993E-05-2.39118E-05-2.49910E-05-1.95190E-07 2.87495E-20-3.15918E-19
 -1       271 8.33996E-05-2.45470E-05-2.52204E-05-2.74063E-06 1.54369E-18-1.33578E-18
 -1       272 8.60252E-05-2.56905E-05-2.58459E-05-3.94652E-06 1.64623E-18-2.21395E-18
 -1       273 8.89758E-05-2.68221E-05-2.66249E-05-3.88447E-06 8.74511E-19-2.58779E-18
 -1       274 9.14895E-05-2.76464E-05-2.73539E-05-3.16031E-06-1.01853E-19-1.96928E-18
 -1       275 9.33112E-05-2.81822E-05-2.79057E-05-2.34452E-06-1.03036E-18-2.41379E-18
 -1       276 9.46035E-05-2.86839E-05-2.82290E-05-1.45758E-06-8.84086E-19-2.82655E-20
 -1       277 9.53817E-05-2.95966E-05-2.81782E-05-1.87422E-06-8.79429E-19 4.44665E-18
 -1       278 9.62603E-05-3.04335E-05-2.81889E-05-1.16555E-06 7.14158E-19 1.88413E-18
 -1       279 9.67731E-05-3.01252E-05-2.85416E-05 1.55942E-06 2.47407E-18 2.05275E-18
 -1       280 9.64897E-05-2.75895E-05-2.95095E-05 6.10070E-06 2.55271E-18 1.69158E-18
 -1       281 9.49200E-05-2.20869E-05-3.12069E-05 1.14755E-05 2.78699E-18-6.82173E-19
 -1       282 9.16306E-05-1.33139E-05-3.35728E-05 1.59224E-05 2.47681E-18 1.53177E-19
 -1       283 8.69185E-05-2.64917E-06-3.61315E-05 1.66376E-05 3.49136E-18 7.05125E-19
 -1       284 8.22573E-05 6.85627E-06-3.82032E-05 1.15946E-05 4.59404E-18 1.09869E-19
 -1       285 7.99390E-05 1.14243E-05-3.91623E-05 1.73824E-06 2.59439E-18-2.78770E-18
 -1       286 8.12983E-05 9.02993E-06-3.87236E-05-8.66572E-06 1.53141E-18-3.25994E-18
 -1       287 8.53293E-05 1.20045E-06-3.71009E-05-1.49084E-05-1.39648E-18-4.18937E-18
 -1       288 8.99608E-05-8.81634E-06-3.47902E-05-1.55127E-05-1.18406E-18 2.11748E-18
 -1       289 9.33844E-05-1.75969E-05-3.24800E-05-1.19528E-05 1.93732E-19 4.81809E-18
 -1       290 9.51341E-05-2.35684E-05-3.06716E-05-6.94780E-06 4.35049E-19-5.41410E-19
 -1       291 9.65392E-05-2.68960E-05-2.98304E-05-4.53358E-06-2.28686E-19-2.56003E-18
 -1       292 1.46553E-05-4.85160E-05 1.17898E-05 1.38501E-05-5.73685E-18-8.48198E-19
 -1       293 3.35747E-05-5.11308E-05 4.65620E-06 2.89226E-05-7.43822E-18 3.17129E-18
 -1       294 7.22741E-05-4.75884E-05-1.17172E-05 4.66073E-05-4.22860E-18 6.46058E-18
 -1       295 1.14216E-04-4.19709E-05-3.08846E-05 4.93285E-05-1.54732E-18 7.56295E-18
 -1       296 1.56493E-04-3.85832E-05-4.93813E-05 4.20560E-05 1.20379E-18 3.49401E-18
 -1       297 1.91862E-04-3.34033E-05-6.52327E-05 3.94978E-05 4.08934E-18 3.81864E-18
 -1       298 2.09569E-04-3.12985E-05-7.34744E-05 1.72138E-05 5.49576E-18 8.15057E-19
 -1       299 2.24199E-04-3.86407E-05-7.57931E-05-4.98783E-06 4.10567E-18 3.27272E-19
 -1       300 1.99488E-04-3.49383E-05-6.78582E-05-2.33006E-05 2.19826E-18-2.90426E-18
 -1       301 1.66491E-04-3.44772E-05-5.47813E-05-4.14520E-05 4.29673E-18-4.04734E-18
 -1       302 1.23179E-04-3.44611E-05-3.75295E-05-4.65515E-05 5.18892E-18-5.51800E-18
 -1       303 7.86017E-05-3.53244E-05-1.94599E-05-4.21612E-05 3.80297E-18-5.47247E-18
 -1       304 4.66799E-05-4.35312E-05-3.38427E-06-3.23413E-05 1.56002E-18-6.49039E-18
 -1       305 2.30552E-05-5.18269E-05 9.23382E-06-1.79772E-05 1.64324E-19-1.69640E-18
 -1       306 1.06999E-05-4.73798E-05 1.34343E-05-7.69676E-06-1.03994E-18 9.82241E-19
 -1       307 1.51713E-05-5.43321E-05 1.36228E-05 7.85376E-06-1.99349E-18-3.05684E-18
 -1       308 3.47891E-05-4.90567E-05 3.90729E-06 2.50380E-05-2.00344E-18-1.64817E-18
 -1       309 6.51219E-05-4.37057E-05-1.08187E-05 3.37224E-05-2.78631E-18-1.76522E-18
 -1       310 1.08464E-04-4.01834E-05-2.95176E-05 4.03820E-05-3.09040E-18-4.68452E-18
 -1       311 1.52115E-04-3.71428E-05-4.79074E-05 4.14838E-05-2.45153E-18-5.59359E-18
 -1       312 1.92587E-04-3.88300E-05-6.32472E-05 2.72238E-05-3.66381E-18-4.75143E-18
 -1       313 2.21774E-04-4.04000E-05-7.38368E-05 1.07698E-05-2.08847E-18-4.95123E-18
 -1       314 2.19271E-04-3.44554E-05-7.55933E-05-1.23233E-05-2.02674E-18-4.29898E-18
 -1       315 2.12157E-04-3.65521E-05-7.14280E-05-3.58542E-05 1.31936E-18-8.61009E-19
 -1       316 1.77054E-04-3.47636E-05-5.85442E-05-4.63314E-05 1.25575E-18-1.93145E-18
 -1       317 1.34325E-04-3.37753E-05-4.20157E-05-5.38757E-05 6.24687E-20-3.83282E-18
 -1       318 9.10874E-05-3.79480E-05-2.34768E-05-4.84212E-05 9.90393E-19-8.28610E-19
 -1       319 5.52052E-05-4.59555E-05-6.28037E-06-3.73210E-05-5.46336E-20 4.70580E-19
 -1       320 2.92215E-05-5.43748E-05 7.14130E-06-2.30048E-05-3.86353E-18-2.31198E-18
 -1       321 1.57687E-05-5.99950E-05 1.46660E-05-7.19975E-06-7.47729E-18-5.53335E-18
 -1       322 9.16539E-05-1.43981E-05-3.31725E-05-1.30605E-05-2.53775E-18-1.41742E-18
 -1       323 9.57061E-05-1.91024E-05-3.28933E-05-1.46283E-05-2.77397E-18 2.62858E-19
 -1       324 8.79963E-05-1.03702E-05-3.33236E-05-8.16018E-06-1.55746E-18-2.97168E-18
 -1       325 8.71872E-05-9.45408E-06-3.33626E-05-5.71748E-06-1.05646E-18-3.22575E-18
 -1       326 8.67259E-05-8.92287E-06-3.33891E-05-3.36585E-06-4.78644E-19-3.28067E-18
 -1       327 8.65201E-05-8.68262E-06-3.34024E-05-1.07214E-06 6.20933E-20-3.39207E-18
 -1       328 8.65287E-05-8.69212E-06-3.34021E-05 1.20304E-06 4.55299E-19-3.38572E-18
 -1       329 8.67531E-05-8.95317E-06-3.33879E-05 3.49890E-06 8.92489E-19-3.29937E-18
 -1       330 8.72258E-05-9.49733E-06-3.33609E-05 5.81311E-06 1.41593E-18-3.15557E-18
 -1       331 8.80664E-05-1.04493E-05-3.33198E-05 8.25166E-06 1.89131E-18-2.55407E-18
 -1       332 8.94832E-05-1.20330E-05-3.32596E-05 1.07604E-05 2.45956E-18-1.97234E-18
 -1       333 9.19051E-05-1.47228E-05-3.31593E-05 1.31657E-05 2.88565E-18-9.40901E-19
 -1       334 9.58106E-05-1.94591E-05-3.28299E-05 1.43728E-05 2.93281E-18 9.76265E-19
 -1       335 9.87992E-05-2.44467E-05-3.19535E-05 1.18955E-05 2.67962E-18 2.94232E-18
 -1       336 9.63992E-05-2.68150E-05-2.97923E-05 5.73848E-06 2.17067E-18 2.03385E-18
 -1       337 9.64452E-05-2.60313E-05-3.01329E-05-6.34710E-06-2.14846E-18 5.68156E-19
 -1       338 9.49258E-05-2.70292E-05-2.90732E-05-2.83254E-06-1.71875E-18 2.64775E-19
 -1       339 9.39503E-05-2.74267E-05-2.84953E-05-9.18353E-07-1.25025E-18 7.68124E-20
 -1       340 9.34325E-05-2.76408E-05-2.81896E-05 1.41054E-07-7.47167E-19-1.56051E-19
 -1       341 9.32410E-05-2.77946E-05-2.80456E-05 7.05015E-07-7.27248E-19-3.91481E-19
 -1       342 9.32581E-05-2.79246E-05-2.79991E-05 9.71758E-07-8.41706E-19-4.27049E-19
 -1       343 9.33968E-05-2.80396E-05-2.80102E-05 1.05814E-06-5.53499E-19-3.20024E-19
 -1       344 9.35976E-05-2.81409E-05-2.80533E-05 1.03686E-06-5.03839E-19-4.24348E-19
 -1       345 9.38213E-05-2.82281E-05-2.81121E-05 9.54821E-07-6.87075E-19-8.70281E-19
 -1       346 9.40439E-05-2.83012E-05-2.81762E-05 8.42831E-07-2.51204E-19-7.07970E-19
 -1       347 9.42513E-05-2.83611E-05-2.82395E-05 7.21188E-07-4.63939E-19-1.07726E-18
 -1       348 9.44370E-05-2.84088E-05-2.82985E-05 6.03183E-07-4.25126E-19-1.47042E-18
 -1       349 9.45993E-05-2.84459E-05-2.83521E-05 4.97477E-07-5.55129E-19-1.14829E-18
 -1       350 9.47401E-05-2.84743E-05-2.84001E-05 4.09805E-07-5.40902E-19-1.18618E-18
 -1       351 9.48634E-05-2.84957E-05-2.84437E-05 3.44242E-07-5.09736E-19-1.29757E-18
 -1       352 9.49755E-05-2.85119E-05-2.84846E-05 3.04174E-07 7.65747E-20-1.19167E-18
 -1       353 9.50840E-05-2.85251E-05-2.85253E-05 2.93069E-07 4.00497E-19-1.40464E-18
 -1       354 9.51980E-05-2.85370E-05-2.85688E-05 3.15094E-07 8.13810E-19-1.48492E-18
 -1       355 9.53283E-05-2.85501E-05-2.86187E-05 3.75631E-07 3.29435E-19-1.74019E-18
 -1       356 9.54875E-05-2.85668E-05-2.86795E-05 4.81712E-07 8.96558E-19-1.99692E-18
 -1       357 9.56905E-05-2.85900E-05-2.87562E-05 6.42375E-07-2.01184E-19-1.45393E-18
 -1       358 9.59546E-05-2.86233E-05-2.88547E-05 8.68932E-07-7.75890E-19-1.14814E-18
 -1       359 9.63000E-05-2.86708E-05-2.89818E-05 1.17508E-06-3.07327E-19-1.43586E-18
 -1       360 9.67501E-05-2.87381E-05-2.91453E-05 1.57668E-06-4.40693E-19-1.36600E-18
 -1       361 9.73313E-05-2.88320E-05-2.93534E-05 2.09099E-06-6.07963E-19-1.48023E-18
 -1       362 9.80728E-05-2.89620E-05-2.96146E-05 2.73470E-06 3.15620E-19-1.56421E-18
 -1       363 9.90062E-05-2.91422E-05-2.99367E-05 3.51988E-06 9.09519E-19-1.80644E-18
 -1       364 1.00165E-04-2.93940E-05-3.03247E-05 4.44620E-06 1.27148E-18-2.13652E-18
 -1       365 1.01582E-04-2.97531E-05-3.07784E-05 5.48681E-06 1.27731E-18-1.54807E-18
 -1       366 1.03295E-04-3.02787E-05-3.12882E-05 6.56446E-06 2.68784E-19 1.63890E-20
 -1       367 1.05340E-04-3.10675E-05-3.18301E-05 7.51398E-06-2.77031E-20 7.93632E-19
 -1       368 1.07765E-04-3.22644E-05-3.23625E-05 8.03079E-06 2.81784E-19 9.67305E-19
 -1       369 1.10612E-04-3.40489E-05-3.28273E-05 7.61675E-06 6.59726E-19 2.84699E-19
 -1       370 1.13873E-04-3.65425E-05-3.31674E-05 5.56691E-06 1.17223E-18 2.74657E-20
 -1       371 1.17324E-04-3.95457E-05-3.33675E-05 1.10863E-06 9.54715E-19 1.32946E-18
 -1       372 1.20194E-04-4.20665E-05-3.35227E-05-6.09471E-06 8.10836E-19 2.18523E-18
 -1       373 1.20926E-04-4.20378E-05-3.38568E-05-1.48634E-05 2.79258E-19 1.27343E-18
 -1       374 1.17715E-04-3.71860E-05-3.45776E-05-2.14158E-05-6.56750E-19 1.88813E-18
 -1       375 1.11056E-04-2.84056E-05-3.55227E-05-2.02016E-05-2.12754E-18 2.50358E-18
 -1       376 1.05323E-04-2.16590E-05-3.59903E-05-9.56994E-06-2.59899E-18 2.50000E-18
 -1       377 1.05190E-04-2.31062E-05-3.52880E-05 4.06309E-06-5.90753E-19 1.39079E-18
 -1       378 1.09194E-04-3.07686E-05-3.36863E-05 1.12214E-05 1.42854E-18 2.01130E-18
 -1       379 1.11752E-04-3.70080E-05-3.20827E-05 9.10131E-06 7.31522E-19 5.11330E-19
 -1       380 1.10453E-04-3.82211E-05-3.09838E-05 2.23155E-06-1.62854E-18 9.28603E-19
 -1       381 1.05982E-04-3.50600E-05-3.04285E-05-3.83417E-06-1.35267E-18 9.55476E-20
 -1       382 1.01071E-04-3.07705E-05-3.01204E-05-5.84046E-06-5.85803E-19-9.82666E-19
 -1       383 9.43805E-05-2.73441E-05-2.86917E-05 2.46590E-06 1.57231E-18 1.53573E-18
 -1       384 9.31752E-05-2.74642E-05-2.81400E-05 7.40801E-07 1.17695E-18 9.57796E-19
 -1       385 9.26221E-05-2.75421E-05-2.78815E-05-1.80494E-07 9.99320E-19 7.43307E-19
 -1       386 9.24811E-05-2.76351E-05-2.77870E-05-6.56047E-07 4.26686E-19 3.03946E-19
 -1       387 9.25839E-05-2.77446E-05-2.77867E-05-8.73301E-07 5.74593E-19-4.50114E-20
 -1       388 9.28190E-05-2.78610E-05-2.78388E-05-9.37265E-07 5.75721E-19 3.57383E-20
 -1       389 9.31144E-05-2.79751E-05-2.79171E-05-9.11038E-07 4.21085E-19-2.08947E-19
 -1       390 9.34249E-05-2.80806E-05-2.80053E-05-8.34584E-07 3.77107E-20-4.09977E-19
 -1       391 9.37236E-05-2.81740E-05-2.80935E-05-7.33838E-07 5.68431E-19-3.97531E-19
 -1       392 9.39956E-05-2.82540E-05-2.81758E-05-6.25730E-07 7.49467E-19-2.62612E-19
 -1       393 9.42347E-05-2.83206E-05-2.82496E-05-5.21247E-07 1.08250E-18-1.09949E-18
 -1       394 9.44398E-05-2.83750E-05-2.83142E-05-4.27450E-07 8.17016E-19-1.10492E-18
 -1       395 9.46142E-05-2.84187E-05-2.83700E-05-3.48905E-07-3.75683E-19-1.29538E-18
 -1       396 9.47633E-05-2.84539E-05-2.84187E-05-2.88728E-07-7.95591E-20-9.24853E-19
 -1       397 9.48947E-05-2.84829E-05-2.84624E-05-2.49370E-07 2.98665E-19-9.85311E-19
 -1       398 9.50176E-05-2.85083E-05-2.85040E-05-2.33205E-07 4.50828E-19-4.52435E-19
 -1       399 9.51424E-05-2.85330E-05-2.85467E-05-2.42962E-07 6.12520E-20-4.10916E-19
 -1       400 9.52815E-05-2.85601E-05-2.85944E-05-2.82007E-07 1.11460E-19-4.07212E-19
 -1       401 9.54486E-05-2.85936E-05-2.86514E-05-3.54468E-07-1.42325E-19-1.25978E-18
 -1       402 9.56596E-05-2.86377E-05-2.87226E-05-4.65173E-07 1.28078E-18-1.81291E-18
 -1       403 9.59323E-05-2.86977E-05-2.88134E-05-6.19320E-07 7.11724E-19-2.28929E-18
 -1       404 9.62863E-05-2.87798E-05-2.89296E-05-8.21764E-07-7.53952E-19-2.31022E-18
 -1       405 9.67429E-05-2.88913E-05-2.90772E-05-1.07576E-06-1.18681E-18-1.55666E-18
 -1       406 9.73235E-05-2.90411E-05-2.92615E-05-1.38088E-06-4.31985E-19-1.39148E-18
 -1       407 9.80477E-05-2.92390E-05-2.94870E-05-1.72986E-06 8.16850E-19-8.02465E-19
 -1       408 9.89302E-05-2.94966E-05-2.97550E-05-2.10390E-06 7.01600E-19-6.81139E-19
 -1       409 9.99757E-05-2.98257E-05-3.00626E-05-2.46636E-06 1.02071E-18-8.64081E-19
 -1       410 1.01172E-04-3.02380E-05-3.03997E-05-2.75472E-06 6.66873E-19-1.13073E-18
 -1       411 1.02478E-04-3.07411E-05-3.07464E-05-2.87229E-06-4.96453E-19-1.95425E-18
 -1       412 1.03818E-04-3.13327E-05-3.10699E-05-2.68295E-06-1.91372E-19-1.36477E-18
 -1       413 1.05057E-04-3.19880E-05-3.13242E-05-2.01645E-06-2.80773E-19-9.48164E-19
 -1       414 1.05999E-04-3.26384E-05-3.14528E-05-6.97347E-07 7.71081E-20-9.42105E-20
 -1       415 1.06368E-04-3.31432E-05-3.13976E-05 1.38549E-06 7.15963E-19 7.14271E-19
 -1       416 1.05838E-04-3.32688E-05-3.11167E-05 4.15749E-06-8.34751E-19 2.57515E-18
 -1       417 1.04099E-04-3.27136E-05-3.06060E-05 7.20767E-06-2.04696E-18 2.09281E-18
 -1       418 1.01032E-04-3.12399E-05-2.99158E-05 9.70772E-06 1.00311E-19 8.89767E-19
 -1       419 9.69435E-05-2.89202E-05-2.91494E-05 1.05751E-05-1.53775E-18 5.84458E-19
 -1       420 9.27120E-05-2.63437E-05-2.84327E-05 9.00139E-06-8.73365E-19 1.06824E-18
 -1       421 8.95646E-05-2.44876E-05-2.78737E-05 5.12952E-06 1.74471E-18 1.90142E-18
 -1       422 8.84142E-05-2.41171E-05-2.75354E-05 2.84687E-07 4.85472E-19 2.58969E-19
 -1       423 8.92447E-05-2.51892E-05-2.74317E-05-3.71258E-06 1.80981E-18-1.68083E-21
 -1       424 9.11625E-05-2.68935E-05-2.75288E-05-5.67373E-06 7.61481E-19 2.87229E-19
 -1       425 9.30644E-05-2.82949E-05-2.77538E-05-5.63158E-06 4.54710E-19 1.41305E-18
 -1       426 9.42825E-05-2.89391E-05-2.80072E-05-4.50152E-06 2.71721E-20 1.40948E-18
 -1       427 9.48415E-05-2.90715E-05-2.81899E-05-3.23496E-06-1.26585E-18 2.59687E-18
 -1       428 9.51702E-05-2.92617E-05-2.82419E-05-2.52154E-06-2.91942E-18 3.24661E-18
 -1       429 1.01058E-04-3.17708E-05-2.96603E-05 5.60263E-06-2.89861E-19 2.66375E-18
 -1       430 9.89122E-05-3.12386E-05-2.89901E-05 1.69505E-07-3.82670E-19 2.33424E-18
 -1       431 9.68231E-05-3.02371E-05-2.85273E-05-2.08757E-06-2.58184E-18 4.76618E-18
 -1       432 1.01877E-04-3.07578E-05-3.04438E-05 1.32649E-05-9.46630E-20-6.93654E-19
 -1       433 9.98231E-05-2.69578E-05-3.11973E-05 2.15583E-05-9.15118E-19-2.85554E-19
 -1       434 9.36537E-05-1.96421E-05-3.17017E-05 2.66860E-05 1.16120E-19 1.40321E-18
 -1       435 8.41801E-05-9.88139E-06-3.18243E-05 2.40682E-05 7.63977E-19 5.69186E-19
 -1       436 7.61536E-05-2.01449E-06-3.17492E-05 1.16035E-05 1.11330E-18-1.48531E-18
 -1       437 7.51746E-05-9.33904E-07-3.17902E-05-6.18012E-06 1.12671E-18-4.31463E-18
 -1       438 8.18067E-05-7.13699E-06-3.19849E-05-2.02278E-05-5.74441E-19-6.59882E-18
 -1       439 9.12386E-05-1.64548E-05-3.20333E-05-2.51990E-05-4.03879E-19 1.39478E-19
 -1       440 9.80589E-05-2.40401E-05-3.16937E-05-2.17070E-05 3.42105E-19 4.58603E-18
 -1       441 1.00475E-04-2.80092E-05-3.10150E-05-1.42834E-05-1.49455E-18 4.73156E-19
 -1       442 6.82939E-05-4.81403E-05-8.75090E-06 5.24247E-05-5.38978E-18 6.26264E-18
 -1       443 1.52724E-05-2.68660E-05 4.62953E-06-2.29905E-06-4.27786E-18-2.90448E-18
 -1       444 3.55159E-05-3.28059E-05-1.09041E-06 3.75670E-05-2.87917E-18 9.87005E-19
 -1       445 1.20414E-04-6.32990E-05-2.43183E-05 4.69036E-05-5.03307E-18 4.13379E-18
 -1       446 1.48929E-04-6.06921E-05-3.78802E-05 2.70477E-05-3.48168E-18 3.28649E-19
 -1       447 8.94241E-05-1.19256E-05-3.32762E-05-1.07570E-05-2.09509E-18-2.48614E-18
 -1       448 1.61449E-04-2.17992E-05-6.00911E-05 2.84788E-07 2.52871E-18-2.26899E-18
 -1       449 1.61906E-04-1.04331E-05-6.50313E-05 4.14835E-06 5.00713E-18-9.04505E-20
 -1       450 1.62840E-04-1.59180E-05-6.29991E-05 7.48497E-06 3.86067E-18-6.99808E-19
 -1       451 1.64558E-04-3.55188E-05-5.52511E-05-7.85961E-07 3.47681E-18-2.26952E-18
 -1       452 1.52064E-04-5.25627E-05-4.26676E-05-1.38864E-05 3.54669E-18-2.26941E-18
 -1       453 1.24938E-04-5.93725E-05-2.81764E-05-3.40264E-05 2.12394E-18-4.78542E-18
 -1       454 9.20679E-05-5.50177E-05-1.59377E-05-4.43273E-05 7.45283E-19-5.47437E-18
 -1       455 4.79573E-05-4.27268E-05-2.48467E-06-4.15743E-05 7.19766E-19-5.71673E-18
 -1       456 2.24496E-05-3.08899E-05 3.61289E-06-2.62641E-05-7.06214E-20-2.94863E-18
 -1       457 1.40607E-05-2.63428E-05 5.31175E-06 6.99167E-06-1.57927E-18-1.23127E-18
 -1       458 3.05181E-05-3.52218E-05 1.93495E-06 2.90603E-05-4.12611E-19-7.56612E-19
 -1       459 7.25774E-05-5.26297E-05-8.64498E-06 4.12557E-05 4.01917E-19-1.01962E-18
 -1       460 1.14476E-04-6.32623E-05-2.20378E-05 3.37300E-05-3.00061E-19-2.40229E-18
 -1       461 1.46701E-04-5.94388E-05-3.73976E-05 1.66545E-05-1.38696E-18-4.41008E-18
 -1       462 1.63990E-04-4.63073E-05-5.03177E-05 2.47594E-07-2.03497E-18-5.40936E-18
 -1       463 1.70602E-04-2.69211E-05-6.12370E-05-9.29983E-06-2.94905E-18-5.03212E-18
 -1       464 1.71870E-04-1.64439E-05-6.61713E-05-9.09772E-06-2.49314E-18-4.13993E-18
 -1       465 1.66477E-04-1.73426E-05-6.37456E-05-2.95862E-06-1.40269E-18-4.51135E-18
 -1       466 1.69008E-04-3.21025E-05-5.84271E-05-4.80571E-06 5.01973E-19-2.55486E-18
 -1       467 1.60225E-04-5.55309E-05-4.49711E-05-1.58654E-05 9.22988E-19-1.27267E-18
 -1       468 1.36524E-04-6.07837E-05-3.24629E-05-3.88957E-05 1.39273E-18-4.11446E-18
 -1       469 1.01598E-04-5.95736E-05-1.81853E-05-5.01149E-05 3.55330E-19-1.94000E-18
 -1       470 6.32522E-05-4.74007E-05-6.88649E-06-5.02584E-05-1.12698E-18-2.90591E-18
 -1       471 2.53658E-05-3.47169E-05 3.37086E-06-2.79389E-05-4.94625E-18-6.55222E-18
 -1       472 1.62047E-04-4.01914E-05-5.22951E-05 5.74163E-06 5.06949E-19-2.02843E-18
 -1       473 2.92333E-05-1.86775E-05-3.97124E-06 1.98666E-05-3.23614E-18 2.63957E-18
 -1       474 2.10533E-05-1.88470E-05-3.51368E-07-9.98019E-06-7.16378E-19-2.41849E-18
 -1       475 9.58253E-05-2.51498E-05-3.02753E-05 6.01402E-06 2.07019E-18 1.55810E-19
 -1       476 8.95352E-05-1.33991E-05-3.26486E-05-3.92198E-06-6.40736E-19-2.84777E-18
 -1       477 9.02460E-05-1.43648E-05-3.25408E-05-5.87677E-06-1.08646E-18-2.69642E-18
 -1       478 8.90362E-05-1.27185E-05-3.27253E-05 5.45611E-08 2.86330E-19-3.11912E-18
 -1       479 8.91720E-05-1.29022E-05-3.27051E-05 2.04483E-06 6.58314E-19-2.97250E-18
 -1       480 8.95675E-05-1.34399E-05-3.26453E-05 3.99699E-06 1.11223E-18-2.85182E-18
 -1       481 9.02921E-05-1.44267E-05-3.25349E-05 5.94959E-06 1.71566E-18-2.46000E-18
 -1       482 9.14435E-05-1.60072E-05-3.23529E-05 7.77713E-06 2.08046E-18-1.98700E-18
 -1       483 9.32335E-05-1.84784E-05-3.20580E-05 9.29220E-06 2.44310E-18-1.26307E-18
 -1       484 9.51188E-05-2.65796E-05-2.93560E-05 2.87012E-06 1.61376E-18 7.84887E-20
 -1       485 9.54837E-05-2.44354E-05-3.04395E-05-5.81272E-06-2.03020E-18-5.94273E-19
 -1       486 9.46332E-05-2.07707E-05-3.16761E-05-9.51280E-06-2.44403E-18-9.86861E-19
 -1       487 1.51157E-04-5.44118E-05-4.17691E-05 4.68694E-06-3.18641E-18-1.45811E-18
 -1       488 9.52734E-05-2.62191E-05-2.95864E-05-2.89304E-06-1.48735E-18-4.73048E-19
 -1       489 9.49187E-05-2.71544E-05-2.90373E-05-1.03172E-06-1.04364E-18-2.56367E-19
 -1       490 9.46454E-05-2.76892E-05-2.86935E-05 9.23599E-08-8.52586E-19-4.01479E-19
 -1       491 9.44907E-05-2.80180E-05-2.84875E-05 7.28146E-07-8.53926E-19-4.44662E-19
 -1       492 9.44361E-05-2.82312E-05-2.83733E-05 1.04606E-06-7.02371E-19-4.36931E-19
 -1       493 9.44516E-05-2.83734E-05-2.83193E-05 1.16103E-06-6.74373E-19-7.90508E-19
 -1       494 9.45103E-05-2.84684E-05-2.83039E-05 1.15086E-06-7.63336E-19-5.89990E-19
 -1       495 9.45916E-05-2.85304E-05-2.83122E-05 1.06842E-06-5.07997E-19-5.67158E-19
 -1       496 9.46815E-05-2.85688E-05-2.83343E-05 9.49645E-07-1.23726E-19-9.71741E-19
 -1       497 9.47713E-05-2.85901E-05-2.83637E-05 8.18787E-07-6.30489E-19-5.32030E-19
 -1       498 9.48562E-05-2.85986E-05-2.83964E-05 6.92119E-07-6.97357E-19-8.76380E-19
 -1       499 9.49342E-05-2.85978E-05-2.84301E-05 5.80599E-07-5.63778E-19-1.36118E-18
 -1       500 9.50058E-05-2.85899E-05-2.84641E-05 4.91845E-07-6.48664E-19-1.06595E-18
 -1       501 9.50727E-05-2.85762E-05-2.84986E-05 4.31637E-07-9.66198E-20-9.74755E-19
 -1       502 9.51381E-05-2.85576E-05-2.85346E-05 4.05084E-07-5.85230E-20-1.15706E-18
 -1       503 9.52061E-05-2.85343E-05-2.85735E-05 4.17532E-07 9.01963E-20-1.48700E-18
 -1       504 9.52815E-05-2.85063E-05-2.86178E-05 4.75292E-07 3.37605E-19-2.19772E-18
 -1       505 9.53702E-05-2.84730E-05-2.86700E-05 5.86212E-07 3.53520E-19-1.69607E-18
 -1       506 9.54790E-05-2.84338E-05-2.87332E-05 7.60124E-07 2.71955E-19-2.21109E-18
 -1       507 9.56152E-05-2.83878E-05-2.88111E-05 1.00914E-06 2.03113E-19-1.49104E-18
 -1       508 9.57872E-05-2.83343E-05-2.89075E-05 1.34778E-06-1.65537E-19-6.71738E-19
 -1       509 9.60037E-05-2.82728E-05-2.90264E-05 1.79274E-06-4.41995E-19-8.74506E-19
 -1       510 9.62741E-05-2.82040E-05-2.91714E-05 2.36228E-06-7.13933E-19-5.81132E-19
 -1       511 9.66079E-05-2.81311E-05-2.93453E-05 3.07460E-06-7.80594E-19-5.63917E-20
 -1       512 9.70159E-05-2.80624E-05-2.95492E-05 3.94492E-06-2.31898E-19-8.81272E-19
 -1       513 9.75119E-05-2.80170E-05-2.97807E-05 4.98009E-06 1.38756E-18-1.47948E-18
 -1       514 9.81177E-05-2.80347E-05-3.00325E-05 6.16943E-06 1.48806E-18-1.20240E-18
 -1       515 9.88753E-05-2.81923E-05-3.02897E-05 7.46981E-06 9.81165E-19-1.35697E-18
 -1       516 9.98680E-05-2.86297E-05-3.05286E-05 8.78214E-06 2.82808E-19-9.85321E-19
 -1       517 1.01257E-04-2.95820E-05-3.07181E-05 9.91582E-06 4.44879E-19-1.45986E-18
 -1       518 1.03327E-04-3.14031E-05-3.08293E-05 1.05373E-05 6.75269E-19-1.20687E-18
 -1       519 1.06510E-04-3.45285E-05-3.08613E-05 1.01004E-05 7.02000E-19-1.66789E-18
 -1       520 1.11299E-04-3.92544E-05-3.08964E-05 7.77640E-06 1.31110E-18-1.49799E-18
 -1       521 1.17824E-04-4.51176E-05-3.11810E-05 2.49606E-06 6.67388E-19-9.53804E-19
 -1       522 1.24976E-04-4.97419E-05-3.22714E-05-6.53401E-06 5.82695E-19-4.94426E-19
 -1       523 1.29436E-04-4.84956E-05-3.48100E-05-1.79204E-05 4.88404E-19 6.68302E-19
 -1       524 1.27382E-04-3.71606E-05-3.88806E-05-2.55720E-05-6.65291E-19 2.24755E-19
 -1       525 1.18834E-04-1.98835E-05-4.30061E-05-2.03854E-05-2.52826E-18-7.24279E-20
 -1       526 1.16518E-04-1.49848E-05-4.40998E-05-2.40650E-06-1.56751E-18-9.92418E-20
 -1       527 1.21795E-04-2.61251E-05-4.14577E-05 1.21148E-05 8.31151E-21-3.09442E-19
 -1       528 1.25727E-04-4.08590E-05-3.65845E-05 1.10538E-05-1.36240E-19 1.24170E-19
 -1       529 1.23836E-04-4.75635E-05-3.27313E-05 1.39006E-06-3.94684E-19 2.26813E-19
 -1       530 1.15812E-04-4.32554E-05-3.11317E-05-7.51553E-06-1.30241E-18 8.17873E-19
 -1       531 6.51877E-05-3.52097E-05-1.22949E-05 4.75310E-05-2.46487E-18 2.47964E-18
 -1       532 9.41486E-05-2.76872E-05-2.84799E-05-1.24158E-07 9.91242E-19-1.99069E-19
 -1       533 9.39733E-05-2.79350E-05-2.83008E-05-7.33438E-07 7.73410E-19-5.73495E-19
 -1       534 9.39436E-05-2.81067E-05-2.82155E-05-1.03089E-06 7.99841E-19-1.05099E-18
 -1       535 9.40070E-05-2.82329E-05-2.81891E-05-1.13323E-06 3.38754E-19-1.07420E-18
 -1       536 9.41231E-05-2.83277E-05-2.81985E-05-1.11695E-06 1.41964E-19-5.60376E-19
 -1       537 9.42631E-05-2.83988E-05-2.82281E-05-1.03290E-06 5.51428E-19-5.93384E-19
 -1       538 9.44083E-05-2.84513E-05-2.82678E-05-9.15132E-07 1.01838E-18-8.79976E-19
 -1       539 9.45476E-05-2.84889E-05-2.83114E-05-7.86389E-07 8.28377E-19-7.66278E-19
 -1       540 9.46754E-05-2.85145E-05-2.83552E-05-6.61788E-07 6.09518E-19-5.90846E-19
 -1       541 9.47897E-05-2.85305E-05-2.83972E-05-5.51359E-07 2.37768E-19-1.11038E-19
 -1       542 9.48914E-05-2.85390E-05-2.84370E-05-4.61909E-07-1.77609E-19-5.19298E-19
 -1       543 9.49835E-05-2.85417E-05-2.84752E-05-3.98413E-07-2.76149E-21-9.25176E-19
 -1       544 9.50702E-05-2.85399E-05-2.85131E-05-3.65042E-07-3.01252E-19-1.68267E-20
 -1       545 9.51573E-05-2.85350E-05-2.85524E-05-3.65935E-07 1.91980E-19 2.29218E-19
 -1       546 9.52516E-05-2.85281E-05-2.85956E-05-4.05718E-07 2.26076E-19 5.46488E-19
 -1       547 9.53609E-05-2.85208E-05-2.86454E-05-4.89813E-07 9.87680E-19 4.68509E-19
 -1       548 9.54946E-05-2.85150E-05-2.87050E-05-6.24485E-07 1.10838E-18-1.00775E-18
 -1       549 9.56632E-05-2.85133E-05-2.87778E-05-8.16576E-07 7.82306E-19-4.46354E-19
 -1       550 9.58787E-05-2.85198E-05-2.88671E-05-1.07281E-06-1.05238E-19 5.83429E-21
 -1       551 9.61547E-05-2.85404E-05-2.89763E-05-1.39851E-06-5.47017E-19-7.62766E-19
 -1       552 9.65060E-05-2.85838E-05-2.91081E-05-1.79545E-06-2.71759E-19-2.54027E-18
 -1       553 9.69491E-05-2.86630E-05-2.92639E-05-2.25859E-06 5.56841E-20-3.23756E-18
 -1       554 9.75016E-05-2.87966E-05-2.94434E-05-2.77134E-06 4.82721E-19-2.08515E-18
 -1       555 9.81820E-05-2.90114E-05-2.96432E-05-3.29891E-06 6.26100E-19-2.25071E-18
 -1       556 9.90095E-05-2.93434E-05-2.98561E-05-3.77982E-06-1.34300E-19-6.95666E-19
 -1       557 1.00002E-04-2.98392E-05-3.00702E-05-4.11593E-06-6.08695E-19 1.18318E-18
 -1       558 1.01175E-04-3.05509E-05-3.02694E-05-4.16307E-06-9.70465E-19 1.65358E-18
 -1       559 1.02527E-04-3.15225E-05-3.04348E-05-3.72727E-06-9.99741E-19 1.98891E-18
 -1       560 1.04024E-04-3.27561E-05-3.05505E-05-2.57660E-06-7.74894E-19 2.66054E-18
 -1       561 1.05553E-04-3.41509E-05-3.06109E-05-4.86881E-07-3.17862E-19 3.54012E-18
 -1       562 1.06865E-04-3.54190E-05-3.06317E-05 2.65369E-06-5.13864E-19 3.20491E-18
 -1       563 1.07523E-04-3.60204E-05-3.06548E-05 6.65868E-06-3.99736E-19 2.22244E-18
 -1       564 1.06953E-04-3.52449E-05-3.07386E-05 1.08048E-05-4.33804E-19 9.88777E-19
 -1       565 1.04744E-04-3.25963E-05-3.09201E-05 1.37260E-05-2.00300E-19 2.22953E-18
 -1       566 1.01180E-04-2.84536E-05-3.11657E-05 1.37869E-05-1.64695E-18 1.21599E-18
 -1       567 9.75447E-05-2.44150E-05-3.13380E-05 1.01148E-05 5.06423E-19 6.54873E-19
 -1       568 9.55637E-05-2.26017E-05-3.12651E-05 3.74427E-06 1.59949E-18 1.98109E-18
 -1       569 9.59715E-05-2.38885E-05-3.08863E-05-2.62183E-06 1.06999E-18 2.82417E-18
 -1       570 9.78487E-05-2.71111E-05-3.03084E-05-6.42802E-06 1.11297E-18 2.96502E-18
 -1       571 9.94701E-05-3.01090E-05-2.97224E-05-6.97275E-06 3.83770E-21 2.20171E-18
 -1       572 9.96869E-05-3.14355E-05-2.92601E-05-5.41685E-06-7.35786E-19 2.92881E-18
 -1       573 9.85573E-05-3.11117E-05-2.89095E-05-3.42449E-06-1.88278E-18 6.22792E-18
 -1       574 1.10276E-04-3.86922E-05-3.06529E-05 1.95719E-05-2.06577E-18-7.81553E-19
 -1       575 1.05302E-04-3.58140E-05-2.97079E-05 3.02476E-05-8.37421E-19 4.69309E-20
 -1       576 1.04504E-04-3.45323E-05-2.99750E-05 1.61044E-06-1.75077E-18 2.11438E-18
 -1       577 1.08748E-04-3.73165E-05-3.05999E-05 9.14007E-06-1.82027E-18 1.48304E-18
 -1       578 9.16557E-05-2.67207E-05-2.76817E-05 3.51985E-05-1.51702E-18 3.66300E-18
 -1       579 7.29358E-05-1.37011E-05-2.51777E-05 2.66167E-05 3.83868E-19 1.21532E-18
 -1       580 6.26287E-05-6.38639E-06-2.38661E-05 3.87807E-06 3.24430E-18-1.73846E-18
 -1       581 6.93451E-05-1.10910E-05-2.47612E-05-2.02925E-05 7.91627E-19-7.57164E-18
 -1       582 8.72620E-05-2.35724E-05-2.71552E-05-3.25334E-05 7.16828E-19-3.30105E-18
 -1       583 1.02522E-04-3.37462E-05-2.94102E-05-3.00391E-05 2.29242E-19 1.27713E-18
 -1       584 1.08669E-04-3.72793E-05-3.05697E-05-2.02018E-05-2.87362E-18 2.37826E-18
 -1       585 1.39522E-04-6.59283E-05-3.15185E-05 2.93659E-05-5.01634E-18 4.20869E-21
 -1       586 9.45260E-05-2.72944E-05-2.88048E-05 9.79918E-07 1.22126E-18-1.43466E-19
 -1       587 1.02267E-04-5.42275E-05-2.02640E-05 5.04999E-05-4.88966E-18 4.82912E-18
 -1       588 5.17533E-05-3.01508E-05-8.70040E-06-4.10660E-05-1.41703E-18-5.75855E-18
 -1       589 3.35594E-05-1.87763E-05-5.65227E-06-2.10228E-05-5.48877E-19-7.25494E-18
 -1       590 1.49010E-04-3.57578E-05-4.90202E-05-2.17906E-05-2.34999E-18-2.99251E-18
 -1       591 1.41743E-04-6.36182E-05-3.36280E-05-1.34049E-05 1.20752E-18-1.08875E-18
 -1       592 8.91518E-05-1.28770E-05-3.27072E-05-1.93608E-06-1.48672E-19-2.91905E-18
 -1       593 1.37952E-04-1.01372E-05-5.54525E-05-2.97802E-06 3.55097E-18-4.01046E-18
 -1       594 1.50484E-04-4.63903E-05-4.49850E-05 8.11478E-06 2.54626E-18 1.45531E-19
 -1       595 1.36626E-04-8.12453E-06-5.57912E-05 9.47572E-06 3.87708E-18-2.19359E-18
 -1       596 1.04295E-04-6.06454E-05-1.84856E-05 3.55195E-05 3.06202E-19-2.71205E-18
 -1       597 1.42143E-04-2.40681E-05-5.11987E-05 1.71462E-05 2.37148E-18 1.15615E-18
 -1       598 1.17817E-04-6.35134E-05-2.31551E-05-3.46780E-05-7.69582E-19-4.43060E-18
 -1       599 8.25284E-05-5.03228E-05-1.34463E-05-4.49738E-05-1.68930E-19-4.12460E-18
 -1       600 4.68682E-05-3.15057E-05-6.03260E-06-3.76386E-05 4.13723E-19-5.26611E-18
 -1       601 3.38586E-05-2.06434E-05-4.92112E-06 2.00340E-05-1.28627E-18-7.88852E-19
 -1       602 1.47924E-04-6.54472E-05-3.55498E-05-2.07839E-05 2.76342E-18-1.84320E-18
 -1       603 6.35551E-05-4.04612E-05-9.38681E-06 3.85401E-05-3.77247E-19-1.84547E-19
 -1       604 1.38813E-04-6.82295E-05-3.02510E-05 1.42627E-05-3.90747E-19-4.17148E-18
 -1       605 1.52003E-04-5.81418E-05-4.05577E-05-6.96441E-06-5.81045E-20-4.47090E-18
 -1       606 1.46890E-04-1.68770E-05-5.62544E-05-1.71900E-05-1.97517E-18-3.19294E-18
 -1       607 1.36289E-04-9.53047E-06-5.50603E-05-5.07133E-06-2.11070E-18-2.73664E-18
 -1       608 1.44562E-04-2.35065E-05-5.24583E-05 8.19350E-06-2.65598E-19-3.02031E-18
 -1       609 1.51216E-04-4.46864E-05-4.60564E-05 4.56006E-06 1.29713E-18-2.69314E-18
 -1       610 1.29055E-04-6.70971E-05-2.64530E-05-3.99302E-05 1.64017E-18-4.22720E-18
 -1       611 9.73603E-05-5.54033E-05-1.76858E-05-5.05844E-05 1.11067E-18-3.02756E-18
 -1       612 1.45214E-04-3.03893E-05-4.97807E-05-7.78183E-06 1.02528E-18-3.10655E-18
 -1       613 9.61653E-05-2.31917E-05-3.12780E-05 9.57946E-06 2.66985E-18 3.96893E-19
 -1       614 9.13378E-05-1.59030E-05-3.23641E-05-7.66759E-06-1.63377E-18-2.38689E-18
 -1       615 5.22832E-05-2.07391E-05-1.28455E-05 3.47481E-05-1.40089E-18 2.88356E-18
 -1       616 1.09350E-04-3.76852E-05-3.07160E-05-1.09669E-05-2.83638E-18 1.67459E-18
 -1       617 3.72991E-05-1.14987E-05-1.03179E-05-4.37981E-07-2.85348E-19-4.48864E-18
 -1       618 8.06932E-05-4.05618E-05-1.67401E-05-4.78429E-05 2.66233E-19-4.90157E-18
 -1       619 3.80650E-05-1.99494E-05-7.12607E-06-2.38119E-05 1.82156E-18-5.03196E-18
 -1       620 1.48871E-04-5.87827E-05-3.88305E-05-1.41321E-06 1.33719E-18-2.96250E-18
 -1       621 9.15480E-05-1.68475E-05-3.20201E-05 2.43907E-06 8.06924E-19-2.56266E-18
 -1       622 9.12884E-05-1.64451E-05-3.20811E-05 8.39960E-07 4.19517E-19-2.90775E-18
 -1       623 9.28901E-05-1.89983E-05-3.16734E-05 5.25850E-06 1.66203E-18-1.97452E-18
 -1       624 9.39842E-05-2.09288E-05-3.13174E-05 6.14040E-06 1.83417E-18-1.36996E-18
 -1       625 9.52744E-05-2.40951E-05-3.04951E-05 5.14403E-06 1.76163E-18-8.87422E-19
 -1       626 9.53386E-05-2.59430E-05-2.97371E-05 2.59708E-06 1.46921E-18-7.34872E-19
 -1       627 9.41764E-05-2.09804E-05-3.13697E-05-7.05711E-06-1.85448E-18-1.37434E-18
 -1       628 9.51327E-05-2.40587E-05-3.04609E-05-4.20733E-06-1.38171E-18-1.09952E-18
 -1       629 9.54538E-05-2.59290E-05-2.97953E-05-2.08092E-06-9.58194E-19-9.06633E-19
 -1       630 9.55113E-05-2.70892E-05-2.93237E-05-6.43476E-07-9.29439E-19-9.26940E-19
 -1       631 9.54633E-05-2.78063E-05-2.89961E-05 2.64610E-07-6.61925E-19-6.89338E-19
 -1       632 9.53932E-05-2.82522E-05-2.87750E-05 7.89281E-07-6.81487E-19-8.61771E-19
 -1       633 9.53311E-05-2.85258E-05-2.86311E-05 1.04931E-06-7.82177E-19-4.50171E-19
 -1       634 9.52846E-05-2.86869E-05-2.85421E-05 1.13466E-06-5.82732E-19-9.99914E-20
 -1       635 9.52533E-05-2.87733E-05-2.84916E-05 1.11090E-06-5.89765E-19-2.26587E-19
 -1       636 9.52342E-05-2.88099E-05-2.84677E-05 1.02478E-06-3.77885E-19-2.51518E-19
 -1       637 9.52241E-05-2.88135E-05-2.84618E-05 9.09007E-07-2.96214E-20-5.54842E-19
 -1       638 9.52203E-05-2.87952E-05-2.84680E-05 7.86185E-07-3.06195E-19-2.45545E-19
 -1       639 9.52210E-05-2.87624E-05-2.84823E-05 6.71869E-07-6.22158E-19 8.79676E-20
 -1       640 9.52248E-05-2.87196E-05-2.85023E-05 5.76934E-07-9.54714E-19-3.62781E-19
 -1       641 9.52309E-05-2.86688E-05-2.85267E-05 5.09418E-07-2.17739E-19 4.30961E-21
 -1       642 9.52390E-05-2.86104E-05-2.85551E-05 4.75938E-07-2.29775E-19-1.64568E-19
 -1       643 9.52488E-05-2.85436E-05-2.85879E-05 4.82802E-07-2.39541E-19-4.78078E-19
 -1       644 9.52600E-05-2.84660E-05-2.86259E-05 5.36859E-07-4.26795E-19-1.05690E-18
 -1       645 9.52723E-05-2.83746E-05-2.86703E-05 6.46149E-07 9.42203E-19-1.26807E-18
 -1       646 9.52853E-05-2.82654E-05-2.87227E-05 8.20354E-07 6.53117E-19-5.66576E-19
 -1       647 9.52978E-05-2.81335E-05-2.87845E-05 1.07108E-06 5.23208E-19-2.49660E-19
 -1       648 9.53077E-05-2.79738E-05-2.88572E-05 1.41189E-06-6.53124E-20-5.22133E-19
 -1       649 9.53118E-05-2.77808E-05-2.89415E-05 1.85810E-06-6.96486E-19-7.44442E-19
 -1       650 9.53050E-05-2.75500E-05-2.90375E-05 2.42616E-06-4.82044E-19-1.12804E-18
 -1       651 9.52810E-05-2.72791E-05-2.91432E-05 3.13252E-06-8.37562E-19-1.05448E-18
 -1       652 9.52324E-05-2.69716E-05-2.92540E-05 3.99182E-06-5.87201E-19-5.55930E-19
 -1       653 9.51540E-05-2.66428E-05-2.93613E-05 5.01424E-06 6.93558E-19-4.65861E-19
 -1       654 9.50499E-05-2.63309E-05-2.94503E-05 6.20187E-06 1.34127E-18-1.35681E-18
 -1       655 9.49474E-05-2.61147E-05-2.94990E-05 7.54408E-06 3.91017E-19-2.21409E-18
 -1       656 9.49250E-05-2.61438E-05-2.94770E-05 9.01179E-06 1.61174E-18-2.16422E-18
 -1       657 9.51592E-05-2.66802E-05-2.93478E-05 1.05487E-05 8.39121E-19-8.38248E-19
 -1       658 9.60003E-05-2.81494E-05-2.90792E-05 1.20509E-05 3.84815E-19-7.53495E-19
 -1       659 9.80635E-05-3.11704E-05-2.86684E-05 1.33108E-05 7.12616E-19-1.45790E-18
 -1       660 1.02331E-04-3.65083E-05-2.82040E-05 1.38677E-05 3.20352E-19-2.38954E-18
 -1       661 1.09977E-04-4.46147E-05-2.79957E-05 1.26659E-05 1.15772E-18-3.37529E-18
 -1       662 1.21794E-04-5.45214E-05-2.87966E-05 7.56769E-06 1.59918E-18-2.89190E-18
 -1       663 1.40576E-04-5.32857E-05-3.76324E-05-1.74880E-05-1.25934E-18-1.70664E-18
 -1       664 1.26757E-04-5.40742E-05-3.10745E-05-1.48549E-05 5.31748E-19 2.04953E-18
 -1       665 5.95089E-05-2.80915E-05-1.30200E-05 2.84126E-05-1.99614E-18-1.39152E-19
 -1       666 9.05799E-05-4.79059E-05-1.79837E-05 3.34897E-05-1.22682E-18-3.42447E-18
 -1       667 9.50905E-05-2.77031E-05-2.88794E-05-1.29902E-07 9.55716E-19-5.84224E-19
 -1       668 9.49017E-05-2.85291E-05-2.84455E-05-1.15990E-06 4.76895E-20-3.80539E-19
 -1       669 9.49096E-05-2.86236E-05-2.84084E-05-1.14927E-06 4.20069E-19-8.98431E-19
 -1       670 9.49353E-05-2.86751E-05-2.83974E-05-1.06755E-06 7.13982E-19-6.85630E-19
 -1       671 9.49706E-05-2.86972E-05-2.84031E-05-9.50353E-07 8.40728E-19-5.86609E-19
 -1       672 9.50097E-05-2.86992E-05-2.84190E-05-8.22055E-07 5.54424E-19-2.08598E-19
 -1       673 9.50494E-05-2.86874E-05-2.84410E-05-6.99222E-07-6.06528E-20 2.59343E-19
 -1       674 9.50879E-05-2.86657E-05-2.84668E-05-5.93182E-07 1.08310E-19 2.05527E-19
 -1       675 9.51250E-05-2.86368E-05-2.84950E-05-5.11968E-07 1.69965E-19 2.33317E-19
 -1       676 9.51614E-05-2.86018E-05-2.85256E-05-4.61779E-07-2.12828E-19 4.03430E-20
 -1       677 9.51985E-05-2.85612E-05-2.85589E-05-4.48082E-07-4.15857E-19-2.77162E-19
 -1       678 9.52386E-05-2.85145E-05-2.85960E-05-4.76409E-07-2.86369E-20-7.73470E-20
 -1       679 9.52842E-05-2.84614E-05-2.86382E-05-5.52867E-07 7.95044E-19-6.45431E-19
 -1       680 9.53389E-05-2.84015E-05-2.86873E-05-6.84392E-07 9.32132E-19-1.28508E-19
 -1       681 9.54071E-05-2.83349E-05-2.87450E-05-8.78673E-07 9.70416E-19 3.72252E-19
 -1       682 9.54939E-05-2.82632E-05-2.88129E-05-1.14370E-06 8.90532E-19 5.39412E-20
 -1       683 9.56064E-05-2.81904E-05-2.88922E-05-1.48681E-06 1.17677E-19-6.31077E-19
 -1       684 9.57535E-05-2.81242E-05-2.89835E-05-1.91300E-06 5.18538E-19-1.17888E-18
 -1       685 9.59478E-05-2.80785E-05-2.90863E-05-2.42241E-06-1.02056E-19-9.55804E-19
 -1       686 9.62067E-05-2.80759E-05-2.91984E-05-3.00656E-06-8.64040E-20-1.23880E-18
 -1       687 9.65558E-05-2.81519E-05-2.93154E-05-3.64314E-06-5.54925E-20-8.34539E-20
 -1       688 9.70323E-05-2.83592E-05-2.94309E-05-4.28900E-06-4.23229E-19 3.72715E-19
 -1       689 9.76899E-05-2.87717E-05-2.95361E-05-4.87119E-06-1.62718E-18 8.17640E-19
 -1       690 9.86035E-05-2.94856E-05-2.96222E-05-5.27617E-06-1.07718E-18 1.22762E-18
 -1       691 9.98692E-05-3.06110E-05-2.96831E-05-5.33818E-06-6.22076E-19 1.90206E-18
 -1       692 1.01591E-04-3.22426E-05-2.97229E-05-4.82994E-06-8.90114E-19 1.52827E-18
 -1       693 1.03838E-04-3.43933E-05-2.97656E-05-3.46534E-06-9.81930E-19 2.05973E-18
 -1       694 1.06553E-04-3.68711E-05-2.98687E-05-9.37507E-07-2.15578E-19 2.42381E-18
 -1       695 1.09400E-04-3.91087E-05-3.01311E-05 2.96087E-06-1.61632E-19 2.41167E-18
 -1       696 1.11604E-04-4.00254E-05-3.06822E-05 8.04993E-06-4.09512E-19 2.05538E-18
 -1       697 1.12018E-04-3.82483E-05-3.16245E-05 1.33113E-05-1.02642E-18 2.53781E-18
 -1       698 1.09838E-04-3.30777E-05-3.29088E-05 1.65514E-05-2.57145E-19 4.50292E-18
 -1       699 1.05612E-04-2.57779E-05-3.42467E-05 1.53143E-05 4.70348E-19 3.10967E-18
 -1       700 1.02100E-04-2.03837E-05-3.50669E-05 8.80370E-06 1.59480E-18 2.24376E-18
 -1       701 1.01717E-04-2.02796E-05-3.49413E-05-2.23141E-10 1.89856E-18 4.84083E-19
 -1       702 1.04271E-04-2.52137E-05-3.39082E-05-6.29439E-06 9.32381E-19-3.35478E-19
 -1       703 1.06992E-04-3.13209E-05-3.24424E-05-7.64403E-06 4.83206E-19 7.65339E-19
 -1       704 1.07275E-04-3.47270E-05-3.10937E-05-5.24721E-06-2.24898E-18 2.51973E-18
 -1       705 1.06851E-04-3.56814E-05-3.04973E-05-1.71544E-06-2.61351E-18 4.75298E-18
 -1       706 8.10001E-05-2.99560E-05-2.14284E-05 4.27297E-05 2.25523E-20 4.25589E-18
 -1       707 1.16620E-04-4.56219E-05-3.04380E-05-1.89709E-05-3.31027E-19 2.03219E-18
 -1       708 1.21048E-04-5.03072E-05-3.03168E-05 2.45851E-05-3.43908E-18 1.35479E-19
 -1       709 5.50120E-05-1.22715E-05-1.78214E-05 2.13615E-05 1.88659E-18 2.36894E-18
 -1       710 1.07798E-04-4.54901E-05-2.66729E-05 3.92574E-05-2.56896E-18 2.11413E-18
 -1       711 4.96307E-05-1.12522E-05-1.59752E-05-1.27823E-05 1.51783E-18-9.06018E-18
 -1       712 7.38597E-05-2.47132E-05-2.06017E-05-3.68196E-05 1.86916E-18-5.31039E-18
 -1       713 1.01985E-04-4.10148E-05-2.59049E-05-3.82952E-05 1.24443E-18-2.43752E-18
 -1       714 9.52291E-05-2.70378E-05-2.92226E-05 9.19790E-07 1.13282E-18-7.23034E-19
 -1       715 1.17307E-04-5.92806E-05-2.45847E-05-4.18188E-05 1.34056E-18-3.87846E-18
 -1       716 5.40098E-05-1.91208E-05-1.43470E-05-3.01102E-05 1.57101E-18-7.60106E-18
 -1       717 1.36906E-04-6.66823E-05-3.01560E-05-2.72031E-05 2.33273E-18-2.34882E-18
 -1       718 9.49228E-05-2.83708E-05-2.85223E-05-1.04796E-06 7.64286E-19-2.70386E-19
 -1       719 9.49847E-05-2.81159E-05-2.86579E-05-7.39530E-07 1.00709E-18-4.57644E-19
 -1       720 1.30003E-04-6.43380E-05-2.81500E-05-1.88730E-05-2.44250E-19-1.89419E-18
 -1       721 1.22089E-04-8.55912E-06-4.92402E-05 3.07837E-06 3.13127E-18-1.78355E-18
 -1       722 9.20742E-05-1.76756E-05-3.18909E-05 3.94944E-06 1.25652E-18-2.17601E-18
 -1       723 1.25701E-04-6.38834E-05-2.63568E-05 1.74229E-05-1.92515E-19-4.55359E-18
 -1       724 9.20318E-05-1.76162E-05-3.18979E-05-3.89502E-06-6.64118E-19-2.35037E-18
 -1       725 1.41961E-04-5.60494E-05-3.70120E-05 5.16285E-06 1.99337E-18 2.00826E-19
 -1       726 3.62070E-05-1.41073E-05-8.86016E-06-7.02722E-07 4.76076E-19-3.74648E-18
 -1       727 1.35375E-04-3.76783E-05-4.22538E-05 1.87304E-05 2.81887E-18 1.17465E-18
 -1       728 1.05590E-04-5.68093E-05-2.06626E-05-3.57770E-05-5.32307E-19-3.61375E-18
 -1       729 1.40502E-04-5.83239E-05-3.52664E-05 1.02262E-05-2.88924E-18-1.07692E-18
 -1       730 1.23426E-04-1.54818E-05-4.67442E-05 1.65370E-05 1.93298E-18-1.24959E-18
 -1       731 1.38646E-04-4.21900E-05-4.16720E-05-6.80972E-06-2.11982E-18-3.13614E-18
 -1       732 7.19833E-05-3.89480E-05-1.37480E-05-3.95102E-05 2.44845E-19-4.96075E-18
 -1       733 1.22913E-04-5.81768E-05-2.76448E-05 3.68512E-05-1.76016E-18 2.73977E-18
 -1       734 1.25949E-04-1.91309E-05-4.62321E-05-8.64709E-06 1.79989E-18-4.39723E-18
 -1       735 9.28656E-05-1.89254E-05-3.16924E-05-5.28431E-06-1.08133E-18-2.17107E-18
 -1       736 9.12815E-05-1.64358E-05-3.20820E-05-7.83251E-07 1.02195E-19-2.73481E-18
 -1       737 5.83758E-05-2.68764E-05-1.30586E-05-3.12028E-05 4.50344E-19-2.54097E-18
 -1       738 1.32316E-04-5.92269E-05-3.13997E-05-1.92122E-06 7.19605E-19-2.53864E-18
 -1       739 1.18737E-04-4.49671E-05-3.15577E-05 1.08870E-05-2.80380E-18-1.69705E-18
 -1       740 5.06062E-05-1.74774E-05-1.38279E-05 1.38115E-05 3.39353E-19-2.03280E-18
 -1       741 1.13045E-04-3.99172E-05-3.13370E-05 3.23571E-06-1.87176E-18 1.04536E-18
 -1       742 1.40997E-04-6.19625E-05-3.39934E-05-4.99223E-06 3.00852E-19-4.20180E-18
 -1       743 1.13528E-04-4.61456E-05-2.87911E-05-2.94885E-05-1.99198E-19-1.02365E-18
 -1       744 9.15250E-05-1.68159E-05-3.20236E-05-2.37875E-06-2.71103E-19-2.51359E-18
 -1       745 1.12251E-04-1.32828E-05-4.26921E-05 9.39676E-06 2.26063E-18-7.45880E-19
 -1       746 9.46323E-05-2.27211E-05-3.08165E-05 3.91396E-06 1.35941E-18-1.55598E-18
 -1       747 9.50869E-05-2.38473E-05-3.05295E-05-3.11328E-06-9.01367E-19-1.46444E-18
 -1       748 9.56582E-05-2.57812E-05-2.99474E-05-1.51217E-06-8.83125E-19-1.39569E-18
 -1       749 9.59233E-05-2.70681E-05-2.95094E-05-3.96079E-07-6.62858E-19-1.24839E-18
 -1       750 9.60011E-05-2.78993E-05-2.91865E-05 3.26031E-07-7.68676E-19-1.04122E-18
 -1       751 9.59821E-05-2.84227E-05-2.89541E-05 7.47758E-07-6.84604E-19-7.77635E-19
 -1       752 9.59167E-05-2.87379E-05-2.87910E-05 9.54907E-07-4.06225E-19-5.96887E-19
 -1       753 9.58324E-05-2.89122E-05-2.86801E-05 1.01775E-06-7.15440E-19-5.92490E-19
 -1       754 9.57441E-05-2.89919E-05-2.86081E-05 9.90014E-07-3.12511E-19-3.57605E-19
 -1       755 9.56597E-05-2.90089E-05-2.85647E-05 9.11138E-07-2.72667E-19-6.03830E-19
 -1       756 9.55830E-05-2.89850E-05-2.85420E-05 8.09332E-07-2.24222E-19-8.88275E-19
 -1       757 9.55151E-05-2.89347E-05-2.85345E-05 7.04447E-07-3.84273E-19-9.44426E-19
 -1       758 9.54558E-05-2.88670E-05-2.85381E-05 6.10439E-07-3.91977E-19-6.01774E-19
 -1       759 9.54036E-05-2.87867E-05-2.85502E-05 5.37384E-07-6.92056E-19 4.97098E-21
 -1       760 9.53563E-05-2.86955E-05-2.85689E-05 4.93049E-07-5.38228E-19-2.11578E-19
 -1       761 9.53108E-05-2.85926E-05-2.85935E-05 4.84140E-07-2.80908E-20-8.16655E-20
 -1       762 9.52634E-05-2.84750E-05-2.86236E-05 5.17256E-07-6.24507E-19 1.06329E-20
 -1       763 9.52096E-05-2.83381E-05-2.86592E-05 5.99590E-07 2.06008E-19-5.25576E-20
 -1       764 9.51437E-05-2.81759E-05-2.87005E-05 7.39397E-07 4.41574E-19-5.38198E-19
 -1       765 9.50586E-05-2.79811E-05-2.87475E-05 9.46264E-07 6.03618E-19-1.81067E-18
 -1       766 9.49455E-05-2.77453E-05-2.88001E-05 1.23115E-06 2.66655E-19-1.51143E-18
 -1       767 9.47932E-05-2.74599E-05-2.88571E-05 1.60616E-06-7.90906E-19-1.70004E-18
 -1       768 9.45878E-05-2.71163E-05-2.89163E-05 2.08410E-06-8.06178E-19-1.50662E-18
 -1       769 9.43121E-05-2.67075E-05-2.89734E-05 2.67765E-06-6.28215E-19-1.69824E-18
 -1       770 9.39464E-05-2.62309E-05-2.90209E-05 3.39850E-06-2.72338E-19-5.68114E-19
 -1       771 9.34694E-05-2.56924E-05-2.90473E-05 4.25653E-06-2.17394E-19-8.22313E-19
 -1       772 9.28628E-05-2.51146E-05-2.90349E-05 5.25983E-06-8.63600E-20-2.27467E-18
 -1       773 9.21199E-05-2.45502E-05-2.89583E-05 6.41683E-06-5.19573E-20-3.80619E-18
 -1       774 9.12626E-05-2.41027E-05-2.87825E-05 7.74261E-06 1.84020E-18-2.70842E-18
 -1       775 9.03733E-05-2.39594E-05-2.84626E-05 9.27199E-06 1.43372E-18-1.46107E-18
 -1       776 8.96499E-05-2.44399E-05-2.79462E-05 1.10802E-05 1.20985E-18-1.29075E-18
 -1       777 8.95062E-05-2.60707E-05-2.71851E-05 1.33002E-05-1.63438E-20-5.45006E-19
 -1       778 9.07059E-05-2.96284E-05-2.61615E-05 1.60437E-05-3.43761E-19-1.52726E-18
 -1       779 9.47151E-05-3.63070E-05-2.49932E-05 1.92526E-05 6.70139E-19-1.42334E-18
 -1       780 1.03591E-04-4.71737E-05-2.40536E-05 2.20364E-05 8.46523E-19-1.29641E-18
 -1       781 9.56294E-05-2.85905E-05-2.87310E-05-9.90280E-07 3.86121E-19-5.20879E-19
 -1       782 9.55640E-05-2.87750E-05-2.86239E-05-1.08566E-06 3.63581E-19-8.27181E-19
 -1       783 9.54066E-05-2.88997E-05-2.85030E-05-8.87592E-07 1.91763E-19-5.53956E-19
 -1       784 9.53701E-05-2.88693E-05-2.85004E-05-7.72024E-07 9.44156E-20-5.84928E-19
 -1       785 9.53403E-05-2.88221E-05-2.85079E-05-6.64217E-07 1.99667E-19-2.04730E-19
 -1       786 9.53160E-05-2.87632E-05-2.85226E-05-5.75274E-07-2.23073E-21-6.06587E-19
 -1       787 9.52957E-05-2.86953E-05-2.85431E-05-5.13401E-07 2.73300E-19-1.04182E-19
 -1       788 9.52780E-05-2.86187E-05-2.85683E-05-4.85265E-07 9.55474E-22-9.82453E-19
 -1       789 9.52615E-05-2.85327E-05-2.85980E-05-4.97030E-07-3.74998E-19-1.19863E-18
 -1       790 9.52446E-05-2.84353E-05-2.86326E-05-5.55063E-07 4.19857E-20-8.40142E-19
 -1       791 9.52261E-05-2.83240E-05-2.86723E-05-6.66396E-07 5.79201E-19 4.29921E-20
 -1       792 9.52048E-05-2.81969E-05-2.87176E-05-8.38894E-07-5.37034E-20 8.95649E-19
 -1       793 9.51802E-05-2.80528E-05-2.87688E-05-1.08111E-06 5.49765E-19 1.68236E-18
 -1       794 9.51529E-05-2.78930E-05-2.88256E-05-1.40178E-06 1.04931E-18 1.53793E-18
 -1       795 9.51257E-05-2.77228E-05-2.88868E-05-1.80880E-06 7.22733E-19 4.45100E-19
 -1       796 9.51053E-05-2.75541E-05-2.89504E-05-2.30768E-06 3.59923E-19 2.97243E-19
 -1       797 9.51048E-05-2.74087E-05-2.90125E-05-2.89924E-06-9.05592E-20-6.88056E-19
 -1       798 9.51479E-05-2.73232E-05-2.90675E-05-3.57636E-06-5.81773E-19-7.01940E-19
 -1       799 9.52744E-05-2.73550E-05-2.91081E-05-4.31965E-06-1.61143E-18 4.91354E-19
 -1       800 9.55489E-05-2.75886E-05-2.91257E-05-5.09151E-06-2.54529E-19 7.29511E-19
 -1       801 9.60709E-05-2.81425E-05-2.91121E-05-5.82796E-06-1.67305E-18-5.23798E-19
 -1       802 9.69849E-05-2.91696E-05-2.90637E-05-6.42636E-06-1.57133E-18 6.49980E-19
 -1       803 9.84856E-05-3.08461E-05-2.89887E-05-6.72664E-06-1.12471E-18 7.74646E-19
 -1       804 1.00803E-04-3.33277E-05-2.89188E-05-6.48286E-06-8.24025E-19 8.94161E-19
 -1       805 1.04137E-04-3.66441E-05-2.89272E-05-5.32911E-06-8.79017E-19-9.59056E-20
 -1       806 1.08510E-04-4.04975E-05-2.91501E-05-2.77516E-06-1.66837E-18 1.06853E-18
 -1       807 1.13453E-04-4.39254E-05-2.98029E-05 1.71589E-06-4.73745E-19 2.79735E-18
 -1       808 1.17687E-04-4.50509E-05-3.11459E-05 8.12117E-06-1.94960E-18 3.80799E-18
 -1       809 1.19063E-04-4.12097E-05-3.33896E-05 1.52032E-05-1.10029E-18 3.10166E-18
 -1       810 1.15986E-04-3.16067E-05-3.63068E-05 1.89616E-05 8.88984E-19 8.05537E-19
 -1       811 1.07365E-04-1.55523E-05-3.94850E-05 4.60275E-06 2.53187E-18-3.14602E-19
 -1       812 1.09953E-04-2.06549E-05-3.84290E-05-5.41805E-06 1.16968E-18 5.91088E-19
 -1       813 1.14524E-04-3.07738E-05-3.60198E-05-8.77720E-06 6.20816E-20 1.22835E-18
 -1       814 1.15914E-04-3.79591E-05-3.34109E-05-5.34654E-06-1.12474E-18 2.93453E-18
 -1       815 1.15750E-04-4.07242E-05-3.21823E-05-9.34071E-07-3.07416E-18 3.43016E-18
 -1       816 9.31977E-05-1.97745E-05-3.14682E-05 1.23280E-06 5.43130E-19-2.31666E-18
 -1       817 1.17102E-04-5.79320E-05-2.52889E-05-2.28272E-05-1.28941E-18-2.17325E-18
 -1       818 9.21659E-05-4.56861E-05-1.97201E-05-3.37061E-05-1.38146E-19-3.09295E-18
 -1       819 1.31330E-04-4.75534E-05-3.60307E-05 1.39774E-05 1.73515E-18 9.65267E-19
 -1       820 1.13917E-04-1.44021E-05-4.29219E-05-2.35301E-06 1.91353E-18-8.92712E-19
 -1       821 4.61434E-05-1.61535E-05-1.24385E-05-1.44732E-05 1.07281E-18-5.92084E-18
 -1       822 1.24350E-04-5.67455E-05-2.89008E-05-2.83279E-05 3.84972E-19-2.20499E-18
 -1       823 1.20278E-04-2.75029E-05-3.99813E-05 2.00191E-05 1.24948E-18-1.29280E-18
 -1       824 9.54509E-05-2.89044E-05-2.85200E-05-9.95161E-07 4.93485E-19-8.59305E-19
 -1       825 9.55036E-05-2.88697E-05-2.85574E-05-1.07202E-06 5.09335E-19-8.81018E-19
 -1       826 9.57257E-05-2.77443E-05-2.91349E-05-1.97871E-07 7.94704E-19-8.51326E-19
 -1       827 9.56912E-05-2.82713E-05-2.88943E-05-7.22763E-07 7.13447E-19-6.99947E-19
 -1       828 8.21991E-05-3.42804E-05-2.03679E-05 2.54002E-05-6.70082E-20-7.13930E-19
 -1       829 9.52165E-05-2.44866E-05-3.03131E-05 3.41408E-06 1.34044E-18-1.07280E-18
 -1       830 1.31465E-04-5.86797E-05-3.12068E-05-2.93629E-06-2.06456E-19 1.30207E-18
 -1       831 1.23126E-04-3.04691E-05-3.99257E-05-1.00632E-05-2.53183E-20-2.22107E-18
 -1       832 1.31183E-04-4.73779E-05-3.60241E-05-1.85673E-06-2.48994E-18-1.79745E-18
 -1       833 9.30870E-05-1.95757E-05-3.15060E-05 2.01943E-08 1.84949E-19-2.66249E-18
 -1       834 9.40359E-05-2.13626E-05-3.11460E-05 3.31587E-06 1.22984E-18-1.86558E-18
 -1       835 9.34947E-05-2.03274E-05-3.13582E-05-2.32516E-06-4.10637E-19-2.10304E-18
 -1       836 9.39884E-05-2.13068E-05-3.11536E-05-3.26551E-06-7.32756E-19-1.95655E-18
 -1       837 7.00704E-05-2.38514E-05-1.96628E-05 1.91879E-05 6.81858E-19-1.17824E-18
 -1       838 5.03856E-05-1.44488E-05-1.51345E-05 1.03806E-06 4.53331E-19-4.02585E-18
 -1       839 1.10698E-04-2.02442E-05-3.89079E-05 1.50269E-05 1.79521E-18-4.72866E-19
 -1       840 7.80684E-05-3.49324E-05-1.82408E-05-3.13951E-05-1.35565E-19-3.01081E-18
 -1       841 9.35136E-05-2.03584E-05-3.13532E-05 2.35818E-06 1.01181E-18-1.98411E-18
 -1       842 9.55223E-05-2.61735E-05-2.97208E-05 1.59712E-06 1.20391E-18-9.03074E-19
 -1       843 9.56531E-05-2.70903E-05-2.93841E-05 5.24585E-07 8.94987E-19-7.22793E-19
 -1       844 9.31865E-05-1.97578E-05-3.14705E-05-1.19262E-06-9.96461E-20-2.29313E-18
 -1       845 1.25667E-04-5.08375E-05-3.21018E-05 6.74211E-06-8.94424E-19 2.02331E-18
 -1       846 9.58958E-05-2.58808E-05-3.00065E-05-9.49357E-07-6.21452E-19-1.45421E-18
 -1       847 9.62627E-05-2.71968E-05-2.95997E-05-1.53146E-07-5.39707E-19-1.12029E-18
 -1       848 9.64022E-05-2.80624E-05-2.92885E-05 3.66603E-07-5.31055E-19-1.03987E-18
 -1       849 9.64061E-05-2.86095E-05-2.90557E-05 6.66871E-07-6.04159E-19-8.25178E-19
 -1       850 9.63320E-05-2.89323E-05-2.88856E-05 8.08494E-07-6.98683E-19-7.64500E-19
 -1       851 9.62177E-05-2.91001E-05-2.87647E-05 8.43102E-07-5.88284E-19-6.52853E-19
 -1       852 9.60873E-05-2.91630E-05-2.86818E-05 8.11127E-07-3.29469E-19-8.09248E-19
 -1       853 9.59550E-05-2.91564E-05-2.86280E-05 7.42818E-07-2.07111E-19-8.00446E-19
 -1       854 9.58290E-05-2.91044E-05-2.85963E-05 6.60108E-07-4.12999E-19-1.18384E-18
 -1       855 9.57125E-05-2.90231E-05-2.85812E-05 5.78644E-07-5.48233E-19-1.21771E-18
 -1       856 9.56058E-05-2.89217E-05-2.85789E-05 5.09668E-07-9.70034E-20-1.14445E-18
 -1       857 9.55066E-05-2.88048E-05-2.85865E-05 4.61540E-07-1.91307E-19-3.13253E-19
 -1       858 9.54108E-05-2.86729E-05-2.86019E-05 4.40946E-07-4.35463E-19-3.49749E-20
 -1       859 9.53126E-05-2.85235E-05-2.86239E-05 4.53905E-07-1.89010E-19-4.08487E-19
 -1       860 9.52049E-05-2.83515E-05-2.86514E-05 5.06453E-07-5.60369E-19-4.72104E-19
 -1       861 9.50785E-05-2.81499E-05-2.86837E-05 6.05089E-07 1.18294E-20-8.04245E-19
 -1       862 9.49226E-05-2.79100E-05-2.87197E-05 7.57022E-07-3.50107E-19-1.06119E-18
 -1       863 9.47239E-05-2.76216E-05-2.87581E-05 9.70181E-07 2.81155E-19-1.76861E-18
 -1       864 9.44664E-05-2.72741E-05-2.87967E-05 1.25299E-06-6.98319E-19-2.13072E-18
 -1       865 9.41308E-05-2.68564E-05-2.88319E-05 1.61388E-06-8.27793E-19-1.24836E-18
 -1       866 9.36938E-05-2.63585E-05-2.88580E-05 2.06061E-06-8.28680E-19-5.63600E-19
 -1       867 9.31281E-05-2.57733E-05-2.88663E-05 2.59957E-06 2.84661E-20-2.07427E-20
 -1       868 9.24023E-05-2.50996E-05-2.88440E-05 3.23541E-06-1.16761E-18-8.27762E-19
 -1       869 9.14822E-05-2.43466E-05-2.87724E-05 3.97190E-06-1.16958E-18-9.53316E-19
 -1       870 9.03332E-05-2.35416E-05-2.86249E-05 4.81555E-06-5.17422E-19-8.03018E-19
 -1       871 8.89257E-05-2.27407E-05-2.83649E-05 5.78464E-06 1.69636E-18-5.14109E-20
 -1       872 8.72448E-05-2.20455E-05-2.79424E-05 6.92776E-06 1.99432E-18-9.47216E-19
 -1       873 8.53070E-05-2.16266E-05-2.72912E-05 8.35847E-06 9.69492E-19-1.75279E-18
 -1       874 8.31983E-05-2.17674E-05-2.63256E-05 1.03109E-05 1.19971E-18-2.75685E-18
 -1       875 8.10950E-05-2.29106E-05-2.49322E-05 1.31756E-05-1.42677E-19-1.30467E-18
 -1       876 9.61365E-05-2.87916E-05-2.88621E-05-8.77678E-07 4.61066E-19-1.04115E-18
 -1       877 9.56281E-05-2.89906E-05-2.85589E-05-6.64283E-07 9.86354E-21-3.83204E-19
 -1       878 9.57217E-05-2.90521E-05-2.85727E-05-7.59684E-07 2.06864E-19-3.15104E-19
 -1       879 9.54671E-05-2.88139E-05-2.85657E-05-5.13527E-07-2.01689E-19-1.61590E-18
 -1       880 9.53957E-05-2.87062E-05-2.85812E-05-4.75455E-07 2.33597E-19-9.59659E-19
 -1       881 9.53257E-05-2.85858E-05-2.86028E-05-4.71189E-07-8.85391E-20-7.45738E-19
 -1       882 9.52526E-05-2.84500E-05-2.86297E-05-5.06957E-07-7.97931E-19-5.07887E-19
 -1       883 9.51713E-05-2.82952E-05-2.86612E-05-5.89385E-07-3.09559E-19 1.59744E-19
 -1       884 9.50763E-05-2.81173E-05-2.86967E-05-7.25885E-07-2.08753E-19 1.19340E-18
 -1       885 9.49621E-05-2.79127E-05-2.87355E-05-9.24774E-07 4.66513E-19 1.21587E-19
 -1       886 9.48237E-05-2.76795E-05-2.87761E-05-1.19519E-06 7.30504E-19-1.14828E-19
 -1       887 9.46575E-05-2.74194E-05-2.88163E-05-1.54671E-06 1.27750E-18 3.80557E-19
 -1       888 9.44630E-05-2.71401E-05-2.88526E-05-1.98873E-06 3.95810E-19 5.63487E-19
 -1       889 9.42457E-05-2.68588E-05-2.88801E-05-2.52942E-06-8.80699E-20 7.30335E-19
 -1       890 9.40205E-05-2.66065E-05-2.88917E-05-3.17451E-06-6.55614E-19 1.89398E-18
 -1       891 9.38181E-05-2.64346E-05-2.88786E-05-3.92558E-06-1.43206E-18 2.60387E-18
 -1       892 9.36935E-05-2.64225E-05-2.88303E-05-4.77790E-06-9.98832E-19 5.65838E-19
 -1       893 9.37375E-05-2.66858E-05-2.87363E-05-5.71711E-06-3.40474E-19 1.62900E-18
 -1       894 9.40933E-05-2.73858E-05-2.85888E-05-6.71291E-06-1.71349E-18 4.74342E-19
 -1       895 9.49743E-05-2.87337E-05-2.83887E-05-7.70515E-06-1.02848E-18-7.85883E-19
 -1       896 9.66817E-05-3.09821E-05-2.81571E-05-8.57405E-06-1.64288E-18 5.65085E-19
 -1       897 9.96071E-05-3.43824E-05-2.79535E-05-9.07768E-06-1.27343E-18 1.78990E-18
 -1       898 1.04172E-04-3.90477E-05-2.79078E-05-8.73037E-06-1.64544E-18 1.90637E-18
 -1       899 1.10603E-04-4.46272E-05-2.82642E-05-6.76740E-06-3.06504E-18 2.07073E-18
 -1       900 1.18527E-04-4.97922E-05-2.94253E-05-1.99560E-06-2.05260E-18 3.64434E-18
 -1       901 1.03834E-04-4.80460E-05-2.38586E-05-2.41007E-05-1.74264E-18-6.25408E-19
 -1       902 9.54691E-05-2.50594E-05-3.01762E-05 2.14588E-06 1.01160E-18-1.47908E-18
 -1       903 6.13175E-05-2.24671E-05-1.64039E-05-2.30231E-05 6.08236E-19-2.88866E-18
 -1       904 9.61897E-05-2.78631E-05-2.92829E-05-2.77424E-07 7.21859E-19-1.58036E-18
 -1       905 9.59331E-05-2.90691E-05-2.86560E-05-9.21668E-07 2.98574E-19-7.27107E-19
 -1       906 9.61976E-05-2.84425E-05-2.90380E-05-6.77208E-07 3.66365E-19-1.21846E-18
 -1       907 8.24263E-05-2.77393E-05-2.33830E-05 1.83899E-05 2.26375E-19-8.47490E-19
 -1       908 1.19755E-04-5.40335E-05-2.81432E-05-9.78723E-06-1.37424E-18 1.15946E-19
 -1       909 9.58244E-05-2.90837E-05-2.86031E-05-8.51790E-07 3.06290E-19-5.91902E-19
 -1       910 9.55437E-05-2.89093E-05-2.85576E-05-5.78978E-07 3.37475E-19-1.04162E-18
 -1       911 9.51885E-05-2.39624E-05-3.05247E-05-2.07012E-06-6.39684E-19-1.75314E-18
 -1       912 9.60413E-05-2.89836E-05-2.87390E-05-9.42609E-07 5.53330E-19-8.41956E-19
 -1       913 6.39157E-05-1.81412E-05-1.95224E-05 1.14127E-05 3.29947E-19-1.87738E-18
 -1       914 9.25599E-05-4.00883E-05-2.23857E-05-2.57226E-05-1.69702E-18-1.40318E-18
 -1       915 9.60477E-05-2.71319E-05-2.95361E-05 2.86140E-07 8.82309E-19-1.48553E-18
 -1       916 5.68437E-05-1.62063E-05-1.72358E-05-1.03489E-05-6.89748E-19-5.38031E-18
 -1       917 9.46840E-05-2.26103E-05-3.08888E-05 1.22188E-06 7.44182E-19-1.87477E-18
 -1       918 9.46741E-05-2.25872E-05-3.08937E-05-1.20166E-06-1.42458E-19-2.10341E-18
 -1       919 9.45369E-05-2.22692E-05-3.09719E-05 4.29622E-07 4.10661E-19-2.21589E-18
 -1       920 9.49140E-05-2.32230E-05-3.07230E-05-1.85641E-06-4.26280E-19-1.63490E-18
 -1       921 9.61789E-05-2.61961E-05-2.99934E-05-4.93143E-07-4.06228E-19-1.57726E-18
 -1       922 9.65522E-05-2.74509E-05-2.96148E-05 2.64581E-08-3.26215E-19-1.12417E-18
 -1       923 9.67001E-05-2.82865E-05-2.93201E-05 3.54643E-07-4.50827E-19-9.57258E-19
 -1       924 9.66972E-05-2.88089E-05-2.90950E-05 5.37858E-07-5.99465E-19-1.06501E-18
 -1       925 9.66036E-05-2.91069E-05-2.89271E-05 6.17337E-07-6.26767E-19-1.19851E-18
 -1       926 9.64613E-05-2.92488E-05-2.88054E-05 6.27350E-07-4.76378E-19-1.06630E-18
 -1       927 9.62981E-05-2.92846E-05-2.87201E-05 5.95220E-07-1.64997E-19-9.30944E-19
 -1       928 9.61310E-05-2.92501E-05-2.86633E-05 5.41572E-07-9.46717E-20-5.98041E-19
 -1       929 9.59697E-05-2.91697E-05-2.86286E-05 4.81441E-07-2.84496E-19 4.90571E-20
 -1       930 9.58178E-05-2.90589E-05-2.86109E-05 4.25675E-07-3.78566E-19-4.33446E-19
 -1       931 9.56749E-05-2.89263E-05-2.86065E-05 3.82247E-07 1.95491E-20-8.13249E-19
 -1       932 9.55374E-05-2.87751E-05-2.86124E-05 3.57153E-07-3.06875E-19-9.48261E-19
 -1       933 9.53990E-05-2.86041E-05-2.86264E-05 3.55430E-07-1.22440E-20-1.22556E-18
 -1       934 9.52512E-05-2.84091E-05-2.86466E-05 3.81744E-07 1.05578E-19-8.41324E-19
 -1       935 9.50833E-05-2.81830E-05-2.86716E-05 4.40706E-07-3.41629E-19-5.03815E-19
 -1       936 9.48824E-05-2.79166E-05-2.86996E-05 5.37091E-07-3.93361E-19-5.87432E-19
 -1       937 9.46328E-05-2.75992E-05-2.87287E-05 6.75829E-07-2.55194E-19-8.77851E-19
 -1       938 9.43162E-05-2.72191E-05-2.87559E-05 8.61731E-07-6.94280E-19-9.44141E-19
 -1       939 9.39108E-05-2.67643E-05-2.87771E-05 1.09898E-06-3.82456E-19-1.04206E-18
 -1       940 9.33910E-05-2.62237E-05-2.87860E-05 1.39038E-06-1.99858E-19-1.25150E-19
 -1       941 9.27270E-05-2.55882E-05-2.87738E-05 1.73651E-06-4.71846E-19 7.68706E-20
 -1       942 9.18839E-05-2.48529E-05-2.87276E-05 2.13502E-06-9.38425E-19-4.94857E-20
 -1       943 9.08215E-05-2.40199E-05-2.86294E-05 2.58069E-06-7.92771E-19 1.88973E-19
 -1       944 8.94929E-05-2.31013E-05-2.84537E-05 3.06733E-06-3.92068E-19 7.47742E-19
 -1       945 8.78421E-05-2.21234E-05-2.81654E-05 3.59367E-06 1.08784E-18 6.77457E-19
 -1       946 8.58003E-05-2.11306E-05-2.77159E-05 4.17613E-06 1.62773E-18-9.48013E-19
 -1       947 8.32759E-05-2.01899E-05-2.70372E-05 4.87232E-06 7.30938E-19-1.61382E-18
 -1       948 8.01336E-05-1.93884E-05-2.60327E-05 5.82316E-06 4.64477E-19-1.89494E-18
 -1       949 7.61349E-05-1.88243E-05-2.45596E-05 7.34659E-06 9.40873E-19-2.12351E-18
 -1       950 9.65385E-05-2.80577E-05-2.93489E-05-3.21840E-07 4.28085E-19-1.52565E-18
 -1       951 9.60695E-05-2.92107E-05-2.86538E-05-6.63263E-07-9.50666E-20 1.56758E-19
 -1       952 9.56553E-05-2.48868E-05-3.03301E-05-1.08148E-06-4.65457E-19-1.50427E-18
 -1       953 9.54260E-05-2.86688E-05-2.86102E-05-4.03688E-07-4.33608E-19-4.89680E-20
 -1       954 9.55424E-05-2.88155E-05-2.85972E-05-4.19185E-07-4.37294E-19-6.39919E-19
 -1       955 9.51758E-05-2.83168E-05-2.86539E-05-4.71062E-07-5.97273E-19-1.91406E-19
 -1       956 9.50257E-05-2.81014E-05-2.86818E-05-5.66065E-07-2.52640E-19-3.91248E-19
 -1       957 9.48466E-05-2.78524E-05-2.87118E-05-7.11366E-07 5.01224E-19-7.87913E-19
 -1       958 9.46287E-05-2.75647E-05-2.87417E-05-9.15405E-07 4.53046E-19 1.98753E-19
 -1       959 9.43627E-05-2.72362E-05-2.87685E-05-1.18787E-06 5.65916E-19-3.95086E-19
 -1       960 9.40410E-05-2.68691E-05-2.87880E-05-1.53972E-06 6.01925E-19 3.65972E-19
 -1       961 9.36599E-05-2.64736E-05-2.87942E-05-1.98317E-06 8.68004E-20 5.48406E-19
 -1       962 9.32225E-05-2.60715E-05-2.87790E-05-2.53185E-06-8.11617E-19 9.85663E-19
 -1       963 9.27437E-05-2.57018E-05-2.87323E-05-3.20108E-06-5.58616E-19 4.29191E-19
 -1       964 9.22570E-05-2.54271E-05-2.86414E-05-4.00872E-06-6.76347E-19-5.94743E-21
 -1       965 9.18238E-05-2.53426E-05-2.84920E-05-4.97632E-06-7.38540E-19-8.37211E-20
 -1       966 9.15479E-05-2.55858E-05-2.82695E-05-6.13020E-06-3.14856E-19-8.92171E-20
 -1       967 9.15964E-05-2.63496E-05-2.79630E-05-7.49982E-06-5.64898E-19 4.76207E-19
 -1       968 9.22308E-05-2.78959E-05-2.75722E-05-9.10512E-06-3.02726E-18 1.30029E-18
 -1       969 9.38419E-05-3.05586E-05-2.71222E-05-1.09205E-05-2.38332E-18 3.53014E-18
 -1       970 9.70254E-05-3.47535E-05-2.66875E-05-1.27872E-05-9.66094E-19 3.60665E-18
 -1       971 1.02567E-04-4.08273E-05-2.64561E-05-1.41408E-05-1.98753E-18 1.56714E-18
 -1       972 1.08075E-04-4.64318E-05-2.64230E-05-1.49058E-05-2.27195E-18-1.17384E-18
 -1       973 7.23697E-05-1.97918E-05-2.25017E-05 1.15682E-05 3.14073E-19-2.19086E-18
 -1       974 9.53063E-05-2.85041E-05-2.86295E-05-4.19065E-07-7.37946E-19 4.61629E-19
 -1       975 9.59243E-05-2.91511E-05-2.86171E-05-5.90934E-07 6.11879E-19-3.89677E-19
 -1       976 9.62196E-05-2.92215E-05-2.87135E-05-7.22724E-07-1.24316E-20-3.52385E-19
 -1       977 9.49385E-05-2.32686E-05-3.07180E-05 1.87627E-06 8.96666E-19-1.72916E-18
 -1       978 7.73220E-05-2.95162E-05-2.03846E-05-2.43386E-05-4.48573E-19-1.75708E-18
 -1       979 9.65589E-05-2.86372E-05-2.91093E-05-5.89250E-07 2.23917E-19-1.24490E-18
 -1       980 9.63644E-05-2.91570E-05-2.88031E-05-7.49605E-07 2.13646E-19-9.64497E-19
 -1       981 9.64868E-05-2.89798E-05-2.89315E-05-7.16958E-07 5.52440E-19-1.12086E-18
 -1       982 9.57852E-05-2.62119E-05-2.98172E-05 1.04003E-06 8.41872E-19-1.41038E-18
 -1       983 9.45337E-05-2.22631E-05-3.09731E-05-4.04280E-07-1.09137E-20-2.19329E-18
 -1       984 9.56039E-05-2.44829E-05-3.04791E-05 4.92117E-07 6.48101E-19-1.71222E-18
 -1       985 9.56819E-05-2.48576E-05-3.03520E-05 8.88560E-07 7.20580E-19-1.72880E-18
 -1       986 6.27157E-05-1.58470E-05-1.99761E-05 2.28196E-06-4.05642E-19-3.09406E-18
 -1       987 9.56616E-05-2.89459E-05-2.85924E-05-4.59884E-07 1.30684E-19-5.39887E-19
 -1       988 9.93065E-05-4.12573E-05-2.48319E-05-1.95128E-05-8.93961E-19 9.42324E-21
 -1       989 9.63651E-05-2.71473E-05-2.96644E-05 1.34727E-07 9.27838E-19-1.46254E-18
 -1       990 9.57882E-05-2.90596E-05-2.85980E-05-5.19779E-07 6.85813E-19-5.56886E-19
 -1       991 9.58228E-05-2.55139E-05-3.01306E-05 1.07272E-06 6.88340E-19-1.66411E-18
 -1       992 6.84430E-05-2.13896E-05-2.00832E-05-1.69787E-05-1.17941E-18-3.47159E-18
 -1       993 9.56109E-05-2.44847E-05-3.04829E-05-4.85407E-07-7.15112E-20-1.77935E-18
 -1       994 9.53953E-05-2.85890E-05-2.86313E-05-3.01300E-07-9.46153E-19 1.68720E-19
 -1       995 9.61998E-05-2.92840E-05-2.86781E-05-4.49642E-07 4.09621E-19-4.75906E-19
 -1       996 9.64573E-05-2.66440E-05-2.99188E-05-1.65286E-07-8.67862E-20-1.21362E-18
 -1       997 9.67878E-05-2.77882E-05-2.95710E-05 1.05320E-07-8.80133E-20-1.20686E-18
 -1       998 9.69019E-05-2.85446E-05-2.92961E-05 2.69666E-07-5.74343E-19-1.19158E-18
 -1       999 9.68685E-05-2.90031E-05-2.90852E-05 3.57806E-07-6.85822E-19-1.01776E-18
 -1      1000 9.67471E-05-2.92510E-05-2.89269E-05 3.89821E-07-5.48199E-19-8.78534E-19
 -1      1001 9.65788E-05-2.93520E-05-2.88115E-05 3.85560E-07-6.64043E-20-4.10494E-19
 -1      1002 9.63911E-05-2.93536E-05-2.87303E-05 3.60333E-07-7.98162E-20-2.71769E-19
 -1      1003 9.62007E-05-2.92895E-05-2.86763E-05 3.25653E-07-1.09957E-19-9.42965E-19
 -1      1004 9.60167E-05-2.91821E-05-2.86434E-05 2.89870E-07-6.11846E-19-7.43381E-19
 -1      1005 9.58417E-05-2.90453E-05-2.86270E-05 2.59197E-07-4.27938E-19-8.74287E-19
 -1      1006 9.56737E-05-2.88857E-05-2.86235E-05 2.38141E-07-3.21000E-20-8.08055E-19
 -1      1007 9.55074E-05-2.87046E-05-2.86298E-05 2.29939E-07-4.71588E-19-8.73329E-19
 -1      1008 9.53340E-05-2.84990E-05-2.86436E-05 2.37883E-07-1.13129E-19-1.36413E-18
 -1      1009 9.51427E-05-2.82629E-05-2.86628E-05 2.64583E-07-1.82695E-19-1.17286E-18
 -1      1010 9.49200E-05-2.79876E-05-2.86854E-05 3.12483E-07-7.56500E-19-1.06794E-18
 -1      1011 9.46498E-05-2.76626E-05-2.87089E-05 3.83790E-07-4.99612E-19-9.61657E-19
 -1      1012 9.43131E-05-2.72763E-05-2.87302E-05 4.80152E-07-3.24328E-19-1.21213E-18
 -1      1013 9.38880E-05-2.68168E-05-2.87449E-05 6.02121E-07 4.30815E-20 3.34194E-20
 -1      1014 9.33495E-05-2.62730E-05-2.87472E-05 7.48371E-07-1.94789E-19 3.44164E-19
 -1      1015 9.26688E-05-2.56361E-05-2.87285E-05 9.14669E-07 1.11277E-19 1.11673E-19
 -1      1016 9.18131E-05-2.49009E-05-2.86769E-05 1.09270E-06-2.44737E-19 1.10848E-18
 -1      1017 9.07447E-05-2.40681E-05-2.85760E-05 1.26897E-06 2.28910E-19 2.29841E-18
 -1      1018 8.94191E-05-2.31459E-05-2.84032E-05 1.42432E-06-6.40662E-19 2.93262E-18
 -1      1019 8.77808E-05-2.21509E-05-2.81276E-05 1.53483E-06-5.73045E-19 2.14647E-18
 -1      1020 8.57543E-05-2.11073E-05-2.77065E-05 1.57555E-06 2.80974E-19 1.03118E-18
 -1      1021 8.32270E-05-2.00426E-05-2.70801E-05 1.53025E-06-1.20216E-19-7.05749E-19
 -1      1022 8.00291E-05-1.89855E-05-2.61621E-05 1.39723E-06 4.74452E-19-1.90519E-18
 -1      1023 7.58521E-05-1.79131E-05-2.48331E-05 1.23228E-06 1.27747E-18-8.85928E-19
 -1      1024 9.55495E-05-2.87716E-05-2.86191E-05-3.00510E-07-5.50165E-19 5.26561E-19
 -1      1025 9.48259E-05-2.78691E-05-2.86958E-05-4.73020E-07 2.29973E-19-4.83459E-19
 -1      1026 9.50447E-05-2.81443E-05-2.86716E-05-3.82454E-07 1.01754E-19-3.22306E-19
 -1      1027 9.42356E-05-2.71778E-05-2.87391E-05-7.88336E-07 7.20653E-19-7.83110E-19
 -1      1028 9.38365E-05-2.67529E-05-2.87502E-05-1.03165E-06-1.37486E-19 5.37191E-20
 -1      1029 9.33514E-05-2.62768E-05-2.87463E-05-1.34829E-06-5.84627E-19 5.61325E-19
 -1      1030 9.27719E-05-2.57610E-05-2.87191E-05-1.75444E-06-6.14991E-19 8.33581E-19
 -1      1031 9.20961E-05-2.52297E-05-2.86572E-05-2.27111E-06 7.46712E-20-3.59384E-19
 -1      1032 9.13330E-05-2.47250E-05-2.85464E-05-2.92640E-06-6.87791E-19-4.07326E-19
 -1      1033 9.05082E-05-2.43133E-05-2.83694E-05-3.75901E-06-1.00031E-18-2.34906E-19
 -1      1034 8.96722E-05-2.40928E-05-2.81056E-05-4.82362E-06-6.16254E-19-2.85251E-19
 -1      1035 8.89127E-05-2.42039E-05-2.77326E-05-6.19829E-06-1.11091E-18 5.03728E-19
 -1      1036 8.83761E-05-2.48451E-05-2.72281E-05-7.99331E-06-2.10393E-18 1.32175E-18
 -1      1037 8.83137E-05-2.63046E-05-2.65764E-05-1.03515E-05-3.77472E-18-3.36661E-20
 -1      1038 8.91281E-05-2.89626E-05-2.57820E-05-1.33784E-05-1.69241E-18-4.44732E-19
 -1      1039 9.16010E-05-3.34992E-05-2.48902E-05-1.71667E-05-7.21321E-19 1.70056E-19
 -1      1040 9.67983E-05-2.88434E-05-2.91235E-05-4.48487E-07 3.04194E-19-1.19509E-18
 -1      1041 9.63794E-05-2.93242E-05-2.87379E-05-4.94328E-07-3.12805E-19-7.13778E-19
 -1      1042 9.67965E-05-2.83090E-05-2.93519E-05-2.97695E-07 1.92845E-19-1.07346E-18
 -1      1043 9.55748E-05-2.43611E-05-3.05199E-05 1.04689E-08 3.74675E-19-1.94925E-18
 -1      1044 6.89340E-05-1.65509E-05-2.24344E-05 2.06100E-06 5.67153E-19-1.18911E-18
 -1      1045 9.65533E-05-2.92910E-05-2.88267E-05-5.21250E-07-4.04785E-19-4.40495E-19
 -1      1046 9.66362E-05-2.74546E-05-2.96492E-05-2.75385E-08 7.32295E-19-1.26005E-18
 -1      1047 8.75449E-05-3.35007E-05-2.31261E-05-2.12798E-05-9.82295E-19-6.83714E-19
 -1      1048 9.67028E-05-2.91479E-05-2.89521E-05-5.13496E-07 7.24799E-20-6.02107E-19
 -1      1049 9.52305E-05-2.83818E-05-2.86494E-05-3.27073E-07-5.71784E-19 3.74173E-19
 -1      1050 9.45608E-05-2.75489E-05-2.87194E-05-6.05545E-07 3.92362E-19-1.00064E-18
 -1      1051 9.57026E-05-2.89342E-05-2.86151E-05-3.20818E-07-7.94098E-21 7.53899E-19
 -1      1052 9.64717E-05-2.65092E-05-2.99832E-05-4.56948E-08 1.49480E-19-1.50220E-18
 -1      1053 9.62308E-05-2.61763E-05-3.00251E-05 3.97664E-07 6.70577E-19-1.64371E-18
 -1      1054 9.60256E-05-2.91963E-05-2.86411E-05-3.99904E-07 4.10738E-19-5.84410E-20
 -1      1055 9.64865E-05-2.65463E-05-2.99742E-05 8.77444E-08 4.30506E-19-1.55844E-18
 -1      1056 7.83586E-05-2.58991E-05-2.24513E-05-1.79454E-05-2.24320E-18-1.80155E-18
 -1      1057 9.69481E-05-2.81589E-05-2.94813E-05 6.53674E-08-3.25515E-19-1.26501E-18
 -1      1058 9.70028E-05-2.87956E-05-2.92315E-05 1.11368E-07-5.48250E-19-8.66091E-19
 -1      1059 9.69273E-05-2.91669E-05-2.90400E-05 1.32828E-07-4.43862E-19-7.87821E-19
 -1      1060 9.67763E-05-2.93500E-05-2.88969E-05 1.38118E-07-1.08826E-19-5.08284E-19
 -1      1061 9.65873E-05-2.94033E-05-2.87931E-05 1.33302E-07 1.63537E-19-6.46625E-19
 -1      1062 9.63847E-05-2.93694E-05-2.87208E-05 1.23351E-07-2.27925E-19-2.76035E-19
 -1      1063 9.61813E-05-2.92770E-05-2.86733E-05 1.11742E-07-2.28172E-19-3.11920E-19
 -1      1064 9.59856E-05-2.91465E-05-2.86453E-05 1.00107E-07-3.60219E-19 1.28433E-19
 -1      1065 9.58006E-05-2.89901E-05-2.86330E-05 8.97018E-08-6.44490E-19-2.18810E-19
 -1      1066 9.56192E-05-2.88098E-05-2.86326E-05 8.46546E-08-1.55180E-19-9.75867E-19
 -1      1067 9.54336E-05-2.86049E-05-2.86408E-05 8.50986E-08-2.54125E-19-6.79445E-19
 -1      1068 9.52345E-05-2.83716E-05-2.86555E-05 9.07762E-08 2.87427E-19-6.33400E-19
 -1      1069 9.50089E-05-2.81021E-05-2.86743E-05 1.02375E-07 3.06867E-19 2.05431E-19
 -1      1070 9.47415E-05-2.77869E-05-2.86948E-05 1.19779E-07-1.05412E-19 1.33297E-18
 -1      1071 9.44141E-05-2.74152E-05-2.87138E-05 1.42020E-07-1.61825E-19 1.78152E-18
 -1      1072 9.40062E-05-2.69758E-05-2.87273E-05 1.66803E-07-3.93775E-19 1.77868E-18
 -1      1073 9.34949E-05-2.64587E-05-2.87298E-05 1.89756E-07-2.45810E-19 4.77967E-19
 -1      1074 9.28547E-05-2.58562E-05-2.87137E-05 2.03381E-07-2.62706E-19 1.20797E-18
 -1      1075 9.20577E-05-2.51646E-05-2.86685E-05 1.95658E-07 5.53175E-19 1.09150E-18
 -1      1076 9.10735E-05-2.43867E-05-2.85801E-05 1.48290E-07 3.36307E-19 1.30439E-18
 -1      1077 8.98683E-05-2.35335E-05-2.84294E-05 3.45576E-08-5.82297E-20 1.28631E-18
 -1      1078 8.84025E-05-2.26252E-05-2.81906E-05-1.83249E-07-9.73703E-19 1.12078E-18
 -1      1079 8.66252E-05-2.16917E-05-2.78293E-05-5.57155E-07-9.02341E-19 1.11058E-18
 -1      1080 8.44621E-05-2.07683E-05-2.72986E-05-1.15884E-06-6.16075E-19 3.47596E-19
 -1      1081 8.17879E-05-1.98831E-05-2.65322E-05-2.09258E-06-1.22413E-18-4.07924E-19
 -1      1082 7.83455E-05-1.90106E-05-2.54328E-05-3.44006E-06 1.09385E-18-1.44819E-18
 -1      1083 9.48788E-05-2.79479E-05-2.86846E-05-2.36732E-07 6.17554E-19-8.12530E-19
 -1      1084 6.55212E-05-1.68354E-05-2.08211E-05-6.37711E-06-1.51369E-18-4.79682E-18
 -1      1085 9.55031E-05-2.86912E-05-2.86336E-05-1.63131E-07-2.55096E-19 5.21684E-19
 -1      1086 9.51147E-05-2.82317E-05-2.86642E-05-1.94525E-07 1.37563E-19-1.07413E-18
 -1      1087 9.32864E-05-2.62604E-05-2.87254E-05-7.08407E-07-8.96071E-19 9.83387E-19
 -1      1088 9.38173E-05-2.67785E-05-2.87309E-05-5.28846E-07-3.65810E-19 7.59180E-19
 -1      1089 9.18531E-05-2.50388E-05-2.86347E-05-1.27499E-06 9.92534E-19-1.59734E-19
 -1      1090 9.09231E-05-2.43688E-05-2.85232E-05-1.71088E-06 1.74250E-19 1.17496E-19
 -1      1091 8.98414E-05-2.37059E-05-2.83436E-05-2.29857E-06-8.23107E-19-4.79451E-19
 -1      1092 8.86107E-05-2.31094E-05-2.80717E-05-3.09650E-06-1.25083E-18-5.74068E-19
 -1      1093 8.72449E-05-2.26638E-05-2.76772E-05-4.18962E-06-1.28758E-18 3.55877E-19
 -1      1094 8.57728E-05-2.24844E-05-2.71229E-05-5.70200E-06-1.82734E-18 1.15592E-18
 -1      1095 8.42469E-05-2.27337E-05-2.63631E-05-7.81862E-06-1.28340E-18 2.63316E-19
 -1      1096 8.27848E-05-2.36289E-05-2.53433E-05-1.07614E-05-2.08826E-18-2.12176E-18
 -1      1097 7.23033E-05-1.98411E-05-2.24592E-05-1.09090E-05-2.48698E-18-3.71220E-18
 -1      1098 9.58609E-05-2.90774E-05-2.86216E-05-3.55481E-07 6.78481E-20 8.88296E-19
 -1      1099 9.64313E-05-2.93750E-05-2.87384E-05-2.54479E-07-1.95132E-21-1.20286E-18
 -1      1100 9.69620E-05-2.85794E-05-2.93068E-05-1.92544E-07 2.39931E-21-1.10921E-18
 -1      1101 9.68498E-05-2.78009E-05-2.95920E-05-6.45554E-08 3.02813E-19-1.32800E-18
 -1      1102 9.66262E-05-2.93781E-05-2.88206E-05-2.72423E-07 1.19709E-20-7.64643E-19
 -1      1103 9.69266E-05-2.90361E-05-2.90959E-05-2.54085E-07-1.52886E-19-5.12719E-19
 -1      1104 9.67846E-05-2.74557E-05-2.97135E-05 7.07570E-09-7.78509E-20-1.31625E-18
 -1      1105 9.53184E-05-2.84768E-05-2.86464E-05-1.71180E-07-1.30003E-19-4.70514E-20
 -1      1106 8.48071E-05-2.79075E-05-2.43729E-05-1.57298E-05-1.48919E-18-1.65566E-18
 -1      1107 7.31692E-05-1.82149E-05-2.35536E-05-5.37133E-06-5.38138E-19-2.78362E-18
 -1      1108 9.42475E-05-2.72294E-05-2.87220E-05-3.97026E-07 6.57767E-20-5.06953E-19
 -1      1109 9.68007E-05-2.92811E-05-2.89369E-05-2.75883E-07 5.29240E-20-5.74991E-19
 -1      1110 9.26369E-05-2.56769E-05-2.86971E-05-9.50350E-07-1.48743E-19 5.58162E-19
 -1      1111 9.45953E-05-2.76168E-05-2.87051E-05-3.02276E-07 2.34618E-19-7.98350E-19
 -1      1112 9.56799E-05-2.88807E-05-2.86282E-05-1.67201E-07-4.81844E-19 6.20248E-19
 -1      1113 9.62343E-05-2.93059E-05-2.86835E-05-2.30024E-07-1.98782E-20-1.12114E-18
 -1      1114 9.58966E-05-2.90737E-05-2.86383E-05-8.01073E-08-8.07123E-19-6.82498E-19
 -1      1115 7.85002E-05-2.15115E-05-2.44315E-05-1.01280E-05-1.06707E-18-3.43954E-18
 -1      1116 9.60671E-05-2.92066E-05-2.86545E-05-1.48678E-07-1.93537E-19-6.60303E-19
 -1      1117 1.16859E-04 2.57580E-10-4.18570E-05-4.14652E-05-2.91379E-19 1.06644E-17
 -1      1118 8.86543E-05 7.19284E-11-3.72525E-05-2.41660E-05-1.66865E-19 1.97978E-18
 -1      1119 8.40787E-05 4.14615E-11-3.57673E-05-1.78750E-05-1.17791E-19-1.85847E-18
 -1      1120 8.23353E-05 3.20118E-11-3.50729E-05-1.38338E-05-8.21093E-20-3.68175E-18
 -1      1121 8.15314E-05 2.73398E-11-3.47385E-05-1.05308E-05-5.96629E-20-4.56980E-18
 -1      1122 8.11282E-05 2.45988E-11-3.45729E-05-7.63779E-06-3.75805E-20-4.97993E-18
 -1      1123 8.09178E-05 2.29439E-11-3.44890E-05-4.97792E-06-2.14802E-20-5.12473E-18
 -1      1124 8.08153E-05 2.20506E-11-3.44495E-05-2.43130E-06-1.09171E-20-5.15566E-18
 -1      1125 8.07862E-05 2.17801E-11-3.44383E-05 5.24387E-08 9.12628E-21-5.15958E-18
 -1      1126 8.08197E-05 2.20948E-11-3.44509E-05 2.53872E-06 1.93279E-20-5.09702E-18
 -1      1127 8.09267E-05 2.30454E-11-3.44918E-05 5.09379E-06 2.83491E-20-4.96174E-18
 -1      1128 8.11433E-05 2.47632E-11-3.45768E-05 7.77017E-06 4.89625E-20-4.59915E-18
 -1      1129 8.15531E-05 2.76386E-11-3.47446E-05 1.06905E-05 7.25669E-20-4.03287E-18
 -1      1130 8.23590E-05 3.25002E-11-3.50830E-05 1.40398E-05 9.93676E-20-2.98538E-18
 -1      1131 8.40759E-05 4.19282E-11-3.57876E-05 1.81267E-05 1.30337E-19-9.93834E-19
 -1      1132 8.83518E-05 6.67518E-11-3.73227E-05 2.40085E-05 1.46960E-19 3.00533E-18
 -1      1133 1.06623E-04 1.63936E-10-4.06357E-05 3.61915E-05 3.29708E-19 1.14239E-17
 -1      1134 1.30226E-04-2.57579E-05-4.02756E-05-2.61056E-05-1.20893E-18 1.62190E-17
 -1      1135 9.74644E-05-2.88650E-05-3.15801E-05-6.79978E-07-4.20631E-19 1.32797E-17
 -1      1136 9.01692E-05-2.70294E-05-2.78960E-05 3.87186E-07-1.62498E-19 9.04462E-18
 -1      1137 8.82593E-05-2.65754E-05-2.66468E-05 2.50809E-07-7.13294E-20 6.40463E-18
 -1      1138 8.79015E-05-2.64489E-05-2.63907E-05 1.65918E-07-1.08389E-19 4.55860E-18
 -1      1139 8.82617E-05-2.65258E-05-2.64759E-05 1.18162E-07-4.57944E-20 3.36240E-18
 -1      1140 8.89491E-05-2.67106E-05-2.66789E-05 8.75775E-08-7.35376E-20 2.74905E-18
 -1      1141 8.97644E-05-2.69426E-05-2.69216E-05 6.63542E-08-9.69619E-20 1.36003E-18
 -1      1142 9.05973E-05-2.71853E-05-2.71699E-05 5.06600E-08-4.31488E-20-5.80085E-20
 -1      1143 9.13854E-05-2.74175E-05-2.74054E-05 3.85775E-08-3.19236E-20-1.44510E-18
 -1      1144 9.20954E-05-2.76280E-05-2.76184E-05 2.90816E-08 1.64599E-21-2.39360E-18
 -1      1145 9.27124E-05-2.78117E-05-2.78040E-05 2.15593E-08 1.90760E-19-1.93304E-18
 -1      1146 9.32331E-05-2.79673E-05-2.79611E-05 1.55959E-08-5.68660E-20-2.12050E-18
 -1      1147 9.36618E-05-2.80958E-05-2.80908E-05 1.08818E-08 3.74209E-20-2.63657E-18
 -1      1148 9.40076E-05-2.81997E-05-2.81958E-05 7.17182E-09-2.25488E-20-2.55082E-18
 -1      1149 9.42819E-05-2.82824E-05-2.82793E-05 4.26770E-09-1.16640E-19-3.18545E-18
 -1      1150 9.44981E-05-2.83478E-05-2.83454E-05 2.01034E-09 2.75877E-20-4.29804E-18
 -1      1151 9.46704E-05-2.84002E-05-2.83984E-05 2.77443E-10 1.61716E-20-4.61774E-18
 -1      1152 9.48140E-05-2.84441E-05-2.84429E-05-1.01614E-09 1.00973E-19-4.30951E-18
 -1      1153 9.49455E-05-2.84845E-05-2.84838E-05-1.91607E-09 9.02084E-20-3.07675E-18
 -1      1154 9.50833E-05-2.85270E-05-2.85268E-05-2.42399E-09-9.81924E-20-2.22862E-18
 -1      1155 9.52485E-05-2.85778E-05-2.85784E-05-2.49011E-09 2.26027E-21-8.53922E-19
 -1      1156 9.54661E-05-2.86447E-05-2.86461E-05-2.00183E-09 4.73902E-20-2.77557E-19
 -1      1157 9.57666E-05-2.87367E-05-2.87394E-05-7.66499E-10-2.12416E-19-1.71191E-18
 -1      1158 9.61874E-05-2.88652E-05-2.88695E-05 1.51400E-09 5.88791E-20-2.46303E-18
 -1      1159 9.67750E-05-2.90440E-05-2.90507E-05 5.27976E-09-1.51910E-19-2.81341E-18
 -1      1160 9.75868E-05-2.92906E-05-2.93004E-05 1.11628E-08 1.42613E-19-3.48739E-18
 -1      1161 9.86933E-05-2.96257E-05-2.96400E-05 2.00496E-08 7.06578E-20-3.15883E-18
 -1      1162 1.00179E-04-3.00746E-05-3.00948E-05 3.31445E-08 1.45986E-19-2.92191E-18
 -1      1163 1.02140E-04-3.06659E-05-3.06937E-05 5.19918E-08 1.21132E-19-1.36150E-18
 -1      1164 1.04682E-04-3.14298E-05-3.14664E-05 7.83480E-08-2.77084E-19 1.54451E-19
 -1      1165 1.07897E-04-3.23929E-05-3.24378E-05 1.13648E-07 2.20575E-19 1.48800E-18
 -1      1166 1.11831E-04-3.35672E-05-3.36149E-05 1.57547E-07 2.59321E-20 1.22383E-18
 -1      1167 1.16412E-04-3.49285E-05-3.49630E-05 2.04672E-07-1.02838E-19-1.86691E-19
 -1      1168 1.21327E-04-3.63803E-05-3.63684E-05 2.38581E-07 1.22335E-19-6.07217E-19
 -1      1169 1.25842E-04-3.77017E-05-3.75904E-05 2.23313E-07 3.61901E-19 2.85410E-18
 -1      1170 1.28625E-04-3.84946E-05-3.82275E-05 9.88810E-08-3.78584E-20 2.91164E-18
 -1      1171 1.27744E-04-3.81871E-05-3.77567E-05-2.01160E-07-2.12751E-20 4.06428E-18
 -1      1172 1.21202E-04-3.62024E-05-3.57269E-05-6.81934E-07-2.36428E-19 4.09403E-18
 -1      1173 1.08343E-04-3.23820E-05-3.21278E-05-1.17792E-06 2.65452E-19 4.76795E-18
 -1      1174 9.16541E-05-2.75012E-05-2.77295E-05-1.33000E-06 1.03781E-19 4.98225E-18
 -1      1175 7.70316E-05-2.32696E-05-2.39786E-05-8.48785E-07-5.40129E-19 1.67427E-18
 -1      1176 7.06860E-05-2.14186E-05-2.22564E-05 9.39068E-08 9.15060E-20-1.10202E-18
 -1      1177 7.44216E-05-2.24376E-05-2.29486E-05 8.89217E-07 2.57022E-20-4.61421E-19
 -1      1178 8.41214E-05-2.52014E-05-2.51858E-05 1.06661E-06 3.90462E-19-1.05974E-18
 -1      1179 9.33226E-05-2.78919E-05-2.75195E-05 7.02748E-07 3.21475E-19 1.33937E-19
 -1      1180 9.78892E-05-2.92724E-05-2.88787E-05 1.93362E-07-1.45584E-21-1.94574E-18
 -1      1181 9.77451E-05-2.92928E-05-2.91011E-05-1.14756E-07 3.80629E-19 1.02852E-18
 -1      1182 9.57370E-05-2.87898E-05-2.87228E-05-5.83332E-08-2.26777E-19-1.63972E-18
 -1      1183 9.48748E-05-2.84514E-05-2.83105E-05 1.17429E-07 3.10315E-19 3.64408E-19
 -1      1184 1.31060E-04-3.77399E-05-3.86610E-05 1.21745E-05-2.10858E-19 1.83705E-17
 -1      1185 9.65662E-05-2.81916E-05-3.13326E-05 8.01366E-07 1.21549E-19 1.44977E-17
 -1      1186 9.03829E-05-2.69320E-05-2.78768E-05 1.20132E-07 1.40184E-19 1.05710E-17
 -1      1187 8.83456E-05-2.65026E-05-2.66830E-05 8.99429E-09 9.34119E-20 8.10211E-18
 -1      1188 8.79420E-05-2.64115E-05-2.64178E-05-2.52906E-08 9.15689E-21 6.53147E-18
 -1      1189 8.82837E-05-2.65085E-05-2.64916E-05-3.43351E-08 1.24687E-19 4.98045E-18
 -1      1190 8.89622E-05-2.67038E-05-2.66891E-05-3.55447E-08-1.59278E-20 3.98828E-18
 -1      1191 8.97726E-05-2.69413E-05-2.69290E-05-3.38516E-08-9.16950E-21 3.80609E-18
 -1      1192 9.06025E-05-2.71869E-05-2.71754E-05-3.08245E-08 7.57863E-21 2.69580E-18
 -1      1193 9.13889E-05-2.74206E-05-2.74097E-05-2.71706E-08 4.73184E-20 1.97249E-18
 -1      1194 9.20978E-05-2.76318E-05-2.76217E-05-2.33033E-08 8.99397E-20 1.21984E-18
 -1      1195 9.27141E-05-2.78157E-05-2.78065E-05-1.94832E-08 8.43621E-22 8.50527E-19
 -1      1196 9.32346E-05-2.79712E-05-2.79631E-05-1.58669E-08 7.40084E-20 3.21274E-19
 -1      1197 9.36634E-05-2.80995E-05-2.80925E-05-1.25353E-08-5.45939E-23-7.50518E-19
 -1      1198 9.40096E-05-2.82032E-05-2.81972E-05-9.51431E-09 3.13666E-20-1.48427E-18
 -1      1199 9.42848E-05-2.82857E-05-2.82808E-05-6.79126E-09 3.30051E-20-2.32427E-18
 -1      1200 9.45024E-05-2.83511E-05-2.83471E-05-4.32753E-09-9.23916E-20-1.56943E-18
 -1      1201 9.46767E-05-2.84036E-05-2.84005E-05-2.06989E-09 7.06722E-20-7.72221E-19
 -1      1202 9.48231E-05-2.84479E-05-2.84457E-05 3.96180E-11 2.02278E-20-1.66045E-18
 -1      1203 9.49583E-05-2.84890E-05-2.84876E-05 2.05389E-09 1.00799E-19-2.84253E-18
 -1      1204 9.51005E-05-2.85323E-05-2.85319E-05 4.01016E-09 1.17178E-20-3.41384E-18
 -1      1205 9.52701E-05-2.85840E-05-2.85847E-05 5.91725E-09-1.34317E-19-1.96538E-18
 -1      1206 9.54909E-05-2.86511E-05-2.86533E-05 7.73901E-09 1.42004E-19-2.89229E-18
 -1      1207 9.57901E-05-2.87420E-05-2.87458E-05 9.37210E-09-1.01996E-20-3.69913E-18
 -1      1208 9.61991E-05-2.88659E-05-2.88718E-05 1.06164E-08 8.22559E-20-3.66967E-18
 -1      1209 9.67534E-05-2.90333E-05-2.90420E-05 1.11364E-08 2.68282E-20-2.12259E-18
 -1      1210 9.74916E-05-2.92557E-05-2.92676E-05 1.04144E-08-2.66812E-19-1.47185E-18
 -1      1211 9.84523E-05-2.95444E-05-2.95600E-05 7.70045E-09-6.57580E-20-2.77416E-18
 -1      1212 9.96694E-05-2.99089E-05-2.99284E-05 1.97742E-09-8.85286E-20-3.00194E-18
 -1      1213 1.01162E-04-3.03546E-05-3.03775E-05-8.01936E-09-1.30058E-19-4.46028E-18
 -1      1214 1.02921E-04-3.08775E-05-3.09021E-05-2.36429E-08-6.65454E-20-5.27590E-18
 -1      1215 1.04883E-04-3.14586E-05-3.14805E-05-4.58884E-08 1.60733E-19-6.10605E-18
 -1      1216 1.06908E-04-3.20545E-05-3.20658E-05-7.44468E-08-1.19486E-20-5.06481E-18
 -1      1217 1.08734E-04-3.25881E-05-3.25762E-05-1.06061E-07-3.10231E-19-3.62817E-18
 -1      1218 1.09958E-04-3.29406E-05-3.28885E-05-1.32295E-07-1.45587E-19-3.63576E-18
 -1      1219 1.10031E-04-3.29526E-05-3.28435E-05-1.37754E-07 1.41934E-19-5.32881E-18
 -1      1220 1.08332E-04-3.24453E-05-3.22723E-05-1.01513E-07 3.46360E-19-7.92031E-18
 -1      1221 1.04352E-04-3.12724E-05-3.10545E-05-5.75800E-09 1.06121E-19-7.12439E-18
 -1      1222 9.80052E-05-2.94060E-05-2.92003E-05 1.46987E-07-6.96784E-20-6.08948E-18
 -1      1223 8.99519E-05-2.70297E-05-2.69245E-05 3.16772E-07 3.35712E-19-6.22829E-18
 -1      1224 8.17055E-05-2.45745E-05-2.46487E-05 4.29684E-07-5.70401E-19-3.81467E-18
 -1      1225 7.52569E-05-2.26248E-05-2.28880E-05 4.16172E-07-8.91304E-20-1.98158E-18
 -1      1226 7.22371E-05-2.16817E-05-2.20453E-05 2.65675E-07 2.78839E-19-3.93238E-18
 -1      1227 7.30906E-05-2.19073E-05-2.22278E-05 4.51221E-08 1.16752E-19-5.74484E-18
 -1      1228 7.68913E-05-2.30433E-05-2.32139E-05-1.44316E-07 5.77901E-20-7.75840E-18
 -1      1229 8.19653E-05-2.45834E-05-2.45941E-05-2.36809E-07 2.97841E-19-1.06523E-17
 -1      1230 8.68326E-05-2.60627E-05-2.59812E-05-2.40222E-07 2.72229E-19-1.25448E-17
 -1      1231 9.07816E-05-2.72452E-05-2.71419E-05-2.18076E-07 1.83880E-19-9.73860E-18
 -1      1232 9.36790E-05-2.80823E-05-2.79690E-05-2.19464E-07 4.11961E-19-8.39113E-18
 -1      1233 9.51155E-05-2.85607E-05-2.84126E-05-2.62217E-08-3.00749E-19-4.06255E-18
 -1      1234 9.52363E-05-2.87008E-05-2.84302E-05-5.90581E-08-4.05488E-18-6.89918E-20
 -1      1235 9.57097E-05-3.02035E-05-2.80310E-05-2.42057E-07-4.06761E-19-1.85477E-19
 -1      1236 9.62883E-05-3.23047E-05-2.76103E-05-2.79390E-07 4.83526E-18 4.38909E-19
 -1      1237 9.63578E-05-3.27041E-05-2.77218E-05-1.28286E-07 4.19882E-18 2.72480E-19
 -1      1238 9.52706E-05-2.91940E-05-2.89512E-05 1.88228E-07 8.34984E-18 6.43269E-19
 -1      1239 9.25796E-05-2.02413E-05-3.16536E-05 6.34668E-07 6.78632E-18 4.76562E-19
 -1      1240 8.82994E-05-5.71631E-06-3.57616E-05 1.06121E-06 8.39346E-18 5.58717E-19
 -1      1241 8.31260E-05 1.20413E-05-4.05465E-05 1.23180E-06 7.18390E-18-4.89727E-19
 -1      1242 7.86399E-05 2.76166E-05-4.46044E-05 9.01653E-07 7.74389E-18 6.98577E-19
 -1      1243 7.65305E-05 3.49800E-05-4.65006E-05 1.16997E-07 8.87284E-18-1.14643E-18
 -1      1244 7.76359E-05 3.10583E-05-4.55332E-05-7.17932E-07 3.87878E-18-1.40196E-18
 -1      1245 8.13852E-05 1.80334E-05-4.22028E-05-1.16023E-06-2.12499E-18 2.42873E-19
 -1      1246 8.61832E-05 1.45862E-06-3.77935E-05-1.08033E-06-5.28273E-18 2.20485E-19
 -1      1247 9.05305E-05-1.33068E-05-3.36686E-05-6.88325E-07 5.52265E-19 6.01797E-19
 -1      1248 9.35525E-05-2.32984E-05-3.07242E-05-3.61071E-07 2.36020E-18-1.01565E-18
 -1      1249 9.47170E-05-2.76853E-05-2.91372E-05 1.32144E-07 2.08039E-19-1.05528E-18
 -1      1250 9.53758E-05-2.89003E-05-2.84115E-05 1.19798E-07-2.81188E-19 8.60443E-19
 -1      1251 3.97539E-05-1.27613E-04 2.18984E-05-1.68923E-05-1.92886E-17-2.24771E-18
 -1      1252 2.04888E-05-7.65561E-05 1.13509E-05-2.90459E-05-1.25107E-17-2.76683E-18
 -1      1253 1.06536E-05-9.00260E-06-7.07900E-06 3.36266E-06-3.28649E-18-1.03677E-18
 -1      1254 4.64145E-05 2.70455E-05-3.06224E-05 6.64669E-05 6.11558E-18 8.42967E-18
 -1      1255 1.30799E-04 1.10306E-05-5.32471E-05 1.15802E-04 1.02305E-17 1.72032E-17
 -1      1256 2.36300E-04-4.07125E-05-7.10048E-05 1.18578E-04 5.97921E-18 1.50636E-17
 -1      1257 3.14972E-04-8.81009E-05-8.17290E-05 5.99468E-05 2.16300E-18 8.76764E-18
 -1      1258 3.28774E-04-9.86166E-05-8.28440E-05-2.69363E-05 5.34160E-19-3.36441E-18
 -1      1259 2.66434E-04-6.18726E-05-7.47071E-05-9.52472E-05 1.79020E-18-6.87791E-18
 -1      1260 1.66534E-04-9.21111E-06-5.89971E-05-1.16230E-04 5.29311E-18-1.01610E-17
 -1      1261 7.24987E-05 2.44600E-05-3.89198E-05-8.54840E-05 8.82270E-18-1.05676E-17
 -1      1262 1.81798E-05 1.64457E-05-1.80251E-05-3.07154E-05 1.17975E-17-9.09713E-18
 -1      1263 8.16204E-06-2.89371E-05 7.57445E-07 1.42897E-05 5.29396E-18-4.24956E-18
 -1      1264 2.48951E-05-8.80176E-05 1.49246E-05 2.75802E-05-2.70204E-19 4.29234E-19
 -1      1265 3.86567E-05-1.22703E-04 2.22152E-05 6.89612E-06-5.74712E-19 6.02929E-19
 -1      1266 3.51913E-05-1.15634E-04 2.05759E-05-2.31906E-05-7.65718E-19-4.87600E-19
 -1      1267 1.48389E-05-6.45001E-05 1.01557E-05-2.96693E-05-5.83521E-18-3.05228E-18
 -1      1268 9.57671E-06-6.32506E-06-7.89699E-06 3.03652E-06-6.65429E-18-4.63581E-18
 -1      1269 4.62248E-05 2.17642E-05-2.96170E-05 6.06485E-05-5.03646E-18-5.82420E-18
 -1      1270 1.28540E-04 3.55013E-06-5.08206E-05 1.05349E-04-6.10287E-18-9.54267E-18
 -1      1271 2.32879E-04-4.47740E-05-6.90991E-05 1.06589E-04-3.64521E-18-1.06828E-17
 -1      1272 3.16660E-04-9.10643E-05-8.09648E-05 5.58772E-05-1.37717E-18-7.69868E-18
 -1      1273 3.36218E-04-1.00044E-04-8.42809E-05-2.73922E-05-1.51037E-19-1.75325E-18
 -1      1274 2.84970E-04-6.76127E-05-7.80368E-05-1.02610E-04 7.62965E-19-1.08928E-18
 -1      1275 1.84019E-04-1.11668E-05-6.35463E-05-1.27755E-04-1.57548E-19-1.56193E-18
 -1      1276 8.62494E-05 2.64130E-05-4.37727E-05-9.97086E-05-3.25261E-18 2.48858E-18
 -1      1277 2.40289E-05 2.25597E-05-2.21743E-05-4.19233E-05-2.72575E-18 3.92684E-18
 -1      1278 8.34556E-06-2.30365E-05-2.07013E-06 1.04615E-05-2.10234E-18 1.16213E-18
 -1      1279 2.35128E-05-8.62881E-05 1.36681E-05 3.16196E-05-1.62292E-18 1.05879E-19
 -1      1280 4.28957E-05-1.33116E-04 2.24339E-05 1.54360E-05-1.32785E-17 1.29278E-19
 -1      1281 1.04449E-04-2.20208E-05-3.78941E-05-1.72746E-05-4.45539E-19 8.85022E-18
 -1      1282 9.03235E-05-6.68207E-06-3.60184E-05-2.04704E-05-1.31788E-18 1.73906E-19
 -1      1283 9.26605E-05-6.74084E-06-3.72237E-05-2.57588E-05-1.66802E-18 2.17825E-18
 -1      1284 8.59047E-05-4.09731E-06-3.51300E-05-1.64300E-05-1.32809E-18-2.65645E-18
 -1      1285 8.71594E-05-4.09056E-06-3.56000E-05-1.88512E-05-1.50767E-18-1.42315E-18
 -1      1286 9.21382E-05-1.04647E-05-3.50945E-05-1.90341E-05-2.31190E-18 1.97888E-19
 -1      1287 8.40949E-05-3.18932E-06-3.46864E-05-1.28168E-05-1.09245E-18-4.09079E-18
 -1      1288 8.47045E-05-3.15897E-06-3.49107E-05-1.46294E-05-1.24043E-18-3.45380E-18
 -1      1289 8.78633E-05-7.39455E-06-3.45733E-05-1.54078E-05-2.08930E-18-2.14400E-18
 -1      1290 8.31849E-05-2.72807E-06-3.44699E-05-9.68353E-06-8.31985E-19-4.77889E-18
 -1      1291 8.35000E-05-2.71146E-06-3.45793E-05-1.12313E-05-9.40326E-19-4.47469E-18
 -1      1292 8.58630E-05-5.98378E-06-3.43049E-05-1.19577E-05-1.68211E-18-3.41047E-18
 -1      1293 8.26898E-05-2.45611E-06-3.43628E-05-6.91314E-06-5.74861E-19-5.07669E-18
 -1      1294 8.28604E-05-2.44784E-06-3.44177E-05-8.28363E-06-6.59488E-19-4.93177E-18
 -1      1295 8.48185E-05-5.21543E-06-3.41727E-05-8.94013E-06-1.21993E-18-3.91845E-18
 -1      1296 8.24135E-05-2.29097E-06-3.43093E-05-4.29412E-06-3.31557E-19-5.15409E-18
 -1      1297 8.25050E-05-2.28705E-06-3.43368E-05-5.59511E-06-4.04538E-19-5.12489E-18
 -1      1298 8.42300E-05-4.75966E-06-3.41084E-05-6.21569E-06-8.38538E-19-4.21187E-18
 -1      1299 8.22806E-05-2.20167E-06-3.42867E-05-1.78965E-06-6.01056E-20-5.21926E-18
 -1      1300 8.23197E-05-2.20008E-06-3.42979E-05-3.04045E-06-1.37097E-19-5.17875E-18
 -1      1301 8.39071E-05-4.49660E-06-3.40788E-05-3.64417E-06-3.96054E-19-4.27562E-18
 -1      1302 8.22544E-05-2.17414E-06-3.42840E-05 6.69662E-07 1.52101E-19-5.20248E-18
 -1      1303 8.22530E-05-2.17418E-06-3.42836E-05-5.65975E-07 6.80637E-20-5.21873E-18
 -1      1304 8.37653E-05-4.37694E-06-3.40677E-05-1.17038E-06 2.53928E-20-4.40028E-18
 -1      1305 8.23284E-05-2.20441E-06-3.42994E-05 3.14775E-06 3.62100E-19-5.13784E-18
 -1      1306 8.22863E-05-2.20604E-06-3.42875E-05 1.89435E-06 2.84298E-19-5.20089E-18
 -1      1307 8.37703E-05-4.38113E-06-3.40681E-05 1.27348E-06 3.52298E-19-4.35907E-18
 -1      1308 8.25224E-05-2.29749E-06-3.43393E-05 5.71157E-06 5.61871E-19-4.92866E-18
 -1      1309 8.24274E-05-2.30085E-06-3.43112E-05 4.40462E-06 4.86253E-19-5.05898E-18
 -1      1310 8.39227E-05-4.51012E-06-3.40799E-05 3.75144E-06 6.88156E-19-4.26576E-18
 -1      1311 8.28832E-05-2.46333E-06-3.44200E-05 8.39286E-06 8.10055E-19-4.54898E-18
 -1      1312 8.27098E-05-2.47200E-06-3.43648E-05 7.01329E-06 7.04768E-19-4.76149E-18
 -1      1313 8.42562E-05-4.78338E-06-3.41093E-05 6.30948E-06 1.06840E-18-3.98751E-18
 -1      1314 8.35430E-05-2.74087E-06-3.45841E-05 1.13929E-05 1.12761E-18-3.88361E-18
 -1      1315 8.32208E-05-2.75795E-06-3.44730E-05 9.82798E-06 9.98354E-19-4.28195E-18
 -1      1316 8.48605E-05-5.25689E-06-3.41730E-05 9.05213E-06 1.47535E-18-3.55778E-18
 -1      1317 8.47658E-05-3.20334E-06-3.49194E-05 1.48415E-05 1.45785E-18-2.75865E-18
 -1      1318 8.41526E-05-3.24004E-06-3.46923E-05 1.30012E-05 1.30346E-18-3.44955E-18
 -1      1319 8.59456E-05-6.06246E-06-3.43063E-05 1.21205E-05 1.98906E-18-2.83229E-18
 -1      1320 8.72582E-05-4.09079E-06-3.56217E-05 1.90892E-05 1.67559E-18-5.61080E-19
 -1      1321 8.59740E-05-4.15461E-06-3.51381E-05 1.66909E-05 1.49803E-18-1.88364E-18
 -1      1322 8.79926E-05-7.51745E-06-3.45762E-05 1.56482E-05 2.39673E-18-1.50997E-18
 -1      1323 9.34731E-05-6.79343E-06-3.71190E-05 2.50949E-05 1.46177E-18 3.74357E-18
 -1      1324 9.01385E-05-6.43884E-06-3.60410E-05 2.11471E-05 1.39946E-18 1.10660E-18
 -1      1325 9.23670E-05-1.06993E-05-3.50797E-05 1.96744E-05 2.49507E-18 9.73082E-19
 -1      1326 1.23634E-04-2.49255E-05-3.90175E-05 2.83662E-05 7.45177E-19 1.20118E-17
 -1      1327 1.00089E-04-1.44258E-05-3.73567E-05 2.40493E-05 7.41683E-19 6.25195E-18
 -1      1328 1.01688E-04-1.93447E-05-3.54049E-05 2.13969E-05 2.38282E-18 4.88505E-18
 -1      1329 1.02614E-04-2.78081E-05-3.47607E-05 7.32805E-06 1.30737E-18 1.14887E-17
 -1      1330 1.05157E-04-3.02332E-05-3.35284E-05-7.95820E-06-1.36902E-18 9.22800E-18
 -1      1331 9.82719E-05-2.78464E-05-3.07655E-05-4.98711E-06-1.35102E-18 7.58672E-18
 -1      1332 9.55150E-05-2.78529E-05-2.92581E-05-2.48863E-06-1.08725E-18 6.88119E-18
 -1      1333 9.32836E-05-2.75623E-05-2.82191E-05-2.04200E-06-9.68741E-19 5.37003E-18
 -1      1334 9.94954E-05-2.80558E-05-3.09859E-05-7.88429E-06-2.28212E-18 4.09469E-18
 -1      1335 9.15946E-05-2.72045E-05-2.75850E-05-8.37394E-07-7.31287E-19 4.81747E-18
 -1      1336 9.08788E-05-2.71094E-05-2.72830E-05-7.27242E-07-7.13566E-19 3.80127E-18
 -1      1337 9.47299E-05-2.77735E-05-2.88199E-05-3.11875E-06-1.66659E-18 2.96079E-18
 -1      1338 9.01293E-05-2.69267E-05-2.70401E-05-1.72962E-07-5.22024E-19 3.29575E-18
 -1      1339 9.00577E-05-2.69537E-05-2.70055E-05-1.14828E-07-5.47610E-19 2.55282E-18
 -1      1340 9.25319E-05-2.75034E-05-2.78995E-05-1.05160E-06-1.27700E-18 2.00433E-18
 -1      1341 8.97992E-05-2.68866E-05-2.69315E-05 1.55523E-07-3.73775E-19 2.23687E-18
 -1      1342 9.00149E-05-2.69771E-05-2.69935E-05 1.84194E-07-3.32965E-19 1.79953E-18
 -1      1343 9.15748E-05-2.73601E-05-2.75331E-05-6.79431E-08-9.30505E-19 1.17854E-18
 -1      1344 9.00195E-05-2.69805E-05-2.70002E-05 3.15170E-07-2.54401E-19 1.70067E-18
 -1      1345 9.03628E-05-2.71005E-05-2.70996E-05 3.26845E-07-2.86206E-19 1.34560E-18
 -1      1346 9.13235E-05-2.73488E-05-2.74256E-05 4.19246E-07-5.98045E-19 6.67809E-19
 -1      1347 9.05054E-05-2.71424E-05-2.71470E-05 3.81159E-07-4.21744E-19 1.16192E-18
 -1      1348 9.08938E-05-2.72709E-05-2.72592E-05 3.82778E-07-4.00476E-19 4.53546E-19
 -1      1349 9.14577E-05-2.74229E-05-2.74482E-05 6.47013E-07-6.51216E-19 3.22913E-19
 -1      1350 9.11022E-05-2.73313E-05-2.73257E-05 3.93000E-07-3.62178E-19 2.75713E-19
 -1      1351 9.14898E-05-2.74560E-05-2.74380E-05 3.88723E-07-4.06240E-19-4.52104E-19
 -1      1352 9.17913E-05-2.75421E-05-2.75373E-05 7.28745E-07-7.35859E-19 7.31980E-20
 -1      1353 9.17211E-05-2.75228E-05-2.75110E-05 3.73675E-07-3.70002E-19-6.52278E-19
 -1      1354 9.20824E-05-2.76371E-05-2.76160E-05 3.66170E-07-3.54163E-19-9.92521E-19
 -1      1355 9.22133E-05-2.76793E-05-2.76574E-05 7.26103E-07-7.41745E-19-1.67871E-19
 -1      1356 9.23112E-05-2.77029E-05-2.76878E-05 3.37498E-07-3.05870E-19-1.02428E-18
 -1      1357 9.26330E-05-2.78034E-05-2.77818E-05 3.28518E-07-4.45757E-20-1.35656E-18
 -1      1358 9.26572E-05-2.78178E-05-2.77870E-05 6.75863E-07-4.46231E-19-2.21509E-19
 -1      1359 9.28450E-05-2.78643E-05-2.78482E-05 2.93670E-07 1.71873E-19-1.60215E-18
 -1      1360 9.31221E-05-2.79500E-05-2.79293E-05 2.84360E-07 9.08004E-20-1.38399E-18
 -1      1361 9.30838E-05-2.79476E-05-2.79135E-05 6.01166E-07-1.29470E-19-4.86510E-19
 -1      1362 9.33099E-05-2.80038E-05-2.79880E-05 2.48132E-07-1.86587E-19-1.57185E-18
 -1      1363 9.35420E-05-2.80750E-05-2.80562E-05 2.39224E-07-3.35563E-19-1.89299E-18
 -1      1364 9.34715E-05-2.80637E-05-2.80297E-05 5.16903E-07-1.55144E-19-1.31530E-18
 -1      1365 9.37033E-05-2.81211E-05-2.81066E-05 2.04671E-07-2.07917E-19-1.90380E-18
 -1      1366 9.38933E-05-2.81790E-05-2.81626E-05 1.96619E-07-1.07517E-19-2.01936E-18
 -1      1367 9.38107E-05-2.81638E-05-2.81322E-05 4.32646E-07-3.13323E-19-1.29123E-18
 -1      1368 9.40286E-05-2.82176E-05-2.82048E-05 1.65651E-07-1.00377E-19-2.15659E-18
 -1      1369 9.41813E-05-2.82636E-05-2.82500E-05 1.58722E-07-2.20347E-19-2.29528E-18
 -1      1370 9.40993E-05-2.82479E-05-2.82200E-05 3.54468E-07-3.65544E-19-1.65836E-18
 -1      1371 9.42932E-05-2.82955E-05-2.82849E-05 1.32520E-07-4.86925E-19-2.35607E-18
 -1      1372 9.44144E-05-2.83317E-05-2.83208E-05 1.26872E-07-4.90520E-19-2.98946E-18
 -1      1373 9.43403E-05-2.83172E-05-2.82938E-05 2.86162E-07-5.21851E-19-2.13798E-18
 -1      1374 9.45070E-05-2.83580E-05-2.83497E-05 1.06199E-07-1.65599E-19-3.33997E-18
 -1      1375 9.46035E-05-2.83864E-05-2.83785E-05 1.01937E-07-1.14099E-19-3.56431E-18
 -1      1376 9.45398E-05-2.83739E-05-2.83554E-05 2.30120E-07-5.57984E-19-2.09161E-18
 -1      1377 9.46816E-05-2.84085E-05-2.84028E-05 8.73707E-08 2.01466E-19-3.67671E-18
 -1      1378 9.47605E-05-2.84314E-05-2.84264E-05 8.45887E-08-2.37517E-20-3.43052E-18
 -1      1379 9.47065E-05-2.84205E-05-2.84073E-05 1.87998E-07 5.82023E-20-2.37384E-18
 -1      1380 9.48298E-05-2.84510E-05-2.84480E-05 7.67163E-08 8.22206E-20-3.44329E-18
 -1      1381 9.48990E-05-2.84707E-05-2.84689E-05 7.55365E-08 2.67299E-19-3.15786E-18
 -1      1382 9.48508E-05-2.84600E-05-2.84527E-05 1.61230E-07-3.72470E-20-2.68549E-18
 -1      1383 9.49660E-05-2.84895E-05-2.84897E-05 7.51031E-08 4.90000E-19-3.16112E-18
 -1      1384 9.50340E-05-2.85087E-05-2.85103E-05 7.57057E-08 3.54501E-19-2.51411E-18
 -1      1385 9.49844E-05-2.84961E-05-2.84950E-05 1.51437E-07 4.15681E-19-2.88558E-18
 -1      1386 9.51062E-05-2.85290E-05-2.85327E-05 8.37481E-08 1.04480E-19-2.43885E-18
 -1      1387 9.51828E-05-2.85505E-05-2.85560E-05 8.63993E-08 1.41395E-20-2.23868E-18
 -1      1388 9.51209E-05-2.85325E-05-2.85386E-05 1.60774E-07 3.31073E-19-2.15752E-18
 -1      1389 9.52689E-05-2.85747E-05-2.85827E-05 1.04363E-07 3.57279E-19-1.64910E-18
 -1      1390 9.53654E-05-2.86019E-05-2.86120E-05 1.09441E-07 3.80669E-19-1.03805E-18
 -1      1391 9.52761E-05-2.85737E-05-2.85881E-05 1.92231E-07 6.76772E-19-1.63158E-18
 -1      1392 9.54756E-05-2.86329E-05-2.86462E-05 1.39287E-07 4.78524E-21-9.11674E-19
 -1      1393 9.56059E-05-2.86700E-05-2.86855E-05 1.47308E-07-5.96869E-20-9.38900E-19
 -1      1394 9.54685E-05-2.86250E-05-2.86495E-05 2.49897E-07 2.41008E-19-1.32351E-18
 -1      1395 9.57526E-05-2.87113E-05-2.87312E-05 1.91616E-07-3.55485E-19-8.82219E-19
 -1      1396 9.59332E-05-2.87633E-05-2.87855E-05 2.03256E-07-3.96985E-19-1.40737E-18
 -1      1397 9.57200E-05-2.86927E-05-2.87293E-05 3.39211E-07-3.70832E-19-6.72253E-19
 -1      1398 9.61311E-05-2.88190E-05-2.88472E-05 2.65306E-07-7.16479E-20-1.64355E-18
 -1      1399 9.63828E-05-2.88921E-05-2.89226E-05 2.81431E-07-7.73861E-20-1.85899E-18
 -1      1400 9.60570E-05-2.87841E-05-2.88359E-05 4.67179E-07-4.86539E-19-7.28785E-19
 -1      1401 9.66499E-05-2.89673E-05-2.90060E-05 3.65249E-07-4.03947E-19-1.73013E-18
 -1      1402 9.69980E-05-2.90692E-05-2.91100E-05 3.86923E-07-4.66600E-19-2.28178E-18
 -1      1403 9.65114E-05-2.89083E-05-2.89789E-05 6.42527E-07-3.26299E-19-1.31268E-18
 -1      1404 9.73558E-05-2.91700E-05-2.92218E-05 4.97241E-07-1.19775E-19-2.60071E-18
 -1      1405 9.78315E-05-2.93102E-05-2.93637E-05 5.25722E-07 1.87282E-19-2.68762E-18
 -1      1406 9.71211E-05-2.90764E-05-2.91700E-05 8.75699E-07-4.81927E-19-1.01891E-18
 -1      1407 9.83050E-05-2.94438E-05-2.95117E-05 6.67726E-07 1.89404E-19-2.69539E-18
 -1      1408 9.89461E-05-2.96340E-05-2.97024E-05 7.04405E-07-2.86180E-20-2.58183E-18
 -1      1409 9.79315E-05-2.93015E-05-2.94230E-05 1.17852E-06 1.69001E-19-2.55413E-18
 -1      1410 9.95639E-05-2.98085E-05-2.98957E-05 8.83062E-07 1.39608E-19-2.65512E-18
 -1      1411 1.00414E-04-3.00625E-05-3.01482E-05 9.29285E-07 4.39374E-19-2.39231E-18
 -1      1412 9.89944E-05-2.95991E-05-2.97536E-05 1.56309E-06 1.18504E-19-2.94377E-18
 -1      1413 1.01207E-04-3.02870E-05-3.03964E-05 1.14783E-06 5.55759E-19-1.93824E-18
 -1      1414 1.02315E-04-3.06205E-05-3.07246E-05 1.20448E-06 5.63763E-19-1.25991E-18
 -1      1415 1.00368E-04-2.99875E-05-3.01786E-05 2.03925E-06 7.74099E-19-2.11669E-18
 -1      1416 1.03313E-04-3.09043E-05-3.10367E-05 1.46133E-06 3.41755E-19-4.91405E-19
 -1      1417 1.04725E-04-3.13335E-05-3.14537E-05 1.52793E-06 1.62624E-19 3.69657E-19
 -1      1418 1.02111E-04-3.04870E-05-3.07147E-05 2.60924E-06 8.98806E-19-1.59214E-18
 -1      1419 1.05950E-04-3.16847E-05-3.18358E-05 1.81087E-06 2.12033E-19 8.88180E-19
 -1      1420 1.07699E-04-3.22230E-05-3.23499E-05 1.88385E-06 2.44670E-19 1.03711E-18
 -1      1421 1.04278E-04-3.11194E-05-3.13745E-05 3.25731E-06 3.80702E-19 1.04706E-19
 -1      1422 1.09154E-04-3.26465E-05-3.28007E-05 2.15993E-06 4.52137E-21 3.01147E-19
 -1      1423 1.11231E-04-3.32974E-05-3.34071E-05 2.22942E-06-3.43639E-19 4.70011E-19
 -1      1424 1.06895E-04-3.19056E-05-3.21603E-05 3.93119E-06-4.46221E-19 2.30904E-19
 -1      1425 1.12878E-04-3.37899E-05-3.39103E-05 2.42933E-06-5.00298E-19 5.49632E-19
 -1      1426 1.15189E-04-3.45336E-05-3.45770E-05 2.47411E-06-1.77612E-20 8.61856E-20
 -1      1427 1.09940E-04-3.28609E-05-3.30530E-05 4.51205E-06-3.65189E-19 7.01535E-19
 -1      1428 1.16922E-04-3.50768E-05-3.50907E-05 2.47280E-06 3.00702E-19 8.87320E-19
 -1      1429 1.19215E-04-3.58470E-05-3.57382E-05 2.45371E-06 6.46462E-19 1.39403E-18
 -1      1430 1.13288E-04-3.39837E-05-3.39964E-05 4.77303E-06 3.40798E-19 1.34634E-18
 -1      1431 1.20816E-04-3.63951E-05-3.61830E-05 2.05825E-06 6.03422E-19 1.38000E-18
 -1      1432 1.22601E-04-3.70464E-05-3.66631E-05 1.91420E-06 1.34417E-19 1.98253E-18
 -1      1433 1.16648E-04-3.52314E-05-3.48785E-05 4.34006E-06 1.02055E-18 1.54596E-18
 -1      1434 1.23709E-04-3.75062E-05-3.69172E-05 8.90706E-07-9.72566E-20 2.07884E-18
 -1      1435 1.24209E-04-3.77829E-05-3.70094E-05 5.49814E-07 1.96704E-19 2.16250E-18
 -1      1436 1.19483E-04-3.64715E-05-3.55204E-05 2.70251E-06 3.31097E-19 7.54859E-19
 -1      1437 1.24324E-04-3.79896E-05-3.69272E-05-1.25290E-06 6.39695E-19 2.51749E-18
 -1      1438 1.22595E-04-3.75373E-05-3.63878E-05-1.82437E-06 6.10923E-20 2.56116E-18
 -1      1439 1.20951E-04-3.73984E-05-3.56943E-05-6.22541E-07 3.45100E-19 1.23353E-18
 -1      1440 1.21185E-04-3.72498E-05-3.58589E-05-4.21051E-06-4.46267E-19 3.73076E-18
 -1      1441 1.16564E-04-3.57489E-05-3.45549E-05-4.90667E-06 9.38354E-20 3.56797E-18
 -1      1442 1.19982E-04-3.74644E-05-3.51982E-05-5.64218E-06 1.60936E-20 2.03783E-18
 -1      1443 1.13375E-04-3.47436E-05-3.35991E-05-7.04080E-06 1.37272E-19 3.50809E-18
 -1      1444 1.06245E-04-3.22201E-05-3.16940E-05-7.52724E-06-3.07453E-19 3.71498E-18
 -1      1445 1.15663E-04-3.59831E-05-3.39838E-05-1.11962E-05 3.95829E-19 3.44486E-18
 -1      1446 1.01792E-04-3.05652E-05-3.05294E-05-8.04572E-06-2.69552E-19 3.24572E-18
 -1      1447 9.41554E-05-2.77266E-05-2.85607E-05-7.87960E-06-1.30448E-18 1.89524E-18
 -1      1448 1.08093E-04-3.26773E-05-3.22712E-05-1.46229E-05-7.94532E-19 2.76869E-18
 -1      1449 8.99994E-05-2.60766E-05-2.75475E-05-5.88192E-06-1.58543E-18 1.48421E-18
 -1      1450 8.48530E-05-2.41607E-05-2.62211E-05-4.96120E-06-1.01109E-18-2.81691E-19
 -1      1451 9.93423E-05-2.85042E-05-3.05217E-05-1.29719E-05-1.93367E-18 5.81541E-20
 -1      1452 8.28245E-05-2.34362E-05-2.56762E-05-1.22655E-06-3.94797E-19-1.01033E-18
 -1      1453 8.21957E-05-2.33380E-05-2.54378E-05-7.59731E-08-3.69359E-19-1.50801E-18
 -1      1454 9.30337E-05-2.55784E-05-2.92322E-05-5.90956E-06-1.42349E-18-4.01143E-19
 -1      1455 8.28766E-05-2.38503E-05-2.54504E-05 3.16060E-06-1.36663E-19-9.78482E-19
 -1      1456 8.61845E-05-2.53044E-05-2.61751E-05 3.79016E-06-2.40346E-20-1.13926E-18
 -1      1457 9.18044E-05-2.55064E-05-2.86843E-05 2.75998E-06-7.79270E-20-1.05906E-18
 -1      1458 8.83349E-05-2.63784E-05-2.65641E-05 4.76183E-06 6.56264E-19-9.77794E-19
 -1      1459 9.29154E-05-2.82108E-05-2.76688E-05 4.62222E-06 1.23060E-18-5.78947E-19
 -1      1460 9.49278E-05-2.78144E-05-2.88267E-05 7.85500E-06 3.67242E-19-1.04362E-18
 -1      1461 9.47332E-05-2.89614E-05-2.81077E-05 3.45204E-06 3.92269E-19-2.25152E-19
 -1      1462 9.79971E-05-3.01365E-05-2.89638E-05 2.88207E-06 2.41153E-19-2.35105E-19
 -1      1463 9.90617E-05-3.04112E-05-2.93187E-05 7.39289E-06 1.08338E-18-4.37228E-19
 -1      1464 9.85129E-05-3.02146E-05-2.91847E-05 9.59873E-07 2.66762E-19-1.26428E-18
 -1      1465 9.94875E-05-3.04371E-05-2.94982E-05 4.31650E-07 3.19384E-19-4.66894E-19
 -1      1466 1.01276E-04-3.15785E-05-2.97237E-05 3.45694E-06-2.32669E-20-4.47584E-19
 -1      1467 9.87912E-05-2.99918E-05-2.94488E-05-8.95034E-07 7.14386E-19-5.31358E-19
 -1      1468 9.81403E-05-2.95875E-05-2.93424E-05-1.09151E-06 2.58219E-19-3.60677E-19
 -1      1469 1.00779E-04-3.10742E-05-2.97838E-05-5.42197E-07 2.79594E-19-3.19024E-19
 -1      1470 9.69280E-05-2.89788E-05-2.91360E-05-1.14602E-06-1.28312E-20 2.64473E-19
 -1      1471 9.61324E-05-2.86176E-05-2.89154E-05-1.03232E-06-4.47538E-20-2.33523E-19
 -1      1472 9.84816E-05-2.95362E-05-2.95188E-05-2.24346E-06 3.72158E-19-1.06770E-18
 -1      1473 9.51297E-05-2.84034E-05-2.86162E-05 3.21263E-08-9.05703E-19 3.82933E-19
 -1      1474 9.58526E-05-2.81786E-05-2.90181E-05-1.00546E-06-1.78883E-19-3.77926E-19
 -1      1475 9.65889E-05-2.83672E-05-2.97759E-05 2.99487E-06 1.14474E-18 8.92389E-18
 -1      1476 1.02547E-04-2.94016E-05-3.21590E-05 4.46193E-06 1.03428E-18 1.07792E-17
 -1      1477 1.02336E-04-2.67211E-05-3.27087E-05 1.27815E-05 2.00990E-18 6.94122E-18
 -1      1478 9.20441E-05-2.74333E-05-2.77658E-05 1.15112E-06 8.44439E-19 6.60625E-18
 -1      1479 9.39898E-05-2.75881E-05-2.86796E-05 1.47310E-06 7.91658E-19 7.95770E-18
 -1      1480 9.64981E-05-2.80337E-05-2.95371E-05 4.86606E-06 1.73978E-18 5.21672E-18
 -1      1481 9.02130E-05-2.70090E-05-2.70674E-05 3.30871E-07 4.89539E-19 5.06219E-18
 -1      1482 9.08270E-05-2.70262E-05-2.73397E-05 4.93781E-07 5.33287E-19 5.96618E-18
 -1      1483 9.30547E-05-2.75825E-05-2.81025E-05 1.85014E-06 1.25189E-18 3.83926E-18
 -1      1484 8.96973E-05-2.68913E-05-2.68922E-05-5.60453E-08 5.23334E-19 3.96155E-18
 -1      1485 8.97337E-05-2.68286E-05-2.69201E-05 3.31305E-08 3.99379E-19 4.63526E-18
 -1      1486 9.15028E-05-2.73118E-05-2.75192E-05 5.16116E-07 8.63557E-19 2.75445E-18
 -1      1487 8.98307E-05-2.69442E-05-2.69345E-05-2.43366E-07 4.21736E-19 2.92570E-18
 -1      1488 8.96012E-05-2.68363E-05-2.68691E-05-1.93067E-07 4.07456E-19 3.58851E-18
 -1      1489 9.09723E-05-2.72312E-05-2.73234E-05-1.33822E-07 8.39216E-19 2.13160E-18
 -1      1490 9.02847E-05-2.70870E-05-2.70731E-05-3.26447E-07-2.79554E-20 2.54516E-18
 -1      1491 8.99369E-05-2.69595E-05-2.69713E-05-2.98747E-07 1.28282E-19 2.64338E-18
 -1      1492 9.09909E-05-2.72746E-05-2.73128E-05-4.52533E-07 4.26716E-19 1.73620E-18
 -1      1493 9.08797E-05-2.72695E-05-2.72527E-05-3.50749E-07 2.70810E-19 1.98570E-18
 -1      1494 9.04915E-05-2.71389E-05-2.71390E-05-3.37041E-07 1.91579E-19 2.31870E-18
 -1      1495 9.12961E-05-2.73868E-05-2.73946E-05-5.92456E-07 2.83522E-19 1.18338E-18
 -1      1496 9.15131E-05-2.74617E-05-2.74434E-05-3.41266E-07 2.29150E-19 1.32073E-18
 -1      1497 9.11281E-05-2.73380E-05-2.73304E-05-3.36357E-07 2.46289E-19 1.64275E-18
 -1      1498 9.17367E-05-2.75306E-05-2.75205E-05-6.30417E-07 5.17094E-19 6.06457E-19
 -1      1499 9.21257E-05-2.76464E-05-2.76280E-05-3.13040E-07-2.83819E-21 8.81705E-19
 -1      1500 9.17682E-05-2.75348E-05-2.75228E-05-3.13580E-07 2.22152E-20 1.06310E-18
 -1      1501 9.22236E-05-2.76828E-05-2.76627E-05-6.09743E-07 3.23412E-19 1.59615E-19
 -1      1502 9.26851E-05-2.78143E-05-2.77968E-05-2.75604E-07 1.66758E-19 6.47477E-19
 -1      1503 9.23674E-05-2.77173E-05-2.77030E-05-2.79357E-07 1.67433E-19 7.96876E-19
 -1      1504 9.27041E-05-2.78297E-05-2.78047E-05-5.56841E-07 1.69614E-19-1.22486E-19
 -1      1505 9.31756E-05-2.79609E-05-2.79450E-05-2.35087E-07 1.45116E-19 2.70501E-19
 -1      1506 9.29027E-05-2.78790E-05-2.78643E-05-2.40541E-07 1.71748E-19 5.25260E-19
 -1      1507 9.31485E-05-2.79634E-05-2.79372E-05-4.88493E-07 3.18693E-19 1.69032E-19
 -1      1508 9.35927E-05-2.80852E-05-2.80713E-05-1.95408E-07 3.94714E-19-2.64465E-19
 -1      1509 9.33645E-05-2.80177E-05-2.80036E-05-2.01539E-07 2.72379E-19 2.75120E-20
 -1      1510 9.35421E-05-2.80805E-05-2.80552E-05-4.15505E-07 4.84997E-19-3.56532E-19
 -1      1511 9.39389E-05-2.81880E-05-2.81763E-05-1.59019E-07 2.55585E-19-8.78821E-19
 -1      1512 9.37523E-05-2.81336E-05-2.81208E-05-1.65139E-07 3.06196E-19-4.84438E-19
 -1      1513 9.38797E-05-2.81800E-05-2.81570E-05-3.44789E-07 5.84511E-19-4.11253E-19
 -1      1514 9.42210E-05-2.82715E-05-2.82620E-05-1.27419E-07 1.52884E-19-1.57233E-18
 -1      1515 9.40712E-05-2.82283E-05-2.82173E-05-1.33062E-07 1.99930E-19-1.16938E-18
 -1      1516 9.41627E-05-2.82627E-05-2.82427E-05-2.80701E-07 4.52010E-19-9.79277E-19
 -1      1517 9.44487E-05-2.83386E-05-2.83313E-05-1.01524E-07-2.56812E-19-1.44189E-18
 -1      1518 9.43296E-05-2.83047E-05-2.82956E-05-1.06365E-07-4.65214E-20-1.57821E-18
 -1      1519 9.43965E-05-2.83303E-05-2.83138E-05-2.25953E-07 1.80084E-19-1.32547E-18
 -1      1520 9.46333E-05-2.83928E-05-2.83877E-05-8.19400E-08-3.84220E-19-1.27510E-18
 -1      1521 9.45383E-05-2.83659E-05-2.83591E-05-8.57333E-08-2.19921E-19-1.59765E-18
 -1      1522 9.45893E-05-2.83855E-05-2.83729E-05-1.82279E-07-2.61751E-19-1.09669E-18
 -1      1523 9.47879E-05-2.84379E-05-2.84350E-05-6.91802E-08 4.44702E-19-1.18270E-18
 -1      1524 9.47096E-05-2.84157E-05-2.84113E-05-7.17038E-08 4.54736E-20-1.18662E-18
 -1      1525 9.47513E-05-2.84313E-05-2.84227E-05-1.50938E-07-1.19640E-19-1.45272E-18
 -1      1526 9.49264E-05-2.84781E-05-2.84775E-05-6.38233E-08 1.35569E-19-1.53444E-18
 -1      1527 9.48570E-05-2.84582E-05-2.84563E-05-6.48385E-08 4.14685E-19-1.25490E-18
 -1      1528 9.48938E-05-2.84711E-05-2.84669E-05-1.33093E-07 6.83812E-19-9.87898E-19
 -1      1529 9.50645E-05-2.85180E-05-2.85199E-05-6.66355E-08 2.24343E-19-2.17239E-18
 -1      1530 9.49955E-05-2.84977E-05-2.84987E-05-6.58518E-08 2.36967E-19-1.62602E-18
 -1      1531 9.50301E-05-2.85089E-05-2.85095E-05-1.30094E-07 4.71830E-19-1.10137E-18
 -1      1532 9.52197E-05-2.85628E-05-2.85675E-05-7.86510E-08-3.91694E-19-1.95021E-18
 -1      1533 9.51415E-05-2.85391E-05-2.85435E-05-7.56986E-08-1.70771E-19-2.24533E-18
 -1      1534 9.51748E-05-2.85488E-05-2.85547E-05-1.43684E-07-6.03552E-21-1.10968E-18
 -1      1535 9.54119E-05-2.86185E-05-2.86264E-05-1.01210E-07 1.42450E-19-1.68761E-18
 -1      1536 9.53135E-05-2.85880E-05-2.85963E-05-9.56211E-08-2.16018E-19-1.92073E-18
 -1      1537 9.53445E-05-2.85957E-05-2.86078E-05-1.76117E-07-3.58845E-19-1.47150E-18
 -1      1538 9.56640E-05-2.86919E-05-2.87034E-05-1.35937E-07 2.74069E-19-2.50491E-18
 -1      1539 9.55330E-05-2.86505E-05-2.86634E-05-1.27141E-07 4.22837E-19-1.67766E-18
 -1      1540 9.55581E-05-2.86553E-05-2.86745E-05-2.30186E-07 3.88016E-19-1.43535E-18
 -1      1541 9.60023E-05-2.87908E-05-2.88065E-05-1.84645E-07 3.80950E-19-3.01321E-18
 -1      1542 9.58241E-05-2.87339E-05-2.87523E-05-1.71978E-07 2.01910E-19-2.87265E-18
 -1      1543 9.58373E-05-2.87339E-05-2.87614E-05-3.09106E-07 4.42553E-19-2.28790E-18
 -1      1544 9.64565E-05-2.89241E-05-2.89445E-05-2.49099E-07-2.78235E-19-2.65293E-18
 -1      1545 9.62145E-05-2.88466E-05-2.88712E-05-2.31854E-07-1.86110E-19-3.14255E-18
 -1      1546 9.62064E-05-2.88387E-05-2.88757E-05-4.16216E-07-1.01329E-19-2.80882E-18
 -1      1547 9.70589E-05-2.91018E-05-2.91271E-05-3.30612E-07-2.20574E-19-2.08551E-18
 -1      1548 9.67349E-05-2.89977E-05-2.90294E-05-3.08129E-07-9.61978E-20-2.11401E-18
 -1      1549 9.66920E-05-2.89779E-05-2.90254E-05-5.54381E-07-6.78481E-19-2.52387E-18
 -1      1550 9.78427E-05-2.93341E-05-2.93641E-05-4.29334E-07-3.72062E-20-1.14103E-18
 -1      1551 9.74179E-05-2.91973E-05-2.92365E-05-4.01185E-07-3.81132E-19-1.63685E-18
 -1      1552 9.73220E-05-2.91604E-05-2.92186E-05-7.24963E-07-5.37199E-19-1.63815E-18
 -1      1553 9.88388E-05-2.96307E-05-2.96645E-05-5.43148E-07 2.26201E-19-1.97177E-18
 -1      1554 9.82956E-05-2.94558E-05-2.95020E-05-5.09436E-07 5.19997E-19-9.95380E-19
 -1      1555 9.81232E-05-2.93947E-05-2.94631E-05-9.26150E-07 6.58380E-19-4.76083E-19
 -1      1556 1.00069E-04-2.99991E-05-3.00340E-05-6.65987E-07 2.24179E-19-2.62061E-18
 -1      1557 9.93944E-05-2.97820E-05-2.98332E-05-6.27832E-07 3.22410E-20-2.25479E-18
 -1      1558 9.91170E-05-2.96889E-05-2.97643E-05-1.15041E-06 3.97746E-19-9.54394E-19
 -1      1559 1.01534E-04-3.04412E-05-3.04724E-05-7.85458E-07 2.53121E-20-3.31286E-18
 -1      1560 1.00727E-04-3.01818E-05-3.02335E-05-7.45731E-07 4.86084E-20-3.07087E-18
 -1      1561 1.00313E-04-3.00479E-05-3.01238E-05-1.38080E-06 1.43078E-19-1.65118E-18
 -1      1562 1.03202E-04-3.09493E-05-3.09683E-05-8.79771E-07-5.95698E-20-4.31108E-18
 -1      1563 1.02282E-04-3.06540E-05-3.06976E-05-8.44101E-07-2.85663E-20-4.07484E-18
 -1      1564 1.01697E-04-3.04713E-05-3.05354E-05-1.58602E-06 4.06412E-19-3.36878E-18
 -1      1565 1.04983E-04-3.14991E-05-3.14928E-05-9.14386E-07-4.28559E-19-3.63338E-18
 -1      1566 1.04000E-04-3.11856E-05-3.12068E-05-8.92377E-07-1.02997E-19-4.01706E-18
 -1      1567 1.03220E-04-3.09490E-05-3.09811E-05-1.71455E-06-1.19274E-19-3.16313E-18
 -1      1568 1.06704E-04-3.20419E-05-3.19918E-05-8.39774E-07-2.00756E-19-3.37007E-18
 -1      1569 1.05761E-04-3.17441E-05-3.17217E-05-8.46059E-07-3.63321E-19-3.85325E-18
 -1      1570 1.04777E-04-3.14554E-05-3.14255E-05-1.68955E-06-4.29732E-19-2.24888E-18
 -1      1571 1.08085E-04-3.24951E-05-3.23794E-05-5.93348E-07 3.51625E-19-3.20880E-18
 -1      1572 1.07346E-04-3.22690E-05-3.21750E-05-6.47579E-07 1.54521E-19-3.18452E-18
 -1      1573 1.06187E-04-3.19426E-05-3.18108E-05-1.40825E-06 3.93870E-20-2.76974E-18
 -1      1574 1.08727E-04-3.27372E-05-3.25368E-05-1.11063E-07-5.78960E-20-3.75121E-18
 -1      1575 1.08428E-04-3.26627E-05-3.24672E-05-2.35074E-07-1.18869E-19-3.55357E-18
 -1      1576 1.07183E-04-3.23316E-05-3.20550E-05-7.53434E-07 7.47970E-20-2.69208E-18
 -1      1577 1.08141E-04-3.26115E-05-3.23244E-05 6.44330E-07 7.25133E-19-4.44737E-18
 -1      1578 1.08571E-04-3.27866E-05-3.24707E-05 4.34617E-07 5.55442E-19-3.60701E-18
 -1      1579 1.07411E-04-3.25082E-05-3.20565E-05 3.71799E-07 5.51650E-19-2.79067E-18
 -1      1580 1.05855E-04-3.19545E-05-3.16158E-05 1.63501E-06-1.69049E-19-5.31422E-18
 -1      1581 1.07288E-04-3.24724E-05-3.20504E-05 1.34445E-06 2.51589E-19-4.79503E-18
 -1      1582 1.06478E-04-3.23268E-05-3.17138E-05 1.97607E-06 6.19863E-19-2.93609E-18
 -1      1583 1.01605E-04-3.06574E-05-3.03561E-05 2.69273E-06-6.95851E-19-3.25885E-18
 -1      1584 1.04183E-04-3.15626E-05-3.11075E-05 2.36498E-06-7.25993E-19-4.57758E-18
 -1      1585 1.04059E-04-3.16390E-05-3.09598E-05 3.88464E-06-1.05203E-18-1.52879E-18
 -1      1586 9.56073E-05-2.87615E-05-2.86299E-05 3.49995E-06-2.65340E-19-2.43829E-18
 -1      1587 9.91764E-05-2.99910E-05-2.96423E-05 3.22509E-06 1.06769E-19-2.67294E-18
 -1      1588 1.00076E-04-3.03590E-05-2.98088E-05 5.66488E-06-5.83056E-19-2.38718E-19
 -1      1589 8.87502E-05-2.65428E-05-2.66981E-05 3.67222E-06-2.81509E-19-2.65852E-18
 -1      1590 9.27558E-05-2.78878E-05-2.78113E-05 3.56357E-06-1.92967E-19-3.08754E-18
 -1      1591 9.49030E-05-2.85632E-05-2.83933E-05 6.66987E-06-2.47617E-19-6.33210E-19
 -1      1592 8.25064E-05-2.45022E-05-2.49567E-05 2.96411E-06-4.39355E-19-8.96611E-19
 -1      1593 8.60644E-05-2.56395E-05-2.59344E-05 3.09822E-06-7.22010E-19-2.34358E-18
 -1      1594 8.94491E-05-2.65694E-05-2.69591E-05 6.29185E-06-1.00462E-18 5.44192E-19
 -1      1595 7.84300E-05-2.31910E-05-2.38028E-05 1.49353E-06 1.18548E-18-2.03943E-18
 -1      1596 8.06429E-05-2.38104E-05-2.44158E-05 1.84540E-06 5.64475E-19-1.36044E-18
 -1      1597 8.49697E-05-2.48962E-05-2.58008E-05 4.36504E-06 7.78344E-19-4.05120E-19
 -1      1598 7.74222E-05-2.29285E-05-2.34646E-05-2.30049E-07 2.89679E-19-2.75204E-18
 -1      1599 7.78075E-05-2.28960E-05-2.35922E-05 2.07128E-07 4.16251E-19-1.70942E-18
 -1      1600 8.25559E-05-2.40406E-05-2.51519E-05 1.43163E-06 6.54214E-19-4.56294E-19
 -1      1601 7.92720E-05-2.36213E-05-2.39019E-05-1.57904E-06 7.21649E-19-3.68258E-18
 -1      1602 7.80048E-05-2.30527E-05-2.35850E-05-1.22019E-06 7.43933E-19-2.76956E-18
 -1      1603 8.25826E-05-2.41849E-05-2.50911E-05-1.45770E-06 8.18035E-19-8.84772E-19
 -1      1604 8.28523E-05-2.48461E-05-2.48482E-05-2.18639E-06 9.11707E-19-5.66668E-18
 -1      1605 8.06212E-05-2.40226E-05-2.42556E-05-2.00082E-06 1.09105E-18-4.32368E-18
 -1      1606 8.45395E-05-2.50824E-05-2.55198E-05-3.34922E-06 1.62521E-18-1.74751E-18
 -1      1607 8.68150E-05-2.61245E-05-2.59622E-05-2.11427E-06 6.61445E-19-7.12050E-18
 -1      1608 8.44057E-05-2.53210E-05-2.52948E-05-2.08682E-06 9.19839E-19-5.89876E-18
 -1      1609 8.73922E-05-2.62409E-05-2.62247E-05-3.91800E-06 1.07136E-18-2.48353E-18
 -1      1610 9.02483E-05-2.71700E-05-2.69798E-05-1.70573E-06-1.56091E-19-6.70562E-18
 -1      1611 8.81698E-05-2.65273E-05-2.63832E-05-1.75228E-06-3.67195E-19-7.14742E-18
 -1      1612 9.01734E-05-2.72361E-05-2.69810E-05-3.51208E-06 2.91826E-19-2.67709E-18
 -1      1613 9.28478E-05-2.79484E-05-2.77635E-05-1.25791E-06-8.03212E-19-5.52840E-18
 -1      1614 9.12623E-05-2.74710E-05-2.73078E-05-1.31723E-06-5.85148E-19-6.52260E-18
 -1      1615 9.23754E-05-2.79165E-05-2.76269E-05-2.73496E-06-4.96609E-19-2.32618E-18
 -1      1616 9.45798E-05-2.85302E-05-2.82516E-05-7.80730E-07-3.62724E-19-3.38289E-18
 -1      1617 9.35529E-05-2.82059E-05-2.79693E-05-8.51608E-07-2.79792E-19-4.70686E-18
 -1      1618 9.39707E-05-2.84277E-05-2.80663E-05-1.90071E-06-6.31897E-19-1.21491E-18
 -1      1619 9.50404E-05-2.87970E-05-2.83139E-05-2.80853E-07-1.88110E-18-1.88176E-18
 -1      1620 9.57859E-05-3.03885E-05-2.80039E-05-1.05106E-06 1.06459E-18 1.62286E-18
 -1      1621 9.53890E-05-2.94771E-05-2.82155E-05-9.53982E-07-1.28944E-18 2.63829E-18
 -1      1622 9.63894E-05-3.13942E-05-2.78611E-05-5.89400E-07 2.47098E-18 1.79576E-18
 -1      1623 9.60571E-05-3.07993E-05-2.79615E-05-7.55305E-07 1.76680E-18 8.34142E-19
 -1      1624 9.58289E-05-3.01361E-05-2.81784E-05-1.62050E-06-4.46532E-19 2.35477E-18
 -1      1625 9.63790E-05-3.04374E-05-2.82964E-05 9.49776E-07 3.99826E-18 1.87086E-18
 -1      1626 9.64835E-05-3.12100E-05-2.80057E-05 5.59796E-07 2.78915E-18 1.41363E-18
 -1      1627 9.65380E-05-3.05552E-05-2.83523E-05 1.00911E-07 1.77844E-18 1.79166E-18
 -1      1628 9.52560E-05-2.60645E-05-2.97171E-05 3.44254E-06 5.33109E-18 3.69425E-19
 -1      1629 9.61195E-05-2.91022E-05-2.87938E-05 2.86044E-06 4.13171E-18 1.92005E-18
 -1      1630 9.66168E-05-2.92681E-05-2.90019E-05 3.75147E-06 2.88930E-18 1.85249E-18
 -1      1631 9.26580E-05-1.75739E-05-3.22565E-05 6.31888E-06 4.68981E-18 7.95205E-19
 -1      1632 9.44615E-05-2.31869E-05-3.06466E-05 5.70348E-06 4.85715E-18-4.98241E-19
 -1      1633 9.56563E-05-2.52888E-05-3.03340E-05 8.77951E-06 2.37597E-18-6.04662E-19
 -1      1634 8.85081E-05-5.19728E-06-3.57551E-05 8.57274E-06 5.06621E-18 1.48826E-19
 -1      1635 9.11973E-05-1.30247E-05-3.35962E-05 8.17161E-06 4.89098E-18 7.49386E-19
 -1      1636 9.32158E-05-1.80437E-05-3.23712E-05 1.38184E-05 2.75002E-18 7.68775E-19
 -1      1637 8.36329E-05 8.38490E-06-3.94064E-05 8.67077E-06 5.56374E-18-8.39277E-19
 -1      1638 8.65518E-05 2.90537E-07-3.72430E-05 8.84862E-06 5.09300E-18 1.33058E-18
 -1      1639 8.92189E-05-7.98426E-06-3.48527E-05 1.65550E-05 2.74378E-18 1.12355E-18
 -1      1640 7.96866E-05 1.88414E-05-4.20999E-05 5.65505E-06 6.79479E-18 7.74956E-19
 -1      1641 8.17633E-05 1.32466E-05-4.06351E-05 6.54930E-06 5.28464E-18 4.97897E-20
 -1      1642 8.46039E-05 2.57528E-06-3.71936E-05 1.44483E-05 4.18154E-18-4.67059E-19
 -1      1643 7.84662E-05 2.20098E-05-4.28981E-05 2.72704E-07 4.04188E-18-3.28818E-18
 -1      1644 7.87652E-05 2.11717E-05-4.26718E-05 1.54737E-06 5.30830E-18-5.03191E-20
 -1      1645 8.12001E-05 9.99282E-06-3.87300E-05 6.84139E-06 3.47781E-18-4.56180E-19
 -1      1646 8.05661E-05 1.66271E-05-4.15522E-05-5.07687E-06 1.52143E-18-2.16221E-18
 -1      1647 7.89910E-05 2.07954E-05-4.26248E-05-4.06195E-06 3.78478E-18-2.52299E-18
 -1      1648 8.07251E-05 1.11284E-05-3.89922E-05-3.58270E-06 2.82480E-18-3.64325E-18
 -1      1649 8.47721E-05 5.50142E-06-3.86918E-05-8.02964E-06-2.69081E-18-7.26284E-19
 -1      1650 8.21622E-05 1.26287E-05-4.05750E-05-7.69606E-06-2.86932E-20-2.31022E-18
 -1      1651 8.33634E-05 5.68114E-06-3.79434E-05-1.20924E-05-5.99011E-19-4.42908E-18
 -1      1652 8.93299E-05-7.26389E-06-3.52549E-05-8.02421E-06-1.74785E-18 1.12147E-18
 -1      1653 8.66744E-05 3.50235E-07-3.73344E-05-8.30723E-06-3.61535E-18 2.01924E-18
 -1      1654 8.75952E-05-3.69071E-06-3.59526E-05-1.55074E-05-1.48038E-18-2.95178E-19
 -1      1655 9.27551E-05-1.77376E-05-3.22488E-05-5.99489E-06 1.03359E-18 2.61156E-18
 -1      1656 9.08196E-05-1.18120E-05-3.39371E-05-6.54640E-06-1.16308E-18 2.98324E-18
 -1      1657 9.16042E-05-1.34568E-05-3.36224E-05-1.38729E-05-4.74259E-19 3.09438E-18
 -1      1658 9.46542E-05-2.42378E-05-3.01948E-05-3.50318E-06 5.28747E-19-1.16859E-18
 -1      1659 9.35433E-05-2.08067E-05-3.12483E-05-3.90746E-06 1.82154E-18 2.55711E-19
 -1      1660 9.42569E-05-2.10010E-05-3.15494E-05-9.46716E-06 3.09518E-19 1.81538E-18
 -1      1661 9.56562E-05-2.73204E-05-2.92479E-05-1.94911E-06-1.02363E-18-1.90606E-18
 -1      1662 9.53253E-05-2.59761E-05-2.97517E-05-2.52130E-06 7.29537E-19-1.85090E-18
 -1      1663 9.59123E-05-2.55719E-05-3.02533E-05-5.61261E-06 3.47952E-19-8.99364E-19
 -1      1664 9.67616E-05-2.80109E-05-2.95636E-05-3.37366E-06 8.23475E-20-2.49810E-18
 -1      1665 2.36554E-05-7.39560E-05 1.53660E-05-3.65267E-06-1.10445E-17-1.80333E-18
 -1      1666 2.75822E-05-8.66802E-05 1.82164E-05 4.04831E-06-1.15412E-17-1.35949E-18
 -1      1667 2.36157E-05-4.46972E-05 4.46808E-06 5.22915E-06-7.52589E-18 5.24102E-19
 -1      1668 2.90784E-05-7.14989E-05 1.13930E-05 7.90025E-07-1.18652E-17-2.26714E-19
 -1      1669 4.80109E-05-1.67824E-05-1.46627E-05 3.84301E-05-1.67120E-18 4.02595E-18
 -1      1670 3.94814E-05-4.01207E-05-4.22249E-06 1.72113E-05-5.53960E-18 1.16255E-18
 -1      1671 9.64948E-05-7.42986E-06-3.65042E-05 6.94641E-05 3.95734E-18 9.45289E-18
 -1      1672 6.59520E-05-1.19536E-05-2.49922E-05 4.45300E-05 3.59142E-19 5.28887E-18
 -1      1673 1.64104E-04-2.36709E-05-5.60803E-05 8.03178E-05 5.36426E-18 9.18014E-18
 -1      1674 1.21091E-04-1.02324E-05-4.64251E-05 7.02089E-05 4.44692E-18 8.73291E-18
 -1      1675 2.29278E-04-4.78132E-05-7.15749E-05 6.86849E-05 3.93129E-18 8.45932E-18
 -1      1676 1.85237E-04-2.54849E-05-6.45261E-05 8.18813E-05 5.93177E-18 9.18353E-18
 -1      1677 2.64462E-04-6.48857E-05-7.89633E-05 1.94071E-05 3.53700E-18 1.60830E-18
 -1      1678 2.42789E-04-5.22754E-05-7.59889E-05 5.32344E-05 4.30653E-18 6.39891E-18
 -1      1679 2.61022E-04-6.34251E-05-7.83495E-05-3.31456E-05 2.19551E-18-3.52832E-18
 -1      1680 2.72689E-04-6.95408E-05-8.01367E-05 2.98338E-06 2.67493E-18 3.39554E-19
 -1      1681 2.07750E-04-3.86717E-05-6.81984E-05-6.65457E-05 2.79076E-18-5.83267E-18
 -1      1682 2.45445E-04-5.79048E-05-7.41656E-05-4.57136E-05 1.51841E-18-4.93736E-18
 -1      1683 1.40470E-04-1.37574E-05-5.24425E-05-7.46258E-05 5.07415E-18-6.92365E-18
 -1      1684 1.86213E-04-3.25908E-05-6.12470E-05-7.62519E-05 4.10980E-18-6.44338E-18
 -1      1685 8.01843E-05-4.74466E-06-3.31196E-05-5.51411E-05 7.27855E-18-7.51572E-18
 -1      1686 1.15937E-04-9.54004E-06-4.33002E-05-7.41392E-05 6.16301E-18-7.65972E-18
 -1      1687 4.10907E-05-1.62265E-05-1.39241E-05-2.60532E-05 6.60770E-18-6.03426E-18
 -1      1688 5.77461E-05-3.52531E-06-2.35698E-05-4.84733E-05 7.33700E-18-7.54537E-18
 -1      1689 2.81616E-05-4.65360E-05 2.71588E-06-4.66564E-06 1.51111E-18-3.74494E-18
 -1      1690 2.91900E-05-2.29991E-05-5.44446E-06-1.83442E-05 5.27786E-18-6.78389E-18
 -1      1691 2.60435E-05-7.50639E-05 1.46533E-05 1.62685E-06-9.41054E-19-3.58930E-19
 -1      1692 2.00199E-05-5.34619E-05 9.36178E-06 3.24146E-06 8.90232E-19-7.83347E-19
 -1      1693 2.41428E-05-8.11837E-05 1.85178E-05-5.69110E-06-6.64286E-19 6.00123E-19
 -1      1694 2.23756E-05-7.50832E-05 1.70415E-05 3.62562E-06-1.52847E-18 7.07484E-19
 -1      1695 2.09276E-05-7.07909E-05 1.55267E-05-9.96419E-06-2.85027E-18-2.35020E-18
 -1      1696 2.58343E-05-8.43072E-05 1.85095E-05-1.63597E-06-7.73976E-19-1.37601E-18
 -1      1697 2.38930E-05-4.12467E-05 3.51535E-06 4.23429E-06-4.25549E-18-2.83354E-18
 -1      1698 2.73278E-05-6.49982E-05 1.03597E-05-2.05566E-06-3.33985E-18-2.11824E-18
 -1      1699 4.36400E-05-1.37461E-05-1.44932E-05 3.13455E-05-4.35714E-18-3.11030E-18
 -1      1700 3.37643E-05-3.44615E-05-4.30044E-06 9.94649E-06-4.68240E-18-2.65206E-18
 -1      1701 9.33871E-05-9.85126E-06-3.47363E-05 6.12033E-05-4.32749E-18-6.45439E-18
 -1      1702 6.40162E-05-1.21352E-05-2.44115E-05 3.91273E-05-3.98698E-18-4.88907E-18
 -1      1703 1.60995E-04-2.53900E-05-5.42190E-05 7.59721E-05-3.94294E-18-7.81388E-18
 -1      1704 1.16220E-04-1.08333E-05-4.44413E-05 6.59891E-05-4.43252E-18-6.67716E-18
 -1      1705 2.29754E-04-5.25189E-05-6.98429E-05 5.75593E-05-3.11443E-18-7.05240E-18
 -1      1706 1.86010E-04-3.20903E-05-6.23481E-05 6.94298E-05-3.99927E-18-7.48608E-18
 -1      1707 2.72245E-04-7.00817E-05-7.91823E-05 1.55896E-05-1.99137E-18-4.89289E-18
 -1      1708 2.48114E-04-5.76683E-05-7.54462E-05 4.70461E-05-2.46381E-18-6.62973E-18
 -1      1709 2.65089E-04-6.32199E-05-7.94935E-05-3.67029E-05-8.52750E-19-2.40515E-18
 -1      1710 2.71782E-04-6.81689E-05-8.01364E-05-1.06076E-06-1.91768E-18-3.59544E-18
 -1      1711 2.22065E-04-4.04312E-05-7.20073E-05-7.82747E-05 1.17801E-18-1.37897E-18
 -1      1712 2.59056E-04-6.12137E-05-7.72809E-05-5.39466E-05 1.30665E-18-1.56701E-19
 -1      1713 1.54516E-04-1.49406E-05-5.67990E-05-8.31691E-05 5.70900E-19-1.28918E-18
 -1      1714 2.00154E-04-3.44246E-05-6.51668E-05-8.37880E-05 1.03656E-18-2.59107E-18
 -1      1715 9.00886E-05-2.03253E-06-3.77005E-05-6.53730E-05-2.61648E-18-3.05779E-19
 -1      1716 1.28774E-04-8.81831E-06-4.80154E-05-8.46625E-05-4.46386E-19-1.46706E-18
 -1      1717 4.90975E-05-1.47851E-05-1.77652E-05-3.34864E-05-3.45589E-19 1.43657E-18
 -1      1718 6.87793E-05-2.94907E-06-2.79160E-05-5.78824E-05-1.35779E-18 1.93632E-18
 -1      1719 3.15143E-05-4.55057E-05 2.12797E-07-7.09364E-06-5.31937E-19 9.64347E-19
 -1      1720 3.41129E-05-2.04490E-05-8.66494E-06-2.42040E-05-9.18184E-19 1.68136E-18
 -1      1721 2.91967E-05-7.80569E-05 1.33401E-05 2.67809E-06-4.66800E-18-1.69825E-18
 -1      1722 2.31271E-05-5.32079E-05 7.31316E-06 5.37070E-07-1.91345E-18 4.42575E-20
 -1      1723 2.88077E-05-9.32514E-05 1.95686E-05-2.57744E-06-1.25865E-17-2.01827E-18
 -1      1724 2.54095E-05-8.34114E-05 1.73383E-05 8.24244E-06-7.05960E-18-2.96017E-18
 -1      1725 1.37265E-04-3.96454E-05-4.02725E-05 4.70450E-05-6.13252E-19 6.40357E-18
 -1      1726 9.35510E-05-4.56821E-05-2.11611E-05 4.75014E-05-2.84857E-18 7.60381E-18
 -1      1727 9.51228E-05-2.90283E-05-2.82622E-05-8.58041E-07-2.33019E-18 3.12317E-19
 -1      1728 9.49733E-05-2.91350E-05-2.82001E-05-1.68244E-06-9.27541E-19 3.24872E-18
 -1      1729 2.36232E-05-5.42447E-05 8.63336E-06 2.07314E-05-7.01428E-18 9.80017E-19
 -1      1730 5.19210E-05-5.02065E-05-3.50416E-06 3.81873E-05-5.76491E-18 4.51008E-18
 -1      1731 1.40381E-05-5.75833E-05 1.35844E-05 2.96942E-06-7.27448E-18-2.74693E-18
 -1      1732 1.75981E-04-3.44773E-05-5.73232E-05 4.12404E-05 3.27061E-18 3.48893E-18
 -1      1733 2.06308E-04-3.19659E-05-6.96781E-05 2.94786E-05 4.68113E-18 2.45343E-18
 -1      1734 2.22364E-04-3.43891E-05-7.49026E-05 6.77329E-06 5.01825E-18 1.06027E-18
 -1      1735 2.16121E-04-3.57437E-05-7.20015E-05-1.49054E-05 2.85281E-18-1.11512E-18
 -1      1736 1.87029E-04-3.43085E-05-6.15316E-05-3.38075E-05 3.55664E-18-3.63801E-18
 -1      1737 1.46533E-04-3.36454E-05-4.62224E-05-4.48913E-05 4.96065E-18-4.98648E-18
 -1      1738 1.01287E-04-3.44561E-05-2.85175E-05-4.52183E-05 4.64513E-18-5.91907E-18
 -1      1739 6.20679E-05-4.03880E-05-1.12823E-05-3.63629E-05 2.45131E-18-5.59529E-18
 -1      1740 3.41208E-05-4.94149E-05 3.02881E-06-2.47025E-05 1.08674E-18-4.46349E-18
 -1      1741 1.65808E-05-5.35914E-05 1.16928E-05-1.24533E-05-4.68409E-19-4.20975E-19
 -1      1742 1.21668E-05-5.43782E-05 1.38598E-05 2.31510E-08-1.43810E-18-9.77476E-19
 -1      1743 2.39997E-05-5.39626E-05 8.90561E-06 1.61589E-05-2.20652E-18-2.43458E-18
 -1      1744 4.93546E-05-4.86342E-05-3.20374E-06 2.81882E-05-2.32256E-18-2.20250E-18
 -1      1745 8.67030E-05-4.22222E-05-2.01376E-05 3.71714E-05-3.10099E-18-2.97054E-18
 -1      1746 1.30861E-04-3.80921E-05-3.87088E-05 4.12634E-05-2.56651E-18-4.98055E-18
 -1      1747 1.75553E-04-3.75360E-05-5.57601E-05 3.57206E-05-3.12110E-18-5.29141E-18
 -1      1748 2.10994E-04-3.87203E-05-6.87072E-05 1.98279E-05-2.72745E-18-5.33546E-18
 -1      1749 2.25922E-04-3.70839E-05-7.49671E-05-8.58514E-07-2.21838E-18-4.54857E-18
 -1      1750 2.21037E-04-3.48809E-05-7.37951E-05-2.46489E-05-3.05779E-19-2.84900E-18
 -1      1751 1.98183E-04-3.47148E-05-6.51512E-05-4.23222E-05 1.18780E-18-1.24514E-18
 -1      1752 1.58177E-04-3.34168E-05-5.04051E-05-5.13186E-05 8.13152E-19-3.18823E-18
 -1      1753 1.13179E-04-3.53050E-05-3.27404E-05-5.18038E-05 4.76033E-19-2.54449E-18
 -1      1754 7.27455E-05-4.25897E-05-1.48105E-05-4.25674E-05-2.62580E-20 6.66615E-19
 -1      1755 4.16341E-05-5.22079E-05 5.66766E-07-2.94945E-05-1.39930E-18-9.25701E-19
 -1      1756 2.19145E-05-6.05420E-05 1.11235E-05-1.47097E-05-5.65649E-18-4.69934E-18
 -1      1757 1.06059E-04-2.31724E-05-3.56064E-05-1.68521E-05-1.64144E-18 7.25823E-18
 -1      1758 8.91433E-05-1.05810E-05-3.37953E-05-1.33199E-05-2.18904E-18-1.90156E-18
 -1      1759 9.04884E-05-1.16355E-05-3.39365E-05-1.51338E-05-2.51700E-18-1.13050E-18
 -1      1760 9.24949E-05-1.38756E-05-3.38557E-05-1.60001E-05-2.50021E-18-1.66257E-19
 -1      1761 9.42125E-05-1.58222E-05-3.41000E-05-1.76619E-05-2.62199E-18 1.11612E-18
 -1      1762 9.34184E-05-1.63456E-05-3.30468E-05-1.37778E-05-2.65858E-18-5.38528E-19
 -1      1763 8.62050E-05-7.66900E-06-3.37298E-05-7.86471E-06-1.30629E-18-3.18566E-18
 -1      1764 8.66085E-05-7.96981E-06-3.37643E-05-9.25276E-06-1.58280E-18-3.06280E-18
 -1      1765 8.55907E-05-7.03542E-06-3.37260E-05-5.32079E-06-8.58900E-19-3.37224E-18
 -1      1766 8.58249E-05-7.21311E-06-3.37415E-05-6.62510E-06-1.09385E-18-3.31784E-18
 -1      1767 8.75902E-05-9.86703E-06-3.33426E-05-6.93295E-06-1.28138E-18-3.13765E-18
 -1      1768 8.52553E-05-6.67669E-06-3.37289E-05-2.88870E-06-2.88894E-19-3.45927E-18
 -1      1769 8.53764E-05-6.77122E-06-3.37350E-05-4.12836E-06-5.62252E-19-3.36530E-18
 -1      1770 8.69550E-05-9.15506E-06-3.33754E-05-4.53784E-06-7.63205E-19-3.25435E-18
 -1      1771 8.51243E-05-6.52841E-06-3.37323E-05-5.17485E-07 1.29705E-19-3.53397E-18
 -1      1772 8.51600E-05-6.55694E-06-3.37338E-05-1.72703E-06-4.28601E-20-3.54514E-18
 -1      1773 8.66221E-05-8.77541E-06-3.33952E-05-2.21721E-06-1.89865E-19-3.33534E-18
 -1      1774 8.51698E-05-6.56589E-06-3.37340E-05 1.84494E-06 5.28204E-19-3.47895E-18
 -1      1775 8.51279E-05-6.53294E-06-3.37322E-05 6.34408E-07 3.23487E-19-3.50075E-18
 -1      1776 8.65237E-05-8.66171E-06-3.34018E-05 6.53705E-08 2.27833E-19-3.42780E-18
 -1      1777 8.54014E-05-6.79620E-06-3.37351E-05 4.25064E-06 8.98397E-19-3.39249E-18
 -1      1778 8.52731E-05-6.69547E-06-3.37289E-05 3.00792E-06 7.46159E-19-3.47004E-18
 -1      1779 8.66396E-05-8.79483E-06-3.33945E-05 2.34913E-06 6.95257E-19-3.35952E-18
 -1      1780 8.58593E-05-7.24956E-06-3.37409E-05 6.71158E-06 1.37828E-18-3.10982E-18
 -1      1781 8.56207E-05-7.06725E-06-3.37258E-05 5.42449E-06 1.15664E-18-3.31087E-18
 -1      1782 8.69884E-05-9.19190E-06-3.33739E-05 4.65226E-06 1.09950E-18-3.22729E-18
 -1      1783 8.66742E-05-8.03975E-06-3.37620E-05 9.37291E-06 1.90001E-18-2.61177E-18
 -1      1784 8.62525E-05-7.72299E-06-3.37280E-05 7.95220E-06 1.59135E-18-2.84060E-18
 -1      1785 8.76417E-05-9.92475E-06-3.33399E-05 7.02704E-06 1.62663E-18-2.85978E-18
 -1      1786 8.80887E-05-9.38803E-06-3.38180E-05 1.22517E-05 2.43993E-18-1.87504E-18
 -1      1787 8.73476E-05-8.82990E-06-3.37456E-05 1.06587E-05 2.11660E-18-2.34287E-18
 -1      1788 8.87647E-05-1.11602E-05-3.32899E-05 9.50095E-06 2.14448E-18-2.27917E-18
 -1      1789 9.06349E-05-1.18409E-05-3.39287E-05 1.53000E-05 2.82652E-18-5.66665E-19
 -1      1790 8.92533E-05-1.07413E-05-3.37886E-05 1.35103E-05 2.56983E-18-1.34469E-18
 -1      1791 9.06643E-05-1.32234E-05-3.32076E-05 1.19727E-05 2.62795E-18-1.39512E-18
 -1      1792 9.58820E-05-1.70363E-05-3.39949E-05 1.76880E-05 2.75246E-18 1.96025E-18
 -1      1793 9.28613E-05-1.43446E-05-3.38284E-05 1.61910E-05 2.72678E-18 4.03002E-19
 -1      1794 9.39741E-05-1.68883E-05-3.30255E-05 1.38916E-05 2.88141E-18-8.68209E-21
 -1      1795 1.01932E-04-2.50968E-05-3.33614E-05 1.44205E-05 2.36428E-18 5.22799E-18
 -1      1796 9.80832E-05-1.96187E-05-3.36272E-05 1.69620E-05 2.59235E-18 3.08828E-18
 -1      1797 9.73358E-05-2.18563E-05-3.24295E-05 1.32458E-05 2.79934E-18 1.96430E-18
 -1      1798 9.87602E-05-2.61379E-05-3.13447E-05 9.43288E-06 2.44430E-18 4.46314E-18
 -1      1799 1.00162E-04-1.95649E-05-3.42203E-05-1.88674E-05-2.26679E-18 3.33244E-18
 -1      1800 9.53202E-05-2.72884E-05-2.91880E-05 4.06480E-06 1.85169E-18 3.20814E-18
 -1      1801 9.77500E-05-2.73934E-05-3.01969E-05 6.39887E-06 2.01967E-18 3.92286E-18
 -1      1802 9.75841E-05-2.56172E-05-3.08350E-05 8.75745E-06 2.38088E-18 2.51988E-18
 -1      1803 9.98207E-05-2.25418E-05-3.28385E-05-1.44653E-05-2.46452E-18 2.35645E-18
 -1      1804 9.69694E-05-2.69826E-05-2.98793E-05-5.70237E-06-1.93838E-18 1.95536E-18
 -1      1805 9.51610E-05-2.70378E-05-2.91689E-05-3.89610E-06-1.67278E-18 1.43182E-18
 -1      1806 9.43411E-05-2.72380E-05-2.86616E-05-2.42065E-06-1.55315E-18 1.32993E-18
 -1      1807 9.35697E-05-2.73182E-05-2.83567E-05-1.56704E-06-1.41689E-18 8.98679E-19
 -1      1808 9.55135E-05-2.65463E-05-2.95775E-05-4.47284E-06-1.95872E-18 4.41481E-19
 -1      1809 9.30449E-05-2.73690E-05-2.80879E-05-7.40114E-07-1.17851E-18 8.17969E-19
 -1      1810 9.27442E-05-2.74329E-05-2.79659E-05-3.01718E-07-9.61528E-19 3.77323E-19
 -1      1811 9.43029E-05-2.72213E-05-2.87692E-05-1.82798E-06-1.50816E-18 1.72523E-19
 -1      1812 9.24682E-05-2.74605E-05-2.78297E-05 1.52812E-07-7.31760E-19 3.38244E-19
 -1      1813 9.24370E-05-2.75368E-05-2.77998E-05 3.76503E-07-5.94655E-19 7.85540E-20
 -1      1814 9.36023E-05-2.75290E-05-2.83331E-05-3.62048E-07-1.02630E-18 4.01513E-21
 -1      1815 9.23330E-05-2.75681E-05-2.77414E-05 6.15287E-07-6.44077E-19-2.98943E-21
 -1      1816 9.24475E-05-2.76531E-05-2.77604E-05 7.18543E-07-6.55198E-19-2.24265E-19
 -1      1817 9.32805E-05-2.77142E-05-2.81118E-05 4.38799E-07-7.93618E-19-2.45592E-19
 -1      1818 9.24519E-05-2.76909E-05-2.77482E-05 8.28454E-07-7.92870E-19-1.62855E-19
 -1      1819 9.26386E-05-2.77774E-05-2.77926E-05 8.61197E-07-7.57148E-19-2.06528E-19
 -1      1820 9.32156E-05-2.78573E-05-2.80188E-05 8.47981E-07-8.01034E-19-4.60667E-19
 -1      1821 9.27059E-05-2.78186E-05-2.78069E-05 8.93276E-07-7.40236E-19-2.14256E-19
 -1      1822 9.29206E-05-2.79009E-05-2.78627E-05 8.84652E-07-4.76990E-19-2.15262E-19
 -1      1823 9.33082E-05-2.79806E-05-2.80026E-05 1.02078E-06-7.65126E-19-3.40551E-19
 -1      1824 9.30200E-05-2.79420E-05-2.78912E-05 8.70577E-07-5.14072E-19-1.73995E-19
 -1      1825 9.32361E-05-2.80166E-05-2.79497E-05 8.38746E-07-2.91335E-19-1.07504E-19
 -1      1826 9.34875E-05-2.80892E-05-2.80306E-05 1.05092E-06-5.24638E-19-3.65317E-19
 -1      1827 9.33477E-05-2.80551E-05-2.79846E-05 7.98912E-07-4.24685E-19-3.65146E-19
 -1      1828 9.35501E-05-2.81202E-05-2.80408E-05 7.55579E-07-2.71245E-19-7.00841E-19
 -1      1829 9.37059E-05-2.81838E-05-2.80822E-05 9.97668E-07-6.60598E-19-7.49320E-19
 -1      1830 9.36615E-05-2.81546E-05-2.80770E-05 7.03350E-07-2.38892E-19-8.03897E-19
 -1      1831 9.38422E-05-2.82097E-05-2.81282E-05 6.56129E-07-1.67654E-19-9.53458E-19
 -1      1832 9.39328E-05-2.82642E-05-2.81440E-05 8.99597E-07-4.05475E-19-8.60819E-19
 -1      1833 9.39463E-05-2.82394E-05-2.81629E-05 6.00281E-07-3.38649E-19-1.07312E-18
 -1      1834 9.41024E-05-2.82849E-05-2.82078E-05 5.54097E-07-3.10851E-19-1.06573E-18
 -1      1835 9.41499E-05-2.83308E-05-2.82079E-05 7.82084E-07-3.66141E-19-8.63910E-19
 -1      1836 9.41958E-05-2.83097E-05-2.82396E-05 5.00353E-07-3.22039E-19-1.44287E-18
 -1      1837 9.43275E-05-2.83464E-05-2.82780E-05 4.58350E-07-4.46810E-19-1.64237E-18
 -1      1838 9.43474E-05-2.83847E-05-2.82692E-05 6.61804E-07-4.61675E-19-1.32555E-18
 -1      1839 9.44092E-05-2.83668E-05-2.83063E-05 4.10420E-07-5.74484E-19-1.44371E-18
 -1      1840 9.45188E-05-2.83959E-05-2.83387E-05 3.74599E-07-5.42935E-19-1.49459E-18
 -1      1841 9.45215E-05-2.84272E-05-2.83255E-05 5.49651E-07-5.33052E-19-1.51995E-18
 -1      1842 9.45897E-05-2.84124E-05-2.83638E-05 3.34924E-07-6.06438E-19-1.55844E-18
 -1      1843 9.46809E-05-2.84353E-05-2.83911E-05 3.06612E-07-3.53609E-19-1.38036E-18
 -1      1844 9.46726E-05-2.84600E-05-2.83763E-05 4.52761E-07-5.62599E-19-1.15738E-18
 -1      1845 9.47432E-05-2.84488E-05-2.84135E-05 2.76922E-07-2.43066E-19-1.44700E-18
 -1      1846 9.48206E-05-2.84670E-05-2.84371E-05 2.57126E-07-9.24253E-20-1.92575E-18
 -1      1847 9.48039E-05-2.84849E-05-2.84220E-05 3.75991E-07-4.70753E-19-1.40074E-18
 -1      1848 9.48773E-05-2.84783E-05-2.84578E-05 2.38865E-07-1.27104E-20-2.11565E-18
 -1      1849 9.49464E-05-2.84934E-05-2.84793E-05 2.28560E-07 9.56800E-21-2.11985E-18
 -1      1850 9.49204E-05-2.85037E-05-2.84642E-05 3.23036E-07-2.30785E-19-1.22090E-18
 -1      1851 9.50013E-05-2.85036E-05-2.84997E-05 2.23226E-07 3.23237E-19-2.20298E-18
 -1      1852 9.50686E-05-2.85174E-05-2.85208E-05 2.23572E-07 4.85197E-19-2.02669E-18
 -1      1853 9.50293E-05-2.85184E-05-2.85048E-05 2.97292E-07 1.36179E-19-1.29449E-18
 -1      1854 9.51264E-05-2.85276E-05-2.85425E-05 2.32993E-07 4.69750E-19-1.81195E-18
 -1      1855 9.51990E-05-2.85420E-05-2.85654E-05 2.45535E-07 6.17774E-19-1.41703E-18
 -1      1856 9.51387E-05-2.85309E-05-2.85468E-05 3.02554E-07 5.61719E-19-1.60119E-18
 -1      1857 9.52650E-05-2.85534E-05-2.85903E-05 2.72092E-07 7.44951E-19-1.47005E-18
 -1      1858 9.53516E-05-2.85706E-05-2.86176E-05 2.98922E-07 7.03016E-19-1.57528E-18
 -1      1859 9.52588E-05-2.85435E-05-2.85934E-05 3.43576E-07 5.66804E-19-1.55634E-18
 -1      1860 9.54323E-05-2.85848E-05-2.86480E-05 3.45752E-07 7.31249E-19-1.63509E-18
 -1      1861 9.55427E-05-2.86074E-05-2.86826E-05 3.89654E-07 2.57280E-19-1.28482E-18
 -1      1862 9.54011E-05-2.85583E-05-2.86486E-05 4.26548E-07 6.65951E-19-1.87732E-18
 -1      1863 9.56456E-05-2.86260E-05-2.87211E-05 4.60809E-07-2.38584E-19-9.99384E-19
 -1      1864 9.57920E-05-2.86571E-05-2.87667E-05 5.25393E-07-3.28859E-19-8.18879E-19
 -1      1865 9.55793E-05-2.85782E-05-2.87170E-05 5.59489E-07 3.09641E-19-1.41126E-18
 -1      1866 9.59258E-05-2.86823E-05-2.88165E-05 6.25971E-07-7.38611E-19-1.02085E-18
 -1      1867 9.61227E-05-2.87257E-05-2.88772E-05 7.15767E-07-4.85553E-19-1.31438E-18
 -1      1868 9.58095E-05-2.86065E-05-2.88044E-05 7.52568E-07-6.00069E-19-1.41658E-18
 -1      1869 9.62975E-05-2.87598E-05-2.89419E-05 8.51967E-07-1.21974E-19-1.57654E-18
 -1      1870 9.65622E-05-2.88203E-05-2.90228E-05 9.72460E-07-4.79080E-19-1.30049E-18
 -1      1871 9.61104E-05-2.86469E-05-2.89169E-05 1.01829E-06-3.77738E-19-1.46631E-18
 -1      1872 9.67898E-05-2.88662E-05-2.91066E-05 1.15151E-06-6.68744E-19-1.08333E-18
 -1      1873 9.71430E-05-2.89495E-05-2.92138E-05 1.30903E-06-2.94371E-19-1.30512E-18
 -1      1874 9.65039E-05-2.87043E-05-2.90618E-05 1.37144E-06-3.30912E-19-1.41383E-18
 -1      1875 9.74367E-05-2.90108E-05-2.93212E-05 1.53885E-06-4.58519E-19-1.76216E-18
 -1      1876 9.79025E-05-2.91242E-05-2.94615E-05 1.74018E-06-5.19569E-20-2.25395E-18
 -1      1877 9.70148E-05-2.87849E-05-2.92472E-05 1.82864E-06-6.98405E-19-1.56411E-18
 -1      1878 9.82770E-05-2.92053E-05-2.95974E-05 2.02854E-06 9.66842E-20-2.35791E-18
 -1      1879 9.88827E-05-2.93577E-05-2.97783E-05 2.27989E-06 3.64168E-19-1.75174E-18
 -1      1880 9.76712E-05-2.88971E-05-2.94816E-05 2.40698E-06-3.27630E-20-1.49250E-18
 -1      1881 9.93535E-05-2.94646E-05-2.99473E-05 2.63260E-06 8.05429E-19-1.77498E-18
 -1      1882 1.00128E-04-2.96673E-05-3.01765E-05 2.93753E-06 1.02220E-18-1.61728E-18
 -1      1883 9.85041E-05-2.90524E-05-2.97730E-05 3.12106E-06 6.03874E-19-1.94868E-18
 -1      1884 1.00712E-04-2.98082E-05-3.03822E-05 3.35489E-06 1.11456E-18-1.98065E-18
 -1      1885 1.01684E-04-3.00753E-05-3.06663E-05 3.71009E-06 9.66764E-19-1.37763E-18
 -1      1886 9.95464E-05-2.92687E-05-3.01280E-05 3.97721E-06 1.02978E-18-1.99726E-18
 -1      1887 1.02396E-04-3.02629E-05-3.09096E-05 4.18047E-06 6.74453E-19-1.10201E-18
 -1      1888 1.03587E-04-3.06122E-05-3.12520E-05 4.56815E-06 4.19920E-19-1.02048E-18
 -1      1889 1.00833E-04-2.95746E-05-3.05490E-05 4.96265E-06 1.34464E-18-1.93588E-18
 -1      1890 1.04443E-04-3.08668E-05-3.15293E-05 5.05680E-06-2.10468E-20 1.33242E-20
 -1      1891 1.05855E-04-3.13205E-05-3.19258E-05 5.43181E-06-4.08889E-19 2.07328E-19
 -1      1892 1.02399E-04-3.00175E-05-3.10315E-05 6.02669E-06 6.86399E-19-8.30230E-19
 -1      1893 1.06873E-04-3.16745E-05-3.22260E-05 5.86319E-06-6.16610E-19 1.07246E-18
 -1      1894 1.08474E-04-3.22574E-05-3.26592E-05 6.13366E-06-1.17406E-19 9.99191E-19
 -1      1895 1.04284E-04-3.06751E-05-3.15586E-05 7.05023E-06 1.03305E-19 6.27599E-19
 -1      1896 1.09669E-04-3.27600E-05-3.29610E-05 6.36664E-06 2.66766E-20 7.44284E-19
 -1      1897 1.11363E-04-3.34925E-05-3.33921E-05 6.37073E-06 8.06264E-19 8.79058E-19
 -1      1898 1.06530E-04-3.16679E-05-3.20977E-05 7.80120E-06 1.37299E-19 8.37188E-19
 -1      1899 1.12753E-04-3.42057E-05-3.36631E-05 6.17211E-06 9.16258E-19 4.86680E-19
 -1      1900 1.14343E-04-3.50800E-05-3.40258E-05 5.66448E-06 8.03305E-19 2.52009E-19
 -1      1901 1.09182E-04-3.31578E-05-3.25982E-05 7.88091E-06 5.38399E-19 1.49468E-19
 -1      1902 1.15920E-04-3.60471E-05-3.42283E-05 4.70232E-06 7.61125E-19-3.60783E-20
 -1      1903 1.17072E-04-3.69688E-05-3.44305E-05 3.38716E-06 5.05129E-19 3.84364E-19
 -1      1904 1.12258E-04-3.52959E-05-3.30015E-05 6.68748E-06 8.81391E-19 3.90823E-19
 -1      1905 1.18727E-04-3.81209E-05-3.45391E-05 1.30022E-06 6.79426E-19 1.07549E-18
 -1      1906 1.18956E-04-3.88061E-05-3.44866E-05-1.02111E-06 4.29988E-19 1.44150E-18
 -1      1907 1.15645E-04-3.80457E-05-3.32693E-05 3.47133E-06 1.26975E-18 4.58511E-19
 -1      1908 1.20331E-04-3.97898E-05-3.45203E-05-4.37269E-06 5.14321E-19 1.88554E-18
 -1      1909 1.19087E-04-3.96755E-05-3.41686E-05-7.48350E-06 5.78656E-19 2.68483E-18
 -1      1910 1.18861E-04-4.08100E-05-3.34405E-05-2.35819E-06 7.93703E-19 1.68504E-18
 -1      1911 1.19455E-04-3.97378E-05-3.42077E-05-1.15097E-05 3.80516E-19 2.20527E-18
 -1      1912 1.16425E-04-3.81467E-05-3.36170E-05-1.43951E-05 4.67066E-19 2.10099E-18
 -1      1913 1.20735E-04-4.20532E-05-3.36793E-05-1.04469E-05 4.09084E-19 1.77383E-18
 -1      1914 1.14955E-04-3.64525E-05-3.37559E-05-1.73021E-05-8.89633E-20 2.32066E-18
 -1      1915 1.10587E-04-3.32934E-05-3.30931E-05-1.81712E-05-1.08187E-18 2.33715E-18
 -1      1916 1.19547E-04-3.95963E-05-3.42117E-05-1.83895E-05 3.99694E-21 1.18785E-18
 -1      1917 1.07494E-04-3.01376E-05-3.33042E-05-1.74877E-05-1.98455E-18 1.71408E-18
 -1      1918 1.03367E-04-2.68347E-05-3.27392E-05-1.49918E-05-1.80849E-18 1.26715E-18
 -1      1919 1.14518E-04-3.27573E-05-3.50641E-05-2.13601E-05-1.72596E-18 2.46005E-18
 -1      1920 1.00704E-04-2.43894E-05-3.27959E-05-1.00941E-05-2.16486E-18 1.52576E-18
 -1      1921 9.86914E-05-2.31557E-05-3.24076E-05-5.16796E-06-1.80153E-18 9.73008E-19
 -1      1922 1.08178E-04-2.50832E-05-3.57901E-05-1.53527E-05-2.04982E-18 2.46313E-18
 -1      1923 9.85639E-05-2.36033E-05-3.20802E-05 1.06177E-06-6.48536E-19 4.03780E-20
 -1      1924 9.92934E-05-2.52100E-05-3.18840E-05 5.28712E-06-3.67851E-19 1.02967E-20
 -1      1925 1.05162E-04-2.24183E-05-3.56790E-05-2.58605E-06-1.66437E-18 1.71994E-18
 -1      1926 1.01041E-04-2.78614E-05-3.12688E-05 8.65271E-06 3.62054E-19 8.29550E-19
 -1      1927 1.03249E-04-3.06182E-05-3.12599E-05 9.75295E-06 1.64716E-18 1.63463E-18
 -1      1928 1.07151E-04-2.68652E-05-3.45100E-05 8.22942E-06 5.56183E-19 1.70769E-18
 -1      1929 1.04350E-04-3.27641E-05-3.06618E-05 8.89362E-06 8.18777E-19 9.68212E-19
 -1      1930 1.06111E-04-3.45135E-05-3.07494E-05 7.24066E-06 7.16371E-19 4.96050E-19
 -1      1931 1.10618E-04-3.39136E-05-3.28865E-05 1.05357E-05 8.66938E-19 1.40695E-18
 -1      1932 1.05400E-04-3.48027E-05-3.03331E-05 4.13382E-06-6.01936E-19 4.60137E-19
 -1      1933 1.05796E-04-3.48804E-05-3.03751E-05 1.62205E-06-6.42137E-19-7.86640E-20
 -1      1934 1.11246E-04-3.75934E-05-3.15142E-05 5.74373E-06-2.78967E-19 2.26624E-19
 -1      1935 1.03669E-04-3.36346E-05-3.01353E-05-1.22203E-06-4.67337E-19-5.76702E-19
 -1      1936 1.02777E-04-3.24994E-05-3.00644E-05-2.91204E-06-4.83203E-19-8.82317E-19
 -1      1937 1.08325E-04-3.67131E-05-3.06858E-05-9.65321E-07-1.50606E-18 3.15379E-19
 -1      1938 1.00356E-04-3.08334E-05-2.99010E-05-3.82464E-06-1.70836E-19-1.25359E-18
 -1      1939 9.90112E-05-2.94362E-05-2.97288E-05-4.00707E-06 3.84368E-19-1.29139E-18
 -1      1940 9.88996E-05-2.89096E-05-2.99849E-05-5.39176E-06-4.25872E-19-2.05986E-18
 -1      1941 1.03471E-04-3.27497E-05-3.02732E-05-5.00291E-06-9.08009E-19-5.54631E-19
 -1      1942 9.32217E-05-2.73656E-05-2.81961E-05 1.60325E-06 1.29259E-18 2.29710E-18
 -1      1943 9.44156E-05-2.74708E-05-2.86325E-05 2.67425E-06 1.51722E-18 2.94014E-18
 -1      1944 9.52384E-05-2.70496E-05-2.92292E-05 4.05151E-06 1.90454E-18 1.82729E-18
 -1      1945 9.21705E-05-2.73523E-05-2.77546E-05 3.46627E-07 1.12319E-18 1.57827E-18
 -1      1946 9.26643E-05-2.73844E-05-2.79269E-05 8.94695E-07 1.02504E-18 2.00848E-18
 -1      1947 9.36348E-05-2.73709E-05-2.84057E-05 1.58296E-06 1.33226E-18 1.28779E-18
 -1      1948 9.17957E-05-2.73902E-05-2.75867E-05-3.06427E-07 8.80163E-19 1.26949E-18
 -1      1949 9.19103E-05-2.73633E-05-2.76335E-05-1.40483E-08 9.47446E-19 1.56473E-18
 -1      1950 9.28042E-05-2.74863E-05-2.80034E-05 2.70499E-07 1.15723E-18 8.97455E-19
 -1      1951 9.18196E-05-2.74810E-05-2.75636E-05-6.31438E-07 2.82067E-19 8.75763E-19
 -1      1952 9.17315E-05-2.74189E-05-2.75472E-05-4.78939E-07 5.85703E-19 1.17628E-18
 -1      1953 9.24905E-05-2.75795E-05-2.78291E-05-4.22395E-07 7.19311E-19 5.60377E-19
 -1      1954 9.20634E-05-2.76029E-05-2.76189E-05-7.68078E-07 6.10707E-19 4.54800E-19
 -1      1955 9.18727E-05-2.75242E-05-2.75703E-05-6.97312E-07 2.87733E-19 7.25378E-19
 -1      1956 9.24937E-05-2.76847E-05-2.77834E-05-7.66207E-07 4.48970E-19 1.20962E-19
 -1      1957 9.24150E-05-2.77369E-05-2.77141E-05-7.93923E-07 4.40386E-19 1.59300E-19
 -1      1958 9.21803E-05-2.76536E-05-2.76510E-05-7.72296E-07 5.96620E-19 3.74953E-19
 -1      1959 9.26773E-05-2.77999E-05-2.78106E-05-9.05532E-07 6.71855E-19-6.42798E-20
 -1      1960 9.28046E-05-2.78695E-05-2.78256E-05-7.55581E-07 2.62455E-19-3.68177E-19
 -1      1961 9.25609E-05-2.77891E-05-2.77584E-05-7.63243E-07 4.19429E-19 2.75075E-20
 -1      1962 9.29523E-05-2.79164E-05-2.78767E-05-9.23734E-07 4.83341E-19 9.40418E-20
 -1      1963 9.31901E-05-2.79925E-05-2.79391E-05-6.82554E-07 6.49989E-20-4.26764E-19
 -1      1964 9.29577E-05-2.79193E-05-2.78740E-05-7.06770E-07 8.63473E-20-5.57133E-19
 -1      1965 9.32618E-05-2.80269E-05-2.79605E-05-8.72061E-07 2.72569E-19-2.75067E-19
 -1      1966 9.35474E-05-2.81018E-05-2.80461E-05-5.93949E-07 4.79898E-19-1.61781E-19
 -1      1967 9.33371E-05-2.80376E-05-2.79866E-05-6.26344E-07 3.65015E-19-1.80425E-19
 -1      1968 9.35706E-05-2.81269E-05-2.80491E-05-7.83314E-07 2.83010E-19-4.55810E-19
 -1      1969 9.38643E-05-2.81955E-05-2.81423E-05-5.02170E-07 5.63491E-19-1.17733E-19
 -1      1970 9.36811E-05-2.81411E-05-2.80900E-05-5.37213E-07 5.14779E-19-1.98638E-19
 -1      1971 9.38586E-05-2.82139E-05-2.81345E-05-6.78844E-07 6.25538E-19-3.62808E-19
 -1      1972 9.41371E-05-2.82739E-05-2.82261E-05-4.15196E-07 9.30129E-19-8.86990E-19
 -1      1973 9.39817E-05-2.82288E-05-2.81814E-05-4.49249E-07 7.96784E-19-7.13539E-19
 -1      1974 9.41157E-05-2.82873E-05-2.82128E-05-5.72558E-07 9.77488E-19-6.20898E-19
 -1      1975 9.43671E-05-2.83380E-05-2.82974E-05-3.38094E-07 5.27361E-19-1.36363E-18
 -1      1976 9.42378E-05-2.83014E-05-2.82599E-05-3.68774E-07 6.51809E-19-8.63588E-19
 -1      1977 9.43386E-05-2.83479E-05-2.82820E-05-4.73446E-07 8.39860E-19-1.02265E-18
 -1      1978 9.45592E-05-2.83900E-05-2.83577E-05-2.74098E-07-4.76496E-19-1.47130E-18
 -1      1979 9.44526E-05-2.83605E-05-2.83265E-05-2.99817E-07 4.54687E-20-1.70279E-18
 -1      1980 9.45285E-05-2.83970E-05-2.83422E-05-3.87296E-07 4.03102E-19-1.35455E-18
 -1      1981 9.47209E-05-2.84321E-05-2.84089E-05-2.25408E-07-2.52743E-19-1.09115E-18
 -1      1982 9.46324E-05-2.84083E-05-2.83827E-05-2.45027E-07-2.61806E-19-1.09794E-18
 -1      1983 9.46900E-05-2.84364E-05-2.83945E-05-3.17929E-07-3.45672E-19-1.17267E-18
 -1      1984 9.48613E-05-2.84674E-05-2.84540E-05-1.93791E-07 3.48674E-19-1.15303E-18
 -1      1985 9.47854E-05-2.84475E-05-2.84312E-05-2.06355E-07-1.36608E-19-1.08937E-18
 -1      1986 9.48296E-05-2.84685E-05-2.84406E-05-2.68110E-07 9.78089E-20-8.52030E-19
 -1      1987 9.49913E-05-2.84988E-05-2.84961E-05-1.81030E-07 5.27044E-19-7.76493E-19
 -1      1988 9.49218E-05-2.84811E-05-2.84749E-05-1.85565E-07 5.26672E-19-9.07928E-19
 -1      1989 9.49558E-05-2.84956E-05-2.84832E-05-2.40236E-07 4.35497E-19-7.54993E-19
 -1      1990 9.51229E-05-2.85298E-05-2.85389E-05-1.89260E-07 6.38922E-20-8.99206E-19
 -1      1991 9.50529E-05-2.85122E-05-2.85173E-05-1.84618E-07 4.00310E-19-6.70996E-19
 -1      1992 9.50785E-05-2.85206E-05-2.85252E-05-2.36847E-07 3.27022E-19-1.52090E-19
 -1      1993 9.52701E-05-2.85643E-05-2.85869E-05-2.21183E-07-9.53295E-20-9.62054E-19
 -1      1994 9.51917E-05-2.85445E-05-2.85625E-05-2.05938E-07 3.41297E-20-6.30169E-19
 -1      1995 9.52090E-05-2.85465E-05-2.85703E-05-2.60975E-07-1.03770E-21-6.51185E-19
 -1      1996 9.54488E-05-2.86068E-05-2.86448E-05-2.80165E-07-1.63834E-19-1.54056E-18
 -1      1997 9.53531E-05-2.85821E-05-2.86150E-05-2.52559E-07-1.27744E-19-1.48515E-18
 -1      1998 9.53602E-05-2.85767E-05-2.86225E-05-3.16360E-07 1.09686E-19-9.51854E-19
 -1      1999 9.56770E-05-2.86626E-05-2.87181E-05-3.70180E-07 1.05821E-18-1.98271E-18
 -1      2000 9.55537E-05-2.86300E-05-2.86799E-05-3.28134E-07 4.68365E-19-1.55714E-18
 -1      2001 9.55471E-05-2.86154E-05-2.86864E-05-4.07478E-07 4.28381E-19-1.30645E-18
 -1      2002 9.59752E-05-2.87376E-05-2.88131E-05-4.95536E-07 5.24952E-19-2.97198E-18
 -1      2003 9.58128E-05-2.86935E-05-2.87631E-05-4.36765E-07 7.78951E-19-2.17197E-18
 -1      2004 9.57865E-05-2.86674E-05-2.87671E-05-5.39349E-07 1.14388E-18-2.13559E-18
 -1      2005 9.63660E-05-2.88389E-05-2.89364E-05-6.60287E-07-6.20830E-19-3.03742E-18
 -1      2006 9.61517E-05-2.87793E-05-2.88709E-05-5.82559E-07-2.67264E-19-2.92104E-18
 -1      2007 9.60971E-05-2.87384E-05-2.88704E-05-7.17031E-07-8.94927E-20-2.30644E-18
 -1      2008 9.68738E-05-2.89745E-05-2.90951E-05-8.67187E-07-9.94819E-19-2.04614E-18
 -1      2009 9.65938E-05-2.88947E-05-2.90103E-05-7.68806E-07-1.06603E-18-2.55286E-18
 -1      2010 9.64994E-05-2.88352E-05-2.90019E-05-9.44636E-07-9.35220E-19-1.83633E-18
 -1      2011 9.75230E-05-2.91533E-05-2.92960E-05-1.11596E-06-3.31543E-19-1.26241E-18
 -1      2012 9.71636E-05-2.90485E-05-2.91880E-05-9.96572E-07-4.56208E-19-1.96743E-18
 -1      2013 9.70151E-05-2.89660E-05-2.91676E-05-1.22369E-06-8.11540E-19-1.54127E-18
 -1      2014 9.83358E-05-2.93849E-05-2.95447E-05-1.40062E-06 8.97755E-19-1.92599E-19
 -1      2015 9.78847E-05-2.92500E-05-2.94103E-05-1.26251E-06 4.85610E-19-1.01813E-18
 -1      2016 9.76650E-05-2.91400E-05-2.93723E-05-1.55054E-06 3.98914E-19-1.03020E-18
 -1      2017 9.93270E-05-2.96783E-05-2.98439E-05-1.70554E-06 4.91244E-19-8.65286E-19
 -1      2018 9.87766E-05-2.95090E-05-2.96816E-05-1.55553E-06 7.94497E-19-4.20003E-19
 -1      2019 9.84669E-05-2.93681E-05-2.96189E-05-1.91245E-06 8.00656E-19-7.44446E-19
 -1      2020 1.00498E-04-3.00414E-05-3.01914E-05-1.99996E-06 2.91640E-19-1.64587E-18
 -1      2021 9.98495E-05-2.98350E-05-3.00023E-05-1.85218E-06 4.30178E-19-8.95010E-19
 -1      2022 9.94313E-05-2.96619E-05-2.99068E-05-2.28214E-06 6.12497E-19-5.83724E-19
 -1      2023 1.01827E-04-3.04777E-05-3.05765E-05-2.23121E-06 7.11397E-19-2.81000E-18
 -1      2024 1.01096E-04-3.02349E-05-3.03666E-05-2.11053E-06 5.59444E-19-2.24862E-18
 -1      2025 1.00555E-04-3.00333E-05-3.02295E-05-2.61062E-06 1.02975E-18-1.07712E-18
 -1      2026 1.03254E-04-3.09826E-05-3.09763E-05-2.31743E-06-4.01927E-19-2.76660E-18
 -1      2027 1.02480E-04-3.07104E-05-3.07587E-05-2.26331E-06-3.39430E-19-2.87340E-18
 -1      2028 1.01815E-04-3.04917E-05-3.05723E-05-2.81897E-06 1.00370E-19-1.12852E-18
 -1      2029 1.04668E-04-3.15368E-05-3.13518E-05-2.14318E-06-3.60979E-19-2.37044E-18
 -1      2030 1.03923E-04-3.12526E-05-3.11490E-05-2.21219E-06-2.60780E-19-2.01027E-18
 -1      2031 1.03151E-04-3.10398E-05-3.09089E-05-2.79138E-06-4.58471E-19-2.10967E-18
 -1      2032 1.05891E-04-3.20953E-05-3.16449E-05-1.56440E-06 3.47757E-19-1.62895E-18
 -1      2033 1.05288E-04-3.18324E-05-3.14910E-05-1.82828E-06-2.07194E-19-2.46688E-18
 -1      2034 1.04462E-04-3.16636E-05-3.12000E-05-2.37466E-06-1.18747E-19-1.09180E-18
 -1      2035 1.06667E-04-3.25736E-05-3.17805E-05-4.34442E-07-3.13018E-19-1.59787E-18
 -1      2036 1.06362E-04-3.23870E-05-3.17199E-05-9.67591E-07 3.52548E-19-1.32371E-18
 -1      2037 1.05581E-04-3.23158E-05-3.13943E-05-1.39451E-06-7.36058E-20-4.03252E-19
 -1      2038 1.06671E-04-3.28317E-05-3.16767E-05 1.33396E-06 1.21764E-18-1.64841E-18
 -1      2039 1.06851E-04-3.28021E-05-3.17584E-05 4.85203E-07 9.34913E-20-1.38443E-18
 -1      2040 1.06269E-04-3.28911E-05-3.14340E-05 2.96539E-07 2.99049E-19 1.57985E-19
 -1      2041 1.05559E-04-3.26719E-05-3.12667E-05 3.66254E-06-8.21768E-19-4.67026E-19
 -1      2042 1.06407E-04-3.28989E-05-3.15308E-05 2.53308E-06 4.25111E-19-6.03696E-19
 -1      2043 1.06220E-04-3.32018E-05-3.12686E-05 2.72448E-06 1.27948E-19 1.73408E-18
 -1      2044 1.03073E-04-3.18769E-05-3.05310E-05 6.18158E-06-1.89230E-18 4.76357E-19
 -1      2045 1.04692E-04-3.24497E-05-3.09888E-05 4.95017E-06-1.76563E-18-3.08724E-19
 -1      2046 1.05104E-04-3.29809E-05-3.08738E-05 5.65608E-06-1.55856E-18 2.23225E-18
 -1      2047 9.92168E-05-3.03226E-05-2.95288E-05 8.17517E-06 3.70319E-19 7.43152E-19
 -1      2048 1.01541E-04-3.12589E-05-3.01428E-05 7.18947E-06-1.01022E-18 5.30971E-19
 -1      2049 1.02692E-04-3.19624E-05-3.02719E-05 8.47574E-06-1.28505E-18 1.52701E-18
 -1      2050 9.44608E-05-2.81558E-05-2.84084E-05 8.74598E-06-1.50352E-18-5.16955E-20
 -1      2051 9.71729E-05-2.93275E-05-2.90853E-05 8.43545E-06-4.16595E-19 2.61402E-19
 -1      2052 9.90688E-05-3.00697E-05-2.95392E-05 1.02149E-05-1.20474E-19 3.61544E-19
 -1      2053 8.97959E-05-2.59085E-05-2.73749E-05 7.27409E-06-6.51117E-19 9.16695E-19
 -1      2054 9.23447E-05-2.70209E-05-2.79849E-05 7.92276E-06-1.18207E-18 3.89648E-19
 -1      2055 9.48339E-05-2.76386E-05-2.87916E-05 9.89407E-06-1.68006E-18 7.80587E-19
 -1      2056 8.64596E-05-2.43537E-05-2.66247E-05 3.95805E-06 1.77301E-18 7.35717E-19
 -1      2057 8.82280E-05-2.50496E-05-2.70443E-05 5.45181E-06 5.68412E-19 8.43096E-19
 -1      2058 9.10686E-05-2.54435E-05-2.81475E-05 7.14637E-06 6.46187E-19 1.13794E-18
 -1      2059 8.53159E-05-2.40470E-05-2.62750E-05-6.27646E-08 8.93752E-20-1.26433E-19
 -1      2060 8.59057E-05-2.41180E-05-2.64342E-05 1.73598E-06 8.90099E-19 6.99795E-21
 -1      2061 8.88780E-05-2.43349E-05-2.76951E-05 2.71327E-06 9.13459E-19 1.60153E-18
 -1      2062 8.63260E-05-2.49186E-05-2.63278E-05-3.30820E-06 1.78024E-18-1.26062E-18
 -1      2063 8.57685E-05-2.44471E-05-2.62352E-05-1.86729E-06 8.88723E-19-1.75759E-19
 -1      2064 8.87236E-05-2.46661E-05-2.74737E-05-1.77916E-06 1.37564E-18-2.22985E-19
 -1      2065 8.86117E-05-2.63378E-05-2.66808E-05-4.85624E-06 1.20779E-18-1.13320E-18
 -1      2066 8.73247E-05-2.56267E-05-2.64125E-05-4.15695E-06 1.52774E-18-9.65121E-19
 -1      2067 9.01336E-05-2.60270E-05-2.74726E-05-4.77731E-06 1.54703E-18 1.35790E-20
 -1      2068 9.10644E-05-2.75896E-05-2.71783E-05-4.77857E-06 3.91231E-19-5.30024E-19
 -1      2069 8.95868E-05-2.69483E-05-2.68385E-05-4.76362E-06 7.29328E-19-2.87813E-19
 -1      2070 9.20813E-05-2.75668E-05-2.76364E-05-5.70243E-06 7.25247E-20 7.98573E-19
 -1      2071 9.29475E-05-2.83149E-05-2.76684E-05-3.84375E-06-1.07277E-19-5.18149E-19
 -1      2072 9.16717E-05-2.78839E-05-2.73482E-05-4.16920E-06 2.98655E-19-9.80163E-19
 -1      2073 9.36640E-05-2.85943E-05-2.78788E-05-5.06356E-06 7.70307E-19 1.14583E-18
 -1      2074 9.41126E-05-2.86400E-05-2.80347E-05-2.78384E-06-7.64639E-19-1.14349E-19
 -1      2075 9.31982E-05-2.83692E-05-2.77980E-05-3.16139E-06 3.48806E-20 5.50631E-19
 -1      2076 9.45533E-05-2.89941E-05-2.80990E-05-3.84239E-06-6.30977E-19 2.11111E-18
 -1      2077 9.48409E-05-2.89709E-05-2.82130E-05-1.94904E-06-1.80464E-18 1.82747E-18
 -1      2078 9.42030E-05-2.87053E-05-2.80808E-05-2.42169E-06-2.00792E-18 7.22847E-19
 -1      2079 9.50229E-05-2.91892E-05-2.82201E-05-2.88324E-06-2.21631E-18 2.77210E-18
 -1      2080 9.53043E-05-2.93956E-05-2.82081E-05-2.18556E-06-2.00496E-18 4.23186E-18
 -1      2081 9.89027E-05-2.95499E-05-2.95894E-05 6.03006E-06 1.64643E-18 2.16176E-18
 -1      2082 9.87549E-05-3.07997E-05-2.91140E-05 3.49775E-06 1.06782E-18 2.51456E-18
 -1      2083 9.80008E-05-3.05834E-05-2.87884E-05 9.90456E-07 1.47288E-18 1.53777E-18
 -1      2084 9.74075E-05-3.07160E-05-2.85789E-05-4.91662E-07 5.39090E-19 2.36796E-18
 -1      2085 9.99739E-05-3.16366E-05-2.93172E-05 2.71490E-06 2.86899E-20 2.31599E-18
 -1      2086 9.66606E-05-3.02919E-05-2.83740E-05-1.56824E-06-7.17953E-19 3.33737E-18
 -1      2087 9.59429E-05-2.98393E-05-2.83204E-05-1.99075E-06-2.29932E-18 3.81582E-18
 -1      2088 9.59414E-05-2.97513E-05-2.83726E-05-2.35471E-06-2.84846E-18 3.47033E-18
 -1      2089 9.79548E-05-3.08443E-05-2.87589E-05-1.02895E-06-1.41202E-18 4.30668E-18
 -1      2090 9.83644E-05-2.62639E-05-3.07932E-05 1.25487E-05 1.43773E-18-1.31313E-18
 -1      2091 9.91256E-05-2.90058E-05-3.00193E-05 9.55064E-06 9.11477E-19 1.11440E-18
 -1      2092 1.01461E-04-3.14633E-05-3.00514E-05 9.33755E-06-4.09875E-19 8.72755E-19
 -1      2093 9.54321E-05-2.00086E-05-3.23054E-05 1.88342E-05 9.05439E-19-5.74143E-19
 -1      2094 9.75278E-05-2.43960E-05-3.12788E-05 1.63231E-05 8.41772E-19 2.66359E-19
 -1      2095 1.00827E-04-2.90918E-05-3.08252E-05 1.74453E-05-4.07956E-19-3.05170E-19
 -1      2096 8.97247E-05-1.11266E-05-3.37981E-05 2.15606E-05 1.60844E-18 1.56182E-18
 -1      2097 9.30763E-05-1.64763E-05-3.27359E-05 2.11154E-05 1.24082E-18 1.16072E-18
 -1      2098 9.67001E-05-2.34687E-05-3.14576E-05 2.43812E-05-4.05027E-19-1.88614E-19
 -1      2099 8.26498E-05-1.67915E-06-3.48981E-05 1.74702E-05 2.37376E-18-5.05096E-19
 -1      2100 8.61636E-05-6.45803E-06-3.40718E-05 2.02996E-05 2.09991E-18 3.83679E-19
 -1      2101 8.88804E-05-1.47102E-05-3.17700E-05 2.58829E-05 8.78611E-19 9.18680E-19
 -1      2102 7.78527E-05 4.38011E-06-3.53972E-05 6.20723E-06 2.02324E-18-2.18685E-18
 -1      2103 7.96330E-05 2.08262E-06-3.50201E-05 1.18297E-05 3.16915E-18-2.76715E-19
 -1      2104 8.02048E-05-5.55765E-06-3.17884E-05 1.83034E-05 9.28434E-19-2.19726E-19
 -1      2105 7.85676E-05 3.68809E-06-3.52807E-05-7.71407E-06 1.56733E-18-3.71016E-18
 -1      2106 7.74856E-05 4.89904E-06-3.54387E-05-1.77399E-06 2.28477E-18-3.48988E-18
 -1      2107 7.57422E-05-8.76413E-07-3.17674E-05 2.76885E-06 6.48343E-19-3.03082E-18
 -1      2108 8.41574E-05-3.20276E-06-3.46229E-05-1.75700E-05-1.45438E-18-5.79071E-18
 -1      2109 8.10469E-05 7.37708E-07-3.52527E-05-1.40431E-05-1.88862E-20-4.59042E-18
 -1      2110 7.85696E-05-3.59220E-06-3.18897E-05-1.36031E-05 4.92024E-19-5.82872E-18
 -1      2111 9.10823E-05-1.26830E-05-3.35069E-05-2.01918E-05-7.73368E-19 1.48751E-18
 -1      2112 8.77064E-05-7.65679E-06-3.44489E-05-1.98935E-05-7.75009E-19-1.67231E-18
 -1      2113 8.64910E-05-1.16608E-05-3.20153E-05-2.32365E-05-8.88028E-19-3.39193E-18
 -1      2114 9.59207E-05-2.07307E-05-3.21629E-05-1.66386E-05 6.74635E-19 4.39385E-18
 -1      2115 9.36658E-05-1.63356E-05-3.31541E-05-1.86679E-05-8.00976E-20 2.91271E-18
 -1      2116 9.46120E-05-2.03782E-05-3.18733E-05-2.37688E-05 2.30287E-19 2.81149E-18
 -1      2117 9.77588E-05-2.56322E-05-3.08885E-05-1.05506E-05-4.82504E-19-3.29761E-19
 -1      2118 9.68310E-05-2.26969E-05-3.17020E-05-1.33236E-05-9.50265E-20 2.99663E-18
 -1      2119 9.92596E-05-2.62694E-05-3.13604E-05-1.80896E-05-4.49245E-19 2.63180E-18
 -1      2120 6.94884E-05-4.72441E-05-9.99391E-06 4.98285E-05-4.38678E-18 6.76845E-18
 -1      2121 5.09858E-05-4.89000E-05-2.35957E-06 4.01280E-05-6.48912E-18 4.74518E-18
 -1      2122 1.47289E-05-3.72834E-05 8.24403E-06 6.26984E-06-5.07023E-18-1.27733E-18
 -1      2123 1.59050E-05-4.36044E-05 9.64647E-06-6.44692E-06-5.81266E-18-4.50537E-18
 -1      2124 3.51251E-05-4.23256E-05 1.96141E-06 3.49566E-05-4.90263E-18 2.56524E-18
 -1      2125 2.44506E-05-3.87670E-05 5.13671E-06 2.50307E-05-4.06025E-18 2.82485E-19
 -1      2126 5.12778E-05-4.14808E-05-4.65178E-06 4.50955E-05-4.89077E-18 3.13572E-18
 -1      2127 1.17424E-04-5.33207E-05-2.72522E-05 4.82553E-05-3.17976E-18 6.27186E-18
 -1      2128 9.68471E-05-5.53268E-05-1.84350E-05 4.62443E-05-4.76033E-18 6.16301E-18
 -1      2129 1.51092E-04-4.89879E-05-4.32938E-05 3.49160E-05-5.79371E-19 1.87703E-18
 -1      2130 1.32266E-04-5.23378E-05-3.46769E-05 3.74806E-05-3.10311E-18 4.30547E-18
 -1      2131 8.72673E-05-8.72388E-06-3.37499E-05-1.05202E-05-1.80647E-18-2.80908E-18
 -1      2132 8.79641E-05-9.25303E-06-3.38205E-05-1.21071E-05-2.08200E-18-2.38633E-18
 -1      2133 9.04701E-05-1.30771E-05-3.32347E-05-1.19182E-05-2.24686E-18-1.97341E-18
 -1      2134 8.86673E-05-1.10329E-05-3.32956E-05-9.40797E-06-1.76522E-18-2.72803E-18
 -1      2135 1.82302E-04-2.54132E-05-6.65378E-05 9.93256E-06 4.28387E-18-5.02079E-19
 -1      2136 1.76479E-04-2.91190E-05-6.26686E-05 1.71064E-05 3.02708E-18 6.04358E-19
 -1      2137 1.90714E-04-2.41102E-05-7.02234E-05 2.00790E-06 4.46810E-18 6.60050E-19
 -1      2138 1.83310E-04-2.06630E-05-6.92068E-05 8.64151E-06 5.08347E-18 4.54221E-19
 -1      2139 1.79923E-04-2.58908E-05-6.55156E-05-5.46930E-06 2.67069E-18-1.23116E-18
 -1      2140 1.90619E-04-2.65732E-05-6.91105E-05-1.64507E-07 3.57194E-18-1.03550E-19
 -1      2141 1.64133E-04-1.22730E-05-6.40331E-05 5.89222E-06 4.42151E-18-7.62330E-20
 -1      2142 1.65471E-04-3.61847E-05-5.51143E-05-1.96076E-05 3.64965E-18-3.48554E-18
 -1      2143 1.79506E-04-3.42510E-05-6.13185E-05-1.30650E-05 2.75116E-18-2.43522E-18
 -1      2144 1.38394E-04-4.50190E-05-4.03512E-05-2.92405E-05 4.37493E-18-4.19408E-18
 -1      2145 1.57806E-04-4.32066E-05-4.83687E-05-2.73529E-05 3.96581E-18-3.29411E-18
 -1      2146 1.02331E-04-4.81965E-05-2.40960E-05-3.81955E-05 3.21025E-18-5.78989E-18
 -1      2147 1.23425E-04-4.68790E-05-3.25441E-05-3.99495E-05 3.69815E-18-5.06187E-18
 -1      2148 6.88697E-05-4.84220E-05-9.95334E-06-3.84258E-05 1.03253E-18-5.74701E-18
 -1      2149 8.63128E-05-4.55586E-05-1.75872E-05-4.35162E-05 2.29631E-18-5.41614E-18
 -1      2150 1.09058E-04-5.74772E-05-2.20920E-05-3.93678E-05 1.53779E-18-5.73653E-18
 -1      2151 3.51369E-05-4.60503E-05 3.09861E-06-2.93698E-05 7.60636E-19-3.95099E-18
 -1      2152 4.77913E-05-4.29153E-05-2.79285E-06-3.78330E-05 1.25022E-18-5.99911E-18
 -1      2153 1.61112E-05-3.77320E-05 8.39384E-06-1.64317E-05-4.12929E-20-7.59789E-19
 -1      2154 2.34168E-05-4.16973E-05 6.53025E-06-2.38104E-05 4.61633E-20-2.10212E-18
 -1      2155 3.46456E-05-3.80081E-05 8.07663E-07-3.38641E-05 2.88415E-19-4.56572E-18
 -1      2156 1.51074E-05-4.02806E-05 9.41451E-06 9.02846E-06-1.88761E-18-1.91387E-18
 -1      2157 1.20091E-05-3.58474E-05 9.28937E-06-9.34829E-07-1.57604E-18 2.34205E-19
 -1      2158 3.28669E-05-4.16767E-05 3.01995E-06 2.79735E-05-1.15789E-18-3.74600E-19
 -1      2159 2.26928E-05-4.36261E-05 7.50274E-06 1.75089E-05-1.12888E-18-1.78046E-18
 -1      2160 2.21983E-05-3.19787E-05 3.73895E-06 1.78039E-05-8.91714E-19-1.39845E-18
 -1      2161 6.99737E-05-4.87506E-05-9.61106E-06 3.81580E-05-1.25276E-18-1.60650E-18
 -1      2162 5.28891E-05-4.96042E-05-2.60524E-06 3.25237E-05-8.57197E-19-9.77370E-19
 -1      2163 1.11755E-04-5.20735E-05-2.54812E-05 3.70683E-05-1.70338E-18-3.59015E-18
 -1      2164 9.04207E-05-5.37411E-05-1.68127E-05 3.40519E-05-1.33789E-18-2.06634E-18
 -1      2165 1.48671E-04-4.80716E-05-4.23650E-05 2.88146E-05-1.96681E-18-5.25499E-18
 -1      2166 1.27577E-04-5.03182E-05-3.37247E-05 2.82182E-05-2.41658E-18-3.96200E-18
 -1      2167 1.76112E-04-4.17606E-05-5.64862E-05 1.44273E-05-3.36600E-18-4.52612E-18
 -1      2168 1.58597E-04-4.33039E-05-4.92861E-05 1.95229E-05-2.56418E-18-5.62769E-18
 -1      2169 1.93942E-04-3.31075E-05-6.72770E-05 1.92510E-06-2.01975E-18-5.58195E-18
 -1      2170 1.80902E-04-3.36242E-05-6.23583E-05 6.90124E-06-3.15859E-18-5.00300E-18
 -1      2171 1.93561E-04-2.53219E-05-7.08020E-05-8.68137E-06-1.98206E-18-4.88623E-18
 -1      2172 1.95667E-04-2.88087E-05-6.98992E-05-1.33321E-06-1.87448E-18-4.77896E-18
 -1      2173 1.73265E-04-2.10826E-05-6.37952E-05-9.19602E-06-2.88372E-18-4.80543E-18
 -1      2174 1.88534E-04-2.80720E-05-6.75085E-05-1.65896E-05-5.52265E-19-3.32545E-18
 -1      2175 1.90367E-04-2.52639E-05-6.95241E-05-9.58737E-06-1.40862E-18-4.97251E-18
 -1      2176 1.72504E-04-3.42407E-05-5.87206E-05-2.39070E-05 5.76088E-19-1.01602E-18
 -1      2177 1.87974E-04-3.35073E-05-6.46506E-05-2.08169E-05 8.84726E-19-1.87914E-18
 -1      2178 1.69884E-04-2.42394E-05-6.11549E-05-3.93106E-06-4.50622E-19-4.43379E-18
 -1      2179 1.48810E-04-4.68693E-05-4.37861E-05-3.35273E-05 9.83829E-19-2.69187E-18
 -1      2180 1.66458E-04-4.45807E-05-5.13641E-05-3.07184E-05 1.04757E-18-1.26970E-18
 -1      2181 1.13667E-04-4.97126E-05-2.82282E-05-4.32880E-05 1.17738E-18-3.35764E-18
 -1      2182 1.34620E-04-4.72351E-05-3.69882E-05-4.57342E-05 9.85946E-19-4.15300E-18
 -1      2183 7.82498E-05-5.22209E-05-1.25320E-05-4.39706E-05-2.30393E-19-6.87579E-19
 -1      2184 9.68461E-05-4.89791E-05-2.05874E-05-4.95520E-05 7.74188E-19-1.68983E-18
 -1      2185 4.58234E-05-4.93674E-05-1.71887E-07-3.65203E-05-2.20186E-18-3.13339E-18
 -1      2186 6.01830E-05-4.69709E-05-6.37892E-06-4.49327E-05-4.92973E-19-1.89232E-18
 -1      2187 2.04299E-05-4.61568E-05 8.82010E-06-1.62232E-05-6.21997E-18-6.13082E-18
 -1      2188 2.73602E-05-4.40289E-05 5.38829E-06-2.67233E-05-4.53459E-18-4.63878E-18
 -1      2189 1.97346E-05-3.22567E-05 4.23356E-06-1.48048E-05-4.88632E-18-4.86875E-18
 -1      2190 1.75063E-04-3.64129E-05-5.83795E-05 2.22313E-05 2.35285E-18 6.36969E-19
 -1      2191 1.59026E-04-3.99640E-05-5.11229E-05 2.26965E-05 9.11063E-19 7.95787E-19
 -1      2192 1.63174E-04-3.04411E-05-5.61898E-05 2.84182E-06 1.18076E-18-2.53369E-18
 -1      2193 1.57634E-04-5.09695E-05-4.53087E-05 1.66217E-05-1.06837E-18-6.07323E-19
 -1      2194 9.71937E-05-2.43159E-05-3.13073E-05-9.99934E-06-2.35208E-18 1.80299E-18
 -1      2195 9.63522E-05-2.30995E-05-3.14571E-05-1.03807E-05-2.52654E-18 5.63740E-19
 -1      2196 2.26935E-05-3.23455E-05 3.42578E-06 1.75055E-05-4.23580E-18 1.38236E-18
 -1      2197 2.22342E-05-2.23769E-05 2.68249E-07 9.88759E-06-3.77983E-18 4.43845E-19
 -1      2198 3.20794E-05-2.63473E-05-2.48170E-06 2.78587E-05-2.87494E-18 1.65510E-18
 -1      2199 9.50203E-05-5.65327E-05-1.64935E-05 5.13394E-05-4.90940E-18 5.83068E-18
 -1      2200 9.84789E-05-2.72529E-05-3.04748E-05-9.01783E-06-8.03728E-19-5.41439E-19
 -1      2201 1.35905E-04-6.27347E-05-3.10420E-05 3.67314E-05-4.53417E-18 2.63385E-18
 -1      2202 4.34002E-05-4.15099E-05-1.51936E-06-3.98919E-05-2.77912E-18-5.05255E-18
 -1      2203 8.23016E-05-5.47347E-05-1.23221E-05-5.00906E-05-3.80318E-19-1.79492E-18
 -1      2204 1.19566E-04-6.07583E-05-2.52272E-05-4.46790E-05 6.76779E-19-2.91443E-18
 -1      2205 1.66321E-04-4.38862E-05-5.18559E-05-1.03715E-05 7.49624E-19-1.08166E-18
 -1      2206 1.71954E-04-1.63374E-05-6.54129E-05-6.10886E-06-1.77199E-18-4.43607E-18
 -1      2207 1.69654E-04-3.65664E-05-5.60154E-05-4.51083E-06-2.47376E-18-5.10846E-18
 -1      2208 1.56818E-04-5.28512E-05-4.39310E-05 8.64009E-06-1.70539E-18-5.56458E-18
 -1      2209 1.31414E-04-6.20257E-05-2.96224E-05 2.50332E-05-9.49312E-19-3.21364E-18
 -1      2210 5.09828E-05-4.49848E-05-2.97996E-06 3.55432E-05-1.62207E-19-3.92388E-19
 -1      2211 1.64685E-05-3.16686E-05 6.05402E-06-9.27367E-06-7.55818E-19-7.50471E-19
 -1      2212 2.15175E-05-2.50487E-05 1.62057E-06-1.77165E-05-2.79097E-19-2.53051E-18
 -1      2213 1.70341E-05-2.24437E-05 2.47230E-06-1.84848E-06-1.07283E-18-1.88465E-18
 -1      2214 6.98697E-05-4.98509E-05-8.97829E-06-4.34001E-05 6.51368E-19-5.49163E-18
 -1      2215 1.40123E-04-5.63938E-05-3.55054E-05-2.45857E-05 2.98685E-18-3.23948E-18
 -1      2216 1.66625E-04-2.56055E-05-5.95191E-05 3.23303E-06 3.72292E-18-9.71970E-19
 -1      2217 1.64609E-04-1.57521E-05-6.30295E-05 2.24431E-06 4.13606E-18-1.22544E-18
 -1      2218 1.59825E-04-4.38525E-05-4.89877E-05-7.26635E-06 3.40277E-18-2.58091E-18
 -1      2219 9.41667E-05-5.87052E-05-1.53616E-05 3.79894E-05 2.49028E-19-1.74282E-18
 -1      2220 1.50375E-04-5.78399E-05-3.90155E-05-2.84868E-05 1.28537E-18-2.84984E-18
 -1      2221 9.52199E-05-2.63782E-05-2.94904E-05 4.19396E-06 1.80117E-18 8.69711E-19
 -1      2222 9.61943E-05-2.58636E-05-3.00682E-05 5.99922E-06 2.11369E-18 1.11942E-18
 -1      2223 8.81311E-05-1.11819E-05-3.30175E-05-3.66023E-06-5.84721E-19-3.10772E-18
 -1      2224 8.83659E-05-1.14530E-05-3.29998E-05-4.80183E-06-8.56516E-19-3.04279E-18
 -1      2225 8.87196E-05-1.19386E-05-3.29514E-05-5.81841E-06-1.04377E-18-2.99589E-18
 -1      2226 8.91255E-05-1.24097E-05-3.29234E-05-6.99379E-06-1.34218E-18-2.83454E-18
 -1      2227 8.98859E-05-1.38214E-05-3.25980E-05-4.90041E-06-8.35123E-19-2.79496E-18
 -1      2228 8.77848E-05-1.07228E-05-3.30606E-05 6.15532E-07 3.62638E-19-3.31430E-18
 -1      2229 8.77803E-05-1.07179E-05-3.30608E-05-4.95441E-07 1.41367E-19-3.25277E-18
 -1      2230 8.79661E-05-1.09478E-05-3.30422E-05 2.75756E-06 8.13327E-19-3.15529E-18
 -1      2231 8.78511E-05-1.08147E-05-3.30514E-05 1.63818E-06 5.55265E-19-3.23150E-18
 -1      2232 8.91024E-05-1.27691E-05-3.27175E-05 1.04962E-06 4.68530E-19-3.08818E-18
 -1      2233 8.84007E-05-1.14949E-05-3.29972E-05 4.88690E-06 1.29142E-18-3.04941E-18
 -1      2234 8.81611E-05-1.12182E-05-3.30152E-05 3.76373E-06 9.67721E-19-3.11459E-18
 -1      2235 8.93686E-05-1.31250E-05-3.26776E-05 3.02083E-06 8.47744E-19-2.93210E-18
 -1      2236 8.91810E-05-1.24774E-05-3.29188E-05 7.07371E-06 1.81674E-18-2.52895E-18
 -1      2237 8.87623E-05-1.19908E-05-3.29476E-05 5.90231E-06 1.54254E-18-2.85023E-18
 -1      2238 8.99261E-05-1.38728E-05-3.25933E-05 4.97492E-06 1.40335E-18-2.64661E-18
 -1      2239 9.04525E-05-1.40871E-05-3.27923E-05 9.22224E-06 2.29795E-18-2.03806E-18
 -1      2240 8.97712E-05-1.32759E-05-3.28374E-05 8.04335E-06 1.95821E-18-2.32489E-18
 -1      2241 9.08627E-05-1.51328E-05-3.24488E-05 6.87003E-06 1.88584E-18-2.23283E-18
 -1      2242 9.24515E-05-1.66590E-05-3.25829E-05 1.11062E-05 2.71219E-18-1.12170E-18
 -1      2243 9.13721E-05-1.53189E-05-3.26547E-05 1.00263E-05 2.42420E-18-1.61012E-18
 -1      2244 9.22880E-05-1.70871E-05-3.22082E-05 8.51567E-06 2.21879E-18-1.59586E-18
 -1      2245 9.42400E-05-2.71184E-05-2.87497E-05 1.76405E-06 1.33731E-18 5.18381E-19
 -1      2246 9.48402E-05-2.68949E-05-2.90481E-05 2.73684E-06 1.56820E-18 8.14293E-19
 -1      2247 9.53424E-05-2.58484E-05-2.97910E-05 4.36001E-06 1.83984E-18 1.88160E-19
 -1      2248 9.59145E-05-2.50936E-05-3.03047E-05-6.18344E-06-2.07789E-18-4.78226E-20
 -1      2249 9.52570E-05-2.58520E-05-2.97614E-05-4.28176E-06-1.86298E-18-1.95139E-19
 -1      2250 9.50750E-05-2.00247E-05-3.22128E-05-1.17328E-05-2.55476E-18-4.02619E-19
 -1      2251 9.54772E-05-2.33870E-05-3.09265E-05-7.97958E-06-2.34610E-18-2.02333E-19
 -1      2252 9.50684E-05-2.25328E-05-3.10528E-05-7.66104E-06-2.25267E-18-7.23788E-19
 -1      2253 9.32198E-05-1.75777E-05-3.24154E-05-1.13625E-05-2.48887E-18-1.15007E-18
 -1      2254 1.55475E-04-4.76586E-05-4.67614E-05 5.99184E-06-6.39828E-19-1.75886E-18
 -1      2255 1.50417E-04-5.69255E-05-4.00875E-05 1.49511E-05-3.12447E-18-4.92761E-19
 -1      2256 9.51387E-05-2.65374E-05-2.93445E-05-2.93417E-06-1.59219E-18-7.34123E-20
 -1      2257 9.46745E-05-2.69099E-05-2.90411E-05-1.87790E-06-1.33894E-18-2.05516E-19
 -1      2258 9.53377E-05-2.53445E-05-2.99963E-05-4.29389E-06-1.79932E-18-4.94985E-19
 -1      2259 9.44733E-05-2.72390E-05-2.87774E-05-1.02290E-06-1.16467E-18-6.31313E-20
 -1      2260 9.42198E-05-2.74536E-05-2.86111E-05-4.25553E-07-9.06348E-19-2.51880E-19
 -1      2261 9.50358E-05-2.66877E-05-2.92999E-05-1.92779E-06-1.25223E-18-3.91798E-19
 -1      2262 9.40670E-05-2.76329E-05-2.84498E-05 8.49549E-08-8.42622E-19-2.94650E-19
 -1      2263 9.39717E-05-2.77772E-05-2.83662E-05 4.12102E-07-8.04174E-19-4.23035E-19
 -1      2264 9.47298E-05-2.74193E-05-2.88570E-05-4.48682E-07-9.54731E-19-3.43210E-19
 -1      2265 9.38841E-05-2.78859E-05-2.82727E-05 6.95800E-07-8.31251E-19-3.80044E-19
 -1      2266 9.38919E-05-2.79934E-05-2.82397E-05 8.58518E-07-8.01807E-19-5.08982E-19
 -1      2267 9.45280E-05-2.78506E-05-2.85846E-05 4.23094E-07-8.76635E-19-4.02602E-19
 -1      2268 9.38580E-05-2.80649E-05-2.81908E-05 9.95574E-07-7.67195E-19-4.42310E-19
 -1      2269 9.39266E-05-2.81490E-05-2.81883E-05 1.05720E-06-6.07005E-19-4.37337E-19
 -1      2270 9.44346E-05-2.81222E-05-2.84263E-05 8.94826E-07-7.51465E-19-4.28860E-19
 -1      2271 9.39301E-05-2.81983E-05-2.81682E-05 1.10132E-06-5.91951E-19-5.29607E-19
 -1      2272 9.40299E-05-2.82651E-05-2.81833E-05 1.10168E-06-5.29951E-19-6.66558E-19
 -1      2273 9.44241E-05-2.83006E-05-2.83435E-05 1.10799E-06-7.54124E-19-6.43062E-19
 -1      2274 9.40565E-05-2.82997E-05-2.81811E-05 1.08902E-06-6.56857E-19-6.49988E-19
 -1      2275 9.41680E-05-2.83525E-05-2.82054E-05 1.05403E-06-7.82517E-19-7.43827E-19
 -1      2276 9.44679E-05-2.84198E-05-2.83098E-05 1.15825E-06-7.12394E-19-7.69278E-19
 -1      2277 9.42070E-05-2.83765E-05-2.82140E-05 1.00907E-06-6.98933E-19-6.87497E-19
 -1      2278 9.43180E-05-2.84177E-05-2.82421E-05 9.55879E-07-3.11576E-19-7.90284E-19
 -1      2279 9.45427E-05-2.84988E-05-2.83069E-05 1.11054E-06-6.90428E-19-3.57049E-19
 -1      2280 9.43620E-05-2.84339E-05-2.82566E-05 8.95182E-07-1.88085E-19-7.92978E-19
 -1      2281 9.44656E-05-2.84652E-05-2.82852E-05 8.35170E-07-2.57949E-19-9.73231E-19
 -1      2282 9.46317E-05-2.85494E-05-2.83225E-05 1.00903E-06-3.19587E-19-1.01784E-18
 -1      2283 9.45100E-05-2.84754E-05-2.83025E-05 7.69847E-07-5.93412E-19-7.60508E-19
 -1      2284 9.46028E-05-2.84986E-05-2.83298E-05 7.10557E-07-5.63270E-19-6.95640E-19
 -1      2285 9.47237E-05-2.85794E-05-2.83486E-05 8.83618E-07-3.40888E-19-7.07010E-19
 -1      2286 9.46451E-05-2.85043E-05-2.83480E-05 6.48016E-07-6.30317E-19-1.08431E-18
 -1      2287 9.47263E-05-2.85207E-05-2.83732E-05 5.94426E-07-6.42176E-19-1.15615E-18
 -1      2288 9.48123E-05-2.85944E-05-2.83798E-05 7.54469E-07-7.15771E-19-5.51413E-19
 -1      2289 9.47653E-05-2.85229E-05-2.83915E-05 5.39610E-07-5.60413E-19-1.30487E-18
 -1      2290 9.48358E-05-2.85340E-05-2.84144E-05 4.95069E-07-5.62740E-19-1.22146E-18
 -1      2291 9.48944E-05-2.85984E-05-2.84131E-05 6.35110E-07-6.53722E-19-1.25651E-18
 -1      2292 9.48717E-05-2.85335E-05-2.84323E-05 4.51383E-07-5.37199E-19-1.21615E-18
 -1      2293 9.49336E-05-2.85403E-05-2.84534E-05 4.18303E-07-5.79671E-19-1.21212E-18
 -1      2294 9.49693E-05-2.85941E-05-2.84470E-05 5.34764E-07-5.73268E-19-1.18166E-18
 -1      2295 9.49673E-05-2.85376E-05-2.84713E-05 3.88314E-07-4.68601E-19-9.80641E-19
 -1      2296 9.50236E-05-2.85413E-05-2.84913E-05 3.68699E-07 1.01471E-19-7.66494E-19
 -1      2297 9.50383E-05-2.85834E-05-2.84813E-05 4.60082E-07-4.53684E-19-9.65089E-19
 -1      2298 9.50566E-05-2.85367E-05-2.85097E-05 3.54679E-07-2.35338E-20-9.67837E-19
 -1      2299 9.51111E-05-2.85381E-05-2.85298E-05 3.50545E-07 4.54381E-20-1.12621E-18
 -1      2300 9.51038E-05-2.85673E-05-2.85164E-05 4.16469E-07-3.26390E-20-1.07053E-18
 -1      2301 9.51454E-05-2.85319E-05-2.85495E-05 3.54899E-07 1.39787E-19-1.37855E-18
 -1      2302 9.52027E-05-2.85320E-05-2.85712E-05 3.68607E-07 4.86264E-19-1.63718E-18
 -1      2303 9.51695E-05-2.85464E-05-2.85538E-05 4.09120E-07-1.94435E-20-1.19607E-18
 -1      2304 9.52407E-05-2.85243E-05-2.85934E-05 3.94213E-07 8.12027E-19-1.83991E-18
 -1      2305 9.53063E-05-2.85238E-05-2.86184E-05 4.28745E-07 1.42819E-19-2.01589E-18
 -1      2306 9.52399E-05-2.85208E-05-2.85953E-05 4.43838E-07 2.84667E-19-1.89040E-18
 -1      2307 9.53510E-05-2.85146E-05-2.86446E-05 4.79228E-07 1.08323E-19-1.76348E-18
 -1      2308 9.54311E-05-2.85147E-05-2.86749E-05 5.38413E-07 6.77287E-19-2.12352E-18
 -1      2309 9.53204E-05-2.84902E-05-2.86434E-05 5.27680E-07 2.84853E-19-2.02324E-18
 -1      2310 9.54858E-05-2.85039E-05-2.87068E-05 6.18359E-07 7.30777E-19-2.48800E-18
 -1      2311 9.55878E-05-2.85056E-05-2.87448E-05 7.07058E-07 2.96781E-19-2.11971E-18
 -1      2312 9.54172E-05-2.84541E-05-2.87009E-05 6.69472E-07 2.83299E-19-1.99695E-18
 -1      2313 9.56563E-05-2.84931E-05-2.87844E-05 8.22165E-07-1.07862E-19-1.92916E-18
 -1      2314 9.57890E-05-2.84980E-05-2.88329E-05 9.46389E-07-3.76677E-19-1.29582E-18
 -1      2315 9.55375E-05-2.84117E-05-2.87713E-05 8.80178E-07 2.49237E-19-1.85538E-18
 -1      2316 9.58753E-05-2.84838E-05-2.88821E-05 1.10354E-06-3.65365E-19-7.60184E-19
 -1      2317 9.60487E-05-2.84936E-05-2.89443E-05 1.27048E-06-1.99607E-19-8.85396E-19
 -1      2318 9.56891E-05-2.83621E-05-2.88582E-05 1.17312E-06-2.99594E-20-1.10875E-18
 -1      2319 9.61571E-05-2.84776E-05-2.90056E-05 1.47768E-06-5.41857E-19-8.00249E-19
 -1      2320 9.63829E-05-2.84948E-05-2.90850E-05 1.69557E-06-3.57120E-19-9.06336E-19
 -1      2321 9.58806E-05-2.83049E-05-2.89656E-05 1.56392E-06-3.21606E-19-9.32819E-19
 -1      2322 9.65182E-05-2.84777E-05-2.91604E-05 1.96165E-06-4.99690E-19-9.19431E-19
 -1      2323 9.68095E-05-2.85057E-05-2.92608E-05 2.23927E-06-5.79828E-19-8.95526E-19
 -1      2324 9.61213E-05-2.82401E-05-2.90972E-05 2.07014E-06-5.47964E-19-8.51233E-19
 -1      2325 9.69763E-05-2.84887E-05-2.93523E-05 2.57322E-06-6.50361E-19-6.74120E-19
 -1      2326 9.73477E-05-2.85329E-05-2.94774E-05 2.91882E-06-3.40637E-20-5.17849E-19
 -1      2327 9.64206E-05-2.81695E-05-2.92565E-05 2.71013E-06-7.10530E-19-4.18958E-19
 -1      2328 9.75514E-05-2.85195E-05-2.95859E-05 3.32841E-06 9.67309E-20-1.18109E-18
 -1      2329 9.80186E-05-2.85880E-05-2.97388E-05 3.74756E-06 3.30691E-19-1.58159E-18
 -1      2330 9.67892E-05-2.80990E-05-2.94452E-05 3.50083E-06-4.20765E-19-3.65130E-19
 -1      2331 9.82659E-05-2.85858E-05-2.98639E-05 4.23680E-06 1.00498E-18-1.62532E-18
 -1      2332 9.88455E-05-2.86925E-05-3.00464E-05 4.72834E-06 1.21754E-18-1.55419E-18
 -1      2333 9.72394E-05-2.80423E-05-2.96629E-05 4.45367E-06 5.68326E-19-1.39730E-18
 -1      2334 9.91472E-05-2.87174E-05-3.01854E-05 5.29300E-06 1.10325E-18-1.76174E-18
 -1      2335 9.98565E-05-2.88854E-05-3.03962E-05 5.84195E-06 1.63868E-18-1.19572E-18
 -1      2336 9.77891E-05-2.80284E-05-2.99047E-05 5.56739E-06 1.23044E-18-1.32183E-18
 -1      2337 1.00234E-04-2.89688E-05-3.05425E-05 6.46206E-06 1.42074E-18-1.33743E-18
 -1      2338 1.01091E-04-2.92376E-05-3.07760E-05 7.02788E-06 7.63548E-19-5.79065E-19
 -1      2339 9.84695E-05-2.81156E-05-3.01596E-05 6.81611E-06 1.42269E-18-1.38340E-18
 -1      2340 1.01585E-04-2.94373E-05-3.09186E-05 7.65550E-06 3.14456E-19-6.72118E-19
 -1      2341 1.02611E-04-2.98710E-05-3.11621E-05 8.15423E-06 3.86412E-19-2.15148E-20
 -1      2342 9.93413E-05-2.84115E-05-3.04085E-05 8.13015E-06 5.48002E-19-1.13072E-18
 -1      2343 1.03303E-04-3.02854E-05-3.12858E-05 8.69442E-06 5.16060E-19-7.63375E-19
 -1      2344 1.04523E-04-3.09805E-05-3.15188E-05 8.97472E-06 5.54931E-19 1.16673E-19
 -1      2345 1.00522E-04-2.91027E-05-3.06235E-05 9.36663E-06 2.03026E-19-1.33339E-18
 -1      2346 1.05555E-04-3.17591E-05-3.16080E-05 9.25746E-06 4.21109E-19 3.61825E-20
 -1      2347 1.06993E-04-3.28372E-05-3.18044E-05 9.07614E-06 6.88459E-19-2.69265E-19
 -1      2348 1.02227E-04-3.04824E-05-3.07741E-05 1.02658E-05 6.31397E-19-1.29592E-18
 -1      2349 1.08580E-04-3.41647E-05-3.18550E-05 8.81941E-06 5.49041E-19-3.50026E-19
 -1      2350 1.10235E-04-3.57177E-05-3.19931E-05 7.83533E-06 9.22485E-19-4.26197E-19
 -1      2351 1.04807E-04-3.29445E-05-3.08435E-05 1.03905E-05 7.62594E-19-1.64350E-18
 -1      2352 1.12616E-04-3.77177E-05-3.20375E-05 6.61383E-06 1.50209E-18-3.40084E-19
 -1      2353 1.14375E-04-3.96470E-05-3.21236E-05 4.44793E-06 1.13960E-18 3.15801E-19
 -1      2354 1.08721E-04-3.68531E-05-3.08701E-05 9.05339E-06 9.69755E-19-1.38118E-18
 -1      2355 1.17606E-04-4.21237E-05-3.22715E-05 1.73193E-06 6.80320E-19 3.98780E-19
 -1      2356 1.19072E-04-4.38310E-05-3.23769E-05-1.80796E-06 4.67681E-19 7.60455E-19
 -1      2357 1.14321E-04-4.21372E-05-3.10180E-05 5.29240E-06 1.21697E-18-1.61310E-18
 -1      2358 1.22562E-04-4.57813E-05-3.28634E-05-6.34114E-06 4.91355E-19 5.40950E-19
 -1      2359 1.22920E-04-4.58959E-05-3.31401E-05-1.07298E-05 3.82462E-19 5.74101E-19
 -1      2360 1.21197E-04-4.74052E-05-3.16749E-05-1.87406E-06 4.31254E-19-8.96015E-19
 -1      2361 1.25101E-04-4.54545E-05-3.42437E-05-1.62464E-05 5.54019E-19 9.43039E-19
 -1      2362 1.23387E-04-4.22819E-05-3.48340E-05-1.97390E-05 1.55669E-19 1.12533E-18
 -1      2363 1.27192E-04-4.91947E-05-3.34710E-05-1.21887E-05 7.46004E-19 1.56946E-19
 -1      2364 1.22406E-04-3.77935E-05-3.65824E-05-2.30806E-05-9.23067E-19 8.80544E-19
 -1      2365 1.18816E-04-3.16490E-05-3.73763E-05-2.28096E-05-1.61656E-18 1.63279E-18
 -1      2366 1.28668E-04-4.29453E-05-3.68287E-05-2.21510E-05-2.90850E-19 5.77729E-19
 -1      2367 1.15515E-04-2.54591E-05-3.90610E-05-1.97541E-05-2.04617E-18 1.27743E-18
 -1      2368 1.12343E-04-2.06145E-05-3.95375E-05-1.47130E-05-2.32151E-18 1.55870E-18
 -1      2369 1.23914E-04-2.86080E-05-4.10487E-05-2.38868E-05-1.72848E-18-1.02067E-19
 -1      2370 1.11142E-04-1.85664E-05-3.99307E-05-6.08000E-06-2.22171E-18 1.42795E-18
 -1      2371 1.10933E-04-1.97160E-05-3.95367E-05 4.89146E-07-1.19469E-18 1.38980E-18
 -1      2372 1.18758E-04-1.72406E-05-4.36889E-05-1.10408E-05-1.97750E-18 4.00355E-19
 -1      2373 1.13098E-04-2.38730E-05-3.82509E-05 7.51677E-06-1.41296E-19 1.25210E-18
 -1      2374 1.15523E-04-2.95933E-05-3.71765E-05 1.09107E-05 7.68127E-19 6.85455E-19
 -1      2375 1.19290E-04-2.00139E-05-4.27618E-05 5.35903E-06-8.01717E-19-9.45765E-20
 -1      2376 1.17152E-04-3.51553E-05-3.52172E-05 1.08119E-05 2.50881E-19 2.32802E-20
 -1      2377 1.18780E-04-3.95375E-05-3.41725E-05 9.73922E-06 5.49301E-19 1.19935E-19
 -1      2378 1.24056E-04-3.37984E-05-3.90665E-05 1.19134E-05-3.41566E-19-4.52633E-20
 -1      2379 1.17689E-04-4.18990E-05-3.25463E-05 5.18612E-06 4.67642E-19 3.59724E-20
 -1      2380 1.16981E-04-4.26208E-05-3.18766E-05 1.73232E-06-8.65482E-19 3.43313E-19
 -1      2381 1.25211E-04-4.47790E-05-3.45295E-05 6.65599E-06 1.31264E-19 7.14631E-19
 -1      2382 1.13160E-04-4.09378E-05-3.10786E-05-2.69310E-06-1.51513E-18 1.64999E-18
 -1      2383 1.10841E-04-3.89230E-05-3.07792E-05-5.59161E-06-1.50994E-18 1.50317E-18
 -1      2384 1.19510E-04-4.53338E-05-3.19065E-05-3.25848E-06-8.12176E-19 2.62051E-20
 -1      2385 6.58050E-05-4.12893E-05-1.04239E-05 5.06455E-05-4.05792E-18 4.04141E-18
 -1      2386 5.04242E-05-3.33489E-05-6.88173E-06 4.20737E-05-2.86149E-18 1.00331E-18
 -1      2387 9.33454E-05-2.76930E-05-2.81294E-05-4.11897E-07 6.98564E-19-3.16570E-20
 -1      2388 9.34230E-05-2.75877E-05-2.81907E-05-1.26038E-07 1.00306E-18 2.39435E-19
 -1      2389 9.32944E-05-2.78579E-05-2.80395E-05-8.18001E-07 5.81408E-19-3.63859E-19
 -1      2390 9.32491E-05-2.77667E-05-2.80509E-05-6.78820E-07 5.55593E-19-1.72127E-19
 -1      2391 9.40150E-05-2.78094E-05-2.83850E-05-4.45023E-07 8.99488E-19-4.07503E-19
 -1      2392 9.33881E-05-2.79938E-05-2.80230E-05-9.93563E-07 7.00133E-19-5.23138E-19
 -1      2393 9.32752E-05-2.79129E-05-2.80060E-05-9.42803E-07 7.14803E-19-5.00350E-19
 -1      2394 9.39282E-05-2.80192E-05-2.82548E-05-8.92405E-07 7.97622E-19-7.79124E-19
 -1      2395 9.35621E-05-2.81089E-05-2.80494E-05-1.02802E-06 4.08530E-19-5.05400E-19
 -1      2396 9.34178E-05-2.80380E-05-2.80174E-05-1.03027E-06 4.67839E-19-3.95754E-19
 -1      2397 9.39566E-05-2.81685E-05-2.82002E-05-1.08841E-06 5.46511E-19-1.17512E-18
 -1      2398 9.37723E-05-2.82059E-05-2.80987E-05-9.79182E-07 1.26725E-19-3.58928E-19
 -1      2399 9.36193E-05-2.81451E-05-2.80602E-05-1.01179E-06 3.32413E-19-4.58233E-19
 -1      2400 9.40543E-05-2.82794E-05-2.81926E-05-1.12891E-06 3.24006E-19-8.76426E-19
 -1      2401 9.39899E-05-2.82863E-05-2.81581E-05-8.85134E-07 4.78174E-19-5.92290E-19
 -1      2402 9.38422E-05-2.82354E-05-2.81183E-05-9.33275E-07 2.43024E-19-4.10158E-19
 -1      2403 9.41877E-05-2.83626E-05-2.82126E-05-1.07703E-06 2.89008E-19-4.92073E-19
 -1      2404 9.41979E-05-2.83513E-05-2.82197E-05-7.71152E-07 9.62051E-19-7.85912E-19
 -1      2405 9.40629E-05-2.83098E-05-2.81817E-05-8.25040E-07 8.64154E-19-6.24654E-19
 -1      2406 9.43337E-05-2.84246E-05-2.82477E-05-9.74964E-07 8.67581E-19-6.60550E-19
 -1      2407 9.43870E-05-2.84028E-05-2.82789E-05-6.53949E-07 9.46159E-19-8.96180E-19
 -1      2408 9.42682E-05-2.83697E-05-2.82443E-05-7.07158E-07 9.46372E-19-6.29143E-19
 -1      2409 9.44780E-05-2.84698E-05-2.82896E-05-8.50928E-07 9.17180E-19-1.05828E-18
 -1      2410 9.45539E-05-2.84424E-05-2.83334E-05-5.44499E-07 7.43953E-19-8.84182E-19
 -1      2411 9.44516E-05-2.84167E-05-2.83028E-05-5.92831E-07 8.57779E-19-7.21538E-19
 -1      2412 9.46126E-05-2.85014E-05-2.83334E-05-7.23736E-07 7.09099E-19-5.22982E-19
 -1      2413 9.46988E-05-2.84722E-05-2.83827E-05-4.50026E-07 9.25611E-20-5.63276E-19
 -1      2414 9.46118E-05-2.84526E-05-2.83559E-05-4.90714E-07 7.23154E-19-5.37924E-19
 -1      2415 9.47340E-05-2.85223E-05-2.83763E-05-6.05869E-07 4.39861E-19-3.56091E-19
 -1      2416 9.48251E-05-2.84940E-05-2.84273E-05-3.75448E-07-1.66723E-19-7.33724E-19
 -1      2417 9.47505E-05-2.84793E-05-2.84036E-05-4.06567E-07-2.40094E-19-6.05305E-19
 -1      2418 9.48419E-05-2.85347E-05-2.84172E-05-5.05681E-07 1.44979E-19-5.12168E-19
 -1      2419 9.49378E-05-2.85099E-05-2.84685E-05-3.24453E-07 1.10903E-19-9.62688E-19
 -1      2420 9.48720E-05-2.84988E-05-2.84470E-05-3.44483E-07 6.66119E-20-7.69297E-19
 -1      2421 9.49383E-05-2.85403E-05-2.84562E-05-4.29014E-07-1.45279E-19-7.31734E-19
 -1      2422 9.50436E-05-2.85217E-05-2.85085E-05-3.00309E-07 1.29197E-19-1.28204E-19
 -1      2423 9.49821E-05-2.85130E-05-2.84878E-05-3.07806E-07 1.23680E-19-4.56889E-19
 -1      2424 9.50269E-05-2.85407E-05-2.84941E-05-3.80404E-07-2.58064E-19-5.56615E-19
 -1      2425 9.51508E-05-2.85315E-05-2.85497E-05-3.06454E-07 2.20840E-19 1.22013E-20
 -1      2426 9.50882E-05-2.85237E-05-2.85283E-05-2.99812E-07 3.85618E-19 1.07610E-19
 -1      2427 9.51127E-05-2.85374E-05-2.85326E-05-3.63979E-07-3.18722E-20 1.73452E-19
 -1      2428 9.52687E-05-2.85416E-05-2.85953E-05-3.46898E-07 1.46489E-19 1.29649E-19
 -1      2429 9.51991E-05-2.85332E-05-2.85714E-05-3.24189E-07 1.67384E-19 1.70845E-19
 -1      2430 9.52021E-05-2.85315E-05-2.85738E-05-3.84103E-07 1.95962E-19 2.08922E-19
 -1      2431 9.54082E-05-2.85545E-05-2.86488E-05-4.26430E-07 2.88477E-19-4.30004E-19
 -1      2432 9.53247E-05-2.85439E-05-2.86203E-05-3.85337E-07 5.35480E-19 1.38238E-19
 -1      2433 9.53024E-05-2.85244E-05-2.86201E-05-4.45794E-07 5.08161E-19 5.53016E-19
 -1      2434 9.55819E-05-2.85735E-05-2.87142E-05-5.50601E-07 1.14393E-18-1.40200E-18
 -1      2435 9.54767E-05-2.85584E-05-2.86789E-05-4.88459E-07 4.38753E-19-1.12109E-18
 -1      2436 9.54222E-05-2.85178E-05-2.86747E-05-5.54898E-07 1.01131E-18-3.28117E-19
 -1      2437 9.58040E-05-2.86026E-05-2.87959E-05-7.25419E-07 7.24230E-19-1.22668E-18
 -1      2438 9.56681E-05-2.85803E-05-2.87511E-05-6.39395E-07 1.20508E-18-1.10355E-18
 -1      2439 9.55715E-05-2.85141E-05-2.87408E-05-7.17989E-07 1.08805E-18-7.97979E-19
 -1      2440 9.60901E-05-2.86468E-05-2.88984E-05-9.56623E-07-4.33710E-19-1.05208E-18
 -1      2441 9.59139E-05-2.86142E-05-2.88416E-05-8.44116E-07 2.78974E-19-1.09857E-18
 -1      2442 9.57616E-05-2.85166E-05-2.88216E-05-9.41892E-07 2.07590E-19-1.76552E-19
 -1      2443 9.64576E-05-2.87131E-05-2.90264E-05-1.24839E-06-7.43229E-19-1.10753E-18
 -1      2444 9.62306E-05-2.86660E-05-2.89547E-05-1.10772E-06-8.29234E-19-1.13076E-18
 -1      2445 9.60053E-05-2.85302E-05-2.89208E-05-1.23270E-06-4.86087E-19-2.21533E-19
 -1      2446 9.69244E-05-2.88104E-05-2.91839E-05-1.60119E-06-6.33839E-19-2.02168E-18
 -1      2447 9.66360E-05-2.87434E-05-2.90949E-05-1.43275E-06-7.05921E-19-1.89668E-18
 -1      2448 9.63170E-05-2.85622E-05-2.90412E-05-1.59406E-06-2.55600E-19-1.56479E-18
 -1      2449 9.75084E-05-2.89504E-05-2.93736E-05-2.00855E-06 4.21831E-19-2.02578E-18
 -1      2450 9.71488E-05-2.88570E-05-2.92656E-05-1.81649E-06-1.67030E-19-2.19704E-18
 -1      2451 9.67126E-05-2.86236E-05-2.91849E-05-2.02453E-06-1.53286E-19-3.20461E-18
 -1      2452 9.82253E-05-2.91487E-05-2.95961E-05-2.45229E-06 5.63568E-19-1.57729E-18
 -1      2453 9.77871E-05-2.90207E-05-2.94687E-05-2.24702E-06 6.69111E-19-1.59603E-18
 -1      2454 9.72094E-05-2.87301E-05-2.93527E-05-2.51353E-06 4.51205E-19-2.54396E-18
 -1      2455 9.90864E-05-2.94251E-05-2.98482E-05-2.89597E-06 8.98554E-19-1.68061E-18
 -1      2456 9.85671E-05-2.92528E-05-2.97032E-05-2.69754E-06 6.16476E-19-1.38552E-18
 -1      2457 9.78257E-05-2.89045E-05-2.95425E-05-3.03570E-06 3.76135E-19-2.07945E-18
 -1      2458 1.00095E-04-2.98040E-05-3.01214E-05-3.27669E-06 1.29738E-19-5.85083E-19
 -1      2459 9.94998E-05-2.95768E-05-2.99638E-05-3.11893E-06 8.21850E-19-7.73681E-19
 -1      2460 9.85807E-05-2.91780E-05-2.97493E-05-3.54332E-06 2.41524E-19-1.54115E-18
 -1      2461 1.01239E-04-3.03130E-05-3.04000E-05-3.49596E-06-2.16257E-19 6.87697E-20
 -1      2462 1.00587E-04-3.00207E-05-3.02393E-05-3.43073E-06-1.28947E-19 3.42969E-19
 -1      2463 9.94934E-05-2.95920E-05-2.99634E-05-3.95704E-06-5.42665E-19 2.44351E-19
 -1      2464 1.02488E-04-3.09768E-05-3.06599E-05-3.41261E-06-7.77313E-19 2.37914E-20
 -1      2465 1.01817E-04-3.06142E-05-3.05115E-05-3.51235E-06-8.50831E-19-1.11274E-19
 -1      2466 1.00580E-04-3.01959E-05-3.01707E-05-4.15608E-06-6.97405E-19 1.45205E-18
 -1      2467 1.03774E-04-3.18032E-05-3.08698E-05-2.84391E-06-8.08794E-19 7.52671E-19
 -1      2468 1.03148E-04-3.13789E-05-3.07542E-05-3.19865E-06-3.35088E-19 2.98970E-19
 -1      2469 1.01849E-04-3.10376E-05-3.03537E-05-3.97140E-06-7.56155E-19 1.36334E-18
 -1      2470 1.04982E-04-3.27541E-05-3.09945E-05-1.58678E-06-2.54393E-19 1.43248E-18
 -1      2471 1.04499E-04-3.23063E-05-3.09360E-05-2.28890E-06-5.77984E-19 9.03520E-19
 -1      2472 1.03283E-04-3.21404E-05-3.04947E-05-3.18907E-06-9.86026E-19 2.35504E-18
 -1      2473 1.05918E-04-3.36998E-05-3.10039E-05 5.23598E-07 6.90034E-20 2.13945E-18
 -1      2474 1.05716E-04-3.33182E-05-3.10256E-05-5.84736E-07-2.18124E-19 1.89691E-18
 -1      2475 1.04809E-04-3.34550E-05-3.05826E-05-1.57815E-06-5.45228E-19 3.30205E-18
 -1      2476 1.06295E-04-3.43663E-05-3.08857E-05 3.49945E-06-6.63994E-19 3.29576E-18
 -1      2477 1.06542E-04-3.42119E-05-3.10017E-05 2.02199E-06 2.30055E-20 2.91091E-18
 -1      2478 1.06250E-04-3.47869E-05-3.06221E-05 1.03558E-06-4.37691E-19 3.36401E-18
 -1      2479 1.05747E-04-3.43226E-05-3.06584E-05 7.03044E-06-9.87319E-19 2.43751E-18
 -1      2480 1.06601E-04-3.46147E-05-3.08647E-05 5.39617E-06-6.58734E-19 3.07290E-18
 -1      2481 1.07262E-04-3.57205E-05-3.06423E-05 4.62563E-06-3.71758E-19 2.70277E-18
 -1      2482 1.03936E-04-3.31037E-05-3.03727E-05 1.03266E-05-2.76176E-19 1.20046E-18
 -1      2483 1.05464E-04-3.40290E-05-3.06432E-05 8.96980E-06-1.06683E-18 2.03965E-18
 -1      2484 1.07333E-04-3.56282E-05-3.06945E-05 8.74920E-06-4.24575E-19 1.11174E-18
 -1      2485 1.00823E-04-3.05415E-05-3.00918E-05 1.21556E-05-9.34535E-19 1.42798E-18
 -1      2486 1.02871E-04-3.20727E-05-3.03837E-05 1.16571E-05 7.09175E-20 1.15014E-18
 -1      2487 1.05949E-04-3.39087E-05-3.08281E-05 1.23626E-05-2.63267E-19 1.58884E-18
 -1      2488 9.69894E-05-2.71883E-05-2.98534E-05 1.13165E-05-1.25660E-18 1.13645E-18
 -1      2489 9.91148E-05-2.89200E-05-3.01244E-05 1.21215E-05-1.88328E-18 1.14383E-18
 -1      2490 1.03023E-04-3.05086E-05-3.10449E-05 1.39302E-05-1.24111E-18 2.12999E-18
 -1      2491 9.36615E-05-2.43690E-05-2.96392E-05 7.49836E-06 8.95334E-19 1.43615E-18
 -1      2492 9.52487E-05-2.55998E-05-2.98634E-05 9.54261E-06-3.73515E-19 9.98347E-19
 -1      2493 9.93443E-05-2.64373E-05-3.12589E-05 1.21341E-05-3.26854E-19 4.57404E-19
 -1      2494 9.21182E-05-2.34596E-05-2.94032E-05 1.92195E-06 1.44859E-18 1.39276E-18
 -1      2495 9.27082E-05-2.36401E-05-2.95677E-05 4.47832E-06 1.95088E-18 2.14746E-18
 -1      2496 9.64671E-05-2.35282E-05-3.13116E-05 7.00459E-06 7.96932E-19 1.92023E-18
 -1      2497 9.27023E-05-2.47568E-05-2.91353E-05-3.17761E-06 1.24386E-18 1.59449E-18
 -1      2498 9.22993E-05-2.39350E-05-2.92302E-05-1.10126E-06 1.09603E-18 1.54318E-18
 -1      2499 9.56812E-05-2.32646E-05-3.10849E-05 4.81662E-07 1.63526E-18 2.14650E-18
 -1      2500 9.45301E-05-2.72078E-05-2.88812E-05-6.00095E-06 1.17390E-18 2.27327E-18
 -1      2501 9.35783E-05-2.59853E-05-2.89015E-05-5.02483E-06 1.13634E-18 2.25265E-18
 -1      2502 9.68915E-05-2.55009E-05-3.06024E-05-4.69249E-06 5.73206E-19 2.71465E-18
 -1      2503 9.62295E-05-2.93054E-05-2.86999E-05-6.25144E-06 1.17174E-19 1.96421E-18
 -1      2504 9.52830E-05-2.83473E-05-2.86566E-05-6.31944E-06 1.72302E-21 2.16890E-18
 -1      2505 9.87142E-05-2.85982E-05-3.00149E-05-6.84144E-06 7.86846E-19 2.84251E-18
 -1      2506 9.69360E-05-3.01909E-05-2.86010E-05-4.91626E-06-2.44593E-19 2.53174E-18
 -1      2507 9.63327E-05-2.97953E-05-2.85300E-05-5.53150E-06 1.82673E-19 2.43167E-18
 -1      2508 9.96859E-05-3.07810E-05-2.94885E-05-6.24932E-06-3.03853E-19 2.12476E-18
 -1      2509 9.66143E-05-3.00350E-05-2.85202E-05-3.34226E-06-1.60193E-18 4.42798E-18
 -1      2510 9.63610E-05-3.00041E-05-2.84708E-05-3.97206E-06-6.51109E-19 3.80655E-18
 -1      2511 9.92107E-05-3.12595E-05-2.90786E-05-4.39180E-06-1.25517E-18 4.33565E-18
 -1      2512 9.58371E-05-2.96610E-05-2.83725E-05-2.65773E-06-2.35392E-18 3.44422E-18
 -1      2513 1.04887E-04-3.27076E-05-3.08589E-05 2.06432E-05-1.50785E-18-1.44009E-19
 -1      2514 1.06041E-04-3.46511E-05-3.05793E-05 1.63541E-05-6.51855E-19-1.15434E-18
 -1      2515 9.88714E-05-2.75766E-05-3.05986E-05 2.84698E-05-4.67625E-19 7.16477E-19
 -1      2516 1.02840E-04-3.12921E-05-3.05226E-05 2.56791E-05-8.63090E-19 8.75405E-20
 -1      2517 1.07752E-04-3.73640E-05-3.02183E-05 2.49652E-05-1.48050E-18 2.56942E-19
 -1      2518 1.03070E-04-3.31983E-05-2.98223E-05 3.69697E-06-1.05805E-18 2.19774E-18
 -1      2519 1.01546E-04-3.28987E-05-2.94732E-05 8.56284E-07-1.07302E-18 2.17048E-18
 -1      2520 1.05465E-04-3.40054E-05-3.05003E-05 1.12578E-05-1.01283E-18 2.89778E-20
 -1      2521 1.04722E-04-3.44840E-05-3.01350E-05 7.38562E-06-1.32045E-18 1.89917E-18
 -1      2522 1.06608E-04-3.59007E-05-3.03069E-05 5.26307E-06-1.63154E-18 1.68211E-18
 -1      2523 1.09614E-04-3.80558E-05-3.06638E-05 1.42180E-05-1.74134E-18-4.60114E-19
 -1      2524 8.69206E-05-1.81865E-05-2.96303E-05 2.94669E-05-8.90146E-20 2.76223E-18
 -1      2525 9.33714E-05-2.31844E-05-2.98056E-05 3.05981E-05-8.09644E-19 2.67118E-18
 -1      2526 9.85172E-05-3.14666E-05-2.87264E-05 3.31450E-05-1.30043E-18 1.50511E-18
 -1      2527 7.38413E-05-7.91126E-06-2.84077E-05 1.86918E-05 7.02991E-19-1.18690E-19
 -1      2528 7.94792E-05-1.19791E-05-2.86398E-05 2.51938E-05 5.22661E-19 1.31621E-18
 -1      2529 8.23291E-05-2.02493E-05-2.64287E-05 3.17469E-05-2.02322E-19 2.63017E-18
 -1      2530 6.90362E-05-3.86291E-06-2.78788E-05-1.48448E-06 1.54038E-18-3.21343E-18
 -1      2531 6.97364E-05-4.41620E-06-2.78844E-05 7.99205E-06 1.70984E-18-2.08937E-18
 -1      2532 6.76759E-05-9.60383E-06-2.44492E-05 1.57191E-05 1.91428E-18-3.04191E-19
 -1      2533 7.64050E-05-9.31468E-06-2.84919E-05-2.01956E-05 2.41178E-19-7.32398E-18
 -1      2534 7.17154E-05-6.10418E-06-2.82388E-05-1.27952E-05 1.38749E-18-6.24713E-18
 -1      2535 6.59760E-05-8.28097E-06-2.42453E-05-8.52300E-06 1.94983E-18-4.22643E-18
 -1      2536 9.00504E-05-2.00594E-05-2.97056E-05-2.85400E-05-3.03198E-19-2.00674E-18
 -1      2537 8.35436E-05-1.52680E-05-2.94511E-05-2.61446E-05 1.90650E-19-4.65900E-18
 -1      2538 7.82831E-05-1.72271E-05-2.59233E-05-2.72257E-05 5.73177E-19-5.48234E-18
 -1      2539 1.00648E-04-2.88009E-05-3.06117E-05-2.56877E-05 1.52367E-21 3.58376E-18
 -1      2540 9.61521E-05-2.49591E-05-3.05930E-05-2.76385E-05-9.02256E-20 8.73185E-19
 -1      2541 9.49435E-05-2.89032E-05-2.83001E-05-3.18054E-05 3.39144E-19-1.16573E-18
 -1      2542 1.04603E-04-3.25148E-05-3.07992E-05-1.72982E-05-2.12629E-18 1.27276E-18
 -1      2543 1.03141E-04-3.06084E-05-3.10417E-05-2.10204E-05-1.33690E-18 3.55412E-18
 -1      2544 1.05886E-04-3.58268E-05-3.00432E-05-2.51740E-05-1.07028E-18 2.44741E-18
 -1      2545 1.00979E-04-2.98925E-05-3.05399E-05-9.84497E-06-1.36291E-18 2.14207E-20
 -1      2546 1.43010E-04-6.36687E-05-3.44187E-05 2.89971E-05-4.64651E-18 3.12979E-19
 -1      2547 1.30994E-04-6.42336E-05-2.82044E-05 3.69221E-05-4.93153E-18 1.92446E-18
 -1      2548 9.36282E-05-2.74732E-05-2.83405E-05 3.68731E-07 1.11766E-18 2.77252E-19
 -1      2549 9.39103E-05-2.73372E-05-2.84876E-05 9.02632E-07 1.17960E-18 4.58242E-19
 -1      2550 9.42710E-05-2.74893E-05-2.86341E-05 4.02485E-07 1.12000E-18-1.73256E-19
 -1      2551 1.09779E-04-5.90804E-05-2.20026E-05 4.92662E-05-5.00596E-18 3.75731E-18
 -1      2552 8.66638E-05-5.07544E-05-1.49214E-05 5.09791E-05-5.16034E-18 6.12310E-18
 -1      2553 3.91342E-05-3.22867E-05-2.89123E-06-3.43379E-05-3.06795E-18-6.78643E-18
 -1      2554 5.66948E-05-3.85706E-05-7.62372E-06-4.54269E-05-1.45351E-18-4.26841E-18
 -1      2555 2.40659E-05-2.20459E-05-5.95767E-07-1.16088E-05-2.47228E-18-4.74381E-18
 -1      2556 2.96351E-05-2.64758E-05-1.25655E-06-2.50062E-05-2.85450E-18-6.52046E-18
 -1      2557 4.32439E-05-2.53586E-05-7.09463E-06-3.11567E-05-1.22968E-18-7.10449E-18
 -1      2558 1.58702E-04-3.17554E-05-5.48998E-05-1.43381E-05-2.61056E-18-3.54272E-18
 -1      2559 1.56866E-04-4.11765E-05-4.99015E-05-1.16264E-05-2.02557E-18-4.17248E-18
 -1      2560 1.33997E-04-6.14327E-05-3.11198E-05-2.29997E-05 1.51153E-18-2.19466E-18
 -1      2561 1.45706E-04-5.83256E-05-3.78764E-05-1.42684E-05 2.33463E-18-1.45965E-18
 -1      2562 8.78369E-05-1.07974E-05-3.30526E-05-1.51802E-06-2.24455E-20-3.18737E-18
 -1      2563 8.79425E-05-1.09197E-05-3.30440E-05-2.63670E-06-3.43626E-19-3.14379E-18
 -1      2564 8.93414E-05-1.30918E-05-3.26804E-05-2.92914E-06-4.14043E-19-2.86899E-18
 -1      2565 8.90925E-05-1.27569E-05-3.27185E-05-9.40720E-07 6.34155E-20-3.03346E-18
 -1      2566 1.49476E-04-1.04651E-05-6.01517E-05 1.41120E-06 4.32834E-18-2.30359E-18
 -1      2567 1.49559E-04-1.57181E-05-5.78683E-05-2.02262E-06 3.06118E-18-3.04635E-18
 -1      2568 1.51206E-04-4.90037E-05-4.39828E-05-2.00135E-06 2.84217E-18-1.56447E-18
 -1      2569 1.56206E-04-4.11031E-05-4.98399E-05 3.04413E-06 2.95519E-18-1.22777E-18
 -1      2570 1.48939E-04-1.19030E-05-5.92610E-05 9.42496E-06 4.53247E-18-1.61709E-18
 -1      2571 1.48411E-04-9.47957E-06-6.02021E-05 5.89587E-06 4.67223E-18-1.34641E-18
 -1      2572 1.08460E-04-6.20276E-05-2.00707E-05 3.52231E-05-3.94294E-19-2.42442E-18
 -1      2573 8.91716E-05-5.63190E-05-1.38876E-05 3.78099E-05 5.75135E-19-2.20276E-18
 -1      2574 1.53408E-04-2.98267E-05-5.32940E-05 9.55842E-06 2.92332E-18-4.44481E-19
 -1      2575 1.51267E-04-2.01157E-05-5.68848E-05 1.16409E-05 3.01057E-18-4.43210E-19
 -1      2576 1.05438E-04-5.91920E-05-1.97555E-05-3.87255E-05-1.55854E-19-4.76938E-18
 -1      2577 1.20423E-04-6.14489E-05-2.54799E-05-3.47195E-05 6.18546E-19-4.16698E-18
 -1      2578 6.55994E-05-4.60496E-05-8.22813E-06-4.31470E-05-1.02491E-19-5.10433E-18
 -1      2579 8.67316E-05-5.29284E-05-1.44673E-05-4.50385E-05 2.71898E-19-4.58610E-18
 -1      2580 3.44795E-05-3.04493E-05-1.34469E-06-3.16257E-05 4.22034E-19-3.91287E-18
 -1      2581 4.71245E-05-3.68703E-05-4.20851E-06-4.02656E-05 3.45801E-19-5.10634E-18
 -1      2582 3.21034E-05-2.75327E-05-1.59064E-06 2.51301E-05-8.74985E-19-9.08443E-19
 -1      2583 2.43968E-05-2.31606E-05 6.75785E-08 1.29694E-05-1.09468E-18-1.03486E-18
 -1      2584 1.43480E-04-6.37702E-05-3.42011E-05-2.89842E-05 2.20779E-18-2.88055E-18
 -1      2585 1.52754E-04-6.02660E-05-4.00189E-05-1.81660E-05 1.88174E-18-1.51937E-18
 -1      2586 6.75680E-05-4.66602E-05-8.86935E-06 4.04577E-05-1.20702E-19-5.16584E-19
 -1      2587 4.70321E-05-3.72108E-05-3.91618E-06 3.36847E-05-3.71000E-19-2.77192E-19
 -1      2588 1.41990E-04-6.41531E-05-3.35873E-05 1.59759E-05-8.57833E-19-4.34951E-18
 -1      2589 1.26871E-04-6.52198E-05-2.63916E-05 2.33639E-05-7.36072E-19-3.40486E-18
 -1      2590 1.56894E-04-5.22460E-05-4.52188E-05-2.72051E-06-7.75194E-19-5.32318E-18
 -1      2591 1.49503E-04-5.85383E-05-3.92108E-05 3.91712E-06-6.96579E-19-4.65233E-18
 -1      2592 1.57998E-04-1.64236E-05-6.10319E-05-1.22862E-05-2.38016E-18-3.16324E-18
 -1      2593 1.57721E-04-2.13631E-05-5.87454E-05-1.41840E-05-2.57371E-18-3.66829E-18
 -1      2594 1.50973E-04-1.34292E-05-5.94558E-05-2.63922E-06-1.55431E-18-3.05080E-18
 -1      2595 1.53302E-04-1.31604E-05-6.05226E-05-8.33154E-06-1.99984E-18-3.32550E-18
 -1      2596 1.56648E-04-2.83207E-05-5.53305E-05 2.90524E-06-5.24949E-19-2.90850E-18
 -1      2597 1.54079E-04-2.07305E-05-5.78023E-05 1.65285E-06-9.10560E-19-2.76810E-18
 -1      2598 1.55651E-04-5.01401E-05-4.55906E-05-6.13138E-06 1.08441E-18-1.80376E-18
 -1      2599 1.59094E-04-3.88828E-05-5.18232E-05-1.20871E-06 9.30677E-19-2.31282E-18
 -1      2600 1.49739E-04-3.44150E-05-4.93118E-05 7.54771E-06 4.26269E-19-2.84412E-18
 -1      2601 1.15821E-04-6.30737E-05-2.26008E-05-4.44596E-05 9.97805E-19-2.82803E-18
 -1      2602 1.32073E-04-6.44183E-05-2.91439E-05-3.97319E-05 1.42810E-18-3.30618E-18
 -1      2603 1.39600E-04-6.70477E-05-3.10058E-05-3.06992E-05 1.84314E-18-3.23069E-18
 -1      2604 8.03763E-05-5.07399E-05-1.25439E-05-5.05616E-05 1.48231E-19-2.60664E-18
 -1      2605 9.91179E-05-5.74790E-05-1.78021E-05-5.10390E-05 8.50421E-19-2.69055E-18
 -1      2606 1.14106E-04-6.20129E-05-2.20429E-05-4.55774E-05 1.44059E-18-3.63689E-18
 -1      2607 1.52496E-04-2.65652E-05-5.46369E-05-2.76555E-06 1.80312E-18-2.95064E-18
 -1      2608 1.53263E-04-3.48504E-05-5.10426E-05-1.93976E-06 6.71909E-19-2.74841E-18
 -1      2609 9.63391E-05-2.50967E-05-3.05583E-05 7.59175E-06 2.44970E-18 1.21425E-18
 -1      2610 9.74604E-05-2.37801E-05-3.15986E-05 1.06914E-05 2.60553E-18 1.59822E-18
 -1      2611 9.58940E-05-2.13044E-05-3.20228E-05 1.18931E-05 2.78465E-18 7.06452E-19
 -1      2612 9.58826E-05-2.41625E-05-3.07704E-05 7.68274E-06 2.43944E-18 2.88639E-19
 -1      2613 1.42373E-04-2.00267E-05-5.27959E-05-6.02469E-06 2.48647E-18-4.02235E-18
 -1      2614 9.08065E-05-1.50645E-05-3.24568E-05-6.79129E-06-1.35448E-18-2.51975E-18
 -1      2615 8.97042E-05-1.32035E-05-3.28433E-05-7.96549E-06-1.56894E-18-2.68142E-18
 -1      2616 9.04038E-05-1.40306E-05-3.27969E-05-9.14098E-06-1.84583E-18-2.48149E-18
 -1      2617 9.47366E-05-2.69395E-05-2.90683E-05 1.88315E-06 1.46201E-18-1.87952E-20
 -1      2618 9.42487E-05-1.90824E-05-3.22593E-05 1.16021E-05 2.73044E-18-2.94609E-19
 -1      2619 1.52343E-04-4.74231E-05-4.50103E-05-1.40863E-05-1.61492E-18-3.70111E-18
 -1      2620 1.46433E-04-6.34512E-05-3.54765E-05 3.37955E-06-3.24519E-19-4.03505E-18
 -1      2621 1.49275E-04-4.27571E-05-4.59071E-05-1.72095E-06-9.54712E-19-2.21838E-18
 -1      2622 4.50953E-05-2.71188E-05-7.27272E-06 3.61674E-05-2.44094E-18 1.48252E-18
 -1      2623 4.09875E-05-1.95060E-05-8.42781E-06 2.75841E-05-2.54438E-18 2.70458E-18
 -1      2624 5.84804E-05-2.80765E-05-1.25958E-05 4.00982E-05-1.94860E-18 1.49671E-18
 -1      2625 1.22717E-04-6.16584E-05-2.58472E-05 4.09072E-05-4.80988E-18 2.02719E-18
 -1      2626 8.35406E-05-4.48030E-05-1.62133E-05 5.03842E-05-3.67612E-18 5.10771E-18
 -1      2627 9.76995E-05-3.07058E-05-2.87268E-05-2.68664E-06-1.92061E-18 6.19067E-18
 -1      2628 9.90180E-05-3.12507E-05-2.89895E-05-1.57309E-06-1.67629E-18 4.96870E-18
 -1      2629 8.44500E-05-5.11192E-05-1.38282E-05 3.77316E-05 1.78089E-19-1.84950E-18
 -1      2630 1.05102E-04-3.39415E-05-3.04238E-05-8.36718E-06-1.65185E-18 1.00666E-18
 -1      2631 1.04951E-04-3.29638E-05-3.08036E-05-1.29214E-05-2.32649E-18 8.27101E-19
 -1      2632 1.09041E-04-3.76991E-05-3.06466E-05-1.56106E-05-3.04948E-18 1.38397E-18
 -1      2633 1.07597E-04-3.65624E-05-3.05815E-05-7.38390E-06-2.00098E-18 1.63358E-18
 -1      2634 4.81992E-05-3.08309E-05-6.89561E-06 2.95338E-05-5.45489E-19-3.05144E-19
 -1      2635 1.46446E-04-6.08695E-05-3.66458E-05 1.63943E-05-4.46566E-18-8.45445E-19
 -1      2636 9.47182E-05-2.06036E-05-3.17190E-05 9.66894E-06 2.53201E-18-4.71480E-19
 -1      2637 3.29172E-05-1.50140E-05-7.13224E-06 9.30068E-06-1.88105E-18-5.85512E-19
 -1      2638 2.76613E-05-1.88283E-05-3.30574E-06-1.16527E-06-2.03412E-18-3.45039E-18
 -1      2639 3.49426E-05-1.52408E-05-8.00868E-06-1.05020E-05-4.21134E-20-6.44677E-18
 -1      2640 6.63503E-05-3.48949E-05-1.27854E-05-4.49096E-05-4.88844E-19-4.73301E-18
 -1      2641 7.32357E-05-4.41759E-05-1.21095E-05-4.87998E-05-8.58468E-19-3.71636E-18
 -1      2642 8.79443E-05-4.83188E-05-1.70804E-05-4.91415E-05 5.14149E-19-4.01282E-18
 -1      2643 3.13042E-05-2.54870E-05-2.06075E-06-2.50853E-05 5.12031E-19-4.06428E-18
 -1      2644 4.21535E-05-2.58550E-05-6.54558E-06-3.02082E-05 1.43138E-18-4.98161E-18
 -1      2645 2.92186E-05-1.90519E-05-3.80677E-06-1.75447E-05 4.45116E-19-3.61408E-18
 -1      2646 1.54537E-04-5.78413E-05-4.16273E-05-8.33897E-06 8.79644E-19-2.16036E-18
 -1      2647 1.49996E-04-5.22979E-05-4.25286E-05 1.94033E-06 1.04259E-18-2.76260E-18
 -1      2648 1.49164E-04-6.13721E-05-3.73108E-05-1.12568E-05 2.09969E-18-1.92573E-18
 -1      2649 1.42035E-04-1.57822E-05-5.41041E-05 2.56239E-06-1.34594E-18-2.94566E-18
 -1      2650 1.48712E-04-2.56363E-05-5.28346E-05-2.03016E-05-1.82726E-18-3.42519E-18
 -1      2651 6.44807E-05-4.13016E-05-9.54981E-06-4.19086E-05-7.40730E-19-5.09776E-18
 -1      2652 1.00737E-04-5.74842E-05-1.82029E-05-4.02406E-05-2.84391E-19-4.18375E-18
 -1      2653 1.47591E-04-3.53352E-05-4.82702E-05 1.27170E-05 2.32013E-18 1.69830E-18
 -1      2654 1.22575E-04-6.53712E-05-2.42497E-05 2.51217E-05-4.55280E-19-3.26457E-18
 -1      2655 1.40350E-04-1.58381E-05-5.36843E-05 1.35408E-05 3.22974E-18-6.92661E-19
 -1      2656 1.47428E-04-5.55648E-05-3.93723E-05-2.45678E-06 2.08765E-18-1.13629E-18
 -1      2657 1.30809E-04-6.40530E-05-2.84368E-05-2.44566E-05 2.65333E-19-2.46762E-18
 -1      2658 2.65018E-05-1.97747E-05-2.31991E-06 5.64419E-06-8.82767E-19-1.55812E-18
 -1      2659 9.20873E-05-1.62845E-05-3.25222E-05-1.03739E-05-2.27495E-18-1.76594E-18
 -1      2660 1.38085E-04-8.71150E-06-5.58417E-05 3.34954E-06 3.63102E-18-3.25658E-18
 -1      2661 1.42300E-04-1.24615E-05-5.57901E-05-1.09246E-05-1.87046E-18-2.95008E-18
 -1      2662 1.01479E-04-3.28064E-05-2.94494E-05-1.13089E-06-2.22112E-18 4.28597E-18
 -1      2663 1.12399E-04-4.03496E-05-3.09039E-05-9.31805E-06-2.06648E-18 1.13028E-18
 -1      2664 9.05554E-05-1.51729E-05-3.23291E-05 3.19502E-06 9.58894E-19-2.69991E-18
 -1      2665 9.03648E-05-1.49011E-05-3.23617E-05 2.26120E-06 6.98617E-19-2.73699E-18
 -1      2666 9.02301E-05-1.46983E-05-3.23907E-05 1.42252E-06 5.36472E-19-2.96215E-18
 -1      2667 9.01648E-05-1.46058E-05-3.24017E-05 4.65535E-07 3.77089E-19-2.99436E-18
 -1      2668 9.14163E-05-1.65936E-05-3.20539E-05 1.64129E-06 5.62912E-19-2.76843E-18
 -1      2669 9.21417E-05-1.75525E-05-3.20047E-05 6.47244E-06 1.90362E-18-1.98880E-18
 -1      2670 9.16142E-05-1.67562E-05-3.21044E-05 5.63258E-06 1.69291E-18-2.21098E-18
 -1      2671 9.35614E-05-1.97755E-05-3.16648E-05 7.59615E-06 2.10236E-18-1.35393E-18
 -1      2672 9.27712E-05-1.85214E-05-3.18383E-05 7.01882E-06 1.93894E-18-1.64998E-18
 -1      2673 9.34367E-05-1.98681E-05-3.15065E-05 5.73365E-06 1.78152E-18-1.66808E-18
 -1      2674 9.52207E-05-2.54099E-05-2.99312E-05 3.97667E-06 1.67823E-18-4.10025E-19
 -1      2675 9.55572E-05-2.45600E-05-3.03949E-05 5.60925E-06 1.89162E-18-3.61087E-19
 -1      2676 9.49845E-05-2.66914E-05-2.92734E-05 1.78135E-06 1.35570E-18-4.27579E-19
 -1      2677 9.52498E-05-2.61958E-05-2.95583E-05 2.78660E-06 1.54771E-18-2.96730E-19
 -1      2678 9.52721E-05-2.50191E-05-3.01048E-05 3.81858E-06 1.63594E-18-7.66932E-19
 -1      2679 9.43344E-05-2.08742E-05-3.15181E-05-8.24296E-06-2.12100E-18-1.21750E-18
 -1      2680 9.47155E-05-2.26463E-05-3.09120E-05-6.39465E-06-1.96826E-18-9.84100E-19
 -1      2681 9.52900E-05-2.42045E-05-3.04497E-05-5.01688E-06-1.65033E-18-8.60475E-19
 -1      2682 9.51792E-05-2.51516E-05-3.00295E-05-3.53482E-06-1.43012E-18-7.97931E-19
 -1      2683 9.46206E-05-2.24941E-05-3.09061E-05-5.55138E-06-1.65934E-18-1.19380E-18
 -1      2684 9.53711E-05-2.60269E-05-2.96987E-05-2.52023E-06-1.17438E-18-7.49910E-19
 -1      2685 9.51983E-05-2.65726E-05-2.94214E-05-1.54434E-06-9.81262E-19-5.65434E-19
 -1      2686 9.52656E-05-2.49726E-05-3.01171E-05-3.11512E-06-1.18382E-18-9.97567E-19
 -1      2687 9.52333E-05-2.70866E-05-2.91892E-05-8.69633E-07-9.33412E-19-5.23445E-19
 -1      2688 9.50963E-05-2.74150E-05-2.90117E-05-2.64087E-07-8.48769E-19-5.92152E-19
 -1      2689 9.54537E-05-2.65043E-05-2.95522E-05-1.34058E-06-9.84561E-19-8.90820E-19
 -1      2690 9.50751E-05-2.77239E-05-2.88530E-05 1.53643E-07-7.17456E-19-4.35383E-19
 -1      2691 9.49950E-05-2.79318E-05-2.87436E-05 5.06329E-07-7.62369E-19-5.45628E-19
 -1      2692 9.54562E-05-2.74433E-05-2.91541E-05-1.73708E-07-7.90247E-19-7.44964E-19
 -1      2693 9.49612E-05-2.81198E-05-2.86384E-05 7.41064E-07-7.69091E-19-6.09423E-19
 -1      2694 9.49302E-05-2.82557E-05-2.85751E-05 9.25843E-07-6.62273E-19-5.94688E-19
 -1      2695 9.54011E-05-2.80259E-05-2.88811E-05 5.37749E-07-7.29426E-19-8.15037E-19
 -1      2696 9.49000E-05-2.83694E-05-2.85081E-05 1.03588E-06-7.18235E-19-4.48228E-19
 -1      2697 9.49040E-05-2.84591E-05-2.84756E-05 1.11170E-06-7.39319E-19-4.96769E-19
 -1      2698 9.53403E-05-2.83866E-05-2.86997E-05 9.26309E-07-6.93841E-19-7.70596E-19
 -1      2699 9.48815E-05-2.85252E-05-2.84355E-05 1.14040E-06-5.91909E-19-4.76707E-19
 -1      2700 9.49074E-05-2.85838E-05-2.84231E-05 1.14789E-06-6.61326E-19-4.53518E-19
 -1      2701 9.52911E-05-2.86047E-05-2.85842E-05 1.09623E-06-6.76271E-19-2.09830E-19
 -1      2702 9.48924E-05-2.86188E-05-2.84016E-05 1.12654E-06-6.90587E-19-3.91495E-19
 -1      2703 9.49301E-05-2.86556E-05-2.84018E-05 1.09366E-06-4.97101E-19-3.11125E-19
 -1      2704 9.52564E-05-2.87290E-05-2.85151E-05 1.12507E-06-6.58633E-19-1.35924E-19
 -1      2705 9.49212E-05-2.86700E-05-2.83930E-05 1.04439E-06-4.38759E-19-4.33584E-19
 -1      2706 9.49637E-05-2.86913E-05-2.84008E-05 9.90325E-07-2.56269E-19-6.30894E-19
 -1      2707 9.52346E-05-2.87910E-05-2.84784E-05 1.06879E-06-5.34132E-19-2.77481E-19
 -1      2708 9.49592E-05-2.86922E-05-2.84004E-05 9.28517E-07-4.65508E-20-7.68378E-19
 -1      2709 9.50021E-05-2.87025E-05-2.84126E-05 8.66344E-07-2.58465E-19-7.68902E-19
 -1      2710 9.52225E-05-2.88114E-05-2.84639E-05 9.66923E-07-1.60079E-19-3.22035E-19
 -1      2711 9.50008E-05-2.86945E-05-2.84176E-05 8.02546E-07-5.07075E-19-4.80552E-19
 -1      2712 9.50417E-05-2.86968E-05-2.84320E-05 7.41135E-07-6.01074E-19-4.82532E-19
 -1      2713 9.52174E-05-2.88042E-05-2.84643E-05 8.47006E-07-9.84366E-20-5.21288E-19
 -1      2714 9.50426E-05-2.86829E-05-2.84406E-05 6.82552E-07-6.23336E-19-5.96895E-19
 -1      2715 9.50804E-05-2.86793E-05-2.84561E-05 6.27932E-07-6.29168E-19-8.22226E-19
 -1      2716 9.52171E-05-2.87789E-05-2.84747E-05 7.28013E-07-5.47257E-19 1.89086E-19
 -1      2717 9.50829E-05-2.86615E-05-2.84671E-05 5.79565E-07-5.89417E-19-9.58366E-19
 -1      2718 9.51177E-05-2.86535E-05-2.84831E-05 5.35971E-07-8.53899E-19-8.79133E-19
 -1      2719 9.52201E-05-2.87412E-05-2.84920E-05 6.23076E-07-6.85772E-19-1.05450E-19
 -1      2720 9.51214E-05-2.86324E-05-2.84960E-05 5.01500E-07-4.70506E-19-5.82213E-19
 -1      2721 9.51542E-05-2.86208E-05-2.85127E-05 4.72152E-07-1.00739E-19-6.38564E-19
 -1      2722 9.52255E-05-2.86944E-05-2.85142E-05 5.41589E-07-6.65547E-19-1.55123E-19
 -1      2723 9.51590E-05-2.85968E-05-2.85273E-05 4.54622E-07-1.65372E-19-7.43327E-19
 -1      2724 9.51912E-05-2.85820E-05-2.85449E-05 4.42337E-07-1.03246E-19-8.32316E-19
 -1      2725 9.52328E-05-2.86399E-05-2.85406E-05 4.90831E-07-2.57144E-19-1.01326E-19
 -1      2726 9.51969E-05-2.85545E-05-2.85616E-05 4.44684E-07-3.83719E-20-8.86788E-19
 -1      2727 9.52305E-05-2.85365E-05-2.85809E-05 4.52355E-07-7.86013E-20-9.98532E-19
 -1      2728 9.52415E-05-2.85774E-05-2.85712E-05 4.77223E-07-2.23953E-19-2.85807E-19
 -1      2729 9.52371E-05-2.85048E-05-2.86001E-05 4.77823E-07-1.08286E-19-1.30092E-18
 -1      2730 9.52745E-05-2.84833E-05-2.86221E-05 5.08792E-07-1.15227E-19-1.48671E-18
 -1      2731 9.52516E-05-2.85053E-05-2.86066E-05 5.07313E-07-3.53563E-19-7.15313E-19
 -1      2732 9.52820E-05-2.84459E-05-2.86446E-05 5.61245E-07 6.51414E-19-1.76414E-18
 -1      2733 9.53261E-05-2.84205E-05-2.86705E-05 6.19599E-07 7.27443E-19-1.39673E-18
 -1      2734 9.52629E-05-2.84210E-05-2.86477E-05 5.88522E-07 2.76346E-19-1.33781E-18
 -1      2735 9.53342E-05-2.83757E-05-2.86970E-05 7.03748E-07 4.28252E-19-9.69430E-19
 -1      2736 9.53882E-05-2.83457E-05-2.87284E-05 7.94541E-07 1.77061E-19-9.98272E-19
 -1      2737 9.52749E-05-2.83208E-05-2.86961E-05 7.29694E-07 8.42507E-19-9.24002E-19
 -1      2738 9.53966E-05-2.82915E-05-2.87599E-05 9.16082E-07 2.21240E-19-7.42863E-19
 -1      2739 9.54641E-05-2.82561E-05-2.87982E-05 1.04547E-06 5.00462E-19-6.29675E-19
 -1      2740 9.52869E-05-2.82005E-05-2.87530E-05 9.41463E-07 4.18457E-19-3.04593E-19
 -1      2741 9.54718E-05-2.81902E-05-2.88357E-05 1.21113E-06 1.03248E-19-5.83015E-19
 -1      2742 9.55569E-05-2.81488E-05-2.88827E-05 1.38642E-06-1.92706E-19-2.37496E-19
 -1      2743 9.52974E-05-2.80549E-05-2.88202E-05 1.23642E-06 3.06546E-19-4.21087E-19
 -1      2744 9.55623E-05-2.80687E-05-2.89267E-05 1.60385E-06-5.67581E-19-5.48973E-19
 -1      2745 9.56693E-05-2.80209E-05-2.89842E-05 1.83336E-06-5.50354E-19-6.41691E-19
 -1      2746 9.53038E-05-2.78789E-05-2.88986E-05 1.62901E-06-4.95107E-19-9.51661E-19
 -1      2747 9.56701E-05-2.79245E-05-2.90351E-05 2.11088E-06-4.74763E-19-1.03162E-18
 -1      2748 9.58033E-05-2.78706E-05-2.91045E-05 2.40357E-06-7.87513E-19-9.32668E-19
 -1      2749 9.53021E-05-2.76673E-05-2.89887E-05 2.13517E-06-4.81349E-19-7.86904E-19
 -1      2750 9.57963E-05-2.77565E-05-2.91616E-05 2.74959E-06-7.58425E-19-8.07184E-19
 -1      2751 9.59606E-05-2.76985E-05-2.92439E-05 3.11426E-06-7.91320E-19-6.83579E-19
 -1      2752 9.52868E-05-2.74167E-05-2.90896E-05 2.77142E-06-7.00664E-19-1.17654E-18
 -1      2753 9.59422E-05-2.75678E-05-2.93056E-05 3.53639E-06-7.11572E-19-4.67287E-19
 -1      2754 9.61429E-05-2.75109E-05-2.94006E-05 3.98018E-06-3.58586E-19-6.68595E-19
 -1      2755 9.52512E-05-2.71277E-05-2.91980E-05 3.55342E-06-6.30038E-19-8.44689E-19
 -1      2756 9.61104E-05-2.73697E-05-2.94632E-05 4.48379E-06-3.19879E-20-7.13230E-19
 -1      2757 9.63544E-05-2.73259E-05-2.95689E-05 5.00964E-06 1.11696E-18-1.35430E-18
 -1      2758 9.51890E-05-2.68096E-05-2.93074E-05 4.49375E-06-3.37174E-20-5.77321E-19
 -1      2759 9.63095E-05-2.71898E-05-2.96260E-05 5.59575E-06 1.34679E-18-1.57069E-18
 -1      2760 9.66088E-05-2.71834E-05-2.97379E-05 6.19814E-06 1.47192E-18-1.36629E-18
 -1      2761 9.50994E-05-2.64885E-05-2.94061E-05 5.59879E-06 1.02437E-18-8.82948E-19
 -1      2762 9.65646E-05-2.70863E-05-2.97793E-05 6.86044E-06 9.90684E-19-1.67635E-18
 -1      2763 9.69418E-05-2.71631E-05-2.98889E-05 7.51881E-06 6.14718E-19-2.12332E-18
 -1      2764 9.49966E-05-2.62227E-05-2.94759E-05 6.86457E-06 8.10420E-19-1.68467E-18
 -1      2765 9.69365E-05-2.71704E-05-2.99005E-05 8.23932E-06 1.16995E-18-1.75894E-18
 -1      2766 9.74370E-05-2.74126E-05-2.99950E-05 8.90812E-06 1.04087E-18-1.20098E-18
 -1      2767 9.49307E-05-2.61253E-05-2.94904E-05 8.27157E-06 1.17528E-18-2.49749E-18
 -1      2768 9.75575E-05-2.76404E-05-2.99596E-05 9.65010E-06 4.18654E-19-7.22680E-19
 -1      2769 9.82679E-05-2.81846E-05-3.00230E-05 1.02444E-05 3.23026E-19-9.23364E-19
 -1      2770 9.50232E-05-2.64009E-05-2.94159E-05 9.77749E-06 1.13796E-18-1.28828E-18
 -1      2771 9.86867E-05-2.88230E-05-2.99250E-05 1.09379E-05 4.86645E-19-8.76202E-19
 -1      2772 9.97575E-05-2.98740E-05-2.99431E-05 1.13127E-05 5.85842E-19-8.58629E-19
 -1      2773 9.55265E-05-2.73921E-05-2.92171E-05 1.13033E-05 6.54159E-19-7.93777E-19
 -1      2774 1.00779E-04-3.12001E-05-2.97809E-05 1.18211E-05 6.24623E-19-1.37650E-18
 -1      2775 1.02433E-04-3.30137E-05-2.97557E-05 1.17431E-05 7.79528E-19-1.50640E-18
 -1      2776 9.69081E-05-2.96224E-05-2.88744E-05 1.26956E-05 4.54742E-19-1.07499E-18
 -1      2777 1.04535E-04-3.53595E-05-2.95712E-05 1.17849E-05 6.48419E-19-1.78559E-18
 -1      2778 1.07016E-04-3.81229E-05-2.95507E-05 1.08940E-05 4.54830E-19-2.14233E-18
 -1      2779 9.99426E-05-3.37876E-05-2.84260E-05 1.36359E-05 7.41732E-19-1.56954E-18
 -1      2780 1.10772E-04-4.16833E-05-2.94877E-05 9.89963E-06 1.33719E-18-2.87315E-18
 -1      2781 1.14113E-04-4.51620E-05-2.96094E-05 7.69349E-06 1.18066E-18-2.60118E-18
 -1      2782 1.05705E-04-4.05020E-05-2.80647E-05 1.33767E-05 5.35801E-19-2.97862E-18
 -1      2783 1.19869E-04-4.94787E-05-3.00131E-05 4.64616E-06 9.79210E-19-1.89768E-18
 -1      2784 1.23563E-04-5.22549E-05-3.06248E-05 4.91747E-07 8.34910E-19-1.45001E-18
 -1      2785 1.15271E-04-4.95841E-05-2.83082E-05 1.04365E-05 1.43194E-18-3.49744E-18
 -1      2786 1.35193E-04-5.13618E-05-3.61861E-05-1.74294E-05-3.41235E-19-7.21778E-19
 -1      2787 1.34014E-04-4.47339E-05-3.84606E-05-2.12291E-05-6.34534E-19-9.23663E-19
 -1      2788 1.37366E-04-3.70998E-05-4.35314E-05-2.39638E-05-1.29797E-18-1.65997E-18
 -1      2789 1.33267E-04-2.61153E-05-4.63766E-05-2.18842E-05-2.55126E-18-1.99169E-18
 -1      2790 1.26037E-04-1.39966E-05-4.87831E-05-1.33138E-05-2.38355E-18-1.55367E-18
 -1      2791 1.25521E-04-1.27678E-05-4.93637E-05-4.43312E-06-1.85839E-18-1.68266E-18
 -1      2792 1.29111E-04-1.75206E-05-4.85318E-05 2.82292E-06-4.59515E-19-2.65987E-18
 -1      2793 1.32036E-04-2.56136E-05-4.65998E-05 9.24845E-06 2.41404E-19-2.33283E-18
 -1      2794 1.36545E-04-4.08870E-05-4.12703E-05 7.71144E-06 7.89805E-19-2.22171E-18
 -1      2795 1.37154E-04-4.87794E-05-3.81448E-05 5.60012E-06 7.15266E-19-1.59602E-18
 -1      2796 1.35426E-04-5.32461E-05-3.53202E-05-1.66338E-07 4.08766E-19-1.26409E-18
 -1      2797 1.25554E-04-5.11050E-05-3.19169E-05-7.06145E-06-1.88597E-19 7.19753E-19
 -1      2798 1.21390E-04-4.82464E-05-3.12403E-05-1.08923E-05-3.52975E-19 5.75254E-19
 -1      2799 6.08950E-05-3.41063E-05-1.11328E-05 3.36719E-05-1.10421E-18-1.31608E-19
 -1      2800 4.66651E-05-2.43755E-05-9.05584E-06 2.43362E-05-1.54208E-18-5.27913E-19
 -1      2801 9.64931E-05-5.45063E-05-1.81205E-05 3.50637E-05-2.02229E-19-2.93656E-18
 -1      2802 7.77082E-05-4.39338E-05-1.39067E-05 3.54545E-05-9.11619E-19-1.73684E-18
 -1      2803 9.45567E-05-2.78528E-05-2.85882E-05-4.41807E-07 8.84165E-19-5.31026E-19
 -1      2804 9.46416E-05-2.76643E-05-2.86870E-05-9.98275E-08 9.92863E-19-3.63854E-19
 -1      2805 9.45181E-05-2.84359E-05-2.83201E-05-1.14074E-06 7.04527E-20-4.75324E-19
 -1      2806 9.44616E-05-2.83720E-05-2.83210E-05-1.13834E-06 2.17502E-19-7.41607E-19
 -1      2807 9.45895E-05-2.85154E-05-2.83166E-05-1.09234E-06 4.99125E-19-7.90745E-19
 -1      2808 9.45207E-05-2.84704E-05-2.83062E-05-1.12830E-06 2.18289E-19-5.55511E-19
 -1      2809 9.48951E-05-2.85758E-05-2.84255E-05-1.15853E-06 2.23971E-19-5.49996E-19
 -1      2810 9.46733E-05-2.85651E-05-2.83312E-05-9.91933E-07 8.90547E-19-7.12500E-19
 -1      2811 9.46016E-05-2.85342E-05-2.83148E-05-1.04773E-06 8.50134E-19-7.06150E-19
 -1      2812 9.49158E-05-2.86490E-05-2.84020E-05-1.11056E-06 6.31948E-19-9.45192E-19
 -1      2813 9.47596E-05-2.85934E-05-2.83561E-05-8.68597E-07 7.34648E-19-7.12750E-19
 -1      2814 9.46906E-05-2.85733E-05-2.83370E-05-9.31749E-07 8.37412E-19-5.42748E-19
 -1      2815 9.49489E-05-2.86859E-05-2.83997E-05-1.00986E-06 7.82482E-19-5.50036E-19
 -1      2816 9.48425E-05-2.86062E-05-2.83862E-05-7.42002E-07 6.04330E-19-3.74790E-19
 -1      2817 9.47791E-05-2.85942E-05-2.83663E-05-8.04158E-07 7.49880E-19-4.41909E-19
 -1      2818 9.49879E-05-2.86980E-05-2.84107E-05-8.86275E-07 6.38220E-19-6.13140E-19
 -1      2819 9.49192E-05-2.86076E-05-2.84185E-05-6.25396E-07-7.78417E-20 1.08981E-19
 -1      2820 9.48624E-05-2.86019E-05-2.83989E-05-6.80960E-07 1.87799E-19-1.07551E-19
 -1      2821 9.50283E-05-2.86931E-05-2.84298E-05-7.60138E-07 3.27466E-19 1.05167E-19
 -1      2822 9.49894E-05-2.86005E-05-2.84514E-05-5.27811E-07 5.28152E-20-1.23596E-19
 -1      2823 9.49387E-05-2.85997E-05-2.84325E-05-5.72956E-07 1.75782E-19-3.47785E-20
 -1      2824 9.50680E-05-2.86764E-05-2.84538E-05-6.45306E-07 7.87689E-20 1.05332E-20
 -1      2825 9.50541E-05-2.85870E-05-2.84848E-05-4.55727E-07 1.33011E-19-3.55496E-19
 -1      2826 9.50082E-05-2.85899E-05-2.84664E-05-4.87650E-07-7.47353E-20-1.37417E-19
 -1      2827 9.51059E-05-2.86512E-05-2.84808E-05-5.51388E-07 1.45440E-19 3.37323E-19
 -1      2828 9.51160E-05-2.85683E-05-2.85192E-05-4.14320E-07-4.19760E-19-1.97683E-19
 -1      2829 9.50727E-05-2.85742E-05-2.85007E-05-4.30690E-07-8.14542E-20-4.31195E-19
 -1      2830 9.51426E-05-2.86193E-05-2.85102E-05-4.85446E-07 1.36644E-20 1.53289E-19
 -1      2831 9.51785E-05-2.85451E-05-2.85556E-05-4.08383E-07-1.57703E-19-8.71610E-20
 -1      2832 9.51350E-05-2.85533E-05-2.85362E-05-4.06938E-07-3.38394E-19-2.15880E-19
 -1      2833 9.51790E-05-2.85814E-05-2.85421E-05-4.53276E-07-3.41094E-19-2.30733E-19
 -1      2834 9.52461E-05-2.85179E-05-2.85958E-05-4.42991E-07 7.76483E-20 3.79452E-20
 -1      2835 9.51990E-05-2.85279E-05-2.85744E-05-4.21254E-07 8.47866E-20 1.51382E-19
 -1      2836 9.52170E-05-2.85378E-05-2.85772E-05-4.60348E-07-2.27858E-19-1.95336E-19
 -1      2837 9.53242E-05-2.84873E-05-2.86419E-05-5.23901E-07 8.45288E-19-2.54202E-19
 -1      2838 9.52695E-05-2.84984E-05-2.86172E-05-4.79023E-07 4.84139E-19-1.12110E-19
 -1      2839 9.52592E-05-2.84879E-05-2.86168E-05-5.12465E-07 4.71222E-19-3.70271E-19
 -1      2840 9.54190E-05-2.84539E-05-2.86962E-05-6.57701E-07 9.89824E-19-2.61369E-19
 -1      2841 9.53522E-05-2.84653E-05-2.86668E-05-5.86430E-07 1.17418E-18 2.31167E-19
 -1      2842 9.53086E-05-2.84314E-05-2.86624E-05-6.16145E-07 7.81932E-19-6.07473E-19
 -1      2843 9.55381E-05-2.84192E-05-2.87613E-05-8.51630E-07 8.55090E-19-8.30520E-20
 -1      2844 9.54538E-05-2.84296E-05-2.87256E-05-7.50460E-07 1.13598E-18-1.39763E-19
 -1      2845 9.53691E-05-2.83682E-05-2.87157E-05-7.78711E-07 1.01549E-18 2.45487E-19
 -1      2846 9.56899E-05-2.83862E-05-2.88397E-05-1.11301E-06 3.30644E-19-2.12723E-19
 -1      2847 9.55823E-05-2.83935E-05-2.87962E-05-9.78530E-07 7.25322E-19-3.19353E-19
 -1      2848 9.54457E-05-2.82991E-05-2.87784E-05-1.00803E-06 8.92157E-19 1.53766E-19
 -1      2849 9.58848E-05-2.83599E-05-2.89337E-05-1.44808E-06-2.66762E-19-8.78375E-19
 -1      2850 9.57470E-05-2.83606E-05-2.88809E-05-1.27766E-06-6.74802E-20-3.42992E-19
 -1      2851 9.55444E-05-2.82268E-05-2.88520E-05-1.31183E-06 3.86269E-19-2.05966E-19
 -1      2852 9.61346E-05-2.83487E-05-2.90448E-05-1.86015E-06 2.07654E-19-1.99419E-18
 -1      2853 9.59592E-05-2.83378E-05-2.89816E-05-1.65300E-06 2.13472E-19-1.24087E-18
 -1      2854 9.56733E-05-2.81574E-05-2.89373E-05-1.69634E-06 3.53557E-19-8.85375E-19
 -1      2855 9.64539E-05-2.83664E-05-2.91735E-05-2.34666E-06-7.76479E-20-2.11869E-18
 -1      2856 9.62326E-05-2.83360E-05-2.90994E-05-2.10549E-06 7.82389E-20-1.93467E-18
 -1      2857 9.58431E-05-2.81014E-05-2.90344E-05-2.16429E-06 2.64146E-19-1.16732E-18
 -1      2858 9.68602E-05-2.84341E-05-2.93185E-05-2.89492E-06 1.51111E-19-1.52194E-18
 -1      2859 9.65840E-05-2.83726E-05-2.92339E-05-2.62831E-06 5.13224E-21-2.15904E-18
 -1      2860 9.60688E-05-2.80772E-05-2.91420E-05-2.71169E-06-2.11516E-19-1.08675E-18
 -1      2861 9.73755E-05-2.85835E-05-2.94759E-05-3.47623E-06 2.56092E-19-1.29652E-18
 -1      2862 9.70350E-05-2.84743E-05-2.93829E-05-3.20188E-06 2.82794E-19-1.12162E-18
 -1      2863 9.63717E-05-2.81138E-05-2.92567E-05-3.32340E-06 5.73169E-20-7.10745E-19
 -1      2864 9.80283E-05-2.88598E-05-2.96391E-05-4.03820E-06-4.03947E-19-5.70419E-19
 -1      2865 9.76134E-05-2.86801E-05-2.95412E-05-3.78706E-06 1.94614E-19-7.67129E-19
 -1      2866 9.67828E-05-2.82553E-05-2.93733E-05-3.96704E-06-2.25237E-19 3.71412E-19
 -1      2867 9.88548E-05-2.93239E-05-2.97978E-05-4.49525E-06-1.18502E-18 7.79108E-19
 -1      2868 9.83558E-05-2.90444E-05-2.97008E-05-4.31630E-06-8.41644E-19 1.42385E-20
 -1      2869 9.73471E-05-2.85649E-05-2.94840E-05-4.58499E-06-1.10551E-18 3.19241E-19
 -1      2870 9.98998E-05-3.00507E-05-2.99397E-05-4.71866E-06-9.04011E-19 1.59388E-18
 -1      2871 9.93091E-05-2.96378E-05-2.98513E-05-4.68335E-06-7.76780E-19 1.30486E-18
 -1      2872 9.81279E-05-2.91277E-05-2.95800E-05-5.08451E-06-1.10396E-18 1.10359E-18
 -1      2873 1.01211E-04-3.11171E-05-3.00531E-05-4.52875E-06-8.37339E-19 1.93128E-18
 -1      2874 1.00528E-04-3.05411E-05-2.99812E-05-4.73286E-06-4.41072E-19 1.97893E-18
 -1      2875 9.92099E-05-3.00470E-05-2.96534E-05-5.32649E-06-8.56149E-19 1.32333E-18
 -1      2876 1.02822E-04-3.25696E-05-3.01325E-05-3.69601E-06-9.23029E-19 2.13019E-18
 -1      2877 1.02065E-04-3.18244E-05-3.00829E-05-4.25430E-06-9.99352E-19 2.08710E-18
 -1      2878 1.00693E-04-3.14255E-05-2.97031E-05-5.11478E-06-7.43479E-19 1.71972E-18
 -1      2879 1.04709E-04-3.43581E-05-3.01883E-05-1.96479E-06-3.43679E-19 2.97424E-18
 -1      2880 1.03935E-04-3.34982E-05-3.01600E-05-2.99031E-06-7.89699E-19 2.55778E-18
 -1      2881 1.02666E-04-3.33178E-05-2.97425E-05-4.19238E-06-1.10778E-18 1.59681E-18
 -1      2882 1.06713E-04-3.62296E-05-3.02579E-05 8.75379E-07-5.99603E-19 2.29877E-18
 -1      2883 1.06052E-04-3.54242E-05-3.02377E-05-6.80206E-07-2.03356E-19 3.03471E-18
 -1      2884 1.05141E-04-3.56353E-05-2.98120E-05-2.26036E-06-3.77070E-19 2.56273E-18
 -1      2885 1.08443E-04-3.76080E-05-3.04122E-05 4.83687E-06-1.12961E-19 1.78789E-18
 -1      2886 1.08119E-04-3.71904E-05-3.03724E-05 2.82562E-06-1.07580E-19 2.28930E-18
 -1      2887 1.07936E-04-3.79987E-05-2.99900E-05 9.45451E-07-2.73771E-19 2.39896E-18
 -1      2888 1.09226E-04-3.75763E-05-3.07444E-05 9.46242E-06-3.61966E-19 1.04994E-18
 -1      2889 1.09530E-04-3.80103E-05-3.06486E-05 7.33274E-06-3.75474E-19 1.94916E-18
 -1      2890 1.10507E-04-3.95800E-05-3.03927E-05 5.45859E-06-3.35236E-19 2.23632E-18
 -1      2891 1.08305E-04-3.52098E-05-3.13195E-05 1.35412E-05-1.93852E-19 2.51552E-18
 -1      2892 1.09441E-04-3.68598E-05-3.11468E-05 1.19668E-05-6.42235E-19 1.99166E-18
 -1      2893 1.11892E-04-3.91437E-05-3.11400E-05 1.07060E-05-9.09122E-19 2.17270E-18
 -1      2894 1.05439E-04-3.04260E-05-3.20888E-05 1.51483E-05-9.91995E-19 2.79104E-18
 -1      2895 1.07248E-04-3.30937E-05-3.18662E-05 1.49980E-05-1.04733E-19 3.38600E-18
 -1      2896 1.11057E-04-3.56485E-05-3.22630E-05 1.50844E-05-4.51736E-19 3.49744E-18
 -1      2897 1.01565E-04-2.48132E-05-3.28265E-05 1.26155E-05 7.20699E-19 1.50977E-18
 -1      2898 1.03407E-04-2.74690E-05-3.26501E-05 1.44249E-05-7.04535E-19 2.16697E-18
 -1      2899 1.07853E-04-2.94031E-05-3.35902E-05 1.62276E-05-3.72297E-20 4.06754E-18
 -1      2900 9.88508E-05-2.14334E-05-3.31648E-05 6.18612E-06 1.26348E-18 1.83296E-18
 -1      2901 9.98534E-05-2.26087E-05-3.31612E-05 9.44064E-06 1.32657E-18 1.50668E-18
 -1      2902 1.03899E-04-2.30948E-05-3.46861E-05 1.22708E-05 1.08503E-18 2.80308E-18
 -1      2903 9.88745E-05-2.22977E-05-3.28804E-05-1.28905E-06 1.50353E-18 1.62279E-18
 -1      2904 9.86522E-05-2.13755E-05-3.30936E-05 1.96779E-06 1.40046E-18 1.33793E-18
 -1      2905 1.01873E-04-2.03314E-05-3.50405E-05 4.40148E-06 1.59441E-18 1.55886E-18
 -1      2906 1.01057E-04-2.64729E-05-3.20627E-05-6.24502E-06 1.05559E-18 6.77153E-19
 -1      2907 1.00091E-04-2.42776E-05-3.24212E-05-4.37417E-06 1.22812E-18 1.76400E-18
 -1      2908 1.03039E-04-2.27438E-05-3.44530E-05-3.36384E-06 1.55768E-18 1.11477E-19
 -1      2909 1.03177E-04-3.09129E-05-3.10455E-05-7.18859E-06 4.52084E-19 1.09269E-18
 -1      2910 1.02344E-04-2.89165E-05-3.14168E-05-7.03603E-06 8.50601E-19 1.76206E-18
 -1      2911 1.05764E-04-2.82453E-05-3.31849E-05-7.22351E-06 3.70627E-19-1.83164E-19
 -1      2912 1.03369E-04-3.31298E-05-3.01551E-05-5.26235E-06-1.48371E-18 3.17391E-18
 -1      2913 1.03312E-04-3.22697E-05-3.04447E-05-6.12646E-06-8.45976E-19 2.31150E-18
 -1      2914 1.07326E-04-3.30978E-05-3.17599E-05-6.54079E-06-7.30540E-19 1.39765E-18
 -1      2915 1.02505E-04-3.33520E-05-2.96662E-05-2.59491E-06-2.49623E-18 5.08209E-18
 -1      2916 1.03182E-04-3.34994E-05-2.99045E-05-3.65975E-06-1.81163E-18 4.14493E-18
 -1      2917 1.07295E-04-3.52266E-05-3.07993E-05-3.49668E-06-2.51065E-18 3.86067E-18
 -1      2918 1.05817E-04-3.50756E-05-3.02321E-05-4.65704E-08-2.17951E-18 3.87411E-18
 -1      2919 7.52275E-05-2.12889E-05-2.32204E-05 3.39591E-05 2.50272E-19 2.73475E-18
 -1      2920 8.74681E-05-2.83963E-05-2.47907E-05 3.82864E-05-5.89667E-19 4.12187E-18
 -1      2921 1.16589E-04-4.47791E-05-3.08375E-05-1.32708E-05-8.21198E-19 1.07320E-18
 -1      2922 1.13284E-04-4.15779E-05-3.06389E-05-1.46607E-05-1.64458E-18 1.21667E-18
 -1      2923 1.21105E-04-4.96788E-05-3.07432E-05-1.71630E-05 3.62396E-20 2.10112E-18
 -1      2924 1.12551E-04-4.25773E-05-2.99473E-05 2.74061E-05-2.35948E-18 7.61949E-20
 -1      2925 1.15247E-04-4.42159E-05-3.05369E-05 2.22606E-05-2.92684E-18 8.32031E-19
 -1      2926 5.80916E-05-9.21042E-06-2.08397E-05 1.23096E-05 3.39550E-18 4.62904E-19
 -1      2927 6.49407E-05-1.32200E-05-2.16363E-05 2.39723E-05 8.43883E-19 2.21811E-18
 -1      2928 9.89093E-05-3.58811E-05-2.70121E-05 3.69915E-05-1.87127E-18 2.39094E-18
 -1      2929 1.07299E-04-4.06812E-05-2.82831E-05 3.45654E-05-1.61778E-18 7.20428E-19
 -1      2930 1.14982E-04-4.78564E-05-2.87466E-05 3.19953E-05-3.38665E-18 4.19903E-19
 -1      2931 6.02602E-05-1.11961E-05-2.05390E-05-1.66586E-05 1.07633E-18-7.68280E-18
 -1      2932 5.58333E-05-8.65610E-06-1.99753E-05-4.00553E-06 2.86080E-18-4.45063E-18
 -1      2933 8.19275E-05-2.43247E-05-2.40513E-05-3.44517E-05 1.53186E-18-4.29096E-18
 -1      2934 7.01850E-05-1.77209E-05-2.25771E-05-2.83024E-05 9.56883E-19-5.63002E-18
 -1      2935 1.02801E-04-3.72730E-05-2.77434E-05-3.36918E-05 9.10428E-19-1.17008E-18
 -1      2936 9.33809E-05-3.21125E-05-2.64098E-05-3.52663E-05 1.03628E-18-2.96462E-18
 -1      2937 9.47282E-05-2.74153E-05-2.88506E-05 3.87154E-07 1.04762E-18-4.07207E-19
 -1      2938 9.49044E-05-2.71219E-05-2.90231E-05 9.88978E-07 1.14972E-18-3.71237E-19
 -1      2939 9.52552E-05-2.64989E-05-2.94713E-05 1.73299E-06 1.32089E-18-7.53356E-19
 -1      2940 9.51302E-05-2.73769E-05-2.90443E-05 3.76260E-07 1.06942E-18-6.99032E-19
 -1      2941 1.08562E-04-5.74796E-05-2.13107E-05-4.57921E-05 1.17918E-18-3.45761E-18
 -1      2942 1.22054E-04-6.31184E-05-2.53891E-05-4.11246E-05 1.65595E-18-4.75471E-18
 -1      2943 8.89642E-05-4.15890E-05-2.04595E-05 4.72669E-05-2.20769E-18 4.66038E-18
 -1      2944 7.45819E-05-3.27400E-05-1.70966E-05 4.43995E-05-1.28114E-18 3.60730E-18
 -1      2945 4.45130E-05-1.89383E-05-1.01266E-05-2.54369E-05 8.80332E-19-7.56909E-18
 -1      2946 5.28236E-05-2.47275E-05-1.15478E-05-3.57489E-05 1.99053E-19-5.77380E-18
 -1      2947 9.47092E-05-2.19078E-05-3.12073E-05 7.84109E-06 2.29149E-18-6.25894E-19
 -1      2948 1.33131E-04-6.62411E-05-2.84278E-05-3.30270E-05 1.86072E-18-3.69899E-18
 -1      2949 1.41677E-04-6.64358E-05-3.27009E-05-2.49504E-05 2.21192E-18-2.00832E-18
 -1      2950 1.27528E-04-6.31141E-05-2.73427E-05-3.44421E-05 2.00969E-18-3.11406E-18
 -1      2951 9.44742E-05-2.83142E-05-2.83537E-05-1.09448E-06 4.30905E-19-8.61604E-19
 -1      2952 9.44443E-05-2.82244E-05-2.83736E-05-1.02625E-06 7.73427E-19-7.75695E-19
 -1      2953 9.48963E-05-2.84493E-05-2.84818E-05-1.11045E-06 3.70137E-19-3.36815E-19
 -1      2954 9.44787E-05-2.81309E-05-2.84346E-05-8.91321E-07 9.31223E-19-7.00825E-19
 -1      2955 9.44952E-05-2.80033E-05-2.84854E-05-7.16397E-07 9.67978E-19-4.74100E-19
 -1      2956 9.49308E-05-2.82426E-05-2.85869E-05-9.04009E-07 9.20936E-19-2.70457E-19
 -1      2957 1.24472E-04-6.34427E-05-2.58260E-05-2.60319E-05-6.31463E-19-3.04117E-18
 -1      2958 1.34744E-04-6.43015E-05-3.07016E-05-1.68409E-05 4.48716E-19-1.52551E-18
 -1      2959 1.28994E-04-8.08484E-06-5.24675E-05 6.61391E-06 3.43917E-18-1.70545E-18
 -1      2960 1.29670E-04-9.14941E-06-5.22810E-05-2.80150E-07 3.30555E-18-2.27465E-18
 -1      2961 9.11728E-05-1.60876E-05-3.22074E-05 4.91748E-06 1.51887E-18-2.33175E-18
 -1      2962 9.08306E-05-1.55892E-05-3.22680E-05 3.99529E-06 1.17189E-18-2.48917E-18
 -1      2963 9.18089E-05-1.72006E-05-3.19596E-05 3.19841E-06 1.02856E-18-2.37718E-18
 -1      2964 9.24788E-05-1.82604E-05-3.17876E-05 4.61500E-06 1.47251E-18-2.07025E-18
 -1      2965 1.31341E-04-6.64381E-05-2.80899E-05 1.63801E-05-3.18379E-19-4.48541E-18
 -1      2966 1.15760E-04-6.18137E-05-2.26783E-05 2.58018E-05-1.09055E-19-3.42307E-18
 -1      2967 1.12306E-04-4.12137E-05-3.04833E-05-1.95042E-05-1.64080E-18 1.72815E-18
 -1      2968 9.07939E-05-1.55394E-05-3.22731E-05-3.93106E-06-6.11309E-19-2.62514E-18
 -1      2969 9.11295E-05-1.60258E-05-3.22141E-05-4.85360E-06-8.98643E-19-2.53535E-18
 -1      2970 1.42301E-04-5.91614E-05-3.55051E-05-3.28438E-06 1.44365E-18-9.63182E-19
 -1      2971 1.45266E-04-5.16170E-05-4.07818E-05 6.09178E-06 2.35065E-18 3.03873E-20
 -1      2972 3.40894E-05-1.70446E-05-6.81976E-06 8.92997E-06-6.55471E-19-2.22897E-18
 -1      2973 2.92287E-05-1.63814E-05-4.68675E-06-5.34864E-06-5.37337E-20-3.09273E-18
 -1      2974 1.42933E-04-4.15584E-05-4.36191E-05 1.41886E-05 2.81374E-18 1.45944E-18
 -1      2975 1.38045E-04-3.14004E-05-4.65108E-05 1.74741E-05 2.56662E-18 1.27510E-18
 -1      2976 9.47052E-05-5.33129E-05-1.72439E-05-3.98132E-05-1.19538E-19-3.58104E-18
 -1      2977 1.10657E-04-6.01953E-05-2.17724E-05-3.56338E-05-7.06320E-19-4.49710E-18
 -1      2978 9.20379E-05-1.66581E-05-3.23133E-05-9.02176E-06-1.99747E-18-1.89487E-18
 -1      2979 1.44888E-04-5.69148E-05-3.83131E-05 8.07712E-06-3.76957E-18-8.89385E-19
 -1      2980 1.40480E-04-6.07956E-05-3.36475E-05 1.85006E-05-3.85231E-18-1.00691E-18
 -1      2981 1.32579E-04-1.92126E-05-4.89795E-05 1.72833E-05 2.30478E-18-2.68509E-19
 -1      2982 1.29506E-04-1.20863E-05-5.10694E-05 1.25867E-05 2.58366E-18-1.50581E-18
 -1      2983 1.41399E-04-3.69667E-05-4.55458E-05-6.75664E-06-5.10337E-19-2.84942E-18
 -1      2984 1.44906E-04-4.73311E-05-4.18350E-05-1.68572E-06-2.46995E-18-2.31219E-18
 -1      2985 5.96846E-05-3.50878E-05-9.99719E-06-3.84407E-05 1.03762E-20-5.93707E-18
 -1      2986 7.63696E-05-4.45069E-05-1.34766E-05-4.25504E-05 6.70215E-20-4.71003E-18
 -1      2987 1.29666E-04-6.27304E-05-2.93804E-05 3.42453E-05-2.90162E-18 1.74536E-18
 -1      2988 1.14061E-04-5.58743E-05-2.41767E-05 4.29146E-05-3.57363E-18 3.33859E-18
 -1      2989 1.31449E-04-1.52387E-05-5.05909E-05-5.37926E-06 2.55253E-18-4.42559E-18
 -1      2990 1.35289E-04-2.37936E-05-4.80624E-05-8.73712E-06 1.41942E-18-3.71964E-18
 -1      2991 9.15537E-05-1.66668E-05-3.21139E-05-5.58024E-06-1.05074E-18-2.42137E-18
 -1      2992 9.20325E-05-1.73706E-05-3.20224E-05-6.40911E-06-1.35535E-18-2.28858E-18
 -1      2993 9.24240E-05-1.81812E-05-3.17971E-05-4.57712E-06-8.86705E-19-2.24686E-18
 -1      2994 9.12833E-05-1.63906E-05-3.20847E-05 2.84102E-08 2.99589E-19-2.79840E-18
 -1      2995 9.01606E-05-1.46008E-05-3.24022E-05-3.83034E-07 1.99228E-19-2.95319E-18
 -1      2996 9.02173E-05-1.46810E-05-3.23922E-05-1.34049E-06-4.67798E-20-2.81758E-18
 -1      2997 4.50485E-05-1.51270E-05-1.21898E-05-1.59399E-05 1.02835E-18-7.48798E-18
 -1      2998 1.24228E-04-1.36565E-05-4.78492E-05-3.17631E-06 1.98216E-18-3.47151E-18
 -1      2999 1.32552E-04-5.96066E-05-3.14468E-05 2.43077E-05-1.56542E-18 3.54536E-19
 -1      3000 6.71981E-05-2.50355E-05-1.74170E-05 3.84821E-05-6.58833E-19 2.81067E-18
 -1      3001 1.08859E-04-5.67291E-05-2.20808E-05 2.64865E-05-5.75771E-19-3.90228E-18
 -1      3002 5.34462E-05-2.94760E-05-9.73730E-06-3.43767E-05 6.73391E-19-4.49563E-18
 -1      3003 6.49556E-05-3.28042E-05-1.33733E-05-3.48440E-05 4.24946E-19-4.18953E-18
 -1      3004 4.79611E-05-2.33249E-05-1.01282E-05-2.78761E-05 1.28675E-18-3.92028E-18
 -1      3005 1.32928E-04-3.08081E-05-4.41386E-05-8.27068E-06 1.13926E-19-3.82817E-18
 -1      3006 1.28887E-04-5.44174E-05-3.18623E-05-4.43517E-06 8.20158E-19-1.36108E-18
 -1      3007 1.31346E-04-5.39918E-05-3.32588E-05-9.99852E-06 7.18704E-19-1.13760E-18
 -1      3008 1.31840E-04-1.89846E-05-4.93425E-05-1.90765E-05-2.26348E-18-1.85500E-18
 -1      3009 1.36876E-04-3.43601E-05-4.42548E-05 9.95276E-06 5.96417E-19-2.43469E-18
 -1      3010 1.20462E-04-4.75299E-05-3.10471E-05 1.73480E-05-2.54242E-18-8.14723E-19
 -1      3011 1.14836E-04-4.19481E-05-3.10996E-05 1.49683E-05-2.47958E-18-1.69049E-18
 -1      3012 1.13505E-04-4.11435E-05-3.10852E-05 1.01323E-05-2.53422E-18 2.34724E-19
 -1      3013 1.36401E-04-5.73826E-05-3.41111E-05-9.06320E-06 1.21696E-18-4.97533E-19
 -1      3014 5.45429E-05-2.24600E-05-1.33451E-05 2.04768E-05-8.67137E-19-9.63500E-19
 -1      3015 4.34201E-05-1.92597E-05-9.65751E-06 1.66610E-05-6.55233E-19-1.64811E-18
 -1      3016 4.29726E-05-1.56949E-05-1.13326E-05 7.09622E-06 3.83944E-19-2.73359E-18
 -1      3017 1.30144E-04-2.66811E-05-4.47162E-05 1.81929E-05 1.95929E-18-4.62745E-19
 -1      3018 7.49993E-05-3.80010E-05-1.53246E-05 3.15405E-05-1.69475E-18-1.77972E-18
 -1      3019 9.50104E-05-2.79133E-05-2.87639E-05-4.49823E-07 9.94282E-19-5.47607E-19
 -1      3020 6.77129E-05-2.09145E-05-1.95741E-05 3.24671E-05 6.27704E-19 2.93571E-18
 -1      3021 8.89006E-05-4.81793E-05-1.70705E-05-3.84931E-05-1.57336E-19-3.63224E-18
 -1      3022 5.15230E-05-1.08822E-05-1.66987E-05 4.57509E-06 2.30275E-18-3.07145E-18
 -1      3023 1.11157E-04-3.87748E-05-3.09515E-05 6.15693E-06-1.51319E-18 1.48936E-18
 -1      3024 1.08588E-04-3.72573E-05-3.06337E-05 2.55982E-06-1.65037E-18 1.70902E-18
 -1      3025 1.09754E-04-3.76972E-05-3.09255E-05 7.66787E-07-2.32631E-18 2.93644E-18
 -1      3026 1.15898E-04-4.21793E-05-3.15301E-05 6.85366E-06-2.65499E-18-4.29439E-20
 -1      3027 1.45424E-04-5.99850E-05-3.70121E-05-5.72666E-06 1.77824E-19-4.17428E-18
 -1      3028 1.40122E-04-6.45656E-05-3.23560E-05 3.52325E-06 6.54333E-20-3.87931E-18
 -1      3029 1.39327E-04-4.71584E-05-3.97346E-05 1.18126E-05 2.86159E-18 1.18299E-18
 -1      3030 1.34480E-04-6.37675E-05-3.02258E-05 5.93602E-06-1.80789E-19-4.37037E-18
 -1      3031 8.88027E-05-3.34031E-05-2.34003E-05-3.82335E-05 1.69539E-18-4.64163E-18
 -1      3032 1.11465E-04-4.16410E-05-2.97985E-05-2.44545E-05-1.63478E-18 1.03234E-18
 -1      3033 1.07372E-04-3.95627E-05-2.90697E-05-2.95199E-05 2.94592E-19-4.90882E-20
 -1      3034 1.07792E-04-4.33843E-05-2.73694E-05-3.38374E-05 7.45336E-19-1.45428E-18
 -1      3035 1.15637E-04-4.60879E-05-2.96652E-05-2.41164E-05-3.50334E-19 7.26053E-19
 -1      3036 1.01648E-04-4.45879E-05-2.41530E-05 4.17198E-05-1.23561E-18 3.90151E-18
 -1      3037 4.38707E-05-1.59940E-05-1.12205E-05 1.77952E-05-9.08813E-19 7.66141E-19
 -1      3038 6.69657E-05-2.98750E-05-1.52752E-05-3.91438E-05 6.49463E-19-5.47332E-18
 -1      3039 3.67273E-05-1.71195E-05-7.79659E-06-1.17450E-05 1.29155E-18-4.56170E-18
 -1      3040 1.44033E-04-6.41229E-05-3.44034E-05-1.53341E-05 1.63753E-18-1.77199E-18
 -1      3041 9.43556E-05-2.14241E-05-3.12606E-05 7.21472E-06 2.11679E-18-1.01907E-18
 -1      3042 1.22922E-04-1.17272E-05-4.81181E-05 1.01053E-05 2.83428E-18-1.75238E-18
 -1      3043 9.99063E-05-5.05726E-05-2.06461E-05-4.58163E-05 6.95414E-19-4.31468E-18
 -1      3044 1.44314E-04-4.50827E-05-4.29330E-05-2.00001E-05-1.95887E-18-2.01033E-18
 -1      3045 9.03427E-05-1.48721E-05-3.23646E-05-2.17690E-06-2.12974E-19-2.67883E-18
 -1      3046 9.05276E-05-1.51358E-05-3.23326E-05-3.12744E-06-4.56658E-19-2.68356E-18
 -1      3047 9.17772E-05-1.71572E-05-3.19647E-05-3.14200E-06-4.43621E-19-2.46954E-18
 -1      3048 9.14017E-05-1.65739E-05-3.20561E-05-1.58271E-06-1.10694E-19-2.59194E-18
 -1      3049 1.18441E-04-6.09445E-05-2.43997E-05-2.76830E-05-3.48025E-19-2.49247E-18
 -1      3050 9.46139E-05-2.24661E-05-3.09131E-05 5.69090E-06 1.77526E-18-1.17266E-18
 -1      3051 1.37165E-04-6.09981E-05-3.26305E-05-6.81837E-06 7.80250E-19-1.31195E-18
 -1      3052 1.46105E-04-5.57136E-05-3.90599E-05-1.30093E-05-8.01823E-19-3.07695E-18
 -1      3053 9.28217E-05-1.84315E-05-3.18800E-05-7.46994E-06-1.72341E-18-1.87345E-18
 -1      3054 1.40408E-04-5.07473E-05-3.85198E-05 9.96037E-07-2.75995E-18-1.85294E-18
 -1      3055 1.40890E-04-5.72775E-05-3.58215E-05-1.09786E-05-5.52471E-19-3.31492E-18
 -1      3056 1.26567E-04-5.64765E-05-3.00675E-05 2.80875E-06 1.10286E-18-2.57236E-18
 -1      3057 1.17563E-04-1.37193E-05-4.47101E-05 1.30477E-05 2.21033E-18-1.11014E-18
 -1      3058 1.17037E-04-1.11923E-05-4.58235E-05 6.04661E-06 2.81840E-18-1.91097E-18
 -1      3059 9.42739E-05-2.18515E-05-3.10598E-05 4.97361E-06 1.63649E-18-1.41233E-18
 -1      3060 9.38148E-05-2.09095E-05-3.12454E-05 4.62494E-06 1.46810E-18-1.72396E-18
 -1      3061 5.32970E-05-1.67302E-05-1.52902E-05 2.79804E-05 1.87141E-19 2.47969E-18
 -1      3062 9.50945E-05-2.39239E-05-3.04985E-05-3.67372E-06-1.12007E-18-1.27524E-18
 -1      3063 9.52594E-05-2.49201E-05-3.01631E-05-2.58312E-06-9.79733E-19-1.20530E-18
 -1      3064 9.55586E-05-2.58183E-05-2.98753E-05-1.81485E-06-9.29380E-19-1.11778E-18
 -1      3065 9.55970E-05-2.64747E-05-2.96355E-05-1.07817E-06-9.59704E-19-1.21551E-18
 -1      3066 9.53604E-05-2.48113E-05-3.02314E-05-2.27747E-06-9.40194E-19-1.40416E-18
 -1      3067 9.57250E-05-2.70476E-05-2.94205E-05-5.37614E-07-7.81373E-19-1.07358E-18
 -1      3068 9.57051E-05-2.74679E-05-2.92517E-05-6.37394E-08-6.15001E-19-9.72513E-19
 -1      3069 9.57781E-05-2.64266E-05-2.97230E-05-9.34798E-07-8.07106E-19-1.31724E-18
 -1      3070 9.57399E-05-2.78293E-05-2.90949E-05 2.80001E-07-7.39317E-19-1.01859E-18
 -1      3071 9.57070E-05-2.80977E-05-2.89793E-05 5.60669E-07-7.57881E-19-9.74429E-19
 -1      3072 9.59463E-05-2.74845E-05-2.93436E-05-2.02377E-08-7.42502E-19-1.23688E-18
 -1      3073 9.56942E-05-2.83205E-05-2.88676E-05 7.56180E-07-5.99819E-19-8.54279E-19
 -1      3074 9.56643E-05-2.84892E-05-2.87910E-05 9.01677E-07-7.10851E-19-6.85802E-19
 -1      3075 9.59760E-05-2.81611E-05-2.90669E-05 5.47641E-07-7.05653E-19-8.28109E-19
 -1      3076 9.56289E-05-2.86203E-05-2.87135E-05 9.92556E-07-6.03243E-19-4.23537E-19
 -1      3077 9.56064E-05-2.87220E-05-2.86650E-05 1.04771E-06-4.79034E-19-2.54731E-19
 -1      3078 9.59358E-05-2.85802E-05-2.88699E-05 8.58699E-07-5.68105E-19-6.30565E-19
 -1      3079 9.55621E-05-2.87920E-05-2.86131E-05 1.06901E-06-5.99852E-19-2.30293E-19
 -1      3080 9.55469E-05-2.88484E-05-2.85845E-05 1.06693E-06-5.63948E-19-5.09049E-19
 -1      3081 9.58632E-05-2.88249E-05-2.87336E-05 9.91086E-07-5.43345E-19-6.55191E-19
 -1      3082 9.55012E-05-2.88780E-05-2.85514E-05 1.04516E-06-5.53696E-19-3.45280E-19
 -1      3083 9.54920E-05-2.89037E-05-2.85368E-05 1.00967E-06-4.07960E-19-3.36742E-19
 -1      3084 9.57791E-05-2.89519E-05-2.86427E-05 1.00671E-06-5.89359E-19-4.92140E-19
 -1      3085 9.54487E-05-2.89070E-05-2.85174E-05 9.64136E-07-3.57376E-19-3.65177E-19
 -1      3086 9.54438E-05-2.89121E-05-2.85123E-05 9.12063E-07-2.52873E-19-4.66447E-19
 -1      3087 9.56947E-05-2.90002E-05-2.85853E-05 9.52015E-07-2.42744E-19-4.37393E-19
 -1      3088 9.54047E-05-2.88984E-05-2.85028E-05 8.56472E-07-1.90924E-19-6.64218E-19
 -1      3089 9.54029E-05-2.88896E-05-2.85042E-05 7.99527E-07-1.21236E-19-7.88146E-19
 -1      3090 9.56157E-05-2.89968E-05-2.85526E-05 8.60696E-07-3.04734E-19-7.35039E-19
 -1      3091 9.53685E-05-2.88652E-05-2.85019E-05 7.43456E-07-2.47722E-19-5.68607E-19
 -1      3092 9.53689E-05-2.88472E-05-2.85078E-05 6.89777E-07-5.26292E-19-4.19151E-19
 -1      3093 9.55447E-05-2.89597E-05-2.85377E-05 7.56667E-07-1.63558E-19-8.41537E-19
 -1      3094 9.53389E-05-2.88157E-05-2.85107E-05 6.39907E-07-4.64431E-19-2.26792E-19
 -1      3095 9.53409E-05-2.87912E-05-2.85198E-05 5.95234E-07-7.42405E-19-1.74181E-19
 -1      3096 9.54821E-05-2.89007E-05-2.85359E-05 6.56735E-07-3.90610E-19-8.83889E-19
 -1      3097 9.53146E-05-2.87547E-05-2.85266E-05 5.56349E-07-8.45003E-19 2.93883E-20
 -1      3098 9.53177E-05-2.87250E-05-2.85381E-05 5.24953E-07-4.89256E-19 1.23175E-19
 -1      3099 9.54271E-05-2.88268E-05-2.85438E-05 5.72843E-07-4.66860E-19-2.74113E-20
 -1      3100 9.52939E-05-2.86842E-05-2.85481E-05 5.00731E-07-4.26070E-19-3.34058E-19
 -1      3101 9.52979E-05-2.86497E-05-2.85618E-05 4.86125E-07-2.03372E-19-3.81262E-19
 -1      3102 9.53779E-05-2.87410E-05-2.85593E-05 5.13853E-07-8.32447E-19-1.22043E-19
 -1      3103 9.52751E-05-2.86040E-05-2.85746E-05 4.79750E-07-1.25650E-19-1.13887E-19
 -1      3104 9.52799E-05-2.85643E-05-2.85906E-05 4.85250E-07-1.95770E-19-2.23025E-19
 -1      3105 9.53319E-05-2.86440E-05-2.85810E-05 4.86956E-07-1.00069E-19-1.86309E-19
 -1      3106 9.52562E-05-2.85123E-05-2.86060E-05 4.99891E-07-4.23870E-19-1.69863E-19
 -1      3107 9.52617E-05-2.84660E-05-2.86247E-05 5.29043E-07-6.06865E-19-3.87516E-19
 -1      3108 9.52859E-05-2.85338E-05-2.86083E-05 4.98771E-07-2.85111E-19-7.24023E-20
 -1      3109 9.52348E-05-2.84056E-05-2.86428E-05 5.68202E-07-1.35201E-19-5.82728E-19
 -1      3110 9.52408E-05-2.83511E-05-2.86646E-05 6.25101E-07 5.52916E-19-6.81114E-19
 -1      3111 9.52357E-05-2.84066E-05-2.86412E-05 5.56169E-07-3.27721E-19 1.09728E-19
 -1      3112 9.52078E-05-2.82793E-05-2.86857E-05 6.92860E-07 6.40529E-19-8.49766E-19
 -1      3113 9.52140E-05-2.82144E-05-2.87113E-05 7.82362E-07 7.13864E-19-8.92499E-19
 -1      3114 9.51762E-05-2.82571E-05-2.86796E-05 6.66858E-07 4.78869E-19-2.24194E-19
 -1      3115 9.51714E-05-2.81279E-05-2.87355E-05 8.83529E-07 6.79708E-19-1.43762E-18
 -1      3116 9.51772E-05-2.80498E-05-2.87656E-05 1.01137E-06 6.27093E-19-1.25877E-18
 -1      3117 9.51014E-05-2.80786E-05-2.87238E-05 8.39752E-07 4.64164E-19-1.25421E-18
 -1      3118 9.51205E-05-2.79447E-05-2.87929E-05 1.15152E-06 5.12014E-19-1.04704E-18
 -1      3119 9.51249E-05-2.78507E-05-2.88278E-05 1.32433E-06 2.42667E-19-1.08650E-18
 -1      3120 9.50032E-05-2.78634E-05-2.87736E-05 1.08513E-06 4.98679E-19-1.64316E-18
 -1      3121 9.50484E-05-2.77228E-05-2.88579E-05 1.50973E-06-3.65187E-19-1.38906E-18
 -1      3122 9.50496E-05-2.76101E-05-2.88981E-05 1.73485E-06-5.95269E-19-1.40586E-18
 -1      3123 9.48720E-05-2.76029E-05-2.88285E-05 1.41453E-06-2.71080E-19-1.58983E-18
 -1      3124 9.49464E-05-2.74551E-05-2.89299E-05 1.97225E-06-5.18899E-19-1.24914E-18
 -1      3125 9.49419E-05-2.73213E-05-2.89750E-05 2.25742E-06-4.91877E-19-1.38570E-18
 -1      3126 9.46952E-05-2.72884E-05-2.88868E-05 1.84045E-06-7.46055E-19-1.30431E-18
 -1      3127 9.48033E-05-2.71358E-05-2.90067E-05 2.55374E-06-4.17668E-19-1.81497E-18
 -1      3128 9.47898E-05-2.69800E-05-2.90554E-05 2.90646E-06-6.19696E-19-1.40545E-18
 -1      3129 9.44576E-05-2.69124E-05-2.89452E-05 2.37567E-06-8.93322E-19-1.86608E-18
 -1      3130 9.46058E-05-2.67622E-05-2.90837E-05 3.26833E-06-4.74819E-19-7.64978E-19
 -1      3131 9.45798E-05-2.65866E-05-2.91332E-05 3.69498E-06-4.31471E-19-1.51680E-19
 -1      3132 9.41410E-05-2.64698E-05-2.89979E-05 3.03241E-06-1.55418E-19-1.03732E-18
 -1      3133 9.43397E-05-2.63390E-05-2.91528E-05 4.12836E-06-6.74821E-19-5.46714E-19
 -1      3134 9.42986E-05-2.61520E-05-2.91983E-05 4.63290E-06 2.73289E-19-4.21965E-19
 -1      3135 9.37251E-05-2.59622E-05-2.90355E-05 3.82152E-06-4.49649E-19-5.27418E-19
 -1      3136 9.39936E-05-2.58853E-05-2.92007E-05 5.14300E-06 5.29083E-19-8.60311E-19
 -1      3137 9.39394E-05-2.57068E-05-2.92343E-05 5.72542E-06 7.06871E-19-1.50406E-18
 -1      3138 9.31901E-05-2.54040E-05-2.90434E-05 4.75195E-06-1.74404E-19-1.61398E-18
 -1      3139 9.35666E-05-2.54464E-05-2.92074E-05 6.31737E-06 6.97788E-19-2.39522E-18
 -1      3140 9.35134E-05-2.53169E-05-2.92176E-05 6.97204E-06 2.40784E-19-2.58589E-18
 -1      3141 9.25228E-05-2.48326E-05-2.90002E-05 5.83183E-06-1.28554E-19-3.04278E-18
 -1      3142 9.30853E-05-2.51143E-05-2.91446E-05 7.65322E-06 1.20581E-18-2.40434E-18
 -1      3143 9.30730E-05-2.51092E-05-2.91153E-05 8.36728E-06 1.76440E-18-2.46413E-18
 -1      3144 9.17293E-05-2.43257E-05-2.88757E-05 7.07252E-06 9.54452E-19-3.51865E-18
 -1      3145 9.26336E-05-2.50582E-05-2.89748E-05 9.15211E-06 1.52610E-18-2.17744E-18
 -1      3146 9.27520E-05-2.53090E-05-2.88869E-05 9.90370E-06 1.30767E-18-1.38242E-18
 -1      3147 9.08583E-05-2.40283E-05-2.86299E-05 8.49819E-06 1.73214E-18-1.88338E-18
 -1      3148 9.24057E-05-2.55699E-05-2.86540E-05 1.08203E-05 1.18061E-18-1.38038E-18
 -1      3149 9.28334E-05-2.62926E-05-2.84903E-05 1.15734E-05 6.55350E-19-1.03015E-18
 -1      3150 9.00421E-05-2.41928E-05-2.82139E-05 1.01625E-05 1.30030E-18-1.29524E-18
 -1      3151 9.27945E-05-2.71229E-05-2.81433E-05 1.26643E-05 2.50322E-19-9.13317E-19
 -1      3152 9.38460E-05-2.86464E-05-2.79003E-05 1.33507E-05 5.16427E-19-1.02597E-18
 -1      3153 8.95692E-05-2.52387E-05-2.75760E-05 1.21678E-05 5.78646E-19-9.05696E-19
 -1      3154 9.45154E-05-3.04074E-05-2.74361E-05 1.46243E-05 4.29436E-19-1.75975E-18
 -1      3155 9.66742E-05-3.31660E-05-2.71532E-05 1.50944E-05 1.85305E-19-2.06035E-18
 -1      3156 9.00252E-05-2.78540E-05-2.66813E-05 1.46473E-05-3.91579E-20-7.44671E-19
 -1      3157 9.87953E-05-3.63744E-05-2.66336E-05 1.64354E-05 6.72986E-19-2.12142E-18
 -1      3158 1.02703E-04-4.07451E-05-2.64632E-05 1.62653E-05 8.90701E-19-1.98821E-18
 -1      3159 9.23821E-05-3.29158E-05-2.55693E-05 1.76434E-05 1.46805E-19-1.69514E-18
 -1      3160 1.07235E-04-4.56599E-05-2.61321E-05 1.69509E-05 7.88151E-19-1.97794E-18
 -1      3161 1.13109E-04-5.14350E-05-2.63811E-05 1.54471E-05 1.29061E-18-2.25493E-18
 -1      3162 9.84923E-05-4.16678E-05-2.45079E-05 2.06660E-05 7.37408E-19-8.41660E-19
 -1      3163 1.36812E-04-5.69578E-05-3.43390E-05-9.47983E-06-1.97729E-20-2.13741E-18
 -1      3164 9.52734E-05-2.85714E-05-2.85870E-05-1.07826E-06 1.55834E-19-5.07189E-19
 -1      3165 9.52846E-05-2.84672E-05-2.86304E-05-1.00795E-06 6.26873E-19-3.67296E-19
 -1      3166 9.52423E-05-2.87065E-05-2.85150E-05-1.11994E-06 3.61564E-19-8.32802E-19
 -1      3167 9.52392E-05-2.86436E-05-2.85377E-05-1.11511E-06 1.65365E-19-6.16352E-19
 -1      3168 9.55837E-05-2.86825E-05-2.86754E-05-1.04375E-06 3.32418E-19-6.60485E-19
 -1      3169 9.52098E-05-2.87998E-05-2.84603E-05-8.56068E-07 1.98397E-19-4.02900E-19
 -1      3170 9.51908E-05-2.87978E-05-2.84544E-05-9.17080E-07 6.19751E-19-6.27255E-19
 -1      3171 9.52108E-05-2.87776E-05-2.84701E-05-7.36706E-07 3.75866E-20 1.94436E-20
 -1      3172 9.51914E-05-2.87848E-05-2.84607E-05-7.96042E-07 2.40984E-19-1.60437E-19
 -1      3173 9.53846E-05-2.88844E-05-2.85012E-05-8.29767E-07 7.15320E-20-6.08859E-19
 -1      3174 9.52149E-05-2.87424E-05-2.84869E-05-6.29721E-07 1.33042E-20-5.19951E-20
 -1      3175 9.51959E-05-2.87560E-05-2.84752E-05-6.81308E-07 1.46923E-19 1.93870E-19
 -1      3176 9.53524E-05-2.88456E-05-2.85037E-05-7.17530E-07 2.10372E-19-4.71657E-19
 -1      3177 9.52211E-05-2.86980E-05-2.85086E-05-5.44670E-07 1.42672E-19-8.02032E-20
 -1      3178 9.52027E-05-2.87164E-05-2.84952E-05-5.84181E-07 1.81063E-20-1.52025E-19
 -1      3179 9.53261E-05-2.87925E-05-2.85150E-05-6.18762E-07 4.96561E-20-4.34767E-19
 -1      3180 9.52291E-05-2.86460E-05-2.85341E-05-4.88744E-07-4.27903E-20 2.37827E-21
 -1      3181 9.52110E-05-2.86684E-05-2.85194E-05-5.12844E-07 1.12186E-19 6.23667E-20
 -1      3182 9.53042E-05-2.87292E-05-2.85326E-05-5.43051E-07 9.27010E-20-3.65980E-19
 -1      3183 9.52388E-05-2.85870E-05-2.85635E-05-4.68006E-07-2.16403E-19-5.67842E-19
 -1      3184 9.52204E-05-2.86131E-05-2.85472E-05-4.73784E-07 3.87560E-20-3.05648E-19
 -1      3185 9.52854E-05-2.86569E-05-2.85555E-05-4.97784E-07 2.12065E-19-3.53587E-19
 -1      3186 9.52507E-05-2.85202E-05-2.85969E-05-4.88292E-07-4.67842E-19-5.20509E-19
 -1      3187 9.52308E-05-2.85502E-05-2.85787E-05-4.72853E-07-4.58418E-19-6.47642E-19
 -1      3188 9.52684E-05-2.85757E-05-2.85829E-05-4.89340E-07-2.30242E-19-1.41182E-18
 -1      3189 9.52652E-05-2.84444E-05-2.86354E-05-5.55830E-07 5.70210E-19-3.81235E-19
 -1      3190 9.52426E-05-2.84786E-05-2.86146E-05-5.16031E-07 9.03440E-20-2.76868E-19
 -1      3191 9.52518E-05-2.84840E-05-2.86151E-05-5.23960E-07-2.80060E-19-8.96448E-19
 -1      3192 9.52835E-05-2.83582E-05-2.86797E-05-6.77588E-07 5.75517E-19-3.61281E-19
 -1      3193 9.52563E-05-2.83970E-05-2.86556E-05-6.09907E-07 7.84758E-19-4.30869E-19
 -1      3194 9.52341E-05-2.83796E-05-2.86522E-05-6.08329E-07 4.98338E-19-4.34315E-19
 -1      3195 9.53071E-05-2.82608E-05-2.87311E-05-8.61324E-07 6.01487E-19 6.18072E-19
 -1      3196 9.52733E-05-2.83040E-05-2.87029E-05-7.61894E-07 6.11044E-19 2.55351E-19
 -1      3197 9.52142E-05-2.82605E-05-2.86947E-05-7.49897E-07 2.40311E-19 3.43122E-19
 -1      3198 9.53384E-05-2.81523E-05-2.87905E-05-1.11528E-06 8.49436E-19 1.02211E-18
 -1      3199 9.52952E-05-2.81992E-05-2.87575E-05-9.80120E-07 8.03061E-19 9.58125E-19
 -1      3200 9.51912E-05-2.81249E-05-2.87430E-05-9.56888E-07 2.76523E-19 1.37558E-18
 -1      3201 9.53812E-05-2.80355E-05-2.88582E-05-1.44746E-06 5.66004E-19 6.07149E-19
 -1      3202 9.53252E-05-2.80840E-05-2.88201E-05-1.27294E-06 9.49336E-19 1.01813E-18
 -1      3203 9.51653E-05-2.79729E-05-2.87970E-05-1.23797E-06 8.37415E-19 1.65169E-18
 -1      3204 9.54413E-05-2.79172E-05-2.89341E-05-1.86426E-06 4.97058E-19-1.88104E-19
 -1      3205 9.53681E-05-2.79628E-05-2.88907E-05-1.64793E-06 6.04489E-19-7.41191E-21
 -1      3206 9.51380E-05-2.78079E-05-2.88561E-05-1.60152E-06 8.87609E-19 1.14219E-18
 -1      3207 9.55286E-05-2.78103E-05-2.90168E-05-2.36850E-06-3.34043E-20-4.57699E-19
 -1      3208 9.54317E-05-2.78452E-05-2.89685E-05-2.11031E-06 4.57066E-19-2.93300E-19
 -1      3209 9.51143E-05-2.76384E-05-2.89186E-05-2.05433E-06 4.58232E-19 4.08819E-19
 -1      3210 9.56583E-05-2.77375E-05-2.91032E-05-2.95632E-06-2.48169E-19-9.56866E-19
 -1      3211 9.55289E-05-2.77489E-05-2.90514E-05-2.66042E-06-2.08487E-19-8.77102E-19
 -1      3212 9.51036E-05-2.74813E-05-2.89816E-05-2.59967E-06 1.67804E-19-3.94338E-19
 -1      3213 9.58553E-05-2.77352E-05-2.91884E-05-3.61308E-06-4.48811E-19-5.49937E-19
 -1      3214 9.56804E-05-2.77032E-05-2.91354E-05-3.29025E-06-3.25226E-20-1.18503E-18
 -1      3215 9.51240E-05-2.73657E-05-2.90404E-05-3.23454E-06-2.64486E-19-6.29448E-19
 -1      3216 9.61587E-05-2.78590E-05-2.92655E-05-4.30766E-06-9.64838E-19 5.23462E-19
 -1      3217 9.59192E-05-2.77540E-05-2.92149E-05-3.97861E-06-7.11384E-19 3.24895E-19
 -1      3218 9.52067E-05-2.73385E-05-2.90886E-05-3.94592E-06-1.16734E-18-2.38980E-19
 -1      3219 9.66282E-05-2.81891E-05-2.93261E-05-4.98512E-06-1.26658E-18 4.74325E-19
 -1      3220 9.62966E-05-2.79694E-05-2.92820E-05-4.68456E-06-3.80395E-19 8.05040E-19
 -1      3221 9.54028E-05-2.74708E-05-2.91179E-05-4.70558E-06-8.88332E-19 1.00741E-18
 -1      3222 9.73518E-05-2.88337E-05-2.93616E-05-5.55721E-06-1.50578E-18 3.76561E-19
 -1      3223 9.68900E-05-2.84447E-05-2.93285E-05-5.33880E-06-1.69034E-18 1.60303E-19
 -1      3224 9.57929E-05-2.78638E-05-2.91201E-05-5.46314E-06-1.05988E-18-3.59211E-19
 -1      3225 9.84506E-05-2.99254E-05-2.93677E-05-5.89036E-06-1.03539E-18 1.30316E-18
 -1      3226 9.78097E-05-2.93037E-05-2.93480E-05-5.83211E-06-1.41218E-18 1.17486E-18
 -1      3227 9.64966E-05-2.86534E-05-2.90889E-05-6.13590E-06-1.62621E-18 3.78969E-19
 -1      3228 1.00074E-04-3.16008E-05-2.93510E-05-5.79134E-06-1.23642E-18 1.27314E-18
 -1      3229 9.92014E-05-3.06880E-05-2.93416E-05-6.00038E-06-1.07474E-18 1.36435E-18
 -1      3230 9.76815E-05-3.00042E-05-2.90263E-05-6.59350E-06-1.23446E-18 1.52607E-19
 -1      3231 1.02370E-04-3.39438E-05-2.93402E-05-4.99348E-06-1.19309E-18 1.14694E-18
 -1      3232 1.01231E-04-3.27220E-05-2.93270E-05-5.60653E-06-7.50774E-19 1.24728E-18
 -1      3233 9.95587E-05-3.20831E-05-2.89513E-05-6.63461E-06-9.77225E-19 1.28834E-18
 -1      3234 1.05403E-04-3.68679E-05-2.94016E-05-3.15733E-06-3.93103E-19 1.03386E-18
 -1      3235 1.04030E-04-3.54279E-05-2.93524E-05-4.32684E-06-1.08153E-18 8.11266E-19
 -1      3236 1.02347E-04-3.49845E-05-2.89158E-05-5.95522E-06-1.02854E-18 2.79480E-19
 -1      3237 1.09004E-04-3.99229E-05-2.96540E-05 7.08404E-08-9.77776E-19 1.98534E-18
 -1      3238 1.07571E-04-3.85659E-05-2.95136E-05-1.77111E-06-5.85483E-19 1.64755E-18
 -1      3239 1.06168E-04-3.85735E-05-2.90238E-05-4.12749E-06-1.12823E-18 1.53390E-19
 -1      3240 1.12535E-04-4.20418E-05-3.02715E-05 4.87939E-06-4.43046E-19 2.94588E-18
 -1      3241 1.11447E-04-4.14016E-05-2.99648E-05 2.40467E-06-5.68908E-19 2.99866E-18
 -1      3242 1.10836E-04-4.22365E-05-2.94511E-05-6.33293E-07-1.14103E-18 1.95022E-18
 -1      3243 1.14781E-04-4.15472E-05-3.14367E-05 1.07545E-05-1.51414E-18 2.79358E-18
 -1      3244 1.14610E-04-4.24808E-05-3.08990E-05 8.08361E-06-9.50326E-19 3.09124E-18
 -1      3245 1.15481E-04-4.45091E-05-3.04428E-05 4.81715E-06-1.01026E-18 3.70949E-18
 -1      3246 1.14255E-04-3.67499E-05-3.32092E-05 1.58679E-05-5.06737E-19 3.95027E-18
 -1      3247 1.15433E-04-3.98649E-05-3.24564E-05 1.40945E-05-1.16675E-18 3.03354E-18
 -1      3248 1.18446E-04-4.32155E-05-3.22309E-05 1.16804E-05-1.74666E-18 3.79515E-18
 -1      3249 1.10711E-04-2.82421E-05-3.53029E-05 1.70636E-05 7.74082E-19 1.99048E-18
 -1      3250 1.12875E-04-3.28366E-05-3.44909E-05 1.74096E-05 2.65642E-19 3.00248E-18
 -1      3251 1.17648E-04-3.63003E-05-3.48416E-05 1.73451E-05 5.69365E-20 2.02543E-18
 -1      3252 1.04450E-04-1.80076E-05-3.71584E-05 2.26486E-06 2.48414E-18-1.34304E-19
 -1      3253 1.04660E-04-1.80374E-05-3.72171E-05 6.77059E-06 1.99826E-18 9.76500E-19
 -1      3254 1.07064E-04-2.33836E-05-3.60781E-05-5.62905E-06 1.01637E-18-1.04266E-19
 -1      3255 1.05771E-04-2.01854E-05-3.66741E-05-2.62102E-06 1.96166E-18-5.82791E-19
 -1      3256 1.08662E-04-1.80882E-05-3.90116E-05-6.70661E-07 2.37789E-18-5.12574E-19
 -1      3257 1.10734E-04-3.14728E-05-3.41367E-05-7.88667E-06 2.49077E-19 1.39408E-18
 -1      3258 1.09270E-04-2.75528E-05-3.49809E-05-7.50262E-06 1.52466E-19-8.35775E-20
 -1      3259 1.12394E-04-2.54972E-05-3.72377E-05-7.49654E-06 3.05488E-19 7.69675E-19
 -1      3260 1.11468E-04-3.64836E-05-3.22194E-05-5.14449E-06-1.85563E-18 2.36295E-18
 -1      3261 1.11317E-04-3.43857E-05-3.29703E-05-6.48613E-06-3.13892E-19 1.89484E-18
 -1      3262 1.15443E-04-3.44151E-05-3.47202E-05-7.17955E-06-3.54576E-19 2.18078E-18
 -1      3263 1.11129E-04-3.81428E-05-3.13320E-05-1.17147E-06-3.04181E-18 3.54446E-18
 -1      3264 1.11326E-04-3.74357E-05-3.16814E-05-3.17010E-06-2.83570E-18 2.82237E-18
 -1      3265 1.15980E-04-3.94150E-05-3.27666E-05-3.23011E-06-2.06728E-18 3.77721E-18
 -1      3266 1.14470E-04-4.03678E-05-3.17766E-05 1.24970E-06-2.69702E-18 2.08945E-18
 -1      3267 1.20587E-04-5.07248E-05-2.99216E-05-2.25104E-05-1.60275E-20 6.38041E-19
 -1      3268 9.23679E-05-1.83398E-05-3.17415E-05 1.81118E-06 7.15140E-19-2.42843E-18
 -1      3269 9.22480E-05-1.81375E-05-3.17733E-05 1.05763E-06 4.13105E-19-2.65233E-18
 -1      3270 1.11965E-04-5.70237E-05-2.31098E-05-2.86587E-05-8.80332E-19-2.91472E-18
 -1      3271 1.22416E-04-6.11959E-05-2.65909E-05-2.13647E-05-5.40142E-19-2.00924E-18
 -1      3272 8.25508E-05-4.22969E-05-1.68408E-05-3.64965E-05 2.41404E-20-3.32185E-18
 -1      3273 9.79411E-05-5.12274E-05-2.00617E-05-3.51044E-05-2.48445E-19-3.37596E-18
 -1      3274 6.11729E-05-1.76942E-05-1.81630E-05-2.56419E-05 1.09288E-18-6.78728E-18
 -1      3275 1.36713E-04-5.13376E-05-3.65180E-05 1.00293E-05 1.71019E-18 1.39893E-18
 -1      3276 1.32773E-04-4.31367E-05-3.89630E-05 1.56793E-05 2.22616E-18 1.58694E-18
 -1      3277 1.17892E-04-1.19204E-05-4.59478E-05 5.71364E-07 2.20927E-18-1.78725E-18
 -1      3278 1.19802E-04-1.60606E-05-4.45955E-05-5.67435E-06 1.45361E-18-2.74121E-18
 -1      3279 1.13094E-04-5.53448E-05-2.48934E-05 2.03434E-05 5.41678E-19-2.95813E-18
 -1      3280 9.78199E-05-4.73651E-05-2.11972E-05 2.71689E-05-1.69168E-19-2.85244E-18
 -1      3281 4.06860E-05-1.52045E-05-1.06220E-05-7.91387E-06 1.26891E-18-5.09120E-18
 -1      3282 4.24267E-05-1.79782E-05-9.79933E-06-1.89329E-05 1.90911E-18-5.47871E-18
 -1      3283 5.18513E-05-2.14096E-05-1.25847E-05-2.28007E-05 4.42813E-19-3.73859E-18
 -1      3284 1.21159E-04-5.78176E-05-2.68865E-05-3.41361E-05 7.25960E-19-3.00768E-18
 -1      3285 1.29635E-04-6.11223E-05-2.94764E-05-2.76063E-05 1.54875E-18-2.36220E-18
 -1      3286 9.54372E-05-3.83569E-05-2.40571E-05 4.15178E-05-1.32397E-18 3.77591E-18
 -1      3287 1.27926E-04-3.19228E-05-4.11618E-05 1.98496E-05 1.76823E-18 9.52912E-21
 -1      3288 1.21623E-04-2.21783E-05-4.32131E-05 1.79480E-05 1.23434E-18-9.93252E-19
 -1      3289 9.52133E-05-2.88027E-05-2.84606E-05-9.74275E-07 7.64149E-19-7.09002E-19
 -1      3290 9.51963E-05-2.87873E-05-2.84605E-05-1.02815E-06 5.42792E-19-7.50581E-19
 -1      3291 9.54235E-05-2.89019E-05-2.85107E-05-9.42124E-07 4.39004E-19-6.41824E-19
 -1      3292 9.52232E-05-2.87765E-05-2.84764E-05-1.07171E-06 5.40840E-19-7.92118E-19
 -1      3293 9.52111E-05-2.87417E-05-2.84853E-05-1.10557E-06 5.81595E-19-9.50702E-19
 -1      3294 9.54700E-05-2.88868E-05-2.85376E-05-1.03548E-06 4.53276E-19-1.00508E-18
 -1      3295 9.53699E-05-2.79570E-05-2.88950E-05-4.74801E-07 8.97937E-19-7.29176E-19
 -1      3296 9.54181E-05-2.76965E-05-2.90126E-05-1.42725E-07 9.08726E-19-6.43381E-19
 -1      3297 1.32043E-04-6.01771E-05-3.06722E-05-2.01884E-05 1.59692E-18 1.89735E-19
 -1      3298 9.53177E-05-2.83386E-05-2.87071E-05-8.89369E-07 7.40453E-19-3.90491E-19
 -1      3299 9.53489E-05-2.81734E-05-2.87807E-05-7.15405E-07 7.70864E-19-5.39451E-19
 -1      3300 9.56436E-05-2.84307E-05-2.88098E-05-8.65508E-07 5.88660E-19-6.15951E-19
 -1      3301 8.53581E-05-4.06698E-05-1.91273E-05 2.95386E-05-7.22784E-19-1.89121E-18
 -1      3302 7.13635E-05-3.13258E-05-1.68573E-05 2.69911E-05-1.35536E-18-2.40293E-19
 -1      3303 9.33894E-05-4.10643E-05-2.21792E-05 2.41170E-05 6.68944E-19-1.15259E-18
 -1      3304 9.52124E-05-2.42792E-05-3.04026E-05 4.26926E-06 1.53864E-18-1.05538E-18
 -1      3305 9.46378E-05-2.27315E-05-3.08061E-05 4.77126E-06 1.57712E-18-1.21495E-18
 -1      3306 9.49117E-05-2.35872E-05-3.05674E-05 3.66858E-06 1.40496E-18-1.33139E-18
 -1      3307 9.52395E-05-2.52046E-05-3.00282E-05 2.99584E-06 1.37529E-18-9.31408E-19
 -1      3308 4.56299E-05-1.16207E-05-1.40551E-05 1.09390E-05 4.80069E-19-8.63762E-19
 -1      3309 1.31345E-04-6.10174E-05-2.98288E-05-1.01583E-05-2.19699E-20-8.26387E-19
 -1      3310 1.35790E-04-5.77392E-05-3.38839E-05 6.14514E-07 7.86536E-19 1.04447E-18
 -1      3311 1.31987E-04-5.36605E-05-3.36345E-05 5.43159E-06 2.46007E-19 1.83949E-18
 -1      3312 1.24411E-04-2.56711E-05-4.29459E-05-8.99463E-06 1.28077E-18-3.25065E-18
 -1      3313 1.30778E-04-3.54511E-05-4.08422E-05-8.86317E-06-1.15715E-18-3.14795E-18
 -1      3314 1.34249E-04-4.55087E-05-3.87069E-05-3.34282E-06-2.81593E-18-1.84285E-18
 -1      3315 1.36545E-04-5.22156E-05-3.57656E-05 3.30727E-06-2.56881E-18-1.65375E-18
 -1      3316 9.34775E-05-1.98507E-05-3.15479E-05-6.23106E-06-1.41431E-18-1.84163E-18
 -1      3317 9.21877E-05-1.80374E-05-3.17917E-05 4.08301E-07 3.33299E-19-2.73412E-18
 -1      3318 9.21845E-05-1.80327E-05-3.17922E-05-3.59576E-07 1.34626E-19-2.63325E-18
 -1      3319 9.31411E-05-1.96216E-05-3.14908E-05 6.28093E-07 3.11818E-19-2.58732E-18
 -1      3320 9.43628E-05-2.19938E-05-3.09888E-05 3.64059E-06 1.27690E-18-1.71891E-18
 -1      3321 9.34248E-05-2.02141E-05-3.14036E-05 4.23117E-06 1.46178E-18-1.91649E-18
 -1      3322 9.30621E-05-1.95466E-05-3.15170E-05 3.65341E-06 1.22100E-18-1.99927E-18
 -1      3323 9.25205E-05-1.86025E-05-3.16900E-05-2.37390E-06-3.15665E-19-2.29640E-18
 -1      3324 9.27511E-05-1.90044E-05-3.16242E-05-3.08207E-06-5.75339E-19-2.23103E-18
 -1      3325 4.41212E-05-1.15770E-05-1.31583E-05-6.52422E-06 5.18550E-19-7.63600E-18
 -1      3326 9.30395E-05-1.95003E-05-3.15254E-05-3.61506E-06-6.78961E-19-2.09924E-18
 -1      3327 9.34154E-05-2.01714E-05-3.14127E-05-4.22396E-06-9.16632E-19-2.07324E-18
 -1      3328 9.37414E-05-2.07566E-05-3.12614E-05-2.80826E-06-6.08671E-19-2.05261E-18
 -1      3329 1.13205E-04-1.40282E-05-4.28284E-05 3.49198E-06 2.33882E-18-1.49342E-18
 -1      3330 1.23938E-04-5.89018E-05-2.76414E-05 1.19245E-05 1.10370E-18-3.47926E-18
 -1      3331 1.16116E-04-1.99268E-05-4.14899E-05 1.51022E-05 1.29633E-18-6.96420E-19
 -1      3332 9.55240E-05-2.88221E-05-2.85892E-05-1.08235E-06 4.80191E-19-8.43013E-19
 -1      3333 1.27643E-04-5.09298E-05-3.29508E-05 1.17319E-05-2.13632E-18-1.49035E-18
 -1      3334 1.25302E-04-4.77363E-05-3.34465E-05 5.30712E-06-2.32276E-18-1.90483E-18
 -1      3335 6.53827E-05-2.59860E-05-1.65499E-05 2.36216E-05-6.57245E-19-1.06451E-18
 -1      3336 6.04044E-05-2.08024E-05-1.68045E-05 1.70257E-05 3.76678E-19-1.73689E-18
 -1      3337 7.61082E-05-2.89387E-05-1.99619E-05 2.19810E-05 5.24763E-21-1.05752E-18
 -1      3338 4.99382E-05-1.59257E-05-1.44002E-05 7.03004E-06 5.35034E-19-2.92126E-18
 -1      3339 4.43029E-05-1.44598E-05-1.21358E-05 2.43174E-07 6.14754E-19-3.96983E-18
 -1      3340 4.78650E-05-1.51658E-05-1.37375E-05-6.31389E-06 1.14440E-18-5.19888E-18
 -1      3341 1.06259E-04-2.00162E-05-3.69763E-05 1.18056E-05 1.93888E-18 8.87552E-19
 -1      3342 1.08051E-04-2.34389E-05-3.64635E-05 1.50369E-05 1.43023E-18 9.43716E-19
 -1      3343 1.04939E-04-5.21352E-05-2.24448E-05-2.90033E-05-8.11140E-19-2.79780E-18
 -1      3344 7.54068E-05-3.70314E-05-1.61136E-05-3.53667E-05 9.52912E-22-3.92293E-18
 -1      3345 8.50203E-05-4.01566E-05-1.89498E-05-3.21496E-05-3.73277E-19-2.73531E-18
 -1      3346 6.81671E-05-3.09462E-05-1.57004E-05-3.15212E-05 2.41722E-19-3.12290E-18
 -1      3347 1.29442E-04-6.12878E-05-2.91285E-05 7.31643E-06 5.28734E-20-3.41009E-18
 -1      3348 9.25425E-05-1.86346E-05-3.16856E-05 2.42097E-06 9.20354E-19-2.26291E-18
 -1      3349 9.33549E-05-2.00099E-05-3.14147E-05 1.80139E-06 7.99446E-19-2.12166E-18
 -1      3350 9.27828E-05-1.90510E-05-3.16183E-05 3.12213E-06 1.15648E-18-2.05626E-18
 -1      3351 1.25171E-04-5.89511E-05-2.83030E-05-1.30423E-05-3.14964E-19-6.72928E-19
 -1      3352 1.27478E-04-3.87762E-05-3.80720E-05-6.52974E-06-1.46211E-18-1.64113E-18
 -1      3353 1.18634E-04-2.22290E-05-4.15654E-05-6.70863E-06 1.14514E-18-1.42381E-18
 -1      3354 1.26506E-04-3.76153E-05-3.81662E-05 1.75774E-05 1.79150E-18-1.18320E-19
 -1      3355 9.53668E-05-2.66187E-05-2.94729E-05 1.24811E-06 1.16814E-18-9.02597E-19
 -1      3356 9.54261E-05-2.60348E-05-2.97294E-05 2.10458E-06 1.31982E-18-9.11918E-19
 -1      3357 9.53658E-05-2.53263E-05-3.00106E-05 2.49137E-06 1.28161E-18-9.22355E-19
 -1      3358 9.53827E-05-2.74226E-05-2.91316E-05 1.91182E-07 9.06132E-19-7.70958E-19
 -1      3359 9.54458E-05-2.70351E-05-2.93073E-05 7.41283E-07 1.04540E-18-7.82744E-19
 -1      3360 9.55665E-05-2.66194E-05-2.95491E-05 1.05001E-06 1.07414E-18-7.74010E-19
 -1      3361 9.56687E-05-2.74143E-05-2.92564E-05 1.50509E-07 8.63689E-19-8.01311E-19
 -1      3362 1.18614E-04-5.16688E-05-2.87317E-05-2.93641E-05 1.32164E-19-1.80439E-18
 -1      3363 1.13467E-04-4.96394E-05-2.71698E-05-3.39285E-05 6.05284E-19-2.54041E-18
 -1      3364 1.08282E-04-5.00502E-05-2.50546E-05-4.04029E-05 1.07372E-18-3.38167E-18
 -1      3365 9.56903E-05-2.80113E-05-2.90102E-05-4.74676E-07 7.50446E-19-8.07668E-19
 -1      3366 5.08013E-05-1.53871E-05-1.51009E-05-2.16788E-05 1.40957E-18-9.75549E-18
 -1      3367 1.09010E-04-1.79058E-05-3.92711E-05 9.98328E-06 2.04966E-18-1.06673E-20
 -1      3368 9.26822E-05-4.05435E-05-2.17267E-05-4.23616E-05 1.02078E-18-3.92070E-18
 -1      3369 1.26264E-04-5.52240E-05-3.01783E-05-2.14280E-05 5.79142E-19 8.63140E-19
 -1      3370 1.13580E-04-2.59010E-05-3.76119E-05 1.74316E-05 1.05477E-18 2.46473E-19
 -1      3371 9.40807E-05-2.15448E-05-3.10963E-05-4.86569E-06-1.26299E-18-1.62055E-18
 -1      3372 7.59988E-05-3.23462E-05-1.86083E-05-4.21213E-05 1.46410E-18-5.95041E-18
 -1      3373 9.40665E-05-2.14814E-05-3.11032E-05-4.21890E-06-1.00932E-18-1.69131E-18
 -1      3374 6.49764E-05-2.20126E-05-1.75119E-05-3.33214E-05 1.30570E-18-6.44253E-18
 -1      3375 9.23509E-05-1.83154E-05-3.17444E-05-1.76094E-06-2.09923E-19-2.40941E-18
 -1      3376 9.33388E-05-1.99850E-05-3.14185E-05-1.76326E-06-2.42211E-19-2.19013E-18
 -1      3377 9.22386E-05-1.81245E-05-3.17750E-05-1.00864E-06 3.34823E-20-2.49314E-18
 -1      3378 1.28817E-04-5.42698E-05-3.17379E-05 2.44686E-06-7.07114E-19 1.95486E-18
 -1      3379 1.28023E-04-4.93446E-05-3.39224E-05 9.91899E-06 4.51488E-19 1.34425E-18
 -1      3380 1.15325E-04-2.30890E-05-3.95062E-05 1.74756E-05 1.44181E-18-1.02087E-18
 -1      3381 1.17998E-04-3.02086E-05-3.80810E-05 1.92418E-05 1.43117E-18-5.00974E-19
 -1      3382 9.57767E-05-2.58042E-05-2.99806E-05-1.24376E-06-7.49050E-19-1.40899E-18
 -1      3383 9.59168E-05-2.65029E-05-2.97588E-05-6.75944E-07-6.87830E-19-1.35262E-18
 -1      3384 9.60971E-05-2.71082E-05-2.95582E-05-2.87341E-07-6.24253E-19-1.23005E-18
 -1      3385 9.61383E-05-2.75698E-05-2.93934E-05 8.63703E-08-6.66305E-19-1.13522E-18
 -1      3386 9.60778E-05-2.65450E-05-2.97988E-05-5.37656E-07-5.65484E-19-1.27015E-18
 -1      3387 9.62073E-05-2.79619E-05-2.92410E-05 3.34976E-07-5.75885E-19-9.46785E-19
 -1      3388 9.61990E-05-2.82591E-05-2.91211E-05 5.58567E-07-6.59286E-19-9.41516E-19
 -1      3389 9.63235E-05-2.76302E-05-2.94404E-05 1.17698E-07-5.27300E-19-1.11136E-18
 -1      3390 9.61999E-05-2.85025E-05-2.90079E-05 6.97837E-07-6.94906E-19-7.95201E-19
 -1      3391 9.61677E-05-2.86853E-05-2.89230E-05 8.13050E-07-5.13330E-19-7.79508E-19
 -1      3392 9.63939E-05-2.83362E-05-2.91691E-05 5.24775E-07-6.18141E-19-8.98321E-19
 -1      3393 9.61297E-05-2.88259E-05-2.88409E-05 8.74152E-07-4.80566E-19-6.75369E-19
 -1      3394 9.60876E-05-2.89299E-05-2.87824E-05 9.15615E-07-6.67026E-19-6.30411E-19
 -1      3395 9.63589E-05-2.87710E-05-2.89683E-05 7.43228E-07-6.04852E-19-7.60404E-19
 -1      3396 9.60297E-05-2.90004E-05-2.87245E-05 9.24613E-07-7.48301E-19-5.05683E-19
 -1      3397 9.59854E-05-2.90506E-05-2.86860E-05 9.19103E-07-3.65023E-19-3.95347E-19
 -1      3398 9.62655E-05-2.90162E-05-2.88233E-05 8.29374E-07-7.17004E-19-7.58239E-19
 -1      3399 9.59196E-05-2.90742E-05-2.86466E-05 8.96212E-07-2.02832E-19-6.20943E-19
 -1      3400 9.58771E-05-2.90884E-05-2.86228E-05 8.63576E-07-2.11360E-19-7.02026E-19
 -1      3401 9.61442E-05-2.91315E-05-2.87218E-05 8.29204E-07-4.51010E-19-7.36853E-19
 -1      3402 9.58106E-05-2.90812E-05-2.85976E-05 8.23793E-07-2.66430E-19-7.50949E-19
 -1      3403 9.57719E-05-2.90715E-05-2.85847E-05 7.78339E-07-2.41035E-19-8.25454E-19
 -1      3404 9.60141E-05-2.91596E-05-2.86538E-05 7.77976E-07-3.04644E-19-7.31131E-19
 -1      3405 9.57086E-05-2.90446E-05-2.85701E-05 7.32464E-07-2.95078E-19-9.23356E-19
 -1      3406 9.56743E-05-2.90192E-05-2.85651E-05 6.84334E-07-4.00826E-19-1.04463E-18
 -1      3407 9.58862E-05-2.91303E-05-2.86113E-05 7.01693E-07-2.76870E-19-9.63830E-19
 -1      3408 9.56159E-05-2.89797E-05-2.85586E-05 6.40020E-07-5.40502E-19-1.16201E-18
 -1      3409 9.55859E-05-2.89439E-05-2.85595E-05 5.96392E-07-4.20409E-19-1.22431E-18
 -1      3410 9.57660E-05-2.90637E-05-2.85881E-05 6.19057E-07-5.25886E-19-1.30247E-18
 -1      3411 9.55325E-05-2.88958E-05-2.85591E-05 5.59107E-07-3.39985E-19-1.15094E-18
 -1      3412 9.55060E-05-2.88524E-05-2.85644E-05 5.25188E-07-3.84499E-19-9.28593E-19
 -1      3413 9.56554E-05-2.89723E-05-2.85796E-05 5.43437E-07-3.07752E-19-1.05694E-18
 -1      3414 9.54564E-05-2.87978E-05-2.85688E-05 4.98990E-07-5.04407E-19-4.25898E-19
 -1      3415 9.54324E-05-2.87479E-05-2.85776E-05 4.78790E-07-4.36055E-19 7.13606E-20
 -1      3416 9.55534E-05-2.88632E-05-2.85823E-05 4.84579E-07-1.26801E-19-1.03485E-18
 -1      3417 9.53845E-05-2.86867E-05-2.85858E-05 4.66942E-07-5.63659E-19 1.44770E-19
 -1      3418 9.53614E-05-2.86300E-05-2.85977E-05 4.63891E-07-3.03841E-19 1.54908E-20
 -1      3419 9.54567E-05-2.87388E-05-2.85939E-05 4.49959E-07-2.15783E-19-5.26989E-21
 -1      3420 9.53123E-05-2.85610E-05-2.86090E-05 4.69363E-07-2.11483E-19-1.87029E-19
 -1      3421 9.52883E-05-2.84960E-05-2.86237E-05 4.86787E-07-4.44380E-19-3.85020E-19
 -1      3422 9.53606E-05-2.85982E-05-2.86127E-05 4.45893E-07-4.02970E-19-1.62848E-19
 -1      3423 9.52344E-05-2.84167E-05-2.86378E-05 5.12613E-07-5.15949E-19-3.98230E-19
 -1      3424 9.52071E-05-2.83410E-05-2.86552E-05 5.54067E-07-1.20778E-19-2.10094E-19
 -1      3425 9.52585E-05-2.84375E-05-2.86375E-05 4.78387E-07-3.40587E-19-7.36678E-19
 -1      3426 9.51439E-05-2.82480E-05-2.86718E-05 6.03583E-07 1.64084E-19-4.44428E-19
 -1      3427 9.51104E-05-2.81584E-05-2.86919E-05 6.73073E-07 2.39501E-19-7.34311E-19
 -1      3428 9.51425E-05-2.82508E-05-2.86674E-05 5.53693E-07-2.72478E-19-3.71703E-19
 -1      3429 9.50324E-05-2.80475E-05-2.87105E-05 7.50051E-07 7.69606E-20-9.92013E-19
 -1      3430 9.49893E-05-2.79403E-05-2.87333E-05 8.52151E-07 1.84748E-19-1.51810E-18
 -1      3431 9.50027E-05-2.80300E-05-2.87016E-05 6.78659E-07-1.40401E-19-1.36621E-18
 -1      3432 9.48898E-05-2.78065E-05-2.87533E-05 9.60830E-07 3.75177E-19-1.78972E-18
 -1      3433 9.48325E-05-2.76774E-05-2.87786E-05 1.10068E-06 2.62824E-19-1.63922E-18
 -1      3434 9.48271E-05-2.77660E-05-2.87389E-05 8.60859E-07-2.42694E-20-1.29985E-18
 -1      3435 9.47036E-05-2.75155E-05-2.87991E-05 1.24567E-06-2.53221E-19-1.70837E-18
 -1      3436 9.46264E-05-2.73601E-05-2.88261E-05 1.42882E-06-8.41812E-19-2.07831E-18
 -1      3437 9.46012E-05-2.74481E-05-2.87775E-05 1.10849E-06-1.77893E-19-1.83550E-18
 -1      3438 9.44582E-05-2.71646E-05-2.88454E-05 1.61494E-06-6.77110E-19-1.67557E-18
 -1      3439 9.43541E-05-2.69786E-05-2.88728E-05 1.84708E-06-6.95184E-19-1.24846E-18
 -1      3440 9.43077E-05-2.70656E-05-2.88146E-05 1.42999E-06-7.51807E-19-1.91393E-18
 -1      3441 9.41351E-05-2.67443E-05-2.88883E-05 2.07899E-06-9.46941E-19-1.02943E-18
 -1      3442 9.39955E-05-2.65246E-05-2.89137E-05 2.36555E-06-9.65925E-19-9.79541E-19
 -1      3443 9.39253E-05-2.66079E-05-2.88456E-05 1.83351E-06-9.33495E-19-6.05873E-19
 -1      3444 9.37119E-05-2.62477E-05-2.89212E-05 2.64748E-06-3.87174E-19-3.32831E-19
 -1      3445 9.35268E-05-2.59930E-05-2.89408E-05 2.99311E-06-5.09101E-20-5.29354E-19
 -1      3446 9.34292E-05-2.60665E-05-2.88633E-05 2.32615E-06-2.40402E-19-3.62146E-20
 -1      3447 9.31629E-05-2.56728E-05-2.89342E-05 3.32871E-06-9.73246E-19-6.33834E-19
 -1      3448 9.29216E-05-2.53863E-05-2.89416E-05 3.73691E-06-6.05704E-19-7.76735E-19
 -1      3449 9.27904E-05-2.54372E-05-2.88570E-05 2.91344E-06-6.77890E-19-6.33824E-19
 -1      3450 9.24603E-05-2.50272E-05-2.89119E-05 4.12964E-06-5.03275E-19-1.31310E-18
 -1      3451 9.21535E-05-2.47202E-05-2.88981E-05 4.60285E-06-6.10091E-19-1.88005E-18
 -1      3452 9.19764E-05-2.47240E-05-2.88110E-05 3.59952E-06-1.01082E-18-1.06333E-18
 -1      3453 9.15778E-05-2.43365E-05-2.88324E-05 5.05765E-06-4.57525E-19-1.88803E-18
 -1      3454 9.12020E-05-2.40340E-05-2.87840E-05 5.59864E-06-4.47420E-19-2.36072E-18
 -1      3455 9.09530E-05-2.39451E-05-2.87029E-05 4.38930E-06-8.65397E-19-7.02443E-19
 -1      3456 9.04978E-05-2.36559E-05-2.86645E-05 6.12613E-06 6.72608E-19-2.27109E-18
 -1      3457 9.00639E-05-2.34064E-05-2.85636E-05 6.74161E-06 1.75278E-18-1.90216E-18
 -1      3458 8.96882E-05-2.31422E-05-2.85010E-05 5.29464E-06 4.82355E-19-2.31764E-19
 -1      3459 8.92254E-05-2.30901E-05-2.83660E-05 7.36665E-06 2.13925E-18-1.84456E-18
 -1      3460 8.87744E-05-2.29799E-05-2.81892E-05 8.07493E-06 1.83387E-18-1.33177E-18
 -1      3461 8.81595E-05-2.23940E-05-2.81623E-05 6.34792E-06 2.00482E-18-6.75507E-19
 -1      3462 8.78133E-05-2.28213E-05-2.78815E-05 8.85250E-06 8.90371E-19-1.49763E-18
 -1      3463 8.74441E-05-2.29972E-05-2.76012E-05 9.69581E-06 8.48418E-19-1.90796E-18
 -1      3464 8.63667E-05-2.18364E-05-2.76287E-05 7.62800E-06 1.38924E-18-1.34904E-18
 -1      3465 8.64085E-05-2.31528E-05-2.71430E-05 1.07359E-05 1.15645E-18-2.13265E-18
 -1      3466 8.63306E-05-2.38623E-05-2.67321E-05 1.17958E-05 4.37294E-19-1.90225E-18
 -1      3467 8.43555E-05-2.16952E-05-2.68243E-05 9.30520E-06 1.00177E-18-2.44301E-18
 -1      3468 8.53337E-05-2.45599E-05-2.60729E-05 1.33001E-05-1.61258E-19-9.74969E-19
 -1      3469 8.58993E-05-2.62152E-05-2.55094E-05 1.47047E-05-4.81173E-19-1.24303E-18
 -1      3470 8.22523E-05-2.23518E-05-2.56511E-05 1.16843E-05 7.02849E-19-2.49773E-18
 -1      3471 8.88140E-05-3.53043E-05-2.27651E-05 2.21155E-05 4.11949E-19-1.16566E-18
 -1      3472 1.29930E-04-5.56240E-05-3.23681E-05 1.87114E-05-2.62985E-18-4.37307E-19
 -1      3473 9.58565E-05-2.87929E-05-2.87423E-05-9.84285E-07 4.46515E-19-8.84461E-19
 -1      3474 9.58893E-05-2.86798E-05-2.87996E-05-9.25074E-07 3.77679E-19-6.37522E-19
 -1      3475 1.09908E-04-1.44120E-05-4.10590E-05 6.99463E-06 2.33951E-18-2.66617E-19
 -1      3476 1.10591E-04-1.46612E-05-4.11900E-05 1.18938E-06 2.44020E-18-6.29170E-19
 -1      3477 9.54859E-05-2.89054E-05-2.85331E-05-6.65929E-07 3.84414E-20-4.87708E-19
 -1      3478 9.55011E-05-2.89306E-05-2.85305E-05-7.16674E-07 3.77837E-20-6.16910E-19
 -1      3479 9.55482E-05-2.89608E-05-2.85361E-05-7.67722E-07 8.58974E-20-5.66490E-19
 -1      3480 9.55668E-05-2.89755E-05-2.85390E-05-8.21352E-07 1.51504E-19-5.24731E-19
 -1      3481 9.56703E-05-2.90213E-05-2.85652E-05-7.11803E-07 1.07850E-19-1.97568E-19
 -1      3482 9.53823E-05-2.87524E-05-2.85542E-05-5.14901E-07 7.60763E-20-9.75864E-19
 -1      3483 9.53928E-05-2.87905E-05-2.85447E-05-5.43977E-07-1.36789E-19-1.12995E-18
 -1      3484 9.53375E-05-2.86598E-05-2.85746E-05-4.81738E-07 1.03018E-19-7.96461E-19
 -1      3485 9.53467E-05-2.87032E-05-2.85625E-05-4.94355E-07 3.18490E-19-4.69576E-19
 -1      3486 9.54293E-05-2.87600E-05-2.85732E-05-4.93206E-07-1.67684E-19-1.30776E-18
 -1      3487 9.52941E-05-2.85561E-05-2.86003E-05-4.85466E-07-2.60387E-19-1.22515E-18
 -1      3488 9.53026E-05-2.86052E-05-2.85858E-05-4.78448E-07-1.50356E-19-1.03294E-18
 -1      3489 9.53592E-05-2.86460E-05-2.85918E-05-4.71773E-07 2.91339E-19-7.61420E-19
 -1      3490 9.52489E-05-2.84390E-05-2.86310E-05-5.32371E-07-5.03252E-19-9.93186E-19
 -1      3491 9.52576E-05-2.84947E-05-2.86141E-05-5.02487E-07-3.90223E-19-8.84492E-19
 -1      3492 9.52882E-05-2.85179E-05-2.86160E-05-4.87261E-07-5.11173E-19-6.47217E-19
 -1      3493 9.51988E-05-2.83054E-05-2.86666E-05-6.29268E-07 7.70297E-20 4.97396E-19
 -1      3494 9.52084E-05-2.83691E-05-2.86472E-05-5.72994E-07-9.72249E-20-4.91771E-19
 -1      3495 9.52116E-05-2.83726E-05-2.86452E-05-5.46067E-07-5.09719E-19-2.89710E-19
 -1      3496 9.51405E-05-2.81523E-05-2.87070E-05-7.83777E-07-2.99432E-19 1.20630E-18
 -1      3497 9.51515E-05-2.82251E-05-2.86849E-05-6.97214E-07 1.49026E-19 9.07159E-19
 -1      3498 9.51242E-05-2.82063E-05-2.86788E-05-6.55203E-07-3.46059E-19 5.99444E-19
 -1      3499 9.50709E-05-2.79772E-05-2.87518E-05-1.00431E-06 2.53816E-19 7.85086E-19
 -1      3500 9.50836E-05-2.80599E-05-2.87270E-05-8.83254E-07-8.05537E-20 4.51550E-19
 -1      3501 9.50203E-05-2.80150E-05-2.87160E-05-8.22531E-07 2.20299E-19 7.78587E-19
 -1      3502 9.49877E-05-2.77801E-05-2.88002E-05-1.29979E-06 9.03385E-19 5.42313E-19
 -1      3503 9.50018E-05-2.78718E-05-2.87730E-05-1.13996E-06 6.00056E-19 5.45103E-19
 -1      3504 9.48949E-05-2.77961E-05-2.87558E-05-1.05679E-06 6.24641E-19-1.30774E-19
 -1      3505 9.48907E-05-2.75644E-05-2.88506E-05-1.67895E-06 9.54995E-19 1.59839E-19
 -1      3506 9.49048E-05-2.76624E-05-2.88217E-05-1.47646E-06 1.26602E-18 6.27260E-19
 -1      3507 9.47434E-05-2.75495E-05-2.87963E-05-1.36736E-06 1.02427E-18 3.26626E-19
 -1      3508 9.47831E-05-2.73401E-05-2.89001E-05-2.14924E-06 3.94169E-19 5.52050E-19
 -1      3509 9.47938E-05-2.74381E-05-2.88708E-05-1.90136E-06 4.47759E-19 4.54882E-19
 -1      3510 9.45640E-05-2.72798E-05-2.88348E-05-1.76376E-06 6.06317E-19 4.05279E-19
 -1      3511 9.46743E-05-2.71269E-05-2.89443E-05-2.71523E-06-1.63946E-19 1.28054E-19
 -1      3512 9.46748E-05-2.72132E-05-2.89166E-05-2.42139E-06 2.81306E-19 5.79069E-19
 -1      3513 9.43589E-05-2.69994E-05-2.88669E-05-2.25483E-06 3.79066E-19 5.12349E-19
 -1      3514 9.45837E-05-2.69587E-05-2.89769E-05-3.37637E-06-5.61039E-19 8.80929E-19
 -1      3515 9.45622E-05-2.70140E-05-2.89538E-05-3.03962E-06-1.56424E-19 5.71726E-19
 -1      3516 9.41380E-05-2.67324E-05-2.88868E-05-2.84757E-06-3.99824E-19 1.07960E-18
 -1      3517 9.45474E-05-2.68905E-05-2.89898E-05-4.12401E-06-1.79064E-18 1.57307E-18
 -1      3518 9.44835E-05-2.68844E-05-2.89752E-05-3.75295E-06-1.12886E-18 1.19251E-18
 -1      3519 9.39233E-05-2.65201E-05-2.88864E-05-3.54572E-06-9.54710E-19 2.38821E-18
 -1      3520 9.46257E-05-2.70044E-05-2.89736E-05-4.93749E-06-5.86201E-19 8.58851E-19
 -1      3521 9.44866E-05-2.68923E-05-2.89719E-05-4.54875E-06-1.40978E-18 7.12494E-19
 -1      3522 9.37568E-05-2.64276E-05-2.88561E-05-4.34780E-06-1.30798E-18 1.45082E-18
 -1      3523 9.49150E-05-2.74185E-05-2.89189E-05-5.77838E-06-8.66363E-19 2.40821E-19
 -1      3524 9.46502E-05-2.71374E-05-2.89344E-05-5.40018E-06-7.91680E-20 9.98988E-19
 -1      3525 9.37095E-05-2.65524E-05-2.87854E-05-5.24441E-06-7.58514E-19 1.32406E-18
 -1      3526 9.55608E-05-2.82913E-05-2.88203E-05-6.58127E-06-1.82184E-18 3.81114E-19
 -1      3527 9.50969E-05-2.77587E-05-2.88548E-05-6.25870E-06-1.82776E-18-8.49794E-21
 -1      3528 9.38961E-05-2.70328E-05-2.86646E-05-6.21355E-06-1.04745E-18 1.20885E-18
 -1      3529 9.67689E-05-2.98188E-05-2.86826E-05-7.23728E-06-9.05824E-19 9.00279E-20
 -1      3530 9.60071E-05-2.89368E-05-2.87320E-05-7.04090E-06-1.48900E-18 3.07177E-20
 -1      3531 9.44909E-05-2.80551E-05-2.84902E-05-7.21076E-06-1.15716E-18-4.93500E-19
 -1      3532 9.88063E-05-3.22094E-05-2.85328E-05-7.56455E-06-1.18137E-18 7.48429E-19
 -1      3533 9.76299E-05-3.08827E-05-2.85807E-05-7.60415E-06-1.05377E-18 8.09359E-19
 -1      3534 9.57465E-05-2.98510E-05-2.82724E-05-8.14773E-06-1.36399E-18-6.42517E-20
 -1      3535 1.01967E-04-3.56084E-05-2.84380E-05-7.25820E-06-1.20687E-18 1.05407E-18
 -1      3536 1.00275E-04-3.37946E-05-2.84469E-05-7.70149E-06-1.01433E-18 1.01932E-18
 -1      3537 9.80046E-05-3.26735E-05-2.80503E-05-8.84754E-06-1.38142E-18 1.28956E-18
 -1      3538 1.06466E-04-3.99163E-05-2.85331E-05-5.82197E-06-1.74541E-18 1.39377E-18
 -1      3539 1.04245E-04-3.77392E-05-2.84316E-05-6.90987E-06-1.16051E-18 1.23463E-18
 -1      3540 1.01674E-04-3.67100E-05-2.79170E-05-8.95681E-06-1.52582E-18 2.06451E-18
 -1      3541 1.12161E-04-4.45041E-05-2.90470E-05-2.62260E-06-1.88283E-18 1.82351E-18
 -1      3542 1.09640E-04-4.23988E-05-2.87223E-05-4.61431E-06-2.70519E-18 1.42670E-18
 -1      3543 1.07052E-04-4.18047E-05-2.80577E-05-7.82751E-06-2.39191E-18 1.64535E-18
 -1      3544 1.18108E-04-4.75103E-05-3.03292E-05 3.03130E-06-2.17772E-18 3.92520E-18
 -1      3545 1.16018E-04-4.65916E-05-2.96333E-05 1.23322E-07-1.36493E-18 2.91102E-18
 -1      3546 1.14257E-04-4.73494E-05-2.87910E-05-4.57174E-06-2.54782E-18 2.81134E-18
 -1      3547 1.22302E-04-4.59297E-05-3.28146E-05 1.08726E-05-1.16000E-18 1.49700E-18
 -1      3548 1.21649E-04-4.78001E-05-3.16018E-05 7.51278E-06-1.76481E-18 2.64282E-18
 -1      3549 1.18610E-04-3.10992E-05-3.79140E-05-9.16527E-06-1.30549E-19-1.26870E-19
 -1      3550 1.16256E-04-2.46951E-05-3.92936E-05-7.66839E-06 1.34308E-19 2.07768E-19
 -1      3551 9.84830E-05-4.68030E-05-2.18839E-05-2.86711E-05-6.47623E-19-1.60785E-18
 -1      3552 1.09652E-04-5.30160E-05-2.44672E-05-2.38548E-05-1.62011E-18-1.38152E-18
 -1      3553 1.11854E-04-1.79589E-05-4.06252E-05-3.92977E-06 1.59218E-18 4.95398E-19
 -1      3554 1.17387E-04-4.31458E-05-3.18740E-05 5.11633E-06-2.87174E-18 1.09097E-18
 -1      3555 1.14394E-04-5.13510E-05-2.70743E-05 3.82220E-05-2.48096E-18 2.64939E-18
 -1      3556 1.22769E-04-5.33495E-05-2.92069E-05 2.92654E-05-2.97927E-18 7.16616E-19
 -1      3557 9.53337E-05-2.47669E-05-3.02427E-05 2.75995E-06 1.17619E-18-1.21654E-18
 -1      3558 9.50507E-05-2.39279E-05-3.04881E-05 2.99929E-06 1.20628E-18-1.53374E-18
 -1      3559 9.54802E-05-2.56131E-05-2.99484E-05 1.86167E-06 1.07853E-18-1.12609E-18
 -1      3560 5.34266E-05-1.93812E-05-1.44180E-05-1.90650E-05 2.54878E-19-4.06359E-18
 -1      3561 5.98858E-05-2.45507E-05-1.47228E-05-2.69983E-05 4.67324E-19-2.13505E-18
 -1      3562 6.95244E-05-2.86377E-05-1.72111E-05-2.74149E-05 4.88420E-19-2.86191E-18
 -1      3563 9.59484E-05-2.80865E-05-2.90879E-05-5.02681E-07 7.29782E-19-1.19100E-18
 -1      3564 9.59648E-05-2.77828E-05-2.92127E-05-2.24548E-07 7.27320E-19-1.24098E-18
 -1      3565 9.56958E-05-2.89900E-05-2.85874E-05-9.60722E-07 3.05813E-19-7.70389E-19
 -1      3566 9.57226E-05-2.89653E-05-2.86087E-05-9.92053E-07 3.60522E-19-7.52316E-19
 -1      3567 1.36503E-04-6.10034E-05-3.25808E-05-2.99470E-06 6.22410E-19-3.28686E-18
 -1      3568 1.11473E-04-1.70659E-05-4.07945E-05 1.23030E-05 1.93012E-18 7.22757E-20
 -1      3569 9.59211E-05-2.85307E-05-2.88839E-05-8.36348E-07 3.74781E-19-8.18434E-19
 -1      3570 9.59518E-05-2.83404E-05-2.89697E-05-6.88489E-07 5.77612E-19-9.31321E-19
 -1      3571 9.61551E-05-2.86171E-05-2.89475E-05-7.84522E-07 3.92352E-19-1.09286E-18
 -1      3572 1.23633E-04-3.87025E-05-3.64238E-05 1.69680E-05 1.65105E-18-2.58848E-19
 -1      3573 8.87653E-05-3.20477E-05-2.41643E-05 1.88106E-05 3.77247E-19-1.56157E-18
 -1      3574 8.22348E-05-3.09990E-05-2.19141E-05 2.17565E-05 1.09433E-19-1.21941E-18
 -1      3575 7.62099E-05-2.58912E-05-2.15229E-05 1.87062E-05 4.75318E-19-6.19208E-19
 -1      3576 8.66492E-05-2.87012E-05-2.47971E-05 1.70631E-05-1.80157E-19-1.22948E-18
 -1      3577 1.22579E-04-3.79688E-05-3.63323E-05-5.98724E-06-9.92776E-19 1.15683E-19
 -1      3578 1.24930E-04-4.43358E-05-3.46513E-05 1.45887E-05 5.98257E-19 9.90737E-19
 -1      3579 1.19010E-04-5.55861E-05-2.68435E-05-1.56076E-05-1.57143E-18-7.95754E-19
 -1      3580 1.24751E-04-5.65297E-05-2.95419E-05-6.81475E-06-4.73630E-19 9.29096E-19
 -1      3581 1.22697E-04-4.16879E-05-3.47988E-05-3.72961E-06-1.71310E-18 5.66744E-19
 -1      3582 9.56184E-05-2.89931E-05-2.85526E-05-8.71774E-07 2.60722E-19-5.09331E-19
 -1      3583 9.56410E-05-2.89921E-05-2.85631E-05-9.20109E-07 4.02652E-19-5.18914E-19
 -1      3584 9.58715E-05-2.90763E-05-2.86285E-05-8.88152E-07 3.12441E-19-4.75861E-19
 -1      3585 9.54311E-05-2.88347E-05-2.85399E-05-5.78661E-07 2.02454E-19-7.87788E-19
 -1      3586 9.54436E-05-2.88671E-05-2.85334E-05-6.20721E-07 3.37383E-19-5.52630E-19
 -1      3587 9.55823E-05-2.89499E-05-2.85578E-05-6.20973E-07 1.90782E-19-6.27291E-19
 -1      3588 9.55026E-05-2.88615E-05-2.85613E-05-5.45247E-07 1.34046E-19-1.31196E-18
 -1      3589 9.51218E-05-2.38852E-05-3.05310E-05-2.60169E-06-7.77390E-19-1.71184E-18
 -1      3590 9.54258E-05-2.48966E-05-3.02385E-05-1.79916E-06-7.49753E-19-1.63046E-18
 -1      3591 9.55509E-05-2.49352E-05-3.02605E-05-1.49248E-06-6.49549E-19-1.54125E-18
 -1      3592 9.57773E-05-2.89325E-05-2.86476E-05-1.00982E-06 5.44330E-19-8.17102E-19
 -1      3593 9.58079E-05-2.88722E-05-2.86839E-05-1.00751E-06 5.76059E-19-8.28468E-19
 -1      3594 9.59784E-05-2.90262E-05-2.86960E-05-9.34886E-07 4.35483E-19-8.18765E-19
 -1      3595 9.48188E-05-2.32690E-05-3.06630E-05 2.79225E-06 1.12017E-18-1.70289E-18
 -1      3596 1.23307E-04-5.30333E-05-3.01301E-05-1.50876E-06-6.84264E-19 1.67861E-18
 -1      3597 8.15719E-05-2.52544E-05-2.41526E-05 1.57476E-05-1.96263E-19-8.49296E-19
 -1      3598 9.45484E-05-2.25565E-05-3.08478E-05-3.23155E-06-8.08879E-19-1.74424E-18
 -1      3599 9.45892E-05-2.26244E-05-3.08363E-05-2.67412E-06-6.71071E-19-1.81169E-18
 -1      3600 9.61804E-05-2.81539E-05-2.91568E-05-4.88529E-07 5.52100E-19-1.35048E-18
 -1      3601 9.60784E-05-2.88876E-05-2.87986E-05-9.14713E-07 5.29430E-19-9.24485E-19
 -1      3602 1.23079E-04-4.37828E-05-3.39263E-05-1.29221E-06-2.64201E-18 6.82106E-19
 -1      3603 6.69694E-05-2.10860E-05-1.95356E-05 1.51444E-05 6.99613E-19-1.39485E-18
 -1      3604 5.81145E-05-1.80737E-05-1.68000E-05 1.27209E-05 2.21724E-19-2.27810E-18
 -1      3605 5.70690E-05-1.62928E-05-1.73457E-05 6.85143E-06-2.64883E-19-2.86167E-18
 -1      3606 9.57672E-05-2.90678E-05-2.85871E-05-8.06219E-07 2.74209E-19-6.75051E-19
 -1      3607 1.21802E-04-5.05674E-05-3.06729E-05 2.10712E-06-1.20789E-18 3.65636E-18
 -1      3608 1.12319E-04-5.14694E-05-2.60414E-05-1.73925E-05-2.03269E-18-6.44663E-19
 -1      3609 9.37665E-05-2.07865E-05-3.12541E-05 2.85022E-06 1.12212E-18-1.90021E-18
 -1      3610 8.54278E-05-3.75576E-05-2.03836E-05-2.85400E-05-8.03808E-19-2.22285E-18
 -1      3611 9.23358E-05-4.28254E-05-2.11156E-05-2.96261E-05-8.28451E-19-2.21097E-18
 -1      3612 9.81740E-05-4.39511E-05-2.30929E-05-2.46458E-05-1.75401E-18-7.67372E-19
 -1      3613 9.58885E-05-2.74475E-05-2.93365E-05 4.31061E-08 7.52560E-19-1.18598E-18
 -1      3614 9.58548E-05-2.70843E-05-2.94647E-05 4.21817E-07 8.51932E-19-1.05616E-18
 -1      3615 9.60984E-05-2.74872E-05-2.94074E-05-1.35932E-08 8.16503E-19-1.53398E-18
 -1      3616 5.22480E-05-1.62518E-05-1.49387E-05-1.23145E-05-1.78486E-19-5.77999E-18
 -1      3617 5.87678E-05-1.91839E-05-1.67623E-05-1.64538E-05-4.28069E-19-4.50881E-18
 -1      3618 5.31224E-05-1.53240E-05-1.61347E-05-5.05942E-06 2.10752E-19-4.67806E-18
 -1      3619 9.40866E-05-2.15122E-05-3.11182E-05 1.76442E-06 8.46310E-19-1.96159E-18
 -1      3620 9.39495E-05-2.12202E-05-3.11770E-05 1.24797E-06 6.57965E-19-2.06384E-18
 -1      3621 9.31356E-05-1.96134E-05-3.14919E-05-5.87477E-07 4.28599E-20-2.44244E-18
 -1      3622 9.39359E-05-2.12015E-05-3.11799E-05-1.21778E-06-9.57924E-20-2.21840E-18
 -1      3623 9.40701E-05-2.14848E-05-3.11226E-05-1.73195E-06-2.34518E-19-2.09947E-18
 -1      3624 9.38633E-05-2.10489E-05-3.12179E-05 8.07383E-07 4.71439E-19-2.26297E-18
 -1      3625 9.38145E-05-2.09497E-05-3.12372E-05 2.46467E-07 2.76075E-19-2.55514E-18
 -1      3626 9.46097E-05-2.23873E-05-3.09345E-05 8.28613E-07 5.96618E-19-2.02331E-18
 -1      3627 9.42314E-05-2.18115E-05-3.10394E-05-2.11587E-06-3.70271E-19-1.85129E-18
 -1      3628 9.44381E-05-2.22887E-05-3.09341E-05-2.52525E-06-5.81285E-19-1.81118E-18
 -1      3629 9.60369E-05-2.60191E-05-3.00025E-05-7.25764E-07-5.02508E-19-1.47461E-18
 -1      3630 9.62194E-05-2.67107E-05-2.97967E-05-3.26568E-07-4.74214E-19-1.29118E-18
 -1      3631 9.50315E-05-2.35668E-05-3.06247E-05-1.95934E-06-5.46643E-19-1.70927E-18
 -1      3632 9.64094E-05-2.73066E-05-2.96102E-05-7.05653E-08-4.04193E-19-1.11401E-18
 -1      3633 9.64808E-05-2.77718E-05-2.94522E-05 1.95459E-07-3.95794E-19-1.10883E-18
 -1      3634 9.63605E-05-2.68216E-05-2.97996E-05-2.23102E-07-3.65968E-19-1.44954E-18
 -1      3635 9.65545E-05-2.81611E-05-2.93070E-05 3.53079E-07-4.92058E-19-1.00811E-18
 -1      3636 9.65576E-05-2.84595E-05-2.91881E-05 5.11586E-07-5.21890E-19-9.48265E-19
 -1      3637 9.66215E-05-2.78697E-05-2.94643E-05 1.97444E-07-3.62646E-19-9.39096E-19
 -1      3638 9.65558E-05-2.86996E-05-2.90777E-05 5.95507E-07-6.09194E-19-1.01088E-18
 -1      3639 9.65193E-05-2.88787E-05-2.89903E-05 6.75178E-07-6.83324E-19-1.10893E-18
 -1      3640 9.66915E-05-2.85481E-05-2.92049E-05 4.51487E-07-5.79847E-19-9.59485E-19
 -1      3641 9.64722E-05-2.90132E-05-2.89084E-05 7.06994E-07-7.57541E-19-1.06588E-18
 -1      3642 9.64152E-05-2.91089E-05-2.88459E-05 7.32774E-07-6.02941E-19-9.79764E-19
 -1      3643 9.66422E-05-2.89581E-05-2.90089E-05 5.81220E-07-5.80975E-19-1.25633E-18
 -1      3644 9.63437E-05-2.91705E-05-2.87867E-05 7.30312E-07-5.23726E-19-8.95981E-19
 -1      3645 9.62784E-05-2.92091E-05-2.87435E-05 7.21987E-07-3.97395E-19-1.01368E-18
 -1      3646 9.65242E-05-2.91779E-05-2.88645E-05 6.24644E-07-5.57236E-19-1.01526E-18
 -1      3647 9.61965E-05-2.92217E-05-2.87023E-05 6.99219E-07-3.64589E-19-8.52983E-19
 -1      3648 9.61301E-05-2.92220E-05-2.86739E-05 6.71730E-07-1.36381E-19-9.30680E-19
 -1      3649 9.63720E-05-2.92667E-05-2.87613E-05 6.12574E-07-3.56712E-19-1.06170E-18
 -1      3650 9.60463E-05-2.92025E-05-2.86467E-05 6.39103E-07-1.54777E-19-7.76316E-19
 -1      3651 9.59830E-05-2.91776E-05-2.86297E-05 6.03376E-07-3.22307E-19-7.89928E-19
 -1      3652 9.62077E-05-2.92673E-05-2.86906E-05 5.68941E-07-4.20712E-20-8.16831E-19
 -1      3653 9.59021E-05-2.91373E-05-2.86132E-05 5.68444E-07-3.46572E-19-5.95989E-19
 -1      3654 9.58436E-05-2.90959E-05-2.86048E-05 5.32327E-07-3.86508E-19-4.97170E-19
 -1      3655 9.60445E-05-2.92099E-05-2.86451E-05 5.11524E-07-1.97677E-19-1.89170E-19
 -1      3656 9.57674E-05-2.90419E-05-2.85967E-05 5.00494E-07-4.85229E-19-6.36549E-19
 -1      3657 9.57137E-05-2.89892E-05-2.85949E-05 4.69667E-07-1.84186E-19-5.73226E-19
 -1      3658 9.58889E-05-2.91143E-05-2.86191E-05 4.53192E-07-3.28463E-19-1.51760E-19
 -1      3659 9.56421E-05-2.89254E-05-2.85932E-05 4.44883E-07-2.68798E-20-7.54799E-19
 -1      3660 9.55921E-05-2.88639E-05-2.85965E-05 4.23580E-07-1.89110E-19-6.84451E-19
 -1      3661 9.57426E-05-2.89926E-05-2.86082E-05 4.03300E-07-1.29134E-19-5.44220E-19
 -1      3662 9.55232E-05-2.87918E-05-2.85998E-05 4.08831E-07-3.06432E-19-7.00282E-19
 -1      3663 9.54749E-05-2.87220E-05-2.86072E-05 4.00417E-07-2.03329E-19-6.07933E-19
 -1      3664 9.56035E-05-2.88507E-05-2.86091E-05 3.68821E-07-1.84072E-19-1.05478E-18
 -1      3665 9.54056E-05-2.86408E-05-2.86145E-05 3.98218E-07-2.40958E-19-8.19839E-19
 -1      3666 9.53561E-05-2.85614E-05-2.86251E-05 4.05696E-07-1.24070E-19-7.03142E-19
 -1      3667 9.54667E-05-2.86896E-05-2.86191E-05 3.55212E-07-9.30496E-20-1.27123E-18
 -1      3668 9.52821E-05-2.84689E-05-2.86355E-05 4.18427E-07 1.61619E-20-6.88976E-19
 -1      3669 9.52277E-05-2.83774E-05-2.86490E-05 4.44744E-07-3.03474E-19-7.05745E-19
 -1      3670 9.53248E-05-2.85067E-05-2.86363E-05 3.67314E-07 4.62527E-20-1.04598E-18
 -1      3671 9.51436E-05-2.82703E-05-2.86618E-05 4.74827E-07-4.87854E-19-3.88824E-19
 -1      3672 9.50799E-05-2.81631E-05-2.86775E-05 5.23081E-07-1.11400E-19-3.88302E-19
 -1      3673 9.51684E-05-2.82961E-05-2.86590E-05 4.09756E-07-1.50860E-19-7.01471E-19
 -1      3674 9.49792E-05-2.80367E-05-2.86919E-05 5.73100E-07-9.67062E-20-5.06525E-19
 -1      3675 9.49006E-05-2.79095E-05-2.87094E-05 6.46649E-07-4.08127E-19-6.17604E-19
 -1      3676 9.49856E-05-2.80499E-05-2.86856E-05 4.87224E-07-3.30916E-19-4.23296E-19
 -1      3677 9.47755E-05-2.77584E-05-2.87245E-05 7.19367E-07-4.74133E-19-5.96070E-19
 -1      3678 9.46753E-05-2.76061E-05-2.87430E-05 8.21808E-07-2.37200E-20-1.14391E-18
 -1      3679 9.47624E-05-2.77580E-05-2.87142E-05 6.04578E-07-4.05436E-19-8.41239E-19
 -1      3680 9.45166E-05-2.74246E-05-2.87574E-05 9.20061E-07-2.37094E-19-1.45119E-18
 -1      3681 9.43868E-05-2.72418E-05-2.87756E-05 1.05509E-06-6.05862E-19-1.58756E-18
 -1      3682 9.44819E-05-2.74093E-05-2.87426E-05 7.66704E-07-3.97074E-19-8.98858E-19
 -1      3683 9.41835E-05-2.70238E-05-2.87874E-05 1.18156E-06-5.72921E-19-1.66499E-18
 -1      3684 9.40143E-05-2.68051E-05-2.88034E-05 1.35268E-06-7.56170E-19-1.40934E-18
 -1      3685 9.41243E-05-2.69920E-05-2.87670E-05 9.78127E-07-6.02722E-19-1.09930E-18
 -1      3686 9.37536E-05-2.65448E-05-2.88095E-05 1.50957E-06-8.44915E-19-7.39713E-19
 -1      3687 9.35334E-05-2.62856E-05-2.88204E-05 1.71973E-06-6.00717E-19-5.12928E-19
 -1      3688 9.36660E-05-2.64944E-05-2.87824E-05 1.24238E-06-2.83986E-19-7.17816E-19
 -1      3689 9.32002E-05-2.59781E-05-2.88166E-05 1.90838E-06-5.12761E-19-3.60572E-19
 -1      3690 9.29152E-05-2.56751E-05-2.88178E-05 2.15957E-06-1.15075E-19-1.34329E-19
 -1      3691 9.30796E-05-2.59065E-05-2.87812E-05 1.56119E-06-3.12906E-19 7.75112E-20
 -1      3692 9.24922E-05-2.53177E-05-2.87977E-05 2.38016E-06-5.12062E-19-3.59379E-19
 -1      3693 9.21265E-05-2.49706E-05-2.87826E-05 2.67317E-06-8.40559E-19-4.48316E-19
 -1      3694 9.23333E-05-2.52213E-05-2.87527E-05 1.93372E-06-7.49569E-19-2.38056E-19
 -1      3695 9.15933E-05-2.45640E-05-2.87375E-05 2.92485E-06-1.01020E-18-2.94555E-19
 -1      3696 9.11297E-05-2.41774E-05-2.86965E-05 3.25962E-06-1.19206E-18-2.89873E-19
 -1      3697 9.13900E-05-2.44374E-05-2.86815E-05 2.35613E-06-7.83497E-19 5.52305E-19
 -1      3698 9.04629E-05-2.37282E-05-2.86138E-05 3.54156E-06-9.78924E-19 2.80517E-19
 -1      3699 8.98835E-05-2.33147E-05-2.85333E-05 3.91895E-06-2.57603E-19 2.73330E-19
 -1      3700 9.02067E-05-2.35620E-05-2.85458E-05 2.82262E-06-6.92845E-19 3.45644E-19
 -1      3701 8.90553E-05-2.28377E-05-2.83958E-05 4.23339E-06 3.34954E-19-4.35931E-20
 -1      3702 8.83448E-05-2.24224E-05-2.82571E-05 4.65959E-06 1.37492E-18 4.61281E-19
 -1      3703 8.87333E-05-2.26143E-05-2.83157E-05 3.32909E-06 4.94893E-19 7.99908E-19
 -1      3704 8.73211E-05-2.19446E-05-2.80408E-05 5.01847E-06 1.65198E-18-2.74050E-19
 -1      3705 8.64706E-05-2.15713E-05-2.78184E-05 5.51409E-06 1.65894E-18-4.80257E-19
 -1      3706 8.69090E-05-2.16298E-05-2.79493E-05 3.88236E-06 1.21960E-18-2.37003E-19
 -1      3707 8.52066E-05-2.11359E-05-2.74898E-05 5.95115E-06 1.09319E-18-8.79000E-19
 -1      3708 8.42217E-05-2.08758E-05-2.71497E-05 6.56768E-06 1.22083E-18-1.12639E-18
 -1      3709 8.46567E-05-2.06649E-05-2.73888E-05 4.51822E-06 1.20894E-18-1.46074E-18
 -1      3710 8.26519E-05-2.05456E-05-2.66616E-05 7.16205E-06 9.65309E-19-1.41607E-18
 -1      3711 8.15771E-05-2.05147E-05-2.61587E-05 8.00672E-06 7.51747E-19-1.61609E-18
 -1      3712 8.18685E-05-1.97975E-05-2.65524E-05 5.33409E-06 7.38595E-19-1.93339E-18
 -1      3713 7.96024E-05-2.03765E-05-2.54404E-05 8.95390E-06 1.09252E-18-2.07905E-18
 -1      3714 7.85818E-05-2.07988E-05-2.47168E-05 1.02004E-05 7.34377E-19-1.76864E-18
 -1      3715 7.83495E-05-1.91197E-05-2.53192E-05 6.54355E-06 4.45657E-19-1.91224E-18
 -1      3716 9.63735E-05-2.82647E-05-2.91935E-05-5.00037E-07 3.80852E-19-1.41293E-18
 -1      3717 9.63694E-05-2.79448E-05-2.93187E-05-2.91687E-07 5.85222E-19-1.50690E-18
 -1      3718 9.58987E-05-2.91323E-05-2.86130E-05-7.13907E-07 1.71552E-19-1.32750E-19
 -1      3719 9.59503E-05-2.91460E-05-2.86297E-05-7.54241E-07 1.51332E-19-2.92565E-19
 -1      3720 9.54216E-05-2.44266E-05-3.04257E-05-1.55230E-06-4.98156E-19-1.63817E-18
 -1      3721 9.57589E-05-2.53819E-05-3.01687E-05-1.00720E-06-4.79669E-19-1.55143E-18
 -1      3722 9.59055E-05-2.55277E-05-3.01610E-05-7.66515E-07-4.70831E-19-1.49775E-18
 -1      3723 9.52828E-05-2.40676E-05-3.05237E-05-1.45727E-06-4.50906E-19-1.57582E-18
 -1      3724 9.53764E-05-2.86248E-05-2.86064E-05-4.38700E-07-1.73762E-19-2.53196E-19
 -1      3725 9.54117E-05-2.86899E-05-2.85960E-05-4.39479E-07 4.67904E-20-5.10214E-19
 -1      3726 9.54700E-05-2.87587E-05-2.85892E-05-4.48791E-07-1.62715E-19-9.68883E-19
 -1      3727 9.55061E-05-2.88166E-05-2.85819E-05-4.65765E-07-3.74481E-19-9.53329E-19
 -1      3728 9.54822E-05-2.87421E-05-2.86034E-05-4.10222E-07-4.07168E-19-3.67349E-19
 -1      3729 9.51732E-05-2.83024E-05-2.86574E-05-5.31022E-07-5.05654E-19-7.38463E-20
 -1      3730 9.52143E-05-2.83866E-05-2.86420E-05-4.89883E-07-7.75723E-19-1.21829E-19
 -1      3731 9.50502E-05-2.81052E-05-2.86891E-05-6.46505E-07-4.33607E-19 9.34036E-20
 -1      3732 9.50981E-05-2.82021E-05-2.86718E-05-5.79143E-07-2.81718E-19-4.59609E-20
 -1      3733 9.51020E-05-2.82091E-05-2.86677E-05-5.16622E-07-3.18068E-19-2.42046E-19
 -1      3734 9.49029E-05-2.78777E-05-2.87233E-05-8.18285E-07 5.51752E-19-1.87349E-19
 -1      3735 9.49606E-05-2.79892E-05-2.87046E-05-7.20662E-07 1.29907E-19 4.59326E-21
 -1      3736 9.49387E-05-2.79770E-05-2.86968E-05-6.36449E-07 9.90985E-20-9.53074E-19
 -1      3737 9.47241E-05-2.76166E-05-2.87584E-05-1.05514E-06 6.07881E-19 1.42212E-19
 -1      3738 9.47939E-05-2.77437E-05-2.87390E-05-9.22835E-07 7.68519E-19 2.67128E-19
 -1      3739 9.47417E-05-2.77087E-05-2.87269E-05-8.10743E-07 5.15297E-19-5.81858E-20
 -1      3740 9.45073E-05-2.73215E-05-2.87916E-05-1.36669E-06 7.89676E-19 4.13228E-19
 -1      3741 9.45911E-05-2.74635E-05-2.87728E-05-1.19507E-06 5.70878E-19-1.77305E-20
 -1      3742 9.45014E-05-2.74006E-05-2.87554E-05-1.04857E-06 5.36234E-19-8.73988E-20
 -1      3743 9.42485E-05-2.69976E-05-2.88191E-05-1.76315E-06 4.82440E-19 6.25419E-19
 -1      3744 9.43464E-05-2.71506E-05-2.88027E-05-1.54762E-06 8.80343E-19 9.09305E-19
 -1      3745 9.42094E-05-2.70527E-05-2.87788E-05-1.36025E-06 4.59906E-19 3.07854E-20
 -1      3746 9.39486E-05-2.66585E-05-2.88354E-05-2.25478E-06-8.70101E-21 5.06195E-19
 -1      3747 9.40580E-05-2.68139E-05-2.88241E-05-1.99122E-06 5.30139E-19 6.50309E-19
 -1      3748 9.38599E-05-2.66714E-05-2.87919E-05-1.75737E-06 4.95049E-19 4.04728E-19
 -1      3749 9.36170E-05-2.63307E-05-2.88330E-05-2.85139E-06-9.20651E-19 1.11336E-18
 -1      3750 9.37302E-05-2.64729E-05-2.88305E-05-2.53665E-06-4.08910E-19 9.19409E-19
 -1      3751 9.34523E-05-2.62725E-05-2.87878E-05-2.25286E-06-4.46930E-19 8.31736E-19
 -1      3752 9.32769E-05-2.60595E-05-2.88024E-05-3.56171E-06-9.20118E-19 1.28747E-18
 -1      3753 9.33783E-05-2.61625E-05-2.88132E-05-3.19419E-06-7.28143E-19 1.26145E-18
 -1      3754 9.29954E-05-2.58864E-05-2.87573E-05-2.86115E-06-7.25458E-19 6.30294E-19
 -1      3755 9.29730E-05-2.59160E-05-2.87319E-05-4.39276E-06-9.14122E-19 3.06925E-20
 -1      3756 9.30349E-05-2.59399E-05-2.87616E-05-3.97318E-06-1.07802E-18 1.17107E-18
 -1      3757 9.25125E-05-2.55638E-05-2.86891E-05-3.59878E-06-6.02420E-19 1.78022E-20
 -1      3758 9.27826E-05-2.60059E-05-2.86091E-05-5.34888E-06-7.99351E-19 8.25182E-19
 -1      3759 9.27589E-05-2.58920E-05-2.86633E-05-4.88138E-06-8.31579E-19 3.55564E-19
 -1      3760 9.20497E-05-2.53837E-05-2.85695E-05-4.48539E-06-8.24364E-19 1.24694E-19
 -1      3761 9.28308E-05-2.64793E-05-2.84231E-05-6.42922E-06-7.57736E-19 5.55363E-19
 -1      3762 9.26493E-05-2.61455E-05-2.85060E-05-5.92369E-06-2.88963E-19 8.40640E-19
 -1      3763 9.16877E-05-2.54620E-05-2.83840E-05-5.54483E-06-5.15815E-19-1.10853E-19
 -1      3764 9.33107E-05-2.75401E-05-2.81687E-05-7.62013E-06-8.19609E-19-2.66923E-19
 -1      3765 9.28629E-05-2.68766E-05-2.82804E-05-7.09777E-06-9.97781E-19 2.83910E-19
 -1      3766 9.15585E-05-2.59637E-05-2.81197E-05-6.80507E-06-2.70510E-19-8.68646E-20
 -1      3767 9.45072E-05-2.94496E-05-2.78568E-05-8.87397E-06-2.45925E-18 6.17779E-19
 -1      3768 9.36400E-05-2.83194E-05-2.79874E-05-8.38043E-06-1.84476E-18 6.43962E-20
 -1      3769 9.18704E-05-2.71160E-05-2.77703E-05-8.29169E-06-1.75826E-18 9.37698E-19
 -1      3770 9.68181E-05-3.25110E-05-2.75298E-05-1.00605E-05-1.57147E-18 2.57279E-18
 -1      3771 9.53325E-05-3.07634E-05-2.76508E-05-9.69415E-06-2.04771E-18 2.04644E-18
 -1      3772 9.29424E-05-2.92177E-05-2.73474E-05-1.00032E-05-2.96532E-18 2.55956E-18
 -1      3773 1.00755E-04-3.70026E-05-2.72916E-05-1.08592E-05-1.43258E-18 2.56711E-18
 -1      3774 9.84338E-05-3.45274E-05-2.73390E-05-1.08286E-05-1.15764E-18 2.68820E-18
 -1      3775 9.52500E-05-3.26420E-05-2.68988E-05-1.18587E-05-1.49016E-18 3.69736E-18
 -1      3776 1.06887E-04-4.28975E-05-2.73738E-05-1.04885E-05-2.43744E-18 1.85044E-18
 -1      3777 1.03577E-04-3.98689E-05-2.72122E-05-1.12508E-05-1.81514E-18 2.02471E-18
 -1      3778 9.94897E-05-3.77741E-05-2.65516E-05-1.35315E-05-1.50373E-18 2.75122E-18
 -1      3779 1.06379E-04-4.70922E-05-2.52219E-05-1.92388E-05-2.09043E-18-1.26356E-18
 -1      3780 1.13263E-04-5.03228E-05-2.72059E-05-1.27246E-05-1.99452E-18-9.56658E-19
 -1      3781 7.67095E-05-2.14142E-05-2.37279E-05 1.23982E-05 3.42287E-20-1.33235E-18
 -1      3782 7.71968E-05-2.35811E-05-2.28723E-05 1.51426E-05 5.42465E-20-9.57733E-19
 -1      3783 7.10867E-05-2.17593E-05-2.10818E-05 1.52615E-05 3.11606E-19-1.70606E-18
 -1      3784 7.44071E-05-1.93675E-05-2.35549E-05 9.43541E-06 9.36584E-19-2.61283E-18
 -1      3785 9.52796E-05-2.84740E-05-2.86295E-05-4.64046E-07-8.25577E-19 2.24780E-20
 -1      3786 9.53165E-05-2.85477E-05-2.86165E-05-4.45510E-07-3.40615E-19 2.68222E-20
 -1      3787 9.52412E-05-2.84104E-05-2.86415E-05-4.43403E-07-7.03938E-19 6.75340E-20
 -1      3788 9.57786E-05-2.90706E-05-2.85878E-05-6.29833E-07 2.64130E-19-4.25864E-19
 -1      3789 9.58258E-05-2.91015E-05-2.85959E-05-6.72895E-07 3.74449E-19-1.49997E-19
 -1      3790 9.59908E-05-2.91808E-05-2.86345E-05-6.27317E-07 2.83878E-19-2.45448E-19
 -1      3791 9.60257E-05-2.91549E-05-2.86580E-05-7.89848E-07 1.09628E-19-5.14478E-19
 -1      3792 9.60803E-05-2.91423E-05-2.86863E-05-8.17865E-07 2.20659E-19-6.42997E-19
 -1      3793 9.61375E-05-2.92161E-05-2.86825E-05-6.93894E-07-1.24766E-19-2.44447E-21
 -1      3794 9.42514E-05-2.18515E-05-3.10326E-05 2.13450E-06 9.41557E-19-1.86416E-18
 -1      3795 9.48133E-05-2.28903E-05-3.08065E-05 1.55300E-06 7.90584E-19-1.78576E-18
 -1      3796 9.44763E-05-2.23537E-05-3.09294E-05 2.57173E-06 1.09605E-18-1.83463E-18
 -1      3797 1.19555E-04-5.16777E-05-2.88169E-05-5.64054E-06-1.37811E-18 1.57358E-18
 -1      3798 6.93672E-05-2.61512E-05-1.84403E-05-2.38858E-05 2.40094E-19-2.41055E-18
 -1      3799 7.75609E-05-3.21808E-05-1.93027E-05-2.78151E-05-2.12367E-19-2.25380E-18
 -1      3800 8.50072E-05-3.48446E-05-2.13290E-05-2.52770E-05-1.15894E-18-1.42595E-18
 -1      3801 9.52165E-05-2.41059E-05-3.04634E-05 2.06063E-06 9.61778E-19-1.68434E-18
 -1      3802 9.63532E-05-2.87250E-05-2.89856E-05-7.35354E-07 3.54434E-19-1.04734E-18
 -1      3803 9.63832E-05-2.85274E-05-2.90764E-05-6.24998E-07 2.71450E-19-1.25360E-18
 -1      3804 9.65403E-05-2.83478E-05-2.92262E-05-4.62379E-07 2.76409E-19-1.41290E-18
 -1      3805 9.61532E-05-2.91174E-05-2.87293E-05-8.38262E-07 2.41626E-19-9.67851E-19
 -1      3806 9.62074E-05-2.90650E-05-2.87730E-05-8.40547E-07 3.57199E-19-1.03870E-18
 -1      3807 9.62839E-05-2.91893E-05-2.87568E-05-7.38042E-07 1.11790E-19-6.62952E-19
 -1      3808 1.13712E-04-4.85464E-05-2.79142E-05-8.73843E-06-2.21826E-18 1.03795E-18
 -1      3809 9.62691E-05-2.89888E-05-2.88351E-05-8.32229E-07 4.04535E-19-8.19062E-19
 -1      3810 9.63166E-05-2.88773E-05-2.88992E-05-7.90385E-07 4.81848E-19-1.19350E-18
 -1      3811 9.65138E-05-2.88087E-05-2.90181E-05-6.58006E-07 4.17141E-19-1.16827E-18
 -1      3812 9.57318E-05-2.66752E-05-2.96017E-05 7.81519E-07 8.61966E-19-9.65293E-19
 -1      3813 9.56583E-05-2.61733E-05-2.97738E-05 1.33317E-06 1.02243E-18-1.07668E-18
 -1      3814 9.55971E-05-2.56039E-05-2.99929E-05 1.57699E-06 9.10943E-19-1.40039E-18
 -1      3815 9.59144E-05-2.66951E-05-2.96731E-05 6.51259E-07 8.77445E-19-1.51120E-18
 -1      3816 9.38124E-05-2.09467E-05-3.12377E-05-2.13945E-07 8.37860E-20-2.43606E-18
 -1      3817 9.38570E-05-2.10378E-05-3.12196E-05-7.74554E-07-8.40024E-20-2.23129E-18
 -1      3818 9.46048E-05-2.23752E-05-3.09369E-05-8.06184E-07-9.82011E-20-2.15322E-18
 -1      3819 9.45348E-05-2.22153E-05-3.09764E-05 1.24721E-08 1.92095E-19-2.29841E-18
 -1      3820 9.47990E-05-2.28630E-05-3.08133E-05-1.54325E-06-2.46743E-19-1.80181E-18
 -1      3821 9.51832E-05-2.37591E-05-3.06135E-05-1.17905E-06-3.18454E-19-1.74726E-18
 -1      3822 9.51326E-05-2.35677E-05-3.06820E-05 8.35013E-07 7.08694E-19-1.82686E-18
 -1      3823 9.50741E-05-2.34023E-05-3.07240E-05 4.85029E-07 5.18861E-19-1.94745E-18
 -1      3824 9.53652E-05-2.85865E-05-2.86196E-05-4.09972E-07-6.20794E-19 2.13513E-19
 -1      3825 9.64168E-05-2.90685E-05-2.88655E-05-7.36480E-07 4.33737E-19-9.93604E-19
 -1      3826 9.52978E-05-2.40952E-05-3.05302E-05 1.35620E-06 7.68934E-19-1.72742E-18
 -1      3827 9.52040E-05-2.37689E-05-3.06181E-05 1.07610E-06 7.19018E-19-1.82929E-18
 -1      3828 9.56412E-05-2.46259E-05-3.04201E-05 7.02390E-07 6.86798E-19-1.72572E-18
 -1      3829 6.82321E-05-1.90775E-05-2.10321E-05 1.12078E-05 5.45921E-19-2.17803E-18
 -1      3830 6.29752E-05-1.69519E-05-1.97046E-05 6.78258E-06 9.00502E-20-2.08529E-18
 -1      3831 5.72132E-05-1.52520E-05-1.76648E-05 1.83093E-06-2.94853E-19-3.54425E-18
 -1      3832 5.93688E-05-1.58422E-05-1.85769E-05-3.57823E-06-6.09467E-19-4.36410E-18
 -1      3833 9.55991E-05-2.88808E-05-2.85944E-05-4.38650E-07-2.28310E-19-5.21686E-19
 -1      3834 9.55658E-05-2.88783E-05-2.85790E-05-4.88429E-07 3.99825E-20-1.20343E-18
 -1      3835 9.56044E-05-2.89291E-05-2.85756E-05-5.18356E-07 2.60082E-19-1.04460E-18
 -1      3836 1.09671E-04-4.54231E-05-2.73909E-05-1.06672E-05-2.39936E-18 1.05144E-18
 -1      3837 1.04900E-04-4.35999E-05-2.64290E-05-1.45619E-05-2.06796E-18 3.35339E-20
 -1      3838 1.01145E-04-4.44577E-05-2.43429E-05-2.17508E-05-1.45398E-18-5.47302E-19
 -1      3839 1.03936E-04-4.38825E-05-2.56376E-05-1.71299E-05-1.55689E-18-6.08940E-19
 -1      3840 1.01115E-04-4.09735E-05-2.56618E-05-1.66330E-05-1.38840E-18 4.98399E-19
 -1      3841 9.59407E-05-4.05647E-05-2.36361E-05-2.23960E-05-1.34480E-18-8.25712E-19
 -1      3842 9.64431E-05-2.76023E-05-2.95034E-05-9.86886E-08 6.94498E-19-1.47332E-18
 -1      3843 9.62861E-05-2.75256E-05-2.94748E-05-6.27496E-08 8.06512E-19-1.57329E-18
 -1      3844 9.57104E-05-2.90258E-05-2.85792E-05-5.90348E-07 4.72599E-19-5.84705E-19
 -1      3845 9.58512E-05-2.91052E-05-2.86068E-05-5.55067E-07 6.66024E-19-5.64191E-19
 -1      3846 9.56679E-05-2.89834E-05-2.85777E-05-5.51338E-07 4.84470E-19-9.81648E-19
 -1      3847 9.56174E-05-2.52628E-05-3.01599E-05 1.59394E-06 8.63882E-19-1.62907E-18
 -1      3848 9.53889E-05-2.43935E-05-3.04230E-05 1.50242E-06 7.47127E-19-1.64644E-18
 -1      3849 9.57414E-05-2.51563E-05-3.02451E-05 9.85147E-07 6.59154E-19-1.60959E-18
 -1      3850 9.57979E-05-2.58405E-05-2.99773E-05 1.06387E-06 7.74002E-19-1.60863E-18
 -1      3851 6.53517E-05-2.20012E-05-1.83251E-05-1.99101E-05-4.03399E-19-3.50100E-18
 -1      3852 7.27835E-05-2.53333E-05-2.01921E-05-2.05517E-05-7.21202E-19-2.63009E-18
 -1      3853 6.24203E-05-1.89229E-05-1.86575E-05-1.40617E-05-9.98546E-19-4.29501E-18
 -1      3854 9.50689E-05-2.33931E-05-3.07258E-05-4.65069E-07 5.04634E-20-1.97615E-18
 -1      3855 9.51264E-05-2.35447E-05-3.06871E-05-8.17212E-07-1.39653E-19-2.01372E-18
 -1      3856 9.62141E-05-2.71148E-05-2.96039E-05 2.16776E-07 9.34805E-19-1.48463E-18
 -1      3857 9.56204E-05-2.46228E-05-3.04171E-05-8.10875E-07-3.35592E-19-1.68973E-18
 -1      3858 9.53510E-05-2.85443E-05-2.86304E-05-3.61041E-07-8.65950E-19 1.51152E-19
 -1      3859 9.54112E-05-2.86309E-05-2.86210E-05-3.52543E-07-6.45342E-19 8.08644E-20
 -1      3860 9.60650E-05-2.92177E-05-2.86476E-05-5.22853E-07 6.89027E-19-4.73924E-19
 -1      3861 9.61379E-05-2.92467E-05-2.86669E-05-5.53381E-07 1.90397E-19-1.21304E-19
 -1      3862 9.63146E-05-2.64159E-05-2.99574E-05-3.40064E-07-2.14586E-19-1.45962E-18
 -1      3863 9.65030E-05-2.70550E-05-2.97678E-05-6.87536E-08-2.25515E-19-1.31128E-18
 -1      3864 9.66690E-05-2.76102E-05-2.95949E-05 5.97903E-08-2.06124E-19-1.12587E-18
 -1      3865 9.67464E-05-2.80469E-05-2.94460E-05 2.29777E-07-2.44414E-19-1.07288E-18
 -1      3866 9.66227E-05-2.72221E-05-2.97415E-05-2.17355E-08-5.68126E-20-1.21556E-18
 -1      3867 9.68032E-05-2.84075E-05-2.93102E-05 3.07129E-07-5.43703E-19-1.00635E-18
 -1      3868 9.68027E-05-2.86833E-05-2.91961E-05 4.05041E-07-6.06826E-19-9.40156E-19
 -1      3869 9.68425E-05-2.81704E-05-2.94304E-05 1.91871E-07-3.19905E-19-1.25976E-18
 -1      3870 9.67860E-05-2.88999E-05-2.90920E-05 4.42817E-07-6.05041E-19-8.80978E-19
 -1      3871 9.67398E-05-2.90596E-05-2.90066E-05 4.89747E-07-6.33157E-19-1.07952E-18
 -1      3872 9.68787E-05-2.87742E-05-2.91882E-05 3.16657E-07-6.41867E-19-1.12331E-18
 -1      3873 9.66790E-05-2.91749E-05-2.89286E-05 4.98884E-07-5.82160E-19-1.04848E-18
 -1      3874 9.66081E-05-2.92528E-05-2.88664E-05 5.11299E-07-5.20477E-19-9.13545E-19
 -1      3875 9.68001E-05-2.91273E-05-2.90041E-05 3.75650E-07-5.50646E-19-9.73028E-19
 -1      3876 9.65238E-05-2.92979E-05-2.88097E-05 5.02284E-07-2.90728E-19-7.52511E-19
 -1      3877 9.64421E-05-2.93199E-05-2.87660E-05 4.93272E-07-4.69710E-20-5.85421E-19
 -1      3878 9.66550E-05-2.93016E-05-2.88676E-05 3.88793E-07-3.90654E-19-6.99750E-19
 -1      3879 9.63481E-05-2.93179E-05-2.87262E-05 4.74225E-07-9.32210E-20-4.60856E-19
 -1      3880 9.62644E-05-2.93025E-05-2.86969E-05 4.53747E-07-8.12806E-20-4.29571E-19
 -1      3881 9.64773E-05-2.93529E-05-2.87696E-05 3.73505E-07 7.84545E-21-2.10144E-19
 -1      3882 9.61690E-05-2.92695E-05-2.86706E-05 4.30695E-07-1.29833E-19-6.85888E-19
 -1      3883 9.60881E-05-2.92296E-05-2.86525E-05 4.06106E-07-2.46292E-19-4.85040E-19
 -1      3884 9.62891E-05-2.93216E-05-2.87022E-05 3.43104E-07-1.35206E-19-5.58112E-19
 -1      3885 9.59959E-05-2.91763E-05-2.86366E-05 3.83364E-07-5.47446E-19-4.01454E-19
 -1      3886 9.59196E-05-2.91200E-05-2.86272E-05 3.60020E-07-5.40224E-19-6.39695E-19
 -1      3887 9.61030E-05-2.92359E-05-2.86590E-05 3.07656E-07-3.56373E-19-9.24020E-19
 -1      3888 9.58318E-05-2.90529E-05-2.86195E-05 3.40784E-07-3.66568E-19-6.93460E-19
 -1      3889 9.57600E-05-2.89848E-05-2.86168E-05 3.22603E-07-1.92854E-19-7.25207E-19
 -1      3890 9.59244E-05-2.91136E-05-2.86346E-05 2.74232E-07-3.91891E-19-8.59178E-19
 -1      3891 9.56759E-05-2.89071E-05-2.86154E-05 3.09170E-07-7.34469E-20-9.26739E-19
 -1      3892 9.56068E-05-2.88291E-05-2.86180E-05 2.99073E-07-2.39781E-19-6.90469E-19
 -1      3893 9.57542E-05-2.89654E-05-2.86247E-05 2.48130E-07-2.61354E-19-8.69789E-19
 -1      3894 9.55233E-05-2.87413E-05-2.86214E-05 2.93129E-07-5.10648E-19-7.41864E-19
 -1      3895 9.54537E-05-2.86528E-05-2.86281E-05 2.93643E-07-2.21000E-19-1.02206E-18
 -1      3896 9.55884E-05-2.87952E-05-2.86262E-05 2.33437E-07-2.76780E-19-6.84980E-19
 -1      3897 9.53667E-05-2.85533E-05-2.86352E-05 2.96878E-07-6.75140E-20-1.07928E-18
 -1      3898 9.52924E-05-2.84522E-05-2.86451E-05 3.10239E-07 2.33948E-20-1.04174E-18
 -1      3899 9.54199E-05-2.86018E-05-2.86364E-05 2.33150E-07-2.86274E-19-1.31222E-18
 -1      3900 9.51964E-05-2.83379E-05-2.86549E-05 3.24099E-07 1.34784E-19-8.39977E-19
 -1      3901 9.51120E-05-2.82208E-05-2.86671E-05 3.52448E-07-2.03397E-19-7.25886E-19
 -1      3902 9.52392E-05-2.83810E-05-2.86530E-05 2.50367E-07-3.95121E-20-1.40085E-18
 -1      3903 9.50003E-05-2.80875E-05-2.86787E-05 3.78349E-07-4.93137E-19-7.74105E-19
 -1      3904 9.48992E-05-2.79497E-05-2.86923E-05 4.23833E-07-5.59607E-19-1.00277E-18
 -1      3905 9.50341E-05-2.81253E-05-2.86740E-05 2.87560E-07-4.45640E-19-1.00131E-18
 -1      3906 9.47636E-05-2.77920E-05-2.87044E-05 4.63168E-07-7.58189E-19-1.16953E-18
 -1      3907 9.46380E-05-2.76282E-05-2.87185E-05 5.27901E-07-3.91327E-19-1.31034E-18
 -1      3908 9.47898E-05-2.78252E-05-2.86972E-05 3.47072E-07-8.38613E-19-8.54204E-19
 -1      3909 9.44691E-05-2.74403E-05-2.87296E-05 5.81894E-07-2.96540E-19-1.11644E-18
 -1      3910 9.43098E-05-2.72448E-05-2.87425E-05 6.67801E-07-6.14644E-19-1.18895E-18
 -1      3911 9.44890E-05-2.74696E-05-2.87198E-05 4.30846E-07-3.38487E-19-1.00342E-18
 -1      3912 9.40966E-05-2.70206E-05-2.87506E-05 7.37271E-07-5.24625E-19-4.45719E-19
 -1      3913 9.38927E-05-2.67877E-05-2.87602E-05 8.45800E-07-1.37491E-19-4.29927E-19
 -1      3914 9.41116E-05-2.70468E-05-2.87380E-05 5.40011E-07-1.63340E-19-9.17705E-19
 -1      3915 9.36224E-05-2.65212E-05-2.87623E-05 9.30800E-07-2.36707E-19-1.55200E-19
 -1      3916 9.33611E-05-2.62456E-05-2.87654E-05 1.06252E-06-2.84567E-20 1.45061E-19
 -1      3917 9.36340E-05-2.65453E-05-2.87469E-05 6.74222E-07 1.57766E-20 1.71244E-19
 -1      3918 9.30194E-05-2.59321E-05-2.87574E-05 1.16186E-06-9.86845E-20 3.14808E-19
 -1      3919 9.26855E-05-2.56098E-05-2.87494E-05 1.31597E-06-3.83579E-19 2.99006E-19
 -1      3920 9.30298E-05-2.59551E-05-2.87391E-05 8.30752E-07-5.39585E-21 2.49694E-19
 -1      3921 9.22560E-05-2.52462E-05-2.87254E-05 1.42672E-06-6.87027E-19 8.18271E-19
 -1      3922 9.18321E-05-2.48753E-05-2.86998E-05 1.60064E-06-8.84811E-19 4.18001E-19
 -1      3923 9.22684E-05-2.52692E-05-2.87046E-05 1.00338E-06-1.20737E-19 6.02174E-19
 -1      3924 9.12957E-05-2.44612E-05-2.86516E-05 1.71766E-06-7.38391E-19 1.10722E-18
 -1      3925 9.07613E-05-2.40434E-05-2.85994E-05 1.90692E-06-2.42795E-19 1.03361E-18
 -1      3926 9.13152E-05-2.44855E-05-2.86292E-05 1.18126E-06-1.55870E-19 1.72249E-18
 -1      3927 9.00957E-05-2.35825E-05-2.85158E-05 2.02280E-06-7.07082E-19 1.63247E-18
 -1      3928 8.94270E-05-2.31239E-05-2.84240E-05 2.22182E-06-6.32193E-19 1.81096E-18
 -1      3929 9.01297E-05-2.36084E-05-2.84935E-05 1.34808E-06-8.78236E-20 2.62572E-18
 -1      3930 8.86040E-05-2.26247E-05-2.82897E-05 2.32766E-06-4.31018E-19 1.27063E-18
 -1      3931 8.77724E-05-2.21375E-05-2.81406E-05 2.53224E-06 3.83311E-19 1.40820E-18
 -1      3932 8.86632E-05-2.26506E-05-2.82709E-05 1.48223E-06-5.54470E-19 2.48727E-18
 -1      3933 8.67541E-05-2.16139E-05-2.79342E-05 2.62018E-06 6.50008E-19 4.80587E-19
 -1      3934 8.57237E-05-2.11175E-05-2.77033E-05 2.83313E-06 1.06264E-18-5.20464E-20
 -1      3935 8.68525E-05-2.16326E-05-2.79249E-05 1.55906E-06-1.16856E-19 1.22259E-18
 -1      3936 8.44535E-05-2.05876E-05-2.73949E-05 2.90209E-06 7.99085E-19-1.15593E-18
 -1      3937 8.31757E-05-2.01089E-05-2.70480E-05 3.14402E-06 2.96080E-19-1.14239E-18
 -1      3938 8.46075E-05-2.05807E-05-2.74044E-05 1.55724E-06 1.61299E-19 3.84756E-19
 -1      3939 8.15642E-05-1.95929E-05-2.65946E-05 3.20612E-06 4.13802E-19-2.01561E-18
 -1      3940 7.99686E-05-1.91603E-05-2.60826E-05 3.52976E-06 6.12106E-19-2.13021E-18
 -1      3941 8.17915E-05-1.95232E-05-2.66368E-05 1.47126E-06-1.72633E-20-1.41109E-18
 -1      3942 7.78655E-05-1.86872E-05-2.54187E-05 3.64204E-06 8.70330E-19-1.73940E-18
 -1      3943 7.59006E-05-1.83257E-05-2.46779E-05 4.12110E-06 8.08624E-19-1.34796E-18
 -1      3944 7.81618E-05-1.84543E-05-2.55150E-05 1.31626E-06 9.73811E-19-1.61726E-18
 -1      3945 9.59092E-05-2.53441E-05-3.02435E-05-5.21820E-07-2.61350E-19-1.69507E-18
 -1      3946 9.54885E-05-2.87183E-05-2.86146E-05-3.53315E-07-4.53126E-19 5.94709E-20
 -1      3947 9.55471E-05-2.87951E-05-2.86085E-05-3.59236E-07-4.70549E-19-1.39594E-19
 -1      3948 9.54710E-05-2.86804E-05-2.86249E-05-2.99917E-07-6.02049E-19 4.89025E-19
 -1      3949 9.48343E-05-2.78571E-05-2.87036E-05-5.91590E-07 4.60295E-19-6.46488E-19
 -1      3950 9.49244E-05-2.79886E-05-2.86890E-05-5.21678E-07 1.49683E-19-5.02407E-19
 -1      3951 9.50340E-05-2.81197E-05-2.86766E-05-4.74206E-07-9.21913E-20-4.53996E-19
 -1      3952 9.51096E-05-2.82333E-05-2.86629E-05-4.28109E-07-1.89709E-19-4.54766E-19
 -1      3953 9.49384E-05-2.80068E-05-2.86837E-05-4.26102E-07 1.80362E-19-3.22379E-19
 -1      3954 9.42952E-05-2.72019E-05-2.87532E-05-9.86140E-07 8.21616E-19-7.32638E-19
 -1      3955 9.44289E-05-2.73759E-05-2.87406E-05-8.55967E-07 5.24381E-19-4.89587E-19
 -1      3956 9.39336E-05-2.68050E-05-2.87681E-05-1.28292E-06-1.28971E-20-1.17835E-19
 -1      3957 9.40953E-05-2.70000E-05-2.87596E-05-1.11506E-06 2.64441E-19-4.26497E-19
 -1      3958 9.40459E-05-2.69655E-05-2.87452E-05-9.07143E-07 5.44820E-19-3.97385E-19
 -1      3959 9.34992E-05-2.63682E-05-2.87689E-05-1.66212E-06-3.14829E-19 3.84978E-19
 -1      3960 9.36907E-05-2.65795E-05-2.87674E-05-1.45064E-06 8.40870E-20 1.34948E-19
 -1      3961 9.36067E-05-2.65149E-05-2.87492E-05-1.18649E-06-5.21738E-19 3.50266E-19
 -1      3962 9.29897E-05-2.59080E-05-2.87471E-05-2.13875E-06-6.25368E-19 7.22802E-19
 -1      3963 9.32092E-05-2.61251E-05-2.87569E-05-1.87687E-06-3.74579E-19 8.02235E-19
 -1      3964 9.30776E-05-2.60189E-05-2.87340E-05-1.54707E-06-5.91221E-19 8.70829E-19
 -1      3965 9.24116E-05-2.54559E-05-2.86921E-05-2.73118E-06-4.15428E-19 3.91381E-19
 -1      3966 9.26517E-05-2.56600E-05-2.87185E-05-2.41097E-06-5.54396E-19 4.57585E-19
 -1      3967 9.24533E-05-2.54952E-05-2.86900E-05-2.00740E-06-3.54019E-19 4.35449E-21
 -1      3968 9.17865E-05-2.50642E-05-2.85905E-05-3.46268E-06-7.11093E-19-1.43637E-19
 -1      3969 9.20304E-05-2.52250E-05-2.86399E-05-3.07445E-06-5.61892E-19-1.23976E-19
 -1      3970 9.17369E-05-2.49770E-05-2.86044E-05-2.59191E-06-1.66155E-19-7.02039E-19
 -1      3971 9.11585E-05-2.48134E-05-2.84262E-05-4.36391E-06-8.20584E-19-2.22538E-19
 -1      3972 9.13753E-05-2.48849E-05-2.85063E-05-3.89530E-06-7.77923E-19 1.68477E-19
 -1      3973 9.09452E-05-2.45184E-05-2.84613E-05-3.33378E-06-1.00952E-18 1.23263E-19
 -1      3974 9.06061E-05-2.48212E-05-2.81817E-05-5.47617E-06-6.45148E-19-3.10764E-19
 -1      3975 9.07433E-05-2.47366E-05-2.83002E-05-4.91109E-06-5.96572E-19-4.07120E-19
 -1      3976 9.01154E-05-2.42017E-05-2.82418E-05-4.27937E-06-7.99795E-19-5.08241E-19
 -1      3977 9.02586E-05-2.52547E-05-2.78403E-05-6.85460E-06-8.18847E-19 2.65333E-19
 -1      3978 9.02319E-05-2.49196E-05-2.80034E-05-6.17300E-06-8.40352E-19-2.58395E-19
 -1      3979 8.93146E-05-2.41459E-05-2.79242E-05-5.49458E-06-7.19215E-19 1.58834E-20
 -1      3980 9.03243E-05-2.63462E-05-2.73906E-05-8.56698E-06-2.67321E-18 1.16749E-18
 -1      3981 9.00009E-05-2.56296E-05-2.75999E-05-7.74884E-06-1.23767E-18 9.11970E-19
 -1      3982 8.86566E-05-2.45197E-05-2.74862E-05-7.07295E-06-1.54849E-18 9.93610E-19
 -1      3983 9.11268E-05-2.84132E-05-2.68374E-05-1.06789E-05-3.34509E-18 1.73270E-18
 -1      3984 9.03110E-05-2.71372E-05-2.70825E-05-9.71590E-06-3.60875E-18 1.00610E-18
 -1      3985 8.83307E-05-2.55648E-05-2.69082E-05-9.14046E-06-3.07344E-18 6.86883E-19
 -1      3986 9.31564E-05-3.18587E-05-2.62200E-05-1.31849E-05-1.10792E-18 1.90809E-18
 -1      3987 9.15798E-05-2.97966E-05-2.64681E-05-1.21108E-05-2.00804E-18 1.58739E-18
 -1      3988 8.86822E-05-2.76618E-05-2.61832E-05-1.18361E-05-2.82105E-18-2.50268E-19
 -1      3989 9.71399E-05-3.72097E-05-2.56423E-05-1.58932E-05-1.54905E-18 6.88106E-19
 -1      3990 9.44897E-05-3.41251E-05-2.58212E-05-1.48891E-05-8.26789E-19 1.54106E-18
 -1      3991 9.02058E-05-3.12163E-05-2.53438E-05-1.52487E-05-1.01127E-18-3.27590E-19
 -1      3992 9.66466E-05-2.89183E-05-2.90278E-05-5.84590E-07 4.61625E-19-1.27280E-18
 -1      3993 9.66821E-05-2.87319E-05-2.91186E-05-5.12919E-07 3.08463E-19-1.31301E-18
 -1      3994 9.62279E-05-2.92686E-05-2.86959E-05-5.81524E-07-3.24114E-19-9.55436E-20
 -1      3995 9.63031E-05-2.92708E-05-2.87269E-05-6.04675E-07-2.22749E-19-3.56454E-19
 -1      3996 9.62825E-05-2.93042E-05-2.87069E-05-4.72401E-07 7.72897E-20-5.78846E-19
 -1      3997 9.66807E-05-2.84823E-05-2.92309E-05-4.44310E-07 1.78542E-19-1.32497E-18
 -1      3998 9.66700E-05-2.81716E-05-2.93528E-05-3.03222E-07 2.69251E-19-1.28773E-18
 -1      3999 9.67901E-05-2.85763E-05-2.92350E-05-3.77693E-07 2.63725E-19-1.12912E-18
 -1      4000 9.50499E-05-2.33329E-05-3.07452E-05 1.95790E-07 4.30697E-19-2.05718E-18
 -1      4001 9.50484E-05-2.33303E-05-3.07459E-05-1.76514E-07 1.71636E-19-2.13437E-18
 -1      4002 9.55939E-05-2.43738E-05-3.05035E-05 2.52674E-07 5.53728E-19-1.78929E-18
 -1      4003 9.55910E-05-2.43672E-05-3.05047E-05-2.30869E-07 1.31751E-19-1.85422E-18
 -1      4004 7.24422E-05-1.77333E-05-2.35003E-05 4.91257E-06 6.69851E-19-1.78496E-18
 -1      4005 7.04668E-05-1.80751E-05-2.24094E-05 6.82168E-06 7.12399E-19-2.03914E-18
 -1      4006 9.63903E-05-2.92588E-05-2.87701E-05-6.24730E-07-2.47942E-19-4.09370E-19
 -1      4007 9.64627E-05-2.92204E-05-2.88164E-05-6.30797E-07-7.29010E-20-6.81408E-19
 -1      4008 9.64584E-05-2.93076E-05-2.87809E-05-5.08819E-07-4.52281E-19-5.48494E-19
 -1      4009 9.65875E-05-2.77681E-05-2.94991E-05-1.75012E-07 5.60374E-19-1.45922E-18
 -1      4010 9.64995E-05-2.72828E-05-2.96591E-05 6.18134E-08 8.42400E-19-1.37303E-18
 -1      4011 9.67103E-05-2.78814E-05-2.94971E-05-1.69646E-07 4.11605E-19-1.03983E-18
 -1      4012 9.59549E-05-2.63678E-05-2.98282E-05 6.85114E-07 8.26891E-19-1.61374E-18
 -1      4013 8.25977E-05-3.16071E-05-2.17916E-05-2.27625E-05-7.12401E-19-1.23352E-18
 -1      4014 8.98030E-05-3.68323E-05-2.27211E-05-2.35366E-05-1.29149E-18-1.25393E-18
 -1      4015 9.34873E-05-3.74822E-05-2.39515E-05-2.06451E-05-1.08339E-18-3.01054E-19
 -1      4016 9.65377E-05-2.91568E-05-2.88778E-05-6.34037E-07 1.00670E-19-8.07497E-19
 -1      4017 9.65987E-05-2.90581E-05-2.89437E-05-6.09857E-07 3.63515E-19-9.91016E-19
 -1      4018 9.66198E-05-2.92196E-05-2.88876E-05-5.19247E-07-1.16136E-19-5.14075E-19
 -1      4019 9.52027E-05-2.83466E-05-2.86516E-05-3.99495E-07-6.43296E-19-1.30049E-20
 -1      4020 9.52684E-05-2.84453E-05-2.86397E-05-3.73731E-07-6.30295E-19 4.03195E-19
 -1      4021 9.53128E-05-2.84854E-05-2.86402E-05-3.13027E-07-7.81195E-19-4.17949E-20
 -1      4022 9.45918E-05-2.75525E-05-2.87302E-05-7.59238E-07 2.69313E-19-5.35626E-19
 -1      4023 9.47014E-05-2.77046E-05-2.87158E-05-6.61499E-07 4.79491E-19-5.40398E-19
 -1      4024 9.46984E-05-2.77091E-05-2.87078E-05-5.37326E-07 3.12185E-19-6.34700E-19
 -1      4025 6.61845E-05-1.71178E-05-2.09813E-05 6.38809E-06 6.25057E-19-1.69149E-18
 -1      4026 9.60537E-05-2.56082E-05-3.01937E-05-3.36214E-07-1.08289E-19-1.37754E-18
 -1      4027 9.60929E-05-2.63541E-05-2.98894E-05 5.72490E-07 8.37926E-19-1.59090E-18
 -1      4028 7.28379E-05-1.73346E-05-2.36904E-05 1.67614E-06 7.22900E-19-7.87613E-19
 -1      4029 9.67426E-05-2.89959E-05-2.90357E-05-4.84001E-07 2.11488E-19-9.46756E-19
 -1      4030 9.56230E-05-2.88728E-05-2.86061E-05-3.70682E-07-3.02531E-19 6.19180E-20
 -1      4031 9.56835E-05-2.89411E-05-2.86041E-05-3.87744E-07-5.13841E-20 2.20961E-19
 -1      4032 9.56220E-05-2.88523E-05-2.86166E-05-3.09946E-07-3.75603E-19 5.36984E-19
 -1      4033 9.51390E-05-2.82631E-05-2.86604E-05-3.53389E-07-2.76088E-19 1.91262E-20
 -1      4034 9.60545E-05-2.55491E-05-3.02264E-05-2.28832E-07 5.79254E-20-1.57688E-18
 -1      4035 9.64594E-05-2.65438E-05-2.99549E-05-1.01261E-07-2.81766E-20-1.32866E-18
 -1      4036 9.60417E-05-2.54892E-05-3.02455E-05-3.41003E-08 2.84760E-19-1.68720E-18
 -1      4037 9.50623E-05-3.73349E-05-2.48155E-05-1.84315E-05-9.08061E-19 2.68073E-19
 -1      4038 9.64260E-05-2.68078E-05-2.98338E-05 1.70926E-07 7.40056E-19-1.48937E-18
 -1      4039 9.62925E-05-2.66734E-05-2.98448E-05 2.61676E-07 7.91028E-19-1.47972E-18
 -1      4040 9.57210E-05-2.90027E-05-2.85947E-05-4.89086E-07 4.32746E-19-4.50857E-19
 -1      4041 9.59094E-05-2.91273E-05-2.86194E-05-4.62699E-07 4.64198E-19-2.53828E-19
 -1      4042 9.59770E-05-2.91736E-05-2.86297E-05-4.93395E-07 6.31674E-19-2.43246E-19
 -1      4043 9.61056E-05-2.92396E-05-2.86586E-05-4.24628E-07 5.00006E-19-3.24426E-19
 -1      4044 9.60516E-05-2.55515E-05-3.02203E-05 2.67076E-07 5.60515E-19-1.57073E-18
 -1      4045 9.60388E-05-2.55025E-05-3.02405E-05 7.37062E-08 4.20385E-19-1.72724E-18
 -1      4046 9.64768E-05-2.64873E-05-2.99826E-05 1.56608E-08 3.09001E-19-1.53771E-18
 -1      4047 7.33533E-05-2.37701E-05-2.12794E-05-1.75563E-05-1.39884E-18-2.28426E-18
 -1      4048 7.79176E-05-2.77522E-05-2.14377E-05-2.10840E-05-1.23193E-18-1.60758E-18
 -1      4049 8.30509E-05-2.96901E-05-2.27618E-05-1.96223E-05-1.63823E-18-1.00586E-18
 -1      4050 9.44055E-05-2.73635E-05-2.87296E-05-6.94586E-07 4.97236E-19-1.10550E-18
 -1      4051 9.59493E-05-2.55136E-05-3.01875E-05 6.35842E-07 7.18702E-19-1.69365E-18
 -1      4052 9.59257E-05-2.53568E-05-3.02515E-05 4.60661E-07 6.70436E-19-1.73686E-18
 -1      4053 9.63580E-05-2.63274E-05-3.00047E-05 2.48530E-07 5.52114E-19-1.61350E-18
 -1      4054 9.68671E-05-2.79714E-05-2.95267E-05 8.31976E-08-2.31998E-19-1.21781E-18
 -1      4055 9.69255E-05-2.83567E-05-2.93879E-05 1.69792E-07-4.36484E-19-1.22791E-18
 -1      4056 9.69510E-05-2.86660E-05-2.92640E-05 1.85518E-07-5.14732E-19-1.10756E-18
 -1      4057 9.69358E-05-2.89019E-05-2.91577E-05 2.38681E-07-6.07733E-19-1.07625E-18
 -1      4058 9.69674E-05-2.84797E-05-2.93526E-05 8.81505E-08-4.27727E-19-1.01353E-18
 -1      4059 9.68975E-05-2.90815E-05-2.90628E-05 2.40020E-07-5.63875E-19-1.05241E-18
 -1      4060 9.68377E-05-2.92099E-05-2.89829E-05 2.65973E-07-4.76468E-19-8.83078E-19
 -1      4061 9.69532E-05-2.89827E-05-2.91326E-05 1.21831E-07-5.16867E-19-8.85935E-19
 -1      4062 9.67619E-05-2.92976E-05-2.89120E-05 2.58917E-07-3.75991E-19-7.29954E-19
 -1      4063 9.66783E-05-2.93508E-05-2.88536E-05 2.66491E-07-1.63659E-19-5.25786E-19
 -1      4064 9.68385E-05-2.92596E-05-2.89657E-05 1.35240E-07-2.79614E-19-5.50916E-19
 -1      4065 9.65837E-05-2.93753E-05-2.88024E-05 2.54846E-07 5.96989E-20-5.94251E-19
 -1      4066 9.64900E-05-2.93776E-05-2.87612E-05 2.51139E-07 1.35903E-19-6.26157E-19
 -1      4067 9.66685E-05-2.93775E-05-2.88427E-05 1.35475E-07-5.51035E-20-5.49439E-19
 -1      4068 9.63888E-05-2.93599E-05-2.87256E-05 2.37729E-07-1.45584E-19-2.67472E-19
 -1      4069 9.62936E-05-2.93283E-05-2.86982E-05 2.28102E-07-1.23955E-19-4.51556E-19
 -1      4070 9.64737E-05-2.93869E-05-2.87551E-05 1.28058E-07 3.55672E-20-5.03583E-19
 -1      4071 9.61930E-05-2.92828E-05-2.86750E-05 2.14605E-07 8.07509E-21-6.68091E-19
 -1      4072 9.61000E-05-2.92286E-05-2.86582E-05 2.02879E-07-2.61058E-19-3.86599E-19
 -1      4073 9.62738E-05-2.93240E-05-2.86957E-05 1.17501E-07-2.57751E-19-3.59209E-19
 -1      4074 9.60034E-05-2.91645E-05-2.86447E-05 1.92041E-07-4.19648E-19-3.78299E-19
 -1      4075 9.59152E-05-2.90952E-05-2.86362E-05 1.81248E-07-3.63585E-19-3.64822E-19
 -1      4076 9.60760E-05-2.92118E-05-2.86583E-05 1.06100E-07-3.26417E-19-7.57292E-20
 -1      4077 9.58221E-05-2.90176E-05-2.86303E-05 1.73549E-07-4.06907E-19-6.00480E-19
 -1      4078 9.57385E-05-2.89370E-05-2.86283E-05 1.66541E-07-5.54338E-20-6.45621E-19
 -1      4079 9.58866E-05-2.90673E-05-2.86384E-05 9.47188E-08-4.45367E-19 9.11447E-20
 -1      4080 9.56470E-05-2.88482E-05-2.86281E-05 1.60231E-07 9.40432E-21-9.73793E-19
 -1      4081 9.55635E-05-2.87562E-05-2.86311E-05 1.58594E-07-1.33279E-19-8.61787E-19
 -1      4082 9.57069E-05-2.89008E-05-2.86323E-05 8.66671E-08-3.79867E-19-6.27521E-19
 -1      4083 9.54707E-05-2.86556E-05-2.86354E-05 1.56827E-07-3.74446E-19-9.78337E-19
 -1      4084 9.53837E-05-2.85511E-05-2.86421E-05 1.61857E-07-2.39042E-19-1.07917E-18
 -1      4085 9.55240E-05-2.87074E-05-2.86362E-05 8.46644E-08-1.92251E-19-7.00485E-19
 -1      4086 9.52842E-05-2.84367E-05-2.86496E-05 1.64344E-07 1.37955E-19-1.18029E-18
 -1      4087 9.51882E-05-2.83167E-05-2.86591E-05 1.77143E-07-9.13772E-20-1.07929E-18
 -1      4088 9.53343E-05-2.84883E-05-2.86479E-05 8.76871E-08 6.72765E-20-8.40854E-19
 -1      4089 9.50755E-05-2.81845E-05-2.86687E-05 1.84303E-07-1.80682E-19-3.89931E-19
 -1      4090 9.49637E-05-2.80447E-05-2.86798E-05 2.05849E-07-2.82265E-19-3.69537E-19
 -1      4091 9.51250E-05-2.82369E-05-2.86648E-05 9.63811E-08 1.88997E-19-1.83752E-19
 -1      4092 9.48301E-05-2.78899E-05-2.86903E-05 2.17919E-07-6.59203E-19 2.08038E-19
 -1      4093 9.46944E-05-2.77252E-05-2.87018E-05 2.48958E-07-2.83862E-19 5.35611E-19
 -1      4094 9.48820E-05-2.79446E-05-2.86847E-05 1.11001E-07 1.24079E-19 5.46655E-19
 -1      4095 9.45309E-05-2.75423E-05-2.87116E-05 2.65879E-07-2.16601E-19 3.98524E-19
 -1      4096 9.43618E-05-2.73470E-05-2.87219E-05 3.06738E-07-1.89927E-19 3.93137E-19
 -1      4097 9.45889E-05-2.76011E-05-2.87047E-05 1.31044E-07-1.85860E-19 1.61722E-18
 -1      4098 9.41582E-05-2.71302E-05-2.87291E-05 3.27944E-07-1.13075E-19 4.50899E-19
 -1      4099 9.39447E-05-2.68987E-05-2.87361E-05 3.78237E-07-4.30017E-20 1.13788E-18
 -1      4100 9.42264E-05-2.71956E-05-2.87213E-05 1.54934E-07-2.59109E-19 1.70880E-18
 -1      4101 9.36895E-05-2.66427E-05-2.87380E-05 4.02312E-07-4.26815E-20 4.87958E-19
 -1      4102 9.34188E-05-2.63697E-05-2.87384E-05 4.60514E-07-2.49976E-19 4.60986E-19
 -1      4103 9.37733E-05-2.67174E-05-2.87297E-05 1.79414E-07-3.79936E-19 1.19871E-18
 -1      4104 9.30995E-05-2.60703E-05-2.87312E-05 4.84712E-07-2.35315E-19 5.97935E-19
 -1      4105 9.27571E-05-2.57519E-05-2.87210E-05 5.47601E-07 1.97149E-19 7.55645E-19
 -1      4106 9.32054E-05-2.61576E-05-2.87235E-05 1.98654E-07-1.17514E-19 4.20824E-19
 -1      4107 9.23600E-05-2.54066E-05-2.86995E-05 5.67206E-07 4.87708E-19 5.85600E-19
 -1      4108 9.19291E-05-2.50412E-05-2.86726E-05 6.29206E-07 5.73247E-19 1.22025E-18
 -1      4109 9.24965E-05-2.55106E-05-2.86937E-05 2.03035E-07 8.90292E-20 1.49219E-18
 -1      4110 9.14391E-05-2.46505E-05-2.86298E-05 6.36759E-07 1.10858E-19 1.15459E-18
 -1      4111 9.09004E-05-2.42394E-05-2.85779E-05 6.89277E-07 3.24179E-19 2.02770E-18
 -1      4112 9.16180E-05-2.47760E-05-2.86281E-05 1.77580E-07 3.92997E-19 1.33657E-18
 -1      4113 9.03012E-05-2.38077E-05-2.85043E-05 6.73685E-07 4.37559E-19 2.00533E-18
 -1      4114 8.96316E-05-2.33560E-05-2.84161E-05 7.04649E-07-1.67027E-19 2.11642E-18
 -1      4115 9.05386E-05-2.39606E-05-2.85100E-05 1.00012E-07 3.33822E-19 1.11263E-18
 -1      4116 8.89038E-05-2.28927E-05-2.82989E-05 6.50242E-07-9.73247E-19 2.10206E-18
 -1      4117 8.80744E-05-2.24099E-05-2.81590E-05 6.44148E-07-9.91861E-19 2.00869E-18
 -1      4118 8.92228E-05-2.30801E-05-2.83173E-05-6.15704E-08-5.59816E-19 1.15188E-18
 -1      4119 8.71933E-05-2.19287E-05-2.79807E-05 5.29697E-07-6.13724E-19 1.69903E-18
 -1      4120 8.61644E-05-2.14279E-05-2.77680E-05 4.68700E-07-2.45805E-19 1.05907E-18
 -1      4121 8.76278E-05-2.21600E-05-2.80199E-05-3.51574E-07-8.55013E-19 1.16607E-18
 -1      4122 8.50934E-05-2.09457E-05-2.75049E-05 2.66281E-07-2.45917E-19 7.99397E-19
 -1      4123 8.38047E-05-2.04408E-05-2.71896E-05 1.33336E-07-1.73083E-19 2.20277E-19
 -1      4124 8.56945E-05-2.12331E-05-2.75776E-05-8.31055E-07-8.08672E-19 6.89942E-19
 -1      4125 8.24812E-05-1.99705E-05-2.68081E-05-1.91629E-07-9.35822E-19-4.00479E-19
 -1      4126 8.08432E-05-1.94736E-05-2.63471E-05-4.08702E-07-4.10816E-19-8.10546E-19
 -1      4127 8.33298E-05-2.03338E-05-2.69345E-05-1.58534E-06-9.14408E-19 3.53646E-19
 -1      4128 7.91717E-05-1.90520E-05-2.57972E-05-8.83730E-07 8.93591E-19-1.52981E-18
 -1      4129 7.70700E-05-1.85465E-05-2.51323E-05-1.20094E-06 1.32482E-18-1.28245E-18
 -1      4130 8.03463E-05-1.94784E-05-2.60085E-05-2.72958E-06-1.30246E-19-7.04473E-19
 -1      4131 9.48516E-05-2.79074E-05-2.86902E-05-3.53219E-07 3.55861E-19-5.37657E-19
 -1      4132 9.49614E-05-2.80495E-05-2.86783E-05-3.11052E-07 5.26707E-19-4.32592E-19
 -1      4133 6.16413E-05-1.64899E-05-1.90934E-05-8.22940E-06-8.47878E-19-5.07902E-18
 -1      4134 6.67152E-05-1.89451E-05-2.03982E-05-1.15418E-05-1.29770E-18-4.21104E-18
 -1      4135 9.54492E-05-2.86385E-05-2.86323E-05-2.32875E-07-6.63878E-19 6.08410E-19
 -1      4136 9.55267E-05-2.87325E-05-2.86264E-05-2.30820E-07-5.32049E-19 7.72033E-19
 -1      4137 9.50793E-05-2.81867E-05-2.86678E-05-2.87714E-07 1.23763E-19-6.83850E-19
 -1      4138 9.51725E-05-2.83092E-05-2.86569E-05-2.61315E-07-1.96181E-19-2.17370E-19
 -1      4139 9.50015E-05-2.80899E-05-2.86744E-05-2.14706E-07 4.14499E-19-1.12972E-18
 -1      4140 9.33178E-05-2.62677E-05-2.87358E-05-1.02067E-06-9.39612E-19 1.01850E-18
 -1      4141 9.35602E-05-2.65165E-05-2.87386E-05-8.76934E-07-6.65924E-19 8.19329E-19
 -1      4142 9.38257E-05-2.67649E-05-2.87405E-05-7.74577E-07-6.82788E-20 6.20734E-19
 -1      4143 9.40254E-05-2.69859E-05-2.87356E-05-6.63836E-07 2.37897E-19 1.56747E-19
 -1      4144 9.35761E-05-2.65190E-05-2.87296E-05-6.15578E-07-6.36039E-19 1.07640E-18
 -1      4145 9.19747E-05-2.51327E-05-2.86458E-05-1.75990E-06 7.31585E-19-3.58459E-19
 -1      4146 9.23113E-05-2.54160E-05-2.86784E-05-1.52543E-06 2.12710E-19 4.22992E-19
 -1      4147 9.11300E-05-2.45444E-05-2.85346E-05-2.30182E-06-2.84536E-19-8.87361E-20
 -1      4148 9.15089E-05-2.48200E-05-2.85923E-05-2.00365E-06 4.03206E-19-1.03105E-19
 -1      4149 9.14389E-05-2.47018E-05-2.85832E-05-1.48457E-06 6.27835E-19-1.11407E-19
 -1      4150 9.01798E-05-2.40055E-05-2.83562E-05-3.00747E-06-1.08016E-18-6.29877E-19
 -1      4151 9.05876E-05-2.42426E-05-2.84480E-05-2.62683E-06-7.68196E-19-2.82923E-19
 -1      4152 9.04455E-05-2.40343E-05-2.84392E-05-1.99284E-06-3.85078E-19-7.09061E-20
 -1      4153 8.91517E-05-2.35943E-05-2.80882E-05-3.93310E-06-9.53784E-19-3.63401E-19
 -1      4154 8.95622E-05-2.37473E-05-2.82248E-05-3.44309E-06-1.11912E-18-3.51910E-19
 -1      4155 8.93042E-05-2.34032E-05-2.82153E-05-2.68055E-06-1.07838E-18-5.10590E-19
 -1      4156 8.80978E-05-2.34228E-05-2.77042E-05-5.15980E-06-9.05800E-19 9.99677E-19
 -1      4157 8.84657E-05-2.34267E-05-2.78975E-05-4.52158E-06-6.59836E-19 7.52037E-19
 -1      4158 8.80242E-05-2.28800E-05-2.78844E-05-3.61860E-06-1.24636E-18-2.68083E-19
 -1      4159 8.71079E-05-2.36468E-05-2.71744E-05-6.80480E-06-1.97901E-18 1.83600E-18
 -1      4160 8.73572E-05-2.34101E-05-2.74369E-05-5.96266E-06-1.50408E-18 1.92362E-18
 -1      4161 8.66276E-05-2.25644E-05-2.74130E-05-4.91042E-06-1.51415E-18 1.02420E-18
 -1      4162 8.63398E-05-2.44933E-05-2.64671E-05-9.03916E-06-2.67020E-18 1.80809E-20
 -1      4163 8.63372E-05-2.38763E-05-2.68093E-05-7.91511E-06-2.05949E-18 1.27406E-18
 -1      4164 8.51508E-05-2.25925E-05-2.67597E-05-6.70697E-06-1.64739E-18 7.97803E-19
 -1      4165 8.59820E-05-2.62735E-05-2.55469E-05-1.21472E-05-2.26243E-18-1.31043E-18
 -1      4166 8.55742E-05-2.50425E-05-2.59794E-05-1.06003E-05-2.97230E-18-1.12024E-18
 -1      4167 8.36433E-05-2.31818E-05-2.58729E-05-9.20445E-06-1.49051E-18-9.62982E-19
 -1      4168 6.35904E-05-1.62132E-05-2.03450E-05-2.20790E-06-9.81430E-19-4.06118E-18
 -1      4169 6.88104E-05-1.83810E-05-2.16379E-05-8.84885E-06-1.86337E-18-4.12775E-18
 -1      4170 7.05203E-05-2.05909E-05-2.12912E-05-1.38599E-05-1.81835E-18-3.80015E-18
 -1      4171 7.52651E-05-2.27843E-05-2.24188E-05-1.44355E-05-2.42258E-18-2.97354E-18
 -1      4172 9.65628E-05-2.70001E-05-2.98160E-05 4.11026E-08 5.77958E-19-1.45146E-18
 -1      4173 9.57629E-05-2.90104E-05-2.86067E-05-4.09755E-07 3.05238E-19 3.59567E-19
 -1      4174 9.58256E-05-2.90688E-05-2.86101E-05-4.35546E-07 4.48871E-19 3.84263E-19
 -1      4175 9.59369E-05-2.91367E-05-2.86305E-05-3.77086E-07 3.94552E-20 4.43041E-19
 -1      4176 9.60204E-05-2.58221E-05-3.00811E-05 7.25459E-07 6.30229E-19-1.55902E-18
 -1      4177 9.63162E-05-2.93284E-05-2.87078E-05-3.55420E-07 2.15886E-20-9.55440E-19
 -1      4178 9.64062E-05-2.93472E-05-2.87384E-05-3.69588E-07-1.46934E-19-1.08968E-18
 -1      4179 8.96763E-05-3.34217E-05-2.40344E-05-1.90449E-05-9.65775E-19-1.51123E-19
 -1      4180 9.68792E-05-2.87164E-05-2.92143E-05-3.25454E-07 8.65940E-20-1.06468E-18
 -1      4181 9.68794E-05-2.84389E-05-2.93297E-05-2.40206E-07 1.31687E-19-1.13634E-18
 -1      4182 9.67424E-05-2.76224E-05-2.96221E-05-3.93625E-08 5.15040E-19-1.16293E-18
 -1      4183 9.66632E-05-2.71768E-05-2.97793E-05 1.40472E-08 3.34062E-19-1.35042E-18
 -1      4184 9.65033E-05-2.93508E-05-2.87786E-05-3.87368E-07-1.18988E-19-9.37860E-19
 -1      4185 9.65905E-05-2.93313E-05-2.88238E-05-3.91530E-07-1.84335E-19-5.74158E-19
 -1      4186 9.65155E-05-2.93768E-05-2.87776E-05-2.64870E-07 4.58729E-21-9.36518E-19
 -1      4187 9.68145E-05-2.90946E-05-2.90232E-05-3.88419E-07-2.16519E-20-4.21820E-19
 -1      4188 9.68628E-05-2.89343E-05-2.91100E-05-3.45749E-07 6.87830E-20-7.65851E-19
 -1      4189 9.69325E-05-2.88082E-05-2.91980E-05-2.27936E-07-1.54857E-19-8.09154E-19
 -1      4190 9.66246E-05-2.70539E-05-2.98172E-05-5.93825E-08-1.01828E-19-1.17971E-18
 -1      4191 9.67815E-05-2.76136E-05-2.96437E-05 6.09601E-08-1.21158E-19-1.21775E-18
 -1      4192 9.68512E-05-2.77930E-05-2.95956E-05 3.43536E-08-1.88238E-19-1.34431E-18
 -1      4193 9.66184E-05-2.69771E-05-2.98484E-05-1.99318E-08 2.16591E-20-1.39255E-18
 -1      4194 9.52742E-05-2.84279E-05-2.86478E-05-2.49101E-07-5.12921E-19 9.35655E-20
 -1      4195 9.53569E-05-2.85346E-05-2.86389E-05-2.35920E-07-7.08546E-19-1.08333E-20
 -1      4196 9.52182E-05-2.83543E-05-2.86551E-05-1.82164E-07-1.73006E-20-6.87554E-19
 -1      4197 8.59855E-05-3.06214E-05-2.37535E-05-1.84585E-05-1.11906E-18-8.13105E-19
 -1      4198 8.83227E-05-3.07399E-05-2.46248E-05-1.64616E-05-9.15874E-19-5.17719E-19
 -1      4199 8.70232E-05-2.84336E-05-2.50959E-05-1.44409E-05-1.57774E-18-1.13287E-18
 -1      4200 8.16698E-05-2.69531E-05-2.34374E-05-1.67675E-05-2.11934E-18-1.95213E-18
 -1      4201 9.68240E-05-2.80632E-05-2.94721E-05-1.84044E-07 2.55081E-19-1.18998E-18
 -1      4202 7.42698E-05-1.79855E-05-2.41784E-05-1.89104E-06 4.66675E-19-1.45255E-18
 -1      4203 7.09095E-05-1.73928E-05-2.29680E-05-1.84079E-06-2.28613E-19-1.87310E-18
 -1      4204 9.42404E-05-2.72027E-05-2.87305E-05-5.88636E-07 3.39736E-19-6.00346E-19
 -1      4205 9.44033E-05-2.73951E-05-2.87211E-05-5.05078E-07 2.73668E-19-9.32326E-19
 -1      4206 9.40504E-05-2.70038E-05-2.87274E-05-4.60714E-07-7.66076E-20 1.10260E-19
 -1      4207 9.66772E-05-2.92869E-05-2.88810E-05-4.02988E-07-1.93791E-19-5.28970E-19
 -1      4208 9.67524E-05-2.92102E-05-2.89448E-05-3.89066E-07 4.68961E-20-5.48928E-19
 -1      4209 9.66995E-05-2.93300E-05-2.88764E-05-2.76318E-07-1.45800E-20-6.20553E-19
 -1      4210 9.27037E-05-2.57179E-05-2.87080E-05-1.34225E-06-5.31853E-19 9.29630E-19
 -1      4211 9.29929E-05-2.59895E-05-2.87228E-05-1.15807E-06-5.01486E-19 1.11626E-18
 -1      4212 9.22854E-05-2.53566E-05-2.86690E-05-1.10675E-06 4.46212E-19 7.56323E-20
 -1      4213 9.45771E-05-2.75818E-05-2.87122E-05-4.51184E-07 3.23898E-19-8.36319E-19
 -1      4214 9.47100E-05-2.77475E-05-2.87007E-05-3.90188E-07 3.03762E-19-7.66398E-19
 -1      4215 9.47455E-05-2.77824E-05-2.86951E-05-2.68279E-07 4.31722E-19-8.62076E-19
 -1      4216 9.44342E-05-2.74230E-05-2.87141E-05-3.48011E-07 6.86383E-20-6.90349E-19
 -1      4217 7.61396E-05-1.86596E-05-2.45404E-05-4.27115E-06 5.52579E-19-1.95709E-18
 -1      4218 9.55882E-05-2.87861E-05-2.86304E-05-1.64623E-07-4.31452E-19 4.75202E-19
 -1      4219 9.56158E-05-2.88251E-05-2.86235E-05-2.35215E-07-5.09816E-19 6.33431E-19
 -1      4220 9.56943E-05-2.89086E-05-2.86219E-05-2.43751E-07-3.47130E-20 6.85243E-19
 -1      4221 6.61313E-05-1.62435E-05-2.12253E-05 1.97245E-06 3.90806E-19-2.12893E-18
 -1      4222 9.54096E-05-2.85841E-05-2.86397E-05-1.66655E-07-1.38292E-19 2.93816E-19
 -1      4223 8.36844E-05-2.57220E-05-2.48550E-05-1.32216E-05-1.94924E-18-1.94141E-18
 -1      4224 9.29933E-05-2.59679E-05-2.87134E-05-8.25149E-07-4.13073E-19 8.53931E-19
 -1      4225 9.69005E-05-2.81946E-05-2.94454E-05-1.32345E-07 2.27955E-19-1.33126E-18
 -1      4226 9.68500E-05-2.91591E-05-2.90135E-05-2.68083E-07-1.67511E-20-5.27597E-19
 -1      4227 6.69491E-05-1.67189E-05-2.15944E-05-1.97386E-06-5.63714E-19-2.80985E-18
 -1      4228 6.97955E-05-1.76028E-05-2.22452E-05-5.89700E-06-1.30739E-18-3.95745E-18
 -1      4229 7.25645E-05-1.90269E-05-2.30041E-05-8.11025E-06-1.46085E-18-3.49677E-18
 -1      4230 9.57783E-05-2.90069E-05-2.86178E-05-3.37783E-07 1.13425E-19 8.95802E-19
 -1      4231 9.62178E-05-2.92937E-05-2.86809E-05-3.35294E-07 2.09901E-19-6.62292E-19
 -1      4232 9.63210E-05-2.93405E-05-2.87094E-05-2.43293E-07-7.50527E-21-1.24619E-18
 -1      4233 9.61318E-05-2.92498E-05-2.86620E-05-3.16335E-07 3.11497E-19-4.76128E-19
 -1      4234 9.66388E-05-2.70016E-05-2.98460E-05 2.54184E-08 1.97468E-19-1.47333E-18
 -1      4235 9.68199E-05-2.76175E-05-2.96571E-05-3.21358E-08 1.23173E-19-1.38107E-18
 -1      4236 9.33579E-05-2.63472E-05-2.87249E-05-2.53330E-07-4.34302E-19 4.22216E-19
 -1      4237 9.36292E-05-2.66120E-05-2.87281E-05-1.78818E-07-4.78141E-19 6.11212E-19
 -1      4238 8.83795E-05-2.28122E-05-2.81161E-05-1.64040E-06-1.01643E-18 2.07451E-19
 -1      4239 8.90269E-05-2.31565E-05-2.82555E-05-1.28554E-06-6.93840E-19 5.55866E-19
 -1      4240 9.49372E-05-2.80223E-05-2.86793E-05-6.54937E-08 4.67905E-19-3.05760E-19
 -1      4241 9.50574E-05-2.81653E-05-2.86693E-05-4.77694E-08 2.89667E-19-3.37787E-19
 -1      4242 9.69816E-05-2.89202E-05-2.91683E-05-7.09133E-08-4.01834E-19-6.45703E-19
 -1      4243 9.69428E-05-2.91010E-05-2.90729E-05-5.61669E-08-3.04532E-19-6.75218E-19
 -1      4244 9.68818E-05-2.92286E-05-2.89924E-05-7.30936E-08-1.49374E-19-5.69383E-19
 -1      4245 9.68052E-05-2.93169E-05-2.89210E-05-6.45740E-08 1.80851E-20-5.82661E-19
 -1      4246 9.67185E-05-2.93685E-05-2.88620E-05-6.98545E-08-5.51495E-20-6.31424E-19
 -1      4247 9.66228E-05-2.93930E-05-2.88102E-05-6.56252E-08 1.78699E-20-5.90934E-19
 -1      4248 9.65249E-05-2.93931E-05-2.87684E-05-6.38288E-08 1.43724E-19-6.90902E-19
 -1      4249 9.64222E-05-2.93747E-05-2.87323E-05-6.21485E-08-3.67140E-20-8.15680E-19
 -1      4250 9.63219E-05-2.93406E-05-2.87042E-05-5.72367E-08-2.35498E-19-8.66524E-19
 -1      4251 9.62182E-05-2.92938E-05-2.86805E-05-5.63042E-08-3.19447E-19-8.16448E-19
 -1      4252 9.59447E-05-2.91105E-05-2.86420E-05 9.42473E-09-6.40278E-19-2.27602E-19
 -1      4253 9.58517E-05-2.90322E-05-2.86356E-05 6.35692E-09-9.17954E-19-3.65044E-19
 -1      4254 9.57436E-05-2.89363E-05-2.86314E-05-4.14032E-08-8.46945E-19 2.29073E-19
 -1      4255 9.56536E-05-2.88458E-05-2.86313E-05-4.01434E-08-4.65990E-19-3.30339E-19
 -1      4256 9.55643E-05-2.87509E-05-2.86338E-05-4.03158E-08-2.32200E-19-2.09917E-19
 -1      4257 9.54704E-05-2.86484E-05-2.86379E-05-3.88022E-08-1.13094E-19-6.55672E-20
 -1      4258 9.53766E-05-2.85405E-05-2.86441E-05-4.32705E-08-1.72676E-20-1.89711E-20
 -1      4259 9.52755E-05-2.84237E-05-2.86513E-05-4.08833E-08 2.87689E-19-1.83811E-19
 -1      4260 9.51719E-05-2.83002E-05-2.86600E-05-5.11876E-08 2.00790E-19-4.87885E-19
 -1      4261 9.48015E-05-2.78647E-05-2.86894E-05-6.14194E-08 3.40828E-19 1.78710E-19
 -1      4262 9.46571E-05-2.76975E-05-2.86994E-05-8.84913E-08 1.48188E-19 2.65388E-19
 -1      4263 9.44910E-05-2.75120E-05-2.87086E-05-8.46569E-08 5.47543E-20 6.58382E-19
 -1      4264 9.43138E-05-2.73159E-05-2.87168E-05-1.23624E-07-6.37497E-20 6.88388E-19
 -1      4265 9.41072E-05-2.70973E-05-2.87233E-05-1.21694E-07-3.09339E-19 5.96988E-19
 -1      4266 9.38877E-05-2.68682E-05-2.87273E-05-1.76029E-07-5.73604E-19 8.38985E-19
 -1      4267 9.30349E-05-2.60504E-05-2.87163E-05-2.65342E-07-4.95996E-19 7.57150E-19
 -1      4268 9.27021E-05-2.57497E-05-2.87015E-05-3.66769E-07-2.59966E-19 7.20131E-19
 -1      4269 9.23010E-05-2.54118E-05-2.86782E-05-3.94911E-07 2.39148E-19 3.56539E-19
 -1      4270 9.18980E-05-2.50790E-05-2.86460E-05-5.32773E-07 6.00116E-19 3.47921E-19
 -1      4271 9.14040E-05-2.47031E-05-2.86010E-05-5.87282E-07 5.76277E-19 5.75635E-19
 -1      4272 9.09235E-05-2.43474E-05-2.85438E-05-7.75141E-07 4.27881E-19 3.98349E-19
 -1      4273 9.03205E-05-2.39414E-05-2.84676E-05-8.70755E-07 7.79423E-20 6.25394E-19
 -1      4274 8.97575E-05-2.35789E-05-2.83756E-05-1.12807E-06-5.15883E-19 5.59318E-19
 -1      4275 8.74975E-05-2.23934E-05-2.79353E-05-1.88861E-06-1.22480E-18 2.43727E-19
 -1      4276 8.67676E-05-2.21024E-05-2.77324E-05-2.38185E-06-1.47858E-18 1.27094E-19
 -1      4277 8.57004E-05-2.17128E-05-2.74681E-05-2.76146E-06-1.28825E-18-2.27699E-19
 -1      4278 8.48955E-05-2.15226E-05-2.71817E-05-3.45219E-06-1.23689E-18-1.28109E-19
 -1      4279 8.35908E-05-2.11911E-05-2.68026E-05-4.02428E-06-1.36973E-18-5.13225E-19
 -1      4280 8.27343E-05-2.11672E-05-2.64073E-05-4.99762E-06-9.26640E-19-5.18513E-19
 -1      4281 8.11037E-05-2.08981E-05-2.58671E-05-5.88471E-06-1.47486E-20-6.37073E-19
 -1      4282 7.58270E-05-1.99559E-05-2.39767E-05-7.95473E-06-7.44290E-19-2.93132E-18
 -1      4283 7.56126E-05-2.07325E-05-2.34803E-05-1.04567E-05-2.05258E-18-3.44215E-18
 -1      4284 8.01719E-05-2.10926E-05-2.53241E-05-7.16016E-06-2.67252E-19-1.74242E-18
 -1      4285 9.58028E-05-2.90037E-05-2.86274E-05-2.04836E-07-2.47367E-19 3.49735E-21
 -1      4286 9.58844E-05-2.90772E-05-2.86313E-05-2.16834E-07-4.34373E-19-4.46896E-20
 -1      4287 7.82571E-05-2.35247E-05-2.34622E-05-1.38752E-05-1.95720E-18-3.15652E-18
 -1      4288 9.69080E-05-2.79757E-05-2.95420E-05-4.23030E-10 1.33483E-20-1.44869E-18
 -1      4289 9.69692E-05-2.83723E-05-2.93990E-05-5.93910E-08-9.70459E-20-1.20078E-18
 -1      4290 9.69956E-05-2.86839E-05-2.92750E-05-3.66584E-08-2.94993E-19-8.87656E-19
 -1      4291 8.15783E-05-2.46114E-05-2.43644E-05-1.29530E-05-1.47570E-18-3.04521E-18
 -1      4292 9.59682E-05-2.91415E-05-2.86384E-05-2.54683E-07-3.57043E-19-4.03606E-20
 -1      4293 9.60496E-05-2.92020E-05-2.86487E-05-2.71424E-07-6.12455E-20-1.94731E-19
 -1      4294 9.61425E-05-2.92565E-05-2.86681E-05-1.89566E-07-1.54804E-19-7.62883E-19
 -1      4295 9.59758E-05-2.91405E-05-2.86456E-05-1.13797E-07-5.66348E-19-7.59180E-19
 -1      4296 9.61317E-05-2.92429E-05-2.86648E-05-2.00118E-08-1.73321E-19-4.81072E-19
 -1      4297 9.57818E-05-2.89767E-05-2.86324E-05-1.23829E-07-6.42350E-19 1.01562E-19
 -1      4298 9.60306E-05-2.91774E-05-2.86506E-05-2.10306E-08-1.75511E-19-2.97326E-19
 -1      4299 7.82147E-05-2.01490E-05-2.49159E-05-6.70540E-06 3.41159E-19-2.28261E-18
 -1      4300 8.06647E-05-2.26359E-05-2.48741E-05-1.04093E-05-1.29930E-18-2.81957E-18
 -3
    1PSTEP                         4           1           1          
  100CL  101 1.000000000        4300                     0    1           1
 -4  ERROR       1    1
 -5  STR(%)      1    1    0    0
 -1         1 1.24042E+01
 -1         2 2.65285E+01
 -1         3 1.37608E-01
 -1         4 1.73195E-01
 -1         5 1.40389E+01
 -1         6 1.31432E+01
 -1         7 1.31432E+01
 -1         8 3.66367E+00
 -1         9 1.82520E+00
 -1        10 1.28933E+00
 -1        11 1.04644E+00
 -1        12 9.00015E-01
 -1        13 8.08891E-01
 -1        14 7.53833E-01
 -1        15 7.55793E-01
 -1        16 8.13162E-01
 -1        17 9.00883E-01
 -1        18 1.05271E+00
 -1        19 1.30789E+00
 -1        20 1.83590E+00
 -1        21 3.50549E+00
 -1        22 8.64111E+00
 -1        23 1.31432E+01
 -1        24 4.31755E+00
 -1        25 3.34041E+00
 -1        26 2.11093E+00
 -1        27 1.36225E+00
 -1        28 1.01390E+00
 -1        29 7.74858E-01
 -1        30 5.94959E-01
 -1        31 4.54652E-01
 -1        32 3.47101E-01
 -1        33 2.68188E-01
 -1        34 2.04762E-01
 -1        35 1.54772E-01
 -1        36 1.16249E-01
 -1        37 8.74087E-02
 -1        38 6.66868E-02
 -1        39 5.27533E-02
 -1        40 4.45023E-02
 -1        41 4.43727E-02
 -1        42 5.31491E-02
 -1        43 6.55976E-02
 -1        44 8.13236E-02
 -1        45 9.98007E-02
 -1        46 1.35687E-01
 -1        47 1.85214E-01
 -1        48 2.48873E-01
 -1        49 3.28452E-01
 -1        50 4.24802E-01
 -1        51 5.36681E-01
 -1        52 6.58867E-01
 -1        53 8.29255E-01
 -1        54 1.08691E+00
 -1        55 1.36520E+00
 -1        56 1.73592E+00
 -1        57 2.05448E+00
 -1        58 2.15935E+00
 -1        59 2.28538E+00
 -1        60 2.28538E+00
 -1        61 3.05742E+00
 -1        62 5.18267E+00
 -1        63 7.54030E+00
 -1        64 7.54030E+00
 -1        65 7.43212E+00
 -1        66 6.93579E+00
 -1        67 4.55421E+00
 -1        68 2.15951E+00
 -1        69 1.04168E+00
 -1        70 8.51356E-01
 -1        71 7.03292E-01
 -1        72 1.40389E+01
 -1        73 3.39459E+00
 -1        74 2.41290E+00
 -1        75 1.66566E+00
 -1        76 1.14453E+00
 -1        77 9.05898E-01
 -1        78 7.31193E-01
 -1        79 5.87669E-01
 -1        80 4.68031E-01
 -1        81 3.68422E-01
 -1        82 2.94078E-01
 -1        83 2.32164E-01
 -1        84 1.81025E-01
 -1        85 1.39879E-01
 -1        86 1.07750E-01
 -1        87 8.36421E-02
 -1        88 6.66283E-02
 -1        89 5.59089E-02
 -1        90 5.32805E-02
 -1        91 6.24450E-02
 -1        92 7.65626E-02
 -1        93 9.52881E-02
 -1        94 1.18034E-01
 -1        95 1.43734E-01
 -1        96 1.70524E-01
 -1        97 2.15606E-01
 -1        98 2.69544E-01
 -1        99 3.25807E-01
 -1       100 3.77914E-01
 -1       101 4.15587E-01
 -1       102 4.28455E-01
 -1       103 5.26974E-01
 -1       104 6.76012E-01
 -1       105 7.97361E-01
 -1       106 9.69780E-01
 -1       107 1.25310E+00
 -1       108 1.37879E+00
 -1       109 1.69559E+00
 -1       110 1.99481E+00
 -1       111 2.64731E+00
 -1       112 3.50345E+00
 -1       113 3.69747E+00
 -1       114 3.86951E+00
 -1       115 3.86951E+00
 -1       116 3.47830E+00
 -1       117 2.61137E+00
 -1       118 1.77278E+00
 -1       119 1.08682E+00
 -1       120 5.94517E-01
 -1       121 3.06585E-01
 -1       122 2.61844E-01
 -1       123 5.51958E-01
 -1       124 8.23898E-01
 -1       125 1.01273E+00
 -1       126 1.01273E+00
 -1       127 9.29855E-01
 -1       128 9.15283E-01
 -1       129 1.64337E+00
 -1       130 1.64337E+00
 -1       131 1.18273E+00
 -1       132 7.82052E-01
 -1       133 9.52356E-01
 -1       134 9.52356E-01
 -1       135 7.55049E-01
 -1       136 7.55049E-01
 -1       137 2.65285E+01
 -1       138 4.54718E+01
 -1       139 4.54718E+01
 -1       140 1.84015E+01
 -1       141 1.26729E+01
 -1       142 1.30613E+01
 -1       143 1.30613E+01
 -1       144 1.27573E+01
 -1       145 1.27573E+01
 -1       146 1.29692E+01
 -1       147 2.93227E+01
 -1       148 2.99302E+01
 -1       149 2.78705E+01
 -1       150 2.54962E+01
 -1       151 2.54962E+01
 -1       152 2.43601E+01
 -1       153 4.64860E+01
 -1       154 4.64860E+01
 -1       155 1.77236E+01
 -1       156 1.23694E+01
 -1       157 1.26350E+01
 -1       158 1.26350E+01
 -1       159 1.24688E+01
 -1       160 1.21810E+01
 -1       161 2.49936E+01
 -1       162 3.06442E+01
 -1       163 3.06442E+01
 -1       164 2.39696E+01
 -1       165 6.07768E+00
 -1       166 2.29896E+00
 -1       167 1.50782E+00
 -1       168 1.15806E+00
 -1       169 9.73618E-01
 -1       170 8.64602E-01
 -1       171 7.96016E-01
 -1       172 7.55793E-01
 -1       173 7.99442E-01
 -1       174 8.67251E-01
 -1       175 9.81082E-01
 -1       176 1.17261E+00
 -1       177 1.52770E+00
 -1       178 2.26093E+00
 -1       179 3.93111E+00
 -1       180 1.40389E+01
 -1       181 4.31755E+00
 -1       182 3.34041E+00
 -1       183 2.11093E+00
 -1       184 1.44688E+00
 -1       185 1.02509E+00
 -1       186 7.74858E-01
 -1       187 5.94959E-01
 -1       188 4.67487E-01
 -1       189 3.67362E-01
 -1       190 2.89396E-01
 -1       191 2.32653E-01
 -1       192 1.84542E-01
 -1       193 1.44901E-01
 -1       194 1.13109E-01
 -1       195 8.83287E-02
 -1       196 6.96466E-02
 -1       197 5.61459E-02
 -1       198 4.69402E-02
 -1       199 4.43727E-02
 -1       200 5.31491E-02
 -1       201 6.55976E-02
 -1       202 8.19680E-02
 -1       203 1.10385E-01
 -1       204 1.47818E-01
 -1       205 1.95703E-01
 -1       206 2.55278E-01
 -1       207 3.34633E-01
 -1       208 4.64188E-01
 -1       209 6.25597E-01
 -1       210 8.17212E-01
 -1       211 1.02907E+00
 -1       212 1.23718E+00
 -1       213 1.43640E+00
 -1       214 1.73592E+00
 -1       215 2.05448E+00
 -1       216 2.15935E+00
 -1       217 2.28538E+00
 -1       218 2.14260E+00
 -1       219 3.05742E+00
 -1       220 5.18267E+00
 -1       221 7.54030E+00
 -1       222 7.43212E+00
 -1       223 6.93579E+00
 -1       224 4.64009E+00
 -1       225 3.03391E+00
 -1       226 2.03690E+00
 -1       227 1.40316E+00
 -1       228 1.06467E+00
 -1       229 3.39459E+00
 -1       230 2.41290E+00
 -1       231 1.66566E+00
 -1       232 1.14453E+00
 -1       233 9.05898E-01
 -1       234 7.31193E-01
 -1       235 5.87669E-01
 -1       236 4.68031E-01
 -1       237 3.68422E-01
 -1       238 2.94078E-01
 -1       239 2.32164E-01
 -1       240 1.83923E-01
 -1       241 1.44741E-01
 -1       242 1.13318E-01
 -1       243 8.89944E-02
 -1       244 7.10527E-02
 -1       245 5.87941E-02
 -1       246 5.17554E-02
 -1       247 5.72715E-02
 -1       248 6.68276E-02
 -1       249 7.99183E-02
 -1       250 9.58248E-02
 -1       251 1.18034E-01
 -1       252 1.50628E-01
 -1       253 1.90399E-01
 -1       254 2.34275E-01
 -1       255 2.79007E-01
 -1       256 3.25807E-01
 -1       257 3.77914E-01
 -1       258 4.15587E-01
 -1       259 4.58062E-01
 -1       260 5.58383E-01
 -1       261 6.76012E-01
 -1       262 7.97361E-01
 -1       263 9.69780E-01
 -1       264 1.25310E+00
 -1       265 1.37879E+00
 -1       266 1.69559E+00
 -1       267 1.99481E+00
 -1       268 2.65706E+00
 -1       269 3.50345E+00
 -1       270 3.69747E+00
 -1       271 3.86951E+00
 -1       272 3.47830E+00
 -1       273 2.61137E+00
 -1       274 1.77278E+00
 -1       275 1.09878E+00
 -1       276 6.03801E-01
 -1       277 4.40917E-01
 -1       278 7.80097E-01
 -1       279 1.31660E+00
 -1       280 1.67591E+00
 -1       281 1.79106E+00
 -1       282 1.79106E+00
 -1       283 1.51372E+00
 -1       284 3.18735E+00
 -1       285 3.38613E+00
 -1       286 3.38613E+00
 -1       287 1.85378E+00
 -1       288 1.69327E+00
 -1       289 1.69327E+00
 -1       290 1.51514E+00
 -1       291 1.08629E+00
 -1       292 2.96515E+01
 -1       293 3.91874E+01
 -1       294 4.54718E+01
 -1       295 1.94783E+01
 -1       296 1.13268E+01
 -1       297 1.26729E+01
 -1       298 1.30613E+01
 -1       299 1.20596E+01
 -1       300 1.27573E+01
 -1       301 1.17557E+01
 -1       302 1.29692E+01
 -1       303 2.99302E+01
 -1       304 2.99302E+01
 -1       305 2.41666E+01
 -1       306 2.99010E+01
 -1       307 2.77178E+01
 -1       308 2.68006E+01
 -1       309 4.64860E+01
 -1       310 1.93710E+01
 -1       311 1.09349E+01
 -1       312 1.23694E+01
 -1       313 1.24042E+01
 -1       314 1.26350E+01
 -1       315 1.24688E+01
 -1       316 1.20191E+01
 -1       317 1.21810E+01
 -1       318 2.71764E+01
 -1       319 3.14540E+01
 -1       320 3.14540E+01
 -1       321 2.88583E+01
 -1       322 1.04837E+00
 -1       323 2.48003E+00
 -1       324 7.95349E-01
 -1       325 6.95053E-01
 -1       326 6.31912E-01
 -1       327 5.87653E-01
 -1       328 5.90854E-01
 -1       329 6.34551E-01
 -1       330 7.01311E-01
 -1       331 7.96549E-01
 -1       332 9.31980E-01
 -1       333 1.16031E+00
 -1       334 1.32926E+00
 -1       335 2.20053E+00
 -1       336 1.91399E+00
 -1       337 1.72897E+00
 -1       338 1.26695E+00
 -1       339 9.06612E-01
 -1       340 6.55541E-01
 -1       341 5.38126E-01
 -1       342 4.40909E-01
 -1       343 3.55257E-01
 -1       344 2.89779E-01
 -1       345 2.34518E-01
 -1       346 1.87083E-01
 -1       347 1.51813E-01
 -1       348 1.22616E-01
 -1       349 9.82098E-02
 -1       350 7.83604E-02
 -1       351 6.25814E-02
 -1       352 5.02328E-02
 -1       353 4.15820E-02
 -1       354 4.23737E-02
 -1       355 4.71652E-02
 -1       356 6.11737E-02
 -1       357 8.19680E-02
 -1       358 1.10385E-01
 -1       359 1.60475E-01
 -1       360 2.28686E-01
 -1       361 3.17734E-01
 -1       362 4.31299E-01
 -1       363 5.71941E-01
 -1       364 7.39385E-01
 -1       365 9.27684E-01
 -1       366 1.12107E+00
 -1       367 1.28902E+00
 -1       368 1.43532E+00
 -1       369 1.61166E+00
 -1       370 1.62777E+00
 -1       371 1.57214E+00
 -1       372 1.72163E+00
 -1       373 1.97024E+00
 -1       374 3.14493E+00
 -1       375 4.19943E+00
 -1       376 4.78044E+00
 -1       377 4.61350E+00
 -1       378 3.88187E+00
 -1       379 3.29957E+00
 -1       380 2.70197E+00
 -1       381 2.09894E+00
 -1       382 1.85921E+00
 -1       383 1.13021E+00
 -1       384 8.90844E-01
 -1       385 7.03289E-01
 -1       386 5.44445E-01
 -1       387 4.37248E-01
 -1       388 3.70607E-01
 -1       389 3.06727E-01
 -1       390 2.51173E-01
 -1       391 2.05782E-01
 -1       392 1.66048E-01
 -1       393 1.32465E-01
 -1       394 1.04909E-01
 -1       395 8.34727E-02
 -1       396 6.73243E-02
 -1       397 5.58986E-02
 -1       398 4.87512E-02
 -1       399 4.70036E-02
 -1       400 5.11976E-02
 -1       401 5.90524E-02
 -1       402 7.63514E-02
 -1       403 9.84442E-02
 -1       404 1.25375E-01
 -1       405 1.74554E-01
 -1       406 2.35550E-01
 -1       407 3.06678E-01
 -1       408 3.84574E-01
 -1       409 4.62317E-01
 -1       410 5.28186E-01
 -1       411 5.95850E-01
 -1       412 6.24212E-01
 -1       413 6.24212E-01
 -1       414 5.80567E-01
 -1       415 5.20747E-01
 -1       416 6.23729E-01
 -1       417 1.04706E+00
 -1       418 1.66074E+00
 -1       419 2.20789E+00
 -1       420 2.45326E+00
 -1       421 2.45326E+00
 -1       422 2.38742E+00
 -1       423 2.30374E+00
 -1       424 2.28640E+00
 -1       425 1.95184E+00
 -1       426 1.42684E+00
 -1       427 9.41412E-01
 -1       428 4.93039E-01
 -1       429 1.85959E+00
 -1       430 1.44045E+00
 -1       431 8.52092E-01
 -1       432 2.08600E+00
 -1       433 2.55815E+00
 -1       434 2.96386E+00
 -1       435 3.87766E+00
 -1       436 5.90165E+00
 -1       437 5.90165E+00
 -1       438 4.80271E+00
 -1       439 3.17802E+00
 -1       440 2.52108E+00
 -1       441 2.03155E+00
 -1       442 2.58656E+01
 -1       443 2.96515E+01
 -1       444 2.23653E+01
 -1       445 1.48066E+01
 -1       446 7.42941E+00
 -1       447 9.11060E-01
 -1       448 1.04270E+01
 -1       449 1.17421E+01
 -1       450 1.13445E+01
 -1       451 8.54340E+00
 -1       452 6.95936E+00
 -1       453 1.19935E+01
 -1       454 2.09009E+01
 -1       455 2.32118E+01
 -1       456 2.56477E+01
 -1       457 2.99010E+01
 -1       458 2.60159E+01
 -1       459 2.68006E+01
 -1       460 1.57612E+01
 -1       461 8.84488E+00
 -1       462 7.38780E+00
 -1       463 9.99265E+00
 -1       464 1.03007E+01
 -1       465 1.06803E+01
 -1       466 9.61039E+00
 -1       467 6.34484E+00
 -1       468 1.08219E+01
 -1       469 1.85665E+01
 -1       470 3.14540E+01
 -1       471 2.91385E+01
 -1       472 7.95229E+00
 -1       473 2.96515E+01
 -1       474 2.99010E+01
 -1       475 1.04745E+00
 -1       476 4.86621E-01
 -1       477 5.14725E-01
 -1       478 4.31627E-01
 -1       479 4.57570E-01
 -1       480 4.87128E-01
 -1       481 5.11367E-01
 -1       482 5.11367E-01
 -1       483 6.09376E-01
 -1       484 8.90844E-01
 -1       485 8.02688E-01
 -1       486 8.72106E-01
 -1       487 4.28846E+00
 -1       488 7.01162E-01
 -1       489 5.88118E-01
 -1       490 4.75830E-01
 -1       491 3.77198E-01
 -1       492 3.22466E-01
 -1       493 2.72416E-01
 -1       494 2.25073E-01
 -1       495 1.88667E-01
 -1       496 1.58646E-01
 -1       497 1.31197E-01
 -1       498 1.07671E-01
 -1       499 8.80786E-02
 -1       500 7.12756E-02
 -1       501 5.70195E-02
 -1       502 4.54504E-02
 -1       503 3.60877E-02
 -1       504 3.76753E-02
 -1       505 4.71652E-02
 -1       506 6.08174E-02
 -1       507 9.42217E-02
 -1       508 1.39088E-01
 -1       509 1.98264E-01
 -1       510 2.75366E-01
 -1       511 3.74227E-01
 -1       512 4.98456E-01
 -1       513 6.50534E-01
 -1       514 8.30195E-01
 -1       515 1.03171E+00
 -1       516 1.23989E+00
 -1       517 1.42660E+00
 -1       518 1.62532E+00
 -1       519 1.91493E+00
 -1       520 2.21632E+00
 -1       521 2.44862E+00
 -1       522 2.86972E+00
 -1       523 2.87516E+00
 -1       524 3.98982E+00
 -1       525 7.58891E+00
 -1       526 7.82410E+00
 -1       527 6.19212E+00
 -1       528 3.92809E+00
 -1       529 4.43794E+00
 -1       530 2.70197E+00
 -1       531 1.80028E+01
 -1       532 5.44445E-01
 -1       533 4.37248E-01
 -1       534 3.70607E-01
 -1       535 3.06727E-01
 -1       536 2.51173E-01
 -1       537 2.06495E-01
 -1       538 1.67317E-01
 -1       539 1.33902E-01
 -1       540 1.08468E-01
 -1       541 8.75521E-02
 -1       542 7.00594E-02
 -1       543 5.56217E-02
 -1       544 4.36776E-02
 -1       545 3.76517E-02
 -1       546 3.74770E-02
 -1       547 4.62368E-02
 -1       548 5.90524E-02
 -1       549 8.20444E-02
 -1       550 1.17500E-01
 -1       551 1.61799E-01
 -1       552 2.15541E-01
 -1       553 2.78263E-01
 -1       554 3.47763E-01
 -1       555 4.19220E-01
 -1       556 4.84234E-01
 -1       557 5.49107E-01
 -1       558 5.95850E-01
 -1       559 6.24212E-01
 -1       560 5.93898E-01
 -1       561 5.51494E-01
 -1       562 6.64477E-01
 -1       563 8.74315E-01
 -1       564 1.35669E+00
 -1       565 1.86481E+00
 -1       566 2.20789E+00
 -1       567 2.45326E+00
 -1       568 2.38742E+00
 -1       569 2.30374E+00
 -1       570 2.28640E+00
 -1       571 2.03960E+00
 -1       572 1.85779E+00
 -1       573 2.01721E+00
 -1       574 2.80366E+00
 -1       575 3.90908E+00
 -1       576 2.01721E+00
 -1       577 2.17253E+00
 -1       578 6.21862E+00
 -1       579 7.47931E+00
 -1       580 9.15812E+00
 -1       581 9.15812E+00
 -1       582 6.61408E+00
 -1       583 4.37411E+00
 -1       584 2.38097E+00
 -1       585 8.82188E+00
 -1       586 7.03289E-01
 -1       587 1.17148E+01
 -1       588 2.22633E+01
 -1       589 2.91385E+01
 -1       590 6.57319E+00
 -1       591 6.70050E+00
 -1       592 4.57485E-01
 -1       593 7.59862E+00
 -1       594 4.06083E+00
 -1       595 7.84163E+00
 -1       596 1.21375E+01
 -1       597 6.46081E+00
 -1       598 9.64941E+00
 -1       599 1.60000E+01
 -1       600 2.32118E+01
 -1       601 2.60159E+01
 -1       602 5.61415E+00
 -1       603 2.07117E+01
 -1       604 8.58506E+00
 -1       605 4.72372E+00
 -1       606 7.58891E+00
 -1       607 9.27949E+00
 -1       608 7.82410E+00
 -1       609 6.19212E+00
 -1       610 8.62151E+00
 -1       611 1.34614E+01
 -1       612 5.28549E+00
 -1       613 1.32792E+00
 -1       614 5.30492E-01
 -1       615 1.83712E+01
 -1       616 2.09894E+00
 -1       617 2.34010E+01
 -1       618 1.29515E+01
 -1       619 2.05940E+01
 -1       620 4.43794E+00
 -1       621 3.58492E-01
 -1       622 3.42867E-01
 -1       623 3.61781E-01
 -1       624 3.38207E-01
 -1       625 5.43847E-01
 -1       626 5.14560E-01
 -1       627 5.30492E-01
 -1       628 3.98754E-01
 -1       629 3.74309E-01
 -1       630 3.76722E-01
 -1       631 3.46584E-01
 -1       632 3.03347E-01
 -1       633 2.56929E-01
 -1       634 2.19435E-01
 -1       635 1.88667E-01
 -1       636 1.58646E-01
 -1       637 1.31197E-01
 -1       638 1.07671E-01
 -1       639 8.80786E-02
 -1       640 7.12756E-02
 -1       641 5.70195E-02
 -1       642 4.54504E-02
 -1       643 3.60877E-02
 -1       644 2.75330E-02
 -1       645 3.35731E-02
 -1       646 5.57245E-02
 -1       647 8.39996E-02
 -1       648 1.20355E-01
 -1       649 1.67054E-01
 -1       650 2.26702E-01
 -1       651 3.02300E-01
 -1       652 4.02267E-01
 -1       653 5.33596E-01
 -1       654 6.95979E-01
 -1       655 8.92036E-01
 -1       656 1.12089E+00
 -1       657 1.37406E+00
 -1       658 1.72053E+00
 -1       659 2.14606E+00
 -1       660 2.63129E+00
 -1       661 3.59451E+00
 -1       662 4.90663E+00
 -1       663 3.98982E+00
 -1       664 4.43794E+00
 -1       665 1.48998E+01
 -1       666 1.04423E+01
 -1       667 3.95831E-01
 -1       668 2.33028E-01
 -1       669 1.95846E-01
 -1       670 1.61778E-01
 -1       671 1.33909E-01
 -1       672 1.09164E-01
 -1       673 8.79071E-02
 -1       674 7.00594E-02
 -1       675 5.56217E-02
 -1       676 4.36776E-02
 -1       677 3.47967E-02
 -1       678 2.86165E-02
 -1       679 3.40764E-02
 -1       680 4.49423E-02
 -1       681 6.92433E-02
 -1       682 9.97585E-02
 -1       683 1.37739E-01
 -1       684 1.84179E-01
 -1       685 2.39543E-01
 -1       686 3.03347E-01
 -1       687 3.73597E-01
 -1       688 4.46071E-01
 -1       689 5.18567E-01
 -1       690 5.78391E-01
 -1       691 6.51272E-01
 -1       692 7.30629E-01
 -1       693 7.78565E-01
 -1       694 8.98346E-01
 -1       695 1.15906E+00
 -1       696 1.30010E+00
 -1       697 1.75011E+00
 -1       698 1.91933E+00
 -1       699 2.47663E+00
 -1       700 2.74350E+00
 -1       701 2.59677E+00
 -1       702 2.38500E+00
 -1       703 2.06347E+00
 -1       704 2.09179E+00
 -1       705 2.09811E+00
 -1       706 1.17216E+01
 -1       707 2.07195E+00
 -1       708 4.01297E+00
 -1       709 1.24415E+01
 -1       710 6.57051E+00
 -1       711 1.16091E+01
 -1       712 1.16091E+01
 -1       713 8.03152E+00
 -1       714 4.63345E-01
 -1       715 9.94422E+00
 -1       716 1.38834E+01
 -1       717 5.01603E+00
 -1       718 2.72731E-01
 -1       719 3.27403E-01
 -1       720 6.37756E+00
 -1       721 5.66657E+00
 -1       722 3.61781E-01
 -1       723 8.35222E+00
 -1       724 3.58637E-01
 -1       725 4.65252E+00
 -1       726 1.38386E+01
 -1       727 3.46847E+00
 -1       728 9.12729E+00
 -1       729 5.06377E+00
 -1       730 5.22662E+00
 -1       731 3.19883E+00
 -1       732 1.24559E+01
 -1       733 9.42495E+00
 -1       734 4.88384E+00
 -1       735 3.79308E-01
 -1       736 3.42370E-01
 -1       737 1.20903E+01
 -1       738 3.63554E+00
 -1       739 3.41134E+00
 -1       740 1.04392E+01
 -1       741 2.09811E+00
 -1       742 4.86112E+00
 -1       743 4.03205E+00
 -1       744 3.57562E-01
 -1       745 3.98098E+00
 -1       746 2.44994E-01
 -1       747 2.56976E-01
 -1       748 2.27444E-01
 -1       749 2.45611E-01
 -1       750 2.37897E-01
 -1       751 2.16590E-01
 -1       752 1.89346E-01
 -1       753 1.65328E-01
 -1       754 1.44453E-01
 -1       755 1.22759E-01
 -1       756 1.01959E-01
 -1       757 8.29482E-02
 -1       758 6.60466E-02
 -1       759 5.11761E-02
 -1       760 3.79783E-02
 -1       761 2.58884E-02
 -1       762 1.79738E-02
 -1       763 2.16155E-02
 -1       764 4.03233E-02
 -1       765 6.43455E-02
 -1       766 9.55010E-02
 -1       767 1.38381E-01
 -1       768 1.94733E-01
 -1       769 2.67994E-01
 -1       770 3.62349E-01
 -1       771 4.82591E-01
 -1       772 6.33974E-01
 -1       773 8.21752E-01
 -1       774 1.04996E+00
 -1       775 1.31822E+00
 -1       776 1.67138E+00
 -1       777 2.24679E+00
 -1       778 2.63129E+00
 -1       779 4.14049E+00
 -1       780 5.90145E+00
 -1       781 2.16999E-01
 -1       782 1.88545E-01
 -1       783 1.13046E-01
 -1       784 9.14511E-02
 -1       785 7.26101E-02
 -1       786 5.63590E-02
 -1       787 4.27209E-02
 -1       788 3.22737E-02
 -1       789 2.25716E-02
 -1       790 2.04195E-02
 -1       791 3.12536E-02
 -1       792 5.11702E-02
 -1       793 7.58402E-02
 -1       794 1.06564E-01
 -1       795 1.44678E-01
 -1       796 1.91470E-01
 -1       797 2.48053E-01
 -1       798 3.17961E-01
 -1       799 3.98687E-01
 -1       800 4.87242E-01
 -1       801 5.77452E-01
 -1       802 6.63264E-01
 -1       803 7.91142E-01
 -1       804 9.65190E-01
 -1       805 1.13710E+00
 -1       806 1.30393E+00
 -1       807 1.84103E+00
 -1       808 2.14976E+00
 -1       809 2.43666E+00
 -1       810 2.52657E+00
 -1       811 2.74350E+00
 -1       812 2.99135E+00
 -1       813 2.79764E+00
 -1       814 2.61420E+00
 -1       815 3.41134E+00
 -1       816 2.88642E-01
 -1       817 6.14199E+00
 -1       818 7.48910E+00
 -1       819 3.02568E+00
 -1       820 3.74799E+00
 -1       821 8.93888E+00
 -1       822 4.88135E+00
 -1       823 3.38718E+00
 -1       824 1.37148E-01
 -1       825 1.62903E-01
 -1       826 2.85370E-01
 -1       827 2.53717E-01
 -1       828 8.12347E+00
 -1       829 2.82006E-01
 -1       830 4.47903E+00
 -1       831 3.19883E+00
 -1       832 4.01297E+00
 -1       833 2.81721E-01
 -1       834 2.79147E-01
 -1       835 2.89041E-01
 -1       836 2.82775E-01
 -1       837 8.35431E+00
 -1       838 8.33290E+00
 -1       839 2.74350E+00
 -1       840 7.50993E+00
 -1       841 2.88642E-01
 -1       842 2.39226E-01
 -1       843 2.73877E-01
 -1       844 2.89041E-01
 -1       845 2.80382E+00
 -1       846 1.44128E-01
 -1       847 1.72135E-01
 -1       848 1.77595E-01
 -1       849 1.69340E-01
 -1       850 1.53469E-01
 -1       851 1.34130E-01
 -1       852 1.18449E-01
 -1       853 1.02252E-01
 -1       854 8.59919E-02
 -1       855 7.06170E-02
 -1       856 5.65592E-02
 -1       857 4.38786E-02
 -1       858 3.23676E-02
 -1       859 2.63691E-02
 -1       860 2.87606E-02
 -1       861 3.78379E-02
 -1       862 5.89010E-02
 -1       863 8.78819E-02
 -1       864 1.25604E-01
 -1       865 1.74565E-01
 -1       866 2.37822E-01
 -1       867 3.19189E-01
 -1       868 4.23591E-01
 -1       869 5.57696E-01
 -1       870 7.31013E-01
 -1       871 9.57782E-01
 -1       872 1.26022E+00
 -1       873 1.67138E+00
 -1       874 2.24679E+00
 -1       875 2.79547E+00
 -1       876 1.75677E-01
 -1       877 7.99214E-02
 -1       878 9.74092E-02
 -1       879 4.99571E-02
 -1       880 3.72728E-02
 -1       881 2.55787E-02
 -1       882 2.24004E-02
 -1       883 2.54564E-02
 -1       884 4.31139E-02
 -1       885 6.57691E-02
 -1       886 9.51721E-02
 -1       887 1.31712E-01
 -1       888 1.76302E-01
 -1       889 2.29347E-01
 -1       890 2.90319E-01
 -1       891 3.57108E-01
 -1       892 4.35230E-01
 -1       893 5.41036E-01
 -1       894 6.74346E-01
 -1       895 8.44302E-01
 -1       896 1.03588E+00
 -1       897 1.31369E+00
 -1       898 1.69864E+00
 -1       899 2.05630E+00
 -1       900 3.01896E+00
 -1       901 4.34418E+00
 -1       902 1.65139E-01
 -1       903 7.66278E+00
 -1       904 2.09175E-01
 -1       905 1.34901E-01
 -1       906 1.96370E-01
 -1       907 3.83787E+00
 -1       908 4.14022E+00
 -1       909 1.16085E-01
 -1       910 6.40886E-02
 -1       911 1.54500E-01
 -1       912 1.52015E-01
 -1       913 7.25097E+00
 -1       914 4.27069E+00
 -1       915 1.87313E-01
 -1       916 5.84789E+00
 -1       917 2.17314E-01
 -1       918 2.16993E-01
 -1       919 2.17314E-01
 -1       920 2.05151E-01
 -1       921 9.64426E-02
 -1       922 1.23325E-01
 -1       923 1.33404E-01
 -1       924 1.31425E-01
 -1       925 1.22037E-01
 -1       926 1.08692E-01
 -1       927 9.40031E-02
 -1       928 8.16817E-02
 -1       929 6.90642E-02
 -1       930 5.69827E-02
 -1       931 4.58498E-02
 -1       932 3.57852E-02
 -1       933 3.20609E-02
 -1       934 3.37541E-02
 -1       935 3.82821E-02
 -1       936 4.96449E-02
 -1       937 7.29667E-02
 -1       938 1.03113E-01
 -1       939 1.41912E-01
 -1       940 1.91576E-01
 -1       941 2.54884E-01
 -1       942 3.35540E-01
 -1       943 4.38895E-01
 -1       944 5.73417E-01
 -1       945 7.53602E-01
 -1       946 1.00547E+00
 -1       947 1.37861E+00
 -1       948 1.99594E+00
 -1       949 2.79547E+00
 -1       950 1.55539E-01
 -1       951 9.49139E-02
 -1       952 1.29918E-01
 -1       953 3.12724E-02
 -1       954 4.19384E-02
 -1       955 3.22562E-02
 -1       956 3.92370E-02
 -1       957 6.01106E-02
 -1       958 8.67325E-02
 -1       959 1.20351E-01
 -1       960 1.62338E-01
 -1       961 2.14005E-01
 -1       962 2.76450E-01
 -1       963 3.50294E-01
 -1       964 4.35230E-01
 -1       965 5.29187E-01
 -1       966 6.50921E-01
 -1       967 8.18952E-01
 -1       968 1.10727E+00
 -1       969 1.50419E+00
 -1       970 1.97894E+00
 -1       971 2.58169E+00
 -1       972 3.01896E+00
 -1       973 3.70059E+00
 -1       974 2.96318E-02
 -1       975 8.03780E-02
 -1       976 1.09026E-01
 -1       977 2.06774E-01
 -1       978 5.50943E+00
 -1       979 1.52139E-01
 -1       980 1.24702E-01
 -1       981 1.40567E-01
 -1       982 1.70392E-01
 -1       983 2.16993E-01
 -1       984 1.53251E-01
 -1       985 1.40776E-01
 -1       986 5.79531E+00
 -1       987 5.36347E-02
 -1       988 2.71288E+00
 -1       989 1.46574E-01
 -1       990 6.64283E-02
 -1       991 1.27600E-01
 -1       992 4.79146E+00
 -1       993 1.53370E-01
 -1       994 3.41442E-02
 -1       995 7.40941E-02
 -1       996 1.11768E-01
 -1       997 9.04899E-02
 -1       998 1.00190E-01
 -1       999 1.00246E-01
 -1      1000 9.42196E-02
 -1      1001 8.46994E-02
 -1      1002 7.35909E-02
 -1      1003 6.21546E-02
 -1      1004 5.20990E-02
 -1      1005 4.31810E-02
 -1      1006 3.74744E-02
 -1      1007 3.51095E-02
 -1      1008 3.57214E-02
 -1      1009 3.90944E-02
 -1      1010 4.68331E-02
 -1      1011 6.08593E-02
 -1      1012 8.02113E-02
 -1      1013 1.06064E-01
 -1      1014 1.39898E-01
 -1      1015 1.83636E-01
 -1      1016 2.39891E-01
 -1      1017 3.14578E-01
 -1      1018 4.12364E-01
 -1      1019 5.42533E-01
 -1      1020 7.21499E-01
 -1      1021 9.78410E-01
 -1      1022 1.37524E+00
 -1      1023 2.47363E+00
 -1      1024 3.46693E-02
 -1      1025 5.03659E-02
 -1      1026 4.09411E-02
 -1      1027 9.96027E-02
 -1      1028 1.35659E-01
 -1      1029 1.81465E-01
 -1      1030 2.39207E-01
 -1      1031 3.11508E-01
 -1      1032 4.01553E-01
 -1      1033 5.13201E-01
 -1      1034 6.50921E-01
 -1      1035 8.18952E-01
 -1      1036 1.05943E+00
 -1      1037 1.46934E+00
 -1      1038 1.79797E+00
 -1      1039 2.58169E+00
 -1      1040 1.17158E-01
 -1      1041 8.64391E-02
 -1      1042 1.16705E-01
 -1      1043 1.53370E-01
 -1      1044 3.38162E+00
 -1      1045 9.93431E-02
 -1      1046 1.05184E-01
 -1      1047 3.54742E+00
 -1      1048 1.10335E-01
 -1      1049 3.61087E-02
 -1      1050 7.14476E-02
 -1      1051 4.92266E-02
 -1      1052 1.20970E-01
 -1      1053 1.14130E-01
 -1      1054 6.28501E-02
 -1      1055 1.20970E-01
 -1      1056 3.05725E+00
 -1      1057 6.58602E-02
 -1      1058 7.30142E-02
 -1      1059 7.38384E-02
 -1      1060 7.10762E-02
 -1      1061 6.49815E-02
 -1      1062 5.91051E-02
 -1      1063 5.23473E-02
 -1      1064 4.54666E-02
 -1      1065 4.79930E-02
 -1      1066 3.74744E-02
 -1      1067 3.57214E-02
 -1      1068 3.90944E-02
 -1      1069 4.57939E-02
 -1      1070 5.82682E-02
 -1      1071 7.56340E-02
 -1      1072 9.88075E-02
 -1      1073 1.28867E-01
 -1      1074 1.67923E-01
 -1      1075 2.17905E-01
 -1      1076 2.81008E-01
 -1      1077 3.60881E-01
 -1      1078 4.78096E-01
 -1      1079 6.62621E-01
 -1      1080 9.32209E-01
 -1      1081 1.33174E+00
 -1      1082 1.89638E+00
 -1      1083 5.03659E-02
 -1      1084 4.17602E+00
 -1      1085 3.46693E-02
 -1      1086 4.09411E-02
 -1      1087 1.40082E-01
 -1      1088 1.08848E-01
 -1      1089 2.55929E-01
 -1      1090 3.48714E-01
 -1      1091 4.78096E-01
 -1      1092 6.62621E-01
 -1      1093 9.32209E-01
 -1      1094 1.33174E+00
 -1      1095 1.89638E+00
 -1      1096 1.89638E+00
 -1      1097 3.02849E+00
 -1      1098 5.48217E-02
 -1      1099 6.62372E-02
 -1      1100 8.68334E-02
 -1      1101 8.00633E-02
 -1      1102 7.57438E-02
 -1      1103 8.81885E-02
 -1      1104 5.12941E-02
 -1      1105 3.61087E-02
 -1      1106 2.13689E+00
 -1      1107 2.96279E+00
 -1      1108 8.39567E-02
 -1      1109 8.36624E-02
 -1      1110 1.88158E-01
 -1      1111 6.47007E-02
 -1      1112 4.79930E-02
 -1      1113 5.67416E-02
 -1      1114 4.92266E-02
 -1      1115 2.26729E+00
 -1      1116 5.48217E-02
 -1      1117 1.31432E+01
 -1      1118 8.40345E+00
 -1      1119 2.74443E+00
 -1      1120 1.55726E+00
 -1      1121 1.16788E+00
 -1      1122 9.73227E-01
 -1      1123 8.54453E-01
 -1      1124 7.81362E-01
 -1      1125 7.54813E-01
 -1      1126 7.84478E-01
 -1      1127 8.57023E-01
 -1      1128 9.76795E-01
 -1      1129 1.18030E+00
 -1      1130 1.57189E+00
 -1      1131 2.67069E+00
 -1      1132 6.07330E+00
 -1      1133 1.13400E+01
 -1      1134 1.31432E+01
 -1      1135 8.73039E+00
 -1      1136 3.82898E+00
 -1      1137 2.72567E+00
 -1      1138 1.73659E+00
 -1      1139 1.18808E+00
 -1      1140 8.94377E-01
 -1      1141 6.84908E-01
 -1      1142 5.24806E-01
 -1      1143 4.00877E-01
 -1      1144 3.07644E-01
 -1      1145 2.36475E-01
 -1      1146 1.79767E-01
 -1      1147 1.35510E-01
 -1      1148 1.01829E-01
 -1      1149 7.70478E-02
 -1      1150 5.97201E-02
 -1      1151 4.86278E-02
 -1      1152 4.44375E-02
 -1      1153 4.87609E-02
 -1      1154 5.93734E-02
 -1      1155 7.34606E-02
 -1      1156 9.05621E-02
 -1      1157 1.17744E-01
 -1      1158 1.60451E-01
 -1      1159 2.17044E-01
 -1      1160 2.88662E-01
 -1      1161 3.76627E-01
 -1      1162 4.80742E-01
 -1      1163 5.97774E-01
 -1      1164 7.44061E-01
 -1      1165 9.58081E-01
 -1      1166 1.22605E+00
 -1      1167 1.55056E+00
 -1      1168 1.89520E+00
 -1      1169 2.10692E+00
 -1      1170 2.22237E+00
 -1      1171 2.28538E+00
 -1      1172 2.67140E+00
 -1      1173 4.12005E+00
 -1      1174 6.36149E+00
 -1      1175 7.54030E+00
 -1      1176 7.48621E+00
 -1      1177 7.18396E+00
 -1      1178 5.74500E+00
 -1      1179 3.35686E+00
 -1      1180 1.60060E+00
 -1      1181 9.46520E-01
 -1      1182 7.77324E-01
 -1      1183 4.38244E-01
 -1      1184 1.40389E+01
 -1      1185 8.71676E+00
 -1      1186 2.90375E+00
 -1      1187 2.03928E+00
 -1      1188 1.40509E+00
 -1      1189 1.02521E+00
 -1      1190 8.18545E-01
 -1      1191 6.59431E-01
 -1      1192 5.27850E-01
 -1      1193 4.18227E-01
 -1      1194 3.31250E-01
 -1      1195 2.63121E-01
 -1      1196 2.06594E-01
 -1      1197 1.60452E-01
 -1      1198 1.23815E-01
 -1      1199 9.56962E-02
 -1      1200 7.51352E-02
 -1      1201 6.12686E-02
 -1      1202 5.45947E-02
 -1      1203 5.78628E-02
 -1      1204 6.95038E-02
 -1      1205 8.59253E-02
 -1      1206 1.06661E-01
 -1      1207 1.30884E-01
 -1      1208 1.57129E-01
 -1      1209 1.93065E-01
 -1      1210 2.42575E-01
 -1      1211 2.97676E-01
 -1      1212 3.51860E-01
 -1      1213 3.96750E-01
 -1      1214 4.22021E-01
 -1      1215 4.77715E-01
 -1      1216 6.01493E-01
 -1      1217 7.36687E-01
 -1      1218 8.83570E-01
 -1      1219 1.11144E+00
 -1      1220 1.31594E+00
 -1      1221 1.53719E+00
 -1      1222 1.84520E+00
 -1      1223 2.32106E+00
 -1      1224 3.07538E+00
 -1      1225 3.60046E+00
 -1      1226 3.78349E+00
 -1      1227 3.86951E+00
 -1      1228 3.67390E+00
 -1      1229 3.04484E+00
 -1      1230 2.19208E+00
 -1      1231 1.42980E+00
 -1      1232 8.40669E-01
 -1      1233 3.66062E-01
 -1      1234 2.22096E-01
 -1      1235 2.84214E-01
 -1      1236 4.06901E-01
 -1      1237 6.87928E-01
 -1      1238 9.18314E-01
 -1      1239 1.01273E+00
 -1      1240 9.71292E-01
 -1      1241 9.22569E-01
 -1      1242 1.27933E+00
 -1      1243 1.64337E+00
 -1      1244 1.41305E+00
 -1      1245 9.82390E-01
 -1      1246 8.67204E-01
 -1      1247 9.52356E-01
 -1      1248 8.53702E-01
 -1      1249 7.55049E-01
 -1      1250 4.64122E-01
 -1      1251 2.65285E+01
 -1      1252 3.60001E+01
 -1      1253 4.54718E+01
 -1      1254 3.19366E+01
 -1      1255 1.55372E+01
 -1      1256 1.28671E+01
 -1      1257 1.30613E+01
 -1      1258 1.29093E+01
 -1      1259 1.27573E+01
 -1      1260 1.28633E+01
 -1      1261 2.11460E+01
 -1      1262 2.96265E+01
 -1      1263 2.89004E+01
 -1      1264 2.66833E+01
 -1      1265 2.54962E+01
 -1      1266 2.49282E+01
 -1      1267 3.54230E+01
 -1      1268 4.64860E+01
 -1      1269 3.21048E+01
 -1      1270 1.50465E+01
 -1      1271 1.23868E+01
 -1      1272 1.25196E+01
 -1      1273 1.26350E+01
 -1      1274 1.25519E+01
 -1      1275 1.23249E+01
 -1      1276 1.85873E+01
 -1      1277 2.78189E+01
 -1      1278 3.06442E+01
 -1      1279 2.73069E+01
 -1      1280 2.52490E+01
 -1      1281 1.31432E+01
 -1      1282 4.87068E+00
 -1      1283 9.61045E+00
 -1      1284 2.06208E+00
 -1      1285 2.98132E+00
 -1      1286 4.18832E+00
 -1      1287 1.39858E+00
 -1      1288 1.66651E+00
 -1      1289 1.90339E+00
 -1      1290 1.10225E+00
 -1      1291 1.22369E+00
 -1      1292 1.33294E+00
 -1      1293 9.36816E-01
 -1      1294 1.01003E+00
 -1      1295 1.06584E+00
 -1      1296 8.36746E-01
 -1      1297 8.82308E-01
 -1      1298 9.19110E-01
 -1      1299 7.74925E-01
 -1      1300 8.02454E-01
 -1      1301 8.30309E-01
 -1      1302 7.55793E-01
 -1      1303 7.54813E-01
 -1      1304 7.75905E-01
 -1      1305 8.06302E-01
 -1      1306 7.77617E-01
 -1      1307 7.77617E-01
 -1      1308 8.84067E-01
 -1      1309 8.40207E-01
 -1      1310 8.33346E-01
 -1      1311 1.01689E+00
 -1      1312 9.40983E-01
 -1      1313 9.24167E-01
 -1      1314 1.24025E+00
 -1      1315 1.11266E+00
 -1      1316 1.07685E+00
 -1      1317 1.68180E+00
 -1      1318 1.41780E+00
 -1      1319 1.35016E+00
 -1      1320 2.88321E+00
 -1      1321 2.04841E+00
 -1      1322 1.89432E+00
 -1      1323 6.28611E+00
 -1      1324 3.71830E+00
 -1      1325 3.09602E+00
 -1      1326 1.40389E+01
 -1      1327 1.13400E+01
 -1      1328 8.98502E+00
 -1      1329 1.40389E+01
 -1      1330 8.73039E+00
 -1      1331 4.31755E+00
 -1      1332 3.82898E+00
 -1      1333 3.34041E+00
 -1      1334 3.82898E+00
 -1      1335 2.72567E+00
 -1      1336 2.11093E+00
 -1      1337 2.72567E+00
 -1      1338 1.77891E+00
 -1      1339 1.40457E+00
 -1      1340 1.77891E+00
 -1      1341 1.19367E+00
 -1      1342 1.01949E+00
 -1      1343 1.23598E+00
 -1      1344 8.94377E-01
 -1      1345 7.74858E-01
 -1      1346 8.99971E-01
 -1      1347 6.84908E-01
 -1      1348 5.94959E-01
 -1      1349 6.84908E-01
 -1      1350 5.31223E-01
 -1      1351 4.61069E-01
 -1      1352 5.31223E-01
 -1      1353 4.11007E-01
 -1      1354 3.57232E-01
 -1      1355 4.17424E-01
 -1      1356 3.18249E-01
 -1      1357 2.78792E-01
 -1      1358 3.28379E-01
 -1      1359 2.50420E-01
 -1      1360 2.18707E-01
 -1      1361 2.61024E-01
 -1      1362 1.94652E-01
 -1      1363 1.69657E-01
 -1      1364 2.08597E-01
 -1      1365 1.49836E-01
 -1      1366 1.30575E-01
 -1      1367 1.64721E-01
 -1      1368 1.14679E-01
 -1      1369 1.00259E-01
 -1      1370 1.29005E-01
 -1      1371 8.78687E-02
 -1      1372 7.75078E-02
 -1      1373 1.00719E-01
 -1      1374 6.81667E-02
 -1      1375 6.12000E-02
 -1      1376 7.89877E-02
 -1      1377 5.44496E-02
 -1      1378 5.03241E-02
 -1      1379 6.28963E-02
 -1      1380 4.57212E-02
 -1      1381 4.56565E-02
 -1      1382 5.15430E-02
 -1      1383 4.43727E-02
 -1      1384 4.87609E-02
 -1      1385 4.56565E-02
 -1      1386 5.31491E-02
 -1      1387 5.93734E-02
 -1      1388 4.87609E-02
 -1      1389 6.55976E-02
 -1      1390 7.34606E-02
 -1      1391 5.93734E-02
 -1      1392 8.16458E-02
 -1      1393 9.08843E-02
 -1      1394 7.37828E-02
 -1      1395 1.05093E-01
 -1      1396 1.23036E-01
 -1      1397 9.61764E-02
 -1      1398 1.41753E-01
 -1      1399 1.66516E-01
 -1      1400 1.29101E-01
 -1      1401 1.90458E-01
 -1      1402 2.22288E-01
 -1      1403 1.71760E-01
 -1      1404 2.52075E-01
 -1      1405 2.91865E-01
 -1      1406 2.25490E-01
 -1      1407 3.31542E-01
 -1      1408 3.79718E-01
 -1      1409 2.94956E-01
 -1      1410 4.44495E-01
 -1      1411 5.00434E-01
 -1      1412 3.99410E-01
 -1      1413 5.81139E-01
 -1      1414 6.42232E-01
 -1      1415 5.44892E-01
 -1      1416 7.38040E-01
 -1      1417 8.23233E-01
 -1      1418 7.21404E-01
 -1      1419 9.29162E-01
 -1      1420 1.05799E+00
 -1      1421 9.23141E-01
 -1      1422 1.16205E+00
 -1      1423 1.30119E+00
 -1      1424 1.13313E+00
 -1      1425 1.40080E+00
 -1      1426 1.58616E+00
 -1      1427 1.33679E+00
 -1      1428 1.73592E+00
 -1      1429 1.89520E+00
 -1      1430 1.58616E+00
 -1      1431 2.05448E+00
 -1      1432 2.10692E+00
 -1      1433 1.89520E+00
 -1      1434 2.15935E+00
 -1      1435 2.22237E+00
 -1      1436 2.10692E+00
 -1      1437 2.28538E+00
 -1      1438 2.28538E+00
 -1      1439 2.22237E+00
 -1      1440 2.21399E+00
 -1      1441 2.60001E+00
 -1      1442 2.21399E+00
 -1      1443 3.05742E+00
 -1      1444 4.12005E+00
 -1      1445 2.60001E+00
 -1      1446 5.18267E+00
 -1      1447 6.36149E+00
 -1      1448 4.12005E+00
 -1      1449 7.54030E+00
 -1      1450 7.54030E+00
 -1      1451 6.36149E+00
 -1      1452 7.48621E+00
 -1      1453 7.43212E+00
 -1      1454 7.48621E+00
 -1      1455 7.18396E+00
 -1      1456 6.93579E+00
 -1      1457 7.18396E+00
 -1      1458 5.78794E+00
 -1      1459 4.59715E+00
 -1      1460 5.78794E+00
 -1      1461 3.79406E+00
 -1      1462 2.59671E+00
 -1      1463 3.83700E+00
 -1      1464 2.09820E+00
 -1      1465 1.53929E+00
 -1      1466 2.53540E+00
 -1      1467 1.22242E+00
 -1      1468 1.12726E+00
 -1      1469 1.72003E+00
 -1      1470 9.58011E-01
 -1      1471 8.83979E-01
 -1      1472 1.23391E+00
 -1      1473 7.29171E-01
 -1      1474 9.09857E-01
 -1      1475 3.39459E+00
 -1      1476 8.71676E+00
 -1      1477 8.71676E+00
 -1      1478 2.41290E+00
 -1      1479 2.90375E+00
 -1      1480 2.90375E+00
 -1      1481 1.66566E+00
 -1      1482 2.03928E+00
 -1      1483 2.03928E+00
 -1      1484 1.14453E+00
 -1      1485 1.40509E+00
 -1      1486 1.40509E+00
 -1      1487 9.05898E-01
 -1      1488 1.02521E+00
 -1      1489 1.02521E+00
 -1      1490 7.31193E-01
 -1      1491 8.18545E-01
 -1      1492 8.18545E-01
 -1      1493 5.87669E-01
 -1      1494 6.59431E-01
 -1      1495 6.59431E-01
 -1      1496 4.68031E-01
 -1      1497 5.27850E-01
 -1      1498 5.27850E-01
 -1      1499 3.68422E-01
 -1      1500 4.18227E-01
 -1      1501 4.18227E-01
 -1      1502 2.94078E-01
 -1      1503 3.31250E-01
 -1      1504 3.31250E-01
 -1      1505 2.32164E-01
 -1      1506 2.63121E-01
 -1      1507 2.63121E-01
 -1      1508 1.82474E-01
 -1      1509 2.08043E-01
 -1      1510 2.08043E-01
 -1      1511 1.42310E-01
 -1      1512 1.62883E-01
 -1      1513 1.64332E-01
 -1      1514 1.10534E-01
 -1      1515 1.26598E-01
 -1      1516 1.29029E-01
 -1      1517 8.63182E-02
 -1      1518 9.83724E-02
 -1      1519 1.01156E-01
 -1      1520 6.88405E-02
 -1      1521 7.73474E-02
 -1      1522 8.00235E-02
 -1      1523 5.73515E-02
 -1      1524 6.27112E-02
 -1      1525 6.49234E-02
 -1      1526 5.25180E-02
 -1      1527 5.38321E-02
 -1      1528 5.52748E-02
 -1      1529 5.98583E-02
 -1      1530 5.52760E-02
 -1      1531 5.45135E-02
 -1      1532 7.16951E-02
 -1      1533 6.46363E-02
 -1      1534 6.20496E-02
 -1      1535 8.76032E-02
 -1      1536 7.82405E-02
 -1      1537 7.33730E-02
 -1      1538 1.06930E-01
 -1      1539 9.55564E-02
 -1      1540 8.78715E-02
 -1      1541 1.30884E-01
 -1      1542 1.18034E-01
 -1      1543 1.06930E-01
 -1      1544 1.60576E-01
 -1      1545 1.47181E-01
 -1      1546 1.34331E-01
 -1      1547 2.03003E-01
 -1      1548 1.80462E-01
 -1      1549 1.70514E-01
 -1      1550 2.51909E-01
 -1      1551 2.24940E-01
 -1      1552 2.12337E-01
 -1      1553 3.02407E-01
 -1      1554 2.74275E-01
 -1      1555 2.56641E-01
 -1      1556 3.51860E-01
 -1      1557 3.25807E-01
 -1      1558 3.02407E-01
 -1      1559 3.96750E-01
 -1      1560 3.77914E-01
 -1      1561 3.51860E-01
 -1      1562 4.22021E-01
 -1      1563 4.15587E-01
 -1      1564 3.96750E-01
 -1      1565 4.92518E-01
 -1      1566 4.43259E-01
 -1      1567 4.36825E-01
 -1      1568 6.17197E-01
 -1      1569 5.42678E-01
 -1      1570 5.08222E-01
 -1      1571 7.36687E-01
 -1      1572 6.76012E-01
 -1      1573 6.17197E-01
 -1      1574 8.83570E-01
 -1      1575 7.97361E-01
 -1      1576 7.36687E-01
 -1      1577 1.11144E+00
 -1      1578 9.69780E-01
 -1      1579 8.83570E-01
 -1      1580 1.31594E+00
 -1      1581 1.25310E+00
 -1      1582 1.11144E+00
 -1      1583 1.53719E+00
 -1      1584 1.37879E+00
 -1      1585 1.31594E+00
 -1      1586 1.84520E+00
 -1      1587 1.69559E+00
 -1      1588 1.53719E+00
 -1      1589 2.32106E+00
 -1      1590 1.99481E+00
 -1      1591 1.84520E+00
 -1      1592 3.08025E+00
 -1      1593 2.65218E+00
 -1      1594 2.32594E+00
 -1      1595 3.60046E+00
 -1      1596 3.50345E+00
 -1      1597 3.08025E+00
 -1      1598 3.78349E+00
 -1      1599 3.69747E+00
 -1      1600 3.60046E+00
 -1      1601 3.86951E+00
 -1      1602 3.86951E+00
 -1      1603 3.78349E+00
 -1      1604 3.47830E+00
 -1      1605 3.67390E+00
 -1      1606 3.67390E+00
 -1      1607 2.61137E+00
 -1      1608 3.04484E+00
 -1      1609 3.04484E+00
 -1      1610 1.77278E+00
 -1      1611 2.19208E+00
 -1      1612 2.19208E+00
 -1      1613 1.09280E+00
 -1      1614 1.43578E+00
 -1      1615 1.43578E+00
 -1      1616 5.99159E-01
 -1      1617 8.45311E-01
 -1      1618 8.51292E-01
 -1      1619 4.50551E-01
 -1      1620 3.51380E-01
 -1      1621 3.73751E-01
 -1      1622 6.66027E-01
 -1      1623 5.20970E-01
 -1      1624 6.10507E-01
 -1      1625 1.07025E+00
 -1      1626 9.34279E-01
 -1      1627 1.04835E+00
 -1      1628 1.34432E+00
 -1      1629 1.24990E+00
 -1      1630 1.49625E+00
 -1      1631 1.40189E+00
 -1      1632 1.40189E+00
 -1      1633 1.73348E+00
 -1      1634 1.36046E+00
 -1      1635 1.40189E+00
 -1      1636 1.79106E+00
 -1      1637 1.21450E+00
 -1      1638 1.22179E+00
 -1      1639 1.65239E+00
 -1      1640 2.41536E+00
 -1      1641 2.05132E+00
 -1      1642 2.35053E+00
 -1      1643 2.51475E+00
 -1      1644 2.51475E+00
 -1      1645 3.28674E+00
 -1      1646 2.28443E+00
 -1      1647 2.51475E+00
 -1      1648 3.38613E+00
 -1      1649 1.31791E+00
 -1      1650 1.51825E+00
 -1      1651 2.61995E+00
 -1      1652 1.32281E+00
 -1      1653 1.23766E+00
 -1      1654 1.77352E+00
 -1      1655 1.32281E+00
 -1      1656 1.32281E+00
 -1      1657 1.69327E+00
 -1      1658 1.13509E+00
 -1      1659 1.23375E+00
 -1      1660 1.60420E+00
 -1      1661 9.20671E-01
 -1      1662 9.20671E-01
 -1      1663 1.30072E+00
 -1      1664 1.07548E+00
 -1      1665 2.80900E+01
 -1      1666 2.80900E+01
 -1      1667 4.23296E+01
 -1      1668 3.28579E+01
 -1      1669 4.54718E+01
 -1      1670 4.54718E+01
 -1      1671 1.89399E+01
 -1      1672 3.24750E+01
 -1      1673 1.19999E+01
 -1      1674 1.48642E+01
 -1      1675 1.28671E+01
 -1      1676 1.26729E+01
 -1      1677 1.30613E+01
 -1      1678 1.30613E+01
 -1      1679 1.24084E+01
 -1      1680 1.25604E+01
 -1      1681 1.27573E+01
 -1      1682 1.27573E+01
 -1      1683 1.23625E+01
 -1      1684 1.22565E+01
 -1      1685 2.11460E+01
 -1      1686 1.29692E+01
 -1      1687 2.99302E+01
 -1      1688 2.96265E+01
 -1      1689 2.89004E+01
 -1      1690 2.99302E+01
 -1      1691 2.48314E+01
 -1      1692 2.60186E+01
 -1      1693 2.76986E+01
 -1      1694 2.76986E+01
 -1      1695 2.60390E+01
 -1      1696 2.66070E+01
 -1      1697 3.66433E+01
 -1      1698 2.55804E+01
 -1      1699 4.64860E+01
 -1      1700 4.64860E+01
 -1      1701 1.85473E+01
 -1      1702 3.29285E+01
 -1      1703 1.16522E+01
 -1      1704 1.43293E+01
 -1      1705 1.23868E+01
 -1      1706 1.23694E+01
 -1      1707 1.25196E+01
 -1      1708 1.24042E+01
 -1      1709 1.26350E+01
 -1      1710 1.26350E+01
 -1      1711 1.24688E+01
 -1      1712 1.25519E+01
 -1      1713 1.21000E+01
 -1      1714 1.22439E+01
 -1      1715 1.85873E+01
 -1      1716 1.21810E+01
 -1      1717 2.89103E+01
 -1      1718 2.60850E+01
 -1      1719 3.10491E+01
 -1      1720 3.10491E+01
 -1      1721 2.77118E+01
 -1      1722 3.10491E+01
 -1      1723 2.76934E+01
 -1      1724 2.64139E+01
 -1      1725 1.54025E+01
 -1      1726 3.24750E+01
 -1      1727 4.55193E-01
 -1      1728 5.22359E-01
 -1      1729 3.44194E+01
 -1      1730 4.23296E+01
 -1      1731 2.92549E+01
 -1      1732 1.19999E+01
 -1      1733 1.28671E+01
 -1      1734 1.25604E+01
 -1      1735 1.24084E+01
 -1      1736 1.22565E+01
 -1      1737 1.23625E+01
 -1      1738 2.14497E+01
 -1      1739 2.99302E+01
 -1      1740 2.70484E+01
 -1      1741 2.70338E+01
 -1      1742 2.88094E+01
 -1      1743 2.72592E+01
 -1      1744 3.66433E+01
 -1      1745 3.29285E+01
 -1      1746 1.51530E+01
 -1      1747 1.16522E+01
 -1      1748 1.23868E+01
 -1      1749 1.25196E+01
 -1      1750 1.25519E+01
 -1      1751 1.22439E+01
 -1      1752 1.21000E+01
 -1      1753 1.96787E+01
 -1      1754 2.93152E+01
 -1      1755 3.14540E+01
 -1      1756 3.01562E+01
 -1      1757 9.61045E+00
 -1      1758 1.27810E+00
 -1      1759 1.67366E+00
 -1      1760 2.38949E+00
 -1      1761 4.27885E+00
 -1      1762 1.76420E+00
 -1      1763 8.84483E-01
 -1      1764 9.76703E-01
 -1      1765 7.79827E-01
 -1      1766 8.34335E-01
 -1      1767 7.45201E-01
 -1      1768 7.13964E-01
 -1      1769 7.48257E-01
 -1      1770 6.63482E-01
 -1      1771 6.71723E-01
 -1      1772 6.91835E-01
 -1      1773 6.09783E-01
 -1      1774 6.95148E-01
 -1      1775 6.73324E-01
 -1      1776 5.89254E-01
 -1      1777 7.50901E-01
 -1      1778 7.16996E-01
 -1      1779 6.12703E-01
 -1      1780 8.41197E-01
 -1      1781 7.84281E-01
 -1      1782 6.67931E-01
 -1      1783 9.84581E-01
 -1      1784 8.88816E-01
 -1      1785 7.48930E-01
 -1      1786 1.22984E+00
 -1      1787 1.05230E+00
 -1      1788 8.64265E-01
 -1      1789 1.71062E+00
 -1      1790 1.34401E+00
 -1      1791 1.04615E+00
 -1      1792 2.63018E+00
 -1      1793 1.79510E+00
 -1      1794 1.24479E+00
 -1      1795 8.11973E+00
 -1      1796 3.06582E+00
 -1      1797 1.76490E+00
 -1      1798 2.79756E+00
 -1      1799 5.19761E+00
 -1      1800 2.16345E+00
 -1      1801 2.65429E+00
 -1      1802 2.05726E+00
 -1      1803 3.39879E+00
 -1      1804 2.53469E+00
 -1      1805 1.91995E+00
 -1      1806 1.68894E+00
 -1      1807 1.35692E+00
 -1      1808 1.49796E+00
 -1      1809 1.17675E+00
 -1      1810 9.65849E-01
 -1      1811 1.08678E+00
 -1      1812 8.40313E-01
 -1      1813 7.15199E-01
 -1      1814 7.81077E-01
 -1      1815 6.56492E-01
 -1      1816 5.66542E-01
 -1      1817 5.96833E-01
 -1      1818 5.17934E-01
 -1      1819 4.54198E-01
 -1      1820 4.89517E-01
 -1      1821 4.11372E-01
 -1      1822 3.61309E-01
 -1      1823 3.98083E-01
 -1      1824 3.28571E-01
 -1      1825 2.89588E-01
 -1      1826 3.22518E-01
 -1      1827 2.61957E-01
 -1      1828 2.33585E-01
 -1      1829 2.62149E-01
 -1      1830 2.09868E-01
 -1      1831 1.85813E-01
 -1      1832 2.10801E-01
 -1      1833 1.68177E-01
 -1      1834 1.48357E-01
 -1      1835 1.69448E-01
 -1      1836 1.33758E-01
 -1      1837 1.17862E-01
 -1      1838 1.37214E-01
 -1      1839 1.05659E-01
 -1      1840 9.32693E-02
 -1      1841 1.10413E-01
 -1      1842 8.33446E-02
 -1      1843 7.40035E-02
 -1      1844 8.82851E-02
 -1      1845 6.61140E-02
 -1      1846 5.93636E-02
 -1      1847 7.04709E-02
 -1      1848 5.31893E-02
 -1      1849 4.85865E-02
 -1      1850 5.64071E-02
 -1      1851 4.42611E-02
 -1      1852 4.29774E-02
 -1      1853 4.59074E-02
 -1      1854 4.33732E-02
 -1      1855 4.77614E-02
 -1      1856 4.19778E-02
 -1      1857 5.01571E-02
 -1      1858 5.63814E-02
 -1      1859 4.47694E-02
 -1      1860 6.33857E-02
 -1      1861 7.15709E-02
 -1      1862 5.41694E-02
 -1      1863 8.19680E-02
 -1      1864 9.61764E-02
 -1      1865 7.15709E-02
 -1      1866 1.10385E-01
 -1      1867 1.29101E-01
 -1      1868 9.61764E-02
 -1      1869 1.54146E-01
 -1      1870 1.78089E-01
 -1      1871 1.35430E-01
 -1      1872 2.12194E-01
 -1      1873 2.41982E-01
 -1      1874 1.94580E-01
 -1      1875 2.86506E-01
 -1      1876 3.26184E-01
 -1      1877 2.73210E-01
 -1      1878 3.82966E-01
 -1      1879 4.47744E-01
 -1      1880 3.74517E-01
 -1      1881 5.18064E-01
 -1      1882 5.98769E-01
 -1      1883 5.01620E-01
 -1      1884 6.82491E-01
 -1      1885 7.78298E-01
 -1      1886 6.55663E-01
 -1      1887 8.72448E-01
 -1      1888 9.78377E-01
 -1      1889 8.33534E-01
 -1      1890 1.07507E+00
 -1      1891 1.17913E+00
 -1      1892 1.02438E+00
 -1      1893 1.26310E+00
 -1      1894 1.36271E+00
 -1      1895 1.20505E+00
 -1      1896 1.43586E+00
 -1      1897 1.58562E+00
 -1      1898 1.36217E+00
 -1      1899 1.67379E+00
 -1      1900 1.83307E+00
 -1      1901 1.52349E+00
 -1      1902 1.84112E+00
 -1      1903 1.89356E+00
 -1      1904 1.61972E+00
 -1      1905 1.86575E+00
 -1      1906 1.92876E+00
 -1      1907 1.59996E+00
 -1      1908 2.00350E+00
 -1      1909 1.93211E+00
 -1      1910 1.64689E+00
 -1      1911 2.05642E+00
 -1      1912 2.51383E+00
 -1      1913 1.84593E+00
 -1      1914 3.10118E+00
 -1      1915 4.16380E+00
 -1      1916 2.55758E+00
 -1      1917 4.69105E+00
 -1      1918 5.86987E+00
 -1      1919 3.67218E+00
 -1      1920 6.16037E+00
 -1      1921 6.10628E+00
 -1      1922 4.48993E+00
 -1      1923 6.02281E+00
 -1      1924 5.77465E+00
 -1      1925 4.69697E+00
 -1      1926 5.40883E+00
 -1      1927 4.26098E+00
 -1      1928 4.24769E+00
 -1      1929 3.96983E+00
 -1      1930 3.16674E+00
 -1      1931 3.59072E+00
 -1      1932 2.86794E+00
 -1      1933 2.36944E+00
 -1      1934 3.00077E+00
 -1      1935 2.06792E+00
 -1      1936 1.75105E+00
 -1      1937 2.40045E+00
 -1      1938 1.63119E+00
 -1      1939 1.46194E+00
 -1      1940 1.47275E+00
 -1      1941 1.97907E+00
 -1      1942 1.39794E+00
 -1      1943 1.77156E+00
 -1      1944 1.52210E+00
 -1      1945 1.01769E+00
 -1      1946 1.27825E+00
 -1      1947 1.01053E+00
 -1      1948 8.04593E-01
 -1      1949 9.23909E-01
 -1      1950 7.97066E-01
 -1      1951 6.37819E-01
 -1      1952 7.25171E-01
 -1      1953 6.23867E-01
 -1      1954 5.12458E-01
 -1      1955 5.84220E-01
 -1      1956 4.90846E-01
 -1      1957 4.19319E-01
 -1      1958 4.79138E-01
 -1      1959 4.03927E-01
 -1      1960 3.37574E-01
 -1      1961 3.87379E-01
 -1      1962 3.38667E-01
 -1      1963 2.72626E-01
 -1      1964 3.09798E-01
 -1      1965 2.78950E-01
 -1      1966 2.18973E-01
 -1      1967 2.49930E-01
 -1      1968 2.28477E-01
 -1      1969 1.74985E-01
 -1      1970 1.99106E-01
 -1      1971 1.85915E-01
 -1      1972 1.38603E-01
 -1      1973 1.58194E-01
 -1      1974 1.49256E-01
 -1      1975 1.09113E-01
 -1      1976 1.24825E-01
 -1      1977 1.18687E-01
 -1      1978 8.62336E-02
 -1      1979 9.83952E-02
 -1      1980 9.41908E-02
 -1      1981 6.91885E-02
 -1      1982 7.81593E-02
 -1      1983 7.53985E-02
 -1      1984 5.73464E-02
 -1      1985 6.34757E-02
 -1      1986 6.16114E-02
 -1      1987 5.02533E-02
 -1      1988 5.37726E-02
 -1      1989 5.23249E-02
 -1      1990 5.21376E-02
 -1      1991 4.93795E-02
 -1      1992 4.78774E-02
 -1      1993 5.90126E-02
 -1      1994 5.42346E-02
 -1      1995 4.91006E-02
 -1      1996 6.94853E-02
 -1      1997 6.29400E-02
 -1      1998 5.51250E-02
 -1      1999 8.60881E-02
 -1      2000 7.81349E-02
 -1      2001 6.77019E-02
 -1      2002 1.08239E-01
 -1      2003 9.71345E-02
 -1      2004 8.73978E-02
 -1      2005 1.38001E-01
 -1      2006 1.21705E-01
 -1      2007 1.11910E-01
 -1      2008 1.82477E-01
 -1      2009 1.62591E-01
 -1      2010 1.49965E-01
 -1      2011 2.34912E-01
 -1      2012 2.12975E-01
 -1      2013 2.05052E-01
 -1      2014 2.92843E-01
 -1      2015 2.70476E-01
 -1      2016 2.71114E-01
 -1      2017 3.55191E-01
 -1      2018 3.31791E-01
 -1      2019 3.45626E-01
 -1      2020 4.20115E-01
 -1      2021 3.94062E-01
 -1      2022 4.23446E-01
 -1      2023 4.71887E-01
 -1      2024 4.53050E-01
 -1      2025 4.95252E-01
 -1      2026 5.26956E-01
 -1      2027 5.05718E-01
 -1      2028 5.62018E-01
 -1      2029 5.91297E-01
 -1      2030 5.41137E-01
 -1      2031 6.10031E-01
 -1      2032 6.50112E-01
 -1      2033 5.91297E-01
 -1      2034 6.24212E-01
 -1      2035 6.88964E-01
 -1      2036 6.28289E-01
 -1      2037 6.02389E-01
 -1      2038 7.45264E-01
 -1      2039 6.59054E-01
 -1      2040 5.50657E-01
 -1      2041 9.38414E-01
 -1      2042 7.96754E-01
 -1      2043 5.72238E-01
 -1      2044 1.21292E+00
 -1      2045 1.15008E+00
 -1      2046 8.35392E-01
 -1      2047 1.67816E+00
 -1      2048 1.51976E+00
 -1      2049 1.35390E+00
 -1      2050 2.10135E+00
 -1      2051 1.95174E+00
 -1      2052 1.93431E+00
 -1      2053 2.55516E+00
 -1      2054 2.22404E+00
 -1      2055 2.33058E+00
 -1      2056 2.97835E+00
 -1      2057 2.55516E+00
 -1      2058 2.45326E+00
 -1      2059 3.04244E+00
 -1      2060 2.94543E+00
 -1      2061 2.42034E+00
 -1      2062 3.08662E+00
 -1      2063 3.00060E+00
 -1      2064 2.34558E+00
 -1      2065 2.88235E+00
 -1      2066 3.07795E+00
 -1      2067 2.29507E+00
 -1      2068 2.28160E+00
 -1      2069 2.71507E+00
 -1      2070 2.11912E+00
 -1      2071 1.59981E+00
 -1      2072 2.01910E+00
 -1      2073 1.68934E+00
 -1      2074 1.02010E+00
 -1      2075 1.35710E+00
 -1      2076 1.18412E+00
 -1      2077 5.48420E-01
 -1      2078 7.95911E-01
 -1      2079 7.17225E-01
 -1      2080 4.66978E-01
 -1      2081 1.76775E+00
 -1      2082 1.58809E+00
 -1      2083 1.37853E+00
 -1      2084 1.11027E+00
 -1      2085 1.65002E+00
 -1      2086 8.16095E-01
 -1      2087 6.46505E-01
 -1      2088 6.72566E-01
 -1      2089 1.14627E+00
 -1      2090 1.93853E+00
 -1      2091 1.88096E+00
 -1      2092 1.97280E+00
 -1      2093 2.17460E+00
 -1      2094 2.17460E+00
 -1      2095 2.32208E+00
 -1      2096 2.23879E+00
 -1      2097 2.37746E+00
 -1      2098 2.76101E+00
 -1      2099 3.53250E+00
 -1      2100 2.69569E+00
 -1      2101 3.42076E+00
 -1      2102 4.64389E+00
 -1      2103 4.54450E+00
 -1      2104 4.88966E+00
 -1      2105 4.64389E+00
 -1      2106 4.64389E+00
 -1      2107 5.90165E+00
 -1      2108 3.32825E+00
 -1      2109 4.09442E+00
 -1      2110 5.35218E+00
 -1      2111 2.43564E+00
 -1      2112 2.51590E+00
 -1      2113 3.99037E+00
 -1      2114 2.10717E+00
 -1      2115 2.10717E+00
 -1      2116 2.84955E+00
 -1      2117 1.77334E+00
 -1      2118 1.86241E+00
 -1      2119 2.27631E+00
 -1      2120 3.56687E+01
 -1      2121 3.25265E+01
 -1      2122 2.96515E+01
 -1      2123 2.92549E+01
 -1      2124 3.07763E+01
 -1      2125 2.60084E+01
 -1      2126 2.41154E+01
 -1      2127 1.71424E+01
 -1      2128 3.01392E+01
 -1      2129 9.37810E+00
 -1      2130 1.34538E+01
 -1      2131 1.03456E+00
 -1      2132 1.20944E+00
 -1      2133 9.79715E-01
 -1      2134 8.53205E-01
 -1      2135 1.17441E+01
 -1      2136 1.15500E+01
 -1      2137 1.19009E+01
 -1      2138 1.24017E+01
 -1      2139 1.20509E+01
 -1      2140 1.17021E+01
 -1      2141 1.15433E+01
 -1      2142 1.01496E+01
 -1      2143 1.06503E+01
 -1      2144 9.96430E+00
 -1      2145 9.35755E+00
 -1      2146 2.09618E+01
 -1      2147 1.24813E+01
 -1      2148 2.54155E+01
 -1      2149 2.54155E+01
 -1      2150 1.64472E+01
 -1      2151 2.36892E+01
 -1      2152 2.65710E+01
 -1      2153 2.77743E+01
 -1      2154 2.49072E+01
 -1      2155 2.44297E+01
 -1      2156 2.88094E+01
 -1      2157 2.99010E+01
 -1      2158 2.64083E+01
 -1      2159 2.68669E+01
 -1      2160 2.79584E+01
 -1      2161 3.66433E+01
 -1      2162 2.68006E+01
 -1      2163 1.75661E+01
 -1      2164 3.11236E+01
 -1      2165 9.88991E+00
 -1      2166 1.41079E+01
 -1      2167 9.87861E+00
 -1      2168 9.16138E+00
 -1      2169 1.11984E+01
 -1      2170 1.11810E+01
 -1      2171 1.14678E+01
 -1      2172 1.13525E+01
 -1      2173 1.01467E+01
 -1      2174 1.15746E+01
 -1      2175 1.16576E+01
 -1      2176 1.08147E+01
 -1      2177 1.10396E+01
 -1      2178 1.01454E+01
 -1      2179 9.26290E+00
 -1      2180 9.18195E+00
 -1      2181 1.89991E+01
 -1      2182 1.15014E+01
 -1      2183 2.50103E+01
 -1      2184 2.28715E+01
 -1      2185 3.14540E+01
 -1      2186 3.14540E+01
 -1      2187 2.89984E+01
 -1      2188 3.02963E+01
 -1      2189 2.93950E+01
 -1      2190 1.03126E+01
 -1      2191 9.63954E+00
 -1      2192 9.18966E+00
 -1      2193 7.69085E+00
 -1      2194 2.91022E+00
 -1      2195 2.10450E+00
 -1      2196 2.96515E+01
 -1      2197 2.96515E+01
 -1      2198 2.60084E+01
 -1      2199 2.03361E+01
 -1      2200 1.55892E+00
 -1      2201 1.11180E+01
 -1      2202 3.02963E+01
 -1      2203 2.50103E+01
 -1      2204 1.46942E+01
 -1      2205 7.97761E+00
 -1      2206 1.04905E+01
 -1      2207 8.69023E+00
 -1      2208 8.11634E+00
 -1      2209 1.23031E+01
 -1      2210 2.64083E+01
 -1      2211 2.99010E+01
 -1      2212 2.77743E+01
 -1      2213 2.99010E+01
 -1      2214 2.20563E+01
 -1      2215 9.47641E+00
 -1      2216 9.94396E+00
 -1      2217 1.10846E+01
 -1      2218 7.75138E+00
 -1      2219 2.12809E+01
 -1      2220 8.58336E+00
 -1      2221 1.08883E+00
 -1      2222 1.48072E+00
 -1      2223 5.59267E-01
 -1      2224 5.90837E-01
 -1      2225 6.04889E-01
 -1      2226 6.55037E-01
 -1      2227 5.00673E-01
 -1      2228 5.11241E-01
 -1      2229 5.09640E-01
 -1      2230 5.46061E-01
 -1      2231 5.24212E-01
 -1      2232 4.44599E-01
 -1      2233 5.94220E-01
 -1      2234 5.60840E-01
 -1      2235 4.72349E-01
 -1      2236 6.53958E-01
 -1      2237 6.06339E-01
 -1      2238 4.99248E-01
 -1      2239 7.21673E-01
 -1      2240 6.53958E-01
 -1      2241 5.11367E-01
 -1      2242 8.84843E-01
 -1      2243 7.70678E-01
 -1      2244 5.60371E-01
 -1      2245 8.90844E-01
 -1      2246 1.01053E+00
 -1      2247 9.69148E-01
 -1      2248 1.26583E+00
 -1      2249 1.03482E+00
 -1      2250 1.67607E+00
 -1      2251 1.30054E+00
 -1      2252 8.37397E-01
 -1      2253 9.60238E-01
 -1      2254 6.12037E+00
 -1      2255 5.85894E+00
 -1      2256 9.84055E-01
 -1      2257 8.03887E-01
 -1      2258 7.51925E-01
 -1      2259 7.47365E-01
 -1      2260 6.21830E-01
 -1      2261 6.44640E-01
 -1      2262 5.65685E-01
 -1      2263 5.06977E-01
 -1      2264 5.31974E-01
 -1      2265 4.57662E-01
 -1      2266 4.09054E-01
 -1      2267 4.26514E-01
 -1      2268 3.81687E-01
 -1      2269 3.38861E-01
 -1      2270 3.49832E-01
 -1      2271 3.13836E-01
 -1      2272 2.81098E-01
 -1      2273 2.97441E-01
 -1      2274 2.57426E-01
 -1      2275 2.29795E-01
 -1      2276 2.48744E-01
 -1      2277 2.11593E-01
 -1      2278 1.87875E-01
 -1      2279 2.06870E-01
 -1      2280 1.72864E-01
 -1      2281 1.55229E-01
 -1      2282 1.73657E-01
 -1      2283 1.41505E-01
 -1      2284 1.26906E-01
 -1      2285 1.44921E-01
 -1      2286 1.15143E-01
 -1      2287 1.02940E-01
 -1      2288 1.19434E-01
 -1      2289 9.31442E-02
 -1      2290 8.32195E-02
 -1      2291 9.78748E-02
 -1      2292 7.48180E-02
 -1      2293 6.69285E-02
 -1      2294 7.96771E-02
 -1      2295 5.98004E-02
 -1      2296 5.36261E-02
 -1      2297 6.41476E-02
 -1      2298 4.78416E-02
 -1      2299 4.35162E-02
 -1      2300 5.12350E-02
 -1      2301 3.88348E-02
 -1      2302 3.92307E-02
 -1      2303 4.07690E-02
 -1      2304 4.00245E-02
 -1      2305 4.24202E-02
 -1      2306 3.68815E-02
 -1      2307 4.71652E-02
 -1      2308 5.41694E-02
 -1      2309 4.24202E-02
 -1      2310 6.09955E-02
 -1      2311 7.13927E-02
 -1      2312 5.39913E-02
 -1      2313 8.80948E-02
 -1      2314 1.02303E-01
 -1      2315 7.75195E-02
 -1      2316 1.24737E-01
 -1      2317 1.49782E-01
 -1      2318 1.16655E-01
 -1      2319 1.79370E-01
 -1      2320 2.13475E-01
 -1      2321 1.68676E-01
 -1      2322 2.52026E-01
 -1      2323 2.96550E-01
 -1      2324 2.36815E-01
 -1      2325 3.45981E-01
 -1      2326 4.02763E-01
 -1      2327 3.24796E-01
 -1      2328 4.64878E-01
 -1      2329 5.35198E-01
 -1      2330 4.36341E-01
 -1      2331 6.11238E-01
 -1      2332 6.94959E-01
 -1      2333 5.74495E-01
 -1      2334 7.84790E-01
 -1      2335 8.78939E-01
 -1      2336 7.40365E-01
 -1      2337 9.79696E-01
 -1      2338 1.07639E+00
 -1      2339 9.30952E-01
 -1      2340 1.18048E+00
 -1      2341 1.26445E+00
 -1      2342 1.13580E+00
 -1      2343 1.35781E+00
 -1      2344 1.43096E+00
 -1      2345 1.33324E+00
 -1      2346 1.53032E+00
 -1      2347 1.61849E+00
 -1      2348 1.52596E+00
 -1      2349 1.76329E+00
 -1      2350 1.77135E+00
 -1      2351 1.77012E+00
 -1      2352 1.92204E+00
 -1      2353 1.89423E+00
 -1      2354 2.06562E+00
 -1      2355 2.01038E+00
 -1      2356 2.08512E+00
 -1      2357 2.33247E+00
 -1      2358 2.29567E+00
 -1      2359 2.41998E+00
 -1      2360 2.65917E+00
 -1      2361 2.42270E+00
 -1      2362 3.01004E+00
 -1      2363 2.87244E+00
 -1      2364 3.56737E+00
 -1      2365 4.09462E+00
 -1      2366 3.43249E+00
 -1      2367 5.89417E+00
 -1      2368 6.18468E+00
 -1      2369 5.78937E+00
 -1      2370 6.30227E+00
 -1      2371 6.21880E+00
 -1      2372 7.70650E+00
 -1      2373 5.40281E+00
 -1      2374 5.03699E+00
 -1      2375 7.00811E+00
 -1      2376 3.90498E+00
 -1      2377 3.61383E+00
 -1      2378 5.06010E+00
 -1      2379 3.86875E+00
 -1      2380 3.56996E+00
 -1      2381 4.18301E+00
 -1      2382 2.70197E+00
 -1      2383 2.40045E+00
 -1      2384 3.56996E+00
 -1      2385 2.19342E+01
 -1      2386 2.01840E+01
 -1      2387 5.44445E-01
 -1      2388 6.23867E-01
 -1      2389 4.37248E-01
 -1      2390 4.90846E-01
 -1      2391 4.90846E-01
 -1      2392 3.70607E-01
 -1      2393 4.03927E-01
 -1      2394 4.03927E-01
 -1      2395 3.06727E-01
 -1      2396 3.38667E-01
 -1      2397 3.38667E-01
 -1      2398 2.51173E-01
 -1      2399 2.78950E-01
 -1      2400 2.78950E-01
 -1      2401 2.06138E-01
 -1      2402 2.28834E-01
 -1      2403 2.28834E-01
 -1      2404 1.66682E-01
 -1      2405 1.86549E-01
 -1      2406 1.86906E-01
 -1      2407 1.33183E-01
 -1      2408 1.49975E-01
 -1      2409 1.50609E-01
 -1      2410 1.06688E-01
 -1      2411 1.20466E-01
 -1      2412 1.21185E-01
 -1      2413 8.55124E-02
 -1      2414 9.62305E-02
 -1      2415 9.80099E-02
 -1      2416 6.86918E-02
 -1      2417 7.67660E-02
 -1      2418 7.88057E-02
 -1      2419 5.57601E-02
 -1      2420 6.14730E-02
 -1      2421 6.28405E-02
 -1      2422 4.62144E-02
 -1      2423 4.97881E-02
 -1      2424 4.96496E-02
 -1      2425 4.23276E-02
 -1      2426 4.32014E-02
 -1      2427 4.06646E-02
 -1      2428 4.43373E-02
 -1      2429 4.22403E-02
 -1      2430 3.75644E-02
 -1      2431 5.26446E-02
 -1      2432 4.87172E-02
 -1      2433 4.18569E-02
 -1      2434 6.77019E-02
 -1      2435 5.90524E-02
 -1      2436 5.26446E-02
 -1      2437 9.02443E-02
 -1      2438 7.91979E-02
 -1      2439 7.05484E-02
 -1      2440 1.21438E-01
 -1      2441 1.07972E-01
 -1      2442 9.97721E-02
 -1      2443 1.68177E-01
 -1      2444 1.43587E-01
 -1      2445 1.39650E-01
 -1      2446 2.25545E-01
 -1      2447 1.95047E-01
 -1      2448 1.88670E-01
 -1      2449 2.92471E-01
 -1      2450 2.56907E-01
 -1      2451 2.46902E-01
 -1      2452 3.66168E-01
 -1      2453 3.27221E-01
 -1      2454 3.13013E-01
 -1      2455 4.40769E-01
 -1      2456 4.01897E-01
 -1      2457 3.83492E-01
 -1      2458 5.06210E-01
 -1      2459 4.73275E-01
 -1      2460 4.51727E-01
 -1      2461 5.72478E-01
 -1      2462 5.38647E-01
 -1      2463 5.16670E-01
 -1      2464 6.10031E-01
 -1      2465 5.95850E-01
 -1      2466 5.72478E-01
 -1      2467 6.24212E-01
 -1      2468 6.24212E-01
 -1      2469 6.10031E-01
 -1      2470 5.87232E-01
 -1      2471 6.09055E-01
 -1      2472 6.09055E-01
 -1      2473 5.36121E-01
 -1      2474 5.66030E-01
 -1      2475 5.72696E-01
 -1      2476 6.44103E-01
 -1      2477 5.92612E-01
 -1      2478 6.07986E-01
 -1      2479 9.60685E-01
 -1      2480 7.49022E-01
 -1      2481 7.69396E-01
 -1      2482 1.50872E+00
 -1      2483 1.20187E+00
 -1      2484 1.11550E+00
 -1      2485 2.03635E+00
 -1      2486 1.76277E+00
 -1      2487 1.61075E+00
 -1      2488 2.33058E+00
 -1      2489 2.20789E+00
 -1      2490 2.03635E+00
 -1      2491 2.45326E+00
 -1      2492 2.45326E+00
 -1      2493 2.33058E+00
 -1      2494 2.38742E+00
 -1      2495 2.42034E+00
 -1      2496 2.42034E+00
 -1      2497 2.30374E+00
 -1      2498 2.34558E+00
 -1      2499 2.34558E+00
 -1      2500 2.28640E+00
 -1      2501 2.29507E+00
 -1      2502 2.29507E+00
 -1      2503 1.99572E+00
 -1      2504 2.16300E+00
 -1      2505 2.16300E+00
 -1      2506 1.64232E+00
 -1      2507 1.90482E+00
 -1      2508 1.94870E+00
 -1      2509 1.47931E+00
 -1      2510 1.72202E+00
 -1      2511 1.93750E+00
 -1      2512 8.96752E-01
 -1      2513 2.68090E+00
 -1      2514 2.44483E+00
 -1      2515 3.43647E+00
 -1      2516 3.23361E+00
 -1      2517 3.35637E+00
 -1      2518 1.93840E+00
 -1      2519 1.72883E+00
 -1      2520 2.12927E+00
 -1      2521 2.01606E+00
 -1      2522 2.09487E+00
 -1      2523 2.48809E+00
 -1      2524 5.04814E+00
 -1      2525 4.59124E+00
 -1      2526 5.06385E+00
 -1      2527 6.69048E+00
 -1      2528 5.67849E+00
 -1      2529 6.84896E+00
 -1      2530 7.52988E+00
 -1      2531 7.52988E+00
 -1      2532 8.31872E+00
 -1      2533 6.98042E+00
 -1      2534 7.52988E+00
 -1      2535 9.15812E+00
 -1      2536 4.89605E+00
 -1      2537 5.70840E+00
 -1      2538 7.88610E+00
 -1      2539 3.44759E+00
 -1      2540 3.77606E+00
 -1      2541 5.49409E+00
 -1      2542 2.20626E+00
 -1      2543 2.45103E+00
 -1      2544 3.37754E+00
 -1      2545 1.94538E+00
 -1      2546 8.12565E+00
 -1      2547 1.18142E+01
 -1      2548 7.03289E-01
 -1      2549 7.97066E-01
 -1      2550 6.23867E-01
 -1      2551 1.32607E+01
 -1      2552 1.87902E+01
 -1      2553 2.57009E+01
 -1      2554 2.68587E+01
 -1      2555 2.93950E+01
 -1      2556 2.91385E+01
 -1      2557 2.57009E+01
 -1      2558 8.28292E+00
 -1      2559 6.98050E+00
 -1      2560 9.34698E+00
 -1      2561 6.82993E+00
 -1      2562 5.22569E-01
 -1      2563 5.44698E-01
 -1      2564 4.72053E-01
 -1      2565 4.44556E-01
 -1      2566 9.67038E+00
 -1      2567 9.01283E+00
 -1      2568 5.51010E+00
 -1      2569 6.30211E+00
 -1      2570 9.59308E+00
 -1      2571 9.79188E+00
 -1      2572 1.39494E+01
 -1      2573 1.94691E+01
 -1      2574 7.50210E+00
 -1      2575 8.90267E+00
 -1      2576 1.52751E+01
 -1      2577 1.08214E+01
 -1      2578 1.96059E+01
 -1      2579 1.84504E+01
 -1      2580 2.44297E+01
 -1      2581 2.32118E+01
 -1      2582 2.60159E+01
 -1      2583 2.79584E+01
 -1      2584 8.21801E+00
 -1      2585 5.97949E+00
 -1      2586 2.37562E+01
 -1      2587 2.33638E+01
 -1      2588 8.71497E+00
 -1      2589 1.21732E+01
 -1      2590 6.05576E+00
 -1      2591 6.78430E+00
 -1      2592 8.94482E+00
 -1      2593 8.79078E+00
 -1      2594 9.97991E+00
 -1      2595 9.79011E+00
 -1      2596 8.71724E+00
 -1      2597 9.25221E+00
 -1      2598 6.26848E+00
 -1      2599 7.90125E+00
 -1      2600 7.00811E+00
 -1      2601 1.35940E+01
 -1      2602 9.72170E+00
 -1      2603 7.11783E+00
 -1      2604 2.24577E+01
 -1      2605 1.60140E+01
 -1      2606 1.10415E+01
 -1      2607 7.85626E+00
 -1      2608 6.61889E+00
 -1      2609 1.62095E+00
 -1      2610 1.76423E+00
 -1      2611 1.32859E+00
 -1      2612 1.18768E+00
 -1      2613 6.44206E+00
 -1      2614 5.22609E-01
 -1      2615 6.62921E-01
 -1      2616 7.20776E-01
 -1      2617 7.97066E-01
 -1      2618 1.24411E+00
 -1      2619 5.64846E+00
 -1      2620 6.65439E+00
 -1      2621 4.78698E+00
 -1      2622 2.03683E+01
 -1      2623 2.40114E+01
 -1      2624 1.81870E+01
 -1      2625 1.02683E+01
 -1      2626 1.48588E+01
 -1      2627 1.43465E+00
 -1      2628 1.72883E+00
 -1      2629 1.64246E+01
 -1      2630 1.97907E+00
 -1      2631 2.06524E+00
 -1      2632 2.23996E+00
 -1      2633 2.09894E+00
 -1      2634 2.33638E+01
 -1      2635 6.55517E+00
 -1      2636 9.68647E-01
 -1      2637 2.65263E+01
 -1      2638 2.65263E+01
 -1      2639 2.62698E+01
 -1      2640 1.76074E+01
 -1      2641 2.22028E+01
 -1      2642 1.32065E+01
 -1      2643 2.31208E+01
 -1      2644 2.19029E+01
 -1      2645 2.52475E+01
 -1      2646 5.39139E+00
 -1      2647 5.31503E+00
 -1      2648 5.02604E+00
 -1      2649 8.55179E+00
 -1      2650 7.08105E+00
 -1      2651 1.96059E+01
 -1      2652 1.28247E+01
 -1      2653 5.26082E+00
 -1      2654 1.03613E+01
 -1      2655 7.15122E+00
 -1      2656 5.38066E+00
 -1      2657 8.17495E+00
 -1      2658 2.79584E+01
 -1      2659 8.91583E-01
 -1      2660 7.72012E+00
 -1      2661 8.43420E+00
 -1      2662 2.01721E+00
 -1      2663 2.40045E+00
 -1      2664 4.22810E-01
 -1      2665 4.08031E-01
 -1      2666 4.00219E-01
 -1      2667 3.87247E-01
 -1      2668 3.50680E-01
 -1      2669 4.36574E-01
 -1      2670 4.36574E-01
 -1      2671 4.73791E-01
 -1      2672 4.24787E-01
 -1      2673 3.49994E-01
 -1      2674 7.17346E-01
 -1      2675 7.95649E-01
 -1      2676 6.08924E-01
 -1      2677 7.02702E-01
 -1      2678 5.29203E-01
 -1      2679 7.01299E-01
 -1      2680 6.66590E-01
 -1      2681 6.00721E-01
 -1      2682 5.49958E-01
 -1      2683 4.64623E-01
 -1      2684 5.37735E-01
 -1      2685 4.81213E-01
 -1      2686 3.86531E-01
 -1      2687 4.82420E-01
 -1      2688 4.26276E-01
 -1      2689 3.75515E-01
 -1      2690 4.11207E-01
 -1      2691 3.61891E-01
 -1      2692 3.61653E-01
 -1      2693 3.40273E-01
 -1      2694 3.12906E-01
 -1      2695 3.24965E-01
 -1      2696 2.89697E-01
 -1      2697 2.64673E-01
 -1      2698 2.80138E-01
 -1      2699 2.45925E-01
 -1      2700 2.22254E-01
 -1      2701 2.38182E-01
 -1      2702 2.06870E-01
 -1      2703 1.88667E-01
 -1      2704 2.04051E-01
 -1      2705 1.73657E-01
 -1      2706 1.58646E-01
 -1      2707 1.73657E-01
 -1      2708 1.44921E-01
 -1      2709 1.31197E-01
 -1      2710 1.44921E-01
 -1      2711 1.19434E-01
 -1      2712 1.07671E-01
 -1      2713 1.19434E-01
 -1      2714 9.78748E-02
 -1      2715 8.80786E-02
 -1      2716 9.78748E-02
 -1      2717 7.96771E-02
 -1      2718 7.12756E-02
 -1      2719 7.96771E-02
 -1      2720 6.41476E-02
 -1      2721 5.70195E-02
 -1      2722 6.41476E-02
 -1      2723 5.12350E-02
 -1      2724 4.54504E-02
 -1      2725 5.12350E-02
 -1      2726 4.07690E-02
 -1      2727 3.60877E-02
 -1      2728 4.07690E-02
 -1      2729 3.18103E-02
 -1      2730 3.26041E-02
 -1      2731 3.18103E-02
 -1      2732 3.56242E-02
 -1      2733 4.03691E-02
 -1      2734 3.05531E-02
 -1      2735 5.14448E-02
 -1      2736 5.82709E-02
 -1      2737 4.46488E-02
 -1      2738 7.24085E-02
 -1      2739 8.91106E-02
 -1      2740 6.98620E-02
 -1      2741 1.07288E-01
 -1      2742 1.29722E-01
 -1      2743 1.02177E-01
 -1      2744 1.53071E-01
 -1      2745 1.82659E-01
 -1      2746 1.43705E-01
 -1      2747 2.12483E-01
 -1      2748 2.51034E-01
 -1      2749 1.96878E-01
 -1      2750 2.88833E-01
 -1      2751 3.38263E-01
 -1      2752 2.64501E-01
 -1      2753 3.88247E-01
 -1      2754 4.50361E-01
 -1      2755 3.52283E-01
 -1      2756 5.16026E-01
 -1      2757 5.92065E-01
 -1      2758 4.67931E-01
 -1      2759 6.73257E-01
 -1      2760 7.63087E-01
 -1      2761 6.14788E-01
 -1      2762 8.61115E-01
 -1      2763 9.61872E-01
 -1      2764 7.94008E-01
 -1      2765 1.07630E+00
 -1      2766 1.18039E+00
 -1      2767 1.00646E+00
 -1      2768 1.30697E+00
 -1      2769 1.40033E+00
 -1      2770 1.24748E+00
 -1      2771 1.57357E+00
 -1      2772 1.67292E+00
 -1      2773 1.54730E+00
 -1      2774 1.88569E+00
 -1      2775 2.03049E+00
 -1      2776 1.93329E+00
 -1      2777 2.27311E+00
 -1      2778 2.42380E+00
 -1      2779 2.38867E+00
 -1      2780 2.90541E+00
 -1      2781 3.02156E+00
 -1      2782 3.11290E+00
 -1      2783 3.67762E+00
 -1      2784 3.88817E+00
 -1      2785 4.25057E+00
 -1      2786 3.43249E+00
 -1      2787 3.98982E+00
 -1      2788 5.28151E+00
 -1      2789 7.08105E+00
 -1      2790 8.43420E+00
 -1      2791 8.55179E+00
 -1      2792 7.82410E+00
 -1      2793 7.00811E+00
 -1      2794 5.31503E+00
 -1      2795 4.18301E+00
 -1      2796 4.43794E+00
 -1      2797 4.43794E+00
 -1      2798 3.56996E+00
 -1      2799 1.78058E+01
 -1      2800 2.04579E+01
 -1      2801 1.12899E+01
 -1      2802 1.55770E+01
 -1      2803 4.16539E-01
 -1      2804 4.70138E-01
 -1      2805 2.42101E-01
 -1      2806 2.69877E-01
 -1      2807 2.01170E-01
 -1      2808 2.23509E-01
 -1      2809 2.14437E-01
 -1      2810 1.64548E-01
 -1      2811 1.84137E-01
 -1      2812 1.78812E-01
 -1      2813 1.33905E-01
 -1      2814 1.50613E-01
 -1      2815 1.47843E-01
 -1      2816 1.08816E-01
 -1      2817 1.21533E-01
 -1      2818 1.21536E-01
 -1      2819 8.77296E-02
 -1      2820 9.81874E-02
 -1      2821 9.85355E-02
 -1      2822 7.00594E-02
 -1      2823 7.88057E-02
 -1      2824 7.89832E-02
 -1      2825 5.56217E-02
 -1      2826 6.28405E-02
 -1      2827 6.28405E-02
 -1      2828 4.36776E-02
 -1      2829 4.96496E-02
 -1      2830 4.96496E-02
 -1      2831 3.62242E-02
 -1      2832 3.92371E-02
 -1      2833 3.92371E-02
 -1      2834 3.30467E-02
 -1      2835 3.31341E-02
 -1      2836 3.17066E-02
 -1      2837 4.01566E-02
 -1      2838 3.57767E-02
 -1      2839 3.13465E-02
 -1      2840 5.19973E-02
 -1      2841 4.55895E-02
 -1      2842 3.95094E-02
 -1      2843 7.56438E-02
 -1      2844 6.41478E-02
 -1      2845 5.70928E-02
 -1      2846 1.08629E-01
 -1      2847 9.09014E-02
 -1      2848 8.45009E-02
 -1      2849 1.49769E-01
 -1      2850 1.27619E-01
 -1      2851 1.18749E-01
 -1      2852 1.99860E-01
 -1      2853 1.72989E-01
 -1      2854 1.60959E-01
 -1      2855 2.58903E-01
 -1      2856 2.27542E-01
 -1      2857 2.11861E-01
 -1      2858 3.25555E-01
 -1      2859 2.90805E-01
 -1      2860 2.71445E-01
 -1      2861 3.96409E-01
 -1      2862 3.60680E-01
 -1      2863 3.38472E-01
 -1      2864 4.65152E-01
 -1      2865 4.32646E-01
 -1      2866 4.09834E-01
 -1      2867 5.33837E-01
 -1      2868 5.01400E-01
 -1      2869 4.82319E-01
 -1      2870 5.87121E-01
 -1      2871 5.63749E-01
 -1      2872 5.48479E-01
 -1      2873 6.37742E-01
 -1      2874 6.23561E-01
 -1      2875 6.14832E-01
 -1      2876 6.62264E-01
 -1      2877 6.77421E-01
 -1      2878 6.90951E-01
 -1      2879 6.65029E-01
 -1      2880 6.86231E-01
 -1      2881 7.54597E-01
 -1      2882 7.81412E-01
 -1      2883 7.24920E-01
 -1      2884 8.38456E-01
 -1      2885 1.01669E+00
 -1      2886 9.11767E-01
 -1      2887 1.02870E+00
 -1      2888 1.32840E+00
 -1      2889 1.08721E+00
 -1      2890 1.22958E+00
 -1      2891 1.80746E+00
 -1      2892 1.55340E+00
 -1      2893 1.52510E+00
 -1      2894 2.06361E+00
 -1      2895 1.89207E+00
 -1      2896 1.83472E+00
 -1      2897 2.46494E+00
 -1      2898 2.34226E+00
 -1      2899 2.19798E+00
 -1      2900 2.56546E+00
 -1      2901 2.59838E+00
 -1      2902 2.61006E+00
 -1      2903 2.45026E+00
 -1      2904 2.49210E+00
 -1      2905 2.67014E+00
 -1      2906 2.33570E+00
 -1      2907 2.34437E+00
 -1      2908 2.49089E+00
 -1      2909 2.05154E+00
 -1      2910 2.17494E+00
 -1      2911 2.22424E+00
 -1      2912 1.97479E+00
 -1      2913 2.06570E+00
 -1      2914 2.07763E+00
 -1      2915 2.05766E+00
 -1      2916 1.97795E+00
 -1      2917 2.09495E+00
 -1      2918 2.05766E+00
 -1      2919 9.60046E+00
 -1      2920 8.97012E+00
 -1      2921 2.38696E+00
 -1      2922 2.08545E+00
 -1      2923 3.25495E+00
 -1      2924 3.96102E+00
 -1      2925 3.40831E+00
 -1      2926 1.07998E+01
 -1      2927 9.96041E+00
 -1      2928 6.39457E+00
 -1      2929 5.23980E+00
 -1      2930 5.29174E+00
 -1      2931 1.03836E+01
 -1      2932 1.03836E+01
 -1      2933 9.11160E+00
 -1      2934 1.03836E+01
 -1      2935 6.20281E+00
 -1      2936 7.32280E+00
 -1      2937 5.03895E-01
 -1      2938 5.83317E-01
 -1      2939 4.88952E-01
 -1      2940 4.29588E-01
 -1      2941 1.17028E+01
 -1      2942 9.28287E+00
 -1      2943 1.17182E+01
 -1      2944 1.48622E+01
 -1      2945 2.15110E+01
 -1      2946 1.80734E+01
 -1      2947 8.28414E-01
 -1      2948 6.81877E+00
 -1      2949 5.31509E+00
 -1      2950 7.48013E+00
 -1      2951 2.89729E-01
 -1      2952 3.21669E-01
 -1      2953 2.52880E-01
 -1      2954 3.49005E-01
 -1      2955 3.82325E-01
 -1      2956 3.00067E-01
 -1      2957 8.01349E+00
 -1      2958 6.53903E+00
 -1      2959 6.75410E+00
 -1      2960 6.63259E+00
 -1      2961 4.36574E-01
 -1      2962 4.24455E-01
 -1      2963 3.60137E-01
 -1      2964 3.61781E-01
 -1      2965 8.46864E+00
 -1      2966 1.02449E+01
 -1      2967 2.22646E+00
 -1      2968 4.22629E-01
 -1      2969 4.36681E-01
 -1      2970 5.67651E+00
 -1      2971 4.35667E+00
 -1      2972 1.99272E+01
 -1      2973 2.18698E+01
 -1      2974 3.76465E+00
 -1      2975 4.96464E+00
 -1      2976 1.25636E+01
 -1      2977 9.38835E+00
 -1      2978 7.20776E-01
 -1      2979 4.67611E+00
 -1      2980 6.94282E+00
 -1      2981 5.84371E+00
 -1      2982 6.53412E+00
 -1      2983 4.24216E+00
 -1      2984 3.74364E+00
 -1      2985 1.78339E+01
 -1      2986 1.42280E+01
 -1      2987 9.12342E+00
 -1      2988 1.05699E+01
 -1      2989 6.24123E+00
 -1      2990 5.08467E+00
 -1      2991 4.47017E-01
 -1      2992 4.54900E-01
 -1      2993 3.68973E-01
 -1      2994 3.42619E-01
 -1      2995 3.86999E-01
 -1      2996 3.99927E-01
 -1      2997 1.86422E+01
 -1      2998 5.27521E+00
 -1      2999 7.24436E+00
 -1      3000 1.50464E+01
 -1      3001 9.39726E+00
 -1      3002 1.76510E+01
 -1      3003 1.22731E+01
 -1      3004 1.63421E+01
 -1      3005 4.04133E+00
 -1      3006 3.25263E+00
 -1      3007 3.25535E+00
 -1      3008 7.58891E+00
 -1      3009 6.19212E+00
 -1      3010 3.71215E+00
 -1      3011 3.10750E+00
 -1      3012 2.79193E+00
 -1      3013 4.43794E+00
 -1      3014 1.26695E+01
 -1      3015 1.82276E+01
 -1      3016 1.21389E+01
 -1      3017 4.34755E+00
 -1      3018 1.26711E+01
 -1      3019 3.61617E-01
 -1      3020 1.20816E+01
 -1      3021 1.07916E+01
 -1      3022 1.20253E+01
 -1      3023 2.13532E+00
 -1      3024 2.05766E+00
 -1      3025 2.09811E+00
 -1      3026 2.75472E+00
 -1      3027 4.79242E+00
 -1      3028 6.72309E+00
 -1      3029 4.06049E+00
 -1      3030 6.60667E+00
 -1      3031 9.82032E+00
 -1      3032 3.20651E+00
 -1      3033 4.20308E+00
 -1      3034 6.03179E+00
 -1      3035 3.05200E+00
 -1      3036 1.05733E+01
 -1      3037 2.08861E+01
 -1      3038 1.34175E+01
 -1      3039 1.72163E+01
 -1      3040 4.72698E+00
 -1      3041 5.76611E-01
 -1      3042 5.44659E+00
 -1      3043 1.14479E+01
 -1      3044 5.28151E+00
 -1      3045 4.07523E-01
 -1      3046 4.22091E-01
 -1      3047 3.58100E-01
 -1      3048 3.49966E-01
 -1      3049 7.75243E+00
 -1      3050 4.41027E-01
 -1      3051 5.51504E+00
 -1      3052 4.35677E+00
 -1      3053 5.30492E-01
 -1      3054 4.13130E+00
 -1      3055 4.42547E+00
 -1      3056 4.27108E+00
 -1      3057 4.60380E+00
 -1      3058 4.82378E+00
 -1      3059 2.91600E-01
 -1      3060 3.03387E-01
 -1      3061 1.54064E+01
 -1      3062 3.27865E-01
 -1      3063 3.15642E-01
 -1      3064 3.00876E-01
 -1      3065 3.02083E-01
 -1      3066 2.42210E-01
 -1      3067 3.11167E-01
 -1      3068 2.96098E-01
 -1      3069 2.36528E-01
 -1      3070 2.92240E-01
 -1      3071 2.70622E-01
 -1      3072 2.41754E-01
 -1      3073 2.59969E-01
 -1      3074 2.36760E-01
 -1      3075 2.27244E-01
 -1      3076 2.23137E-01
 -1      3077 2.04390E-01
 -1      3078 2.02968E-01
 -1      3079 1.92382E-01
 -1      3080 1.76998E-01
 -1      3081 1.77337E-01
 -1      3082 1.66560E-01
 -1      3083 1.51549E-01
 -1      3084 1.54891E-01
 -1      3085 1.40702E-01
 -1      3086 1.26978E-01
 -1      3087 1.33606E-01
 -1      3088 1.16578E-01
 -1      3089 1.04815E-01
 -1      3090 1.12359E-01
 -1      3091 9.53096E-02
 -1      3092 8.55134E-02
 -1      3093 9.24538E-02
 -1      3094 7.70626E-02
 -1      3095 6.86611E-02
 -1      3096 7.44974E-02
 -1      3097 6.12259E-02
 -1      3098 5.40978E-02
 -1      3099 5.86114E-02
 -1      3100 4.74989E-02
 -1      3101 4.17143E-02
 -1      3102 4.45772E-02
 -1      3103 3.56694E-02
 -1      3104 3.09881E-02
 -1      3105 3.19334E-02
 -1      3106 2.70307E-02
 -1      3107 2.27534E-02
 -1      3108 2.19311E-02
 -1      3109 2.45743E-02
 -1      3110 2.75943E-02
 -1      3111 1.97947E-02
 -1      3112 3.69482E-02
 -1      3113 4.80239E-02
 -1      3114 3.09694E-02
 -1      3115 6.00350E-02
 -1      3116 7.41725E-02
 -1      3117 5.23344E-02
 -1      3118 8.97503E-02
 -1      3119 1.07928E-01
 -1      3120 7.99232E-02
 -1      3121 1.29368E-01
 -1      3122 1.52718E-01
 -1      3123 1.16941E-01
 -1      3124 1.80894E-01
 -1      3125 2.10717E-01
 -1      3126 1.66557E-01
 -1      3127 2.47348E-01
 -1      3128 2.85147E-01
 -1      3129 2.31363E-01
 -1      3130 3.32324E-01
 -1      3131 3.82308E-01
 -1      3132 3.15172E-01
 -1      3133 4.42429E-01
 -1      3134 5.08093E-01
 -1      3135 4.22470E-01
 -1      3136 5.83785E-01
 -1      3137 6.64977E-01
 -1      3138 5.58282E-01
 -1      3139 7.58866E-01
 -1      3140 8.56894E-01
 -1      3141 7.27863E-01
 -1      3142 9.70998E-01
 -1      3143 1.08543E+00
 -1      3144 9.35856E-01
 -1      3145 1.21956E+00
 -1      3146 1.34614E+00
 -1      3147 1.18409E+00
 -1      3148 1.52272E+00
 -1      3149 1.69596E+00
 -1      3150 1.49480E+00
 -1      3151 1.98366E+00
 -1      3152 2.19642E+00
 -1      3153 1.95908E+00
 -1      3154 2.38867E+00
 -1      3155 2.63129E+00
 -1      3156 2.43904E+00
 -1      3157 3.38589E+00
 -1      3158 3.86750E+00
 -1      3159 3.38589E+00
 -1      3160 4.74798E+00
 -1      3161 5.40404E+00
 -1      3162 5.02097E+00
 -1      3163 3.81268E+00
 -1      3164 2.25014E-01
 -1      3165 2.44865E-01
 -1      3166 1.92195E-01
 -1      3167 2.10787E-01
 -1      3168 2.02772E-01
 -1      3169 1.11105E-01
 -1      3170 1.23477E-01
 -1      3171 8.96791E-02
 -1      3172 1.00308E-01
 -1      3173 1.02248E-01
 -1      3174 7.13347E-02
 -1      3175 8.02586E-02
 -1      3176 8.20306E-02
 -1      3177 5.59903E-02
 -1      3178 6.32092E-02
 -1      3179 6.44845E-02
 -1      3180 4.31992E-02
 -1      3181 4.91713E-02
 -1      3182 4.95399E-02
 -1      3183 3.35352E-02
 -1      3184 3.79756E-02
 -1      3185 3.74973E-02
 -1      3186 2.55941E-02
 -1      3187 2.86842E-02
 -1      3188 2.74227E-02
 -1      3189 2.72480E-02
 -1      3190 2.45180E-02
 -1      3191 2.14956E-02
 -1      3192 3.80979E-02
 -1      3193 3.26650E-02
 -1      3194 2.58366E-02
 -1      3195 6.02067E-02
 -1      3196 4.80562E-02
 -1      3197 4.12119E-02
 -1      3198 8.77993E-02
 -1      3199 7.25418E-02
 -1      3200 6.35052E-02
 -1      3201 1.22151E-01
 -1      3202 1.03161E-01
 -1      3203 9.12023E-02
 -1      3204 1.64429E-01
 -1      3205 1.41208E-01
 -1      3206 1.25621E-01
 -1      3207 2.15507E-01
 -1      3208 1.87825E-01
 -1      3209 1.68074E-01
 -1      3210 2.75700E-01
 -1      3211 2.43798E-01
 -1      3212 2.19762E-01
 -1      3213 3.45779E-01
 -1      3214 3.10654E-01
 -1      3215 2.83007E-01
 -1      3216 4.22379E-01
 -1      3217 3.86142E-01
 -1      3218 3.58324E-01
 -1      3219 5.02905E-01
 -1      3220 4.66657E-01
 -1      3221 4.42965E-01
 -1      3222 5.77922E-01
 -1      3223 5.48009E-01
 -1      3224 5.32347E-01
 -1      3225 6.57268E-01
 -1      3226 6.20828E-01
 -1      3227 6.20358E-01
 -1      3228 7.60886E-01
 -1      3229 7.21207E-01
 -1      3230 7.27203E-01
 -1      3231 8.71878E-01
 -1      3232 8.47910E-01
 -1      3233 8.78166E-01
 -1      3234 1.01772E+00
 -1      3235 9.57833E-01
 -1      3236 1.05115E+00
 -1      3237 1.23150E+00
 -1      3238 1.10114E+00
 -1      3239 1.22052E+00
 -1      3240 1.57056E+00
 -1      3241 1.50004E+00
 -1      3242 1.57248E+00
 -1      3243 1.94994E+00
 -1      3244 1.72493E+00
 -1      3245 1.99539E+00
 -1      3246 2.17800E+00
 -1      3247 2.09339E+00
 -1      3248 2.29321E+00
 -1      3249 2.50160E+00
 -1      3250 2.22295E+00
 -1      3251 2.48162E+00
 -1      3252 2.67014E+00
 -1      3253 2.74350E+00
 -1      3254 2.68818E+00
 -1      3255 2.79406E+00
 -1      3256 2.86743E+00
 -1      3257 2.43055E+00
 -1      3258 2.59132E+00
 -1      3259 2.89450E+00
 -1      3260 2.35299E+00
 -1      3261 2.33883E+00
 -1      3262 2.70592E+00
 -1      3263 2.75472E+00
 -1      3264 2.75156E+00
 -1      3265 3.01277E+00
 -1      3266 2.75472E+00
 -1      3267 4.23500E+00
 -1      3268 3.23567E-01
 -1      3269 3.15754E-01
 -1      3270 7.63464E+00
 -1      3271 6.25978E+00
 -1      3272 9.97251E+00
 -1      3273 8.30820E+00
 -1      3274 1.16091E+01
 -1      3275 3.83910E+00
 -1      3276 3.24708E+00
 -1      3277 4.70728E+00
 -1      3278 4.31592E+00
 -1      3279 7.12684E+00
 -1      3280 8.17187E+00
 -1      3281 1.13887E+01
 -1      3282 1.47664E+01
 -1      3283 1.05146E+01
 -1      3284 7.41279E+00
 -1      3285 4.94869E+00
 -1      3286 9.14606E+00
 -1      3287 3.42782E+00
 -1      3288 4.30690E+00
 -1      3289 1.35528E-01
 -1      3290 1.49463E-01
 -1      3291 1.25097E-01
 -1      3292 1.62341E-01
 -1      3293 1.79374E-01
 -1      3294 1.50026E-01
 -1      3295 3.06386E-01
 -1      3296 3.40600E-01
 -1      3297 4.72698E+00
 -1      3298 2.63224E-01
 -1      3299 2.90560E-01
 -1      3300 2.35358E-01
 -1      3301 9.28288E+00
 -1      3302 1.15116E+01
 -1      3303 7.01246E+00
 -1      3304 4.12926E-01
 -1      3305 3.10106E-01
 -1      3306 2.63500E-01
 -1      3307 3.98283E-01
 -1      3308 1.79213E+01
 -1      3309 5.42830E+00
 -1      3310 4.56577E+00
 -1      3311 3.75235E+00
 -1      3312 4.04133E+00
 -1      3313 3.19883E+00
 -1      3314 3.60590E+00
 -1      3315 4.53837E+00
 -1      3316 4.54900E-01
 -1      3317 3.12294E-01
 -1      3318 3.12046E-01
 -1      3319 2.85181E-01
 -1      3320 2.62070E-01
 -1      3321 3.20464E-01
 -1      3322 3.20464E-01
 -1      3323 3.23302E-01
 -1      3324 3.23839E-01
 -1      3325 1.75051E+01
 -1      3326 3.20706E-01
 -1      3327 3.31041E-01
 -1      3328 2.85908E-01
 -1      3329 3.86449E+00
 -1      3330 6.62943E+00
 -1      3331 3.68408E+00
 -1      3332 1.75724E-01
 -1      3333 4.01297E+00
 -1      3334 3.71215E+00
 -1      3335 1.16271E+01
 -1      3336 9.39678E+00
 -1      3337 8.23889E+00
 -1      3338 9.38607E+00
 -1      3339 1.10857E+01
 -1      3340 8.63589E+00
 -1      3341 2.74350E+00
 -1      3342 2.61006E+00
 -1      3343 6.81555E+00
 -1      3344 9.98293E+00
 -1      3345 7.49951E+00
 -1      3346 9.80009E+00
 -1      3347 5.99388E+00
 -1      3348 3.23567E-01
 -1      3349 2.88642E-01
 -1      3350 3.25211E-01
 -1      3351 5.31051E+00
 -1      3352 3.60590E+00
 -1      3353 3.47341E+00
 -1      3354 3.20643E+00
 -1      3355 3.51285E-01
 -1      3356 3.76893E-01
 -1      3357 2.60616E-01
 -1      3358 3.34854E-01
 -1      3359 3.68611E-01
 -1      3360 2.56551E-01
 -1      3361 2.79623E-01
 -1      3362 4.45670E+00
 -1      3363 6.45644E+00
 -1      3364 8.98787E+00
 -1      3365 2.69543E-01
 -1      3366 1.27463E+01
 -1      3367 2.74350E+00
 -1      3368 1.04915E+01
 -1      3369 4.65964E+00
 -1      3370 2.63503E+00
 -1      3371 3.89031E-01
 -1      3372 1.22803E+01
 -1      3373 3.18142E-01
 -1      3374 1.27463E+01
 -1      3375 3.23302E-01
 -1      3376 2.89041E-01
 -1      3377 3.15706E-01
 -1      3378 3.64142E+00
 -1      3379 2.91475E+00
 -1      3380 3.06534E+00
 -1      3381 2.95687E+00
 -1      3382 1.85786E-01
 -1      3383 1.94870E-01
 -1      3384 2.08873E-01
 -1      3385 2.05016E-01
 -1      3386 1.58132E-01
 -1      3387 2.07746E-01
 -1      3388 1.97093E-01
 -1      3389 1.74865E-01
 -1      3390 1.92965E-01
 -1      3391 1.79343E-01
 -1      3392 1.73468E-01
 -1      3393 1.71407E-01
 -1      3394 1.59399E-01
 -1      3395 1.61405E-01
 -1      3396 1.49729E-01
 -1      3397 1.39292E-01
 -1      3398 1.43800E-01
 -1      3399 1.31451E-01
 -1      3400 1.20604E-01
 -1      3401 1.26289E-01
 -1      3402 1.12506E-01
 -1      3403 1.02106E-01
 -1      3404 1.10351E-01
 -1      3405 9.39756E-02
 -1      3406 8.44700E-02
 -1      3407 9.41221E-02
 -1      3408 7.67826E-02
 -1      3409 6.83318E-02
 -1      3410 7.83044E-02
 -1      3411 6.13029E-02
 -1      3412 5.38676E-02
 -1      3413 6.35881E-02
 -1      3414 4.75273E-02
 -1      3415 4.09284E-02
 -1      3416 5.02189E-02
 -1      3417 3.51729E-02
 -1      3418 2.91280E-02
 -1      3419 3.81231E-02
 -1      3420 2.61288E-02
 -1      3421 2.21714E-02
 -1      3422 2.93684E-02
 -1      3423 2.33672E-02
 -1      3424 2.51881E-02
 -1      3425 2.75649E-02
 -1      3426 2.97267E-02
 -1      3427 3.90806E-02
 -1      3428 3.32992E-02
 -1      3429 4.96121E-02
 -1      3430 6.16232E-02
 -1      3431 4.83694E-02
 -1      3432 7.61137E-02
 -1      3433 9.16915E-02
 -1      3434 7.33914E-02
 -1      3435 1.10552E-01
 -1      3436 1.31993E-01
 -1      3437 1.06743E-01
 -1      3438 1.56473E-01
 -1      3439 1.84649E-01
 -1      3440 1.50084E-01
 -1      3441 2.16278E-01
 -1      3442 2.52908E-01
 -1      3443 2.06194E-01
 -1      3444 2.93591E-01
 -1      3445 3.40769E-01
 -1      3446 2.78506E-01
 -1      3447 3.92970E-01
 -1      3448 4.53091E-01
 -1      3449 3.71390E-01
 -1      3450 5.20143E-01
 -1      3451 5.95835E-01
 -1      3452 4.90644E-01
 -1      3453 6.82493E-01
 -1      3454 7.76382E-01
 -1      3455 6.44354E-01
 -1      3456 8.89767E-01
 -1      3457 1.00387E+00
 -1      3458 8.44397E-01
 -1      3459 1.15509E+00
 -1      3460 1.28922E+00
 -1      3461 1.10900E+00
 -1      3462 1.49480E+00
 -1      3463 1.67138E+00
 -1      3464 1.46580E+00
 -1      3465 1.95908E+00
 -1      3466 2.24679E+00
 -1      3467 1.95908E+00
 -1      3468 2.52113E+00
 -1      3469 2.71338E+00
 -1      3470 2.52113E+00
 -1      3471 6.13198E+00
 -1      3472 4.53837E+00
 -1      3473 1.82111E-01
 -1      3474 1.96338E-01
 -1      3475 3.36224E+00
 -1      3476 3.24574E+00
 -1      3477 7.62657E-02
 -1      3478 8.56863E-02
 -1      3479 9.44302E-02
 -1      3480 1.05227E-01
 -1      3481 8.86653E-02
 -1      3482 4.63390E-02
 -1      3483 5.31580E-02
 -1      3484 3.47733E-02
 -1      3485 3.99968E-02
 -1      3486 4.36150E-02
 -1      3487 2.40752E-02
 -1      3488 2.89262E-02
 -1      3489 3.14258E-02
 -1      3490 2.14100E-02
 -1      3491 2.24860E-02
 -1      3492 2.39895E-02
 -1      3493 2.83550E-02
 -1      3494 2.29380E-02
 -1      3495 2.39284E-02
 -1      3496 4.71420E-02
 -1      3497 3.71838E-02
 -1      3498 3.42852E-02
 -1      3499 7.08047E-02
 -1      3500 5.84696E-02
 -1      3501 5.44415E-02
 -1      3502 1.00868E-01
 -1      3503 8.55062E-02
 -1      3504 8.04706E-02
 -1      3505 1.38195E-01
 -1      3506 1.19138E-01
 -1      3507 1.13442E-01
 -1      3508 1.83886E-01
 -1      3509 1.60490E-01
 -1      3510 1.54007E-01
 -1      3511 2.38700E-01
 -1      3512 2.10409E-01
 -1      3513 2.02825E-01
 -1      3514 3.04140E-01
 -1      3515 2.69186E-01
 -1      3516 2.59833E-01
 -1      3517 3.77897E-01
 -1      3518 3.37535E-01
 -1      3519 3.23714E-01
 -1      3520 4.61236E-01
 -1      3521 4.16958E-01
 -1      3522 3.96169E-01
 -1      3523 5.59244E-01
 -1      3524 5.14139E-01
 -1      3525 4.88133E-01
 -1      3526 6.68805E-01
 -1      3527 6.25899E-01
 -1      3528 6.07691E-01
 -1      3529 8.17722E-01
 -1      3530 7.53783E-01
 -1      3531 7.59324E-01
 -1      3532 1.00054E+00
 -1      3533 9.13511E-01
 -1      3534 9.40092E-01
 -1      3535 1.22539E+00
 -1      3536 1.13944E+00
 -1      3537 1.17478E+00
 -1      3538 1.50129E+00
 -1      3539 1.41787E+00
 -1      3540 1.50616E+00
 -1      3541 1.94866E+00
 -1      3542 1.68012E+00
 -1      3543 1.87747E+00
 -1      3544 2.58436E+00
 -1      3545 2.43000E+00
 -1      3546 2.53763E+00
 -1      3547 2.62024E+00
 -1      3548 2.47679E+00
 -1      3549 2.99823E+00
 -1      3550 3.09509E+00
 -1      3551 5.91664E+00
 -1      3552 5.24309E+00
 -1      3553 3.36967E+00
 -1      3554 3.41134E+00
 -1      3555 7.99773E+00
 -1      3556 6.71896E+00
 -1      3557 2.23572E-01
 -1      3558 2.05066E-01
 -1      3559 2.02182E-01
 -1      3560 8.30083E+00
 -1      3561 9.87652E+00
 -1      3562 7.58636E+00
 -1      3563 2.31446E-01
 -1      3564 2.47272E-01
 -1      3565 1.36024E-01
 -1      3566 1.48902E-01
 -1      3567 4.24833E+00
 -1      3568 3.36224E+00
 -1      3569 2.06685E-01
 -1      3570 2.25044E-01
 -1      3571 1.86024E-01
 -1      3572 2.77612E+00
 -1      3573 3.98918E+00
 -1      3574 5.98067E+00
 -1      3575 6.09609E+00
 -1      3576 3.23458E+00
 -1      3577 3.40530E+00
 -1      3578 2.73117E+00
 -1      3579 5.14111E+00
 -1      3580 4.30962E+00
 -1      3581 3.31359E+00
 -1      3582 1.14565E-01
 -1      3583 1.26616E-01
 -1      3584 1.25493E-01
 -1      3585 6.02238E-02
 -1      3586 6.83493E-02
 -1      3587 7.20050E-02
 -1      3588 5.70228E-02
 -1      3589 2.05738E-01
 -1      3590 1.90972E-01
 -1      3591 1.49314E-01
 -1      3592 1.57459E-01
 -1      3593 1.70280E-01
 -1      3594 1.43458E-01
 -1      3595 2.22143E-01
 -1      3596 3.47202E+00
 -1      3597 3.31667E+00
 -1      3598 2.69875E-01
 -1      3599 2.18637E-01
 -1      3600 2.02772E-01
 -1      3601 1.63846E-01
 -1      3602 3.71215E+00
 -1      3603 7.80264E+00
 -1      3604 8.84511E+00
 -1      3605 7.79193E+00
 -1      3606 1.06747E-01
 -1      3607 2.91139E+00
 -1      3608 4.24220E+00
 -1      3609 2.83894E-01
 -1      3610 5.89031E+00
 -1      3611 5.87989E+00
 -1      3612 4.30744E+00
 -1      3613 2.36341E-01
 -1      3614 2.30595E-01
 -1      3615 1.98244E-01
 -1      3616 7.39339E+00
 -1      3617 6.75534E+00
 -1      3618 7.09039E+00
 -1      3619 2.52978E-01
 -1      3620 2.52978E-01
 -1      3621 2.85381E-01
 -1      3622 2.53017E-01
 -1      3623 2.53017E-01
 -1      3624 2.52978E-01
 -1      3625 2.49518E-01
 -1      3626 2.17314E-01
 -1      3627 2.47096E-01
 -1      3628 2.43963E-01
 -1      3629 1.20286E-01
 -1      3630 1.34289E-01
 -1      3631 1.79825E-01
 -1      3632 1.47730E-01
 -1      3633 1.50460E-01
 -1      3634 1.09884E-01
 -1      3635 1.55500E-01
 -1      3636 1.51372E-01
 -1      3637 1.28365E-01
 -1      3638 1.50383E-01
 -1      3639 1.42447E-01
 -1      3640 1.32415E-01
 -1      3641 1.37753E-01
 -1      3642 1.28084E-01
 -1      3643 1.26731E-01
 -1      3644 1.21411E-01
 -1      3645 1.13571E-01
 -1      3646 1.15365E-01
 -1      3647 1.06226E-01
 -1      3648 9.81277E-02
 -1      3649 1.01348E-01
 -1      3650 9.19670E-02
 -1      3651 8.38368E-02
 -1      3652 8.78424E-02
 -1      3653 7.75280E-02
 -1      3654 6.98406E-02
 -1      3655 7.53729E-02
 -1      3656 6.37999E-02
 -1      3657 5.67709E-02
 -1      3658 6.30234E-02
 -1      3659 5.12045E-02
 -1      3660 4.48642E-02
 -1      3661 5.14163E-02
 -1      3662 3.98319E-02
 -1      3663 3.40764E-02
 -1      3664 4.08175E-02
 -1      3665 3.22143E-02
 -1      3666 2.92150E-02
 -1      3667 3.39230E-02
 -1      3668 3.00616E-02
 -1      3669 3.12574E-02
 -1      3670 3.29075E-02
 -1      3671 3.35214E-02
 -1      3672 3.80600E-02
 -1      3673 3.60181E-02
 -1      3674 4.37414E-02
 -1      3675 5.42729E-02
 -1      3676 4.39635E-02
 -1      3677 6.59338E-02
 -1      3678 8.04243E-02
 -1      3679 6.13058E-02
 -1      3680 9.54976E-02
 -1      3681 1.14358E-01
 -1      3682 8.80400E-02
 -1      3683 1.33758E-01
 -1      3684 1.58239E-01
 -1      3685 1.22513E-01
 -1      3686 1.83070E-01
 -1      3687 2.14699E-01
 -1      3688 1.66744E-01
 -1      3689 2.46353E-01
 -1      3690 2.87037E-01
 -1      3691 2.23230E-01
 -1      3692 3.27365E-01
 -1      3693 3.79566E-01
 -1      3694 2.95212E-01
 -1      3695 4.31243E-01
 -1      3696 4.98295E-01
 -1      3697 3.87218E-01
 -1      3698 5.65557E-01
 -1      3699 6.52215E-01
 -1      3700 5.06156E-01
 -1      3701 7.42307E-01
 -1      3702 8.55692E-01
 -1      3703 6.63510E-01
 -1      3704 9.81626E-01
 -1      3705 1.13285E+00
 -1      3706 8.79536E-01
 -1      3707 1.31942E+00
 -1      3708 1.52499E+00
 -1      3709 1.19204E+00
 -1      3710 1.83366E+00
 -1      3711 2.12136E+00
 -1      3712 1.68727E+00
 -1      3713 2.52113E+00
 -1      3714 2.79547E+00
 -1      3715 2.39570E+00
 -1      3716 1.75955E-01
 -1      3717 1.82357E-01
 -1      3718 9.61615E-02
 -1      3719 1.05499E-01
 -1      3720 1.42209E-01
 -1      3721 1.37023E-01
 -1      3722 1.13180E-01
 -1      3723 1.67535E-01
 -1      3724 2.84256E-02
 -1      3725 3.42726E-02
 -1      3726 3.96056E-02
 -1      3727 4.59478E-02
 -1      3728 3.66054E-02
 -1      3729 2.88563E-02
 -1      3730 2.73283E-02
 -1      3731 4.11754E-02
 -1      3732 3.23467E-02
 -1      3733 3.57466E-02
 -1      3734 6.29399E-02
 -1      3735 5.16122E-02
 -1      3736 4.96738E-02
 -1      3737 9.09523E-02
 -1      3738 7.62508E-02
 -1      3739 7.34216E-02
 -1      3740 1.26031E-01
 -1      3741 1.07762E-01
 -1      3742 1.03542E-01
 -1      3743 1.69320E-01
 -1      3744 1.47025E-01
 -1      3745 1.41345E-01
 -1      3746 2.21676E-01
 -1      3747 1.95154E-01
 -1      3748 1.88172E-01
 -1      3749 2.83385E-01
 -1      3750 2.52899E-01
 -1      3751 2.45228E-01
 -1      3752 3.53701E-01
 -1      3753 3.20307E-01
 -1      3754 3.13372E-01
 -1      3755 4.35230E-01
 -1      3756 3.96169E-01
 -1      3757 3.92762E-01
 -1      3758 5.35112E-01
 -1      3759 4.82208E-01
 -1      3760 4.82208E-01
 -1      3761 6.62633E-01
 -1      3762 5.95978E-01
 -1      3763 5.90054E-01
 -1      3764 8.31627E-01
 -1      3765 7.46649E-01
 -1      3766 7.34936E-01
 -1      3767 1.07158E+00
 -1      3768 9.75787E-01
 -1      3769 9.63112E-01
 -1      3770 1.40894E+00
 -1      3771 1.27004E+00
 -1      3772 1.30573E+00
 -1      3773 1.83879E+00
 -1      3774 1.64631E+00
 -1      3775 1.74157E+00
 -1      3776 2.31900E+00
 -1      3777 2.14017E+00
 -1      3778 2.28032E+00
 -1      3779 3.68157E+00
 -1      3780 3.57959E+00
 -1      3781 3.24803E+00
 -1      3782 3.76923E+00
 -1      3783 6.02745E+00
 -1      3784 3.24803E+00
 -1      3785 2.60161E-02
 -1      3786 2.76053E-02
 -1      3787 3.09440E-02
 -1      3788 8.01497E-02
 -1      3789 8.88936E-02
 -1      3790 8.76460E-02
 -1      3791 1.12556E-01
 -1      3792 1.21964E-01
 -1      3793 1.01970E-01
 -1      3794 2.47708E-01
 -1      3795 2.12044E-01
 -1      3796 2.42961E-01
 -1      3797 3.57959E+00
 -1      3798 6.58611E+00
 -1      3799 6.50968E+00
 -1      3800 4.89006E+00
 -1      3801 1.85957E-01
 -1      3802 1.63908E-01
 -1      3803 1.74255E-01
 -1      3804 1.53839E-01
 -1      3805 1.29801E-01
 -1      3806 1.38358E-01
 -1      3807 1.16864E-01
 -1      3808 3.01896E+00
 -1      3809 1.46291E-01
 -1      3810 1.58122E-01
 -1      3811 1.46353E-01
 -1      3812 2.22135E-01
 -1      3813 2.04809E-01
 -1      3814 1.67766E-01
 -1      3815 1.78853E-01
 -1      3816 2.49357E-01
 -1      3817 2.53017E-01
 -1      3818 2.16993E-01
 -1      3819 2.17153E-01
 -1      3820 2.11072E-01
 -1      3821 1.73455E-01
 -1      3822 1.85283E-01
 -1      3823 1.85283E-01
 -1      3824 3.04521E-02
 -1      3825 1.32635E-01
 -1      3826 1.73775E-01
 -1      3827 1.79045E-01
 -1      3828 1.47014E-01
 -1      3829 5.47578E+00
 -1      3830 6.52314E+00
 -1      3831 7.06410E+00
 -1      3832 5.82160E+00
 -1      3833 4.77865E-02
 -1      3834 5.17959E-02
 -1      3835 5.88616E-02
 -1      3836 2.53763E+00
 -1      3837 2.80033E+00
 -1      3838 3.52853E+00
 -1      3839 2.86592E+00
 -1      3840 2.64729E+00
 -1      3841 3.49179E+00
 -1      3842 1.51057E-01
 -1      3843 1.77875E-01
 -1      3844 7.31748E-02
 -1      3845 7.34032E-02
 -1      3846 6.52585E-02
 -1      3847 1.46369E-01
 -1      3848 1.67187E-01
 -1      3849 1.34188E-01
 -1      3850 1.48996E-01
 -1      3851 6.22712E+00
 -1      3852 5.15044E+00
 -1      3853 5.31968E+00
 -1      3854 1.85181E-01
 -1      3855 1.85181E-01
 -1      3856 1.66944E-01
 -1      3857 1.41644E-01
 -1      3858 3.18880E-02
 -1      3859 3.27083E-02
 -1      3860 7.72360E-02
 -1      3861 8.45040E-02
 -1      3862 1.04105E-01
 -1      3863 1.17546E-01
 -1      3864 1.06907E-01
 -1      3865 1.11947E-01
 -1      3866 1.01129E-01
 -1      3867 1.16797E-01
 -1      3868 1.15808E-01
 -1      3869 9.53402E-02
 -1      3870 1.15836E-01
 -1      3871 1.11142E-01
 -1      3872 1.00218E-01
 -1      3873 1.08128E-01
 -1      3874 1.01456E-01
 -1      3875 9.72330E-02
 -1      3876 9.66958E-02
 -1      3877 8.93512E-02
 -1      3878 8.94595E-02
 -1      3879 8.37970E-02
 -1      3880 7.76363E-02
 -1      3881 7.91451E-02
 -1      3882 7.19182E-02
 -1      3883 6.56094E-02
 -1      3884 6.78728E-02
 -1      3885 6.05816E-02
 -1      3886 5.45408E-02
 -1      3887 5.71268E-02
 -1      3888 5.00819E-02
 -1      3889 4.45154E-02
 -1      3890 4.76400E-02
 -1      3891 4.16621E-02
 -1      3892 3.66298E-02
 -1      3893 4.03277E-02
 -1      3894 3.54474E-02
 -1      3895 3.35852E-02
 -1      3896 3.62920E-02
 -1      3897 3.38911E-02
 -1      3898 3.47378E-02
 -1      3899 3.54155E-02
 -1      3900 3.64243E-02
 -1      3901 3.86883E-02
 -1      3902 3.74079E-02
 -1      3903 4.25576E-02
 -1      3904 4.82390E-02
 -1      3905 4.29637E-02
 -1      3906 5.52521E-02
 -1      3907 6.69130E-02
 -1      3908 5.38462E-02
 -1      3909 7.65890E-02
 -1      3910 9.16623E-02
 -1      3911 7.05353E-02
 -1      3912 1.04589E-01
 -1      3913 1.23988E-01
 -1      3914 9.31377E-02
 -1      3915 1.40905E-01
 -1      3916 1.65737E-01
 -1      3917 1.22981E-01
 -1      3918 1.87606E-01
 -1      3919 2.19260E-01
 -1      3920 1.61767E-01
 -1      3921 2.47388E-01
 -1      3922 2.87716E-01
 -1      3923 2.11763E-01
 -1      3924 3.25059E-01
 -1      3925 3.76737E-01
 -1      3926 2.77235E-01
 -1      3927 4.25629E-01
 -1      3928 4.92891E-01
 -1      3929 3.63471E-01
 -1      3930 5.57975E-01
 -1      3931 6.48067E-01
 -1      3932 4.77448E-01
 -1      3933 7.37551E-01
 -1      3934 8.63485E-01
 -1      3935 6.32016E-01
 -1      3936 9.91940E-01
 -1      3937 1.17851E+00
 -1      3938 8.49955E-01
 -1      3939 1.37693E+00
 -1      3940 1.68559E+00
 -1      3941 1.17683E+00
 -1      3942 2.23478E+00
 -1      3943 2.63455E+00
 -1      3944 1.92444E+00
 -1      3945 1.24906E-01
 -1      3946 3.29709E-02
 -1      3947 3.83038E-02
 -1      3948 3.44067E-02
 -1      3949 5.52382E-02
 -1      3950 4.48014E-02
 -1      3951 4.00890E-02
 -1      3952 3.65986E-02
 -1      3953 4.56535E-02
 -1      3954 1.09977E-01
 -1      3955 9.31676E-02
 -1      3956 1.48999E-01
 -1      3957 1.28005E-01
 -1      3958 1.17631E-01
 -1      3959 1.97735E-01
 -1      3960 1.71902E-01
 -1      3961 1.58562E-01
 -1      3962 2.57829E-01
 -1      3963 2.26606E-01
 -1      3964 2.10336E-01
 -1      3965 3.30901E-01
 -1      3966 2.93979E-01
 -1      3967 2.75358E-01
 -1      3968 4.18391E-01
 -1      3969 3.75923E-01
 -1      3970 3.56530E-01
 -1      3971 5.21194E-01
 -1      3972 4.74216E-01
 -1      3973 4.57377E-01
 -1      3974 6.50921E-01
 -1      3975 5.90054E-01
 -1      3976 5.82061E-01
 -1      3977 8.18952E-01
 -1      3978 7.34936E-01
 -1      3979 7.34936E-01
 -1      3980 1.08335E+00
 -1      3981 9.39192E-01
 -1      3982 9.39192E-01
 -1      3983 1.48676E+00
 -1      3984 1.28830E+00
 -1      3985 1.26438E+00
 -1      3986 1.88846E+00
 -1      3987 1.65108E+00
 -1      3988 1.63365E+00
 -1      3989 2.58169E+00
 -1      3990 2.28032E+00
 -1      3991 2.18983E+00
 -1      3992 1.28862E-01
 -1      3993 1.34648E-01
 -1      3994 9.06765E-02
 -1      3995 9.77328E-02
 -1      3996 8.02666E-02
 -1      3997 1.34422E-01
 -1      3998 1.36122E-01
 -1      3999 1.16931E-01
 -1      4000 1.85342E-01
 -1      4001 1.85181E-01
 -1      4002 1.53311E-01
 -1      4003 1.53370E-01
 -1      4004 3.08855E+00
 -1      4005 3.54110E+00
 -1      4006 1.04185E-01
 -1      4007 1.12023E-01
 -1      4008 9.28911E-02
 -1      4009 1.30362E-01
 -1      4010 1.25879E-01
 -1      4011 1.10945E-01
 -1      4012 1.57456E-01
 -1      4013 4.52842E+00
 -1      4014 3.90905E+00
 -1      4015 3.13015E+00
 -1      4016 1.17518E-01
 -1      4017 1.25451E-01
 -1      4018 1.04839E-01
 -1      4019 3.41824E-02
 -1      4020 3.28703E-02
 -1      4021 3.51264E-02
 -1      4022 7.90900E-02
 -1      4023 6.57791E-02
 -1      4024 6.09067E-02
 -1      4025 5.31630E+00
 -1      4026 1.32569E-01
 -1      4027 1.37087E-01
 -1      4028 2.92762E+00
 -1      4029 1.13746E-01
 -1      4030 4.55825E-02
 -1      4031 5.14306E-02
 -1      4032 4.19479E-02
 -1      4033 3.85249E-02
 -1      4034 1.37170E-01
 -1      4035 1.16369E-01
 -1      4036 1.37170E-01
 -1      4037 2.64729E+00
 -1      4038 1.09657E-01
 -1      4039 1.30352E-01
 -1      4040 6.00315E-02
 -1      4041 6.46392E-02
 -1      4042 7.16141E-02
 -1      4043 6.84721E-02
 -1      4044 1.37111E-01
 -1      4045 1.37170E-01
 -1      4046 1.20970E-01
 -1      4047 3.92435E+00
 -1      4048 4.28334E+00
 -1      4049 3.30233E+00
 -1      4050 8.55251E-02
 -1      4051 1.27453E-01
 -1      4052 1.33691E-01
 -1      4053 1.17550E-01
 -1      4054 7.81751E-02
 -1      4055 8.30254E-02
 -1      4056 8.66024E-02
 -1      4057 8.66304E-02
 -1      4058 6.94372E-02
 -1      4059 8.70424E-02
 -1      4060 8.40290E-02
 -1      4061 7.34263E-02
 -1      4062 8.26479E-02
 -1      4063 7.78878E-02
 -1      4064 7.24573E-02
 -1      4065 7.48404E-02
 -1      4066 6.92862E-02
 -1      4067 6.80289E-02
 -1      4068 6.63480E-02
 -1      4069 6.06299E-02
 -1      4070 6.20433E-02
 -1      4071 5.72510E-02
 -1      4072 5.22231E-02
 -1      4073 5.57262E-02
 -1      4074 4.87828E-02
 -1      4075 4.43238E-02
 -1      4076 4.89069E-02
 -1      4077 4.55870E-02
 -1      4078 4.27337E-02
 -1      4079 4.67298E-02
 -1      4080 3.74744E-02
 -1      4081 3.62920E-02
 -1      4082 4.27337E-02
 -1      4083 3.54155E-02
 -1      4084 3.57214E-02
 -1      4085 3.65979E-02
 -1      4086 3.74079E-02
 -1      4087 3.90944E-02
 -1      4088 3.74079E-02
 -1      4089 4.24441E-02
 -1      4090 4.63135E-02
 -1      4091 4.24441E-02
 -1      4092 5.25506E-02
 -1      4093 5.95637E-02
 -1      4094 5.20310E-02
 -1      4095 6.82467E-02
 -1      4096 7.79227E-02
 -1      4097 6.69511E-02
 -1      4098 8.95094E-02
 -1      4099 1.02436E-01
 -1      4100 8.72208E-02
 -1      4101 1.17465E-01
 -1      4102 1.34382E-01
 -1      4103 1.13837E-01
 -1      4104 1.53911E-01
 -1      4105 1.75779E-01
 -1      4106 1.48395E-01
 -1      4107 2.00770E-01
 -1      4108 2.28898E-01
 -1      4109 1.92914E-01
 -1      4110 2.60450E-01
 -1      4111 2.97793E-01
 -1      4112 2.49457E-01
 -1      4113 3.37730E-01
 -1      4114 3.86623E-01
 -1      4115 3.20945E-01
 -1      4116 4.45230E-01
 -1      4117 5.10314E-01
 -1      4118 4.19489E-01
 -1      4119 6.02577E-01
 -1      4120 6.92060E-01
 -1      4121 5.70359E-01
 -1      4122 8.26854E-01
 -1      4123 9.55310E-01
 -1      4124 7.97415E-01
 -1      4125 1.15508E+00
 -1      4126 1.35349E+00
 -1      4127 1.13197E+00
 -1      4128 1.63581E+00
 -1      4129 2.18500E+00
 -1      4130 1.61406E+00
 -1      4131 5.03659E-02
 -1      4132 4.56535E-02
 -1      4133 5.01196E+00
 -1      4134 4.48374E+00
 -1      4135 3.44067E-02
 -1      4136 3.46693E-02
 -1      4137 4.09411E-02
 -1      4138 3.85249E-02
 -1      4139 4.56535E-02
 -1      4140 1.60774E-01
 -1      4141 1.37871E-01
 -1      4142 1.22254E-01
 -1      4143 1.04226E-01
 -1      4144 1.24465E-01
 -1      4145 2.83718E-01
 -1      4146 2.47568E-01
 -1      4147 3.75134E-01
 -1      4148 3.30111E-01
 -1      4149 3.02322E-01
 -1      4150 4.95649E-01
 -1      4151 4.39824E-01
 -1      4152 4.13405E-01
 -1      4153 6.56771E-01
 -1      4154 5.87911E-01
 -1      4155 5.70359E-01
 -1      4156 8.75581E-01
 -1      4157 7.91565E-01
 -1      4158 7.97415E-01
 -1      4159 1.19559E+00
 -1      4160 1.07535E+00
 -1      4161 1.13197E+00
 -1      4162 1.68286E+00
 -1      4163 1.47791E+00
 -1      4164 1.61406E+00
 -1      4165 1.84718E+00
 -1      4166 1.68286E+00
 -1      4167 1.89638E+00
 -1      4168 4.98567E+00
 -1      4169 3.60225E+00
 -1      4170 3.90997E+00
 -1      4171 3.04287E+00
 -1      4172 1.13077E-01
 -1      4173 5.42282E-02
 -1      4174 6.06250E-02
 -1      4175 5.88359E-02
 -1      4176 1.20865E-01
 -1      4177 7.01656E-02
 -1      4178 7.63382E-02
 -1      4179 3.06456E+00
 -1      4180 1.01995E-01
 -1      4181 1.01769E-01
 -1      4182 9.26239E-02
 -1      4183 1.00517E-01
 -1      4184 8.10915E-02
 -1      4185 8.75435E-02
 -1      4186 7.09905E-02
 -1      4187 9.92615E-02
 -1      4188 1.02673E-01
 -1      4189 8.75110E-02
 -1      4190 8.15309E-02
 -1      4191 7.08920E-02
 -1      4192 5.85772E-02
 -1      4193 8.61320E-02
 -1      4194 3.61087E-02
 -1      4195 3.51264E-02
 -1      4196 3.85249E-02
 -1      4197 2.84215E+00
 -1      4198 2.35929E+00
 -1      4199 1.96743E+00
 -1      4200 2.59707E+00
 -1      4201 9.83842E-02
 -1      4202 2.71821E+00
 -1      4203 3.17221E+00
 -1      4204 9.17797E-02
 -1      4205 7.77021E-02
 -1      4206 9.64025E-02
 -1      4207 9.15027E-02
 -1      4208 9.69985E-02
 -1      4209 7.97031E-02
 -1      4210 2.13683E-01
 -1      4211 1.84812E-01
 -1      4212 2.22044E-01
 -1      4213 6.80741E-02
 -1      4214 5.75333E-02
 -1      4215 5.75333E-02
 -1      4216 7.43287E-02
 -1      4217 2.42959E+00
 -1      4218 4.13311E-02
 -1      4219 4.13311E-02
 -1      4220 4.86098E-02
 -1      4221 4.58847E+00
 -1      4222 3.53890E-02
 -1      4223 2.01663E+00
 -1      4224 1.64120E-01
 -1      4225 8.34484E-02
 -1      4226 8.59254E-02
 -1      4227 3.77882E+00
 -1      4228 3.56941E+00
 -1      4229 2.99564E+00
 -1      4230 5.20242E-02
 -1      4231 6.54178E-02
 -1      4232 6.14894E-02
 -1      4233 5.97959E-02
 -1      4234 8.61320E-02
 -1      4235 6.56787E-02
 -1      4236 1.34475E-01
 -1      4237 1.18858E-01
 -1      4238 5.70359E-01
 -1      4239 4.78096E-01
 -1      4240 4.80799E-02
 -1      4241 4.33675E-02
 -1      4242 8.06014E-02
 -1      4243 8.10135E-02
 -1      4244 7.87504E-02
 -1      4245 7.73693E-02
 -1      4246 7.34100E-02
 -1      4247 7.03627E-02
 -1      4248 6.56093E-02
 -1      4249 6.26711E-02
 -1      4250 5.79234E-02
 -1      4251 5.45445E-02
 -1      4252 4.73466E-02
 -1      4253 4.86098E-02
 -1      4254 4.79930E-02
 -1      4255 4.27337E-02
 -1      4256 3.60718E-02
 -1      4257 3.51953E-02
 -1      4258 3.59151E-02
 -1      4259 3.76015E-02
 -1      4260 4.00177E-02
 -1      4261 5.43170E-02
 -1      4262 6.14844E-02
 -1      4263 7.01674E-02
 -1      4264 7.97954E-02
 -1      4265 9.13821E-02
 -1      4266 1.03828E-01
 -1      4267 1.54003E-01
 -1      4268 1.78041E-01
 -1      4269 2.03032E-01
 -1      4270 2.36917E-01
 -1      4271 2.68469E-01
 -1      4272 3.14861E-01
 -1      4273 3.54798E-01
 -1      4274 4.19489E-01
 -1      4275 6.62621E-01
 -1      4276 7.97415E-01
 -1      4277 9.32209E-01
 -1      4278 1.13197E+00
 -1      4279 1.33174E+00
 -1      4280 1.61406E+00
 -1      4281 1.89638E+00
 -1      4282 2.61504E+00
 -1      4283 2.64789E+00
 -1      4284 1.89638E+00
 -1      4285 4.92266E-02
 -1      4286 5.20242E-02
 -1      4287 2.66227E+00
 -1      4288 7.29618E-02
 -1      4289 7.63468E-02
 -1      4290 7.99238E-02
 -1      4291 2.20209E+00
 -1      4292 5.48217E-02
 -1      4293 5.88359E-02
 -1      4294 5.57817E-02
 -1      4295 5.20242E-02
 -1      4296 5.35845E-02
 -1      4297 4.86098E-02
 -1      4298 5.01442E-02
 -1      4299 2.08183E+00
 -1      4300 2.08183E+00
 -3
 9999
