    1C
    1UUSER                                                              
    1UDATE              27.october.2022                                 
    1UTIME              00:16:55                                        
    1UHOST                                                              
    1UPGM               CalculiX                                        
    1UVERSION           Version 2.17                             
    1UCOMPILETIME       Thu Jul 23 21:43:50 CEST 2020                    
    1UDIR                                                               
    1UDBN                                                               
    1UMAT    1SOLIDMATERIAL                                             
    2C                          4224                                     1
 -1         1 1.11632E+02 1.91137E+01 0.00000E+00
 -1         2 1.15586E+02 1.28113E+01 0.00000E+00
 -1         3 1.50000E+02 0.00000E+00 0.00000E+00
 -1         4 1.50000E+02 5.00000E+01 0.00000E+00
 -1         5 0.00000E+00 0.00000E+00 0.00000E+00
 -1         6 0.00000E+00 5.00000E+01 0.00000E+00
 -1         7 0.00000E+00 4.70500E+01 0.00000E+00
 -1         8 0.00000E+00 4.41000E+01 0.00000E+00
 -1         9 0.00000E+00 4.11500E+01 0.00000E+00
 -1        10 0.00000E+00 3.82000E+01 0.00000E+00
 -1        11 0.00000E+00 3.52500E+01 0.00000E+00
 -1        12 0.00000E+00 3.23500E+01 0.00000E+00
 -1        13 0.00000E+00 2.94000E+01 0.00000E+00
 -1        14 0.00000E+00 2.64500E+01 0.00000E+00
 -1        15 0.00000E+00 2.35000E+01 0.00000E+00
 -1        16 0.00000E+00 2.05500E+01 0.00000E+00
 -1        17 0.00000E+00 1.76000E+01 0.00000E+00
 -1        18 0.00000E+00 1.47000E+01 0.00000E+00
 -1        19 0.00000E+00 1.17500E+01 0.00000E+00
 -1        20 0.00000E+00 8.80000E+00 0.00000E+00
 -1        21 0.00000E+00 5.85000E+00 0.00000E+00
 -1        22 0.00000E+00 2.90000E+00 0.00000E+00
 -1        23 3.15000E+00 5.00000E+01 0.00000E+00
 -1        24 6.15000E+00 5.00000E+01 0.00000E+00
 -1        25 9.15000E+00 5.00000E+01 0.00000E+00
 -1        26 1.21500E+01 5.00000E+01 0.00000E+00
 -1        27 1.51500E+01 5.00000E+01 0.00000E+00
 -1        28 1.81500E+01 5.00000E+01 0.00000E+00
 -1        29 2.11500E+01 5.00000E+01 0.00000E+00
 -1        30 2.41500E+01 5.00000E+01 0.00000E+00
 -1        31 2.71500E+01 5.00000E+01 0.00000E+00
 -1        32 3.01500E+01 5.00000E+01 0.00000E+00
 -1        33 3.31500E+01 5.00000E+01 0.00000E+00
 -1        34 3.61500E+01 5.00000E+01 0.00000E+00
 -1        35 3.91500E+01 5.00000E+01 0.00000E+00
 -1        36 4.21500E+01 5.00000E+01 0.00000E+00
 -1        37 4.51500E+01 5.00000E+01 0.00000E+00
 -1        38 4.81500E+01 5.00000E+01 0.00000E+00
 -1        39 5.11500E+01 5.00000E+01 0.00000E+00
 -1        40 5.41500E+01 5.00000E+01 0.00000E+00
 -1        41 5.71500E+01 5.00000E+01 0.00000E+00
 -1        42 6.01500E+01 5.00000E+01 0.00000E+00
 -1        43 6.31500E+01 5.00000E+01 0.00000E+00
 -1        44 6.61500E+01 5.00000E+01 0.00000E+00
 -1        45 6.91500E+01 5.00000E+01 0.00000E+00
 -1        46 7.21500E+01 5.00000E+01 0.00000E+00
 -1        47 7.51500E+01 5.00000E+01 0.00000E+00
 -1        48 7.81500E+01 5.00000E+01 0.00000E+00
 -1        49 8.11500E+01 5.00000E+01 0.00000E+00
 -1        50 8.41500E+01 5.00000E+01 0.00000E+00
 -1        51 8.71500E+01 5.00000E+01 0.00000E+00
 -1        52 9.01500E+01 5.00000E+01 0.00000E+00
 -1        53 9.31500E+01 5.00000E+01 0.00000E+00
 -1        54 9.61500E+01 5.00000E+01 0.00000E+00
 -1        55 9.91500E+01 5.00000E+01 0.00000E+00
 -1        56 1.02150E+02 5.00000E+01 0.00000E+00
 -1        57 1.05150E+02 5.00000E+01 0.00000E+00
 -1        58 1.08150E+02 5.00000E+01 0.00000E+00
 -1        59 1.11150E+02 5.00000E+01 0.00000E+00
 -1        60 1.14150E+02 5.00000E+01 0.00000E+00
 -1        61 1.17150E+02 5.00000E+01 0.00000E+00
 -1        62 1.20150E+02 5.00000E+01 0.00000E+00
 -1        63 1.23150E+02 5.00000E+01 0.00000E+00
 -1        64 1.26150E+02 5.00000E+01 0.00000E+00
 -1        65 1.29150E+02 5.00000E+01 0.00000E+00
 -1        66 1.32150E+02 5.00000E+01 0.00000E+00
 -1        67 1.35150E+02 5.00000E+01 0.00000E+00
 -1        68 1.38150E+02 5.00000E+01 0.00000E+00
 -1        69 1.41150E+02 5.00000E+01 0.00000E+00
 -1        70 1.44150E+02 5.00000E+01 0.00000E+00
 -1        71 1.47150E+02 5.00000E+01 0.00000E+00
 -1        72 3.00000E+00 0.00000E+00 0.00000E+00
 -1        73 6.00000E+00 0.00000E+00 0.00000E+00
 -1        74 9.00000E+00 0.00000E+00 0.00000E+00
 -1        75 1.20000E+01 0.00000E+00 0.00000E+00
 -1        76 1.50000E+01 0.00000E+00 0.00000E+00
 -1        77 1.80000E+01 0.00000E+00 0.00000E+00
 -1        78 2.10000E+01 0.00000E+00 0.00000E+00
 -1        79 2.40000E+01 0.00000E+00 0.00000E+00
 -1        80 2.70000E+01 0.00000E+00 0.00000E+00
 -1        81 2.98500E+01 0.00000E+00 0.00000E+00
 -1        82 3.28500E+01 0.00000E+00 0.00000E+00
 -1        83 3.58500E+01 0.00000E+00 0.00000E+00
 -1        84 3.88500E+01 0.00000E+00 0.00000E+00
 -1        85 4.18500E+01 0.00000E+00 0.00000E+00
 -1        86 4.48500E+01 0.00000E+00 0.00000E+00
 -1        87 4.78500E+01 0.00000E+00 0.00000E+00
 -1        88 5.08500E+01 0.00000E+00 0.00000E+00
 -1        89 5.38500E+01 0.00000E+00 0.00000E+00
 -1        90 5.68500E+01 0.00000E+00 0.00000E+00
 -1        91 5.97000E+01 0.00000E+00 0.00000E+00
 -1        92 6.27000E+01 0.00000E+00 0.00000E+00
 -1        93 6.57000E+01 0.00000E+00 0.00000E+00
 -1        94 6.87000E+01 0.00000E+00 0.00000E+00
 -1        95 7.17000E+01 0.00000E+00 0.00000E+00
 -1        96 7.47000E+01 0.00000E+00 0.00000E+00
 -1        97 7.77000E+01 0.00000E+00 0.00000E+00
 -1        98 8.07000E+01 0.00000E+00 0.00000E+00
 -1        99 8.37000E+01 0.00000E+00 0.00000E+00
 -1       100 8.67000E+01 0.00000E+00 0.00000E+00
 -1       101 8.95500E+01 0.00000E+00 0.00000E+00
 -1       102 9.25500E+01 0.00000E+00 0.00000E+00
 -1       103 9.55500E+01 0.00000E+00 0.00000E+00
 -1       104 9.85500E+01 0.00000E+00 0.00000E+00
 -1       105 1.01250E+02 0.00000E+00 0.00000E+00
 -1       106 1.04100E+02 0.00000E+00 0.00000E+00
 -1       107 1.06650E+02 0.00000E+00 0.00000E+00
 -1       108 1.09050E+02 0.00000E+00 0.00000E+00
 -1       109 1.11900E+02 0.00000E+00 0.00000E+00
 -1       110 1.14600E+02 0.00000E+00 0.00000E+00
 -1       111 1.17300E+02 0.00000E+00 0.00000E+00
 -1       112 1.20300E+02 0.00000E+00 0.00000E+00
 -1       113 1.23150E+02 0.00000E+00 0.00000E+00
 -1       114 1.26150E+02 0.00000E+00 0.00000E+00
 -1       115 1.29150E+02 0.00000E+00 0.00000E+00
 -1       116 1.32150E+02 0.00000E+00 0.00000E+00
 -1       117 1.35150E+02 0.00000E+00 0.00000E+00
 -1       118 1.38150E+02 0.00000E+00 0.00000E+00
 -1       119 1.41150E+02 0.00000E+00 0.00000E+00
 -1       120 1.44150E+02 0.00000E+00 0.00000E+00
 -1       121 1.47150E+02 0.00000E+00 0.00000E+00
 -1       122 1.50000E+02 2.95000E+00 0.00000E+00
 -1       123 1.50000E+02 5.90000E+00 0.00000E+00
 -1       124 1.50000E+02 8.85000E+00 0.00000E+00
 -1       125 1.50000E+02 1.18000E+01 0.00000E+00
 -1       126 1.50000E+02 1.47500E+01 0.00000E+00
 -1       127 1.50000E+02 1.76500E+01 0.00000E+00
 -1       128 1.50000E+02 2.06000E+01 0.00000E+00
 -1       129 1.50000E+02 2.35500E+01 0.00000E+00
 -1       130 1.50000E+02 2.65000E+01 0.00000E+00
 -1       131 1.50000E+02 2.94500E+01 0.00000E+00
 -1       132 1.50000E+02 3.24000E+01 0.00000E+00
 -1       133 1.50000E+02 3.53000E+01 0.00000E+00
 -1       134 1.50000E+02 3.82500E+01 0.00000E+00
 -1       135 1.50000E+02 4.12000E+01 0.00000E+00
 -1       136 1.50000E+02 4.41500E+01 0.00000E+00
 -1       137 1.50000E+02 4.71000E+01 0.00000E+00
 -1       138 1.15410E+02 1.12517E+01 0.00000E+00
 -1       139 1.14929E+02 9.85079E+00 0.00000E+00
 -1       140 1.14123E+02 8.52820E+00 0.00000E+00
 -1       141 1.13158E+02 7.51083E+00 0.00000E+00
 -1       142 1.11989E+02 6.69427E+00 0.00000E+00
 -1       143 1.10660E+02 6.12546E+00 0.00000E+00
 -1       144 1.09077E+02 5.82858E+00 0.00000E+00
 -1       145 1.07656E+02 5.87343E+00 0.00000E+00
 -1       146 1.05999E+02 6.30680E+00 0.00000E+00
 -1       147 1.04590E+02 7.06421E+00 0.00000E+00
 -1       148 1.03468E+02 8.03603E+00 0.00000E+00
 -1       149 1.02591E+02 9.19840E+00 0.00000E+00
 -1       150 1.01935E+02 1.06277E+01 0.00000E+00
 -1       151 1.01627E+02 1.20532E+01 0.00000E+00
 -1       152 1.01636E+02 1.36487E+01 0.00000E+00
 -1       153 1.01951E+02 1.50425E+01 0.00000E+00
 -1       154 1.02618E+02 1.64690E+01 0.00000E+00
 -1       155 1.03482E+02 1.76017E+01 0.00000E+00
 -1       156 1.04608E+02 1.85711E+01 0.00000E+00
 -1       157 1.05834E+02 1.92478E+01 0.00000E+00
 -1       158 1.07259E+02 1.96845E+01 0.00000E+00
 -1       159 1.08717E+02 1.98101E+01 0.00000E+00
 -1       160 1.10162E+02 1.96316E+01 0.00000E+00
 -1       161 1.12943E+02 1.82900E+01 0.00000E+00
 -1       162 1.14058E+02 1.71773E+01 0.00000E+00
 -1       163 1.14898E+02 1.58382E+01 0.00000E+00
 -1       164 1.15405E+02 1.43943E+01 0.00000E+00
 -1       165 2.59800E+00 4.55750E+01 0.00000E+00
 -1       166 2.59800E+00 4.26250E+01 0.00000E+00
 -1       167 2.59800E+00 3.96750E+01 0.00000E+00
 -1       168 2.59800E+00 3.67250E+01 0.00000E+00
 -1       169 2.59800E+00 3.38250E+01 0.00000E+00
 -1       170 2.59800E+00 3.08750E+01 0.00000E+00
 -1       171 2.59800E+00 2.79250E+01 0.00000E+00
 -1       172 2.59800E+00 2.49750E+01 0.00000E+00
 -1       173 2.59800E+00 2.20250E+01 0.00000E+00
 -1       174 2.59800E+00 1.90750E+01 0.00000E+00
 -1       175 2.59800E+00 1.61750E+01 0.00000E+00
 -1       176 2.59800E+00 1.32250E+01 0.00000E+00
 -1       177 2.59800E+00 1.02750E+01 0.00000E+00
 -1       178 2.59800E+00 7.32500E+00 0.00000E+00
 -1       179 2.59800E+00 4.37500E+00 0.00000E+00
 -1       180 4.65000E+00 4.74020E+01 0.00000E+00
 -1       181 7.65000E+00 4.74020E+01 0.00000E+00
 -1       182 1.06500E+01 4.74020E+01 0.00000E+00
 -1       183 1.36500E+01 4.74020E+01 0.00000E+00
 -1       184 1.66500E+01 4.74020E+01 0.00000E+00
 -1       185 1.96500E+01 4.74020E+01 0.00000E+00
 -1       186 2.26500E+01 4.74020E+01 0.00000E+00
 -1       187 2.56500E+01 4.74020E+01 0.00000E+00
 -1       188 2.86500E+01 4.74020E+01 0.00000E+00
 -1       189 3.16500E+01 4.74020E+01 0.00000E+00
 -1       190 3.46500E+01 4.74020E+01 0.00000E+00
 -1       191 3.76500E+01 4.74020E+01 0.00000E+00
 -1       192 4.06500E+01 4.74020E+01 0.00000E+00
 -1       193 4.36500E+01 4.74020E+01 0.00000E+00
 -1       194 4.66500E+01 4.74020E+01 0.00000E+00
 -1       195 4.96500E+01 4.74020E+01 0.00000E+00
 -1       196 5.26500E+01 4.74020E+01 0.00000E+00
 -1       197 5.56500E+01 4.74020E+01 0.00000E+00
 -1       198 5.86500E+01 4.74020E+01 0.00000E+00
 -1       199 6.16500E+01 4.74020E+01 0.00000E+00
 -1       200 6.46500E+01 4.74020E+01 0.00000E+00
 -1       201 6.76500E+01 4.74020E+01 0.00000E+00
 -1       202 7.06500E+01 4.74020E+01 0.00000E+00
 -1       203 7.36500E+01 4.74020E+01 0.00000E+00
 -1       204 7.66500E+01 4.74020E+01 0.00000E+00
 -1       205 7.96500E+01 4.74020E+01 0.00000E+00
 -1       206 8.26500E+01 4.74020E+01 0.00000E+00
 -1       207 8.56500E+01 4.74020E+01 0.00000E+00
 -1       208 8.86500E+01 4.74020E+01 0.00000E+00
 -1       209 9.16500E+01 4.74020E+01 0.00000E+00
 -1       210 9.46500E+01 4.74020E+01 0.00000E+00
 -1       211 9.76500E+01 4.74020E+01 0.00000E+00
 -1       212 1.00650E+02 4.74020E+01 0.00000E+00
 -1       213 1.03650E+02 4.74020E+01 0.00000E+00
 -1       214 1.06650E+02 4.74020E+01 0.00000E+00
 -1       215 1.09650E+02 4.74020E+01 0.00000E+00
 -1       216 1.12650E+02 4.74020E+01 0.00000E+00
 -1       217 1.15650E+02 4.74020E+01 0.00000E+00
 -1       218 1.18650E+02 4.74020E+01 0.00000E+00
 -1       219 1.21650E+02 4.74020E+01 0.00000E+00
 -1       220 1.24650E+02 4.74020E+01 0.00000E+00
 -1       221 1.27650E+02 4.74020E+01 0.00000E+00
 -1       222 1.30650E+02 4.74020E+01 0.00000E+00
 -1       223 1.33650E+02 4.74020E+01 0.00000E+00
 -1       224 1.36650E+02 4.74020E+01 0.00000E+00
 -1       225 1.39650E+02 4.74020E+01 0.00000E+00
 -1       226 1.42650E+02 4.74020E+01 0.00000E+00
 -1       227 1.45650E+02 4.74020E+01 0.00000E+00
 -1       228 4.50000E+00 2.59800E+00 0.00000E+00
 -1       229 7.50000E+00 2.59800E+00 0.00000E+00
 -1       230 1.05000E+01 2.59800E+00 0.00000E+00
 -1       231 1.35000E+01 2.59800E+00 0.00000E+00
 -1       232 1.65000E+01 2.59800E+00 0.00000E+00
 -1       233 1.95000E+01 2.59800E+00 0.00000E+00
 -1       234 2.25000E+01 2.59800E+00 0.00000E+00
 -1       235 2.55000E+01 2.59800E+00 0.00000E+00
 -1       236 2.83500E+01 2.59800E+00 0.00000E+00
 -1       237 3.13500E+01 2.59800E+00 0.00000E+00
 -1       238 3.43500E+01 2.59800E+00 0.00000E+00
 -1       239 3.73500E+01 2.59800E+00 0.00000E+00
 -1       240 4.03500E+01 2.59800E+00 0.00000E+00
 -1       241 4.33500E+01 2.59800E+00 0.00000E+00
 -1       242 4.63500E+01 2.59800E+00 0.00000E+00
 -1       243 4.93500E+01 2.59800E+00 0.00000E+00
 -1       244 5.23500E+01 2.59800E+00 0.00000E+00
 -1       245 5.53500E+01 2.59800E+00 0.00000E+00
 -1       246 5.82000E+01 2.59800E+00 0.00000E+00
 -1       247 6.12000E+01 2.59800E+00 0.00000E+00
 -1       248 6.42000E+01 2.59800E+00 0.00000E+00
 -1       249 6.72000E+01 2.59800E+00 0.00000E+00
 -1       250 7.02000E+01 2.59800E+00 0.00000E+00
 -1       251 7.32000E+01 2.59800E+00 0.00000E+00
 -1       252 7.62000E+01 2.59800E+00 0.00000E+00
 -1       253 7.92000E+01 2.59800E+00 0.00000E+00
 -1       254 8.22000E+01 2.59800E+00 0.00000E+00
 -1       255 8.52000E+01 2.59800E+00 0.00000E+00
 -1       256 8.80500E+01 2.59800E+00 0.00000E+00
 -1       257 9.10500E+01 2.59800E+00 0.00000E+00
 -1       258 9.40500E+01 2.59800E+00 0.00000E+00
 -1       259 9.70500E+01 2.59800E+00 0.00000E+00
 -1       260 9.97500E+01 2.59800E+00 0.00000E+00
 -1       261 1.02600E+02 2.59800E+00 0.00000E+00
 -1       262 1.05150E+02 2.59800E+00 0.00000E+00
 -1       263 1.07550E+02 2.59800E+00 0.00000E+00
 -1       264 1.10400E+02 2.59800E+00 0.00000E+00
 -1       265 1.15950E+02 2.38539E+00 0.00000E+00
 -1       266 1.18950E+02 2.38539E+00 0.00000E+00
 -1       267 1.21800E+02 2.38539E+00 0.00000E+00
 -1       268 1.24800E+02 2.38539E+00 0.00000E+00
 -1       269 1.27800E+02 2.38539E+00 0.00000E+00
 -1       270 1.30800E+02 2.38539E+00 0.00000E+00
 -1       271 1.33800E+02 2.38539E+00 0.00000E+00
 -1       272 1.36800E+02 2.38539E+00 0.00000E+00
 -1       273 1.39800E+02 2.38539E+00 0.00000E+00
 -1       274 1.42800E+02 2.38539E+00 0.00000E+00
 -1       275 1.45800E+02 2.38539E+00 0.00000E+00
 -1       276 1.47900E+02 2.66770E+00 0.00000E+00
 -1       277 1.47900E+02 5.61770E+00 0.00000E+00
 -1       278 1.47900E+02 8.56770E+00 0.00000E+00
 -1       279 1.47900E+02 1.15177E+01 0.00000E+00
 -1       280 1.47900E+02 1.44677E+01 0.00000E+00
 -1       281 1.47900E+02 1.73677E+01 0.00000E+00
 -1       282 1.47900E+02 2.03177E+01 0.00000E+00
 -1       283 1.47900E+02 2.32677E+01 0.00000E+00
 -1       284 1.47900E+02 2.62177E+01 0.00000E+00
 -1       285 1.47900E+02 2.91677E+01 0.00000E+00
 -1       286 1.47900E+02 3.21177E+01 0.00000E+00
 -1       287 1.47900E+02 3.50177E+01 0.00000E+00
 -1       288 1.47900E+02 3.79677E+01 0.00000E+00
 -1       289 1.47900E+02 4.09177E+01 0.00000E+00
 -1       290 1.47900E+02 4.38677E+01 0.00000E+00
 -1       291 1.16953E+02 1.18674E+01 0.00000E+00
 -1       292 1.16475E+02 1.01032E+01 0.00000E+00
 -1       293 1.15704E+02 8.47108E+00 0.00000E+00
 -1       294 1.14520E+02 7.18538E+00 0.00000E+00
 -1       295 1.13268E+02 6.10862E+00 0.00000E+00
 -1       296 1.11801E+02 5.29517E+00 0.00000E+00
 -1       297 1.10154E+02 4.45602E+00 0.00000E+00
 -1       298 1.08326E+02 4.55546E+00 0.00000E+00
 -1       299 1.06478E+02 4.75508E+00 0.00000E+00
 -1       300 1.04602E+02 5.39609E+00 0.00000E+00
 -1       301 1.03180E+02 6.57038E+00 0.00000E+00
 -1       302 1.02061E+02 7.88683E+00 0.00000E+00
 -1       303 1.00932E+02 9.30312E+00 0.00000E+00
 -1       304 1.00596E+02 1.10843E+01 0.00000E+00
 -1       305 1.00168E+02 1.28593E+01 0.00000E+00
 -1       306 1.00529E+02 1.46311E+01 0.00000E+00
 -1       307 1.00958E+02 1.63754E+01 0.00000E+00
 -1       308 1.02086E+02 1.77708E+01 0.00000E+00
 -1       309 1.03254E+02 1.90052E+01 0.00000E+00
 -1       310 1.04635E+02 1.99710E+01 0.00000E+00
 -1       311 1.06143E+02 2.07856E+01 0.00000E+00
 -1       312 1.07877E+02 2.10387E+01 0.00000E+00
 -1       313 1.09608E+02 2.10904E+01 0.00000E+00
 -1       314 1.11411E+02 2.08323E+01 0.00000E+00
 -1       315 1.12933E+02 1.97284E+01 0.00000E+00
 -1       316 1.14357E+02 1.85917E+01 0.00000E+00
 -1       317 1.15647E+02 1.72412E+01 0.00000E+00
 -1       318 1.16295E+02 1.55179E+01 0.00000E+00
 -1       319 1.16866E+02 1.37599E+01 0.00000E+00
 -1       320 1.13250E+02 2.38539E+00 0.00000E+00
 -1       321 1.47402E+02 4.56250E+01 0.00000E+00
 -1       322 5.19600E+00 4.11500E+01 0.00000E+00
 -1       323 5.19600E+00 4.41000E+01 0.00000E+00
 -1       324 5.19600E+00 3.52750E+01 0.00000E+00
 -1       325 5.19600E+00 3.23250E+01 0.00000E+00
 -1       326 5.19600E+00 2.93750E+01 0.00000E+00
 -1       327 5.19600E+00 2.64250E+01 0.00000E+00
 -1       328 5.19600E+00 2.34750E+01 0.00000E+00
 -1       329 5.19600E+00 2.05250E+01 0.00000E+00
 -1       330 5.19600E+00 1.76250E+01 0.00000E+00
 -1       331 5.19600E+00 1.46750E+01 0.00000E+00
 -1       332 5.19600E+00 1.17250E+01 0.00000E+00
 -1       333 5.19600E+00 8.77500E+00 0.00000E+00
 -1       334 5.19600E+00 5.82500E+00 0.00000E+00
 -1       335 1.14600E+02 4.26807E+00 0.00000E+00
 -1       336 1.17337E+02 8.69788E+00 0.00000E+00
 -1       337 9.15000E+00 4.48040E+01 0.00000E+00
 -1       338 1.21500E+01 4.48040E+01 0.00000E+00
 -1       339 1.51500E+01 4.48040E+01 0.00000E+00
 -1       340 1.81500E+01 4.48040E+01 0.00000E+00
 -1       341 2.11500E+01 4.48040E+01 0.00000E+00
 -1       342 2.41500E+01 4.48040E+01 0.00000E+00
 -1       343 2.71500E+01 4.48040E+01 0.00000E+00
 -1       344 3.01500E+01 4.48040E+01 0.00000E+00
 -1       345 3.31500E+01 4.48040E+01 0.00000E+00
 -1       346 3.61500E+01 4.48040E+01 0.00000E+00
 -1       347 3.91500E+01 4.48040E+01 0.00000E+00
 -1       348 4.21500E+01 4.48040E+01 0.00000E+00
 -1       349 4.51500E+01 4.48040E+01 0.00000E+00
 -1       350 4.81500E+01 4.48040E+01 0.00000E+00
 -1       351 5.11500E+01 4.48040E+01 0.00000E+00
 -1       352 5.41500E+01 4.48040E+01 0.00000E+00
 -1       353 5.71500E+01 4.48040E+01 0.00000E+00
 -1       354 6.01500E+01 4.48040E+01 0.00000E+00
 -1       355 6.31500E+01 4.48040E+01 0.00000E+00
 -1       356 6.61500E+01 4.48040E+01 0.00000E+00
 -1       357 6.91500E+01 4.48040E+01 0.00000E+00
 -1       358 7.21500E+01 4.48040E+01 0.00000E+00
 -1       359 7.51500E+01 4.48040E+01 0.00000E+00
 -1       360 7.81500E+01 4.48040E+01 0.00000E+00
 -1       361 8.11500E+01 4.48040E+01 0.00000E+00
 -1       362 8.41500E+01 4.48040E+01 0.00000E+00
 -1       363 8.71500E+01 4.48040E+01 0.00000E+00
 -1       364 9.01500E+01 4.48040E+01 0.00000E+00
 -1       365 9.31500E+01 4.48040E+01 0.00000E+00
 -1       366 9.61500E+01 4.48040E+01 0.00000E+00
 -1       367 9.91500E+01 4.48040E+01 0.00000E+00
 -1       368 1.02150E+02 4.48040E+01 0.00000E+00
 -1       369 1.05150E+02 4.48040E+01 0.00000E+00
 -1       370 1.08150E+02 4.48040E+01 0.00000E+00
 -1       371 1.11150E+02 4.48040E+01 0.00000E+00
 -1       372 1.14150E+02 4.48040E+01 0.00000E+00
 -1       373 1.17150E+02 4.48040E+01 0.00000E+00
 -1       374 1.20150E+02 4.48040E+01 0.00000E+00
 -1       375 1.23150E+02 4.48040E+01 0.00000E+00
 -1       376 1.26150E+02 4.48040E+01 0.00000E+00
 -1       377 1.29150E+02 4.48040E+01 0.00000E+00
 -1       378 1.32150E+02 4.48040E+01 0.00000E+00
 -1       379 1.35150E+02 4.48040E+01 0.00000E+00
 -1       380 1.38150E+02 4.48040E+01 0.00000E+00
 -1       381 1.41150E+02 4.48040E+01 0.00000E+00
 -1       382 1.44150E+02 4.48040E+01 0.00000E+00
 -1       383 1.23300E+02 4.98339E+00 0.00000E+00
 -1       384 1.20000E+01 5.19600E+00 0.00000E+00
 -1       385 9.00000E+00 5.19600E+00 0.00000E+00
 -1       386 1.50000E+01 5.19600E+00 0.00000E+00
 -1       387 1.80000E+01 5.19600E+00 0.00000E+00
 -1       388 2.10000E+01 5.19600E+00 0.00000E+00
 -1       389 2.40000E+01 5.19600E+00 0.00000E+00
 -1       390 2.68500E+01 5.19600E+00 0.00000E+00
 -1       391 2.98500E+01 5.19600E+00 0.00000E+00
 -1       392 3.28500E+01 5.19600E+00 0.00000E+00
 -1       393 3.58500E+01 5.19600E+00 0.00000E+00
 -1       394 3.88500E+01 5.19600E+00 0.00000E+00
 -1       395 4.18500E+01 5.19600E+00 0.00000E+00
 -1       396 4.48500E+01 5.19600E+00 0.00000E+00
 -1       397 4.78500E+01 5.19600E+00 0.00000E+00
 -1       398 5.08500E+01 5.19600E+00 0.00000E+00
 -1       399 5.38500E+01 5.19600E+00 0.00000E+00
 -1       400 5.67000E+01 5.19600E+00 0.00000E+00
 -1       401 5.97000E+01 5.19600E+00 0.00000E+00
 -1       402 6.27000E+01 5.19600E+00 0.00000E+00
 -1       403 6.57000E+01 5.19600E+00 0.00000E+00
 -1       404 6.87000E+01 5.19600E+00 0.00000E+00
 -1       405 7.17000E+01 5.19600E+00 0.00000E+00
 -1       406 7.47000E+01 5.19600E+00 0.00000E+00
 -1       407 7.77000E+01 5.19600E+00 0.00000E+00
 -1       408 8.07000E+01 5.19600E+00 0.00000E+00
 -1       409 8.37000E+01 5.19600E+00 0.00000E+00
 -1       410 8.65500E+01 5.19600E+00 0.00000E+00
 -1       411 8.95500E+01 5.19600E+00 0.00000E+00
 -1       412 9.25500E+01 5.19600E+00 0.00000E+00
 -1       413 9.55500E+01 5.19600E+00 0.00000E+00
 -1       414 9.82500E+01 5.19600E+00 0.00000E+00
 -1       415 1.01175E+02 4.64825E+00 0.00000E+00
 -1       416 1.03875E+02 4.31311E+00 0.00000E+00
 -1       417 1.20450E+02 4.98339E+00 0.00000E+00
 -1       418 1.17450E+02 4.98339E+00 0.00000E+00
 -1       419 1.26300E+02 4.98339E+00 0.00000E+00
 -1       420 1.29300E+02 4.98339E+00 0.00000E+00
 -1       421 1.32300E+02 4.98339E+00 0.00000E+00
 -1       422 1.35300E+02 4.98339E+00 0.00000E+00
 -1       423 1.38300E+02 4.98339E+00 0.00000E+00
 -1       424 1.41300E+02 4.98339E+00 0.00000E+00
 -1       425 1.44300E+02 4.98339E+00 0.00000E+00
 -1       426 1.46100E+02 5.30055E+00 0.00000E+00
 -1       427 1.45302E+02 1.00427E+01 0.00000E+00
 -1       428 1.45701E+02 7.67162E+00 0.00000E+00
 -1       429 1.45302E+02 1.29927E+01 0.00000E+00
 -1       430 1.45302E+02 1.58927E+01 0.00000E+00
 -1       431 1.45302E+02 1.88427E+01 0.00000E+00
 -1       432 1.45302E+02 2.17927E+01 0.00000E+00
 -1       433 1.45302E+02 2.47427E+01 0.00000E+00
 -1       434 1.45302E+02 2.76927E+01 0.00000E+00
 -1       435 1.45302E+02 3.06427E+01 0.00000E+00
 -1       436 1.45302E+02 3.35427E+01 0.00000E+00
 -1       437 1.45302E+02 3.64927E+01 0.00000E+00
 -1       438 1.45302E+02 3.94427E+01 0.00000E+00
 -1       439 1.45302E+02 4.23927E+01 0.00000E+00
 -1       440 1.16066E+02 6.95024E+00 0.00000E+00
 -1       441 1.18204E+02 1.28726E+01 0.00000E+00
 -1       442 5.19600E+00 3.82125E+01 0.00000E+00
 -1       443 1.14903E+02 5.47357E+00 0.00000E+00
 -1       444 1.13204E+02 4.49508E+00 0.00000E+00
 -1       445 1.11566E+02 3.72059E+00 0.00000E+00
 -1       446 1.01505E+02 6.28076E+00 0.00000E+00
 -1       447 1.00376E+02 7.69704E+00 0.00000E+00
 -1       448 9.90789E+01 9.87576E+00 0.00000E+00
 -1       449 9.86507E+01 1.16507E+01 0.00000E+00
 -1       450 9.90787E+01 1.40042E+01 0.00000E+00
 -1       451 9.95076E+01 1.57485E+01 0.00000E+00
 -1       452 1.00188E+02 1.81511E+01 0.00000E+00
 -1       453 1.01356E+02 1.93855E+01 0.00000E+00
 -1       454 1.03058E+02 2.07564E+01 0.00000E+00
 -1       455 1.04565E+02 2.15710E+01 0.00000E+00
 -1       456 1.06822E+02 2.21947E+01 0.00000E+00
 -1       457 1.08694E+02 2.26952E+01 0.00000E+00
 -1       458 1.10717E+02 2.24104E+01 0.00000E+00
 -1       459 1.12933E+02 2.13295E+01 0.00000E+00
 -1       460 1.14506E+02 2.02386E+01 0.00000E+00
 -1       461 1.16121E+02 1.89852E+01 0.00000E+00
 -1       462 1.17419E+02 1.69246E+01 0.00000E+00
 -1       463 1.17991E+02 1.51666E+01 0.00000E+00
 -1       464 1.18127E+02 1.06027E+01 0.00000E+00
 -1       465 1.12239E+02 2.29075E+01 0.00000E+00
 -1       466 1.19555E+02 1.41555E+01 0.00000E+00
 -1       467 7.79400E+00 3.08500E+01 0.00000E+00
 -1       468 7.79400E+00 3.38000E+01 0.00000E+00
 -1       469 7.79400E+00 2.49500E+01 0.00000E+00
 -1       470 7.79400E+00 2.20000E+01 0.00000E+00
 -1       471 7.79400E+00 1.91000E+01 0.00000E+00
 -1       472 7.79400E+00 1.61500E+01 0.00000E+00
 -1       473 7.79400E+00 1.32000E+01 0.00000E+00
 -1       474 7.79400E+00 1.02500E+01 0.00000E+00
 -1       475 8.39700E+00 7.72300E+00 0.00000E+00
 -1       476 1.19796E+02 1.16818E+01 0.00000E+00
 -1       477 1.06500E+01 4.22060E+01 0.00000E+00
 -1       478 1.36500E+01 4.22060E+01 0.00000E+00
 -1       479 1.66500E+01 4.22060E+01 0.00000E+00
 -1       480 1.96500E+01 4.22060E+01 0.00000E+00
 -1       481 2.26500E+01 4.22060E+01 0.00000E+00
 -1       482 2.56500E+01 4.22060E+01 0.00000E+00
 -1       483 2.86500E+01 4.22060E+01 0.00000E+00
 -1       484 3.16500E+01 4.22060E+01 0.00000E+00
 -1       485 3.46500E+01 4.22060E+01 0.00000E+00
 -1       486 3.76500E+01 4.22060E+01 0.00000E+00
 -1       487 4.06500E+01 4.22060E+01 0.00000E+00
 -1       488 4.36500E+01 4.22060E+01 0.00000E+00
 -1       489 4.66500E+01 4.22060E+01 0.00000E+00
 -1       490 4.96500E+01 4.22060E+01 0.00000E+00
 -1       491 5.26500E+01 4.22060E+01 0.00000E+00
 -1       492 5.56500E+01 4.22060E+01 0.00000E+00
 -1       493 5.86500E+01 4.22060E+01 0.00000E+00
 -1       494 6.16500E+01 4.22060E+01 0.00000E+00
 -1       495 6.46500E+01 4.22060E+01 0.00000E+00
 -1       496 6.76500E+01 4.22060E+01 0.00000E+00
 -1       497 7.06500E+01 4.22060E+01 0.00000E+00
 -1       498 7.36500E+01 4.22060E+01 0.00000E+00
 -1       499 7.66500E+01 4.22060E+01 0.00000E+00
 -1       500 7.96500E+01 4.22060E+01 0.00000E+00
 -1       501 8.26500E+01 4.22060E+01 0.00000E+00
 -1       502 8.56500E+01 4.22060E+01 0.00000E+00
 -1       503 8.86500E+01 4.22060E+01 0.00000E+00
 -1       504 9.16500E+01 4.22060E+01 0.00000E+00
 -1       505 9.46500E+01 4.22060E+01 0.00000E+00
 -1       506 9.76500E+01 4.22060E+01 0.00000E+00
 -1       507 1.00650E+02 4.22060E+01 0.00000E+00
 -1       508 1.03650E+02 4.22060E+01 0.00000E+00
 -1       509 1.06650E+02 4.22060E+01 0.00000E+00
 -1       510 1.09650E+02 4.22060E+01 0.00000E+00
 -1       511 1.12650E+02 4.22060E+01 0.00000E+00
 -1       512 1.15650E+02 4.22060E+01 0.00000E+00
 -1       513 1.18650E+02 4.22060E+01 0.00000E+00
 -1       514 1.21650E+02 4.22060E+01 0.00000E+00
 -1       515 1.24650E+02 4.22060E+01 0.00000E+00
 -1       516 1.27650E+02 4.22060E+01 0.00000E+00
 -1       517 1.30650E+02 4.22060E+01 0.00000E+00
 -1       518 1.33650E+02 4.22060E+01 0.00000E+00
 -1       519 1.36650E+02 4.22060E+01 0.00000E+00
 -1       520 1.39650E+02 4.22060E+01 0.00000E+00
 -1       521 1.42476E+02 4.22993E+01 0.00000E+00
 -1       522 1.27800E+02 7.58139E+00 0.00000E+00
 -1       523 1.35000E+01 7.79400E+00 0.00000E+00
 -1       524 1.95000E+01 7.79400E+00 0.00000E+00
 -1       525 2.25000E+01 7.79400E+00 0.00000E+00
 -1       526 2.53500E+01 7.79400E+00 0.00000E+00
 -1       527 2.83500E+01 7.79400E+00 0.00000E+00
 -1       528 3.13500E+01 7.79400E+00 0.00000E+00
 -1       529 3.43500E+01 7.79400E+00 0.00000E+00
 -1       530 3.73500E+01 7.79400E+00 0.00000E+00
 -1       531 4.03500E+01 7.79400E+00 0.00000E+00
 -1       532 4.33500E+01 7.79400E+00 0.00000E+00
 -1       533 4.63500E+01 7.79400E+00 0.00000E+00
 -1       534 4.93500E+01 7.79400E+00 0.00000E+00
 -1       535 5.23500E+01 7.79400E+00 0.00000E+00
 -1       536 5.52000E+01 7.79400E+00 0.00000E+00
 -1       537 5.82000E+01 7.79400E+00 0.00000E+00
 -1       538 6.12000E+01 7.79400E+00 0.00000E+00
 -1       539 6.42000E+01 7.79400E+00 0.00000E+00
 -1       540 6.72000E+01 7.79400E+00 0.00000E+00
 -1       541 7.02000E+01 7.79400E+00 0.00000E+00
 -1       542 7.32000E+01 7.79400E+00 0.00000E+00
 -1       543 7.62000E+01 7.79400E+00 0.00000E+00
 -1       544 7.92000E+01 7.79400E+00 0.00000E+00
 -1       545 8.22000E+01 7.79400E+00 0.00000E+00
 -1       546 8.50500E+01 7.79400E+00 0.00000E+00
 -1       547 8.80500E+01 7.79400E+00 0.00000E+00
 -1       548 9.10500E+01 7.79400E+00 0.00000E+00
 -1       549 9.40500E+01 7.79400E+00 0.00000E+00
 -1       550 9.67500E+01 7.79400E+00 0.00000E+00
 -1       551 1.07315E+02 2.41018E+01 0.00000E+00
 -1       552 1.24800E+02 7.58139E+00 0.00000E+00
 -1       553 1.18950E+02 7.03365E+00 0.00000E+00
 -1       554 1.30800E+02 7.58139E+00 0.00000E+00
 -1       555 1.33800E+02 7.58139E+00 0.00000E+00
 -1       556 1.36800E+02 7.58139E+00 0.00000E+00
 -1       557 1.39800E+02 7.58139E+00 0.00000E+00
 -1       558 1.43901E+02 7.35447E+00 0.00000E+00
 -1       559 1.42704E+02 1.44427E+01 0.00000E+00
 -1       560 1.42704E+02 1.73927E+01 0.00000E+00
 -1       561 1.42704E+02 1.14927E+01 0.00000E+00
 -1       562 1.42704E+02 2.03427E+01 0.00000E+00
 -1       563 1.42704E+02 2.32927E+01 0.00000E+00
 -1       564 1.42704E+02 2.62427E+01 0.00000E+00
 -1       565 1.42704E+02 2.91927E+01 0.00000E+00
 -1       566 1.42704E+02 3.20927E+01 0.00000E+00
 -1       567 1.42704E+02 3.50427E+01 0.00000E+00
 -1       568 1.42704E+02 3.79927E+01 0.00000E+00
 -1       569 7.92300E+00 4.16780E+01 0.00000E+00
 -1       570 1.18363E+02 1.89585E+01 0.00000E+00
 -1       571 1.21950E+02 7.58139E+00 0.00000E+00
 -1       572 1.09485E+01 7.75850E+00 0.00000E+00
 -1       573 1.65000E+01 7.79400E+00 0.00000E+00
 -1       574 7.79400E+00 2.79000E+01 0.00000E+00
 -1       575 1.19316E+02 8.99375E+00 0.00000E+00
 -1       576 9.97308E+01 6.02417E+00 0.00000E+00
 -1       577 9.84699E+01 8.03752E+00 0.00000E+00
 -1       578 9.72790E+01 1.03807E+01 0.00000E+00
 -1       579 9.72597E+01 1.31194E+01 0.00000E+00
 -1       580 9.78718E+01 1.52259E+01 0.00000E+00
 -1       581 9.81977E+01 1.74172E+01 0.00000E+00
 -1       582 9.96480E+01 1.98319E+01 0.00000E+00
 -1       583 1.01236E+02 2.12761E+01 0.00000E+00
 -1       584 1.02916E+02 2.28200E+01 0.00000E+00
 -1       585 1.05116E+02 2.34609E+01 0.00000E+00
 -1       586 1.09991E+02 2.45830E+01 0.00000E+00
 -1       587 1.14602E+02 2.20556E+01 0.00000E+00
 -1       588 1.16365E+02 2.09669E+01 0.00000E+00
 -1       589 1.19336E+02 1.65756E+01 0.00000E+00
 -1       590 7.79400E+00 3.67375E+01 0.00000E+00
 -1       591 1.13908E+02 2.36336E+01 0.00000E+00
 -1       592 1.11513E+02 2.50802E+01 0.00000E+00
 -1       593 9.76576E+01 1.90980E+01 0.00000E+00
 -1       594 1.03920E+01 2.05500E+01 0.00000E+00
 -1       595 1.03920E+01 2.35000E+01 0.00000E+00
 -1       596 1.03920E+01 1.46750E+01 0.00000E+00
 -1       597 1.03920E+01 1.17250E+01 0.00000E+00
 -1       598 1.06702E+01 9.74175E+00 0.00000E+00
 -1       599 1.80000E+01 1.03920E+01 0.00000E+00
 -1       600 9.78035E+00 3.93914E+01 0.00000E+00
 -1       601 1.27804E+01 3.93914E+01 0.00000E+00
 -1       602 1.57804E+01 3.93914E+01 0.00000E+00
 -1       603 1.87804E+01 3.93914E+01 0.00000E+00
 -1       604 2.17804E+01 3.93914E+01 0.00000E+00
 -1       605 2.47804E+01 3.93914E+01 0.00000E+00
 -1       606 2.77804E+01 3.93914E+01 0.00000E+00
 -1       607 3.07804E+01 3.93914E+01 0.00000E+00
 -1       608 3.37803E+01 3.93914E+01 0.00000E+00
 -1       609 3.67803E+01 3.93914E+01 0.00000E+00
 -1       610 3.97803E+01 3.93914E+01 0.00000E+00
 -1       611 4.27803E+01 3.93914E+01 0.00000E+00
 -1       612 4.57803E+01 3.93914E+01 0.00000E+00
 -1       613 4.87803E+01 3.93914E+01 0.00000E+00
 -1       614 5.17803E+01 3.93914E+01 0.00000E+00
 -1       615 5.47803E+01 3.93914E+01 0.00000E+00
 -1       616 5.77803E+01 3.93914E+01 0.00000E+00
 -1       617 6.07803E+01 3.93914E+01 0.00000E+00
 -1       618 6.37803E+01 3.93914E+01 0.00000E+00
 -1       619 6.67803E+01 3.93914E+01 0.00000E+00
 -1       620 6.97803E+01 3.93914E+01 0.00000E+00
 -1       621 7.27803E+01 3.93914E+01 0.00000E+00
 -1       622 7.57803E+01 3.93914E+01 0.00000E+00
 -1       623 7.87803E+01 3.93914E+01 0.00000E+00
 -1       624 8.17803E+01 3.93914E+01 0.00000E+00
 -1       625 8.47803E+01 3.93914E+01 0.00000E+00
 -1       626 8.77803E+01 3.93914E+01 0.00000E+00
 -1       627 9.07803E+01 3.93914E+01 0.00000E+00
 -1       628 9.37803E+01 3.93914E+01 0.00000E+00
 -1       629 9.67803E+01 3.93914E+01 0.00000E+00
 -1       630 9.97803E+01 3.93914E+01 0.00000E+00
 -1       631 1.02780E+02 3.93914E+01 0.00000E+00
 -1       632 1.05780E+02 3.93914E+01 0.00000E+00
 -1       633 1.08780E+02 3.93914E+01 0.00000E+00
 -1       634 1.11780E+02 3.93914E+01 0.00000E+00
 -1       635 1.14780E+02 3.93914E+01 0.00000E+00
 -1       636 1.17780E+02 3.93914E+01 0.00000E+00
 -1       637 1.20780E+02 3.93914E+01 0.00000E+00
 -1       638 1.23780E+02 3.93914E+01 0.00000E+00
 -1       639 1.26780E+02 3.93914E+01 0.00000E+00
 -1       640 1.29780E+02 3.93914E+01 0.00000E+00
 -1       641 1.32780E+02 3.93914E+01 0.00000E+00
 -1       642 1.35780E+02 3.93914E+01 0.00000E+00
 -1       643 1.38780E+02 3.93914E+01 0.00000E+00
 -1       644 1.08320E+02 2.61954E+01 0.00000E+00
 -1       645 2.10000E+01 1.03920E+01 0.00000E+00
 -1       646 2.98500E+01 1.03920E+01 0.00000E+00
 -1       647 3.28500E+01 1.03920E+01 0.00000E+00
 -1       648 3.58500E+01 1.03920E+01 0.00000E+00
 -1       649 3.88500E+01 1.03920E+01 0.00000E+00
 -1       650 4.18500E+01 1.03920E+01 0.00000E+00
 -1       651 4.48500E+01 1.03920E+01 0.00000E+00
 -1       652 4.78500E+01 1.03920E+01 0.00000E+00
 -1       653 5.08500E+01 1.03920E+01 0.00000E+00
 -1       654 5.37000E+01 1.03920E+01 0.00000E+00
 -1       655 5.67000E+01 1.03920E+01 0.00000E+00
 -1       656 5.97000E+01 1.03920E+01 0.00000E+00
 -1       657 6.27000E+01 1.03920E+01 0.00000E+00
 -1       658 6.57000E+01 1.03920E+01 0.00000E+00
 -1       659 6.87000E+01 1.03920E+01 0.00000E+00
 -1       660 7.17000E+01 1.03920E+01 0.00000E+00
 -1       661 7.47000E+01 1.03920E+01 0.00000E+00
 -1       662 7.77000E+01 1.03920E+01 0.00000E+00
 -1       663 8.07000E+01 1.03920E+01 0.00000E+00
 -1       664 8.35500E+01 1.03920E+01 0.00000E+00
 -1       665 8.65500E+01 1.03920E+01 0.00000E+00
 -1       666 8.95500E+01 1.03920E+01 0.00000E+00
 -1       667 9.25500E+01 1.03920E+01 0.00000E+00
 -1       668 1.29300E+02 1.01794E+01 0.00000E+00
 -1       669 1.38300E+02 1.01794E+01 0.00000E+00
 -1       670 1.40106E+02 1.59177E+01 0.00000E+00
 -1       671 1.40106E+02 1.29677E+01 0.00000E+00
 -1       672 1.40106E+02 1.88677E+01 0.00000E+00
 -1       673 1.40106E+02 2.47677E+01 0.00000E+00
 -1       674 1.40106E+02 2.77177E+01 0.00000E+00
 -1       675 1.40106E+02 3.06177E+01 0.00000E+00
 -1       676 1.40106E+02 3.35677E+01 0.00000E+00
 -1       677 1.40106E+02 3.65177E+01 0.00000E+00
 -1       678 9.50516E+01 1.17344E+01 0.00000E+00
 -1       679 1.21654E+02 1.55652E+01 0.00000E+00
 -1       680 1.32300E+02 1.01794E+01 0.00000E+00
 -1       681 1.23375E+02 9.96679E+00 0.00000E+00
 -1       682 1.20437E+02 1.84154E+01 0.00000E+00
 -1       683 1.03920E+01 1.76125E+01 0.00000E+00
 -1       684 1.40106E+02 2.18177E+01 0.00000E+00
 -1       685 1.35300E+02 1.01794E+01 0.00000E+00
 -1       686 2.68500E+01 1.03920E+01 0.00000E+00
 -1       687 1.26300E+02 1.01794E+01 0.00000E+00
 -1       688 2.39250E+01 1.03920E+01 0.00000E+00
 -1       689 1.03920E+01 3.23250E+01 0.00000E+00
 -1       690 9.57578E+01 1.46979E+01 0.00000E+00
 -1       691 9.60838E+01 1.68892E+01 0.00000E+00
 -1       692 9.91756E+01 2.19469E+01 0.00000E+00
 -1       693 1.50000E+01 1.03920E+01 0.00000E+00
 -1       694 1.18580E+02 2.11724E+01 0.00000E+00
 -1       695 1.00856E+02 2.34908E+01 0.00000E+00
 -1       696 1.21895E+02 1.30915E+01 0.00000E+00
 -1       697 1.16560E+02 2.32558E+01 0.00000E+00
 -1       698 1.21585E+02 1.08243E+01 0.00000E+00
 -1       699 1.03920E+01 3.52625E+01 0.00000E+00
 -1       700 1.03920E+01 2.64500E+01 0.00000E+00
 -1       701 1.09842E+02 2.66926E+01 0.00000E+00
 -1       702 1.03920E+01 2.93875E+01 0.00000E+00
 -1       703 1.06120E+02 2.59634E+01 0.00000E+00
 -1       704 9.71851E+01 2.12130E+01 0.00000E+00
 -1       705 1.20654E+02 2.06293E+01 0.00000E+00
 -1       706 1.28351E+01 1.00669E+01 0.00000E+00
 -1       707 1.02469E+02 2.49456E+01 0.00000E+00
 -1       708 1.29900E+01 1.32000E+01 0.00000E+00
 -1       709 1.37508E+02 3.20927E+01 0.00000E+00
 -1       710 3.73500E+01 1.29900E+01 0.00000E+00
 -1       711 1.42804E+01 3.67934E+01 0.00000E+00
 -1       712 1.72804E+01 3.67934E+01 0.00000E+00
 -1       713 2.02804E+01 3.67934E+01 0.00000E+00
 -1       714 2.32804E+01 3.67934E+01 0.00000E+00
 -1       715 2.62804E+01 3.67934E+01 0.00000E+00
 -1       716 2.92804E+01 3.67934E+01 0.00000E+00
 -1       717 3.22803E+01 3.67934E+01 0.00000E+00
 -1       718 3.52803E+01 3.67934E+01 0.00000E+00
 -1       719 3.82803E+01 3.67934E+01 0.00000E+00
 -1       720 4.12803E+01 3.67934E+01 0.00000E+00
 -1       721 4.42803E+01 3.67934E+01 0.00000E+00
 -1       722 4.72803E+01 3.67934E+01 0.00000E+00
 -1       723 5.02803E+01 3.67934E+01 0.00000E+00
 -1       724 5.32803E+01 3.67934E+01 0.00000E+00
 -1       725 5.62803E+01 3.67934E+01 0.00000E+00
 -1       726 5.92803E+01 3.67934E+01 0.00000E+00
 -1       727 6.22803E+01 3.67934E+01 0.00000E+00
 -1       728 6.52803E+01 3.67934E+01 0.00000E+00
 -1       729 6.82803E+01 3.67934E+01 0.00000E+00
 -1       730 7.12803E+01 3.67934E+01 0.00000E+00
 -1       731 7.42803E+01 3.67934E+01 0.00000E+00
 -1       732 7.72803E+01 3.67934E+01 0.00000E+00
 -1       733 8.02803E+01 3.67934E+01 0.00000E+00
 -1       734 8.32803E+01 3.67934E+01 0.00000E+00
 -1       735 8.62803E+01 3.67934E+01 0.00000E+00
 -1       736 8.92803E+01 3.67934E+01 0.00000E+00
 -1       737 9.22803E+01 3.67934E+01 0.00000E+00
 -1       738 9.52803E+01 3.67934E+01 0.00000E+00
 -1       739 9.82803E+01 3.67934E+01 0.00000E+00
 -1       740 1.01280E+02 3.67934E+01 0.00000E+00
 -1       741 1.04280E+02 3.67934E+01 0.00000E+00
 -1       742 1.07280E+02 3.67934E+01 0.00000E+00
 -1       743 1.10280E+02 3.67934E+01 0.00000E+00
 -1       744 1.13280E+02 3.67934E+01 0.00000E+00
 -1       745 1.16280E+02 3.67934E+01 0.00000E+00
 -1       746 1.19280E+02 3.67934E+01 0.00000E+00
 -1       747 1.22280E+02 3.67934E+01 0.00000E+00
 -1       748 1.25280E+02 3.67934E+01 0.00000E+00
 -1       749 1.28280E+02 3.67934E+01 0.00000E+00
 -1       750 1.31280E+02 3.67934E+01 0.00000E+00
 -1       751 1.34280E+02 3.67934E+01 0.00000E+00
 -1       752 1.37193E+02 3.66555E+01 0.00000E+00
 -1       753 1.37022E+02 1.29859E+01 0.00000E+00
 -1       754 1.95000E+01 1.29900E+01 0.00000E+00
 -1       755 3.43500E+01 1.29900E+01 0.00000E+00
 -1       756 3.13500E+01 1.29900E+01 0.00000E+00
 -1       757 4.03500E+01 1.29900E+01 0.00000E+00
 -1       758 4.33500E+01 1.29900E+01 0.00000E+00
 -1       759 4.63500E+01 1.29900E+01 0.00000E+00
 -1       760 4.93500E+01 1.29900E+01 0.00000E+00
 -1       761 5.22000E+01 1.29900E+01 0.00000E+00
 -1       762 5.52000E+01 1.29900E+01 0.00000E+00
 -1       763 5.82000E+01 1.29900E+01 0.00000E+00
 -1       764 6.12000E+01 1.29900E+01 0.00000E+00
 -1       765 6.42000E+01 1.29900E+01 0.00000E+00
 -1       766 6.72000E+01 1.29900E+01 0.00000E+00
 -1       767 7.02000E+01 1.29900E+01 0.00000E+00
 -1       768 7.32000E+01 1.29900E+01 0.00000E+00
 -1       769 7.62000E+01 1.29900E+01 0.00000E+00
 -1       770 7.92000E+01 1.29900E+01 0.00000E+00
 -1       771 8.20500E+01 1.29900E+01 0.00000E+00
 -1       772 8.50500E+01 1.29900E+01 0.00000E+00
 -1       773 8.80500E+01 1.29900E+01 0.00000E+00
 -1       774 9.10500E+01 1.29900E+01 0.00000E+00
 -1       775 2.83500E+01 1.29900E+01 0.00000E+00
 -1       776 1.07005E+02 2.81183E+01 0.00000E+00
 -1       777 9.34039E+01 1.38440E+01 0.00000E+00
 -1       778 1.18922E+02 2.35244E+01 0.00000E+00
 -1       779 1.37508E+02 2.91927E+01 0.00000E+00
 -1       780 1.37508E+02 2.62427E+01 0.00000E+00
 -1       781 1.37351E+02 3.43741E+01 0.00000E+00
 -1       782 1.30800E+02 1.27774E+01 0.00000E+00
 -1       783 1.23685E+02 1.22340E+01 0.00000E+00
 -1       784 9.50645E+01 1.92806E+01 0.00000E+00
 -1       785 1.65000E+01 1.29900E+01 0.00000E+00
 -1       786 1.27800E+02 1.27774E+01 0.00000E+00
 -1       787 1.29900E+01 2.20250E+01 0.00000E+00
 -1       788 1.22932E+02 1.77953E+01 0.00000E+00
 -1       789 1.13771E+02 2.61118E+01 0.00000E+00
 -1       790 1.37508E+02 1.73927E+01 0.00000E+00
 -1       791 9.37299E+01 1.60353E+01 0.00000E+00
 -1       792 1.23482E+02 1.44946E+01 0.00000E+00
 -1       793 1.00177E+02 2.58652E+01 0.00000E+00
 -1       794 9.84968E+01 2.43213E+01 0.00000E+00
 -1       795 1.16423E+02 2.57339E+01 0.00000E+00
 -1       796 1.29900E+01 2.49750E+01 0.00000E+00
 -1       797 1.33800E+02 1.27774E+01 0.00000E+00
 -1       798 1.12099E+02 2.77241E+01 0.00000E+00
 -1       799 1.04511E+02 2.78832E+01 0.00000E+00
 -1       800 2.24250E+01 1.29900E+01 0.00000E+00
 -1       801 1.20996E+02 2.29814E+01 0.00000E+00
 -1       802 1.37508E+02 2.03427E+01 0.00000E+00
 -1       803 1.24759E+02 1.67248E+01 0.00000E+00
 -1       804 1.08527E+02 2.86155E+01 0.00000E+00
 -1       805 1.29900E+01 3.37938E+01 0.00000E+00
 -1       806 2.54250E+01 1.29900E+01 0.00000E+00
 -1       807 1.37508E+02 2.32927E+01 0.00000E+00
 -1       808 1.02149E+02 2.74637E+01 0.00000E+00
 -1       809 1.29900E+01 1.61375E+01 0.00000E+00
 -1       810 9.65063E+01 2.35874E+01 0.00000E+00
 -1       811 1.23148E+02 2.00092E+01 0.00000E+00
 -1       812 1.29900E+01 1.90812E+01 0.00000E+00
 -1       813 1.29900E+01 3.08563E+01 0.00000E+00
 -1       814 4.18500E+01 1.55880E+01 0.00000E+00
 -1       815 1.05550E+02 3.02088E+01 0.00000E+00
 -1       816 1.87804E+01 3.41954E+01 0.00000E+00
 -1       817 2.17804E+01 3.41954E+01 0.00000E+00
 -1       818 2.47804E+01 3.41954E+01 0.00000E+00
 -1       819 2.77804E+01 3.41954E+01 0.00000E+00
 -1       820 3.07804E+01 3.41954E+01 0.00000E+00
 -1       821 3.37803E+01 3.41954E+01 0.00000E+00
 -1       822 3.67803E+01 3.41954E+01 0.00000E+00
 -1       823 3.97803E+01 3.41954E+01 0.00000E+00
 -1       824 4.27803E+01 3.41954E+01 0.00000E+00
 -1       825 4.57803E+01 3.41954E+01 0.00000E+00
 -1       826 4.87803E+01 3.41954E+01 0.00000E+00
 -1       827 5.17803E+01 3.41954E+01 0.00000E+00
 -1       828 5.47803E+01 3.41954E+01 0.00000E+00
 -1       829 5.77803E+01 3.41954E+01 0.00000E+00
 -1       830 6.07803E+01 3.41954E+01 0.00000E+00
 -1       831 6.37803E+01 3.41954E+01 0.00000E+00
 -1       832 6.67803E+01 3.41954E+01 0.00000E+00
 -1       833 6.97803E+01 3.41954E+01 0.00000E+00
 -1       834 7.27803E+01 3.41954E+01 0.00000E+00
 -1       835 7.57803E+01 3.41954E+01 0.00000E+00
 -1       836 7.87803E+01 3.41954E+01 0.00000E+00
 -1       837 8.17803E+01 3.41954E+01 0.00000E+00
 -1       838 8.47803E+01 3.41954E+01 0.00000E+00
 -1       839 8.77803E+01 3.41954E+01 0.00000E+00
 -1       840 9.07803E+01 3.41954E+01 0.00000E+00
 -1       841 9.37803E+01 3.41954E+01 0.00000E+00
 -1       842 9.67803E+01 3.41954E+01 0.00000E+00
 -1       843 9.97803E+01 3.41954E+01 0.00000E+00
 -1       844 1.02780E+02 3.41954E+01 0.00000E+00
 -1       845 1.05780E+02 3.41954E+01 0.00000E+00
 -1       846 1.08780E+02 3.41954E+01 0.00000E+00
 -1       847 1.11780E+02 3.41954E+01 0.00000E+00
 -1       848 1.14780E+02 3.41954E+01 0.00000E+00
 -1       849 1.17780E+02 3.41954E+01 0.00000E+00
 -1       850 1.20780E+02 3.41954E+01 0.00000E+00
 -1       851 1.23780E+02 3.41954E+01 0.00000E+00
 -1       852 1.26780E+02 3.41954E+01 0.00000E+00
 -1       853 1.29780E+02 3.41954E+01 0.00000E+00
 -1       854 1.32780E+02 3.41954E+01 0.00000E+00
 -1       855 1.35065E+02 3.42847E+01 0.00000E+00
 -1       856 1.29900E+01 2.79188E+01 0.00000E+00
 -1       857 3.88500E+01 1.55880E+01 0.00000E+00
 -1       858 3.28500E+01 1.55880E+01 0.00000E+00
 -1       859 4.48500E+01 1.55880E+01 0.00000E+00
 -1       860 4.78500E+01 1.55880E+01 0.00000E+00
 -1       861 5.07000E+01 1.55880E+01 0.00000E+00
 -1       862 5.37000E+01 1.55880E+01 0.00000E+00
 -1       863 5.67000E+01 1.55880E+01 0.00000E+00
 -1       864 5.97000E+01 1.55880E+01 0.00000E+00
 -1       865 6.27000E+01 1.55880E+01 0.00000E+00
 -1       866 6.57000E+01 1.55880E+01 0.00000E+00
 -1       867 6.87000E+01 1.55880E+01 0.00000E+00
 -1       868 7.17000E+01 1.55880E+01 0.00000E+00
 -1       869 7.47000E+01 1.55880E+01 0.00000E+00
 -1       870 7.77000E+01 1.55880E+01 0.00000E+00
 -1       871 8.05500E+01 1.55880E+01 0.00000E+00
 -1       872 8.35500E+01 1.55880E+01 0.00000E+00
 -1       873 8.65500E+01 1.55880E+01 0.00000E+00
 -1       874 8.95500E+01 1.55880E+01 0.00000E+00
 -1       875 2.98500E+01 1.55880E+01 0.00000E+00
 -1       876 1.03188E+02 2.97893E+01 0.00000E+00
 -1       877 9.16399E+01 1.58116E+01 0.00000E+00
 -1       878 1.34910E+02 3.06427E+01 0.00000E+00
 -1       879 9.21910E+01 1.85652E+01 0.00000E+00
 -1       880 1.34910E+02 2.76927E+01 0.00000E+00
 -1       881 1.15363E+02 2.77867E+01 0.00000E+00
 -1       882 9.76095E+01 2.69731E+01 0.00000E+00
 -1       883 1.65000E+01 1.59275E+01 0.00000E+00
 -1       884 3.58500E+01 1.55880E+01 0.00000E+00
 -1       885 1.58852E+01 3.39946E+01 0.00000E+00
 -1       886 1.29300E+02 1.51628E+01 0.00000E+00
 -1       887 1.34286E+02 1.71842E+01 0.00000E+00
 -1       888 9.43857E+01 2.16550E+01 0.00000E+00
 -1       889 9.95813E+01 2.85716E+01 0.00000E+00
 -1       890 1.19142E+02 2.62906E+01 0.00000E+00
 -1       891 1.34286E+02 2.01342E+01 0.00000E+00
 -1       892 1.23490E+02 2.23613E+01 0.00000E+00
 -1       893 2.69250E+01 1.55880E+01 0.00000E+00
 -1       894 1.25900E+02 1.45908E+01 0.00000E+00
 -1       895 1.10784E+02 2.96471E+01 0.00000E+00
 -1       896 1.98176E+01 1.63150E+01 0.00000E+00
 -1       897 1.34910E+02 2.47427E+01 0.00000E+00
 -1       898 1.55880E+01 2.05531E+01 0.00000E+00
 -1       899 1.18081E+02 2.83434E+01 0.00000E+00
 -1       900 9.56190E+01 2.62392E+01 0.00000E+00
 -1       901 1.07072E+02 3.07060E+01 0.00000E+00
 -1       902 1.58852E+01 3.10571E+01 0.00000E+00
 -1       903 1.24976E+02 1.89387E+01 0.00000E+00
 -1       904 1.21216E+02 2.57475E+01 0.00000E+00
 -1       905 1.31793E+02 1.61735E+01 0.00000E+00
 -1       906 1.55880E+01 2.35031E+01 0.00000E+00
 -1       907 1.58852E+01 2.81196E+01 0.00000E+00
 -1       908 4.63500E+01 1.81860E+01 0.00000E+00
 -1       909 9.01011E+01 1.83416E+01 0.00000E+00
 -1       910 2.32804E+01 3.15974E+01 0.00000E+00
 -1       911 2.62804E+01 3.15974E+01 0.00000E+00
 -1       912 2.92804E+01 3.15974E+01 0.00000E+00
 -1       913 3.22803E+01 3.15974E+01 0.00000E+00
 -1       914 3.52803E+01 3.15974E+01 0.00000E+00
 -1       915 3.82803E+01 3.15974E+01 0.00000E+00
 -1       916 4.12803E+01 3.15974E+01 0.00000E+00
 -1       917 4.42803E+01 3.15974E+01 0.00000E+00
 -1       918 4.72803E+01 3.15974E+01 0.00000E+00
 -1       919 5.02803E+01 3.15974E+01 0.00000E+00
 -1       920 5.32803E+01 3.15974E+01 0.00000E+00
 -1       921 5.62803E+01 3.15974E+01 0.00000E+00
 -1       922 5.92803E+01 3.15974E+01 0.00000E+00
 -1       923 6.22803E+01 3.15974E+01 0.00000E+00
 -1       924 6.52803E+01 3.15974E+01 0.00000E+00
 -1       925 6.82803E+01 3.15974E+01 0.00000E+00
 -1       926 7.12803E+01 3.15974E+01 0.00000E+00
 -1       927 7.42803E+01 3.15974E+01 0.00000E+00
 -1       928 7.72803E+01 3.15974E+01 0.00000E+00
 -1       929 8.02803E+01 3.15974E+01 0.00000E+00
 -1       930 8.32803E+01 3.15974E+01 0.00000E+00
 -1       931 8.62803E+01 3.15974E+01 0.00000E+00
 -1       932 8.92803E+01 3.15974E+01 0.00000E+00
 -1       933 9.22803E+01 3.15974E+01 0.00000E+00
 -1       934 9.52803E+01 3.15974E+01 0.00000E+00
 -1       935 9.82803E+01 3.15974E+01 0.00000E+00
 -1       936 1.10280E+02 3.15974E+01 0.00000E+00
 -1       937 1.13280E+02 3.15974E+01 0.00000E+00
 -1       938 1.16280E+02 3.15974E+01 0.00000E+00
 -1       939 1.19280E+02 3.15974E+01 0.00000E+00
 -1       940 1.22280E+02 3.15974E+01 0.00000E+00
 -1       941 1.25280E+02 3.15974E+01 0.00000E+00
 -1       942 1.28280E+02 3.15974E+01 0.00000E+00
 -1       943 1.31280E+02 3.15974E+01 0.00000E+00
 -1       944 4.92000E+01 1.81860E+01 0.00000E+00
 -1       945 4.03500E+01 1.81860E+01 0.00000E+00
 -1       946 4.33500E+01 1.81860E+01 0.00000E+00
 -1       947 5.22000E+01 1.81860E+01 0.00000E+00
 -1       948 5.52000E+01 1.81860E+01 0.00000E+00
 -1       949 5.82000E+01 1.81860E+01 0.00000E+00
 -1       950 6.12000E+01 1.81860E+01 0.00000E+00
 -1       951 6.42000E+01 1.81860E+01 0.00000E+00
 -1       952 6.72000E+01 1.81860E+01 0.00000E+00
 -1       953 7.02000E+01 1.81860E+01 0.00000E+00
 -1       954 7.32000E+01 1.81860E+01 0.00000E+00
 -1       955 7.62000E+01 1.81860E+01 0.00000E+00
 -1       956 7.90500E+01 1.81860E+01 0.00000E+00
 -1       957 8.20500E+01 1.81860E+01 0.00000E+00
 -1       958 8.50500E+01 1.81860E+01 0.00000E+00
 -1       959 8.75756E+01 1.82638E+01 0.00000E+00
 -1       960 3.13500E+01 1.81860E+01 0.00000E+00
 -1       961 1.57366E+01 2.58113E+01 0.00000E+00
 -1       962 1.78574E+01 1.87017E+01 0.00000E+00
 -1       963 1.34598E+02 2.24384E+01 0.00000E+00
 -1       964 3.73500E+01 1.81860E+01 0.00000E+00
 -1       965 1.28159E+02 1.72968E+01 0.00000E+00
 -1       966 2.31657E+01 1.62557E+01 0.00000E+00
 -1       967 9.34984E+01 2.43068E+01 0.00000E+00
 -1       968 2.02804E+01 3.15974E+01 0.00000E+00
 -1       969 9.14802E+01 2.13944E+01 0.00000E+00
 -1       970 9.69593E+01 2.97905E+01 0.00000E+00
 -1       971 3.43500E+01 1.81860E+01 0.00000E+00
 -1       972 1.80828E+01 3.13272E+01 0.00000E+00
 -1       973 1.31280E+02 2.86474E+01 0.00000E+00
 -1       974 1.00568E+02 3.15993E+01 0.00000E+00
 -1       975 2.84250E+01 1.81860E+01 0.00000E+00
 -1       976 1.25318E+02 2.12907E+01 0.00000E+00
 -1       977 1.30652E+02 1.83075E+01 0.00000E+00
 -1       978 1.31280E+02 2.56974E+01 0.00000E+00
 -1       979 1.23710E+02 2.51274E+01 0.00000E+00
 -1       980 1.64814E+01 1.94369E+01 0.00000E+00
 -1       981 1.20731E+02 2.84121E+01 0.00000E+00
 -1       982 1.32469E+02 1.92208E+01 0.00000E+00
 -1       983 2.15377E+01 1.88829E+01 0.00000E+00
 -1       984 1.81860E+01 2.20281E+01 0.00000E+00
 -1       985 9.28089E+01 2.71933E+01 0.00000E+00
 -1       986 1.80828E+01 2.83897E+01 0.00000E+00
 -1       987 2.77804E+01 2.89994E+01 0.00000E+00
 -1       988 3.07804E+01 2.89994E+01 0.00000E+00
 -1       989 3.37803E+01 2.89994E+01 0.00000E+00
 -1       990 3.67803E+01 2.89994E+01 0.00000E+00
 -1       991 3.97803E+01 2.89994E+01 0.00000E+00
 -1       992 4.27803E+01 2.89994E+01 0.00000E+00
 -1       993 4.57803E+01 2.89994E+01 0.00000E+00
 -1       994 4.87803E+01 2.89994E+01 0.00000E+00
 -1       995 5.17803E+01 2.89994E+01 0.00000E+00
 -1       996 5.47803E+01 2.89994E+01 0.00000E+00
 -1       997 5.77803E+01 2.89994E+01 0.00000E+00
 -1       998 6.07803E+01 2.89994E+01 0.00000E+00
 -1       999 6.37803E+01 2.89994E+01 0.00000E+00
 -1      1000 6.67803E+01 2.89994E+01 0.00000E+00
 -1      1001 6.97803E+01 2.89994E+01 0.00000E+00
 -1      1002 7.27803E+01 2.89994E+01 0.00000E+00
 -1      1003 7.57803E+01 2.89994E+01 0.00000E+00
 -1      1004 7.87803E+01 2.89994E+01 0.00000E+00
 -1      1005 8.17803E+01 2.89994E+01 0.00000E+00
 -1      1006 8.47803E+01 2.89994E+01 0.00000E+00
 -1      1007 8.77803E+01 2.89994E+01 0.00000E+00
 -1      1008 9.07803E+01 2.89994E+01 0.00000E+00
 -1      1009 1.83346E+01 2.43363E+01 0.00000E+00
 -1      1010 1.26780E+02 2.89994E+01 0.00000E+00
 -1      1011 1.29030E+02 2.88234E+01 0.00000E+00
 -1      1012 5.37000E+01 2.07840E+01 0.00000E+00
 -1      1013 5.67000E+01 2.07840E+01 0.00000E+00
 -1      1014 2.49814E+01 1.85345E+01 0.00000E+00
 -1      1015 5.97000E+01 2.07840E+01 0.00000E+00
 -1      1016 6.27000E+01 2.07840E+01 0.00000E+00
 -1      1017 6.57000E+01 2.07840E+01 0.00000E+00
 -1      1018 6.87000E+01 2.07840E+01 0.00000E+00
 -1      1019 7.17000E+01 2.07840E+01 0.00000E+00
 -1      1020 7.47000E+01 2.07840E+01 0.00000E+00
 -1      1021 7.75500E+01 2.07840E+01 0.00000E+00
 -1      1022 8.05500E+01 2.07840E+01 0.00000E+00
 -1      1023 8.35500E+01 2.07840E+01 0.00000E+00
 -1      1024 1.23248E+02 2.86724E+01 0.00000E+00
 -1      1025 9.03909E+01 2.43047E+01 0.00000E+00
 -1      1026 3.88500E+01 2.07840E+01 0.00000E+00
 -1      1027 5.07000E+01 2.07840E+01 0.00000E+00
 -1      1028 4.78500E+01 2.07840E+01 0.00000E+00
 -1      1029 2.17804E+01 2.89994E+01 0.00000E+00
 -1      1030 8.89547E+01 2.13166E+01 0.00000E+00
 -1      1031 2.47804E+01 2.89994E+01 0.00000E+00
 -1      1032 1.27985E+02 1.97991E+01 0.00000E+00
 -1      1033 2.98875E+01 2.07840E+01 0.00000E+00
 -1      1034 1.32781E+02 2.15251E+01 0.00000E+00
 -1      1035 4.48500E+01 2.07840E+01 0.00000E+00
 -1      1036 1.29030E+02 2.58734E+01 0.00000E+00
 -1      1037 4.18500E+01 2.07840E+01 0.00000E+00
 -1      1038 8.60756E+01 2.08618E+01 0.00000E+00
 -1      1039 1.82087E+01 2.63630E+01 0.00000E+00
 -1      1040 1.25538E+02 2.40569E+01 0.00000E+00
 -1      1041 1.32031E+02 2.36112E+01 0.00000E+00
 -1      1042 3.58500E+01 2.07840E+01 0.00000E+00
 -1      1043 1.99316E+01 2.86945E+01 0.00000E+00
 -1      1044 2.08529E+01 2.30153E+01 0.00000E+00
 -1      1045 2.35211E+01 2.12935E+01 0.00000E+00
 -1      1046 3.28688E+01 2.07840E+01 0.00000E+00
 -1      1047 1.26159E+02 2.65281E+01 0.00000E+00
 -1      1048 2.07270E+01 2.50420E+01 0.00000E+00
 -1      1049 3.22803E+01 2.64014E+01 0.00000E+00
 -1      1050 3.52803E+01 2.64014E+01 0.00000E+00
 -1      1051 3.82803E+01 2.64014E+01 0.00000E+00
 -1      1052 4.12803E+01 2.64014E+01 0.00000E+00
 -1      1053 4.42803E+01 2.64014E+01 0.00000E+00
 -1      1054 4.72803E+01 2.64014E+01 0.00000E+00
 -1      1055 5.02803E+01 2.64014E+01 0.00000E+00
 -1      1056 5.32803E+01 2.64014E+01 0.00000E+00
 -1      1057 5.62803E+01 2.64014E+01 0.00000E+00
 -1      1058 5.92803E+01 2.64014E+01 0.00000E+00
 -1      1059 6.22803E+01 2.64014E+01 0.00000E+00
 -1      1060 6.52803E+01 2.64014E+01 0.00000E+00
 -1      1061 6.82803E+01 2.64014E+01 0.00000E+00
 -1      1062 7.12803E+01 2.64014E+01 0.00000E+00
 -1      1063 7.42803E+01 2.64014E+01 0.00000E+00
 -1      1064 7.72803E+01 2.64014E+01 0.00000E+00
 -1      1065 8.02803E+01 2.64014E+01 0.00000E+00
 -1      1066 8.32803E+01 2.64014E+01 0.00000E+00
 -1      1067 8.62803E+01 2.64014E+01 0.00000E+00
 -1      1068 8.95446E+01 2.67973E+01 0.00000E+00
 -1      1069 6.12000E+01 2.33820E+01 0.00000E+00
 -1      1070 5.52000E+01 2.33820E+01 0.00000E+00
 -1      1071 2.67043E+01 2.10388E+01 0.00000E+00
 -1      1072 6.72000E+01 2.33820E+01 0.00000E+00
 -1      1073 7.02000E+01 2.33820E+01 0.00000E+00
 -1      1074 7.32000E+01 2.33820E+01 0.00000E+00
 -1      1075 7.60500E+01 2.33820E+01 0.00000E+00
 -1      1076 7.90500E+01 2.33820E+01 0.00000E+00
 -1      1077 8.20500E+01 2.33820E+01 0.00000E+00
 -1      1078 2.62804E+01 2.64014E+01 0.00000E+00
 -1      1079 4.92750E+01 2.33820E+01 0.00000E+00
 -1      1080 2.35957E+01 2.43374E+01 0.00000E+00
 -1      1081 5.82000E+01 2.33820E+01 0.00000E+00
 -1      1082 1.30964E+02 2.06117E+01 0.00000E+00
 -1      1083 8.73313E+01 2.39361E+01 0.00000E+00
 -1      1084 5.22375E+01 2.33820E+01 0.00000E+00
 -1      1085 6.42000E+01 2.33820E+01 0.00000E+00
 -1      1086 2.92804E+01 2.64014E+01 0.00000E+00
 -1      1087 2.85032E+01 2.35011E+01 0.00000E+00
 -1      1088 3.73500E+01 2.33820E+01 0.00000E+00
 -1      1089 4.62750E+01 2.33820E+01 0.00000E+00
 -1      1090 1.29781E+02 2.37872E+01 0.00000E+00
 -1      1091 2.60494E+01 2.39192E+01 0.00000E+00
 -1      1092 8.45756E+01 2.34598E+01 0.00000E+00
 -1      1093 2.03293E+01 2.68683E+01 0.00000E+00
 -1      1094 4.03500E+01 2.33820E+01 0.00000E+00
 -1      1095 3.14844E+01 2.35011E+01 0.00000E+00
 -1      1096 3.37803E+01 2.38034E+01 0.00000E+00
 -1      1097 4.33125E+01 2.33820E+01 0.00000E+00
 -1      1098 0.00000E+00 4.85250E+01 0.00000E+00
 -1      1099 0.00000E+00 4.55750E+01 0.00000E+00
 -1      1100 0.00000E+00 4.26250E+01 0.00000E+00
 -1      1101 0.00000E+00 3.96750E+01 0.00000E+00
 -1      1102 0.00000E+00 3.67250E+01 0.00000E+00
 -1      1103 0.00000E+00 3.38000E+01 0.00000E+00
 -1      1104 0.00000E+00 3.08750E+01 0.00000E+00
 -1      1105 0.00000E+00 2.79250E+01 0.00000E+00
 -1      1106 0.00000E+00 2.49750E+01 0.00000E+00
 -1      1107 0.00000E+00 2.20250E+01 0.00000E+00
 -1      1108 0.00000E+00 1.90750E+01 0.00000E+00
 -1      1109 0.00000E+00 1.61500E+01 0.00000E+00
 -1      1110 0.00000E+00 1.32250E+01 0.00000E+00
 -1      1111 0.00000E+00 1.02750E+01 0.00000E+00
 -1      1112 0.00000E+00 7.32500E+00 0.00000E+00
 -1      1113 0.00000E+00 4.37500E+00 0.00000E+00
 -1      1114 0.00000E+00 1.45000E+00 0.00000E+00
 -1      1115 1.57500E+00 5.00000E+01 0.00000E+00
 -1      1116 4.65000E+00 5.00000E+01 0.00000E+00
 -1      1117 7.65000E+00 5.00000E+01 0.00000E+00
 -1      1118 1.06500E+01 5.00000E+01 0.00000E+00
 -1      1119 1.36500E+01 5.00000E+01 0.00000E+00
 -1      1120 1.66500E+01 5.00000E+01 0.00000E+00
 -1      1121 1.96500E+01 5.00000E+01 0.00000E+00
 -1      1122 2.26500E+01 5.00000E+01 0.00000E+00
 -1      1123 2.56500E+01 5.00000E+01 0.00000E+00
 -1      1124 2.86500E+01 5.00000E+01 0.00000E+00
 -1      1125 3.16500E+01 5.00000E+01 0.00000E+00
 -1      1126 3.46500E+01 5.00000E+01 0.00000E+00
 -1      1127 3.76500E+01 5.00000E+01 0.00000E+00
 -1      1128 4.06500E+01 5.00000E+01 0.00000E+00
 -1      1129 4.36500E+01 5.00000E+01 0.00000E+00
 -1      1130 4.66500E+01 5.00000E+01 0.00000E+00
 -1      1131 4.96500E+01 5.00000E+01 0.00000E+00
 -1      1132 5.26500E+01 5.00000E+01 0.00000E+00
 -1      1133 5.56500E+01 5.00000E+01 0.00000E+00
 -1      1134 5.86500E+01 5.00000E+01 0.00000E+00
 -1      1135 6.16500E+01 5.00000E+01 0.00000E+00
 -1      1136 6.46500E+01 5.00000E+01 0.00000E+00
 -1      1137 6.76500E+01 5.00000E+01 0.00000E+00
 -1      1138 7.06500E+01 5.00000E+01 0.00000E+00
 -1      1139 7.36500E+01 5.00000E+01 0.00000E+00
 -1      1140 7.66500E+01 5.00000E+01 0.00000E+00
 -1      1141 7.96500E+01 5.00000E+01 0.00000E+00
 -1      1142 8.26500E+01 5.00000E+01 0.00000E+00
 -1      1143 8.56500E+01 5.00000E+01 0.00000E+00
 -1      1144 8.86500E+01 5.00000E+01 0.00000E+00
 -1      1145 9.16500E+01 5.00000E+01 0.00000E+00
 -1      1146 9.46500E+01 5.00000E+01 0.00000E+00
 -1      1147 9.76500E+01 5.00000E+01 0.00000E+00
 -1      1148 1.00650E+02 5.00000E+01 0.00000E+00
 -1      1149 1.03650E+02 5.00000E+01 0.00000E+00
 -1      1150 1.06650E+02 5.00000E+01 0.00000E+00
 -1      1151 1.09650E+02 5.00000E+01 0.00000E+00
 -1      1152 1.12650E+02 5.00000E+01 0.00000E+00
 -1      1153 1.15650E+02 5.00000E+01 0.00000E+00
 -1      1154 1.18650E+02 5.00000E+01 0.00000E+00
 -1      1155 1.21650E+02 5.00000E+01 0.00000E+00
 -1      1156 1.24650E+02 5.00000E+01 0.00000E+00
 -1      1157 1.27650E+02 5.00000E+01 0.00000E+00
 -1      1158 1.30650E+02 5.00000E+01 0.00000E+00
 -1      1159 1.33650E+02 5.00000E+01 0.00000E+00
 -1      1160 1.36650E+02 5.00000E+01 0.00000E+00
 -1      1161 1.39650E+02 5.00000E+01 0.00000E+00
 -1      1162 1.42650E+02 5.00000E+01 0.00000E+00
 -1      1163 1.45650E+02 5.00000E+01 0.00000E+00
 -1      1164 1.48575E+02 5.00000E+01 0.00000E+00
 -1      1165 1.50000E+00 0.00000E+00 0.00000E+00
 -1      1166 4.50000E+00 0.00000E+00 0.00000E+00
 -1      1167 7.50000E+00 0.00000E+00 0.00000E+00
 -1      1168 1.05000E+01 0.00000E+00 0.00000E+00
 -1      1169 1.35000E+01 0.00000E+00 0.00000E+00
 -1      1170 1.65000E+01 0.00000E+00 0.00000E+00
 -1      1171 1.95000E+01 0.00000E+00 0.00000E+00
 -1      1172 2.25000E+01 0.00000E+00 0.00000E+00
 -1      1173 2.55000E+01 0.00000E+00 0.00000E+00
 -1      1174 2.84250E+01 0.00000E+00 0.00000E+00
 -1      1175 3.13500E+01 0.00000E+00 0.00000E+00
 -1      1176 3.43500E+01 0.00000E+00 0.00000E+00
 -1      1177 3.73500E+01 0.00000E+00 0.00000E+00
 -1      1178 4.03500E+01 0.00000E+00 0.00000E+00
 -1      1179 4.33500E+01 0.00000E+00 0.00000E+00
 -1      1180 4.63500E+01 0.00000E+00 0.00000E+00
 -1      1181 4.93500E+01 0.00000E+00 0.00000E+00
 -1      1182 5.23500E+01 0.00000E+00 0.00000E+00
 -1      1183 5.53500E+01 0.00000E+00 0.00000E+00
 -1      1184 5.82750E+01 0.00000E+00 0.00000E+00
 -1      1185 6.12000E+01 0.00000E+00 0.00000E+00
 -1      1186 6.42000E+01 0.00000E+00 0.00000E+00
 -1      1187 6.72000E+01 0.00000E+00 0.00000E+00
 -1      1188 7.02000E+01 0.00000E+00 0.00000E+00
 -1      1189 7.32000E+01 0.00000E+00 0.00000E+00
 -1      1190 7.62000E+01 0.00000E+00 0.00000E+00
 -1      1191 7.92000E+01 0.00000E+00 0.00000E+00
 -1      1192 8.22000E+01 0.00000E+00 0.00000E+00
 -1      1193 8.52000E+01 0.00000E+00 0.00000E+00
 -1      1194 8.81250E+01 0.00000E+00 0.00000E+00
 -1      1195 9.10500E+01 0.00000E+00 0.00000E+00
 -1      1196 9.40500E+01 0.00000E+00 0.00000E+00
 -1      1197 9.70500E+01 0.00000E+00 0.00000E+00
 -1      1198 9.99000E+01 0.00000E+00 0.00000E+00
 -1      1199 1.02675E+02 0.00000E+00 0.00000E+00
 -1      1200 1.05375E+02 0.00000E+00 0.00000E+00
 -1      1201 1.07850E+02 0.00000E+00 0.00000E+00
 -1      1202 1.10475E+02 0.00000E+00 0.00000E+00
 -1      1203 1.13250E+02 0.00000E+00 0.00000E+00
 -1      1204 1.15950E+02 0.00000E+00 0.00000E+00
 -1      1205 1.18800E+02 0.00000E+00 0.00000E+00
 -1      1206 1.21725E+02 0.00000E+00 0.00000E+00
 -1      1207 1.24650E+02 0.00000E+00 0.00000E+00
 -1      1208 1.27650E+02 0.00000E+00 0.00000E+00
 -1      1209 1.30650E+02 0.00000E+00 0.00000E+00
 -1      1210 1.33650E+02 0.00000E+00 0.00000E+00
 -1      1211 1.36650E+02 0.00000E+00 0.00000E+00
 -1      1212 1.39650E+02 0.00000E+00 0.00000E+00
 -1      1213 1.42650E+02 0.00000E+00 0.00000E+00
 -1      1214 1.45650E+02 0.00000E+00 0.00000E+00
 -1      1215 1.48575E+02 0.00000E+00 0.00000E+00
 -1      1216 1.50000E+02 1.47500E+00 0.00000E+00
 -1      1217 1.50000E+02 4.42500E+00 0.00000E+00
 -1      1218 1.50000E+02 7.37500E+00 0.00000E+00
 -1      1219 1.50000E+02 1.03250E+01 0.00000E+00
 -1      1220 1.50000E+02 1.32750E+01 0.00000E+00
 -1      1221 1.50000E+02 1.62000E+01 0.00000E+00
 -1      1222 1.50000E+02 1.91250E+01 0.00000E+00
 -1      1223 1.50000E+02 2.20750E+01 0.00000E+00
 -1      1224 1.50000E+02 2.50250E+01 0.00000E+00
 -1      1225 1.50000E+02 2.79750E+01 0.00000E+00
 -1      1226 1.50000E+02 3.09250E+01 0.00000E+00
 -1      1227 1.50000E+02 3.38500E+01 0.00000E+00
 -1      1228 1.50000E+02 3.67750E+01 0.00000E+00
 -1      1229 1.50000E+02 3.97250E+01 0.00000E+00
 -1      1230 1.50000E+02 4.26750E+01 0.00000E+00
 -1      1231 1.50000E+02 4.56250E+01 0.00000E+00
 -1      1232 1.50000E+02 4.85500E+01 0.00000E+00
 -1      1233 1.15542E+02 1.20265E+01 0.00000E+00
 -1      1234 1.15207E+02 1.05385E+01 0.00000E+00
 -1      1235 1.14563E+02 9.16712E+00 0.00000E+00
 -1      1236 1.13666E+02 7.99531E+00 0.00000E+00
 -1      1237 1.12595E+02 7.07271E+00 0.00000E+00
 -1      1238 1.11339E+02 6.37543E+00 0.00000E+00
 -1      1239 1.09877E+02 5.93137E+00 0.00000E+00
 -1      1240 1.08365E+02 5.81482E+00 0.00000E+00
 -1      1241 1.06814E+02 6.03928E+00 0.00000E+00
 -1      1242 1.05273E+02 6.64509E+00 0.00000E+00
 -1      1243 1.04003E+02 7.52029E+00 0.00000E+00
 -1      1244 1.02999E+02 8.59434E+00 0.00000E+00
 -1      1245 1.02223E+02 9.89459E+00 0.00000E+00
 -1      1246 1.01744E+02 1.13324E+01 0.00000E+00
 -1      1247 1.01586E+02 1.28512E+01 0.00000E+00
 -1      1248 1.01758E+02 1.43536E+01 0.00000E+00
 -1      1249 1.02244E+02 1.57746E+01 0.00000E+00
 -1      1250 1.03021E+02 1.70574E+01 0.00000E+00
 -1      1251 1.04019E+02 1.81163E+01 0.00000E+00
 -1      1252 1.05204E+02 1.89402E+01 0.00000E+00
 -1      1253 1.06535E+02 1.95042E+01 0.00000E+00
 -1      1254 1.07985E+02 1.97855E+01 0.00000E+00
 -1      1255 1.09444E+02 1.97586E+01 0.00000E+00
 -1      1256 1.10912E+02 1.94137E+01 0.00000E+00
 -1      1257 1.12311E+02 1.87382E+01 0.00000E+00
 -1      1258 1.13532E+02 1.77651E+01 0.00000E+00
 -1      1259 1.14516E+02 1.65315E+01 0.00000E+00
 -1      1260 1.15191E+02 1.51301E+01 0.00000E+00
 -1      1261 1.15541E+02 1.36080E+01 0.00000E+00
 -1      1262 1.57500E+00 4.85250E+01 0.00000E+00
 -1      1263 1.29900E+00 4.48375E+01 0.00000E+00
 -1      1264 1.29900E+00 4.63125E+01 0.00000E+00
 -1      1265 1.29900E+00 4.18875E+01 0.00000E+00
 -1      1266 1.29900E+00 4.33625E+01 0.00000E+00
 -1      1267 2.59800E+00 4.41000E+01 0.00000E+00
 -1      1268 1.29900E+00 3.89375E+01 0.00000E+00
 -1      1269 1.29900E+00 4.04125E+01 0.00000E+00
 -1      1270 2.59800E+00 4.11500E+01 0.00000E+00
 -1      1271 1.29900E+00 3.59875E+01 0.00000E+00
 -1      1272 1.29900E+00 3.74625E+01 0.00000E+00
 -1      1273 2.59800E+00 3.82000E+01 0.00000E+00
 -1      1274 1.29900E+00 3.30875E+01 0.00000E+00
 -1      1275 1.29900E+00 3.45375E+01 0.00000E+00
 -1      1276 2.59800E+00 3.52750E+01 0.00000E+00
 -1      1277 1.29900E+00 3.01375E+01 0.00000E+00
 -1      1278 1.29900E+00 3.16125E+01 0.00000E+00
 -1      1279 2.59800E+00 3.23500E+01 0.00000E+00
 -1      1280 1.29900E+00 2.71875E+01 0.00000E+00
 -1      1281 1.29900E+00 2.86625E+01 0.00000E+00
 -1      1282 2.59800E+00 2.94000E+01 0.00000E+00
 -1      1283 1.29900E+00 2.42375E+01 0.00000E+00
 -1      1284 1.29900E+00 2.57125E+01 0.00000E+00
 -1      1285 2.59800E+00 2.64500E+01 0.00000E+00
 -1      1286 1.29900E+00 2.12875E+01 0.00000E+00
 -1      1287 1.29900E+00 2.27625E+01 0.00000E+00
 -1      1288 2.59800E+00 2.35000E+01 0.00000E+00
 -1      1289 1.29900E+00 1.83375E+01 0.00000E+00
 -1      1290 1.29900E+00 1.98125E+01 0.00000E+00
 -1      1291 2.59800E+00 2.05500E+01 0.00000E+00
 -1      1292 1.29900E+00 1.54375E+01 0.00000E+00
 -1      1293 1.29900E+00 1.68875E+01 0.00000E+00
 -1      1294 2.59800E+00 1.76250E+01 0.00000E+00
 -1      1295 1.29900E+00 1.24875E+01 0.00000E+00
 -1      1296 1.29900E+00 1.39625E+01 0.00000E+00
 -1      1297 2.59800E+00 1.47000E+01 0.00000E+00
 -1      1298 1.29900E+00 9.53750E+00 0.00000E+00
 -1      1299 1.29900E+00 1.10125E+01 0.00000E+00
 -1      1300 2.59800E+00 1.17500E+01 0.00000E+00
 -1      1301 1.29900E+00 6.58750E+00 0.00000E+00
 -1      1302 1.29900E+00 8.06250E+00 0.00000E+00
 -1      1303 2.59800E+00 8.80000E+00 0.00000E+00
 -1      1304 1.29900E+00 3.63750E+00 0.00000E+00
 -1      1305 1.29900E+00 5.11250E+00 0.00000E+00
 -1      1306 2.59800E+00 5.85000E+00 0.00000E+00
 -1      1307 1.50000E+00 1.45000E+00 0.00000E+00
 -1      1308 3.90000E+00 4.87010E+01 0.00000E+00
 -1      1309 5.40000E+00 4.87010E+01 0.00000E+00
 -1      1310 6.90000E+00 4.87010E+01 0.00000E+00
 -1      1311 8.40000E+00 4.87010E+01 0.00000E+00
 -1      1312 6.15000E+00 4.74020E+01 0.00000E+00
 -1      1313 9.90000E+00 4.87010E+01 0.00000E+00
 -1      1314 1.14000E+01 4.87010E+01 0.00000E+00
 -1      1315 9.15000E+00 4.74020E+01 0.00000E+00
 -1      1316 1.29000E+01 4.87010E+01 0.00000E+00
 -1      1317 1.44000E+01 4.87010E+01 0.00000E+00
 -1      1318 1.21500E+01 4.74020E+01 0.00000E+00
 -1      1319 1.59000E+01 4.87010E+01 0.00000E+00
 -1      1320 1.74000E+01 4.87010E+01 0.00000E+00
 -1      1321 1.51500E+01 4.74020E+01 0.00000E+00
 -1      1322 1.89000E+01 4.87010E+01 0.00000E+00
 -1      1323 2.04000E+01 4.87010E+01 0.00000E+00
 -1      1324 1.81500E+01 4.74020E+01 0.00000E+00
 -1      1325 2.19000E+01 4.87010E+01 0.00000E+00
 -1      1326 2.34000E+01 4.87010E+01 0.00000E+00
 -1      1327 2.11500E+01 4.74020E+01 0.00000E+00
 -1      1328 2.49000E+01 4.87010E+01 0.00000E+00
 -1      1329 2.64000E+01 4.87010E+01 0.00000E+00
 -1      1330 2.41500E+01 4.74020E+01 0.00000E+00
 -1      1331 2.79000E+01 4.87010E+01 0.00000E+00
 -1      1332 2.94000E+01 4.87010E+01 0.00000E+00
 -1      1333 2.71500E+01 4.74020E+01 0.00000E+00
 -1      1334 3.09000E+01 4.87010E+01 0.00000E+00
 -1      1335 3.24000E+01 4.87010E+01 0.00000E+00
 -1      1336 3.01500E+01 4.74020E+01 0.00000E+00
 -1      1337 3.39000E+01 4.87010E+01 0.00000E+00
 -1      1338 3.54000E+01 4.87010E+01 0.00000E+00
 -1      1339 3.31500E+01 4.74020E+01 0.00000E+00
 -1      1340 3.69000E+01 4.87010E+01 0.00000E+00
 -1      1341 3.84000E+01 4.87010E+01 0.00000E+00
 -1      1342 3.61500E+01 4.74020E+01 0.00000E+00
 -1      1343 3.99000E+01 4.87010E+01 0.00000E+00
 -1      1344 4.14000E+01 4.87010E+01 0.00000E+00
 -1      1345 3.91500E+01 4.74020E+01 0.00000E+00
 -1      1346 4.29000E+01 4.87010E+01 0.00000E+00
 -1      1347 4.44000E+01 4.87010E+01 0.00000E+00
 -1      1348 4.21500E+01 4.74020E+01 0.00000E+00
 -1      1349 4.59000E+01 4.87010E+01 0.00000E+00
 -1      1350 4.74000E+01 4.87010E+01 0.00000E+00
 -1      1351 4.51500E+01 4.74020E+01 0.00000E+00
 -1      1352 4.89000E+01 4.87010E+01 0.00000E+00
 -1      1353 5.04000E+01 4.87010E+01 0.00000E+00
 -1      1354 4.81500E+01 4.74020E+01 0.00000E+00
 -1      1355 5.19000E+01 4.87010E+01 0.00000E+00
 -1      1356 5.34000E+01 4.87010E+01 0.00000E+00
 -1      1357 5.11500E+01 4.74020E+01 0.00000E+00
 -1      1358 5.49000E+01 4.87010E+01 0.00000E+00
 -1      1359 5.64000E+01 4.87010E+01 0.00000E+00
 -1      1360 5.41500E+01 4.74020E+01 0.00000E+00
 -1      1361 5.79000E+01 4.87010E+01 0.00000E+00
 -1      1362 5.94000E+01 4.87010E+01 0.00000E+00
 -1      1363 5.71500E+01 4.74020E+01 0.00000E+00
 -1      1364 6.09000E+01 4.87010E+01 0.00000E+00
 -1      1365 6.24000E+01 4.87010E+01 0.00000E+00
 -1      1366 6.01500E+01 4.74020E+01 0.00000E+00
 -1      1367 6.39000E+01 4.87010E+01 0.00000E+00
 -1      1368 6.54000E+01 4.87010E+01 0.00000E+00
 -1      1369 6.31500E+01 4.74020E+01 0.00000E+00
 -1      1370 6.69000E+01 4.87010E+01 0.00000E+00
 -1      1371 6.84000E+01 4.87010E+01 0.00000E+00
 -1      1372 6.61500E+01 4.74020E+01 0.00000E+00
 -1      1373 6.99000E+01 4.87010E+01 0.00000E+00
 -1      1374 7.14000E+01 4.87010E+01 0.00000E+00
 -1      1375 6.91500E+01 4.74020E+01 0.00000E+00
 -1      1376 7.29000E+01 4.87010E+01 0.00000E+00
 -1      1377 7.44000E+01 4.87010E+01 0.00000E+00
 -1      1378 7.21500E+01 4.74020E+01 0.00000E+00
 -1      1379 7.59000E+01 4.87010E+01 0.00000E+00
 -1      1380 7.74000E+01 4.87010E+01 0.00000E+00
 -1      1381 7.51500E+01 4.74020E+01 0.00000E+00
 -1      1382 7.89000E+01 4.87010E+01 0.00000E+00
 -1      1383 8.04000E+01 4.87010E+01 0.00000E+00
 -1      1384 7.81500E+01 4.74020E+01 0.00000E+00
 -1      1385 8.19000E+01 4.87010E+01 0.00000E+00
 -1      1386 8.34000E+01 4.87010E+01 0.00000E+00
 -1      1387 8.11500E+01 4.74020E+01 0.00000E+00
 -1      1388 8.49000E+01 4.87010E+01 0.00000E+00
 -1      1389 8.64000E+01 4.87010E+01 0.00000E+00
 -1      1390 8.41500E+01 4.74020E+01 0.00000E+00
 -1      1391 8.79000E+01 4.87010E+01 0.00000E+00
 -1      1392 8.94000E+01 4.87010E+01 0.00000E+00
 -1      1393 8.71500E+01 4.74020E+01 0.00000E+00
 -1      1394 9.09000E+01 4.87010E+01 0.00000E+00
 -1      1395 9.24000E+01 4.87010E+01 0.00000E+00
 -1      1396 9.01500E+01 4.74020E+01 0.00000E+00
 -1      1397 9.39000E+01 4.87010E+01 0.00000E+00
 -1      1398 9.54000E+01 4.87010E+01 0.00000E+00
 -1      1399 9.31500E+01 4.74020E+01 0.00000E+00
 -1      1400 9.69000E+01 4.87010E+01 0.00000E+00
 -1      1401 9.84000E+01 4.87010E+01 0.00000E+00
 -1      1402 9.61500E+01 4.74020E+01 0.00000E+00
 -1      1403 9.99000E+01 4.87010E+01 0.00000E+00
 -1      1404 1.01400E+02 4.87010E+01 0.00000E+00
 -1      1405 9.91500E+01 4.74020E+01 0.00000E+00
 -1      1406 1.02900E+02 4.87010E+01 0.00000E+00
 -1      1407 1.04400E+02 4.87010E+01 0.00000E+00
 -1      1408 1.02150E+02 4.74020E+01 0.00000E+00
 -1      1409 1.05900E+02 4.87010E+01 0.00000E+00
 -1      1410 1.07400E+02 4.87010E+01 0.00000E+00
 -1      1411 1.05150E+02 4.74020E+01 0.00000E+00
 -1      1412 1.08900E+02 4.87010E+01 0.00000E+00
 -1      1413 1.10400E+02 4.87010E+01 0.00000E+00
 -1      1414 1.08150E+02 4.74020E+01 0.00000E+00
 -1      1415 1.11900E+02 4.87010E+01 0.00000E+00
 -1      1416 1.13400E+02 4.87010E+01 0.00000E+00
 -1      1417 1.11150E+02 4.74020E+01 0.00000E+00
 -1      1418 1.14900E+02 4.87010E+01 0.00000E+00
 -1      1419 1.16400E+02 4.87010E+01 0.00000E+00
 -1      1420 1.14150E+02 4.74020E+01 0.00000E+00
 -1      1421 1.17900E+02 4.87010E+01 0.00000E+00
 -1      1422 1.19400E+02 4.87010E+01 0.00000E+00
 -1      1423 1.17150E+02 4.74020E+01 0.00000E+00
 -1      1424 1.20900E+02 4.87010E+01 0.00000E+00
 -1      1425 1.22400E+02 4.87010E+01 0.00000E+00
 -1      1426 1.20150E+02 4.74020E+01 0.00000E+00
 -1      1427 1.23900E+02 4.87010E+01 0.00000E+00
 -1      1428 1.25400E+02 4.87010E+01 0.00000E+00
 -1      1429 1.23150E+02 4.74020E+01 0.00000E+00
 -1      1430 1.26900E+02 4.87010E+01 0.00000E+00
 -1      1431 1.28400E+02 4.87010E+01 0.00000E+00
 -1      1432 1.26150E+02 4.74020E+01 0.00000E+00
 -1      1433 1.29900E+02 4.87010E+01 0.00000E+00
 -1      1434 1.31400E+02 4.87010E+01 0.00000E+00
 -1      1435 1.29150E+02 4.74020E+01 0.00000E+00
 -1      1436 1.32900E+02 4.87010E+01 0.00000E+00
 -1      1437 1.34400E+02 4.87010E+01 0.00000E+00
 -1      1438 1.32150E+02 4.74020E+01 0.00000E+00
 -1      1439 1.35900E+02 4.87010E+01 0.00000E+00
 -1      1440 1.37400E+02 4.87010E+01 0.00000E+00
 -1      1441 1.35150E+02 4.74020E+01 0.00000E+00
 -1      1442 1.38900E+02 4.87010E+01 0.00000E+00
 -1      1443 1.40400E+02 4.87010E+01 0.00000E+00
 -1      1444 1.38150E+02 4.74020E+01 0.00000E+00
 -1      1445 1.41900E+02 4.87010E+01 0.00000E+00
 -1      1446 1.43400E+02 4.87010E+01 0.00000E+00
 -1      1447 1.41150E+02 4.74020E+01 0.00000E+00
 -1      1448 1.44900E+02 4.87010E+01 0.00000E+00
 -1      1449 1.46400E+02 4.87010E+01 0.00000E+00
 -1      1450 1.44150E+02 4.74020E+01 0.00000E+00
 -1      1451 1.48575E+02 4.85500E+01 0.00000E+00
 -1      1452 1.47825E+02 4.72510E+01 0.00000E+00
 -1      1453 5.25000E+00 1.29900E+00 0.00000E+00
 -1      1454 3.75000E+00 1.29900E+00 0.00000E+00
 -1      1455 8.25000E+00 1.29900E+00 0.00000E+00
 -1      1456 6.75000E+00 1.29900E+00 0.00000E+00
 -1      1457 6.00000E+00 2.59800E+00 0.00000E+00
 -1      1458 1.12500E+01 1.29900E+00 0.00000E+00
 -1      1459 9.75000E+00 1.29900E+00 0.00000E+00
 -1      1460 9.00000E+00 2.59800E+00 0.00000E+00
 -1      1461 1.42500E+01 1.29900E+00 0.00000E+00
 -1      1462 1.27500E+01 1.29900E+00 0.00000E+00
 -1      1463 1.20000E+01 2.59800E+00 0.00000E+00
 -1      1464 1.72500E+01 1.29900E+00 0.00000E+00
 -1      1465 1.57500E+01 1.29900E+00 0.00000E+00
 -1      1466 1.50000E+01 2.59800E+00 0.00000E+00
 -1      1467 2.02500E+01 1.29900E+00 0.00000E+00
 -1      1468 1.87500E+01 1.29900E+00 0.00000E+00
 -1      1469 1.80000E+01 2.59800E+00 0.00000E+00
 -1      1470 2.32500E+01 1.29900E+00 0.00000E+00
 -1      1471 2.17500E+01 1.29900E+00 0.00000E+00
 -1      1472 2.10000E+01 2.59800E+00 0.00000E+00
 -1      1473 2.62500E+01 1.29900E+00 0.00000E+00
 -1      1474 2.47500E+01 1.29900E+00 0.00000E+00
 -1      1475 2.40000E+01 2.59800E+00 0.00000E+00
 -1      1476 2.91000E+01 1.29900E+00 0.00000E+00
 -1      1477 2.76750E+01 1.29900E+00 0.00000E+00
 -1      1478 2.69250E+01 2.59800E+00 0.00000E+00
 -1      1479 3.21000E+01 1.29900E+00 0.00000E+00
 -1      1480 3.06000E+01 1.29900E+00 0.00000E+00
 -1      1481 2.98500E+01 2.59800E+00 0.00000E+00
 -1      1482 3.51000E+01 1.29900E+00 0.00000E+00
 -1      1483 3.36000E+01 1.29900E+00 0.00000E+00
 -1      1484 3.28500E+01 2.59800E+00 0.00000E+00
 -1      1485 3.81000E+01 1.29900E+00 0.00000E+00
 -1      1486 3.66000E+01 1.29900E+00 0.00000E+00
 -1      1487 3.58500E+01 2.59800E+00 0.00000E+00
 -1      1488 4.11000E+01 1.29900E+00 0.00000E+00
 -1      1489 3.96000E+01 1.29900E+00 0.00000E+00
 -1      1490 3.88500E+01 2.59800E+00 0.00000E+00
 -1      1491 4.41000E+01 1.29900E+00 0.00000E+00
 -1      1492 4.26000E+01 1.29900E+00 0.00000E+00
 -1      1493 4.18500E+01 2.59800E+00 0.00000E+00
 -1      1494 4.71000E+01 1.29900E+00 0.00000E+00
 -1      1495 4.56000E+01 1.29900E+00 0.00000E+00
 -1      1496 4.48500E+01 2.59800E+00 0.00000E+00
 -1      1497 5.01000E+01 1.29900E+00 0.00000E+00
 -1      1498 4.86000E+01 1.29900E+00 0.00000E+00
 -1      1499 4.78500E+01 2.59800E+00 0.00000E+00
 -1      1500 5.31000E+01 1.29900E+00 0.00000E+00
 -1      1501 5.16000E+01 1.29900E+00 0.00000E+00
 -1      1502 5.08500E+01 2.59800E+00 0.00000E+00
 -1      1503 5.61000E+01 1.29900E+00 0.00000E+00
 -1      1504 5.46000E+01 1.29900E+00 0.00000E+00
 -1      1505 5.38500E+01 2.59800E+00 0.00000E+00
 -1      1506 5.89500E+01 1.29900E+00 0.00000E+00
 -1      1507 5.75250E+01 1.29900E+00 0.00000E+00
 -1      1508 5.67750E+01 2.59800E+00 0.00000E+00
 -1      1509 6.19500E+01 1.29900E+00 0.00000E+00
 -1      1510 6.04500E+01 1.29900E+00 0.00000E+00
 -1      1511 5.97000E+01 2.59800E+00 0.00000E+00
 -1      1512 6.49500E+01 1.29900E+00 0.00000E+00
 -1      1513 6.34500E+01 1.29900E+00 0.00000E+00
 -1      1514 6.27000E+01 2.59800E+00 0.00000E+00
 -1      1515 6.79500E+01 1.29900E+00 0.00000E+00
 -1      1516 6.64500E+01 1.29900E+00 0.00000E+00
 -1      1517 6.57000E+01 2.59800E+00 0.00000E+00
 -1      1518 7.09500E+01 1.29900E+00 0.00000E+00
 -1      1519 6.94500E+01 1.29900E+00 0.00000E+00
 -1      1520 6.87000E+01 2.59800E+00 0.00000E+00
 -1      1521 7.39500E+01 1.29900E+00 0.00000E+00
 -1      1522 7.24500E+01 1.29900E+00 0.00000E+00
 -1      1523 7.17000E+01 2.59800E+00 0.00000E+00
 -1      1524 7.69500E+01 1.29900E+00 0.00000E+00
 -1      1525 7.54500E+01 1.29900E+00 0.00000E+00
 -1      1526 7.47000E+01 2.59800E+00 0.00000E+00
 -1      1527 7.99500E+01 1.29900E+00 0.00000E+00
 -1      1528 7.84500E+01 1.29900E+00 0.00000E+00
 -1      1529 7.77000E+01 2.59800E+00 0.00000E+00
 -1      1530 8.29500E+01 1.29900E+00 0.00000E+00
 -1      1531 8.14500E+01 1.29900E+00 0.00000E+00
 -1      1532 8.07000E+01 2.59800E+00 0.00000E+00
 -1      1533 8.59500E+01 1.29900E+00 0.00000E+00
 -1      1534 8.44500E+01 1.29900E+00 0.00000E+00
 -1      1535 8.37000E+01 2.59800E+00 0.00000E+00
 -1      1536 8.88000E+01 1.29900E+00 0.00000E+00
 -1      1537 8.73750E+01 1.29900E+00 0.00000E+00
 -1      1538 8.66250E+01 2.59800E+00 0.00000E+00
 -1      1539 9.18000E+01 1.29900E+00 0.00000E+00
 -1      1540 9.03000E+01 1.29900E+00 0.00000E+00
 -1      1541 8.95500E+01 2.59800E+00 0.00000E+00
 -1      1542 9.48000E+01 1.29900E+00 0.00000E+00
 -1      1543 9.33000E+01 1.29900E+00 0.00000E+00
 -1      1544 9.25500E+01 2.59800E+00 0.00000E+00
 -1      1545 9.78000E+01 1.29900E+00 0.00000E+00
 -1      1546 9.63000E+01 1.29900E+00 0.00000E+00
 -1      1547 9.55500E+01 2.59800E+00 0.00000E+00
 -1      1548 1.00500E+02 1.29900E+00 0.00000E+00
 -1      1549 9.91500E+01 1.29900E+00 0.00000E+00
 -1      1550 9.84000E+01 2.59800E+00 0.00000E+00
 -1      1551 1.03350E+02 1.29900E+00 0.00000E+00
 -1      1552 1.01925E+02 1.29900E+00 0.00000E+00
 -1      1553 1.01175E+02 2.59800E+00 0.00000E+00
 -1      1554 1.05900E+02 1.29900E+00 0.00000E+00
 -1      1555 1.04625E+02 1.29900E+00 0.00000E+00
 -1      1556 1.03875E+02 2.59800E+00 0.00000E+00
 -1      1557 1.08300E+02 1.29900E+00 0.00000E+00
 -1      1558 1.07100E+02 1.29900E+00 0.00000E+00
 -1      1559 1.06350E+02 2.59800E+00 0.00000E+00
 -1      1560 1.11150E+02 1.29900E+00 0.00000E+00
 -1      1561 1.09725E+02 1.29900E+00 0.00000E+00
 -1      1562 1.08975E+02 2.59800E+00 0.00000E+00
 -1      1563 1.16625E+02 1.19270E+00 0.00000E+00
 -1      1564 1.15275E+02 1.19270E+00 0.00000E+00
 -1      1565 1.19625E+02 1.19270E+00 0.00000E+00
 -1      1566 1.18125E+02 1.19270E+00 0.00000E+00
 -1      1567 1.17450E+02 2.38539E+00 0.00000E+00
 -1      1568 1.22475E+02 1.19270E+00 0.00000E+00
 -1      1569 1.21050E+02 1.19270E+00 0.00000E+00
 -1      1570 1.20375E+02 2.38539E+00 0.00000E+00
 -1      1571 1.25475E+02 1.19270E+00 0.00000E+00
 -1      1572 1.23975E+02 1.19270E+00 0.00000E+00
 -1      1573 1.23300E+02 2.38539E+00 0.00000E+00
 -1      1574 1.28475E+02 1.19270E+00 0.00000E+00
 -1      1575 1.26975E+02 1.19270E+00 0.00000E+00
 -1      1576 1.26300E+02 2.38539E+00 0.00000E+00
 -1      1577 1.31475E+02 1.19270E+00 0.00000E+00
 -1      1578 1.29975E+02 1.19270E+00 0.00000E+00
 -1      1579 1.29300E+02 2.38539E+00 0.00000E+00
 -1      1580 1.34475E+02 1.19270E+00 0.00000E+00
 -1      1581 1.32975E+02 1.19270E+00 0.00000E+00
 -1      1582 1.32300E+02 2.38539E+00 0.00000E+00
 -1      1583 1.37475E+02 1.19270E+00 0.00000E+00
 -1      1584 1.35975E+02 1.19270E+00 0.00000E+00
 -1      1585 1.35300E+02 2.38539E+00 0.00000E+00
 -1      1586 1.40475E+02 1.19270E+00 0.00000E+00
 -1      1587 1.38975E+02 1.19270E+00 0.00000E+00
 -1      1588 1.38300E+02 2.38539E+00 0.00000E+00
 -1      1589 1.43475E+02 1.19270E+00 0.00000E+00
 -1      1590 1.41975E+02 1.19270E+00 0.00000E+00
 -1      1591 1.41300E+02 2.38539E+00 0.00000E+00
 -1      1592 1.46475E+02 1.19270E+00 0.00000E+00
 -1      1593 1.44975E+02 1.19270E+00 0.00000E+00
 -1      1594 1.44300E+02 2.38539E+00 0.00000E+00
 -1      1595 1.48950E+02 1.33385E+00 0.00000E+00
 -1      1596 1.47525E+02 1.33385E+00 0.00000E+00
 -1      1597 1.46850E+02 2.52655E+00 0.00000E+00
 -1      1598 1.48950E+02 2.80885E+00 0.00000E+00
 -1      1599 1.48950E+02 5.75885E+00 0.00000E+00
 -1      1600 1.48950E+02 4.28385E+00 0.00000E+00
 -1      1601 1.47900E+02 4.14270E+00 0.00000E+00
 -1      1602 1.48950E+02 8.70885E+00 0.00000E+00
 -1      1603 1.48950E+02 7.23385E+00 0.00000E+00
 -1      1604 1.47900E+02 7.09270E+00 0.00000E+00
 -1      1605 1.48950E+02 1.16588E+01 0.00000E+00
 -1      1606 1.48950E+02 1.01838E+01 0.00000E+00
 -1      1607 1.47900E+02 1.00427E+01 0.00000E+00
 -1      1608 1.48950E+02 1.46088E+01 0.00000E+00
 -1      1609 1.48950E+02 1.31338E+01 0.00000E+00
 -1      1610 1.47900E+02 1.29927E+01 0.00000E+00
 -1      1611 1.48950E+02 1.75088E+01 0.00000E+00
 -1      1612 1.48950E+02 1.60588E+01 0.00000E+00
 -1      1613 1.47900E+02 1.59177E+01 0.00000E+00
 -1      1614 1.48950E+02 2.04588E+01 0.00000E+00
 -1      1615 1.48950E+02 1.89838E+01 0.00000E+00
 -1      1616 1.47900E+02 1.88427E+01 0.00000E+00
 -1      1617 1.48950E+02 2.34088E+01 0.00000E+00
 -1      1618 1.48950E+02 2.19338E+01 0.00000E+00
 -1      1619 1.47900E+02 2.17927E+01 0.00000E+00
 -1      1620 1.48950E+02 2.63588E+01 0.00000E+00
 -1      1621 1.48950E+02 2.48838E+01 0.00000E+00
 -1      1622 1.47900E+02 2.47427E+01 0.00000E+00
 -1      1623 1.48950E+02 2.93088E+01 0.00000E+00
 -1      1624 1.48950E+02 2.78338E+01 0.00000E+00
 -1      1625 1.47900E+02 2.76927E+01 0.00000E+00
 -1      1626 1.48950E+02 3.22589E+01 0.00000E+00
 -1      1627 1.48950E+02 3.07838E+01 0.00000E+00
 -1      1628 1.47900E+02 3.06427E+01 0.00000E+00
 -1      1629 1.48950E+02 3.51588E+01 0.00000E+00
 -1      1630 1.48950E+02 3.37088E+01 0.00000E+00
 -1      1631 1.47900E+02 3.35677E+01 0.00000E+00
 -1      1632 1.48950E+02 3.81088E+01 0.00000E+00
 -1      1633 1.48950E+02 3.66339E+01 0.00000E+00
 -1      1634 1.47900E+02 3.64927E+01 0.00000E+00
 -1      1635 1.48950E+02 4.10588E+01 0.00000E+00
 -1      1636 1.48950E+02 3.95838E+01 0.00000E+00
 -1      1637 1.47900E+02 3.94427E+01 0.00000E+00
 -1      1638 1.48950E+02 4.40089E+01 0.00000E+00
 -1      1639 1.48950E+02 4.25338E+01 0.00000E+00
 -1      1640 1.47900E+02 4.23927E+01 0.00000E+00
 -1      1641 1.16181E+02 1.15595E+01 0.00000E+00
 -1      1642 1.16269E+02 1.23394E+01 0.00000E+00
 -1      1643 1.15702E+02 9.97697E+00 0.00000E+00
 -1      1644 1.15943E+02 1.06774E+01 0.00000E+00
 -1      1645 1.14913E+02 8.49964E+00 0.00000E+00
 -1      1646 1.15317E+02 9.16094E+00 0.00000E+00
 -1      1647 1.13839E+02 7.34811E+00 0.00000E+00
 -1      1648 1.14322E+02 7.85679E+00 0.00000E+00
 -1      1649 1.12629E+02 6.40145E+00 0.00000E+00
 -1      1650 1.13213E+02 6.80973E+00 0.00000E+00
 -1      1651 1.11230E+02 5.71031E+00 0.00000E+00
 -1      1652 1.11895E+02 5.99472E+00 0.00000E+00
 -1      1653 1.09615E+02 5.14230E+00 0.00000E+00
 -1      1654 1.10407E+02 5.29074E+00 0.00000E+00
 -1      1655 1.07991E+02 5.21444E+00 0.00000E+00
 -1      1656 1.08701E+02 5.19202E+00 0.00000E+00
 -1      1657 1.06239E+02 5.53094E+00 0.00000E+00
 -1      1658 1.07067E+02 5.31425E+00 0.00000E+00
 -1      1659 1.04596E+02 6.23015E+00 0.00000E+00
 -1      1660 1.05301E+02 5.85145E+00 0.00000E+00
 -1      1661 1.03324E+02 7.30320E+00 0.00000E+00
 -1      1662 1.03885E+02 6.81729E+00 0.00000E+00
 -1      1663 1.02326E+02 8.54262E+00 0.00000E+00
 -1      1664 1.02765E+02 7.96143E+00 0.00000E+00
 -1      1665 1.01434E+02 9.96540E+00 0.00000E+00
 -1      1666 1.01761E+02 9.25076E+00 0.00000E+00
 -1      1667 1.01112E+02 1.15688E+01 0.00000E+00
 -1      1668 1.01266E+02 1.08560E+01 0.00000E+00
 -1      1669 1.00902E+02 1.32540E+01 0.00000E+00
 -1      1670 1.00898E+02 1.24563E+01 0.00000E+00
 -1      1671 1.01240E+02 1.48368E+01 0.00000E+00
 -1      1672 1.01083E+02 1.41399E+01 0.00000E+00
 -1      1673 1.01788E+02 1.64222E+01 0.00000E+00
 -1      1674 1.01455E+02 1.57089E+01 0.00000E+00
 -1      1675 1.02784E+02 1.76862E+01 0.00000E+00
 -1      1676 1.02352E+02 1.71199E+01 0.00000E+00
 -1      1677 1.03931E+02 1.87881E+01 0.00000E+00
 -1      1678 1.03368E+02 1.83034E+01 0.00000E+00
 -1      1679 1.05235E+02 1.96094E+01 0.00000E+00
 -1      1680 1.04622E+02 1.92710E+01 0.00000E+00
 -1      1681 1.06701E+02 2.02350E+01 0.00000E+00
 -1      1682 1.05989E+02 2.00167E+01 0.00000E+00
 -1      1683 1.08297E+02 2.04244E+01 0.00000E+00
 -1      1684 1.07568E+02 2.03616E+01 0.00000E+00
 -1      1685 1.09885E+02 2.03610E+01 0.00000E+00
 -1      1686 1.09163E+02 2.04503E+01 0.00000E+00
 -1      1687 1.11522E+02 1.99730E+01 0.00000E+00
 -1      1688 1.10787E+02 2.02320E+01 0.00000E+00
 -1      1689 1.12938E+02 1.90092E+01 0.00000E+00
 -1      1690 1.12283E+02 1.94211E+01 0.00000E+00
 -1      1691 1.14207E+02 1.78845E+01 0.00000E+00
 -1      1692 1.13650E+02 1.84408E+01 0.00000E+00
 -1      1693 1.15272E+02 1.65397E+01 0.00000E+00
 -1      1694 1.14852E+02 1.72092E+01 0.00000E+00
 -1      1695 1.15850E+02 1.49561E+01 0.00000E+00
 -1      1696 1.15597E+02 1.56780E+01 0.00000E+00
 -1      1697 1.16226E+02 1.32856E+01 0.00000E+00
 -1      1698 1.16136E+02 1.40771E+01 0.00000E+00
 -1      1699 2.79900E+00 2.18750E+00 0.00000E+00
 -1      1700 1.14600E+02 2.38539E+00 0.00000E+00
 -1      1701 1.13925E+02 1.19270E+00 0.00000E+00
 -1      1702 1.12575E+02 1.19270E+00 0.00000E+00
 -1      1703 1.11825E+02 2.49170E+00 0.00000E+00
 -1      1704 1.16090E+02 9.28712E+00 0.00000E+00
 -1      1705 1.16910E+02 1.28136E+01 0.00000E+00
 -1      1706 1.16714E+02 1.09853E+01 0.00000E+00
 -1      1707 1.48701E+02 4.63625E+01 0.00000E+00
 -1      1708 1.48701E+02 4.48875E+01 0.00000E+00
 -1      1709 1.47651E+02 4.47463E+01 0.00000E+00
 -1      1710 1.15112E+02 7.82823E+00 0.00000E+00
 -1      1711 1.13894E+02 6.64700E+00 0.00000E+00
 -1      1712 1.12535E+02 5.70189E+00 0.00000E+00
 -1      1713 1.10977E+02 4.87559E+00 0.00000E+00
 -1      1714 1.09240E+02 4.50574E+00 0.00000E+00
 -1      1715 1.07402E+02 4.65527E+00 0.00000E+00
 -1      1716 1.05540E+02 5.07559E+00 0.00000E+00
 -1      1717 1.03891E+02 5.98323E+00 0.00000E+00
 -1      1718 1.02621E+02 7.22860E+00 0.00000E+00
 -1      1719 1.01497E+02 8.59497E+00 0.00000E+00
 -1      1720 1.00764E+02 1.01937E+01 0.00000E+00
 -1      1721 1.00382E+02 1.19718E+01 0.00000E+00
 -1      1722 1.00349E+02 1.37452E+01 0.00000E+00
 -1      1723 1.00744E+02 1.55033E+01 0.00000E+00
 -1      1724 1.01522E+02 1.70731E+01 0.00000E+00
 -1      1725 1.02670E+02 1.83880E+01 0.00000E+00
 -1      1726 1.03945E+02 1.94881E+01 0.00000E+00
 -1      1727 1.05389E+02 2.03783E+01 0.00000E+00
 -1      1728 1.07010E+02 2.09121E+01 0.00000E+00
 -1      1729 1.08743E+02 2.10646E+01 0.00000E+00
 -1      1730 1.10510E+02 2.09614E+01 0.00000E+00
 -1      1731 1.12172E+02 2.02804E+01 0.00000E+00
 -1      1732 1.13645E+02 1.91600E+01 0.00000E+00
 -1      1733 1.15002E+02 1.79164E+01 0.00000E+00
 -1      1734 1.15971E+02 1.63795E+01 0.00000E+00
 -1      1735 1.16581E+02 1.46389E+01 0.00000E+00
 -1      1736 2.87400E+00 4.77875E+01 0.00000E+00
 -1      1737 3.89700E+00 4.04125E+01 0.00000E+00
 -1      1738 3.89700E+00 4.18875E+01 0.00000E+00
 -1      1739 3.89700E+00 4.33625E+01 0.00000E+00
 -1      1740 3.89700E+00 4.48375E+01 0.00000E+00
 -1      1741 5.19600E+00 4.26250E+01 0.00000E+00
 -1      1742 3.89700E+00 3.45500E+01 0.00000E+00
 -1      1743 3.89700E+00 3.60000E+01 0.00000E+00
 -1      1744 3.89700E+00 3.16000E+01 0.00000E+00
 -1      1745 3.89700E+00 3.30750E+01 0.00000E+00
 -1      1746 5.19600E+00 3.38000E+01 0.00000E+00
 -1      1747 3.89700E+00 2.86500E+01 0.00000E+00
 -1      1748 3.89700E+00 3.01250E+01 0.00000E+00
 -1      1749 5.19600E+00 3.08500E+01 0.00000E+00
 -1      1750 3.89700E+00 2.57000E+01 0.00000E+00
 -1      1751 3.89700E+00 2.71750E+01 0.00000E+00
 -1      1752 5.19600E+00 2.79000E+01 0.00000E+00
 -1      1753 3.89700E+00 2.27500E+01 0.00000E+00
 -1      1754 3.89700E+00 2.42250E+01 0.00000E+00
 -1      1755 5.19600E+00 2.49500E+01 0.00000E+00
 -1      1756 3.89700E+00 1.98000E+01 0.00000E+00
 -1      1757 3.89700E+00 2.12750E+01 0.00000E+00
 -1      1758 5.19600E+00 2.20000E+01 0.00000E+00
 -1      1759 3.89700E+00 1.69000E+01 0.00000E+00
 -1      1760 3.89700E+00 1.83500E+01 0.00000E+00
 -1      1761 5.19600E+00 1.90750E+01 0.00000E+00
 -1      1762 3.89700E+00 1.39500E+01 0.00000E+00
 -1      1763 3.89700E+00 1.54250E+01 0.00000E+00
 -1      1764 5.19600E+00 1.61500E+01 0.00000E+00
 -1      1765 3.89700E+00 1.10000E+01 0.00000E+00
 -1      1766 3.89700E+00 1.24750E+01 0.00000E+00
 -1      1767 5.19600E+00 1.32000E+01 0.00000E+00
 -1      1768 3.89700E+00 8.05000E+00 0.00000E+00
 -1      1769 3.89700E+00 9.52500E+00 0.00000E+00
 -1      1770 5.19600E+00 1.02500E+01 0.00000E+00
 -1      1771 3.89700E+00 5.10000E+00 0.00000E+00
 -1      1772 3.89700E+00 6.57500E+00 0.00000E+00
 -1      1773 5.19600E+00 7.30000E+00 0.00000E+00
 -1      1774 1.15275E+02 3.32673E+00 0.00000E+00
 -1      1775 1.13925E+02 3.32673E+00 0.00000E+00
 -1      1776 1.16521E+02 8.58448E+00 0.00000E+00
 -1      1777 1.16906E+02 9.40052E+00 0.00000E+00
 -1      1778 3.62400E+00 4.64885E+01 0.00000E+00
 -1      1779 3.54900E+00 3.48650E+00 0.00000E+00
 -1      1780 8.40000E+00 4.61030E+01 0.00000E+00
 -1      1781 9.90000E+00 4.61030E+01 0.00000E+00
 -1      1782 1.14000E+01 4.61030E+01 0.00000E+00
 -1      1783 1.29000E+01 4.61030E+01 0.00000E+00
 -1      1784 1.06500E+01 4.48040E+01 0.00000E+00
 -1      1785 1.44000E+01 4.61030E+01 0.00000E+00
 -1      1786 1.59000E+01 4.61030E+01 0.00000E+00
 -1      1787 1.36500E+01 4.48040E+01 0.00000E+00
 -1      1788 1.74000E+01 4.61030E+01 0.00000E+00
 -1      1789 1.89000E+01 4.61030E+01 0.00000E+00
 -1      1790 1.66500E+01 4.48040E+01 0.00000E+00
 -1      1791 2.04000E+01 4.61030E+01 0.00000E+00
 -1      1792 2.19000E+01 4.61030E+01 0.00000E+00
 -1      1793 1.96500E+01 4.48040E+01 0.00000E+00
 -1      1794 2.34000E+01 4.61030E+01 0.00000E+00
 -1      1795 2.49000E+01 4.61030E+01 0.00000E+00
 -1      1796 2.26500E+01 4.48040E+01 0.00000E+00
 -1      1797 2.64000E+01 4.61030E+01 0.00000E+00
 -1      1798 2.79000E+01 4.61030E+01 0.00000E+00
 -1      1799 2.56500E+01 4.48040E+01 0.00000E+00
 -1      1800 2.94000E+01 4.61030E+01 0.00000E+00
 -1      1801 3.09000E+01 4.61030E+01 0.00000E+00
 -1      1802 2.86500E+01 4.48040E+01 0.00000E+00
 -1      1803 3.24000E+01 4.61030E+01 0.00000E+00
 -1      1804 3.39000E+01 4.61030E+01 0.00000E+00
 -1      1805 3.16500E+01 4.48040E+01 0.00000E+00
 -1      1806 3.54000E+01 4.61030E+01 0.00000E+00
 -1      1807 3.69000E+01 4.61030E+01 0.00000E+00
 -1      1808 3.46500E+01 4.48040E+01 0.00000E+00
 -1      1809 3.84000E+01 4.61030E+01 0.00000E+00
 -1      1810 3.99000E+01 4.61030E+01 0.00000E+00
 -1      1811 3.76500E+01 4.48040E+01 0.00000E+00
 -1      1812 4.14000E+01 4.61030E+01 0.00000E+00
 -1      1813 4.29000E+01 4.61030E+01 0.00000E+00
 -1      1814 4.06500E+01 4.48040E+01 0.00000E+00
 -1      1815 4.44000E+01 4.61030E+01 0.00000E+00
 -1      1816 4.59000E+01 4.61030E+01 0.00000E+00
 -1      1817 4.36500E+01 4.48040E+01 0.00000E+00
 -1      1818 4.74000E+01 4.61030E+01 0.00000E+00
 -1      1819 4.89000E+01 4.61030E+01 0.00000E+00
 -1      1820 4.66500E+01 4.48040E+01 0.00000E+00
 -1      1821 5.04000E+01 4.61030E+01 0.00000E+00
 -1      1822 5.19000E+01 4.61030E+01 0.00000E+00
 -1      1823 4.96500E+01 4.48040E+01 0.00000E+00
 -1      1824 5.34000E+01 4.61030E+01 0.00000E+00
 -1      1825 5.49000E+01 4.61030E+01 0.00000E+00
 -1      1826 5.26500E+01 4.48040E+01 0.00000E+00
 -1      1827 5.64000E+01 4.61030E+01 0.00000E+00
 -1      1828 5.79000E+01 4.61030E+01 0.00000E+00
 -1      1829 5.56500E+01 4.48040E+01 0.00000E+00
 -1      1830 5.94000E+01 4.61030E+01 0.00000E+00
 -1      1831 6.09000E+01 4.61030E+01 0.00000E+00
 -1      1832 5.86500E+01 4.48040E+01 0.00000E+00
 -1      1833 6.24000E+01 4.61030E+01 0.00000E+00
 -1      1834 6.39000E+01 4.61030E+01 0.00000E+00
 -1      1835 6.16500E+01 4.48040E+01 0.00000E+00
 -1      1836 6.54000E+01 4.61030E+01 0.00000E+00
 -1      1837 6.69000E+01 4.61030E+01 0.00000E+00
 -1      1838 6.46500E+01 4.48040E+01 0.00000E+00
 -1      1839 6.84000E+01 4.61030E+01 0.00000E+00
 -1      1840 6.99000E+01 4.61030E+01 0.00000E+00
 -1      1841 6.76500E+01 4.48040E+01 0.00000E+00
 -1      1842 7.14000E+01 4.61030E+01 0.00000E+00
 -1      1843 7.29000E+01 4.61030E+01 0.00000E+00
 -1      1844 7.06500E+01 4.48040E+01 0.00000E+00
 -1      1845 7.44000E+01 4.61030E+01 0.00000E+00
 -1      1846 7.59000E+01 4.61030E+01 0.00000E+00
 -1      1847 7.36500E+01 4.48040E+01 0.00000E+00
 -1      1848 7.74000E+01 4.61030E+01 0.00000E+00
 -1      1849 7.89000E+01 4.61030E+01 0.00000E+00
 -1      1850 7.66500E+01 4.48040E+01 0.00000E+00
 -1      1851 8.04000E+01 4.61030E+01 0.00000E+00
 -1      1852 8.19000E+01 4.61030E+01 0.00000E+00
 -1      1853 7.96500E+01 4.48040E+01 0.00000E+00
 -1      1854 8.34000E+01 4.61030E+01 0.00000E+00
 -1      1855 8.49000E+01 4.61030E+01 0.00000E+00
 -1      1856 8.26500E+01 4.48040E+01 0.00000E+00
 -1      1857 8.64000E+01 4.61030E+01 0.00000E+00
 -1      1858 8.79000E+01 4.61030E+01 0.00000E+00
 -1      1859 8.56500E+01 4.48040E+01 0.00000E+00
 -1      1860 8.94000E+01 4.61030E+01 0.00000E+00
 -1      1861 9.09000E+01 4.61030E+01 0.00000E+00
 -1      1862 8.86500E+01 4.48040E+01 0.00000E+00
 -1      1863 9.24000E+01 4.61030E+01 0.00000E+00
 -1      1864 9.39000E+01 4.61030E+01 0.00000E+00
 -1      1865 9.16500E+01 4.48040E+01 0.00000E+00
 -1      1866 9.54000E+01 4.61030E+01 0.00000E+00
 -1      1867 9.69000E+01 4.61030E+01 0.00000E+00
 -1      1868 9.46500E+01 4.48040E+01 0.00000E+00
 -1      1869 9.84000E+01 4.61030E+01 0.00000E+00
 -1      1870 9.99000E+01 4.61030E+01 0.00000E+00
 -1      1871 9.76500E+01 4.48040E+01 0.00000E+00
 -1      1872 1.01400E+02 4.61030E+01 0.00000E+00
 -1      1873 1.02900E+02 4.61030E+01 0.00000E+00
 -1      1874 1.00650E+02 4.48040E+01 0.00000E+00
 -1      1875 1.04400E+02 4.61030E+01 0.00000E+00
 -1      1876 1.05900E+02 4.61030E+01 0.00000E+00
 -1      1877 1.03650E+02 4.48040E+01 0.00000E+00
 -1      1878 1.07400E+02 4.61030E+01 0.00000E+00
 -1      1879 1.08900E+02 4.61030E+01 0.00000E+00
 -1      1880 1.06650E+02 4.48040E+01 0.00000E+00
 -1      1881 1.10400E+02 4.61030E+01 0.00000E+00
 -1      1882 1.11900E+02 4.61030E+01 0.00000E+00
 -1      1883 1.09650E+02 4.48040E+01 0.00000E+00
 -1      1884 1.13400E+02 4.61030E+01 0.00000E+00
 -1      1885 1.14900E+02 4.61030E+01 0.00000E+00
 -1      1886 1.12650E+02 4.48040E+01 0.00000E+00
 -1      1887 1.16400E+02 4.61030E+01 0.00000E+00
 -1      1888 1.17900E+02 4.61030E+01 0.00000E+00
 -1      1889 1.15650E+02 4.48040E+01 0.00000E+00
 -1      1890 1.19400E+02 4.61030E+01 0.00000E+00
 -1      1891 1.20900E+02 4.61030E+01 0.00000E+00
 -1      1892 1.18650E+02 4.48040E+01 0.00000E+00
 -1      1893 1.22400E+02 4.61030E+01 0.00000E+00
 -1      1894 1.23900E+02 4.61030E+01 0.00000E+00
 -1      1895 1.21650E+02 4.48040E+01 0.00000E+00
 -1      1896 1.25400E+02 4.61030E+01 0.00000E+00
 -1      1897 1.26900E+02 4.61030E+01 0.00000E+00
 -1      1898 1.24650E+02 4.48040E+01 0.00000E+00
 -1      1899 1.28400E+02 4.61030E+01 0.00000E+00
 -1      1900 1.29900E+02 4.61030E+01 0.00000E+00
 -1      1901 1.27650E+02 4.48040E+01 0.00000E+00
 -1      1902 1.31400E+02 4.61030E+01 0.00000E+00
 -1      1903 1.32900E+02 4.61030E+01 0.00000E+00
 -1      1904 1.30650E+02 4.48040E+01 0.00000E+00
 -1      1905 1.34400E+02 4.61030E+01 0.00000E+00
 -1      1906 1.35900E+02 4.61030E+01 0.00000E+00
 -1      1907 1.33650E+02 4.48040E+01 0.00000E+00
 -1      1908 1.37400E+02 4.61030E+01 0.00000E+00
 -1      1909 1.38900E+02 4.61030E+01 0.00000E+00
 -1      1910 1.36650E+02 4.48040E+01 0.00000E+00
 -1      1911 1.40400E+02 4.61030E+01 0.00000E+00
 -1      1912 1.41900E+02 4.61030E+01 0.00000E+00
 -1      1913 1.39650E+02 4.48040E+01 0.00000E+00
 -1      1914 1.43400E+02 4.61030E+01 0.00000E+00
 -1      1915 1.44900E+02 4.61030E+01 0.00000E+00
 -1      1916 1.42650E+02 4.48040E+01 0.00000E+00
 -1      1917 1.24050E+02 3.68439E+00 0.00000E+00
 -1      1918 1.22550E+02 3.68439E+00 0.00000E+00
 -1      1919 1.27500E+01 3.89700E+00 0.00000E+00
 -1      1920 1.12500E+01 3.89700E+00 0.00000E+00
 -1      1921 9.75000E+00 3.89700E+00 0.00000E+00
 -1      1922 8.25000E+00 3.89700E+00 0.00000E+00
 -1      1923 1.05000E+01 5.19600E+00 0.00000E+00
 -1      1924 1.57500E+01 3.89700E+00 0.00000E+00
 -1      1925 1.42500E+01 3.89700E+00 0.00000E+00
 -1      1926 1.35000E+01 5.19600E+00 0.00000E+00
 -1      1927 1.87500E+01 3.89700E+00 0.00000E+00
 -1      1928 1.72500E+01 3.89700E+00 0.00000E+00
 -1      1929 1.65000E+01 5.19600E+00 0.00000E+00
 -1      1930 2.17500E+01 3.89700E+00 0.00000E+00
 -1      1931 2.02500E+01 3.89700E+00 0.00000E+00
 -1      1932 1.95000E+01 5.19600E+00 0.00000E+00
 -1      1933 2.47500E+01 3.89700E+00 0.00000E+00
 -1      1934 2.32500E+01 3.89700E+00 0.00000E+00
 -1      1935 2.25000E+01 5.19600E+00 0.00000E+00
 -1      1936 2.76000E+01 3.89700E+00 0.00000E+00
 -1      1937 2.61750E+01 3.89700E+00 0.00000E+00
 -1      1938 2.54250E+01 5.19600E+00 0.00000E+00
 -1      1939 3.06000E+01 3.89700E+00 0.00000E+00
 -1      1940 2.91000E+01 3.89700E+00 0.00000E+00
 -1      1941 2.83500E+01 5.19600E+00 0.00000E+00
 -1      1942 3.36000E+01 3.89700E+00 0.00000E+00
 -1      1943 3.21000E+01 3.89700E+00 0.00000E+00
 -1      1944 3.13500E+01 5.19600E+00 0.00000E+00
 -1      1945 3.66000E+01 3.89700E+00 0.00000E+00
 -1      1946 3.51000E+01 3.89700E+00 0.00000E+00
 -1      1947 3.43500E+01 5.19600E+00 0.00000E+00
 -1      1948 3.96000E+01 3.89700E+00 0.00000E+00
 -1      1949 3.81000E+01 3.89700E+00 0.00000E+00
 -1      1950 3.73500E+01 5.19600E+00 0.00000E+00
 -1      1951 4.26000E+01 3.89700E+00 0.00000E+00
 -1      1952 4.11000E+01 3.89700E+00 0.00000E+00
 -1      1953 4.03500E+01 5.19600E+00 0.00000E+00
 -1      1954 4.56000E+01 3.89700E+00 0.00000E+00
 -1      1955 4.41000E+01 3.89700E+00 0.00000E+00
 -1      1956 4.33500E+01 5.19600E+00 0.00000E+00
 -1      1957 4.86000E+01 3.89700E+00 0.00000E+00
 -1      1958 4.71000E+01 3.89700E+00 0.00000E+00
 -1      1959 4.63500E+01 5.19600E+00 0.00000E+00
 -1      1960 5.16000E+01 3.89700E+00 0.00000E+00
 -1      1961 5.01000E+01 3.89700E+00 0.00000E+00
 -1      1962 4.93500E+01 5.19600E+00 0.00000E+00
 -1      1963 5.46000E+01 3.89700E+00 0.00000E+00
 -1      1964 5.31000E+01 3.89700E+00 0.00000E+00
 -1      1965 5.23500E+01 5.19600E+00 0.00000E+00
 -1      1966 5.74500E+01 3.89700E+00 0.00000E+00
 -1      1967 5.60250E+01 3.89700E+00 0.00000E+00
 -1      1968 5.52750E+01 5.19600E+00 0.00000E+00
 -1      1969 6.04500E+01 3.89700E+00 0.00000E+00
 -1      1970 5.89500E+01 3.89700E+00 0.00000E+00
 -1      1971 5.82000E+01 5.19600E+00 0.00000E+00
 -1      1972 6.34500E+01 3.89700E+00 0.00000E+00
 -1      1973 6.19500E+01 3.89700E+00 0.00000E+00
 -1      1974 6.12000E+01 5.19600E+00 0.00000E+00
 -1      1975 6.64500E+01 3.89700E+00 0.00000E+00
 -1      1976 6.49500E+01 3.89700E+00 0.00000E+00
 -1      1977 6.42000E+01 5.19600E+00 0.00000E+00
 -1      1978 6.94500E+01 3.89700E+00 0.00000E+00
 -1      1979 6.79500E+01 3.89700E+00 0.00000E+00
 -1      1980 6.72000E+01 5.19600E+00 0.00000E+00
 -1      1981 7.24500E+01 3.89700E+00 0.00000E+00
 -1      1982 7.09500E+01 3.89700E+00 0.00000E+00
 -1      1983 7.02000E+01 5.19600E+00 0.00000E+00
 -1      1984 7.54500E+01 3.89700E+00 0.00000E+00
 -1      1985 7.39500E+01 3.89700E+00 0.00000E+00
 -1      1986 7.32000E+01 5.19600E+00 0.00000E+00
 -1      1987 7.84500E+01 3.89700E+00 0.00000E+00
 -1      1988 7.69500E+01 3.89700E+00 0.00000E+00
 -1      1989 7.62000E+01 5.19600E+00 0.00000E+00
 -1      1990 8.14500E+01 3.89700E+00 0.00000E+00
 -1      1991 7.99500E+01 3.89700E+00 0.00000E+00
 -1      1992 7.92000E+01 5.19600E+00 0.00000E+00
 -1      1993 8.44500E+01 3.89700E+00 0.00000E+00
 -1      1994 8.29500E+01 3.89700E+00 0.00000E+00
 -1      1995 8.22000E+01 5.19600E+00 0.00000E+00
 -1      1996 8.73000E+01 3.89700E+00 0.00000E+00
 -1      1997 8.58750E+01 3.89700E+00 0.00000E+00
 -1      1998 8.51250E+01 5.19600E+00 0.00000E+00
 -1      1999 9.03000E+01 3.89700E+00 0.00000E+00
 -1      2000 8.88000E+01 3.89700E+00 0.00000E+00
 -1      2001 8.80500E+01 5.19600E+00 0.00000E+00
 -1      2002 9.33000E+01 3.89700E+00 0.00000E+00
 -1      2003 9.18000E+01 3.89700E+00 0.00000E+00
 -1      2004 9.10500E+01 5.19600E+00 0.00000E+00
 -1      2005 9.63000E+01 3.89700E+00 0.00000E+00
 -1      2006 9.48000E+01 3.89700E+00 0.00000E+00
 -1      2007 9.40500E+01 5.19600E+00 0.00000E+00
 -1      2008 9.90000E+01 3.89700E+00 0.00000E+00
 -1      2009 9.76500E+01 3.89700E+00 0.00000E+00
 -1      2010 9.69000E+01 5.19600E+00 0.00000E+00
 -1      2011 1.01887E+02 3.62313E+00 0.00000E+00
 -1      2012 1.00463E+02 3.62313E+00 0.00000E+00
 -1      2013 1.04512E+02 3.45556E+00 0.00000E+00
 -1      2014 1.03238E+02 3.45556E+00 0.00000E+00
 -1      2015 1.07014E+02 3.67654E+00 0.00000E+00
 -1      2016 1.05814E+02 3.67654E+00 0.00000E+00
 -1      2017 1.21125E+02 3.68439E+00 0.00000E+00
 -1      2018 1.19700E+02 3.68439E+00 0.00000E+00
 -1      2019 1.21875E+02 4.98339E+00 0.00000E+00
 -1      2020 1.18200E+02 3.68439E+00 0.00000E+00
 -1      2021 1.16700E+02 3.68439E+00 0.00000E+00
 -1      2022 1.18950E+02 4.98339E+00 0.00000E+00
 -1      2023 1.27050E+02 3.68439E+00 0.00000E+00
 -1      2024 1.25550E+02 3.68439E+00 0.00000E+00
 -1      2025 1.24800E+02 4.98339E+00 0.00000E+00
 -1      2026 1.30050E+02 3.68439E+00 0.00000E+00
 -1      2027 1.28550E+02 3.68439E+00 0.00000E+00
 -1      2028 1.27800E+02 4.98339E+00 0.00000E+00
 -1      2029 1.33050E+02 3.68439E+00 0.00000E+00
 -1      2030 1.31550E+02 3.68439E+00 0.00000E+00
 -1      2031 1.30800E+02 4.98339E+00 0.00000E+00
 -1      2032 1.36050E+02 3.68439E+00 0.00000E+00
 -1      2033 1.34550E+02 3.68439E+00 0.00000E+00
 -1      2034 1.33800E+02 4.98339E+00 0.00000E+00
 -1      2035 1.39050E+02 3.68439E+00 0.00000E+00
 -1      2036 1.37550E+02 3.68439E+00 0.00000E+00
 -1      2037 1.36800E+02 4.98339E+00 0.00000E+00
 -1      2038 1.42050E+02 3.68439E+00 0.00000E+00
 -1      2039 1.40550E+02 3.68439E+00 0.00000E+00
 -1      2040 1.39800E+02 4.98339E+00 0.00000E+00
 -1      2041 1.45050E+02 3.68439E+00 0.00000E+00
 -1      2042 1.43550E+02 3.68439E+00 0.00000E+00
 -1      2043 1.42800E+02 4.98339E+00 0.00000E+00
 -1      2044 1.47000E+02 3.98412E+00 0.00000E+00
 -1      2045 1.45950E+02 3.84297E+00 0.00000E+00
 -1      2046 1.45200E+02 5.14197E+00 0.00000E+00
 -1      2047 1.47000E+02 5.45912E+00 0.00000E+00
 -1      2048 1.46601E+02 1.07802E+01 0.00000E+00
 -1      2049 1.46601E+02 9.30520E+00 0.00000E+00
 -1      2050 1.46801E+02 8.11966E+00 0.00000E+00
 -1      2051 1.46801E+02 6.64466E+00 0.00000E+00
 -1      2052 1.45900E+02 6.48608E+00 0.00000E+00
 -1      2053 1.45501E+02 8.85716E+00 0.00000E+00
 -1      2054 1.46601E+02 1.37302E+01 0.00000E+00
 -1      2055 1.46601E+02 1.22552E+01 0.00000E+00
 -1      2056 1.45302E+02 1.15177E+01 0.00000E+00
 -1      2057 1.46601E+02 1.66302E+01 0.00000E+00
 -1      2058 1.46601E+02 1.51802E+01 0.00000E+00
 -1      2059 1.45302E+02 1.44427E+01 0.00000E+00
 -1      2060 1.46601E+02 1.95802E+01 0.00000E+00
 -1      2061 1.46601E+02 1.81052E+01 0.00000E+00
 -1      2062 1.45302E+02 1.73677E+01 0.00000E+00
 -1      2063 1.46601E+02 2.25302E+01 0.00000E+00
 -1      2064 1.46601E+02 2.10552E+01 0.00000E+00
 -1      2065 1.45302E+02 2.03177E+01 0.00000E+00
 -1      2066 1.46601E+02 2.54802E+01 0.00000E+00
 -1      2067 1.46601E+02 2.40052E+01 0.00000E+00
 -1      2068 1.45302E+02 2.32677E+01 0.00000E+00
 -1      2069 1.46601E+02 2.84302E+01 0.00000E+00
 -1      2070 1.46601E+02 2.69552E+01 0.00000E+00
 -1      2071 1.45302E+02 2.62177E+01 0.00000E+00
 -1      2072 1.46601E+02 3.13802E+01 0.00000E+00
 -1      2073 1.46601E+02 2.99052E+01 0.00000E+00
 -1      2074 1.45302E+02 2.91677E+01 0.00000E+00
 -1      2075 1.46601E+02 3.42802E+01 0.00000E+00
 -1      2076 1.46601E+02 3.28302E+01 0.00000E+00
 -1      2077 1.45302E+02 3.20927E+01 0.00000E+00
 -1      2078 1.46601E+02 3.72302E+01 0.00000E+00
 -1      2079 1.46601E+02 3.57552E+01 0.00000E+00
 -1      2080 1.45302E+02 3.50177E+01 0.00000E+00
 -1      2081 1.46601E+02 4.01802E+01 0.00000E+00
 -1      2082 1.46601E+02 3.87052E+01 0.00000E+00
 -1      2083 1.45302E+02 3.79677E+01 0.00000E+00
 -1      2084 1.46601E+02 4.31302E+01 0.00000E+00
 -1      2085 1.46601E+02 4.16552E+01 0.00000E+00
 -1      2086 1.45302E+02 4.09177E+01 0.00000E+00
 -1      2087 1.15293E+02 7.06781E+00 0.00000E+00
 -1      2088 1.15885E+02 7.71066E+00 0.00000E+00
 -1      2089 1.46526E+02 4.65135E+01 0.00000E+00
 -1      2090 1.17579E+02 1.23700E+01 0.00000E+00
 -1      2091 1.17535E+02 1.33163E+01 0.00000E+00
 -1      2092 1.07938E+02 3.57673E+00 0.00000E+00
 -1      2093 3.89700E+00 3.74688E+01 0.00000E+00
 -1      2094 3.89700E+00 3.89437E+01 0.00000E+00
 -1      2095 5.19600E+00 3.96813E+01 0.00000E+00
 -1      2096 5.19600E+00 3.67438E+01 0.00000E+00
 -1      2097 1.14086E+02 5.79109E+00 0.00000E+00
 -1      2098 1.14712E+02 6.32947E+00 0.00000E+00
 -1      2099 1.12503E+02 4.89512E+00 0.00000E+00
 -1      2100 1.13236E+02 5.30185E+00 0.00000E+00
 -1      2101 1.10860E+02 4.08830E+00 0.00000E+00
 -1      2102 1.11683E+02 4.50788E+00 0.00000E+00
 -1      2103 1.03528E+02 5.44174E+00 0.00000E+00
 -1      2104 1.04238E+02 4.85460E+00 0.00000E+00
 -1      2105 1.01783E+02 7.08379E+00 0.00000E+00
 -1      2106 1.02343E+02 6.42557E+00 0.00000E+00
 -1      2107 1.00654E+02 8.50008E+00 0.00000E+00
 -1      2108 1.01219E+02 7.79194E+00 0.00000E+00
 -1      2109 1.00941E+02 6.98890E+00 0.00000E+00
 -1      2110 9.98376E+01 1.04800E+01 0.00000E+00
 -1      2111 1.00006E+02 9.58944E+00 0.00000E+00
 -1      2112 9.94094E+01 1.22550E+01 0.00000E+00
 -1      2113 9.96235E+01 1.13675E+01 0.00000E+00
 -1      2114 9.88648E+01 1.07633E+01 0.00000E+00
 -1      2115 9.98041E+01 1.43177E+01 0.00000E+00
 -1      2116 9.96234E+01 1.34318E+01 0.00000E+00
 -1      2117 1.00233E+02 1.60619E+01 0.00000E+00
 -1      2118 1.00019E+02 1.51898E+01 0.00000E+00
 -1      2119 9.92932E+01 1.48763E+01 0.00000E+00
 -1      2120 1.01137E+02 1.79609E+01 0.00000E+00
 -1      2121 1.00573E+02 1.72632E+01 0.00000E+00
 -1      2122 1.02305E+02 1.91953E+01 0.00000E+00
 -1      2123 1.01721E+02 1.85781E+01 0.00000E+00
 -1      2124 1.00772E+02 1.87683E+01 0.00000E+00
 -1      2125 1.03847E+02 2.03637E+01 0.00000E+00
 -1      2126 1.03156E+02 1.98808E+01 0.00000E+00
 -1      2127 1.05354E+02 2.11783E+01 0.00000E+00
 -1      2128 1.04600E+02 2.07710E+01 0.00000E+00
 -1      2129 1.03812E+02 2.11637E+01 0.00000E+00
 -1      2130 1.07350E+02 2.16167E+01 0.00000E+00
 -1      2131 1.06483E+02 2.14901E+01 0.00000E+00
 -1      2132 1.09151E+02 2.18928E+01 0.00000E+00
 -1      2133 1.08285E+02 2.18669E+01 0.00000E+00
 -1      2134 1.11064E+02 2.16213E+01 0.00000E+00
 -1      2135 1.10163E+02 2.17504E+01 0.00000E+00
 -1      2136 1.12933E+02 2.05290E+01 0.00000E+00
 -1      2137 1.12172E+02 2.10809E+01 0.00000E+00
 -1      2138 1.14431E+02 1.94151E+01 0.00000E+00
 -1      2139 1.13719E+02 1.99835E+01 0.00000E+00
 -1      2140 1.15884E+02 1.81132E+01 0.00000E+00
 -1      2141 1.15239E+02 1.87884E+01 0.00000E+00
 -1      2142 1.16857E+02 1.62212E+01 0.00000E+00
 -1      2143 1.16533E+02 1.70829E+01 0.00000E+00
 -1      2144 1.17428E+02 1.44632E+01 0.00000E+00
 -1      2145 1.17143E+02 1.53422E+01 0.00000E+00
 -1      2146 1.17705E+02 1.60456E+01 0.00000E+00
 -1      2147 4.84800E+00 4.21150E+00 0.00000E+00
 -1      2148 1.17301E+02 1.03529E+01 0.00000E+00
 -1      2149 1.17540E+02 1.12350E+01 0.00000E+00
 -1      2150 4.92300E+00 4.57510E+01 0.00000E+00
 -1      2151 1.45776E+02 4.52145E+01 0.00000E+00
 -1      2152 1.09363E+02 3.57673E+00 0.00000E+00
 -1      2153 1.10277E+02 3.52701E+00 0.00000E+00
 -1      2154 1.13902E+02 4.38158E+00 0.00000E+00
 -1      2155 1.13227E+02 3.44024E+00 0.00000E+00
 -1      2156 1.18166E+02 1.17376E+01 0.00000E+00
 -1      2157 1.16025E+02 4.62573E+00 0.00000E+00
 -1      2158 1.17732E+02 9.65027E+00 0.00000E+00
 -1      2159 6.42300E+00 4.57510E+01 0.00000E+00
 -1      2160 1.15484E+02 6.21190E+00 0.00000E+00
 -1      2161 7.17300E+00 4.44520E+01 0.00000E+00
 -1      2162 7.09800E+00 5.51050E+00 0.00000E+00
 -1      2163 6.34800E+00 4.21150E+00 0.00000E+00
 -1      2164 9.97125E+01 4.92213E+00 0.00000E+00
 -1      2165 1.02525E+02 4.48068E+00 0.00000E+00
 -1      2166 1.05177E+02 4.53410E+00 0.00000E+00
 -1      2167 1.10983E+02 3.15930E+00 0.00000E+00
 -1      2168 1.12408E+02 3.05299E+00 0.00000E+00
 -1      2169 1.12385E+02 4.10783E+00 0.00000E+00
 -1      2170 1.16702E+02 7.82406E+00 0.00000E+00
 -1      2171 1.46025E+02 4.43358E+01 0.00000E+00
 -1      2172 1.18097E+02 1.40196E+01 0.00000E+00
 -1      2173 1.16770E+02 1.79549E+01 0.00000E+00
 -1      2174 1.15313E+02 1.96119E+01 0.00000E+00
 -1      2175 1.13720E+02 2.07840E+01 0.00000E+00
 -1      2176 1.11825E+02 2.18699E+01 0.00000E+00
 -1      2177 1.11478E+02 2.26590E+01 0.00000E+00
 -1      2178 1.12586E+02 2.21185E+01 0.00000E+00
 -1      2179 1.09706E+02 2.25528E+01 0.00000E+00
 -1      2180 1.05694E+02 2.18829E+01 0.00000E+00
 -1      2181 1.02207E+02 2.00710E+01 0.00000E+00
 -1      2182 9.98479E+01 1.69498E+01 0.00000E+00
 -1      2183 9.88647E+01 1.28275E+01 0.00000E+00
 -1      2184 9.97276E+01 8.78640E+00 0.00000E+00
 -1      2185 1.44726E+02 4.35984E+01 0.00000E+00
 -1      2186 1.14054E+02 4.98432E+00 0.00000E+00
 -1      2187 1.07758E+02 2.24449E+01 0.00000E+00
 -1      2188 1.18880E+02 1.35140E+01 0.00000E+00
 -1      2189 1.18773E+02 1.46610E+01 0.00000E+00
 -1      2190 6.49500E+00 3.01125E+01 0.00000E+00
 -1      2191 6.49500E+00 3.15875E+01 0.00000E+00
 -1      2192 6.49500E+00 3.30625E+01 0.00000E+00
 -1      2193 6.49500E+00 3.45375E+01 0.00000E+00
 -1      2194 7.79400E+00 3.23250E+01 0.00000E+00
 -1      2195 6.49500E+00 2.42125E+01 0.00000E+00
 -1      2196 6.49500E+00 2.56875E+01 0.00000E+00
 -1      2197 6.49500E+00 2.12625E+01 0.00000E+00
 -1      2198 6.49500E+00 2.27375E+01 0.00000E+00
 -1      2199 7.79400E+00 2.34750E+01 0.00000E+00
 -1      2200 6.49500E+00 1.83625E+01 0.00000E+00
 -1      2201 6.49500E+00 1.98125E+01 0.00000E+00
 -1      2202 7.79400E+00 2.05500E+01 0.00000E+00
 -1      2203 6.49500E+00 1.54125E+01 0.00000E+00
 -1      2204 6.49500E+00 1.68875E+01 0.00000E+00
 -1      2205 7.79400E+00 1.76250E+01 0.00000E+00
 -1      2206 6.49500E+00 1.24625E+01 0.00000E+00
 -1      2207 6.49500E+00 1.39375E+01 0.00000E+00
 -1      2208 7.79400E+00 1.46750E+01 0.00000E+00
 -1      2209 6.49500E+00 9.51250E+00 0.00000E+00
 -1      2210 6.49500E+00 1.09875E+01 0.00000E+00
 -1      2211 7.79400E+00 1.17250E+01 0.00000E+00
 -1      2212 6.79650E+00 6.77400E+00 0.00000E+00
 -1      2213 6.79650E+00 8.24900E+00 0.00000E+00
 -1      2214 8.09550E+00 8.98650E+00 0.00000E+00
 -1      2215 8.69850E+00 6.45950E+00 0.00000E+00
 -1      2216 1.18961E+02 1.11422E+01 0.00000E+00
 -1      2217 1.19000E+02 1.22772E+01 0.00000E+00
 -1      2218 9.90000E+00 4.35050E+01 0.00000E+00
 -1      2219 1.14000E+01 4.35050E+01 0.00000E+00
 -1      2220 1.14752E+02 4.87082E+00 0.00000E+00
 -1      2221 1.29000E+01 4.35050E+01 0.00000E+00
 -1      2222 1.44000E+01 4.35050E+01 0.00000E+00
 -1      2223 1.21500E+01 4.22060E+01 0.00000E+00
 -1      2224 1.59000E+01 4.35050E+01 0.00000E+00
 -1      2225 1.74000E+01 4.35050E+01 0.00000E+00
 -1      2226 1.51500E+01 4.22060E+01 0.00000E+00
 -1      2227 1.89000E+01 4.35050E+01 0.00000E+00
 -1      2228 2.04000E+01 4.35050E+01 0.00000E+00
 -1      2229 1.81500E+01 4.22060E+01 0.00000E+00
 -1      2230 2.19000E+01 4.35050E+01 0.00000E+00
 -1      2231 2.34000E+01 4.35050E+01 0.00000E+00
 -1      2232 2.11500E+01 4.22060E+01 0.00000E+00
 -1      2233 2.49000E+01 4.35050E+01 0.00000E+00
 -1      2234 2.64000E+01 4.35050E+01 0.00000E+00
 -1      2235 2.41500E+01 4.22060E+01 0.00000E+00
 -1      2236 2.79000E+01 4.35050E+01 0.00000E+00
 -1      2237 2.94000E+01 4.35050E+01 0.00000E+00
 -1      2238 2.71500E+01 4.22060E+01 0.00000E+00
 -1      2239 3.09000E+01 4.35050E+01 0.00000E+00
 -1      2240 3.24000E+01 4.35050E+01 0.00000E+00
 -1      2241 3.01500E+01 4.22060E+01 0.00000E+00
 -1      2242 3.39000E+01 4.35050E+01 0.00000E+00
 -1      2243 3.54000E+01 4.35050E+01 0.00000E+00
 -1      2244 3.31500E+01 4.22060E+01 0.00000E+00
 -1      2245 3.69000E+01 4.35050E+01 0.00000E+00
 -1      2246 3.84000E+01 4.35050E+01 0.00000E+00
 -1      2247 3.61500E+01 4.22060E+01 0.00000E+00
 -1      2248 3.99000E+01 4.35050E+01 0.00000E+00
 -1      2249 4.14000E+01 4.35050E+01 0.00000E+00
 -1      2250 3.91500E+01 4.22060E+01 0.00000E+00
 -1      2251 4.29000E+01 4.35050E+01 0.00000E+00
 -1      2252 4.44000E+01 4.35050E+01 0.00000E+00
 -1      2253 4.21500E+01 4.22060E+01 0.00000E+00
 -1      2254 4.59000E+01 4.35050E+01 0.00000E+00
 -1      2255 4.74000E+01 4.35050E+01 0.00000E+00
 -1      2256 4.51500E+01 4.22060E+01 0.00000E+00
 -1      2257 4.89000E+01 4.35050E+01 0.00000E+00
 -1      2258 5.04000E+01 4.35050E+01 0.00000E+00
 -1      2259 4.81500E+01 4.22060E+01 0.00000E+00
 -1      2260 5.19000E+01 4.35050E+01 0.00000E+00
 -1      2261 5.34000E+01 4.35050E+01 0.00000E+00
 -1      2262 5.11500E+01 4.22060E+01 0.00000E+00
 -1      2263 5.49000E+01 4.35050E+01 0.00000E+00
 -1      2264 5.64000E+01 4.35050E+01 0.00000E+00
 -1      2265 5.41500E+01 4.22060E+01 0.00000E+00
 -1      2266 5.79000E+01 4.35050E+01 0.00000E+00
 -1      2267 5.94000E+01 4.35050E+01 0.00000E+00
 -1      2268 5.71500E+01 4.22060E+01 0.00000E+00
 -1      2269 6.09000E+01 4.35050E+01 0.00000E+00
 -1      2270 6.24000E+01 4.35050E+01 0.00000E+00
 -1      2271 6.01500E+01 4.22060E+01 0.00000E+00
 -1      2272 6.39000E+01 4.35050E+01 0.00000E+00
 -1      2273 6.54000E+01 4.35050E+01 0.00000E+00
 -1      2274 6.31500E+01 4.22060E+01 0.00000E+00
 -1      2275 6.69000E+01 4.35050E+01 0.00000E+00
 -1      2276 6.84000E+01 4.35050E+01 0.00000E+00
 -1      2277 6.61500E+01 4.22060E+01 0.00000E+00
 -1      2278 6.99000E+01 4.35050E+01 0.00000E+00
 -1      2279 7.14000E+01 4.35050E+01 0.00000E+00
 -1      2280 6.91500E+01 4.22060E+01 0.00000E+00
 -1      2281 7.29000E+01 4.35050E+01 0.00000E+00
 -1      2282 7.44000E+01 4.35050E+01 0.00000E+00
 -1      2283 7.21500E+01 4.22060E+01 0.00000E+00
 -1      2284 7.59000E+01 4.35050E+01 0.00000E+00
 -1      2285 7.74000E+01 4.35050E+01 0.00000E+00
 -1      2286 7.51500E+01 4.22060E+01 0.00000E+00
 -1      2287 7.89000E+01 4.35050E+01 0.00000E+00
 -1      2288 8.04000E+01 4.35050E+01 0.00000E+00
 -1      2289 7.81500E+01 4.22060E+01 0.00000E+00
 -1      2290 8.19000E+01 4.35050E+01 0.00000E+00
 -1      2291 8.34000E+01 4.35050E+01 0.00000E+00
 -1      2292 8.11500E+01 4.22060E+01 0.00000E+00
 -1      2293 8.49000E+01 4.35050E+01 0.00000E+00
 -1      2294 8.64000E+01 4.35050E+01 0.00000E+00
 -1      2295 8.41500E+01 4.22060E+01 0.00000E+00
 -1      2296 8.79000E+01 4.35050E+01 0.00000E+00
 -1      2297 8.94000E+01 4.35050E+01 0.00000E+00
 -1      2298 8.71500E+01 4.22060E+01 0.00000E+00
 -1      2299 9.09000E+01 4.35050E+01 0.00000E+00
 -1      2300 9.24000E+01 4.35050E+01 0.00000E+00
 -1      2301 9.01500E+01 4.22060E+01 0.00000E+00
 -1      2302 9.39000E+01 4.35050E+01 0.00000E+00
 -1      2303 9.54000E+01 4.35050E+01 0.00000E+00
 -1      2304 9.31500E+01 4.22060E+01 0.00000E+00
 -1      2305 9.69000E+01 4.35050E+01 0.00000E+00
 -1      2306 9.84000E+01 4.35050E+01 0.00000E+00
 -1      2307 9.61500E+01 4.22060E+01 0.00000E+00
 -1      2308 9.99000E+01 4.35050E+01 0.00000E+00
 -1      2309 1.01400E+02 4.35050E+01 0.00000E+00
 -1      2310 9.91500E+01 4.22060E+01 0.00000E+00
 -1      2311 1.02900E+02 4.35050E+01 0.00000E+00
 -1      2312 1.04400E+02 4.35050E+01 0.00000E+00
 -1      2313 1.02150E+02 4.22060E+01 0.00000E+00
 -1      2314 1.05900E+02 4.35050E+01 0.00000E+00
 -1      2315 1.07400E+02 4.35050E+01 0.00000E+00
 -1      2316 1.05150E+02 4.22060E+01 0.00000E+00
 -1      2317 1.08900E+02 4.35050E+01 0.00000E+00
 -1      2318 1.10400E+02 4.35050E+01 0.00000E+00
 -1      2319 1.08150E+02 4.22060E+01 0.00000E+00
 -1      2320 1.11900E+02 4.35050E+01 0.00000E+00
 -1      2321 1.13400E+02 4.35050E+01 0.00000E+00
 -1      2322 1.11150E+02 4.22060E+01 0.00000E+00
 -1      2323 1.14900E+02 4.35050E+01 0.00000E+00
 -1      2324 1.16400E+02 4.35050E+01 0.00000E+00
 -1      2325 1.14150E+02 4.22060E+01 0.00000E+00
 -1      2326 1.17900E+02 4.35050E+01 0.00000E+00
 -1      2327 1.19400E+02 4.35050E+01 0.00000E+00
 -1      2328 1.17150E+02 4.22060E+01 0.00000E+00
 -1      2329 1.20900E+02 4.35050E+01 0.00000E+00
 -1      2330 1.22400E+02 4.35050E+01 0.00000E+00
 -1      2331 1.20150E+02 4.22060E+01 0.00000E+00
 -1      2332 1.23900E+02 4.35050E+01 0.00000E+00
 -1      2333 1.25400E+02 4.35050E+01 0.00000E+00
 -1      2334 1.23150E+02 4.22060E+01 0.00000E+00
 -1      2335 1.26900E+02 4.35050E+01 0.00000E+00
 -1      2336 1.28400E+02 4.35050E+01 0.00000E+00
 -1      2337 1.26150E+02 4.22060E+01 0.00000E+00
 -1      2338 1.29900E+02 4.35050E+01 0.00000E+00
 -1      2339 1.31400E+02 4.35050E+01 0.00000E+00
 -1      2340 1.29150E+02 4.22060E+01 0.00000E+00
 -1      2341 1.32900E+02 4.35050E+01 0.00000E+00
 -1      2342 1.34400E+02 4.35050E+01 0.00000E+00
 -1      2343 1.32150E+02 4.22060E+01 0.00000E+00
 -1      2344 1.35900E+02 4.35050E+01 0.00000E+00
 -1      2345 1.37400E+02 4.35050E+01 0.00000E+00
 -1      2346 1.35150E+02 4.22060E+01 0.00000E+00
 -1      2347 1.38900E+02 4.35050E+01 0.00000E+00
 -1      2348 1.40400E+02 4.35050E+01 0.00000E+00
 -1      2349 1.38150E+02 4.22060E+01 0.00000E+00
 -1      2350 1.41813E+02 4.35517E+01 0.00000E+00
 -1      2351 1.43313E+02 4.35517E+01 0.00000E+00
 -1      2352 1.43889E+02 4.23460E+01 0.00000E+00
 -1      2353 1.41063E+02 4.22527E+01 0.00000E+00
 -1      2354 1.28550E+02 6.28239E+00 0.00000E+00
 -1      2355 1.27050E+02 6.28239E+00 0.00000E+00
 -1      2356 1.42500E+01 6.49500E+00 0.00000E+00
 -1      2357 1.27500E+01 6.49500E+00 0.00000E+00
 -1      2358 2.02500E+01 6.49500E+00 0.00000E+00
 -1      2359 1.87500E+01 6.49500E+00 0.00000E+00
 -1      2360 2.32500E+01 6.49500E+00 0.00000E+00
 -1      2361 2.17500E+01 6.49500E+00 0.00000E+00
 -1      2362 2.10000E+01 7.79400E+00 0.00000E+00
 -1      2363 2.61000E+01 6.49500E+00 0.00000E+00
 -1      2364 2.46750E+01 6.49500E+00 0.00000E+00
 -1      2365 2.39250E+01 7.79400E+00 0.00000E+00
 -1      2366 2.91000E+01 6.49500E+00 0.00000E+00
 -1      2367 2.76000E+01 6.49500E+00 0.00000E+00
 -1      2368 2.68500E+01 7.79400E+00 0.00000E+00
 -1      2369 3.21000E+01 6.49500E+00 0.00000E+00
 -1      2370 3.06000E+01 6.49500E+00 0.00000E+00
 -1      2371 2.98500E+01 7.79400E+00 0.00000E+00
 -1      2372 3.51000E+01 6.49500E+00 0.00000E+00
 -1      2373 3.36000E+01 6.49500E+00 0.00000E+00
 -1      2374 3.28500E+01 7.79400E+00 0.00000E+00
 -1      2375 3.81000E+01 6.49500E+00 0.00000E+00
 -1      2376 3.66000E+01 6.49500E+00 0.00000E+00
 -1      2377 3.58500E+01 7.79400E+00 0.00000E+00
 -1      2378 4.11000E+01 6.49500E+00 0.00000E+00
 -1      2379 3.96000E+01 6.49500E+00 0.00000E+00
 -1      2380 3.88500E+01 7.79400E+00 0.00000E+00
 -1      2381 4.41000E+01 6.49500E+00 0.00000E+00
 -1      2382 4.26000E+01 6.49500E+00 0.00000E+00
 -1      2383 4.18500E+01 7.79400E+00 0.00000E+00
 -1      2384 4.71000E+01 6.49500E+00 0.00000E+00
 -1      2385 4.56000E+01 6.49500E+00 0.00000E+00
 -1      2386 4.48500E+01 7.79400E+00 0.00000E+00
 -1      2387 5.01000E+01 6.49500E+00 0.00000E+00
 -1      2388 4.86000E+01 6.49500E+00 0.00000E+00
 -1      2389 4.78500E+01 7.79400E+00 0.00000E+00
 -1      2390 5.31000E+01 6.49500E+00 0.00000E+00
 -1      2391 5.16000E+01 6.49500E+00 0.00000E+00
 -1      2392 5.08500E+01 7.79400E+00 0.00000E+00
 -1      2393 5.59500E+01 6.49500E+00 0.00000E+00
 -1      2394 5.45250E+01 6.49500E+00 0.00000E+00
 -1      2395 5.37750E+01 7.79400E+00 0.00000E+00
 -1      2396 5.89500E+01 6.49500E+00 0.00000E+00
 -1      2397 5.74500E+01 6.49500E+00 0.00000E+00
 -1      2398 5.67000E+01 7.79400E+00 0.00000E+00
 -1      2399 6.19500E+01 6.49500E+00 0.00000E+00
 -1      2400 6.04500E+01 6.49500E+00 0.00000E+00
 -1      2401 5.97000E+01 7.79400E+00 0.00000E+00
 -1      2402 6.49500E+01 6.49500E+00 0.00000E+00
 -1      2403 6.34500E+01 6.49500E+00 0.00000E+00
 -1      2404 6.27000E+01 7.79400E+00 0.00000E+00
 -1      2405 6.79500E+01 6.49500E+00 0.00000E+00
 -1      2406 6.64500E+01 6.49500E+00 0.00000E+00
 -1      2407 6.57000E+01 7.79400E+00 0.00000E+00
 -1      2408 7.09500E+01 6.49500E+00 0.00000E+00
 -1      2409 6.94500E+01 6.49500E+00 0.00000E+00
 -1      2410 6.87000E+01 7.79400E+00 0.00000E+00
 -1      2411 7.39500E+01 6.49500E+00 0.00000E+00
 -1      2412 7.24500E+01 6.49500E+00 0.00000E+00
 -1      2413 7.17000E+01 7.79400E+00 0.00000E+00
 -1      2414 7.69500E+01 6.49500E+00 0.00000E+00
 -1      2415 7.54500E+01 6.49500E+00 0.00000E+00
 -1      2416 7.47000E+01 7.79400E+00 0.00000E+00
 -1      2417 7.99500E+01 6.49500E+00 0.00000E+00
 -1      2418 7.84500E+01 6.49500E+00 0.00000E+00
 -1      2419 7.77000E+01 7.79400E+00 0.00000E+00
 -1      2420 8.29500E+01 6.49500E+00 0.00000E+00
 -1      2421 8.14500E+01 6.49500E+00 0.00000E+00
 -1      2422 8.07000E+01 7.79400E+00 0.00000E+00
 -1      2423 8.58000E+01 6.49500E+00 0.00000E+00
 -1      2424 8.43750E+01 6.49500E+00 0.00000E+00
 -1      2425 8.36250E+01 7.79400E+00 0.00000E+00
 -1      2426 8.88000E+01 6.49500E+00 0.00000E+00
 -1      2427 8.73000E+01 6.49500E+00 0.00000E+00
 -1      2428 8.65500E+01 7.79400E+00 0.00000E+00
 -1      2429 9.18000E+01 6.49500E+00 0.00000E+00
 -1      2430 9.03000E+01 6.49500E+00 0.00000E+00
 -1      2431 8.95500E+01 7.79400E+00 0.00000E+00
 -1      2432 9.48000E+01 6.49500E+00 0.00000E+00
 -1      2433 9.33000E+01 6.49500E+00 0.00000E+00
 -1      2434 9.25500E+01 7.79400E+00 0.00000E+00
 -1      2435 9.75000E+01 6.49500E+00 0.00000E+00
 -1      2436 9.61500E+01 6.49500E+00 0.00000E+00
 -1      2437 9.54000E+01 7.79400E+00 0.00000E+00
 -1      2438 1.08004E+02 2.33985E+01 0.00000E+00
 -1      2439 1.07069E+02 2.31483E+01 0.00000E+00
 -1      2440 1.25550E+02 6.28239E+00 0.00000E+00
 -1      2441 1.24050E+02 6.28239E+00 0.00000E+00
 -1      2442 1.26300E+02 7.58139E+00 0.00000E+00
 -1      2443 1.19700E+02 6.00852E+00 0.00000E+00
 -1      2444 1.18200E+02 6.00852E+00 0.00000E+00
 -1      2445 1.31550E+02 6.28239E+00 0.00000E+00
 -1      2446 1.30050E+02 6.28239E+00 0.00000E+00
 -1      2447 1.29300E+02 7.58139E+00 0.00000E+00
 -1      2448 1.34550E+02 6.28239E+00 0.00000E+00
 -1      2449 1.33050E+02 6.28239E+00 0.00000E+00
 -1      2450 1.32300E+02 7.58139E+00 0.00000E+00
 -1      2451 1.37550E+02 6.28239E+00 0.00000E+00
 -1      2452 1.36050E+02 6.28239E+00 0.00000E+00
 -1      2453 1.35300E+02 7.58139E+00 0.00000E+00
 -1      2454 1.40550E+02 6.28239E+00 0.00000E+00
 -1      2455 1.39050E+02 6.28239E+00 0.00000E+00
 -1      2456 1.38300E+02 7.58139E+00 0.00000E+00
 -1      2457 1.45001E+02 6.32751E+00 0.00000E+00
 -1      2458 1.44100E+02 6.16893E+00 0.00000E+00
 -1      2459 1.44801E+02 7.51305E+00 0.00000E+00
 -1      2460 1.44003E+02 1.51677E+01 0.00000E+00
 -1      2461 1.44003E+02 1.37177E+01 0.00000E+00
 -1      2462 1.44003E+02 1.81177E+01 0.00000E+00
 -1      2463 1.44003E+02 1.66427E+01 0.00000E+00
 -1      2464 1.42704E+02 1.59177E+01 0.00000E+00
 -1      2465 1.44003E+02 1.22427E+01 0.00000E+00
 -1      2466 1.44003E+02 1.07677E+01 0.00000E+00
 -1      2467 1.42704E+02 1.29677E+01 0.00000E+00
 -1      2468 1.44003E+02 2.10677E+01 0.00000E+00
 -1      2469 1.44003E+02 1.95927E+01 0.00000E+00
 -1      2470 1.42704E+02 1.88677E+01 0.00000E+00
 -1      2471 1.44003E+02 2.40177E+01 0.00000E+00
 -1      2472 1.44003E+02 2.25427E+01 0.00000E+00
 -1      2473 1.42704E+02 2.18177E+01 0.00000E+00
 -1      2474 1.44003E+02 2.69677E+01 0.00000E+00
 -1      2475 1.44003E+02 2.54927E+01 0.00000E+00
 -1      2476 1.42704E+02 2.47677E+01 0.00000E+00
 -1      2477 1.44003E+02 2.99177E+01 0.00000E+00
 -1      2478 1.44003E+02 2.84427E+01 0.00000E+00
 -1      2479 1.42704E+02 2.77177E+01 0.00000E+00
 -1      2480 1.44003E+02 3.28177E+01 0.00000E+00
 -1      2481 1.44003E+02 3.13677E+01 0.00000E+00
 -1      2482 1.42704E+02 3.06427E+01 0.00000E+00
 -1      2483 1.44003E+02 3.57677E+01 0.00000E+00
 -1      2484 1.44003E+02 3.42927E+01 0.00000E+00
 -1      2485 1.42704E+02 3.35677E+01 0.00000E+00
 -1      2486 1.44003E+02 3.87177E+01 0.00000E+00
 -1      2487 1.44003E+02 3.72427E+01 0.00000E+00
 -1      2488 1.42704E+02 3.65177E+01 0.00000E+00
 -1      2489 1.43889E+02 4.08710E+01 0.00000E+00
 -1      2490 6.55950E+00 4.28890E+01 0.00000E+00
 -1      2491 8.53650E+00 4.32410E+01 0.00000E+00
 -1      2492 9.28650E+00 4.19420E+01 0.00000E+00
 -1      2493 6.55950E+00 4.14140E+01 0.00000E+00
 -1      2494 1.17891E+02 1.79415E+01 0.00000E+00
 -1      2495 1.17242E+02 1.89719E+01 0.00000E+00
 -1      2496 1.02178E+02 5.60931E+00 0.00000E+00
 -1      2497 1.22625E+02 6.28239E+00 0.00000E+00
 -1      2498 1.21200E+02 6.28239E+00 0.00000E+00
 -1      2499 1.23375E+02 7.58139E+00 0.00000E+00
 -1      2500 1.14742E+01 6.47725E+00 0.00000E+00
 -1      2501 9.97425E+00 6.47725E+00 0.00000E+00
 -1      2502 9.67275E+00 7.74075E+00 0.00000E+00
 -1      2503 1.22242E+01 7.77625E+00 0.00000E+00
 -1      2504 1.72500E+01 6.49500E+00 0.00000E+00
 -1      2505 1.57500E+01 6.49500E+00 0.00000E+00
 -1      2506 1.80000E+01 7.79400E+00 0.00000E+00
 -1      2507 6.49500E+00 2.71625E+01 0.00000E+00
 -1      2508 6.49500E+00 2.86375E+01 0.00000E+00
 -1      2509 7.79400E+00 2.93750E+01 0.00000E+00
 -1      2510 7.79400E+00 2.64250E+01 0.00000E+00
 -1      2511 1.18327E+02 8.84582E+00 0.00000E+00
 -1      2512 1.18722E+02 9.79820E+00 0.00000E+00
 -1      2513 1.17508E+02 6.99194E+00 0.00000E+00
 -1      2514 1.18144E+02 7.86577E+00 0.00000E+00
 -1      2515 1.00054E+02 6.86061E+00 0.00000E+00
 -1      2516 1.00618E+02 6.15246E+00 0.00000E+00
 -1      2517 9.87744E+01 8.95664E+00 0.00000E+00
 -1      2518 9.94231E+01 7.86728E+00 0.00000E+00
 -1      2519 9.79648E+01 1.10157E+01 0.00000E+00
 -1      2520 9.81790E+01 1.01282E+01 0.00000E+00
 -1      2521 9.81692E+01 1.35618E+01 0.00000E+00
 -1      2522 9.79552E+01 1.23851E+01 0.00000E+00
 -1      2523 9.86897E+01 1.54872E+01 0.00000E+00
 -1      2524 9.84752E+01 1.46150E+01 0.00000E+00
 -1      2525 9.91929E+01 1.77841E+01 0.00000E+00
 -1      2526 9.88527E+01 1.65828E+01 0.00000E+00
 -1      2527 1.00502E+02 1.96087E+01 0.00000E+00
 -1      2528 9.99181E+01 1.89915E+01 0.00000E+00
 -1      2529 1.02147E+02 2.10163E+01 0.00000E+00
 -1      2530 1.01296E+02 2.03308E+01 0.00000E+00
 -1      2531 1.03741E+02 2.21955E+01 0.00000E+00
 -1      2532 1.02987E+02 2.17882E+01 0.00000E+00
 -1      2533 1.05969E+02 2.28278E+01 0.00000E+00
 -1      2534 1.04840E+02 2.25160E+01 0.00000E+00
 -1      2535 1.04016E+02 2.31404E+01 0.00000E+00
 -1      2536 1.06215E+02 2.37814E+01 0.00000E+00
 -1      2537 1.10354E+02 2.34967E+01 0.00000E+00
 -1      2538 1.09343E+02 2.36391E+01 0.00000E+00
 -1      2539 1.14554E+02 2.11471E+01 0.00000E+00
 -1      2540 1.13767E+02 2.16925E+01 0.00000E+00
 -1      2541 1.16243E+02 1.99761E+01 0.00000E+00
 -1      2542 1.15435E+02 2.06027E+01 0.00000E+00
 -1      2543 1.18663E+02 1.58711E+01 0.00000E+00
 -1      2544 1.18378E+02 1.67501E+01 0.00000E+00
 -1      2545 1.01340E+02 5.46451E+00 0.00000E+00
 -1      2546 1.19556E+02 1.03378E+01 0.00000E+00
 -1      2547 7.79400E+00 3.52687E+01 0.00000E+00
 -1      2548 6.49500E+00 3.60062E+01 0.00000E+00
 -1      2549 6.49500E+00 3.74750E+01 0.00000E+00
 -1      2550 1.18850E+02 1.77670E+01 0.00000E+00
 -1      2551 1.19675E+02 1.29186E+01 0.00000E+00
 -1      2552 1.50000E+01 7.79400E+00 0.00000E+00
 -1      2553 1.08653E+02 2.43424E+01 0.00000E+00
 -1      2554 9.83599E+01 6.61676E+00 0.00000E+00
 -1      2555 9.76099E+01 7.91576E+00 0.00000E+00
 -1      2556 1.20450E+02 7.30752E+00 0.00000E+00
 -1      2557 1.42600E+02 6.16893E+00 0.00000E+00
 -1      2558 1.41850E+02 7.46793E+00 0.00000E+00
 -1      2559 1.44602E+02 8.69858E+00 0.00000E+00
 -1      2560 1.42590E+02 4.01460E+01 0.00000E+00
 -1      2561 9.72693E+01 1.17500E+01 0.00000E+00
 -1      2562 6.55950E+00 3.99453E+01 0.00000E+00
 -1      2563 1.16758E+02 5.96682E+00 0.00000E+00
 -1      2564 9.78744E+01 9.20909E+00 0.00000E+00
 -1      2565 1.00453E+02 5.33621E+00 0.00000E+00
 -1      2566 9.89904E+01 5.61009E+00 0.00000E+00
 -1      2567 1.19446E+02 1.53655E+01 0.00000E+00
 -1      2568 1.17364E+02 1.99627E+01 0.00000E+00
 -1      2569 1.13420E+02 2.24816E+01 0.00000E+00
 -1      2570 1.13073E+02 2.32706E+01 0.00000E+00
 -1      2571 1.14255E+02 2.28446E+01 0.00000E+00
 -1      2572 1.11115E+02 2.37453E+01 0.00000E+00
 -1      2573 1.10752E+02 2.48316E+01 0.00000E+00
 -1      2574 1.11876E+02 2.39939E+01 0.00000E+00
 -1      2575 1.02076E+02 2.20481E+01 0.00000E+00
 -1      2576 1.00442E+02 2.05540E+01 0.00000E+00
 -1      2577 9.89229E+01 1.86245E+01 0.00000E+00
 -1      2578 9.79276E+01 1.82576E+01 0.00000E+00
 -1      2579 9.86528E+01 1.94650E+01 0.00000E+00
 -1      2580 9.80347E+01 1.63215E+01 0.00000E+00
 -1      2581 9.75657E+01 1.41726E+01 0.00000E+00
 -1      2582 9.91003E+01 7.03084E+00 0.00000E+00
 -1      2583 1.19133E+02 8.01370E+00 0.00000E+00
 -1      2584 1.43303E+02 9.42358E+00 0.00000E+00
 -1      2585 1.16177E+02 5.22848E+00 0.00000E+00
 -1      2586 1.15483E+02 2.15112E+01 0.00000E+00
 -1      2587 9.09300E+00 1.98250E+01 0.00000E+00
 -1      2588 9.09300E+00 2.12750E+01 0.00000E+00
 -1      2589 9.09300E+00 2.27500E+01 0.00000E+00
 -1      2590 9.09300E+00 2.42250E+01 0.00000E+00
 -1      2591 1.03920E+01 2.20250E+01 0.00000E+00
 -1      2592 9.09300E+00 1.39375E+01 0.00000E+00
 -1      2593 9.09300E+00 1.54125E+01 0.00000E+00
 -1      2594 9.09300E+00 1.09875E+01 0.00000E+00
 -1      2595 9.09300E+00 1.24625E+01 0.00000E+00
 -1      2596 1.03920E+01 1.32000E+01 0.00000E+00
 -1      2597 9.53362E+00 8.73238E+00 0.00000E+00
 -1      2598 9.23213E+00 9.99588E+00 0.00000E+00
 -1      2599 1.05311E+01 1.07334E+01 0.00000E+00
 -1      2600 1.08094E+01 8.75012E+00 0.00000E+00
 -1      2601 1.87500E+01 9.09300E+00 0.00000E+00
 -1      2602 1.72500E+01 9.09300E+00 0.00000E+00
 -1      2603 8.85168E+00 4.05347E+01 0.00000E+00
 -1      2604 1.02152E+01 4.07987E+01 0.00000E+00
 -1      2605 1.17152E+01 4.07987E+01 0.00000E+00
 -1      2606 1.32152E+01 4.07987E+01 0.00000E+00
 -1      2607 1.12804E+01 3.93914E+01 0.00000E+00
 -1      2608 1.47152E+01 4.07987E+01 0.00000E+00
 -1      2609 1.62152E+01 4.07987E+01 0.00000E+00
 -1      2610 1.42804E+01 3.93914E+01 0.00000E+00
 -1      2611 1.77152E+01 4.07987E+01 0.00000E+00
 -1      2612 1.92152E+01 4.07987E+01 0.00000E+00
 -1      2613 1.72804E+01 3.93914E+01 0.00000E+00
 -1      2614 2.07152E+01 4.07987E+01 0.00000E+00
 -1      2615 2.22152E+01 4.07987E+01 0.00000E+00
 -1      2616 2.02804E+01 3.93914E+01 0.00000E+00
 -1      2617 2.37152E+01 4.07987E+01 0.00000E+00
 -1      2618 2.52152E+01 4.07987E+01 0.00000E+00
 -1      2619 2.32804E+01 3.93914E+01 0.00000E+00
 -1      2620 2.67152E+01 4.07987E+01 0.00000E+00
 -1      2621 2.82152E+01 4.07987E+01 0.00000E+00
 -1      2622 2.62804E+01 3.93914E+01 0.00000E+00
 -1      2623 2.97152E+01 4.07987E+01 0.00000E+00
 -1      2624 3.12152E+01 4.07987E+01 0.00000E+00
 -1      2625 2.92804E+01 3.93914E+01 0.00000E+00
 -1      2626 3.27152E+01 4.07987E+01 0.00000E+00
 -1      2627 3.42152E+01 4.07987E+01 0.00000E+00
 -1      2628 3.22803E+01 3.93914E+01 0.00000E+00
 -1      2629 3.57152E+01 4.07987E+01 0.00000E+00
 -1      2630 3.72152E+01 4.07987E+01 0.00000E+00
 -1      2631 3.52803E+01 3.93914E+01 0.00000E+00
 -1      2632 3.87152E+01 4.07987E+01 0.00000E+00
 -1      2633 4.02152E+01 4.07987E+01 0.00000E+00
 -1      2634 3.82803E+01 3.93914E+01 0.00000E+00
 -1      2635 4.17152E+01 4.07987E+01 0.00000E+00
 -1      2636 4.32152E+01 4.07987E+01 0.00000E+00
 -1      2637 4.12803E+01 3.93914E+01 0.00000E+00
 -1      2638 4.47152E+01 4.07987E+01 0.00000E+00
 -1      2639 4.62152E+01 4.07987E+01 0.00000E+00
 -1      2640 4.42803E+01 3.93914E+01 0.00000E+00
 -1      2641 4.77152E+01 4.07987E+01 0.00000E+00
 -1      2642 4.92152E+01 4.07987E+01 0.00000E+00
 -1      2643 4.72803E+01 3.93914E+01 0.00000E+00
 -1      2644 5.07152E+01 4.07987E+01 0.00000E+00
 -1      2645 5.22152E+01 4.07987E+01 0.00000E+00
 -1      2646 5.02803E+01 3.93914E+01 0.00000E+00
 -1      2647 5.37152E+01 4.07987E+01 0.00000E+00
 -1      2648 5.52152E+01 4.07987E+01 0.00000E+00
 -1      2649 5.32803E+01 3.93914E+01 0.00000E+00
 -1      2650 5.67152E+01 4.07987E+01 0.00000E+00
 -1      2651 5.82152E+01 4.07987E+01 0.00000E+00
 -1      2652 5.62803E+01 3.93914E+01 0.00000E+00
 -1      2653 5.97152E+01 4.07987E+01 0.00000E+00
 -1      2654 6.12152E+01 4.07987E+01 0.00000E+00
 -1      2655 5.92803E+01 3.93914E+01 0.00000E+00
 -1      2656 6.27152E+01 4.07987E+01 0.00000E+00
 -1      2657 6.42152E+01 4.07987E+01 0.00000E+00
 -1      2658 6.22803E+01 3.93914E+01 0.00000E+00
 -1      2659 6.57152E+01 4.07987E+01 0.00000E+00
 -1      2660 6.72152E+01 4.07987E+01 0.00000E+00
 -1      2661 6.52803E+01 3.93914E+01 0.00000E+00
 -1      2662 6.87152E+01 4.07987E+01 0.00000E+00
 -1      2663 7.02152E+01 4.07987E+01 0.00000E+00
 -1      2664 6.82803E+01 3.93914E+01 0.00000E+00
 -1      2665 7.17152E+01 4.07987E+01 0.00000E+00
 -1      2666 7.32152E+01 4.07987E+01 0.00000E+00
 -1      2667 7.12803E+01 3.93914E+01 0.00000E+00
 -1      2668 7.47152E+01 4.07987E+01 0.00000E+00
 -1      2669 7.62152E+01 4.07987E+01 0.00000E+00
 -1      2670 7.42803E+01 3.93914E+01 0.00000E+00
 -1      2671 7.77152E+01 4.07987E+01 0.00000E+00
 -1      2672 7.92152E+01 4.07987E+01 0.00000E+00
 -1      2673 7.72803E+01 3.93914E+01 0.00000E+00
 -1      2674 8.07152E+01 4.07987E+01 0.00000E+00
 -1      2675 8.22152E+01 4.07987E+01 0.00000E+00
 -1      2676 8.02803E+01 3.93914E+01 0.00000E+00
 -1      2677 8.37152E+01 4.07987E+01 0.00000E+00
 -1      2678 8.52152E+01 4.07987E+01 0.00000E+00
 -1      2679 8.32803E+01 3.93914E+01 0.00000E+00
 -1      2680 8.67152E+01 4.07987E+01 0.00000E+00
 -1      2681 8.82152E+01 4.07987E+01 0.00000E+00
 -1      2682 8.62803E+01 3.93914E+01 0.00000E+00
 -1      2683 8.97152E+01 4.07987E+01 0.00000E+00
 -1      2684 9.12152E+01 4.07987E+01 0.00000E+00
 -1      2685 8.92803E+01 3.93914E+01 0.00000E+00
 -1      2686 9.27152E+01 4.07987E+01 0.00000E+00
 -1      2687 9.42152E+01 4.07987E+01 0.00000E+00
 -1      2688 9.22803E+01 3.93914E+01 0.00000E+00
 -1      2689 9.57152E+01 4.07987E+01 0.00000E+00
 -1      2690 9.72152E+01 4.07987E+01 0.00000E+00
 -1      2691 9.52803E+01 3.93914E+01 0.00000E+00
 -1      2692 9.87152E+01 4.07987E+01 0.00000E+00
 -1      2693 1.00215E+02 4.07987E+01 0.00000E+00
 -1      2694 9.82803E+01 3.93914E+01 0.00000E+00
 -1      2695 1.01715E+02 4.07987E+01 0.00000E+00
 -1      2696 1.03215E+02 4.07987E+01 0.00000E+00
 -1      2697 1.01280E+02 3.93914E+01 0.00000E+00
 -1      2698 1.04715E+02 4.07987E+01 0.00000E+00
 -1      2699 1.06215E+02 4.07987E+01 0.00000E+00
 -1      2700 1.04280E+02 3.93914E+01 0.00000E+00
 -1      2701 1.07715E+02 4.07987E+01 0.00000E+00
 -1      2702 1.09215E+02 4.07987E+01 0.00000E+00
 -1      2703 1.07280E+02 3.93914E+01 0.00000E+00
 -1      2704 1.10715E+02 4.07987E+01 0.00000E+00
 -1      2705 1.12215E+02 4.07987E+01 0.00000E+00
 -1      2706 1.10280E+02 3.93914E+01 0.00000E+00
 -1      2707 1.13715E+02 4.07987E+01 0.00000E+00
 -1      2708 1.15215E+02 4.07987E+01 0.00000E+00
 -1      2709 1.13280E+02 3.93914E+01 0.00000E+00
 -1      2710 1.16715E+02 4.07987E+01 0.00000E+00
 -1      2711 1.18215E+02 4.07987E+01 0.00000E+00
 -1      2712 1.16280E+02 3.93914E+01 0.00000E+00
 -1      2713 1.19715E+02 4.07987E+01 0.00000E+00
 -1      2714 1.21215E+02 4.07987E+01 0.00000E+00
 -1      2715 1.19280E+02 3.93914E+01 0.00000E+00
 -1      2716 1.22715E+02 4.07987E+01 0.00000E+00
 -1      2717 1.24215E+02 4.07987E+01 0.00000E+00
 -1      2718 1.22280E+02 3.93914E+01 0.00000E+00
 -1      2719 1.25715E+02 4.07987E+01 0.00000E+00
 -1      2720 1.27215E+02 4.07987E+01 0.00000E+00
 -1      2721 1.25280E+02 3.93914E+01 0.00000E+00
 -1      2722 1.28715E+02 4.07987E+01 0.00000E+00
 -1      2723 1.30215E+02 4.07987E+01 0.00000E+00
 -1      2724 1.28280E+02 3.93914E+01 0.00000E+00
 -1      2725 1.31715E+02 4.07987E+01 0.00000E+00
 -1      2726 1.33215E+02 4.07987E+01 0.00000E+00
 -1      2727 1.31280E+02 3.93914E+01 0.00000E+00
 -1      2728 1.34715E+02 4.07987E+01 0.00000E+00
 -1      2729 1.36215E+02 4.07987E+01 0.00000E+00
 -1      2730 1.34280E+02 3.93914E+01 0.00000E+00
 -1      2731 1.37715E+02 4.07987E+01 0.00000E+00
 -1      2732 1.39215E+02 4.07987E+01 0.00000E+00
 -1      2733 1.37280E+02 3.93914E+01 0.00000E+00
 -1      2734 1.41177E+02 4.00993E+01 0.00000E+00
 -1      2735 1.09156E+02 2.53892E+01 0.00000E+00
 -1      2736 1.07818E+02 2.51486E+01 0.00000E+00
 -1      2737 2.17500E+01 9.09300E+00 0.00000E+00
 -1      2738 2.02500E+01 9.09300E+00 0.00000E+00
 -1      2739 1.95000E+01 1.03920E+01 0.00000E+00
 -1      2740 3.06000E+01 9.09300E+00 0.00000E+00
 -1      2741 2.91000E+01 9.09300E+00 0.00000E+00
 -1      2742 3.36000E+01 9.09300E+00 0.00000E+00
 -1      2743 3.21000E+01 9.09300E+00 0.00000E+00
 -1      2744 3.13500E+01 1.03920E+01 0.00000E+00
 -1      2745 3.66000E+01 9.09300E+00 0.00000E+00
 -1      2746 3.51000E+01 9.09300E+00 0.00000E+00
 -1      2747 3.43500E+01 1.03920E+01 0.00000E+00
 -1      2748 3.96000E+01 9.09300E+00 0.00000E+00
 -1      2749 3.81000E+01 9.09300E+00 0.00000E+00
 -1      2750 3.73500E+01 1.03920E+01 0.00000E+00
 -1      2751 4.26000E+01 9.09300E+00 0.00000E+00
 -1      2752 4.11000E+01 9.09300E+00 0.00000E+00
 -1      2753 4.03500E+01 1.03920E+01 0.00000E+00
 -1      2754 4.56000E+01 9.09300E+00 0.00000E+00
 -1      2755 4.41000E+01 9.09300E+00 0.00000E+00
 -1      2756 4.33500E+01 1.03920E+01 0.00000E+00
 -1      2757 4.86000E+01 9.09300E+00 0.00000E+00
 -1      2758 4.71000E+01 9.09300E+00 0.00000E+00
 -1      2759 4.63500E+01 1.03920E+01 0.00000E+00
 -1      2760 5.16000E+01 9.09300E+00 0.00000E+00
 -1      2761 5.01000E+01 9.09300E+00 0.00000E+00
 -1      2762 4.93500E+01 1.03920E+01 0.00000E+00
 -1      2763 5.44500E+01 9.09300E+00 0.00000E+00
 -1      2764 5.30250E+01 9.09300E+00 0.00000E+00
 -1      2765 5.22750E+01 1.03920E+01 0.00000E+00
 -1      2766 5.74500E+01 9.09300E+00 0.00000E+00
 -1      2767 5.59500E+01 9.09300E+00 0.00000E+00
 -1      2768 5.52000E+01 1.03920E+01 0.00000E+00
 -1      2769 6.04500E+01 9.09300E+00 0.00000E+00
 -1      2770 5.89500E+01 9.09300E+00 0.00000E+00
 -1      2771 5.82000E+01 1.03920E+01 0.00000E+00
 -1      2772 6.34500E+01 9.09300E+00 0.00000E+00
 -1      2773 6.19500E+01 9.09300E+00 0.00000E+00
 -1      2774 6.12000E+01 1.03920E+01 0.00000E+00
 -1      2775 6.64500E+01 9.09300E+00 0.00000E+00
 -1      2776 6.49500E+01 9.09300E+00 0.00000E+00
 -1      2777 6.42000E+01 1.03920E+01 0.00000E+00
 -1      2778 6.94500E+01 9.09300E+00 0.00000E+00
 -1      2779 6.79500E+01 9.09300E+00 0.00000E+00
 -1      2780 6.72000E+01 1.03920E+01 0.00000E+00
 -1      2781 7.24500E+01 9.09300E+00 0.00000E+00
 -1      2782 7.09500E+01 9.09300E+00 0.00000E+00
 -1      2783 7.02000E+01 1.03920E+01 0.00000E+00
 -1      2784 7.54500E+01 9.09300E+00 0.00000E+00
 -1      2785 7.39500E+01 9.09300E+00 0.00000E+00
 -1      2786 7.32000E+01 1.03920E+01 0.00000E+00
 -1      2787 7.84500E+01 9.09300E+00 0.00000E+00
 -1      2788 7.69500E+01 9.09300E+00 0.00000E+00
 -1      2789 7.62000E+01 1.03920E+01 0.00000E+00
 -1      2790 8.14500E+01 9.09300E+00 0.00000E+00
 -1      2791 7.99500E+01 9.09300E+00 0.00000E+00
 -1      2792 7.92000E+01 1.03920E+01 0.00000E+00
 -1      2793 8.43000E+01 9.09300E+00 0.00000E+00
 -1      2794 8.28750E+01 9.09300E+00 0.00000E+00
 -1      2795 8.21250E+01 1.03920E+01 0.00000E+00
 -1      2796 8.73000E+01 9.09300E+00 0.00000E+00
 -1      2797 8.58000E+01 9.09300E+00 0.00000E+00
 -1      2798 8.50500E+01 1.03920E+01 0.00000E+00
 -1      2799 9.03000E+01 9.09300E+00 0.00000E+00
 -1      2800 8.88000E+01 9.09300E+00 0.00000E+00
 -1      2801 8.80500E+01 1.03920E+01 0.00000E+00
 -1      2802 9.33000E+01 9.09300E+00 0.00000E+00
 -1      2803 9.18000E+01 9.09300E+00 0.00000E+00
 -1      2804 9.10500E+01 1.03920E+01 0.00000E+00
 -1      2805 1.20633E+02 8.28757E+00 0.00000E+00
 -1      2806 9.70145E+01 9.08733E+00 0.00000E+00
 -1      2807 1.30050E+02 8.88039E+00 0.00000E+00
 -1      2808 1.28550E+02 8.88039E+00 0.00000E+00
 -1      2809 1.39050E+02 8.88039E+00 0.00000E+00
 -1      2810 1.37550E+02 8.88039E+00 0.00000E+00
 -1      2811 1.41252E+02 9.53705E+00 0.00000E+00
 -1      2812 1.41405E+02 1.66552E+01 0.00000E+00
 -1      2813 1.41405E+02 1.51802E+01 0.00000E+00
 -1      2814 1.41405E+02 1.37052E+01 0.00000E+00
 -1      2815 1.41405E+02 1.22302E+01 0.00000E+00
 -1      2816 1.40106E+02 1.44427E+01 0.00000E+00
 -1      2817 1.41405E+02 1.96052E+01 0.00000E+00
 -1      2818 1.41405E+02 1.81302E+01 0.00000E+00
 -1      2819 1.40106E+02 1.73927E+01 0.00000E+00
 -1      2820 1.41405E+02 2.55052E+01 0.00000E+00
 -1      2821 1.41405E+02 2.40302E+01 0.00000E+00
 -1      2822 1.41405E+02 2.84552E+01 0.00000E+00
 -1      2823 1.41405E+02 2.69802E+01 0.00000E+00
 -1      2824 1.40106E+02 2.62427E+01 0.00000E+00
 -1      2825 1.41405E+02 3.13552E+01 0.00000E+00
 -1      2826 1.41405E+02 2.99052E+01 0.00000E+00
 -1      2827 1.40106E+02 2.91677E+01 0.00000E+00
 -1      2828 1.41405E+02 3.43052E+01 0.00000E+00
 -1      2829 1.41405E+02 3.28302E+01 0.00000E+00
 -1      2830 1.40106E+02 3.20927E+01 0.00000E+00
 -1      2831 1.41405E+02 3.72552E+01 0.00000E+00
 -1      2832 1.41405E+02 3.57802E+01 0.00000E+00
 -1      2833 1.40106E+02 3.50427E+01 0.00000E+00
 -1      2834 9.61556E+01 1.24269E+01 0.00000E+00
 -1      2835 9.61653E+01 1.10575E+01 0.00000E+00
 -1      2836 1.20605E+02 1.48603E+01 0.00000E+00
 -1      2837 1.20495E+02 1.60704E+01 0.00000E+00
 -1      2838 1.33050E+02 8.88039E+00 0.00000E+00
 -1      2839 1.31550E+02 8.88039E+00 0.00000E+00
 -1      2840 1.30800E+02 1.01794E+01 0.00000E+00
 -1      2841 1.24088E+02 8.77409E+00 0.00000E+00
 -1      2842 1.22662E+02 8.77409E+00 0.00000E+00
 -1      2843 1.19887E+02 1.74955E+01 0.00000E+00
 -1      2844 1.19400E+02 1.86870E+01 0.00000E+00
 -1      2845 9.09300E+00 1.68813E+01 0.00000E+00
 -1      2846 9.09300E+00 1.83563E+01 0.00000E+00
 -1      2847 1.03920E+01 1.90812E+01 0.00000E+00
 -1      2848 1.03920E+01 1.61437E+01 0.00000E+00
 -1      2849 1.41405E+02 2.25552E+01 0.00000E+00
 -1      2850 1.41405E+02 2.10802E+01 0.00000E+00
 -1      2851 1.40106E+02 2.03427E+01 0.00000E+00
 -1      2852 1.40106E+02 2.32927E+01 0.00000E+00
 -1      2853 1.36050E+02 8.88039E+00 0.00000E+00
 -1      2854 1.34550E+02 8.88039E+00 0.00000E+00
 -1      2855 1.33800E+02 1.01794E+01 0.00000E+00
 -1      2856 1.36800E+02 1.01794E+01 0.00000E+00
 -1      2857 2.76000E+01 9.09300E+00 0.00000E+00
 -1      2858 2.61000E+01 9.09300E+00 0.00000E+00
 -1      2859 2.83500E+01 1.03920E+01 0.00000E+00
 -1      2860 1.27050E+02 8.88039E+00 0.00000E+00
 -1      2861 1.25550E+02 8.88039E+00 0.00000E+00
 -1      2862 1.27800E+02 1.01794E+01 0.00000E+00
 -1      2863 2.46375E+01 9.09300E+00 0.00000E+00
 -1      2864 2.32125E+01 9.09300E+00 0.00000E+00
 -1      2865 2.24625E+01 1.03920E+01 0.00000E+00
 -1      2866 2.53875E+01 1.03920E+01 0.00000E+00
 -1      2867 9.09300E+00 3.15875E+01 0.00000E+00
 -1      2868 9.09300E+00 3.30625E+01 0.00000E+00
 -1      2869 7.48818E+00 3.88019E+01 0.00000E+00
 -1      2870 9.68148E+01 1.49619E+01 0.00000E+00
 -1      2871 9.65088E+01 1.39086E+01 0.00000E+00
 -1      2872 9.71407E+01 1.71532E+01 0.00000E+00
 -1      2873 9.69778E+01 1.60575E+01 0.00000E+00
 -1      2874 9.59208E+01 1.57936E+01 0.00000E+00
 -1      2875 1.00206E+02 2.16115E+01 0.00000E+00
 -1      2876 9.94118E+01 2.08894E+01 0.00000E+00
 -1      2877 1.57500E+01 9.09300E+00 0.00000E+00
 -1      2878 1.42500E+01 9.09300E+00 0.00000E+00
 -1      2879 1.65000E+01 1.03920E+01 0.00000E+00
 -1      2880 1.18471E+02 2.00654E+01 0.00000E+00
 -1      2881 1.17472E+02 2.10696E+01 0.00000E+00
 -1      2882 1.01886E+02 2.31554E+01 0.00000E+00
 -1      2883 1.01046E+02 2.23835E+01 0.00000E+00
 -1      2884 1.00016E+02 2.27189E+01 0.00000E+00
 -1      2885 1.20846E+02 1.23867E+01 0.00000E+00
 -1      2886 1.20725E+02 1.36235E+01 0.00000E+00
 -1      2887 1.21775E+02 1.43283E+01 0.00000E+00
 -1      2888 1.16463E+02 2.21113E+01 0.00000E+00
 -1      2889 1.15581E+02 2.26557E+01 0.00000E+00
 -1      2890 1.21768E+02 9.20284E+00 0.00000E+00
 -1      2891 1.20451E+02 9.90902E+00 0.00000E+00
 -1      2892 1.20691E+02 1.12530E+01 0.00000E+00
 -1      2893 1.22480E+02 1.03955E+01 0.00000E+00
 -1      2894 1.40502E+02 1.08360E+01 0.00000E+00
 -1      2895 9.09300E+00 3.45313E+01 0.00000E+00
 -1      2896 9.09300E+00 3.60000E+01 0.00000E+00
 -1      2897 1.03920E+01 3.37938E+01 0.00000E+00
 -1      2898 1.03920E+01 2.49750E+01 0.00000E+00
 -1      2899 9.09300E+00 2.57000E+01 0.00000E+00
 -1      2900 9.09300E+00 2.71750E+01 0.00000E+00
 -1      2901 8.78718E+00 3.80644E+01 0.00000E+00
 -1      2902 1.40742E+02 3.86920E+01 0.00000E+00
 -1      2903 1.09917E+02 2.56378E+01 0.00000E+00
 -1      2904 1.09081E+02 2.64440E+01 0.00000E+00
 -1      2905 1.10678E+02 2.58864E+01 0.00000E+00
 -1      2906 9.09300E+00 2.86437E+01 0.00000E+00
 -1      2907 9.09300E+00 3.01187E+01 0.00000E+00
 -1      2908 1.03920E+01 3.08563E+01 0.00000E+00
 -1      2909 1.03920E+01 2.79188E+01 0.00000E+00
 -1      2910 9.45508E+01 9.76421E+00 0.00000E+00
 -1      2911 9.38008E+01 1.10632E+01 0.00000E+00
 -1      2912 9.59008E+01 9.76421E+00 0.00000E+00
 -1      2913 1.39203E+02 1.15735E+01 0.00000E+00
 -1      2914 1.17570E+02 2.22141E+01 0.00000E+00
 -1      2915 1.24838E+02 1.00731E+01 0.00000E+00
 -1      2916 1.07220E+02 2.60794E+01 0.00000E+00
 -1      2917 1.06718E+02 2.50326E+01 0.00000E+00
 -1      2918 1.39443E+02 3.79545E+01 0.00000E+00
 -1      2919 1.21046E+02 1.69903E+01 0.00000E+00
 -1      2920 1.15234E+02 2.34447E+01 0.00000E+00
 -1      2921 1.12710E+02 2.43569E+01 0.00000E+00
 -1      2922 1.05618E+02 2.47121E+01 0.00000E+00
 -1      2923 9.84166E+01 2.05225E+01 0.00000E+00
 -1      2924 9.74213E+01 2.01555E+01 0.00000E+00
 -1      2925 9.81803E+01 2.15800E+01 0.00000E+00
 -1      2926 1.20546E+02 1.95224E+01 0.00000E+00
 -1      2927 1.19509E+02 1.97939E+01 0.00000E+00
 -1      2928 1.19617E+02 2.09009E+01 0.00000E+00
 -1      2929 1.31676E+01 8.93044E+00 0.00000E+00
 -1      2930 1.18918E+01 8.91269E+00 0.00000E+00
 -1      2931 1.17527E+01 9.90431E+00 0.00000E+00
 -1      2932 1.39176E+01 1.02294E+01 0.00000E+00
 -1      2933 1.02693E+02 2.38828E+01 0.00000E+00
 -1      2934 1.01662E+02 2.42182E+01 0.00000E+00
 -1      2935 9.68707E+01 1.79936E+01 0.00000E+00
 -1      2936 1.21740E+02 1.19579E+01 0.00000E+00
 -1      2937 1.16910E+01 1.24625E+01 0.00000E+00
 -1      2938 1.16910E+01 1.39375E+01 0.00000E+00
 -1      2939 1.03792E+02 2.42033E+01 0.00000E+00
 -1      2940 9.54047E+01 1.32162E+01 0.00000E+00
 -1      2941 1.38807E+02 3.28302E+01 0.00000E+00
 -1      2942 1.38807E+02 3.13552E+01 0.00000E+00
 -1      2943 3.81000E+01 1.16910E+01 0.00000E+00
 -1      2944 3.66000E+01 1.16910E+01 0.00000E+00
 -1      2945 1.35304E+01 3.80924E+01 0.00000E+00
 -1      2946 1.50304E+01 3.80924E+01 0.00000E+00
 -1      2947 1.65304E+01 3.80924E+01 0.00000E+00
 -1      2948 1.80304E+01 3.80924E+01 0.00000E+00
 -1      2949 1.57804E+01 3.67934E+01 0.00000E+00
 -1      2950 1.95304E+01 3.80924E+01 0.00000E+00
 -1      2951 2.10304E+01 3.80924E+01 0.00000E+00
 -1      2952 1.87804E+01 3.67934E+01 0.00000E+00
 -1      2953 2.25304E+01 3.80924E+01 0.00000E+00
 -1      2954 2.40304E+01 3.80924E+01 0.00000E+00
 -1      2955 2.17804E+01 3.67934E+01 0.00000E+00
 -1      2956 2.55304E+01 3.80924E+01 0.00000E+00
 -1      2957 2.70304E+01 3.80924E+01 0.00000E+00
 -1      2958 2.47804E+01 3.67934E+01 0.00000E+00
 -1      2959 2.85304E+01 3.80924E+01 0.00000E+00
 -1      2960 3.00304E+01 3.80924E+01 0.00000E+00
 -1      2961 2.77804E+01 3.67934E+01 0.00000E+00
 -1      2962 3.15304E+01 3.80924E+01 0.00000E+00
 -1      2963 3.30303E+01 3.80924E+01 0.00000E+00
 -1      2964 3.07804E+01 3.67934E+01 0.00000E+00
 -1      2965 3.45303E+01 3.80924E+01 0.00000E+00
 -1      2966 3.60303E+01 3.80924E+01 0.00000E+00
 -1      2967 3.37803E+01 3.67934E+01 0.00000E+00
 -1      2968 3.75303E+01 3.80924E+01 0.00000E+00
 -1      2969 3.90303E+01 3.80924E+01 0.00000E+00
 -1      2970 3.67803E+01 3.67934E+01 0.00000E+00
 -1      2971 4.05303E+01 3.80924E+01 0.00000E+00
 -1      2972 4.20303E+01 3.80924E+01 0.00000E+00
 -1      2973 3.97803E+01 3.67934E+01 0.00000E+00
 -1      2974 4.35303E+01 3.80924E+01 0.00000E+00
 -1      2975 4.50303E+01 3.80924E+01 0.00000E+00
 -1      2976 4.27803E+01 3.67934E+01 0.00000E+00
 -1      2977 4.65303E+01 3.80924E+01 0.00000E+00
 -1      2978 4.80303E+01 3.80924E+01 0.00000E+00
 -1      2979 4.57803E+01 3.67934E+01 0.00000E+00
 -1      2980 4.95303E+01 3.80924E+01 0.00000E+00
 -1      2981 5.10303E+01 3.80924E+01 0.00000E+00
 -1      2982 4.87803E+01 3.67934E+01 0.00000E+00
 -1      2983 5.25303E+01 3.80924E+01 0.00000E+00
 -1      2984 5.40303E+01 3.80924E+01 0.00000E+00
 -1      2985 5.17803E+01 3.67934E+01 0.00000E+00
 -1      2986 5.55303E+01 3.80924E+01 0.00000E+00
 -1      2987 5.70303E+01 3.80924E+01 0.00000E+00
 -1      2988 5.47803E+01 3.67934E+01 0.00000E+00
 -1      2989 5.85303E+01 3.80924E+01 0.00000E+00
 -1      2990 6.00303E+01 3.80924E+01 0.00000E+00
 -1      2991 5.77803E+01 3.67934E+01 0.00000E+00
 -1      2992 6.15303E+01 3.80924E+01 0.00000E+00
 -1      2993 6.30303E+01 3.80924E+01 0.00000E+00
 -1      2994 6.07803E+01 3.67934E+01 0.00000E+00
 -1      2995 6.45303E+01 3.80924E+01 0.00000E+00
 -1      2996 6.60303E+01 3.80924E+01 0.00000E+00
 -1      2997 6.37803E+01 3.67934E+01 0.00000E+00
 -1      2998 6.75303E+01 3.80924E+01 0.00000E+00
 -1      2999 6.90303E+01 3.80924E+01 0.00000E+00
 -1      3000 6.67803E+01 3.67934E+01 0.00000E+00
 -1      3001 7.05303E+01 3.80924E+01 0.00000E+00
 -1      3002 7.20303E+01 3.80924E+01 0.00000E+00
 -1      3003 6.97803E+01 3.67934E+01 0.00000E+00
 -1      3004 7.35303E+01 3.80924E+01 0.00000E+00
 -1      3005 7.50303E+01 3.80924E+01 0.00000E+00
 -1      3006 7.27803E+01 3.67934E+01 0.00000E+00
 -1      3007 7.65303E+01 3.80924E+01 0.00000E+00
 -1      3008 7.80303E+01 3.80924E+01 0.00000E+00
 -1      3009 7.57803E+01 3.67934E+01 0.00000E+00
 -1      3010 7.95303E+01 3.80924E+01 0.00000E+00
 -1      3011 8.10303E+01 3.80924E+01 0.00000E+00
 -1      3012 7.87803E+01 3.67934E+01 0.00000E+00
 -1      3013 8.25303E+01 3.80924E+01 0.00000E+00
 -1      3014 8.40303E+01 3.80924E+01 0.00000E+00
 -1      3015 8.17803E+01 3.67934E+01 0.00000E+00
 -1      3016 8.55303E+01 3.80924E+01 0.00000E+00
 -1      3017 8.70303E+01 3.80924E+01 0.00000E+00
 -1      3018 8.47803E+01 3.67934E+01 0.00000E+00
 -1      3019 8.85303E+01 3.80924E+01 0.00000E+00
 -1      3020 9.00303E+01 3.80924E+01 0.00000E+00
 -1      3021 8.77803E+01 3.67934E+01 0.00000E+00
 -1      3022 9.15303E+01 3.80924E+01 0.00000E+00
 -1      3023 9.30303E+01 3.80924E+01 0.00000E+00
 -1      3024 9.07803E+01 3.67934E+01 0.00000E+00
 -1      3025 9.45303E+01 3.80924E+01 0.00000E+00
 -1      3026 9.60303E+01 3.80924E+01 0.00000E+00
 -1      3027 9.37803E+01 3.67934E+01 0.00000E+00
 -1      3028 9.75303E+01 3.80924E+01 0.00000E+00
 -1      3029 9.90303E+01 3.80924E+01 0.00000E+00
 -1      3030 9.67803E+01 3.67934E+01 0.00000E+00
 -1      3031 1.00530E+02 3.80924E+01 0.00000E+00
 -1      3032 1.02030E+02 3.80924E+01 0.00000E+00
 -1      3033 9.97803E+01 3.67934E+01 0.00000E+00
 -1      3034 1.03530E+02 3.80924E+01 0.00000E+00
 -1      3035 1.05030E+02 3.80924E+01 0.00000E+00
 -1      3036 1.02780E+02 3.67934E+01 0.00000E+00
 -1      3037 1.06530E+02 3.80924E+01 0.00000E+00
 -1      3038 1.08030E+02 3.80924E+01 0.00000E+00
 -1      3039 1.05780E+02 3.67934E+01 0.00000E+00
 -1      3040 1.09530E+02 3.80924E+01 0.00000E+00
 -1      3041 1.11030E+02 3.80924E+01 0.00000E+00
 -1      3042 1.08780E+02 3.67934E+01 0.00000E+00
 -1      3043 1.12530E+02 3.80924E+01 0.00000E+00
 -1      3044 1.14030E+02 3.80924E+01 0.00000E+00
 -1      3045 1.11780E+02 3.67934E+01 0.00000E+00
 -1      3046 1.15530E+02 3.80924E+01 0.00000E+00
 -1      3047 1.17030E+02 3.80924E+01 0.00000E+00
 -1      3048 1.14780E+02 3.67934E+01 0.00000E+00
 -1      3049 1.18530E+02 3.80924E+01 0.00000E+00
 -1      3050 1.20030E+02 3.80924E+01 0.00000E+00
 -1      3051 1.17780E+02 3.67934E+01 0.00000E+00
 -1      3052 1.21530E+02 3.80924E+01 0.00000E+00
 -1      3053 1.23030E+02 3.80924E+01 0.00000E+00
 -1      3054 1.20780E+02 3.67934E+01 0.00000E+00
 -1      3055 1.24530E+02 3.80924E+01 0.00000E+00
 -1      3056 1.26030E+02 3.80924E+01 0.00000E+00
 -1      3057 1.23780E+02 3.67934E+01 0.00000E+00
 -1      3058 1.27530E+02 3.80924E+01 0.00000E+00
 -1      3059 1.29030E+02 3.80924E+01 0.00000E+00
 -1      3060 1.26780E+02 3.67934E+01 0.00000E+00
 -1      3061 1.30530E+02 3.80924E+01 0.00000E+00
 -1      3062 1.32030E+02 3.80924E+01 0.00000E+00
 -1      3063 1.29780E+02 3.67934E+01 0.00000E+00
 -1      3064 1.33530E+02 3.80924E+01 0.00000E+00
 -1      3065 1.35030E+02 3.80924E+01 0.00000E+00
 -1      3066 1.32780E+02 3.67934E+01 0.00000E+00
 -1      3067 1.36487E+02 3.80235E+01 0.00000E+00
 -1      3068 1.37987E+02 3.80235E+01 0.00000E+00
 -1      3069 1.38650E+02 3.65866E+01 0.00000E+00
 -1      3070 1.35737E+02 3.67245E+01 0.00000E+00
 -1      3071 1.38564E+02 1.29768E+01 0.00000E+00
 -1      3072 1.37661E+02 1.15827E+01 0.00000E+00
 -1      3073 2.02500E+01 1.16910E+01 0.00000E+00
 -1      3074 1.87500E+01 1.16910E+01 0.00000E+00
 -1      3075 3.51000E+01 1.16910E+01 0.00000E+00
 -1      3076 3.36000E+01 1.16910E+01 0.00000E+00
 -1      3077 3.58500E+01 1.29900E+01 0.00000E+00
 -1      3078 3.21000E+01 1.16910E+01 0.00000E+00
 -1      3079 3.06000E+01 1.16910E+01 0.00000E+00
 -1      3080 3.28500E+01 1.29900E+01 0.00000E+00
 -1      3081 4.11000E+01 1.16910E+01 0.00000E+00
 -1      3082 3.96000E+01 1.16910E+01 0.00000E+00
 -1      3083 3.88500E+01 1.29900E+01 0.00000E+00
 -1      3084 4.41000E+01 1.16910E+01 0.00000E+00
 -1      3085 4.26000E+01 1.16910E+01 0.00000E+00
 -1      3086 4.18500E+01 1.29900E+01 0.00000E+00
 -1      3087 4.71000E+01 1.16910E+01 0.00000E+00
 -1      3088 4.56000E+01 1.16910E+01 0.00000E+00
 -1      3089 4.48500E+01 1.29900E+01 0.00000E+00
 -1      3090 5.01000E+01 1.16910E+01 0.00000E+00
 -1      3091 4.86000E+01 1.16910E+01 0.00000E+00
 -1      3092 4.78500E+01 1.29900E+01 0.00000E+00
 -1      3093 5.29500E+01 1.16910E+01 0.00000E+00
 -1      3094 5.15250E+01 1.16910E+01 0.00000E+00
 -1      3095 5.07750E+01 1.29900E+01 0.00000E+00
 -1      3096 5.59500E+01 1.16910E+01 0.00000E+00
 -1      3097 5.44500E+01 1.16910E+01 0.00000E+00
 -1      3098 5.37000E+01 1.29900E+01 0.00000E+00
 -1      3099 5.89500E+01 1.16910E+01 0.00000E+00
 -1      3100 5.74500E+01 1.16910E+01 0.00000E+00
 -1      3101 5.67000E+01 1.29900E+01 0.00000E+00
 -1      3102 6.19500E+01 1.16910E+01 0.00000E+00
 -1      3103 6.04500E+01 1.16910E+01 0.00000E+00
 -1      3104 5.97000E+01 1.29900E+01 0.00000E+00
 -1      3105 6.49500E+01 1.16910E+01 0.00000E+00
 -1      3106 6.34500E+01 1.16910E+01 0.00000E+00
 -1      3107 6.27000E+01 1.29900E+01 0.00000E+00
 -1      3108 6.79500E+01 1.16910E+01 0.00000E+00
 -1      3109 6.64500E+01 1.16910E+01 0.00000E+00
 -1      3110 6.57000E+01 1.29900E+01 0.00000E+00
 -1      3111 7.09500E+01 1.16910E+01 0.00000E+00
 -1      3112 6.94500E+01 1.16910E+01 0.00000E+00
 -1      3113 6.87000E+01 1.29900E+01 0.00000E+00
 -1      3114 7.39500E+01 1.16910E+01 0.00000E+00
 -1      3115 7.24500E+01 1.16910E+01 0.00000E+00
 -1      3116 7.17000E+01 1.29900E+01 0.00000E+00
 -1      3117 7.69500E+01 1.16910E+01 0.00000E+00
 -1      3118 7.54500E+01 1.16910E+01 0.00000E+00
 -1      3119 7.47000E+01 1.29900E+01 0.00000E+00
 -1      3120 7.99500E+01 1.16910E+01 0.00000E+00
 -1      3121 7.84500E+01 1.16910E+01 0.00000E+00
 -1      3122 7.77000E+01 1.29900E+01 0.00000E+00
 -1      3123 8.28000E+01 1.16910E+01 0.00000E+00
 -1      3124 8.13750E+01 1.16910E+01 0.00000E+00
 -1      3125 8.06250E+01 1.29900E+01 0.00000E+00
 -1      3126 8.58000E+01 1.16910E+01 0.00000E+00
 -1      3127 8.43000E+01 1.16910E+01 0.00000E+00
 -1      3128 8.35500E+01 1.29900E+01 0.00000E+00
 -1      3129 8.88000E+01 1.16910E+01 0.00000E+00
 -1      3130 8.73000E+01 1.16910E+01 0.00000E+00
 -1      3131 8.65500E+01 1.29900E+01 0.00000E+00
 -1      3132 9.18000E+01 1.16910E+01 0.00000E+00
 -1      3133 9.03000E+01 1.16910E+01 0.00000E+00
 -1      3134 8.95500E+01 1.29900E+01 0.00000E+00
 -1      3135 1.38564E+02 1.44518E+01 0.00000E+00
 -1      3136 2.91000E+01 1.16910E+01 0.00000E+00
 -1      3137 2.76000E+01 1.16910E+01 0.00000E+00
 -1      3138 2.98500E+01 1.29900E+01 0.00000E+00
 -1      3139 1.07663E+02 2.71569E+01 0.00000E+00
 -1      3140 1.06563E+02 2.70408E+01 0.00000E+00
 -1      3141 9.42277E+01 1.27892E+01 0.00000E+00
 -1      3142 9.29770E+01 1.21180E+01 0.00000E+00
 -1      3143 9.22270E+01 1.34170E+01 0.00000E+00
 -1      3144 9.45809E+01 1.42709E+01 0.00000E+00
 -1      3145 1.18751E+02 2.23484E+01 0.00000E+00
 -1      3146 1.17741E+02 2.33901E+01 0.00000E+00
 -1      3147 1.38807E+02 2.99052E+01 0.00000E+00
 -1      3148 1.38807E+02 2.84552E+01 0.00000E+00
 -1      3149 1.37508E+02 3.06427E+01 0.00000E+00
 -1      3150 1.38807E+02 2.69802E+01 0.00000E+00
 -1      3151 1.38807E+02 2.55052E+01 0.00000E+00
 -1      3152 1.37508E+02 2.77177E+01 0.00000E+00
 -1      3153 1.38728E+02 3.54459E+01 0.00000E+00
 -1      3154 1.38728E+02 3.39709E+01 0.00000E+00
 -1      3155 1.37429E+02 3.32334E+01 0.00000E+00
 -1      3156 1.37272E+02 3.55148E+01 0.00000E+00
 -1      3157 1.31550E+02 1.14784E+01 0.00000E+00
 -1      3158 1.30050E+02 1.14784E+01 0.00000E+00
 -1      3159 1.23530E+02 1.11004E+01 0.00000E+00
 -1      3160 1.22635E+02 1.15291E+01 0.00000E+00
 -1      3161 1.22790E+02 1.26628E+01 0.00000E+00
 -1      3162 1.00862E+01 3.73269E+01 0.00000E+00
 -1      3163 9.63610E+01 1.91893E+01 0.00000E+00
 -1      3164 9.55741E+01 1.80849E+01 0.00000E+00
 -1      3165 1.72500E+01 1.16910E+01 0.00000E+00
 -1      3166 1.57500E+01 1.16910E+01 0.00000E+00
 -1      3167 1.80000E+01 1.29900E+01 0.00000E+00
 -1      3168 1.28550E+02 1.14784E+01 0.00000E+00
 -1      3169 1.27050E+02 1.14784E+01 0.00000E+00
 -1      3170 1.29300E+02 1.27774E+01 0.00000E+00
 -1      3171 1.16910E+01 2.12875E+01 0.00000E+00
 -1      3172 1.16910E+01 2.27625E+01 0.00000E+00
 -1      3173 1.22293E+02 1.66802E+01 0.00000E+00
 -1      3174 1.21685E+02 1.81054E+01 0.00000E+00
 -1      3175 1.13839E+02 2.48727E+01 0.00000E+00
 -1      3176 1.12642E+02 2.55960E+01 0.00000E+00
 -1      3177 1.38807E+02 1.81302E+01 0.00000E+00
 -1      3178 1.38807E+02 1.66552E+01 0.00000E+00
 -1      3179 9.49068E+01 1.64623E+01 0.00000E+00
 -1      3180 9.47438E+01 1.53666E+01 0.00000E+00
 -1      3181 9.35669E+01 1.49396E+01 0.00000E+00
 -1      3182 1.22689E+02 1.37931E+01 0.00000E+00
 -1      3183 1.22568E+02 1.50299E+01 0.00000E+00
 -1      3184 1.01323E+02 2.54054E+01 0.00000E+00
 -1      3185 1.00516E+02 2.46780E+01 0.00000E+00
 -1      3186 9.96762E+01 2.39060E+01 0.00000E+00
 -1      3187 9.88362E+01 2.31341E+01 0.00000E+00
 -1      3188 9.93368E+01 2.50932E+01 0.00000E+00
 -1      3189 1.24992E+02 1.12067E+01 0.00000E+00
 -1      3190 1.16492E+02 2.44948E+01 0.00000E+00
 -1      3191 1.15166E+02 2.46838E+01 0.00000E+00
 -1      3192 1.15097E+02 2.59228E+01 0.00000E+00
 -1      3193 1.16910E+01 2.42375E+01 0.00000E+00
 -1      3194 1.16910E+01 2.57125E+01 0.00000E+00
 -1      3195 1.29900E+01 2.35000E+01 0.00000E+00
 -1      3196 1.16136E+01 1.08959E+01 0.00000E+00
 -1      3197 1.33050E+02 1.14784E+01 0.00000E+00
 -1      3198 1.32300E+02 1.27774E+01 0.00000E+00
 -1      3199 1.34550E+02 1.14784E+01 0.00000E+00
 -1      3200 1.11806E+02 2.64022E+01 0.00000E+00
 -1      3201 1.10971E+02 2.72084E+01 0.00000E+00
 -1      3202 1.12935E+02 2.69179E+01 0.00000E+00
 -1      3203 1.05758E+02 2.80008E+01 0.00000E+00
 -1      3204 1.05316E+02 2.69233E+01 0.00000E+00
 -1      3205 1.36161E+02 1.15827E+01 0.00000E+00
 -1      3206 1.29126E+01 1.16334E+01 0.00000E+00
 -1      3207 2.17125E+01 1.16910E+01 0.00000E+00
 -1      3208 2.09625E+01 1.29900E+01 0.00000E+00
 -1      3209 2.31750E+01 1.16910E+01 0.00000E+00
 -1      3210 1.25742E+02 1.25057E+01 0.00000E+00
 -1      3211 1.19788E+02 2.20769E+01 0.00000E+00
 -1      3212 1.19959E+02 2.32529E+01 0.00000E+00
 -1      3213 1.20825E+02 2.18053E+01 0.00000E+00
 -1      3214 1.38807E+02 1.96052E+01 0.00000E+00
 -1      3215 1.37508E+02 1.88677E+01 0.00000E+00
 -1      3216 1.38807E+02 2.10802E+01 0.00000E+00
 -1      3217 1.23207E+02 1.61450E+01 0.00000E+00
 -1      3218 1.23845E+02 1.72601E+01 0.00000E+00
 -1      3219 1.24120E+02 1.56097E+01 0.00000E+00
 -1      3220 1.08424E+02 2.74054E+01 0.00000E+00
 -1      3221 1.07766E+02 2.83669E+01 0.00000E+00
 -1      3222 1.09185E+02 2.76540E+01 0.00000E+00
 -1      3223 9.43972E+01 1.76579E+01 0.00000E+00
 -1      3224 1.16910E+01 3.30594E+01 0.00000E+00
 -1      3225 1.16910E+01 3.45281E+01 0.00000E+00
 -1      3226 2.68875E+01 1.29900E+01 0.00000E+00
 -1      3227 2.61375E+01 1.16910E+01 0.00000E+00
 -1      3228 2.46750E+01 1.16910E+01 0.00000E+00
 -1      3229 1.37265E+02 1.51893E+01 0.00000E+00
 -1      3230 1.37508E+02 2.47677E+01 0.00000E+00
 -1      3231 1.38807E+02 2.40302E+01 0.00000E+00
 -1      3232 1.38807E+02 2.25552E+01 0.00000E+00
 -1      3233 1.02309E+02 2.62047E+01 0.00000E+00
 -1      3234 1.01163E+02 2.66644E+01 0.00000E+00
 -1      3235 1.16910E+01 1.54063E+01 0.00000E+00
 -1      3236 1.16910E+01 1.68750E+01 0.00000E+00
 -1      3237 1.29900E+01 1.46687E+01 0.00000E+00
 -1      3238 1.15862E+01 3.73269E+01 0.00000E+00
 -1      3239 1.23583E+02 1.33643E+01 0.00000E+00
 -1      3240 9.78409E+01 2.27672E+01 0.00000E+00
 -1      3241 9.68457E+01 2.24002E+01 0.00000E+00
 -1      3242 9.75015E+01 2.39543E+01 0.00000E+00
 -1      3243 1.21793E+02 1.92123E+01 0.00000E+00
 -1      3244 1.21901E+02 2.03193E+01 0.00000E+00
 -1      3245 1.23040E+02 1.89023E+01 0.00000E+00
 -1      3246 9.61248E+01 2.02468E+01 0.00000E+00
 -1      3247 1.39950E+01 1.17960E+01 0.00000E+00
 -1      3248 1.16910E+01 1.83469E+01 0.00000E+00
 -1      3249 1.16910E+01 1.98156E+01 0.00000E+00
 -1      3250 1.29900E+01 2.05531E+01 0.00000E+00
 -1      3251 1.29900E+01 1.76094E+01 0.00000E+00
 -1      3252 1.47450E+01 1.30950E+01 0.00000E+00
 -1      3253 1.23362E+01 3.60279E+01 0.00000E+00
 -1      3254 1.17673E+02 2.46292E+01 0.00000E+00
 -1      3255 1.16910E+01 3.01219E+01 0.00000E+00
 -1      3256 1.16910E+01 3.15906E+01 0.00000E+00
 -1      3257 1.29900E+01 3.23250E+01 0.00000E+00
 -1      3258 1.03490E+02 2.64144E+01 0.00000E+00
 -1      3259 1.03330E+02 2.76735E+01 0.00000E+00
 -1      3260 1.04295E+02 2.54545E+01 0.00000E+00
 -1      3261 4.26000E+01 1.42890E+01 0.00000E+00
 -1      3262 4.11000E+01 1.42890E+01 0.00000E+00
 -1      3263 1.06278E+02 2.91636E+01 0.00000E+00
 -1      3264 1.05031E+02 2.90460E+01 0.00000E+00
 -1      3265 1.35411E+02 1.28817E+01 0.00000E+00
 -1      3266 1.80304E+01 3.54944E+01 0.00000E+00
 -1      3267 1.95304E+01 3.54944E+01 0.00000E+00
 -1      3268 2.10304E+01 3.54944E+01 0.00000E+00
 -1      3269 2.25304E+01 3.54944E+01 0.00000E+00
 -1      3270 2.02804E+01 3.41954E+01 0.00000E+00
 -1      3271 2.40304E+01 3.54944E+01 0.00000E+00
 -1      3272 2.55304E+01 3.54944E+01 0.00000E+00
 -1      3273 2.32804E+01 3.41954E+01 0.00000E+00
 -1      3274 2.70304E+01 3.54944E+01 0.00000E+00
 -1      3275 2.85304E+01 3.54944E+01 0.00000E+00
 -1      3276 2.62804E+01 3.41954E+01 0.00000E+00
 -1      3277 3.00304E+01 3.54944E+01 0.00000E+00
 -1      3278 3.15304E+01 3.54944E+01 0.00000E+00
 -1      3279 2.92804E+01 3.41954E+01 0.00000E+00
 -1      3280 3.30303E+01 3.54944E+01 0.00000E+00
 -1      3281 3.45303E+01 3.54944E+01 0.00000E+00
 -1      3282 3.22803E+01 3.41954E+01 0.00000E+00
 -1      3283 3.60303E+01 3.54944E+01 0.00000E+00
 -1      3284 3.75303E+01 3.54944E+01 0.00000E+00
 -1      3285 3.52803E+01 3.41954E+01 0.00000E+00
 -1      3286 3.90303E+01 3.54944E+01 0.00000E+00
 -1      3287 4.05303E+01 3.54944E+01 0.00000E+00
 -1      3288 3.82803E+01 3.41954E+01 0.00000E+00
 -1      3289 4.20303E+01 3.54944E+01 0.00000E+00
 -1      3290 4.35303E+01 3.54944E+01 0.00000E+00
 -1      3291 4.12803E+01 3.41954E+01 0.00000E+00
 -1      3292 4.50303E+01 3.54944E+01 0.00000E+00
 -1      3293 4.65303E+01 3.54944E+01 0.00000E+00
 -1      3294 4.42803E+01 3.41954E+01 0.00000E+00
 -1      3295 4.80303E+01 3.54944E+01 0.00000E+00
 -1      3296 4.95303E+01 3.54944E+01 0.00000E+00
 -1      3297 4.72803E+01 3.41954E+01 0.00000E+00
 -1      3298 5.10303E+01 3.54944E+01 0.00000E+00
 -1      3299 5.25303E+01 3.54944E+01 0.00000E+00
 -1      3300 5.02803E+01 3.41954E+01 0.00000E+00
 -1      3301 5.40303E+01 3.54944E+01 0.00000E+00
 -1      3302 5.55303E+01 3.54944E+01 0.00000E+00
 -1      3303 5.32803E+01 3.41954E+01 0.00000E+00
 -1      3304 5.70303E+01 3.54944E+01 0.00000E+00
 -1      3305 5.85303E+01 3.54944E+01 0.00000E+00
 -1      3306 5.62803E+01 3.41954E+01 0.00000E+00
 -1      3307 6.00303E+01 3.54944E+01 0.00000E+00
 -1      3308 6.15303E+01 3.54944E+01 0.00000E+00
 -1      3309 5.92803E+01 3.41954E+01 0.00000E+00
 -1      3310 6.30303E+01 3.54944E+01 0.00000E+00
 -1      3311 6.45303E+01 3.54944E+01 0.00000E+00
 -1      3312 6.22803E+01 3.41954E+01 0.00000E+00
 -1      3313 6.60303E+01 3.54944E+01 0.00000E+00
 -1      3314 6.75303E+01 3.54944E+01 0.00000E+00
 -1      3315 6.52803E+01 3.41954E+01 0.00000E+00
 -1      3316 6.90303E+01 3.54944E+01 0.00000E+00
 -1      3317 7.05303E+01 3.54944E+01 0.00000E+00
 -1      3318 6.82803E+01 3.41954E+01 0.00000E+00
 -1      3319 7.20303E+01 3.54944E+01 0.00000E+00
 -1      3320 7.35303E+01 3.54944E+01 0.00000E+00
 -1      3321 7.12803E+01 3.41954E+01 0.00000E+00
 -1      3322 7.50303E+01 3.54944E+01 0.00000E+00
 -1      3323 7.65303E+01 3.54944E+01 0.00000E+00
 -1      3324 7.42803E+01 3.41954E+01 0.00000E+00
 -1      3325 7.80303E+01 3.54944E+01 0.00000E+00
 -1      3326 7.95303E+01 3.54944E+01 0.00000E+00
 -1      3327 7.72803E+01 3.41954E+01 0.00000E+00
 -1      3328 8.10303E+01 3.54944E+01 0.00000E+00
 -1      3329 8.25303E+01 3.54944E+01 0.00000E+00
 -1      3330 8.02803E+01 3.41954E+01 0.00000E+00
 -1      3331 8.40303E+01 3.54944E+01 0.00000E+00
 -1      3332 8.55303E+01 3.54944E+01 0.00000E+00
 -1      3333 8.32803E+01 3.41954E+01 0.00000E+00
 -1      3334 8.70303E+01 3.54944E+01 0.00000E+00
 -1      3335 8.85303E+01 3.54944E+01 0.00000E+00
 -1      3336 8.62803E+01 3.41954E+01 0.00000E+00
 -1      3337 9.00303E+01 3.54944E+01 0.00000E+00
 -1      3338 9.15303E+01 3.54944E+01 0.00000E+00
 -1      3339 8.92803E+01 3.41954E+01 0.00000E+00
 -1      3340 9.30303E+01 3.54944E+01 0.00000E+00
 -1      3341 9.45303E+01 3.54944E+01 0.00000E+00
 -1      3342 9.22803E+01 3.41954E+01 0.00000E+00
 -1      3343 9.60303E+01 3.54944E+01 0.00000E+00
 -1      3344 9.75303E+01 3.54944E+01 0.00000E+00
 -1      3345 9.52803E+01 3.41954E+01 0.00000E+00
 -1      3346 9.90303E+01 3.54944E+01 0.00000E+00
 -1      3347 1.00530E+02 3.54944E+01 0.00000E+00
 -1      3348 9.82803E+01 3.41954E+01 0.00000E+00
 -1      3349 1.02030E+02 3.54944E+01 0.00000E+00
 -1      3350 1.03530E+02 3.54944E+01 0.00000E+00
 -1      3351 1.01280E+02 3.41954E+01 0.00000E+00
 -1      3352 1.05030E+02 3.54944E+01 0.00000E+00
 -1      3353 1.06530E+02 3.54944E+01 0.00000E+00
 -1      3354 1.04280E+02 3.41954E+01 0.00000E+00
 -1      3355 1.08030E+02 3.54944E+01 0.00000E+00
 -1      3356 1.09530E+02 3.54944E+01 0.00000E+00
 -1      3357 1.07280E+02 3.41954E+01 0.00000E+00
 -1      3358 1.11030E+02 3.54944E+01 0.00000E+00
 -1      3359 1.12530E+02 3.54944E+01 0.00000E+00
 -1      3360 1.10280E+02 3.41954E+01 0.00000E+00
 -1      3361 1.14030E+02 3.54944E+01 0.00000E+00
 -1      3362 1.15530E+02 3.54944E+01 0.00000E+00
 -1      3363 1.13280E+02 3.41954E+01 0.00000E+00
 -1      3364 1.17030E+02 3.54944E+01 0.00000E+00
 -1      3365 1.18530E+02 3.54944E+01 0.00000E+00
 -1      3366 1.16280E+02 3.41954E+01 0.00000E+00
 -1      3367 1.20030E+02 3.54944E+01 0.00000E+00
 -1      3368 1.21530E+02 3.54944E+01 0.00000E+00
 -1      3369 1.19280E+02 3.41954E+01 0.00000E+00
 -1      3370 1.23030E+02 3.54944E+01 0.00000E+00
 -1      3371 1.24530E+02 3.54944E+01 0.00000E+00
 -1      3372 1.22280E+02 3.41954E+01 0.00000E+00
 -1      3373 1.26030E+02 3.54944E+01 0.00000E+00
 -1      3374 1.27530E+02 3.54944E+01 0.00000E+00
 -1      3375 1.25280E+02 3.41954E+01 0.00000E+00
 -1      3376 1.29030E+02 3.54944E+01 0.00000E+00
 -1      3377 1.30530E+02 3.54944E+01 0.00000E+00
 -1      3378 1.28280E+02 3.41954E+01 0.00000E+00
 -1      3379 1.32030E+02 3.54944E+01 0.00000E+00
 -1      3380 1.33530E+02 3.54944E+01 0.00000E+00
 -1      3381 1.31280E+02 3.41954E+01 0.00000E+00
 -1      3382 1.34673E+02 3.55391E+01 0.00000E+00
 -1      3383 1.36129E+02 3.54701E+01 0.00000E+00
 -1      3384 1.36208E+02 3.43294E+01 0.00000E+00
 -1      3385 1.33923E+02 3.42401E+01 0.00000E+00
 -1      3386 1.16910E+01 2.71844E+01 0.00000E+00
 -1      3387 1.16910E+01 2.86531E+01 0.00000E+00
 -1      3388 1.29900E+01 2.93875E+01 0.00000E+00
 -1      3389 3.96000E+01 1.42890E+01 0.00000E+00
 -1      3390 3.81000E+01 1.42890E+01 0.00000E+00
 -1      3391 4.03500E+01 1.55880E+01 0.00000E+00
 -1      3392 3.36000E+01 1.42890E+01 0.00000E+00
 -1      3393 3.21000E+01 1.42890E+01 0.00000E+00
 -1      3394 4.56000E+01 1.42890E+01 0.00000E+00
 -1      3395 4.41000E+01 1.42890E+01 0.00000E+00
 -1      3396 4.33500E+01 1.55880E+01 0.00000E+00
 -1      3397 4.86000E+01 1.42890E+01 0.00000E+00
 -1      3398 4.71000E+01 1.42890E+01 0.00000E+00
 -1      3399 4.63500E+01 1.55880E+01 0.00000E+00
 -1      3400 5.14500E+01 1.42890E+01 0.00000E+00
 -1      3401 5.00250E+01 1.42890E+01 0.00000E+00
 -1      3402 4.92750E+01 1.55880E+01 0.00000E+00
 -1      3403 5.44500E+01 1.42890E+01 0.00000E+00
 -1      3404 5.29500E+01 1.42890E+01 0.00000E+00
 -1      3405 5.22000E+01 1.55880E+01 0.00000E+00
 -1      3406 5.74500E+01 1.42890E+01 0.00000E+00
 -1      3407 5.59500E+01 1.42890E+01 0.00000E+00
 -1      3408 5.52000E+01 1.55880E+01 0.00000E+00
 -1      3409 6.04500E+01 1.42890E+01 0.00000E+00
 -1      3410 5.89500E+01 1.42890E+01 0.00000E+00
 -1      3411 5.82000E+01 1.55880E+01 0.00000E+00
 -1      3412 6.34500E+01 1.42890E+01 0.00000E+00
 -1      3413 6.19500E+01 1.42890E+01 0.00000E+00
 -1      3414 6.12000E+01 1.55880E+01 0.00000E+00
 -1      3415 6.64500E+01 1.42890E+01 0.00000E+00
 -1      3416 6.49500E+01 1.42890E+01 0.00000E+00
 -1      3417 6.42000E+01 1.55880E+01 0.00000E+00
 -1      3418 6.94500E+01 1.42890E+01 0.00000E+00
 -1      3419 6.79500E+01 1.42890E+01 0.00000E+00
 -1      3420 6.72000E+01 1.55880E+01 0.00000E+00
 -1      3421 7.24500E+01 1.42890E+01 0.00000E+00
 -1      3422 7.09500E+01 1.42890E+01 0.00000E+00
 -1      3423 7.02000E+01 1.55880E+01 0.00000E+00
 -1      3424 7.54500E+01 1.42890E+01 0.00000E+00
 -1      3425 7.39500E+01 1.42890E+01 0.00000E+00
 -1      3426 7.32000E+01 1.55880E+01 0.00000E+00
 -1      3427 7.84500E+01 1.42890E+01 0.00000E+00
 -1      3428 7.69500E+01 1.42890E+01 0.00000E+00
 -1      3429 7.62000E+01 1.55880E+01 0.00000E+00
 -1      3430 8.13000E+01 1.42890E+01 0.00000E+00
 -1      3431 7.98750E+01 1.42890E+01 0.00000E+00
 -1      3432 7.91250E+01 1.55880E+01 0.00000E+00
 -1      3433 8.43000E+01 1.42890E+01 0.00000E+00
 -1      3434 8.28000E+01 1.42890E+01 0.00000E+00
 -1      3435 8.20500E+01 1.55880E+01 0.00000E+00
 -1      3436 8.73000E+01 1.42890E+01 0.00000E+00
 -1      3437 8.58000E+01 1.42890E+01 0.00000E+00
 -1      3438 8.50500E+01 1.55880E+01 0.00000E+00
 -1      3439 9.03000E+01 1.42890E+01 0.00000E+00
 -1      3440 8.88000E+01 1.42890E+01 0.00000E+00
 -1      3441 8.80500E+01 1.55880E+01 0.00000E+00
 -1      3442 3.06000E+01 1.42890E+01 0.00000E+00
 -1      3443 2.91000E+01 1.42890E+01 0.00000E+00
 -1      3444 3.13500E+01 1.55880E+01 0.00000E+00
 -1      3445 1.03849E+02 2.88363E+01 0.00000E+00
 -1      3446 1.02668E+02 2.86265E+01 0.00000E+00
 -1      3447 1.04369E+02 2.99991E+01 0.00000E+00
 -1      3448 9.25219E+01 1.48278E+01 0.00000E+00
 -1      3449 9.13450E+01 1.44008E+01 0.00000E+00
 -1      3450 9.05950E+01 1.56998E+01 0.00000E+00
 -1      3451 9.26849E+01 1.59235E+01 0.00000E+00
 -1      3452 1.36209E+02 3.13677E+01 0.00000E+00
 -1      3453 1.36209E+02 2.99177E+01 0.00000E+00
 -1      3454 9.36278E+01 1.89229E+01 0.00000E+00
 -1      3455 9.29604E+01 1.73002E+01 0.00000E+00
 -1      3456 1.36209E+02 2.84427E+01 0.00000E+00
 -1      3457 1.36209E+02 2.69677E+01 0.00000E+00
 -1      3458 1.34910E+02 2.91677E+01 0.00000E+00
 -1      3459 1.15893E+02 2.67603E+01 0.00000E+00
 -1      3460 1.14567E+02 2.69492E+01 0.00000E+00
 -1      3461 9.88932E+01 2.64191E+01 0.00000E+00
 -1      3462 9.80531E+01 2.56472E+01 0.00000E+00
 -1      3463 1.65000E+01 1.44587E+01 0.00000E+00
 -1      3464 1.47450E+01 1.45638E+01 0.00000E+00
 -1      3465 1.47450E+01 1.60325E+01 0.00000E+00
 -1      3466 1.36352E+01 3.52936E+01 0.00000E+00
 -1      3467 3.66000E+01 1.42890E+01 0.00000E+00
 -1      3468 3.51000E+01 1.42890E+01 0.00000E+00
 -1      3469 3.73500E+01 1.55880E+01 0.00000E+00
 -1      3470 1.50828E+01 3.53940E+01 0.00000E+00
 -1      3471 1.65828E+01 3.53940E+01 0.00000E+00
 -1      3472 1.73328E+01 3.40950E+01 0.00000E+00
 -1      3473 1.44376E+01 3.38942E+01 0.00000E+00
 -1      3474 1.80000E+01 1.44587E+01 0.00000E+00
 -1      3475 1.30050E+02 1.39701E+01 0.00000E+00
 -1      3476 1.28550E+02 1.39701E+01 0.00000E+00
 -1      3477 1.35897E+02 1.72884E+01 0.00000E+00
 -1      3478 1.35654E+02 1.50850E+01 0.00000E+00
 -1      3479 1.34043E+02 1.49808E+01 0.00000E+00
 -1      3480 9.57854E+01 2.14340E+01 0.00000E+00
 -1      3481 9.47251E+01 2.04678E+01 0.00000E+00
 -1      3482 9.54460E+01 2.26212E+01 0.00000E+00
 -1      3483 1.00865E+02 2.80177E+01 0.00000E+00
 -1      3484 9.98791E+01 2.72184E+01 0.00000E+00
 -1      3485 9.85954E+01 2.77724E+01 0.00000E+00
 -1      3486 1.19032E+02 2.49075E+01 0.00000E+00
 -1      3487 1.17783E+02 2.60122E+01 0.00000E+00
 -1      3488 1.13731E+02 2.77554E+01 0.00000E+00
 -1      3489 9.32884E+01 2.01101E+01 0.00000E+00
 -1      3490 1.35897E+02 1.87634E+01 0.00000E+00
 -1      3491 1.34286E+02 1.86592E+01 0.00000E+00
 -1      3492 1.35897E+02 2.02384E+01 0.00000E+00
 -1      3493 2.39250E+01 1.29900E+01 0.00000E+00
 -1      3494 1.22072E+02 2.14953E+01 0.00000E+00
 -1      3495 1.22243E+02 2.26713E+01 0.00000E+00
 -1      3496 1.23319E+02 2.11852E+01 0.00000E+00
 -1      3497 3.43500E+01 1.55880E+01 0.00000E+00
 -1      3498 2.83875E+01 1.55880E+01 0.00000E+00
 -1      3499 2.76375E+01 1.42890E+01 0.00000E+00
 -1      3500 2.61750E+01 1.42890E+01 0.00000E+00
 -1      3501 1.29900E+01 2.64469E+01 0.00000E+00
 -1      3502 1.37508E+02 2.18177E+01 0.00000E+00
 -1      3503 1.24691E+02 1.45427E+01 0.00000E+00
 -1      3504 1.25329E+02 1.56578E+01 0.00000E+00
 -1      3505 1.10313E+02 2.81698E+01 0.00000E+00
 -1      3506 1.09656E+02 2.91313E+01 0.00000E+00
 -1      3507 1.11442E+02 2.86856E+01 0.00000E+00
 -1      3508 9.19155E+01 1.71884E+01 0.00000E+00
 -1      3509 1.96588E+01 1.46525E+01 0.00000E+00
 -1      3510 1.81588E+01 1.61213E+01 0.00000E+00
 -1      3511 1.34910E+02 2.62177E+01 0.00000E+00
 -1      3512 1.36209E+02 2.54927E+01 0.00000E+00
 -1      3513 1.36209E+02 2.40177E+01 0.00000E+00
 -1      3514 1.36287E+02 3.31887E+01 0.00000E+00
 -1      3515 1.42890E+01 1.98172E+01 0.00000E+00
 -1      3516 1.42890E+01 2.12891E+01 0.00000E+00
 -1      3517 1.17252E+02 2.70386E+01 0.00000E+00
 -1      3518 1.16722E+02 2.80650E+01 0.00000E+00
 -1      3519 1.18611E+02 2.73170E+01 0.00000E+00
 -1      3520 9.66143E+01 2.66061E+01 0.00000E+00
 -1      3521 9.70579E+01 2.52802E+01 0.00000E+00
 -1      3522 9.60627E+01 2.49133E+01 0.00000E+00
 -1      3523 1.34988E+02 3.24637E+01 0.00000E+00
 -1      3524 1.07039E+02 2.94122E+01 0.00000E+00
 -1      3525 1.06311E+02 3.04574E+01 0.00000E+00
 -1      3526 1.07799E+02 2.96607E+01 0.00000E+00
 -1      3527 1.44376E+01 3.24254E+01 0.00000E+00
 -1      3528 1.58852E+01 3.25258E+01 0.00000E+00
 -1      3529 1.44376E+01 3.09567E+01 0.00000E+00
 -1      3530 1.23954E+02 1.83670E+01 0.00000E+00
 -1      3531 1.24062E+02 1.94739E+01 0.00000E+00
 -1      3532 1.24867E+02 1.78317E+01 0.00000E+00
 -1      3533 1.27600E+02 1.48768E+01 0.00000E+00
 -1      3534 1.26850E+02 1.36841E+01 0.00000E+00
 -1      3535 1.24792E+02 1.34124E+01 0.00000E+00
 -1      3536 1.01384E+02 2.91805E+01 0.00000E+00
 -1      3537 1.21106E+02 2.43644E+01 0.00000E+00
 -1      3538 1.20069E+02 2.46360E+01 0.00000E+00
 -1      3539 1.20179E+02 2.60190E+01 0.00000E+00
 -1      3540 1.32796E+02 1.44754E+01 0.00000E+00
 -1      3541 1.31296E+02 1.44754E+01 0.00000E+00
 -1      3542 1.30546E+02 1.56681E+01 0.00000E+00
 -1      3543 1.33039E+02 1.66788E+01 0.00000E+00
 -1      3544 2.11213E+01 1.46525E+01 0.00000E+00
 -1      3545 1.42890E+01 2.27641E+01 0.00000E+00
 -1      3546 1.42890E+01 2.42391E+01 0.00000E+00
 -1      3547 1.55880E+01 2.20281E+01 0.00000E+00
 -1      3548 1.44376E+01 2.80192E+01 0.00000E+00
 -1      3549 1.44376E+01 2.94879E+01 0.00000E+00
 -1      3550 1.58852E+01 2.95883E+01 0.00000E+00
 -1      3551 4.71000E+01 1.68870E+01 0.00000E+00
 -1      3552 4.56000E+01 1.68870E+01 0.00000E+00
 -1      3553 9.08705E+01 1.70766E+01 0.00000E+00
 -1      3554 8.98256E+01 1.69648E+01 0.00000E+00
 -1      3555 9.11461E+01 1.84534E+01 0.00000E+00
 -1      3556 2.25304E+01 3.28964E+01 0.00000E+00
 -1      3557 2.40304E+01 3.28964E+01 0.00000E+00
 -1      3558 2.55304E+01 3.28964E+01 0.00000E+00
 -1      3559 2.70304E+01 3.28964E+01 0.00000E+00
 -1      3560 2.47804E+01 3.15974E+01 0.00000E+00
 -1      3561 2.85304E+01 3.28964E+01 0.00000E+00
 -1      3562 3.00304E+01 3.28964E+01 0.00000E+00
 -1      3563 2.77804E+01 3.15974E+01 0.00000E+00
 -1      3564 3.15304E+01 3.28964E+01 0.00000E+00
 -1      3565 3.30303E+01 3.28964E+01 0.00000E+00
 -1      3566 3.07804E+01 3.15974E+01 0.00000E+00
 -1      3567 3.45303E+01 3.28964E+01 0.00000E+00
 -1      3568 3.60303E+01 3.28964E+01 0.00000E+00
 -1      3569 3.37803E+01 3.15974E+01 0.00000E+00
 -1      3570 3.75303E+01 3.28964E+01 0.00000E+00
 -1      3571 3.90303E+01 3.28964E+01 0.00000E+00
 -1      3572 3.67803E+01 3.15974E+01 0.00000E+00
 -1      3573 4.05303E+01 3.28964E+01 0.00000E+00
 -1      3574 4.20303E+01 3.28964E+01 0.00000E+00
 -1      3575 3.97803E+01 3.15974E+01 0.00000E+00
 -1      3576 4.35303E+01 3.28964E+01 0.00000E+00
 -1      3577 4.50303E+01 3.28964E+01 0.00000E+00
 -1      3578 4.27803E+01 3.15974E+01 0.00000E+00
 -1      3579 4.65303E+01 3.28964E+01 0.00000E+00
 -1      3580 4.80303E+01 3.28964E+01 0.00000E+00
 -1      3581 4.57803E+01 3.15974E+01 0.00000E+00
 -1      3582 4.95303E+01 3.28964E+01 0.00000E+00
 -1      3583 5.10303E+01 3.28964E+01 0.00000E+00
 -1      3584 4.87803E+01 3.15974E+01 0.00000E+00
 -1      3585 5.25303E+01 3.28964E+01 0.00000E+00
 -1      3586 5.40303E+01 3.28964E+01 0.00000E+00
 -1      3587 5.17803E+01 3.15974E+01 0.00000E+00
 -1      3588 5.55303E+01 3.28964E+01 0.00000E+00
 -1      3589 5.70303E+01 3.28964E+01 0.00000E+00
 -1      3590 5.47803E+01 3.15974E+01 0.00000E+00
 -1      3591 5.85303E+01 3.28964E+01 0.00000E+00
 -1      3592 6.00303E+01 3.28964E+01 0.00000E+00
 -1      3593 5.77803E+01 3.15974E+01 0.00000E+00
 -1      3594 6.15303E+01 3.28964E+01 0.00000E+00
 -1      3595 6.30303E+01 3.28964E+01 0.00000E+00
 -1      3596 6.07803E+01 3.15974E+01 0.00000E+00
 -1      3597 6.45303E+01 3.28964E+01 0.00000E+00
 -1      3598 6.60303E+01 3.28964E+01 0.00000E+00
 -1      3599 6.37803E+01 3.15974E+01 0.00000E+00
 -1      3600 6.75303E+01 3.28964E+01 0.00000E+00
 -1      3601 6.90303E+01 3.28964E+01 0.00000E+00
 -1      3602 6.67803E+01 3.15974E+01 0.00000E+00
 -1      3603 7.05303E+01 3.28964E+01 0.00000E+00
 -1      3604 7.20303E+01 3.28964E+01 0.00000E+00
 -1      3605 6.97803E+01 3.15974E+01 0.00000E+00
 -1      3606 7.35303E+01 3.28964E+01 0.00000E+00
 -1      3607 7.50303E+01 3.28964E+01 0.00000E+00
 -1      3608 7.27803E+01 3.15974E+01 0.00000E+00
 -1      3609 7.65303E+01 3.28964E+01 0.00000E+00
 -1      3610 7.80303E+01 3.28964E+01 0.00000E+00
 -1      3611 7.57803E+01 3.15974E+01 0.00000E+00
 -1      3612 7.95303E+01 3.28964E+01 0.00000E+00
 -1      3613 8.10303E+01 3.28964E+01 0.00000E+00
 -1      3614 7.87803E+01 3.15974E+01 0.00000E+00
 -1      3615 8.25303E+01 3.28964E+01 0.00000E+00
 -1      3616 8.40303E+01 3.28964E+01 0.00000E+00
 -1      3617 8.17803E+01 3.15974E+01 0.00000E+00
 -1      3618 8.55303E+01 3.28964E+01 0.00000E+00
 -1      3619 8.70303E+01 3.28964E+01 0.00000E+00
 -1      3620 8.47803E+01 3.15974E+01 0.00000E+00
 -1      3621 8.85303E+01 3.28964E+01 0.00000E+00
 -1      3622 9.00303E+01 3.28964E+01 0.00000E+00
 -1      3623 8.77803E+01 3.15974E+01 0.00000E+00
 -1      3624 9.15303E+01 3.28964E+01 0.00000E+00
 -1      3625 9.30303E+01 3.28964E+01 0.00000E+00
 -1      3626 9.07803E+01 3.15974E+01 0.00000E+00
 -1      3627 9.45303E+01 3.28964E+01 0.00000E+00
 -1      3628 9.60303E+01 3.28964E+01 0.00000E+00
 -1      3629 9.37803E+01 3.15974E+01 0.00000E+00
 -1      3630 9.75303E+01 3.28964E+01 0.00000E+00
 -1      3631 9.90303E+01 3.28964E+01 0.00000E+00
 -1      3632 9.67803E+01 3.15974E+01 0.00000E+00
 -1      3633 1.04165E+02 3.22021E+01 0.00000E+00
 -1      3634 1.05665E+02 3.22021E+01 0.00000E+00
 -1      3635 1.07165E+02 3.22021E+01 0.00000E+00
 -1      3636 1.09530E+02 3.28964E+01 0.00000E+00
 -1      3637 1.11030E+02 3.28964E+01 0.00000E+00
 -1      3638 1.12530E+02 3.28964E+01 0.00000E+00
 -1      3639 1.14030E+02 3.28964E+01 0.00000E+00
 -1      3640 1.11780E+02 3.15974E+01 0.00000E+00
 -1      3641 1.15530E+02 3.28964E+01 0.00000E+00
 -1      3642 1.17030E+02 3.28964E+01 0.00000E+00
 -1      3643 1.14780E+02 3.15974E+01 0.00000E+00
 -1      3644 1.18530E+02 3.28964E+01 0.00000E+00
 -1      3645 1.20030E+02 3.28964E+01 0.00000E+00
 -1      3646 1.17780E+02 3.15974E+01 0.00000E+00
 -1      3647 1.21530E+02 3.28964E+01 0.00000E+00
 -1      3648 1.23030E+02 3.28964E+01 0.00000E+00
 -1      3649 1.20780E+02 3.15974E+01 0.00000E+00
 -1      3650 1.24530E+02 3.28964E+01 0.00000E+00
 -1      3651 1.26030E+02 3.28964E+01 0.00000E+00
 -1      3652 1.23780E+02 3.15974E+01 0.00000E+00
 -1      3653 1.27530E+02 3.28964E+01 0.00000E+00
 -1      3654 1.29030E+02 3.28964E+01 0.00000E+00
 -1      3655 1.26780E+02 3.15974E+01 0.00000E+00
 -1      3656 1.30530E+02 3.28964E+01 0.00000E+00
 -1      3657 1.32030E+02 3.28964E+01 0.00000E+00
 -1      3658 1.29780E+02 3.15974E+01 0.00000E+00
 -1      3659 1.33845E+02 3.24190E+01 0.00000E+00
 -1      3660 4.99500E+01 1.68870E+01 0.00000E+00
 -1      3661 4.85250E+01 1.68870E+01 0.00000E+00
 -1      3662 4.77750E+01 1.81860E+01 0.00000E+00
 -1      3663 4.11000E+01 1.68870E+01 0.00000E+00
 -1      3664 3.96000E+01 1.68870E+01 0.00000E+00
 -1      3665 4.41000E+01 1.68870E+01 0.00000E+00
 -1      3666 4.26000E+01 1.68870E+01 0.00000E+00
 -1      3667 4.18500E+01 1.81860E+01 0.00000E+00
 -1      3668 4.48500E+01 1.81860E+01 0.00000E+00
 -1      3669 5.29500E+01 1.68870E+01 0.00000E+00
 -1      3670 5.14500E+01 1.68870E+01 0.00000E+00
 -1      3671 5.07000E+01 1.81860E+01 0.00000E+00
 -1      3672 5.59500E+01 1.68870E+01 0.00000E+00
 -1      3673 5.44500E+01 1.68870E+01 0.00000E+00
 -1      3674 5.37000E+01 1.81860E+01 0.00000E+00
 -1      3675 5.89500E+01 1.68870E+01 0.00000E+00
 -1      3676 5.74500E+01 1.68870E+01 0.00000E+00
 -1      3677 5.67000E+01 1.81860E+01 0.00000E+00
 -1      3678 6.19500E+01 1.68870E+01 0.00000E+00
 -1      3679 6.04500E+01 1.68870E+01 0.00000E+00
 -1      3680 5.97000E+01 1.81860E+01 0.00000E+00
 -1      3681 6.49500E+01 1.68870E+01 0.00000E+00
 -1      3682 6.34500E+01 1.68870E+01 0.00000E+00
 -1      3683 6.27000E+01 1.81860E+01 0.00000E+00
 -1      3684 6.79500E+01 1.68870E+01 0.00000E+00
 -1      3685 6.64500E+01 1.68870E+01 0.00000E+00
 -1      3686 6.57000E+01 1.81860E+01 0.00000E+00
 -1      3687 7.09500E+01 1.68870E+01 0.00000E+00
 -1      3688 6.94500E+01 1.68870E+01 0.00000E+00
 -1      3689 6.87000E+01 1.81860E+01 0.00000E+00
 -1      3690 7.39500E+01 1.68870E+01 0.00000E+00
 -1      3691 7.24500E+01 1.68870E+01 0.00000E+00
 -1      3692 7.17000E+01 1.81860E+01 0.00000E+00
 -1      3693 7.69500E+01 1.68870E+01 0.00000E+00
 -1      3694 7.54500E+01 1.68870E+01 0.00000E+00
 -1      3695 7.47000E+01 1.81860E+01 0.00000E+00
 -1      3696 7.98000E+01 1.68870E+01 0.00000E+00
 -1      3697 7.83750E+01 1.68870E+01 0.00000E+00
 -1      3698 7.76250E+01 1.81860E+01 0.00000E+00
 -1      3699 8.28000E+01 1.68870E+01 0.00000E+00
 -1      3700 8.13000E+01 1.68870E+01 0.00000E+00
 -1      3701 8.05500E+01 1.81860E+01 0.00000E+00
 -1      3702 8.58000E+01 1.68870E+01 0.00000E+00
 -1      3703 8.43000E+01 1.68870E+01 0.00000E+00
 -1      3704 8.35500E+01 1.81860E+01 0.00000E+00
 -1      3705 8.85628E+01 1.69259E+01 0.00000E+00
 -1      3706 8.70628E+01 1.69259E+01 0.00000E+00
 -1      3707 8.63128E+01 1.82249E+01 0.00000E+00
 -1      3708 8.88383E+01 1.83027E+01 0.00000E+00
 -1      3709 3.21000E+01 1.68870E+01 0.00000E+00
 -1      3710 3.06000E+01 1.68870E+01 0.00000E+00
 -1      3711 1.43633E+01 2.53932E+01 0.00000E+00
 -1      3712 1.43633E+01 2.68650E+01 0.00000E+00
 -1      3713 1.58109E+01 2.69655E+01 0.00000E+00
 -1      3714 1.56623E+01 2.46572E+01 0.00000E+00
 -1      3715 1.88375E+01 1.75084E+01 0.00000E+00
 -1      3716 1.71787E+01 1.73146E+01 0.00000E+00
 -1      3717 1.33095E+02 3.11200E+01 0.00000E+00
 -1      3718 1.36053E+02 2.28656E+01 0.00000E+00
 -1      3719 1.36053E+02 2.13906E+01 0.00000E+00
 -1      3720 1.34442E+02 2.12863E+01 0.00000E+00
 -1      3721 1.34754E+02 2.35906E+01 0.00000E+00
 -1      3722 1.47450E+01 1.75044E+01 0.00000E+00
 -1      3723 3.81000E+01 1.68870E+01 0.00000E+00
 -1      3724 3.66000E+01 1.68870E+01 0.00000E+00
 -1      3725 3.88500E+01 1.81860E+01 0.00000E+00
 -1      3726 1.28730E+02 1.62298E+01 0.00000E+00
 -1      3727 1.27030E+02 1.59438E+01 0.00000E+00
 -1      3728 1.26459E+02 1.70108E+01 0.00000E+00
 -1      3729 2.27954E+01 1.46228E+01 0.00000E+00
 -1      3730 2.14917E+01 1.62854E+01 0.00000E+00
 -1      3731 9.50024E+01 2.39471E+01 0.00000E+00
 -1      3732 9.39420E+01 2.29809E+01 0.00000E+00
 -1      3733 9.45587E+01 2.52730E+01 0.00000E+00
 -1      3734 1.95304E+01 3.28964E+01 0.00000E+00
 -1      3735 2.10304E+01 3.28964E+01 0.00000E+00
 -1      3736 2.17804E+01 3.15974E+01 0.00000E+00
 -1      3737 2.42954E+01 1.46228E+01 0.00000E+00
 -1      3738 9.29329E+01 2.15247E+01 0.00000E+00
 -1      3739 9.18356E+01 1.99798E+01 0.00000E+00
 -1      3740 9.82703E+01 2.91811E+01 0.00000E+00
 -1      3741 9.72844E+01 2.83818E+01 0.00000E+00
 -1      3742 3.51000E+01 1.68870E+01 0.00000E+00
 -1      3743 3.36000E+01 1.68870E+01 0.00000E+00
 -1      3744 3.28500E+01 1.81860E+01 0.00000E+00
 -1      3745 3.58500E+01 1.81860E+01 0.00000E+00
 -1      3746 1.69840E+01 3.26609E+01 0.00000E+00
 -1      3747 1.84316E+01 3.27613E+01 0.00000E+00
 -1      3748 1.91816E+01 3.14623E+01 0.00000E+00
 -1      3749 1.69840E+01 3.11921E+01 0.00000E+00
 -1      3750 1.33095E+02 2.96450E+01 0.00000E+00
 -1      3751 1.33095E+02 2.81700E+01 0.00000E+00
 -1      3752 1.31280E+02 3.01224E+01 0.00000E+00
 -1      3753 1.01878E+02 3.06943E+01 0.00000E+00
 -1      3754 1.00075E+02 3.00855E+01 0.00000E+00
 -1      3755 1.14321E+02 2.96920E+01 0.00000E+00
 -1      3756 1.12690E+02 2.96608E+01 0.00000E+00
 -1      3757 1.26568E+02 1.81177E+01 0.00000E+00
 -1      3758 2.98875E+01 1.81860E+01 0.00000E+00
 -1      3759 2.91375E+01 1.68870E+01 0.00000E+00
 -1      3760 2.76750E+01 1.68870E+01 0.00000E+00
 -1      3761 2.50454E+01 1.59218E+01 0.00000E+00
 -1      3762 1.24233E+02 2.06500E+01 0.00000E+00
 -1      3763 1.24404E+02 2.18260E+01 0.00000E+00
 -1      3764 1.25147E+02 2.01147E+01 0.00000E+00
 -1      3765 9.94240E+01 3.15983E+01 0.00000E+00
 -1      3766 1.00174E+02 3.28973E+01 0.00000E+00
 -1      3767 1.01674E+02 3.28973E+01 0.00000E+00
 -1      3768 1.03059E+02 3.09040E+01 0.00000E+00
 -1      3769 1.31222E+02 1.72405E+01 0.00000E+00
 -1      3770 1.29976E+02 1.67351E+01 0.00000E+00
 -1      3771 1.29406E+02 1.78021E+01 0.00000E+00
 -1      3772 1.08928E+02 3.01765E+01 0.00000E+00
 -1      3773 1.33095E+02 2.66950E+01 0.00000E+00
 -1      3774 1.33095E+02 2.52200E+01 0.00000E+00
 -1      3775 1.31280E+02 2.71724E+01 0.00000E+00
 -1      3776 9.89308E+01 3.00845E+01 0.00000E+00
 -1      3777 1.23600E+02 2.37443E+01 0.00000E+00
 -1      3778 1.22353E+02 2.40544E+01 0.00000E+00
 -1      3779 1.22463E+02 2.54374E+01 0.00000E+00
 -1      3780 1.64907E+01 1.76822E+01 0.00000E+00
 -1      3781 1.47357E+01 1.92591E+01 0.00000E+00
 -1      3782 1.19936E+02 2.73514E+01 0.00000E+00
 -1      3783 1.19406E+02 2.83777E+01 0.00000E+00
 -1      3784 1.17181E+02 2.99704E+01 0.00000E+00
 -1      3785 1.15821E+02 2.96920E+01 0.00000E+00
 -1      3786 9.62892E+01 2.80148E+01 0.00000E+00
 -1      3787 9.07907E+01 1.98680E+01 0.00000E+00
 -1      3788 1.33377E+02 1.82025E+01 0.00000E+00
 -1      3789 1.32131E+02 1.76972E+01 0.00000E+00
 -1      3790 1.31561E+02 1.87641E+01 0.00000E+00
 -1      3791 1.33377E+02 1.96775E+01 0.00000E+00
 -1      3792 9.24893E+01 2.28506E+01 0.00000E+00
 -1      3793 1.20973E+02 2.70798E+01 0.00000E+00
 -1      3794 2.23517E+01 1.75693E+01 0.00000E+00
 -1      3795 2.06777E+01 1.75990E+01 0.00000E+00
 -1      3796 1.68870E+01 2.12906E+01 0.00000E+00
 -1      3797 1.68870E+01 2.27656E+01 0.00000E+00
 -1      3798 1.96976E+01 1.87923E+01 0.00000E+00
 -1      3799 9.42140E+01 2.67162E+01 0.00000E+00
 -1      3800 9.31536E+01 2.57500E+01 0.00000E+00
 -1      3801 1.69840E+01 2.82546E+01 0.00000E+00
 -1      3802 1.69840E+01 2.97234E+01 0.00000E+00
 -1      3803 1.80828E+01 2.98585E+01 0.00000E+00
 -1      3804 2.70304E+01 3.02984E+01 0.00000E+00
 -1      3805 2.85304E+01 3.02984E+01 0.00000E+00
 -1      3806 3.00304E+01 3.02984E+01 0.00000E+00
 -1      3807 3.15304E+01 3.02984E+01 0.00000E+00
 -1      3808 2.92804E+01 2.89994E+01 0.00000E+00
 -1      3809 3.30303E+01 3.02984E+01 0.00000E+00
 -1      3810 3.45303E+01 3.02984E+01 0.00000E+00
 -1      3811 3.22803E+01 2.89994E+01 0.00000E+00
 -1      3812 3.60303E+01 3.02984E+01 0.00000E+00
 -1      3813 3.75303E+01 3.02984E+01 0.00000E+00
 -1      3814 3.52803E+01 2.89994E+01 0.00000E+00
 -1      3815 3.90303E+01 3.02984E+01 0.00000E+00
 -1      3816 4.05303E+01 3.02984E+01 0.00000E+00
 -1      3817 3.82803E+01 2.89994E+01 0.00000E+00
 -1      3818 4.20303E+01 3.02984E+01 0.00000E+00
 -1      3819 4.35303E+01 3.02984E+01 0.00000E+00
 -1      3820 4.12803E+01 2.89994E+01 0.00000E+00
 -1      3821 4.50303E+01 3.02984E+01 0.00000E+00
 -1      3822 4.65303E+01 3.02984E+01 0.00000E+00
 -1      3823 4.42803E+01 2.89994E+01 0.00000E+00
 -1      3824 4.80303E+01 3.02984E+01 0.00000E+00
 -1      3825 4.95303E+01 3.02984E+01 0.00000E+00
 -1      3826 4.72803E+01 2.89994E+01 0.00000E+00
 -1      3827 5.10303E+01 3.02984E+01 0.00000E+00
 -1      3828 5.25303E+01 3.02984E+01 0.00000E+00
 -1      3829 5.02803E+01 2.89994E+01 0.00000E+00
 -1      3830 5.40303E+01 3.02984E+01 0.00000E+00
 -1      3831 5.55303E+01 3.02984E+01 0.00000E+00
 -1      3832 5.32803E+01 2.89994E+01 0.00000E+00
 -1      3833 5.70303E+01 3.02984E+01 0.00000E+00
 -1      3834 5.85303E+01 3.02984E+01 0.00000E+00
 -1      3835 5.62803E+01 2.89994E+01 0.00000E+00
 -1      3836 6.00303E+01 3.02984E+01 0.00000E+00
 -1      3837 6.15303E+01 3.02984E+01 0.00000E+00
 -1      3838 5.92803E+01 2.89994E+01 0.00000E+00
 -1      3839 6.30303E+01 3.02984E+01 0.00000E+00
 -1      3840 6.45303E+01 3.02984E+01 0.00000E+00
 -1      3841 6.22803E+01 2.89994E+01 0.00000E+00
 -1      3842 6.60303E+01 3.02984E+01 0.00000E+00
 -1      3843 6.75303E+01 3.02984E+01 0.00000E+00
 -1      3844 6.52803E+01 2.89994E+01 0.00000E+00
 -1      3845 6.90303E+01 3.02984E+01 0.00000E+00
 -1      3846 7.05303E+01 3.02984E+01 0.00000E+00
 -1      3847 6.82803E+01 2.89994E+01 0.00000E+00
 -1      3848 7.20303E+01 3.02984E+01 0.00000E+00
 -1      3849 7.35303E+01 3.02984E+01 0.00000E+00
 -1      3850 7.12803E+01 2.89994E+01 0.00000E+00
 -1      3851 7.50303E+01 3.02984E+01 0.00000E+00
 -1      3852 7.65303E+01 3.02984E+01 0.00000E+00
 -1      3853 7.42803E+01 2.89994E+01 0.00000E+00
 -1      3854 7.80303E+01 3.02984E+01 0.00000E+00
 -1      3855 7.95303E+01 3.02984E+01 0.00000E+00
 -1      3856 7.72803E+01 2.89994E+01 0.00000E+00
 -1      3857 8.10303E+01 3.02984E+01 0.00000E+00
 -1      3858 8.25303E+01 3.02984E+01 0.00000E+00
 -1      3859 8.02803E+01 2.89994E+01 0.00000E+00
 -1      3860 8.40303E+01 3.02984E+01 0.00000E+00
 -1      3861 8.55303E+01 3.02984E+01 0.00000E+00
 -1      3862 8.32803E+01 2.89994E+01 0.00000E+00
 -1      3863 8.70303E+01 3.02984E+01 0.00000E+00
 -1      3864 8.85303E+01 3.02984E+01 0.00000E+00
 -1      3865 8.62803E+01 2.89994E+01 0.00000E+00
 -1      3866 9.00303E+01 3.02984E+01 0.00000E+00
 -1      3867 9.15303E+01 3.02984E+01 0.00000E+00
 -1      3868 8.92803E+01 2.89994E+01 0.00000E+00
 -1      3869 9.25446E+01 2.93953E+01 0.00000E+00
 -1      3870 9.40446E+01 2.93953E+01 0.00000E+00
 -1      3871 1.82603E+01 2.31822E+01 0.00000E+00
 -1      3872 1.69613E+01 2.39197E+01 0.00000E+00
 -1      3873 1.70356E+01 2.50738E+01 0.00000E+00
 -1      3874 1.18681E+02 2.99704E+01 0.00000E+00
 -1      3875 1.20005E+02 3.00047E+01 0.00000E+00
 -1      3876 1.21505E+02 3.00047E+01 0.00000E+00
 -1      3877 1.26030E+02 3.02984E+01 0.00000E+00
 -1      3878 1.27530E+02 3.02984E+01 0.00000E+00
 -1      3879 1.28655E+02 3.02104E+01 0.00000E+00
 -1      3880 1.30155E+02 3.02104E+01 0.00000E+00
 -1      3881 1.30155E+02 2.87354E+01 0.00000E+00
 -1      3882 1.27905E+02 2.89114E+01 0.00000E+00
 -1      3883 5.44500E+01 1.94850E+01 0.00000E+00
 -1      3884 5.29500E+01 1.94850E+01 0.00000E+00
 -1      3885 5.74500E+01 1.94850E+01 0.00000E+00
 -1      3886 5.59500E+01 1.94850E+01 0.00000E+00
 -1      3887 5.52000E+01 2.07840E+01 0.00000E+00
 -1      3888 2.59532E+01 1.70612E+01 0.00000E+00
 -1      3889 2.40735E+01 1.73951E+01 0.00000E+00
 -1      3890 2.32596E+01 1.87087E+01 0.00000E+00
 -1      3891 2.67032E+01 1.83602E+01 0.00000E+00
 -1      3892 6.04500E+01 1.94850E+01 0.00000E+00
 -1      3893 5.89500E+01 1.94850E+01 0.00000E+00
 -1      3894 5.82000E+01 2.07840E+01 0.00000E+00
 -1      3895 6.34500E+01 1.94850E+01 0.00000E+00
 -1      3896 6.19500E+01 1.94850E+01 0.00000E+00
 -1      3897 6.12000E+01 2.07840E+01 0.00000E+00
 -1      3898 6.64500E+01 1.94850E+01 0.00000E+00
 -1      3899 6.49500E+01 1.94850E+01 0.00000E+00
 -1      3900 6.42000E+01 2.07840E+01 0.00000E+00
 -1      3901 6.94500E+01 1.94850E+01 0.00000E+00
 -1      3902 6.79500E+01 1.94850E+01 0.00000E+00
 -1      3903 6.72000E+01 2.07840E+01 0.00000E+00
 -1      3904 7.24500E+01 1.94850E+01 0.00000E+00
 -1      3905 7.09500E+01 1.94850E+01 0.00000E+00
 -1      3906 7.02000E+01 2.07840E+01 0.00000E+00
 -1      3907 7.54500E+01 1.94850E+01 0.00000E+00
 -1      3908 7.39500E+01 1.94850E+01 0.00000E+00
 -1      3909 7.32000E+01 2.07840E+01 0.00000E+00
 -1      3910 7.83000E+01 1.94850E+01 0.00000E+00
 -1      3911 7.68750E+01 1.94850E+01 0.00000E+00
 -1      3912 7.61250E+01 2.07840E+01 0.00000E+00
 -1      3913 8.13000E+01 1.94850E+01 0.00000E+00
 -1      3914 7.98000E+01 1.94850E+01 0.00000E+00
 -1      3915 7.90500E+01 2.07840E+01 0.00000E+00
 -1      3916 8.43000E+01 1.94850E+01 0.00000E+00
 -1      3917 8.28000E+01 1.94850E+01 0.00000E+00
 -1      3918 8.20500E+01 2.07840E+01 0.00000E+00
 -1      3919 1.12032E+02 3.06222E+01 0.00000E+00
 -1      3920 1.21989E+02 2.85423E+01 0.00000E+00
 -1      3921 1.22764E+02 3.01349E+01 0.00000E+00
 -1      3922 1.24264E+02 3.01349E+01 0.00000E+00
 -1      3923 1.22232E+02 2.72100E+01 0.00000E+00
 -1      3924 1.71694E+01 1.90693E+01 0.00000E+00
 -1      3925 9.19447E+01 2.43057E+01 0.00000E+00
 -1      3926 9.09356E+01 2.28495E+01 0.00000E+00
 -1      3927 1.60347E+01 1.99950E+01 0.00000E+00
 -1      3928 1.73337E+01 2.07325E+01 0.00000E+00
 -1      3929 9.48841E+01 2.84919E+01 0.00000E+00
 -1      3930 3.96000E+01 1.94850E+01 0.00000E+00
 -1      3931 3.81000E+01 1.94850E+01 0.00000E+00
 -1      3932 5.14500E+01 1.94850E+01 0.00000E+00
 -1      3933 4.99500E+01 1.94850E+01 0.00000E+00
 -1      3934 5.22000E+01 2.07840E+01 0.00000E+00
 -1      3935 4.85250E+01 1.94850E+01 0.00000E+00
 -1      3936 4.71000E+01 1.94850E+01 0.00000E+00
 -1      3937 4.92750E+01 2.07840E+01 0.00000E+00
 -1      3938 2.10304E+01 3.02984E+01 0.00000E+00
 -1      3939 2.25304E+01 3.02984E+01 0.00000E+00
 -1      3940 9.76198E+01 3.06939E+01 0.00000E+00
 -1      3941 9.02174E+01 2.13555E+01 0.00000E+00
 -1      3942 8.95279E+01 1.98291E+01 0.00000E+00
 -1      3943 8.82651E+01 1.97902E+01 0.00000E+00
 -1      3944 1.10532E+02 3.06222E+01 0.00000E+00
 -1      3945 2.40304E+01 3.02984E+01 0.00000E+00
 -1      3946 2.55304E+01 3.02984E+01 0.00000E+00
 -1      3947 2.32804E+01 2.89994E+01 0.00000E+00
 -1      3948 1.28072E+02 1.85479E+01 0.00000E+00
 -1      3949 1.26480E+02 1.93689E+01 0.00000E+00
 -1      3950 1.26651E+02 2.05449E+01 0.00000E+00
 -1      3951 1.29319E+02 1.90533E+01 0.00000E+00
 -1      3952 1.08676E+02 3.11517E+01 0.00000E+00
 -1      3953 9.61198E+01 3.06939E+01 0.00000E+00
 -1      3954 3.06187E+01 1.94850E+01 0.00000E+00
 -1      3955 2.91563E+01 1.94850E+01 0.00000E+00
 -1      3956 1.23479E+02 2.68999E+01 0.00000E+00
 -1      3957 2.62804E+01 2.89994E+01 0.00000E+00
 -1      3958 1.07926E+02 3.24507E+01 0.00000E+00
 -1      3959 1.33689E+02 2.19818E+01 0.00000E+00
 -1      3960 1.33533E+02 2.08296E+01 0.00000E+00
 -1      3961 1.32625E+02 2.03729E+01 0.00000E+00
 -1      3962 1.25014E+02 2.88359E+01 0.00000E+00
 -1      3963 4.63500E+01 2.07840E+01 0.00000E+00
 -1      3964 4.56000E+01 1.94850E+01 0.00000E+00
 -1      3965 4.41000E+01 1.94850E+01 0.00000E+00
 -1      3966 1.29030E+02 2.73484E+01 0.00000E+00
 -1      3967 1.30155E+02 2.72604E+01 0.00000E+00
 -1      3968 1.30155E+02 2.57854E+01 0.00000E+00
 -1      3969 4.26000E+01 1.94850E+01 0.00000E+00
 -1      3970 4.11000E+01 1.94850E+01 0.00000E+00
 -1      3971 4.03500E+01 2.07840E+01 0.00000E+00
 -1      3972 4.33500E+01 2.07840E+01 0.00000E+00
 -1      3973 8.55628E+01 1.95239E+01 0.00000E+00
 -1      3974 8.48128E+01 2.08229E+01 0.00000E+00
 -1      3975 8.68256E+01 1.95628E+01 0.00000E+00
 -1      3976 1.69726E+01 2.60872E+01 0.00000E+00
 -1      3977 1.70469E+01 2.72413E+01 0.00000E+00
 -1      3978 1.81457E+01 2.73764E+01 0.00000E+00
 -1      3979 1.82716E+01 2.53497E+01 0.00000E+00
 -1      3980 9.15999E+01 2.57490E+01 0.00000E+00
 -1      3981 1.80217E+01 2.03649E+01 0.00000E+00
 -1      3982 1.24514E+02 2.32091E+01 0.00000E+00
 -1      3983 1.24624E+02 2.45921E+01 0.00000E+00
 -1      3984 1.25428E+02 2.26738E+01 0.00000E+00
 -1      3985 8.96728E+01 2.28106E+01 0.00000E+00
 -1      3986 1.33470E+02 2.41770E+01 0.00000E+00
 -1      3987 1.33314E+02 2.30248E+01 0.00000E+00
 -1      3988 1.32406E+02 2.25681E+01 0.00000E+00
 -1      3989 1.31656E+02 2.46543E+01 0.00000E+00
 -1      3990 3.66000E+01 1.94850E+01 0.00000E+00
 -1      3991 3.51000E+01 1.94850E+01 0.00000E+00
 -1      3992 3.73500E+01 2.07840E+01 0.00000E+00
 -1      3993 1.90072E+01 3.00109E+01 0.00000E+00
 -1      3994 2.01060E+01 3.01460E+01 0.00000E+00
 -1      3995 2.08560E+01 2.88470E+01 0.00000E+00
 -1      3996 1.90072E+01 2.85421E+01 0.00000E+00
 -1      3997 1.95195E+01 2.25217E+01 0.00000E+00
 -1      3998 1.95938E+01 2.36758E+01 0.00000E+00
 -1      3999 2.42512E+01 1.99140E+01 0.00000E+00
 -1      4000 2.25294E+01 2.00882E+01 0.00000E+00
 -1      4001 3.36094E+01 1.94850E+01 0.00000E+00
 -1      4002 3.21094E+01 1.94850E+01 0.00000E+00
 -1      4003 3.13781E+01 2.07840E+01 0.00000E+00
 -1      4004 3.43594E+01 2.07840E+01 0.00000E+00
 -1      4005 1.98619E+01 2.04555E+01 0.00000E+00
 -1      4006 2.11953E+01 2.09491E+01 0.00000E+00
 -1      4007 2.21870E+01 2.21544E+01 0.00000E+00
 -1      4008 1.24935E+02 2.58278E+01 0.00000E+00
 -1      4009 1.24704E+02 2.76003E+01 0.00000E+00
 -1      4010 1.26470E+02 2.77637E+01 0.00000E+00
 -1      4011 1.25848E+02 2.52925E+01 0.00000E+00
 -1      4012 2.07900E+01 2.40287E+01 0.00000E+00
 -1      4013 1.95308E+01 2.46892E+01 0.00000E+00
 -1      4014 1.94678E+01 2.57025E+01 0.00000E+00
 -1      4015 9.17946E+01 2.80963E+01 0.00000E+00
 -1      4016 3.15304E+01 2.77004E+01 0.00000E+00
 -1      4017 3.30303E+01 2.77004E+01 0.00000E+00
 -1      4018 3.45303E+01 2.77004E+01 0.00000E+00
 -1      4019 3.60303E+01 2.77004E+01 0.00000E+00
 -1      4020 3.37803E+01 2.64014E+01 0.00000E+00
 -1      4021 3.75303E+01 2.77004E+01 0.00000E+00
 -1      4022 3.90303E+01 2.77004E+01 0.00000E+00
 -1      4023 3.67803E+01 2.64014E+01 0.00000E+00
 -1      4024 4.05303E+01 2.77004E+01 0.00000E+00
 -1      4025 4.20303E+01 2.77004E+01 0.00000E+00
 -1      4026 3.97803E+01 2.64014E+01 0.00000E+00
 -1      4027 4.35303E+01 2.77004E+01 0.00000E+00
 -1      4028 4.50303E+01 2.77004E+01 0.00000E+00
 -1      4029 4.27803E+01 2.64014E+01 0.00000E+00
 -1      4030 4.65303E+01 2.77004E+01 0.00000E+00
 -1      4031 4.80303E+01 2.77004E+01 0.00000E+00
 -1      4032 4.57803E+01 2.64014E+01 0.00000E+00
 -1      4033 4.95303E+01 2.77004E+01 0.00000E+00
 -1      4034 5.10303E+01 2.77004E+01 0.00000E+00
 -1      4035 4.87803E+01 2.64014E+01 0.00000E+00
 -1      4036 5.25303E+01 2.77004E+01 0.00000E+00
 -1      4037 5.40303E+01 2.77004E+01 0.00000E+00
 -1      4038 5.17803E+01 2.64014E+01 0.00000E+00
 -1      4039 5.55303E+01 2.77004E+01 0.00000E+00
 -1      4040 5.70303E+01 2.77004E+01 0.00000E+00
 -1      4041 5.47803E+01 2.64014E+01 0.00000E+00
 -1      4042 5.85303E+01 2.77004E+01 0.00000E+00
 -1      4043 6.00303E+01 2.77004E+01 0.00000E+00
 -1      4044 5.77803E+01 2.64014E+01 0.00000E+00
 -1      4045 6.15303E+01 2.77004E+01 0.00000E+00
 -1      4046 6.30303E+01 2.77004E+01 0.00000E+00
 -1      4047 6.07803E+01 2.64014E+01 0.00000E+00
 -1      4048 6.45303E+01 2.77004E+01 0.00000E+00
 -1      4049 6.60303E+01 2.77004E+01 0.00000E+00
 -1      4050 6.37803E+01 2.64014E+01 0.00000E+00
 -1      4051 6.75303E+01 2.77004E+01 0.00000E+00
 -1      4052 6.90303E+01 2.77004E+01 0.00000E+00
 -1      4053 6.67803E+01 2.64014E+01 0.00000E+00
 -1      4054 7.05303E+01 2.77004E+01 0.00000E+00
 -1      4055 7.20303E+01 2.77004E+01 0.00000E+00
 -1      4056 6.97803E+01 2.64014E+01 0.00000E+00
 -1      4057 7.35303E+01 2.77004E+01 0.00000E+00
 -1      4058 7.50303E+01 2.77004E+01 0.00000E+00
 -1      4059 7.27803E+01 2.64014E+01 0.00000E+00
 -1      4060 7.65303E+01 2.77004E+01 0.00000E+00
 -1      4061 7.80303E+01 2.77004E+01 0.00000E+00
 -1      4062 7.57803E+01 2.64014E+01 0.00000E+00
 -1      4063 7.95303E+01 2.77004E+01 0.00000E+00
 -1      4064 8.10303E+01 2.77004E+01 0.00000E+00
 -1      4065 7.87803E+01 2.64014E+01 0.00000E+00
 -1      4066 8.25303E+01 2.77004E+01 0.00000E+00
 -1      4067 8.40303E+01 2.77004E+01 0.00000E+00
 -1      4068 8.17803E+01 2.64014E+01 0.00000E+00
 -1      4069 8.55303E+01 2.77004E+01 0.00000E+00
 -1      4070 8.70303E+01 2.77004E+01 0.00000E+00
 -1      4071 8.47803E+01 2.64014E+01 0.00000E+00
 -1      4072 8.86625E+01 2.78983E+01 0.00000E+00
 -1      4073 9.01625E+01 2.78983E+01 0.00000E+00
 -1      4074 9.11767E+01 2.69953E+01 0.00000E+00
 -1      4075 8.79125E+01 2.65993E+01 0.00000E+00
 -1      4076 8.99678E+01 2.55510E+01 0.00000E+00
 -1      4077 6.19500E+01 2.20830E+01 0.00000E+00
 -1      4078 6.04500E+01 2.20830E+01 0.00000E+00
 -1      4079 5.59500E+01 2.20830E+01 0.00000E+00
 -1      4080 5.44500E+01 2.20830E+01 0.00000E+00
 -1      4081 2.75647E+01 1.96124E+01 0.00000E+00
 -1      4082 2.58428E+01 1.97866E+01 0.00000E+00
 -1      4083 2.51127E+01 2.11661E+01 0.00000E+00
 -1      4084 2.82959E+01 2.09114E+01 0.00000E+00
 -1      4085 6.79500E+01 2.20830E+01 0.00000E+00
 -1      4086 6.64500E+01 2.20830E+01 0.00000E+00
 -1      4087 7.09500E+01 2.20830E+01 0.00000E+00
 -1      4088 6.94500E+01 2.20830E+01 0.00000E+00
 -1      4089 6.87000E+01 2.33820E+01 0.00000E+00
 -1      4090 7.39500E+01 2.20830E+01 0.00000E+00
 -1      4091 7.24500E+01 2.20830E+01 0.00000E+00
 -1      4092 7.17000E+01 2.33820E+01 0.00000E+00
 -1      4093 7.68000E+01 2.20830E+01 0.00000E+00
 -1      4094 7.53750E+01 2.20830E+01 0.00000E+00
 -1      4095 7.46250E+01 2.33820E+01 0.00000E+00
 -1      4096 7.98000E+01 2.20830E+01 0.00000E+00
 -1      4097 7.83000E+01 2.20830E+01 0.00000E+00
 -1      4098 7.75500E+01 2.33820E+01 0.00000E+00
 -1      4099 8.28000E+01 2.20830E+01 0.00000E+00
 -1      4100 8.13000E+01 2.20830E+01 0.00000E+00
 -1      4101 8.05500E+01 2.33820E+01 0.00000E+00
 -1      4102 2.55304E+01 2.77004E+01 0.00000E+00
 -1      4103 2.70304E+01 2.77004E+01 0.00000E+00
 -1      4104 4.99875E+01 2.20830E+01 0.00000E+00
 -1      4105 4.85625E+01 2.20830E+01 0.00000E+00
 -1      4106 2.35584E+01 2.28154E+01 0.00000E+00
 -1      4107 2.22243E+01 2.36763E+01 0.00000E+00
 -1      4108 5.89500E+01 2.20830E+01 0.00000E+00
 -1      4109 5.74500E+01 2.20830E+01 0.00000E+00
 -1      4110 5.67000E+01 2.33820E+01 0.00000E+00
 -1      4111 1.31717E+02 1.99163E+01 0.00000E+00
 -1      4112 1.30808E+02 1.94596E+01 0.00000E+00
 -1      4113 1.31873E+02 2.10684E+01 0.00000E+00
 -1      4114 8.88611E+01 2.41204E+01 0.00000E+00
 -1      4115 8.81430E+01 2.26264E+01 0.00000E+00
 -1      4116 5.29688E+01 2.20830E+01 0.00000E+00
 -1      4117 5.14688E+01 2.20830E+01 0.00000E+00
 -1      4118 5.07562E+01 2.33820E+01 0.00000E+00
 -1      4119 5.37188E+01 2.33820E+01 0.00000E+00
 -1      4120 6.49500E+01 2.20830E+01 0.00000E+00
 -1      4121 6.34500E+01 2.20830E+01 0.00000E+00
 -1      4122 6.57000E+01 2.33820E+01 0.00000E+00
 -1      4123 8.75151E+01 2.10892E+01 0.00000E+00
 -1      4124 2.85304E+01 2.77004E+01 0.00000E+00
 -1      4125 3.00304E+01 2.77004E+01 0.00000E+00
 -1      4126 3.07804E+01 2.64014E+01 0.00000E+00
 -1      4127 2.26880E+01 2.66684E+01 0.00000E+00
 -1      4128 2.41880E+01 2.66684E+01 0.00000E+00
 -1      4129 1.27905E+02 2.74364E+01 0.00000E+00
 -1      4130 8.67034E+01 2.23990E+01 0.00000E+00
 -1      4131 2.49380E+01 2.53694E+01 0.00000E+00
 -1      4132 5.97000E+01 2.33820E+01 0.00000E+00
 -1      4133 2.91953E+01 2.21425E+01 0.00000E+00
 -1      4134 2.76037E+01 2.22699E+01 0.00000E+00
 -1      4135 8.84379E+01 2.53667E+01 0.00000E+00
 -1      4136 6.27000E+01 2.33820E+01 0.00000E+00
 -1      4137 3.81000E+01 2.20830E+01 0.00000E+00
 -1      4138 3.66000E+01 2.20830E+01 0.00000E+00
 -1      4139 4.70625E+01 2.20830E+01 0.00000E+00
 -1      4140 4.55625E+01 2.20830E+01 0.00000E+00
 -1      4141 4.77750E+01 2.33820E+01 0.00000E+00
 -1      4142 1.29406E+02 2.48303E+01 0.00000E+00
 -1      4143 1.30531E+02 2.47423E+01 0.00000E+00
 -1      4144 1.30906E+02 2.36992E+01 0.00000E+00
 -1      4145 2.63769E+01 2.24790E+01 0.00000E+00
 -1      4146 2.47853E+01 2.26064E+01 0.00000E+00
 -1      4147 2.48226E+01 2.41283E+01 0.00000E+00
 -1      4148 2.72763E+01 2.37102E+01 0.00000E+00
 -1      4149 2.77804E+01 2.64014E+01 0.00000E+00
 -1      4150 8.40628E+01 2.21219E+01 0.00000E+00
 -1      4151 8.33128E+01 2.34209E+01 0.00000E+00
 -1      4152 8.53256E+01 2.21608E+01 0.00000E+00
 -1      4153 1.29475E+02 2.02054E+01 0.00000E+00
 -1      4154 1.92690E+01 2.66157E+01 0.00000E+00
 -1      4155 1.92060E+01 2.76290E+01 0.00000E+00
 -1      4156 2.01304E+01 2.77814E+01 0.00000E+00
 -1      4157 2.05282E+01 2.59552E+01 0.00000E+00
 -1      4158 3.96000E+01 2.20830E+01 0.00000E+00
 -1      4159 3.88500E+01 2.33820E+01 0.00000E+00
 -1      4160 4.11000E+01 2.20830E+01 0.00000E+00
 -1      4161 1.27549E+02 2.25390E+01 0.00000E+00
 -1      4162 1.27659E+02 2.39220E+01 0.00000E+00
 -1      4163 1.28883E+02 2.17932E+01 0.00000E+00
 -1      4164 2.21614E+01 2.46897E+01 0.00000E+00
 -1      4165 1.27595E+02 2.62007E+01 0.00000E+00
 -1      4166 3.21766E+01 2.21425E+01 0.00000E+00
 -1      4167 3.06860E+01 2.21425E+01 0.00000E+00
 -1      4168 2.99938E+01 2.35011E+01 0.00000E+00
 -1      4169 2.12537E+01 2.70207E+01 0.00000E+00
 -1      4170 3.30303E+01 2.51024E+01 0.00000E+00
 -1      4171 3.45303E+01 2.51024E+01 0.00000E+00
 -1      4172 6.62402E+01 2.48917E+01 0.00000E+00
 -1      4173 6.47402E+01 2.48917E+01 0.00000E+00
 -1      4174 3.63152E+01 2.48917E+01 0.00000E+00
 -1      4175 3.78152E+01 2.48917E+01 0.00000E+00
 -1      4176 3.93152E+01 2.48917E+01 0.00000E+00
 -1      4177 4.08152E+01 2.48917E+01 0.00000E+00
 -1      4178 4.52777E+01 2.48917E+01 0.00000E+00
 -1      4179 4.67777E+01 2.48917E+01 0.00000E+00
 -1      4180 4.82777E+01 2.48917E+01 0.00000E+00
 -1      4181 4.97777E+01 2.48917E+01 0.00000E+00
 -1      4182 5.12589E+01 2.48917E+01 0.00000E+00
 -1      4183 5.27589E+01 2.48917E+01 0.00000E+00
 -1      4184 5.42402E+01 2.48917E+01 0.00000E+00
 -1      4185 5.57402E+01 2.48917E+01 0.00000E+00
 -1      4186 5.72402E+01 2.48917E+01 0.00000E+00
 -1      4187 5.87402E+01 2.48917E+01 0.00000E+00
 -1      4188 6.02402E+01 2.48917E+01 0.00000E+00
 -1      4189 6.17402E+01 2.48917E+01 0.00000E+00
 -1      4190 6.32402E+01 2.48917E+01 0.00000E+00
 -1      4191 6.77402E+01 2.48917E+01 0.00000E+00
 -1      4192 6.92402E+01 2.48917E+01 0.00000E+00
 -1      4193 7.07402E+01 2.48917E+01 0.00000E+00
 -1      4194 7.22402E+01 2.48917E+01 0.00000E+00
 -1      4195 7.37402E+01 2.48917E+01 0.00000E+00
 -1      4196 7.51652E+01 2.48917E+01 0.00000E+00
 -1      4197 7.66652E+01 2.48917E+01 0.00000E+00
 -1      4198 7.81652E+01 2.48917E+01 0.00000E+00
 -1      4199 7.96652E+01 2.48917E+01 0.00000E+00
 -1      4200 8.11652E+01 2.48917E+01 0.00000E+00
 -1      4201 8.26652E+01 2.48917E+01 0.00000E+00
 -1      4202 8.39280E+01 2.49306E+01 0.00000E+00
 -1      4203 8.54280E+01 2.49306E+01 0.00000E+00
 -1      4204 8.68058E+01 2.51688E+01 0.00000E+00
 -1      4205 2.61649E+01 2.51603E+01 0.00000E+00
 -1      4206 1.27284E+02 2.49651E+01 0.00000E+00
 -1      4207 3.55652E+01 2.35927E+01 0.00000E+00
 -1      4208 3.48152E+01 2.22937E+01 0.00000E+00
 -1      4209 8.59534E+01 2.36980E+01 0.00000E+00
 -1      4210 2.10548E+01 2.79338E+01 0.00000E+00
 -1      4211 4.40812E+01 2.20830E+01 0.00000E+00
 -1      4212 4.25812E+01 2.20830E+01 0.00000E+00
 -1      4213 4.18312E+01 2.33820E+01 0.00000E+00
 -1      4214 4.47938E+01 2.33820E+01 0.00000E+00
 -1      4215 2.73918E+01 2.49512E+01 0.00000E+00
 -1      4216 2.88918E+01 2.49512E+01 0.00000E+00
 -1      4217 1.30373E+02 2.21995E+01 0.00000E+00
 -1      4218 3.03824E+01 2.49512E+01 0.00000E+00
 -1      4219 3.18824E+01 2.49512E+01 0.00000E+00
 -1      4220 3.33246E+01 2.22937E+01 0.00000E+00
 -1      4221 1.31498E+02 2.21115E+01 0.00000E+00
 -1      4222 4.22964E+01 2.48917E+01 0.00000E+00
 -1      4223 4.37964E+01 2.48917E+01 0.00000E+00
 -1      4224 3.26324E+01 2.36522E+01 0.00000E+00
 -3
    3C                          2030                                     1
 -1       165    8    0    1
 -2         6         7        23      1098      1262      1115
 -1       166    8    0    1
 -2         7         8       165      1099      1263      1264
 -1       167    8    0    1
 -2         8         9       166      1100      1265      1266
 -1       168    8    0    1
 -2         8       166       165      1266      1267      1263
 -1       169    8    0    1
 -2         9        10       167      1101      1268      1269
 -1       170    8    0    1
 -2         9       167       166      1269      1270      1265
 -1       171    8    0    1
 -2        10        11       168      1102      1271      1272
 -1       172    8    0    1
 -2        10       168       167      1272      1273      1268
 -1       173    8    0    1
 -2        11        12       169      1103      1274      1275
 -1       174    8    0    1
 -2        11       169       168      1275      1276      1271
 -1       175    8    0    1
 -2        12        13       170      1104      1277      1278
 -1       176    8    0    1
 -2        12       170       169      1278      1279      1274
 -1       177    8    0    1
 -2        13        14       171      1105      1280      1281
 -1       178    8    0    1
 -2        13       171       170      1281      1282      1277
 -1       179    8    0    1
 -2        14        15       172      1106      1283      1284
 -1       180    8    0    1
 -2        14       172       171      1284      1285      1280
 -1       181    8    0    1
 -2        15        16       173      1107      1286      1287
 -1       182    8    0    1
 -2        15       173       172      1287      1288      1283
 -1       183    8    0    1
 -2        16        17       174      1108      1289      1290
 -1       184    8    0    1
 -2        16       174       173      1290      1291      1286
 -1       185    8    0    1
 -2        17        18       175      1109      1292      1293
 -1       186    8    0    1
 -2        17       175       174      1293      1294      1289
 -1       187    8    0    1
 -2        18        19       176      1110      1295      1296
 -1       188    8    0    1
 -2        18       176       175      1296      1297      1292
 -1       189    8    0    1
 -2        19        20       177      1111      1298      1299
 -1       190    8    0    1
 -2        19       177       176      1299      1300      1295
 -1       191    8    0    1
 -2        20        21       178      1112      1301      1302
 -1       192    8    0    1
 -2        20       178       177      1302      1303      1298
 -1       193    8    0    1
 -2        21        22       179      1113      1304      1305
 -1       194    8    0    1
 -2        21       179       178      1305      1306      1301
 -1       195    8    0    1
 -2        22         5        72      1114      1165      1307
 -1       196    8    0    1
 -2        24        23       180      1116      1308      1309
 -1       197    8    0    1
 -2        25        24       181      1117      1310      1311
 -1       198    8    0    1
 -2        24       180       181      1309      1312      1310
 -1       199    8    0    1
 -2        26        25       182      1118      1313      1314
 -1       200    8    0    1
 -2        25       181       182      1311      1315      1313
 -1       201    8    0    1
 -2        27        26       183      1119      1316      1317
 -1       202    8    0    1
 -2        26       182       183      1314      1318      1316
 -1       203    8    0    1
 -2        28        27       184      1120      1319      1320
 -1       204    8    0    1
 -2        27       183       184      1317      1321      1319
 -1       205    8    0    1
 -2        29        28       185      1121      1322      1323
 -1       206    8    0    1
 -2        28       184       185      1320      1324      1322
 -1       207    8    0    1
 -2        30        29       186      1122      1325      1326
 -1       208    8    0    1
 -2        29       185       186      1323      1327      1325
 -1       209    8    0    1
 -2        31        30       187      1123      1328      1329
 -1       210    8    0    1
 -2        30       186       187      1326      1330      1328
 -1       211    8    0    1
 -2        32        31       188      1124      1331      1332
 -1       212    8    0    1
 -2        31       187       188      1329      1333      1331
 -1       213    8    0    1
 -2        33        32       189      1125      1334      1335
 -1       214    8    0    1
 -2        32       188       189      1332      1336      1334
 -1       215    8    0    1
 -2        34        33       190      1126      1337      1338
 -1       216    8    0    1
 -2        33       189       190      1335      1339      1337
 -1       217    8    0    1
 -2        35        34       191      1127      1340      1341
 -1       218    8    0    1
 -2        34       190       191      1338      1342      1340
 -1       219    8    0    1
 -2        36        35       192      1128      1343      1344
 -1       220    8    0    1
 -2        35       191       192      1341      1345      1343
 -1       221    8    0    1
 -2        37        36       193      1129      1346      1347
 -1       222    8    0    1
 -2        36       192       193      1344      1348      1346
 -1       223    8    0    1
 -2        38        37       194      1130      1349      1350
 -1       224    8    0    1
 -2        37       193       194      1347      1351      1349
 -1       225    8    0    1
 -2        39        38       195      1131      1352      1353
 -1       226    8    0    1
 -2        38       194       195      1350      1354      1352
 -1       227    8    0    1
 -2        40        39       196      1132      1355      1356
 -1       228    8    0    1
 -2        39       195       196      1353      1357      1355
 -1       229    8    0    1
 -2        41        40       197      1133      1358      1359
 -1       230    8    0    1
 -2        40       196       197      1356      1360      1358
 -1       231    8    0    1
 -2        42        41       198      1134      1361      1362
 -1       232    8    0    1
 -2        41       197       198      1359      1363      1361
 -1       233    8    0    1
 -2        43        42       199      1135      1364      1365
 -1       234    8    0    1
 -2        42       198       199      1362      1366      1364
 -1       235    8    0    1
 -2        44        43       200      1136      1367      1368
 -1       236    8    0    1
 -2        43       199       200      1365      1369      1367
 -1       237    8    0    1
 -2        45        44       201      1137      1370      1371
 -1       238    8    0    1
 -2        44       200       201      1368      1372      1370
 -1       239    8    0    1
 -2        46        45       202      1138      1373      1374
 -1       240    8    0    1
 -2        45       201       202      1371      1375      1373
 -1       241    8    0    1
 -2        47        46       203      1139      1376      1377
 -1       242    8    0    1
 -2        46       202       203      1374      1378      1376
 -1       243    8    0    1
 -2        48        47       204      1140      1379      1380
 -1       244    8    0    1
 -2        47       203       204      1377      1381      1379
 -1       245    8    0    1
 -2        49        48       205      1141      1382      1383
 -1       246    8    0    1
 -2        48       204       205      1380      1384      1382
 -1       247    8    0    1
 -2        50        49       206      1142      1385      1386
 -1       248    8    0    1
 -2        49       205       206      1383      1387      1385
 -1       249    8    0    1
 -2        51        50       207      1143      1388      1389
 -1       250    8    0    1
 -2        50       206       207      1386      1390      1388
 -1       251    8    0    1
 -2        52        51       208      1144      1391      1392
 -1       252    8    0    1
 -2        51       207       208      1389      1393      1391
 -1       253    8    0    1
 -2        53        52       209      1145      1394      1395
 -1       254    8    0    1
 -2        52       208       209      1392      1396      1394
 -1       255    8    0    1
 -2        54        53       210      1146      1397      1398
 -1       256    8    0    1
 -2        53       209       210      1395      1399      1397
 -1       257    8    0    1
 -2        55        54       211      1147      1400      1401
 -1       258    8    0    1
 -2        54       210       211      1398      1402      1400
 -1       259    8    0    1
 -2        56        55       212      1148      1403      1404
 -1       260    8    0    1
 -2        55       211       212      1401      1405      1403
 -1       261    8    0    1
 -2        57        56       213      1149      1406      1407
 -1       262    8    0    1
 -2        56       212       213      1404      1408      1406
 -1       263    8    0    1
 -2        58        57       214      1150      1409      1410
 -1       264    8    0    1
 -2        57       213       214      1407      1411      1409
 -1       265    8    0    1
 -2        59        58       215      1151      1412      1413
 -1       266    8    0    1
 -2        58       214       215      1410      1414      1412
 -1       267    8    0    1
 -2        60        59       216      1152      1415      1416
 -1       268    8    0    1
 -2        59       215       216      1413      1417      1415
 -1       269    8    0    1
 -2        61        60       217      1153      1418      1419
 -1       270    8    0    1
 -2        60       216       217      1416      1420      1418
 -1       271    8    0    1
 -2        62        61       218      1154      1421      1422
 -1       272    8    0    1
 -2        61       217       218      1419      1423      1421
 -1       273    8    0    1
 -2        63        62       219      1155      1424      1425
 -1       274    8    0    1
 -2        62       218       219      1422      1426      1424
 -1       275    8    0    1
 -2        64        63       220      1156      1427      1428
 -1       276    8    0    1
 -2        63       219       220      1425      1429      1427
 -1       277    8    0    1
 -2        65        64       221      1157      1430      1431
 -1       278    8    0    1
 -2        64       220       221      1428      1432      1430
 -1       279    8    0    1
 -2        66        65       222      1158      1433      1434
 -1       280    8    0    1
 -2        65       221       222      1431      1435      1433
 -1       281    8    0    1
 -2        67        66       223      1159      1436      1437
 -1       282    8    0    1
 -2        66       222       223      1434      1438      1436
 -1       283    8    0    1
 -2        68        67       224      1160      1439      1440
 -1       284    8    0    1
 -2        67       223       224      1437      1441      1439
 -1       285    8    0    1
 -2        69        68       225      1161      1442      1443
 -1       286    8    0    1
 -2        68       224       225      1440      1444      1442
 -1       287    8    0    1
 -2        70        69       226      1162      1445      1446
 -1       288    8    0    1
 -2        69       225       226      1443      1447      1445
 -1       289    8    0    1
 -2        71        70       227      1163      1448      1449
 -1       290    8    0    1
 -2        70       226       227      1446      1450      1448
 -1       291    8    0    1
 -2         4        71       137      1164      1451      1232
 -1       292    8    0    1
 -2       137        71       227      1451      1449      1452
 -1       293    8    0    1
 -2        72        73       228      1166      1453      1454
 -1       294    8    0    1
 -2        73        74       229      1167      1455      1456
 -1       295    8    0    1
 -2        73       229       228      1456      1457      1453
 -1       296    8    0    1
 -2        74        75       230      1168      1458      1459
 -1       297    8    0    1
 -2        74       230       229      1459      1460      1455
 -1       298    8    0    1
 -2        75        76       231      1169      1461      1462
 -1       299    8    0    1
 -2        75       231       230      1462      1463      1458
 -1       300    8    0    1
 -2        76        77       232      1170      1464      1465
 -1       301    8    0    1
 -2        76       232       231      1465      1466      1461
 -1       302    8    0    1
 -2        77        78       233      1171      1467      1468
 -1       303    8    0    1
 -2        77       233       232      1468      1469      1464
 -1       304    8    0    1
 -2        78        79       234      1172      1470      1471
 -1       305    8    0    1
 -2        78       234       233      1471      1472      1467
 -1       306    8    0    1
 -2        79        80       235      1173      1473      1474
 -1       307    8    0    1
 -2        79       235       234      1474      1475      1470
 -1       308    8    0    1
 -2        80        81       236      1174      1476      1477
 -1       309    8    0    1
 -2        80       236       235      1477      1478      1473
 -1       310    8    0    1
 -2        81        82       237      1175      1479      1480
 -1       311    8    0    1
 -2        81       237       236      1480      1481      1476
 -1       312    8    0    1
 -2        82        83       238      1176      1482      1483
 -1       313    8    0    1
 -2        82       238       237      1483      1484      1479
 -1       314    8    0    1
 -2        83        84       239      1177      1485      1486
 -1       315    8    0    1
 -2        83       239       238      1486      1487      1482
 -1       316    8    0    1
 -2        84        85       240      1178      1488      1489
 -1       317    8    0    1
 -2        84       240       239      1489      1490      1485
 -1       318    8    0    1
 -2        85        86       241      1179      1491      1492
 -1       319    8    0    1
 -2        85       241       240      1492      1493      1488
 -1       320    8    0    1
 -2        86        87       242      1180      1494      1495
 -1       321    8    0    1
 -2        86       242       241      1495      1496      1491
 -1       322    8    0    1
 -2        87        88       243      1181      1497      1498
 -1       323    8    0    1
 -2        87       243       242      1498      1499      1494
 -1       324    8    0    1
 -2        88        89       244      1182      1500      1501
 -1       325    8    0    1
 -2        88       244       243      1501      1502      1497
 -1       326    8    0    1
 -2        89        90       245      1183      1503      1504
 -1       327    8    0    1
 -2        89       245       244      1504      1505      1500
 -1       328    8    0    1
 -2        90        91       246      1184      1506      1507
 -1       329    8    0    1
 -2        90       246       245      1507      1508      1503
 -1       330    8    0    1
 -2        91        92       247      1185      1509      1510
 -1       331    8    0    1
 -2        91       247       246      1510      1511      1506
 -1       332    8    0    1
 -2        92        93       248      1186      1512      1513
 -1       333    8    0    1
 -2        92       248       247      1513      1514      1509
 -1       334    8    0    1
 -2        93        94       249      1187      1515      1516
 -1       335    8    0    1
 -2        93       249       248      1516      1517      1512
 -1       336    8    0    1
 -2        94        95       250      1188      1518      1519
 -1       337    8    0    1
 -2        94       250       249      1519      1520      1515
 -1       338    8    0    1
 -2        95        96       251      1189      1521      1522
 -1       339    8    0    1
 -2        95       251       250      1522      1523      1518
 -1       340    8    0    1
 -2        96        97       252      1190      1524      1525
 -1       341    8    0    1
 -2        96       252       251      1525      1526      1521
 -1       342    8    0    1
 -2        97        98       253      1191      1527      1528
 -1       343    8    0    1
 -2        97       253       252      1528      1529      1524
 -1       344    8    0    1
 -2        98        99       254      1192      1530      1531
 -1       345    8    0    1
 -2        98       254       253      1531      1532      1527
 -1       346    8    0    1
 -2        99       100       255      1193      1533      1534
 -1       347    8    0    1
 -2        99       255       254      1534      1535      1530
 -1       348    8    0    1
 -2       100       101       256      1194      1536      1537
 -1       349    8    0    1
 -2       100       256       255      1537      1538      1533
 -1       350    8    0    1
 -2       101       102       257      1195      1539      1540
 -1       351    8    0    1
 -2       101       257       256      1540      1541      1536
 -1       352    8    0    1
 -2       102       103       258      1196      1542      1543
 -1       353    8    0    1
 -2       102       258       257      1543      1544      1539
 -1       354    8    0    1
 -2       103       104       259      1197      1545      1546
 -1       355    8    0    1
 -2       103       259       258      1546      1547      1542
 -1       356    8    0    1
 -2       104       105       260      1198      1548      1549
 -1       357    8    0    1
 -2       104       260       259      1549      1550      1545
 -1       358    8    0    1
 -2       105       106       261      1199      1551      1552
 -1       359    8    0    1
 -2       105       261       260      1552      1553      1548
 -1       360    8    0    1
 -2       106       107       262      1200      1554      1555
 -1       361    8    0    1
 -2       106       262       261      1555      1556      1551
 -1       362    8    0    1
 -2       107       108       263      1201      1557      1558
 -1       363    8    0    1
 -2       107       263       262      1558      1559      1554
 -1       364    8    0    1
 -2       108       109       264      1202      1560      1561
 -1       365    8    0    1
 -2       108       264       263      1561      1562      1557
 -1       366    8    0    1
 -2       110       111       265      1204      1563      1564
 -1       367    8    0    1
 -2       111       112       266      1205      1565      1566
 -1       368    8    0    1
 -2       111       266       265      1566      1567      1563
 -1       369    8    0    1
 -2       112       113       267      1206      1568      1569
 -1       370    8    0    1
 -2       112       267       266      1569      1570      1565
 -1       371    8    0    1
 -2       113       114       268      1207      1571      1572
 -1       372    8    0    1
 -2       113       268       267      1572      1573      1568
 -1       373    8    0    1
 -2       114       115       269      1208      1574      1575
 -1       374    8    0    1
 -2       114       269       268      1575      1576      1571
 -1       375    8    0    1
 -2       115       116       270      1209      1577      1578
 -1       376    8    0    1
 -2       115       270       269      1578      1579      1574
 -1       377    8    0    1
 -2       116       117       271      1210      1580      1581
 -1       378    8    0    1
 -2       116       271       270      1581      1582      1577
 -1       379    8    0    1
 -2       117       118       272      1211      1583      1584
 -1       380    8    0    1
 -2       117       272       271      1584      1585      1580
 -1       381    8    0    1
 -2       118       119       273      1212      1586      1587
 -1       382    8    0    1
 -2       118       273       272      1587      1588      1583
 -1       383    8    0    1
 -2       119       120       274      1213      1589      1590
 -1       384    8    0    1
 -2       119       274       273      1590      1591      1586
 -1       385    8    0    1
 -2       120       121       275      1214      1592      1593
 -1       386    8    0    1
 -2       120       275       274      1593      1594      1589
 -1       387    8    0    1
 -2       121         3       276      1215      1595      1596
 -1       388    8    0    1
 -2       275       121       276      1592      1596      1597
 -1       389    8    0    1
 -2         3       122       276      1216      1598      1595
 -1       390    8    0    1
 -2       122       123       277      1217      1599      1600
 -1       391    8    0    1
 -2       122       277       276      1600      1601      1598
 -1       392    8    0    1
 -2       123       124       278      1218      1602      1603
 -1       393    8    0    1
 -2       123       278       277      1603      1604      1599
 -1       394    8    0    1
 -2       124       125       279      1219      1605      1606
 -1       395    8    0    1
 -2       124       279       278      1606      1607      1602
 -1       396    8    0    1
 -2       125       126       280      1220      1608      1609
 -1       397    8    0    1
 -2       125       280       279      1609      1610      1605
 -1       398    8    0    1
 -2       126       127       281      1221      1611      1612
 -1       399    8    0    1
 -2       126       281       280      1612      1613      1608
 -1       400    8    0    1
 -2       127       128       282      1222      1614      1615
 -1       401    8    0    1
 -2       127       282       281      1615      1616      1611
 -1       402    8    0    1
 -2       128       129       283      1223      1617      1618
 -1       403    8    0    1
 -2       128       283       282      1618      1619      1614
 -1       404    8    0    1
 -2       129       130       284      1224      1620      1621
 -1       405    8    0    1
 -2       129       284       283      1621      1622      1617
 -1       406    8    0    1
 -2       130       131       285      1225      1623      1624
 -1       407    8    0    1
 -2       130       285       284      1624      1625      1620
 -1       408    8    0    1
 -2       131       132       286      1226      1626      1627
 -1       409    8    0    1
 -2       131       286       285      1627      1628      1623
 -1       410    8    0    1
 -2       132       133       287      1227      1629      1630
 -1       411    8    0    1
 -2       132       287       286      1630      1631      1626
 -1       412    8    0    1
 -2       133       134       288      1228      1632      1633
 -1       413    8    0    1
 -2       133       288       287      1633      1634      1629
 -1       414    8    0    1
 -2       134       135       289      1229      1635      1636
 -1       415    8    0    1
 -2       134       289       288      1636      1637      1632
 -1       416    8    0    1
 -2       135       136       290      1230      1638      1639
 -1       417    8    0    1
 -2       135       290       289      1639      1640      1635
 -1       418    8    0    1
 -2         2       138       291      1233      1641      1642
 -1       419    8    0    1
 -2       138       139       292      1234      1643      1644
 -1       420    8    0    1
 -2       139       140       293      1235      1645      1646
 -1       421    8    0    1
 -2       140       141       294      1236      1647      1648
 -1       422    8    0    1
 -2       141       142       295      1237      1649      1650
 -1       423    8    0    1
 -2       142       143       296      1238      1651      1652
 -1       424    8    0    1
 -2       143       144       297      1239      1653      1654
 -1       425    8    0    1
 -2       144       145       298      1240      1655      1656
 -1       426    8    0    1
 -2       145       146       299      1241      1657      1658
 -1       427    8    0    1
 -2       146       147       300      1242      1659      1660
 -1       428    8    0    1
 -2       147       148       301      1243      1661      1662
 -1       429    8    0    1
 -2       148       149       302      1244      1663      1664
 -1       430    8    0    1
 -2       149       150       303      1245      1665      1666
 -1       431    8    0    1
 -2       150       151       304      1246      1667      1668
 -1       432    8    0    1
 -2       151       152       305      1247      1669      1670
 -1       433    8    0    1
 -2       152       153       306      1248      1671      1672
 -1       434    8    0    1
 -2       153       154       307      1249      1673      1674
 -1       435    8    0    1
 -2       154       155       308      1250      1675      1676
 -1       436    8    0    1
 -2       155       156       309      1251      1677      1678
 -1       437    8    0    1
 -2       156       157       310      1252      1679      1680
 -1       438    8    0    1
 -2       157       158       311      1253      1681      1682
 -1       439    8    0    1
 -2       158       159       312      1254      1683      1684
 -1       440    8    0    1
 -2       159       160       313      1255      1685      1686
 -1       441    8    0    1
 -2       160         1       314      1256      1687      1688
 -1       442    8    0    1
 -2         1       161       315      1257      1689      1690
 -1       443    8    0    1
 -2       161       162       316      1258      1691      1692
 -1       444    8    0    1
 -2       162       163       317      1259      1693      1694
 -1       445    8    0    1
 -2       163       164       318      1260      1695      1696
 -1       446    8    0    1
 -2       164         2       319      1261      1697      1698
 -1       447    8    0    1
 -2        22        72       179      1307      1699      1304
 -1       448    8    0    1
 -2       110       265       320      1564      1700      1701
 -1       449    8    0    1
 -2       110       320       109      1701      1702      1203
 -1       450    8    0    1
 -2       264       109       320      1560      1702      1703
 -1       451    8    0    1
 -2       292       139       293      1643      1646      1704
 -1       452    8    0    1
 -2         2       291       319      1642      1705      1697
 -1       453    8    0    1
 -2       291       138       292      1641      1644      1706
 -1       454    8    0    1
 -2       136       137       321      1231      1707      1708
 -1       455    8    0    1
 -2       136       321       290      1708      1709      1638
 -1       456    8    0    1
 -2       140       294       293      1648      1710      1645
 -1       457    8    0    1
 -2       141       295       294      1650      1711      1647
 -1       458    8    0    1
 -2       142       296       295      1652      1712      1649
 -1       459    8    0    1
 -2       143       297       296      1654      1713      1651
 -1       460    8    0    1
 -2       144       298       297      1656      1714      1653
 -1       461    8    0    1
 -2       145       299       298      1658      1715      1655
 -1       462    8    0    1
 -2       146       300       299      1660      1716      1657
 -1       463    8    0    1
 -2       147       301       300      1662      1717      1659
 -1       464    8    0    1
 -2       148       302       301      1664      1718      1661
 -1       465    8    0    1
 -2       149       303       302      1666      1719      1663
 -1       466    8    0    1
 -2       150       304       303      1668      1720      1665
 -1       467    8    0    1
 -2       151       305       304      1670      1721      1667
 -1       468    8    0    1
 -2       152       306       305      1672      1722      1669
 -1       469    8    0    1
 -2       153       307       306      1674      1723      1671
 -1       470    8    0    1
 -2       154       308       307      1676      1724      1673
 -1       471    8    0    1
 -2       155       309       308      1678      1725      1675
 -1       472    8    0    1
 -2       156       310       309      1680      1726      1677
 -1       473    8    0    1
 -2       157       311       310      1682      1727      1679
 -1       474    8    0    1
 -2       158       312       311      1684      1728      1681
 -1       475    8    0    1
 -2       159       313       312      1686      1729      1683
 -1       476    8    0    1
 -2       160       314       313      1688      1730      1685
 -1       477    8    0    1
 -2         1       315       314      1690      1731      1687
 -1       478    8    0    1
 -2       161       316       315      1692      1732      1689
 -1       479    8    0    1
 -2       162       317       316      1694      1733      1691
 -1       480    8    0    1
 -2       163       318       317      1696      1734      1693
 -1       481    8    0    1
 -2       164       319       318      1698      1735      1695
 -1       482    8    0    1
 -2        23         7       165      1262      1264      1736
 -1       483    8    0    1
 -2       166       167       322      1270      1737      1738
 -1       484    8    0    1
 -2       165       166       323      1267      1739      1740
 -1       485    8    0    1
 -2       166       322       323      1738      1741      1739
 -1       486    8    0    1
 -2       168       169       324      1276      1742      1743
 -1       487    8    0    1
 -2       169       170       325      1279      1744      1745
 -1       488    8    0    1
 -2       169       325       324      1745      1746      1742
 -1       489    8    0    1
 -2       170       171       326      1282      1747      1748
 -1       490    8    0    1
 -2       170       326       325      1748      1749      1744
 -1       491    8    0    1
 -2       171       172       327      1285      1750      1751
 -1       492    8    0    1
 -2       171       327       326      1751      1752      1747
 -1       493    8    0    1
 -2       172       173       328      1288      1753      1754
 -1       494    8    0    1
 -2       172       328       327      1754      1755      1750
 -1       495    8    0    1
 -2       173       174       329      1291      1756      1757
 -1       496    8    0    1
 -2       173       329       328      1757      1758      1753
 -1       497    8    0    1
 -2       174       175       330      1294      1759      1760
 -1       498    8    0    1
 -2       174       330       329      1760      1761      1756
 -1       499    8    0    1
 -2       175       176       331      1297      1762      1763
 -1       500    8    0    1
 -2       175       331       330      1763      1764      1759
 -1       501    8    0    1
 -2       176       177       332      1300      1765      1766
 -1       502    8    0    1
 -2       176       332       331      1766      1767      1762
 -1       503    8    0    1
 -2       177       178       333      1303      1768      1769
 -1       504    8    0    1
 -2       177       333       332      1769      1770      1765
 -1       505    8    0    1
 -2       178       179       334      1306      1771      1772
 -1       506    8    0    1
 -2       178       334       333      1772      1773      1768
 -1       507    8    0    1
 -2       320       265       335      1700      1774      1775
 -1       508    8    0    1
 -2       292       293       336      1704      1776      1777
 -1       509    8    0    1
 -2       180        23       165      1308      1736      1778
 -1       510    8    0    1
 -2        72       228       179      1454      1779      1699
 -1       511    8    0    1
 -2       182       181       337      1315      1780      1781
 -1       512    8    0    1
 -2       183       182       338      1318      1782      1783
 -1       513    8    0    1
 -2       182       337       338      1781      1784      1782
 -1       514    8    0    1
 -2       184       183       339      1321      1785      1786
 -1       515    8    0    1
 -2       183       338       339      1783      1787      1785
 -1       516    8    0    1
 -2       185       184       340      1324      1788      1789
 -1       517    8    0    1
 -2       184       339       340      1786      1790      1788
 -1       518    8    0    1
 -2       186       185       341      1327      1791      1792
 -1       519    8    0    1
 -2       185       340       341      1789      1793      1791
 -1       520    8    0    1
 -2       187       186       342      1330      1794      1795
 -1       521    8    0    1
 -2       186       341       342      1792      1796      1794
 -1       522    8    0    1
 -2       188       187       343      1333      1797      1798
 -1       523    8    0    1
 -2       187       342       343      1795      1799      1797
 -1       524    8    0    1
 -2       189       188       344      1336      1800      1801
 -1       525    8    0    1
 -2       188       343       344      1798      1802      1800
 -1       526    8    0    1
 -2       190       189       345      1339      1803      1804
 -1       527    8    0    1
 -2       189       344       345      1801      1805      1803
 -1       528    8    0    1
 -2       191       190       346      1342      1806      1807
 -1       529    8    0    1
 -2       190       345       346      1804      1808      1806
 -1       530    8    0    1
 -2       192       191       347      1345      1809      1810
 -1       531    8    0    1
 -2       191       346       347      1807      1811      1809
 -1       532    8    0    1
 -2       193       192       348      1348      1812      1813
 -1       533    8    0    1
 -2       192       347       348      1810      1814      1812
 -1       534    8    0    1
 -2       194       193       349      1351      1815      1816
 -1       535    8    0    1
 -2       193       348       349      1813      1817      1815
 -1       536    8    0    1
 -2       195       194       350      1354      1818      1819
 -1       537    8    0    1
 -2       194       349       350      1816      1820      1818
 -1       538    8    0    1
 -2       196       195       351      1357      1821      1822
 -1       539    8    0    1
 -2       195       350       351      1819      1823      1821
 -1       540    8    0    1
 -2       197       196       352      1360      1824      1825
 -1       541    8    0    1
 -2       196       351       352      1822      1826      1824
 -1       542    8    0    1
 -2       198       197       353      1363      1827      1828
 -1       543    8    0    1
 -2       197       352       353      1825      1829      1827
 -1       544    8    0    1
 -2       199       198       354      1366      1830      1831
 -1       545    8    0    1
 -2       198       353       354      1828      1832      1830
 -1       546    8    0    1
 -2       200       199       355      1369      1833      1834
 -1       547    8    0    1
 -2       199       354       355      1831      1835      1833
 -1       548    8    0    1
 -2       201       200       356      1372      1836      1837
 -1       549    8    0    1
 -2       200       355       356      1834      1838      1836
 -1       550    8    0    1
 -2       202       201       357      1375      1839      1840
 -1       551    8    0    1
 -2       201       356       357      1837      1841      1839
 -1       552    8    0    1
 -2       203       202       358      1378      1842      1843
 -1       553    8    0    1
 -2       202       357       358      1840      1844      1842
 -1       554    8    0    1
 -2       204       203       359      1381      1845      1846
 -1       555    8    0    1
 -2       203       358       359      1843      1847      1845
 -1       556    8    0    1
 -2       205       204       360      1384      1848      1849
 -1       557    8    0    1
 -2       204       359       360      1846      1850      1848
 -1       558    8    0    1
 -2       206       205       361      1387      1851      1852
 -1       559    8    0    1
 -2       205       360       361      1849      1853      1851
 -1       560    8    0    1
 -2       207       206       362      1390      1854      1855
 -1       561    8    0    1
 -2       206       361       362      1852      1856      1854
 -1       562    8    0    1
 -2       208       207       363      1393      1857      1858
 -1       563    8    0    1
 -2       207       362       363      1855      1859      1857
 -1       564    8    0    1
 -2       209       208       364      1396      1860      1861
 -1       565    8    0    1
 -2       208       363       364      1858      1862      1860
 -1       566    8    0    1
 -2       210       209       365      1399      1863      1864
 -1       567    8    0    1
 -2       209       364       365      1861      1865      1863
 -1       568    8    0    1
 -2       211       210       366      1402      1866      1867
 -1       569    8    0    1
 -2       210       365       366      1864      1868      1866
 -1       570    8    0    1
 -2       212       211       367      1405      1869      1870
 -1       571    8    0    1
 -2       211       366       367      1867      1871      1869
 -1       572    8    0    1
 -2       213       212       368      1408      1872      1873
 -1       573    8    0    1
 -2       212       367       368      1870      1874      1872
 -1       574    8    0    1
 -2       214       213       369      1411      1875      1876
 -1       575    8    0    1
 -2       213       368       369      1873      1877      1875
 -1       576    8    0    1
 -2       215       214       370      1414      1878      1879
 -1       577    8    0    1
 -2       214       369       370      1876      1880      1878
 -1       578    8    0    1
 -2       216       215       371      1417      1881      1882
 -1       579    8    0    1
 -2       215       370       371      1879      1883      1881
 -1       580    8    0    1
 -2       217       216       372      1420      1884      1885
 -1       581    8    0    1
 -2       216       371       372      1882      1886      1884
 -1       582    8    0    1
 -2       218       217       373      1423      1887      1888
 -1       583    8    0    1
 -2       217       372       373      1885      1889      1887
 -1       584    8    0    1
 -2       219       218       374      1426      1890      1891
 -1       585    8    0    1
 -2       218       373       374      1888      1892      1890
 -1       586    8    0    1
 -2       220       219       375      1429      1893      1894
 -1       587    8    0    1
 -2       219       374       375      1891      1895      1893
 -1       588    8    0    1
 -2       221       220       376      1432      1896      1897
 -1       589    8    0    1
 -2       220       375       376      1894      1898      1896
 -1       590    8    0    1
 -2       222       221       377      1435      1899      1900
 -1       591    8    0    1
 -2       221       376       377      1897      1901      1899
 -1       592    8    0    1
 -2       223       222       378      1438      1902      1903
 -1       593    8    0    1
 -2       222       377       378      1900      1904      1902
 -1       594    8    0    1
 -2       224       223       379      1441      1905      1906
 -1       595    8    0    1
 -2       223       378       379      1903      1907      1905
 -1       596    8    0    1
 -2       225       224       380      1444      1908      1909
 -1       597    8    0    1
 -2       224       379       380      1906      1910      1908
 -1       598    8    0    1
 -2       226       225       381      1447      1911      1912
 -1       599    8    0    1
 -2       225       380       381      1909      1913      1911
 -1       600    8    0    1
 -2       227       226       382      1450      1914      1915
 -1       601    8    0    1
 -2       226       381       382      1912      1916      1914
 -1       602    8    0    1
 -2       267       268       383      1573      1917      1918
 -1       603    8    0    1
 -2       230       231       384      1463      1919      1920
 -1       604    8    0    1
 -2       229       230       385      1460      1921      1922
 -1       605    8    0    1
 -2       230       384       385      1920      1923      1921
 -1       606    8    0    1
 -2       231       232       386      1466      1924      1925
 -1       607    8    0    1
 -2       231       386       384      1925      1926      1919
 -1       608    8    0    1
 -2       232       233       387      1469      1927      1928
 -1       609    8    0    1
 -2       232       387       386      1928      1929      1924
 -1       610    8    0    1
 -2       233       234       388      1472      1930      1931
 -1       611    8    0    1
 -2       233       388       387      1931      1932      1927
 -1       612    8    0    1
 -2       234       235       389      1475      1933      1934
 -1       613    8    0    1
 -2       234       389       388      1934      1935      1930
 -1       614    8    0    1
 -2       235       236       390      1478      1936      1937
 -1       615    8    0    1
 -2       235       390       389      1937      1938      1933
 -1       616    8    0    1
 -2       236       237       391      1481      1939      1940
 -1       617    8    0    1
 -2       236       391       390      1940      1941      1936
 -1       618    8    0    1
 -2       237       238       392      1484      1942      1943
 -1       619    8    0    1
 -2       237       392       391      1943      1944      1939
 -1       620    8    0    1
 -2       238       239       393      1487      1945      1946
 -1       621    8    0    1
 -2       238       393       392      1946      1947      1942
 -1       622    8    0    1
 -2       239       240       394      1490      1948      1949
 -1       623    8    0    1
 -2       239       394       393      1949      1950      1945
 -1       624    8    0    1
 -2       240       241       395      1493      1951      1952
 -1       625    8    0    1
 -2       240       395       394      1952      1953      1948
 -1       626    8    0    1
 -2       241       242       396      1496      1954      1955
 -1       627    8    0    1
 -2       241       396       395      1955      1956      1951
 -1       628    8    0    1
 -2       242       243       397      1499      1957      1958
 -1       629    8    0    1
 -2       242       397       396      1958      1959      1954
 -1       630    8    0    1
 -2       243       244       398      1502      1960      1961
 -1       631    8    0    1
 -2       243       398       397      1961      1962      1957
 -1       632    8    0    1
 -2       244       245       399      1505      1963      1964
 -1       633    8    0    1
 -2       244       399       398      1964      1965      1960
 -1       634    8    0    1
 -2       245       246       400      1508      1966      1967
 -1       635    8    0    1
 -2       245       400       399      1967      1968      1963
 -1       636    8    0    1
 -2       246       247       401      1511      1969      1970
 -1       637    8    0    1
 -2       246       401       400      1970      1971      1966
 -1       638    8    0    1
 -2       247       248       402      1514      1972      1973
 -1       639    8    0    1
 -2       247       402       401      1973      1974      1969
 -1       640    8    0    1
 -2       248       249       403      1517      1975      1976
 -1       641    8    0    1
 -2       248       403       402      1976      1977      1972
 -1       642    8    0    1
 -2       249       250       404      1520      1978      1979
 -1       643    8    0    1
 -2       249       404       403      1979      1980      1975
 -1       644    8    0    1
 -2       250       251       405      1523      1981      1982
 -1       645    8    0    1
 -2       250       405       404      1982      1983      1978
 -1       646    8    0    1
 -2       251       252       406      1526      1984      1985
 -1       647    8    0    1
 -2       251       406       405      1985      1986      1981
 -1       648    8    0    1
 -2       252       253       407      1529      1987      1988
 -1       649    8    0    1
 -2       252       407       406      1988      1989      1984
 -1       650    8    0    1
 -2       253       254       408      1532      1990      1991
 -1       651    8    0    1
 -2       253       408       407      1991      1992      1987
 -1       652    8    0    1
 -2       254       255       409      1535      1993      1994
 -1       653    8    0    1
 -2       254       409       408      1994      1995      1990
 -1       654    8    0    1
 -2       255       256       410      1538      1996      1997
 -1       655    8    0    1
 -2       255       410       409      1997      1998      1993
 -1       656    8    0    1
 -2       256       257       411      1541      1999      2000
 -1       657    8    0    1
 -2       256       411       410      2000      2001      1996
 -1       658    8    0    1
 -2       257       258       412      1544      2002      2003
 -1       659    8    0    1
 -2       257       412       411      2003      2004      1999
 -1       660    8    0    1
 -2       258       259       413      1547      2005      2006
 -1       661    8    0    1
 -2       258       413       412      2006      2007      2002
 -1       662    8    0    1
 -2       259       260       414      1550      2008      2009
 -1       663    8    0    1
 -2       259       414       413      2009      2010      2005
 -1       664    8    0    1
 -2       260       261       415      1553      2011      2012
 -1       665    8    0    1
 -2       261       262       416      1556      2013      2014
 -1       666    8    0    1
 -2       262       263       299      1559      2015      2016
 -1       667    8    0    1
 -2       266       267       417      1570      2017      2018
 -1       668    8    0    1
 -2       267       383       417      1918      2019      2017
 -1       669    8    0    1
 -2       265       266       418      1567      2020      2021
 -1       670    8    0    1
 -2       266       417       418      2018      2022      2020
 -1       671    8    0    1
 -2       268       269       419      1576      2023      2024
 -1       672    8    0    1
 -2       268       419       383      2024      2025      1917
 -1       673    8    0    1
 -2       269       270       420      1579      2026      2027
 -1       674    8    0    1
 -2       269       420       419      2027      2028      2023
 -1       675    8    0    1
 -2       270       271       421      1582      2029      2030
 -1       676    8    0    1
 -2       270       421       420      2030      2031      2026
 -1       677    8    0    1
 -2       271       272       422      1585      2032      2033
 -1       678    8    0    1
 -2       271       422       421      2033      2034      2029
 -1       679    8    0    1
 -2       272       273       423      1588      2035      2036
 -1       680    8    0    1
 -2       272       423       422      2036      2037      2032
 -1       681    8    0    1
 -2       273       274       424      1591      2038      2039
 -1       682    8    0    1
 -2       273       424       423      2039      2040      2035
 -1       683    8    0    1
 -2       274       275       425      1594      2041      2042
 -1       684    8    0    1
 -2       274       425       424      2042      2043      2038
 -1       685    8    0    1
 -2       275       276       426      1597      2044      2045
 -1       686    8    0    1
 -2       425       275       426      2041      2045      2046
 -1       687    8    0    1
 -2       276       277       426      1601      2047      2044
 -1       688    8    0    1
 -2       278       279       427      1607      2048      2049
 -1       689    8    0    1
 -2       277       278       428      1604      2050      2051
 -1       690    8    0    1
 -2       426       277       428      2047      2051      2052
 -1       691    8    0    1
 -2       278       427       428      2049      2053      2050
 -1       692    8    0    1
 -2       279       280       429      1610      2054      2055
 -1       693    8    0    1
 -2       279       429       427      2055      2056      2048
 -1       694    8    0    1
 -2       280       281       430      1613      2057      2058
 -1       695    8    0    1
 -2       280       430       429      2058      2059      2054
 -1       696    8    0    1
 -2       281       282       431      1616      2060      2061
 -1       697    8    0    1
 -2       281       431       430      2061      2062      2057
 -1       698    8    0    1
 -2       282       283       432      1619      2063      2064
 -1       699    8    0    1
 -2       282       432       431      2064      2065      2060
 -1       700    8    0    1
 -2       283       284       433      1622      2066      2067
 -1       701    8    0    1
 -2       283       433       432      2067      2068      2063
 -1       702    8    0    1
 -2       284       285       434      1625      2069      2070
 -1       703    8    0    1
 -2       284       434       433      2070      2071      2066
 -1       704    8    0    1
 -2       285       286       435      1628      2072      2073
 -1       705    8    0    1
 -2       285       435       434      2073      2074      2069
 -1       706    8    0    1
 -2       286       287       436      1631      2075      2076
 -1       707    8    0    1
 -2       286       436       435      2076      2077      2072
 -1       708    8    0    1
 -2       287       288       437      1634      2078      2079
 -1       709    8    0    1
 -2       287       437       436      2079      2080      2075
 -1       710    8    0    1
 -2       288       289       438      1637      2081      2082
 -1       711    8    0    1
 -2       288       438       437      2082      2083      2078
 -1       712    8    0    1
 -2       289       290       439      1640      2084      2085
 -1       713    8    0    1
 -2       289       439       438      2085      2086      2081
 -1       714    8    0    1
 -2       293       294       440      1710      2087      2088
 -1       715    8    0    1
 -2       321       137       227      1707      1452      2089
 -1       716    8    0    1
 -2       319       291       441      1705      2090      2091
 -1       717    8    0    1
 -2       299       263       298      2015      2092      1715
 -1       718    8    0    1
 -2       167       168       442      1273      2093      2094
 -1       719    8    0    1
 -2       322       167       442      1737      2094      2095
 -1       720    8    0    1
 -2       168       324       442      1743      2096      2093
 -1       721    8    0    1
 -2       294       295       443      1711      2097      2098
 -1       722    8    0    1
 -2       295       296       444      1712      2099      2100
 -1       723    8    0    1
 -2       296       297       445      1713      2101      2102
 -1       724    8    0    1
 -2       300       301       416      1717      2103      2104
 -1       725    8    0    1
 -2       301       302       446      1718      2105      2106
 -1       726    8    0    1
 -2       302       303       447      1719      2107      2108
 -1       727    8    0    1
 -2       302       447       446      2108      2109      2105
 -1       728    8    0    1
 -2       303       304       448      1720      2110      2111
 -1       729    8    0    1
 -2       304       305       449      1721      2112      2113
 -1       730    8    0    1
 -2       304       449       448      2113      2114      2110
 -1       731    8    0    1
 -2       305       306       450      1722      2115      2116
 -1       732    8    0    1
 -2       306       307       451      1723      2117      2118
 -1       733    8    0    1
 -2       306       451       450      2118      2119      2115
 -1       734    8    0    1
 -2       307       308       452      1724      2120      2121
 -1       735    8    0    1
 -2       308       309       453      1725      2122      2123
 -1       736    8    0    1
 -2       308       453       452      2123      2124      2120
 -1       737    8    0    1
 -2       309       310       454      1726      2125      2126
 -1       738    8    0    1
 -2       310       311       455      1727      2127      2128
 -1       739    8    0    1
 -2       310       455       454      2128      2129      2125
 -1       740    8    0    1
 -2       311       312       456      1728      2130      2131
 -1       741    8    0    1
 -2       312       313       457      1729      2132      2133
 -1       742    8    0    1
 -2       313       314       458      1730      2134      2135
 -1       743    8    0    1
 -2       314       315       459      1731      2136      2137
 -1       744    8    0    1
 -2       315       316       460      1732      2138      2139
 -1       745    8    0    1
 -2       316       317       461      1733      2140      2141
 -1       746    8    0    1
 -2       317       318       462      1734      2142      2143
 -1       747    8    0    1
 -2       318       319       463      1735      2144      2145
 -1       748    8    0    1
 -2       318       463       462      2145      2146      2142
 -1       749    8    0    1
 -2       179       228       334      1779      2147      1771
 -1       750    8    0    1
 -2       291       292       464      1706      2148      2149
 -1       751    8    0    1
 -2       180       165       323      1778      1740      2150
 -1       752    8    0    1
 -2       321       227       382      2089      1915      2151
 -1       753    8    0    1
 -2       298       263       264      2092      1562      2152
 -1       754    8    0    1
 -2       298       264       297      2152      2153      1714
 -1       755    8    0    1
 -2       320       335       444      1775      2154      2155
 -1       756    8    0    1
 -2       291       464       441      2149      2156      2090
 -1       757    8    0    1
 -2       335       265       418      1774      2021      2157
 -1       758    8    0    1
 -2       292       336       464      1777      2158      2148
 -1       759    8    0    1
 -2       181       180       323      1312      2150      2159
 -1       760    8    0    1
 -2       294       443       440      2098      2160      2087
 -1       761    8    0    1
 -2       337       181       323      1780      2159      2161
 -1       762    8    0    1
 -2       229       385       334      1922      2162      2163
 -1       763    8    0    1
 -2       228       229       334      1457      2163      2147
 -1       764    8    0    1
 -2       260       415       414      2012      2164      2008
 -1       765    8    0    1
 -2       415       261       416      2011      2014      2165
 -1       766    8    0    1
 -2       262       299       416      2016      2166      2013
 -1       767    8    0    1
 -2       297       264       445      2153      2167      2101
 -1       768    8    0    1
 -2       264       320       445      1703      2168      2167
 -1       769    8    0    1
 -2       445       320       444      2168      2155      2169
 -1       770    8    0    1
 -2       293       440       336      2088      2170      1776
 -1       771    8    0    1
 -2       290       321       382      1709      2151      2171
 -1       772    8    0    1
 -2       319       441       463      2091      2172      2144
 -1       773    8    0    1
 -2       461       317       462      2140      2143      2173
 -1       774    8    0    1
 -2       460       316       461      2138      2141      2174
 -1       775    8    0    1
 -2       459       315       460      2136      2139      2175
 -1       776    8    0    1
 -2       458       314       465      2134      2176      2177
 -1       777    8    0    1
 -2       314       459       465      2137      2178      2176
 -1       778    8    0    1
 -2       457       313       458      2132      2135      2179
 -1       779    8    0    1
 -2       455       311       456      2127      2131      2180
 -1       780    8    0    1
 -2       453       309       454      2122      2126      2181
 -1       781    8    0    1
 -2       451       307       452      2117      2121      2182
 -1       782    8    0    1
 -2       449       305       450      2112      2116      2183
 -1       783    8    0    1
 -2       447       303       448      2107      2111      2184
 -1       784    8    0    1
 -2       290       382       439      2171      2185      2084
 -1       785    8    0    1
 -2       443       295       444      2097      2100      2186
 -1       786    8    0    1
 -2       444       296       445      2099      2102      2169
 -1       787    8    0    1
 -2       299       300       416      1716      2104      2166
 -1       788    8    0    1
 -2       456       312       457      2130      2133      2187
 -1       789    8    0    1
 -2       463       441       466      2172      2188      2189
 -1       790    8    0    1
 -2       325       326       467      1749      2190      2191
 -1       791    8    0    1
 -2       324       325       468      1746      2192      2193
 -1       792    8    0    1
 -2       325       467       468      2191      2194      2192
 -1       793    8    0    1
 -2       327       328       469      1755      2195      2196
 -1       794    8    0    1
 -2       328       329       470      1758      2197      2198
 -1       795    8    0    1
 -2       328       470       469      2198      2199      2195
 -1       796    8    0    1
 -2       329       330       471      1761      2200      2201
 -1       797    8    0    1
 -2       329       471       470      2201      2202      2197
 -1       798    8    0    1
 -2       330       331       472      1764      2203      2204
 -1       799    8    0    1
 -2       330       472       471      2204      2205      2200
 -1       800    8    0    1
 -2       331       332       473      1767      2206      2207
 -1       801    8    0    1
 -2       331       473       472      2207      2208      2203
 -1       802    8    0    1
 -2       332       333       474      1770      2209      2210
 -1       803    8    0    1
 -2       332       474       473      2210      2211      2206
 -1       804    8    0    1
 -2       333       334       475      1773      2212      2213
 -1       805    8    0    1
 -2       474       333       475      2209      2213      2214
 -1       806    8    0    1
 -2       334       385       475      2162      2215      2212
 -1       807    8    0    1
 -2       441       464       476      2156      2216      2217
 -1       808    8    0    1
 -2       338       337       477      1784      2218      2219
 -1       809    8    0    1
 -2       444       335       443      2154      2220      2186
 -1       810    8    0    1
 -2       339       338       478      1787      2221      2222
 -1       811    8    0    1
 -2       338       477       478      2219      2223      2221
 -1       812    8    0    1
 -2       340       339       479      1790      2224      2225
 -1       813    8    0    1
 -2       339       478       479      2222      2226      2224
 -1       814    8    0    1
 -2       341       340       480      1793      2227      2228
 -1       815    8    0    1
 -2       340       479       480      2225      2229      2227
 -1       816    8    0    1
 -2       342       341       481      1796      2230      2231
 -1       817    8    0    1
 -2       341       480       481      2228      2232      2230
 -1       818    8    0    1
 -2       343       342       482      1799      2233      2234
 -1       819    8    0    1
 -2       342       481       482      2231      2235      2233
 -1       820    8    0    1
 -2       344       343       483      1802      2236      2237
 -1       821    8    0    1
 -2       343       482       483      2234      2238      2236
 -1       822    8    0    1
 -2       345       344       484      1805      2239      2240
 -1       823    8    0    1
 -2       344       483       484      2237      2241      2239
 -1       824    8    0    1
 -2       346       345       485      1808      2242      2243
 -1       825    8    0    1
 -2       345       484       485      2240      2244      2242
 -1       826    8    0    1
 -2       347       346       486      1811      2245      2246
 -1       827    8    0    1
 -2       346       485       486      2243      2247      2245
 -1       828    8    0    1
 -2       348       347       487      1814      2248      2249
 -1       829    8    0    1
 -2       347       486       487      2246      2250      2248
 -1       830    8    0    1
 -2       349       348       488      1817      2251      2252
 -1       831    8    0    1
 -2       348       487       488      2249      2253      2251
 -1       832    8    0    1
 -2       350       349       489      1820      2254      2255
 -1       833    8    0    1
 -2       349       488       489      2252      2256      2254
 -1       834    8    0    1
 -2       351       350       490      1823      2257      2258
 -1       835    8    0    1
 -2       350       489       490      2255      2259      2257
 -1       836    8    0    1
 -2       352       351       491      1826      2260      2261
 -1       837    8    0    1
 -2       351       490       491      2258      2262      2260
 -1       838    8    0    1
 -2       353       352       492      1829      2263      2264
 -1       839    8    0    1
 -2       352       491       492      2261      2265      2263
 -1       840    8    0    1
 -2       354       353       493      1832      2266      2267
 -1       841    8    0    1
 -2       353       492       493      2264      2268      2266
 -1       842    8    0    1
 -2       355       354       494      1835      2269      2270
 -1       843    8    0    1
 -2       354       493       494      2267      2271      2269
 -1       844    8    0    1
 -2       356       355       495      1838      2272      2273
 -1       845    8    0    1
 -2       355       494       495      2270      2274      2272
 -1       846    8    0    1
 -2       357       356       496      1841      2275      2276
 -1       847    8    0    1
 -2       356       495       496      2273      2277      2275
 -1       848    8    0    1
 -2       358       357       497      1844      2278      2279
 -1       849    8    0    1
 -2       357       496       497      2276      2280      2278
 -1       850    8    0    1
 -2       359       358       498      1847      2281      2282
 -1       851    8    0    1
 -2       358       497       498      2279      2283      2281
 -1       852    8    0    1
 -2       360       359       499      1850      2284      2285
 -1       853    8    0    1
 -2       359       498       499      2282      2286      2284
 -1       854    8    0    1
 -2       361       360       500      1853      2287      2288
 -1       855    8    0    1
 -2       360       499       500      2285      2289      2287
 -1       856    8    0    1
 -2       362       361       501      1856      2290      2291
 -1       857    8    0    1
 -2       361       500       501      2288      2292      2290
 -1       858    8    0    1
 -2       363       362       502      1859      2293      2294
 -1       859    8    0    1
 -2       362       501       502      2291      2295      2293
 -1       860    8    0    1
 -2       364       363       503      1862      2296      2297
 -1       861    8    0    1
 -2       363       502       503      2294      2298      2296
 -1       862    8    0    1
 -2       365       364       504      1865      2299      2300
 -1       863    8    0    1
 -2       364       503       504      2297      2301      2299
 -1       864    8    0    1
 -2       366       365       505      1868      2302      2303
 -1       865    8    0    1
 -2       365       504       505      2300      2304      2302
 -1       866    8    0    1
 -2       367       366       506      1871      2305      2306
 -1       867    8    0    1
 -2       366       505       506      2303      2307      2305
 -1       868    8    0    1
 -2       368       367       507      1874      2308      2309
 -1       869    8    0    1
 -2       367       506       507      2306      2310      2308
 -1       870    8    0    1
 -2       369       368       508      1877      2311      2312
 -1       871    8    0    1
 -2       368       507       508      2309      2313      2311
 -1       872    8    0    1
 -2       370       369       509      1880      2314      2315
 -1       873    8    0    1
 -2       369       508       509      2312      2316      2314
 -1       874    8    0    1
 -2       371       370       510      1883      2317      2318
 -1       875    8    0    1
 -2       370       509       510      2315      2319      2317
 -1       876    8    0    1
 -2       372       371       511      1886      2320      2321
 -1       877    8    0    1
 -2       371       510       511      2318      2322      2320
 -1       878    8    0    1
 -2       373       372       512      1889      2323      2324
 -1       879    8    0    1
 -2       372       511       512      2321      2325      2323
 -1       880    8    0    1
 -2       374       373       513      1892      2326      2327
 -1       881    8    0    1
 -2       373       512       513      2324      2328      2326
 -1       882    8    0    1
 -2       375       374       514      1895      2329      2330
 -1       883    8    0    1
 -2       374       513       514      2327      2331      2329
 -1       884    8    0    1
 -2       376       375       515      1898      2332      2333
 -1       885    8    0    1
 -2       375       514       515      2330      2334      2332
 -1       886    8    0    1
 -2       377       376       516      1901      2335      2336
 -1       887    8    0    1
 -2       376       515       516      2333      2337      2335
 -1       888    8    0    1
 -2       378       377       517      1904      2338      2339
 -1       889    8    0    1
 -2       377       516       517      2336      2340      2338
 -1       890    8    0    1
 -2       379       378       518      1907      2341      2342
 -1       891    8    0    1
 -2       378       517       518      2339      2343      2341
 -1       892    8    0    1
 -2       380       379       519      1910      2344      2345
 -1       893    8    0    1
 -2       379       518       519      2342      2346      2344
 -1       894    8    0    1
 -2       381       380       520      1913      2347      2348
 -1       895    8    0    1
 -2       380       519       520      2345      2349      2347
 -1       896    8    0    1
 -2       382       381       521      1916      2350      2351
 -1       897    8    0    1
 -2       439       382       521      2185      2351      2352
 -1       898    8    0    1
 -2       381       520       521      2348      2353      2350
 -1       899    8    0    1
 -2       419       420       522      2028      2354      2355
 -1       900    8    0    1
 -2       384       386       523      1926      2356      2357
 -1       901    8    0    1
 -2       387       388       524      1932      2358      2359
 -1       902    8    0    1
 -2       388       389       525      1935      2360      2361
 -1       903    8    0    1
 -2       388       525       524      2361      2362      2358
 -1       904    8    0    1
 -2       389       390       526      1938      2363      2364
 -1       905    8    0    1
 -2       389       526       525      2364      2365      2360
 -1       906    8    0    1
 -2       390       391       527      1941      2366      2367
 -1       907    8    0    1
 -2       390       527       526      2367      2368      2363
 -1       908    8    0    1
 -2       391       392       528      1944      2369      2370
 -1       909    8    0    1
 -2       391       528       527      2370      2371      2366
 -1       910    8    0    1
 -2       392       393       529      1947      2372      2373
 -1       911    8    0    1
 -2       392       529       528      2373      2374      2369
 -1       912    8    0    1
 -2       393       394       530      1950      2375      2376
 -1       913    8    0    1
 -2       393       530       529      2376      2377      2372
 -1       914    8    0    1
 -2       394       395       531      1953      2378      2379
 -1       915    8    0    1
 -2       394       531       530      2379      2380      2375
 -1       916    8    0    1
 -2       395       396       532      1956      2381      2382
 -1       917    8    0    1
 -2       395       532       531      2382      2383      2378
 -1       918    8    0    1
 -2       396       397       533      1959      2384      2385
 -1       919    8    0    1
 -2       396       533       532      2385      2386      2381
 -1       920    8    0    1
 -2       397       398       534      1962      2387      2388
 -1       921    8    0    1
 -2       397       534       533      2388      2389      2384
 -1       922    8    0    1
 -2       398       399       535      1965      2390      2391
 -1       923    8    0    1
 -2       398       535       534      2391      2392      2387
 -1       924    8    0    1
 -2       399       400       536      1968      2393      2394
 -1       925    8    0    1
 -2       399       536       535      2394      2395      2390
 -1       926    8    0    1
 -2       400       401       537      1971      2396      2397
 -1       927    8    0    1
 -2       400       537       536      2397      2398      2393
 -1       928    8    0    1
 -2       401       402       538      1974      2399      2400
 -1       929    8    0    1
 -2       401       538       537      2400      2401      2396
 -1       930    8    0    1
 -2       402       403       539      1977      2402      2403
 -1       931    8    0    1
 -2       402       539       538      2403      2404      2399
 -1       932    8    0    1
 -2       403       404       540      1980      2405      2406
 -1       933    8    0    1
 -2       403       540       539      2406      2407      2402
 -1       934    8    0    1
 -2       404       405       541      1983      2408      2409
 -1       935    8    0    1
 -2       404       541       540      2409      2410      2405
 -1       936    8    0    1
 -2       405       406       542      1986      2411      2412
 -1       937    8    0    1
 -2       405       542       541      2412      2413      2408
 -1       938    8    0    1
 -2       406       407       543      1989      2414      2415
 -1       939    8    0    1
 -2       406       543       542      2415      2416      2411
 -1       940    8    0    1
 -2       407       408       544      1992      2417      2418
 -1       941    8    0    1
 -2       407       544       543      2418      2419      2414
 -1       942    8    0    1
 -2       408       409       545      1995      2420      2421
 -1       943    8    0    1
 -2       408       545       544      2421      2422      2417
 -1       944    8    0    1
 -2       409       410       546      1998      2423      2424
 -1       945    8    0    1
 -2       409       546       545      2424      2425      2420
 -1       946    8    0    1
 -2       410       411       547      2001      2426      2427
 -1       947    8    0    1
 -2       410       547       546      2427      2428      2423
 -1       948    8    0    1
 -2       411       412       548      2004      2429      2430
 -1       949    8    0    1
 -2       411       548       547      2430      2431      2426
 -1       950    8    0    1
 -2       412       413       549      2007      2432      2433
 -1       951    8    0    1
 -2       412       549       548      2433      2434      2429
 -1       952    8    0    1
 -2       413       414       550      2010      2435      2436
 -1       953    8    0    1
 -2       413       550       549      2436      2437      2432
 -1       954    8    0    1
 -2       456       457       551      2187      2438      2439
 -1       955    8    0    1
 -2       383       419       552      2025      2440      2441
 -1       956    8    0    1
 -2       419       522       552      2355      2442      2440
 -1       957    8    0    1
 -2       418       417       553      2022      2443      2444
 -1       958    8    0    1
 -2       420       421       554      2031      2445      2446
 -1       959    8    0    1
 -2       420       554       522      2446      2447      2354
 -1       960    8    0    1
 -2       421       422       555      2034      2448      2449
 -1       961    8    0    1
 -2       421       555       554      2449      2450      2445
 -1       962    8    0    1
 -2       422       423       556      2037      2451      2452
 -1       963    8    0    1
 -2       422       556       555      2452      2453      2448
 -1       964    8    0    1
 -2       423       424       557      2040      2454      2455
 -1       965    8    0    1
 -2       423       557       556      2455      2456      2451
 -1       966    8    0    1
 -2       425       426       558      2046      2457      2458
 -1       967    8    0    1
 -2       426       428       558      2052      2459      2457
 -1       968    8    0    1
 -2       429       430       559      2059      2460      2461
 -1       969    8    0    1
 -2       430       431       560      2062      2462      2463
 -1       970    8    0    1
 -2       430       560       559      2463      2464      2460
 -1       971    8    0    1
 -2       427       429       561      2056      2465      2466
 -1       972    8    0    1
 -2       429       559       561      2461      2467      2465
 -1       973    8    0    1
 -2       431       432       562      2065      2468      2469
 -1       974    8    0    1
 -2       431       562       560      2469      2470      2462
 -1       975    8    0    1
 -2       432       433       563      2068      2471      2472
 -1       976    8    0    1
 -2       432       563       562      2472      2473      2468
 -1       977    8    0    1
 -2       433       434       564      2071      2474      2475
 -1       978    8    0    1
 -2       433       564       563      2475      2476      2471
 -1       979    8    0    1
 -2       434       435       565      2074      2477      2478
 -1       980    8    0    1
 -2       434       565       564      2478      2479      2474
 -1       981    8    0    1
 -2       435       436       566      2077      2480      2481
 -1       982    8    0    1
 -2       435       566       565      2481      2482      2477
 -1       983    8    0    1
 -2       436       437       567      2080      2483      2484
 -1       984    8    0    1
 -2       436       567       566      2484      2485      2480
 -1       985    8    0    1
 -2       437       438       568      2083      2486      2487
 -1       986    8    0    1
 -2       437       568       567      2487      2488      2483
 -1       987    8    0    1
 -2       438       439       521      2086      2352      2489
 -1       988    8    0    1
 -2       337       323       569      2161      2490      2491
 -1       989    8    0    1
 -2       477       337       569      2218      2491      2492
 -1       990    8    0    1
 -2       323       322       569      1741      2493      2490
 -1       991    8    0    1
 -2       461       462       570      2173      2494      2495
 -1       992    8    0    1
 -2       416       301       415      2103      2496      2165
 -1       993    8    0    1
 -2       417       383       571      2019      2497      2498
 -1       994    8    0    1
 -2       383       552       571      2441      2499      2497
 -1       995    8    0    1
 -2       385       384       572      1923      2500      2501
 -1       996    8    0    1
 -2       475       385       572      2215      2501      2502
 -1       997    8    0    1
 -2       384       523       572      2357      2503      2500
 -1       998    8    0    1
 -2       386       387       573      1929      2504      2505
 -1       999    8    0    1
 -2       387       524       573      2359      2506      2504
 -1      1000    8    0    1
 -2       326       327       574      1752      2507      2508
 -1      1001    8    0    1
 -2       467       326       574      2190      2508      2509
 -1      1002    8    0    1
 -2       327       469       574      2196      2510      2507
 -1      1003    8    0    1
 -2       464       336       575      2158      2511      2512
 -1      1004    8    0    1
 -2       336       440       553      2170      2513      2514
 -1      1005    8    0    1
 -2       446       447       576      2109      2515      2516
 -1      1006    8    0    1
 -2       447       448       577      2184      2517      2518
 -1      1007    8    0    1
 -2       448       449       578      2114      2519      2520
 -1      1008    8    0    1
 -2       449       450       579      2183      2521      2522
 -1      1009    8    0    1
 -2       450       451       580      2119      2523      2524
 -1      1010    8    0    1
 -2       451       452       581      2182      2525      2526
 -1      1011    8    0    1
 -2       452       453       582      2124      2527      2528
 -1      1012    8    0    1
 -2       453       454       583      2181      2529      2530
 -1      1013    8    0    1
 -2       454       455       584      2129      2531      2532
 -1      1014    8    0    1
 -2       455       456       585      2180      2533      2534
 -1      1015    8    0    1
 -2       584       455       585      2531      2534      2535
 -1      1016    8    0    1
 -2       456       551       585      2439      2536      2533
 -1      1017    8    0    1
 -2       457       458       586      2179      2537      2538
 -1      1018    8    0    1
 -2       459       460       587      2175      2539      2540
 -1      1019    8    0    1
 -2       460       461       588      2174      2541      2542
 -1      1020    8    0    1
 -2       462       463       589      2146      2543      2544
 -1      1021    8    0    1
 -2       415       301       446      2496      2106      2545
 -1      1022    8    0    1
 -2       464       575       476      2512      2546      2216
 -1      1023    8    0    1
 -2       324       468       590      2193      2547      2548
 -1      1024    8    0    1
 -2       324       590       442      2548      2549      2096
 -1      1025    8    0    1
 -2       570       462       589      2494      2544      2550
 -1      1026    8    0    1
 -2       441       476       466      2217      2551      2188
 -1      1027    8    0    1
 -2       523       386       573      2356      2505      2552
 -1      1028    8    0    1
 -2       457       586       551      2538      2553      2438
 -1      1029    8    0    1
 -2       550       414       577      2435      2554      2555
 -1      1030    8    0    1
 -2       417       571       553      2498      2556      2443
 -1      1031    8    0    1
 -2       425       558       424      2458      2557      2043
 -1      1032    8    0    1
 -2       557       424       558      2454      2557      2558
 -1      1033    8    0    1
 -2       428       427       558      2053      2559      2459
 -1      1034    8    0    1
 -2       438       521       568      2489      2560      2486
 -1      1035    8    0    1
 -2       578       449       579      2519      2522      2561
 -1      1036    8    0    1
 -2       569       322       442      2493      2095      2562
 -1      1037    8    0    1
 -2       418       553       440      2444      2513      2563
 -1      1038    8    0    1
 -2       577       448       578      2517      2520      2564
 -1      1039    8    0    1
 -2       414       415       576      2164      2565      2566
 -1      1040    8    0    1
 -2       589       463       466      2543      2189      2567
 -1      1041    8    0    1
 -2       588       461       570      2541      2495      2568
 -1      1042    8    0    1
 -2       465       459       591      2178      2569      2570
 -1      1043    8    0    1
 -2       459       587       591      2540      2571      2569
 -1      1044    8    0    1
 -2       586       458       592      2537      2572      2573
 -1      1045    8    0    1
 -2       458       465       592      2177      2574      2572
 -1      1046    8    0    1
 -2       583       454       584      2529      2532      2575
 -1      1047    8    0    1
 -2       582       453       583      2527      2530      2576
 -1      1048    8    0    1
 -2       581       452       593      2525      2577      2578
 -1      1049    8    0    1
 -2       452       582       593      2528      2579      2577
 -1      1050    8    0    1
 -2       580       451       581      2523      2526      2580
 -1      1051    8    0    1
 -2       579       450       580      2521      2524      2581
 -1      1052    8    0    1
 -2       576       447       577      2515      2518      2582
 -1      1053    8    0    1
 -2       336       553       575      2514      2583      2511
 -1      1054    8    0    1
 -2       446       576       415      2516      2565      2545
 -1      1055    8    0    1
 -2       577       414       576      2554      2566      2582
 -1      1056    8    0    1
 -2       558       427       561      2559      2466      2584
 -1      1057    8    0    1
 -2       418       440       443      2563      2160      2585
 -1      1058    8    0    1
 -2       587       460       588      2539      2542      2586
 -1      1059    8    0    1
 -2       470       471       594      2202      2587      2588
 -1      1060    8    0    1
 -2       469       470       595      2199      2589      2590
 -1      1061    8    0    1
 -2       470       594       595      2588      2591      2589
 -1      1062    8    0    1
 -2       472       473       596      2208      2592      2593
 -1      1063    8    0    1
 -2       473       474       597      2211      2594      2595
 -1      1064    8    0    1
 -2       473       597       596      2595      2596      2592
 -1      1065    8    0    1
 -2       474       475       598      2214      2597      2598
 -1      1066    8    0    1
 -2       597       474       598      2594      2598      2599
 -1      1067    8    0    1
 -2       475       572       598      2502      2600      2597
 -1      1068    8    0    1
 -2       573       524       599      2506      2601      2602
 -1      1069    8    0    1
 -2       477       569       600      2492      2603      2604
 -1      1070    8    0    1
 -2       443       335       418      2220      2157      2585
 -1      1071    8    0    1
 -2       478       477       601      2223      2605      2606
 -1      1072    8    0    1
 -2       477       600       601      2604      2607      2605
 -1      1073    8    0    1
 -2       479       478       602      2226      2608      2609
 -1      1074    8    0    1
 -2       478       601       602      2606      2610      2608
 -1      1075    8    0    1
 -2       480       479       603      2229      2611      2612
 -1      1076    8    0    1
 -2       479       602       603      2609      2613      2611
 -1      1077    8    0    1
 -2       481       480       604      2232      2614      2615
 -1      1078    8    0    1
 -2       480       603       604      2612      2616      2614
 -1      1079    8    0    1
 -2       482       481       605      2235      2617      2618
 -1      1080    8    0    1
 -2       481       604       605      2615      2619      2617
 -1      1081    8    0    1
 -2       483       482       606      2238      2620      2621
 -1      1082    8    0    1
 -2       482       605       606      2618      2622      2620
 -1      1083    8    0    1
 -2       484       483       607      2241      2623      2624
 -1      1084    8    0    1
 -2       483       606       607      2621      2625      2623
 -1      1085    8    0    1
 -2       485       484       608      2244      2626      2627
 -1      1086    8    0    1
 -2       484       607       608      2624      2628      2626
 -1      1087    8    0    1
 -2       486       485       609      2247      2629      2630
 -1      1088    8    0    1
 -2       485       608       609      2627      2631      2629
 -1      1089    8    0    1
 -2       487       486       610      2250      2632      2633
 -1      1090    8    0    1
 -2       486       609       610      2630      2634      2632
 -1      1091    8    0    1
 -2       488       487       611      2253      2635      2636
 -1      1092    8    0    1
 -2       487       610       611      2633      2637      2635
 -1      1093    8    0    1
 -2       489       488       612      2256      2638      2639
 -1      1094    8    0    1
 -2       488       611       612      2636      2640      2638
 -1      1095    8    0    1
 -2       490       489       613      2259      2641      2642
 -1      1096    8    0    1
 -2       489       612       613      2639      2643      2641
 -1      1097    8    0    1
 -2       491       490       614      2262      2644      2645
 -1      1098    8    0    1
 -2       490       613       614      2642      2646      2644
 -1      1099    8    0    1
 -2       492       491       615      2265      2647      2648
 -1      1100    8    0    1
 -2       491       614       615      2645      2649      2647
 -1      1101    8    0    1
 -2       493       492       616      2268      2650      2651
 -1      1102    8    0    1
 -2       492       615       616      2648      2652      2650
 -1      1103    8    0    1
 -2       494       493       617      2271      2653      2654
 -1      1104    8    0    1
 -2       493       616       617      2651      2655      2653
 -1      1105    8    0    1
 -2       495       494       618      2274      2656      2657
 -1      1106    8    0    1
 -2       494       617       618      2654      2658      2656
 -1      1107    8    0    1
 -2       496       495       619      2277      2659      2660
 -1      1108    8    0    1
 -2       495       618       619      2657      2661      2659
 -1      1109    8    0    1
 -2       497       496       620      2280      2662      2663
 -1      1110    8    0    1
 -2       496       619       620      2660      2664      2662
 -1      1111    8    0    1
 -2       498       497       621      2283      2665      2666
 -1      1112    8    0    1
 -2       497       620       621      2663      2667      2665
 -1      1113    8    0    1
 -2       499       498       622      2286      2668      2669
 -1      1114    8    0    1
 -2       498       621       622      2666      2670      2668
 -1      1115    8    0    1
 -2       500       499       623      2289      2671      2672
 -1      1116    8    0    1
 -2       499       622       623      2669      2673      2671
 -1      1117    8    0    1
 -2       501       500       624      2292      2674      2675
 -1      1118    8    0    1
 -2       500       623       624      2672      2676      2674
 -1      1119    8    0    1
 -2       502       501       625      2295      2677      2678
 -1      1120    8    0    1
 -2       501       624       625      2675      2679      2677
 -1      1121    8    0    1
 -2       503       502       626      2298      2680      2681
 -1      1122    8    0    1
 -2       502       625       626      2678      2682      2680
 -1      1123    8    0    1
 -2       504       503       627      2301      2683      2684
 -1      1124    8    0    1
 -2       503       626       627      2681      2685      2683
 -1      1125    8    0    1
 -2       505       504       628      2304      2686      2687
 -1      1126    8    0    1
 -2       504       627       628      2684      2688      2686
 -1      1127    8    0    1
 -2       506       505       629      2307      2689      2690
 -1      1128    8    0    1
 -2       505       628       629      2687      2691      2689
 -1      1129    8    0    1
 -2       507       506       630      2310      2692      2693
 -1      1130    8    0    1
 -2       506       629       630      2690      2694      2692
 -1      1131    8    0    1
 -2       508       507       631      2313      2695      2696
 -1      1132    8    0    1
 -2       507       630       631      2693      2697      2695
 -1      1133    8    0    1
 -2       509       508       632      2316      2698      2699
 -1      1134    8    0    1
 -2       508       631       632      2696      2700      2698
 -1      1135    8    0    1
 -2       510       509       633      2319      2701      2702
 -1      1136    8    0    1
 -2       509       632       633      2699      2703      2701
 -1      1137    8    0    1
 -2       511       510       634      2322      2704      2705
 -1      1138    8    0    1
 -2       510       633       634      2702      2706      2704
 -1      1139    8    0    1
 -2       512       511       635      2325      2707      2708
 -1      1140    8    0    1
 -2       511       634       635      2705      2709      2707
 -1      1141    8    0    1
 -2       513       512       636      2328      2710      2711
 -1      1142    8    0    1
 -2       512       635       636      2708      2712      2710
 -1      1143    8    0    1
 -2       514       513       637      2331      2713      2714
 -1      1144    8    0    1
 -2       513       636       637      2711      2715      2713
 -1      1145    8    0    1
 -2       515       514       638      2334      2716      2717
 -1      1146    8    0    1
 -2       514       637       638      2714      2718      2716
 -1      1147    8    0    1
 -2       516       515       639      2337      2719      2720
 -1      1148    8    0    1
 -2       515       638       639      2717      2721      2719
 -1      1149    8    0    1
 -2       517       516       640      2340      2722      2723
 -1      1150    8    0    1
 -2       516       639       640      2720      2724      2722
 -1      1151    8    0    1
 -2       518       517       641      2343      2725      2726
 -1      1152    8    0    1
 -2       517       640       641      2723      2727      2725
 -1      1153    8    0    1
 -2       519       518       642      2346      2728      2729
 -1      1154    8    0    1
 -2       518       641       642      2726      2730      2728
 -1      1155    8    0    1
 -2       520       519       643      2349      2731      2732
 -1      1156    8    0    1
 -2       519       642       643      2729      2733      2731
 -1      1157    8    0    1
 -2       521       520       568      2353      2734      2560
 -1      1158    8    0    1
 -2       551       586       644      2553      2735      2736
 -1      1159    8    0    1
 -2       524       525       645      2362      2737      2738
 -1      1160    8    0    1
 -2       524       645       599      2738      2739      2601
 -1      1161    8    0    1
 -2       527       528       646      2371      2740      2741
 -1      1162    8    0    1
 -2       528       529       647      2374      2742      2743
 -1      1163    8    0    1
 -2       528       647       646      2743      2744      2740
 -1      1164    8    0    1
 -2       529       530       648      2377      2745      2746
 -1      1165    8    0    1
 -2       529       648       647      2746      2747      2742
 -1      1166    8    0    1
 -2       530       531       649      2380      2748      2749
 -1      1167    8    0    1
 -2       530       649       648      2749      2750      2745
 -1      1168    8    0    1
 -2       531       532       650      2383      2751      2752
 -1      1169    8    0    1
 -2       531       650       649      2752      2753      2748
 -1      1170    8    0    1
 -2       532       533       651      2386      2754      2755
 -1      1171    8    0    1
 -2       532       651       650      2755      2756      2751
 -1      1172    8    0    1
 -2       533       534       652      2389      2757      2758
 -1      1173    8    0    1
 -2       533       652       651      2758      2759      2754
 -1      1174    8    0    1
 -2       534       535       653      2392      2760      2761
 -1      1175    8    0    1
 -2       534       653       652      2761      2762      2757
 -1      1176    8    0    1
 -2       535       536       654      2395      2763      2764
 -1      1177    8    0    1
 -2       535       654       653      2764      2765      2760
 -1      1178    8    0    1
 -2       536       537       655      2398      2766      2767
 -1      1179    8    0    1
 -2       536       655       654      2767      2768      2763
 -1      1180    8    0    1
 -2       537       538       656      2401      2769      2770
 -1      1181    8    0    1
 -2       537       656       655      2770      2771      2766
 -1      1182    8    0    1
 -2       538       539       657      2404      2772      2773
 -1      1183    8    0    1
 -2       538       657       656      2773      2774      2769
 -1      1184    8    0    1
 -2       539       540       658      2407      2775      2776
 -1      1185    8    0    1
 -2       539       658       657      2776      2777      2772
 -1      1186    8    0    1
 -2       540       541       659      2410      2778      2779
 -1      1187    8    0    1
 -2       540       659       658      2779      2780      2775
 -1      1188    8    0    1
 -2       541       542       660      2413      2781      2782
 -1      1189    8    0    1
 -2       541       660       659      2782      2783      2778
 -1      1190    8    0    1
 -2       542       543       661      2416      2784      2785
 -1      1191    8    0    1
 -2       542       661       660      2785      2786      2781
 -1      1192    8    0    1
 -2       543       544       662      2419      2787      2788
 -1      1193    8    0    1
 -2       543       662       661      2788      2789      2784
 -1      1194    8    0    1
 -2       544       545       663      2422      2790      2791
 -1      1195    8    0    1
 -2       544       663       662      2791      2792      2787
 -1      1196    8    0    1
 -2       545       546       664      2425      2793      2794
 -1      1197    8    0    1
 -2       545       664       663      2794      2795      2790
 -1      1198    8    0    1
 -2       546       547       665      2428      2796      2797
 -1      1199    8    0    1
 -2       546       665       664      2797      2798      2793
 -1      1200    8    0    1
 -2       547       548       666      2431      2799      2800
 -1      1201    8    0    1
 -2       547       666       665      2800      2801      2796
 -1      1202    8    0    1
 -2       548       549       667      2434      2802      2803
 -1      1203    8    0    1
 -2       548       667       666      2803      2804      2799
 -1      1204    8    0    1
 -2       553       571       575      2556      2805      2583
 -1      1205    8    0    1
 -2       550       577       578      2555      2564      2806
 -1      1206    8    0    1
 -2       522       554       668      2447      2807      2808
 -1      1207    8    0    1
 -2       556       557       669      2456      2809      2810
 -1      1208    8    0    1
 -2       557       558       561      2558      2584      2811
 -1      1209    8    0    1
 -2       559       560       670      2464      2812      2813
 -1      1210    8    0    1
 -2       561       559       671      2467      2814      2815
 -1      1211    8    0    1
 -2       559       670       671      2813      2816      2814
 -1      1212    8    0    1
 -2       560       562       672      2470      2817      2818
 -1      1213    8    0    1
 -2       560       672       670      2818      2819      2812
 -1      1214    8    0    1
 -2       563       564       673      2476      2820      2821
 -1      1215    8    0    1
 -2       564       565       674      2479      2822      2823
 -1      1216    8    0    1
 -2       564       674       673      2823      2824      2820
 -1      1217    8    0    1
 -2       565       566       675      2482      2825      2826
 -1      1218    8    0    1
 -2       565       675       674      2826      2827      2822
 -1      1219    8    0    1
 -2       566       567       676      2485      2828      2829
 -1      1220    8    0    1
 -2       566       676       675      2829      2830      2825
 -1      1221    8    0    1
 -2       567       568       677      2488      2831      2832
 -1      1222    8    0    1
 -2       567       677       676      2832      2833      2828
 -1      1223    8    0    1
 -2       578       579       678      2561      2834      2835
 -1      1224    8    0    1
 -2       589       466       679      2567      2836      2837
 -1      1225    8    0    1
 -2       554       555       680      2450      2838      2839
 -1      1226    8    0    1
 -2       554       680       668      2839      2840      2807
 -1      1227    8    0    1
 -2       571       552       681      2499      2841      2842
 -1      1228    8    0    1
 -2       570       589       682      2550      2843      2844
 -1      1229    8    0    1
 -2       471       472       683      2205      2845      2846
 -1      1230    8    0    1
 -2       594       471       683      2587      2846      2847
 -1      1231    8    0    1
 -2       472       596       683      2593      2848      2845
 -1      1232    8    0    1
 -2       562       563       684      2473      2849      2850
 -1      1233    8    0    1
 -2       672       562       684      2817      2850      2851
 -1      1234    8    0    1
 -2       563       673       684      2821      2852      2849
 -1      1235    8    0    1
 -2       555       556       685      2453      2853      2854
 -1      1236    8    0    1
 -2       680       555       685      2838      2854      2855
 -1      1237    8    0    1
 -2       556       669       685      2810      2856      2853
 -1      1238    8    0    1
 -2       526       527       686      2368      2857      2858
 -1      1239    8    0    1
 -2       527       646       686      2741      2859      2857
 -1      1240    8    0    1
 -2       552       522       687      2442      2860      2861
 -1      1241    8    0    1
 -2       522       668       687      2808      2862      2860
 -1      1242    8    0    1
 -2       525       526       688      2365      2863      2864
 -1      1243    8    0    1
 -2       645       525       688      2737      2864      2865
 -1      1244    8    0    1
 -2       526       686       688      2858      2866      2863
 -1      1245    8    0    1
 -2       468       467       689      2194      2867      2868
 -1      1246    8    0    1
 -2       569       442       600      2562      2869      2603
 -1      1247    8    0    1
 -2       579       580       690      2581      2870      2871
 -1      1248    8    0    1
 -2       580       581       691      2580      2872      2873
 -1      1249    8    0    1
 -2       580       691       690      2873      2874      2870
 -1      1250    8    0    1
 -2       582       583       692      2576      2875      2876
 -1      1251    8    0    1
 -2       523       573       693      2552      2877      2878
 -1      1252    8    0    1
 -2       573       599       693      2602      2879      2877
 -1      1253    8    0    1
 -2       588       570       694      2568      2880      2881
 -1      1254    8    0    1
 -2       583       584       695      2575      2882      2883
 -1      1255    8    0    1
 -2       583       695       692      2883      2884      2875
 -1      1256    8    0    1
 -2       466       476       696      2551      2885      2886
 -1      1257    8    0    1
 -2       466       696       679      2886      2887      2836
 -1      1258    8    0    1
 -2       587       588       697      2586      2888      2889
 -1      1259    8    0    1
 -2       575       571       698      2805      2890      2891
 -1      1260    8    0    1
 -2       476       575       698      2546      2891      2892
 -1      1261    8    0    1
 -2       571       681       698      2842      2893      2890
 -1      1262    8    0    1
 -2       557       561       669      2811      2894      2809
 -1      1263    8    0    1
 -2       590       468       699      2547      2895      2896
 -1      1264    8    0    1
 -2       468       689       699      2868      2897      2895
 -1      1265    8    0    1
 -2       469       595       700      2590      2898      2899
 -1      1266    8    0    1
 -2       469       700       574      2899      2900      2510
 -1      1267    8    0    1
 -2       442       590       600      2549      2901      2869
 -1      1268    8    0    1
 -2       568       520       643      2734      2732      2902
 -1      1269    8    0    1
 -2       644       586       701      2735      2903      2904
 -1      1270    8    0    1
 -2       586       592       701      2573      2905      2903
 -1      1271    8    0    1
 -2       467       574       702      2509      2906      2907
 -1      1272    8    0    1
 -2       689       467       702      2867      2907      2908
 -1      1273    8    0    1
 -2       574       700       702      2900      2909      2906
 -1      1274    8    0    1
 -2       667       549       678      2802      2910      2911
 -1      1275    8    0    1
 -2       549       550       678      2437      2912      2910
 -1      1276    8    0    1
 -2       669       561       671      2894      2815      2913
 -1      1277    8    0    1
 -2       588       694       697      2881      2914      2888
 -1      1278    8    0    1
 -2       552       687       681      2861      2915      2841
 -1      1279    8    0    1
 -2       551       644       703      2736      2916      2917
 -1      1280    8    0    1
 -2       677       568       643      2831      2902      2918
 -1      1281    8    0    1
 -2       589       679       682      2837      2919      2843
 -1      1282    8    0    1
 -2       591       587       697      2571      2889      2920
 -1      1283    8    0    1
 -2       592       465       591      2574      2570      2921
 -1      1284    8    0    1
 -2       585       551       703      2536      2917      2922
 -1      1285    8    0    1
 -2       593       582       704      2579      2923      2924
 -1      1286    8    0    1
 -2       582       692       704      2876      2925      2923
 -1      1287    8    0    1
 -2       570       682       705      2844      2926      2927
 -1      1288    8    0    1
 -2       570       705       694      2927      2928      2880
 -1      1289    8    0    1
 -2       572       523       706      2503      2929      2930
 -1      1290    8    0    1
 -2       598       572       706      2600      2930      2931
 -1      1291    8    0    1
 -2       523       693       706      2878      2932      2929
 -1      1292    8    0    1
 -2       695       584       707      2882      2933      2934
 -1      1293    8    0    1
 -2       691       581       593      2872      2578      2935
 -1      1294    8    0    1
 -2       696       476       698      2885      2892      2936
 -1      1295    8    0    1
 -2       596       597       708      2596      2937      2938
 -1      1296    8    0    1
 -2       707       584       585      2933      2535      2939
 -1      1297    8    0    1
 -2       579       690       678      2871      2940      2834
 -1      1298    8    0    1
 -2       675       676       709      2830      2941      2942
 -1      1299    8    0    1
 -2       648       649       710      2750      2943      2944
 -1      1300    8    0    1
 -2       602       601       711      2610      2945      2946
 -1      1301    8    0    1
 -2       603       602       712      2613      2947      2948
 -1      1302    8    0    1
 -2       602       711       712      2946      2949      2947
 -1      1303    8    0    1
 -2       604       603       713      2616      2950      2951
 -1      1304    8    0    1
 -2       603       712       713      2948      2952      2950
 -1      1305    8    0    1
 -2       605       604       714      2619      2953      2954
 -1      1306    8    0    1
 -2       604       713       714      2951      2955      2953
 -1      1307    8    0    1
 -2       606       605       715      2622      2956      2957
 -1      1308    8    0    1
 -2       605       714       715      2954      2958      2956
 -1      1309    8    0    1
 -2       607       606       716      2625      2959      2960
 -1      1310    8    0    1
 -2       606       715       716      2957      2961      2959
 -1      1311    8    0    1
 -2       608       607       717      2628      2962      2963
 -1      1312    8    0    1
 -2       607       716       717      2960      2964      2962
 -1      1313    8    0    1
 -2       609       608       718      2631      2965      2966
 -1      1314    8    0    1
 -2       608       717       718      2963      2967      2965
 -1      1315    8    0    1
 -2       610       609       719      2634      2968      2969
 -1      1316    8    0    1
 -2       609       718       719      2966      2970      2968
 -1      1317    8    0    1
 -2       611       610       720      2637      2971      2972
 -1      1318    8    0    1
 -2       610       719       720      2969      2973      2971
 -1      1319    8    0    1
 -2       612       611       721      2640      2974      2975
 -1      1320    8    0    1
 -2       611       720       721      2972      2976      2974
 -1      1321    8    0    1
 -2       613       612       722      2643      2977      2978
 -1      1322    8    0    1
 -2       612       721       722      2975      2979      2977
 -1      1323    8    0    1
 -2       614       613       723      2646      2980      2981
 -1      1324    8    0    1
 -2       613       722       723      2978      2982      2980
 -1      1325    8    0    1
 -2       615       614       724      2649      2983      2984
 -1      1326    8    0    1
 -2       614       723       724      2981      2985      2983
 -1      1327    8    0    1
 -2       616       615       725      2652      2986      2987
 -1      1328    8    0    1
 -2       615       724       725      2984      2988      2986
 -1      1329    8    0    1
 -2       617       616       726      2655      2989      2990
 -1      1330    8    0    1
 -2       616       725       726      2987      2991      2989
 -1      1331    8    0    1
 -2       618       617       727      2658      2992      2993
 -1      1332    8    0    1
 -2       617       726       727      2990      2994      2992
 -1      1333    8    0    1
 -2       619       618       728      2661      2995      2996
 -1      1334    8    0    1
 -2       618       727       728      2993      2997      2995
 -1      1335    8    0    1
 -2       620       619       729      2664      2998      2999
 -1      1336    8    0    1
 -2       619       728       729      2996      3000      2998
 -1      1337    8    0    1
 -2       621       620       730      2667      3001      3002
 -1      1338    8    0    1
 -2       620       729       730      2999      3003      3001
 -1      1339    8    0    1
 -2       622       621       731      2670      3004      3005
 -1      1340    8    0    1
 -2       621       730       731      3002      3006      3004
 -1      1341    8    0    1
 -2       623       622       732      2673      3007      3008
 -1      1342    8    0    1
 -2       622       731       732      3005      3009      3007
 -1      1343    8    0    1
 -2       624       623       733      2676      3010      3011
 -1      1344    8    0    1
 -2       623       732       733      3008      3012      3010
 -1      1345    8    0    1
 -2       625       624       734      2679      3013      3014
 -1      1346    8    0    1
 -2       624       733       734      3011      3015      3013
 -1      1347    8    0    1
 -2       626       625       735      2682      3016      3017
 -1      1348    8    0    1
 -2       625       734       735      3014      3018      3016
 -1      1349    8    0    1
 -2       627       626       736      2685      3019      3020
 -1      1350    8    0    1
 -2       626       735       736      3017      3021      3019
 -1      1351    8    0    1
 -2       628       627       737      2688      3022      3023
 -1      1352    8    0    1
 -2       627       736       737      3020      3024      3022
 -1      1353    8    0    1
 -2       629       628       738      2691      3025      3026
 -1      1354    8    0    1
 -2       628       737       738      3023      3027      3025
 -1      1355    8    0    1
 -2       630       629       739      2694      3028      3029
 -1      1356    8    0    1
 -2       629       738       739      3026      3030      3028
 -1      1357    8    0    1
 -2       631       630       740      2697      3031      3032
 -1      1358    8    0    1
 -2       630       739       740      3029      3033      3031
 -1      1359    8    0    1
 -2       632       631       741      2700      3034      3035
 -1      1360    8    0    1
 -2       631       740       741      3032      3036      3034
 -1      1361    8    0    1
 -2       633       632       742      2703      3037      3038
 -1      1362    8    0    1
 -2       632       741       742      3035      3039      3037
 -1      1363    8    0    1
 -2       634       633       743      2706      3040      3041
 -1      1364    8    0    1
 -2       633       742       743      3038      3042      3040
 -1      1365    8    0    1
 -2       635       634       744      2709      3043      3044
 -1      1366    8    0    1
 -2       634       743       744      3041      3045      3043
 -1      1367    8    0    1
 -2       636       635       745      2712      3046      3047
 -1      1368    8    0    1
 -2       635       744       745      3044      3048      3046
 -1      1369    8    0    1
 -2       637       636       746      2715      3049      3050
 -1      1370    8    0    1
 -2       636       745       746      3047      3051      3049
 -1      1371    8    0    1
 -2       638       637       747      2718      3052      3053
 -1      1372    8    0    1
 -2       637       746       747      3050      3054      3052
 -1      1373    8    0    1
 -2       639       638       748      2721      3055      3056
 -1      1374    8    0    1
 -2       638       747       748      3053      3057      3055
 -1      1375    8    0    1
 -2       640       639       749      2724      3058      3059
 -1      1376    8    0    1
 -2       639       748       749      3056      3060      3058
 -1      1377    8    0    1
 -2       641       640       750      2727      3061      3062
 -1      1378    8    0    1
 -2       640       749       750      3059      3063      3061
 -1      1379    8    0    1
 -2       642       641       751      2730      3064      3065
 -1      1380    8    0    1
 -2       641       750       751      3062      3066      3064
 -1      1381    8    0    1
 -2       643       642       752      2733      3067      3068
 -1      1382    8    0    1
 -2       677       643       752      2918      3068      3069
 -1      1383    8    0    1
 -2       642       751       752      3065      3070      3067
 -1      1384    8    0    1
 -2       669       671       753      2913      3071      3072
 -1      1385    8    0    1
 -2       599       645       754      2739      3073      3074
 -1      1386    8    0    1
 -2       647       648       755      2747      3075      3076
 -1      1387    8    0    1
 -2       648       710       755      2944      3077      3075
 -1      1388    8    0    1
 -2       646       647       756      2744      3078      3079
 -1      1389    8    0    1
 -2       647       755       756      3076      3080      3078
 -1      1390    8    0    1
 -2       649       650       757      2753      3081      3082
 -1      1391    8    0    1
 -2       649       757       710      3082      3083      2943
 -1      1392    8    0    1
 -2       650       651       758      2756      3084      3085
 -1      1393    8    0    1
 -2       650       758       757      3085      3086      3081
 -1      1394    8    0    1
 -2       651       652       759      2759      3087      3088
 -1      1395    8    0    1
 -2       651       759       758      3088      3089      3084
 -1      1396    8    0    1
 -2       652       653       760      2762      3090      3091
 -1      1397    8    0    1
 -2       652       760       759      3091      3092      3087
 -1      1398    8    0    1
 -2       653       654       761      2765      3093      3094
 -1      1399    8    0    1
 -2       653       761       760      3094      3095      3090
 -1      1400    8    0    1
 -2       654       655       762      2768      3096      3097
 -1      1401    8    0    1
 -2       654       762       761      3097      3098      3093
 -1      1402    8    0    1
 -2       655       656       763      2771      3099      3100
 -1      1403    8    0    1
 -2       655       763       762      3100      3101      3096
 -1      1404    8    0    1
 -2       656       657       764      2774      3102      3103
 -1      1405    8    0    1
 -2       656       764       763      3103      3104      3099
 -1      1406    8    0    1
 -2       657       658       765      2777      3105      3106
 -1      1407    8    0    1
 -2       657       765       764      3106      3107      3102
 -1      1408    8    0    1
 -2       658       659       766      2780      3108      3109
 -1      1409    8    0    1
 -2       658       766       765      3109      3110      3105
 -1      1410    8    0    1
 -2       659       660       767      2783      3111      3112
 -1      1411    8    0    1
 -2       659       767       766      3112      3113      3108
 -1      1412    8    0    1
 -2       660       661       768      2786      3114      3115
 -1      1413    8    0    1
 -2       660       768       767      3115      3116      3111
 -1      1414    8    0    1
 -2       661       662       769      2789      3117      3118
 -1      1415    8    0    1
 -2       661       769       768      3118      3119      3114
 -1      1416    8    0    1
 -2       662       663       770      2792      3120      3121
 -1      1417    8    0    1
 -2       662       770       769      3121      3122      3117
 -1      1418    8    0    1
 -2       663       664       771      2795      3123      3124
 -1      1419    8    0    1
 -2       663       771       770      3124      3125      3120
 -1      1420    8    0    1
 -2       664       665       772      2798      3126      3127
 -1      1421    8    0    1
 -2       664       772       771      3127      3128      3123
 -1      1422    8    0    1
 -2       665       666       773      2801      3129      3130
 -1      1423    8    0    1
 -2       665       773       772      3130      3131      3126
 -1      1424    8    0    1
 -2       666       667       774      2804      3132      3133
 -1      1425    8    0    1
 -2       666       774       773      3133      3134      3129
 -1      1426    8    0    1
 -2       678       550       578      2912      2806      2835
 -1      1427    8    0    1
 -2       671       670       753      2816      3135      3071
 -1      1428    8    0    1
 -2       686       646       775      2859      3136      3137
 -1      1429    8    0    1
 -2       646       756       775      3079      3138      3136
 -1      1430    8    0    1
 -2       703       644       776      2916      3139      3140
 -1      1431    8    0    1
 -2       667       678       777      2911      3141      3142
 -1      1432    8    0    1
 -2       774       667       777      3132      3142      3143
 -1      1433    8    0    1
 -2       678       690       777      2940      3144      3141
 -1      1434    8    0    1
 -2       697       694       778      2914      3145      3146
 -1      1435    8    0    1
 -2       674       675       779      2827      3147      3148
 -1      1436    8    0    1
 -2       675       709       779      2942      3149      3147
 -1      1437    8    0    1
 -2       673       674       780      2824      3150      3151
 -1      1438    8    0    1
 -2       674       779       780      3148      3152      3150
 -1      1439    8    0    1
 -2       676       677       781      2833      3153      3154
 -1      1440    8    0    1
 -2       709       676       781      2941      3154      3155
 -1      1441    8    0    1
 -2       677       752       781      3069      3156      3153
 -1      1442    8    0    1
 -2       668       680       782      2840      3157      3158
 -1      1443    8    0    1
 -2       698       681       783      2893      3159      3160
 -1      1444    8    0    1
 -2       698       783       696      3160      3161      2936
 -1      1445    8    0    1
 -2       600       590       699      2901      2896      3162
 -1      1446    8    0    1
 -2       691       593       784      2935      3163      3164
 -1      1447    8    0    1
 -2       693       599       785      2879      3165      3166
 -1      1448    8    0    1
 -2       599       754       785      3074      3167      3165
 -1      1449    8    0    1
 -2       687       668       786      2862      3168      3169
 -1      1450    8    0    1
 -2       668       782       786      3158      3170      3168
 -1      1451    8    0    1
 -2       595       594       787      2591      3171      3172
 -1      1452    8    0    1
 -2       682       679       788      2919      3173      3174
 -1      1453    8    0    1
 -2       592       591       789      2921      3175      3176
 -1      1454    8    0    1
 -2       670       672       790      2819      3177      3178
 -1      1455    8    0    1
 -2       690       691       791      2874      3179      3180
 -1      1456    8    0    1
 -2       690       791       777      3180      3181      3144
 -1      1457    8    0    1
 -2       679       696       792      2887      3182      3183
 -1      1458    8    0    1
 -2       695       707       793      2934      3184      3185
 -1      1459    8    0    1
 -2       692       695       794      2884      3186      3187
 -1      1460    8    0    1
 -2       695       793       794      3185      3188      3186
 -1      1461    8    0    1
 -2       681       687       783      2915      3189      3159
 -1      1462    8    0    1
 -2       591       697       795      2920      3190      3191
 -1      1463    8    0    1
 -2       591       795       789      3191      3192      3175
 -1      1464    8    0    1
 -2       700       595       796      2898      3193      3194
 -1      1465    8    0    1
 -2       595       787       796      3172      3195      3193
 -1      1466    8    0    1
 -2       597       598       706      2599      2931      3196
 -1      1467    8    0    1
 -2       782       680       797      3157      3197      3198
 -1      1468    8    0    1
 -2       680       685       797      2855      3199      3197
 -1      1469    8    0    1
 -2       701       592       798      2905      3200      3201
 -1      1470    8    0    1
 -2       592       789       798      3176      3202      3200
 -1      1471    8    0    1
 -2       703       776       799      3140      3203      3204
 -1      1472    8    0    1
 -2       669       753       685      3072      3205      2856
 -1      1473    8    0    1
 -2       597       706       708      3196      3206      2937
 -1      1474    8    0    1
 -2       754       645       800      3073      3207      3208
 -1      1475    8    0    1
 -2       645       688       800      2865      3209      3207
 -1      1476    8    0    1
 -2       687       786       783      3169      3210      3189
 -1      1477    8    0    1
 -2       778       694       801      3145      3211      3212
 -1      1478    8    0    1
 -2       694       705       801      2928      3213      3211
 -1      1479    8    0    1
 -2       790       672       802      3177      3214      3215
 -1      1480    8    0    1
 -2       672       684       802      2851      3216      3214
 -1      1481    8    0    1
 -2       788       679       803      3173      3217      3218
 -1      1482    8    0    1
 -2       679       792       803      3183      3219      3217
 -1      1483    8    0    1
 -2       776       644       804      3139      3220      3221
 -1      1484    8    0    1
 -2       644       701       804      2904      3222      3220
 -1      1485    8    0    1
 -2       691       784       791      3164      3223      3179
 -1      1486    8    0    1
 -2       699       689       805      2897      3224      3225
 -1      1487    8    0    1
 -2       686       775       806      3137      3226      3227
 -1      1488    8    0    1
 -2       686       806       688      3227      3228      2866
 -1      1489    8    0    1
 -2       753       670       790      3135      3178      3229
 -1      1490    8    0    1
 -2       673       780       807      3151      3230      3231
 -1      1491    8    0    1
 -2       673       807       684      3231      3232      2852
 -1      1492    8    0    1
 -2       793       707       808      3184      3233      3234
 -1      1493    8    0    1
 -2       683       596       809      2848      3235      3236
 -1      1494    8    0    1
 -2       596       708       809      2938      3237      3235
 -1      1495    8    0    1
 -2       601       600       699      2607      3162      3238
 -1      1496    8    0    1
 -2       696       783       792      3161      3239      3182
 -1      1497    8    0    1
 -2       704       692       810      2925      3240      3241
 -1      1498    8    0    1
 -2       692       794       810      3187      3242      3240
 -1      1499    8    0    1
 -2       705       682       811      2926      3243      3244
 -1      1500    8    0    1
 -2       682       788       811      3174      3245      3243
 -1      1501    8    0    1
 -2       593       704       784      2924      3246      3163
 -1      1502    8    0    1
 -2       706       693       708      2932      3247      3206
 -1      1503    8    0    1
 -2       594       683       812      2847      3248      3249
 -1      1504    8    0    1
 -2       787       594       812      3171      3249      3250
 -1      1505    8    0    1
 -2       683       809       812      3236      3251      3248
 -1      1506    8    0    1
 -2       708       693       785      3247      3166      3252
 -1      1507    8    0    1
 -2       711       601       699      2945      3238      3253
 -1      1508    8    0    1
 -2       697       778       795      3146      3254      3190
 -1      1509    8    0    1
 -2       689       702       813      2908      3255      3256
 -1      1510    8    0    1
 -2       689       813       805      3256      3257      3224
 -1      1511    8    0    1
 -2       808       707       799      3233      3258      3259
 -1      1512    8    0    1
 -2       799       707       703      3258      3260      3204
 -1      1513    8    0    1
 -2       703       707       585      3260      2939      2922
 -1      1514    8    0    1
 -2       757       758       814      3086      3261      3262
 -1      1515    8    0    1
 -2       799       776       815      3203      3263      3264
 -1      1516    8    0    1
 -2       685       753       797      3205      3265      3199
 -1      1517    8    0    1
 -2       713       712       816      2952      3266      3267
 -1      1518    8    0    1
 -2       714       713       817      2955      3268      3269
 -1      1519    8    0    1
 -2       713       816       817      3267      3270      3268
 -1      1520    8    0    1
 -2       715       714       818      2958      3271      3272
 -1      1521    8    0    1
 -2       714       817       818      3269      3273      3271
 -1      1522    8    0    1
 -2       716       715       819      2961      3274      3275
 -1      1523    8    0    1
 -2       715       818       819      3272      3276      3274
 -1      1524    8    0    1
 -2       717       716       820      2964      3277      3278
 -1      1525    8    0    1
 -2       716       819       820      3275      3279      3277
 -1      1526    8    0    1
 -2       718       717       821      2967      3280      3281
 -1      1527    8    0    1
 -2       717       820       821      3278      3282      3280
 -1      1528    8    0    1
 -2       719       718       822      2970      3283      3284
 -1      1529    8    0    1
 -2       718       821       822      3281      3285      3283
 -1      1530    8    0    1
 -2       720       719       823      2973      3286      3287
 -1      1531    8    0    1
 -2       719       822       823      3284      3288      3286
 -1      1532    8    0    1
 -2       721       720       824      2976      3289      3290
 -1      1533    8    0    1
 -2       720       823       824      3287      3291      3289
 -1      1534    8    0    1
 -2       722       721       825      2979      3292      3293
 -1      1535    8    0    1
 -2       721       824       825      3290      3294      3292
 -1      1536    8    0    1
 -2       723       722       826      2982      3295      3296
 -1      1537    8    0    1
 -2       722       825       826      3293      3297      3295
 -1      1538    8    0    1
 -2       724       723       827      2985      3298      3299
 -1      1539    8    0    1
 -2       723       826       827      3296      3300      3298
 -1      1540    8    0    1
 -2       725       724       828      2988      3301      3302
 -1      1541    8    0    1
 -2       724       827       828      3299      3303      3301
 -1      1542    8    0    1
 -2       726       725       829      2991      3304      3305
 -1      1543    8    0    1
 -2       725       828       829      3302      3306      3304
 -1      1544    8    0    1
 -2       727       726       830      2994      3307      3308
 -1      1545    8    0    1
 -2       726       829       830      3305      3309      3307
 -1      1546    8    0    1
 -2       728       727       831      2997      3310      3311
 -1      1547    8    0    1
 -2       727       830       831      3308      3312      3310
 -1      1548    8    0    1
 -2       729       728       832      3000      3313      3314
 -1      1549    8    0    1
 -2       728       831       832      3311      3315      3313
 -1      1550    8    0    1
 -2       730       729       833      3003      3316      3317
 -1      1551    8    0    1
 -2       729       832       833      3314      3318      3316
 -1      1552    8    0    1
 -2       731       730       834      3006      3319      3320
 -1      1553    8    0    1
 -2       730       833       834      3317      3321      3319
 -1      1554    8    0    1
 -2       732       731       835      3009      3322      3323
 -1      1555    8    0    1
 -2       731       834       835      3320      3324      3322
 -1      1556    8    0    1
 -2       733       732       836      3012      3325      3326
 -1      1557    8    0    1
 -2       732       835       836      3323      3327      3325
 -1      1558    8    0    1
 -2       734       733       837      3015      3328      3329
 -1      1559    8    0    1
 -2       733       836       837      3326      3330      3328
 -1      1560    8    0    1
 -2       735       734       838      3018      3331      3332
 -1      1561    8    0    1
 -2       734       837       838      3329      3333      3331
 -1      1562    8    0    1
 -2       736       735       839      3021      3334      3335
 -1      1563    8    0    1
 -2       735       838       839      3332      3336      3334
 -1      1564    8    0    1
 -2       737       736       840      3024      3337      3338
 -1      1565    8    0    1
 -2       736       839       840      3335      3339      3337
 -1      1566    8    0    1
 -2       738       737       841      3027      3340      3341
 -1      1567    8    0    1
 -2       737       840       841      3338      3342      3340
 -1      1568    8    0    1
 -2       739       738       842      3030      3343      3344
 -1      1569    8    0    1
 -2       738       841       842      3341      3345      3343
 -1      1570    8    0    1
 -2       740       739       843      3033      3346      3347
 -1      1571    8    0    1
 -2       739       842       843      3344      3348      3346
 -1      1572    8    0    1
 -2       741       740       844      3036      3349      3350
 -1      1573    8    0    1
 -2       740       843       844      3347      3351      3349
 -1      1574    8    0    1
 -2       742       741       845      3039      3352      3353
 -1      1575    8    0    1
 -2       741       844       845      3350      3354      3352
 -1      1576    8    0    1
 -2       743       742       846      3042      3355      3356
 -1      1577    8    0    1
 -2       742       845       846      3353      3357      3355
 -1      1578    8    0    1
 -2       744       743       847      3045      3358      3359
 -1      1579    8    0    1
 -2       743       846       847      3356      3360      3358
 -1      1580    8    0    1
 -2       745       744       848      3048      3361      3362
 -1      1581    8    0    1
 -2       744       847       848      3359      3363      3361
 -1      1582    8    0    1
 -2       746       745       849      3051      3364      3365
 -1      1583    8    0    1
 -2       745       848       849      3362      3366      3364
 -1      1584    8    0    1
 -2       747       746       850      3054      3367      3368
 -1      1585    8    0    1
 -2       746       849       850      3365      3369      3367
 -1      1586    8    0    1
 -2       748       747       851      3057      3370      3371
 -1      1587    8    0    1
 -2       747       850       851      3368      3372      3370
 -1      1588    8    0    1
 -2       749       748       852      3060      3373      3374
 -1      1589    8    0    1
 -2       748       851       852      3371      3375      3373
 -1      1590    8    0    1
 -2       750       749       853      3063      3376      3377
 -1      1591    8    0    1
 -2       749       852       853      3374      3378      3376
 -1      1592    8    0    1
 -2       751       750       854      3066      3379      3380
 -1      1593    8    0    1
 -2       750       853       854      3377      3381      3379
 -1      1594    8    0    1
 -2       752       751       855      3070      3382      3383
 -1      1595    8    0    1
 -2       781       752       855      3156      3383      3384
 -1      1596    8    0    1
 -2       751       854       855      3380      3385      3382
 -1      1597    8    0    1
 -2       702       700       856      2909      3386      3387
 -1      1598    8    0    1
 -2       702       856       813      3387      3388      3255
 -1      1599    8    0    1
 -2       710       757       857      3083      3389      3390
 -1      1600    8    0    1
 -2       757       814       857      3262      3391      3389
 -1      1601    8    0    1
 -2       756       755       858      3080      3392      3393
 -1      1602    8    0    1
 -2       758       759       859      3089      3394      3395
 -1      1603    8    0    1
 -2       758       859       814      3395      3396      3261
 -1      1604    8    0    1
 -2       759       760       860      3092      3397      3398
 -1      1605    8    0    1
 -2       759       860       859      3398      3399      3394
 -1      1606    8    0    1
 -2       760       761       861      3095      3400      3401
 -1      1607    8    0    1
 -2       760       861       860      3401      3402      3397
 -1      1608    8    0    1
 -2       761       762       862      3098      3403      3404
 -1      1609    8    0    1
 -2       761       862       861      3404      3405      3400
 -1      1610    8    0    1
 -2       762       763       863      3101      3406      3407
 -1      1611    8    0    1
 -2       762       863       862      3407      3408      3403
 -1      1612    8    0    1
 -2       763       764       864      3104      3409      3410
 -1      1613    8    0    1
 -2       763       864       863      3410      3411      3406
 -1      1614    8    0    1
 -2       764       765       865      3107      3412      3413
 -1      1615    8    0    1
 -2       764       865       864      3413      3414      3409
 -1      1616    8    0    1
 -2       765       766       866      3110      3415      3416
 -1      1617    8    0    1
 -2       765       866       865      3416      3417      3412
 -1      1618    8    0    1
 -2       766       767       867      3113      3418      3419
 -1      1619    8    0    1
 -2       766       867       866      3419      3420      3415
 -1      1620    8    0    1
 -2       767       768       868      3116      3421      3422
 -1      1621    8    0    1
 -2       767       868       867      3422      3423      3418
 -1      1622    8    0    1
 -2       768       769       869      3119      3424      3425
 -1      1623    8    0    1
 -2       768       869       868      3425      3426      3421
 -1      1624    8    0    1
 -2       769       770       870      3122      3427      3428
 -1      1625    8    0    1
 -2       769       870       869      3428      3429      3424
 -1      1626    8    0    1
 -2       770       771       871      3125      3430      3431
 -1      1627    8    0    1
 -2       770       871       870      3431      3432      3427
 -1      1628    8    0    1
 -2       771       772       872      3128      3433      3434
 -1      1629    8    0    1
 -2       771       872       871      3434      3435      3430
 -1      1630    8    0    1
 -2       772       773       873      3131      3436      3437
 -1      1631    8    0    1
 -2       772       873       872      3437      3438      3433
 -1      1632    8    0    1
 -2       773       774       874      3134      3439      3440
 -1      1633    8    0    1
 -2       773       874       873      3440      3441      3436
 -1      1634    8    0    1
 -2       775       756       875      3138      3442      3443
 -1      1635    8    0    1
 -2       756       858       875      3393      3444      3442
 -1      1636    8    0    1
 -2       808       799       876      3259      3445      3446
 -1      1637    8    0    1
 -2       799       815       876      3264      3447      3445
 -1      1638    8    0    1
 -2       774       777       877      3143      3448      3449
 -1      1639    8    0    1
 -2       874       774       877      3439      3449      3450
 -1      1640    8    0    1
 -2       777       791       877      3181      3451      3448
 -1      1641    8    0    1
 -2       779       709       878      3149      3452      3453
 -1      1642    8    0    1
 -2       791       784       879      3223      3454      3455
 -1      1643    8    0    1
 -2       780       779       880      3152      3456      3457
 -1      1644    8    0    1
 -2       779       878       880      3453      3458      3456
 -1      1645    8    0    1
 -2       789       795       881      3192      3459      3460
 -1      1646    8    0    1
 -2       794       793       882      3188      3461      3462
 -1      1647    8    0    1
 -2       708       785       883      3252      3463      3464
 -1      1648    8    0    1
 -2       708       883       809      3464      3465      3237
 -1      1649    8    0    1
 -2       699       805       711      3225      3466      3253
 -1      1650    8    0    1
 -2       755       710       884      3077      3467      3468
 -1      1651    8    0    1
 -2       710       857       884      3390      3469      3467
 -1      1652    8    0    1
 -2       712       711       885      2949      3470      3471
 -1      1653    8    0    1
 -2       816       712       885      3266      3471      3472
 -1      1654    8    0    1
 -2       711       805       885      3466      3473      3470
 -1      1655    8    0    1
 -2       785       754       883      3167      3474      3463
 -1      1656    8    0    1
 -2       786       782       886      3170      3475      3476
 -1      1657    8    0    1
 -2       753       790       887      3229      3477      3478
 -1      1658    8    0    1
 -2       753       887       797      3478      3479      3265
 -1      1659    8    0    1
 -2       784       704       888      3246      3480      3481
 -1      1660    8    0    1
 -2       704       810       888      3241      3482      3480
 -1      1661    8    0    1
 -2       793       808       889      3234      3483      3484
 -1      1662    8    0    1
 -2       793       889       882      3484      3485      3461
 -1      1663    8    0    1
 -2       795       778       890      3254      3486      3487
 -1      1664    8    0    1
 -2       798       789       881      3202      3460      3488
 -1      1665    8    0    1
 -2       784       888       879      3481      3489      3454
 -1      1666    8    0    1
 -2       887       790       891      3477      3490      3491
 -1      1667    8    0    1
 -2       790       802       891      3215      3492      3490
 -1      1668    8    0    1
 -2       800       688       806      3209      3228      3493
 -1      1669    8    0    1
 -2       801       705       892      3213      3494      3495
 -1      1670    8    0    1
 -2       705       811       892      3244      3496      3494
 -1      1671    8    0    1
 -2       858       755       884      3392      3468      3497
 -1      1672    8    0    1
 -2       775       875       893      3443      3498      3499
 -1      1673    8    0    1
 -2       775       893       806      3499      3500      3226
 -1      1674    8    0    1
 -2       700       796       856      3194      3501      3386
 -1      1675    8    0    1
 -2       802       684       807      3216      3232      3502
 -1      1676    8    0    1
 -2       803       792       894      3219      3503      3504
 -1      1677    8    0    1
 -2       804       701       895      3222      3505      3506
 -1      1678    8    0    1
 -2       701       798       895      3201      3507      3505
 -1      1679    8    0    1
 -2       877       791       879      3451      3455      3508
 -1      1680    8    0    1
 -2       883       754       896      3474      3509      3510
 -1      1681    8    0    1
 -2       780       880       897      3457      3511      3512
 -1      1682    8    0    1
 -2       780       897       807      3512      3513      3230
 -1      1683    8    0    1
 -2       709       781       855      3155      3384      3514
 -1      1684    8    0    1
 -2       787       812       898      3250      3515      3516
 -1      1685    8    0    1
 -2       881       795       899      3459      3517      3518
 -1      1686    8    0    1
 -2       795       890       899      3487      3519      3517
 -1      1687    8    0    1
 -2       794       882       900      3462      3520      3521
 -1      1688    8    0    1
 -2       794       900       810      3521      3522      3242
 -1      1689    8    0    1
 -2       709       855       878      3514      3523      3452
 -1      1690    8    0    1
 -2       815       776       901      3263      3524      3525
 -1      1691    8    0    1
 -2       776       804       901      3221      3526      3524
 -1      1692    8    0    1
 -2       885       805       902      3473      3527      3528
 -1      1693    8    0    1
 -2       805       813       902      3257      3529      3527
 -1      1694    8    0    1
 -2       811       788       903      3245      3530      3531
 -1      1695    8    0    1
 -2       788       803       903      3218      3532      3530
 -1      1696    8    0    1
 -2       786       886       894      3476      3533      3534
 -1      1697    8    0    1
 -2       783       786       894      3210      3534      3535
 -1      1698    8    0    1
 -2       808       876       889      3446      3536      3483
 -1      1699    8    0    1
 -2       778       801       904      3212      3537      3538
 -1      1700    8    0    1
 -2       778       904       890      3538      3539      3486
 -1      1701    8    0    1
 -2       792       783       894      3239      3535      3503
 -1      1702    8    0    1
 -2       782       797       905      3198      3540      3541
 -1      1703    8    0    1
 -2       886       782       905      3475      3541      3542
 -1      1704    8    0    1
 -2       797       887       905      3479      3543      3540
 -1      1705    8    0    1
 -2       754       800       896      3208      3544      3509
 -1      1706    8    0    1
 -2       796       787       906      3195      3545      3546
 -1      1707    8    0    1
 -2       787       898       906      3516      3547      3545
 -1      1708    8    0    1
 -2       813       856       907      3388      3548      3549
 -1      1709    8    0    1
 -2       813       907       902      3549      3550      3529
 -1      1710    8    0    1
 -2       859       860       908      3399      3551      3552
 -1      1711    8    0    1
 -2       874       877       909      3450      3553      3554
 -1      1712    8    0    1
 -2       877       879       909      3508      3555      3553
 -1      1713    8    0    1
 -2       818       817       910      3273      3556      3557
 -1      1714    8    0    1
 -2       819       818       911      3276      3558      3559
 -1      1715    8    0    1
 -2       818       910       911      3557      3560      3558
 -1      1716    8    0    1
 -2       820       819       912      3279      3561      3562
 -1      1717    8    0    1
 -2       819       911       912      3559      3563      3561
 -1      1718    8    0    1
 -2       821       820       913      3282      3564      3565
 -1      1719    8    0    1
 -2       820       912       913      3562      3566      3564
 -1      1720    8    0    1
 -2       822       821       914      3285      3567      3568
 -1      1721    8    0    1
 -2       821       913       914      3565      3569      3567
 -1      1722    8    0    1
 -2       823       822       915      3288      3570      3571
 -1      1723    8    0    1
 -2       822       914       915      3568      3572      3570
 -1      1724    8    0    1
 -2       824       823       916      3291      3573      3574
 -1      1725    8    0    1
 -2       823       915       916      3571      3575      3573
 -1      1726    8    0    1
 -2       825       824       917      3294      3576      3577
 -1      1727    8    0    1
 -2       824       916       917      3574      3578      3576
 -1      1728    8    0    1
 -2       826       825       918      3297      3579      3580
 -1      1729    8    0    1
 -2       825       917       918      3577      3581      3579
 -1      1730    8    0    1
 -2       827       826       919      3300      3582      3583
 -1      1731    8    0    1
 -2       826       918       919      3580      3584      3582
 -1      1732    8    0    1
 -2       828       827       920      3303      3585      3586
 -1      1733    8    0    1
 -2       827       919       920      3583      3587      3585
 -1      1734    8    0    1
 -2       829       828       921      3306      3588      3589
 -1      1735    8    0    1
 -2       828       920       921      3586      3590      3588
 -1      1736    8    0    1
 -2       830       829       922      3309      3591      3592
 -1      1737    8    0    1
 -2       829       921       922      3589      3593      3591
 -1      1738    8    0    1
 -2       831       830       923      3312      3594      3595
 -1      1739    8    0    1
 -2       830       922       923      3592      3596      3594
 -1      1740    8    0    1
 -2       832       831       924      3315      3597      3598
 -1      1741    8    0    1
 -2       831       923       924      3595      3599      3597
 -1      1742    8    0    1
 -2       833       832       925      3318      3600      3601
 -1      1743    8    0    1
 -2       832       924       925      3598      3602      3600
 -1      1744    8    0    1
 -2       834       833       926      3321      3603      3604
 -1      1745    8    0    1
 -2       833       925       926      3601      3605      3603
 -1      1746    8    0    1
 -2       835       834       927      3324      3606      3607
 -1      1747    8    0    1
 -2       834       926       927      3604      3608      3606
 -1      1748    8    0    1
 -2       836       835       928      3327      3609      3610
 -1      1749    8    0    1
 -2       835       927       928      3607      3611      3609
 -1      1750    8    0    1
 -2       837       836       929      3330      3612      3613
 -1      1751    8    0    1
 -2       836       928       929      3610      3614      3612
 -1      1752    8    0    1
 -2       838       837       930      3333      3615      3616
 -1      1753    8    0    1
 -2       837       929       930      3613      3617      3615
 -1      1754    8    0    1
 -2       839       838       931      3336      3618      3619
 -1      1755    8    0    1
 -2       838       930       931      3616      3620      3618
 -1      1756    8    0    1
 -2       840       839       932      3339      3621      3622
 -1      1757    8    0    1
 -2       839       931       932      3619      3623      3621
 -1      1758    8    0    1
 -2       841       840       933      3342      3624      3625
 -1      1759    8    0    1
 -2       840       932       933      3622      3626      3624
 -1      1760    8    0    1
 -2       842       841       934      3345      3627      3628
 -1      1761    8    0    1
 -2       841       933       934      3625      3629      3627
 -1      1762    8    0    1
 -2       843       842       935      3348      3630      3631
 -1      1763    8    0    1
 -2       842       934       935      3628      3632      3630
 -1      1764    8    0    1
 -2       845       844       815      3354      3633      3634
 -1      1765    8    0    1
 -2       846       845       815      3357      3634      3635
 -1      1766    8    0    1
 -2       847       846       936      3360      3636      3637
 -1      1767    8    0    1
 -2       848       847       937      3363      3638      3639
 -1      1768    8    0    1
 -2       847       936       937      3637      3640      3638
 -1      1769    8    0    1
 -2       849       848       938      3366      3641      3642
 -1      1770    8    0    1
 -2       848       937       938      3639      3643      3641
 -1      1771    8    0    1
 -2       850       849       939      3369      3644      3645
 -1      1772    8    0    1
 -2       849       938       939      3642      3646      3644
 -1      1773    8    0    1
 -2       851       850       940      3372      3647      3648
 -1      1774    8    0    1
 -2       850       939       940      3645      3649      3647
 -1      1775    8    0    1
 -2       852       851       941      3375      3650      3651
 -1      1776    8    0    1
 -2       851       940       941      3648      3652      3650
 -1      1777    8    0    1
 -2       853       852       942      3378      3653      3654
 -1      1778    8    0    1
 -2       852       941       942      3651      3655      3653
 -1      1779    8    0    1
 -2       854       853       943      3381      3656      3657
 -1      1780    8    0    1
 -2       853       942       943      3654      3658      3656
 -1      1781    8    0    1
 -2       855       854       878      3385      3659      3523
 -1      1782    8    0    1
 -2       860       861       944      3402      3660      3661
 -1      1783    8    0    1
 -2       860       944       908      3661      3662      3551
 -1      1784    8    0    1
 -2       857       814       945      3391      3663      3664
 -1      1785    8    0    1
 -2       814       859       946      3396      3665      3666
 -1      1786    8    0    1
 -2       945       814       946      3663      3666      3667
 -1      1787    8    0    1
 -2       859       908       946      3552      3668      3665
 -1      1788    8    0    1
 -2       861       862       947      3405      3669      3670
 -1      1789    8    0    1
 -2       861       947       944      3670      3671      3660
 -1      1790    8    0    1
 -2       862       863       948      3408      3672      3673
 -1      1791    8    0    1
 -2       862       948       947      3673      3674      3669
 -1      1792    8    0    1
 -2       863       864       949      3411      3675      3676
 -1      1793    8    0    1
 -2       863       949       948      3676      3677      3672
 -1      1794    8    0    1
 -2       864       865       950      3414      3678      3679
 -1      1795    8    0    1
 -2       864       950       949      3679      3680      3675
 -1      1796    8    0    1
 -2       865       866       951      3417      3681      3682
 -1      1797    8    0    1
 -2       865       951       950      3682      3683      3678
 -1      1798    8    0    1
 -2       866       867       952      3420      3684      3685
 -1      1799    8    0    1
 -2       866       952       951      3685      3686      3681
 -1      1800    8    0    1
 -2       867       868       953      3423      3687      3688
 -1      1801    8    0    1
 -2       867       953       952      3688      3689      3684
 -1      1802    8    0    1
 -2       868       869       954      3426      3690      3691
 -1      1803    8    0    1
 -2       868       954       953      3691      3692      3687
 -1      1804    8    0    1
 -2       869       870       955      3429      3693      3694
 -1      1805    8    0    1
 -2       869       955       954      3694      3695      3690
 -1      1806    8    0    1
 -2       870       871       956      3432      3696      3697
 -1      1807    8    0    1
 -2       870       956       955      3697      3698      3693
 -1      1808    8    0    1
 -2       871       872       957      3435      3699      3700
 -1      1809    8    0    1
 -2       871       957       956      3700      3701      3696
 -1      1810    8    0    1
 -2       872       873       958      3438      3702      3703
 -1      1811    8    0    1
 -2       872       958       957      3703      3704      3699
 -1      1812    8    0    1
 -2       873       874       959      3441      3705      3706
 -1      1813    8    0    1
 -2       958       873       959      3702      3706      3707
 -1      1814    8    0    1
 -2       874       909       959      3554      3708      3705
 -1      1815    8    0    1
 -2       875       858       960      3444      3709      3710
 -1      1816    8    0    1
 -2       856       796       961      3501      3711      3712
 -1      1817    8    0    1
 -2       907       856       961      3548      3712      3713
 -1      1818    8    0    1
 -2       796       906       961      3546      3714      3711
 -1      1819    8    0    1
 -2       883       896       962      3510      3715      3716
 -1      1820    8    0    1
 -2       878       854       943      3659      3657      3717
 -1      1821    8    0    1
 -2       802       807       963      3502      3718      3719
 -1      1822    8    0    1
 -2       891       802       963      3492      3719      3720
 -1      1823    8    0    1
 -2       807       897       963      3513      3721      3718
 -1      1824    8    0    1
 -2       809       883       812      3465      3722      3251
 -1      1825    8    0    1
 -2       884       857       964      3469      3723      3724
 -1      1826    8    0    1
 -2       857       945       964      3664      3725      3723
 -1      1827    8    0    1
 -2       894       886       965      3533      3726      3727
 -1      1828    8    0    1
 -2       894       965       803      3727      3728      3504
 -1      1829    8    0    1
 -2       896       800       966      3544      3729      3730
 -1      1830    8    0    1
 -2       888       810       967      3482      3731      3732
 -1      1831    8    0    1
 -2       810       900       967      3522      3733      3731
 -1      1832    8    0    1
 -2       817       816       968      3270      3734      3735
 -1      1833    8    0    1
 -2       817       968       910      3735      3736      3556
 -1      1834    8    0    1
 -2       800       806       966      3493      3737      3729
 -1      1835    8    0    1
 -2       879       888       969      3489      3738      3739
 -1      1836    8    0    1
 -2       882       889       970      3485      3740      3741
 -1      1837    8    0    1
 -2       858       884       971      3497      3742      3743
 -1      1838    8    0    1
 -2       960       858       971      3709      3743      3744
 -1      1839    8    0    1
 -2       884       964       971      3724      3745      3742
 -1      1840    8    0    1
 -2       816       885       972      3472      3746      3747
 -1      1841    8    0    1
 -2       968       816       972      3734      3747      3748
 -1      1842    8    0    1
 -2       885       902       972      3528      3749      3746
 -1      1843    8    0    1
 -2       880       878       973      3458      3750      3751
 -1      1844    8    0    1
 -2       878       943       973      3717      3752      3750
 -1      1845    8    0    1
 -2       889       876       974      3536      3753      3754
 -1      1846    8    0    1
 -2       798       881       937      3488      3755      3756
 -1      1847    8    0    1
 -2       803       965       903      3728      3757      3532
 -1      1848    8    0    1
 -2       875       960       975      3710      3758      3759
 -1      1849    8    0    1
 -2       875       975       893      3759      3760      3498
 -1      1850    8    0    1
 -2       966       806       893      3737      3500      3761
 -1      1851    8    0    1
 -2       892       811       976      3496      3762      3763
 -1      1852    8    0    1
 -2       811       903       976      3531      3764      3762
 -1      1853    8    0    1
 -2       843       935       974      3631      3765      3766
 -1      1854    8    0    1
 -2       815       844       974      3633      3767      3768
 -1      1855    8    0    1
 -2       844       843       974      3351      3766      3767
 -1      1856    8    0    1
 -2       886       905       977      3542      3769      3770
 -1      1857    8    0    1
 -2       886       977       965      3770      3771      3726
 -1      1858    8    0    1
 -2       804       895       901      3506      3772      3526
 -1      1859    8    0    1
 -2       897       880       978      3511      3773      3774
 -1      1860    8    0    1
 -2       880       973       978      3751      3775      3773
 -1      1861    8    0    1
 -2       889       974       935      3754      3765      3776
 -1      1862    8    0    1
 -2       801       892       979      3495      3777      3778
 -1      1863    8    0    1
 -2       801       979       904      3778      3779      3537
 -1      1864    8    0    1
 -2       812       883       980      3722      3780      3781
 -1      1865    8    0    1
 -2       899       890       981      3519      3782      3783
 -1      1866    8    0    1
 -2       881       899       938      3518      3784      3785
 -1      1867    8    0    1
 -2       900       882       970      3520      3741      3786
 -1      1868    8    0    1
 -2       879       969       909      3739      3787      3555
 -1      1869    8    0    1
 -2       905       887       982      3543      3788      3789
 -1      1870    8    0    1
 -2       977       905       982      3769      3789      3790
 -1      1871    8    0    1
 -2       887       891       982      3491      3791      3788
 -1      1872    8    0    1
 -2       888       967       969      3732      3792      3738
 -1      1873    8    0    1
 -2       890       904       981      3539      3793      3782
 -1      1874    8    0    1
 -2       896       966       983      3730      3794      3795
 -1      1875    8    0    1
 -2       937       881       938      3755      3785      3643
 -1      1876    8    0    1
 -2       906       898       984      3547      3796      3797
 -1      1877    8    0    1
 -2       962       896       983      3715      3795      3798
 -1      1878    8    0    1
 -2       967       900       985      3733      3799      3800
 -1      1879    8    0    1
 -2       902       907       986      3550      3801      3802
 -1      1880    8    0    1
 -2       902       986       972      3802      3803      3749
 -1      1881    8    0    1
 -2       912       911       987      3563      3804      3805
 -1      1882    8    0    1
 -2       913       912       988      3566      3806      3807
 -1      1883    8    0    1
 -2       912       987       988      3805      3808      3806
 -1      1884    8    0    1
 -2       914       913       989      3569      3809      3810
 -1      1885    8    0    1
 -2       913       988       989      3807      3811      3809
 -1      1886    8    0    1
 -2       915       914       990      3572      3812      3813
 -1      1887    8    0    1
 -2       914       989       990      3810      3814      3812
 -1      1888    8    0    1
 -2       916       915       991      3575      3815      3816
 -1      1889    8    0    1
 -2       915       990       991      3813      3817      3815
 -1      1890    8    0    1
 -2       917       916       992      3578      3818      3819
 -1      1891    8    0    1
 -2       916       991       992      3816      3820      3818
 -1      1892    8    0    1
 -2       918       917       993      3581      3821      3822
 -1      1893    8    0    1
 -2       917       992       993      3819      3823      3821
 -1      1894    8    0    1
 -2       919       918       994      3584      3824      3825
 -1      1895    8    0    1
 -2       918       993       994      3822      3826      3824
 -1      1896    8    0    1
 -2       920       919       995      3587      3827      3828
 -1      1897    8    0    1
 -2       919       994       995      3825      3829      3827
 -1      1898    8    0    1
 -2       921       920       996      3590      3830      3831
 -1      1899    8    0    1
 -2       920       995       996      3828      3832      3830
 -1      1900    8    0    1
 -2       922       921       997      3593      3833      3834
 -1      1901    8    0    1
 -2       921       996       997      3831      3835      3833
 -1      1902    8    0    1
 -2       923       922       998      3596      3836      3837
 -1      1903    8    0    1
 -2       922       997       998      3834      3838      3836
 -1      1904    8    0    1
 -2       924       923       999      3599      3839      3840
 -1      1905    8    0    1
 -2       923       998       999      3837      3841      3839
 -1      1906    8    0    1
 -2       925       924      1000      3602      3842      3843
 -1      1907    8    0    1
 -2       924       999      1000      3840      3844      3842
 -1      1908    8    0    1
 -2       926       925      1001      3605      3845      3846
 -1      1909    8    0    1
 -2       925      1000      1001      3843      3847      3845
 -1      1910    8    0    1
 -2       927       926      1002      3608      3848      3849
 -1      1911    8    0    1
 -2       926      1001      1002      3846      3850      3848
 -1      1912    8    0    1
 -2       928       927      1003      3611      3851      3852
 -1      1913    8    0    1
 -2       927      1002      1003      3849      3853      3851
 -1      1914    8    0    1
 -2       929       928      1004      3614      3854      3855
 -1      1915    8    0    1
 -2       928      1003      1004      3852      3856      3854
 -1      1916    8    0    1
 -2       930       929      1005      3617      3857      3858
 -1      1917    8    0    1
 -2       929      1004      1005      3855      3859      3857
 -1      1918    8    0    1
 -2       931       930      1006      3620      3860      3861
 -1      1919    8    0    1
 -2       930      1005      1006      3858      3862      3860
 -1      1920    8    0    1
 -2       932       931      1007      3623      3863      3864
 -1      1921    8    0    1
 -2       931      1006      1007      3861      3865      3863
 -1      1922    8    0    1
 -2       933       932      1008      3626      3866      3867
 -1      1923    8    0    1
 -2       932      1007      1008      3864      3868      3866
 -1      1924    8    0    1
 -2       934       933       985      3629      3869      3870
 -1      1925    8    0    1
 -2       906       984      1009      3797      3871      3872
 -1      1926    8    0    1
 -2       906      1009       961      3872      3873      3714
 -1      1927    8    0    1
 -2       939       938       899      3646      3784      3874
 -1      1928    8    0    1
 -2       940       939       981      3649      3875      3876
 -1      1929    8    0    1
 -2       942       941      1010      3655      3877      3878
 -1      1930    8    0    1
 -2       943       942      1011      3658      3879      3880
 -1      1931    8    0    1
 -2       973       943      1011      3752      3880      3881
 -1      1932    8    0    1
 -2       942      1010      1011      3878      3882      3879
 -1      1933    8    0    1
 -2       947       948      1012      3674      3883      3884
 -1      1934    8    0    1
 -2       948       949      1013      3677      3885      3886
 -1      1935    8    0    1
 -2       948      1013      1012      3886      3887      3883
 -1      1936    8    0    1
 -2       966       893      1014      3761      3888      3889
 -1      1937    8    0    1
 -2       983       966      1014      3794      3889      3890
 -1      1938    8    0    1
 -2       893       975      1014      3760      3891      3888
 -1      1939    8    0    1
 -2       949       950      1015      3680      3892      3893
 -1      1940    8    0    1
 -2       949      1015      1013      3893      3894      3885
 -1      1941    8    0    1
 -2       950       951      1016      3683      3895      3896
 -1      1942    8    0    1
 -2       950      1016      1015      3896      3897      3892
 -1      1943    8    0    1
 -2       951       952      1017      3686      3898      3899
 -1      1944    8    0    1
 -2       951      1017      1016      3899      3900      3895
 -1      1945    8    0    1
 -2       952       953      1018      3689      3901      3902
 -1      1946    8    0    1
 -2       952      1018      1017      3902      3903      3898
 -1      1947    8    0    1
 -2       953       954      1019      3692      3904      3905
 -1      1948    8    0    1
 -2       953      1019      1018      3905      3906      3901
 -1      1949    8    0    1
 -2       954       955      1020      3695      3907      3908
 -1      1950    8    0    1
 -2       954      1020      1019      3908      3909      3904
 -1      1951    8    0    1
 -2       955       956      1021      3698      3910      3911
 -1      1952    8    0    1
 -2       955      1021      1020      3911      3912      3907
 -1      1953    8    0    1
 -2       956       957      1022      3701      3913      3914
 -1      1954    8    0    1
 -2       956      1022      1021      3914      3915      3910
 -1      1955    8    0    1
 -2       957       958      1023      3704      3916      3917
 -1      1956    8    0    1
 -2       957      1023      1022      3917      3918      3913
 -1      1957    8    0    1
 -2       939       899       981      3874      3783      3875
 -1      1958    8    0    1
 -2       895       798       937      3507      3756      3919
 -1      1959    8    0    1
 -2       940       981      1024      3876      3920      3921
 -1      1960    8    0    1
 -2       941       940      1024      3652      3921      3922
 -1      1961    8    0    1
 -2       981       904      1024      3793      3923      3920
 -1      1962    8    0    1
 -2       883       962       980      3716      3924      3780
 -1      1963    8    0    1
 -2       969       967      1025      3792      3925      3926
 -1      1964    8    0    1
 -2       984       898       980      3796      3927      3928
 -1      1965    8    0    1
 -2       898       812       980      3515      3781      3927
 -1      1966    8    0    1
 -2       900       970       985      3786      3929      3799
 -1      1967    8    0    1
 -2       964       945      1026      3725      3930      3931
 -1      1968    8    0    1
 -2       944       947      1027      3671      3932      3933
 -1      1969    8    0    1
 -2       947      1012      1027      3884      3934      3932
 -1      1970    8    0    1
 -2       908       944      1028      3662      3935      3936
 -1      1971    8    0    1
 -2       944      1027      1028      3933      3937      3935
 -1      1972    8    0    1
 -2       910       968      1029      3736      3938      3939
 -1      1973    8    0    1
 -2       970       889       935      3740      3776      3940
 -1      1974    8    0    1
 -2       909       969      1030      3787      3941      3942
 -1      1975    8    0    1
 -2       909      1030       959      3942      3943      3708
 -1      1976    8    0    1
 -2       937       936       895      3640      3944      3919
 -1      1977    8    0    1
 -2       911       910      1031      3560      3945      3946
 -1      1978    8    0    1
 -2       910      1029      1031      3939      3947      3945
 -1      1979    8    0    1
 -2       903       965      1032      3757      3948      3949
 -1      1980    8    0    1
 -2       976       903      1032      3764      3949      3950
 -1      1981    8    0    1
 -2       965       977      1032      3771      3951      3948
 -1      1982    8    0    1
 -2       895       936       901      3944      3952      3772
 -1      1983    8    0    1
 -2       970       935       934      3940      3632      3953
 -1      1984    8    0    1
 -2       975       960      1033      3758      3954      3955
 -1      1985    8    0    1
 -2       904       979      1024      3779      3956      3923
 -1      1986    8    0    1
 -2       987       911      1031      3804      3946      3957
 -1      1987    8    0    1
 -2       936       846       901      3636      3958      3952
 -1      1988    8    0    1
 -2       891       963      1034      3720      3959      3960
 -1      1989    8    0    1
 -2       891      1034       982      3960      3961      3791
 -1      1990    8    0    1
 -2      1010       941      1024      3877      3922      3962
 -1      1991    8    0    1
 -2       908      1028      1035      3936      3963      3964
 -1      1992    8    0    1
 -2       908      1035       946      3964      3965      3668
 -1      1993    8    0    1
 -2       973      1011      1036      3881      3966      3967
 -1      1994    8    0    1
 -2       973      1036       978      3967      3968      3775
 -1      1995    8    0    1
 -2       945       946      1037      3667      3969      3970
 -1      1996    8    0    1
 -2      1026       945      1037      3930      3970      3971
 -1      1997    8    0    1
 -2       946      1035      1037      3965      3972      3969
 -1      1998    8    0    1
 -2      1023       958      1038      3916      3973      3974
 -1      1999    8    0    1
 -2       958       959      1038      3707      3975      3973
 -1      2000    8    0    1
 -2       907       961      1039      3713      3976      3977
 -1      2001    8    0    1
 -2       986       907      1039      3801      3977      3978
 -1      2002    8    0    1
 -2       961      1009      1039      3873      3979      3976
 -1      2003    8    0    1
 -2       967       985      1025      3800      3980      3925
 -1      2004    8    0    1
 -2       984       980       962      3928      3924      3981
 -1      2005    8    0    1
 -2       979       892      1040      3777      3982      3983
 -1      2006    8    0    1
 -2       892       976      1040      3763      3984      3982
 -1      2007    8    0    1
 -2       969      1025      1030      3926      3985      3941
 -1      2008    8    0    1
 -2       963       897      1041      3721      3986      3987
 -1      2009    8    0    1
 -2      1034       963      1041      3959      3987      3988
 -1      2010    8    0    1
 -2       897       978      1041      3774      3989      3986
 -1      2011    8    0    1
 -2       971       964      1042      3745      3990      3991
 -1      2012    8    0    1
 -2       964      1026      1042      3931      3992      3990
 -1      2013    8    0    1
 -2       970       934       985      3953      3870      3929
 -1      2014    8    0    1
 -2       968       972      1043      3748      3993      3994
 -1      2015    8    0    1
 -2      1029       968      1043      3938      3994      3995
 -1      2016    8    0    1
 -2       972       986      1043      3803      3996      3993
 -1      2017    8    0    1
 -2      1009       984      1044      3871      3997      3998
 -1      2018    8    0    1
 -2       983      1014      1045      3890      3999      4000
 -1      2019    8    0    1
 -2       960       971      1046      3744      4001      4002
 -1      2020    8    0    1
 -2      1033       960      1046      3954      4002      4003
 -1      2021    8    0    1
 -2       971      1042      1046      3991      4004      4001
 -1      2022    8    0    1
 -2       962       983       984      3798      4005      3981
 -1      2023    8    0    1
 -2       984       983      1044      4005      4006      3997
 -1      2024    8    0    1
 -2      1044       983      1045      4006      4000      4007
 -1      2025    8    0    1
 -2      1024       979      1047      3956      4008      4009
 -1      2026    8    0    1
 -2      1010      1024      1047      3962      4009      4010
 -1      2027    8    0    1
 -2       979      1040      1047      3983      4011      4008
 -1      2028    8    0    1
 -2      1009      1044      1048      3998      4012      4013
 -1      2029    8    0    1
 -2      1009      1048      1039      4013      4014      3979
 -1      2030    8    0    1
 -2       933      1008       985      3867      4015      3869
 -1      2031    8    0    1
 -2       989       988      1049      3811      4016      4017
 -1      2032    8    0    1
 -2       990       989      1050      3814      4018      4019
 -1      2033    8    0    1
 -2       989      1049      1050      4017      4020      4018
 -1      2034    8    0    1
 -2       991       990      1051      3817      4021      4022
 -1      2035    8    0    1
 -2       990      1050      1051      4019      4023      4021
 -1      2036    8    0    1
 -2       992       991      1052      3820      4024      4025
 -1      2037    8    0    1
 -2       991      1051      1052      4022      4026      4024
 -1      2038    8    0    1
 -2       993       992      1053      3823      4027      4028
 -1      2039    8    0    1
 -2       992      1052      1053      4025      4029      4027
 -1      2040    8    0    1
 -2       994       993      1054      3826      4030      4031
 -1      2041    8    0    1
 -2       993      1053      1054      4028      4032      4030
 -1      2042    8    0    1
 -2       995       994      1055      3829      4033      4034
 -1      2043    8    0    1
 -2       994      1054      1055      4031      4035      4033
 -1      2044    8    0    1
 -2       996       995      1056      3832      4036      4037
 -1      2045    8    0    1
 -2       995      1055      1056      4034      4038      4036
 -1      2046    8    0    1
 -2       997       996      1057      3835      4039      4040
 -1      2047    8    0    1
 -2       996      1056      1057      4037      4041      4039
 -1      2048    8    0    1
 -2       998       997      1058      3838      4042      4043
 -1      2049    8    0    1
 -2       997      1057      1058      4040      4044      4042
 -1      2050    8    0    1
 -2       999       998      1059      3841      4045      4046
 -1      2051    8    0    1
 -2       998      1058      1059      4043      4047      4045
 -1      2052    8    0    1
 -2      1000       999      1060      3844      4048      4049
 -1      2053    8    0    1
 -2       999      1059      1060      4046      4050      4048
 -1      2054    8    0    1
 -2      1001      1000      1061      3847      4051      4052
 -1      2055    8    0    1
 -2      1000      1060      1061      4049      4053      4051
 -1      2056    8    0    1
 -2      1002      1001      1062      3850      4054      4055
 -1      2057    8    0    1
 -2      1001      1061      1062      4052      4056      4054
 -1      2058    8    0    1
 -2      1003      1002      1063      3853      4057      4058
 -1      2059    8    0    1
 -2      1002      1062      1063      4055      4059      4057
 -1      2060    8    0    1
 -2      1004      1003      1064      3856      4060      4061
 -1      2061    8    0    1
 -2      1003      1063      1064      4058      4062      4060
 -1      2062    8    0    1
 -2      1005      1004      1065      3859      4063      4064
 -1      2063    8    0    1
 -2      1004      1064      1065      4061      4065      4063
 -1      2064    8    0    1
 -2      1006      1005      1066      3862      4066      4067
 -1      2065    8    0    1
 -2      1005      1065      1066      4064      4068      4066
 -1      2066    8    0    1
 -2      1007      1006      1067      3865      4069      4070
 -1      2067    8    0    1
 -2      1006      1066      1067      4067      4071      4069
 -1      2068    8    0    1
 -2      1008      1007      1068      3868      4072      4073
 -1      2069    8    0    1
 -2       985      1008      1068      4015      4073      4074
 -1      2070    8    0    1
 -2      1007      1067      1068      4070      4075      4072
 -1      2071    8    0    1
 -2      1025       985      1068      3980      4074      4076
 -1      2072    8    0    1
 -2      1015      1016      1069      3897      4077      4078
 -1      2073    8    0    1
 -2      1012      1013      1070      3887      4079      4080
 -1      2074    8    0    1
 -2      1014       975      1071      3891      4081      4082
 -1      2075    8    0    1
 -2      1045      1014      1071      3999      4082      4083
 -1      2076    8    0    1
 -2       975      1033      1071      3955      4084      4081
 -1      2077    8    0    1
 -2      1017      1018      1072      3903      4085      4086
 -1      2078    8    0    1
 -2      1018      1019      1073      3906      4087      4088
 -1      2079    8    0    1
 -2      1018      1073      1072      4088      4089      4085
 -1      2080    8    0    1
 -2      1019      1020      1074      3909      4090      4091
 -1      2081    8    0    1
 -2      1019      1074      1073      4091      4092      4087
 -1      2082    8    0    1
 -2      1020      1021      1075      3912      4093      4094
 -1      2083    8    0    1
 -2      1020      1075      1074      4094      4095      4090
 -1      2084    8    0    1
 -2      1021      1022      1076      3915      4096      4097
 -1      2085    8    0    1
 -2      1021      1076      1075      4097      4098      4093
 -1      2086    8    0    1
 -2      1022      1023      1077      3918      4099      4100
 -1      2087    8    0    1
 -2      1022      1077      1076      4100      4101      4096
 -1      2088    8    0    1
 -2       987      1031      1078      3957      4102      4103
 -1      2089    8    0    1
 -2       876       815       974      3447      3768      3753
 -1      2090    8    0    1
 -2      1028      1027      1079      3937      4104      4105
 -1      2091    8    0    1
 -2      1044      1045      1080      4007      4106      4107
 -1      2092    8    0    1
 -2      1013      1015      1081      3894      4108      4109
 -1      2093    8    0    1
 -2      1013      1081      1070      4109      4110      4079
 -1      2094    8    0    1
 -2       977       982      1082      3790      4111      4112
 -1      2095    8    0    1
 -2       982      1034      1082      3961      4113      4111
 -1      2096    8    0    1
 -2      1030      1025      1083      3985      4114      4115
 -1      2097    8    0    1
 -2      1027      1012      1084      3934      4116      4117
 -1      2098    8    0    1
 -2      1079      1027      1084      4104      4117      4118
 -1      2099    8    0    1
 -2      1012      1070      1084      4080      4119      4116
 -1      2100    8    0    1
 -2      1016      1017      1085      3900      4120      4121
 -1      2101    8    0    1
 -2      1017      1072      1085      4086      4122      4120
 -1      2102    8    0    1
 -2       959      1030      1038      3943      4123      3975
 -1      2103    8    0    1
 -2       988       987      1086      3808      4124      4125
 -1      2104    8    0    1
 -2       988      1086      1049      4125      4126      4016
 -1      2105    8    0    1
 -2      1031      1029      1080      3947      4127      4128
 -1      2106    8    0    1
 -2      1011      1010      1036      3882      4129      3966
 -1      2107    8    0    1
 -2      1030      1083      1038      4115      4130      4123
 -1      2108    8    0    1
 -2      1031      1080      1078      4128      4131      4102
 -1      2109    8    0    1
 -2      1015      1069      1081      4078      4132      4108
 -1      2110    8    0    1
 -2      1071      1033      1087      4084      4133      4134
 -1      2111    8    0    1
 -2      1025      1068      1083      4076      4135      4114
 -1      2112    8    0    1
 -2      1069      1016      1085      4077      4121      4136
 -1      2113    8    0    1
 -2       846       815       901      3635      3525      3958
 -1      2114    8    0    1
 -2      1042      1026      1088      3992      4137      4138
 -1      2115    8    0    1
 -2      1035      1028      1089      3963      4139      4140
 -1      2116    8    0    1
 -2      1028      1079      1089      4105      4141      4139
 -1      2117    8    0    1
 -2       978      1036      1090      3968      4142      4143
 -1      2118    8    0    1
 -2       978      1090      1041      4143      4144      3989
 -1      2119    8    0    1
 -2      1045      1071      1091      4083      4145      4146
 -1      2120    8    0    1
 -2      1080      1045      1091      4106      4146      4147
 -1      2121    8    0    1
 -2      1071      1087      1091      4134      4148      4145
 -1      2122    8    0    1
 -2       987      1078      1086      4103      4149      4124
 -1      2123    8    0    1
 -2      1077      1023      1092      4099      4150      4151
 -1      2124    8    0    1
 -2      1023      1038      1092      3974      4152      4150
 -1      2125    8    0    1
 -2       977      1082      1032      4112      4153      3951
 -1      2126    8    0    1
 -2       986      1039      1093      3978      4154      4155
 -1      2127    8    0    1
 -2      1043       986      1093      3996      4155      4156
 -1      2128    8    0    1
 -2      1039      1048      1093      4014      4157      4154
 -1      2129    8    0    1
 -2      1088      1026      1094      4137      4158      4159
 -1      2130    8    0    1
 -2      1026      1037      1094      3971      4160      4158
 -1      2131    8    0    1
 -2      1040       976      1090      3984      4161      4162
 -1      2132    8    0    1
 -2       976      1032      1090      3950      4163      4161
 -1      2133    8    0    1
 -2      1044      1080      1048      4107      4164      4012
 -1      2134    8    0    1
 -2      1010      1047      1036      4010      4165      4129
 -1      2135    8    0    1
 -2      1033      1046      1095      4003      4166      4167
 -1      2136    8    0    1
 -2      1033      1095      1087      4167      4168      4133
 -1      2137    8    0    1
 -2      1080      1029      1048      4127      4169      4164
 -1      2138    8    0    1
 -2      1050      1049      1096      4020      4170      4171
 -1      2139    8    0    1
 -2      1085      1072      1060      4122      4172      4173
 -1      2140    8    0    1
 -2      1051      1050      1088      4023      4174      4175
 -1      2141    8    0    1
 -2      1052      1051      1094      4026      4176      4177
 -1      2142    8    0    1
 -2      1054      1053      1089      4032      4178      4179
 -1      2143    8    0    1
 -2      1055      1054      1079      4035      4180      4181
 -1      2144    8    0    1
 -2      1056      1055      1084      4038      4182      4183
 -1      2145    8    0    1
 -2      1057      1056      1070      4041      4184      4185
 -1      2146    8    0    1
 -2      1058      1057      1081      4044      4186      4187
 -1      2147    8    0    1
 -2      1059      1058      1069      4047      4188      4189
 -1      2148    8    0    1
 -2      1060      1059      1085      4050      4190      4173
 -1      2149    8    0    1
 -2      1061      1060      1072      4053      4172      4191
 -1      2150    8    0    1
 -2      1062      1061      1073      4056      4192      4193
 -1      2151    8    0    1
 -2      1063      1062      1074      4059      4194      4195
 -1      2152    8    0    1
 -2      1064      1063      1075      4062      4196      4197
 -1      2153    8    0    1
 -2      1065      1064      1076      4065      4198      4199
 -1      2154    8    0    1
 -2      1066      1065      1077      4068      4200      4201
 -1      2155    8    0    1
 -2      1067      1066      1092      4071      4202      4203
 -1      2156    8    0    1
 -2      1068      1067      1083      4075      4204      4135
 -1      2157    8    0    1
 -2      1075      1063      1074      4196      4195      4095
 -1      2158    8    0    1
 -2      1069      1058      1081      4188      4187      4132
 -1      2159    8    0    1
 -2      1078      1080      1091      4131      4147      4205
 -1      2160    8    0    1
 -2      1090      1036      1040      4142      4206      4162
 -1      2161    8    0    1
 -2      1042      1088      1096      4138      4207      4208
 -1      2162    8    0    1
 -2      1038      1083      1092      4130      4209      4152
 -1      2163    8    0    1
 -2      1029      1043      1093      3995      4156      4210
 -1      2164    8    0    1
 -2      1037      1035      1097      3972      4211      4212
 -1      2165    8    0    1
 -2      1094      1037      1097      4160      4212      4213
 -1      2166    8    0    1
 -2      1035      1089      1097      4140      4214      4211
 -1      2167    8    0    1
 -2      1081      1057      1070      4186      4185      4110
 -1      2168    8    0    1
 -2      1070      1056      1084      4184      4183      4119
 -1      2169    8    0    1
 -2      1072      1073      1061      4089      4192      4191
 -1      2170    8    0    1
 -2      1075      1076      1064      4098      4198      4197
 -1      2171    8    0    1
 -2      1076      1077      1065      4101      4200      4199
 -1      2172    8    0    1
 -2      1051      1088      1094      4175      4159      4176
 -1      2173    8    0    1
 -2      1055      1079      1084      4181      4118      4182
 -1      2174    8    0    1
 -2      1059      1069      1085      4189      4136      4190
 -1      2175    8    0    1
 -2      1074      1062      1073      4194      4193      4092
 -1      2176    8    0    1
 -2      1066      1077      1092      4201      4151      4202
 -1      2177    8    0    1
 -2      1083      1067      1092      4204      4203      4209
 -1      2178    8    0    1
 -2      1079      1054      1089      4180      4179      4141
 -1      2179    8    0    1
 -2      1086      1078      1087      4149      4215      4216
 -1      2180    8    0    1
 -2      1047      1040      1036      4011      4206      4165
 -1      2181    8    0    1
 -2      1090      1032      1082      4163      4153      4217
 -1      2182    8    0    1
 -2      1049      1086      1095      4126      4218      4219
 -1      2183    8    0    1
 -2      1088      1050      1096      4174      4171      4207
 -1      2184    8    0    1
 -2      1046      1042      1096      4004      4208      4220
 -1      2185    8    0    1
 -2      1082      1034      1041      4113      3988      4221
 -1      2186    8    0    1
 -2      1090      1082      1041      4217      4221      4144
 -1      2187    8    0    1
 -2      1087      1078      1091      4215      4205      4148
 -1      2188    8    0    1
 -2      1086      1087      1095      4216      4168      4218
 -1      2189    8    0    1
 -2      1052      1094      1097      4177      4213      4222
 -1      2190    8    0    1
 -2      1053      1052      1097      4029      4222      4223
 -1      2191    8    0    1
 -2      1046      1096      1095      4220      4224      4166
 -1      2192    8    0    1
 -2      1089      1053      1097      4178      4223      4214
 -1      2193    8    0    1
 -2      1096      1049      1095      4170      4219      4224
 -1      2194    8    0    1
 -2      1048      1029      1093      4169      4210      4157
 -3
    1PSTEP                         1           1           1          
  100CL  101 1.000000000        4224                     0    1           1
 -4  DISP        4    1
 -5  D1          1    2    1    0
 -5  D2          1    2    2    0
 -5  D3          1    2    3    0
 -5  ALL         1    2    0    0    1ALL
 -1         1 1.20782E-02 2.51462E-04-6.97728E-14
 -1         2 1.37749E-02 1.15884E-03-7.34667E-14
 -1         3 1.69588E-02 3.40833E-03-1.11954E-13
 -1         4 1.36514E-02 2.07989E-03-1.18979E-13
 -1         5 0.00000E+00 0.00000E+00 0.00000E+00
 -1         6 0.00000E+00 0.00000E+00 0.00000E+00
 -1         7 0.00000E+00 0.00000E+00 0.00000E+00
 -1         8 0.00000E+00 0.00000E+00 0.00000E+00
 -1         9 0.00000E+00 0.00000E+00 0.00000E+00
 -1        10 0.00000E+00 0.00000E+00 0.00000E+00
 -1        11 0.00000E+00 0.00000E+00 0.00000E+00
 -1        12 0.00000E+00 0.00000E+00 0.00000E+00
 -1        13 0.00000E+00 0.00000E+00 0.00000E+00
 -1        14 0.00000E+00 0.00000E+00 0.00000E+00
 -1        15 0.00000E+00 0.00000E+00 0.00000E+00
 -1        16 0.00000E+00 0.00000E+00 0.00000E+00
 -1        17 0.00000E+00 0.00000E+00 0.00000E+00
 -1        18 0.00000E+00 0.00000E+00 0.00000E+00
 -1        19 0.00000E+00 0.00000E+00 0.00000E+00
 -1        20 0.00000E+00 0.00000E+00 0.00000E+00
 -1        21 0.00000E+00 0.00000E+00 0.00000E+00
 -1        22 0.00000E+00 0.00000E+00 0.00000E+00
 -1        23 4.11531E-04-2.60853E-04 2.96834E-17
 -1        24 7.03614E-04-4.01201E-04-8.57909E-17
 -1        25 9.73763E-04-4.98686E-04-3.40799E-16
 -1        26 1.23832E-03-5.67541E-04-7.31901E-16
 -1        27 1.50191E-03-6.16906E-04-1.25644E-15
 -1        28 1.76664E-03-6.52164E-04-1.91088E-15
 -1        29 2.03346E-03-6.77027E-04-2.69426E-15
 -1        30 2.30274E-03-6.94193E-04-3.60484E-15
 -1        31 2.57454E-03-7.05685E-04-4.63812E-15
 -1        32 2.84872E-03-7.13034E-04-5.79086E-15
 -1        33 3.12506E-03-7.17397E-04-7.05707E-15
 -1        34 3.40329E-03-7.19645E-04-8.42645E-15
 -1        35 3.68314E-03-7.20419E-04-9.90252E-15
 -1        36 3.96435E-03-7.20188E-04-1.14790E-14
 -1        37 4.24670E-03-7.19287E-04-1.31524E-14
 -1        38 4.53000E-03-7.17951E-04-1.49223E-14
 -1        39 4.81411E-03-7.16346E-04-1.67952E-14
 -1        40 5.09893E-03-7.14593E-04-1.87690E-14
 -1        41 5.38441E-03-7.12796E-04-2.08409E-14
 -1        42 5.67051E-03-7.11060E-04-2.30047E-14
 -1        43 5.95723E-03-7.09514E-04-2.52651E-14
 -1        44 6.24457E-03-7.08325E-04-2.76204E-14
 -1        45 6.53248E-03-7.07718E-04-3.00700E-14
 -1        46 6.82082E-03-7.07966E-04-3.26143E-14
 -1        47 7.10934E-03-7.09379E-04-3.52394E-14
 -1        48 7.39752E-03-7.12239E-04-3.79386E-14
 -1        49 7.68454E-03-7.16702E-04-4.07043E-14
 -1        50 7.96920E-03-7.22627E-04-4.35450E-14
 -1        51 8.24987E-03-7.29339E-04-4.64511E-14
 -1        52 8.52460E-03-7.35358E-04-4.94134E-14
 -1        53 8.79129E-03-7.38132E-04-5.24254E-14
 -1        54 9.04814E-03-7.33908E-04-5.54872E-14
 -1        55 9.29410E-03-7.17857E-04-5.86061E-14
 -1        56 9.52943E-03-6.84563E-04-6.17832E-14
 -1        57 9.75605E-03-6.28873E-04-6.50253E-14
 -1        58 9.97741E-03-5.46933E-04-6.83274E-14
 -1        59 1.01980E-02-4.37072E-04-7.16793E-14
 -1        60 1.04224E-02-3.00214E-04-7.50702E-14
 -1        61 1.06545E-02-1.39640E-04-7.85074E-14
 -1        62 1.08965E-02 3.98047E-05-8.20083E-14
 -1        63 1.11492E-02 2.32747E-04-8.55725E-14
 -1        64 1.14118E-02 4.34217E-04-8.91830E-14
 -1        65 1.16826E-02 6.40252E-04-9.28475E-14
 -1        66 1.19595E-02 8.48119E-04-9.65638E-14
 -1        67 1.22406E-02 1.05623E-03-1.00318E-13
 -1        68 1.25241E-02 1.26389E-03-1.04086E-13
 -1        69 1.28089E-02 1.47097E-03-1.07860E-13
 -1        70 1.30943E-02 1.67762E-03-1.11624E-13
 -1        71 1.33799E-02 1.88399E-03-1.15386E-13
 -1        72 3.95543E-04 2.52362E-04 6.03867E-17
 -1        73 6.89826E-04 3.95554E-04 5.85808E-18
 -1        74 9.60507E-04 4.94752E-04-1.70308E-16
 -1        75 1.22522E-03 5.64765E-04-4.69090E-16
 -1        76 1.48881E-03 6.14960E-04-8.91268E-16
 -1        77 1.75345E-03 6.50834E-04-1.43823E-15
 -1        78 2.02015E-03 6.76158E-04-2.10737E-15
 -1        79 2.28930E-03 6.93670E-04-2.89471E-15
 -1        80 2.56097E-03 7.05419E-04-3.79536E-15
 -1        81 2.82127E-03 7.12661E-04-4.75316E-15
 -1        82 3.09739E-03 7.17290E-04-5.87169E-15
 -1        83 3.37541E-03 7.19720E-04-7.10594E-15
 -1        84 3.65506E-03 7.20609E-04-8.45631E-15
 -1        85 3.93608E-03 7.20429E-04-9.92407E-15
 -1        86 4.21823E-03 7.19508E-04-1.15077E-14
 -1        87 4.50131E-03 7.18061E-04-1.31933E-14
 -1        88 4.78517E-03 7.16212E-04-1.49727E-14
 -1        89 5.06973E-03 7.14016E-04-1.68442E-14
 -1        90 5.35495E-03 7.11472E-04-1.88113E-14
 -1        91 5.62656E-03 7.08691E-04-2.07707E-14
 -1        92 5.91329E-03 7.05299E-04-2.29248E-14
 -1        93 6.20115E-03 7.01322E-04-2.51614E-14
 -1        94 6.49064E-03 6.96641E-04-2.74812E-14
 -1        95 6.78257E-03 6.91159E-04-2.98860E-14
 -1        96 7.07826E-03 6.84879E-04-3.23740E-14
 -1        97 7.37982E-03 6.78069E-04-3.49327E-14
 -1        98 7.69065E-03 6.71609E-04-3.75589E-14
 -1        99 8.01608E-03 6.67712E-04-4.02433E-14
 -1       100 8.36436E-03 6.71351E-04-4.29874E-14
 -1       101 8.72742E-03 6.91433E-04-4.56383E-14
 -1       102 9.15856E-03 7.49771E-04-4.84791E-14
 -1       103 9.65487E-03 8.82669E-04-5.13678E-14
 -1       104 1.02159E-02 1.14511E-03-5.42860E-14
 -1       105 1.07390E-02 1.53113E-03-5.69430E-14
 -1       106 1.12206E-02 2.05915E-03-5.97916E-14
 -1       107 1.15188E-02 2.48143E-03-6.23804E-14
 -1       108 1.17107E-02 2.65256E-03-6.48577E-14
 -1       109 1.19768E-02 2.49796E-03-6.78607E-14
 -1       110 1.23716E-02 2.17499E-03-7.07725E-14
 -1       111 1.28741E-02 1.90320E-03-7.37159E-14
 -1       112 1.34512E-02 1.76638E-03-7.70409E-14
 -1       113 1.39518E-02 1.77959E-03-8.02348E-14
 -1       114 1.44116E-02 1.88963E-03-8.36388E-14
 -1       115 1.48127E-02 2.05278E-03-8.70903E-14
 -1       116 1.51714E-02 2.24110E-03-9.05669E-14
 -1       117 1.55013E-02 2.43968E-03-9.40648E-14
 -1       118 1.58123E-02 2.64093E-03-9.75990E-14
 -1       119 1.61108E-02 2.84088E-03-1.01170E-13
 -1       120 1.64014E-02 3.03735E-03-1.04774E-13
 -1       121 1.66877E-02 3.22922E-03-1.08422E-13
 -1       122 1.67744E-02 3.32371E-03-1.12488E-13
 -1       123 1.65932E-02 3.24014E-03-1.12974E-13
 -1       124 1.64149E-02 3.16052E-03-1.13438E-13
 -1       125 1.62367E-02 3.08603E-03-1.13857E-13
 -1       126 1.60552E-02 3.01595E-03-1.14314E-13
 -1       127 1.58714E-02 2.94941E-03-1.14776E-13
 -1       128 1.56782E-02 2.88174E-03-1.15271E-13
 -1       129 1.54793E-02 2.81200E-03-1.15781E-13
 -1       130 1.52764E-02 2.73887E-03-1.16258E-13
 -1       131 1.50712E-02 2.66199E-03-1.16673E-13
 -1       132 1.48654E-02 2.58176E-03-1.17054E-13
 -1       133 1.46635E-02 2.50048E-03-1.17377E-13
 -1       134 1.44593E-02 2.41638E-03-1.17677E-13
 -1       135 1.42560E-02 2.33174E-03-1.17987E-13
 -1       136 1.40532E-02 2.24713E-03-1.18330E-13
 -1       137 1.38506E-02 2.16274E-03-1.18669E-13
 -1       138 1.38156E-02 1.36747E-03-7.31017E-14
 -1       139 1.37399E-02 1.57014E-03-7.24017E-14
 -1       140 1.35369E-02 1.78804E-03-7.13559E-14
 -1       141 1.32427E-02 1.98862E-03-7.01897E-14
 -1       142 1.28377E-02 2.18075E-03-6.88323E-14
 -1       143 1.23278E-02 2.33114E-03-6.73443E-14
 -1       144 1.16872E-02 2.39503E-03-6.56481E-14
 -1       145 1.10863E-02 2.32900E-03-6.41701E-14
 -1       146 1.03942E-02 2.10546E-03-6.24992E-14
 -1       147 9.82882E-03 1.81762E-03-6.11197E-14
 -1       148 9.39807E-03 1.53264E-03-6.00606E-14
 -1       149 9.07773E-03 1.26525E-03-5.92705E-14
 -1       150 8.84637E-03 1.00525E-03-5.87312E-14
 -1       151 8.74015E-03 7.86675E-04-5.85422E-14
 -1       152 8.74046E-03 5.78934E-04-5.86876E-14
 -1       153 8.84128E-03 4.15322E-04-5.91283E-14
 -1       154 9.05589E-03 2.66049E-04-5.99389E-14
 -1       155 9.33466E-03 1.58882E-04-6.09378E-14
 -1       156 9.70020E-03 8.03379E-05-6.22037E-14
 -1       157 1.01021E-02 4.01794E-05-6.35555E-14
 -1       158 1.05727E-02 3.48449E-05-6.51111E-14
 -1       159 1.10639E-02 6.85017E-05-6.66818E-14
 -1       160 1.15608E-02 1.38800E-04-6.82254E-14
 -1       161 1.25624E-02 3.94608E-04-7.11142E-14
 -1       162 1.29968E-02 5.66388E-04-7.22228E-14
 -1       163 1.33558E-02 7.55734E-04-7.30140E-14
 -1       164 1.36138E-02 9.50672E-04-7.34294E-14
 -1       165 2.40462E-04-1.25588E-04-3.03001E-17
 -1       166 2.25310E-04-9.46844E-05-4.83453E-17
 -1       167 2.19533E-04-7.28470E-05-5.78252E-17
 -1       168 2.16721E-04-5.51800E-05-6.28871E-17
 -1       169 2.15216E-04-4.00539E-05-6.47777E-17
 -1       170 2.14371E-04-2.60200E-05-6.53266E-17
 -1       171 2.13945E-04-1.27692E-05-6.48522E-17
 -1       172 2.13816E-04 1.21461E-07-6.41272E-17
 -1       173 2.13951E-04 1.30157E-05-6.28227E-17
 -1       174 2.14385E-04 2.62780E-05-6.06408E-17
 -1       175 2.15220E-04 4.00886E-05-5.73678E-17
 -1       176 2.16759E-04 5.54983E-05-5.23500E-17
 -1       177 2.19618E-04 7.32258E-05-4.43744E-17
 -1       178 2.25450E-04 9.51635E-05-3.11302E-17
 -1       179 2.40778E-04 1.26312E-04-8.84302E-18
 -1       180 4.68755E-04-2.63698E-04-8.14981E-17
 -1       181 7.66974E-04-3.82395E-04-2.91925E-16
 -1       182 1.05089E-03-4.65387E-04-6.32524E-16
 -1       183 1.32833E-03-5.24271E-04-1.10249E-15
 -1       184 1.60299E-03-5.66065E-04-1.70077E-15
 -1       185 1.87693E-03-5.95455E-04-2.42563E-15
 -1       186 2.15129E-03-6.15750E-04-3.27534E-15
 -1       187 2.42667E-03-6.29373E-04-4.24696E-15
 -1       188 2.70334E-03-6.38140E-04-5.33709E-15
 -1       189 2.98136E-03-6.43415E-04-6.54204E-15
 -1       190 3.26069E-03-6.46218E-04-7.85491E-15
 -1       191 3.54122E-03-6.47303E-04-9.27247E-15
 -1       192 3.82282E-03-6.47221E-04-1.07938E-14
 -1       193 4.10536E-03-6.46362E-04-1.24135E-14
 -1       194 4.38870E-03-6.45000E-04-1.41322E-14
 -1       195 4.67274E-03-6.43324E-04-1.59494E-14
 -1       196 4.95741E-03-6.41465E-04-1.78664E-14
 -1       197 5.24263E-03-6.39524E-04-1.98821E-14
 -1       198 5.52839E-03-6.37597E-04-2.19921E-14
 -1       199 5.81465E-03-6.35792E-04-2.41940E-14
 -1       200 6.10140E-03-6.34257E-04-2.64922E-14
 -1       201 6.38860E-03-6.33196E-04-2.88847E-14
 -1       202 6.67617E-03-6.32875E-04-3.13713E-14
 -1       203 6.96395E-03-6.33623E-04-3.39443E-14
 -1       204 7.25163E-03-6.35795E-04-3.65930E-14
 -1       205 7.53874E-03-6.39695E-04-3.93139E-14
 -1       206 7.82456E-03-6.45443E-04-4.21044E-14
 -1       207 8.10811E-03-6.52755E-04-4.49622E-14
 -1       208 8.38818E-03-6.60668E-04-4.78818E-14
 -1       209 8.66341E-03-6.67228E-04-5.08576E-14
 -1       210 8.93250E-03-6.69237E-04-5.38813E-14
 -1       211 9.19448E-03-6.62199E-04-5.69597E-14
 -1       212 9.44911E-03-6.40613E-04-6.00950E-14
 -1       213 9.69713E-03-5.98696E-04-6.32911E-14
 -1       214 9.94036E-03-5.31448E-04-6.65505E-14
 -1       215 1.01815E-02-4.35775E-04-6.98677E-14
 -1       216 1.04237E-02-3.11260E-04-7.32315E-14
 -1       217 1.06698E-02-1.60270E-04-7.66394E-14
 -1       218 1.09218E-02 1.26651E-05-8.01029E-14
 -1       219 1.11809E-02 2.01918E-04-8.36261E-14
 -1       220 1.14470E-02 4.01894E-04-8.72012E-14
 -1       221 1.17193E-02 6.07875E-04-9.08224E-14
 -1       222 1.19965E-02 8.16431E-04-9.44933E-14
 -1       223 1.22773E-02 1.02545E-03-9.82140E-14
 -1       224 1.25605E-02 1.23391E-03-1.01960E-13
 -1       225 1.28450E-02 1.44154E-03-1.05722E-13
 -1       226 1.31301E-02 1.64850E-03-1.09479E-13
 -1       227 1.34157E-02 1.85504E-03-1.13237E-13
 -1       228 4.53647E-04 2.56806E-04-2.48147E-17
 -1       229 7.52561E-04 3.77561E-04-1.73093E-16
 -1       230 1.03697E-03 4.62037E-04-4.36286E-16
 -1       231 1.31463E-03 5.21928E-04-8.18644E-16
 -1       232 1.58937E-03 5.64456E-04-1.32156E-15
 -1       233 1.86331E-03 5.94392E-04-1.94459E-15
 -1       234 2.13763E-03 6.15091E-04-2.68612E-15
 -1       235 2.41295E-03 6.29014E-04-3.54199E-15
 -1       236 2.67568E-03 6.37648E-04-4.45876E-15
 -1       237 2.95355E-03 6.43234E-04-5.53284E-15
 -1       238 3.23274E-03 6.46256E-04-6.71936E-15
 -1       239 3.51314E-03 6.47487E-04-8.01976E-15
 -1       240 3.79460E-03 6.47486E-04-9.43524E-15
 -1       241 4.07701E-03 6.46645E-04-1.09630E-14
 -1       242 4.36022E-03 6.45223E-04-1.25990E-14
 -1       243 4.64415E-03 6.43378E-04-1.43333E-14
 -1       244 4.92871E-03 6.41186E-04-1.61628E-14
 -1       245 5.21388E-03 6.38657E-04-1.80880E-14
 -1       246 5.48539E-03 6.35905E-04-2.00035E-14
 -1       247 5.77190E-03 6.32553E-04-2.21122E-14
 -1       248 6.05934E-03 6.28608E-04-2.43089E-14
 -1       249 6.34803E-03 6.23906E-04-2.65887E-14
 -1       250 6.63848E-03 6.18265E-04-2.89530E-14
 -1       251 6.93146E-03 6.11523E-04-3.13971E-14
 -1       252 7.22818E-03 6.03630E-04-3.39191E-14
 -1       253 7.53039E-03 5.94858E-04-3.65124E-14
 -1       254 7.84068E-03 5.86272E-04-3.91685E-14
 -1       255 8.16272E-03 5.80700E-04-4.18821E-14
 -1       256 8.48417E-03 5.84203E-04-4.45132E-14
 -1       257 8.84496E-03 6.10391E-04-4.73291E-14
 -1       258 9.23616E-03 6.86608E-04-5.01977E-14
 -1       259 9.66492E-03 8.60191E-04-5.31082E-14
 -1       260 1.00866E-02 1.15267E-03-5.57597E-14
 -1       261 1.05633E-02 1.63230E-03-5.86010E-14
 -1       262 1.10023E-02 2.14045E-03-6.11790E-14
 -1       263 1.14128E-02 2.49824E-03-6.36430E-14
 -1       264 1.18951E-02 2.53230E-03-6.66192E-14
 -1       265 1.28272E-02 1.89032E-03-7.25747E-14
 -1       266 1.33175E-02 1.67757E-03-7.58894E-14
 -1       267 1.37479E-02 1.64436E-03-7.90809E-14
 -1       268 1.41606E-02 1.73061E-03-8.24720E-14
 -1       269 1.45371E-02 1.88521E-03-8.59122E-14
 -1       270 1.48852E-02 2.07237E-03-8.93887E-14
 -1       271 1.52121E-02 2.27286E-03-9.28856E-14
 -1       272 1.55239E-02 2.47712E-03-9.64082E-14
 -1       273 1.58252E-02 2.68040E-03-9.99708E-14
 -1       274 1.61193E-02 2.88023E-03-1.03570E-13
 -1       275 1.64086E-02 3.07516E-03-1.07208E-13
 -1       276 1.65918E-02 3.20050E-03-1.09835E-13
 -1       277 1.64108E-02 3.11807E-03-1.10343E-13
 -1       278 1.62334E-02 3.03878E-03-1.10822E-13
 -1       279 1.60563E-02 2.96315E-03-1.11281E-13
 -1       280 1.58759E-02 2.89059E-03-1.11738E-13
 -1       281 1.56929E-02 2.82091E-03-1.12190E-13
 -1       282 1.55001E-02 2.75001E-03-1.12654E-13
 -1       283 1.53012E-02 2.67760E-03-1.13118E-13
 -1       284 1.50978E-02 2.60267E-03-1.13563E-13
 -1       285 1.48920E-02 2.52489E-03-1.13978E-13
 -1       286 1.46856E-02 2.44448E-03-1.14365E-13
 -1       287 1.44833E-02 2.36345E-03-1.14709E-13
 -1       288 1.42787E-02 2.27972E-03-1.15033E-13
 -1       289 1.40753E-02 2.19538E-03-1.15352E-13
 -1       290 1.38726E-02 2.11089E-03-1.15675E-13
 -1       291 1.38459E-02 1.27967E-03-7.49069E-14
 -1       292 1.37918E-02 1.38518E-03-7.41594E-14
 -1       293 1.35798E-02 1.53222E-03-7.31006E-14
 -1       294 1.32563E-02 1.74783E-03-7.16364E-14
 -1       295 1.28567E-02 1.99420E-03-7.01394E-14
 -1       296 1.24082E-02 2.25573E-03-6.84576E-14
 -1       297 1.19147E-02 2.47030E-03-6.66005E-14
 -1       298 1.14533E-02 2.48083E-03-6.46982E-14
 -1       299 1.09598E-02 2.26927E-03-6.28075E-14
 -1       300 1.04037E-02 1.86892E-03-6.09511E-14
 -1       301 9.84778E-03 1.48863E-03-5.96290E-14
 -1       302 9.37776E-03 1.18981E-03-5.86266E-14
 -1       303 9.01719E-03 9.24460E-04-5.76261E-14
 -1       304 8.77381E-03 7.86443E-04-5.74483E-14
 -1       305 8.69238E-03 6.61653E-04-5.71827E-14
 -1       306 8.77319E-03 5.66384E-04-5.76965E-14
 -1       307 8.98896E-03 4.65806E-04-5.82851E-14
 -1       308 9.29302E-03 3.25186E-04-5.95474E-14
 -1       309 9.65105E-03 1.89727E-04-6.08553E-14
 -1       310 1.00318E-02 6.75176E-05-6.23764E-14
 -1       311 1.04249E-02-1.99931E-05-6.40363E-14
 -1       312 1.08158E-02-3.58112E-05-6.59042E-14
 -1       313 1.12058E-02 2.70895E-05-6.77727E-14
 -1       314 1.16150E-02 1.80256E-04-6.97115E-14
 -1       315 1.21177E-02 3.91192E-04-7.12706E-14
 -1       316 1.25995E-02 6.26255E-04-7.27306E-14
 -1       317 1.30505E-02 8.66346E-04-7.40351E-14
 -1       318 1.34505E-02 1.02600E-03-7.45747E-14
 -1       319 1.37236E-02 1.17362E-03-7.50260E-14
 -1       320 1.23689E-02 2.22548E-03-6.96359E-14
 -1       321 1.37045E-02 2.02636E-03-1.15243E-13
 -1       322 4.55443E-04-1.64961E-04-1.96630E-16
 -1       323 4.74350E-04-2.13136E-04-1.67689E-16
 -1       324 4.40437E-04-9.41948E-05-2.21997E-16
 -1       325 4.37456E-04-6.51137E-05-2.25717E-16
 -1       326 4.35817E-04-3.81382E-05-2.26425E-16
 -1       327 4.35089E-04-1.22912E-05-2.25070E-16
 -1       328 4.35102E-04 1.32080E-05-2.21716E-16
 -1       329 4.35860E-04 3.90814E-05-2.16254E-16
 -1       330 4.37502E-04 6.56411E-05-2.08296E-16
 -1       331 4.40522E-04 9.47767E-05-1.96718E-16
 -1       332 4.45854E-04 1.27477E-04-1.79652E-16
 -1       333 4.55691E-04 1.66055E-04-1.53889E-16
 -1       334 4.75072E-04 2.14784E-04-1.15434E-16
 -1       335 1.27813E-02 1.92416E-03-7.13519E-14
 -1       336 1.37005E-02 1.41173E-03-7.49513E-14
 -1       337 8.63440E-04-3.57692E-04-5.20464E-16
 -1       338 1.14984E-03-4.26560E-04-9.40451E-16
 -1       339 1.43267E-03-4.75836E-04-1.48576E-15
 -1       340 1.71343E-03-5.10667E-04-2.15486E-15
 -1       341 1.99325E-03-5.34855E-04-2.94685E-15
 -1       342 2.27289E-03-5.51224E-04-3.85919E-15
 -1       343 2.55282E-03-5.61891E-04-4.88941E-15
 -1       344 2.83331E-03-5.68448E-04-6.03408E-15
 -1       345 3.11448E-03-5.72090E-04-7.29000E-15
 -1       346 3.39635E-03-5.73701E-04-8.65138E-15
 -1       347 3.67891E-03-5.73928E-04-1.01161E-14
 -1       348 3.96210E-03-5.73233E-04-1.16816E-14
 -1       349 4.24586E-03-5.71940E-04-1.33471E-14
 -1       350 4.53013E-03-5.70270E-04-1.51106E-14
 -1       351 4.81487E-03-5.68373E-04-1.69718E-14
 -1       352 5.10003E-03-5.66355E-04-1.89321E-14
 -1       353 5.38559E-03-5.64303E-04-2.09886E-14
 -1       354 5.67154E-03-5.62309E-04-2.31361E-14
 -1       355 5.95788E-03-5.60492E-04-2.53771E-14
 -1       356 6.24461E-03-5.59022E-04-2.77123E-14
 -1       357 6.53172E-03-5.58132E-04-3.01418E-14
 -1       358 6.81918E-03-5.58130E-04-3.26627E-14
 -1       359 7.10690E-03-5.59383E-04-3.52619E-14
 -1       360 7.39471E-03-5.62275E-04-3.79350E-14
 -1       361 7.68229E-03-5.67103E-04-4.06793E-14
 -1       362 7.96918E-03-5.73917E-04-4.34914E-14
 -1       363 8.25468E-03-5.82256E-04-4.63692E-14
 -1       364 8.53788E-03-5.90835E-04-4.93037E-14
 -1       365 8.81772E-03-5.97192E-04-5.22889E-14
 -1       366 9.09311E-03-5.97454E-04-5.53256E-14
 -1       367 9.36328E-03-5.86363E-04-5.84195E-14
 -1       368 9.62805E-03-5.57763E-04-6.15732E-14
 -1       369 9.88820E-03-5.05590E-04-6.47873E-14
 -1       370 1.01455E-02-4.25190E-04-6.80623E-14
 -1       371 1.04023E-02-3.14524E-04-7.13936E-14
 -1       372 1.06613E-02-1.74731E-04-7.47775E-14
 -1       373 1.09243E-02-9.80296E-06-7.82066E-14
 -1       374 1.11924E-02 1.74498E-04-8.16924E-14
 -1       375 1.14657E-02 3.71983E-04-8.52317E-14
 -1       376 1.17436E-02 5.77159E-04-8.88182E-14
 -1       377 1.20248E-02 7.85865E-04-9.24546E-14
 -1       378 1.23085E-02 9.95421E-04-9.61317E-14
 -1       379 1.25936E-02 1.20443E-03-9.98514E-14
 -1       380 1.28793E-02 1.41244E-03-1.03592E-13
 -1       381 1.31652E-02 1.61957E-03-1.07342E-13
 -1       382 1.34511E-02 1.82616E-03-1.11092E-13
 -1       383 1.39996E-02 1.58192E-03-8.11603E-14
 -1       384 1.13570E-03 4.23778E-04-7.27049E-16
 -1       385 8.49126E-04 3.53829E-04-3.80728E-16
 -1       386 1.41867E-03 4.73902E-04-1.19048E-15
 -1       387 1.69950E-03 5.09366E-04-1.77133E-15
 -1       388 1.97934E-03 5.34025E-04-2.46877E-15
 -1       389 2.25898E-03 5.50743E-04-3.28063E-15
 -1       390 2.52488E-03 5.61234E-04-4.15576E-15
 -1       391 2.80531E-03 5.68156E-04-5.18610E-15
 -1       392 3.08640E-03 5.72057E-04-6.32700E-15
 -1       393 3.36820E-03 5.73846E-04-7.57892E-15
 -1       394 3.65068E-03 5.74183E-04-8.94366E-15
 -1       395 3.93380E-03 5.73537E-04-1.04207E-14
 -1       396 4.21750E-03 5.72226E-04-1.20067E-14
 -1       397 4.50173E-03 5.70449E-04-1.36961E-14
 -1       398 4.78644E-03 5.68314E-04-1.54810E-14
 -1       399 5.07162E-03 5.65857E-04-1.73616E-14
 -1       400 5.34297E-03 5.63203E-04-1.92368E-14
 -1       401 5.62910E-03 5.60001E-04-2.13026E-14
 -1       402 5.91582E-03 5.56266E-04-2.34576E-14
 -1       403 6.20325E-03 5.51845E-04-2.56948E-14
 -1       404 6.49161E-03 5.46556E-04-2.80188E-14
 -1       405 6.78114E-03 5.40218E-04-3.04241E-14
 -1       406 7.07218E-03 5.32709E-04-3.29082E-14
 -1       407 7.36513E-03 5.24111E-04-3.54656E-14
 -1       408 7.66042E-03 5.15005E-04-3.80918E-14
 -1       409 7.95844E-03 5.07090E-04-4.07796E-14
 -1       410 8.24435E-03 5.04303E-04-4.33845E-14
 -1       411 8.54865E-03 5.14390E-04-4.61814E-14
 -1       412 8.85799E-03 5.54084E-04-4.90265E-14
 -1       413 9.17840E-03 6.53487E-04-5.19210E-14
 -1       414 9.49143E-03 8.36407E-04-5.45623E-14
 -1       415 9.98443E-03 1.23755E-03-5.74055E-14
 -1       416 1.05062E-02 1.78017E-03-6.00869E-14
 -1       417 1.36791E-02 1.52575E-03-7.79395E-14
 -1       418 1.33006E-02 1.60413E-03-7.45862E-14
 -1       419 1.43180E-02 1.71934E-03-8.45901E-14
 -1       420 1.46273E-02 1.89791E-03-8.80621E-14
 -1       421 1.49309E-02 2.09523E-03-9.15570E-14
 -1       422 1.52300E-02 2.29940E-03-9.50736E-14
 -1       423 1.55250E-02 2.50431E-03-9.86253E-14
 -1       424 1.58167E-02 2.70678E-03-1.02213E-13
 -1       425 1.61056E-02 2.90500E-03-1.05837E-13
 -1       426 1.62586E-02 3.01262E-03-1.08083E-13
 -1       427 1.59002E-02 2.83526E-03-1.07893E-13
 -1       428 1.60787E-02 2.92278E-03-1.07993E-13
 -1       429 1.57232E-02 2.76108E-03-1.08359E-13
 -1       430 1.55439E-02 2.68996E-03-1.08805E-13
 -1       431 1.53542E-02 2.61780E-03-1.09252E-13
 -1       432 1.51574E-02 2.54435E-03-1.09689E-13
 -1       433 1.49549E-02 2.46864E-03-1.10114E-13
 -1       434 1.47490E-02 2.39027E-03-1.10521E-13
 -1       435 1.45418E-02 2.30942E-03-1.10911E-13
 -1       436 1.43385E-02 2.22803E-03-1.11277E-13
 -1       437 1.41331E-02 2.14398E-03-1.11626E-13
 -1       438 1.39291E-02 2.05932E-03-1.11954E-13
 -1       439 1.37263E-02 1.97455E-03-1.12274E-13
 -1       440 1.33726E-02 1.57985E-03-7.33109E-14
 -1       441 1.38179E-02 1.27630E-03-7.64459E-14
 -1       442 4.45703E-04-1.26579E-04-2.13191E-16
 -1       443 1.29918E-02 1.80063E-03-7.18415E-14
 -1       444 1.25598E-02 2.10241E-03-6.98644E-14
 -1       445 1.21636E-02 2.37247E-03-6.80040E-14
 -1       446 9.70528E-03 1.18038E-03-5.79105E-14
 -1       447 9.28921E-03 9.30500E-04-5.69244E-14
 -1       448 8.86809E-03 7.13933E-04-5.58454E-14
 -1       449 8.70664E-03 6.45248E-04-5.55853E-14
 -1       450 8.70358E-03 6.01570E-04-5.62168E-14
 -1       451 8.84480E-03 5.45945E-04-5.67953E-14
 -1       452 9.18704E-03 4.26105E-04-5.76886E-14
 -1       453 9.48192E-03 3.09797E-04-5.89713E-14
 -1       454 9.89128E-03 1.38886E-04-6.08280E-14
 -1       455 1.02077E-02 1.95469E-05-6.24604E-14
 -1       456 1.06247E-02-6.90931E-05-6.48955E-14
 -1       457 1.09405E-02-5.20502E-05-6.69462E-14
 -1       458 1.12975E-02 7.50531E-05-6.91144E-14
 -1       459 1.18018E-02 3.37455E-04-7.14442E-14
 -1       460 1.22383E-02 5.85496E-04-7.30836E-14
 -1       461 1.27017E-02 8.52774E-04-7.47721E-14
 -1       462 1.32372E-02 1.08921E-03-7.60212E-14
 -1       463 1.35658E-02 1.20011E-03-7.64697E-14
 -1       464 1.38556E-02 1.33340E-03-7.60793E-14
 -1       465 1.14954E-02 2.08337E-04-7.08411E-14
 -1       466 1.37376E-02 1.30662E-03-7.81403E-14
 -1       467 6.65779E-04-7.54616E-05-4.81064E-16
 -1       468 6.69775E-04-1.16186E-04-4.76697E-16
 -1       469 6.63050E-04 6.70671E-07-4.75995E-16
 -1       470 6.63737E-04 3.82555E-05-4.67406E-16
 -1       471 6.65837E-04 7.62100E-05-4.54843E-16
 -1       472 6.69877E-04 1.16989E-04-4.36662E-16
 -1       473 6.76802E-04 1.61429E-04-4.10862E-16
 -1       474 6.88606E-04 2.11577E-04-3.74412E-16
 -1       475 7.62702E-04 2.77449E-04-3.87358E-16
 -1       476 1.38952E-02 1.34577E-03-7.81065E-14
 -1       477 9.76421E-04-3.28960E-04-7.73331E-16
 -1       478 1.26235E-03-3.83951E-04-1.26744E-15
 -1       479 1.54740E-03-4.23801E-04-1.88316E-15
 -1       480 1.83156E-03-4.51954E-04-2.61958E-15
 -1       481 2.11512E-03-4.71309E-04-3.47475E-15
 -1       482 2.39842E-03-4.84157E-04-4.44660E-15
 -1       483 2.68170E-03-4.92270E-04-5.53312E-15
 -1       484 2.96512E-03-4.96994E-04-6.73121E-15
 -1       485 3.24878E-03-4.99340E-04-8.03658E-15
 -1       486 3.53272E-03-5.00052E-04-9.44638E-15
 -1       487 3.81696E-03-4.99669E-04-1.09568E-14
 -1       488 4.10148E-03-4.98570E-04-1.25681E-14
 -1       489 4.38628E-03-4.97015E-04-1.42779E-14
 -1       490 4.67133E-03-4.95176E-04-1.60846E-14
 -1       491 4.95663E-03-4.93171E-04-1.79910E-14
 -1       492 5.24217E-03-4.91082E-04-1.99934E-14
 -1       493 5.52796E-03-4.88983E-04-2.20880E-14
 -1       494 5.81402E-03-4.86963E-04-2.42751E-14
 -1       495 6.10040E-03-4.85144E-04-2.65546E-14
 -1       496 6.38716E-03-4.83706E-04-2.89290E-14
 -1       497 6.67438E-03-4.82898E-04-3.13945E-14
 -1       498 6.96215E-03-4.83050E-04-3.39443E-14
 -1       499 7.25056E-03-4.84551E-04-3.65693E-14
 -1       500 7.53967E-03-4.87803E-04-3.92674E-14
 -1       501 7.82944E-03-4.93109E-04-4.20364E-14
 -1       502 8.11966E-03-5.00482E-04-4.48687E-14
 -1       503 8.40986E-03-5.09353E-04-4.77635E-14
 -1       504 8.69922E-03-5.18184E-04-5.07095E-14
 -1       505 8.98656E-03-5.24048E-04-5.37057E-14
 -1       506 9.27056E-03-5.22337E-04-5.67554E-14
 -1       507 9.55012E-03-5.06847E-04-5.98660E-14
 -1       508 9.82493E-03-4.70512E-04-6.30359E-14
 -1       509 1.00959E-02-4.06838E-04-6.62683E-14
 -1       510 1.03651E-02-3.11643E-04-6.95634E-14
 -1       511 1.06352E-02-1.84371E-04-7.29171E-14
 -1       512 1.09086E-02-2.82635E-05-7.63170E-14
 -1       513 1.11866E-02 1.50691E-04-7.97675E-14
 -1       514 1.14691E-02 3.45476E-04-8.32737E-14
 -1       515 1.17552E-02 5.49619E-04-8.68259E-14
 -1       516 1.20435E-02 7.58136E-04-9.04277E-14
 -1       517 1.23328E-02 9.67784E-04-9.40704E-14
 -1       518 1.26222E-02 1.17685E-03-9.77542E-14
 -1       519 1.29109E-02 1.38474E-03-1.01472E-13
 -1       520 1.31989E-02 1.59156E-03-1.05206E-13
 -1       521 1.34629E-02 1.78312E-03-1.08740E-13
 -1       522 1.44225E-02 1.74740E-03-8.67216E-14
 -1       523 1.24815E-03 3.81761E-04-1.04518E-15
 -1       524 1.81744E-03 4.50948E-04-2.24242E-15
 -1       525 2.10103E-03 4.70693E-04-3.01110E-15
 -1       526 2.37017E-03 4.83305E-04-3.84414E-15
 -1       527 2.65344E-03 4.91835E-04-4.83100E-15
 -1       528 2.93685E-03 4.96859E-04-5.92808E-15
 -1       529 3.22049E-03 4.99414E-04-7.13441E-15
 -1       530 3.50441E-03 5.00264E-04-8.45076E-15
 -1       531 3.78863E-03 4.99958E-04-9.87855E-15
 -1       532 4.07315E-03 4.98877E-04-1.14153E-14
 -1       533 4.35795E-03 4.97269E-04-1.30583E-14
 -1       534 4.64302E-03 4.95283E-04-1.47994E-14
 -1       535 4.92834E-03 4.92987E-04-1.66355E-14
 -1       536 5.19963E-03 4.90524E-04-1.84696E-14
 -1       537 5.48544E-03 4.87597E-04-2.04916E-14
 -1       538 5.77148E-03 4.84247E-04-2.26049E-14
 -1       539 6.05776E-03 4.80367E-04-2.48034E-14
 -1       540 6.34422E-03 4.75834E-04-2.70847E-14
 -1       541 6.63077E-03 4.70541E-04-2.94515E-14
 -1       542 6.91716E-03 4.64446E-04-3.18963E-14
 -1       543 7.20293E-03 4.57685E-04-3.44202E-14
 -1       544 7.48721E-03 4.50775E-04-3.70153E-14
 -1       545 7.76848E-03 4.45005E-04-3.96752E-14
 -1       546 8.03067E-03 4.43006E-04-4.22574E-14
 -1       547 8.29796E-03 4.49463E-04-4.50291E-14
 -1       548 8.55205E-03 4.73481E-04-4.78547E-14
 -1       549 8.79083E-03 5.30147E-04-5.07266E-14
 -1       550 8.99228E-03 6.31460E-04-5.33534E-14
 -1       551 1.06952E-02-9.32240E-05-6.56038E-14
 -1       552 1.41711E-02 1.58396E-03-8.32577E-14
 -1       553 1.36656E-02 1.44719E-03-7.65391E-14
 -1       554 1.46871E-02 1.93410E-03-9.02174E-14
 -1       555 1.49612E-02 2.13205E-03-9.37302E-14
 -1       556 1.52412E-02 2.33418E-03-9.72692E-14
 -1       557 1.55243E-02 2.53633E-03-1.00845E-13
 -1       558 1.59266E-02 2.81443E-03-1.05755E-13
 -1       559 1.53932E-02 2.55837E-03-1.05432E-13
 -1       560 1.52072E-02 2.48712E-03-1.05873E-13
 -1       561 1.55711E-02 2.63019E-03-1.04976E-13
 -1       562 1.50126E-02 2.41437E-03-1.06294E-13
 -1       563 1.48107E-02 2.33882E-03-1.06709E-13
 -1       564 1.46043E-02 2.25996E-03-1.07107E-13
 -1       565 1.43960E-02 2.17807E-03-1.07496E-13
 -1       566 1.41914E-02 2.09535E-03-1.07862E-13
 -1       567 1.39849E-02 2.00985E-03-1.08219E-13
 -1       568 1.37805E-02 1.92386E-03-1.08560E-13
 -1       569 7.12735E-04-2.51981E-04-4.37503E-16
 -1       570 1.29498E-02 1.07083E-03-7.73297E-14
 -1       571 1.39443E-02 1.46894E-03-8.00047E-14
 -1       572 1.00535E-03 3.36275E-04-6.74604E-16
 -1       573 1.53325E-03 4.22277E-04-1.58680E-15
 -1       574 6.63688E-04-3.68958E-05-4.80657E-16
 -1       575 1.38302E-02 1.38155E-03-7.72155E-14
 -1       576 9.53717E-03 9.45492E-04-5.61124E-14
 -1       577 9.08527E-03 7.29569E-04-5.50678E-14
 -1       578 8.75830E-03 6.05422E-04-5.41217E-14
 -1       579 8.64738E-03 5.73870E-04-5.43520E-14
 -1       580 8.73509E-03 5.54311E-04-5.51382E-14
 -1       581 8.93491E-03 4.88424E-04-5.56518E-14
 -1       582 9.32818E-03 3.51530E-04-5.73012E-14
 -1       583 9.67575E-03 2.10937E-04-5.90234E-14
 -1       584 1.00268E-02 5.36050E-05-6.08729E-14
 -1       585 1.03761E-02-5.61013E-05-6.32143E-14
 -1       586 1.10504E-02-3.45325E-06-6.85399E-14
 -1       587 1.19568E-02 5.09219E-04-7.33884E-14
 -1       588 1.23717E-02 7.68708E-04-7.52660E-14
 -1       589 1.34182E-02 1.23826E-03-7.81747E-14
 -1       590 6.76603E-04-1.60391E-04-4.65821E-16
 -1       591 1.16740E-02 3.63020E-04-7.27750E-14
 -1       592 1.12283E-02 9.73478E-05-7.02600E-14
 -1       593 9.04226E-03 4.13230E-04-5.52632E-14
 -1       594 8.99542E-04 7.34324E-05-7.95289E-16
 -1       595 8.97503E-04 2.45891E-05-8.12088E-16
 -1       596 9.11467E-04 1.77303E-04-7.38596E-16
 -1       597 9.23684E-04 2.35664E-04-6.92659E-16
 -1       598 9.62121E-04 2.83870E-04-6.88953E-16
 -1       599 1.65533E-03 3.67426E-04-2.00764E-15
 -1       600 8.72406E-04-2.47490E-04-6.92317E-16
 -1       601 1.15621E-03-2.99849E-04-1.16162E-15
 -1       602 1.44195E-03-3.39362E-04-1.75065E-15
 -1       603 1.72827E-03-3.68007E-04-2.45840E-15
 -1       604 2.01461E-03-3.88078E-04-3.28225E-15
 -1       605 2.30079E-03-4.01625E-04-4.22159E-15
 -1       606 2.58679E-03-4.10338E-04-5.27456E-15
 -1       607 2.87266E-03-4.15548E-04-6.43814E-15
 -1       608 3.15842E-03-4.18277E-04-7.70927E-15
 -1       609 3.44411E-03-4.19289E-04-9.08568E-15
 -1       610 3.72978E-03-4.19143E-04-1.05616E-14
 -1       611 4.01542E-03-4.18233E-04-1.21389E-14
 -1       612 4.30106E-03-4.16832E-04-1.38162E-14
 -1       613 4.58672E-03-4.15118E-04-1.55889E-14
 -1       614 4.87240E-03-4.13209E-04-1.74614E-14
 -1       615 5.15813E-03-4.11179E-04-1.94311E-14
 -1       616 5.44394E-03-4.09082E-04-2.14920E-14
 -1       617 5.72987E-03-4.06974E-04-2.36454E-14
 -1       618 6.01602E-03-4.04931E-04-2.58907E-14
 -1       619 6.30249E-03-4.03069E-04-2.82288E-14
 -1       620 6.58948E-03-4.01565E-04-3.06588E-14
 -1       621 6.87723E-03-4.00674E-04-3.31730E-14
 -1       622 7.16606E-03-4.00738E-04-3.57648E-14
 -1       623 7.45637E-03-4.02175E-04-3.84304E-14
 -1       624 7.74852E-03-4.05432E-04-4.11663E-14
 -1       625 8.04283E-03-4.10871E-04-4.39705E-14
 -1       626 8.33929E-03-4.18539E-04-4.68345E-14
 -1       627 8.63745E-03-4.27792E-04-4.97525E-14
 -1       628 8.93616E-03-4.36741E-04-5.27185E-14
 -1       629 9.23360E-03-4.41616E-04-5.57372E-14
 -1       630 9.52767E-03-4.36337E-04-5.88117E-14
 -1       631 9.81680E-03-4.12785E-04-6.19525E-14
 -1       632 1.01009E-02-3.62287E-04-6.51552E-14
 -1       633 1.03820E-02-2.78084E-04-6.84224E-14
 -1       634 1.06633E-02-1.57846E-04-7.17550E-14
 -1       635 1.09480E-02-4.58894E-06-7.51345E-14
 -1       636 1.12379E-02 1.74525E-04-7.85633E-14
 -1       637 1.15325E-02 3.70786E-04-8.20452E-14
 -1       638 1.18302E-02 5.76348E-04-8.55756E-14
 -1       639 1.21287E-02 7.85530E-04-8.91498E-14
 -1       640 1.24264E-02 9.94970E-04-9.27663E-14
 -1       641 1.27222E-02 1.20315E-03-9.64226E-14
 -1       642 1.30156E-02 1.40977E-03-1.00114E-13
 -1       643 1.33066E-02 1.61520E-03-1.03828E-13
 -1       644 1.07728E-02-8.70839E-05-6.68803E-14
 -1       645 1.94155E-03 3.89709E-04-2.73423E-15
 -1       646 2.78493E-03 4.20643E-04-5.52339E-15
 -1       647 3.07056E-03 4.24082E-04-6.68523E-15
 -1       648 3.35616E-03 4.25574E-04-7.95492E-15
 -1       649 3.64173E-03 4.25735E-04-9.33538E-15
 -1       650 3.92732E-03 4.25004E-04-1.08249E-14
 -1       651 4.21292E-03 4.23677E-04-1.24198E-14
 -1       652 4.49856E-03 4.21941E-04-1.41173E-14
 -1       653 4.78422E-03 4.19902E-04-1.59116E-14
 -1       654 5.05561E-03 4.17723E-04-1.77024E-14
 -1       655 5.34129E-03 4.15173E-04-1.96820E-14
 -1       656 5.62690E-03 4.12329E-04-2.17531E-14
 -1       657 5.91237E-03 4.09142E-04-2.39107E-14
 -1       658 6.19751E-03 4.05573E-04-2.61528E-14
 -1       659 6.48203E-03 4.01617E-04-2.84782E-14
 -1       660 6.76542E-03 3.97369E-04-3.08849E-14
 -1       661 7.04683E-03 3.93109E-04-3.33729E-14
 -1       662 7.32488E-03 3.89473E-04-3.59361E-14
 -1       663 7.59735E-03 3.87715E-04-3.85681E-14
 -1       664 7.84796E-03 3.89792E-04-4.11273E-14
 -1       665 8.09833E-03 3.99487E-04-4.38780E-14
 -1       666 8.32808E-03 4.22368E-04-4.66818E-14
 -1       667 8.52826E-03 4.66530E-04-4.95360E-14
 -1       668 1.44657E-02 1.79622E-03-8.88553E-14
 -1       669 1.52403E-02 2.37247E-03-9.94666E-14
 -1       670 1.50638E-02 2.35732E-03-1.02506E-13
 -1       671 1.52444E-02 2.42580E-03-1.02067E-13
 -1       672 1.48718E-02 2.28723E-03-1.02922E-13
 -1       673 1.44625E-02 2.13488E-03-1.03714E-13
 -1       674 1.42520E-02 2.05204E-03-1.04099E-13
 -1       675 1.40453E-02 1.96747E-03-1.04463E-13
 -1       676 1.38372E-02 1.87962E-03-1.04816E-13
 -1       677 1.36320E-02 1.79128E-03-1.05159E-13
 -1       678 8.60216E-03 5.17374E-04-5.20743E-14
 -1       679 1.36763E-02 1.37180E-03-8.07178E-14
 -1       680 1.47098E-02 1.98116E-03-9.23705E-14
 -1       681 1.40648E-02 1.48834E-03-8.19668E-14
 -1       682 1.32293E-02 1.23226E-03-7.96531E-14
 -1       683 9.03934E-04 1.23826E-04-7.71779E-16
 -1       684 1.46703E-02 2.21339E-03-1.03324E-13
 -1       685 1.49699E-02 2.17485E-03-9.59021E-14
 -1       686 2.49919E-03 4.14417E-04-4.47004E-15
 -1       687 1.42454E-02 1.62705E-03-8.53640E-14
 -1       688 2.22046E-03 4.04592E-04-3.54905E-15
 -1       689 9.03787E-04-1.22622E-04-8.24214E-16
 -1       690 8.62386E-03 5.14938E-04-5.30243E-14
 -1       691 8.74555E-03 4.79328E-04-5.35306E-14
 -1       692 9.44587E-03 2.40428E-04-5.70105E-14
 -1       693 1.36915E-03 3.35901E-04-1.39226E-15
 -1       694 1.26307E-02 9.65909E-04-7.78205E-14
 -1       695 9.75970E-03 1.05434E-04-5.88305E-14
 -1       696 1.38969E-02 1.40872E-03-8.06868E-14
 -1       697 1.20925E-02 6.60293E-04-7.57326E-14
 -1       698 1.39676E-02 1.41140E-03-8.00349E-14
 -1       699 9.11218E-04-1.75969E-04-8.13196E-16
 -1       700 8.97483E-04-2.36746E-05-8.22621E-16
 -1       701 1.09394E-02-2.91722E-05-6.85808E-14
 -1       702 8.99466E-04-7.22871E-05-8.26718E-16
 -1       703 1.05054E-02-1.14850E-04-6.45044E-14
 -1       704 9.15157E-03 3.06983E-04-5.49718E-14
 -1       705 1.29451E-02 1.14529E-03-8.01516E-14
 -1       706 1.16532E-03 3.13945E-04-1.00939E-15
 -1       707 1.00250E-02-1.45046E-05-6.05997E-14
 -1       708 1.16106E-03 2.42606E-04-1.10869E-15
 -1       709 1.36877E-02 1.75329E-03-1.01441E-13
 -1       710 3.49352E-03 3.50797E-04-8.79100E-15
 -1       711 1.28327E-03-2.57778E-04-1.47504E-15
 -1       712 1.56930E-03-2.87030E-04-2.12836E-15
 -1       713 1.85659E-03-3.08218E-04-2.89736E-15
 -1       714 2.14440E-03-3.22957E-04-3.78078E-15
 -1       715 2.43229E-03-3.32753E-04-4.77688E-15
 -1       716 2.72006E-03-3.38881E-04-5.88295E-15
 -1       717 3.00762E-03-3.42360E-04-7.09799E-15
 -1       718 3.29491E-03-3.43977E-04-8.41839E-15
 -1       719 3.58193E-03-3.44315E-04-9.84035E-15
 -1       720 3.86870E-03-3.43799E-04-1.13626E-14
 -1       721 4.15525E-03-3.42723E-04-1.29852E-14
 -1       722 4.44158E-03-3.41285E-04-1.47057E-14
 -1       723 4.72773E-03-3.39608E-04-1.65250E-14
 -1       724 5.01374E-03-3.37766E-04-1.84424E-14
 -1       725 5.29964E-03-3.35798E-04-2.04528E-14
 -1       726 5.58550E-03-3.33727E-04-2.25547E-14
 -1       727 5.87140E-03-3.31578E-04-2.47479E-14
 -1       728 6.15748E-03-3.29389E-04-2.70321E-14
 -1       729 6.44396E-03-3.27235E-04-2.94071E-14
 -1       730 6.73116E-03-3.25248E-04-3.18723E-14
 -1       731 7.01952E-03-3.23644E-04-3.44155E-14
 -1       732 7.30964E-03-3.22752E-04-3.70352E-14
 -1       733 7.60224E-03-3.23031E-04-3.97243E-14
 -1       734 7.89811E-03-3.25066E-04-4.24851E-14
 -1       735 8.19791E-03-3.29483E-04-4.53094E-14
 -1       736 8.50192E-03-3.36704E-04-4.81889E-14
 -1       737 8.80961E-03-3.46453E-04-5.11179E-14
 -1       738 9.11931E-03-3.56905E-04-5.40970E-14
 -1       739 9.42817E-03-3.63544E-04-5.71284E-14
 -1       740 9.73291E-03-3.58387E-04-6.02227E-14
 -1       741 1.00314E-02-3.30418E-04-6.33827E-14
 -1       742 1.03243E-02-2.68633E-04-6.66101E-14
 -1       743 1.06151E-02-1.65905E-04-6.99026E-14
 -1       744 1.09086E-02-2.28849E-05-7.32535E-14
 -1       745 1.12081E-02 1.52655E-04-7.66534E-14
 -1       746 1.15138E-02 3.49385E-04-8.00999E-14
 -1       747 1.18232E-02 5.56674E-04-8.35975E-14
 -1       748 1.21329E-02 7.67069E-04-8.71385E-14
 -1       749 1.24404E-02 9.76579E-04-9.07249E-14
 -1       750 1.27439E-02 1.18377E-03-9.43498E-14
 -1       751 1.30431E-02 1.38871E-03-9.80042E-14
 -1       752 1.33391E-02 1.59046E-03-1.01567E-13
 -1       753 1.49668E-02 2.22694E-03-9.83721E-14
 -1       754 1.78298E-03 3.09377E-04-2.45215E-15
 -1       755 3.20650E-03 3.50107E-04-7.45730E-15
 -1       756 2.91923E-03 3.47957E-04-6.23267E-15
 -1       757 3.78031E-03 3.50498E-04-1.02333E-14
 -1       758 4.06688E-03 3.49540E-04-1.17824E-14
 -1       759 4.35325E-03 3.48144E-04-1.34342E-14
 -1       760 4.63943E-03 3.46448E-04-1.51854E-14
 -1       761 4.91112E-03 3.44628E-04-1.69372E-14
 -1       762 5.19688E-03 3.42527E-04-1.88726E-14
 -1       763 5.48236E-03 3.40248E-04-2.09004E-14
 -1       764 5.76743E-03 3.37802E-04-2.30174E-14
 -1       765 6.05187E-03 3.35222E-04-2.52218E-14
 -1       766 6.33536E-03 3.32602E-04-2.75072E-14
 -1       767 6.61731E-03 3.30150E-04-2.98767E-14
 -1       768 6.89685E-03 3.28284E-04-3.23259E-14
 -1       769 7.17261E-03 3.27757E-04-3.48561E-14
 -1       770 7.44254E-03 3.29864E-04-3.74594E-14
 -1       771 7.69080E-03 3.36172E-04-3.99938E-14
 -1       772 7.93939E-03 3.50354E-04-4.27221E-14
 -1       773 8.16895E-03 3.76458E-04-4.55064E-14
 -1       774 8.37102E-03 4.19747E-04-4.83390E-14
 -1       775 2.63172E-03 3.43698E-04-5.11459E-15
 -1       776 1.05611E-02-1.32744E-04-6.56413E-14
 -1       777 8.49966E-03 4.62536E-04-5.06684E-14
 -1       778 1.23809E-02 8.61685E-04-7.84616E-14
 -1       779 1.38951E-02 1.84266E-03-1.01098E-13
 -1       780 1.41091E-02 1.93084E-03-1.00736E-13
 -1       781 1.35121E-02 1.67186E-03-1.01508E-13
 -1       782 1.44591E-02 1.84797E-03-9.09863E-14
 -1       783 1.40202E-02 1.48647E-03-8.26316E-14
 -1       784 8.81096E-03 3.83212E-04-5.27334E-14
 -1       785 1.49592E-03 2.85921E-04-1.76621E-15
 -1       786 1.42393E-02 1.68082E-03-8.74735E-14
 -1       787 1.13801E-03 5.83239E-05-1.22807E-15
 -1       788 1.35099E-02 1.37754E-03-8.24642E-14
 -1       789 1.14607E-02 2.67631E-04-7.28731E-14
 -1       790 1.47350E-02 2.16113E-03-9.95831E-14
 -1       791 8.55682E-03 4.44101E-04-5.11696E-14
 -1       792 1.38704E-02 1.46128E-03-8.26940E-14
 -1       793 9.73185E-03 1.00085E-05-5.83362E-14
 -1       794 9.47299E-03 1.22713E-04-5.65209E-14
 -1       795 1.18372E-02 5.26134E-04-7.58321E-14
 -1       796 1.13670E-03 5.46742E-07-1.24723E-15
 -1       797 1.47015E-02 2.02851E-03-9.45203E-14
 -1       798 1.11636E-02 9.65367E-05-7.11675E-14
 -1       799 1.02753E-02-1.38185E-04-6.29750E-14
 -1       800 2.06343E-03 3.25502E-04-3.22606E-15
 -1       801 1.26987E-02 1.04894E-03-8.08010E-14
 -1       802 1.45339E-02 2.09101E-03-9.99799E-14
 -1       803 1.37533E-02 1.48412E-03-8.44554E-14
 -1       804 1.07179E-02-1.00488E-04-6.73247E-14
 -1       805 1.14919E-03-1.76637E-04-1.25141E-15
 -1       806 2.35122E-03 3.36695E-04-4.12862E-15
 -1       807 1.43236E-02 2.01416E-03-1.00363E-13
 -1       808 9.99263E-03-9.55046E-05-6.04787E-14
 -1       809 1.14945E-03 1.78208E-04-1.16124E-15
 -1       810 9.19437E-03 1.85948E-04-5.44837E-14
 -1       811 1.32730E-02 1.31519E-03-8.29751E-14
 -1       812 1.14204E-03 1.17095E-04-1.19996E-15
 -1       813 1.14194E-03-1.15730E-04-1.25963E-15
 -1       814 3.92015E-03 2.74793E-04-1.11425E-14
 -1       815 1.03428E-02-1.80616E-04-6.42633E-14
 -1       816 1.70106E-03-2.30658E-04-2.52287E-15
 -1       817 1.98925E-03-2.45335E-04-3.35055E-15
 -1       818 2.27818E-03-2.55424E-04-4.29021E-15
 -1       819 2.56731E-03-2.61993E-04-5.33903E-15
 -1       820 2.85633E-03-2.65956E-04-6.49706E-15
 -1       821 3.14505E-03-2.68050E-04-7.76064E-15
 -1       822 3.43339E-03-2.68837E-04-9.12819E-15
 -1       823 3.72132E-03-2.68737E-04-1.05956E-14
 -1       824 4.00882E-03-2.68045E-04-1.21636E-14
 -1       825 4.29593E-03-2.66962E-04-1.38309E-14
 -1       826 4.58268E-03-2.65616E-04-1.55967E-14
 -1       827 4.86909E-03-2.64076E-04-1.74620E-14
 -1       828 5.15521E-03-2.62373E-04-1.94227E-14
 -1       829 5.44110E-03-2.60506E-04-2.14745E-14
 -1       830 5.72684E-03-2.58455E-04-2.36163E-14
 -1       831 6.01255E-03-2.56191E-04-2.58482E-14
 -1       832 6.29843E-03-2.53689E-04-2.81697E-14
 -1       833 6.58479E-03-2.50949E-04-3.05822E-14
 -1       834 6.87210E-03-2.48018E-04-3.30768E-14
 -1       835 7.16102E-03-2.45042E-04-3.56489E-14
 -1       836 7.45247E-03-2.42324E-04-3.82942E-14
 -1       837 7.74759E-03-2.40409E-04-4.10090E-14
 -1       838 8.04767E-03-2.40155E-04-4.37929E-14
 -1       839 8.35391E-03-2.42722E-04-4.66361E-14
 -1       840 8.66691E-03-2.49321E-04-4.95292E-14
 -1       841 8.98612E-03-2.60496E-04-5.24697E-14
 -1       842 9.30896E-03-2.74780E-04-5.54611E-14
 -1       843 9.63106E-03-2.86323E-04-5.85119E-14
 -1       844 9.94711E-03-2.83521E-04-6.16250E-14
 -1       845 1.02555E-02-2.50307E-04-6.48080E-14
 -1       846 1.05571E-02-1.72350E-04-6.80579E-14
 -1       847 1.08599E-02-4.39774E-05-7.13737E-14
 -1       848 1.11692E-02 1.27825E-04-7.47441E-14
 -1       849 1.14868E-02 3.27662E-04-7.81632E-14
 -1       850 1.18096E-02 5.39872E-04-8.16275E-14
 -1       851 1.21327E-02 7.53707E-04-8.51368E-14
 -1       852 1.24517E-02 9.64170E-04-8.86920E-14
 -1       853 1.27644E-02 1.17019E-03-9.22856E-14
 -1       854 1.30701E-02 1.37259E-03-9.59079E-14
 -1       855 1.32928E-02 1.52245E-03-9.86972E-14
 -1       856 1.13796E-03-5.70990E-05-1.25802E-15
 -1       857 3.63255E-03 2.75340E-04-9.64196E-15
 -1       858 3.05615E-03 2.74038E-04-6.95940E-15
 -1       859 4.20736E-03 2.73796E-04-1.27500E-14
 -1       860 4.49418E-03 2.72504E-04-1.44573E-14
 -1       861 4.76630E-03 2.71094E-04-1.61690E-14
 -1       862 5.05236E-03 2.69481E-04-1.80630E-14
 -1       863 5.33796E-03 2.67781E-04-2.00494E-14
 -1       864 5.62300E-03 2.66049E-04-2.21249E-14
 -1       865 5.90729E-03 2.64371E-04-2.42883E-14
 -1       866 6.19051E-03 2.62903E-04-2.65354E-14
 -1       867 6.47219E-03 2.61928E-04-2.88677E-14
 -1       868 6.75161E-03 2.61930E-04-3.12810E-14
 -1       869 7.02769E-03 2.63703E-04-3.37755E-14
 -1       870 7.29892E-03 2.68502E-04-3.63470E-14
 -1       871 7.55017E-03 2.77561E-04-3.88554E-14
 -1       872 7.80518E-03 2.94380E-04-4.15589E-14
 -1       873 8.04695E-03 3.22057E-04-4.43238E-14
 -1       874 8.27100E-03 3.64304E-04-4.71372E-14
 -1       875 2.76740E-03 2.71383E-04-5.77776E-15
 -1       876 1.00877E-02-1.74248E-04-6.17386E-14
 -1       877 8.41744E-03 4.00499E-04-4.91433E-14
 -1       878 1.35347E-02 1.63060E-03-9.81050E-14
 -1       879 8.53209E-03 3.55520E-04-4.98929E-14
 -1       880 1.37505E-02 1.72529E-03-9.77679E-14
 -1       881 1.15566E-02 3.53007E-04-7.48315E-14
 -1       882 9.42044E-03 5.43704E-06-5.58313E-14
 -1       883 1.48261E-03 2.12860E-04-1.83778E-15
 -1       884 3.34455E-03 2.75201E-04-8.24592E-15
 -1       885 1.42370E-03-2.06246E-04-1.83384E-15
 -1       886 1.42010E-02 1.72984E-03-8.95528E-14
 -1       887 1.44672E-02 1.97210E-03-9.57105E-14
 -1       888 8.86752E-03 2.77826E-04-5.22551E-14
 -1       889 9.67257E-03-9.25150E-05-5.79348E-14
 -1       890 1.21433E-02 7.36907E-04-7.89961E-14
 -1       891 1.42577E-02 1.90464E-03-9.60966E-14
 -1       892 1.30471E-02 1.23799E-03-8.36358E-14
 -1       893 2.48563E-03 2.66754E-04-4.72875E-15
 -1       894 1.40039E-02 1.56758E-03-8.55057E-14
 -1       895 1.09303E-02-1.49275E-05-6.98871E-14
 -1       896 1.79873E-03 2.23022E-04-2.62976E-15
 -1       897 1.39711E-02 1.81567E-03-9.74144E-14
 -1       898 1.38388E-03 9.92377E-05-1.71997E-15
 -1       899 1.18555E-02 5.58090E-04-7.79816E-14
 -1       900 9.16557E-03 5.96873E-05-5.37979E-14
 -1       901 1.04929E-02-1.64551E-04-6.59300E-14
 -1       902 1.41511E-03-1.37222E-04-1.84456E-15
 -1       903 1.35515E-02 1.44170E-03-8.49784E-14
 -1       904 1.24478E-02 9.25268E-04-8.13389E-14
 -1       905 1.43275E-02 1.84900E-03-9.26233E-14
 -1       906 1.38077E-03 3.32724E-05-1.75121E-15
 -1       907 1.41018E-03-7.01205E-05-1.84222E-15
 -1       908 4.34870E-03 1.97999E-04-1.37277E-14
 -1       909 8.35663E-03 3.22731E-04-4.78773E-14
 -1       910 2.12563E-03-1.79410E-04-3.81604E-15
 -1       911 2.41543E-03-1.85621E-04-4.80803E-15
 -1       912 2.70544E-03-1.89551E-04-5.90815E-15
 -1       913 2.99528E-03-1.91808E-04-7.11450E-15
 -1       914 3.28474E-03-1.92874E-04-8.42612E-15
 -1       915 3.57372E-03-1.93115E-04-9.83897E-15
 -1       916 3.86216E-03-1.92797E-04-1.13529E-14
 -1       917 4.15006E-03-1.92103E-04-1.29656E-14
 -1       918 4.43745E-03-1.91151E-04-1.46787E-14
 -1       919 4.72434E-03-1.90005E-04-1.64908E-14
 -1       920 5.01079E-03-1.88684E-04-1.84002E-14
 -1       921 5.29683E-03-1.87174E-04-2.04037E-14
 -1       922 5.58252E-03-1.85425E-04-2.24956E-14
 -1       923 5.86794E-03-1.83359E-04-2.46764E-14
 -1       924 6.15326E-03-1.80874E-04-2.69446E-14
 -1       925 6.43869E-03-1.77849E-04-2.93033E-14
 -1       926 6.72463E-03-1.74162E-04-3.17483E-14
 -1       927 7.01167E-03-1.69731E-04-3.42721E-14
 -1       928 7.30071E-03-1.64587E-04-3.68734E-14
 -1       929 7.59301E-03-1.58990E-04-3.95451E-14
 -1       930 7.89023E-03-1.53616E-04-4.22878E-14
 -1       931 8.19437E-03-1.49776E-04-4.50910E-14
 -1       932 8.50745E-03-1.49582E-04-4.79497E-14
 -1       933 8.83049E-03-1.55694E-04-5.08570E-14
 -1       934 9.16359E-03-1.70002E-04-5.38099E-14
 -1       935 9.50243E-03-1.92240E-04-5.68194E-14
 -1       936 1.08023E-02-6.91479E-05-6.94982E-14
 -1       937 1.11226E-02 9.61905E-05-7.28366E-14
 -1       938 1.14534E-02 3.02077E-04-7.62280E-14
 -1       939 1.17924E-02 5.24267E-04-7.96645E-14
 -1       940 1.21315E-02 7.45384E-04-8.31441E-14
 -1       941 1.24640E-02 9.58520E-04-8.66677E-14
 -1       942 1.27868E-02 1.16338E-03-9.02315E-14
 -1       943 1.30995E-02 1.36249E-03-9.38294E-14
 -1       944 4.62135E-03 1.97025E-04-1.53993E-14
 -1       945 3.77313E-03 1.99456E-04-1.05058E-14
 -1       946 4.06118E-03 1.98863E-04-1.20649E-14
 -1       947 4.90784E-03 1.95911E-04-1.72507E-14
 -1       948 5.19376E-03 1.94774E-04-1.91969E-14
 -1       949 5.47903E-03 1.93692E-04-2.12325E-14
 -1       950 5.76352E-03 1.92778E-04-2.33548E-14
 -1       951 6.04700E-03 1.92218E-04-2.55623E-14
 -1       952 6.32913E-03 1.92312E-04-2.78567E-14
 -1       953 6.60941E-03 1.93545E-04-3.02358E-14
 -1       954 6.88715E-03 1.96662E-04-3.26945E-14
 -1       955 7.16143E-03 2.02773E-04-3.52328E-14
 -1       956 7.41775E-03 2.12780E-04-3.77144E-14
 -1       957 7.68182E-03 2.29744E-04-4.03908E-14
 -1       958 7.93868E-03 2.55765E-04-4.31319E-14
 -1       959 8.14973E-03 2.84842E-04-4.54869E-14
 -1       960 2.90591E-03 1.97711E-04-6.45953E-15
 -1       961 1.39453E-03-1.80389E-05-1.79982E-15
 -1       962 1.60354E-03 1.52862E-04-2.19927E-15
 -1       963 1.41149E-02 1.86281E-03-9.67577E-14
 -1       964 3.48455E-03 1.99623E-04-9.05068E-15
 -1       965 1.39561E-02 1.63461E-03-8.84949E-14
 -1       966 2.12108E-03 2.38213E-04-3.55317E-15
 -1       967 8.86974E-03 1.54651E-04-5.15803E-14
 -1       968 1.83659E-03-1.70224E-04-2.93354E-15
 -1       969 8.56575E-03 2.56066E-04-4.94219E-14
 -1       970 9.35890E-03-1.10787E-04-5.53715E-14
 -1       971 3.19546E-03 1.99143E-04-7.70209E-15
 -1       972 1.62514E-03-1.54431E-04-2.35871E-15
 -1       973 1.33160E-02 1.46656E-03-9.35172E-14
 -1       974 9.76035E-03-2.09107E-04-5.91543E-14
 -1       975 2.62329E-03 1.94999E-04-5.34896E-15
 -1       976 1.33431E-02 1.38270E-03-8.56533E-14
 -1       977 1.40788E-02 1.74344E-03-9.15577E-14
 -1       978 1.35444E-02 1.56821E-03-9.31923E-14
 -1       979 1.27973E-02 1.12767E-03-8.41840E-14
 -1       980 1.47068E-03 1.28765E-04-1.89727E-15
 -1       981 1.21714E-02 7.63934E-04-8.10421E-14
 -1       982 1.41648E-02 1.82284E-03-9.38224E-14
 -1       983 1.95641E-03 1.61830E-04-3.15393E-15
 -1       984 1.62892E-03 7.23767E-05-2.32976E-15
 -1       985 8.85588E-03 2.61981E-05-5.11038E-14
 -1       986 1.61957E-03-8.22110E-05-2.35676E-15
 -1       987 2.55576E-03-1.13769E-04-5.33359E-15
 -1       988 2.84631E-03-1.15682E-04-6.48134E-15
 -1       989 3.13659E-03-1.16705E-04-7.73536E-15
 -1       990 3.42641E-03-1.17099E-04-9.09291E-15
 -1       991 3.71566E-03-1.17061E-04-1.05517E-14
 -1       992 4.00428E-03-1.16726E-04-1.21106E-14
 -1       993 4.29229E-03-1.16183E-04-1.37703E-14
 -1       994 4.57969E-03-1.15478E-04-1.55297E-14
 -1       995 4.86652E-03-1.14621E-04-1.73861E-14
 -1       996 5.15280E-03-1.13586E-04-1.93397E-14
 -1       997 5.43857E-03-1.12310E-04-2.13830E-14
 -1       998 5.72386E-03-1.10690E-04-2.35152E-14
 -1       999 6.00876E-03-1.08577E-04-2.57319E-14
 -1      1000 6.29338E-03-1.05767E-04-2.80376E-14
 -1      1001 6.57797E-03-1.02007E-04-3.04304E-14
 -1      1002 6.86294E-03-9.70059E-05-3.29072E-14
 -1      1003 7.14896E-03-9.04905E-05-3.54634E-14
 -1      1004 7.43712E-03-8.23061E-05-3.80923E-14
 -1      1005 7.72903E-03-7.26224E-05-4.07905E-14
 -1      1006 8.02697E-03-6.22679E-05-4.35542E-14
 -1      1007 8.33394E-03-5.31800E-05-4.63786E-14
 -1      1008 8.65322E-03-4.88046E-05-4.92521E-14
 -1      1009 1.64153E-03 1.62567E-05-2.39273E-15
 -1      1010 1.28162E-02 1.16409E-03-8.81919E-14
 -1      1011 1.30699E-02 1.31732E-03-9.08487E-14
 -1      1012 5.04976E-03 1.21152E-04-1.83427E-14
 -1      1013 5.33542E-03 1.20646E-04-2.03393E-14
 -1      1014 2.28962E-03 1.79740E-04-4.18262E-15
 -1      1015 5.62033E-03 1.20358E-04-2.24222E-14
 -1      1016 5.90434E-03 1.20470E-04-2.45914E-14
 -1      1017 6.18725E-03 1.21264E-04-2.68458E-14
 -1      1018 6.46879E-03 1.23168E-04-2.91885E-14
 -1      1019 6.74860E-03 1.26818E-04-3.16139E-14
 -1      1020 7.02628E-03 1.33115E-04-3.41186E-14
 -1      1021 7.28772E-03 1.42651E-04-3.65689E-14
 -1      1022 7.56021E-03 1.57881E-04-3.92190E-14
 -1      1023 7.83007E-03 1.80059E-04-4.19332E-14
 -1      1024 1.24469E-02 9.37023E-04-8.39979E-14
 -1      1025 8.53642E-03 1.37276E-04-4.85782E-14
 -1      1026 3.62627E-03 1.23635E-04-9.87004E-15
 -1      1027 4.76342E-03 1.21759E-04-1.64383E-14
 -1      1028 4.49082E-03 1.22353E-04-1.47177E-14
 -1      1029 1.97551E-03-1.05873E-04-3.35727E-15
 -1      1030 8.32643E-03 2.25312E-04-4.70068E-14
 -1      1031 2.26530E-03-1.10638E-04-4.29186E-15
 -1      1032 1.37284E-02 1.56769E-03-8.86042E-14
 -1      1033 2.76017E-03 1.21635E-04-5.97369E-15
 -1      1034 1.40168E-02 1.78229E-03-9.44818E-14
 -1      1035 4.20325E-03 1.22932E-04-1.29998E-14
 -1      1036 1.33032E-02 1.42711E-03-9.05387E-14
 -1      1037 3.91507E-03 1.23389E-04-1.13834E-14
 -1      1038 8.05707E-03 2.03096E-04-4.42722E-14
 -1      1039 1.62976E-03-3.30767E-05-2.37798E-15
 -1      1040 1.30970E-02 1.28809E-03-8.62172E-14
 -1      1041 1.37831E-02 1.67921E-03-9.38444E-14
 -1      1042 3.33686E-03 1.23545E-04-8.46195E-15
 -1      1043 1.79712E-03-9.41213E-05-2.83611E-15
 -1      1044 1.88382E-03 5.16421E-05-3.03877E-15
 -1      1045 2.14313E-03 1.01027E-04-3.79016E-15
 -1      1046 3.04872E-03 1.22955E-04-7.16626E-15
 -1      1047 1.29459E-02 1.22467E-03-8.72081E-14
 -1      1048 1.87092E-03-1.00944E-06-3.02906E-15
 -1      1049 2.98954E-03-4.07022E-05-7.05861E-15
 -1      1050 3.27992E-03-4.09445E-05-8.35836E-15
 -1      1051 3.56975E-03-4.09999E-05-9.76130E-15
 -1      1052 3.85895E-03-4.09206E-05-1.12659E-14
 -1      1053 4.14748E-03-4.07412E-05-1.28715E-14
 -1      1054 4.43534E-03-4.04743E-05-1.45784E-14
 -1      1055 4.72255E-03-4.01110E-05-1.63830E-14
 -1      1056 5.00913E-03-3.96170E-05-1.82851E-14
 -1      1057 5.29509E-03-3.89270E-05-2.02795E-14
 -1      1058 5.58042E-03-3.79337E-05-2.23609E-14
 -1      1059 5.86513E-03-3.64745E-05-2.45289E-14
 -1      1060 6.14924E-03-3.43147E-05-2.67838E-14
 -1      1061 6.43281E-03-3.11297E-05-2.91253E-14
 -1      1062 6.71600E-03-2.64949E-05-3.15536E-14
 -1      1063 6.99916E-03-1.98922E-05-3.40633E-14
 -1      1064 7.28293E-03-1.07769E-05-3.66490E-14
 -1      1065 7.56846E-03 1.29782E-06-3.93070E-14
 -1      1066 7.85766E-03 1.63897E-05-4.20286E-14
 -1      1067 8.15352E-03 3.34914E-05-4.48138E-14
 -1      1068 8.49395E-03 3.58465E-05-4.79291E-14
 -1      1069 5.76214E-03 4.77320E-05-2.36187E-14
 -1      1070 5.19212E-03 4.69077E-05-1.94449E-14
 -1      1071 2.45152E-03 1.11898E-04-4.82301E-15
 -1      1072 6.32874E-03 5.11260E-05-2.81393E-14
 -1      1073 6.61050E-03 5.47596E-05-3.05302E-14
 -1      1074 6.89114E-03 6.05215E-05-3.30021E-14
 -1      1075 7.15678E-03 6.87550E-05-3.54218E-14
 -1      1076 7.43572E-03 8.12849E-05-3.80427E-14
 -1      1077 7.71488E-03 9.87311E-05-4.07326E-14
 -1      1078 2.40797E-03-3.93085E-05-4.77483E-15
 -1      1079 4.62644E-03 4.70269E-05-1.56714E-14
 -1      1080 2.14778E-03 1.81185E-05-3.86519E-15
 -1      1081 5.47751E-03 4.71302E-05-2.14885E-14
 -1      1082 1.39240E-02 1.70488E-03-9.22191E-14
 -1      1083 8.22285E-03 1.24346E-04-4.56492E-14
 -1      1084 4.90961E-03 4.69078E-05-1.75119E-14
 -1      1085 6.04592E-03 4.89483E-05-2.58360E-14
 -1      1086 2.69879E-03-4.01912E-05-5.86381E-15
 -1      1087 2.62350E-03 4.29573E-05-5.52072E-15
 -1      1088 3.48003E-03 4.75236E-05-9.23775E-15
 -1      1089 4.33902E-03 4.71994E-05-1.39041E-14
 -1      1090 1.35514E-02 1.54378E-03-9.11958E-14
 -1      1091 2.38547E-03 3.03891E-05-4.65875E-15
 -1      1092 7.95232E-03 1.15376E-04-4.30488E-14
 -1      1093 1.83334E-03-4.79174E-05-2.93484E-15
 -1      1094 3.76942E-03 4.74945E-05-1.07052E-14
 -1      1095 2.91249E-03 4.35922E-05-6.67242E-15
 -1      1096 3.13474E-03 3.50381E-05-7.63785E-15
 -1      1097 4.05455E-03 4.73697E-05-1.22550E-14
 -1      1098 0.00000E+00 0.00000E+00 0.00000E+00
 -1      1099 0.00000E+00 0.00000E+00 0.00000E+00
 -1      1100 0.00000E+00 0.00000E+00 0.00000E+00
 -1      1101 0.00000E+00 0.00000E+00 0.00000E+00
 -1      1102 0.00000E+00 0.00000E+00 0.00000E+00
 -1      1103 0.00000E+00 0.00000E+00 0.00000E+00
 -1      1104 0.00000E+00 0.00000E+00 0.00000E+00
 -1      1105 0.00000E+00 0.00000E+00 0.00000E+00
 -1      1106 0.00000E+00 0.00000E+00 0.00000E+00
 -1      1107 0.00000E+00 0.00000E+00 0.00000E+00
 -1      1108 0.00000E+00 0.00000E+00 0.00000E+00
 -1      1109 0.00000E+00 0.00000E+00 0.00000E+00
 -1      1110 0.00000E+00 0.00000E+00 0.00000E+00
 -1      1111 0.00000E+00 0.00000E+00 0.00000E+00
 -1      1112 0.00000E+00 0.00000E+00 0.00000E+00
 -1      1113 0.00000E+00 0.00000E+00 0.00000E+00
 -1      1114 0.00000E+00 0.00000E+00 0.00000E+00
 -1      1115 2.11741E-04-1.48386E-04 1.24006E-17
 -1      1116 5.51823E-04-3.37667E-04-4.72306E-17
 -1      1117 8.33728E-04-4.59260E-04-2.29431E-16
 -1      1118 1.10338E-03-5.41045E-04-5.53526E-16
 -1      1119 1.36885E-03-5.98396E-04-1.01213E-15
 -1      1120 1.63373E-03-6.39205E-04-1.60226E-15
 -1      1121 1.89985E-03-6.68121E-04-2.32091E-15
 -1      1122 2.16808E-03-6.88265E-04-3.16689E-15
 -1      1123 2.43871E-03-7.01926E-04-4.13797E-15
 -1      1124 2.71175E-03-7.10831E-04-5.23041E-15
 -1      1125 2.98703E-03-7.16292E-04-6.43997E-15
 -1      1126 3.26432E-03-7.19297E-04-7.75789E-15
 -1      1127 3.54335E-03-7.20582E-04-9.18008E-15
 -1      1128 3.82387E-03-7.20687E-04-1.07071E-14
 -1      1129 4.10564E-03-7.19999E-04-1.23313E-14
 -1      1130 4.38845E-03-7.18791E-04-1.40521E-14
 -1      1131 4.67215E-03-7.17254E-04-1.58723E-14
 -1      1132 4.95661E-03-7.15521E-04-1.77950E-14
 -1      1133 5.24175E-03-7.13698E-04-1.98174E-14
 -1      1134 5.52753E-03-7.11881E-04-2.19367E-14
 -1      1135 5.81393E-03-7.10181E-04-2.41500E-14
 -1      1136 6.10095E-03-7.08744E-04-2.64595E-14
 -1      1137 6.38854E-03-7.07765E-04-2.88598E-14
 -1      1138 6.67663E-03-7.07500E-04-3.13541E-14
 -1      1139 6.96501E-03-7.08261E-04-3.39379E-14
 -1      1140 7.25328E-03-7.10375E-04-3.65997E-14
 -1      1141 7.54078E-03-7.14113E-04-3.93306E-14
 -1      1142 7.82651E-03-7.19553E-04-4.21316E-14
 -1      1143 8.10906E-03-7.26370E-04-4.50070E-14
 -1      1144 8.38666E-03-7.33563E-04-4.79439E-14
 -1      1145 8.65731E-03-7.39165E-04-5.09279E-14
 -1      1146 8.91907E-03-7.40002E-04-5.39634E-14
 -1      1147 9.17053E-03-7.31661E-04-5.70541E-14
 -1      1148 9.41129E-03-7.08791E-04-6.02014E-14
 -1      1149 9.64242E-03-6.65807E-04-6.34119E-14
 -1      1150 9.86660E-03-5.97907E-04-6.66838E-14
 -1      1151 1.00878E-02-5.02132E-04-7.00105E-14
 -1      1152 1.03105E-02-3.78082E-04-7.33841E-14
 -1      1153 1.05389E-02-2.28017E-04-7.67975E-14
 -1      1154 1.07760E-02-5.62800E-05-8.02627E-14
 -1      1155 1.10235E-02 1.31707E-04-8.37962E-14
 -1      1156 1.12811E-02 3.30517E-04-8.73857E-14
 -1      1157 1.15478E-02 5.35531E-04-9.10228E-14
 -1      1158 1.18215E-02 7.43357E-04-9.47131E-14
 -1      1159 1.21004E-02 9.51872E-04-9.84515E-14
 -1      1160 1.23826E-02 1.16002E-03-1.02207E-13
 -1      1161 1.26666E-02 1.36748E-03-1.05974E-13
 -1      1162 1.29517E-02 1.57435E-03-1.09742E-13
 -1      1163 1.32372E-02 1.78085E-03-1.13507E-13
 -1      1164 1.35157E-02 1.98197E-03-1.17186E-13
 -1      1165 2.03108E-04 1.43184E-04 2.69289E-17
 -1      1166 5.37281E-04 3.30605E-04 1.77267E-17
 -1      1167 8.20128E-04 4.54497E-04-9.61552E-17
 -1      1168 1.09012E-03 5.37769E-04-3.35100E-16
 -1      1169 1.35570E-03 5.96111E-04-6.96708E-16
 -1      1170 1.62055E-03 6.37630E-04-1.18162E-15
 -1      1171 1.88659E-03 6.67070E-04-1.79037E-15
 -1      1172 2.15470E-03 6.87607E-04-2.51860E-15
 -1      1173 2.42521E-03 7.01562E-04-3.36188E-15
 -1      1174 2.69127E-03 7.10503E-04-4.29218E-15
 -1      1175 2.95947E-03 7.16090E-04-5.32963E-15
 -1      1176 3.23654E-03 7.19313E-04-6.50586E-15
 -1      1177 3.51538E-03 7.20743E-04-7.79849E-15
 -1      1178 3.79570E-03 7.20931E-04-9.20607E-15
 -1      1179 4.07727E-03 7.20264E-04-1.07307E-14
 -1      1180 4.35988E-03 7.19002E-04-1.23660E-14
 -1      1181 4.64334E-03 7.17306E-04-1.40994E-14
 -1      1182 4.92756E-03 7.15259E-04-1.59252E-14
 -1      1183 5.21246E-03 7.12881E-04-1.78423E-14
 -1      1184 5.49090E-03 7.10216E-04-1.98064E-14
 -1      1185 5.77010E-03 7.07141E-04-2.18613E-14
 -1      1186 6.05746E-03 7.03455E-04-2.40560E-14
 -1      1187 6.34624E-03 6.99098E-04-2.63338E-14
 -1      1188 6.63710E-03 6.93923E-04-2.86967E-14
 -1      1189 6.93113E-03 6.87812E-04-3.11425E-14
 -1      1190 7.23008E-03 6.80764E-04-3.36635E-14
 -1      1191 7.53669E-03 6.73092E-04-3.62559E-14
 -1      1192 7.85531E-03 6.65871E-04-3.89099E-14
 -1      1193 8.19255E-03 6.61910E-04-4.16238E-14
 -1      1194 8.54867E-03 6.67489E-04-4.43214E-14
 -1      1195 8.94429E-03 6.95676E-04-4.70647E-14
 -1      1196 9.40606E-03 7.76581E-04-4.99330E-14
 -1      1197 9.93440E-03 9.61224E-04-5.28371E-14
 -1      1198 1.04827E-02 1.29333E-03-5.56216E-14
 -1      1199 1.09982E-02 1.78508E-03-5.83713E-14
 -1      1200 1.13905E-02 2.31960E-03-6.10929E-14
 -1      1201 1.16214E-02 2.65135E-03-6.36297E-14
 -1      1202 1.18254E-02 2.65670E-03-6.63665E-14
 -1      1203 1.21514E-02 2.35403E-03-6.93294E-14
 -1      1204 1.26119E-02 2.00728E-03-7.22555E-14
 -1      1205 1.31615E-02 1.78147E-03-7.53821E-14
 -1      1206 1.37021E-02 1.72795E-03-7.86441E-14
 -1      1207 1.41814E-02 1.80299E-03-8.19445E-14
 -1      1208 1.46103E-02 1.95270E-03-8.53709E-14
 -1      1209 1.49897E-02 2.13718E-03-8.88323E-14
 -1      1210 1.53342E-02 2.33581E-03-9.23178E-14
 -1      1211 1.56551E-02 2.53865E-03-9.58348E-14
 -1      1212 1.59604E-02 2.74089E-03-9.93920E-14
 -1      1213 1.62553E-02 2.93998E-03-1.02984E-13
 -1      1214 1.65439E-02 3.13448E-03-1.06606E-13
 -1      1215 1.68225E-02 3.31962E-03-1.10187E-13
 -1      1216 1.68657E-02 3.36663E-03-1.12231E-13
 -1      1217 1.66827E-02 3.28227E-03-1.12730E-13
 -1      1218 1.65036E-02 3.20050E-03-1.13208E-13
 -1      1219 1.63264E-02 3.12339E-03-1.13639E-13
 -1      1220 1.61474E-02 3.05106E-03-1.14074E-13
 -1      1221 1.59652E-02 2.98271E-03-1.14535E-13
 -1      1222 1.57768E-02 2.91553E-03-1.15013E-13
 -1      1223 1.55805E-02 2.84674E-03-1.15525E-13
 -1      1224 1.53791E-02 2.77525E-03-1.16031E-13
 -1      1225 1.51744E-02 2.70021E-03-1.16467E-13
 -1      1226 1.49684E-02 2.62165E-03-1.16864E-13
 -1      1227 1.47643E-02 2.54091E-03-1.17214E-13
 -1      1228 1.45612E-02 2.45827E-03-1.17520E-13
 -1      1229 1.43574E-02 2.37394E-03-1.17824E-13
 -1      1230 1.41545E-02 2.28936E-03-1.18147E-13
 -1      1231 1.39519E-02 2.20491E-03-1.18504E-13
 -1      1232 1.37510E-02 2.12133E-03-1.18833E-13
 -1      1233 1.38598E-02 1.24906E-03-7.33387E-14
 -1      1234 1.38292E-02 1.42636E-03-7.27976E-14
 -1      1235 1.36649E-02 1.62288E-03-7.19199E-14
 -1      1236 1.33841E-02 1.84084E-03-7.08110E-14
 -1      1237 1.30132E-02 2.06823E-03-6.95495E-14
 -1      1238 1.25507E-02 2.28569E-03-6.81211E-14
 -1      1239 1.19885E-02 2.43453E-03-6.65202E-14
 -1      1240 1.13910E-02 2.44346E-03-6.49226E-14
 -1      1241 1.07663E-02 2.27632E-03-6.33327E-14
 -1      1242 1.01449E-02 1.96794E-03-6.17957E-14
 -1      1243 9.63208E-03 1.63940E-03-6.05696E-14
 -1      1244 9.22849E-03 1.34206E-03-5.96354E-14
 -1      1245 8.92145E-03 1.08135E-03-5.89551E-14
 -1      1246 8.73386E-03 8.65415E-04-5.85968E-14
 -1      1247 8.67654E-03 6.83192E-04-5.85700E-14
 -1      1248 8.74406E-03 5.25086E-04-5.88744E-14
 -1      1249 8.92733E-03 3.81479E-04-5.94960E-14
 -1      1250 9.20569E-03 2.49830E-04-6.04207E-14
 -1      1251 9.54885E-03 1.37303E-04-6.15684E-14
 -1      1252 9.94082E-03 5.14439E-05-6.28909E-14
 -1      1253 1.03677E-02 3.60100E-06-6.43485E-14
 -1      1254 1.08272E-02 2.91160E-06-6.59207E-14
 -1      1255 1.12955E-02 5.68217E-05-6.74886E-14
 -1      1256 1.17838E-02 1.66511E-04-6.90460E-14
 -1      1257 1.22805E-02 3.22342E-04-7.04943E-14
 -1      1258 1.27537E-02 5.08054E-04-7.17183E-14
 -1      1259 1.31786E-02 7.04210E-04-7.26644E-14
 -1      1260 1.35188E-02 8.92501E-04-7.32679E-14
 -1      1261 1.37526E-02 1.07227E-03-7.35013E-14
 -1      1262 1.66750E-04-1.10384E-04-7.22350E-18
 -1      1263 1.12564E-04-5.70023E-05-2.95174E-17
 -1      1264 1.17651E-04-6.76116E-05-2.33375E-17
 -1      1265 1.08437E-04-4.35194E-05-3.94243E-17
 -1      1266 1.10305E-04-4.96336E-05-3.64427E-17
 -1      1267 2.26373E-04-1.07686E-04-8.60857E-17
 -1      1268 1.06850E-04-3.36449E-05-4.46691E-17
 -1      1269 1.07698E-04-3.83649E-05-4.31784E-17
 -1      1270 2.19130E-04-8.25216E-05-1.03582E-16
 -1      1271 1.06066E-04-2.53891E-05-4.77320E-17
 -1      1272 1.06499E-04-2.94195E-05-4.70950E-17
 -1      1273 2.15882E-04-6.33490E-05-1.13679E-16
 -1      1274 1.05658E-04-1.81361E-05-4.88975E-17
 -1      1275 1.05891E-04-2.17001E-05-4.87213E-17
 -1      1276 2.14212E-04-4.72686E-05-1.18964E-16
 -1      1277 1.05434E-04-1.12930E-05-4.94938E-17
 -1      1278 1.05559E-04-1.46735E-05-4.94803E-17
 -1      1279 2.13286E-04-3.28492E-05-1.21336E-16
 -1      1280 1.05331E-04-4.75403E-06-4.92770E-17
 -1      1281 1.05386E-04-8.00163E-06-4.93990E-17
 -1      1282 2.12783E-04-1.93043E-05-1.21932E-16
 -1      1283 1.05318E-04 1.66358E-06-4.87349E-17
 -1      1284 1.05317E-04-1.54231E-06-4.89788E-17
 -1      1285 2.12562E-04-6.29752E-06-1.21214E-16
 -1      1286 1.05388E-04 8.12555E-06-4.77862E-17
 -1      1287 1.05333E-04 4.87609E-06-4.80844E-17
 -1      1288 2.12564E-04 6.54092E-06-1.19506E-16
 -1      1289 1.05564E-04 1.48043E-05-4.61192E-17
 -1      1290 1.05438E-04 1.14194E-05-4.66749E-17
 -1      1291 2.12790E-04 1.95547E-05-1.16592E-16
 -1      1292 1.05897E-04 2.17804E-05-4.36256E-17
 -1      1293 1.05663E-04 1.82119E-05-4.44523E-17
 -1      1294 2.13296E-04 3.29971E-05-1.12066E-16
 -1      1295 1.06521E-04 2.95768E-05-3.99529E-17
 -1      1296 1.06081E-04 2.55368E-05-4.11319E-17
 -1      1297 2.14228E-04 4.74325E-05-1.05506E-16
 -1      1298 1.07732E-04 3.85631E-05-3.42472E-17
 -1      1299 1.06875E-04 3.38226E-05-3.63750E-17
 -1      1300 2.15936E-04 6.36884E-05-9.58028E-17
 -1      1301 1.10358E-04 4.98716E-05-2.52890E-17
 -1      1302 1.08467E-04 4.37297E-05-2.91786E-17
 -1      1303 2.19201E-04 8.29436E-05-8.14100E-17
 -1      1304 1.17784E-04 6.79370E-05-1.00560E-17
 -1      1305 1.12627E-04 5.72796E-05-1.70762E-17
 -1      1306 2.26517E-04 1.08245E-04-5.90213E-17
 -1      1307 1.59221E-04 1.05704E-04 8.87691E-18
 -1      1308 4.21668E-04-2.61854E-04-5.98480E-17
 -1      1309 5.74808E-04-3.36964E-04-1.21580E-16
 -1      1310 7.22036E-04-3.97617E-04-2.20527E-16
 -1      1311 8.65241E-04-4.46963E-04-3.53721E-16
 -1      1312 6.12231E-04-3.31074E-04-2.06269E-16
 -1      1313 1.00530E-03-4.88088E-04-5.19563E-16
 -1      1314 1.14317E-03-5.22128E-04-7.18718E-16
 -1      1315 9.05533E-04-4.31876E-04-4.81575E-16
 -1      1316 1.27970E-03-5.50953E-04-9.50452E-16
 -1      1317 1.41537E-03-5.75040E-04-1.21550E-15
 -1      1318 1.18802E-03-5.01401E-04-8.86810E-16
 -1      1319 1.55065E-03-5.95454E-04-1.51256E-15
 -1      1320 1.68577E-03-6.12528E-04-1.84142E-15
 -1      1321 1.46501E-03-5.50275E-04-1.42109E-15
 -1      1322 1.82098E-03-6.26892E-04-2.20211E-15
 -1      1323 1.95640E-03-6.38838E-04-2.59432E-15
 -1      1324 1.73975E-03-5.84674E-04-2.08231E-15
 -1      1325 2.09215E-03-6.48769E-04-3.01777E-15
 -1      1326 2.22826E-03-6.56934E-04-3.47258E-15
 -1      1327 2.01411E-03-6.08581E-04-2.86870E-15
 -1      1328 2.36481E-03-6.63608E-04-3.95833E-15
 -1      1329 2.50179E-03-6.68998E-04-4.47361E-15
 -1      1330 2.28909E-03-6.24810E-04-3.77891E-15
 -1      1331 2.63922E-03-6.73298E-04-5.01946E-15
 -1      1332 2.77709E-03-6.76674E-04-5.59423E-15
 -1      1333 2.56517E-03-6.35438E-04-4.80949E-15
 -1      1334 2.91541E-03-6.79264E-04-6.19649E-15
 -1      1335 3.05414E-03-6.81199E-04-6.82763E-15
 -1      1336 2.84253E-03-6.42020E-04-5.95609E-15
 -1      1337 3.19327E-03-6.82578E-04-7.48507E-15
 -1      1338 3.33278E-03-6.83501E-04-8.16879E-15
 -1      1339 3.12120E-03-6.45722E-04-7.21404E-15
 -1      1340 3.47265E-03-6.84037E-04-8.87925E-15
 -1      1341 3.61285E-03-6.84263E-04-9.61527E-15
 -1      1342 3.40112E-03-6.47410E-04-8.57963E-15
 -1      1343 3.75335E-03-6.84226E-04-1.03770E-14
 -1      1344 3.89414E-03-6.83982E-04-1.11638E-14
 -1      1345 3.68217E-03-6.47721E-04-1.00494E-14
 -1      1346 4.03519E-03-6.83563E-04-1.19744E-14
 -1      1347 4.17649E-03-6.83010E-04-1.28098E-14
 -1      1348 3.96422E-03-6.47109E-04-1.16194E-14
 -1      1349 4.31801E-03-6.82343E-04-1.36697E-14
 -1      1350 4.45974E-03-6.81593E-04-1.45536E-14
 -1      1351 4.24715E-03-6.45895E-04-1.32878E-14
 -1      1352 4.60166E-03-6.80770E-04-1.54632E-14
 -1      1353 4.74376E-03-6.79899E-04-1.63982E-14
 -1      1354 4.53083E-03-6.44300E-04-1.50550E-14
 -1      1355 4.88603E-03-6.78986E-04-1.73583E-14
 -1      1356 5.02846E-03-6.78049E-04-1.83425E-14
 -1      1357 4.81517E-03-6.42473E-04-1.69225E-14
 -1      1358 5.17104E-03-6.77094E-04-1.93514E-14
 -1      1359 5.31378E-03-6.76139E-04-2.03853E-14
 -1      1360 5.10011E-03-6.40524E-04-1.88884E-14
 -1      1361 5.45666E-03-6.75189E-04-2.14419E-14
 -1      1362 5.59968E-03-6.74263E-04-2.25232E-14
 -1      1363 5.38559E-03-6.38542E-04-2.09502E-14
 -1      1364 5.74284E-03-6.73372E-04-2.36271E-14
 -1      1365 5.88614E-03-6.72537E-04-2.47549E-14
 -1      1366 5.67159E-03-6.36623E-04-2.31071E-14
 -1      1367 6.02957E-03-6.71779E-04-2.59069E-14
 -1      1368 6.17314E-03-6.71121E-04-2.70822E-14
 -1      1369 5.95808E-03-6.34892E-04-2.53578E-14
 -1      1370 6.31682E-03-6.70595E-04-2.82813E-14
 -1      1371 6.46061E-03-6.70229E-04-2.95021E-14
 -1      1372 6.24504E-03-6.33520E-04-2.77037E-14
 -1      1373 6.60449E-03-6.70070E-04-3.07466E-14
 -1      1374 6.74844E-03-6.70145E-04-3.20142E-14
 -1      1375 6.53240E-03-6.32748E-04-3.01434E-14
 -1      1376 6.89242E-03-6.70516E-04-3.33019E-14
 -1      1377 7.03639E-03-6.71207E-04-3.46106E-14
 -1      1378 6.82002E-03-6.32884E-04-3.26707E-14
 -1      1379 7.18029E-03-6.72289E-04-3.59386E-14
 -1      1380 7.32405E-03-6.73768E-04-3.72829E-14
 -1      1381 7.10768E-03-6.34295E-04-3.52798E-14
 -1      1382 7.46757E-03-6.75716E-04-3.86461E-14
 -1      1383 7.61075E-03-6.78106E-04-4.00260E-14
 -1      1384 7.39498E-03-6.37351E-04-3.79639E-14
 -1      1385 7.75347E-03-6.80983E-04-4.14240E-14
 -1      1386 7.89556E-03-6.84265E-04-4.28398E-14
 -1      1387 7.68131E-03-6.42324E-04-4.07189E-14
 -1      1388 8.03688E-03-6.87937E-04-4.42720E-14
 -1      1389 8.17723E-03-6.91830E-04-4.57223E-14
 -1      1390 7.96586E-03-6.49206E-04-4.35432E-14
 -1      1391 8.31641E-03-6.95820E-04-4.71858E-14
 -1      1392 8.45424E-03-6.99623E-04-4.86623E-14
 -1      1393 8.24752E-03-6.57460E-04-4.64319E-14
 -1      1394 8.59049E-03-7.02957E-04-5.01526E-14
 -1      1395 8.72499E-03-7.05397E-04-5.16545E-14
 -1      1396 8.52505E-03-6.65697E-04-4.93794E-14
 -1      1397 8.85756E-03-7.06473E-04-5.31693E-14
 -1      1398 8.98806E-03-7.05620E-04-5.46982E-14
 -1      1399 8.79714E-03-6.71362E-04-5.23786E-14
 -1      1400 9.11639E-03-7.02182E-04-5.62403E-14
 -1      1401 9.24254E-03-6.95493E-04-5.77959E-14
 -1      1402 9.06268E-03-6.70547E-04-5.54289E-14
 -1      1403 9.36652E-03-6.84778E-04-5.93673E-14
 -1      1404 9.48847E-03-6.69353E-04-6.09540E-14
 -1      1405 9.32107E-03-6.58080E-04-5.85361E-14
 -1      1406 9.60857E-03-6.48456E-04-6.25561E-14
 -1      1407 9.72710E-03-6.21504E-04-6.41729E-14
 -1      1408 9.57257E-03-6.28044E-04-6.17028E-14
 -1      1409 9.84440E-03-5.87915E-04-6.58044E-14
 -1      1410 9.96087E-03-5.47330E-04-6.74506E-14
 -1      1411 9.81842E-03-5.74726E-04-6.49297E-14
 -1      1412 1.00770E-02-4.99495E-04-6.91121E-14
 -1      1413 1.01931E-02-4.44362E-04-7.07844E-14
 -1      1414 1.00609E-02-4.93811E-04-6.82157E-14
 -1      1415 1.03098E-02-3.82074E-04-7.24682E-14
 -1      1416 1.04275E-02-3.12901E-04-7.41654E-14
 -1      1417 1.03028E-02-3.83420E-04-7.15572E-14
 -1      1418 1.05464E-02-2.37346E-04-7.58719E-14
 -1      1419 1.06671E-02-1.55932E-04-7.75872E-14
 -1      1420 1.05472E-02-2.44600E-04-7.49434E-14
 -1      1421 1.07896E-02-6.93844E-05-7.93210E-14
 -1      1422 1.09141E-02 2.16353E-05-8.10702E-14
 -1      1423 1.07965E-02-8.10380E-05-7.83801E-14
 -1      1424 1.10408E-02 1.16348E-04-8.28325E-14
 -1      1425 1.11695E-02 2.14082E-04-8.46104E-14
 -1      1426 1.10522E-02 1.01868E-04-8.18722E-14
 -1      1427 1.13003E-02 3.14149E-04-8.63998E-14
 -1      1428 1.14331E-02 4.15964E-04-8.82035E-14
 -1      1429 1.13148E-02 2.98209E-04-8.54205E-14
 -1      1430 1.15676E-02 5.19017E-04-9.00203E-14
 -1      1431 1.17037E-02 6.22858E-04-9.18475E-14
 -1      1432 1.15839E-02 5.02625E-04-8.90199E-14
 -1      1433 1.18413E-02 7.27176E-04-9.36877E-14
 -1      1434 1.19800E-02 8.31669E-04-9.55400E-14
 -1      1435 1.18586E-02 7.10947E-04-9.26686E-14
 -1      1436 1.21197E-02 9.36199E-04-9.74017E-14
 -1      1437 1.22602E-02 1.04059E-03-9.92741E-14
 -1      1438 1.21374E-02 9.20413E-04-9.63629E-14
 -1      1439 1.24013E-02 1.14482E-03-1.01149E-13
 -1      1440 1.25430E-02 1.24882E-03-1.03024E-13
 -1      1441 1.24193E-02 1.12952E-03-1.00093E-13
 -1      1442 1.26850E-02 1.35264E-03-1.04904E-13
 -1      1443 1.28273E-02 1.45625E-03-1.06786E-13
 -1      1444 1.27029E-02 1.33772E-03-1.03841E-13
 -1      1445 1.29698E-02 1.55973E-03-1.08669E-13
 -1      1446 1.31124E-02 1.66307E-03-1.10550E-13
 -1      1447 1.29877E-02 1.54506E-03-1.07598E-13
 -1      1448 1.32551E-02 1.76635E-03-1.12431E-13
 -1      1449 1.33979E-02 1.86954E-03-1.14314E-13
 -1      1450 1.32730E-02 1.75181E-03-1.11358E-13
 -1      1451 1.36153E-02 2.02340E-03-1.17033E-13
 -1      1452 1.36332E-02 2.00896E-03-1.15951E-13
 -1      1453 5.59922E-04 3.30505E-04-4.34494E-17
 -1      1454 4.06202E-04 2.53879E-04-8.57875E-18
 -1      1455 8.51197E-04 4.42609E-04-2.05876E-16
 -1      1456 7.07628E-04 3.92326E-04-1.09626E-16
 -1      1457 5.97432E-04 3.25295E-04-1.15346E-16
 -1      1458 1.12955E-03 5.19112E-04-4.87390E-16
 -1      1459 9.91502E-04 4.84473E-04-3.31468E-16
 -1      1460 8.91302E-04 4.27868E-04-3.21385E-16
 -1      1461 1.40191E-03 5.72950E-04-8.89886E-16
 -1      1462 1.26618E-03 5.48443E-04-6.73439E-16
 -1      1463 1.17416E-03 4.98624E-04-6.44816E-16
 -1      1464 1.67234E-03 6.11104E-04-1.41449E-15
 -1      1465 1.53721E-03 5.93724E-04-1.13695E-15
 -1      1466 1.45132E-03 5.48363E-04-1.08796E-15
 -1      1467 1.94293E-03 6.37908E-04-2.06046E-15
 -1      1468 1.80754E-03 6.25734E-04-1.72216E-15
 -1      1469 1.72611E-03 5.83389E-04-1.65139E-15
 -1      1470 2.21471E-03 6.56371E-04-2.82325E-15
 -1      1471 2.07864E-03 6.48036E-04-2.42754E-15
 -1      1472 2.00047E-03 6.07760E-04-2.33362E-15
 -1      1473 2.48814E-03 6.68709E-04-3.70056E-15
 -1      1474 2.35121E-03 6.63193E-04-3.24784E-15
 -1      1475 2.27540E-03 6.24335E-04-3.13172E-15
 -1      1476 2.74955E-03 6.76277E-04-4.63826E-15
 -1      1477 2.61865E-03 6.72920E-04-4.15668E-15
 -1      1478 2.54449E-03 6.35000E-04-4.01895E-15
 -1      1479 3.02641E-03 6.81084E-04-5.73463E-15
 -1      1480 2.88777E-03 6.79021E-04-5.17232E-15
 -1      1481 2.81479E-03 6.41725E-04-5.01275E-15
 -1      1482 3.30488E-03 6.83583E-04-6.94509E-15
 -1      1483 3.16546E-03 6.82571E-04-6.32568E-15
 -1      1484 3.09333E-03 6.45684E-04-6.14316E-15
 -1      1485 3.58477E-03 6.84473E-04-8.27092E-15
 -1      1486 3.44466E-03 6.84191E-04-7.59400E-15
 -1      1487 3.37311E-03 6.47550E-04-7.38763E-15
 -1      1488 3.86590E-03 6.84260E-04-9.70994E-15
 -1      1489 3.72520E-03 6.84477E-04-8.97615E-15
 -1      1490 3.65402E-03 6.47972E-04-8.74484E-15
 -1      1491 4.14809E-03 6.83292E-04-1.12642E-14
 -1      1492 4.00688E-03 6.83851E-04-1.04732E-14
 -1      1493 3.93594E-03 6.47413E-04-1.02160E-14
 -1      1494 4.43117E-03 6.81799E-04-1.29232E-14
 -1      1495 4.28952E-03 6.82599E-04-1.20809E-14
 -1      1496 4.21874E-03 6.46185E-04-1.17970E-14
 -1      1497 4.71502E-03 6.79915E-04-1.46810E-14
 -1      1498 4.57300E-03 6.80898E-04-1.37897E-14
 -1      1499 4.50230E-03 6.44489E-04-1.34820E-14
 -1      1500 4.99956E-03 6.77699E-04-1.65316E-14
 -1      1501 4.85721E-03 6.78844E-04-1.55954E-14
 -1      1502 4.78653E-03 6.42434E-04-1.52639E-14
 -1      1503 5.28478E-03 6.75149E-04-1.84760E-14
 -1      1504 5.14208E-03 6.76464E-04-1.74914E-14
 -1      1505 5.07140E-03 6.40055E-04-1.71404E-14
 -1      1506 5.55639E-03 6.72371E-04-2.04132E-14
 -1      1507 5.42050E-03 6.73804E-04-1.94339E-14
 -1      1508 5.34977E-03 6.37405E-04-1.90609E-14
 -1      1509 5.84313E-03 6.68980E-04-2.25426E-14
 -1      1510 5.69964E-03 6.70737E-04-2.14674E-14
 -1      1511 5.62880E-03 6.34359E-04-2.10724E-14
 -1      1512 6.13097E-03 6.64979E-04-2.47585E-14
 -1      1513 5.98689E-03 6.67057E-04-2.36396E-14
 -1      1514 5.91583E-03 6.30708E-04-2.32252E-14
 -1      1515 6.42035E-03 6.60201E-04-2.70579E-14
 -1      1516 6.27543E-03 6.62686E-04-2.58975E-14
 -1      1517 6.20398E-03 6.26365E-04-2.54609E-14
 -1      1518 6.71198E-03 6.54459E-04-2.94416E-14
 -1      1519 6.56583E-03 6.57442E-04-2.82390E-14
 -1      1520 6.49368E-03 6.21128E-04-2.77825E-14
 -1      1521 7.00698E-03 6.47590E-04-3.19056E-14
 -1      1522 6.85897E-03 6.51143E-04-3.06648E-14
 -1      1523 6.78559E-03 6.14776E-04-3.01861E-14
 -1      1524 7.30707E-03 6.39552E-04-3.44448E-14
 -1      1525 7.15625E-03 6.43666E-04-3.31665E-14
 -1      1526 7.08074E-03 6.07105E-04-3.26699E-14
 -1      1527 7.61490E-03 6.30645E-04-3.70527E-14
 -1      1528 7.45980E-03 6.35100E-04-3.57410E-14
 -1      1529 7.38063E-03 5.98050E-04-3.52264E-14
 -1      1530 7.93443E-03 6.22041E-04-3.97217E-14
 -1      1531 7.77287E-03 6.26090E-04-3.83794E-14
 -1      1532 7.68746E-03 5.87952E-04-3.78499E-14
 -1      1533 8.27140E-03 6.16925E-04-4.24488E-14
 -1      1534 8.10027E-03 6.18619E-04-4.10780E-14
 -1      1535 8.00433E-03 5.78193E-04-4.05335E-14
 -1      1536 8.61480E-03 6.22117E-04-4.50885E-14
 -1      1537 8.43972E-03 6.17583E-04-4.37640E-14
 -1      1538 8.32692E-03 5.72620E-04-4.32050E-14
 -1      1539 9.00989E-03 6.54236E-04-4.79185E-14
 -1      1540 8.80739E-03 6.33228E-04-4.64979E-14
 -1      1541 8.66788E-03 5.79228E-04-4.59296E-14
 -1      1542 9.44875E-03 7.46650E-04-5.07964E-14
 -1      1543 9.22337E-03 6.89919E-04-4.93506E-14
 -1      1544 9.04279E-03 6.17665E-04-4.87722E-14
 -1      1545 9.93549E-03 9.57673E-04-5.37111E-14
 -1      1546 9.68648E-03 8.32605E-04-5.22503E-14
 -1      1547 9.45053E-03 7.26164E-04-5.16610E-14
 -1      1548 1.04046E-02 1.30843E-03-5.63645E-14
 -1      1549 1.01684E-02 1.11035E-03-5.50342E-14
 -1      1550 9.87605E-03 9.51828E-04-5.44424E-14
 -1      1551 1.08958E-02 1.85248E-03-5.92096E-14
 -1      1552 1.06552E-02 1.56255E-03-5.77814E-14
 -1      1553 1.03304E-02 1.34773E-03-5.71863E-14
 -1      1554 1.12868E-02 2.36660E-03-6.17973E-14
 -1      1555 1.11000E-02 2.12209E-03-6.04984E-14
 -1      1556 1.07976E-02 1.89358E-03-5.98978E-14
 -1      1557 1.15983E-02 2.65351E-03-6.42691E-14
 -1      1558 1.14463E-02 2.55095E-03-6.30293E-14
 -1      1559 1.12207E-02 2.39136E-03-6.24236E-14
 -1      1560 1.19603E-02 2.56503E-03-6.72619E-14
 -1      1561 1.17715E-02 2.66400E-03-6.57583E-14
 -1      1562 1.16513E-02 2.63162E-03-6.51448E-14
 -1      1563 1.28392E-02 1.86517E-03-7.31630E-14
 -1      1564 1.26032E-02 2.01591E-03-7.16891E-14
 -1      1565 1.33628E-02 1.68186E-03-7.64749E-14
 -1      1566 1.31043E-02 1.74764E-03-7.48139E-14
 -1      1567 1.30709E-02 1.72773E-03-7.42396E-14
 -1      1568 1.38256E-02 1.67927E-03-7.96691E-14
 -1      1569 1.35997E-02 1.66363E-03-7.80664E-14
 -1      1570 1.35328E-02 1.60943E-03-7.74908E-14
 -1      1571 1.42645E-02 1.78847E-03-8.30712E-14
 -1      1572 1.40512E-02 1.72352E-03-8.13652E-14
 -1      1573 1.39527E-02 1.64963E-03-8.07822E-14
 -1      1574 1.46582E-02 1.95634E-03-8.65115E-14
 -1      1575 1.44665E-02 1.86760E-03-8.47867E-14
 -1      1576 1.43456E-02 1.78487E-03-8.42001E-14
 -1      1577 1.50163E-02 2.15001E-03-8.99834E-14
 -1      1578 1.48411E-02 2.05129E-03-8.82452E-14
 -1      1579 1.47076E-02 1.96605E-03-8.76559E-14
 -1      1580 1.53486E-02 2.35312E-03-9.34856E-14
 -1      1581 1.51852E-02 2.25107E-03-9.17310E-14
 -1      1582 1.50456E-02 2.16617E-03-9.11431E-14
 -1      1583 1.56628E-02 2.55792E-03-9.70141E-14
 -1      1584 1.55076E-02 2.45566E-03-9.52437E-14
 -1      1585 1.53657E-02 2.37219E-03-9.46529E-14
 -1      1586 1.59647E-02 2.76070E-03-1.00584E-13
 -1      1587 1.58150E-02 2.65976E-03-9.87939E-14
 -1      1588 1.56730E-02 2.57804E-03-9.81967E-14
 -1      1589 1.62585E-02 2.95944E-03-1.04185E-13
 -1      1590 1.61124E-02 2.86070E-03-1.02380E-13
 -1      1591 1.59712E-02 2.78080E-03-1.01777E-13
 -1      1592 1.65471E-02 3.15301E-03-1.07830E-13
 -1      1593 1.64033E-02 3.05692E-03-1.06001E-13
 -1      1594 1.62633E-02 2.97883E-03-1.05393E-13
 -1      1595 1.67745E-02 3.30502E-03-1.10899E-13
 -1      1596 1.66386E-02 3.21551E-03-1.09144E-13
 -1      1597 1.64996E-02 3.13877E-03-1.08528E-13
 -1      1598 1.66824E-02 3.26299E-03-1.11162E-13
 -1      1599 1.65015E-02 3.18034E-03-1.11657E-13
 -1      1600 1.65914E-02 3.22134E-03-1.11414E-13
 -1      1601 1.65001E-02 3.15964E-03-1.10098E-13
 -1      1602 1.63242E-02 3.10102E-03-1.12128E-13
 -1      1603 1.64126E-02 3.14018E-03-1.11893E-13
 -1      1604 1.63215E-02 3.07868E-03-1.10587E-13
 -1      1605 1.61471E-02 3.02572E-03-1.12559E-13
 -1      1606 1.62358E-02 3.06286E-03-1.12345E-13
 -1      1607 1.61453E-02 3.00120E-03-1.11045E-13
 -1      1608 1.59667E-02 2.95385E-03-1.13019E-13
 -1      1609 1.60575E-02 2.98942E-03-1.12786E-13
 -1      1610 1.59674E-02 2.92705E-03-1.11497E-13
 -1      1611 1.57835E-02 2.88509E-03-1.13475E-13
 -1      1612 1.58758E-02 2.91935E-03-1.13247E-13
 -1      1613 1.57863E-02 2.85584E-03-1.11953E-13
 -1      1614 1.55904E-02 2.81522E-03-1.13957E-13
 -1      1615 1.56878E-02 2.85027E-03-1.13715E-13
 -1      1616 1.55985E-02 2.78543E-03-1.12416E-13
 -1      1617 1.53913E-02 2.74376E-03-1.14450E-13
 -1      1618 1.54915E-02 2.77978E-03-1.14204E-13
 -1      1619 1.54024E-02 2.71365E-03-1.12888E-13
 -1      1620 1.51878E-02 2.66959E-03-1.14912E-13
 -1      1621 1.52900E-02 2.70706E-03-1.14688E-13
 -1      1622 1.52007E-02 2.63988E-03-1.13350E-13
 -1      1623 1.49819E-02 2.59235E-03-1.15323E-13
 -1      1624 1.50850E-02 2.63136E-03-1.15122E-13
 -1      1625 1.49956E-02 2.56349E-03-1.13780E-13
 -1      1626 1.47756E-02 2.51226E-03-1.15708E-13
 -1      1627 1.48787E-02 2.55264E-03-1.15518E-13
 -1      1628 1.47890E-02 2.48440E-03-1.14177E-13
 -1      1629 1.45734E-02 2.43140E-03-1.16034E-13
 -1      1630 1.46743E-02 2.47205E-03-1.15876E-13
 -1      1631 1.45844E-02 2.40371E-03-1.14538E-13
 -1      1632 1.43689E-02 2.34776E-03-1.16354E-13
 -1      1633 1.44710E-02 2.38970E-03-1.16193E-13
 -1      1634 1.43808E-02 2.32140E-03-1.14868E-13
 -1      1635 1.41656E-02 2.26346E-03-1.16663E-13
 -1      1636 1.42671E-02 2.30565E-03-1.16508E-13
 -1      1637 1.41768E-02 2.23743E-03-1.15187E-13
 -1      1638 1.39629E-02 2.17901E-03-1.17000E-13
 -1      1639 1.40642E-02 2.22123E-03-1.16828E-13
 -1      1640 1.39739E-02 2.15307E-03-1.15509E-13
 -1      1641 1.38846E-02 1.28009E-03-7.40085E-14
 -1      1642 1.38704E-02 1.23119E-03-7.41943E-14
 -1      1643 1.37952E-02 1.40369E-03-7.32847E-14
 -1      1644 1.38554E-02 1.34463E-03-7.36383E-14
 -1      1645 1.35492E-02 1.57704E-03-7.22345E-14
 -1      1646 1.36817E-02 1.48927E-03-7.27584E-14
 -1      1647 1.32089E-02 1.80880E-03-7.09283E-14
 -1      1648 1.33769E-02 1.70114E-03-7.15095E-14
 -1      1649 1.27898E-02 2.07252E-03-6.95033E-14
 -1      1650 1.29917E-02 1.94571E-03-7.01848E-14
 -1      1651 1.23247E-02 2.33593E-03-6.79241E-14
 -1      1652 1.25431E-02 2.21805E-03-6.86670E-14
 -1      1653 1.18019E-02 2.52004E-03-6.61470E-14
 -1      1654 1.20369E-02 2.45680E-03-6.70007E-14
 -1      1655 1.13187E-02 2.48460E-03-6.44528E-14
 -1      1656 1.15348E-02 2.52400E-03-6.51920E-14
 -1      1657 1.07641E-02 2.22031E-03-6.26698E-14
 -1      1658 1.10352E-02 2.37443E-03-6.35044E-14
 -1      1659 1.01980E-02 1.81718E-03-6.10507E-14
 -1      1660 1.04549E-02 2.00449E-03-6.17358E-14
 -1      1661 9.66355E-03 1.45031E-03-5.98539E-14
 -1      1662 9.89191E-03 1.61434E-03-6.03808E-14
 -1      1663 9.22371E-03 1.16091E-03-5.89511E-14
 -1      1664 9.41121E-03 1.28782E-03-5.93453E-14
 -1      1665 8.89196E-03 9.17032E-04-5.81779E-14
 -1      1666 9.03657E-03 1.01113E-03-5.84449E-14
 -1      1667 8.69825E-03 7.76866E-04-5.79953E-14
 -1      1668 8.76473E-03 8.40288E-04-5.80851E-14
 -1      1669 8.66278E-03 6.54618E-04-5.79366E-14
 -1      1670 8.65839E-03 7.04242E-04-5.78608E-14
 -1      1671 8.77822E-03 5.49889E-04-5.84131E-14
 -1      1672 8.70962E-03 5.96307E-04-5.81944E-14
 -1      1673 9.03208E-03 4.36177E-04-5.91157E-14
 -1      1674 8.89872E-03 4.94364E-04-5.87118E-14
 -1      1675 9.35111E-03 2.91430E-04-6.02547E-14
 -1      1676 9.19626E-03 3.52864E-04-5.97540E-14
 -1      1677 9.72850E-03 1.52499E-04-6.15527E-14
 -1      1678 9.54751E-03 2.17146E-04-6.09190E-14
 -1      1679 1.01152E-02 3.59596E-05-6.29908E-14
 -1      1680 9.93842E-03 8.55617E-05-6.23192E-14
 -1      1681 1.05218E-02-3.99150E-05-6.45975E-14
 -1      1682 1.03365E-02-1.14410E-05-6.38225E-14
 -1      1683 1.09242E-02-4.15120E-05-6.63178E-14
 -1      1684 1.07395E-02-4.99720E-05-6.55318E-14
 -1      1685 1.13298E-02 3.64271E-05-6.80286E-14
 -1      1686 1.11429E-02-1.04340E-05-6.72540E-14
 -1      1687 1.17658E-02 2.01057E-04-6.97694E-14
 -1      1688 1.15580E-02 1.14213E-04-6.89950E-14
 -1      1689 1.22706E-02 4.15089E-04-7.12168E-14
 -1      1690 1.20485E-02 3.10607E-04-7.05443E-14
 -1      1691 1.27550E-02 6.46482E-04-7.24892E-14
 -1      1692 1.25318E-02 5.39302E-04-7.19359E-14
 -1      1693 1.31976E-02 8.71204E-04-7.35266E-14
 -1      1694 1.29953E-02 7.77714E-04-7.31329E-14
 -1      1695 1.35664E-02 1.02731E-03-7.40024E-14
 -1      1696 1.34139E-02 9.55494E-04-7.37937E-14
 -1      1697 1.38054E-02 1.16762E-03-7.42474E-14
 -1      1698 1.37117E-02 1.11208E-03-7.42310E-14
 -1      1699 2.78171E-04 1.72802E-04-1.72795E-17
 -1      1700 1.25876E-02 2.03703E-03-7.11148E-14
 -1      1701 1.23740E-02 2.19891E-03-7.02208E-14
 -1      1702 1.21602E-02 2.39134E-03-6.87633E-14
 -1      1703 1.21195E-02 2.43162E-03-6.81386E-14
 -1      1704 1.37247E-02 1.40171E-03-7.36370E-14
 -1      1705 1.38490E-02 1.23111E-03-7.49726E-14
 -1      1706 1.38787E-02 1.29959E-03-7.45406E-14
 -1      1707 1.37776E-02 2.09458E-03-1.16956E-13
 -1      1708 1.38789E-02 2.13675E-03-1.16789E-13
 -1      1709 1.37886E-02 2.06861E-03-1.15460E-13
 -1      1710 1.34248E-02 1.57603E-03-7.23774E-14
 -1      1711 1.30323E-02 1.82708E-03-7.09020E-14
 -1      1712 1.25913E-02 2.12260E-03-6.93165E-14
 -1      1713 1.21153E-02 2.41465E-03-6.75507E-14
 -1      1714 1.16797E-02 2.56301E-03-6.56700E-14
 -1      1715 1.12260E-02 2.45480E-03-6.37680E-14
 -1      1716 1.07190E-02 2.10059E-03-6.18925E-14
 -1      1717 1.01616E-02 1.65593E-03-6.03007E-14
 -1      1718 9.62112E-03 1.28355E-03-5.91325E-14
 -1      1719 9.17326E-03 9.91706E-04-5.81257E-14
 -1      1720 8.84314E-03 8.14258E-04-5.75350E-14
 -1      1721 8.66964E-03 7.06495E-04-5.73121E-14
 -1      1722 8.67627E-03 6.35725E-04-5.74380E-14
 -1      1723 8.84827E-03 5.57034E-04-5.79917E-14
 -1      1724 9.14015E-03 4.45034E-04-5.89213E-14
 -1      1725 9.49978E-03 2.92679E-04-6.02161E-14
 -1      1726 9.88523E-03 1.38258E-04-6.16382E-14
 -1      1727 1.02740E-02 5.51247E-06-6.32291E-14
 -1      1728 1.06428E-02-7.01164E-05-6.49918E-14
 -1      1729 1.10102E-02-5.41001E-05-6.68621E-14
 -1      1730 1.13850E-02 6.34778E-05-6.87674E-14
 -1      1731 1.18156E-02 2.73271E-04-7.05163E-14
 -1      1732 1.23194E-02 5.26260E-04-7.20177E-14
 -1      1733 1.28092E-02 7.88452E-04-7.33893E-14
 -1      1734 1.32669E-02 9.93036E-04-7.43062E-14
 -1      1735 1.36342E-02 1.13551E-03-7.48011E-14
 -1      1736 2.85320E-04-1.76305E-04-5.32343E-17
 -1      1737 3.32204E-04-1.16873E-04-1.64379E-16
 -1      1738 3.36365E-04-1.33117E-04-1.55054E-16
 -1      1739 3.42268E-04-1.52104E-04-1.43250E-16
 -1      1740 3.51834E-04-1.74107E-04-1.26594E-16
 -1      1741 4.58396E-04-1.88224E-04-2.25189E-16
 -1      1742 3.24554E-04-6.55070E-05-1.82986E-16
 -1      1743 3.25707E-04-7.67877E-05-1.80479E-16
 -1      1744 3.23056E-04-4.40366E-05-1.85737E-16
 -1      1745 3.23713E-04-5.45135E-05-1.84680E-16
 -1      1746 4.36489E-04-7.94718E-05-2.71254E-16
 -1      1747 3.22263E-04-2.39483E-05-1.85995E-16
 -1      1748 3.22599E-04-3.38457E-05-1.86185E-16
 -1      1749 4.34483E-04-5.15258E-05-2.74073E-16
 -1      1750 3.21959E-04-4.55235E-06-1.84626E-16
 -1      1751 3.22061E-04-1.41842E-05-1.85507E-16
 -1      1752 4.33448E-04-2.51716E-05-2.73978E-16
 -1      1753 3.22070E-04 1.47153E-05-1.81550E-16
 -1      1754 3.21962E-04 5.07967E-06-1.83284E-16
 -1      1755 4.33135E-04 4.57594E-07-2.71308E-16
 -1      1756 3.22622E-04 3.43964E-05-1.76522E-16
 -1      1757 3.22278E-04 2.44870E-05-1.79354E-16
 -1      1758 4.33473E-04 2.60998E-05-2.66145E-16
 -1      1759 3.23733E-04 5.47401E-05-1.69176E-16
 -1      1760 3.23080E-04 4.44283E-05-1.73256E-16
 -1      1761 4.34526E-04 5.22653E-05-2.58298E-16
 -1      1762 3.25763E-04 7.72482E-05-1.58592E-16
 -1      1763 3.24580E-04 6.57463E-05-1.64582E-16
 -1      1764 4.36549E-04 8.00203E-05-2.47117E-16
 -1      1765 3.29429E-04 1.02846E-04-1.42844E-16
 -1      1766 3.27283E-04 8.96325E-05-1.51734E-16
 -1      1767 4.40142E-04 1.10804E-04-2.30827E-16
 -1      1768 3.36511E-04 1.33902E-04-1.19493E-16
 -1      1769 3.32338E-04 1.17604E-04-1.32530E-16
 -1      1770 4.46587E-04 1.46243E-04-2.07042E-16
 -1      1771 3.52313E-04 1.75279E-04-8.38630E-17
 -1      1772 3.42574E-04 1.53084E-04-1.04192E-16
 -1      1773 4.58860E-04 1.89584E-04-1.72429E-16
 -1      1774 1.27807E-02 1.88071E-03-7.19783E-14
 -1      1775 1.25448E-02 2.06765E-03-7.05058E-14
 -1      1776 1.36524E-02 1.40253E-03-7.40314E-14
 -1      1777 1.37733E-02 1.35157E-03-7.45639E-14
 -1      1778 3.40104E-04-1.91000E-04-9.26722E-17
 -1      1779 3.32941E-04 1.87931E-04-4.88027E-17
 -1      1780 8.07408E-04-3.74355E-04-4.39915E-16
 -1      1781 9.52705E-04-4.15589E-04-6.14485E-16
 -1      1782 1.09557E-03-4.50326E-04-8.20429E-16
 -1      1783 1.23727E-03-4.79269E-04-1.05851E-15
 -1      1784 1.00411E-03-3.98224E-04-7.52219E-16
 -1      1785 1.37770E-03-5.03800E-04-1.32790E-15
 -1      1786 1.51741E-03-5.24216E-04-1.62924E-15
 -1      1787 1.28984E-03-4.56285E-04-1.23390E-15
 -1      1788 1.65660E-03-5.41436E-04-1.96169E-15
 -1      1789 1.79547E-03-5.55700E-04-2.32521E-15
 -1      1790 1.57229E-03-4.97318E-04-1.84024E-15
 -1      1791 1.93421E-03-5.67616E-04-2.71967E-15
 -1      1792 2.07290E-03-5.77387E-04-3.14446E-15
 -1      1793 1.85295E-03-5.25941E-04-2.57010E-15
 -1      1794 2.21167E-03-5.85431E-04-3.60008E-15
 -1      1795 2.35054E-03-5.91919E-04-4.08554E-15
 -1      1796 2.13290E-03-5.45492E-04-3.42185E-15
 -1      1797 2.48962E-03-5.97149E-04-4.60034E-15
 -1      1798 2.62887E-03-6.01259E-04-5.14470E-15
 -1      1799 2.41282E-03-5.58425E-04-4.39252E-15
 -1      1800 2.76837E-03-6.04463E-04-5.71758E-15
 -1      1801 2.90809E-03-6.06872E-04-6.31748E-15
 -1      1802 2.69311E-03-5.66574E-04-5.47958E-15
 -1      1803 3.04807E-03-6.08641E-04-6.94581E-15
 -1      1804 3.18827E-03-6.09856E-04-7.60076E-15
 -1      1805 2.97397E-03-5.71312E-04-6.67932E-15
 -1      1806 3.32872E-03-6.10626E-04-8.28219E-15
 -1      1807 3.46939E-03-6.11018E-04-8.99015E-15
 -1      1808 3.25551E-03-5.73658E-04-7.98709E-15
 -1      1809 3.61029E-03-6.11108E-04-9.72383E-15
 -1      1810 3.75138E-03-6.10947E-04-1.04828E-14
 -1      1811 3.53774E-03-5.74363E-04-9.40001E-15
 -1      1812 3.89269E-03-6.10585E-04-1.12661E-14
 -1      1813 4.03417E-03-6.10061E-04-1.20748E-14
 -1      1814 3.82061E-03-5.73969E-04-1.09149E-14
 -1      1815 4.17583E-03-6.09406E-04-1.29080E-14
 -1      1816 4.31765E-03-6.08650E-04-1.37655E-14
 -1      1817 4.10408E-03-5.72856E-04-1.25294E-14
 -1      1818 4.45964E-03-6.07811E-04-1.46485E-14
 -1      1819 4.60176E-03-6.06911E-04-1.55560E-14
 -1      1820 4.38809E-03-5.71286E-04-1.42433E-14
 -1      1821 4.74402E-03-6.05962E-04-1.64889E-14
 -1      1822 4.88641E-03-6.04979E-04-1.74456E-14
 -1      1823 4.67259E-03-5.69435E-04-1.60563E-14
 -1      1824 5.02893E-03-6.03972E-04-1.84265E-14
 -1      1825 5.17157E-03-6.02953E-04-1.94318E-14
 -1      1826 4.95753E-03-5.67424E-04-1.79668E-14
 -1      1827 5.31432E-03-6.01931E-04-2.04615E-14
 -1      1828 5.45720E-03-6.00918E-04-2.15140E-14
 -1      1829 5.24288E-03-5.65341E-04-1.99747E-14
 -1      1830 5.60018E-03-5.99927E-04-2.25894E-14
 -1      1831 5.74327E-03-5.98972E-04-2.36895E-14
 -1      1832 5.52862E-03-5.63270E-04-2.20758E-14
 -1      1833 5.88647E-03-5.98074E-04-2.48130E-14
 -1      1834 6.02978E-03-5.97249E-04-2.59594E-14
 -1      1835 5.81476E-03-5.61311E-04-2.42706E-14
 -1      1836 6.17319E-03-5.96530E-04-2.71302E-14
 -1      1837 6.31670E-03-5.95936E-04-2.83244E-14
 -1      1838 6.10127E-03-5.59606E-04-2.65599E-14
 -1      1839 6.46030E-03-5.95517E-04-2.95413E-14
 -1      1840 6.60397E-03-5.95295E-04-3.07804E-14
 -1      1841 6.38817E-03-5.58358E-04-2.89423E-14
 -1      1842 6.74771E-03-5.95332E-04-3.20413E-14
 -1      1843 6.89148E-03-5.95657E-04-3.33227E-14
 -1      1844 6.67541E-03-5.57843E-04-3.14153E-14
 -1      1845 7.03529E-03-5.96342E-04-3.46251E-14
 -1      1846 7.17904E-03-5.97412E-04-3.59456E-14
 -1      1847 6.96295E-03-5.58417E-04-3.39734E-14
 -1      1848 7.32276E-03-5.98940E-04-3.72858E-14
 -1      1849 7.46632E-03-6.00940E-04-3.86426E-14
 -1      1850 7.25064E-03-5.60484E-04-3.66098E-14
 -1      1851 7.60973E-03-6.03465E-04-4.00173E-14
 -1      1852 7.75281E-03-6.06498E-04-4.14092E-14
 -1      1853 7.53826E-03-5.64431E-04-3.93187E-14
 -1      1854 7.89558E-03-6.10041E-04-4.28176E-14
 -1      1855 8.03781E-03-6.14020E-04-4.42431E-14
 -1      1856 7.82542E-03-5.70495E-04-4.20962E-14
 -1      1857 8.17951E-03-6.18340E-04-4.56839E-14
 -1      1858 8.32040E-03-6.22838E-04-4.71401E-14
 -1      1859 8.11155E-03-5.78547E-04-4.49402E-14
 -1      1860 8.46050E-03-6.27269E-04-4.86090E-14
 -1      1861 8.59950E-03-6.31345E-04-5.00924E-14
 -1      1862 8.39588E-03-5.87792E-04-4.78441E-14
 -1      1863 8.73743E-03-6.34628E-04-5.15897E-14
 -1      1864 8.87400E-03-6.36679E-04-5.30978E-14
 -1      1865 8.67744E-03-5.96410E-04-5.08031E-14
 -1      1866 9.00922E-03-6.36848E-04-5.46215E-14
 -1      1867 9.14292E-03-6.34553E-04-5.61572E-14
 -1      1868 8.95514E-03-6.01227E-04-5.38164E-14
 -1      1869 9.27510E-03-6.28971E-04-5.77065E-14
 -1      1870 9.40579E-03-6.19426E-04-5.92722E-14
 -1      1871 9.22804E-03-5.97576E-04-5.68810E-14
 -1      1872 9.53495E-03-6.05036E-04-6.08524E-14
 -1      1873 9.66288E-03-5.85135E-04-6.24477E-14
 -1      1874 9.49562E-03-5.79530E-04-6.00051E-14
 -1      1875 9.78952E-03-5.58952E-04-6.40588E-14
 -1      1876 9.91543E-03-5.25977E-04-6.56830E-14
 -1      1877 9.75814E-03-5.40670E-04-6.31885E-14
 -1      1878 1.00405E-02-4.85730E-04-6.73229E-14
 -1      1879 1.01656E-02-4.37984E-04-6.89781E-14
 -1      1880 1.00168E-02-4.75319E-04-6.64345E-14
 -1      1881 1.02904E-02-3.82680E-04-7.06450E-14
 -1      1882 1.04159E-02-3.19937E-04-7.23256E-14
 -1      1883 1.02739E-02-3.79916E-04-6.97365E-14
 -1      1884 1.05419E-02-2.50128E-04-7.40173E-14
 -1      1885 1.06690E-02-1.73688E-04-7.57215E-14
 -1      1886 1.05318E-02-2.53980E-04-7.30925E-14
 -1      1887 1.07971E-02-9.13214E-05-7.74395E-14
 -1      1888 1.09268E-02-3.65821E-06-7.91700E-14
 -1      1889 1.07928E-02-1.00248E-04-7.64997E-14
 -1      1890 1.10578E-02 8.84379E-05-8.09146E-14
 -1      1891 1.11903E-02 1.84287E-04-8.26734E-14
 -1      1892 1.10584E-02 7.60988E-05-7.99582E-14
 -1      1893 1.13243E-02 2.83047E-04-8.44440E-14
 -1      1894 1.14596E-02 3.84111E-04-8.62268E-14
 -1      1895 1.13293E-02 2.68761E-04-8.34712E-14
 -1      1896 1.15963E-02 4.86788E-04-8.80233E-14
 -1      1897 1.17341E-02 5.90610E-04-8.98347E-14
 -1      1898 1.16050E-02 4.71648E-04-8.70326E-14
 -1      1899 1.18730E-02 6.95101E-04-9.16534E-14
 -1      1900 1.20127E-02 7.99947E-04-9.34844E-14
 -1      1901 1.18846E-02 6.79797E-04-9.06426E-14
 -1      1902 1.21533E-02 9.04880E-04-9.53308E-14
 -1      1903 1.22943E-02 1.00972E-03-9.71838E-14
 -1      1904 1.21670E-02 8.89758E-04-9.42998E-14
 -1      1905 1.24360E-02 1.11438E-03-9.90411E-14
 -1      1906 1.25779E-02 1.21877E-03-1.00908E-13
 -1      1907 1.24514E-02 1.09954E-03-9.79973E-14
 -1      1908 1.27202E-02 1.32290E-03-1.02781E-13
 -1      1909 1.28627E-02 1.42677E-03-1.04654E-13
 -1      1910 1.27367E-02 1.30830E-03-1.01721E-13
 -1      1911 1.30053E-02 1.53044E-03-1.06529E-13
 -1      1912 1.31480E-02 1.63392E-03-1.08407E-13
 -1      1913 1.30224E-02 1.51596E-03-1.05466E-13
 -1      1914 1.32907E-02 1.73729E-03-1.10285E-13
 -1      1915 1.34335E-02 1.84055E-03-1.12164E-13
 -1      1916 1.33083E-02 1.72284E-03-1.09214E-13
 -1      1917 1.40629E-02 1.62928E-03-8.18291E-14
 -1      1918 1.38789E-02 1.57653E-03-8.01270E-14
 -1      1919 1.22326E-03 4.76737E-04-8.08503E-16
 -1      1920 1.08144E-03 4.47285E-04-6.11341E-16
 -1      1921 9.38439E-04 4.11944E-04-4.43872E-16
 -1      1922 7.92963E-04 3.69964E-04-3.05311E-16
 -1      1923 9.89855E-04 3.94947E-04-5.73109E-16
 -1      1924 1.50355E-03 5.22474E-04-1.29130E-15
 -1      1925 1.36377E-03 5.01693E-04-1.03486E-15
 -1      1926 1.27574E-03 4.53984E-04-9.77855E-16
 -1      1927 1.78167E-03 5.54546E-04-1.89285E-15
 -1      1928 1.64278E-03 5.40012E-04-1.57728E-15
 -1      1929 1.55831E-03 4.95748E-04-1.50002E-15
 -1      1930 2.05910E-03 5.76668E-04-2.61094E-15
 -1      1931 1.92042E-03 5.66697E-04-2.23728E-15
 -1      1932 1.83902E-03 5.24915E-04-2.13872E-15
 -1      1933 2.33672E-03 5.91522E-04-3.44376E-15
 -1      1934 2.19787E-03 5.84885E-04-3.01349E-15
 -1      1935 2.11898E-03 5.44870E-04-2.89276E-15
 -1      1936 2.60107E-03 6.00719E-04-4.33976E-15
 -1      1937 2.46882E-03 5.96639E-04-3.87922E-15
 -1      1938 2.39189E-03 5.57835E-04-3.73737E-15
 -1      1939 2.88019E-03 6.06666E-04-5.39182E-15
 -1      1940 2.74052E-03 6.04104E-04-4.85194E-15
 -1      1941 2.66512E-03 5.66142E-04-4.68881E-15
 -1      1942 3.16026E-03 6.09884E-04-6.55503E-15
 -1      1943 3.02011E-03 6.08562E-04-5.95898E-15
 -1      1944 2.94593E-03 5.71184E-04-5.77400E-15
 -1      1945 3.44128E-03 6.11205E-04-7.83228E-15
 -1      1946 3.30066E-03 6.10742E-04-7.17944E-15
 -1      1947 3.22739E-03 5.73743E-04-6.97044E-15
 -1      1948 3.72317E-03 6.11230E-04-9.22109E-15
 -1      1949 3.58213E-03 6.11351E-04-8.51295E-15
 -1      1950 3.50954E-03 5.74589E-04-8.27901E-15
 -1      1951 4.00586E-03 6.10380E-04-1.07227E-14
 -1      1952 3.86443E-03 6.10894E-04-9.95817E-15
 -1      1953 3.79234E-03 5.74275E-04-9.70017E-15
 -1      1954 4.28926E-03 6.08935E-04-1.23313E-14
 -1      1955 4.14748E-03 6.09718E-04-1.15139E-14
 -1      1956 4.07575E-03 5.73181E-04-1.12308E-14
 -1      1957 4.57329E-03 6.07068E-04-1.40421E-14
 -1      1958 4.43120E-03 6.08046E-04-1.31742E-14
 -1      1959 4.35972E-03 5.71557E-04-1.28674E-14
 -1      1960 4.85790E-03 6.04864E-04-1.58500E-14
 -1      1961 4.71552E-03 6.06004E-04-1.49338E-14
 -1      1962 4.64419E-03 5.69548E-04-1.46041E-14
 -1      1963 5.14307E-03 6.02340E-04-1.77508E-14
 -1      1964 5.00041E-03 6.03641E-04-1.67888E-14
 -1      1965 4.92914E-03 5.67220E-04-1.64366E-14
 -1      1966 5.41452E-03 5.99609E-04-1.96467E-14
 -1      1967 5.27873E-03 6.01016E-04-1.86880E-14
 -1      1968 5.20742E-03 5.64641E-04-1.83149E-14
 -1      1969 5.70090E-03 5.96296E-04-2.17324E-14
 -1      1970 5.55762E-03 5.98011E-04-2.06778E-14
 -1      1971 5.48618E-03 5.61704E-04-2.02839E-14
 -1      1972 5.98807E-03 5.92399E-04-2.39058E-14
 -1      1973 5.84437E-03 5.94424E-04-2.28090E-14
 -1      1974 5.77264E-03 5.58220E-04-2.23928E-14
 -1      1975 6.27629E-03 5.87737E-04-2.61646E-14
 -1      1976 6.13202E-03 5.90167E-04-2.50251E-14
 -1      1977 6.05978E-03 5.54110E-04-2.45889E-14
 -1      1978 6.56590E-03 5.82090E-04-2.85078E-14
 -1      1979 6.42087E-03 5.85039E-04-2.73263E-14
 -1      1980 6.34777E-03 5.49185E-04-2.68696E-14
 -1      1981 6.85745E-03 5.75222E-04-3.09320E-14
 -1      1982 6.71135E-03 5.78808E-04-2.97097E-14
 -1      1983 6.63685E-03 5.43223E-04-2.92339E-14
 -1      1984 7.15171E-03 5.66933E-04-3.34342E-14
 -1      1985 7.00412E-03 5.71244E-04-3.21738E-14
 -1      1986 6.92733E-03 5.36005E-04-3.16774E-14
 -1      1987 7.44973E-03 5.57205E-04-3.60069E-14
 -1      1988 7.30006E-03 5.62218E-04-3.47114E-14
 -1      1989 7.21959E-03 5.27384E-04-3.41973E-14
 -1      1990 7.75292E-03 5.46533E-04-3.86469E-14
 -1      1991 7.60040E-03 5.51912E-04-3.73196E-14
 -1      1992 7.51402E-03 5.17473E-04-3.67886E-14
 -1      1993 8.06308E-03 5.36669E-04-4.13457E-14
 -1      1994 7.90672E-03 5.41328E-04-3.99895E-14
 -1      1995 7.81099E-03 5.07039E-04-3.94446E-14
 -1      1996 8.36612E-03 5.32138E-04-4.39637E-14
 -1      1997 8.21305E-03 5.33498E-04-4.26484E-14
 -1      1998 8.10314E-03 4.98521E-04-4.20919E-14
 -1      1999 8.69651E-03 5.42367E-04-4.67709E-14
 -1      2000 8.52916E-03 5.34532E-04-4.53600E-14
 -1      2001 8.39780E-03 4.96535E-04-4.47916E-14
 -1      2002 9.04267E-03 5.89193E-04-4.96258E-14
 -1      2003 8.86683E-03 5.59367E-04-4.81923E-14
 -1      2004 8.70309E-03 5.12333E-04-4.76114E-14
 -1      2005 9.41380E-03 7.13550E-04-5.25272E-14
 -1      2006 9.22434E-03 6.37651E-04-5.10706E-14
 -1      2007 9.01506E-03 5.68247E-04-5.04802E-14
 -1      2008 9.78566E-03 9.45956E-04-5.51746E-14
 -1      2009 9.59535E-03 8.09603E-04-5.38476E-14
 -1      2010 9.33032E-03 6.95345E-04-5.32487E-14
 -1      2011 1.02920E-02 1.40589E-03-5.80142E-14
 -1      2012 1.00565E-02 1.15701E-03-5.65912E-14
 -1      2013 1.07969E-02 1.97540E-03-6.06487E-14
 -1      2014 1.05641E-02 1.69393E-03-5.93553E-14
 -1      2015 1.12462E-02 2.44978E-03-6.32436E-14
 -1      2016 1.10101E-02 2.24295E-03-6.20060E-14
 -1      2017 1.36961E-02 1.54949E-03-7.85200E-14
 -1      2018 1.35051E-02 1.55518E-03-7.69219E-14
 -1      2019 1.38433E-02 1.51202E-03-7.95546E-14
 -1      2020 1.32869E-02 1.60084E-03-7.52524E-14
 -1      2021 1.30569E-02 1.70575E-03-7.35930E-14
 -1      2022 1.34941E-02 1.50427E-03-7.62670E-14
 -1      2023 1.44127E-02 1.78442E-03-8.52645E-14
 -1      2024 1.42401E-02 1.70044E-03-8.35420E-14
 -1      2025 1.41599E-02 1.62315E-03-8.28794E-14
 -1      2026 1.47446E-02 1.97431E-03-8.87303E-14
 -1      2027 1.45801E-02 1.87653E-03-8.69922E-14
 -1      2028 1.44716E-02 1.79239E-03-8.63292E-14
 -1      2029 1.50630E-02 2.17795E-03-9.22291E-14
 -1      2030 1.49049E-02 2.07516E-03-9.04776E-14
 -1      2031 1.47773E-02 1.98759E-03-8.98100E-14
 -1      2032 1.53710E-02 2.38516E-03-9.57524E-14
 -1      2033 1.52179E-02 2.28148E-03-9.39886E-14
 -1      2034 1.50787E-02 2.19274E-03-9.33185E-14
 -1      2035 1.56712E-02 2.59111E-03-9.93078E-14
 -1      2036 1.55218E-02 2.48849E-03-9.75239E-14
 -1      2037 1.53761E-02 2.39993E-03-9.68525E-14
 -1      2038 1.59655E-02 2.79336E-03-1.02900E-13
 -1      2039 1.58189E-02 2.69281E-03-1.01101E-13
 -1      2040 1.56699E-02 2.60520E-03-1.00421E-13
 -1      2041 1.62556E-02 2.99053E-03-1.06533E-13
 -1      2042 1.61109E-02 2.89268E-03-1.04712E-13
 -1      2043 1.59605E-02 2.80655E-03-1.04029E-13
 -1      2044 1.64240E-02 3.10715E-03-1.08968E-13
 -1      2045 1.63322E-02 3.04412E-03-1.07660E-13
 -1      2046 1.61816E-02 2.95947E-03-1.06968E-13
 -1      2047 1.63343E-02 3.06624E-03-1.09220E-13
 -1      2048 1.59788E-02 2.90009E-03-1.09584E-13
 -1      2049 1.60667E-02 2.93801E-03-1.09353E-13
 -1      2050 1.61560E-02 2.98179E-03-1.09407E-13
 -1      2051 1.62440E-02 3.02119E-03-1.09169E-13
 -1      2052 1.61679E-02 2.96789E-03-1.08047E-13
 -1      2053 1.59894E-02 2.87910E-03-1.07946E-13
 -1      2054 1.58005E-02 2.82629E-03-1.10041E-13
 -1      2055 1.58902E-02 2.86292E-03-1.09812E-13
 -1      2056 1.58126E-02 2.79808E-03-1.08126E-13
 -1      2057 1.56196E-02 2.75533E-03-1.10493E-13
 -1      2058 1.57109E-02 2.79074E-03-1.10266E-13
 -1      2059 1.56352E-02 2.72551E-03-1.08580E-13
 -1      2060 1.54283E-02 2.68326E-03-1.10948E-13
 -1      2061 1.55249E-02 2.71941E-03-1.10719E-13
 -1      2062 1.54510E-02 2.65390E-03-1.09029E-13
 -1      2063 1.52303E-02 2.60993E-03-1.11401E-13
 -1      2064 1.53301E-02 2.64685E-03-1.11174E-13
 -1      2065 1.52577E-02 2.58109E-03-1.09471E-13
 -1      2066 1.50271E-02 2.53443E-03-1.11839E-13
 -1      2067 1.51292E-02 2.57251E-03-1.11623E-13
 -1      2068 1.50576E-02 2.50646E-03-1.09908E-13
 -1      2069 1.48209E-02 2.45639E-03-1.12250E-13
 -1      2070 1.49242E-02 2.49573E-03-1.12048E-13
 -1      2071 1.48529E-02 2.42936E-03-1.10328E-13
 -1      2072 1.46139E-02 2.37595E-03-1.12641E-13
 -1      2073 1.47174E-02 2.41643E-03-1.12449E-13
 -1      2074 1.46458E-02 2.34970E-03-1.10728E-13
 -1      2075 1.44110E-02 2.29500E-03-1.12989E-13
 -1      2076 1.45123E-02 2.33565E-03-1.12818E-13
 -1      2077 1.44402E-02 2.26854E-03-1.11102E-13
 -1      2078 1.42059E-02 2.21138E-03-1.13328E-13
 -1      2079 1.43082E-02 2.25329E-03-1.13160E-13
 -1      2080 1.42356E-02 2.18582E-03-1.11454E-13
 -1      2081 1.40022E-02 2.12711E-03-1.13650E-13
 -1      2082 1.41039E-02 2.16928E-03-1.13491E-13
 -1      2083 1.40309E-02 2.10148E-03-1.11790E-13
 -1      2084 1.37995E-02 2.04264E-03-1.13971E-13
 -1      2085 1.39008E-02 2.08487E-03-1.13809E-13
 -1      2086 1.38276E-02 2.01680E-03-1.12113E-13
 -1      2087 1.32940E-02 1.59664E-03-7.24853E-14
 -1      2088 1.34721E-02 1.49535E-03-7.32172E-14
 -1      2089 1.35601E-02 1.94071E-03-1.14243E-13
 -1      2090 1.38796E-02 1.26548E-03-7.56792E-14
 -1      2091 1.38155E-02 1.24637E-03-7.57385E-14
 -1      2092 1.14283E-02 2.56119E-03-6.41883E-14
 -1      2093 3.27185E-04-8.90738E-05-1.76806E-16
 -1      2094 3.29276E-04-1.02238E-04-1.71182E-16
 -1      2095 4.46326E-04-1.45244E-04-2.49760E-16
 -1      2096 4.40008E-04-1.10092E-04-2.63908E-16
 -1      2097 1.28804E-02 1.85539E-03-7.10030E-14
 -1      2098 1.30811E-02 1.72065E-03-7.17539E-14
 -1      2099 1.24397E-02 2.18363E-03-6.91782E-14
 -1      2100 1.26464E-02 2.02714E-03-7.00188E-14
 -1      2101 1.20194E-02 2.47418E-03-6.73252E-14
 -1      2102 1.22227E-02 2.33753E-03-6.82547E-14
 -1      2103 1.02366E-02 1.60599E-03-5.98723E-14
 -1      2104 1.05051E-02 1.81770E-03-6.05325E-14
 -1      2105 9.56515E-03 1.12309E-03-5.82750E-14
 -1      2106 9.80626E-03 1.27778E-03-5.87745E-14
 -1      2107 9.13990E-03 8.71868E-04-5.72779E-14
 -1      2108 9.33943E-03 9.86419E-04-5.77760E-14
 -1      2109 9.49347E-03 9.94705E-04-5.74219E-14
 -1      2110 8.78339E-03 7.19015E-04-5.66459E-14
 -1      2111 8.91341E-03 7.57225E-04-5.67319E-14
 -1      2112 8.65231E-03 6.57723E-04-5.63831E-14
 -1      2113 8.69738E-03 6.81857E-04-5.65141E-14
 -1      2114 8.73820E-03 6.52271E-04-5.57139E-14
 -1      2115 8.70196E-03 6.21095E-04-5.69562E-14
 -1      2116 8.65408E-03 6.38586E-04-5.66981E-14
 -1      2117 8.90291E-03 5.59027E-04-5.75418E-14
 -1      2118 8.78453E-03 5.92797E-04-5.72478E-14
 -1      2119 8.73489E-03 6.04446E-04-5.65047E-14
 -1      2120 9.26468E-03 4.33744E-04-5.86279E-14
 -1      2121 9.09876E-03 4.96834E-04-5.79964E-14
 -1      2122 9.60780E-03 2.88559E-04-5.99293E-14
 -1      2123 9.42979E-03 3.65626E-04-5.92751E-14
 -1      2124 9.35009E-03 4.07625E-04-5.83415E-14
 -1      2125 1.00109E-02 1.09797E-04-6.16239E-14
 -1      2126 9.83478E-03 1.89308E-04-6.08652E-14
 -1      2127 1.03508E-02-2.17554E-05-6.32699E-14
 -1      2128 1.01845E-02 4.00970E-05-6.24446E-14
 -1      2129 1.00922E-02 7.74470E-05-6.16629E-14
 -1      2130 1.07289E-02-9.51425E-05-6.54231E-14
 -1      2131 1.05708E-02-7.59765E-05-6.44902E-14
 -1      2132 1.10477E-02-5.69494E-05-6.73863E-14
 -1      2133 1.08977E-02-8.96556E-05-6.64487E-14
 -1      2134 1.14064E-02 9.87541E-05-6.94394E-14
 -1      2135 1.12382E-02 1.10831E-05-6.84693E-14
 -1      2136 1.18938E-02 3.68371E-04-7.13847E-14
 -1      2137 1.16706E-02 2.42713E-04-7.06029E-14
 -1      2138 1.23626E-02 6.38834E-04-7.29256E-14
 -1      2139 1.21301E-02 5.03669E-04-7.21964E-14
 -1      2140 1.28472E-02 9.09552E-04-7.44118E-14
 -1      2141 1.26130E-02 7.86055E-04-7.37607E-14
 -1      2142 1.33502E-02 1.10647E-03-7.52981E-14
 -1      2143 1.31396E-02 1.03654E-03-7.50299E-14
 -1      2144 1.36810E-02 1.21058E-03-7.57492E-14
 -1      2145 1.35305E-02 1.16492E-03-7.55228E-14
 -1      2146 1.34268E-02 1.18452E-03-7.62474E-14
 -1      2147 4.52236E-04 2.34613E-04-1.03257E-16
 -1      2148 1.38603E-02 1.31031E-03-7.51245E-14
 -1      2149 1.38962E-02 1.29094E-03-7.55017E-14
 -1      2150 4.59055E-04-2.36846E-04-1.64609E-16
 -1      2151 1.35779E-02 1.92624E-03-1.13167E-13
 -1      2152 1.17111E-02 2.60004E-03-6.56776E-14
 -1      2153 1.18794E-02 2.55904E-03-6.66364E-14
 -1      2154 1.26416E-02 1.99383E-03-7.06200E-14
 -1      2155 1.24253E-02 2.16572E-03-6.97659E-14
 -1      2156 1.38995E-02 1.29212E-03-7.62678E-14
 -1      2157 1.30378E-02 1.70448E-03-7.29747E-14
 -1      2158 1.38245E-02 1.32711E-03-7.55218E-14
 -1      2159 6.08008E-04-2.98302E-04-2.66890E-16
 -1      2160 1.31706E-02 1.63688E-03-7.25871E-14
 -1      2161 6.63717E-04-2.92607E-04-3.57678E-16
 -1      2162 6.57028E-04 2.91194E-04-2.61632E-16
 -1      2163 6.01328E-04 2.96690E-04-1.79368E-16
 -1      2164 9.73259E-03 9.69772E-04-5.59887E-14
 -1      2165 1.02608E-02 1.46804E-03-5.87528E-14
 -1      2166 1.07517E-02 2.05763E-03-6.14552E-14
 -1      2167 1.19959E-02 2.50065E-03-6.73339E-14
 -1      2168 1.22484E-02 2.32007E-03-6.88373E-14
 -1      2169 1.23244E-02 2.25477E-03-6.89505E-14
 -1      2170 1.35597E-02 1.43243E-03-7.41386E-14
 -1      2171 1.36619E-02 1.96852E-03-1.13383E-13
 -1      2172 1.37478E-02 1.25774E-03-7.64603E-14
 -1      2173 1.29705E-02 1.01712E-03-7.54019E-14
 -1      2174 1.24414E-02 7.49732E-04-7.39402E-14
 -1      2175 1.19761E-02 4.66206E-04-7.22858E-14
 -1      2176 1.15060E-02 1.75393E-04-7.03027E-14
 -1      2177 1.13724E-02 1.17521E-04-7.00014E-14
 -1      2178 1.16001E-02 2.60349E-04-7.11705E-14
 -1      2179 1.11043E-02-3.19254E-05-6.80514E-14
 -1      2180 1.04499E-02-5.70548E-05-6.36950E-14
 -1      2181 9.72047E-03 2.47019E-04-5.99138E-14
 -1      2182 8.99904E-03 5.29998E-04-5.72465E-14
 -1      2183 8.64226E-03 6.30385E-04-5.58996E-14
 -1      2184 9.03317E-03 7.62331E-04-5.63850E-14
 -1      2185 1.35887E-02 1.90029E-03-1.11682E-13
 -1      2186 1.27476E-02 1.92401E-03-7.08629E-14
 -1      2187 1.07983E-02-1.04482E-04-6.59416E-14
 -1      2188 1.38137E-02 1.29741E-03-7.72938E-14
 -1      2189 1.36845E-02 1.28184E-03-7.73079E-14
 -1      2190 5.47736E-04-5.55782E-05-3.89351E-16
 -1      2191 5.48784E-04-7.22765E-05-3.88510E-16
 -1      2192 5.50217E-04-8.95838E-05-3.86640E-16
 -1      2193 5.52090E-04-1.07556E-04-3.83415E-16
 -1      2194 6.65247E-04-9.57928E-05-5.25188E-16
 -1      2195 5.46309E-04 8.47036E-06-3.83631E-16
 -1      2196 5.46300E-04-7.33484E-06-3.86450E-16
 -1      2197 5.47039E-04 4.04020E-05-3.75852E-16
 -1      2198 5.46552E-04 2.43700E-05-3.80297E-16
 -1      2199 6.61209E-04 1.94573E-05-5.17652E-16
 -1      2200 5.48834E-04 7.29191E-05-3.64360E-16
 -1      2201 5.47787E-04 5.64831E-05-3.70675E-16
 -1      2202 6.62501E-04 5.72216E-05-5.06512E-16
 -1      2203 5.52182E-04 1.08246E-04-3.47555E-16
 -1      2204 5.50282E-04 9.02507E-05-3.56635E-16
 -1      2205 6.65321E-04 9.65703E-05-4.89937E-16
 -1      2206 5.57984E-04 1.47374E-04-3.23580E-16
 -1      2207 5.54711E-04 1.27266E-04-3.36685E-16
 -1      2208 6.70350E-04 1.39183E-04-4.66370E-16
 -1      2209 5.68222E-04 1.92650E-04-2.89780E-16
 -1      2210 5.62411E-04 1.69130E-04-3.08456E-16
 -1      2211 6.78886E-04 1.86533E-04-4.33518E-16
 -1      2212 6.14156E-04 2.52918E-04-2.67147E-16
 -1      2213 6.03358E-04 2.23665E-04-2.94185E-16
 -1      2214 7.20682E-04 2.44565E-04-4.20006E-16
 -1      2215 8.00248E-04 3.16869E-04-4.21497E-16
 -1      2216 1.39145E-02 1.31411E-03-7.70964E-14
 -1      2217 1.38953E-02 1.31117E-03-7.72798E-14
 -1      2218 9.15319E-04-3.46655E-04-6.82288E-16
 -1      2219 1.05944E-03-3.80026E-04-8.95199E-16
 -1      2220 1.28550E-02 1.83059E-03-7.16088E-14
 -1      2221 1.20270E-03-4.08465E-04-1.13881E-15
 -1      2222 1.34553E-03-4.32386E-04-1.41345E-15
 -1      2223 1.11710E-03-3.60880E-04-1.04325E-15
 -1      2224 1.48772E-03-4.52642E-04-1.71857E-15
 -1      2225 1.62951E-03-4.69519E-04-2.05464E-15
 -1      2226 1.40345E-03-4.07735E-04-1.59698E-15
 -1      2227 1.77095E-03-4.83684E-04-2.42100E-15
 -1      2228 1.91214E-03-4.95357E-04-2.81756E-15
 -1      2229 1.68860E-03-4.41044E-04-2.27211E-15
 -1      2230 2.05318E-03-5.05027E-04-3.24396E-15
 -1      2231 2.19412E-03-5.12874E-04-3.70029E-15
 -1      2232 1.97281E-03-4.64152E-04-3.06714E-15
 -1      2233 2.33503E-03-5.19255E-04-4.18552E-15
 -1      2234 2.47594E-03-5.24316E-04-4.70014E-15
 -1      2235 2.25646E-03-4.79699E-04-3.97982E-15
 -1      2236 2.61690E-03-5.28319E-04-5.24342E-15
 -1      2237 2.75792E-03-5.31379E-04-5.81471E-15
 -1      2238 2.53990E-03-4.89723E-04-5.00854E-15
 -1      2239 2.89904E-03-5.33686E-04-6.41379E-15
 -1      2240 3.04024E-03-5.35334E-04-7.04046E-15
 -1      2241 2.82334E-03-4.95773E-04-6.15027E-15
 -1      2242 3.18157E-03-5.36456E-04-7.69332E-15
 -1      2243 3.32300E-03-5.37126E-04-8.37258E-15
 -1      2244 3.10694E-03-4.99016E-04-7.40137E-15
 -1      2245 3.46456E-03-5.37438E-04-9.07744E-15
 -1      2246 3.60622E-03-5.37445E-04-9.80890E-15
 -1      2247 3.39078E-03-5.00318E-04-8.75764E-15
 -1      2248 3.74800E-03-5.37216E-04-1.05653E-14
 -1      2249 3.88989E-03-5.36788E-04-1.13462E-14
 -1      2250 3.67489E-03-5.00310E-04-1.02170E-14
 -1      2251 4.03189E-03-5.36206E-04-1.21521E-14
 -1      2252 4.17399E-03-5.35498E-04-1.29833E-14
 -1      2253 3.95928E-03-4.99438E-04-1.17770E-14
 -1      2254 4.31619E-03-5.34692E-04-1.38399E-14
 -1      2255 4.45848E-03-5.33810E-04-1.47206E-14
 -1      2256 4.24395E-03-4.98013E-04-1.34377E-14
 -1      2257 4.60087E-03-5.32868E-04-1.56260E-14
 -1      2258 4.74334E-03-5.31880E-04-1.65561E-14
 -1      2259 4.52888E-03-4.96242E-04-1.51972E-14
 -1      2260 4.88590E-03-5.30860E-04-1.75091E-14
 -1      2261 5.02853E-03-5.29816E-04-1.84867E-14
 -1      2262 4.81405E-03-4.94262E-04-1.70533E-14
 -1      2263 5.17126E-03-5.28759E-04-1.94893E-14
 -1      2264 5.31405E-03-5.27697E-04-2.05158E-14
 -1      2265 5.09946E-03-4.92168E-04-1.90067E-14
 -1      2266 5.45694E-03-5.26642E-04-2.15650E-14
 -1      2267 5.59990E-03-5.25605E-04-2.26363E-14
 -1      2268 5.38512E-03-4.90030E-04-2.10555E-14
 -1      2269 5.74294E-03-5.24600E-04-2.37314E-14
 -1      2270 5.88607E-03-5.23640E-04-2.48506E-14
 -1      2271 5.67103E-03-4.87926E-04-2.31960E-14
 -1      2272 6.02929E-03-5.22752E-04-2.59937E-14
 -1      2273 6.17260E-03-5.21952E-04-2.71598E-14
 -1      2274 5.95723E-03-4.85957E-04-2.54300E-14
 -1      2275 6.31600E-03-5.21277E-04-2.83491E-14
 -1      2276 6.45950E-03-5.20752E-04-2.95605E-14
 -1      2277 6.24377E-03-4.84274E-04-2.77583E-14
 -1      2278 6.60310E-03-5.20426E-04-3.07951E-14
 -1      2279 6.74679E-03-5.20332E-04-3.20501E-14
 -1      2280 6.53072E-03-4.83095E-04-3.01775E-14
 -1      2281 6.89060E-03-5.20530E-04-3.33260E-14
 -1      2282 7.03449E-03-5.21059E-04-3.46222E-14
 -1      2283 6.81816E-03-4.82718E-04-3.26826E-14
 -1      2284 7.17850E-03-5.21987E-04-3.59377E-14
 -1      2285 7.32256E-03-5.23353E-04-3.72717E-14
 -1      2286 7.10619E-03-4.83523E-04-3.52691E-14
 -1      2287 7.46672E-03-5.25215E-04-3.86231E-14
 -1      2288 7.61088E-03-5.27603E-04-3.99923E-14
 -1      2289 7.39489E-03-4.85936E-04-3.79310E-14
 -1      2290 7.75509E-03-5.30544E-04-4.13780E-14
 -1      2291 7.89921E-03-5.34034E-04-4.27805E-14
 -1      2292 7.68429E-03-4.90357E-04-4.06629E-14
 -1      2293 8.04328E-03-5.38032E-04-4.41989E-14
 -1      2294 8.18711E-03-5.42469E-04-4.56339E-14
 -1      2295 7.97430E-03-4.97010E-04-4.34619E-14
 -1      2296 8.33075E-03-5.47189E-04-4.70826E-14
 -1      2297 8.47392E-03-5.52008E-04-4.85447E-14
 -1      2298 8.26459E-03-5.05695E-04-4.63236E-14
 -1      2299 8.61666E-03-5.56610E-04-5.00220E-14
 -1      2300 8.75867E-03-5.60643E-04-5.15119E-14
 -1      2301 8.55453E-03-5.15437E-04-4.92433E-14
 -1      2302 8.89996E-03-5.63590E-04-5.30142E-14
 -1      2303 9.04025E-03-5.64898E-04-5.45301E-14
 -1      2304 8.84313E-03-5.24057E-04-5.22161E-14
 -1      2305 9.17951E-03-5.63850E-04-5.60600E-14
 -1      2306 9.31757E-03-5.59700E-04-5.76026E-14
 -1      2307 9.12907E-03-5.27772E-04-5.52403E-14
 -1      2308 9.45438E-03-5.51591E-04-5.91606E-14
 -1      2309 9.58999E-03-5.38676E-04-6.07342E-14
 -1      2310 9.41104E-03-5.21044E-04-5.83204E-14
 -1      2311 9.72433E-03-5.20100E-04-6.23229E-14
 -1      2312 9.85774E-03-4.95082E-04-6.39272E-14
 -1      2313 9.68822E-03-4.96964E-04-6.14603E-14
 -1      2314 9.99014E-03-4.62960E-04-6.55475E-14
 -1      2315 1.01221E-02-4.23229E-04-6.71815E-14
 -1      2316 9.96087E-03-4.48375E-04-6.46630E-14
 -1      2317 1.02537E-02-3.75608E-04-6.88309E-14
 -1      2318 1.03855E-02-3.20011E-04-7.04941E-14
 -1      2319 1.02305E-02-3.69584E-04-6.79264E-14
 -1      2320 1.05174E-02-2.56621E-04-7.21684E-14
 -1      2321 1.06503E-02-1.85808E-04-7.38583E-14
 -1      2322 1.04998E-02-2.58039E-04-7.12492E-14
 -1      2323 1.07839E-02-1.08158E-04-7.55608E-14
 -1      2324 1.09187E-02-2.43778E-05-7.72751E-14
 -1      2325 1.07713E-02-1.15165E-04-7.46243E-14
 -1      2326 1.10546E-02 6.47073E-05-7.90048E-14
 -1      2327 1.11918E-02 1.58259E-04-8.07476E-14
 -1      2328 1.10469E-02 5.41080E-05-7.80515E-14
 -1      2329 1.13302E-02 2.55411E-04-8.24990E-14
 -1      2330 1.14696E-02 3.55381E-04-8.42645E-14
 -1      2331 1.13273E-02 2.42879E-04-8.15310E-14
 -1      2332 1.16101E-02 4.57422E-04-8.60446E-14
 -1      2333 1.17513E-02 5.60924E-04-8.78350E-14
 -1      2334 1.16118E-02 4.44072E-04-8.50579E-14
 -1      2335 1.18933E-02 6.65340E-04-8.96367E-14
 -1      2336 1.20358E-02 7.70267E-04-9.14500E-14
 -1      2337 1.18993E-02 6.51771E-04-8.86336E-14
 -1      2338 1.21788E-02 8.75370E-04-9.32751E-14
 -1      2339 1.23219E-02 9.80431E-04-9.51132E-14
 -1      2340 1.21883E-02 8.61814E-04-9.22558E-14
 -1      2341 1.24653E-02 1.08529E-03-9.69563E-14
 -1      2342 1.26087E-02 1.18987E-03-9.88057E-14
 -1      2343 1.24777E-02 1.07177E-03-9.59165E-14
 -1      2344 1.27523E-02 1.29414E-03-1.00667E-13
 -1      2345 1.28957E-02 1.39810E-03-1.02533E-13
 -1      2346 1.27668E-02 1.28056E-03-9.96139E-14
 -1      2347 1.30391E-02 1.50178E-03-1.04401E-13
 -1      2348 1.31824E-02 1.60525E-03-1.06271E-13
 -1      2349 1.30551E-02 1.48804E-03-1.03337E-13
 -1      2350 1.33141E-02 1.70123E-03-1.08037E-13
 -1      2351 1.34572E-02 1.80445E-03-1.09910E-13
 -1      2352 1.35947E-02 1.87873E-03-1.10502E-13
 -1      2353 1.33311E-02 1.68724E-03-1.06968E-13
 -1      2354 1.45197E-02 1.80898E-03-8.73961E-14
 -1      2355 1.43787E-02 1.71627E-03-8.56630E-14
 -1      2356 1.33136E-03 4.30318E-04-1.15412E-15
 -1      2357 1.18849E-03 4.05987E-04-9.17330E-16
 -1      2358 1.89811E-03 4.94455E-04-2.38943E-15
 -1      2359 1.75689E-03 4.82552E-04-2.03769E-15
 -1      2360 2.18010E-03 5.12344E-04-3.17888E-15
 -1      2361 2.03916E-03 5.04326E-04-2.77011E-15
 -1      2362 1.95868E-03 4.63368E-04-2.64537E-15
 -1      2363 2.44783E-03 5.23590E-04-4.03327E-15
 -1      2364 2.31397E-03 5.18578E-04-3.59360E-15
 -1      2365 2.23527E-03 4.78933E-04-3.44772E-15
 -1      2366 2.72978E-03 5.31042E-04-5.04176E-15
 -1      2367 2.58878E-03 5.27805E-04-4.52349E-15
 -1      2368 2.51163E-03 4.89122E-04-4.35636E-15
 -1      2369 3.01206E-03 5.35274E-04-6.15938E-15
 -1      2370 2.87088E-03 5.33501E-04-5.58661E-15
 -1      2371 2.79507E-03 4.95525E-04-5.39771E-15
 -1      2372 3.29478E-03 5.37257E-04-7.38866E-15
 -1      2373 3.15337E-03 5.36502E-04-6.76000E-15
 -1      2374 3.07866E-03 4.99017E-04-6.54866E-15
 -1      2375 3.57795E-03 5.37700E-04-8.72972E-15
 -1      2376 3.43631E-03 5.37639E-04-8.04547E-15
 -1      2377 3.36248E-03 5.00490E-04-7.81043E-15
 -1      2378 3.86159E-03 5.37106E-04-1.01813E-14
 -1      2379 3.71972E-03 5.37510E-04-9.44167E-15
 -1      2380 3.64657E-03 5.00587E-04-9.18285E-15
 -1      2381 4.14566E-03 5.35819E-04-1.17415E-14
 -1      2382 4.00358E-03 5.36534E-04-1.09481E-14
 -1      2383 3.93096E-03 4.99763E-04-1.06651E-14
 -1      2384 4.43014E-03 5.34056E-04-1.34047E-14
 -1      2385 4.28786E-03 5.34987E-04-1.25605E-14
 -1      2386 4.21563E-03 4.98324E-04-1.22537E-14
 -1      2387 4.71501E-03 5.31942E-04-1.51677E-14
 -1      2388 4.57253E-03 5.33038E-04-1.42741E-14
 -1      2389 4.50057E-03 4.96461E-04-1.39447E-14
 -1      2390 5.00025E-03 5.29520E-04-1.70259E-14
 -1      2391 4.85758E-03 5.30767E-04-1.60854E-14
 -1      2392 4.78578E-03 4.94273E-04-1.57335E-14
 -1      2393 5.27157E-03 5.26923E-04-1.88801E-14
 -1      2394 5.13586E-03 5.28258E-04-1.79422E-14
 -1      2395 5.06410E-03 4.91858E-04-1.75699E-14
 -1      2396 5.55755E-03 5.23812E-04-2.09227E-14
 -1      2397 5.41451E-03 5.25418E-04-1.98897E-14
 -1      2398 5.34267E-03 4.89142E-04-1.94959E-14
 -1      2399 5.84396E-03 5.20208E-04-2.30540E-14
 -1      2400 5.70070E-03 5.22076E-04-2.19773E-14
 -1      2401 5.62863E-03 4.85975E-04-2.15619E-14
 -1      2402 6.13087E-03 5.15962E-04-2.52724E-14
 -1      2403 5.98734E-03 5.18171E-04-2.41530E-14
 -1      2404 5.91484E-03 4.82317E-04-2.37170E-14
 -1      2405 6.41833E-03 5.10896E-04-2.75752E-14
 -1      2406 6.27451E-03 5.13538E-04-2.64133E-14
 -1      2407 6.20128E-03 4.78036E-04-2.59571E-14
 -1      2408 6.70641E-03 5.04820E-04-2.99598E-14
 -1      2409 6.56226E-03 5.07991E-04-2.87572E-14
 -1      2410 6.48788E-03 4.72987E-04-2.82810E-14
 -1      2411 6.99512E-03 4.97578E-04-3.24235E-14
 -1      2412 6.85064E-03 5.01349E-04-3.11822E-14
 -1      2413 6.77448E-03 4.67047E-04-3.06862E-14
 -1      2414 7.28435E-03 4.89156E-04-3.49621E-14
 -1      2415 7.13961E-03 4.93513E-04-3.36842E-14
 -1      2416 7.06072E-03 4.60179E-04-3.31702E-14
 -1      2417 7.57371E-03 4.79901E-04-3.75714E-14
 -1      2418 7.42893E-03 4.84617E-04-3.62581E-14
 -1      2419 7.34591E-03 4.52576E-04-3.57281E-14
 -1      2420 7.86236E-03 4.70975E-04-4.02436E-14
 -1      2421 7.71801E-03 4.75349E-04-3.88999E-14
 -1      2422 7.62878E-03 4.44920E-04-3.83547E-14
 -1      2423 8.13446E-03 4.65385E-04-4.28374E-14
 -1      2424 7.99850E-03 4.67733E-04-4.15335E-14
 -1      2425 7.90030E-03 4.38998E-04-4.09758E-14
 -1      2426 8.41646E-03 4.68239E-04-4.56199E-14
 -1      2427 8.27575E-03 4.65420E-04-4.42218E-14
 -1      2428 8.16440E-03 4.37766E-04-4.36519E-14
 -1      2429 8.69201E-03 4.91543E-04-4.84540E-14
 -1      2430 8.55445E-03 4.76591E-04-4.70304E-14
 -1      2431 8.42315E-03 4.47536E-04-4.64499E-14
 -1      2432 8.96356E-03 5.56879E-04-5.13367E-14
 -1      2433 8.82700E-03 5.17275E-04-4.98905E-14
 -1      2434 8.66556E-03 4.79393E-04-4.92985E-14
 -1      2435 9.21631E-03 6.83040E-04-5.39704E-14
 -1      2436 9.08610E-03 6.08244E-04-5.26479E-14
 -1      2437 8.88047E-03 5.47520E-04-5.20487E-14
 -1      2438 1.08150E-02-1.09348E-04-6.62979E-14
 -1      2439 1.06864E-02-1.14014E-04-6.52733E-14
 -1      2440 1.42400E-02 1.63105E-03-8.39356E-14
 -1      2441 1.41007E-02 1.55531E-03-8.22153E-14
 -1      2442 1.42999E-02 1.64818E-03-8.49898E-14
 -1      2443 1.36655E-02 1.44665E-03-7.72488E-14
 -1      2444 1.34969E-02 1.47058E-03-7.55710E-14
 -1      2445 1.48041E-02 2.00606E-03-9.08901E-14
 -1      2446 1.46610E-02 1.90578E-03-8.91391E-14
 -1      2447 1.45552E-02 1.83027E-03-8.84675E-14
 -1      2448 1.50916E-02 2.21062E-03-9.44085E-14
 -1      2449 1.49473E-02 2.10774E-03-9.26457E-14
 -1      2450 1.48235E-02 2.02709E-03-9.19710E-14
 -1      2451 1.53801E-02 2.41650E-03-9.79537E-14
 -1      2452 1.52356E-02 2.31358E-03-9.61784E-14
 -1      2453 1.51003E-02 2.23000E-03-9.54974E-14
 -1      2454 1.56685E-02 2.62036E-03-1.01538E-13
 -1      2455 1.55242E-02 2.51880E-03-9.97420E-14
 -1      2456 1.53820E-02 2.43400E-03-9.90586E-14
 -1      2457 1.60916E-02 2.91399E-03-1.06924E-13
 -1      2458 1.60151E-02 2.85962E-03-1.05803E-13
 -1      2459 1.60024E-02 2.86913E-03-1.06876E-13
 -1      2460 1.54694E-02 2.62423E-03-1.07115E-13
 -1      2461 1.55587E-02 2.65966E-03-1.06892E-13
 -1      2462 1.52816E-02 2.55219E-03-1.07558E-13
 -1      2463 1.53766E-02 2.58833E-03-1.07338E-13
 -1      2464 1.53023E-02 2.52266E-03-1.05650E-13
 -1      2465 1.56478E-02 2.69593E-03-1.06665E-13
 -1      2466 1.57355E-02 2.73279E-03-1.06435E-13
 -1      2467 1.54837E-02 2.59389E-03-1.05205E-13
 -1      2468 1.50858E-02 2.47878E-03-1.07991E-13
 -1      2469 1.51847E-02 2.51578E-03-1.07777E-13
 -1      2470 1.51120E-02 2.45090E-03-1.06084E-13
 -1      2471 1.48835E-02 2.40291E-03-1.08413E-13
 -1      2472 1.49853E-02 2.44122E-03-1.08202E-13
 -1      2473 1.49134E-02 2.37684E-03-1.06505E-13
 -1      2474 1.46771E-02 2.32420E-03-1.08818E-13
 -1      2475 1.47807E-02 2.36392E-03-1.08617E-13
 -1      2476 1.47087E-02 2.29961E-03-1.06912E-13
 -1      2477 1.44692E-02 2.24285E-03-1.09207E-13
 -1      2478 1.45732E-02 2.28382E-03-1.09015E-13
 -1      2479 1.45007E-02 2.21914E-03-1.07309E-13
 -1      2480 1.42652E-02 2.16092E-03-1.09566E-13
 -1      2481 1.43671E-02 2.20207E-03-1.09390E-13
 -1      2482 1.42938E-02 2.13669E-03-1.07683E-13
 -1      2483 1.40592E-02 2.07632E-03-1.09920E-13
 -1      2484 1.41620E-02 2.11871E-03-1.09746E-13
 -1      2485 1.40881E-02 2.05247E-03-1.08040E-13
 -1      2486 1.38549E-02 1.99118E-03-1.10253E-13
 -1      2487 1.39568E-02 2.03376E-03-1.10088E-13
 -1      2488 1.38825E-02 1.96665E-03-1.08386E-13
 -1      2489 1.36959E-02 1.92121E-03-1.10345E-13
 -1      2490 5.88561E-04-2.38159E-04-3.28459E-16
 -1      2491 7.81415E-04-3.05041E-04-5.20864E-16
 -1      2492 8.40823E-04-2.93873E-04-6.33364E-16
 -1      2493 5.79028E-04-2.10389E-04-3.46931E-16
 -1      2494 1.30818E-02 1.11935E-03-7.66794E-14
 -1      2495 1.28130E-02 1.00600E-03-7.60577E-14
 -1      2496 9.97440E-03 1.30529E-03-5.85231E-14
 -1      2497 1.39693E-02 1.49653E-03-8.05910E-14
 -1      2498 1.38341E-02 1.45500E-03-7.89767E-14
 -1      2499 1.40657E-02 1.49882E-03-8.16327E-14
 -1      2500 1.06683E-03 3.82188E-04-7.38423E-16
 -1      2501 9.22723E-04 3.49038E-04-5.55152E-16
 -1      2502 8.80638E-04 3.10670E-04-5.56589E-16
 -1      2503 1.12447E-03 3.62847E-04-8.85129E-16
 -1      2504 1.61543E-03 4.68115E-04-1.71453E-15
 -1      2505 1.47360E-03 4.50930E-04-1.41942E-15
 -1      2506 1.67444E-03 4.39801E-04-1.93405E-15
 -1      2507 5.46526E-04-2.32262E-05-3.88307E-16
 -1      2508 5.46994E-04-3.92423E-05-3.89256E-16
 -1      2509 6.62445E-04-5.61610E-05-5.27329E-16
 -1      2510 6.61187E-04-1.81070E-05-5.24659E-16
 -1      2511 1.37872E-02 1.34464E-03-7.60877E-14
 -1      2512 1.38714E-02 1.32725E-03-7.66555E-14
 -1      2513 1.35252E-02 1.43887E-03-7.49302E-14
 -1      2514 1.36848E-02 1.38004E-03-7.57542E-14
 -1      2515 9.41960E-03 8.86552E-04-5.65246E-14
 -1      2516 9.63206E-03 1.00423E-03-5.70166E-14
 -1      2517 8.95227E-03 6.82380E-04-5.54607E-14
 -1      2518 9.17339E-03 7.69641E-04-5.59989E-14
 -1      2519 8.69916E-03 6.09486E-04-5.48573E-14
 -1      2520 8.78301E-03 6.24206E-04-5.49860E-14
 -1      2521 8.64031E-03 6.03894E-04-5.52854E-14
 -1      2522 8.63579E-03 6.00494E-04-5.49703E-14
 -1      2523 8.76725E-03 5.85936E-04-5.59716E-14
 -1      2524 8.69147E-03 5.98000E-04-5.56816E-14
 -1      2525 9.05605E-03 5.02179E-04-5.66773E-14
 -1      2526 8.88587E-03 5.53771E-04-5.62293E-14
 -1      2527 9.42894E-03 3.67200E-04-5.81486E-14
 -1      2528 9.27916E-03 4.24372E-04-5.75070E-14
 -1      2529 9.81851E-03 1.93980E-04-5.99420E-14
 -1      2530 9.62045E-03 2.86336E-04-5.90150E-14
 -1      2531 1.01546E-02 3.41956E-05-6.16878E-14
 -1      2532 1.00117E-02 1.01343E-04-6.08732E-14
 -1      2533 1.05192E-02-8.98192E-05-6.40771E-14
 -1      2534 1.03405E-02-3.47171E-05-6.28612E-14
 -1      2535 1.02327E-02-1.62120E-05-6.20616E-14
 -1      2536 1.05584E-02-1.08698E-04-6.44272E-14
 -1      2537 1.11444E-02 3.91252E-06-6.88523E-14
 -1      2538 1.09973E-02-6.24450E-05-6.77643E-14
 -1      2539 1.20458E-02 5.60519E-04-7.32564E-14
 -1      2540 1.18420E-02 4.26521E-04-7.24369E-14
 -1      2541 1.24988E-02 8.41774E-04-7.50317E-14
 -1      2542 1.22691E-02 7.04143E-04-7.41890E-14
 -1      2543 1.35064E-02 1.24958E-03-7.73257E-14
 -1      2544 1.33384E-02 1.20598E-03-7.71005E-14
 -1      2545 9.87286E-03 1.16239E-03-5.76664E-14
 -1      2546 1.39163E-02 1.33683E-03-7.76687E-14
 -1      2547 6.70193E-04-1.38247E-04-5.16839E-16
 -1      2548 5.54557E-04-1.26456E-04-3.78536E-16
 -1      2549 5.57762E-04-1.46445E-04-3.71773E-16
 -1      2550 1.31975E-02 1.19094E-03-7.77594E-14
 -1      2551 1.38696E-02 1.32984E-03-7.81294E-14
 -1      2552 1.38924E-03 4.05888E-04-1.33663E-15
 -1      2553 1.08771E-02-9.27628E-05-6.70865E-14
 -1      2554 9.28340E-03 7.37928E-04-5.48267E-14
 -1      2555 9.02585E-03 6.39448E-04-5.42179E-14
 -1      2556 1.38232E-02 1.40863E-03-7.82736E-14
 -1      2557 1.58715E-02 2.76067E-03-1.03986E-13
 -1      2558 1.57247E-02 2.67589E-03-1.03300E-13
 -1      2559 1.59137E-02 2.82489E-03-1.06826E-13
 -1      2560 1.36214E-02 1.85322E-03-1.08646E-13
 -1      2561 8.64575E-03 5.79179E-04-5.42454E-14
 -1      2562 5.71778E-04-1.85515E-04-3.61053E-16
 -1      2563 1.33112E-02 1.53948E-03-7.39630E-14
 -1      2564 8.87627E-03 6.25000E-04-5.46031E-14
 -1      2565 9.76373E-03 1.04021E-03-5.67665E-14
 -1      2566 9.52005E-03 8.44192E-04-5.53460E-14
 -1      2567 1.36143E-02 1.29736E-03-7.81637E-14
 -1      2568 1.26501E-02 9.53846E-04-7.63075E-14
 -1      2569 1.16883E-02 3.47829E-04-7.21332E-14
 -1      2570 1.15574E-02 2.75851E-04-7.18283E-14
 -1      2571 1.17761E-02 4.33315E-04-7.31013E-14
 -1      2572 1.12373E-02 6.25439E-05-6.97101E-14
 -1      2573 1.11278E-02 2.10202E-05-6.94189E-14
 -1      2574 1.13266E-02 1.31073E-04-7.05745E-14
 -1      2575 9.88742E-03 1.37788E-04-5.99647E-14
 -1      2576 9.52336E-03 3.07165E-04-5.81740E-14
 -1      2577 9.12830E-03 4.62137E-04-5.64842E-14
 -1      2578 8.99120E-03 4.79769E-04-5.54675E-14
 -1      2579 9.18789E-03 4.15816E-04-5.62902E-14
 -1      2580 8.81119E-03 5.52511E-04-5.54045E-14
 -1      2581 8.64762E-03 5.80734E-04-5.47527E-14
 -1      2582 9.29065E-03 7.82041E-04-5.55977E-14
 -1      2583 1.37714E-02 1.37312E-03-7.68857E-14
 -1      2584 1.57487E-02 2.72116E-03-1.05371E-13
 -1      2585 1.31302E-02 1.64249E-03-7.32224E-14
 -1      2586 1.21336E-02 6.53232E-04-7.43415E-14
 -1      2587 7.79987E-04 7.66763E-05-6.57054E-16
 -1      2588 7.78750E-04 5.48672E-05-6.65456E-16
 -1      2589 7.77925E-04 3.30024E-05-6.72531E-16
 -1      2590 7.77522E-04 1.13805E-05-6.78250E-16
 -1      2591 8.96293E-04 4.90408E-05-8.47616E-16
 -1      2592 7.91192E-04 1.72181E-04-6.02681E-16
 -1      2593 7.87232E-04 1.46854E-04-6.19784E-16
 -1      2594 8.02907E-04 2.27156E-04-5.59597E-16
 -1      2595 7.96369E-04 1.98882E-04-5.83084E-16
 -1      2596 9.14408E-04 2.06777E-04-7.56380E-16
 -1      2597 8.58811E-04 2.84497E-04-5.64747E-16
 -1      2598 8.21591E-04 2.50266E-04-5.57483E-16
 -1      2599 9.39736E-04 2.60659E-04-7.29776E-16
 -1      2600 9.80332E-04 3.11502E-04-7.19815E-16
 -1      2601 1.73523E-03 4.10735E-04-2.15942E-15
 -1      2602 1.59228E-03 3.97037E-04-1.82830E-15
 -1      2603 7.88912E-04-2.52784E-04-5.99876E-16
 -1      2604 9.20111E-04-2.88615E-04-7.74703E-16
 -1      2605 1.06292E-03-3.17795E-04-9.99756E-16
 -1      2606 1.20621E-03-3.43026E-04-1.25509E-15
 -1      2607 1.01138E-03-2.76765E-04-9.52499E-16
 -1      2608 1.34941E-03-3.64664E-04-1.54035E-15
 -1      2609 1.49265E-03-3.82967E-04-1.85602E-15
 -1      2610 1.29707E-03-3.22681E-04-1.47992E-15
 -1      2611 1.63570E-03-3.98463E-04-2.20155E-15
 -1      2612 1.77866E-03-4.11366E-04-2.57700E-15
 -1      2613 1.58376E-03-3.56392E-04-2.12700E-15
 -1      2614 1.92145E-03-4.22142E-04-2.98145E-15
 -1      2615 2.06415E-03-4.30960E-04-3.41511E-15
 -1      2616 1.87053E-03-3.80300E-04-2.89165E-15
 -1      2617 2.20674E-03-4.38199E-04-3.87854E-15
 -1      2618 2.34925E-03-4.43993E-04-4.37001E-15
 -1      2619 2.15710E-03-3.96674E-04-3.77286E-15
 -1      2620 2.49171E-03-4.48634E-04-4.88989E-15
 -1      2621 2.63413E-03-4.52230E-04-5.43859E-15
 -1      2622 2.44341E-03-4.07417E-04-4.76831E-15
 -1      2623 2.77653E-03-4.55001E-04-6.01471E-15
 -1      2624 2.91892E-03-4.57031E-04-6.61832E-15
 -1      2625 2.72949E-03-4.14052E-04-5.87551E-15
 -1      2626 3.06132E-03-4.58482E-04-7.24815E-15
 -1      2627 3.20372E-03-4.59419E-04-7.90489E-15
 -1      2628 3.01541E-03-4.17755E-04-7.09179E-15
 -1      2629 3.34614E-03-4.59960E-04-8.58761E-15
 -1      2630 3.48858E-03-4.60152E-04-9.29585E-15
 -1      2631 3.30121E-03-4.19413E-04-8.41407E-15
 -1      2632 3.63106E-03-4.60081E-04-1.00300E-14
 -1      2633 3.77355E-03-4.59779E-04-1.07891E-14
 -1      2634 3.58693E-03-4.19680E-04-9.83928E-15
 -1      2635 3.91608E-03-4.59306E-04-1.15736E-14
 -1      2636 4.05864E-03-4.58683E-04-1.23826E-14
 -1      2637 3.87262E-03-4.19024E-04-1.13660E-14
 -1      2638 4.20123E-03-4.57953E-04-1.32165E-14
 -1      2639 4.34385E-03-4.57129E-04-1.40757E-14
 -1      2640 4.15828E-03-4.17771E-04-1.29929E-14
 -1      2641 4.48651E-03-4.56238E-04-1.49594E-14
 -1      2642 4.62920E-03-4.55289E-04-1.58675E-14
 -1      2643 4.44394E-03-4.16140E-04-1.47180E-14
 -1      2644 4.77192E-03-4.54301E-04-1.67995E-14
 -1      2645 4.91467E-03-4.53277E-04-1.77552E-14
 -1      2646 4.72962E-03-4.14273E-04-1.65414E-14
 -1      2647 5.05746E-03-4.52232E-04-1.87358E-14
 -1      2648 5.20029E-03-4.51169E-04-1.97400E-14
 -1      2649 5.01532E-03-4.12258E-04-1.84621E-14
 -1      2650 5.34316E-03-4.50098E-04-2.07673E-14
 -1      2651 5.48607E-03-4.49026E-04-2.18176E-14
 -1      2652 5.30108E-03-4.10155E-04-2.04765E-14
 -1      2653 5.62903E-03-4.47964E-04-2.28916E-14
 -1      2654 5.77205E-03-4.46919E-04-2.39877E-14
 -1      2655 5.58694E-03-4.08014E-04-2.25838E-14
 -1      2656 5.91514E-03-4.45911E-04-2.51083E-14
 -1      2657 6.05830E-03-4.44951E-04-2.62517E-14
 -1      2658 5.87295E-03-4.05898E-04-2.47840E-14
 -1      2659 6.20155E-03-4.44064E-04-2.74179E-14
 -1      2660 6.34490E-03-4.43271E-04-2.86080E-14
 -1      2661 6.15923E-03-4.03901E-04-2.70760E-14
 -1      2662 6.48838E-03-4.42608E-04-2.98189E-14
 -1      2663 6.63199E-03-4.42104E-04-3.10514E-14
 -1      2664 6.44591E-03-4.02169E-04-2.94587E-14
 -1      2665 6.77578E-03-4.41806E-04-3.23066E-14
 -1      2666 6.91975E-03-4.41757E-04-3.35809E-14
 -1      2667 6.73323E-03-4.00922E-04-3.19283E-14
 -1      2668 7.06396E-03-4.42010E-04-3.48753E-14
 -1      2669 7.20840E-03-4.42619E-04-3.61889E-14
 -1      2670 7.02146E-03-4.00470E-04-3.44808E-14
 -1      2671 7.35315E-03-4.43639E-04-3.75197E-14
 -1      2672 7.49816E-03-4.45132E-04-3.88693E-14
 -1      2673 7.31098E-03-4.01212E-04-3.71089E-14
 -1      2674 7.64356E-03-4.47139E-04-4.02377E-14
 -1      2675 7.78924E-03-4.49712E-04-4.16215E-14
 -1      2676 7.60219E-03-4.03615E-04-3.98089E-14
 -1      2677 7.93533E-03-4.52858E-04-4.30213E-14
 -1      2678 8.08168E-03-4.56588E-04-4.44365E-14
 -1      2679 7.89547E-03-4.08139E-04-4.25788E-14
 -1      2680 8.22839E-03-4.60841E-04-4.58679E-14
 -1      2681 8.37524E-03-4.65533E-04-4.73132E-14
 -1      2682 8.19101E-03-4.15066E-04-4.54113E-14
 -1      2683 8.52231E-03-4.70491E-04-4.87710E-14
 -1      2684 8.66928E-03-4.75460E-04-5.02435E-14
 -1      2685 8.48861E-03-4.24203E-04-4.83003E-14
 -1      2686 8.81615E-03-4.80104E-04-5.17294E-14
 -1      2687 8.96256E-03-4.83914E-04-5.32276E-14
 -1      2688 8.78749E-03-4.34396E-04-5.12424E-14
 -1      2689 9.10844E-03-4.86347E-04-5.47384E-14
 -1      2690 9.25346E-03-4.86591E-04-5.62639E-14
 -1      2691 9.08608E-03-4.42892E-04-5.42370E-14
 -1      2692 9.39746E-03-4.83889E-04-5.78040E-14
 -1      2693 9.54030E-03-4.77174E-04-5.93576E-14
 -1      2694 9.38226E-03-4.44723E-04-5.72855E-14
 -1      2695 9.68180E-03-4.65549E-04-6.09266E-14
 -1      2696 9.82214E-03-4.47896E-04-6.25126E-14
 -1      2697 9.67396E-03-4.32531E-04-6.03941E-14
 -1      2698 9.96117E-03-4.23347E-04-6.41147E-14
 -1      2699 1.00995E-02-3.91059E-04-6.57312E-14
 -1      2700 9.96020E-03-3.97441E-04-6.35655E-14
 -1      2701 1.02369E-02-3.50441E-04-6.73644E-14
 -1      2702 1.03743E-02-3.01215E-04-6.90131E-14
 -1      2703 1.02419E-02-3.31195E-04-6.68015E-14
 -1      2704 1.05117E-02-2.43256E-04-7.06742E-14
 -1      2705 1.06499E-02-1.76992E-04-7.23486E-14
 -1      2706 1.05221E-02-2.28877E-04-7.00993E-14
 -1      2707 1.07887E-02-1.02799E-04-7.40362E-14
 -1      2708 1.09289E-02-2.16409E-05-7.57382E-14
 -1      2709 1.08043E-02-9.08682E-05-7.34518E-14
 -1      2710 1.10701E-02 6.57360E-05-7.74545E-14
 -1      2711 1.12127E-02 1.58168E-04-7.91839E-14
 -1      2712 1.10912E-02 7.73154E-05-7.68566E-14
 -1      2713 1.13565E-02 2.54773E-04-8.09228E-14
 -1      2714 1.15013E-02 3.54502E-04-8.26721E-14
 -1      2715 1.13836E-02 2.67181E-04-8.03122E-14
 -1      2716 1.16470E-02 4.56542E-04-8.44355E-14
 -1      2717 1.17932E-02 5.60140E-04-8.62127E-14
 -1      2718 1.16802E-02 4.70015E-04-8.38149E-14
 -1      2719 1.19398E-02 6.64669E-04-8.80018E-14
 -1      2720 1.20866E-02 7.69697E-04-8.97992E-14
 -1      2721 1.19788E-02 6.78842E-04-8.73679E-14
 -1      2722 1.22334E-02 8.74810E-04-9.16090E-14
 -1      2723 1.23800E-02 9.79835E-04-9.34293E-14
 -1      2724 1.22774E-02 8.89122E-04-9.09629E-14
 -1      2725 1.25265E-02 1.08454E-03-9.52598E-14
 -1      2726 1.26725E-02 1.18893E-03-9.70965E-14
 -1      2727 1.25744E-02 1.09850E-03-9.46001E-14
 -1      2728 1.28182E-02 1.29290E-03-9.89417E-14
 -1      2729 1.29635E-02 1.39653E-03-1.00796E-13
 -1      2730 1.28691E-02 1.30619E-03-9.82711E-14
 -1      2731 1.31084E-02 1.49982E-03-1.02655E-13
 -1      2732 1.32529E-02 1.60289E-03-1.04518E-13
 -1      2733 1.31614E-02 1.51230E-03-1.01969E-13
 -1      2734 1.34891E-02 1.75789E-03-1.06884E-13
 -1      2735 1.09011E-02-7.58662E-05-6.77305E-14
 -1      2736 1.07460E-02-1.18247E-04-6.62629E-14
 -1      2737 2.02070E-03 4.31604E-04-2.90624E-15
 -1      2738 1.87802E-03 4.22193E-04-2.51920E-15
 -1      2739 1.79746E-03 3.80997E-04-2.39083E-15
 -1      2740 2.86101E-03 4.59580E-04-5.75771E-15
 -1      2741 2.71867E-03 4.57258E-04-5.20734E-15
 -1      2742 3.14573E-03 4.62411E-04-6.94186E-15
 -1      2743 3.00337E-03 4.61273E-04-6.33646E-15
 -1      2744 2.92760E-03 4.23291E-04-6.12265E-15
 -1      2745 3.43052E-03 4.63441E-04-8.23563E-15
 -1      2746 3.28812E-03 4.63116E-04-7.57445E-15
 -1      2747 3.21329E-03 4.25525E-04-7.33842E-15
 -1      2748 3.71543E-03 4.63253E-04-9.63902E-15
 -1      2749 3.57296E-03 4.63474E-04-8.92362E-15
 -1      2750 3.49893E-03 4.26172E-04-8.66344E-15
 -1      2751 4.00047E-03 4.62252E-04-1.11511E-14
 -1      2752 3.85794E-03 4.62837E-04-1.03814E-14
 -1      2753 3.78455E-03 4.25749E-04-1.00982E-14
 -1      2754 4.28567E-03 4.60709E-04-1.27676E-14
 -1      2755 4.14306E-03 4.61537E-04-1.19465E-14
 -1      2756 4.07017E-03 4.24616E-04-1.16391E-14
 -1      2757 4.57101E-03 4.58786E-04-1.44860E-14
 -1      2758 4.42832E-03 4.59788E-04-1.36148E-14
 -1      2759 4.35581E-03 4.23008E-04-1.32846E-14
 -1      2760 4.85649E-03 4.56567E-04-1.63009E-14
 -1      2761 4.71373E-03 4.57710E-04-1.53811E-14
 -1      2762 4.64147E-03 4.21065E-04-1.50297E-14
 -1      2763 5.12782E-03 4.54202E-04-1.81139E-14
 -1      2764 4.99214E-03 4.55415E-04-1.71967E-14
 -1      2765 4.92002E-03 4.18912E-04-1.68235E-14
 -1      2766 5.41356E-03 4.51415E-04-2.01131E-14
 -1      2767 5.27067E-03 4.52848E-04-1.91022E-14
 -1      2768 5.19857E-03 4.16516E-04-1.87077E-14
 -1      2769 5.69938E-03 4.48261E-04-2.22026E-14
 -1      2770 5.55646E-03 4.49887E-04-2.11468E-14
 -1      2771 5.48425E-03 4.13782E-04-2.07317E-14
 -1      2772 5.98524E-03 4.44649E-04-2.43800E-14
 -1      2773 5.84231E-03 4.46517E-04-2.32805E-14
 -1      2774 5.76983E-03 4.10718E-04-2.28447E-14
 -1      2775 6.27102E-03 4.40482E-04-2.66420E-14
 -1      2776 6.12814E-03 4.42641E-04-2.55004E-14
 -1      2777 6.05518E-03 4.07266E-04-2.50439E-14
 -1      2778 6.55647E-03 4.35678E-04-2.89865E-14
 -1      2779 6.41378E-03 4.38165E-04-2.78044E-14
 -1      2780 6.34009E-03 4.03382E-04-2.73274E-14
 -1      2781 6.84119E-03 4.30221E-04-3.14137E-14
 -1      2782 6.69893E-03 4.33036E-04-3.01908E-14
 -1      2783 6.62413E-03 3.99078E-04-2.96944E-14
 -1      2784 7.12443E-03 4.24257E-04-3.39179E-14
 -1      2785 6.98302E-03 4.27305E-04-3.26560E-14
 -1      2786 6.90663E-03 3.94489E-04-3.21414E-14
 -1      2787 7.40491E-03 4.18260E-04-3.64937E-14
 -1      2788 7.26505E-03 4.21260E-04-3.51968E-14
 -1      2789 7.18643E-03 3.89997E-04-3.46660E-14
 -1      2790 7.68048E-03 4.13332E-04-3.91394E-14
 -1      2791 7.54338E-03 4.15653E-04-3.78090E-14
 -1      2792 7.46169E-03 3.86432E-04-3.72619E-14
 -1      2793 7.93465E-03 4.11671E-04-4.17072E-14
 -1      2794 7.80859E-03 4.12126E-04-4.04161E-14
 -1      2795 7.72288E-03 3.85375E-04-3.98566E-14
 -1      2796 8.18936E-03 4.16875E-04-4.44679E-14
 -1      2797 8.06379E-03 4.13362E-04-4.30817E-14
 -1      2798 7.97278E-03 3.89307E-04-4.25102E-14
 -1      2799 8.42416E-03 4.35639E-04-4.72818E-14
 -1      2800 8.30937E-03 4.24572E-04-4.58688E-14
 -1      2801 8.21106E-03 4.02853E-04-4.52869E-14
 -1      2802 8.63101E-03 4.77634E-04-5.01436E-14
 -1      2803 8.53096E-03 4.53797E-04-4.87060E-14
 -1      2804 8.42228E-03 4.32245E-04-4.81146E-14
 -1      2805 1.38919E-02 1.38987E-03-7.86152E-14
 -1      2806 8.84520E-03 5.88177E-04-5.37489E-14
 -1      2807 1.45777E-02 1.85597E-03-8.95375E-14
 -1      2808 1.44552E-02 1.76229E-03-8.77889E-14
 -1      2809 1.53815E-02 2.45236E-03-1.00164E-13
 -1      2810 1.52423E-02 2.35151E-03-9.83729E-14
 -1      2811 1.55498E-02 2.58287E-03-1.02915E-13
 -1      2812 1.51362E-02 2.42205E-03-1.04186E-13
 -1      2813 1.52292E-02 2.45711E-03-1.03970E-13
 -1      2814 1.53196E-02 2.49194E-03-1.03747E-13
 -1      2815 1.54078E-02 2.52716E-03-1.03523E-13
 -1      2816 1.51564E-02 2.39106E-03-1.02292E-13
 -1      2817 1.49429E-02 2.35050E-03-1.04610E-13
 -1      2818 1.50407E-02 2.38666E-03-1.04398E-13
 -1      2819 1.49702E-02 2.32244E-03-1.02722E-13
 -1      2820 1.45339E-02 2.19679E-03-1.05415E-13
 -1      2821 1.46380E-02 2.23671E-03-1.05218E-13
 -1      2822 1.43243E-02 2.11435E-03-1.05800E-13
 -1      2823 1.44292E-02 2.15597E-03-1.05607E-13
 -1      2824 1.43580E-02 2.09397E-03-1.03917E-13
 -1      2825 1.41187E-02 2.03070E-03-1.06162E-13
 -1      2826 1.42213E-02 2.07277E-03-1.05984E-13
 -1      2827 1.41488E-02 2.01002E-03-1.04288E-13
 -1      2828 1.39113E-02 1.94410E-03-1.06516E-13
 -1      2829 1.40147E-02 1.98750E-03-1.06342E-13
 -1      2830 1.39411E-02 1.92358E-03-1.04646E-13
 -1      2831 1.37065E-02 1.85707E-03-1.06856E-13
 -1      2832 1.38086E-02 1.90056E-03-1.06687E-13
 -1      2833 1.37343E-02 1.83527E-03-1.04992E-13
 -1      2834 8.59709E-03 5.42840E-04-5.32193E-14
 -1      2835 8.64816E-03 5.40425E-04-5.31054E-14
 -1      2836 1.37242E-02 1.35236E-03-7.94284E-14
 -1      2837 1.35698E-02 1.33035E-03-7.94495E-14
 -1      2838 1.48352E-02 2.05054E-03-9.30511E-14
 -1      2839 1.47044E-02 1.95189E-03-9.12904E-14
 -1      2840 1.45886E-02 1.88242E-03-9.06080E-14
 -1      2841 1.41280E-02 1.51717E-03-8.26199E-14
 -1      2842 1.40348E-02 1.45248E-03-8.09882E-14
 -1      2843 1.33264E-02 1.26110E-03-7.89195E-14
 -1      2844 1.30938E-02 1.18361E-03-7.84953E-14
 -1      2845 7.84122E-04 1.22674E-04-6.34312E-16
 -1      2846 7.81764E-04 9.93054E-05-6.46618E-16
 -1      2847 8.99347E-04 9.87031E-05-8.26623E-16
 -1      2848 9.05024E-04 1.50714E-04-7.96889E-16
 -1      2849 1.47411E-02 2.27562E-03-1.05018E-13
 -1      2850 1.48429E-02 2.31357E-03-1.04815E-13
 -1      2851 1.47732E-02 2.25084E-03-1.03132E-13
 -1      2852 1.45679E-02 2.17476E-03-1.03531E-13
 -1      2853 1.51047E-02 2.25076E-03-9.65929E-14
 -1      2854 1.49686E-02 2.15009E-03-9.48194E-14
 -1      2855 1.48397E-02 2.07421E-03-9.41337E-14
 -1      2856 1.51047E-02 2.27164E-03-9.76854E-14
 -1      2857 2.57630E-03 4.54142E-04-4.68404E-15
 -1      2858 2.43393E-03 4.50134E-04-4.18774E-15
 -1      2859 2.64180E-03 4.18748E-04-5.01564E-15
 -1      2860 1.43388E-02 1.67372E-03-8.60493E-14
 -1      2861 1.42279E-02 1.58954E-03-8.43180E-14
 -1      2862 1.43587E-02 1.70182E-03-8.71082E-14
 -1      2863 2.29506E-03 4.45152E-04-3.73097E-15
 -1      2864 2.15970E-03 4.39172E-04-3.31081E-15
 -1      2865 2.08035E-03 3.99084E-04-3.16203E-15
 -1      2866 2.35940E-03 4.11043E-04-4.02984E-15
 -1      2867 7.81674E-04-9.83327E-05-6.86544E-16
 -1      2868 7.84004E-04-1.21662E-04-6.83576E-16
 -1      2869 6.52896E-04-1.88638E-04-4.62372E-16
 -1      2870 8.65695E-03 5.53194E-04-5.40888E-14
 -1      2871 8.60846E-03 5.50179E-04-5.36954E-14
 -1      2872 8.82781E-03 5.13366E-04-5.45983E-14
 -1      2873 8.73000E-03 5.38349E-04-5.43437E-14
 -1      2874 8.65897E-03 5.14970E-04-5.32879E-14
 -1      2875 9.58296E-03 2.47324E-04-5.80297E-14
 -1      2876 9.41422E-03 3.17500E-04-5.71695E-14
 -1      2877 1.44922E-03 3.80625E-04-1.52530E-15
 -1      2878 1.30598E-03 3.61273E-04-1.25068E-15
 -1      2879 1.51077E-03 3.54541E-04-1.72045E-15
 -1      2880 1.27711E-02 1.04312E-03-7.75835E-14
 -1      2881 1.24842E-02 8.93679E-04-7.65515E-14
 -1      2882 9.91815E-03 8.56005E-05-5.98669E-14
 -1      2883 9.75568E-03 1.68381E-04-5.89439E-14
 -1      2884 9.62530E-03 1.84313E-04-5.79306E-14
 -1      2885 1.39254E-02 1.36913E-03-7.93980E-14
 -1      2886 1.38443E-02 1.36619E-03-7.94161E-14
 -1      2887 1.38211E-02 1.39985E-03-8.07066E-14
 -1      2888 1.21954E-02 7.27555E-04-7.55128E-14
 -1      2889 1.19959E-02 5.96301E-04-7.45731E-14
 -1      2890 1.39886E-02 1.41432E-03-8.00270E-14
 -1      2891 1.39386E-02 1.36182E-03-7.86266E-14
 -1      2892 1.39555E-02 1.36535E-03-7.90742E-14
 -1      2893 1.40315E-02 1.43368E-03-8.10040E-14
 -1      2894 1.54059E-02 2.50132E-03-1.02216E-13
 -1      2895 7.87074E-04-1.45784E-04-6.78521E-16
 -1      2896 7.90956E-04-1.70924E-04-6.70959E-16
 -1      2897 9.04834E-04-1.49438E-04-8.62835E-16
 -1      2898 8.95313E-04 4.57146E-07-8.61575E-16
 -1      2899 7.77510E-04-1.01992E-05-6.82600E-16
 -1      2900 7.77891E-04-3.18134E-05-6.85826E-16
 -1      2901 7.70009E-04-2.02692E-04-6.17602E-16
 -1      2902 1.35437E-02 1.76958E-03-1.06191E-13
 -1      2903 1.09852E-02-3.91540E-05-6.85829E-14
 -1      2904 1.08549E-02-8.30768E-05-6.77482E-14
 -1      2905 1.10669E-02 7.03888E-06-6.94394E-14
 -1      2906 7.78686E-04-5.35687E-05-6.87465E-16
 -1      2907 7.79921E-04-7.57311E-05-6.87655E-16
 -1      2908 8.99246E-04-9.75265E-05-8.69842E-16
 -1      2909 8.96249E-04-4.80117E-05-8.69137E-16
 -1      2910 8.66021E-03 5.02537E-04-5.14160E-14
 -1      2911 8.55220E-03 4.78563E-04-5.08117E-14
 -1      2912 8.72996E-03 5.38396E-04-5.27266E-14
 -1      2913 1.52446E-02 2.39848E-03-1.00770E-13
 -1      2914 1.23404E-02 8.29287E-04-7.67846E-14
 -1      2915 1.41640E-02 1.54248E-03-8.36667E-14
 -1      2916 1.06468E-02-1.30611E-04-6.57086E-14
 -1      2917 1.06093E-02-1.28185E-04-6.50764E-14
 -1      2918 1.34689E-02 1.70317E-03-1.04497E-13
 -1      2919 1.34810E-02 1.32955E-03-8.01921E-14
 -1      2920 1.18597E-02 5.14036E-04-7.42639E-14
 -1      2921 1.14190E-02 2.05283E-04-7.15327E-14
 -1      2922 1.04725E-02-1.10069E-04-6.38823E-14
 -1      2923 9.25707E-03 3.56887E-04-5.61462E-14
 -1      2924 9.10829E-03 3.81428E-04-5.51288E-14
 -1      2925 9.30687E-03 2.94416E-04-5.59991E-14
 -1      2926 1.30832E-02 1.20999E-03-7.99085E-14
 -1      2927 1.29326E-02 1.13423E-03-7.87431E-14
 -1      2928 1.27837E-02 1.07815E-03-7.89905E-14
 -1      2929 1.20401E-03 3.49325E-04-1.06545E-15
 -1      2930 1.08225E-03 3.28197E-04-8.71468E-16
 -1      2931 1.06118E-03 3.01629E-04-8.78204E-16
 -1      2932 1.26525E-03 3.27479E-04-1.22908E-15
 -1      2933 1.00598E-02 1.56070E-05-6.07609E-14
 -1      2934 9.91969E-03 4.24048E-05-5.97317E-14
 -1      2935 8.87627E-03 4.76951E-04-5.44055E-14
 -1      2936 1.39687E-02 1.40251E-03-8.03654E-14
 -1      2937 1.03977E-03 2.42193E-04-9.26695E-16
 -1      2938 1.03321E-03 2.10537E-04-9.53854E-16
 -1      2939 1.02209E-02-4.44053E-05-6.19264E-14
 -1      2940 8.56812E-03 5.19527E-04-5.25609E-14
 -1      2941 1.37627E-02 1.81586E-03-1.03131E-13
 -1      2942 1.38671E-02 1.86071E-03-1.02957E-13
 -1      2943 3.56771E-03 3.88686E-04-9.09570E-15
 -1      2944 3.42456E-03 3.88669E-04-8.40315E-15
 -1      2945 1.21721E-03-2.80867E-04-1.35539E-15
 -1      2946 1.36023E-03-2.99259E-04-1.65047E-15
 -1      2947 1.50354E-03-3.15053E-04-1.97539E-15
 -1      2948 1.64712E-03-3.28434E-04-2.32963E-15
 -1      2949 1.42446E-03-2.74658E-04-1.82627E-15
 -1      2950 1.79077E-03-3.39732E-04-2.71284E-15
 -1      2951 1.93450E-03-3.49113E-04-3.12477E-15
 -1      2952 1.71163E-03-2.99624E-04-2.53611E-15
 -1      2953 2.07821E-03-3.56891E-04-3.56528E-15
 -1      2954 2.22191E-03-3.63206E-04-4.03531E-15
 -1      2955 1.99956E-03-3.17269E-04-3.36097E-15
 -1      2956 2.36556E-03-3.68326E-04-4.53283E-15
 -1      2957 2.50915E-03-3.72363E-04-5.05806E-15
 -1      2958 2.28770E-03-3.29219E-04-4.29973E-15
 -1      2959 2.65269E-03-3.75531E-04-5.61126E-15
 -1      2960 2.79617E-03-3.77917E-04-6.19200E-15
 -1      2961 2.57575E-03-3.36895E-04-5.34990E-15
 -1      2962 2.93960E-03-3.79687E-04-6.79975E-15
 -1      2963 3.08296E-03-3.80906E-04-7.43343E-15
 -1      2964 2.86356E-03-3.41455E-04-6.50958E-15
 -1      2965 3.22628E-03-3.81698E-04-8.09395E-15
 -1      2966 3.36954E-03-3.82113E-04-8.78009E-15
 -1      2967 3.15109E-03-3.43803E-04-7.77605E-15
 -1      2968 3.51276E-03-3.82240E-04-9.49180E-15
 -1      2969 3.65593E-03-3.82113E-04-1.02286E-14
 -1      2970 3.43833E-03-3.44620E-04-9.14659E-15
 -1      2971 3.79907E-03-3.81798E-04-1.09908E-14
 -1      2972 3.94217E-03-3.81318E-04-1.17780E-14
 -1      2973 3.72528E-03-3.44406E-04-1.06179E-14
 -1      2974 4.08524E-03-3.80716E-04-1.25908E-14
 -1      2975 4.22827E-03-3.80008E-04-1.34275E-14
 -1      2976 4.01198E-03-3.43514E-04-1.21905E-14
 -1      2977 4.37128E-03-3.79224E-04-1.42887E-14
 -1      2978 4.51426E-03-3.78372E-04-1.51753E-14
 -1      2979 4.29844E-03-3.42184E-04-1.38622E-14
 -1      2980 4.65723E-03-3.77471E-04-1.60855E-14
 -1      2981 4.80017E-03-3.76526E-04-1.70206E-14
 -1      2982 4.58470E-03-3.40571E-04-1.56317E-14
 -1      2983 4.94310E-03-3.75548E-04-1.79795E-14
 -1      2984 5.08602E-03-3.74541E-04-1.89619E-14
 -1      2985 4.87078E-03-3.38770E-04-1.74993E-14
 -1      2986 5.22894E-03-3.73511E-04-1.99691E-14
 -1      2987 5.37186E-03-3.72461E-04-2.09980E-14
 -1      2988 5.15673E-03-3.36831E-04-1.94632E-14
 -1      2989 5.51479E-03-3.71398E-04-2.20496E-14
 -1      2990 5.65773E-03-3.70325E-04-2.31249E-14
 -1      2991 5.44260E-03-3.34782E-04-2.15191E-14
 -1      2992 5.80071E-03-3.69249E-04-2.42231E-14
 -1      2993 5.94374E-03-3.68179E-04-2.53450E-14
 -1      2994 5.72846E-03-3.32644E-04-2.36661E-14
 -1      2995 6.08683E-03-3.67125E-04-2.64896E-14
 -1      2996 6.23000E-03-3.66102E-04-2.76559E-14
 -1      2997 6.01442E-03-3.30444E-04-2.59053E-14
 -1      2998 6.37330E-03-3.65125E-04-2.88447E-14
 -1      2999 6.51674E-03-3.64222E-04-3.00558E-14
 -1      3000 6.30066E-03-3.28239E-04-2.82340E-14
 -1      3001 6.66038E-03-3.63414E-04-3.12893E-14
 -1      3002 6.80424E-03-3.62744E-04-3.25438E-14
 -1      3003 6.58744E-03-3.26129E-04-3.06534E-14
 -1      3004 6.94842E-03-3.62237E-04-3.38173E-14
 -1      3005 7.09292E-03-3.61961E-04-3.51103E-14
 -1      3006 6.87515E-03-3.24292E-04-3.31567E-14
 -1      3007 7.23787E-03-3.61943E-04-3.64210E-14
 -1      3008 7.38329E-03-3.62278E-04-3.77502E-14
 -1      3009 7.16432E-03-3.23004E-04-3.57370E-14
 -1      3010 7.52931E-03-3.62988E-04-3.90979E-14
 -1      3011 7.67594E-03-3.64193E-04-4.04637E-14
 -1      3012 7.45564E-03-3.22675E-04-3.83904E-14
 -1      3013 7.82333E-03-3.65903E-04-4.18452E-14
 -1      3014 7.97143E-03-3.68245E-04-4.32429E-14
 -1      3015 7.74990E-03-3.23856E-04-4.11139E-14
 -1      3016 8.12042E-03-3.71196E-04-4.46563E-14
 -1      3017 8.27013E-03-3.74849E-04-4.60848E-14
 -1      3018 8.04788E-03-3.27208E-04-4.39047E-14
 -1      3019 8.42072E-03-3.79114E-04-4.75270E-14
 -1      3020 8.57191E-03-3.83970E-04-4.89807E-14
 -1      3021 8.35011E-03-3.33354E-04-4.67558E-14
 -1      3022 8.72376E-03-3.89214E-04-5.04475E-14
 -1      3023 8.87584E-03-3.94568E-04-5.19297E-14
 -1      3024 8.65652E-03-3.42522E-04-4.96585E-14
 -1      3025 9.02809E-03-3.99642E-04-5.34251E-14
 -1      3026 9.17999E-03-4.03765E-04-5.49311E-14
 -1      3027 8.96599E-03-3.53857E-04-5.26151E-14
 -1      3028 9.33134E-03-4.06286E-04-5.64517E-14
 -1      3029 9.48168E-03-4.06043E-04-5.79880E-14
 -1      3030 9.27610E-03-3.64343E-04-5.56226E-14
 -1      3031 9.63071E-03-4.02124E-04-5.95397E-14
 -1      3032 9.77830E-03-3.92967E-04-6.11054E-14
 -1      3033 9.58345E-03-3.67700E-04-5.86874E-14
 -1      3034 9.92421E-03-3.77541E-04-6.26873E-14
 -1      3035 1.00688E-02-3.54344E-04-6.42876E-14
 -1      3036 9.88492E-03-3.53957E-04-6.18151E-14
 -1      3037 1.02120E-02-3.22549E-04-6.59028E-14
 -1      3038 1.03547E-02-2.81163E-04-6.75359E-14
 -1      3039 1.01795E-02-3.11343E-04-6.50073E-14
 -1      3040 1.04969E-02-2.29877E-04-6.91829E-14
 -1      3041 1.06397E-02-1.68832E-04-7.08432E-14
 -1      3042 1.04695E-02-2.29876E-04-6.82671E-14
 -1      3043 1.07832E-02-9.83509E-05-7.25172E-14
 -1      3044 1.09282E-02-1.95361E-05-7.42048E-14
 -1      3045 1.07600E-02-1.06009E-04-7.15851E-14
 -1      3046 1.10745E-02 6.67548E-05-7.59055E-14
 -1      3047 1.12226E-02 1.58943E-04-7.76215E-14
 -1      3048 1.10555E-02 5.56477E-05-7.49577E-14
 -1      3049 1.13720E-02 2.56009E-04-7.93492E-14
 -1      3050 1.15227E-02 3.56449E-04-8.10847E-14
 -1      3051 1.13581E-02 2.44620E-04-7.83834E-14
 -1      3052 1.16743E-02 4.59368E-04-8.28333E-14
 -1      3053 1.18264E-02 5.63706E-04-8.45949E-14
 -1      3054 1.16662E-02 4.49152E-04-8.18544E-14
 -1      3055 1.19786E-02 6.68827E-04-8.63685E-14
 -1      3056 1.21307E-02 7.74166E-04-8.81527E-14
 -1      3057 1.19767E-02 6.59814E-04-8.53722E-14
 -1      3058 1.22824E-02 8.79344E-04-8.99479E-14
 -1      3059 1.24334E-02 9.84175E-04-9.17535E-14
 -1      3060 1.22860E-02 8.70878E-04-8.89346E-14
 -1      3061 1.25837E-02 1.08847E-03-9.35686E-14
 -1      3062 1.27331E-02 1.19228E-03-9.53926E-14
 -1      3063 1.25921E-02 1.07980E-03-9.25406E-14
 -1      3064 1.28817E-02 1.29553E-03-9.72244E-14
 -1      3065 1.30294E-02 1.39836E-03-9.90612E-14
 -1      3066 1.28937E-02 1.28609E-03-9.61783E-14
 -1      3067 1.31768E-02 1.49995E-03-1.00849E-13
 -1      3068 1.33229E-02 1.60211E-03-1.02701E-13
 -1      3069 1.34859E-02 1.69071E-03-1.03364E-13
 -1      3070 1.31914E-02 1.48950E-03-9.97890E-14
 -1      3071 1.51056E-02 2.32513E-03-1.00219E-13
 -1      3072 1.51049E-02 2.29748E-03-9.89276E-14
 -1      3073 1.86105E-03 3.50538E-04-2.62756E-15
 -1      3074 1.71739E-03 3.40106E-04-2.26091E-15
 -1      3075 3.28135E-03 3.88361E-04-7.73883E-15
 -1      3076 3.13812E-03 3.87722E-04-7.10161E-15
 -1      3077 3.34991E-03 3.50981E-04-8.14310E-15
 -1      3078 2.99483E-03 3.86654E-04-6.49112E-15
 -1      3079 2.85149E-03 3.85099E-04-5.90782E-15
 -1      3080 3.06267E-03 3.49736E-04-6.86388E-15
 -1      3081 3.85393E-03 3.88084E-04-1.05600E-14
 -1      3082 3.71084E-03 3.88482E-04-9.81421E-15
 -1      3083 3.63687E-03 3.51040E-04-9.53035E-15
 -1      3084 4.14004E-03 3.86868E-04-1.21308E-14
 -1      3085 3.99700E-03 3.87540E-04-1.13330E-14
 -1      3086 3.92360E-03 3.50306E-04-1.10251E-14
 -1      3087 4.42605E-03 3.85241E-04-1.38043E-14
 -1      3088 4.28306E-03 3.86098E-04-1.29547E-14
 -1      3089 4.21010E-03 3.49050E-04-1.26251E-14
 -1      3090 4.71197E-03 3.83321E-04-1.55754E-14
 -1      3091 4.56902E-03 3.84313E-04-1.46775E-14
 -1      3092 4.49640E-03 3.47443E-04-1.43253E-14
 -1      3093 4.98350E-03 3.81277E-04-1.73475E-14
 -1      3094 4.84775E-03 3.82324E-04-1.64503E-14
 -1      3095 4.77536E-03 3.45636E-04-1.60772E-14
 -1      3096 5.26921E-03 3.78906E-04-1.93033E-14
 -1      3097 5.12637E-03 3.80120E-04-1.83137E-14
 -1      3098 5.05411E-03 3.43638E-04-1.79195E-14
 -1      3099 5.55474E-03 3.76296E-04-2.13515E-14
 -1      3100 5.41200E-03 3.77633E-04-2.03166E-14
 -1      3101 5.33975E-03 3.41407E-04-1.99009E-14
 -1      3102 5.83997E-03 3.73421E-04-2.34881E-14
 -1      3103 5.69740E-03 3.74894E-04-2.24094E-14
 -1      3104 5.62506E-03 3.38995E-04-2.19735E-14
 -1      3105 6.12471E-03 3.70269E-04-2.57099E-14
 -1      3106 5.98241E-03 3.71882E-04-2.45878E-14
 -1      3107 5.90986E-03 3.36413E-04-2.41328E-14
 -1      3108 6.40860E-03 3.66872E-04-2.80150E-14
 -1      3109 6.26678E-03 3.68602E-04-2.68520E-14
 -1      3110 6.19387E-03 3.33708E-04-2.63768E-14
 -1      3111 6.69107E-03 3.63364E-04-3.04038E-14
 -1      3112 6.55004E-03 3.65130E-04-2.91989E-14
 -1      3113 6.47664E-03 3.31010E-04-2.87044E-14
 -1      3114 6.97118E-03 3.60069E-04-3.28727E-14
 -1      3115 6.83147E-03 3.61683E-04-3.16292E-14
 -1      3116 6.75744E-03 3.28601E-04-3.11155E-14
 -1      3117 7.24744E-03 3.57649E-04-3.54157E-14
 -1      3118 7.10988E-03 3.58736E-04-3.41350E-14
 -1      3119 7.03512E-03 3.27027E-04-3.36039E-14
 -1      3120 7.51752E-03 3.57322E-04-3.80319E-14
 -1      3121 7.38340E-03 3.57205E-04-3.67152E-14
 -1      3122 7.30792E-03 3.27261E-04-3.61688E-14
 -1      3123 7.76515E-03 3.60872E-04-4.05762E-14
 -1      3124 7.64263E-03 3.58617E-04-3.92978E-14
 -1      3125 7.56667E-03 3.30796E-04-3.87366E-14
 -1      3126 8.01140E-03 3.71820E-04-4.33157E-14
 -1      3127 7.89047E-03 3.65422E-04-4.19382E-14
 -1      3128 7.81464E-03 3.40005E-04-4.13654E-14
 -1      3129 8.23553E-03 3.94921E-04-4.61068E-14
 -1      3130 8.12679E-03 3.81966E-04-4.47040E-14
 -1      3131 8.05241E-03 3.59040E-04-4.41207E-14
 -1      3132 8.42727E-03 4.35940E-04-4.89474E-14
 -1      3133 8.33632E-03 4.13679E-04-4.75214E-14
 -1      3134 8.26576E-03 3.92693E-04-4.69264E-14
 -1      3135 1.50173E-02 2.29231E-03-1.00438E-13
 -1      3136 2.70810E-03 3.82926E-04-5.35172E-15
 -1      3137 2.56466E-03 3.80056E-04-4.82313E-15
 -1      3138 2.77516E-03 3.46748E-04-5.69258E-15
 -1      3139 1.06673E-02-1.30193E-04-6.62812E-14
 -1      3140 1.05453E-02-1.44129E-04-6.50942E-14
 -1      3141 8.52497E-03 4.86197E-04-5.13818E-14
 -1      3142 8.48091E-03 4.58613E-04-5.01147E-14
 -1      3143 8.42417E-03 4.37713E-04-4.95102E-14
 -1      3144 8.54352E-03 4.93429E-04-5.18537E-14
 -1      3145 1.24827E-02 9.26391E-04-7.81512E-14
 -1      3146 1.22222E-02 7.74031E-04-7.71036E-14
 -1      3147 1.39705E-02 1.90451E-03-1.02783E-13
 -1      3148 1.40745E-02 1.94775E-03-1.02606E-13
 -1      3149 1.37911E-02 1.79826E-03-1.01281E-13
 -1      3150 1.41808E-02 1.99097E-03-1.02422E-13
 -1      3151 1.42872E-02 2.03317E-03-1.02236E-13
 -1      3152 1.40022E-02 1.88748E-03-1.00930E-13
 -1      3153 1.35723E-02 1.73077E-03-1.03335E-13
 -1      3154 1.36750E-02 1.77580E-03-1.03168E-13
 -1      3155 1.35996E-02 1.71255E-03-1.01485E-13
 -1      3156 1.34252E-02 1.63096E-03-1.01547E-13
 -1      3157 1.45889E-02 1.90935E-03-9.16782E-14
 -1      3158 1.44719E-02 1.81836E-03-8.99191E-14
 -1      3159 1.40687E-02 1.47671E-03-8.23033E-14
 -1      3160 1.40170E-02 1.43717E-03-8.13328E-14
 -1      3161 1.39771E-02 1.44406E-03-8.16620E-14
 -1      3162 8.87912E-04-2.12166E-04-7.96550E-16
 -1      3163 8.92452E-03 4.21554E-04-5.40044E-14
 -1      3164 8.77526E-03 4.49922E-04-5.31422E-14
 -1      3165 1.57380E-03 3.27600E-04-1.92214E-15
 -1      3166 1.43033E-03 3.12842E-04-1.61112E-15
 -1      3167 1.63801E-03 2.99722E-04-2.13024E-15
 -1      3168 1.43615E-02 1.73178E-03-8.81678E-14
 -1      3169 1.42587E-02 1.64823E-03-8.64241E-14
 -1      3170 1.43518E-02 1.75957E-03-8.92273E-14
 -1      3171 1.01632E-03 6.74881E-05-1.04253E-15
 -1      3172 1.01517E-03 4.05544E-05-1.05280E-15
 -1      3173 1.36029E-02 1.38882E-03-8.15891E-14
 -1      3174 1.33802E-02 1.32571E-03-8.10579E-14
 -1      3175 1.15357E-02 3.04602E-04-7.28449E-14
 -1      3176 1.13300E-02 1.67245E-04-7.15819E-14
 -1      3177 1.48041E-02 2.22396E-03-1.01254E-13
 -1      3178 1.49007E-02 2.25827E-03-1.01047E-13
 -1      3179 8.63477E-03 4.77076E-04-5.23576E-14
 -1      3180 8.57816E-03 4.88371E-04-5.21063E-14
 -1      3181 8.50616E-03 4.60421E-04-5.09310E-14
 -1      3182 1.39024E-02 1.43675E-03-8.16899E-14
 -1      3183 1.37932E-02 1.42541E-03-8.17053E-14
 -1      3184 9.89478E-03-2.01192E-06-5.94846E-14
 -1      3185 9.77146E-03 5.93184E-05-5.85995E-14
 -1      3186 9.63204E-03 1.24730E-04-5.76877E-14
 -1      3187 9.48387E-03 1.91095E-04-5.67813E-14
 -1      3188 9.62011E-03 6.90643E-05-5.74402E-14
 -1      3189 1.41434E-02 1.54551E-03-8.40022E-14
 -1      3190 1.19364E-02 5.93374E-04-7.57954E-14
 -1      3191 1.17340E-02 4.47475E-04-7.43156E-14
 -1      3192 1.16312E-02 3.89986E-04-7.43631E-14
 -1      3193 1.01460E-03 1.38234E-05-1.06108E-15
 -1      3194 1.01459E-03-1.28151E-05-1.06755E-15
 -1      3195 1.13524E-03 2.94694E-05-1.28043E-15
 -1      3196 1.04131E-03 2.76082E-04-8.82120E-16
 -1      3197 1.47111E-02 2.00244E-03-9.34432E-14
 -1      3198 1.45813E-02 1.93467E-03-9.27494E-14
 -1      3199 1.48378E-02 2.09800E-03-9.52156E-14
 -1      3200 1.11807E-02 8.16976E-05-7.07339E-14
 -1      3201 1.10455E-02 1.23681E-05-6.98869E-14
 -1      3202 1.12936E-02 1.64422E-04-7.20379E-14
 -1      3203 1.04276E-02-1.57403E-04-6.43229E-14
 -1      3204 1.04002E-02-1.41402E-04-6.37613E-14
 -1      3205 1.49718E-02 2.19965E-03-9.71427E-14
 -1      3206 1.16013E-03 2.79060E-04-1.09874E-15
 -1      3207 2.00112E-03 3.59033E-04-3.01172E-15
 -1      3208 1.92219E-03 3.19170E-04-2.86030E-15
 -1      3209 2.14118E-03 3.66007E-04-3.42215E-15
 -1      3210 1.41328E-02 1.57518E-03-8.50462E-14
 -1      3211 1.26493E-02 1.02375E-03-7.93160E-14
 -1      3212 1.25324E-02 9.68305E-04-7.96373E-14
 -1      3213 1.28101E-02 1.11053E-03-8.04841E-14
 -1      3214 1.47046E-02 2.18870E-03-1.01457E-13
 -1      3215 1.46375E-02 2.12686E-03-9.97909E-14
 -1      3216 1.46026E-02 2.15194E-03-1.01655E-13
 -1      3217 1.37193E-02 1.43626E-03-8.25826E-14
 -1      3218 1.36438E-02 1.44119E-03-8.34584E-14
 -1      3219 1.38251E-02 1.47964E-03-8.35730E-14
 -1      3220 1.07466E-02-1.11836E-04-6.71255E-14
 -1      3221 1.06427E-02-1.36239E-04-6.65018E-14
 -1      3222 1.08231E-02-8.54877E-05-6.79738E-14
 -1      3223 8.66029E-03 4.35159E-04-5.19606E-14
 -1      3224 1.02360E-03-1.49551E-04-1.06984E-15
 -1      3225 1.02768E-03-1.78768E-04-1.06297E-15
 -1      3226 2.49099E-03 3.41352E-04-4.64182E-15
 -1      3227 2.42475E-03 3.76420E-04-4.33337E-15
 -1      3228 2.28478E-03 3.71862E-04-3.86994E-15
 -1      3229 1.48569E-02 2.19453E-03-9.89886E-14
 -1      3230 1.42173E-02 1.97355E-03-1.00565E-13
 -1      3231 1.43934E-02 2.07416E-03-1.02046E-13
 -1      3232 1.44987E-02 2.11381E-03-1.01853E-13
 -1      3233 1.00308E-02-6.21778E-05-6.05649E-14
 -1      3234 9.88135E-03-5.00606E-05-5.94214E-14
 -1      3235 1.02794E-03 1.80235E-04-9.77476E-16
 -1      3236 1.02381E-03 1.50963E-04-9.97981E-16
 -1      3237 1.15262E-03 2.10826E-04-1.17542E-15
 -1      3238 1.02886E-03-2.35986E-04-1.02480E-15
 -1      3239 1.39706E-02 1.47462E-03-8.26643E-14
 -1      3240 9.33452E-03 2.29024E-04-5.57575E-14
 -1      3241 9.18820E-03 2.58386E-04-5.47404E-14
 -1      3242 9.34269E-03 1.64845E-04-5.55133E-14
 -1      3243 1.32458E-02 1.29080E-03-8.13122E-14
 -1      3244 1.31138E-02 1.24854E-03-8.15627E-14
 -1      3245 1.33956E-02 1.36065E-03-8.27180E-14
 -1      3246 8.97487E-03 3.68826E-04-5.38581E-14
 -1      3247 1.26219E-03 2.89687E-04-1.28585E-15
 -1      3248 1.02052E-03 1.22467E-04-1.01529E-15
 -1      3249 1.01809E-03 9.47560E-05-1.03014E-15
 -1      3250 1.13785E-03 8.78280E-05-1.25632E-15
 -1      3251 1.14340E-03 1.47895E-04-1.22214E-15
 -1      3252 1.32635E-03 2.66869E-04-1.45527E-15
 -1      3253 1.09378E-03-2.18052E-04-1.16205E-15
 -1      3254 1.20872E-02 6.97699E-04-7.71544E-14
 -1      3255 1.01799E-03-9.34829E-05-1.07512E-15
 -1      3256 1.02039E-03-1.21173E-04-1.07371E-15
 -1      3257 1.14319E-03-1.46405E-04-1.29830E-15
 -1      3258 1.01824E-02-9.90543E-05-6.18042E-14
 -1      3259 1.01478E-02-1.30953E-04-6.17421E-14
 -1      3260 1.02904E-02-9.42476E-05-6.25597E-14
 -1      3261 3.99354E-03 3.12429E-04-1.14935E-14
 -1      3262 3.85002E-03 3.12906E-04-1.07178E-14
 -1      3263 1.04554E-02-1.70003E-04-6.49748E-14
 -1      3264 1.03204E-02-1.74215E-04-6.36402E-14
 -1      3265 1.48342E-02 2.12558E-03-9.64440E-14
 -1      3266 1.63335E-03-2.60322E-04-2.36170E-15
 -1      3267 1.77728E-03-2.69956E-04-2.74611E-15
 -1      3268 1.92141E-03-2.78050E-04-3.15878E-15
 -1      3269 2.06571E-03-2.84746E-04-3.60001E-15
 -1      3270 1.84390E-03-2.39410E-04-2.95967E-15
 -1      3271 2.21007E-03-2.90256E-04-4.06927E-15
 -1      3272 2.35447E-03-2.94693E-04-4.56629E-15
 -1      3273 2.13280E-03-2.51572E-04-3.84192E-15
 -1      3274 2.49884E-03-2.98245E-04-5.09130E-15
 -1      3275 2.64318E-03-3.01002E-04-5.64319E-15
 -1      3276 2.42210E-03-2.59678E-04-4.83534E-15
 -1      3277 2.78746E-03-3.03118E-04-6.22203E-15
 -1      3278 2.93166E-03-3.04662E-04-6.82826E-15
 -1      3279 2.71137E-03-2.64741E-04-5.93776E-15
 -1      3280 3.07577E-03-3.05754E-04-7.46038E-15
 -1      3281 3.21980E-03-3.06446E-04-8.11860E-15
 -1      3282 3.00040E-03-2.67596E-04-7.14729E-15
 -1      3283 3.36374E-03-3.06830E-04-8.80296E-15
 -1      3284 3.50758E-03-3.06939E-04-9.51230E-15
 -1      3285 3.28904E-03-2.68895E-04-8.46185E-15
 -1      3286 3.65133E-03-3.06844E-04-1.02469E-14
 -1      3287 3.79499E-03-3.06566E-04-1.10069E-14
 -1      3288 3.57725E-03-2.69125E-04-9.87865E-15
 -1      3289 3.93856E-03-3.06154E-04-1.17920E-14
 -1      3290 4.08205E-03-3.05623E-04-1.26018E-14
 -1      3291 3.86503E-03-2.68640E-04-1.13962E-14
 -1      3292 4.22546E-03-3.05006E-04-1.34370E-14
 -1      3293 4.36879E-03-3.04309E-04-1.42965E-14
 -1      3294 4.15238E-03-2.67685E-04-1.30137E-14
 -1      3295 4.51206E-03-3.03557E-04-1.51805E-14
 -1      3296 4.65525E-03-3.02751E-04-1.60888E-14
 -1      3297 4.43933E-03-2.66420E-04-1.47312E-14
 -1      3298 4.79838E-03-3.01904E-04-1.70218E-14
 -1      3299 4.94146E-03-3.01016E-04-1.79786E-14
 -1      3300 4.72592E-03-2.64940E-04-1.65461E-14
 -1      3301 5.08448E-03-3.00096E-04-1.89591E-14
 -1      3302 5.22746E-03-2.99138E-04-1.99636E-14
 -1      3303 5.01219E-03-2.63291E-04-1.84581E-14
 -1      3304 5.37040E-03-2.98150E-04-2.09893E-14
 -1      3305 5.51331E-03-2.97125E-04-2.20382E-14
 -1      3306 5.29819E-03-2.61484E-04-2.04625E-14
 -1      3307 5.65621E-03-2.96069E-04-2.31124E-14
 -1      3308 5.79911E-03-2.94977E-04-2.42074E-14
 -1      3309 5.58399E-03-2.59507E-04-2.25590E-14
 -1      3310 5.94203E-03-2.93852E-04-2.53245E-14
 -1      3311 6.08499E-03-2.92694E-04-2.64650E-14
 -1      3312 5.86969E-03-2.57332E-04-2.47475E-14
 -1      3313 6.22803E-03-2.91508E-04-2.76282E-14
 -1      3314 6.37117E-03-2.90303E-04-2.88127E-14
 -1      3315 6.15544E-03-2.54931E-04-2.70236E-14
 -1      3316 6.51446E-03-2.89081E-04-3.00184E-14
 -1      3317 6.65796E-03-2.87868E-04-3.12480E-14
 -1      3318 6.44151E-03-2.52285E-04-2.93893E-14
 -1      3319 6.80174E-03-2.86668E-04-3.24978E-14
 -1      3320 6.94586E-03-2.85529E-04-3.37667E-14
 -1      3321 6.72827E-03-2.49415E-04-3.18409E-14
 -1      3322 7.09042E-03-2.84458E-04-3.50542E-14
 -1      3323 7.23552E-03-2.83538E-04-3.63605E-14
 -1      3324 7.01630E-03-2.46412E-04-3.43732E-14
 -1      3325 7.38129E-03-2.82780E-04-3.76853E-14
 -1      3326 7.52781E-03-2.82311E-04-3.90274E-14
 -1      3327 7.30641E-03-2.43497E-04-3.69830E-14
 -1      3328 7.67528E-03-2.82147E-04-4.03880E-14
 -1      3329 7.82375E-03-2.82469E-04-4.17640E-14
 -1      3330 7.59966E-03-2.41095E-04-3.96627E-14
 -1      3331 7.97345E-03-2.83293E-04-4.31554E-14
 -1      3332 8.12438E-03-2.84846E-04-4.45643E-14
 -1      3333 7.89734E-03-2.39927E-04-4.24105E-14
 -1      3334 8.27675E-03-2.87129E-04-4.59874E-14
 -1      3335 8.43043E-03-2.90358E-04-4.74230E-14
 -1      3336 8.20075E-03-2.41068E-04-4.52211E-14
 -1      3337 8.58560E-03-2.94484E-04-4.88717E-14
 -1      3338 8.74192E-03-2.99603E-04-5.03321E-14
 -1      3339 8.51092E-03-2.45842E-04-4.80872E-14
 -1      3340 8.89945E-03-3.05563E-04-5.18063E-14
 -1      3341 9.05753E-03-3.12062E-04-5.32953E-14
 -1      3342 8.82794E-03-2.55385E-04-5.10035E-14
 -1      3343 9.21607E-03-3.18698E-04-5.47965E-14
 -1      3344 9.37421E-03-3.24552E-04-5.63105E-14
 -1      3345 9.15024E-03-2.69618E-04-5.39724E-14
 -1      3346 9.53168E-03-3.28871E-04-5.78403E-14
 -1      3347 9.68769E-03-3.29861E-04-5.93849E-14
 -1      3348 9.47395E-03-2.85140E-04-5.69967E-14
 -1      3349 9.84188E-03-3.26304E-04-6.09466E-14
 -1      3350 9.99414E-03-3.15907E-04-6.25229E-14
 -1      3351 9.79374E-03-2.93381E-04-6.00816E-14
 -1      3352 1.01441E-02-2.97544E-04-6.41147E-14
 -1      3353 1.02927E-02-2.68964E-04-6.57265E-14
 -1      3354 1.01050E-02-2.79241E-04-6.32285E-14
 -1      3355 1.04396E-02-2.29172E-04-6.73543E-14
 -1      3356 1.05869E-02-1.77641E-04-6.89959E-14
 -1      3357 1.04076E-02-2.26674E-04-6.64429E-14
 -1      3358 1.07342E-02-1.14340E-04-7.06545E-14
 -1      3359 1.08833E-02-4.02911E-05-7.23252E-14
 -1      3360 1.07067E-02-1.22916E-04-6.97234E-14
 -1      3361 1.10339E-02 4.35520E-05-7.40099E-14
 -1      3362 1.11868E-02 1.35007E-04-7.57087E-14
 -1      3363 1.10105E-02 3.00484E-05-7.30648E-14
 -1      3364 1.13416E-02 2.32853E-04-7.74188E-14
 -1      3365 1.14982E-02 3.34688E-04-7.91431E-14
 -1      3366 1.13234E-02 2.19825E-04-7.64575E-14
 -1      3367 1.16561E-02 4.39451E-04-8.08779E-14
 -1      3368 1.18146E-02 5.45460E-04-8.26205E-14
 -1      3369 1.16444E-02 4.29522E-04-7.98992E-14
 -1      3370 1.19733E-02 6.52021E-04-8.43796E-14
 -1      3371 1.21314E-02 7.58311E-04-8.61478E-14
 -1      3372 1.19687E-02 6.45034E-04-8.33878E-14
 -1      3373 1.22888E-02 8.63981E-04-8.79253E-14
 -1      3374 1.24450E-02 9.68830E-04-8.97155E-14
 -1      3375 1.22910E-02 8.58513E-04-8.69191E-14
 -1      3376 1.26000E-02 1.07273E-03-9.15146E-14
 -1      3377 1.27535E-02 1.17582E-03-9.33226E-14
 -1      3378 1.26077E-02 1.06729E-03-9.04914E-14
 -1      3379 1.29056E-02 1.27808E-03-9.51390E-14
 -1      3380 1.30562E-02 1.37977E-03-9.69618E-14
 -1      3381 1.29174E-02 1.27160E-03-9.41017E-14
 -1      3382 1.31671E-02 1.45543E-03-9.83597E-14
 -1      3383 1.33160E-02 1.55566E-03-1.00137E-13
 -1      3384 1.34027E-02 1.59707E-03-1.00110E-13
 -1      3385 1.31816E-02 1.44754E-03-9.73093E-14
 -1      3386 1.01514E-03-3.94843E-05-1.07221E-15
 -1      3387 1.01625E-03-6.62948E-05-1.07480E-15
 -1      3388 1.13775E-03-8.65346E-05-1.30191E-15
 -1      3389 3.70641E-03 3.13243E-04-9.96852E-15
 -1      3390 3.56272E-03 3.13423E-04-9.24675E-15
 -1      3391 3.77630E-03 2.75345E-04-1.04107E-14
 -1      3392 3.13112E-03 3.12538E-04-7.24068E-15
 -1      3393 2.98709E-03 3.11601E-04-6.62563E-15
 -1      3394 4.28036E-03 3.11178E-04-1.31215E-14
 -1      3395 4.13699E-03 3.11850E-04-1.22948E-14
 -1      3396 4.06375E-03 2.74497E-04-1.19640E-14
 -1      3397 4.56688E-03 3.09636E-04-1.48484E-14
 -1      3398 4.42366E-03 3.10439E-04-1.39724E-14
 -1      3399 4.35080E-03 2.73292E-04-1.36197E-14
 -1      3400 4.83879E-03 3.07981E-04-1.65800E-14
 -1      3401 4.70287E-03 3.08830E-04-1.57035E-14
 -1      3402 4.63030E-03 2.71893E-04-1.53292E-14
 -1      3403 5.12469E-03 3.06084E-04-1.84943E-14
 -1      3404 4.98178E-03 3.07052E-04-1.75261E-14
 -1      3405 4.90942E-03 2.70343E-04-1.71313E-14
 -1      3406 5.41022E-03 3.04057E-04-2.04994E-14
 -1      3407 5.26751E-03 3.05087E-04-1.94851E-14
 -1      3408 5.19528E-03 2.68645E-04-1.90705E-14
 -1      3409 5.69523E-03 3.01926E-04-2.25964E-14
 -1      3410 5.55280E-03 3.03004E-04-2.15376E-14
 -1      3411 5.48062E-03 2.66882E-04-2.11010E-14
 -1      3412 5.97954E-03 2.99749E-04-2.47781E-14
 -1      3413 5.83749E-03 3.00842E-04-2.36768E-14
 -1      3414 5.76531E-03 2.65115E-04-2.32206E-14
 -1      3415 6.26279E-03 2.97648E-04-2.70449E-14
 -1      3416 6.12132E-03 2.98684E-04-2.59014E-14
 -1      3417 6.04909E-03 2.63455E-04-2.54252E-14
 -1      3418 6.54444E-03 2.95863E-04-2.93948E-14
 -1      3419 6.40385E-03 2.96706E-04-2.82088E-14
 -1      3420 6.33158E-03 2.62107E-04-2.77141E-14
 -1      3421 6.82363E-03 2.94842E-04-3.18280E-14
 -1      3422 6.68440E-03 2.95240E-04-3.06013E-14
 -1      3423 6.61215E-03 2.61438E-04-3.00874E-14
 -1      3424 7.09909E-03 2.95363E-04-3.43376E-14
 -1      3425 6.96192E-03 2.94881E-04-3.30734E-14
 -1      3426 6.88990E-03 2.62068E-04-3.25412E-14
 -1      3427 7.36890E-03 2.98704E-04-3.69228E-14
 -1      3428 7.23484E-03 2.96640E-04-3.56216E-14
 -1      3429 7.16349E-03 2.65008E-04-3.50741E-14
 -1      3430 7.61749E-03 3.06330E-04-3.94424E-14
 -1      3431 7.49433E-03 3.01933E-04-3.81750E-14
 -1      3432 7.42443E-03 2.71597E-04-3.76131E-14
 -1      3433 7.86732E-03 3.21858E-04-4.21564E-14
 -1      3434 7.74425E-03 3.13084E-04-4.07917E-14
 -1      3435 7.67720E-03 2.84031E-04-4.02165E-14
 -1      3436 8.09983E-03 3.49064E-04-4.49271E-14
 -1      3437 7.98625E-03 3.33999E-04-4.35351E-14
 -1      3438 7.92465E-03 3.05963E-04-4.29482E-14
 -1      3439 8.30809E-03 3.92732E-04-4.77493E-14
 -1      3440 8.20776E-03 3.69098E-04-4.63331E-14
 -1      3441 8.15586E-03 3.41249E-04-4.57359E-14
 -1      3442 2.84296E-03 3.10208E-04-6.03781E-15
 -1      3443 2.69877E-03 3.08303E-04-5.47668E-15
 -1      3444 2.91145E-03 2.73368E-04-6.38760E-15
 -1      3445 1.01901E-02-1.65648E-04-6.23778E-14
 -1      3446 1.00552E-02-1.46617E-04-6.11284E-14
 -1      3447 1.02234E-02-1.91434E-04-6.30155E-14
 -1      3448 8.44581E-03 4.34791E-04-4.99164E-14
 -1      3449 8.37411E-03 4.12346E-04-4.87528E-14
 -1      3450 8.33683E-03 3.83467E-04-4.81489E-14
 -1      3451 8.47662E-03 4.27541E-04-5.01650E-14
 -1      3452 1.36114E-02 1.69146E-03-9.97760E-14
 -1      3453 1.37156E-02 1.73739E-03-9.96100E-14
 -1      3454 8.66199E-03 3.82913E-04-5.13169E-14
 -1      3455 8.53856E-03 4.09778E-04-5.05437E-14
 -1      3456 1.38229E-02 1.78365E-03-9.94357E-14
 -1      3457 1.39312E-02 1.82896E-03-9.92608E-14
 -1      3458 1.36419E-02 1.67870E-03-9.79465E-14
 -1      3459 1.16768E-02 4.32073E-04-7.53447E-14
 -1      3460 1.14950E-02 3.04381E-04-7.38675E-14
 -1      3461 9.58610E-03 1.18619E-05-5.70948E-14
 -1      3462 9.46433E-03 6.65626E-05-5.61932E-14
 -1      3463 1.48717E-03 2.50038E-04-1.84053E-15
 -1      3464 1.31933E-03 2.31645E-04-1.48904E-15
 -1      3465 1.31361E-03 1.97288E-04-1.51863E-15
 -1      3466 1.21342E-03-2.16888E-04-1.40343E-15
 -1      3467 3.41894E-03 3.13391E-04-8.55110E-15
 -1      3468 3.27508E-03 3.13122E-04-7.88261E-15
 -1      3469 3.48844E-03 2.75648E-04-8.96237E-15
 -1      3470 1.35126E-03-2.33755E-04-1.69156E-15
 -1      3471 1.49436E-03-2.46863E-04-2.01919E-15
 -1      3472 1.56070E-03-2.19877E-04-2.20406E-15
 -1      3473 1.28424E-03-1.92823E-04-1.56978E-15
 -1      3474 1.63073E-03 2.61446E-04-2.17324E-15
 -1      3475 1.43381E-02 1.78651E-03-9.02723E-14
 -1      3476 1.42298E-02 1.70508E-03-8.85170E-14
 -1      3477 1.46016E-02 2.06543E-03-9.76439E-14
 -1      3478 1.47232E-02 2.09709E-03-9.70496E-14
 -1      3479 1.45930E-02 2.00103E-03-9.51191E-14
 -1      3480 9.01139E-03 3.09034E-04-5.36204E-14
 -1      3481 8.84301E-03 3.44037E-04-5.25059E-14
 -1      3482 9.03253E-03 2.46953E-04-5.33788E-14
 -1      3483 9.84202E-03-9.71645E-05-5.92207E-14
 -1      3484 9.71909E-03-4.41549E-05-5.81518E-14
 -1      3485 9.55925E-03-4.52490E-05-5.68936E-14
 -1      3486 1.22411E-02 8.02664E-04-7.87395E-14
 -1      3487 1.19794E-02 6.36443E-04-7.74204E-14
 -1      3488 1.13476E-02 2.09362E-04-7.30069E-14
 -1      3489 8.68701E-03 3.35357E-04-5.10826E-14
 -1      3490 1.45008E-02 2.03238E-03-9.78451E-14
 -1      3491 1.43664E-02 1.93988E-03-9.59084E-14
 -1      3492 1.43966E-02 1.99711E-03-9.80402E-14
 -1      3493 2.20662E-03 3.32558E-04-3.69760E-15
 -1      3494 1.29884E-02 1.20430E-03-8.18940E-14
 -1      3495 1.28729E-02 1.15634E-03-8.22206E-14
 -1      3496 1.31569E-02 1.28762E-03-8.33072E-14
 -1      3497 3.20015E-03 2.75122E-04-7.62147E-15
 -1      3498 2.62602E-03 2.69899E-04-5.27371E-15
 -1      3499 2.55811E-03 3.05825E-04-4.95529E-15
 -1      3500 2.41740E-03 3.02670E-04-4.45976E-15
 -1      3501 1.13521E-03-2.83155E-05-1.29559E-15
 -1      3502 1.44307E-02 2.05369E-03-1.00185E-13
 -1      3503 1.39466E-02 1.51517E-03-8.40988E-14
 -1      3504 1.38953E-02 1.53118E-03-8.49845E-14
 -1      3505 1.09308E-02-3.67623E-05-6.92538E-14
 -1      3506 1.08231E-02-7.74912E-05-6.86213E-14
 -1      3507 1.10364E-02 2.34113E-05-7.05458E-14
 -1      3508 8.46016E-03 3.87802E-04-4.95308E-14
 -1      3509 1.78901E-03 2.66959E-04-2.57838E-15
 -1      3510 1.63904E-03 2.19809E-04-2.25293E-15
 -1      3511 1.38609E-02 1.77192E-03-9.75998E-14
 -1      3512 1.40402E-02 1.87309E-03-9.90796E-14
 -1      3513 1.41493E-02 1.91559E-03-9.88981E-14
 -1      3514 1.34901E-02 1.63853E-03-1.00078E-13
 -1      3515 1.26080E-03 1.09815E-04-1.48875E-15
 -1      3516 1.25863E-03 7.83029E-05-1.50536E-15
 -1      3517 1.18316E-02 5.41894E-04-7.69164E-14
 -1      3518 1.16963E-02 4.52932E-04-7.64128E-14
 -1      3519 1.19848E-02 6.46008E-04-7.84982E-14
 -1      3520 9.30061E-03 3.67770E-05-5.48250E-14
 -1      3521 9.32893E-03 9.91487E-05-5.51720E-14
 -1      3522 9.19361E-03 1.27459E-04-5.41559E-14
 -1      3523 1.34123E-02 1.57645E-03-9.84118E-14
 -1      3524 1.05313E-02-1.62131E-04-6.58098E-14
 -1      3525 1.04221E-02-1.86608E-04-6.51167E-14
 -1      3526 1.06050E-02-1.48094E-04-6.66504E-14
 -1      3527 1.27975E-03-1.59741E-04-1.57624E-15
 -1      3528 1.41732E-03-1.72085E-04-1.88090E-15
 -1      3529 1.27628E-03-1.27313E-04-1.57968E-15
 -1      3530 1.35329E-02 1.41880E-03-8.37170E-14
 -1      3531 1.34197E-02 1.38984E-03-8.39750E-14
 -1      3532 1.36611E-02 1.47199E-03-8.47169E-14
 -1      3533 1.41053E-02 1.64651E-03-8.75281E-14
 -1      3534 1.41334E-02 1.62184E-03-8.64939E-14
 -1      3535 1.40292E-02 1.52570E-03-8.40692E-14
 -1      3536 9.89438E-03-1.46001E-04-5.98395E-14
 -1      3537 1.25589E-02 9.93069E-04-8.10806E-14
 -1      3538 1.24011E-02 9.01036E-04-7.99089E-14
 -1      3539 1.22876E-02 8.36477E-04-8.01749E-14
 -1      3540 1.45216E-02 1.93630E-03-9.35747E-14
 -1      3541 1.44022E-02 1.84898E-03-9.18045E-14
 -1      3542 1.42668E-02 1.78861E-03-9.10881E-14
 -1      3543 1.43989E-02 1.90995E-03-9.41645E-14
 -1      3544 1.92958E-03 2.74644E-04-2.95925E-15
 -1      3545 1.25719E-03 4.70625E-05-1.51927E-15
 -1      3546 1.25648E-03 1.60310E-05-1.53039E-15
 -1      3547 1.38032E-03 6.63582E-05-1.77674E-15
 -1      3548 1.27182E-03-6.39496E-05-1.57785E-15
 -1      3549 1.27364E-03-9.54286E-05-1.57993E-15
 -1      3550 1.41064E-03-1.03854E-04-1.88506E-15
 -1      3551 4.42143E-03 2.35411E-04-1.41205E-14
 -1      3552 4.27789E-03 2.35998E-04-1.32664E-14
 -1      3553 8.38075E-03 3.67439E-04-4.85221E-14
 -1      3554 8.30205E-03 3.48950E-04-4.75195E-14
 -1      3555 8.43867E-03 3.44661E-04-4.88935E-14
 -1      3556 2.05605E-03-2.13353E-04-3.61816E-15
 -1      3557 2.20081E-03-2.17744E-04-4.08675E-15
 -1      3558 2.34567E-03-2.21324E-04-4.58257E-15
 -1      3559 2.49057E-03-2.24170E-04-5.10628E-15
 -1      3560 2.26966E-03-1.83297E-04-4.33381E-15
 -1      3561 2.63546E-03-2.26414E-04-5.65668E-15
 -1      3562 2.78031E-03-2.28115E-04-6.23354E-15
 -1      3563 2.55981E-03-1.88218E-04-5.37856E-15
 -1      3564 2.92509E-03-2.29385E-04-6.83747E-15
 -1      3565 3.06977E-03-2.30266E-04-7.46752E-15
 -1      3566 2.84993E-03-1.91178E-04-6.53057E-15
 -1      3567 3.21435E-03-2.30847E-04-8.12391E-15
 -1      3568 3.35881E-03-2.31157E-04-8.80575E-15
 -1      3569 3.13973E-03-1.92726E-04-7.78871E-15
 -1      3570 3.50314E-03-2.31264E-04-9.51318E-15
 -1      3571 3.64735E-03-2.31187E-04-1.02453E-14
 -1      3572 3.42905E-03-1.93287E-04-9.14996E-15
 -1      3573 3.79144E-03-2.30976E-04-1.10033E-14
 -1      3574 3.93540E-03-2.30641E-04-1.17862E-14
 -1      3575 3.71784E-03-1.93175E-04-1.06133E-14
 -1      3576 4.07923E-03-2.30220E-04-1.25938E-14
 -1      3577 4.22295E-03-2.29714E-04-1.34266E-14
 -1      3578 4.00607E-03-1.92613E-04-1.21765E-14
 -1      3579 4.36655E-03-2.29151E-04-1.42841E-14
 -1      3580 4.51004E-03-2.28529E-04-1.51662E-14
 -1      3581 4.29375E-03-1.91748E-04-1.38393E-14
 -1      3582 4.65343E-03-2.27864E-04-1.60731E-14
 -1      3583 4.79671E-03-2.27152E-04-1.70038E-14
 -1      3584 4.58092E-03-1.90669E-04-1.56019E-14
 -1      3585 4.93990E-03-2.26402E-04-1.79587E-14
 -1      3586 5.08299E-03-2.25606E-04-1.89373E-14
 -1      3587 4.86761E-03-1.89415E-04-1.74616E-14
 -1      3588 5.22601E-03-2.24769E-04-1.99386E-14
 -1      3589 5.36895E-03-2.23881E-04-2.09623E-14
 -1      3590 5.15385E-03-1.87986E-04-1.94165E-14
 -1      3591 5.51182E-03-2.22941E-04-2.20097E-14
 -1      3592 5.65464E-03-2.21938E-04-2.30808E-14
 -1      3593 5.43971E-03-1.86349E-04-2.14637E-14
 -1      3594 5.79742E-03-2.20869E-04-2.41731E-14
 -1      3595 5.94018E-03-2.19722E-04-2.52862E-14
 -1      3596 5.72524E-03-1.84438E-04-2.36001E-14
 -1      3597 6.08295E-03-2.18489E-04-2.64231E-14
 -1      3598 6.22575E-03-2.17162E-04-2.75826E-14
 -1      3599 6.01058E-03-1.82160E-04-2.58252E-14
 -1      3600 6.36863E-03-2.15730E-04-2.87627E-14
 -1      3601 6.51164E-03-2.14193E-04-2.99641E-14
 -1      3602 6.29590E-03-1.79399E-04-2.81383E-14
 -1      3603 6.65483E-03-2.12535E-04-3.11875E-14
 -1      3604 6.79828E-03-2.10774E-04-3.24321E-14
 -1      3605 6.58151E-03-1.76027E-04-3.05383E-14
 -1      3606 6.94208E-03-2.08892E-04-3.36974E-14
 -1      3607 7.08634E-03-2.06937E-04-3.49802E-14
 -1      3608 6.86791E-03-1.71933E-04-3.30225E-14
 -1      3609 7.23119E-03-2.04893E-04-3.62812E-14
 -1      3610 7.37677E-03-2.02861E-04-3.76016E-14
 -1      3611 7.15585E-03-1.67074E-04-3.55845E-14
 -1      3612 7.52327E-03-2.00830E-04-3.89405E-14
 -1      3613 7.67085E-03-1.98983E-04-4.02965E-14
 -1      3614 7.44643E-03-1.61573E-04-3.82204E-14
 -1      3615 7.81975E-03-1.97321E-04-4.16694E-14
 -1      3616 7.97015E-03-1.96140E-04-4.30556E-14
 -1      3617 7.74115E-03-1.55878E-04-4.09274E-14
 -1      3618 8.12232E-03-1.95465E-04-4.44571E-14
 -1      3619 8.27636E-03-1.95709E-04-4.58748E-14
 -1      3620 8.04194E-03-1.50980E-04-4.36977E-14
 -1      3621 8.43258E-03-1.96929E-04-4.73054E-14
 -1      3622 8.59083E-03-1.99559E-04-4.87486E-14
 -1      3623 8.35093E-03-1.48655E-04-4.65261E-14
 -1      3624 8.75140E-03-2.03631E-04-5.02045E-14
 -1      3625 8.91379E-03-2.09493E-04-5.16721E-14
 -1      3626 8.66989E-03-1.51502E-04-4.94078E-14
 -1      3627 9.07835E-03-2.17130E-04-5.31552E-14
 -1      3628 9.24373E-03-2.26193E-04-5.46502E-14
 -1      3629 8.99936E-03-1.62164E-04-5.23402E-14
 -1      3630 9.40979E-03-2.36289E-04-5.61576E-14
 -1      3631 9.57526E-03-2.45898E-04-5.76818E-14
 -1      3632 9.33754E-03-1.82605E-04-5.53238E-14
 -1      3633 1.01463E-02-2.38033E-04-6.29678E-14
 -1      3634 1.03039E-02-2.23969E-04-6.45595E-14
 -1      3635 1.04596E-02-1.96097E-04-6.61688E-14
 -1      3636 1.06768E-02-1.32273E-04-6.87969E-14
 -1      3637 1.08301E-02-6.57318E-05-7.04516E-14
 -1      3638 1.09846E-02 1.45848E-05-7.21200E-14
 -1      3639 1.11424E-02 1.05492E-04-7.38018E-14
 -1      3640 1.09577E-02-3.13526E-06-7.11759E-14
 -1      3641 1.13029E-02 2.05449E-04-7.54970E-14
 -1      3642 1.14660E-02 3.10651E-04-7.72046E-14
 -1      3643 1.12811E-02 1.88333E-04-7.45370E-14
 -1      3644 1.16311E-02 4.19615E-04-7.89241E-14
 -1      3645 1.17971E-02 5.29398E-04-8.06549E-14
 -1      3646 1.16169E-02 4.08429E-04-7.79490E-14
 -1      3647 1.19635E-02 6.39220E-04-8.23998E-14
 -1      3648 1.21289E-02 7.47785E-04-8.41521E-14
 -1      3649 1.19580E-02 6.33858E-04-8.14094E-14
 -1      3650 1.22932E-02 8.54791E-04-8.59151E-14
 -1      3651 1.24555E-02 9.60111E-04-8.76881E-14
 -1      3652 1.22958E-02 8.52589E-04-8.49129E-14
 -1      3653 1.26159E-02 1.06371E-03-8.94713E-14
 -1      3654 1.27739E-02 1.16591E-03-9.12647E-14
 -1      3655 1.26248E-02 1.06197E-03-8.84553E-14
 -1      3656 1.29299E-02 1.26680E-03-9.30663E-14
 -1      3657 1.30838E-02 1.36685E-03-9.48739E-14
 -1      3658 1.29433E-02 1.26376E-03-9.20352E-14
 -1      3659 1.33011E-02 1.50289E-03-9.70197E-14
 -1      3660 4.69384E-03 2.34186E-04-1.58111E-14
 -1      3661 4.55769E-03 2.34816E-04-1.49547E-14
 -1      3662 4.48506E-03 1.97594E-04-1.45806E-14
 -1      3663 3.84654E-03 2.37362E-04-1.08558E-14
 -1      3664 3.70252E-03 2.37633E-04-1.01037E-14
 -1      3665 4.13423E-03 2.36526E-04-1.24378E-14
 -1      3666 3.99045E-03 2.36991E-04-1.16342E-14
 -1      3667 3.91711E-03 1.99337E-04-1.13042E-14
 -1      3668 4.20494E-03 1.98557E-04-1.29139E-14
 -1      3669 4.98012E-03 2.32791E-04-1.76843E-14
 -1      3670 4.83704E-03 2.33501E-04-1.67361E-14
 -1      3671 4.76466E-03 1.96515E-04-1.63405E-14
 -1      3672 5.26587E-03 2.31344E-04-1.96482E-14
 -1      3673 5.12307E-03 2.32073E-04-1.86550E-14
 -1      3674 5.05089E-03 1.95353E-04-1.82387E-14
 -1      3675 5.55101E-03 2.29910E-04-2.17038E-14
 -1      3676 5.40853E-03 2.30623E-04-2.06644E-14
 -1      3677 5.33650E-03 1.94202E-04-2.02284E-14
 -1      3678 5.83535E-03 2.28587E-04-2.38453E-14
 -1      3679 5.69329E-03 2.29229E-04-2.27643E-14
 -1      3680 5.62141E-03 1.93153E-04-2.23071E-14
 -1      3681 6.11863E-03 2.27547E-04-2.60743E-14
 -1      3682 5.97714E-03 2.28023E-04-2.49497E-14
 -1      3683 5.90541E-03 1.92346E-04-2.44734E-14
 -1      3684 6.40041E-03 2.27085E-04-2.83861E-14
 -1      3685 6.25974E-03 2.27228E-04-2.72196E-14
 -1      3686 6.18823E-03 1.92017E-04-2.67249E-14
 -1      3687 6.68007E-03 2.27690E-04-3.07828E-14
 -1      3688 6.54056E-03 2.27229E-04-2.95739E-14
 -1      3689 6.46943E-03 1.92550E-04-2.90612E-14
 -1      3690 6.95670E-03 2.30149E-04-3.32584E-14
 -1      3691 6.81884E-03 2.28649E-04-3.20109E-14
 -1      3692 6.74842E-03 1.94553E-04-3.14800E-14
 -1      3693 7.22902E-03 2.35671E-04-3.58115E-14
 -1      3694 7.09351E-03 2.32471E-04-3.45256E-14
 -1      3695 7.02435E-03 1.98957E-04-3.39770E-14
 -1      3696 7.48220E-03 2.45382E-04-3.83038E-14
 -1      3697 7.35643E-03 2.39920E-04-3.70495E-14
 -1      3698 7.28941E-03 2.06868E-04-3.64858E-14
 -1      3699 7.74080E-03 2.62674E-04-4.09922E-14
 -1      3700 7.61273E-03 2.53035E-04-3.96400E-14
 -1      3701 7.54932E-03 2.20133E-04-3.90627E-14
 -1      3702 7.98880E-03 2.90355E-04-4.37409E-14
 -1      3703 7.86645E-03 2.75133E-04-4.23600E-14
 -1      3704 7.80915E-03 2.41717E-04-4.17692E-14
 -1      3705 8.20591E-03 3.27578E-04-4.63247E-14
 -1      3706 8.08994E-03 3.05482E-04-4.49181E-14
 -1      3707 8.04172E-03 2.70433E-04-4.43183E-14
 -1      3708 8.24929E-03 3.05803E-04-4.66891E-14
 -1      3709 2.98060E-03 2.36233E-04-6.74139E-15
 -1      3710 2.83589E-03 2.35101E-04-6.14869E-15
 -1      3711 1.26339E-03-8.22624E-06-1.55202E-15
 -1      3712 1.26391E-03-3.92679E-05-1.55900E-15
 -1      3713 1.40054E-03-4.41048E-05-1.86162E-15
 -1      3714 1.38583E-03 7.71266E-06-1.81597E-15
 -1      3715 1.69940E-03 1.88015E-04-2.44794E-15
 -1      3716 1.54115E-03 1.84057E-04-2.05294E-15
 -1      3717 1.33181E-02 1.49764E-03-9.59701E-14
 -1      3718 1.42197E-02 1.93820E-03-9.85663E-14
 -1      3719 1.43276E-02 1.97734E-03-9.83755E-14
 -1      3720 1.41881E-02 1.88518E-03-9.64345E-14
 -1      3721 1.40438E-02 1.84060E-03-9.70935E-14
 -1      3722 1.30909E-03 1.63698E-04-1.54442E-15
 -1      3723 3.55838E-03 2.37761E-04-9.37802E-15
 -1      3724 3.41411E-03 2.37734E-04-8.67928E-15
 -1      3725 3.62873E-03 1.99783E-04-9.79733E-15
 -1      3726 1.40880E-02 1.68404E-03-8.90289E-14
 -1      3727 1.39869E-02 1.60464E-03-8.70028E-14
 -1      3728 1.38576E-02 1.56157E-03-8.64725E-14
 -1      3729 2.09077E-03 2.82737E-04-3.42578E-15
 -1      3730 1.95875E-03 2.32033E-04-3.10944E-15
 -1      3731 9.03491E-03 1.80249E-04-5.30416E-14
 -1      3732 8.87682E-03 2.23965E-04-5.19334E-14
 -1      3733 9.02247E-03 1.15077E-04-5.27005E-14
 -1      3734 1.76717E-03-2.01598E-04-2.76425E-15
 -1      3735 1.91148E-03-2.08006E-04-3.17692E-15
 -1      3736 1.97992E-03-1.75743E-04-3.39761E-15
 -1      3737 2.23517E-03 2.87983E-04-3.87352E-15
 -1      3738 8.71310E-03 2.77025E-04-5.08445E-14
 -1      3739 8.54822E-03 3.14943E-04-4.96711E-14
 -1      3740 9.52183E-03-1.01278E-04-5.66650E-14
 -1      3741 9.40147E-03-5.37783E-05-5.56192E-14
 -1      3742 3.26972E-03 2.37494E-04-8.00628E-15
 -1      3743 3.12522E-03 2.37019E-04-7.36053E-15
 -1      3744 3.05036E-03 1.98858E-04-7.09959E-15
 -1      3745 3.33980E-03 1.99711E-04-8.39509E-15
 -1      3746 1.52243E-03-1.82164E-04-2.12925E-15
 -1      3747 1.66128E-03-1.92721E-04-2.48022E-15
 -1      3748 1.72945E-03-1.63024E-04-2.67652E-15
 -1      3749 1.51843E-03-1.46502E-04-2.13344E-15
 -1      3750 1.34254E-02 1.54784E-03-9.58094E-14
 -1      3751 1.35351E-02 1.59744E-03-9.56453E-14
 -1      3752 1.32056E-02 1.41519E-03-9.36797E-14
 -1      3753 9.92929E-03-1.98139E-04-6.04616E-14
 -1      3754 9.73059E-03-1.59025E-04-5.85604E-14
 -1      3755 1.13185E-02 2.06105E-04-7.38496E-14
 -1      3756 1.11347E-02 8.78958E-05-7.20197E-14
 -1      3757 1.37656E-02 1.54402E-03-8.67371E-14
 -1      3758 2.76412E-03 1.96899E-04-5.92465E-15
 -1      3759 2.69472E-03 2.33572E-04-5.59730E-15
 -1      3760 2.55349E-03 2.31579E-04-5.07038E-15
 -1      3761 2.30264E-03 2.53639E-04-4.15496E-15
 -1      3762 1.33068E-02 1.35719E-03-8.43103E-14
 -1      3763 1.31979E-02 1.31980E-03-8.46450E-14
 -1      3764 1.34493E-02 1.42100E-03-8.53163E-14
 -1      3765 9.63754E-03-2.05174E-04-5.79997E-14
 -1      3766 9.70091E-03-2.52447E-04-5.88535E-14
 -1      3767 9.86377E-03-2.57881E-04-6.04047E-14
 -1      3768 1.00567E-02-2.09731E-04-6.17077E-14
 -1      3769 1.42092E-02 1.79739E-03-9.20944E-14
 -1      3770 1.41465E-02 1.73970E-03-9.05608E-14
 -1      3771 1.40194E-02 1.69011E-03-9.00277E-14
 -1      3772 1.07079E-02-1.17587E-04-6.79174E-14
 -1      3773 1.36469E-02 1.64624E-03-9.54762E-14
 -1      3774 1.37603E-02 1.69339E-03-9.53047E-14
 -1      3775 1.34286E-02 1.51921E-03-9.33590E-14
 -1      3776 9.59642E-03-1.45302E-04-5.73948E-14
 -1      3777 1.29146E-02 1.18953E-03-8.39155E-14
 -1      3778 1.27396E-02 1.09532E-03-8.24952E-14
 -1      3779 1.26195E-02 1.03376E-03-8.27668E-14
 -1      3780 1.47439E-03 1.71035E-04-1.90792E-15
 -1      3781 1.30403E-03 1.24450E-04-1.56885E-15
 -1      3782 1.21474E-02 7.52155E-04-8.00296E-14
 -1      3783 1.20064E-02 6.62099E-04-7.95190E-14
 -1      3784 1.16378E-02 4.20128E-04-7.71157E-14
 -1      3785 1.14928E-02 3.21726E-04-7.55447E-14
 -1      3786 9.27802E-03-2.61107E-05-5.45997E-14
 -1      3787 8.45217E-03 2.99850E-04-4.86603E-14
 -1      3788 1.43204E-02 1.89785E-03-9.47676E-14
 -1      3789 1.42513E-02 1.83812E-03-9.32266E-14
 -1      3790 1.41237E-02 1.78394E-03-9.26934E-14
 -1      3791 1.42126E-02 1.86418E-03-9.49626E-14
 -1      3792 8.71590E-03 2.17424E-04-5.05119E-14
 -1      3793 1.22972E-02 8.45521E-04-8.12036E-14
 -1      3794 2.03744E-03 2.00243E-04-3.38827E-15
 -1      3795 1.87599E-03 1.93601E-04-2.92294E-15
 -1      3796 1.50453E-03 8.70434E-05-2.05260E-15
 -1      3797 1.50290E-03 5.23467E-05-2.07024E-15
 -1      3798 1.77838E-03 1.58594E-04-2.69216E-15
 -1      3799 9.01392E-03 4.74594E-05-5.24605E-14
 -1      3800 8.87125E-03 9.37976E-05-5.13594E-14
 -1      3801 1.51316E-03-7.64473E-05-2.13104E-15
 -1      3802 1.51535E-03-1.11305E-04-2.13387E-15
 -1      3803 1.62053E-03-1.18556E-04-2.39775E-15
 -1      3804 2.48454E-03-1.50261E-04-5.10400E-15
 -1      3805 2.62980E-03-1.51834E-04-5.65224E-15
 -1      3806 2.77503E-03-1.53051E-04-6.22726E-15
 -1      3807 2.92020E-03-1.53943E-04-6.82863E-15
 -1      3808 2.70046E-03-1.15072E-04-5.92725E-15
 -1      3809 3.06527E-03-1.54583E-04-7.45632E-15
 -1      3810 3.21024E-03-1.54991E-04-8.11028E-15
 -1      3811 2.99106E-03-1.16465E-04-7.12719E-15
 -1      3812 3.35507E-03-1.55225E-04-8.79002E-15
 -1      3813 3.49976E-03-1.55298E-04-9.49483E-15
 -1      3814 3.28125E-03-1.17112E-04-8.43264E-15
 -1      3815 3.64431E-03-1.55256E-04-1.02249E-14
 -1      3816 3.78870E-03-1.55103E-04-1.09806E-14
 -1      3817 3.57088E-03-1.17239E-04-9.83964E-15
 -1      3818 3.93294E-03-1.54874E-04-1.17612E-14
 -1      3819 4.07704E-03-1.54569E-04-1.25668E-14
 -1      3820 3.85989E-03-1.17014E-04-1.13484E-14
 -1      3821 4.22098E-03-1.54212E-04-1.33973E-14
 -1      3822 4.36478E-03-1.53800E-04-1.42529E-14
 -1      3823 4.14826E-03-1.16547E-04-1.29576E-14
 -1      3824 4.50844E-03-1.53350E-04-1.51332E-14
 -1      3825 4.65196E-03-1.52853E-04-1.60383E-14
 -1      3826 4.43600E-03-1.15903E-04-1.46671E-14
 -1      3827 4.79535E-03-1.52321E-04-1.69676E-14
 -1      3828 4.93861E-03-1.51742E-04-1.79201E-14
 -1      3829 4.72314E-03-1.15110E-04-1.64749E-14
 -1      3830 5.08175E-03-1.51122E-04-1.88965E-14
 -1      3831 5.22477E-03-1.50445E-04-1.98957E-14
 -1      3832 5.00971E-03-1.14159E-04-1.83788E-14
 -1      3833 5.36768E-03-1.49711E-04-2.09178E-14
 -1      3834 5.51048E-03-1.48903E-04-2.19631E-14
 -1      3835 5.29573E-03-1.13006E-04-2.03749E-14
 -1      3836 5.65319E-03-1.48013E-04-2.30304E-14
 -1      3837 5.79581E-03-1.47021E-04-2.41190E-14
 -1      3838 5.58125E-03-1.11566E-04-2.24621E-14
 -1      3839 5.93837E-03-1.45913E-04-2.52302E-14
 -1      3840 6.08087E-03-1.44666E-04-2.63634E-14
 -1      3841 5.86632E-03-1.09712E-04-2.46372E-14
 -1      3842 6.22336E-03-1.43259E-04-2.75184E-14
 -1      3843 6.36586E-03-1.41667E-04-2.86936E-14
 -1      3844 6.15104E-03-1.07265E-04-2.68992E-14
 -1      3845 6.50841E-03-1.39862E-04-2.98925E-14
 -1      3846 6.65108E-03-1.37825E-04-3.11113E-14
 -1      3847 6.43559E-03-1.03990E-04-2.92491E-14
 -1      3848 6.79393E-03-1.35517E-04-3.23504E-14
 -1      3849 6.93708E-03-1.32941E-04-3.36117E-14
 -1      3850 6.72028E-03-9.96050E-05-3.16833E-14
 -1      3851 7.08060E-03-1.30047E-04-3.48898E-14
 -1      3852 7.22466E-03-1.26880E-04-3.61865E-14
 -1      3853 7.00566E-03-9.38062E-05-3.41974E-14
 -1      3854 7.36942E-03-1.23389E-04-3.75028E-14
 -1      3855 7.51508E-03-1.19696E-04-3.88377E-14
 -1      3856 7.29262E-03-8.63456E-05-3.67887E-14
 -1      3857 7.66188E-03-1.15760E-04-4.01892E-14
 -1      3858 7.81009E-03-1.11836E-04-4.15563E-14
 -1      3859 7.58251E-03-7.71816E-05-3.94525E-14
 -1      3860 7.96001E-03-1.07912E-04-4.29406E-14
 -1      3861 8.11198E-03-1.04450E-04-4.43371E-14
 -1      3862 7.87736E-03-6.67474E-05-4.21827E-14
 -1      3863 8.26638E-03-1.01497E-04-4.57472E-14
 -1      3864 8.42346E-03-9.97787E-05-4.71735E-14
 -1      3865 8.17990E-03-5.63787E-05-4.49735E-14
 -1      3866 8.58370E-03-9.94003E-05-4.86127E-14
 -1      3867 8.74716E-03-1.01366E-04-5.00625E-14
 -1      3868 8.49352E-03-4.89245E-05-4.78188E-14
 -1      3869 8.85434E-03-6.60869E-05-5.09983E-14
 -1      3870 9.02417E-03-7.21897E-05-5.24693E-14
 -1      3871 1.63360E-03 4.44868E-05-2.40011E-15
 -1      3872 1.50927E-03 2.53858E-05-2.09911E-15
 -1      3873 1.51613E-03-1.66388E-06-2.12589E-15
 -1      3874 1.18144E-02 5.38205E-04-7.88337E-14
 -1      3875 1.19688E-02 6.39844E-04-8.03660E-14
 -1      3876 1.21440E-02 7.53329E-04-8.21065E-14
 -1      3877 1.26356E-02 1.06242E-03-8.74405E-14
 -1      3878 1.27985E-02 1.16356E-03-8.92186E-14
 -1      3879 1.29252E-02 1.24132E-03-9.05484E-14
 -1      3880 1.30827E-02 1.33934E-03-9.23412E-14
 -1      3881 1.31930E-02 1.39328E-03-9.21863E-14
 -1      3882 1.29425E-02 1.24260E-03-8.95241E-14
 -1      3883 5.12174E-03 1.58041E-04-1.87956E-14
 -1      3884 4.97875E-03 1.58484E-04-1.78226E-14
 -1      3885 5.40720E-03 1.57230E-04-2.08102E-14
 -1      3886 5.26456E-03 1.57622E-04-1.97919E-14
 -1      3887 5.19268E-03 1.20870E-04-1.93550E-14
 -1      3888 2.38670E-03 2.23559E-04-4.48829E-15
 -1      3889 2.20415E-03 2.09921E-04-3.89742E-15
 -1      3890 2.12196E-03 1.71601E-04-3.68575E-15
 -1      3891 2.45577E-03 1.88084E-04-4.78267E-15
 -1      3892 5.69187E-03 1.56615E-04-2.29126E-14
 -1      3893 5.54964E-03 1.56892E-04-2.18506E-14
 -1      3894 5.47798E-03 1.20433E-04-2.13938E-14
 -1      3895 5.97557E-03 1.56383E-04-2.51023E-14
 -1      3896 5.83386E-03 1.56441E-04-2.39964E-14
 -1      3897 5.76244E-03 1.20293E-04-2.35205E-14
 -1      3898 6.25803E-03 1.56828E-04-2.73770E-14
 -1      3899 6.11698E-03 1.56503E-04-2.62297E-14
 -1      3900 6.04591E-03 1.20676E-04-2.57329E-14
 -1      3901 6.53883E-03 1.58416E-04-2.97365E-14
 -1      3902 6.39867E-03 1.57452E-04-2.85457E-14
 -1      3903 6.32812E-03 1.21934E-04-2.80316E-14
 -1      3904 6.81747E-03 1.61853E-04-3.21786E-14
 -1      3905 6.67847E-03 1.59863E-04-3.09476E-14
 -1      3906 6.60876E-03 1.24599E-04-3.04147E-14
 -1      3907 7.09325E-03 1.68173E-04-3.46978E-14
 -1      3908 6.95578E-03 1.64595E-04-3.34285E-14
 -1      3909 6.88742E-03 1.29450E-04-3.28794E-14
 -1      3910 7.35190E-03 1.78161E-04-3.71618E-14
 -1      3911 7.22306E-03 1.72615E-04-3.59217E-14
 -1      3912 7.15679E-03 1.37318E-04-3.53568E-14
 -1      3913 7.61989E-03 1.94681E-04-3.98230E-14
 -1      3914 7.48655E-03 1.85558E-04-3.84848E-14
 -1      3915 7.42353E-03 1.49625E-04-3.79050E-14
 -1      3916 7.88303E-03 2.19585E-04-4.25484E-14
 -1      3917 7.75219E-03 2.05976E-04-4.11783E-14
 -1      3918 7.69427E-03 1.68550E-04-4.05857E-14
 -1      3919 1.10230E-02 2.82768E-05-7.13723E-14
 -1      3920 1.23051E-02 8.52982E-04-8.25282E-14
 -1      3921 1.22807E-02 8.40150E-04-8.35847E-14
 -1      3922 1.24509E-02 9.47179E-04-8.53422E-14
 -1      3923 1.24382E-02 9.32614E-04-8.26783E-14
 -1      3924 1.53553E-03 1.41208E-04-2.08365E-15
 -1      3925 8.70197E-03 1.52513E-04-5.00877E-14
 -1      3926 8.55565E-03 2.01970E-04-4.90146E-14
 -1      3927 1.42560E-03 1.14209E-04-1.84697E-15
 -1      3928 1.54795E-03 1.01764E-04-2.14728E-15
 -1      3929 9.11530E-03-3.73840E-05-5.32386E-14
 -1      3930 3.69948E-03 1.61729E-04-1.02199E-14
 -1      3931 3.55500E-03 1.61821E-04-9.49130E-15
 -1      3932 4.83560E-03 1.58932E-04-1.68721E-14
 -1      3933 4.69230E-03 1.59384E-04-1.59446E-14
 -1      3934 4.90666E-03 1.21459E-04-1.74060E-14
 -1      3935 4.55603E-03 1.59800E-04-1.50863E-14
 -1      3936 4.41962E-03 1.60207E-04-1.42499E-14
 -1      3937 4.62715E-03 1.22088E-04-1.55948E-14
 -1      3938 1.90452E-03-1.38927E-04-3.18178E-15
 -1      3939 2.04922E-03-1.42651E-04-3.62159E-15
 -1      3940 9.43924E-03-1.54642E-04-5.61106E-14
 -1      3941 8.44350E-03 2.45407E-04-4.82224E-14
 -1      3942 8.34035E-03 2.79970E-04-4.74547E-14
 -1      3943 8.23039E-03 2.61303E-04-4.62598E-14
 -1      3944 1.08622E-02-5.43192E-05-6.97130E-14
 -1      3945 2.19418E-03-1.45739E-04-4.08854E-15
 -1      3946 2.33932E-03-1.48247E-04-4.58287E-15
 -1      3947 2.11931E-03-1.08758E-04-3.84767E-15
 -1      3948 1.38492E-02 1.60670E-03-8.85524E-14
 -1      3949 1.36412E-02 1.50877E-03-8.67865E-14
 -1      3950 1.35432E-02 1.48262E-03-8.71278E-14
 -1      3951 1.39102E-02 1.65835E-03-9.00813E-14
 -1      3952 1.06493E-02-1.38793E-04-6.77243E-14
 -1      3953 9.26633E-03-1.41139E-04-5.46068E-14
 -1      3954 2.83239E-03 1.59880E-04-6.24891E-15
 -1      3955 2.69083E-03 1.58795E-04-5.69298E-15
 -1      3956 1.26111E-02 1.03482E-03-8.41018E-14
 -1      3957 2.40973E-03-1.12632E-04-4.83355E-15
 -1      3958 1.05294E-02-1.80943E-04-6.70116E-14
 -1      3959 1.40667E-02 1.82320E-03-9.56244E-14
 -1      3960 1.41400E-02 1.84458E-03-9.52954E-14
 -1      3961 1.40933E-02 1.80459E-03-9.41581E-14
 -1      3962 1.26312E-02 1.05390E-03-8.60986E-14
 -1      3963 4.34705E-03 1.22702E-04-1.38761E-14
 -1      3964 4.27589E-03 1.60604E-04-1.33934E-14
 -1      3965 4.13201E-03 1.60973E-04-1.25622E-14
 -1      3966 1.31835E-02 1.37403E-03-9.06975E-14
 -1      3967 1.33071E-02 1.44705E-03-9.20274E-14
 -1      3968 1.34246E-02 1.49958E-03-9.18648E-14
 -1      3969 3.98798E-03 1.61288E-04-1.17552E-14
 -1      3970 3.84380E-03 1.61551E-04-1.09742E-14
 -1      3971 3.77057E-03 1.23644E-04-1.06457E-14
 -1      3972 4.05913E-03 1.23253E-04-1.22096E-14
 -1      3973 7.99299E-03 2.32216E-04-4.37165E-14
 -1      3974 7.94199E-03 1.92141E-04-4.31134E-14
 -1      3975 8.10212E-03 2.46866E-04-4.48941E-14
 -1      3976 1.51035E-03-2.54175E-05-2.11822E-15
 -1      3977 1.51812E-03-5.26640E-05-2.14202E-15
 -1      3978 1.62309E-03-5.78379E-05-2.40626E-15
 -1      3979 1.63408E-03-8.47556E-06-2.42447E-15
 -1      3980 8.69820E-03 8.93494E-05-4.98513E-14
 -1      3981 1.61431E-03 1.12994E-04-2.30359E-15
 -1      3982 1.30681E-02 1.26856E-03-8.49256E-14
 -1      3983 1.29463E-02 1.21438E-03-8.52024E-14
 -1      3984 1.32174E-02 1.34236E-03-8.59367E-14
 -1      3985 8.42916E-03 1.88870E-04-4.78047E-14
 -1      3986 1.38772E-02 1.74768E-03-9.56296E-14
 -1      3987 1.39514E-02 1.77235E-03-9.53035E-14
 -1      3988 1.39020E-02 1.73301E-03-9.41684E-14
 -1      3989 1.36644E-02 1.62610E-03-9.35219E-14
 -1      3990 3.41038E-03 1.61786E-04-8.78827E-15
 -1      3991 3.26561E-03 1.61615E-04-8.11169E-15
 -1      3992 3.48138E-03 1.23769E-04-9.18527E-15
 -1      3993 1.70938E-03-1.25462E-04-2.63197E-15
 -1      3994 1.81521E-03-1.32321E-04-2.92388E-15
 -1      3995 1.88507E-03-1.00318E-04-3.12921E-15
 -1      3996 1.70691E-03-8.84518E-05-2.62896E-15
 -1      3997 1.75483E-03 6.27683E-05-2.70990E-15
 -1      3998 1.76110E-03 3.36067E-05-2.74450E-15
 -1      3999 2.21516E-03 1.40421E-04-4.02089E-15
 -1      4000 2.04838E-03 1.32348E-04-3.50143E-15
 -1      4001 3.12162E-03 1.61260E-04-7.46641E-15
 -1      4002 2.97660E-03 1.60701E-04-6.84285E-15
 -1      4003 2.90400E-03 1.22601E-04-6.58960E-15
 -1      4004 3.19249E-03 1.23484E-04-7.83351E-15
 -1      4005 1.79061E-03 1.16241E-04-2.76697E-15
 -1      4006 1.91811E-03 1.06523E-04-3.13660E-15
 -1      4007 2.01213E-03 7.61270E-05-3.44133E-15
 -1      4008 1.28689E-02 1.17964E-03-8.56983E-14
 -1      4009 1.26935E-02 1.08611E-03-8.56094E-14
 -1      4010 1.28768E-02 1.19588E-03-8.77069E-14
 -1      4011 1.30170E-02 1.25990E-03-8.67161E-14
 -1      4012 1.87599E-03 2.53442E-05-3.07118E-15
 -1      4013 1.75473E-03 7.93433E-06-2.73932E-15
 -1      4014 1.74876E-03-1.76515E-05-2.73207E-15
 -1      4015 8.75775E-03-9.97105E-06-5.01893E-14
 -1      4016 2.91717E-03-7.84379E-05-6.80227E-15
 -1      4017 3.06248E-03-7.87692E-05-7.42719E-15
 -1      4018 3.20767E-03-7.89934E-05-8.07807E-15
 -1      4019 3.35273E-03-7.91109E-05-8.75508E-15
 -1      4020 3.13439E-03-4.09079E-05-7.72753E-15
 -1      4021 3.49764E-03-7.91577E-05-9.45785E-15
 -1      4022 3.64239E-03-7.91294E-05-1.01854E-14
 -1      4023 3.42462E-03-4.10363E-05-9.07824E-15
 -1      4024 3.78697E-03-7.90539E-05-1.09380E-14
 -1      4025 3.93139E-03-7.89247E-05-1.17164E-14
 -1      4026 3.71423E-03-4.10103E-05-1.05313E-14
 -1      4027 4.07564E-03-7.87633E-05-1.25205E-14
 -1      4028 4.21973E-03-7.85610E-05-1.33496E-14
 -1      4029 4.00315E-03-4.08716E-05-1.20856E-14
 -1      4030 4.36365E-03-7.83334E-05-1.42035E-14
 -1      4031 4.50741E-03-7.80698E-05-1.50820E-14
 -1      4032 4.29140E-03-4.06434E-05-1.37424E-14
 -1      4033 4.65101E-03-7.77805E-05-1.59850E-14
 -1      4034 4.79446E-03-7.74524E-05-1.69128E-14
 -1      4035 4.57897E-03-4.03279E-05-1.54975E-14
 -1      4036 4.93775E-03-7.70904E-05-1.78632E-14
 -1      4037 5.08090E-03-7.66784E-05-1.88370E-14
 -1      4038 4.86589E-03-3.99039E-05-1.73497E-14
 -1      4039 5.22390E-03-7.62158E-05-1.98341E-14
 -1      4040 5.36675E-03-7.56821E-05-2.08536E-14
 -1      4041 5.15217E-03-3.93223E-05-1.92955E-14
 -1      4042 5.50946E-03-7.50706E-05-2.18962E-14
 -1      4043 5.65204E-03-7.43549E-05-2.29609E-14
 -1      4044 5.43781E-03-3.84975E-05-2.13329E-14
 -1      4045 5.79448E-03-7.35205E-05-2.40467E-14
 -1      4046 5.93679E-03-7.25340E-05-2.51541E-14
 -1      4047 5.72282E-03-3.72953E-05-2.34583E-14
 -1      4048 6.07899E-03-7.13711E-05-2.62833E-14
 -1      4049 6.22109E-03-6.99909E-05-2.74343E-14
 -1      4050 6.00721E-03-3.55164E-05-2.56699E-14
 -1      4051 6.36311E-03-6.83564E-05-2.86083E-14
 -1      4052 6.50509E-03-6.64211E-05-2.98022E-14
 -1      4053 6.29101E-03-3.28783E-05-2.79696E-14
 -1      4054 6.64705E-03-6.41329E-05-3.10165E-14
 -1      4055 6.78907E-03-6.14462E-05-3.22525E-14
 -1      4056 6.57432E-03-2.89983E-05-3.03538E-14
 -1      4057 6.93120E-03-5.82920E-05-3.35080E-14
 -1      4058 7.07358E-03-5.46428E-05-3.47820E-14
 -1      4059 6.85739E-03-2.33891E-05-3.28205E-14
 -1      4060 7.21627E-03-5.04130E-05-3.60765E-14
 -1      4061 7.35951E-03-4.56240E-05-3.73892E-14
 -1      4062 7.14071E-03-1.54860E-05-3.53666E-14
 -1      4063 7.50342E-03-4.01834E-05-3.87181E-14
 -1      4064 7.64834E-03-3.42233E-05-4.00649E-14
 -1      4065 7.42517E-03-4.72682E-06-3.79872E-14
 -1      4066 7.79450E-03-2.76574E-05-4.14294E-14
 -1      4067 7.94234E-03-2.08343E-05-4.28082E-14
 -1      4068 7.71232E-03 9.21600E-06-4.06772E-14
 -1      4069 8.09222E-03-1.37064E-05-4.42013E-14
 -1      4070 8.24469E-03-6.93909E-06-4.56068E-14
 -1      4071 8.00466E-03 2.60346E-05-4.34305E-14
 -1      4072 8.41656E-03-7.77237E-06-4.71649E-14
 -1      4073 8.57634E-03-3.63535E-06-4.85997E-14
 -1      4074 8.67438E-03 3.57682E-05-4.95228E-14
 -1      4075 8.32225E-03 3.75879E-05-4.63767E-14
 -1      4076 8.51911E-03 8.93616E-05-4.82672E-14
 -1      4077 5.83318E-03 8.41620E-05-2.41291E-14
 -1      4078 5.69114E-03 8.39244E-05-2.30432E-14
 -1      4079 5.26373E-03 8.38425E-05-1.99158E-14
 -1      4080 5.12087E-03 8.39560E-05-1.89178E-14
 -1      4081 2.53650E-03 1.53580E-04-5.11967E-15
 -1      4082 2.36944E-03 1.46480E-04-4.53297E-15
 -1      4083 2.29642E-03 1.06858E-04-4.32631E-15
 -1      4084 2.60521E-03 1.17128E-04-5.41712E-15
 -1      4085 6.39863E-03 8.72410E-05-2.86880E-14
 -1      4086 6.25772E-03 8.60526E-05-2.75171E-14
 -1      4087 6.67936E-03 9.09348E-05-3.10955E-14
 -1      4088 6.53919E-03 8.88489E-05-2.98812E-14
 -1      4089 6.46963E-03 5.26659E-05-2.93475E-14
 -1      4090 6.95847E-03 9.70664E-05-3.35833E-14
 -1      4091 6.81915E-03 9.36459E-05-3.23300E-14
 -1      4092 6.75075E-03 5.72927E-05-3.17787E-14
 -1      4093 7.22198E-03 1.06119E-04-3.60170E-14
 -1      4094 7.09045E-03 1.01143E-04-3.47916E-14
 -1      4095 7.02374E-03 6.42896E-05-3.42257E-14
 -1      4096 7.49774E-03 1.20311E-04-3.86497E-14
 -1      4097 7.36010E-03 1.12542E-04-3.73236E-14
 -1      4098 7.29585E-03 7.46579E-05-3.67436E-14
 -1      4099 7.77249E-03 1.40692E-04-4.13496E-14
 -1      4100 7.63525E-03 1.29639E-04-3.99915E-14
 -1      4101 7.57460E-03 8.98654E-05-3.93965E-14
 -1      4102 2.33547E-03-7.54432E-05-4.56694E-15
 -1      4103 2.48087E-03-7.64923E-05-5.08556E-15
 -1      4104 4.69485E-03 8.44720E-05-1.60830E-14
 -1      4105 4.55850E-03 8.46679E-05-1.52220E-14
 -1      4106 2.14405E-03 5.97093E-05-3.86517E-15
 -1      4107 2.01449E-03 3.54556E-05-3.47618E-15
 -1      4108 5.54887E-03 8.38050E-05-2.19794E-14
 -1      4109 5.40640E-03 8.37901E-05-2.09370E-14
 -1      4110 5.33490E-03 4.69602E-05-2.04797E-14
 -1      4111 1.40481E-02 1.76547E-03-9.30226E-14
 -1      4112 1.40050E-02 1.72702E-03-9.18925E-14
 -1      4113 1.39716E-02 1.74459E-03-9.33527E-14
 -1      4114 8.37744E-03 1.34548E-04-4.71208E-14
 -1      4115 8.27675E-03 1.77859E-04-4.63412E-14
 -1      4116 4.97963E-03 8.41017E-05-1.79544E-14
 -1      4117 4.83643E-03 8.42820E-05-1.70007E-14
 -1      4118 4.76807E-03 4.69570E-05-1.66073E-14
 -1      4119 5.05093E-03 4.68768E-05-1.84924E-14
 -1      4120 6.11649E-03 8.51756E-05-2.63664E-14
 -1      4121 5.97497E-03 8.45709E-05-2.52361E-14
 -1      4122 6.18738E-03 4.98321E-05-2.70013E-14
 -1      4123 8.18870E-03 2.16388E-04-4.56460E-14
 -1      4124 2.62632E-03-7.73252E-05-5.63141E-15
 -1      4125 2.77177E-03-7.79593E-05-6.20360E-15
 -1      4126 2.84367E-03-4.05509E-05-6.48078E-15
 -1      4127 2.05949E-03-4.48683E-05-3.64998E-15
 -1      4128 2.20460E-03-4.58396E-05-4.11619E-15
 -1      4129 1.30579E-02 1.30033E-03-8.93723E-14
 -1      4130 8.13682E-03 1.68644E-04-4.49743E-14
 -1      4131 2.27674E-03-1.01737E-05-4.34369E-15
 -1      4132 5.61991E-03 4.73357E-05-2.25664E-14
 -1      4133 2.69098E-03 8.23123E-05-5.78065E-15
 -1      4134 2.53652E-03 7.78490E-05-5.20138E-15
 -1      4135 8.35738E-03 8.58726E-05-4.67983E-14
 -1      4136 5.90411E-03 4.81964E-05-2.47403E-14
 -1      4137 3.55280E-03 8.56809E-05-9.58610E-15
 -1      4138 3.40796E-03 8.56660E-05-8.87958E-15
 -1      4139 4.41481E-03 8.48695E-05-1.43387E-14
 -1      4140 4.27095E-03 8.50708E-05-1.34808E-14
 -1      4141 4.48275E-03 4.71198E-05-1.48039E-14
 -1      4142 1.34274E-02 1.48883E-03-9.08687E-14
 -1      4143 1.35469E-02 1.55754E-03-9.21936E-14
 -1      4144 1.36686E-02 1.61327E-03-9.25206E-14
 -1      4145 2.41736E-03 7.11631E-05-4.77760E-15
 -1      4146 2.26300E-03 6.64665E-05-4.24988E-15
 -1      4147 2.26567E-03 2.42551E-05-4.28862E-15
 -1      4148 2.50373E-03 3.67201E-05-5.11541E-15
 -1      4149 2.55267E-03-3.98800E-05-5.33971E-15
 -1      4150 7.88871E-03 1.50296E-04-4.25087E-14
 -1      4151 7.83258E-03 1.07664E-04-4.19018E-14
 -1      4152 8.00526E-03 1.61254E-04-4.36768E-14
 -1      4153 1.38273E-02 1.63760E-03-9.04084E-14
 -1      4154 1.73009E-03-4.05024E-05-2.68706E-15
 -1      4155 1.72488E-03-6.59021E-05-2.67654E-15
 -1      4156 1.81384E-03-7.13170E-05-2.92323E-15
 -1      4157 1.85076E-03-2.46322E-05-3.01929E-15
 -1      4158 3.69749E-03 8.56425E-05-1.03180E-14
 -1      4159 3.62458E-03 4.75658E-05-9.99037E-15
 -1      4160 3.84200E-03 8.55443E-05-1.10755E-14
 -1      4161 1.34423E-02 1.46450E-03-8.84156E-14
 -1      4162 1.33285E-02 1.42078E-03-8.87013E-14
 -1      4163 1.36367E-02 1.56059E-03-8.99009E-14
 -1      4164 2.00808E-03 8.36026E-06-3.47110E-15
 -1      4165 1.31257E-02 1.32959E-03-8.88744E-14
 -1      4166 2.97994E-03 8.33368E-05-6.95280E-15
 -1      4167 2.83550E-03 8.29105E-05-6.35391E-15
 -1      4168 2.76744E-03 4.33936E-05-6.11720E-15
 -1      4169 1.92128E-03-5.30079E-05-3.23159E-15
 -1      4170 3.06150E-03-2.90936E-06-7.38060E-15
 -1      4171 3.20677E-03-2.91300E-06-8.02806E-15
 -1      4172 6.23897E-03 8.53848E-06-2.74863E-14
 -1      4173 6.09733E-03 7.32012E-06-2.63355E-14
 -1      4174 3.37946E-03 3.25894E-06-8.82782E-15
 -1      4175 3.52441E-03 3.26727E-06-9.53232E-15
 -1      4176 3.66920E-03 3.26449E-06-1.02625E-14
 -1      4177 3.81382E-03 3.27202E-06-1.10176E-14
 -1      4178 4.24305E-03 3.29457E-06-1.34154E-14
 -1      4179 4.38698E-03 3.32132E-06-1.42716E-14
 -1      4180 4.53075E-03 3.35348E-06-1.51522E-14
 -1      4181 4.67435E-03 3.40965E-06-1.60575E-14
 -1      4182 4.81599E-03 3.48149E-06-1.69744E-14
 -1      4183 4.95925E-03 3.59098E-06-1.79264E-14
 -1      4184 5.10056E-03 3.73234E-06-1.88895E-14
 -1      4185 5.24349E-03 3.93309E-06-1.98870E-14
 -1      4186 5.38625E-03 4.19426E-06-2.09077E-14
 -1      4187 5.52884E-03 4.54649E-06-2.19495E-14
 -1      4188 5.67124E-03 4.99954E-06-2.30129E-14
 -1      4189 5.81346E-03 5.59406E-06-2.40992E-14
 -1      4190 5.95549E-03 6.34948E-06-2.52064E-14
 -1      4191 6.38042E-03 1.00756E-05-2.86591E-14
 -1      4192 6.52167E-03 1.19814E-05-2.98520E-14
 -1      4193 6.66275E-03 1.43443E-05-3.10655E-14
 -1      4194 6.80365E-03 1.72365E-05-3.23012E-14
 -1      4195 6.94446E-03 2.07571E-05-3.35552E-14
 -1      4196 7.07814E-03 2.47724E-05-3.47644E-14
 -1      4197 7.21892E-03 2.97986E-05-3.60562E-14
 -1      4198 7.35976E-03 3.57628E-05-3.73657E-14
 -1      4199 7.50097E-03 4.27097E-05-3.86925E-14
 -1      4200 7.64259E-03 5.07927E-05-4.00365E-14
 -1      4201 7.78511E-03 5.98830E-05-4.13983E-14
 -1      4202 7.90628E-03 6.72740E-05-4.25586E-14
 -1      4203 8.05144E-03 7.81598E-05-4.39451E-14
 -1      4204 8.19001E-03 8.08735E-05-4.52465E-14
 -1      4205 2.39565E-03-4.42685E-06-4.75264E-15
 -1      4206 1.31984E-02 1.35942E-03-8.83730E-14
 -1      4207 3.30716E-03 4.13492E-05-8.45235E-15
 -1      4208 3.23527E-03 7.93600E-05-8.08057E-15
 -1      4209 8.08571E-03 1.21703E-04-4.43585E-14
 -1      4210 1.90301E-03-7.67328E-05-3.18094E-15
 -1      4211 4.12874E-03 8.52498E-05-1.26572E-14
 -1      4212 3.98455E-03 8.54165E-05-1.18483E-14
 -1      4213 3.91191E-03 4.74704E-05-1.14986E-14
 -1      4214 4.19676E-03 4.73070E-05-1.30961E-14
 -1      4215 2.51464E-03 1.46295E-06-5.17788E-15
 -1      4216 2.66017E-03 1.48489E-06-5.72646E-15
 -1      4217 1.37415E-02 1.62938E-03-9.17116E-14
 -1      4218 2.80478E-03 1.48964E-06-6.29836E-15
 -1      4219 2.95024E-03 1.50448E-06-6.89970E-15
 -1      4220 3.09101E-03 7.91665E-05-7.43558E-15
 -1      4221 1.38538E-02 1.69467E-03-9.30348E-14
 -1      4222 3.95647E-03 3.27201E-06-1.17879E-14
 -1      4223 4.10074E-03 3.28446E-06-1.25948E-14
 -1      4224 3.02319E-03 3.94060E-05-7.18036E-15
 -3
    1PSTEP                         2           1           1          
  100CL  101 1.000000000        4224                     0    1           1
 -4  STRESS      6    1
 -5  SXX         1    4    1    1
 -5  SYY         1    4    2    2
 -5  SZZ         1    4    3    3
 -5  SXY         1    4    1    2
 -5  SYZ         1    4    2    3
 -5  SZX         1    4    3    1
 -1         1 4.45017E+01 9.92142E+00 2.31856E+00-2.01314E+01-4.96075E-13 6.14009E-13
 -1         2-8.93900E-01-2.75288E+01-3.50134E+00-2.66026E-01 1.59647E-12 9.31130E-14
 -1         3 1.99831E+01-2.36122E-02 2.71920E-02-2.32862E-02 3.30432E-13 5.35133E-13
 -1         4 2.00006E+01 9.43051E-04-6.86159E-04-8.96025E-04-4.18498E-14 1.90806E-13
 -1         5 3.60434E+01 1.23914E+01 5.26104E+00 8.76233E+00 1.17739E-13 2.96102E-12
 -1         6 3.57640E+01 1.22675E+01 5.12750E+00-8.64949E+00-1.72792E-13 2.50894E-12
 -1         7 2.08237E+01 6.10117E+00-1.28769E-01-4.72724E+00-2.46470E-14 3.67685E-13
 -1         8 1.96754E+01 5.93604E+00 5.09352E-02-3.27632E+00-3.37647E-14-2.63194E-13
 -1         9 1.91393E+01 5.77260E+00 4.90558E-02-2.52825E+00-2.45689E-14-5.94118E-13
 -1        10 1.88967E+01 5.69255E+00 5.10169E-02-1.95333E+00-1.60150E-14-7.52823E-13
 -1        11 1.87744E+01 5.65143E+00 5.02073E-02-1.45844E+00-1.11734E-14-8.12930E-13
 -1        12 1.87101E+01 5.62958E+00 4.86756E-02-1.01799E+00-5.22195E-15-8.23404E-13
 -1        13 1.86760E+01 5.61800E+00 4.73375E-02-5.98816E-01-1.78677E-15-8.18173E-13
 -1        14 1.86615E+01 5.61303E+00 4.65975E-02-1.95431E-01 4.00987E-15-8.05431E-13
 -1        15 1.86617E+01 5.61308E+00 4.66056E-02 2.02980E-01 8.87571E-15-7.84403E-13
 -1        16 1.86765E+01 5.61817E+00 4.73716E-02 6.06586E-01 1.25629E-14-7.63742E-13
 -1        17 1.87112E+01 5.62985E+00 4.87938E-02 1.02635E+00 1.42382E-14-7.15027E-13
 -1        18 1.87761E+01 5.65195E+00 5.03806E-02 1.46736E+00 1.78434E-14-6.33674E-13
 -1        19 1.89004E+01 5.69377E+00 5.12013E-02 1.96351E+00 2.83462E-14-5.13143E-13
 -1        20 1.91453E+01 5.77480E+00 4.87740E-02 2.54059E+00 3.39347E-14-2.87677E-13
 -1        21 1.96880E+01 5.94156E+00 5.02015E-02 3.29079E+00 3.80945E-14 1.49089E-13
 -1        22 2.08088E+01 6.12327E+00-1.30981E-01 4.73392E+00 1.63897E-14 8.79536E-13
 -1        23 2.30366E+01-1.37958E+00-9.38530E-01-7.11524E-01-1.18440E-13 1.90979E-12
 -1        24 1.93720E+01-9.95266E-02-3.09938E-01 6.32029E-02-3.04895E-14 1.38736E-12
 -1        25 1.86827E+01-5.63511E-02-6.88235E-02 6.07169E-02-2.50529E-14 8.75062E-13
 -1        26 1.84796E+01-2.21099E-02-6.50976E-03 3.29551E-02-1.15533E-15 5.10182E-13
 -1        27 1.84906E+01-1.18240E-02 1.53977E-03 2.26030E-02-3.91581E-15 2.71392E-13
 -1        28 1.86048E+01-6.25906E-03 1.75555E-03 1.63135E-02-5.81566E-16 1.62072E-13
 -1        29 1.87650E+01-3.10374E-03 1.70235E-03 1.21683E-02-2.32485E-15 2.61909E-14
 -1        30 1.89399E+01-1.25037E-03 1.88463E-03 9.21624E-03 6.24570E-15-1.86818E-13
 -1        31 1.91118E+01-1.58876E-04 2.04207E-03 7.00015E-03-1.19951E-14-3.65346E-13
 -1        32 1.92709E+01 4.61016E-04 2.06697E-03 5.28783E-03-2.50227E-14-6.34544E-13
 -1        33 1.94126E+01 7.78384E-04 1.96555E-03 3.94984E-03 5.79935E-14-6.45556E-13
 -1        34 1.95351E+01 8.98690E-04 1.77457E-03 2.90543E-03-2.04151E-14-6.19940E-13
 -1        35 1.96390E+01 8.91235E-04 1.52884E-03 2.09906E-03 2.96398E-14-6.62493E-13
 -1        36 1.97261E+01 8.03307E-04 1.25432E-03 1.49011E-03 6.97860E-16-4.66663E-13
 -1        37 1.97988E+01 6.68401E-04 9.69139E-04 1.04839E-03-6.90184E-14-3.21750E-13
 -1        38 1.98601E+01 5.11782E-04 6.86515E-04 7.51906E-04-1.52540E-14-4.35629E-13
 -1        39 1.99130E+01 3.54932E-04 4.18298E-04 5.85436E-04-9.86992E-15-6.58769E-13
 -1        40 1.99604E+01 2.19558E-04 1.79206E-04 5.38819E-04 1.58938E-14-8.60554E-13
 -1        41 2.00050E+01 1.31441E-04-8.13751E-06 6.04087E-04 3.24548E-15-1.05812E-12
 -1        42 2.00486E+01 1.23986E-04-1.07375E-04 7.70540E-04-5.27785E-15-1.10409E-12
 -1        43 2.00918E+01 2.40832E-04-6.23535E-05 1.01669E-03 4.99380E-15-9.80796E-13
 -1        44 2.01335E+01 5.36211E-04 2.07526E-04 1.29810E-03 2.23539E-14-7.63471E-13
 -1        45 2.01697E+01 1.07077E-03 8.07139E-04 1.53083E-03-3.22474E-15-6.97687E-13
 -1        46 2.01925E+01 1.89967E-03 1.85470E-03 1.57192E-03-2.80284E-14-8.56750E-13
 -1        47 2.01887E+01 3.04936E-03 3.45158E-03 1.20226E-03 2.43161E-14-7.41070E-13
 -1        48 2.01394E+01 4.48081E-03 5.62373E-03 1.23379E-04-3.97975E-15-5.65722E-13
 -1        49 2.00198E+01 6.04205E-03 8.23148E-03-2.01227E-03 2.10856E-14-6.94678E-13
 -1        50 1.98014E+01 7.42347E-03 1.08620E-02-5.51226E-03-9.40626E-14-9.45165E-13
 -1        51 1.94565E+01 8.14427E-03 1.27512E-02-1.04770E-02 3.96661E-14-9.99353E-13
 -1        52 1.89677E+01 7.61312E-03 1.28268E-02-1.65670E-02-2.54243E-14-4.92474E-13
 -1        53 1.83380E+01 5.30076E-03 9.97455E-03-2.27862E-02-1.73593E-14-4.71096E-13
 -1        54 1.76033E+01 1.01687E-03 3.56673E-03-2.74508E-02-5.50655E-14-5.09981E-13
 -1        55 1.68373E+01-4.80636E-03-5.90782E-03-2.85405E-02-6.14546E-14-6.53371E-13
 -1        56 1.61454E+01-1.10115E-02-1.65067E-02-2.44815E-02 5.01910E-14-6.70135E-13
 -1        57 1.56438E+01-1.59654E-02-2.52138E-02-1.50815E-02 3.31175E-14-6.77087E-13
 -1        58 1.54271E+01-1.81559E-02-2.91134E-02-2.03560E-03-2.11943E-14-9.19430E-13
 -1        59 1.55376E+01-1.68619E-02-2.67925E-02 1.14904E-02 1.68373E-14-7.99655E-13
 -1        60 1.59503E+01-1.25032E-02-1.90788E-02 2.21227E-02 5.61567E-14-5.85646E-13
 -1        61 1.65820E+01-6.43910E-03-8.61452E-03 2.76637E-02-1.05117E-14-4.55009E-13
 -1        62 1.73182E+01-3.48049E-04 1.46313E-03 2.77917E-02-5.79236E-14-1.16338E-12
 -1        63 1.80474E+01 4.42466E-03 8.82704E-03 2.37859E-02 8.93141E-14-1.29172E-12
 -1        64 1.86856E+01 7.22705E-03 1.25723E-02 1.76497E-02-1.45350E-14-1.23204E-12
 -1        65 1.91875E+01 8.08697E-03 1.30465E-02 1.12487E-02-1.72744E-13-1.16850E-12
 -1        66 1.95437E+01 7.46450E-03 1.12623E-02 5.83577E-03 1.02773E-13-1.24209E-12
 -1        67 1.97705E+01 5.96648E-03 8.33114E-03 1.98809E-03 6.73927E-14-5.64243E-13
 -1        68 1.98980E+01 4.16604E-03 5.16547E-03-1.97825E-04-2.97700E-14-1.98938E-13
 -1        69 1.99605E+01 2.52518E-03 2.53853E-03-8.83595E-04-4.47477E-14-1.81684E-13
 -1        70 1.99879E+01 1.28820E-03 1.02431E-03-6.61317E-04 7.14322E-14-5.97790E-14
 -1        71 1.99990E+01 3.03006E-04 5.05164E-04-2.08760E-04 7.65508E-15 5.86956E-13
 -1        72 2.32613E+01-1.33974E+00-9.29475E-01 8.03076E-01 9.30332E-14 2.50100E-12
 -1        73 1.94352E+01-1.08301E-01-3.28983E-01-6.58273E-02 3.21557E-14 2.06061E-12
 -1        74 1.87030E+01-5.80589E-02-7.48563E-02-6.17280E-02 1.77898E-14 1.54842E-12
 -1        75 1.84839E+01-2.29796E-02-8.06009E-03-3.36920E-02 1.33913E-14 1.21415E-12
 -1        76 1.84874E+01-1.21847E-02 1.32409E-03-2.29745E-02 5.89969E-15 9.91790E-13
 -1        77 1.85978E+01-6.46479E-03 1.72535E-03-1.65480E-02 8.53435E-15 7.48276E-13
 -1        78 1.87564E+01-3.22096E-03 1.68795E-03-1.23327E-02 1.91296E-14 6.30563E-13
 -1        79 1.89308E+01-1.33078E-03 1.88303E-03-9.33995E-03 7.98420E-16 6.13344E-13
 -1        80 1.91023E+01-2.39962E-04 2.00870E-03-7.09502E-03 1.25802E-14 5.30540E-13
 -1        81 1.92547E+01 5.02767E-04 2.13630E-03-5.40915E-03-4.88117E-15 5.23320E-13
 -1        82 1.93975E+01 7.67618E-04 2.01014E-03-4.04971E-03 1.42503E-14 4.44240E-13
 -1        83 1.95210E+01 9.08079E-04 1.83777E-03-2.95413E-03-1.31781E-14 4.37797E-13
 -1        84 1.96255E+01 9.08244E-04 1.60887E-03-2.09571E-03 2.55052E-16 3.70100E-13
 -1        85 1.97124E+01 8.15907E-04 1.34948E-03-1.42153E-03 3.17433E-14 1.11346E-13
 -1        86 1.97842E+01 6.57623E-04 1.07340E-03-8.92857E-04 2.19874E-14-2.72142E-14
 -1        87 1.98440E+01 4.45517E-04 7.84108E-04-4.77569E-04-6.37587E-14-8.24889E-14
 -1        88 1.98953E+01 1.78395E-04 4.74077E-04-1.49131E-04-4.62024E-15 7.27490E-14
 -1        89 1.99421E+01-1.62202E-04 1.20470E-04 1.14267E-04-3.56875E-14 3.09882E-13
 -1        90 1.99893E+01-5.51129E-04-3.09123E-04 2.76102E-04 5.43554E-14 7.64331E-14
 -1        91 2.00403E+01-1.19344E-03-8.69004E-04 4.85119E-04 2.58089E-14 1.27829E-13
 -1        92 2.01083E+01-2.00852E-03-1.69925E-03 5.61027E-04-5.64285E-14 6.39102E-14
 -1        93 2.02030E+01-3.23834E-03-2.99209E-03 5.11404E-04 6.63066E-14 1.73703E-13
 -1        94 2.03426E+01-5.06964E-03-5.07506E-03 1.75759E-04-5.74335E-14 8.06610E-14
 -1        95 2.05550E+01-7.81476E-03-8.52940E-03-7.71099E-04 4.73894E-14 2.18417E-14
 -1        96 2.08846E+01-1.19016E-02-1.43657E-02-3.00337E-03-1.31449E-15-2.34407E-14
 -1        97 2.14014E+01-1.78434E-02-2.42961E-02-7.88796E-03 1.93704E-15-5.81002E-14
 -1        98 2.22150E+01-2.60306E-02-4.09093E-02-1.81341E-02-4.06914E-14 3.32165E-14
 -1        99 2.34924E+01-3.67955E-02-6.70437E-02-3.84905E-02 5.87226E-14 1.25988E-13
 -1       100 2.54674E+01-4.31728E-02-9.95817E-02-8.24564E-02-2.12282E-14-1.11376E-13
 -1       101 2.82600E+01-4.54091E-02-1.21093E-01-1.42099E-01-2.41283E-14-2.45706E-14
 -1       102 3.23190E+01-1.77702E-02-6.70219E-02-2.40445E-01 5.45035E-14-6.98469E-14
 -1       103 3.71577E+01 6.10949E-02 1.82972E-01-3.08505E-01-1.01424E-13 4.92037E-13
 -1       104 4.07605E+01 1.27201E-01 6.06453E-01-6.51614E-02-6.27736E-14 1.10111E-12
 -1       105 3.94077E+01 1.45713E-01 7.15804E-01 6.17553E-01 7.66002E-14 8.88345E-13
 -1       106 3.03131E+01 5.49471E-03-3.87927E-01 1.61157E+00 5.71427E-14 4.15001E-13
 -1       107 1.91907E+01-9.92265E-02-2.13519E+00 1.22059E+00-1.16664E-13-7.92144E-14
 -1       108 1.55049E+01-1.82751E-01-2.82669E+00-3.74425E-01 1.07983E-13 6.16104E-14
 -1       109 2.45107E+01-1.78521E-01-1.26238E+00-1.59316E+00-4.45997E-14-7.87037E-13
 -1       110 3.60017E+01 5.45140E-02 3.79147E-01-9.66438E-01-1.24865E-14 1.34615E-13
 -1       111 4.08918E+01 1.61405E-01 7.92462E-01-1.70638E-01-5.25847E-14 5.40734E-13
 -1       112 3.90294E+01 8.27665E-02 3.73200E-01 2.33290E-01 7.97036E-14 2.86569E-13
 -1       113 3.45303E+01 6.30005E-03 2.26978E-02 2.47880E-01-5.04125E-14 2.59792E-14
 -1       114 2.99324E+01-3.22348E-02-1.11538E-01 1.67788E-01 5.84862E-15 2.29594E-13
 -1       115 2.64139E+01-4.05938E-02-1.14452E-01 9.53269E-02-6.81096E-14 5.05894E-13
 -1       116 2.39767E+01-3.49691E-02-8.14411E-02 5.06659E-02-4.18871E-15 5.78582E-13
 -1       117 2.23527E+01-2.64039E-02-5.12061E-02 2.67400E-02-1.77720E-14 5.82357E-13
 -1       118 2.12826E+01-1.92390E-02-3.20001E-02 1.48400E-02 1.63113E-13 6.53358E-13
 -1       119 2.05841E+01-1.46545E-02-2.30088E-02 8.94340E-03-1.43754E-13 8.11052E-13
 -1       120 2.01572E+01-1.25001E-02-2.03572E-02 3.41450E-03 6.50166E-14 1.39124E-12
 -1       121 1.99812E+01-3.13373E-03-5.58216E-03-1.31196E-02-6.57881E-14 1.64570E-12
 -1       122 1.99969E+01-2.59035E-02-9.44363E-03-1.39439E-02 1.70581E-12 3.62411E-14
 -1       123 1.99985E+01 1.68788E-01-1.42850E-02 6.20644E-03 1.60884E-12-3.37831E-13
 -1       124 2.00023E+01 5.20926E-01-1.78773E-03 1.52996E-02 2.42339E-12-7.34317E-14
 -1       125 2.00053E+01 8.79444E-01 9.94556E-03 1.63778E-02 1.26130E-12-1.15646E-13
 -1       126 2.00061E+01 1.12910E+00 1.61312E-02 1.20335E-02-2.44472E-13 1.34680E-13
 -1       127 2.00053E+01 1.21083E+00 1.61713E-02 5.49781E-03-1.87019E-12-2.61864E-14
 -1       128 2.00031E+01 1.12706E+00 1.15932E-02-1.20572E-03-3.23118E-12-2.19977E-13
 -1       129 2.00007E+01 9.20096E-01 5.13406E-03-5.94951E-03-3.32278E-12-1.08751E-13
 -1       130 1.99987E+01 6.55158E-01-9.60750E-04-8.07205E-03-4.26259E-13 3.86028E-13
 -1       131 1.99974E+01 3.95299E-01-5.23456E-03-7.77051E-03 5.29235E-13-5.93639E-13
 -1       132 1.99970E+01 1.86435E-01-7.10252E-03-5.71975E-03 9.41288E-13 4.06062E-13
 -1       133 1.99973E+01 5.15569E-02-6.77834E-03-3.10815E-03 1.63031E-12-3.76341E-13
 -1       134 1.99981E+01-1.46536E-02-4.79630E-03-5.23079E-04 1.17816E-12 1.57484E-13
 -1       135 1.99992E+01-2.78271E-02-2.12059E-03 1.26758E-03 4.63323E-14-1.69871E-13
 -1       136 1.99999E+01-1.45291E-02 2.32427E-04 1.75385E-03-1.59336E-12-9.01249E-14
 -1       137 1.99999E+01-1.69958E-03 4.51996E-04 4.10356E-04-8.84373E-13-5.53758E-14
 -1       138-2.05040E+00-2.56461E+01-3.62827E+00-5.37745E+00 1.24523E-12-4.47443E-14
 -1       139-3.51131E+00-1.55979E+01-3.35197E+00-6.37195E+00 4.65461E-13 4.99295E-13
 -1       140-6.20074E-02-2.21178E+00-2.52752E+00-3.72644E-01 1.58873E-12 1.19693E-12
 -1       141 1.23417E+01 7.25711E+00-1.00630E+00 9.73205E+00 1.20637E-12 1.39955E-12
 -1       142 3.62207E+01 9.89184E+00 1.48640E+00 1.86261E+01 4.90996E-13 8.17457E-13
 -1       143 6.62502E+01 6.22863E+00 4.60627E+00 1.81506E+01 2.50577E-13 1.30373E-12
 -1       144 8.68327E+01 2.19411E+00 6.85400E+00 5.93467E+00 1.41748E-13 1.04419E-12
 -1       145 8.35385E+01 2.94766E+00 6.58022E+00-1.05094E+01 1.50623E-13 1.35669E-13
 -1       146 5.47870E+01 8.05900E+00 3.45235E+00-1.96483E+01 5.62633E-13-1.33116E-12
 -1       147 2.36807E+01 9.13162E+00 1.47275E-01-1.48384E+01 1.17401E-12-1.63980E-12
 -1       148 4.10869E+00 2.79335E+00-2.00394E+00-3.85227E+00 1.68643E-12-1.62725E-12
 -1       149-2.85667E+00-9.47059E+00-3.09580E+00 4.45807E+00 1.91575E-12-1.28325E-12
 -1       150-2.99876E+00-2.19547E+01-3.59468E+00 6.82915E+00 1.45750E-12-5.35030E-13
 -1       151-1.09155E+00-2.80486E+01-3.63830E+00 2.77534E+00 1.09391E-12-1.24900E-14
 -1       152-9.64442E-01-2.42239E+01-3.24158E+00-2.25288E+00 1.62870E-13-2.70825E-14
 -1       153-1.54814E+00-1.29081E+01-2.46557E+00-3.51148E+00-5.68712E-13-2.45109E-13
 -1       154 1.52932E+00 1.40235E+00-1.29457E+00 2.00146E+00-1.63636E-12-1.10528E-12
 -1       155 1.11313E+01 1.08989E+01 3.39101E-02 1.10240E+01-1.76276E-12-1.73422E-12
 -1       156 2.88312E+01 1.29489E+01 1.41630E+00 1.89522E+01-1.26399E-12-1.69825E-12
 -1       157 4.89199E+01 8.76199E+00 2.55714E+00 1.98029E+01-5.13256E-13-1.28053E-12
 -1       158 6.55198E+01 3.18858E+00 3.35013E+00 1.21967E+01-2.68969E-13-1.18336E-12
 -1       159 7.10720E+01 9.60768E-01 3.59228E+00-1.35687E+00 3.66512E-14-7.18814E-13
 -1       160 6.30889E+01 4.14179E+00 3.22377E+00-1.40150E+01 9.48547E-14-2.91767E-13
 -1       161 2.24304E+01 1.31336E+01 9.66772E-01-1.69585E+01-1.19782E-12 1.52300E-12
 -1       162 6.27832E+00 7.81232E+00-5.40203E-01-7.19618E+00-9.24538E-13 7.50400E-13
 -1       163-7.75091E-01-4.96000E+00-1.88097E+00 1.52024E+00 3.90576E-13 5.61495E-14
 -1       164-1.36014E+00-1.92081E+01-2.91518E+00 3.70332E+00 8.75744E-13-3.66672E-13
 -1       165 2.10176E+01 3.69503E+00-5.73890E-02-3.61231E+00-3.84540E-13 3.86149E-14
 -1       166 1.99938E+01 4.20833E+00-4.58085E-02-2.81109E+00-3.43585E-13-3.45175E-13
 -1       167 1.95085E+01 4.47891E+00-3.17249E-02-2.19714E+00-2.60800E-13-5.53080E-13
 -1       168 1.92688E+01 4.61544E+00-2.38179E-02-1.67705E+00-1.87808E-13-6.55604E-13
 -1       169 1.91369E+01 4.69813E+00-1.95741E-02-1.22172E+00-1.17632E-13-6.90174E-13
 -1       170 1.90625E+01 4.74897E+00-1.74305E-02-7.95319E-01-5.70677E-14-6.92572E-13
 -1       171 1.90248E+01 4.77699E+00-1.64001E-02-3.90685E-01 5.70925E-15-6.73935E-13
 -1       172 1.90133E+01 4.78586E+00-1.60963E-02 3.72956E-03 6.57924E-14-6.64250E-13
 -1       173 1.90253E+01 4.77665E+00-1.64131E-02 3.98240E-01 1.22212E-13-6.48177E-13
 -1       174 1.90637E+01 4.74814E+00-1.74386E-02 8.03171E-01 1.69383E-13-6.17465E-13
 -1       175 1.91374E+01 4.69759E+00-1.95406E-02 1.22287E+00 2.31837E-13-5.49292E-13
 -1       176 1.92716E+01 4.61415E+00-2.36095E-02 1.68660E+00 3.10110E-13-4.61889E-13
 -1       177 1.95184E+01 4.47377E+00-3.15019E-02 2.20915E+00 3.70988E-13-3.10236E-13
 -1       178 2.00058E+01 4.20343E+00-4.60346E-02 2.82423E+00 3.97523E-13-1.88391E-14
 -1       179 2.10395E+01 3.68014E+00-5.43952E-02 3.63323E+00 3.85754E-13 4.49488E-13
 -1       180 2.19765E+01 8.58605E-01 6.15302E-04-1.96013E+00-3.37150E-13 5.27481E-13
 -1       181 2.04514E+01 1.90179E-01-9.99173E-03-7.64948E-01-2.96320E-13 3.44744E-13
 -1       182 1.96751E+01 1.01743E-01 1.35659E-02-2.86279E-01-2.35856E-13 2.15130E-13
 -1       183 1.93349E+01 4.73190E-02 9.99640E-03-6.82508E-02-1.45596E-13 8.79409E-14
 -1       184 1.92052E+01 2.26719E-02 5.16266E-03 3.93691E-02-1.01533E-13 1.73650E-14
 -1       185 1.91919E+01 9.62190E-03 2.43680E-03 9.22736E-02-1.02073E-13-6.03162E-14
 -1       186 1.92410E+01 2.23918E-03 1.13433E-03 1.14951E-01-1.13885E-13-1.46523E-13
 -1       187 1.93209E+01-1.97209E-03 5.01185E-04 1.20215E-01-1.11319E-13-2.20611E-13
 -1       188 1.94129E+01-4.24471E-03 1.67572E-04 1.15503E-01-1.10782E-13-2.38210E-13
 -1       189 1.95061E+01-5.27695E-03-1.69574E-05 1.05442E-01-4.61382E-14-2.51298E-13
 -1       190 1.95940E+01-5.50501E-03-1.15783E-04 9.30094E-02-1.11451E-14-4.52736E-13
 -1       191 1.96736E+01-5.21713E-03-1.60706E-04 8.01403E-02-1.60911E-14-4.48685E-13
 -1       192 1.97439E+01-4.60929E-03-1.70930E-04 6.80720E-02 5.17041E-14-4.22308E-13
 -1       193 1.98049E+01-3.81716E-03-1.59518E-04 5.75655E-02 5.70365E-14-3.74072E-13
 -1       194 1.98578E+01-2.93802E-03-1.36098E-04 4.90460E-02-9.21597E-14-3.34866E-13
 -1       195 1.99042E+01-2.04876E-03-1.08461E-04 4.26876E-02-1.12725E-13-4.10387E-13
 -1       196 1.99457E+01-1.22291E-03-8.37573E-05 3.84488E-02-1.09348E-13-3.62942E-13
 -1       197 1.99840E+01-5.48512E-04-6.94565E-05 3.60635E-02-2.20248E-14-4.08396E-13
 -1       198 2.00202E+01-1.46879E-04-7.40643E-05 3.49835E-02-1.43448E-13-4.37841E-13
 -1       199 2.00550E+01-1.91273E-04-1.07428E-04 3.42747E-02 7.36045E-14-5.47751E-13
 -1       200 2.00878E+01-9.21361E-04-1.80319E-04 3.24731E-02 7.50991E-14-5.04163E-13
 -1       201 2.01162E+01-2.64516E-03-3.02841E-04 2.74235E-02 2.26608E-14-5.53716E-13
 -1       202 2.01358E+01-5.71399E-03-4.81193E-04 1.61516E-02 2.16368E-14-3.90961E-13
 -1       203 2.01389E+01-1.04491E-02-7.12541E-04-5.13553E-03 7.69650E-14-2.70813E-13
 -1       204 2.01146E+01-1.69958E-02-9.78476E-04-4.07721E-02-2.07265E-14-3.48626E-13
 -1       205 2.00482E+01-2.50882E-02-1.23888E-03-9.48816E-02-6.87437E-14-4.23158E-13
 -1       206 1.99227E+01-3.37455E-02-1.42987E-03-1.69964E-01-1.16008E-13-5.38048E-13
 -1       207 1.97209E+01-4.09903E-02-1.47015E-03-2.64771E-01 6.95249E-14-3.13339E-13
 -1       208 1.94298E+01-4.37971E-02-1.28127E-03-3.71793E-01 2.16103E-13-2.25862E-13
 -1       209 1.90465E+01-3.85708E-02-8.17142E-04-4.75286E-01-2.04561E-14-1.74777E-13
 -1       210 1.85856E+01-2.24143E-02-9.53428E-05-5.51460E-01-9.57944E-14-1.12120E-13
 -1       211 1.80834E+01 4.95717E-03 7.89240E-04-5.72598E-01-1.21699E-13-1.26533E-13
 -1       212 1.75986E+01 3.95115E-02 1.68448E-03-5.15690E-01-1.88611E-14-2.21867E-13
 -1       213 1.72030E+01 7.28303E-02 2.42153E-03-3.73312E-01 3.23517E-14-3.61138E-13
 -1       214 1.69648E+01 9.46701E-02 2.86430E-03-1.61466E-01-1.10163E-13-3.49577E-13
 -1       215 1.69283E+01 9.74633E-02 2.93084E-03 8.14258E-02-5.76110E-14-4.44325E-13
 -1       216 1.70993E+01 8.01653E-02 2.60681E-03 3.06070E-01 2.15756E-15-6.13844E-13
 -1       217 1.74427E+01 4.88173E-02 1.94146E-03 4.69461E-01-3.80933E-14-5.60387E-13
 -1       218 1.78943E+01 1.34337E-02 1.06386E-03 5.48818E-01-2.42425E-13-5.16169E-13
 -1       219 1.83811E+01-1.66266E-02 1.49324E-04 5.45713E-01-5.76443E-14-4.54867E-13
 -1       220 1.88396E+01-3.59330E-02-6.30335E-04 4.80265E-01-5.01554E-14-6.00173E-13
 -1       221 1.92270E+01-4.36000E-02-1.15495E-03 3.80514E-01 2.16318E-13-6.20599E-13
 -1       222 1.95243E+01-4.19164E-02-1.38726E-03 2.72779E-01 1.10195E-13-2.01862E-13
 -1       223 1.97316E+01-3.44190E-02-1.36688E-03 1.76153E-01 4.05106E-13-1.69818E-13
 -1       224 1.98625E+01-2.44539E-02-1.18006E-03 1.01140E-01 3.20285E-13-1.41806E-13
 -1       225 1.99362E+01-1.44902E-02-9.01810E-04 5.09693E-02 3.06175E-14 1.72718E-13
 -1       226 1.99729E+01-6.87646E-03-5.88421E-04 2.29107E-02 2.03917E-13 1.23891E-13
 -1       227 1.99901E+01-3.00927E-03-1.51108E-04 9.69583E-03 3.59445E-13 3.84340E-13
 -1       228 2.20454E+01 9.19503E-01 2.79239E-04 2.03858E+00 3.27127E-13 9.15473E-13
 -1       229 2.04983E+01 2.07614E-01-1.13875E-02 8.01859E-01 2.99214E-13 7.33538E-13
 -1       230 1.96998E+01 1.06407E-01 1.31106E-02 3.01971E-01 2.22665E-13 5.75513E-13
 -1       231 1.93459E+01 4.91220E-02 1.01675E-02 7.59905E-02 1.49905E-13 4.35158E-13
 -1       232 1.92083E+01 2.35558E-02 5.30918E-03-3.53953E-02 1.29414E-13 3.56747E-13
 -1       233 1.91907E+01 1.01178E-02 2.51641E-03-9.03114E-02 8.46286E-14 3.19122E-13
 -1       234 1.92374E+01 2.51751E-03 1.18264E-03-1.14116E-01 4.04562E-14 2.87309E-13
 -1       235 1.93160E+01-1.84298E-03 5.26132E-04-1.20009E-01 5.67768E-14 2.70146E-13
 -1       236 1.94028E+01-4.15039E-03 1.82626E-04-1.15920E-01 4.45320E-14 2.10151E-13
 -1       237 1.94960E+01-5.29160E-03-3.84275E-06-1.06104E-01 4.03418E-14 1.48915E-13
 -1       238 1.95841E+01-5.60708E-03-1.11034E-04-9.36297E-02 3.58520E-14 1.31146E-13
 -1       239 1.96641E+01-5.37987E-03-1.58294E-04-8.05013E-02 2.95299E-14 8.29960E-14
 -1       240 1.97346E+01-4.80661E-03-1.66761E-04-6.80585E-02 1.08986E-13 7.14980E-14
 -1       241 1.97958E+01-4.00610E-03-1.47405E-04-5.71704E-02 8.94887E-14 5.01465E-14
 -1       242 1.98491E+01-3.04005E-03-1.06205E-04-4.84409E-02 5.55729E-15 9.03379E-15
 -1       243 1.98964E+01-1.91787E-03-4.47481E-05-4.23619E-02-1.03932E-13 4.58776E-14
 -1       244 1.99404E+01-5.93806E-04 3.97017E-05-3.94585E-02-4.87205E-14 2.24398E-15
 -1       245 1.99846E+01 1.06107E-03 1.49219E-04-4.04791E-02 1.17470E-13-3.91814E-14
 -1       246 2.00308E+01 3.07222E-03 3.09523E-04-4.60451E-02 1.07207E-14-4.23720E-14
 -1       247 2.00894E+01 6.03464E-03 5.27458E-04-5.84377E-02-8.41406E-15 6.34017E-14
 -1       248 2.01663E+01 1.03773E-02 8.52769E-04-8.04452E-02 1.66933E-14 1.09101E-13
 -1       249 2.02728E+01 1.69816E-02 1.33145E-03-1.16655E-01 8.56037E-14 5.15365E-14
 -1       250 2.04254E+01 2.72437E-02 2.02938E-03-1.74458E-01 8.95420E-14-2.12883E-14
 -1       251 2.06483E+01 4.33478E-02 3.01160E-03-2.65497E-01-2.28847E-14 2.63154E-14
 -1       252 2.09765E+01 6.85773E-02 4.28101E-03-4.07726E-01-7.53022E-15 2.54952E-14
 -1       253 2.14596E+01 1.07444E-01 5.62694E-03-6.27753E-01-1.16591E-14-1.44069E-15
 -1       254 2.21653E+01 1.64872E-01 6.41377E-03-9.61766E-01-1.62028E-14-3.94409E-14
 -1       255 2.31765E+01 2.41251E-01 5.18522E-03-1.45130E+00 1.41141E-13-1.55944E-14
 -1       256 2.45027E+01 3.16479E-01 1.44006E-03-2.07899E+00-4.45347E-14-7.00911E-14
 -1       257 2.63418E+01 3.31373E-01-1.34860E-03-2.83037E+00-6.46432E-14-2.51934E-14
 -1       258 2.86185E+01 9.04690E-02 9.70327E-03-3.34043E+00-3.04539E-13 6.07587E-14
 -1       259 3.11772E+01-7.37969E-01 4.31803E-02-2.74524E+00-2.16249E-13 2.12469E-14
 -1       260 3.34953E+01-2.02152E+00 5.79092E-02-2.37677E-01-5.59414E-14 2.20322E-13
 -1       261 3.53950E+01-2.43046E+00-4.75409E-02 4.09020E+00 2.20543E-13 4.43182E-13
 -1       262 3.63381E+01 2.42443E-01-1.47638E-01 6.22159E+00 4.25854E-13 4.90857E-13
 -1       263 3.63605E+01 3.84775E+00-2.34750E-01 2.84150E+00 3.60989E-13-1.71172E-13
 -1       264 3.59766E+01 3.05156E+00-2.54873E-01-4.37630E+00 3.20410E-13-1.61239E-13
 -1       265 3.47884E+01-2.20998E+00 4.66151E-02-2.00976E+00-3.95274E-14-3.88788E-13
 -1       266 3.27422E+01-1.11394E+00 7.65203E-02 1.73730E+00 1.47465E-13-4.21089E-13
 -1       267 3.01967E+01-1.69948E-01 2.50425E-02 3.10321E+00 1.46104E-13-3.44211E-13
 -1       268 2.75896E+01 2.30444E-01-4.52642E-03 2.97233E+00 3.84522E-14-4.82170E-13
 -1       269 2.53712E+01 2.86325E-01-5.57865E-03 2.30672E+00-3.40426E-13-3.92332E-13
 -1       270 2.36451E+01 2.30987E-01 4.06360E-04 1.63396E+00-2.28527E-13 5.31736E-14
 -1       271 2.23761E+01 1.61852E-01 4.14136E-03 1.11292E+00-1.84011E-15 3.98833E-13
 -1       272 2.14740E+01 1.08381E-01 4.95820E-03 7.46722E-01-6.15866E-14 4.09533E-13
 -1       273 2.08483E+01 7.44733E-02 4.06630E-03 4.93739E-01-1.66977E-13 5.47406E-13
 -1       274 2.04270E+01 6.08242E-02 2.64369E-03 3.07470E-01-3.19690E-13 4.72512E-13
 -1       275 2.01660E+01 5.85602E-02 2.25002E-03 1.47281E-01-1.37299E-13 4.40583E-13
 -1       276 2.00507E+01 5.74360E-02-5.03698E-04 5.60657E-02 6.48964E-13 2.40851E-13
 -1       277 2.00362E+01 2.42101E-01-1.59234E-03 1.76026E-01 5.50129E-13-1.29139E-13
 -1       278 2.00046E+01 4.91134E-01-4.40336E-04 2.31737E-01 7.81070E-13 2.08513E-13
 -1       279 1.99803E+01 7.32329E-01 5.25176E-04 2.04716E-01 4.76943E-13-6.46995E-13
 -1       280 1.99664E+01 9.01475E-01 6.65293E-04 1.18949E-01-9.44102E-15-6.90304E-13
 -1       281 1.99655E+01 9.57537E-01 3.07347E-04 1.14382E-02-7.16283E-13-1.04012E-12
 -1       282 1.99738E+01 9.00462E-01-1.92412E-04-8.64568E-02-1.17441E-12-2.58998E-13
 -1       283 1.99867E+01 7.54337E-01-5.43102E-04-1.50622E-01-7.74005E-13 3.59999E-13
 -1       284 1.99996E+01 5.61676E-01-6.47216E-04-1.73254E-01-4.51465E-13 1.14794E-12
 -1       285 2.00092E+01 3.65814E-01-5.40508E-04-1.59235E-01-2.09219E-13 1.43129E-13
 -1       286 2.00142E+01 2.00237E-01-3.03142E-04-1.21177E-01 2.37261E-13 3.26299E-13
 -1       287 2.00144E+01 8.44964E-02-3.35364E-05-7.50370E-02 2.67722E-13-1.04912E-13
 -1       288 2.00110E+01 1.70463E-02 2.07181E-04-3.26019E-02 4.75181E-13-1.84539E-13
 -1       289 2.00060E+01-9.27973E-03 4.01198E-04-3.79593E-03 5.48814E-14-6.94111E-13
 -1       290 2.00002E+01-1.00722E-02 4.30668E-04 8.02565E-03-2.81400E-13-3.58604E-13
 -1       291-1.54432E+00-1.08844E+01-7.87765E-01-4.93957E-01 2.27523E-13 6.27276E-14
 -1       292 1.45234E+00-1.03768E+01-8.77122E-01 1.93008E+00 4.66432E-13-9.15656E-14
 -1       293 8.84213E+00-8.04729E+00-8.15553E-01 4.17417E+00 1.47493E-13 7.45067E-13
 -1       294 1.91734E+01-4.67162E+00-6.08172E-01 5.44523E+00 4.95437E-13 2.62151E-13
 -1       295 3.28765E+01-1.41547E+00 4.23611E-02 5.47564E+00 5.43843E-13 1.68754E-14
 -1       296 4.63080E+01 2.21202E+00 9.74727E-01 3.65383E+00 7.49782E-14 6.23446E-13
 -1       297 5.17066E+01 5.56480E+00 1.27803E+00-6.04718E-01 2.34757E-13 2.14412E-13
 -1       298 5.61617E+01 7.61073E+00 1.96338E+00 1.23426E-01 4.70679E-13 1.88415E-13
 -1       299 5.13507E+01 4.79501E+00 1.38390E+00-4.24235E-01 7.13152E-13 1.84797E-13
 -1       300 4.12071E+01-7.40775E-01 4.63257E-01-2.90882E+00 4.57051E-13-1.39277E-13
 -1       301 2.65649E+01-3.88337E+00-3.41564E-01-5.45893E+00 4.66904E-13-3.95739E-13
 -1       302 1.26142E+01-6.63783E+00-8.49116E-01-4.59486E+00 8.41882E-13-5.50976E-13
 -1       303 4.56422E+00-9.23348E+00-8.11252E-01-3.29656E+00 6.24667E-13-5.82326E-13
 -1       304-1.08432E+00-1.22385E+01-1.06640E+00-1.45849E-01 4.90344E-13-3.63570E-13
 -1       305-1.50840E+00-1.06488E+01-7.70218E-01 2.03177E+00 1.20209E-13-4.65933E-13
 -1       306 1.41214E+00-9.65610E+00-7.46822E-01 4.04218E+00-1.36557E-14-4.63296E-13
 -1       307 8.29264E+00-5.86184E+00-4.20214E-01 6.70940E+00-1.07248E-13-7.93013E-13
 -1       308 1.62236E+01-1.36956E+00-1.84724E-01 7.98010E+00-5.67990E-13-6.49258E-13
 -1       309 2.66062E+01 2.61482E+00 2.20931E-01 9.11491E+00-6.33660E-13-6.21336E-13
 -1       310 3.71035E+01 5.21969E+00 5.89311E-01 8.59133E+00-6.35846E-13-7.62612E-13
 -1       311 4.44339E+01 6.74808E+00 7.30096E-01 5.17742E+00-3.27016E-13-6.94250E-13
 -1       312 4.93693E+01 7.50244E+00 9.33584E-01 1.70896E+00-2.40641E-13-6.81288E-13
 -1       313 4.79636E+01 7.63550E+00 8.15154E-01-2.16435E+00-3.39340E-13-3.78447E-13
 -1       314 4.21313E+01 6.22774E+00 5.32326E-01-4.65077E+00-3.74034E-13-1.29757E-13
 -1       315 3.43424E+01 4.68415E+00 5.11657E-01-9.01305E+00-3.00718E-13-2.74392E-13
 -1       316 2.26675E+01 1.33138E+00 6.45189E-02-8.85422E+00-4.57412E-14 3.23824E-13
 -1       317 1.28394E+01-3.71492E+00-3.03168E-01-7.44357E+00 3.82583E-13 5.83353E-13
 -1       318 3.97238E+00-8.09989E+00-7.12010E-01-4.82774E+00 3.62849E-13-1.16438E-13
 -1       319-5.19838E-01-1.06401E+01-7.94924E-01-3.03560E+00 6.16979E-13 1.51240E-13
 -1       320 3.53620E+01-1.29799E+00-1.82049E-01-5.83461E+00-4.87485E-13-2.94027E-13
 -1       321 1.99969E+01-7.42475E-03-1.31709E-04 9.27015E-03-1.22346E-13 1.88290E-13
 -1       322 2.01480E+01 3.01597E+00-1.77858E-02-2.11218E+00-3.61762E-13-3.18350E-13
 -1       323 2.07582E+01 2.21067E+00-1.78491E-02-2.36522E+00-4.00677E-13-9.04277E-14
 -1       324 1.95826E+01 3.69362E+00-1.56049E-02-1.32094E+00-1.93992E-13-5.11657E-13
 -1       325 1.94596E+01 3.85012E+00-1.36812E-02-9.26613E-01-1.16855E-13-5.37907E-13
 -1       326 1.93898E+01 3.94158E+00-1.26865E-02-5.47062E-01-2.42004E-14-5.22157E-13
 -1       327 1.93586E+01 3.98351E+00-1.22667E-02-1.76928E-01 5.32689E-14-5.14906E-13
 -1       328 1.93591E+01 3.98276E+00-1.22768E-02 1.90130E-01 1.19039E-13-5.08336E-13
 -1       329 1.93917E+01 3.93918E+00-1.27067E-02 5.60431E-01 1.81498E-13-4.84986E-13
 -1       330 1.94615E+01 3.84794E+00-1.36763E-02 9.33695E-01 2.55669E-13-4.43458E-13
 -1       331 1.95870E+01 3.68912E+00-1.54746E-02 1.32732E+00 3.31925E-13-3.50328E-13
 -1       332 1.97992E+01 3.42723E+00-1.84917E-02 1.73299E+00 4.02831E-13-2.55842E-13
 -1       333 2.01581E+01 2.98093E+00-2.15871E-02 2.11617E+00 4.43977E-13-9.17868E-14
 -1       334 2.07779E+01 2.17133E+00-1.82459E-02 2.36228E+00 4.40154E-13 2.18369E-13
 -1       335 3.48581E+01-4.63998E+00-4.42694E-02-1.30801E+00-1.54689E-13-4.64490E-13
 -1       336 9.91590E+00-5.95428E+00-7.77272E-02 5.79873E+00-8.09075E-14 5.10231E-13
 -1       337 2.04616E+01 6.75579E-01 1.25699E-02-1.02684E+00-3.32396E-13-5.40068E-14
 -1       338 2.00391E+01 3.37747E-01 7.16896E-03-4.58663E-01-2.54427E-13-5.22237E-14
 -1       339 1.97849E+01 1.77217E-01 4.18010E-03-1.48999E-01-1.74253E-13-1.15496E-13
 -1       340 1.96495E+01 9.10366E-02 1.93596E-03 2.26266E-02-1.43619E-13-1.60867E-13
 -1       341 1.95943E+01 4.18775E-02 8.15097E-04 1.14286E-01-1.50870E-13-1.66534E-13
 -1       342 1.95894E+01 1.29360E-02 2.87039E-04 1.58025E-01-1.51687E-13-1.82534E-13
 -1       343 1.96140E+01-3.97388E-03 2.43566E-05 1.72763E-01-8.98240E-14-1.88926E-13
 -1       344 1.96543E+01-1.33036E-02-1.12175E-04 1.70290E-01-1.18666E-13-1.70418E-13
 -1       345 1.97013E+01-1.77150E-02-1.79178E-04 1.58234E-01-8.98039E-14-2.13087E-13
 -1       346 1.97496E+01-1.89127E-02-2.03403E-04 1.41617E-01-3.93084E-14-2.10031E-13
 -1       347 1.97959E+01-1.80365E-02-2.00388E-04 1.23751E-01-7.52589E-15-1.79662E-13
 -1       348 1.98386E+01-1.58697E-02-1.80459E-04 1.06777E-01 1.27688E-14-2.29131E-13
 -1       349 1.98774E+01-1.29651E-02-1.50945E-04 9.20237E-02-2.23741E-14-3.70776E-13
 -1       350 1.99123E+01-9.73583E-03-1.17430E-04 8.02254E-02-1.09857E-13-4.22853E-13
 -1       351 1.99442E+01-6.53139E-03-8.47214E-05 7.16538E-02-6.26679E-14-3.74396E-13
 -1       352 1.99738E+01-3.71012E-03-5.77115E-05 6.61600E-02-1.03958E-13-2.77156E-13
 -1       353 2.00019E+01-1.71204E-03-4.21675E-05 6.31386E-02-3.77272E-14-2.65207E-13
 -1       354 2.00293E+01-1.13098E-03-4.53848E-05 6.14154E-02-9.07443E-14-2.45842E-13
 -1       355 2.00559E+01-2.77616E-03-7.65372E-05 5.90642E-02 1.21730E-14-3.51170E-13
 -1       356 2.00814E+01-7.70038E-03-1.46398E-04 5.31780E-02 1.10930E-13-4.61233E-13
 -1       357 2.01040E+01-1.71530E-02-2.65949E-04 3.96490E-02 1.24359E-13-2.93876E-13
 -1       358 2.01207E+01-3.23932E-02-4.43281E-04 1.30652E-02 1.58071E-15-3.52178E-13
 -1       359 2.01265E+01-5.42798E-02-6.78348E-04-3.30942E-02-1.30321E-14-4.00278E-13
 -1       360 2.01142E+01-8.25637E-02-9.55627E-04-1.05703E-01-6.69493E-14-4.11871E-13
 -1       361 2.00739E+01-1.14882E-01-1.23618E-03-2.10362E-01-8.23820E-14-3.98616E-13
 -1       362 1.99939E+01-1.45646E-01-1.45292E-03-3.48664E-01 1.48684E-13-1.89345E-13
 -1       363 1.98618E+01-1.65350E-01-1.51263E-03-5.14452E-01 1.80601E-13-1.23791E-13
 -1       364 1.96673E+01-1.61244E-01-1.31966E-03-6.89876E-01 1.31691E-13-1.25582E-13
 -1       365 1.94071E+01-1.20477E-01-8.06626E-04-8.43177E-01 8.14046E-15 4.88923E-14
 -1       366 1.90915E+01-3.61794E-02 1.98345E-05-9.31176E-01-1.03568E-13 1.60287E-13
 -1       367 1.87496E+01 8.51842E-02 1.05387E-03-9.09206E-01-2.12606E-13 1.39974E-13
 -1       368 1.84300E+01 2.19613E-01 2.10651E-03-7.48166E-01-1.55639E-13 1.19640E-14
 -1       369 1.81918E+01 3.29861E-01 2.94225E-03-4.52488E-01-1.06940E-13 9.17696E-15
 -1       370 1.80866E+01 3.79564E-01 3.36026E-03-6.82368E-02-1.68030E-13-4.73495E-14
 -1       371 1.81384E+01 3.50806E-01 3.24445E-03 3.27352E-01-1.79327E-13-7.47222E-14
 -1       372 1.83332E+01 2.53707E-01 2.57132E-03 6.52736E-01 3.37397E-14-4.67052E-14
 -1       373 1.86251E+01 1.21097E-01 1.52137E-03 8.51343E-01-1.10196E-13-2.30682E-13
 -1       374 1.89547E+01-7.92519E-03 3.68220E-04 9.07491E-01 1.19920E-15 7.85890E-14
 -1       375 1.92688E+01-1.04288E-01-6.27122E-04 8.43002E-01-3.24387E-14 2.95266E-13
 -1       376 1.95325E+01-1.56281E-01-1.28682E-03 7.00867E-01 3.26825E-14 2.80223E-13
 -1       377 1.97310E+01-1.67370E-01-1.56905E-03 5.27124E-01 2.71234E-13 8.32394E-14
 -1       378 1.98654E+01-1.49280E-01-1.53412E-03 3.58642E-01 2.96628E-13 1.62693E-13
 -1       379 1.99455E+01-1.15423E-01-1.29782E-03 2.18520E-01 3.53809E-13 1.64889E-13
 -1       380 1.99855E+01-7.71711E-02-9.43097E-04 1.16629E-01 1.75555E-14-9.66742E-14
 -1       381 1.99989E+01-4.23772E-02-5.84289E-04 5.39078E-02 3.24601E-13-5.08811E-14
 -1       382 2.00000E+01-1.79533E-02-8.67403E-05 2.16950E-02 3.73307E-13 5.61122E-14
 -1       383 2.28543E+01 4.47897E-01 2.57513E-02 4.74556E+00 3.05762E-14-1.39030E-13
 -1       384 2.00538E+01 3.52918E-01 7.88402E-03 4.79935E-01 2.84807E-13 1.53644E-13
 -1       385 2.04751E+01 7.07052E-01 1.31060E-02 1.05799E+00 3.54931E-13 2.19268E-13
 -1       386 1.97940E+01 1.82742E-01 4.19294E-03 1.60665E-01 1.76945E-13 8.55427E-14
 -1       387 1.96539E+01 9.40985E-02 1.94020E-03-1.61460E-02 1.29716E-13 6.94834E-14
 -1       388 1.95955E+01 4.36699E-02 8.31126E-04-1.10809E-01 6.69843E-14 9.08240E-14
 -1       389 1.95886E+01 1.39484E-02 3.02627E-04-1.56352E-01 5.54089E-14 5.16477E-14
 -1       390 1.96103E+01-2.84184E-03 2.55136E-05-1.71779E-01 9.33212E-14 1.17221E-14
 -1       391 1.96495E+01-1.28100E-02-9.96335E-05-1.70474E-01 8.90983E-14 1.89655E-14
 -1       392 1.96961E+01-1.76870E-02-1.75119E-04-1.58902E-01 4.61333E-14-3.72268E-14
 -1       393 1.97443E+01-1.91944E-02-2.01429E-04-1.42316E-01 7.13900E-14-4.76077E-14
 -1       394 1.97908E+01-1.84900E-02-1.99299E-04-1.24220E-01 1.04075E-13-1.16933E-13
 -1       395 1.98341E+01-1.63166E-02-1.77773E-04-1.06962E-01 1.15148E-13-1.20781E-13
 -1       396 1.98737E+01-1.31169E-02-1.42141E-04-9.21587E-02 2.62067E-14-6.78765E-14
 -1       397 1.99102E+01-9.08853E-03-9.44499E-05-8.10134E-02-4.03033E-15-6.72415E-14
 -1       398 1.99448E+01-4.20056E-03-3.37561E-05-7.45891E-02-1.83547E-14-1.58302E-13
 -1       399 1.99792E+01 1.84702E-03 4.09318E-05-7.40974E-02 2.31382E-14-1.29632E-13
 -1       400 2.00140E+01 9.15082E-03 1.44869E-04-8.05241E-02 1.65904E-14-8.22751E-14
 -1       401 2.00555E+01 1.94553E-02 2.85491E-04-9.68032E-02-2.38245E-14-3.41972E-14
 -1       402 2.01060E+01 3.40657E-02 4.93288E-04-1.26465E-01-8.48131E-16-7.89318E-14
 -1       403 2.01700E+01 5.55075E-02 8.05530E-04-1.75072E-01 2.11469E-14-4.48315E-14
 -1       404 2.02536E+01 8.77244E-02 1.27931E-03-2.51210E-01 1.18222E-13 1.70693E-13
 -1       405 2.03636E+01 1.36695E-01 1.99565E-03-3.67874E-01 1.91700E-14 1.59112E-13
 -1       406 2.05075E+01 2.11142E-01 3.04959E-03-5.44261E-01 1.25870E-13 5.92137E-14
 -1       407 2.06920E+01 3.22843E-01 4.50557E-03-8.07651E-01 1.04364E-13-2.00336E-13
 -1       408 2.09196E+01 4.85006E-01 6.29812E-03-1.19425E+00-6.13095E-15-2.89481E-13
 -1       409 2.11832E+01 7.04064E-01 8.14950E-03-1.74629E+00 4.70435E-14-2.15524E-13
 -1       410 2.14532E+01 9.44729E-01 9.01160E-03-2.45646E+00-3.85668E-14-1.13140E-13
 -1       411 2.17547E+01 1.12035E+00 1.14129E-02-3.38740E+00-8.28519E-14 4.37500E-14
 -1       412 2.21367E+01 9.10611E-01 2.24488E-02-4.38306E+00-1.01795E-13 9.47055E-14
 -1       413 2.29997E+01-3.90057E-01 4.86319E-02-5.07017E+00-1.18896E-13-1.18209E-13
 -1       414 2.50374E+01-3.07840E+00 9.21008E-02-4.76957E+00-2.08465E-13-7.08912E-14
 -1       415 3.14556E+01-5.69504E+00 2.03406E-02-1.13077E+00-5.27495E-14 2.05051E-13
 -1       416 3.79698E+01-2.88601E+00-7.84953E-02 2.63330E+00 2.18992E-13 2.42723E-13
 -1       417 2.42858E+01-1.35347E+00 7.14311E-02 4.94509E+00-5.39742E-14-2.86684E-13
 -1       418 2.76843E+01-4.86021E+00 3.18353E-02 3.43479E+00 1.10405E-13-6.38013E-13
 -1       419 2.21766E+01 1.01740E+00 1.19075E-02 3.86075E+00-2.26187E-13 9.19710E-14
 -1       420 2.17162E+01 9.67106E-01 9.42702E-03 2.89314E+00-3.96268E-13 1.57543E-14
 -1       421 2.13166E+01 7.43237E-01 8.91996E-03 2.07358E+00-2.09197E-13-3.24383E-13
 -1       422 2.09594E+01 5.25635E-01 7.53288E-03 1.45343E+00-8.74491E-14-1.68282E-14
 -1       423 2.06547E+01 3.67419E-01 5.90172E-03 1.00417E+00-1.05203E-13-8.53966E-15
 -1       424 2.04056E+01 2.71088E-01 3.47989E-03 6.74825E-01-2.73461E-13-1.25103E-13
 -1       425 2.02139E+01 2.31028E-01 2.66332E-03 4.19351E-01-1.90546E-14-2.59792E-14
 -1       426 2.01141E+01 2.41672E-01 9.64737E-04 2.97970E-01 2.81731E-13-1.49962E-13
 -1       427 1.99491E+01 6.02418E-01-1.71755E-05 4.13001E-01-2.71876E-13-3.28330E-13
 -1       428 2.00410E+01 4.31529E-01 8.38383E-04 4.01856E-01 3.99089E-14 2.02904E-14
 -1       429 1.98571E+01 7.58324E-01-1.23626E-03 2.87455E-01-3.05726E-14-9.50430E-13
 -1       430 1.98259E+01 8.17794E-01-1.75534E-03 9.51378E-02-1.35566E-13-9.39726E-13
 -1       431 1.98472E+01 7.81242E-01-1.69001E-03-1.02062E-01 8.63822E-14-9.47049E-13
 -1       432 1.99023E+01 6.65688E-01-1.27566E-03-2.50870E-01 2.92408E-13 3.24160E-13
 -1       433 1.99681E+01 5.05094E-01-6.12874E-04-3.25749E-01 1.62930E-13 7.72634E-13
 -1       434 2.00251E+01 3.35839E-01 4.35019E-05-3.26625E-01-1.52050E-13 6.25711E-13
 -1       435 2.00617E+01 1.87331E-01 5.35648E-04-2.71701E-01-2.13520E-13 8.56705E-14
 -1       436 2.00745E+01 7.85019E-02 7.82624E-04-1.89270E-01-1.84878E-13 2.96153E-13
 -1       437 2.00668E+01 1.06322E-02 8.20884E-04-1.02687E-01-6.42232E-14 2.05811E-13
 -1       438 2.00457E+01-1.94910E-02 4.64673E-04-3.44916E-02-8.66096E-15-5.45956E-13
 -1       439 2.00185E+01-2.11826E-02 2.38223E-04 6.33894E-03 6.43474E-14-9.93960E-13
 -1       440 2.05452E+01-6.95891E+00-1.47780E-01 5.58809E+00-3.72757E-14-1.02918E-13
 -1       441 6.67549E-01-4.47610E+00-4.33954E-02-2.28034E+00 2.58557E-13-1.20792E-13
 -1       442 1.98040E+01 3.43243E+00-1.76720E-02-1.74024E+00-2.76847E-13-4.50669E-13
 -1       443 3.10325E+01-6.12998E+00-9.34811E-02 2.23071E+00-1.37251E-14-6.11053E-13
 -1       444 3.87092E+01-2.82537E+00 4.19867E-02-1.96747E+00-1.05868E-13 8.77076E-15
 -1       445 4.13053E+01 1.71698E+00 1.54016E-01-4.05225E+00 1.09079E-14 1.17101E-13
 -1       446 2.49110E+01-6.59085E+00-1.29423E-01-4.44757E+00 5.55112E-17 2.13558E-13
 -1       447 1.53453E+01-6.51746E+00-8.89315E-02-6.13033E+00-1.47576E-13 6.89379E-15
 -1       448 5.31151E+00-4.26482E+00 2.56100E-02-4.36343E+00-9.00530E-14-1.43441E-13
 -1       449 1.68861E+00-3.11380E+00 8.07582E-02-5.93506E-01 9.55173E-14-3.42476E-13
 -1       450 2.17037E+00-4.67248E+00-3.54985E-02 4.77478E+00 1.45259E-13-4.69264E-13
 -1       451 7.36081E+00-5.23350E+00-6.14424E-02 7.62769E+00 2.32814E-13-5.07719E-13
 -1       452 1.86129E+01-5.23115E+00 5.76956E-02 8.42406E+00 2.84661E-13-3.93139E-13
 -1       453 2.50613E+01-4.08916E+00-1.86426E-02 6.63701E+00 5.80924E-14-1.63203E-13
 -1       454 3.21192E+01-2.85104E-01 1.45779E-02 3.63918E+00-2.09707E-13-3.27738E-13
 -1       455 3.57009E+01 3.62987E+00 1.57324E-02 1.61652E+00-3.46841E-13-3.53717E-13
 -1       456 3.85941E+01 8.02708E+00 7.30453E-02 3.17256E-01-3.79932E-13-3.62960E-13
 -1       457 3.71495E+01 9.30830E+00-3.26876E-02 2.23504E-02-3.87995E-13-1.38720E-13
 -1       458 3.67500E+01 7.50525E+00-5.94676E-02 9.19014E-02-4.81407E-13-2.26791E-13
 -1       459 3.51660E+01 2.66352E+00 2.26910E-02-2.13440E+00-2.86320E-13-6.00353E-14
 -1       460 3.02922E+01-1.26258E+00 3.07731E-02-4.94183E+00-1.61766E-13-1.21431E-13
 -1       461 2.30238E+01-4.57037E+00 2.13415E-02-7.37071E+00 3.52218E-13 2.49425E-13
 -1       462 1.25969E+01-5.33592E+00-3.41380E-03-8.53944E+00 4.04093E-13 4.95895E-13
 -1       463 5.41420E+00-4.71798E+00 1.14338E-02-6.86321E+00 3.91409E-13 1.43996E-13
 -1       464 2.95683E+00-4.31659E+00-1.38833E-02 2.95780E+00 1.20667E-13-2.33646E-13
 -1       465 3.33884E+01 4.55997E+00-1.27607E-01 9.54236E-01-2.35090E-13-6.85563E-15
 -1       466 5.23021E+00-1.36606E+00 1.80163E-01-4.80144E+00 1.80349E-13-9.94066E-14
 -1       467 1.97314E+01 3.10668E+00-5.32622E-03-6.36318E-01-6.49357E-14-4.70705E-13
 -1       468 1.98290E+01 2.93238E+00-5.72329E-03-9.51860E-01-1.41025E-13-4.70127E-13
 -1       469 1.96623E+01 3.23083E+00-5.01053E-03 5.68871E-03 7.61429E-14-4.73757E-13
 -1       470 1.96800E+01 3.19902E+00-5.09401E-03 3.27093E-01 1.42335E-13-4.46387E-13
 -1       471 1.97329E+01 3.10394E+00-5.41850E-03 6.42402E-01 2.17527E-13-4.18526E-13
 -1       472 1.98309E+01 2.92851E+00-5.92726E-03 9.58436E-01 2.91085E-13-3.48560E-13
 -1       473 1.99855E+01 2.64667E+00-6.58035E-03 1.25524E+00 3.36003E-13-2.63143E-13
 -1       474 2.02086E+01 2.20880E+00-6.85182E-03 1.48601E+00 4.01135E-13-1.59076E-13
 -1       475 2.04332E+01 1.46801E+00-3.53180E-03 1.40351E+00 4.01340E-13 2.69598E-15
 -1       476 4.50296E+00-3.59494E-01 2.18086E-01 5.95095E-01 7.16857E-14-7.58005E-14
 -1       477 2.03455E+01 9.73483E-01 2.76463E-03-9.40607E-01-2.86926E-13-1.84634E-13
 -1       478 2.01731E+01 5.47134E-01 2.34867E-03-4.68427E-01-2.53692E-13-1.77504E-13
 -1       479 2.00258E+01 3.06345E-01 1.26765E-03-1.67160E-01-1.74449E-13-1.84033E-13
 -1       480 1.99255E+01 1.63854E-01 5.63179E-04 1.51151E-02-1.44394E-13-2.01377E-13
 -1       481 1.98670E+01 7.72848E-02 2.28826E-04 1.18606E-01-1.66416E-13-2.05360E-13
 -1       482 1.98399E+01 2.44756E-02 7.09736E-05 1.70882E-01-1.54649E-13-1.98531E-13
 -1       483 1.98342E+01-6.94026E-03-9.58413E-06 1.90565E-01-7.11350E-14-2.00934E-13
 -1       484 1.98419E+01-2.43718E-02-5.18993E-05 1.90278E-01-1.19591E-13-1.65961E-13
 -1       485 1.98573E+01-3.25375E-02-7.17218E-05 1.78616E-01-5.55186E-14-1.33060E-13
 -1       486 1.98766E+01-3.45800E-02-7.69938E-05 1.61419E-01 2.34958E-14-1.12660E-13
 -1       487 1.98974E+01-3.26537E-02-7.28171E-05 1.42611E-01-5.60613E-14-1.18374E-13
 -1       488 1.99181E+01-2.82679E-02-6.27886E-05 1.24762E-01-6.67383E-14-1.64444E-13
 -1       489 1.99382E+01-2.25165E-02-4.95700E-05 1.09466E-01-9.40795E-14-2.21450E-13
 -1       490 1.99574E+01-1.62551E-02-3.53516E-05 9.75949E-02-9.97016E-14-1.56583E-13
 -1       491 1.99761E+01-1.02566E-02-2.22614E-05 8.94234E-02-1.22097E-14-1.37297E-13
 -1       492 1.99945E+01-5.36207E-03-1.27753E-05 8.46678E-02-7.94138E-14-1.29641E-13
 -1       493 2.00134E+01-2.62916E-03-1.01151E-05 8.24201E-02-8.26528E-14-1.48326E-13
 -1       494 2.00334E+01-3.47057E-03-1.85817E-05 8.09916E-02-1.68488E-14-1.97002E-13
 -1       495 2.00553E+01-9.75269E-03-4.37026E-05 7.76758E-02 6.11550E-14-2.30808E-13
 -1       496 2.00798E+01-2.37958E-02-9.19778E-05 6.84668E-02 1.50108E-13-2.57512E-13
 -1       497 2.01072E+01-4.81756E-02-1.69871E-04 4.78080E-02 1.48537E-14-3.97717E-13
 -1       498 2.01375E+01-8.51826E-02-2.81592E-04 8.51649E-03-9.16233E-14-4.69220E-13
 -1       499 2.01693E+01-1.35771E-01-4.25311E-04-5.78772E-02 2.58868E-14-5.05357E-13
 -1       500 2.01992E+01-1.97880E-01-5.87311E-04-1.60018E-01-4.74355E-14-1.95233E-13
 -1       501 2.02209E+01-2.64229E-01-7.35118E-04-3.04413E-01 1.34635E-13-3.01454E-14
 -1       502 2.02234E+01-3.20186E-01-8.15490E-04-4.91557E-01 2.58980E-13-5.79069E-14
 -1       503 2.01917E+01-3.43062E-01-7.48706E-04-7.10616E-01 1.98489E-13 1.56955E-14
 -1       504 2.01080E+01-3.05065E-01-4.81044E-04-9.33802E-01 7.17092E-14-7.33832E-14
 -1       505 1.99588E+01-1.82242E-01-4.42597E-06-1.11350E+00-9.86419E-14-7.47747E-16
 -1       506 1.97449E+01 3.05480E-02 5.92344E-04-1.18723E+00-2.43293E-13-1.06433E-14
 -1       507 1.94922E+01 3.04474E-01 1.11788E-03-1.09513E+00-2.29213E-13-4.46443E-14
 -1       508 1.92545E+01 5.73166E-01 1.42270E-03-8.08387E-01-5.52898E-14 4.32703E-14
 -1       509 1.90984E+01 7.52188E-01 1.43900E-03-3.55254E-01-2.25736E-13-3.91609E-14
 -1       510 1.90749E+01 7.76675E-01 1.32993E-03 1.74997E-01-2.40905E-13 8.59825E-15
 -1       511 1.91914E+01 6.37160E-01 1.06048E-03 6.61352E-01-5.28698E-14 9.35585E-16
 -1       512 1.94076E+01 3.84580E-01 7.28706E-04 1.00044E+00-5.81175E-14-4.53476E-15
 -1       513 1.96573E+01 1.02527E-01 3.72506E-04 1.14480E+00 7.51183E-15 2.08651E-13
 -1       514 1.98799E+01-1.33660E-01-8.46800E-06 1.10915E+00-1.60882E-14 6.05029E-14
 -1       515 2.00405E+01-2.82893E-01-3.26033E-04 9.48588E-01 2.05297E-14 4.68098E-15
 -1       516 2.01320E+01-3.40909E-01-5.21324E-04 7.28759E-01 9.17249E-14 1.70401E-13
 -1       517 2.01653E+01-3.27258E-01-5.87640E-04 5.04385E-01 1.20656E-13-1.08027E-13
 -1       518 2.01582E+01-2.69771E-01-5.46386E-04 3.10771E-01 9.85417E-14-3.07762E-13
 -1       519 2.01275E+01-1.93417E-01-4.65185E-04 1.64795E-01 1.39527E-13-5.22875E-13
 -1       520 2.00897E+01-1.19326E-01-1.35120E-04 6.98848E-02 1.86887E-13-2.63963E-13
 -1       521 2.00485E+01-5.95663E-02-3.48299E-04 2.26870E-02 3.53099E-13-7.15936E-13
 -1       522 1.85768E+01 1.86154E+00 1.05664E-02 3.14976E+00-1.98847E-13-8.11756E-14
 -1       523 2.01790E+01 5.64785E-01 2.22024E-03 4.87548E-01 2.48337E-13-8.57476E-15
 -1       524 1.99290E+01 1.68091E-01 4.86132E-04-8.46918E-03 1.02259E-13-2.26107E-14
 -1       525 1.98686E+01 7.96741E-02 1.74637E-04-1.14779E-01 1.50514E-13-1.27952E-13
 -1       526 1.98409E+01 2.79491E-02 3.97151E-05-1.67091E-01 1.10968E-13-1.92293E-13
 -1       527 1.98335E+01-5.24804E-03-3.32576E-05-1.89190E-01 8.11648E-14-1.43321E-13
 -1       528 1.98403E+01-2.37897E-02-7.49640E-05-1.90229E-01 7.28083E-14-1.12416E-13
 -1       529 1.98554E+01-3.26977E-02-9.17427E-05-1.79175E-01 1.03293E-13-1.38082E-13
 -1       530 1.98749E+01-3.51724E-02-9.39869E-05-1.62153E-01 9.47313E-14-1.30494E-13
 -1       531 1.98961E+01-3.33319E-02-8.67781E-05-1.43343E-01 1.00723E-13-8.74374E-14
 -1       532 1.99177E+01-2.85308E-02-7.30868E-05-1.25632E-01 7.38726E-14-4.00589E-14
 -1       533 1.99391E+01-2.15357E-02-5.43439E-05-1.11081E-01 1.37608E-15-2.88412E-14
 -1       534 1.99601E+01-1.26116E-02-3.07860E-05-1.01300E-01-2.76948E-15-1.19134E-14
 -1       535 1.99811E+01-1.51172E-03-3.15444E-06-9.77976E-02-3.61561E-15-2.46849E-14
 -1       536 2.00017E+01 1.16900E-02 3.48241E-05-1.01763E-01-3.93370E-14 8.15484E-15
 -1       537 2.00246E+01 2.97577E-02 8.48238E-05-1.15708E-01 6.33570E-16 3.52327E-14
 -1       538 2.00491E+01 5.44698E-02 1.56219E-04-1.42779E-01 1.20043E-14 9.32961E-15
 -1       539 2.00751E+01 8.94747E-02 2.62429E-04-1.87473E-01-1.53175E-15-6.04929E-14
 -1       540 2.01013E+01 1.40365E-01 4.23190E-04-2.56377E-01-4.86610E-14-4.65322E-15
 -1       541 2.01238E+01 2.15436E-01 6.68013E-04-3.58934E-01 1.21734E-13 5.42495E-14
 -1       542 2.01335E+01 3.26552E-01 1.03528E-03-5.08278E-01 1.49097E-13 3.72900E-15
 -1       543 2.01133E+01 4.89639E-01 1.56172E-03-7.21895E-01 2.20870E-13-2.04210E-14
 -1       544 2.00313E+01 7.23455E-01 2.25024E-03-1.02162E+00 1.18719E-13 6.01030E-14
 -1       545 1.98328E+01 1.04320E+00 3.25343E-03-1.43162E+00 2.13498E-14-1.04593E-13
 -1       546 1.94627E+01 1.42068E+00 3.93975E-03-1.94667E+00-3.21326E-14-1.45440E-13
 -1       547 1.87854E+01 1.82131E+00 7.30903E-03-2.63935E+00-1.11635E-13-7.69288E-14
 -1       548 1.77175E+01 1.98580E+00 1.95068E-02-3.52174E+00-1.55601E-13-2.10203E-13
 -1       549 1.62961E+01 1.32928E+00 7.71206E-02-4.66664E+00-7.71327E-14-8.71352E-14
 -1       550 1.51277E+01-8.21078E-01 1.58082E-01-5.79292E+00-2.36595E-13-1.54113E-14
 -1       551 3.17160E+01 8.08307E+00-2.03863E-01-8.65289E-01-3.00190E-13-2.41092E-14
 -1       552 1.74892E+01 1.74062E+00 3.15661E-02 4.12186E+00-2.45885E-13 3.28230E-13
 -1       553 1.82020E+01-3.14473E+00 1.53757E-01 6.22441E+00-2.79637E-13 1.49575E-13
 -1       554 1.93253E+01 1.53713E+00 5.62911E-03 2.36689E+00-1.09270E-13-3.12827E-13
 -1       555 1.97602E+01 1.14441E+00 3.84408E-03 1.74960E+00-2.83221E-13-5.03196E-13
 -1       556 1.99802E+01 8.18406E-01 3.29337E-03 1.27656E+00-1.91551E-13-5.28740E-13
 -1       557 2.00603E+01 5.95322E-01 2.30886E-03 9.13332E-01-1.58219E-13-4.02931E-13
 -1       558 2.00858E+01 4.26391E-01 2.00651E-03 5.42497E-01-1.40718E-13-3.99346E-13
 -1       559 1.96193E+01 8.21755E-01-7.73699E-04 2.31730E-01-2.53230E-13-9.46431E-13
 -1       560 1.96210E+01 7.81809E-01-6.58069E-04-6.56366E-02 1.95098E-13-9.93047E-13
 -1       561 1.97388E+01 7.45734E-01 1.10346E-04 4.95803E-01-4.13049E-13-6.84233E-13
 -1       562 1.97190E+01 6.47050E-01-8.29020E-04-3.09146E-01 2.91354E-13-2.63117E-13
 -1       563 1.98635E+01 4.62427E-01-5.03794E-04-4.53305E-01 2.19122E-13 1.02750E-13
 -1       564 2.00055E+01 2.72444E-01-1.49727E-04-4.86896E-01 5.36486E-14 5.09410E-13
 -1       565 2.01103E+01 1.11690E-01 1.32933E-04-4.29555E-01-1.44510E-13 7.36912E-14
 -1       566 2.01630E+01 4.83348E-05 3.63349E-04-3.19414E-01-2.11391E-13 1.36399E-13
 -1       567 2.01660E+01-6.21626E-02 4.84866E-04-1.90961E-01-5.46541E-14 2.86032E-13
 -1       568 2.01339E+01-8.33707E-02 4.43513E-04-7.79391E-02-1.33075E-13-2.66533E-13
 -1       569 2.03994E+01 1.75670E+00-5.85990E-03-1.53877E+00-3.51122E-13-2.53588E-13
 -1       570 2.04083E+01-5.14376E+00 8.19420E-02-7.60627E+00 5.07393E-13 4.16220E-13
 -1       571 1.63478E+01 5.33294E-01 1.01325E-01 5.27928E+00-1.17701E-13 2.85633E-13
 -1       572 2.03200E+01 9.14121E-01 2.54935E-03 8.80068E-01 3.56356E-13-1.45896E-14
 -1       573 2.00321E+01 3.13431E-01 1.04528E-03 1.78327E-01 1.52006E-13-1.50779E-14
 -1       574 1.96787E+01 3.20136E+00-5.08710E-03-3.15710E-01 2.22859E-14-4.62531E-13
 -1       575 1.02780E+01-1.81497E+00 1.78076E-01 5.42266E+00-1.46140E-13 6.23113E-15
 -1       576 2.39171E+01-5.36521E+00 9.41670E-02-5.04633E+00-3.09142E-13 1.86186E-13
 -1       577 1.38467E+01-3.37091E+00 1.39452E-01-6.28118E+00-4.81268E-13 1.43385E-13
 -1       578 6.64910E+00-4.23033E-01 1.62982E-01-3.29725E+00-2.08514E-13 1.00919E-13
 -1       579 4.49337E+00-3.16430E-01 2.14311E-01 2.66459E+00 1.41935E-13-3.48499E-13
 -1       580 7.54311E+00-2.27671E+00 1.71112E-01 6.73597E+00 1.81188E-13-2.47316E-13
 -1       581 1.46404E+01-3.85350E+00 1.34160E-01 8.25921E+00 2.92481E-13-5.96093E-13
 -1       582 2.37903E+01-5.15014E+00 2.96364E-02 6.35631E+00 7.50233E-14-2.04708E-13
 -1       583 2.89857E+01-3.53168E+00-3.62129E-02 3.27362E+00 9.48408E-14-1.59345E-13
 -1       584 3.14250E+01 8.28874E-02-1.26189E-01-2.06076E-01-1.59789E-13 8.01303E-14
 -1       585 3.23774E+01 5.06761E+00-1.39963E-01-1.41981E+00-2.92641E-13 1.07067E-14
 -1       586 3.03908E+01 7.69964E+00-2.29715E-01 1.04166E+00-4.41230E-13-1.41866E-14
 -1       587 3.13425E+01-9.84096E-01-8.94129E-02-1.18002E+00-2.62434E-13-1.66506E-13
 -1       588 2.79403E+01-4.30790E+00-8.24113E-03-4.09075E+00 1.49852E-13 5.56499E-14
 -1       589 1.18280E+01-3.11906E+00 1.55295E-01-7.98228E+00 3.73708E-13 2.48503E-13
 -1       590 1.99733E+01 2.65077E+00-9.85186E-03-1.24098E+00-2.24967E-13-4.26926E-13
 -1       591 3.08589E+01 1.14188E+00-1.21302E-01 1.25526E+00-3.09499E-13 2.98608E-13
 -1       592 2.94070E+01 5.59791E+00-1.53427E-01 1.93662E+00-5.44544E-13-2.27943E-13
 -1       593 1.96263E+01-4.31633E+00 9.22505E-02 7.24044E+00 1.98133E-13-4.83814E-13
 -1       594 1.99566E+01 2.45551E+00-1.60449E-03 3.92357E-01 1.78587E-13-3.52245E-13
 -1       595 1.99251E+01 2.52944E+00-1.51342E-03 1.33555E-01 1.02544E-13-4.09807E-13
 -1       596 2.01157E+01 2.05638E+00-1.62870E-03 8.51064E-01 2.86069E-13-2.78581E-13
 -1       597 2.02400E+01 1.69380E+00 1.24736E-04 9.98830E-01 2.99478E-13-1.69217E-13
 -1       598 2.03085E+01 1.32181E+00 1.51683E-03 9.83084E-01 3.44230E-13-7.29459E-14
 -1       599 2.01716E+01 4.03688E-01 1.28732E-04 1.50032E-01 1.58479E-13-1.15748E-13
 -1       600 2.02814E+01 1.67955E+00-2.58098E-07-1.14198E+00-2.66634E-13-2.93097E-13
 -1       601 2.02887E+01 1.03543E+00-1.91606E-04-6.81039E-01-2.25692E-13-2.42057E-13
 -1       602 2.02335E+01 6.26326E-01 2.74096E-04-3.36933E-01-1.62295E-13-1.90505E-13
 -1       603 2.01662E+01 3.62707E-01 9.27409E-06-1.03939E-01-1.58560E-13-1.69419E-13
 -1       604 2.01055E+01 1.94091E-01-7.07948E-05 4.36124E-02-1.26559E-13-1.56742E-13
 -1       605 2.00586E+01 8.67147E-02-7.52013E-05 1.29341E-01-9.95894E-14-7.25472E-14
 -1       606 2.00254E+01 1.97897E-02-6.36691E-05 1.72500E-01-8.23126E-14-4.26080E-14
 -1       607 2.00037E+01-1.99383E-02-5.26359E-05 1.87676E-01-9.18700E-14-9.55466E-15
 -1       608 1.99906E+01-4.12411E-02-4.38770E-05 1.85514E-01-6.67068E-14 3.41731E-14
 -1       609 1.99839E+01-5.01049E-02-3.62322E-05 1.73603E-01 7.55133E-15-2.78053E-14
 -1       610 1.99814E+01-5.06997E-02-2.91773E-05 1.57242E-01-1.30830E-14-9.78876E-14
 -1       611 1.99819E+01-4.59702E-02-2.26257E-05 1.40042E-01-6.33041E-14-8.51774E-14
 -1       612 1.99844E+01-3.80383E-02-1.66517E-05 1.24383E-01-1.24211E-13-9.54275E-14
 -1       613 1.99883E+01-2.85107E-02-1.14563E-05 1.11731E-01-9.67126E-14-1.45714E-13
 -1       614 1.99935E+01-1.87423E-02-7.32549E-06 1.02853E-01 1.19575E-15-8.14802E-14
 -1       615 2.00002E+01-1.00832E-02-4.67496E-06 9.79175E-02-6.08410E-14-1.07187E-13
 -1       616 2.00087E+01-4.12293E-03-4.10664E-06 9.64914E-02-3.77513E-14-1.07920E-13
 -1       617 2.00203E+01-2.92494E-03-6.44998E-06 9.74407E-02-9.88850E-14-3.47527E-14
 -1       618 2.00366E+01-9.22524E-03-1.27627E-05 9.87210E-02 5.42118E-14-1.21561E-13
 -1       619 2.00600E+01-2.65251E-02-2.42504E-05 9.70738E-02 3.18881E-14-1.01549E-13
 -1       620 2.00938E+01-5.89541E-02-4.21157E-05 8.76535E-02-7.86625E-15-1.88000E-13
 -1       621 2.01420E+01-1.10706E-01-6.72250E-05 6.36613E-02-2.61491E-14-1.59206E-13
 -1       622 2.02085E+01-1.84776E-01-9.95140E-05 1.61500E-02 3.44964E-14 3.15716E-14
 -1       623 2.02966E+01-2.80722E-01-1.37419E-04-6.56868E-02 1.33291E-13-1.16053E-13
 -1       624 2.04061E+01-3.91300E-01-1.74872E-04-1.93200E-01 8.85965E-14-2.25986E-13
 -1       625 2.05302E+01-4.98383E-01-1.97180E-04-3.75143E-01 2.53710E-13-8.57976E-14
 -1       626 2.06524E+01-5.69707E-01-1.88079E-04-6.11873E-01 1.45349E-13-1.31357E-13
 -1       627 2.07445E+01-5.59467E-01-8.40812E-05-8.86784E-01 1.70096E-14-2.10499E-13
 -1       628 2.07698E+01-4.17595E-01 2.51569E-05-1.15643E+00-5.08979E-16-3.45324E-13
 -1       629 2.06973E+01-1.12787E-01 1.06163E-04-1.34569E+00-8.09145E-14-6.42249E-14
 -1       630 2.05240E+01 3.35306E-01 1.49000E-04-1.36008E+00-2.61001E-13 1.98471E-13
 -1       631 2.02958E+01 8.31107E-01 1.29213E-04-1.12260E+00-1.17541E-13 1.54957E-13
 -1       632 2.01005E+01 1.22125E+00 1.62134E-04-6.28360E-01-1.31114E-13 1.19986E-13
 -1       633 2.00301E+01 1.35650E+00 4.86740E-04 2.78933E-02-1.01023E-13 2.03894E-13
 -1       634 2.01197E+01 1.18147E+00 7.34959E-04 6.71044E-01-5.19809E-14 3.99227E-13
 -1       635 2.03244E+01 7.65954E-01 7.43270E-04 1.13442E+00 8.48162E-14 2.30190E-13
 -1       636 2.05496E+01 2.65143E-01 6.15863E-04 1.33343E+00 1.01422E-13 1.00860E-13
 -1       637 2.07098E+01-1.70344E-01 2.92360E-04 1.28607E+00-1.81435E-13 1.76303E-13
 -1       638 2.07656E+01-4.54030E-01-1.39093E-05 1.07518E+00-1.31519E-13 1.19065E-13
 -1       639 2.07246E+01-5.73155E-01-1.97388E-04 7.95848E-01 7.88544E-14-2.54159E-13
 -1       640 2.06195E+01-5.62164E-01-2.48083E-04 5.21004E-01 1.66431E-13-1.91840E-13
 -1       641 2.04858E+01-4.70945E-01-2.29131E-04 2.92536E-01 1.12593E-13 1.70855E-13
 -1       642 2.03515E+01-3.45226E-01-1.36140E-04 1.25925E-01-5.24473E-15 9.84663E-14
 -1       643 2.02325E+01-2.15931E-01 4.55659E-04 2.12565E-02-1.62652E-14-8.94217E-14
 -1       644 2.75564E+01 7.09904E+00-1.52675E-01-2.35587E-01-3.53322E-13-8.54854E-14
 -1       645 2.01058E+01 2.20489E-01 3.01269E-05-1.64606E-02 1.68856E-13-1.12329E-13
 -1       646 1.99971E+01-1.13293E-02-2.40960E-05-1.86188E-01 9.07095E-14-6.78651E-14
 -1       647 1.99837E+01-3.65153E-02-2.83336E-05-1.87726E-01 1.27291E-13-8.43064E-14
 -1       648 1.99774E+01-4.80718E-02-3.07906E-05-1.77665E-01 6.21789E-14-5.82264E-14
 -1       649 1.99761E+01-5.03728E-02-2.95395E-05-1.61976E-01 2.57428E-14 3.14766E-15
 -1       650 1.99781E+01-4.63413E-02-2.59356E-05-1.44840E-01 3.72425E-14 6.70993E-14
 -1       651 1.99823E+01-3.78168E-02-2.06509E-05-1.29205E-01 1.93187E-14 8.89845E-14
 -1       652 1.99879E+01-2.57687E-02-1.39064E-05-1.17223E-01 3.44606E-14 9.74328E-14
 -1       653 1.99942E+01-1.03686E-02-6.58022E-06-1.10628E-01-3.93950E-14 7.59373E-14
 -1       654 2.00003E+01 7.83070E-03 2.65941E-06-1.10750E-01-4.35944E-14 6.76517E-14
 -1       655 2.00059E+01 3.20987E-02 1.56384E-05-1.19243E-01-1.20366E-14 6.21831E-14
 -1       656 2.00090E+01 6.41102E-02 3.20634E-05-1.38411E-01 8.57715E-14 7.41284E-14
 -1       657 2.00067E+01 1.07750E-01 5.57157E-05-1.70957E-01 8.82631E-14-5.80826E-14
 -1       658 1.99938E+01 1.68899E-01 9.05820E-05-2.20450E-01-5.24417E-14-1.36772E-14
 -1       659 1.99615E+01 2.56091E-01 1.42569E-04-2.91429E-01 4.46672E-14-1.27933E-13
 -1       660 1.98940E+01 3.81242E-01 2.18842E-04-3.89290E-01 1.21719E-13-1.42455E-14
 -1       661 1.97657E+01 5.60068E-01 3.23507E-04-5.19674E-01 1.47631E-13 2.22893E-13
 -1       662 1.95345E+01 8.11235E-01 4.39255E-04-6.87074E-01 1.04801E-13 1.69138E-13
 -1       663 1.91334E+01 1.15233E+00 7.34573E-04-8.91496E-01 7.25156E-14 2.58361E-13
 -1       664 1.85043E+01 1.56444E+00 6.21749E-04-1.11650E+00-3.40155E-15 2.91389E-13
 -1       665 1.74465E+01 2.05792E+00 2.50685E-03-1.37473E+00-1.37229E-13 6.92048E-14
 -1       666 1.57840E+01 2.49122E+00 1.17900E-02-1.65507E+00-1.22852E-13 7.25390E-14
 -1       667 1.32288E+01 2.55850E+00 6.16797E-02-1.99175E+00-1.15112E-13 3.02614E-14
 -1       668 1.69391E+01 2.21782E+00 7.58882E-03 1.69761E+00-2.65420E-14-3.29932E-13
 -1       669 1.94675E+01 9.52507E-01-6.70582E-04 8.78354E-01-2.69123E-13-7.84828E-13
 -1       670 1.92805E+01 8.99325E-01-2.06205E-03 9.46948E-03-6.02591E-14-6.75597E-13
 -1       671 1.93861E+01 9.27549E-01 1.83453E-03 4.22108E-01-3.07673E-13-7.11221E-13
 -1       672 1.94144E+01 7.25477E-01-7.37581E-04-3.50556E-01 2.66511E-13-6.40388E-13
 -1       673 1.99184E+01 2.22216E-01-1.13037E-04-6.71558E-01 1.21279E-13 2.06755E-13
 -1       674 2.01356E+01 1.13484E-02-1.85616E-05-6.16154E-01-3.26161E-13 9.28089E-14
 -1       675 2.02653E+01-1.26995E-01 4.48373E-05-4.75810E-01-1.95142E-13 1.11847E-13
 -1       676 2.03058E+01-1.93966E-01 4.11046E-04-2.97163E-01 7.06570E-14 4.51461E-13
 -1       677 2.02676E+01-1.99866E-01 6.57924E-05-1.30056E-01-1.17331E-14-1.63654E-13
 -1       678 8.48224E+00 2.08992E+00 1.68242E-01-5.39190E-01-9.17706E-14-4.89192E-15
 -1       679 1.09531E+01-1.25899E-01 1.40560E-01-5.47454E+00 1.18293E-13 4.39787E-14
 -1       680 1.82001E+01 1.74045E+00 1.78663E-03 1.39728E+00-1.41183E-13-5.51280E-13
 -1       681 1.26006E+01 2.11549E+00 1.06950E-01 2.75954E+00-2.50388E-13-3.44773E-13
 -1       682 1.72780E+01-3.23178E+00 1.00035E-01-7.20194E+00 2.56579E-13 3.78239E-13
 -1       683 2.00200E+01 2.30265E+00-1.71948E-03 6.36087E-01 2.47509E-13-3.28639E-13
 -1       684 1.96532E+01 4.77887E-01-3.97472E-04-5.90281E-01 2.84274E-13 1.05861E-13
 -1       685 1.89914E+01 1.29574E+00 5.92954E-04 1.12028E+00-2.46494E-13-5.80039E-13
 -1       686 2.00205E+01 3.39742E-02-8.53087E-06-1.64580E-01 6.68950E-14-4.54189E-14
 -1       687 1.50057E+01 2.55265E+00 2.80581E-02 2.04544E+00-1.46526E-13-4.32353E-13
 -1       688 2.00558E+01 1.06331E-01-9.43782E-06-1.13000E-01 1.30557E-13-6.94788E-14
 -1       689 2.00171E+01 2.30826E+00-1.55593E-03-6.31422E-01-8.01307E-14-3.99170E-13
 -1       690 9.11345E+00 4.22904E-01 1.73708E-01 4.62448E+00 2.27318E-14-4.61901E-13
 -1       691 1.33835E+01-1.59193E+00 1.13801E-01 6.84881E+00-7.18176E-14-5.08510E-13
 -1       692 2.64388E+01-4.42752E+00-1.32202E-02 3.48413E+00 1.37629E-13-1.47424E-13
 -1       693 2.02447E+01 6.90311E-01-3.51797E-04 4.11278E-01 2.27919E-13-6.86490E-14
 -1       694 2.48720E+01-4.82804E+00 2.94638E-03-4.77104E+00 2.29889E-13 2.62460E-13
 -1       695 2.88260E+01-2.40657E+00-5.62025E-02 4.95301E-01-8.87623E-14-4.99323E-14
 -1       696 8.27069E+00 1.54508E+00 1.65419E-01-1.86354E+00-3.80772E-14-2.08632E-13
 -1       697 2.87040E+01-2.95337E+00-5.67193E-02-8.97211E-01-6.66741E-15 2.42320E-13
 -1       698 8.83695E+00 1.51349E+00 1.68388E-01 2.06569E+00-2.60051E-13-3.83117E-13
 -1       699 2.01200E+01 2.06329E+00-1.06638E-03-8.55638E-01-1.49414E-13-3.73370E-13
 -1       700 1.99248E+01 2.53010E+00-1.52644E-03-1.28726E-01 2.79626E-14-4.25120E-13
 -1       701 2.69522E+01 6.36566E+00-1.20582E-01 9.21507E-01-4.18811E-13-2.43527E-13
 -1       702 1.99552E+01 2.45842E+00-1.56607E-03-3.86526E-01-1.32258E-14-3.95231E-13
 -1       703 2.80327E+01 5.87842E+00-1.46393E-01-1.75754E+00-3.17024E-13 9.92418E-14
 -1       704 2.32223E+01-4.28367E+00 3.79652E-02 5.02771E+00 1.96404E-13-9.34279E-14
 -1       705 2.17624E+01-3.92028E+00 3.56732E-02-5.52000E+00 2.88012E-13 4.19716E-13
 -1       706 2.02790E+01 9.56861E-01-4.21470E-04 6.64128E-01 2.75489E-13-6.72421E-14
 -1       707 2.88760E+01 6.29668E-01-9.13778E-02-1.66888E+00-2.19616E-13-1.51112E-13
 -1       708 2.02700E+01 1.30836E+00-9.63328E-05 6.32153E-01 2.68550E-13-2.23501E-13
 -1       709 2.04876E+01-3.80965E-01 2.62173E-04-4.37134E-01-4.55171E-14 6.35014E-13
 -1       710 2.00662E+01-6.22631E-02-6.96174E-06-1.61262E-01 2.24247E-14 4.64238E-14
 -1       711 2.02926E+01 1.08212E+00 4.71590E-04-5.04023E-01-1.32386E-13-2.50852E-13
 -1       712 2.02905E+01 6.75466E-01 4.21455E-06-2.44857E-01-1.43939E-13-1.89564E-13
 -1       713 2.02623E+01 3.96996E-01 9.41289E-06-6.35608E-02-1.20451E-13-1.39778E-13
 -1       714 2.02227E+01 2.10903E-01-3.21757E-07 5.39908E-02-4.29408E-14-1.04115E-13
 -1       715 2.01819E+01 8.93973E-02-7.76071E-06 1.23137E-01-7.92167E-14-6.84920E-14
 -1       716 2.01447E+01 1.29172E-02-9.32955E-06 1.57829E-01-6.10128E-14-5.71695E-14
 -1       717 2.01128E+01-3.21824E-02-1.09856E-05 1.69441E-01-7.42853E-14-3.46576E-14
 -1       718 2.00863E+01-5.55579E-02-1.17191E-05 1.66700E-01-3.51387E-14 2.75129E-14
 -1       719 2.00648E+01-6.41064E-02-1.16136E-05 1.56013E-01-4.17537E-14-4.93409E-15
 -1       720 2.00477E+01-6.27648E-02-1.09001E-05 1.41942E-01-7.55680E-15 3.24827E-15
 -1       721 2.00343E+01-5.50863E-02-9.69248E-06 1.27645E-01-1.57214E-13 2.75573E-15
 -1       722 2.00239E+01-4.36832E-02-8.20763E-06 1.15244E-01-1.33602E-13-5.23957E-15
 -1       723 2.00162E+01-3.05980E-02-6.54721E-06 1.06093E-01-1.05856E-13-8.15454E-14
 -1       724 2.00109E+01-1.76424E-02-4.72707E-06 1.00965E-01-8.89751E-14-1.31017E-13
 -1       725 2.00084E+01-6.72716E-03-2.71307E-06 1.00145E-01-1.88842E-14-1.14611E-13
 -1       726 2.00097E+01-1.92366E-04-4.55520E-07 1.03419E-01 4.99391E-14 1.68289E-15
 -1       727 2.00166E+01-1.12565E-03 2.06246E-06 1.09974E-01 2.21255E-14 8.14941E-14
 -1       728 2.00321E+01-1.36220E-02 4.72372E-06 1.18154E-01-6.71606E-15 8.55508E-14
 -1       729 2.00610E+01-4.28815E-02 7.14618E-06 1.25074E-01 2.13654E-14 3.46577E-14
 -1       730 2.01096E+01-9.49573E-02 8.21930E-06 1.26070E-01 7.22738E-14 8.46238E-14
 -1       731 2.01863E+01-1.75849E-01 5.69744E-06 1.13991E-01-1.46123E-14 7.45113E-14
 -1       732 2.03003E+01-2.89520E-01-3.78396E-06 7.84618E-02 1.15176E-14-1.30976E-14
 -1       733 2.04597E+01-4.34343E-01-2.57496E-05 5.48226E-03 2.00260E-14-5.91698E-15
 -1       734 2.06680E+01-5.97645E-01-5.84280E-05-1.21829E-01 1.65719E-13-1.33298E-13
 -1       735 2.09175E+01-7.48886E-01-8.09974E-05-3.19697E-01 2.25443E-13-2.83816E-13
 -1       736 2.11828E+01-8.34326E-01-7.20192E-05-5.95339E-01 2.35693E-14-3.07486E-13
 -1       737 2.14163E+01-7.78133E-01 1.92785E-04-9.33148E-01-4.47369E-14-4.59686E-13
 -1       738 2.15513E+01-4.98744E-01 1.87246E-04-1.27424E+00 3.09496E-14-3.51265E-13
 -1       739 2.15318E+01 4.19660E-02-1.97575E-04-1.50452E+00-7.74531E-14-3.08124E-13
 -1       740 2.13538E+01 7.83374E-01-1.56263E-04-1.47636E+00-1.04877E-13-2.32783E-14
 -1       741 2.11038E+01 1.51687E+00-5.35872E-04-1.08985E+00-1.84422E-13 1.44804E-14
 -1       742 2.09250E+01 1.97454E+00 6.08863E-04-3.76913E-01-5.35783E-14 1.57965E-13
 -1       743 2.09403E+01 1.93338E+00 2.67049E-04 4.54944E-01-1.33683E-13-1.02485E-13
 -1       744 2.11407E+01 1.41996E+00 5.24694E-04 1.13162E+00-9.76891E-14-1.20984E-13
 -1       745 2.13916E+01 6.63481E-01 7.08322E-04 1.46393E+00 6.40779E-14-1.26930E-13
 -1       746 2.15532E+01-6.16477E-02 4.08734E-04 1.44236E+00 1.24942E-13 1.42099E-13
 -1       747 2.15514E+01-5.68810E-01 1.20024E-04 1.18237E+00-1.08234E-13 3.62895E-13
 -1       748 2.13991E+01-8.10712E-01-1.10058E-04 8.30176E-01-1.94838E-13 2.60832E-13
 -1       749 2.11565E+01-8.35060E-01-1.96451E-04 4.93098E-01 8.17542E-14 2.78498E-13
 -1       750 2.08870E+01-7.22579E-01-1.46616E-04 2.24630E-01 2.21024E-13 8.22663E-14
 -1       751 2.06332E+01-5.45231E-01-9.85588E-05 4.13256E-02-8.67323E-14 3.35446E-15
 -1       752 2.04311E+01-3.66403E-01-1.12270E-04-7.50192E-02-1.53137E-13-1.21693E-13
 -1       753 1.88272E+01 1.21273E+00-1.58802E-04 4.51121E-01-1.64176E-13-6.76252E-13
 -1       754 2.02665E+01 4.42922E-01-3.38947E-04 1.03102E-01 1.35637E-13-2.09052E-13
 -1       755 2.00873E+01-5.03963E-02-7.01923E-06-1.70322E-01 5.25321E-14 2.79865E-14
 -1       756 2.01139E+01-2.20534E-02-9.24355E-06-1.69786E-01 7.15238E-14-8.65761E-14
 -1       757 2.00497E+01-6.27733E-02-6.45011E-06-1.47771E-01 2.34855E-14-2.13355E-15
 -1       758 2.00369E+01-5.53607E-02-5.35743E-06-1.33519E-01 3.71811E-14 4.40365E-14
 -1       759 2.00270E+01-4.21411E-02-3.85327E-06-1.21116E-01 4.99301E-14 3.02129E-15
 -1       760 2.00188E+01-2.41056E-02-2.41481E-06-1.12466E-01 5.92361E-14 6.48532E-16
 -1       761 2.00114E+01-2.58230E-03-2.39023E-06-1.09018E-01-3.77277E-14-5.12161E-14
 -1       762 2.00024E+01 2.56002E-02 5.91764E-07-1.11570E-01-3.21507E-14-1.44496E-13
 -1       763 1.99895E+01 6.15215E-02 2.11461E-06-1.21569E-01 4.18067E-14 4.11536E-15
 -1       764 1.99687E+01 1.08530E-01 3.90024E-06-1.40017E-01 9.10338E-14 9.34773E-14
 -1       765 1.99338E+01 1.71689E-01 5.94433E-06-1.67751E-01 6.20422E-14 9.64634E-14
 -1       766 1.98748E+01 2.58187E-01 8.16252E-06-2.05083E-01 6.42253E-14-1.41232E-13
 -1       767 1.97760E+01 3.77733E-01 9.76561E-06-2.51054E-01-4.53443E-14-1.06843E-13
 -1       768 1.96131E+01 5.42622E-01 7.06008E-06-3.02015E-01-1.43411E-14-5.82930E-14
 -1       769 1.93489E+01 7.66797E-01-1.63199E-05-3.49244E-01 8.76510E-14 2.02984E-13
 -1       770 1.89270E+01 1.06273E+00 6.06723E-05-3.74374E-01 5.11825E-16 1.37145E-13
 -1       771 1.83063E+01 1.41380E+00-1.82432E-04-3.50923E-01 6.90658E-15 1.12258E-13
 -1       772 1.73123E+01 1.83722E+00 6.03839E-04-2.29702E-01-8.72918E-15 1.03512E-13
 -1       773 1.58028E+01 2.24716E+00 7.15324E-03 5.64356E-02-9.88390E-14-5.62874E-15
 -1       774 1.35133E+01 2.46556E+00 3.33504E-02 5.88115E-01-1.08708E-13-1.34513E-13
 -1       775 2.01463E+01 3.02822E-02-7.86585E-06-1.52502E-01 9.30529E-14-1.48088E-13
 -1       776 2.54389E+01 5.35698E+00-7.68284E-02-1.00787E+00-2.82219E-13 1.18352E-14
 -1       777 1.11582E+01 1.99693E+00 8.06041E-02 2.23930E+00-9.51413E-14-3.37303E-13
 -1       778 2.62356E+01-3.82764E+00-2.43565E-02-2.10447E+00 3.11688E-13 2.09804E-13
 -1       779 2.03762E+01-2.93649E-01 4.03123E-05-6.76348E-01-2.34128E-13 1.30233E-13
 -1       780 2.01171E+01-9.45367E-02 3.54188E-04-8.63069E-01-8.93465E-14-1.54522E-13
 -1       781 2.04867E+01-3.94136E-01-7.05279E-04-2.44910E-01-1.19345E-13 1.90548E-13
 -1       782 1.67999E+01 2.00984E+00 5.86057E-04 3.01252E-01 3.05387E-15-3.92266E-13
 -1       783 1.09746E+01 2.40668E+00 8.75170E-02-1.24135E-01-2.54813E-13-3.53814E-13
 -1       784 1.83708E+01-2.45239E+00 5.15905E-02 6.05293E+00 1.06498E-13-2.60500E-13
 -1       785 2.02887E+01 7.53624E-01 1.11274E-03 3.02847E-01 2.03289E-13-2.12924E-13
 -1       786 1.50069E+01 2.38541E+00 9.64701E-03-1.33327E-02 5.49083E-15-3.27727E-13
 -1       787 2.01354E+01 1.89466E+00-3.27870E-04 1.97805E-01 1.23029E-13-3.30016E-13
 -1       788 1.56806E+01-9.83207E-01 5.54681E-02-5.59765E+00 1.56668E-13 2.57683E-13
 -1       789 2.78316E+01 2.22074E+00-9.10105E-02 2.15151E+00-4.56385E-13-2.98012E-13
 -1       790 1.89579E+01 9.25826E-01 3.63221E-03-3.79508E-01 8.71602E-14-2.92109E-13
 -1       791 1.31166E+01 5.32687E-01 7.31475E-02 4.60070E+00 1.04990E-14-4.88335E-13
 -1       792 1.14429E+01 1.48496E+00 8.63454E-02-3.05697E+00-1.00345E-13-3.07747E-13
 -1       793 2.71172E+01-1.49702E+00-3.62258E-02-7.94705E-01 1.06681E-13 1.36681E-13
 -1       794 2.64567E+01-3.27263E+00-1.90124E-02 1.24964E+00 2.53017E-13-4.16759E-14
 -1       795 2.75742E+01-1.18276E+00-3.23994E-02 1.03940E+00-1.95421E-13-1.64091E-13
 -1       796 2.01237E+01 1.93116E+00-5.82194E-04 2.09932E-03 6.71138E-14-3.55032E-13
 -1       797 1.79985E+01 1.60451E+00-2.94372E-04 4.65080E-01-1.06871E-13-5.13509E-13
 -1       798 2.60951E+01 4.06069E+00-5.67912E-02 1.96015E+00-5.24586E-13-1.58824E-13
 -1       799 2.59656E+01 3.59186E+00-6.88146E-02-2.05771E+00-1.69450E-13 1.41862E-13
 -1       800 2.02266E+01 2.46410E-01-1.70712E-04-2.84321E-02 1.12765E-13-1.88257E-13
 -1       801 2.39931E+01-3.71243E+00 1.01961E-02-3.34923E+00 3.25928E-13-1.00918E-13
 -1       802 1.92980E+01 5.77719E-01 6.33520E-04-7.59620E-01 4.16016E-13-2.30872E-13
 -1       803 1.48502E+01 5.17083E-01 3.37975E-02-4.02968E+00-5.35492E-14-8.25425E-14
 -1       804 2.49470E+01 5.45495E+00-5.43886E-02-1.59589E-02-2.27499E-13-5.11516E-14
 -1       805 2.02144E+01 1.59211E+00-1.11191E-03-5.27625E-01-1.03466E-13-3.27257E-13
 -1       806 2.01842E+01 1.12728E-01-9.54569E-05-1.10424E-01 7.40013E-14-1.31479E-13
 -1       807 1.97308E+01 2.10537E-01 5.18312E-04-9.12205E-01 1.86460E-13-8.46171E-14
 -1       808 2.65215E+01 1.05753E+00-2.92574E-02-2.01957E+00-2.05426E-14 3.59681E-13
 -1       809 2.02166E+01 1.59522E+00 1.43651E-03 5.36108E-01 2.42378E-13-2.88829E-13
 -1       810 2.45737E+01-3.63561E+00 1.16585E-02 2.76966E+00 1.81884E-13 9.64289E-14
 -1       811 1.92184E+01-2.17920E+00 2.61873E-02-5.12502E+00 1.60152E-13 2.04728E-13
 -1       812 2.01732E+01 1.77466E+00-5.12409E-04 3.82395E-01 2.05288E-13-2.69924E-13
 -1       813 2.01668E+01 1.78517E+00-2.94976E-04-3.74546E-01-4.10092E-14-3.68028E-13
 -1       814 2.00978E+01-7.10307E-02-2.10363E-07-1.23706E-01 2.51145E-14-4.02579E-14
 -1       815 2.40065E+01 3.69210E+00-9.30858E-03-1.45847E+00-4.00157E-14-3.25241E-14
 -1       816 2.03380E+01 6.70138E-01 3.19790E-05-1.54141E-01-6.35273E-14-2.00024E-13
 -1       817 2.03310E+01 3.91621E-01-4.72617E-05-2.39859E-02-4.76151E-14-1.72438E-13
 -1       818 2.03031E+01 2.02146E-01-6.32039E-06 6.07725E-02-4.06739E-14-2.02735E-13
 -1       819 2.02656E+01 7.70268E-02-1.75333E-06 1.10281E-01-2.69049E-14-1.05696E-13
 -1       820 2.02255E+01-1.54839E-03-4.33025E-07 1.34325E-01-5.64938E-14-3.46285E-14
 -1       821 2.01865E+01-4.69116E-02-9.21986E-08 1.41281E-01-3.93398E-14-4.82825E-14
 -1       822 2.01506E+01-6.90082E-02-5.36297E-08 1.37746E-01-7.66345E-14-8.16182E-14
 -1       823 2.01188E+01-7.51379E-02-2.70600E-07 1.28641E-01-3.52185E-14-1.07392E-13
 -1       824 2.00911E+01-7.06142E-02-2.38661E-07 1.17532E-01-7.52546E-14-1.91830E-13
 -1       825 2.00673E+01-5.93102E-02-1.45936E-07 1.06948E-01-1.61798E-13-1.90157E-13
 -1       826 2.00471E+01-4.41182E-02-1.70561E-08 9.86652E-02-1.21321E-13-7.04752E-14
 -1       827 2.00301E+01-2.73661E-02 1.94985E-07 9.39347E-02-1.00709E-13-8.54006E-15
 -1       828 2.00162E+01-1.12191E-02 5.24613E-07 9.36513E-02-2.63546E-14 1.90313E-14
 -1       829 2.00061E+01 1.91618E-03 9.90520E-07 9.84505E-02 1.20424E-13 1.08188E-13
 -1       830 2.00011E+01 8.97655E-03 1.61257E-06 1.08723E-01 4.99949E-14 6.72700E-14
 -1       831 2.00041E+01 5.83034E-03 2.35395E-06 1.24517E-01 5.19911E-14 1.39449E-13
 -1       832 2.00197E+01-1.30730E-02 3.04675E-06 1.45278E-01 4.47907E-14 2.62994E-13
 -1       833 2.00551E+01-5.48598E-02 3.40246E-06 1.69335E-01 3.94742E-14 1.20859E-13
 -1       834 2.01206E+01-1.27945E-01 1.74764E-06 1.93036E-01-1.37530E-13-5.53834E-14
 -1       835 2.02297E+01-2.40864E-01-5.21542E-06 2.09416E-01-6.36376E-14 7.74017E-15
 -1       836 2.03983E+01-3.99580E-01-2.13146E-05 2.06415E-01-5.13869E-14-8.03757E-14
 -1       837 2.06419E+01-6.02350E-01-5.79256E-05 1.64957E-01 7.61194E-14 1.03253E-14
 -1       838 2.09700E+01-8.31156E-01-1.02234E-04 5.80813E-02 1.42564E-13-1.57076E-13
 -1       839 2.13748E+01-1.03967E+00-1.47383E-04-1.45461E-01 6.81603E-14-2.49112E-13
 -1       840 2.18203E+01-1.14514E+00-2.16525E-04-4.67676E-01 1.84045E-14-2.40550E-13
 -1       841 2.22323E+01-1.02467E+00 6.83348E-04-9.01732E-01 5.56724E-14-1.44816E-13
 -1       842 2.24876E+01-5.37840E-01-3.91820E-04-1.36282E+00 4.40873E-14-2.69610E-13
 -1       843 2.25058E+01 3.50242E-01-2.56793E-03-1.67094E+00 4.07451E-14-2.81913E-13
 -1       844 2.22695E+01 1.49037E+00 1.78538E-03-1.55753E+00-1.96515E-14 4.61653E-16
 -1       845 2.20035E+01 2.44481E+00-1.17292E-03-9.65459E-01-9.04060E-14 4.12214E-15
 -1       846 2.18136E+01 2.86289E+00-1.30540E-02 7.71425E-02-2.83559E-13-1.56254E-13
 -1       847 2.20250E+01 2.36960E+00-1.67326E-03 1.03261E+00-1.40564E-13-1.25756E-13
 -1       848 2.23305E+01 1.32283E+00-6.85437E-04 1.58080E+00 2.86300E-14-2.27660E-13
 -1       849 2.25365E+01 1.88115E-01-9.10512E-04 1.60759E+00 2.26273E-13-2.75614E-13
 -1       850 2.24940E+01-6.54255E-01-4.39222E-04 1.26203E+00 9.10715E-14-3.59933E-13
 -1       851 2.22115E+01-1.07861E+00-7.97183E-05 7.88621E-01-1.92291E-13-2.39297E-13
 -1       852 2.17955E+01-1.15647E+00-6.52308E-05 3.59217E-01 6.92955E-14 1.87690E-14
 -1       853 2.13518E+01-1.01687E+00-1.44049E-04 4.63508E-02 7.68740E-14-5.06572E-14
 -1       854 2.09587E+01-7.81967E-01 5.32966E-04-1.45177E-01-2.00586E-14 5.63167E-14
 -1       855 2.06967E+01-5.83654E-01-9.90259E-04-2.16824E-01-9.15878E-14 7.49633E-14
 -1       856 2.01347E+01 1.89541E+00-4.95939E-04-1.92368E-01 1.38243E-16-3.69963E-13
 -1       857 2.01255E+01-7.39066E-02-2.57899E-07-1.34575E-01 3.73347E-14-1.53599E-14
 -1       858 2.01929E+01-3.66283E-02-1.91090E-06-1.43528E-01-1.75653E-14-1.17974E-13
 -1       859 2.00738E+01-5.92713E-02 1.98527E-07-1.12750E-01 1.35118E-13-5.31690E-14
 -1       860 2.00525E+01-4.07953E-02-4.34983E-08-1.03684E-01 4.88845E-14-1.13328E-13
 -1       861 2.00334E+01-1.79278E-02-2.27217E-06-9.79984E-02 2.39946E-14-1.47852E-13
 -1       862 2.00127E+01 1.18469E-02-6.29896E-07-9.58787E-02 1.89216E-14-1.30024E-13
 -1       863 1.99887E+01 4.87166E-02-1.67441E-06-9.80844E-02-1.21338E-13-6.27042E-14
 -1       864 1.99573E+01 9.50006E-02-3.25816E-06-1.04396E-01-2.31610E-14-3.44752E-14
 -1       865 1.99128E+01 1.54322E-01-5.81451E-06-1.13766E-01 1.33112E-13 2.38010E-14
 -1       866 1.98467E+01 2.31723E-01-9.90761E-06-1.23746E-01 1.94356E-13-3.87230E-14
 -1       867 1.97463E+01 3.33692E-01-1.63073E-05-1.29492E-01 4.00995E-14-1.24496E-14
 -1       868 1.95934E+01 4.67809E-01-2.73209E-05-1.22120E-01-9.97188E-14 1.62585E-14
 -1       869 1.93616E+01 6.41488E-01-4.93266E-05-8.61471E-02-8.00534E-14 3.53150E-14
 -1       870 1.90145E+01 8.58920E-01-1.19780E-05 4.98574E-03 8.99555E-14-5.56373E-14
 -1       871 1.85333E+01 1.10186E+00-1.69306E-04 1.78989E-01 8.77556E-15-3.95342E-14
 -1       872 1.78084E+01 1.37186E+00 1.26447E-07 5.13278E-01-8.03733E-14-8.24355E-14
 -1       873 1.67839E+01 1.58995E+00 1.29008E-03 1.09700E+00 5.03700E-14-1.51228E-13
 -1       874 1.53622E+01 1.63588E+00 1.39428E-02 2.04688E+00 3.72805E-14-2.68651E-13
 -1       875 2.02317E+01 1.67580E-02-8.06068E-06-1.32136E-01 1.30751E-14-1.64830E-13
 -1       876 2.46677E+01 2.10675E+00-2.65227E-02-1.96320E+00-2.29352E-15-1.77200E-13
 -1       877 1.42585E+01 1.30808E+00 3.15321E-02 3.16672E+00 6.58087E-14-4.52974E-13
 -1       878 2.07164E+01-6.22031E-01 4.06259E-04-6.24292E-01 5.77351E-14 5.05312E-13
 -1       879 1.69326E+01-4.83323E-01 1.96872E-02 4.51127E+00 2.58160E-13-6.36349E-14
 -1       880 2.04785E+01-4.87857E-01 3.63140E-04-9.61950E-01 4.38859E-14-4.62214E-14
 -1       881 2.61493E+01 7.77853E-01-4.18598E-02 1.97071E+00-3.07002E-13-2.06525E-13
 -1       882 2.54132E+01-2.21372E+00 3.75745E-03-9.43625E-02 2.49566E-13 2.11085E-13
 -1       883 2.03259E+01 9.54112E-01-5.47783E-04 2.85495E-01 1.90447E-13-2.56454E-13
 -1       884 2.01572E+01-6.42517E-02 6.28083E-07-1.42516E-01 1.24913E-14-9.41758E-14
 -1       885 2.03087E+01 1.06300E+00 1.98606E-04-3.24697E-01-8.18289E-14-2.84110E-13
 -1       886 1.61779E+01 1.72248E+00 7.03315E-04-1.19335E+00-6.81422E-14-2.54352E-13
 -1       887 1.82720E+01 1.09096E+00-2.41826E-03-7.65501E-01 1.19872E-13-8.25771E-14
 -1       888 2.13408E+01-2.90131E+00 1.68296E-02 4.45965E+00 2.27878E-13-8.87010E-14
 -1       889 2.53389E+01-7.22915E-01-2.18447E-02-1.43159E+00 1.20989E-13 1.75914E-13
 -1       890 2.58326E+01-2.43672E+00-1.36657E-02-1.28097E-01-2.69021E-14-1.74710E-13
 -1       891 1.89367E+01 5.24987E-01-6.79644E-04-1.24949E+00 4.09400E-13 2.52514E-13
 -1       892 2.16665E+01-2.70227E+00 1.18015E-02-3.81199E+00 1.70047E-13 1.32796E-13
 -1       893 2.02708E+01 1.02463E-01 6.90699E-05-1.02086E-01 7.16773E-14-1.86342E-13
 -1       894 1.38124E+01 1.92749E+00 3.72137E-02-2.00925E+00-2.69790E-13-6.49206E-13
 -1       895 2.42730E+01 4.34115E+00-3.68344E-02 1.14057E+00-3.69070E-13-7.56296E-15
 -1       896 2.03510E+01 5.80719E-01 4.15625E-05 1.03589E-01 1.30094E-13-1.99384E-13
 -1       897 2.00165E+01-1.91177E-01 9.27938E-04-1.21078E+00 2.16730E-13-4.98692E-13
 -1       898 2.02810E+01 1.33961E+00-1.16298E-03 1.93779E-01 1.43461E-13-2.12864E-13
 -1       899 2.53870E+01-1.11103E+00-1.09845E-02 1.16468E+00-9.26791E-14-2.08690E-13
 -1       900 2.44359E+01-2.78621E+00-8.38429E-03 1.11251E+00 2.99942E-13 1.09394E-13
 -1       901 2.35858E+01 4.14641E+00-1.49666E-02-7.78785E-01-2.08877E-13 1.88145E-13
 -1       902 2.02994E+01 1.23055E+00 1.97180E-04-2.41574E-01-4.32860E-14-2.91216E-13
 -1       903 1.74453E+01-6.85740E-01 1.98972E-02-4.39817E+00-1.25013E-13 1.76132E-13
 -1       904 2.47079E+01-2.94929E+00 3.80568E-03-1.27662E+00 3.54261E-13 3.32481E-13
 -1       905 1.74114E+01 1.37453E+00-5.97604E-04-9.78040E-01-7.92328E-14-5.27700E-14
 -1       906 2.02734E+01 1.40960E+00 4.25346E-05 6.91380E-02 9.66533E-14-3.25123E-13
 -1       907 2.02892E+01 1.33035E+00 2.13376E-06-1.30187E-01 2.20775E-14-3.12875E-13
 -1       908 2.00913E+01-5.79042E-02-7.26351E-07-8.50695E-02 7.47657E-14-4.78841E-14
 -1       909 1.70130E+01 2.94588E-01 6.61566E-03 3.35852E+00 1.71780E-13-8.39682E-14
 -1       910 2.03799E+01 3.53509E-01-9.10391E-05 4.89998E-03-6.16233E-14-1.46595E-13
 -1       911 2.03553E+01 1.72306E-01-3.87818E-08 5.88038E-02 1.04914E-14-1.54202E-13
 -1       912 2.03177E+01 5.25400E-02 2.90644E-06 8.92535E-02 8.00506E-15-1.51815E-13
 -1       913 2.02743E+01-2.13914E-02-4.27215E-07 1.03018E-01-7.03251E-14-1.40132E-13
 -1       914 2.02299E+01-6.23892E-02-4.50828E-08 1.05768E-01-4.59086E-14-1.31571E-13
 -1       915 2.01876E+01-8.02169E-02-5.40746E-07 1.01943E-01-6.80045E-14-1.47450E-13
 -1       916 2.01487E+01-8.21154E-02-3.33868E-07 9.49453E-02-6.03818E-14-1.72613E-13
 -1       917 2.01138E+01-7.34045E-02-1.20420E-07 8.72924E-02-1.27579E-13-1.51680E-13
 -1       918 2.00827E+01-5.79702E-02-4.18058E-08 8.08579E-02-3.41160E-14-9.26858E-14
 -1       919 2.00552E+01-3.87350E-02 1.64696E-08 7.71022E-02-4.40274E-14-3.75553E-14
 -1       920 2.00310E+01-1.81037E-02 1.56400E-07 7.72748E-02-5.45142E-14 4.25739E-14
 -1       921 2.00099E+01 1.58885E-03 3.85710E-07 8.25856E-02 6.87076E-14 3.99965E-14
 -1       922 1.99927E+01 1.76122E-02 8.37482E-07 9.43365E-02 1.61928E-13-9.98207E-15
 -1       923 1.99811E+01 2.63360E-02 1.65827E-06 1.13990E-01 1.38587E-13 1.07699E-13
 -1       924 1.99788E+01 2.26963E-02 2.99285E-06 1.43121E-01 1.27960E-13 1.79708E-13
 -1       925 1.99918E+01-3.17407E-04 5.03133E-06 1.83155E-01-4.41281E-14 1.86134E-13
 -1       926 2.00300E+01-5.20139E-02 8.64941E-06 2.34710E-01-1.73632E-13 7.75392E-14
 -1       927 2.01078E+01-1.43895E-01 9.63106E-06 2.96307E-01-4.90743E-14 5.13355E-14
 -1       928 2.02452E+01-2.88492E-01 3.93687E-06 3.62136E-01-2.08951E-14 8.86599E-14
 -1       929 2.04674E+01-4.96220E-01-8.16232E-06 4.18533E-01 1.06861E-14 4.94759E-14
 -1       930 2.08018E+01-7.68533E-01-6.39597E-05 4.39371E-01-1.22073E-14 6.78911E-14
 -1       931 2.12711E+01-1.08480E+00-1.18775E-04 3.81549E-01 6.40573E-14 6.01357E-15
 -1       932 2.18768E+01-1.37924E+00 6.26996E-04 1.83395E-01 6.33397E-14-1.03186E-13
 -1       933 2.25669E+01-1.50826E+00 3.53719E-04-2.18477E-01 1.19989E-13-3.22932E-13
 -1       934 2.32383E+01-1.35035E+00-4.85894E-03-7.94020E-01 6.84849E-14-3.18766E-13
 -1       935 2.36481E+01-5.26694E-01 5.93472E-04-1.44423E+00 2.48411E-14-1.34746E-13
 -1       936 2.30964E+01 3.64109E+00-2.43909E-02 7.74034E-01-2.24250E-13 1.12457E-13
 -1       937 2.33982E+01 2.37899E+00-1.39571E-02 1.70421E+00-1.89081E-13 3.11879E-14
 -1       938 2.37373E+01 6.60836E-01-4.20575E-03 1.83171E+00-9.12026E-15-1.88290E-13
 -1       939 2.36499E+01-7.03906E-01-3.03610E-03 1.33875E+00 3.62110E-14-5.05684E-13
 -1       940 2.31817E+01-1.40206E+00-7.01117E-04 6.59808E-01 1.79935E-13-5.27345E-13
 -1       941 2.25208E+01-1.55326E+00-6.78206E-04 8.41688E-02 1.87366E-13-1.60920E-13
 -1       942 2.18446E+01-1.35785E+00 1.63987E-04-2.79638E-01 2.25869E-13 1.60250E-13
 -1       943 2.12668E+01-1.03565E+00 7.14452E-04-4.57880E-01 8.12374E-14 4.65631E-13
 -1       944 2.00627E+01-3.56645E-02 2.02676E-06-7.89168E-02 2.66982E-14-4.39882E-14
 -1       945 2.01590E+01-8.18191E-02 1.56311E-06-1.00953E-01 4.43160E-14-1.19523E-13
 -1       946 2.01235E+01-7.44202E-02 1.75940E-06-9.28857E-02 4.82624E-14-1.96370E-13
 -1       947 2.00331E+01-6.36290E-03 3.21989E-07-7.42465E-02-1.78168E-14 7.70903E-15
 -1       948 2.00018E+01 2.92644E-02-5.77748E-07-7.13414E-02-6.39923E-14-4.17423E-15
 -1       949 1.99652E+01 7.22820E-02-1.79011E-06-6.92874E-02-3.36069E-14-1.07319E-13
 -1       950 1.99189E+01 1.24687E-01-3.40437E-06-6.60644E-02 2.57094E-14-2.36165E-13
 -1       951 1.98566E+01 1.89253E-01-5.48371E-06-5.79402E-02 1.59974E-13-1.19263E-13
 -1       952 1.97698E+01 2.69252E-01-7.80847E-06-3.85177E-02 7.46448E-14-1.12326E-14
 -1       953 1.96469E+01 3.67796E-01-9.59592E-06 2.72295E-03-3.87332E-14 1.48990E-14
 -1       954 1.94733E+01 4.86385E-01-9.71328E-06 8.25288E-02-4.79559E-14 1.20791E-14
 -1       955 1.92308E+01 6.21836E-01 2.63118E-05 2.27206E-01 4.38302E-14 1.03692E-14
 -1       956 1.89185E+01 7.55026E-01 1.52207E-05 4.58941E-01-2.18651E-14 9.64260E-14
 -1       957 1.84874E+01 8.70860E-01 1.54653E-04 8.54211E-01 7.24081E-14 2.36860E-14
 -1       958 1.79463E+01 8.96498E-01 6.33496E-04 1.48210E+00 9.40539E-14-1.36074E-13
 -1       959 1.74591E+01 7.41610E-01 2.12655E-03 2.27760E+00 6.32986E-14-1.37345E-13
 -1       960 2.02841E+01-3.74228E-03-7.99676E-06-1.03833E-01 2.32200E-14-1.48916E-13
 -1       961 2.02791E+01 1.38923E+00 1.23080E-04-3.41543E-02 5.92702E-14-3.17213E-13
 -1       962 2.03534E+01 9.20954E-01 3.24242E-04 1.67114E-01 1.49117E-13-1.96067E-13
 -1       963 1.95271E+01 1.19702E-01 1.63335E-05-1.31371E+00 6.09724E-13-3.00322E-13
 -1       964 2.01981E+01-7.65117E-02 2.68197E-06-1.07444E-01-5.18559E-14-2.02249E-13
 -1       965 1.66314E+01 9.64585E-01 1.33175E-02-2.51658E+00-1.81935E-13 8.81327E-14
 -1       966 2.03343E+01 3.05119E-01 9.80948E-05-1.68088E-02 6.80022E-14-1.83079E-13
 -1       967 2.27076E+01-2.71029E+00 4.14463E-03 2.66741E+00 2.44351E-13 8.91889E-14
 -1       968 2.03790E+01 6.20049E-01 1.22376E-05-7.86310E-02-1.73705E-14-2.11375E-13
 -1       969 1.97654E+01-1.47707E+00 6.37166E-03 3.75971E+00 2.07962E-13-1.43432E-13
 -1       970 2.42608E+01-1.45815E+00 1.39561E-03-8.33009E-01 1.67480E-13 8.28464E-14
 -1       971 2.02404E+01-5.30748E-02-1.36788E-06-1.09656E-01-2.05481E-14-2.25515E-13
 -1       972 2.03550E+01 8.91621E-01-4.54979E-05-1.55347E-01-4.38846E-15-2.54839E-13
 -1       973 2.11356E+01-1.05031E+00 8.95918E-04-1.00197E+00 3.14848E-13 6.85181E-14
 -1       974 2.36862E+01 4.95977E-01-1.72475E-02-1.84852E+00 1.90419E-13-1.53493E-13
 -1       975 2.03250E+01 7.87423E-02 1.54963E-05-8.56986E-02 1.71200E-14-1.23885E-13
 -1       976 1.98861E+01-1.60855E+00 5.41799E-03-3.83137E+00-8.10840E-14 1.52010E-13
 -1       977 1.78105E+01 7.89000E-01 6.56241E-03-1.88982E+00 2.47769E-14 5.72091E-13
 -1       978 2.06169E+01-8.45805E-01-1.58238E-03-1.55655E+00 4.07834E-13-5.27734E-13
 -1       979 2.30711E+01-2.68820E+00 1.11298E-03-2.17444E+00 1.09514E-13 2.04793E-13
 -1       980 2.03161E+01 1.15839E+00 6.14435E-04 2.03152E-01 1.64834E-13-1.92567E-13
 -1       981 2.45292E+01-2.00751E+00-4.10282E-03 2.15371E-01-1.19527E-13-2.17442E-13
 -1       982 1.84660E+01 6.35390E-01 2.03135E-03-1.54492E+00 4.33440E-13 3.63855E-13
 -1       983 2.03940E+01 5.05010E-01 1.47864E-05 3.99765E-02 7.10137E-14-1.81421E-13
 -1       984 2.03675E+01 9.73965E-01 4.78207E-04 7.98358E-02 1.30808E-13-2.12603E-13
 -1       985 2.31227E+01-2.32984E+00 9.95539E-04 1.17784E+00 1.00831E-13 2.47991E-14
 -1       986 2.03609E+01 9.82504E-01 4.91669E-05-9.00126E-02 2.56603E-14-2.88992E-13
 -1       987 2.03832E+01 1.27740E-01-5.34942E-06 4.46916E-02 1.06260E-17-1.75649E-13
 -1       988 2.03424E+01 2.09331E-02-1.24617E-05 5.94255E-02-2.20356E-14-2.26002E-13
 -1       989 2.02956E+01-4.30377E-02 1.99246E-07 6.52144E-02-6.05889E-14-1.93593E-13
 -1       990 2.02475E+01-7.61978E-02-4.05088E-06 6.52759E-02-8.08452E-14-2.40952E-13
 -1       991 2.02012E+01-8.75740E-02-3.35682E-06 6.21774E-02-8.14323E-14-2.05182E-13
 -1       992 2.01581E+01-8.40400E-02-1.75407E-06 5.78987E-02-7.19789E-14-2.45232E-13
 -1       993 2.01188E+01-7.05651E-02-1.10218E-06 5.39863E-02-1.38687E-14-1.67579E-13
 -1       994 2.00831E+01-5.07403E-02-9.85602E-07 5.17502E-02-3.37571E-14-1.60942E-13
 -1       995 2.00506E+01-2.72461E-02-9.80917E-07 5.24428E-02 1.68914E-14-9.04345E-14
 -1       996 2.00205E+01-2.30746E-03-1.32629E-06 5.74620E-02 3.30804E-14-4.54580E-14
 -1       997 1.99928E+01 2.18398E-02-1.92294E-06 6.85536E-02 1.10663E-13-2.08967E-14
 -1       998 1.99677E+01 4.24340E-02-2.51451E-06 8.80202E-02 1.08612E-13-1.10285E-13
 -1       999 1.99472E+01 5.55851E-02-2.96381E-06 1.18896E-01 5.73381E-14-2.23880E-13
 -1      1000 1.99349E+01 5.55744E-02-2.94355E-06 1.65017E-01 6.57139E-14-2.15435E-13
 -1      1001 1.99379E+01 3.40626E-02-1.81853E-06 2.30839E-01-1.24055E-13-1.66634E-13
 -1      1002 1.99681E+01-2.06939E-02 7.19788E-06 3.20724E-01-5.34167E-14 5.51646E-14
 -1      1003 2.00441E+01-1.24205E-01 1.63840E-05 4.37140E-01-5.43264E-14 9.36092E-14
 -1      1004 2.01934E+01-2.95509E-01 4.84149E-06 5.77527E-01-3.29161E-14-8.16889E-14
 -1      1005 2.04541E+01-5.53637E-01 4.99763E-05 7.28241E-01 2.29530E-14-4.34226E-15
 -1      1006 2.08722E+01-9.08929E-01-9.99619E-05 8.55584E-01 3.73239E-14 1.61412E-13
 -1      1007 2.14963E+01-1.34683E+00-1.14471E-04 8.95515E-01-1.83575E-14 2.58475E-14
 -1      1008 2.23588E+01-1.79116E+00-1.84563E-03 7.54898E-01-1.86941E-13-2.04467E-13
 -1      1009 2.03703E+01 9.79206E-01 1.83000E-04 1.86159E-02 6.39574E-14-2.70751E-13
 -1      1010 2.23109E+01-1.76252E+00 4.02663E-03-8.31724E-01 5.17688E-13-2.36380E-13
 -1      1011 2.16392E+01-1.41599E+00-4.30618E-03-9.79071E-01 4.30703E-13-6.34885E-14
 -1      1012 2.00229E+01 6.97031E-03-1.86095E-06-4.29270E-02-9.98354E-14-9.91526E-14
 -1      1013 1.99845E+01 4.54861E-02-3.61719E-06-3.65952E-02 1.64662E-14-6.44444E-14
 -1      1014 2.03718E+01 2.42064E-01 1.28949E-05-3.79668E-02 5.61907E-14-1.87426E-13
 -1      1015 1.99405E+01 9.00874E-02-5.76343E-06-2.67062E-02 5.34988E-14-9.95168E-14
 -1      1016 1.98867E+01 1.41567E-01-8.51614E-06-9.35528E-03 1.25908E-13-3.01526E-13
 -1      1017 1.98182E+01 2.00569E-01-1.13626E-05 2.17470E-02 3.07341E-14-2.11515E-13
 -1      1018 1.97295E+01 2.66777E-01-1.31347E-05 7.63567E-02 4.29327E-14-1.47919E-13
 -1      1019 1.96145E+01 3.37497E-01-5.57789E-06 1.69138E-01-4.90420E-14-9.87781E-14
 -1      1020 1.94687E+01 4.05065E-01 2.25444E-05 3.21557E-01 1.68022E-14-1.65728E-13
 -1      1021 1.93009E+01 4.51519E-01 6.56027E-05 5.47852E-01 6.14320E-14-3.16576E-13
 -1      1022 1.91026E+01 4.52239E-01 2.45097E-04 9.08546E-01 2.39376E-15-3.26482E-13
 -1      1023 1.89134E+01 3.47053E-01 3.04810E-04 1.44104E+00-3.60024E-15-4.44571E-14
 -1      1024 2.35534E+01-2.14538E+00 1.20967E-03-4.01509E-01 2.15888E-13-1.34538E-13
 -1      1025 2.12306E+01-1.73109E+00 1.92418E-03 2.48983E+00 1.28489E-13-9.38226E-14
 -1      1026 2.02142E+01-8.55162E-02 4.52225E-07-6.77684E-02-5.58252E-14-2.05858E-13
 -1      1027 2.00587E+01-2.59517E-02-4.24721E-06-4.79790E-02-5.23671E-14-1.69027E-13
 -1      1028 2.00927E+01-5.19438E-02 9.27864E-07-5.26848E-02 3.06427E-14-1.36521E-13
 -1      1029 2.04128E+01 5.37212E-01-2.09441E-05-2.72167E-02 3.20511E-15-2.62192E-13
 -1      1030 1.91991E+01-6.09181E-01-4.65563E-05 2.91650E+00 1.70849E-13-2.15287E-14
 -1      1031 2.04109E+01 2.94158E-01 1.34192E-04 1.73153E-02-2.67310E-14-1.71442E-13
 -1      1032 1.83111E+01-1.41151E-01 7.04710E-03-3.03281E+00-3.60507E-13-5.84046E-14
 -1      1033 2.03532E+01 4.64778E-02 1.67034E-05-5.98080E-02 3.59094E-14-2.17634E-13
 -1      1034 1.92654E+01 1.12633E-01 1.85484E-03-1.64510E+00 5.36492E-13 1.77224E-14
 -1      1035 2.01301E+01-7.28748E-02 2.43314E-07-5.79110E-02-5.03724E-15-1.32708E-13
 -1      1036 2.11782E+01-1.34613E+00-1.80467E-06-1.76018E+00 3.68865E-13-2.94434E-13
 -1      1037 2.01705E+01-8.51858E-02 8.42891E-07-6.31979E-02 7.44061E-14-1.48936E-13
 -1      1038 1.88395E+01 8.94481E-02 1.56774E-04 2.05974E+00 1.99329E-13-2.16538E-14
 -1      1039 2.03656E+01 9.93655E-01 1.00321E-04-3.55198E-02 3.40992E-14-3.23950E-13
 -1      1040 2.16640E+01-2.08633E+00 1.13159E-03-2.69892E+00 6.08447E-14-1.46606E-13
 -1      1041 1.99341E+01-4.09317E-01-3.21346E-03-1.72899E+00 3.39602E-13-8.54155E-13
 -1      1042 2.02609E+01-6.90859E-02-4.75527E-05-7.02178E-02-6.56424E-14-2.13654E-13
 -1      1043 2.03960E+01 7.39963E-01 4.41964E-04-5.88674E-02 4.57791E-14-2.73606E-13
 -1      1044 2.04149E+01 6.56239E-01-2.53404E-04 2.27559E-02 7.93315E-14-2.28470E-13
 -1      1045 2.04192E+01 3.86288E-01-9.84521E-06-1.09928E-03 7.02298E-14-2.15386E-13
 -1      1046 2.03082E+01-2.75736E-02 3.94386E-05-6.84274E-02 3.74165E-14-2.17748E-13
 -1      1047 2.22584E+01-2.01496E+00-3.42549E-04-1.65582E+00 3.52645E-13 2.12146E-13
 -1      1048 2.04173E+01 6.82183E-01 5.62496E-04-2.61075E-04 7.27456E-14-2.12168E-13
 -1      1049 2.03422E+01-1.16618E-02 5.87214E-05 2.20098E-02-6.36943E-14-1.96616E-13
 -1      1050 2.02929E+01-6.30309E-02-1.43782E-05 2.29291E-02-6.52312E-14-2.07142E-13
 -1      1051 2.02430E+01-8.58502E-02 1.65957E-05 2.23694E-02-1.17133E-13-2.28825E-13
 -1      1052 2.01953E+01-8.97058E-02 1.69047E-05 2.11717E-02-8.61108E-14-3.17125E-13
 -1      1053 2.01508E+01-8.03319E-02 1.27020E-05 2.00801E-02 2.63970E-14-2.23768E-13
 -1      1054 2.01098E+01-6.20291E-02 8.60393E-06 1.98662E-02 4.26896E-14-2.08461E-13
 -1      1055 2.00718E+01-3.78035E-02 8.55889E-06 2.14110E-02-2.04952E-14-1.18595E-13
 -1      1056 2.00358E+01-9.83744E-03 8.37307E-06 2.58890E-02 4.48228E-14-1.24909E-13
 -1      1057 2.00009E+01 2.01284E-02 9.47458E-06 3.49755E-02 8.94373E-14-1.69907E-13
 -1      1058 1.99661E+01 5.03134E-02 1.34769E-05 5.11350E-02 2.47697E-14-2.34772E-13
 -1      1059 1.99312E+01 7.83458E-02 2.03178E-05 7.79407E-02 3.70619E-14-3.39482E-13
 -1      1060 1.98970E+01 1.00571E-01 3.08453E-05 1.20434E-01 7.60752E-14-2.61797E-13
 -1      1061 1.98666E+01 1.11128E-01 4.60430E-05 1.85432E-01 5.27181E-14-2.78925E-13
 -1      1062 1.98465E+01 1.00732E-01 6.85361E-05 2.81572E-01-2.47566E-14-1.41551E-13
 -1      1063 1.98490E+01 5.52004E-02 1.12072E-04 4.18966E-01-1.21644E-15-2.06288E-13
 -1      1064 1.98958E+01-4.60904E-02 9.80873E-05 6.06822E-01-8.03920E-14-1.54520E-13
 -1      1065 2.00229E+01-2.31790E-01 1.07392E-04 8.49332E-01 3.25686E-14-1.75105E-13
 -1      1066 2.02835E+01-5.35610E-01 5.19746E-04 1.14002E+00 1.07949E-13-1.39155E-13
 -1      1067 2.07495E+01-9.86494E-01 1.35077E-03 1.44041E+00-8.87097E-15-2.44326E-13
 -1      1068 2.16911E+01-1.66004E+00 2.29657E-03 1.53349E+00-1.47642E-13-1.36013E-13
 -1      1069 1.99236E+01 9.61795E-02-9.31388E-06 2.50261E-02 1.14696E-13-2.17141E-13
 -1      1070 2.00083E+01 1.87932E-02-6.17333E-06-6.36374E-03-6.25935E-14-2.81444E-13
 -1      1071 2.03958E+01 1.79342E-01 5.75085E-05-3.68865E-02 6.52816E-15-1.77808E-13
 -1      1072 1.98137E+01 1.78939E-01-1.91172E-05 1.12047E-01 4.67008E-14-1.68556E-13
 -1      1073 1.97464E+01 2.13980E-01-2.45576E-05 1.98321E-01-5.64133E-14-2.60625E-13
 -1      1074 1.96740E+01 2.33486E-01-3.72671E-05 3.32085E-01 3.00272E-14-2.48060E-13
 -1      1075 1.96087E+01 2.22673E-01-2.08940E-05 5.20925E-01 6.70903E-14-1.78946E-13
 -1      1076 1.95632E+01 1.54411E-01-9.08413E-06 8.05523E-01-6.78538E-14-1.00707E-13
 -1      1077 1.95822E+01-1.72994E-02-4.95063E-04 1.19940E+00-4.02794E-14-2.56324E-13
 -1      1078 2.04207E+01 2.18088E-01 3.82273E-05 1.02541E-02 3.22593E-15-1.88978E-13
 -1      1079 2.00834E+01-4.35111E-02-3.23044E-06-1.79886E-02 3.10123E-14-6.09011E-14
 -1      1080 2.04337E+01 4.06493E-01-3.99471E-04-6.33628E-04 8.25207E-14-2.31505E-13
 -1      1081 1.99681E+01 5.60432E-02-6.74204E-06 5.32458E-03 5.76584E-14-3.15678E-13
 -1      1082 1.88763E+01 1.05520E-01-1.21779E-03-2.08816E+00-5.47268E-14-9.24451E-14
 -1      1083 2.02310E+01-8.67450E-01-3.23977E-06 2.08171E+00 2.68952E-14-2.29451E-13
 -1      1084 2.00459E+01-1.44755E-02-6.62284E-06-1.33899E-02-8.24741E-14-9.30412E-14
 -1      1085 1.98727E+01 1.37986E-01-1.34645E-05 5.79987E-02 1.68492E-14-1.62291E-13
 -1      1086 2.03870E+01 7.70775E-02 2.41240E-05 1.85687E-02 1.14763E-15-1.87833E-13
 -1      1087 2.03969E+01 1.07416E-01-1.26039E-04-1.83340E-02 3.17677E-14-2.25231E-13
 -1      1088 2.02579E+01-8.12371E-02 2.75481E-05-2.74610E-02-1.44089E-13-1.43652E-13
 -1      1089 2.01229E+01-6.74918E-02-9.42598E-06-2.13715E-02 3.04169E-14-5.82954E-14
 -1      1090 2.03160E+01-8.58308E-01 1.54907E-03-2.12112E+00 1.28073E-13-5.72747E-13
 -1      1091 2.04220E+01 2.34414E-01 1.03417E-04-8.38647E-03 2.06663E-15-2.50464E-13
 -1      1092 1.97209E+01-2.99554E-01-5.31199E-04 1.62177E+00 8.77512E-14-3.72858E-13
 -1      1093 2.04071E+01 7.17570E-01-2.16691E-04-2.80411E-02 4.01234E-14-3.12518E-13
 -1      1094 2.02095E+01-8.99907E-02-1.43000E-05-2.61617E-02-5.89185E-14-4.60538E-14
 -1      1095 2.03550E+01 7.03979E-03-6.79981E-05-2.36187E-02-3.13070E-16-2.23147E-13
 -1      1096 2.03190E+01-4.15192E-02-3.37988E-05-2.04439E-02-2.32925E-14-1.32049E-13
 -1      1097 2.01646E+01-8.38664E-02-1.35636E-05-2.40377E-02 2.66777E-14-1.55717E-14
 -1      1098 2.79715E+01 9.08935E+00 2.32619E+00-6.70062E+00-4.95715E-14 1.41143E-12
 -1      1099 2.05519E+01 6.22853E+00 2.09765E-01-3.90577E+00-2.63400E-14 1.17718E-13
 -1      1100 1.94373E+01 5.85376E+00 7.52525E-02-2.88971E+00-1.79301E-14-4.10469E-13
 -1      1101 1.90279E+01 5.72648E+00 6.03476E-02-2.23713E+00-9.99548E-15-6.58666E-13
 -1      1102 1.88407E+01 5.66946E+00 5.74868E-02-1.70383E+00-7.19737E-15-7.67474E-13
 -1      1103 1.87464E+01 5.64055E+00 5.54414E-02-1.23682E+00-3.75394E-15-8.05778E-13
 -1      1104 1.86967E+01 5.62512E+00 5.36561E-02-8.07558E-01-1.77419E-15-8.06949E-13
 -1      1105 1.86722E+01 5.61739E+00 5.24100E-02-3.96720E-01 6.49654E-16-7.95925E-13
 -1      1106 1.86650E+01 5.61509E+00 5.19822E-02 3.77019E-03 1.78460E-15-7.78529E-13
 -1      1107 1.86725E+01 5.61749E+00 5.24337E-02 4.04368E-01 4.38863E-15-7.59987E-13
 -1      1108 1.86974E+01 5.62534E+00 5.37133E-02 8.15579E-01 5.42014E-15-7.27184E-13
 -1      1109 1.87479E+01 5.64111E+00 5.57316E-02 1.24553E+00 8.78637E-15-6.61165E-13
 -1      1110 1.88436E+01 5.67043E+00 5.78079E-02 1.71336E+00 1.15429E-14-5.58148E-13
 -1      1111 1.90325E+01 5.72783E+00 6.02302E-02 2.24846E+00 1.50019E-14-3.83752E-13
 -1      1112 1.94469E+01 5.85654E+00 7.48501E-02 2.90339E+00 2.04003E-14-5.44044E-14
 -1      1113 2.05752E+01 6.23572E+00 2.10426E-01 3.92161E+00 2.42306E-14 5.83346E-13
 -1      1114 2.80515E+01 9.12586E+00 2.36782E+00 6.74422E+00 2.32037E-14 1.88990E-12
 -1      1115 2.88222E+01 3.61773E+00 1.27197E+00-4.21862E+00-2.02310E-13 2.22622E-12
 -1      1116 2.02335E+01-1.77804E-01-6.16491E-01-1.10001E-01-6.71407E-14 1.75482E-12
 -1      1117 1.88381E+01-9.64014E-02-2.36445E-01 6.25154E-02-2.55108E-14 1.12754E-12
 -1      1118 1.85034E+01-4.80983E-02-5.96472E-02 4.04942E-02-1.32160E-14 6.98608E-13
 -1      1119 1.84477E+01-2.46688E-02-1.52698E-02 2.67845E-02-1.27684E-14 3.70516E-13
 -1      1120 1.85294E+01-1.30956E-02-5.04124E-03 1.90732E-02-8.08576E-15 2.32477E-13
 -1      1121 1.86765E+01-6.64954E-03-1.52682E-03 1.41360E-02 6.94974E-16 1.04937E-13
 -1      1122 1.88497E+01-2.88186E-03 5.11544E-04 1.07113E-02-8.81088E-15-8.54889E-14
 -1      1123 1.90263E+01-6.53405E-04 1.82455E-03 8.18104E-03-3.22198E-15-2.72815E-13
 -1      1124 1.91935E+01 6.33182E-04 2.56005E-03 6.23673E-03-2.39831E-14-5.03740E-13
 -1      1125 1.93448E+01 1.31907E-03 2.85259E-03 4.71478E-03 1.23629E-14-6.96909E-13
 -1      1126 1.94772E+01 1.61391E-03 2.83499E-03 3.51871E-03 1.22344E-14-5.90391E-13
 -1      1127 1.95903E+01 1.65399E-03 2.61445E-03 2.58488E-03 4.57251E-15-6.64581E-13
 -1      1128 1.96855E+01 1.53129E-03 2.26932E-03 1.86764E-03 1.01346E-14-5.80624E-13
 -1      1129 1.97649E+01 1.30974E-03 1.85485E-03 1.33292E-03-2.72345E-14-4.08992E-13
 -1      1130 1.98314E+01 1.03564E-03 1.41068E-03 9.55207E-04-2.99291E-14-3.32337E-13
 -1      1131 1.98879E+01 7.45536E-04 9.68279E-04 7.15979E-04-1.46139E-14-5.56342E-13
 -1      1132 1.99375E+01 4.73202E-04 5.58600E-04 6.02131E-04 1.25713E-16-7.71229E-13
 -1      1133 1.99831E+01 2.56371E-04 2.20401E-04 6.03690E-04 1.06869E-14-9.78164E-13
 -1      1134 2.00270E+01 1.43375E-04 9.41759E-06 7.09868E-04 9.68240E-15-1.11677E-12
 -1      1135 2.00704E+01 1.99191E-04 7.76963E-06 9.02541E-04-9.00449E-15-1.03201E-12
 -1      1136 2.01134E+01 5.09374E-04 3.31691E-04 1.14622E-03 1.03416E-14-9.12754E-13
 -1      1137 2.01536E+01 1.17892E-03 1.13340E-03 1.37396E-03 9.34124E-15-6.80590E-13
 -1      1138 2.01851E+01 2.32124E-03 2.58963E-03 1.46995E-03-3.73437E-14-8.46253E-13
 -1      1139 2.01976E+01 4.03057E-03 4.86588E-03 1.25227E-03 4.57978E-15-8.47671E-13
 -1      1140 2.01753E+01 6.33091E-03 8.04323E-03 4.64160E-04 2.79876E-14-6.40820E-13
 -1      1141 2.00959E+01 9.09826E-03 1.19995E-02-1.21088E-03 2.85018E-14-6.12487E-13
 -1      1142 1.99322E+01 1.19651E-02 1.62552E-02-4.08874E-03-1.97505E-14-8.93050E-13
 -1      1143 1.96547E+01 1.42408E-02 1.98329E-02-8.35796E-03-2.93752E-14-1.05450E-12
 -1      1144 1.92392E+01 1.49118E-02 2.12372E-02-1.38843E-02 3.64749E-14-7.86341E-13
 -1      1145 1.86761E+01 1.28180E-02 1.87079E-02-1.99933E-02-3.55639E-14-4.59997E-13
 -1      1146 1.79836E+01 7.07181E-03 1.08567E-02-2.53526E-02-1.88465E-14-4.75904E-13
 -1      1147 1.72161E+01-2.33372E-03-2.40211E-03-2.81327E-02-3.72548E-14-5.87055E-13
 -1      1148 1.64661E+01-1.40005E-02-1.90631E-02-2.65659E-02 1.97260E-15-6.78547E-13
 -1      1149 1.58493E+01-2.51368E-02-3.50541E-02-1.97903E-02 5.06799E-14-6.51243E-13
 -1      1150 1.54770E+01-3.23947E-02-4.54933E-02-8.55896E-03 1.13811E-14-8.26083E-13
 -1      1151 1.54223E+01-3.33187E-02-4.68099E-02 4.71645E-03-4.37150E-16-9.33937E-13
 -1      1152 1.56942E+01-2.75688E-02-3.85163E-02 1.67956E-02-2.82673E-15-6.88312E-13
 -1      1153 1.62353E+01-1.71106E-02-2.34726E-02 2.49166E-02 6.26968E-14-3.87392E-13
 -1      1154 1.69407E+01-5.20917E-03-6.43792E-03 2.78245E-02-4.34651E-14-8.75643E-13
 -1      1155 1.76920E+01 5.04765E-03 8.09234E-03 2.59821E-02 1.27696E-14-1.27467E-12
 -1      1156 1.83880E+01 1.18131E-02 1.74540E-02 2.10029E-02 3.99031E-14-1.23115E-12
 -1      1157 1.89633E+01 1.47114E-02 2.11651E-02 1.47958E-02-7.63810E-14-1.25626E-12
 -1      1158 1.93918E+01 1.44253E-02 2.03064E-02 8.90775E-03-3.68741E-14-1.13484E-12
 -1      1159 1.96789E+01 1.20893E-02 1.65941E-02 4.25712E-03 4.47226E-14-9.48470E-13
 -1      1160 1.98500E+01 8.82567E-03 1.16733E-02 1.18682E-03 1.53052E-14-2.72205E-13
 -1      1161 1.99390E+01 5.49729E-03 6.88000E-03-3.16617E-04-2.88183E-14-2.92621E-13
 -1      1162 1.99792E+01 2.84803E-03 3.32560E-03-5.91481E-04 9.99355E-15-1.33569E-13
 -1      1163 1.99959E+01 1.35576E-03 1.58485E-03-3.37448E-04-1.77217E-14 1.94704E-13
 -1      1164 2.00003E+01 2.42572E-05-8.22723E-05-2.85933E-04 6.09916E-14 4.80964E-13
 -1      1165 2.91317E+01 3.72145E+00 1.36637E+00 4.34244E+00 1.47465E-13 2.75591E-12
 -1      1166 2.03821E+01-1.75499E-01-6.28637E-01 1.39300E-01 5.47756E-14 2.40649E-12
 -1      1167 1.88709E+01-9.82312E-02-2.49505E-01-6.28940E-02 3.12042E-14 1.81448E-12
 -1      1168 1.85127E+01-4.99132E-02-6.42378E-02-4.12572E-02 1.72874E-14 1.38512E-12
 -1      1169 1.84469E+01-2.54176E-02-1.65209E-02-2.72504E-02 8.81500E-15 1.11895E-12
 -1      1170 1.85236E+01-1.35217E-02-5.38340E-03-1.93562E-02 1.53371E-14 8.74929E-13
 -1      1171 1.86684E+01-6.89182E-03-1.67807E-03-1.43257E-02 1.78905E-14 6.82414E-13
 -1      1172 1.88406E+01-3.01817E-03 4.33090E-04-1.08546E-02 6.38123E-15 6.32421E-13
 -1      1173 1.90171E+01-6.62256E-04 1.81190E-03-8.28025E-03 1.39076E-14 5.98327E-13
 -1      1174 1.91808E+01 6.27043E-04 2.64665E-03-6.22527E-03-1.41550E-14 5.43508E-13
 -1      1175 1.93291E+01 1.28088E-03 2.86645E-03-4.85009E-03 1.33285E-14 5.00165E-13
 -1      1176 1.94627E+01 1.62347E-03 2.89908E-03-3.59153E-03 9.51221E-15 4.47942E-13
 -1      1177 1.95766E+01 1.68665E-03 2.70859E-03-2.60739E-03-2.17369E-15 4.07122E-13
 -1      1178 1.96719E+01 1.57051E-03 2.38402E-03-1.83186E-03 1.62764E-14 2.74748E-13
 -1      1179 1.97508E+01 1.33269E-03 1.97463E-03-1.22205E-03 9.40518E-15-1.03322E-14
 -1      1180 1.98160E+01 1.00424E-03 1.50488E-03-7.43918E-04-4.24525E-15-5.59032E-14
 -1      1181 1.98708E+01 5.93846E-04 9.76607E-04-3.69474E-04-1.45583E-14-7.55591E-15
 -1      1182 1.99189E+01 8.82576E-05 3.67250E-04-7.69866E-05-4.40676E-14 2.38493E-13
 -1      1183 1.99649E+01-5.37844E-04-3.72433E-04 1.42073E-04 2.39210E-14 1.94947E-13
 -1      1184 2.00126E+01-1.37042E-03-1.31949E-03 2.68892E-04 2.65731E-14 5.84755E-14
 -1      1185 2.00701E+01-2.51126E-03-2.63210E-03 3.91562E-04 4.37291E-15 7.93973E-14
 -1      1186 2.01485E+01-4.18211E-03-4.62001E-03 3.43692E-04-1.85276E-14 1.29432E-13
 -1      1187 2.02612E+01-6.65552E-03-7.68242E-03 4.57416E-05 2.86416E-14 9.83991E-14
 -1      1188 2.04303E+01-1.03751E-02-1.25382E-02-7.63262E-04-2.25351E-15 1.02213E-13
 -1      1189 2.06907E+01-1.59883E-02-2.03676E-02-2.61239E-03 1.67485E-14-5.31723E-14
 -1      1190 2.10975E+01-2.43818E-02-3.30708E-02-6.55707E-03-1.32446E-15-7.12650E-14
 -1      1191 2.17380E+01-3.66018E-02-5.34648E-02-1.46548E-02-1.49282E-14-5.33774E-15
 -1      1192 2.27483E+01-5.33974E-02-8.46972E-02-3.07973E-02 7.90774E-15 7.85899E-14
 -1      1193 2.43319E+01-7.15067E-02-1.26148E-01-6.20164E-02 1.61815E-14-4.95437E-15
 -1      1194 2.66850E+01-9.27493E-02-1.64451E-01-1.15232E-01-3.62401E-14 1.02696E-14
 -1      1195 3.01107E+01-8.82787E-02-1.49831E-01-1.93370E-01-8.69790E-15-7.57172E-14
 -1      1196 3.47361E+01-2.25899E-02 4.11268E-02-2.73748E-01-2.88878E-14 1.17129E-13
 -1      1197 3.94520E+01 1.53958E-01 5.10096E-01-2.04113E-01-6.56315E-14 8.99253E-13
 -1      1198 4.10977E+01 4.13213E-01 9.60861E-01 2.68619E-01 3.32651E-14 1.09240E-12
 -1      1199 3.57765E+01 4.20415E-01 4.72721E-01 1.14232E+00-9.47159E-16 6.03739E-13
 -1      1200 2.40786E+01-1.22385E-01-1.45313E+00 1.48248E+00 1.66533E-16 1.27121E-13
 -1      1201 1.55694E+01-7.61513E-01-3.08257E+00 4.29383E-01-8.76105E-14 1.55681E-13
 -1      1202 1.86274E+01-6.25561E-01-2.48273E+00-1.13562E+00 1.17878E-13-4.32099E-13
 -1      1203 3.06870E+01 1.73431E-01-3.00010E-01-1.33418E+00-8.75272E-14-5.57332E-13
 -1      1204 3.95110E+01 4.66911E-01 9.23995E-01-5.48002E-01 8.81240E-15 5.82201E-13
 -1      1205 4.06744E+01 2.09449E-01 7.51241E-01 2.41136E-02 4.36456E-15 4.19220E-13
 -1      1206 3.69466E+01 3.59730E-02 2.24762E-01 2.36304E-01 4.66372E-14 1.01003E-13
 -1      1207 3.21419E+01-6.16420E-02-8.00899E-02 2.11048E-01-5.50302E-14 8.30169E-14
 -1      1208 2.80142E+01-7.85757E-02-1.59749E-01 1.37909E-01-1.32802E-14 4.00985E-13
 -1      1209 2.50555E+01-6.70338E-02-1.36997E-01 8.01112E-02-2.75856E-14 6.61249E-13
 -1      1210 2.30620E+01-4.99112E-02-9.49068E-02 4.45327E-02-6.70514E-15 4.60687E-13
 -1      1211 2.17466E+01-3.54519E-02-6.16004E-02 2.49656E-02 4.69976E-14 6.34898E-13
 -1      1212 2.08833E+01-2.56223E-02-4.17581E-02 1.46864E-02 6.96227E-14 6.33363E-13
 -1      1213 2.03301E+01-2.06328E-02-3.32091E-02 7.97985E-03-6.89115E-14 1.13317E-12
 -1      1214 2.00293E+01-1.50182E-02-2.46936E-02-1.40130E-03 2.15058E-14 1.53434E-12
 -1      1215 1.99760E+01-1.58796E-02 7.28072E-03-1.74441E-02 1.22218E-13 1.13978E-12
 -1      1216 1.99885E+01-2.49254E-02 8.09988E-03-1.56349E-02 1.02389E-12 1.74409E-13
 -1      1217 1.99929E+01 4.39186E-02-1.92683E-02-6.98362E-03 1.83735E-12-6.34459E-14
 -1      1218 2.00002E+01 3.29246E-01-1.09712E-02 6.18984E-03 1.62880E-12-1.02226E-13
 -1      1219 2.00067E+01 7.00258E-01 5.51834E-03 1.37053E-02 2.41232E-12-3.21515E-14
 -1      1220 2.00109E+01 1.01737E+00 1.78080E-02 1.50601E-02 3.45418E-13-6.57507E-14
 -1      1221 2.00113E+01 1.18964E+00 2.23957E-02 1.16212E-02-8.81567E-13 9.32544E-15
 -1      1222 2.00085E+01 1.18879E+00 1.94922E-02 6.03473E-03-2.58167E-12-1.24494E-13
 -1      1223 2.00043E+01 1.03845E+00 1.21945E-02 4.67125E-05-3.44156E-12-1.89652E-13
 -1      1224 2.00001E+01 7.95144E-01 3.64033E-03-4.50267E-03-2.04160E-12 1.50621E-13
 -1      1225 1.99969E+01 5.25499E-01-3.59820E-03-6.85753E-03 1.02845E-13 7.96826E-15
 -1      1226 1.99952E+01 2.85685E-01-8.05634E-03-7.03096E-03 6.12396E-13-1.11500E-13
 -1      1227 1.99950E+01 1.11298E-01-9.41442E-03-5.52535E-03 1.45705E-12 7.78158E-14
 -1      1228 1.99961E+01 1.08005E-02-7.98164E-03-3.32657E-03 1.52825E-12 4.92567E-14
 -1      1229 1.99977E+01-2.67537E-02-4.93575E-03-1.02525E-03 7.22884E-13 3.81652E-14
 -1      1230 1.99997E+01-2.31941E-02-1.29878E-03 5.73875E-04-9.86924E-13-2.19058E-13
 -1      1231 2.00001E+01-6.69876E-03 8.42722E-04 9.41579E-04-1.25748E-12 2.63067E-14
 -1      1232 1.99994E+01 2.72753E-04-2.21841E-04 5.55790E-05-5.06082E-13 4.50818E-14
 -1      1233-1.58334E+00-2.87300E+01-4.17224E+00-3.10156E+00 1.64344E-12 1.54161E-13
 -1      1234-3.19822E+00-2.23853E+01-4.08931E+00-6.70405E+00 6.44595E-13 1.41220E-13
 -1      1235-2.64650E+00-9.68166E+00-3.37538E+00-4.27507E+00 1.02540E-12 9.01501E-13
 -1      1236 5.13847E+00 2.59806E+00-2.02285E+00 4.19494E+00 1.56297E-12 1.44329E-12
 -1      1237 2.37659E+01 9.25143E+00 2.96757E-01 1.44712E+01 8.07576E-13 1.09734E-12
 -1      1238 5.27401E+01 8.93537E+00 3.73878E+00 1.97055E+01 3.54605E-13 1.00453E-12
 -1      1239 8.01015E+01 4.94585E+00 6.89079E+00 1.30064E+01 2.46358E-13 1.38667E-12
 -1      1240 9.04160E+01 2.93621E+00 8.30473E+00-2.41637E+00 9.95315E-14 6.31106E-13
 -1      1241 7.24882E+01 5.95719E+00 6.02195E+00-1.65509E+01 2.90823E-13-7.32303E-13
 -1      1242 3.93431E+01 9.70053E+00 2.15317E+00-1.81599E+01 8.61089E-13-1.63736E-12
 -1      1243 1.30448E+01 6.45191E+00-1.00259E+00-9.21762E+00 1.43197E-12-1.70441E-12
 -1      1244-3.67041E-01-3.71563E+00-2.92241E+00 1.13881E+00 1.95999E-12-1.46705E-12
 -1      1245-3.55036E+00-1.68285E+01-3.79934E+00 6.45441E+00 1.71707E-12-8.87290E-13
 -1      1246-2.06924E+00-2.71119E+01-4.20535E+00 5.40920E+00 1.23362E-12-2.53075E-13
 -1      1247-1.14021E+00-2.80052E+01-3.96213E+00 1.32121E-01 6.36491E-13-8.60145E-14
 -1      1248-1.47455E+00-2.01715E+01-3.36140E+00-3.54365E+00-1.43219E-13-9.50906E-14
 -1      1249-5.52266E-01-6.21221E+00-2.14360E+00-1.40500E+00-1.12310E-12-7.34968E-13
 -1      1250 5.74802E+00 6.48165E+00-7.05629E-01 6.24933E+00-1.78990E-12-1.43952E-12
 -1      1251 1.99139E+01 1.27433E+01 9.37539E-01 1.53960E+01-1.57341E-12-1.91358E-12
 -1      1252 3.97978E+01 1.16410E+01 2.47471E+00 2.02338E+01-8.35110E-13-1.41065E-12
 -1      1253 5.90346E+01 6.53211E+00 3.61508E+00 1.67743E+01-4.01401E-13-1.26998E-12
 -1      1254 7.10333E+01 2.21798E+00 4.27760E+00 5.72075E+00-9.44661E-14-8.76355E-13
 -1      1255 6.97948E+01 2.87026E+00 4.26066E+00-8.14880E+00 4.48565E-14-5.24969E-13
 -1      1256 5.55520E+01 7.73571E+00 3.45205E+00-1.78750E+01-1.68976E-13 6.37268E-14
 -1      1257 3.42179E+01 1.24137E+01 2.10881E+00-1.95242E+01-9.20042E-13 1.35536E-12
 -1      1258 1.39644E+01 1.12106E+01 3.08776E-01-1.22532E+01-1.10001E-12 1.17906E-12
 -1      1259 2.17214E+00 1.52028E+00-1.33202E+00-2.37158E+00-4.11005E-13 4.74842E-13
 -1      1260-1.38363E+00-1.30702E+01-2.74748E+00 3.39741E+00 7.20979E-13-2.87714E-13
 -1      1261-1.19680E+00-2.52722E+01-3.73915E+00 2.12992E+00 1.29730E-12-1.57721E-13
 -1      1262 2.22729E+01 1.83860E+00-7.26101E-01-2.79178E+00-7.60780E-14 1.11805E-12
 -1      1263 2.03633E+01 4.69121E+00-4.86826E-02-3.30886E+00-1.96690E-13-1.34934E-13
 -1      1264 2.08714E+01 4.81193E+00-1.13428E-01-4.16321E+00-2.53880E-13 1.44988E-13
 -1      1265 1.95340E+01 4.99403E+00-1.97239E-02-2.65639E+00-1.86087E-13-5.21364E-13
 -1      1266 1.98329E+01 5.09114E+00 2.31670E-04-3.04744E+00-2.18187E-13-3.58033E-13
 -1      1267 2.05296E+01 3.95369E+00-2.59128E-02-3.07701E+00-3.40363E-13-1.19918E-13
 -1      1268 1.91855E+01 5.08508E+00-3.57342E-03-2.07294E+00-1.39617E-13-7.09686E-13
 -1      1269 1.93346E+01 5.14042E+00 1.05446E-02-2.36564E+00-1.65121E-13-6.25874E-13
 -1      1270 1.97554E+01 4.36678E+00-2.45266E-02-2.49140E+00-2.91565E-13-4.40536E-13
 -1      1271 1.90099E+01 5.13137E+00 3.25311E-03-1.56706E+00-1.01698E-13-7.94914E-13
 -1      1272 1.90880E+01 5.16107E+00 1.25412E-02-1.81695E+00-1.15545E-13-7.61901E-13
 -1      1273 1.93928E+01 4.55574E+00-2.00520E-02-1.93427E+00-2.07575E-13-5.97487E-13
 -1      1274 1.89155E+01 5.16121E+00 6.48976E-03-1.11986E+00-6.06772E-14-8.15991E-13
 -1      1275 1.89583E+01 5.17763E+00 1.26692E-02-1.34107E+00-7.62090E-14-8.05434E-13
 -1      1276 1.92062E+01 4.66246E+00-1.61222E-02-1.44706E+00-1.50729E-13-6.64663E-13
 -1      1277 1.88635E+01 5.18091E+00 8.15367E-03-6.97203E-01-2.68882E-14-8.14853E-13
 -1      1278 1.88867E+01 5.18983E+00 1.19535E-02-9.07135E-01-3.75654E-14-8.18434E-13
 -1      1279 1.91023E+01 4.72786E+00-1.40318E-02-1.00729E+00-8.23491E-14-6.91263E-13
 -1      1280 1.88390E+01 5.19283E+00 9.24779E-03-2.93187E-01 1.21485E-14-7.97081E-13
 -1      1281 1.88492E+01 5.19674E+00 1.10546E-02-4.94937E-01-3.63164E-15-8.02343E-13
 -1      1282 1.90461E+01 4.76684E+00-1.29247E-02-5.92318E-01-2.99554E-14-6.75619E-13
 -1      1283 1.88349E+01 5.19789E+00 1.01685E-02 1.03341E-01 4.35706E-14-7.79384E-13
 -1      1284 1.88347E+01 5.19783E+00 1.01446E-02-9.58469E-02 3.25319E-14-7.91457E-13
 -1      1285 1.90213E+01 4.78510E+00-1.24655E-02-1.93266E-01 3.84384E-14-6.63882E-13
 -1      1286 1.88497E+01 5.19667E+00 1.10876E-02 5.02599E-01 7.64948E-14-7.60197E-13
 -1      1287 1.88393E+01 5.19264E+00 9.22640E-03 3.00719E-01 6.74303E-14-7.74370E-13
 -1      1288 1.90215E+01 4.78491E+00-1.24796E-02 2.00758E-01 9.09783E-14-6.51573E-13
 -1      1289 1.88878E+01 5.18951E+00 1.19905E-02 9.15220E-01 1.04101E-13-7.20968E-13
 -1      1290 1.88643E+01 5.18055E+00 8.14822E-03 7.04985E-01 9.45312E-14-7.46580E-13
 -1      1291 1.90468E+01 4.76623E+00-1.29636E-02 6.00001E-01 1.39496E-13-6.25746E-13
 -1      1292 1.89592E+01 5.17751E+00 1.27437E-02 1.34604E+00 1.39547E-13-6.45701E-13
 -1      1293 1.89162E+01 5.16083E+00 6.50219E-03 1.12455E+00 1.26159E-13-6.87537E-13
 -1      1294 1.91034E+01 4.72715E+00-1.39850E-02 1.01177E+00 1.91283E-13-5.76872E-13
 -1      1295 1.90917E+01 5.16105E+00 1.28184E-02 1.82675E+00 1.91475E-13-5.37854E-13
 -1      1296 1.90122E+01 5.13067E+00 3.31612E-03 1.57623E+00 1.70785E-13-6.04140E-13
 -1      1297 1.92076E+01 4.66132E+00-1.60727E-02 1.45258E+00 2.57503E-13-5.00530E-13
 -1      1298 1.93414E+01 5.13981E+00 1.04460E-02 2.37782E+00 2.29414E-13-3.46011E-13
 -1      1299 1.91910E+01 5.08366E+00-3.60589E-03 2.08349E+00 2.09360E-13-4.63143E-13
 -1      1300 1.93991E+01 4.55342E+00-1.94975E-02 1.94385E+00 3.24187E-13-3.80335E-13
 -1      1301 1.98461E+01 5.09232E+00 3.53646E-04 3.06173E+00 2.47954E-13 1.85824E-14
 -1      1302 1.95426E+01 4.99292E+00-2.00844E-02 2.66913E+00 2.25167E-13-2.00256E-13
 -1      1303 1.97671E+01 4.36350E+00-2.37175E-02 2.50523E+00 3.67385E-13-1.54619E-13
 -1      1304 2.09008E+01 4.84020E+00-9.92723E-02 4.18777E+00 2.47413E-13 6.21253E-13
 -1      1305 2.03824E+01 4.68851E+00-4.88660E-02 3.32631E+00 2.09305E-13 2.87832E-13
 -1      1306 2.05512E+01 3.94296E+00-2.52202E-02 3.09257E+00 3.67026E-13 2.53214E-13
 -1      1307 2.23784E+01 1.87366E+00-7.17828E-01 2.85005E+00 5.26523E-14 1.66095E-12
 -1      1308 2.20066E+01 1.31485E-01-4.00987E-01-1.28650E+00-2.09582E-13 1.19355E-12
 -1      1309 2.06831E+01 3.06830E-01-1.64898E-01-8.06351E-01-1.94907E-13 9.48339E-13
 -1      1310 2.00850E+01 1.53544E-01-7.35492E-02-4.02594E-01-1.54474E-13 8.39485E-13
 -1      1311 1.96146E+01 9.12270E-02-1.49412E-02-3.30402E-01-1.55938E-13 6.06307E-13
 -1      1312 2.09765E+01 3.69215E-01-1.04320E-01-1.27491E+00-3.37251E-13 4.48572E-13
 -1      1313 1.92569E+01 6.45442E-02 3.03057E-03-1.35687E-01-1.32575E-13 5.33667E-13
 -1      1314 1.91021E+01 4.13165E-02 1.32133E-02-1.17869E-01-1.12100E-13 3.67553E-13
 -1      1315 1.99249E+01 1.33985E-01-3.51664E-02-5.04737E-01-2.71970E-13 2.88143E-13
 -1      1316 1.89415E+01 3.15885E-02 1.32298E-02-2.82227E-02-7.95371E-14 2.85952E-13
 -1      1317 1.89218E+01 1.94501E-02 1.10442E-02-1.88087E-02-7.13956E-14 1.62436E-13
 -1      1318 1.94470E+01 5.55267E-02-8.55063E-03-1.70531E-01-1.97765E-13 1.59431E-13
 -1      1319 1.88657E+01 1.60668E-02 8.76705E-03 2.49721E-02-4.59663E-14 1.45826E-13
 -1      1320 1.89080E+01 9.12652E-03 6.43212E-03 2.96284E-02-4.79486E-14 8.50518E-14
 -1      1321 1.92377E+01 2.44975E-02-3.53317E-03-1.13728E-02-1.19716E-13 4.72903E-14
 -1      1322 1.89080E+01 7.90407E-03 4.66999E-03 5.09052E-02-4.47262E-14 4.29413E-14
 -1      1323 1.89785E+01 3.55160E-03 3.64392E-03 5.28192E-02-4.25671E-14-1.40721E-14
 -1      1324 1.91808E+01 1.02703E-02-2.23700E-03 6.76014E-02-1.07371E-13-2.28576E-14
 -1      1325 1.90081E+01 3.23975E-03 2.44358E-03 6.17305E-02-6.59743E-14-6.34917E-14
 -1      1326 1.90890E+01 3.85314E-04 2.21539E-03 6.20249E-02-5.86651E-14-1.53183E-13
 -1      1327 1.92072E+01 2.85326E-03-1.34003E-03 1.04704E-01-1.05951E-13-1.00374E-13
 -1      1328 1.91328E+01 5.04251E-04 1.33425E-03 6.38408E-02-5.25996E-14-1.99753E-13
 -1      1329 1.92141E+01-1.39905E-03 1.44518E-03 6.31901E-02-6.04068E-14-2.84077E-13
 -1      1330 1.92766E+01-1.21246E-03-5.76260E-04 1.18270E-01-1.09466E-13-1.72755E-13
 -1      1331 1.92631E+01-1.06663E-03 7.49636E-04 6.09632E-02-6.59371E-14-3.10703E-13
 -1      1332 1.93394E+01-2.32737E-03 9.78011E-04 5.98018E-02-7.23646E-14-4.13749E-13
 -1      1333 1.93656E+01-3.39348E-03-1.97056E-05 1.18287E-01-1.10861E-13-2.55404E-13
 -1      1334 1.93883E+01-1.89546E-03 4.13034E-04 5.54273E-02-4.32024E-14-4.55615E-13
 -1      1335 1.94568E+01-2.70663E-03 6.67967E-04 5.40418E-02 3.05715E-15-4.65315E-13
 -1      1336 1.94600E+01-4.42212E-03 3.28639E-04 1.10725E-01-8.64361E-14-2.41348E-13
 -1      1337 1.95025E+01-2.24005E-03 2.07984E-04 4.87377E-02 3.36344E-14-5.38927E-13
 -1      1338 1.95623E+01-2.73206E-03 4.53512E-04 4.73172E-02-1.51039E-14-5.46822E-13
 -1      1339 1.95515E+01-4.71956E-03 5.12882E-04 9.93576E-02-9.61918E-15-3.40311E-13
 -1      1340 1.96034E+01-2.26803E-03 8.13855E-05 4.18723E-02-2.20897E-14-5.32015E-13
 -1      1341 1.96543E+01-2.53371E-03 3.03650E-04 4.05387E-02 2.61542E-15-5.52015E-13
 -1      1342 1.96357E+01-4.55147E-03 5.80954E-04 8.66243E-02-2.65836E-14-4.67333E-13
 -1      1343 1.96904E+01-2.09254E-03 4.50371E-06 3.54564E-02 4.83833E-14-5.27403E-13
 -1      1344 1.97333E+01-2.20035E-03 1.99225E-04 3.42855E-02 2.36627E-14-4.50065E-13
 -1      1345 1.97107E+01-4.09397E-03 5.71128E-04 7.40997E-02 2.32827E-14-4.39153E-13
 -1      1346 1.97645E+01-1.79171E-03-4.08638E-05 2.98741E-02 3.41401E-14-3.95146E-13
 -1      1347 1.98005E+01-1.79381E-03 1.26546E-04 2.89093E-02-1.52828E-14-3.72401E-13
 -1      1348 1.97762E+01-3.46682E-03 5.11306E-04 6.27761E-02 6.12898E-14-3.79687E-13
 -1      1349 1.98275E+01-1.42112E-03-6.75321E-05 2.53397E-02-7.78168E-14-3.14328E-13
 -1      1350 1.98580E+01-1.35928E-03 7.48117E-05 2.46013E-02-6.76068E-14-3.75226E-13
 -1      1351 1.98329E+01-2.75360E-03 4.21518E-04 5.32417E-02-1.51499E-14-3.64884E-13
 -1      1352 1.98815E+01-1.02336E-03-8.51911E-05 2.19418E-02-5.64768E-14-4.38194E-13
 -1      1353 1.99079E+01-9.33874E-04 3.47891E-05 2.14322E-02-7.14671E-14-5.31238E-13
 -1      1354 1.98822E+01-2.01671E-03 3.16662E-04 4.57933E-02-1.07265E-13-3.74316E-13
 -1      1355 1.99290E+01-6.36593E-04-1.01519E-04 1.96626E-02-5.39371E-14-5.11791E-13
 -1      1356 1.99526E+01-5.54974E-04-1.93695E-06 1.93668E-02-4.97998E-14-5.96096E-13
 -1      1357 1.99258E+01-1.31081E-03 2.09054E-04 4.04964E-02-1.11033E-13-4.00261E-13
 -1      1358 1.99720E+01-3.03221E-04-1.22611E-04 1.83742E-02 8.30320E-15-6.39625E-13
 -1      1359 1.99942E+01-2.68673E-04-4.32637E-05 1.82565E-02-2.67798E-14-6.88814E-13
 -1      1360 1.99654E+01-6.96464E-04 1.10899E-04 3.71986E-02-6.33588E-14-4.11817E-13
 -1      1361 2.00126E+01-7.90448E-05-1.52767E-04 1.78113E-02-5.59240E-14-7.60884E-13
 -1      1362 2.00341E+01-1.38434E-04-9.63355E-05 1.78063E-02-5.99485E-14-7.94648E-13
 -1      1363 2.00024E+01-2.54739E-04 3.68319E-05 3.54959E-02-9.88319E-14-4.14985E-13
 -1      1364 2.00518E+01-4.25213E-05-1.93571E-04 1.75179E-02 2.44114E-14-8.30160E-13
 -1      1365 2.00730E+01-2.52941E-04-1.66578E-04 1.75180E-02 2.64810E-14-7.62501E-13
 -1      1366 2.00379E+01-1.02340E-04 6.53658E-06 3.46526E-02-4.71623E-14-5.03605E-13
 -1      1367 2.00897E+01-3.02677E-04-2.42114E-04 1.67745E-02 5.05712E-14-7.55578E-13
 -1      1368 2.01097E+01-7.30793E-04-2.55783E-04 1.66114E-02 6.31674E-14-6.12379E-13
 -1      1369 2.00720E+01-4.05170E-04 4.71968E-05 3.34761E-02 6.95706E-14-5.84366E-13
 -1      1370 2.01244E+01-1.00225E-03-2.88415E-04 1.45116E-02 5.80694E-14-6.68593E-13
 -1      1371 2.01412E+01-1.71741E-03-3.59182E-04 1.39378E-02 3.36043E-14-6.15378E-13
 -1      1372 2.01033E+01-1.38518E-03 1.95113E-04 3.01632E-02 6.47369E-14-5.26716E-13
 -1      1373 2.01516E+01-2.30988E-03-3.12487E-04 9.23770E-03 9.68426E-15-5.89277E-13
 -1      1374 2.01612E+01-3.36678E-03-4.61932E-04 7.91217E-03-1.66155E-14-6.15461E-13
 -1      1375 2.01286E+01-3.31102E-03 4.95135E-04 2.21520E-02 1.09269E-14-4.85542E-13
 -1      1376 2.01632E+01-4.39207E-03-2.82387E-04-9.75116E-04 3.12153E-14-5.41686E-13
 -1      1377 2.01591E+01-5.79800E-03-5.36414E-04-3.48343E-03 5.67165E-14-4.93505E-13
 -1      1378 2.01418E+01-6.45764E-03 9.95622E-04 6.05268E-03 2.93901E-14-3.53747E-13
 -1      1379 2.01472E+01-7.35297E-03-1.55825E-04-1.83707E-02 1.29548E-14-4.95687E-13
 -1      1380 2.01203E+01-9.01665E-03-5.43096E-04-2.25440E-02-1.84735E-14-4.26036E-13
 -1      1381 2.01339E+01-1.10158E-02 1.73565E-03-2.22222E-02 3.74180E-14-3.18434E-13
 -1      1382 2.00868E+01-1.11328E-02 1.10831E-04-4.51537E-02-2.52669E-14-5.10259E-13
 -1      1383 2.00251E+01-1.27982E-02-4.39024E-04-5.14254E-02-2.15474E-14-5.62744E-13
 -1      1384 2.00918E+01-1.69350E-02 2.72086E-03-6.69524E-02-4.22678E-14-3.70851E-13
 -1      1385 1.99612E+01-1.53679E-02 5.42473E-04-8.27959E-02-6.22252E-14-5.98296E-13
 -1      1386 1.98514E+01-1.65515E-02-1.97337E-04-9.13679E-02-1.01065E-13-6.85549E-13
 -1      1387 1.99994E+01-2.37023E-02 3.88630E-03-1.31536E-01-9.30939E-14-5.19748E-13
 -1      1388 1.97480E+01-1.92465E-02 1.11441E-03-1.30964E-01-3.33184E-14-6.11286E-13
 -1      1389 1.95777E+01-1.92179E-02 1.62689E-04-1.41541E-01 4.26952E-14-6.54375E-13
 -1      1390 1.98389E+01-3.01050E-02 5.05108E-03-2.16716E-01-1.78724E-14-4.65845E-13
 -1      1391 1.94276E+01-2.14433E-02 1.71935E-03-1.86203E-01 1.10220E-13-5.85003E-13
 -1      1392 1.91894E+01-1.93139E-02 5.46694E-04-1.97696E-01 1.03216E-13-4.13152E-13
 -1      1393 1.95942E+01-3.41025E-02 5.88281E-03-3.18236E-01 1.31128E-13-2.40813E-13
 -1      1394 1.89911E+01-2.02682E-02 2.15815E-03-2.40826E-01 2.61293E-15-3.05672E-13
 -1      1395 1.86876E+01-1.52515E-02 7.81427E-04-2.51169E-01-8.98066E-15-3.00208E-13
 -1      1396 1.92559E+01-3.30196E-02 5.90697E-03-4.24532E-01 1.16068E-13-2.55843E-13
 -1      1397 1.84482E+01-1.41681E-02 2.18421E-03-2.82830E-01-4.62266E-14-2.76643E-13
 -1      1398 1.80974E+01-6.01357E-03 6.65704E-04-2.89116E-01-9.24899E-14-3.16660E-13
 -1      1399 1.88286E+01-2.42772E-02 4.61293E-03-5.15741E-01-6.64622E-14-7.53798E-14
 -1      1400 1.78359E+01-2.57800E-03 1.61811E-03-2.97774E-01-6.58631E-14-3.18461E-13
 -1      1401 1.74730E+01 7.96572E-03 8.29607E-05-2.96937E-01-7.32263E-14-4.15522E-13
 -1      1402 1.83372E+01-6.68460E-03 1.68221E-03-5.65785E-01-1.17273E-13-1.28651E-13
 -1      1403 1.72200E+01 1.31953E-02 4.92742E-04-2.73062E-01-5.27352E-14-4.22842E-13
 -1      1404 1.68943E+01 2.41882E-02-8.73000E-04-2.63052E-01 2.17599E-15-4.60076E-13
 -1      1405 1.78301E+01 1.81467E-02-2.70789E-03-5.48757E-01-7.17662E-14-1.86419E-13
 -1      1406 1.66875E+01 2.96836E-02-8.76282E-04-2.03628E-01 3.32846E-14-4.70613E-13
 -1      1407 1.64523E+01 3.83827E-02-1.85832E-03-1.84661E-01 4.05249E-14-4.97607E-13
 -1      1408 1.73753E+01 4.51856E-02-7.68447E-03-4.48891E-01-1.03593E-14-3.25425E-13
 -1      1409 1.63277E+01 4.21341E-02-1.98573E-03-9.63879E-02-4.95003E-14-5.28006E-13
 -1      1410 1.62262E+01 4.59837E-02-2.40627E-03-7.15056E-02-4.61475E-14-5.86040E-13
 -1      1411 1.70466E+01 6.70448E-02-1.18197E-02-2.70248E-01-4.88377E-14-3.98371E-13
 -1      1412 1.62072E+01 4.64532E-02-2.40346E-03 2.96480E-02-5.87898E-15-6.75707E-13
 -1      1413 1.62585E+01 4.42298E-02-2.18459E-03 5.52906E-02 4.90320E-14-6.06342E-13
 -1      1414 1.69040E+01 7.67720E-02-1.36851E-02-4.03835E-02-8.97737E-14-4.09247E-13
 -1      1415 1.63482E+01 4.12011E-02-2.01586E-03 1.48873E-01 6.08272E-14-6.64683E-13
 -1      1416 1.65411E+01 3.36152E-02-1.20684E-03 1.69828E-01 5.48541E-14-5.89011E-13
 -1      1417 1.69743E+01 7.10387E-02-1.25724E-02 1.96010E-01 2.77209E-15-5.58031E-13
 -1      1418 1.67208E+01 2.83155E-02-1.08455E-03 2.37982E-01 1.38080E-14-5.30872E-13
 -1      1419 1.70173E+01 1.76641E-02 1.54076E-04 2.50490E-01-4.34670E-14-5.41782E-13
 -1      1420 1.72419E+01 5.17742E-02-8.90162E-03 3.91879E-01-6.80055E-15-4.91316E-13
 -1      1421 1.72533E+01 1.20810E-02-6.95320E-05 2.83708E-01-1.45139E-13-5.41560E-13
 -1      1422 1.76010E+01 1.18935E-03 1.39112E-03 2.86783E-01-1.85703E-13-8.85212E-13
 -1      1423 1.76537E+01 2.52340E-02-3.97209E-03 5.13826E-01-1.30926E-13-5.79514E-13
 -1      1424 1.78549E+01-2.92637E-03 6.38060E-04 2.85649E-01-6.90877E-14-7.87450E-13
 -1      1425 1.82019E+01-1.18052E-02 2.12712E-03 2.80845E-01-9.46237E-15-8.73190E-13
 -1      1426 1.81372E+01-9.54380E-04 7.13120E-04 5.51329E-01-1.51710E-13-4.94674E-13
 -1      1427 1.84403E+01-1.35948E-02 8.79171E-04 2.53673E-01 1.01271E-14-9.65098E-13
 -1      1428 1.87469E+01-1.93563E-02 2.25661E-03 2.43953E-01-6.35039E-15-9.71598E-13
 -1      1429 1.86209E+01-2.08581E-02 4.08850E-03 5.15730E-01-8.56841E-14-5.31817E-13
 -1      1430 1.89477E+01-1.89021E-02 7.22985E-04 2.02400E-01 6.75276E-14-9.20137E-13
 -1      1431 1.91916E+01-2.15403E-02 1.91220E-03 1.90877E-01 3.59738E-15-9.38794E-13
 -1      1432 1.90502E+01-3.18434E-02 5.78503E-03 4.31674E-01 1.02288E-13-6.38245E-13
 -1      1433 1.93449E+01-1.95047E-02 3.52897E-04 1.45929E-01-8.88820E-14-6.26060E-13
 -1      1434 1.95205E+01-1.97002E-02 1.32612E-03 1.35036E-01 7.53586E-14-6.90021E-13
 -1      1435 1.93944E+01-3.43731E-02 6.00155E-03 3.26739E-01 1.94173E-13-3.89612E-13
 -1      1436 1.96270E+01-1.68911E-02-5.60473E-05 9.46857E-02 2.48882E-13-7.31533E-13
 -1      1437 1.97410E+01-1.55613E-02 7.02838E-04 8.58813E-02 2.42932E-13-4.25162E-13
 -1      1438 1.96452E+01-3.07384E-02 5.21335E-03 2.23791E-01 2.27112E-13-2.05158E-13
 -1      1439 1.98077E+01-1.26477E-02-4.01420E-04 5.45416E-02 1.96608E-13-3.45412E-13
 -1      1440 1.98737E+01-1.06326E-02 1.71500E-04 4.84036E-02 1.30091E-13-1.30555E-13
 -1      1441 1.98109E+01-2.37171E-02 3.91846E-03 1.37615E-01 3.48821E-13-1.68707E-13
 -1      1442 1.99109E+01-8.02742E-03-6.35971E-04 2.74429E-02-1.30679E-14-5.89345E-14
 -1      1443 1.99447E+01-6.06082E-03-1.81661E-04 2.39351E-02-2.25265E-15-1.53717E-14
 -1      1444 1.99090E+01-1.56390E-02 2.53306E-03 7.49566E-02 1.66808E-13-1.04297E-14
 -1      1445 1.99630E+01-4.15573E-03-6.72890E-04 1.21990E-02 3.82600E-14-3.76342E-14
 -1      1446 1.99786E+01-2.82596E-03-2.73921E-04 1.06753E-02 1.23849E-13 4.12603E-14
 -1      1447 1.99604E+01-8.56988E-03 1.34112E-03 3.60842E-02 8.52153E-14 1.26638E-13
 -1      1448 1.99869E+01-1.90247E-03-4.30886E-04 5.05625E-03 2.76129E-13 1.83528E-13
 -1      1449 1.99936E+01-1.30497E-03-6.91790E-05 4.58108E-03 1.69704E-13 4.31822E-13
 -1      1450 1.99842E+01-4.20522E-03 5.21160E-04 1.58689E-02 3.60613E-13 2.78596E-13
 -1      1451 1.99988E+01-1.01037E-03 1.53126E-04 5.40214E-04-3.74905E-13 3.06503E-13
 -1      1452 1.99965E+01-3.02019E-03 3.01283E-04 5.10454E-03-2.36999E-13 1.73077E-13
 -1      1453 2.07549E+01 3.27452E-01-1.76315E-01 8.49823E-01 1.92679E-13 1.47178E-12
 -1      1454 2.21419E+01 1.87723E-01-4.00715E-01 1.36295E+00 2.01394E-13 1.68629E-12
 -1      1455 1.96544E+01 9.40362E-02-1.84275E-02 3.46718E-01 1.56136E-13 1.13545E-12
 -1      1456 2.01475E+01 1.60480E-01-8.03391E-02 4.20142E-01 1.61191E-13 1.35930E-12
 -1      1457 2.10385E+01 4.14021E-01-1.02773E-01 1.33667E+00 3.33407E-13 8.40248E-13
 -1      1458 1.91180E+01 4.30344E-02 1.25946E-02 1.25080E-01 1.15541E-13 8.87387E-13
 -1      1459 1.92823E+01 6.75002E-02 1.17552E-03 1.43775E-01 1.25322E-13 1.04283E-12
 -1      1460 1.99611E+01 1.40631E-01-3.70775E-02 5.31391E-01 2.66086E-13 6.75765E-13
 -1      1461 1.89262E+01 2.01716E-02 1.11742E-02 2.23190E-02 7.15070E-14 7.06608E-13
 -1      1462 1.89504E+01 3.26761E-02 1.30580E-02 3.20557E-02 8.45079E-14 8.13415E-13
 -1      1463 1.94632E+01 5.82294E-02-9.19120E-03 1.82036E-01 1.88414E-13 5.15813E-13
 -1      1464 1.89063E+01 9.50184E-03 6.57937E-03-2.78411E-02 6.65191E-14 5.47168E-13
 -1      1465 1.88662E+01 1.66126E-02 8.93859E-03-2.30046E-02 7.51274E-14 6.58045E-13
 -1      1466 1.92439E+01 2.54974E-02-3.70438E-03 1.71175E-02 1.40496E-13 3.90021E-13
 -1      1467 1.89737E+01 3.76219E-03 3.72951E-03-5.19649E-02 4.58956E-14 4.53606E-13
 -1      1468 1.89042E+01 8.21029E-03 4.79891E-03-4.99427E-02 5.23138E-14 5.19718E-13
 -1      1469 1.91812E+01 1.07903E-02-2.30849E-03-6.46805E-02 1.13576E-13 3.48479E-13
 -1      1470 1.90827E+01 5.17471E-04 2.27652E-03-6.16904E-02 1.48633E-14 4.40547E-13
 -1      1471 1.90022E+01 3.41594E-03 2.51543E-03-6.13380E-02 3.18224E-14 4.62233E-13
 -1      1472 1.92044E+01 3.13819E-03-1.38377E-03-1.03340E-01 5.87281E-14 3.04093E-13
 -1      1473 1.92070E+01-1.30361E-03 1.45473E-03-6.31184E-02 4.86371E-14 3.72730E-13
 -1      1474 1.91259E+01 5.28952E-04 1.35081E-03-6.37819E-02 4.03700E-14 4.24725E-13
 -1      1475 1.92722E+01-1.00522E-03-5.91864E-04-1.17771E-01 5.16033E-14 2.93771E-13
 -1      1476 1.93261E+01-2.21366E-03 1.01709E-03-6.01029E-02 1.91072E-14 3.41346E-13
 -1      1477 1.92531E+01-1.14390E-03 7.10642E-04-6.12160E-02 2.78646E-14 3.58000E-13
 -1      1478 1.93582E+01-3.37069E-03 1.43228E-05-1.18318E-01 4.75395E-14 2.58526E-13
 -1      1479 1.94442E+01-2.72441E-03 6.99538E-04-5.44255E-02 2.95679E-14 2.85803E-13
 -1      1480 1.93752E+01-1.89077E-03 4.43074E-04-5.58184E-02 2.49487E-14 3.22354E-13
 -1      1481 1.94498E+01-4.38324E-03 3.08217E-04-1.11300E-01 4.00078E-14 1.68619E-13
 -1      1482 1.95503E+01-2.78423E-03 4.78014E-04-4.76416E-02 8.30407E-15 2.77062E-13
 -1      1483 1.94901E+01-2.26567E-03 2.33046E-04-4.90919E-02 2.74902E-14 2.78459E-13
 -1      1484 1.95414E+01-4.79208E-03 5.07265E-04-1.00018E-01 5.20085E-14 1.54779E-13
 -1      1485 1.96427E+01-2.60821E-03 3.29214E-04-4.07057E-02 1.41456E-14 2.28935E-13
 -1      1486 1.95915E+01-2.32907E-03 1.05497E-04-4.20826E-02 5.07951E-15 2.53966E-13
 -1      1487 1.96260E+01-4.67944E-03 5.86444E-04-8.71231E-02 3.10411E-14 9.60220E-14
 -1      1488 1.97218E+01-2.28077E-03 2.32874E-04-3.42365E-02 6.94589E-14 1.07655E-13
 -1      1489 1.96789E+01-2.17607E-03 3.43142E-05-3.54606E-02 5.46671E-14 2.06838E-13
 -1      1490 1.97013E+01-4.26192E-03 5.82848E-04-7.42777E-02 6.17655E-14 7.66355E-14
 -1      1491 1.97887E+01-1.85286E-03 1.78078E-04-2.86390E-02 3.53998E-14-5.74356E-15
 -1      1492 1.97530E+01-1.87856E-03 2.40473E-06-2.96577E-02 6.63888E-14 5.83512E-14
 -1      1493 1.97670E+01-3.65097E-03 5.23312E-04-6.25698E-02 1.19964E-13 8.01212E-14
 -1      1494 1.98456E+01-1.34819E-03 1.58771E-04-2.41950E-02-3.65583E-14-3.42651E-14
 -1      1495 1.98157E+01-1.47764E-03-5.30131E-07-2.49706E-02 3.54665E-14-6.04361E-15
 -1      1496 1.98239E+01-2.90992E-03 4.24828E-04-5.27292E-02 4.76459E-14-7.35753E-15
 -1      1497 1.98954E+01-7.64921E-04 1.72901E-04-2.11392E-02-2.10680E-14 7.14338E-14
 -1      1498 1.98695E+01-9.87479E-04 1.96633E-05-2.16365E-02-7.22154E-14 2.03830E-15
 -1      1499 1.98737E+01-2.06075E-03 2.96096E-04-4.52974E-02-7.41505E-14 3.40182E-14
 -1      1500 1.99414E+01-7.31246E-05 2.22177E-04-1.97321E-02-5.38280E-14 1.49572E-13
 -1      1501 1.99175E+01-3.95597E-04 6.02468E-05-1.99054E-02-3.54473E-14 6.21527E-14
 -1      1502 1.99187E+01-1.08397E-03 1.38438E-04-4.07766E-02-5.97978E-14 7.49569E-14
 -1      1503 1.99877E+01 7.90098E-04 3.00909E-04-2.03483E-02 8.79237E-14 3.18346E-14
 -1      1504 1.99635E+01 3.32769E-04 1.17048E-04-2.01178E-02 3.32541E-14 1.20061E-13
 -1      1505 1.99620E+01 9.10175E-05-5.30202E-05-3.97846E-02 1.54165E-14-3.64573E-14
 -1      1506 2.00372E+01 1.86338E-03 4.50269E-04-2.33281E-02-5.21301E-15 2.76881E-14
 -1      1507 2.00108E+01 1.28100E-03 1.99265E-04-2.26769E-02 3.71176E-14 1.59404E-14
 -1      1508 2.00063E+01 1.56934E-03-2.78669E-04-4.30687E-02 1.02089E-13-3.65009E-14
 -1      1509 2.01017E+01 3.44310E-03 6.50129E-04-2.98892E-02-3.44594E-14 4.79184E-14
 -1      1510 2.00664E+01 2.56683E-03 2.98909E-04-2.84684E-02 3.04150E-14 1.06038E-13
 -1      1511 2.00572E+01 3.53206E-03-5.95669E-04-5.19117E-02-1.54108E-15-1.98226E-14
 -1      1512 2.01893E+01 5.75624E-03 9.40597E-04-4.14870E-02 3.62331E-14 1.38594E-13
 -1      1513 2.01401E+01 4.49859E-03 4.28084E-04-3.90417E-02-2.92307E-14 1.01888E-13
 -1      1514 2.01230E+01 6.44511E-03-1.03352E-03-6.89796E-02-1.83208E-14 7.83769E-14
 -1      1515 2.03149E+01 9.25512E-03 1.32854E-03-6.05981E-02 1.15909E-14 7.68950E-14
 -1      1516 2.02426E+01 7.39975E-03 5.63625E-04-5.65881E-02 9.20350E-14 1.07066E-13
 -1      1517 2.02118E+01 1.08816E-02-1.64749E-03-9.78568E-02 6.97038E-14 4.51989E-14
 -1      1518 2.05015E+01 1.46384E-02 1.79501E-03-9.12162E-02 6.01381E-14 1.48145E-14
 -1      1519 2.03917E+01 1.18805E-02 6.63691E-04-8.47688E-02-4.51418E-15 5.03324E-14
 -1      1520 2.03373E+01 1.78041E-02-2.54302E-03-1.44496E-01 7.99430E-14 2.11003E-14
 -1      1521 2.07837E+01 2.29641E-02 2.22041E-03-1.39687E-01-1.67002E-14 4.61057E-14
 -1      1522 2.06141E+01 1.88829E-02 6.00912E-04-1.29392E-01 3.13898E-14 3.47056E-14
 -1      1523 2.05190E+01 2.87679E-02-3.88065E-03-2.18338E-01 4.51601E-14-1.53263E-14
 -1      1524 2.12150E+01 3.57432E-02 2.23233E-03-2.15898E-01 2.75951E-15-1.11768E-14
 -1      1525 2.09505E+01 2.98353E-02 5.32497E-05-1.99507E-01 1.44095E-14-4.62542E-15
 -1      1526 2.07859E+01 4.61843E-02-5.92319E-03-3.34083E-01-2.84018E-14-8.94944E-15
 -1      1527 2.18758E+01 5.48528E-02 9.54803E-04-3.34695E-01-3.55219E-14 4.96738E-14
 -1      1528 2.14623E+01 4.67496E-02-1.71106E-03-3.08728E-01-9.01362E-15-1.09105E-14
 -1      1529 2.11794E+01 7.35543E-02-9.10462E-03-5.13908E-01-5.19723E-15-1.60254E-14
 -1      1530 2.28828E+01 8.19873E-02-2.98481E-03-5.16591E-01-1.39160E-14 3.06248E-14
 -1      1531 2.22398E+01 7.19912E-02-6.10634E-03-4.76111E-01-5.77437E-14-4.07140E-15
 -1      1532 2.17580E+01 1.15201E-01-1.40665E-02-7.89276E-01-1.21986E-14 3.86843E-16
 -1      1533 2.43882E+01 1.16779E-01-1.11958E-02-7.85512E-01 7.95301E-14-6.75640E-14
 -1      1534 2.34096E+01 1.04939E-01-1.56593E-02-7.24018E-01 1.11969E-13 7.77919E-14
 -1      1535 2.25985E+01 1.74440E-01-2.13313E-02-1.19934E+00 6.52360E-14-4.52127E-14
 -1      1536 2.64429E+01 1.41159E-01-2.00962E-02-1.13221E+00-7.24750E-14-1.10384E-13
 -1      1537 2.50860E+01 1.42734E-01-2.95538E-02-1.05533E+00-5.24789E-14-1.33955E-13
 -1      1538 2.37580E+01 2.41281E-01-2.93008E-02-1.75846E+00 4.66658E-14-3.78465E-14
 -1      1539 2.93382E+01 1.18914E-01-1.36790E-02-1.54765E+00-1.56871E-14-7.49262E-14
 -1      1540 2.74202E+01 1.63776E-01-3.92852E-02-1.45179E+00-2.95475E-14-6.90004E-14
 -1      1541 2.53344E+01 2.83107E-01-3.51413E-02-2.45417E+00-6.66758E-14-6.99614E-14
 -1      1542 3.27392E+01-4.12424E-02 4.80922E-02-1.80067E+00-2.58011E-13 2.84522E-13
 -1      1543 3.05508E+01 9.51850E-02-1.46209E-02-1.75862E+00-1.39380E-13 2.52021E-14
 -1      1544 2.74244E+01 1.77675E-01-2.05220E-02-3.11483E+00-1.57961E-13-4.08770E-14
 -1      1545 3.56276E+01-4.72320E-01 1.72770E-01-1.32573E+00-1.79495E-13 5.80671E-13
 -1      1546 3.40788E+01-2.07427E-01 9.60660E-02-1.52852E+00-1.90594E-13 2.72338E-13
 -1      1547 2.99195E+01-3.04572E-01 3.82241E-02-3.13783E+00-2.91069E-13 7.08114E-15
 -1      1548 3.60927E+01-9.54352E-01 2.03084E-01 3.43841E-01 6.60583E-14 5.32463E-13
 -1      1549 3.67164E+01-7.69061E-01 2.59649E-01-1.74500E-01-3.56590E-14 6.01554E-13
 -1      1550 3.24437E+01-1.30524E+00 1.13195E-01-1.62822E+00-1.22333E-13 2.22268E-13
 -1      1551 3.30528E+01-8.45065E-01-1.86981E-01 2.97941E+00 1.86046E-13 4.58911E-13
 -1      1552 3.67792E+01-1.10743E+00 2.31532E-01 2.29839E+00 1.54187E-13 6.53255E-13
 -1      1553 3.45717E+01-2.11714E+00 1.08077E-01 1.89260E+00 7.25461E-14 3.28343E-13
 -1      1554 2.85519E+01 5.93198E-01-8.50079E-01 3.67110E+00 1.78857E-13 1.14408E-13
 -1      1555 3.30400E+01-1.49128E-01-2.80813E-01 3.92549E+00 2.68618E-13 4.12392E-13
 -1      1556 3.57985E+01-1.19633E+00-1.28333E-01 5.45110E+00 3.53245E-13 4.86833E-13
 -1      1557 2.68801E+01 1.82279E+00-1.16553E+00 1.05277E+00 2.08666E-13-1.15782E-13
 -1      1558 2.84096E+01 1.47463E+00-9.31831E-01 2.07954E+00 6.58917E-14-8.02136E-14
 -1      1559 3.63550E+01 1.95858E+00-2.44213E-01 4.96063E+00 3.60378E-13 1.80550E-13
 -1      1560 3.03788E+01 7.93301E-01-6.70988E-01-3.18474E+00 1.58984E-13-4.65628E-13
 -1      1561 2.67033E+01 1.58193E+00-1.19164E+00-2.34476E+00 2.86882E-13-1.75596E-13
 -1      1562 3.65032E+01 3.88127E+00-1.39841E-01-7.10051E-01 3.80251E-13-2.78964E-13
 -1      1563 3.73312E+01-8.98239E-01 3.35725E-01-9.86751E-01-3.42643E-14 1.00031E-13
 -1      1564 3.51844E+01-9.02753E-01 1.09366E-01-1.62055E+00-4.41661E-14-6.11178E-14
 -1      1565 3.57029E+01-3.53713E-01 2.00769E-01 1.01788E+00 6.66689E-14-6.50521E-14
 -1      1566 3.64487E+01-6.01391E-01 2.58606E-01 6.74691E-01 1.81521E-14 6.98608E-14
 -1      1567 3.39238E+01-1.56292E+00 1.43337E-01-1.02727E-02 1.24963E-13-3.13451E-13
 -1      1568 3.23829E+01 1.97148E-03 2.88188E-02 1.65444E+00 4.35242E-14-1.21070E-13
 -1      1569 3.43837E+01-1.84951E-01 1.09073E-01 1.61683E+00 1.02415E-13 1.17545E-14
 -1      1570 3.15375E+01-6.15229E-01 8.09919E-02 2.53837E+00 1.16088E-13-4.10168E-13
 -1      1571 2.88480E+01 1.33417E-01-4.19831E-02 1.53198E+00 1.02540E-14-1.32144E-13
 -1      1572 3.09990E+01 4.94154E-02 1.75989E-03 1.60324E+00-1.60865E-14-1.76276E-13
 -1      1573 2.88826E+01 1.29463E-02 1.76490E-03 3.08922E+00 1.02579E-13-3.91305E-13
 -1      1574 2.59802E+01 1.34263E-01-4.42117E-02 1.16558E+00-1.99705E-13 3.64431E-14
 -1      1575 2.76795E+01 1.13651E-01-2.95610E-02 1.24995E+00-1.05749E-13-9.19265E-14
 -1      1576 2.64149E+01 2.21683E-01-3.24962E-02 2.65083E+00-1.14792E-13-4.70634E-13
 -1      1577 2.38775E+01 1.02106E-01-2.80677E-02 8.15708E-01-6.01984E-14 3.78815E-13
 -1      1578 2.50808E+01 1.06405E-01-2.30364E-02 8.82138E-01-1.55096E-13 2.53672E-13
 -1      1579 2.44276E+01 2.22511E-01-3.37855E-02 1.96698E+00-3.80118E-13-1.51882E-13
 -1      1580 2.24101E+01 7.01644E-02-1.43613E-02 5.51429E-01-1.88512E-14 4.44100E-13
 -1      1581 2.32231E+01 8.00636E-02-1.11174E-02 5.97321E-01 1.86118E-14 3.64153E-13
 -1      1582 2.29379E+01 1.67254E-01-2.48559E-02 1.36750E+00-1.70350E-14 2.48574E-13
 -1      1583 2.14093E+01 4.70766E-02-6.65657E-03 3.68244E-01 5.52405E-14 6.09840E-13
 -1      1584 2.19487E+01 5.56836E-02-3.47499E-03 3.98670E-01-1.00645E-13 5.67773E-13
 -1      1585 2.18675E+01 1.13429E-01-1.64760E-02 9.24962E-01-1.62433E-13 4.55556E-13
 -1      1586 2.07387E+01 3.31354E-02-3.62237E-03 2.42479E-01-1.27932E-13 6.85396E-13
 -1      1587 2.10909E+01 3.86456E-02-4.85354E-04 2.63176E-01 1.56923E-14 6.36519E-13
 -1      1588 2.11175E+01 7.56416E-02-1.11585E-02 6.17146E-01-4.67144E-14 5.40228E-13
 -1      1589 2.03107E+01 2.79846E-02-2.92886E-03 1.48250E-01-1.37420E-13 8.48939E-13
 -1      1590 2.05253E+01 3.01500E-02-7.62726E-04 1.65113E-01-2.91687E-13 6.75329E-13
 -1      1591 2.06046E+01 5.55850E-02-8.47073E-03 3.99607E-01-2.82307E-13 5.19045E-13
 -1      1592 2.00849E+01 2.91121E-02 2.50461E-03 6.41016E-02-5.76856E-14 1.04118E-12
 -1      1593 2.01776E+01 2.60046E-02-2.81316E-03 8.10839E-02-3.44156E-14 9.19714E-13
 -1      1594 2.02686E+01 5.10583E-02-7.02908E-03 2.26901E-01-2.31670E-13 4.95552E-13
 -1      1595 2.00200E+01 2.02266E-02 1.51229E-02 1.44529E-02 5.08143E-13 4.32458E-13
 -1      1596 2.00281E+01 2.76569E-02-1.47937E-04 2.23130E-02 3.16528E-13 1.00498E-12
 -1      1597 2.00939E+01 5.05031E-02-5.90847E-03 1.00941E-01 2.98962E-13 3.23821E-13
 -1      1598 2.00162E+01 2.21200E-02-5.65543E-03 2.43044E-02 1.09253E-12 4.77815E-14
 -1      1599 2.00099E+01 2.11218E-01-7.81100E-03 9.48593E-02 1.10440E-12-3.27546E-13
 -1      1600 2.00214E+01 1.15393E-01-1.49059E-03 7.55022E-02 1.05376E-12-2.04832E-14
 -1      1601 2.00443E+01 1.44891E-01-1.55818E-03 1.15875E-01 5.20644E-13 4.85595E-14
 -1      1602 1.99989E+01 5.07468E-01-1.21827E-03 1.23596E-01 1.48017E-12 7.19126E-14
 -1      1603 2.00088E+01 3.44303E-01-2.33389E-03 1.15366E-01 1.18305E-12 8.14880E-14
 -1      1604 2.00195E+01 3.61122E-01-2.43472E-03 2.06446E-01 7.40187E-13 1.14893E-13
 -1      1605 1.99906E+01 8.02595E-01 4.29492E-03 1.07162E-01 8.60405E-13-4.10659E-13
 -1      1606 1.99949E+01 6.36986E-01 8.66897E-04 1.10491E-01 1.47881E-12-3.29652E-13
 -1      1607 1.99920E+01 6.13413E-01 3.47251E-04 2.20886E-01 6.46746E-13-2.09987E-13
 -1      1608 1.99859E+01 1.00915E+00 6.97748E-03 6.05847E-02-1.32632E-13-2.49345E-13
 -1      1609 1.99849E+01 8.93043E-01 3.09830E-03 7.22722E-02 4.59003E-13-4.00389E-13
 -1      1610 1.99788E+01 8.27857E-01 4.76274E-03 1.64240E-01 3.07919E-13-7.02399E-13
 -1      1611 1.99863E+01 1.07738E+00 6.77966E-03 3.41872E-03-1.28072E-12-5.10050E-13
 -1      1612 1.99810E+01 1.03819E+00 3.48339E-03 1.79696E-02-5.37641E-13-4.33566E-13
 -1      1613 1.99734E+01 9.45691E-01 6.71500E-03 6.59940E-02-3.92515E-13-8.78080E-13
 -1      1614 1.99902E+01 1.00825E+00 4.60106E-03-4.76285E-02-2.25366E-12-2.44981E-13
 -1      1615 1.99831E+01 1.04621E+00 2.57663E-03-3.43547E-02-1.62674E-12-1.63454E-13
 -1      1616 1.99766E+01 9.45783E-01 6.29905E-03-3.77938E-02-9.33225E-13-6.46714E-13
 -1      1617 1.99955E+01 8.33960E-01 1.68195E-03-8.01827E-02-2.05085E-12 1.57523E-13
 -1      1618 1.99888E+01 9.30092E-01 9.94074E-04-7.14906E-02-2.03726E-12-1.78101E-14
 -1      1619 1.99853E+01 8.40320E-01 4.42828E-03-1.19629E-01-1.07369E-12-2.76515E-14
 -1      1620 2.00006E+01 6.07620E-01-9.13275E-04-9.06683E-02-5.19063E-13 7.14180E-13
 -1      1621 1.99959E+01 7.32053E-01-4.74187E-04-8.75538E-02-1.74835E-12 5.86983E-13
 -1      1622 1.99955E+01 6.64895E-01 1.91058E-03-1.63305E-01-6.60221E-13 8.78501E-13
 -1      1623 2.00042E+01 3.81757E-01-2.60106E-03-8.20962E-02 1.14521E-13-2.76137E-13
 -1      1624 2.00021E+01 5.05092E-01-1.43756E-03-8.38708E-02-2.31122E-13 2.67673E-13
 -1      1625 2.00042E+01 4.64402E-01-4.25783E-04-1.67464E-01-3.87135E-13 5.85631E-13
 -1      1626 2.00058E+01 1.95689E-01-3.18426E-03-6.13616E-02 5.02964E-13 3.65243E-13
 -1      1627 2.00061E+01 2.96119E-01-1.78623E-03-6.63347E-02 4.00805E-13-7.12817E-14
 -1      1628 2.00096E+01 2.78810E-01-2.04769E-03-1.41030E-01 5.64826E-15 1.86842E-13
 -1      1629 2.00056E+01 7.06477E-02-2.85762E-03-3.69123E-02 8.83440E-13-3.10838E-13
 -1      1630 2.00076E+01 1.37044E-01-1.56770E-03-4.29360E-02 6.95672E-13 1.85217E-13
 -1      1631 2.00112E+01 1.35557E-01-2.81154E-03-9.83863E-02 3.12328E-13 1.10041E-13
 -1      1632 2.00041E+01 3.24936E-03-1.89396E-03-1.49355E-02 8.04023E-13-1.00640E-13
 -1      1633 2.00068E+01 3.75274E-02-1.03066E-03-2.03999E-02 1.00293E-12-1.81229E-13
 -1      1634 2.00096E+01 4.34852E-02-2.65027E-03-5.36617E-02 4.05907E-13-4.09395E-14
 -1      1635 2.00021E+01-1.75306E-02-6.97593E-04-3.99075E-04 3.15650E-14-3.85543E-13
 -1      1636 2.00044E+01-8.44682E-03-3.36260E-04-4.03035E-03 5.55363E-13-1.86151E-13
 -1      1637 2.00062E+01-1.89352E-03-1.86570E-03-1.77345E-02 3.21063E-13-4.66124E-13
 -1      1638 1.99999E+01-1.21801E-02 3.69578E-04 5.04585E-03-9.24140E-13-2.03746E-13
 -1      1639 2.00013E+01-1.67807E-02 1.83043E-04 4.09833E-03-2.29692E-13-3.43657E-13
 -1      1640 2.00021E+01-1.35224E-02-8.50026E-04 2.91142E-03-1.67038E-13-6.88727E-13
 -1      1641-1.24276E+00-1.73871E+01-1.76978E+00-2.47793E+00 7.59948E-13-6.36158E-14
 -1      1642-9.47280E-01-1.81896E+01-1.74997E+00-7.06081E-01 8.68222E-13 1.33338E-13
 -1      1643-1.46915E-01-1.24951E+01-1.66939E+00-1.91853E+00 4.29878E-13 1.96579E-13
 -1      1644-3.08689E-01-1.68497E+01-1.92614E+00-1.73023E+00 7.84151E-13-1.78968E-13
 -1      1645 5.31127E+00-4.97360E+00-1.28682E+00 1.84702E+00 8.12905E-13 8.72635E-13
 -1      1646 2.58701E+00-1.09131E+01-1.87806E+00-6.87540E-01 3.52718E-13 6.82066E-13
 -1      1647 1.61197E+01 1.54249E+00-5.57594E-01 7.24500E+00 8.51319E-13 8.64642E-13
 -1      1648 9.41373E+00-3.05468E+00-1.54706E+00 3.10472E+00 1.01097E-12 7.76157E-13
 -1      1649 3.40208E+01 4.41622E+00 7.35969E-01 1.15851E+01 5.15810E-13 4.31877E-13
 -1      1650 2.26004E+01 2.59478E+00-6.50945E-01 8.11138E+00 8.30003E-13 6.47704E-13
 -1      1651 5.43710E+01 4.23601E+00 2.28909E+00 1.07774E+01 1.77913E-13 9.08607E-13
 -1      1652 4.10430E+01 5.24301E+00 8.53868E-01 1.12008E+01 3.27849E-13 6.85452E-13
 -1      1653 6.68354E+01 3.83405E+00 3.33193E+00 3.17604E+00 2.57239E-13 5.40012E-13
 -1      1654 5.82580E+01 4.91702E+00 2.31963E+00 8.01005E+00 2.47830E-13 7.64055E-13
 -1      1655 6.82947E+01 4.29608E+00 3.46402E+00-4.37814E+00 3.21410E-13 1.96620E-13
 -1      1656 6.95140E+01 3.96550E+00 3.51398E+00 2.12839E+00 2.31148E-13 5.67074E-13
 -1      1657 5.29028E+01 5.13503E+00 1.85039E+00-9.77257E+00 5.92887E-13-5.26690E-13
 -1      1658 6.54824E+01 3.71470E+00 3.34144E+00-6.03670E+00 4.42979E-13 1.31672E-13
 -1      1659 3.23546E+01 3.45335E+00-3.59965E-02-9.05809E+00 7.35523E-13-8.43325E-13
 -1      1660 4.64864E+01 3.92851E+00 1.68828E+00-1.07352E+01 5.26690E-13-6.65024E-13
 -1      1661 1.50767E+01-2.38064E-01-1.20767E+00-5.29220E+00 1.02007E-12-1.01585E-12
 -1      1662 2.47054E+01 2.90016E+00-3.86411E-02-9.57036E+00 8.60867E-13-9.28146E-13
 -1      1663 4.62144E+00-7.30098E+00-1.86663E+00-4.94807E-01 1.33493E-12-9.78329E-13
 -1      1664 8.92863E+00-1.63913E+00-1.11324E+00-4.01874E+00 1.28386E-12-1.04750E-12
 -1      1665 6.96701E-01-1.45601E+01-1.95338E+00 1.54808E+00 1.03928E-12-5.27425E-13
 -1      1666 1.89017E+00-9.13458E+00-1.52499E+00 4.12803E-01 1.21769E-12-8.77326E-13
 -1      1667-9.73807E-01-1.92374E+01-2.04469E+00 1.58770E+00 7.78266E-13-1.41831E-13
 -1      1668-1.36577E+00-1.65542E+01-1.94437E+00 3.03549E+00 9.63785E-13-4.74204E-13
 -1      1669-7.57059E-01-1.67161E+01-1.62025E+00 2.66646E-01 1.19404E-13-3.11196E-13
 -1      1670-1.02060E+00-1.84121E+01-1.84301E+00 1.99891E+00 5.77732E-13-2.90656E-13
 -1      1671 5.58277E-01-1.09105E+01-1.27324E+00 4.59499E-01-3.10307E-13-3.63487E-13
 -1      1672 1.57589E-01-1.59001E+01-1.72965E+00 7.76446E-01 1.07692E-13-2.09374E-13
 -1      1673 5.64836E+00-2.31667E+00-5.94942E-01 4.30078E+00-8.40217E-13-9.45299E-13
 -1      1674 3.27996E+00-8.61188E+00-1.28932E+00 1.98809E+00-3.60378E-13-5.69655E-13
 -1      1675 1.38209E+01 4.98033E+00 7.89522E-02 9.13041E+00-1.19549E-12-1.14531E-12
 -1      1676 8.57891E+00 3.29560E-01-7.87285E-01 5.34555E+00-1.06115E-12-8.70082E-13
 -1      1677 2.72868E+01 7.94855E+00 7.84524E-01 1.36425E+01-9.93428E-13-1.18416E-12
 -1      1678 1.86994E+01 6.35810E+00-1.00106E-01 1.04202E+01-1.12532E-12-1.20970E-12
 -1      1679 4.19944E+01 7.10817E+00 1.33816E+00 1.39803E+01-5.93747E-13-1.01119E-12
 -1      1680 3.27415E+01 8.29137E+00 6.49102E-01 1.37954E+01-8.78853E-13-1.10822E-12
 -1      1681 5.36235E+01 4.92719E+00 1.64944E+00 8.73609E+00-3.02924E-13-8.98170E-13
 -1      1682 4.62934E+01 6.80765E+00 1.20401E+00 1.20883E+01-4.13516E-13-9.76552E-13
 -1      1683 5.89630E+01 3.87292E+00 1.77786E+00 6.33316E-01-7.06102E-14-7.78266E-13
 -1      1684 5.65643E+01 4.69515E+00 1.66345E+00 6.49548E+00-2.40585E-13-9.51128E-13
 -1      1685 5.45681E+01 5.09743E+00 1.47217E+00-7.59889E+00-9.94482E-14-3.76921E-13
 -1      1686 5.82042E+01 4.08262E+00 1.74856E+00-2.15154E+00-1.65201E-13-5.89501E-13
 -1      1687 4.30790E+01 7.08576E+00 9.91591E-01-1.20542E+01-3.65208E-13 1.25011E-13
 -1      1688 5.11187E+01 5.18724E+00 1.45770E+00-9.29747E+00-1.17940E-13-1.86406E-13
 -1      1689 2.81610E+01 8.22150E+00 4.16194E-01-1.31283E+01-7.06546E-13 6.32827E-13
 -1      1690 3.83514E+01 7.38886E+00 1.16332E+00-1.42782E+01-4.31433E-13 1.69642E-13
 -1      1691 1.42362E+01 4.48894E+00-3.90263E-01-8.41737E+00-4.13891E-13 5.70988E-13
 -1      1692 2.23210E+01 7.44826E+00 5.62916E-01-1.24584E+01-6.14953E-13 8.84848E-13
 -1      1693 5.86748E+00-3.94161E+00-1.08340E+00-3.40889E+00 3.65930E-13 3.88634E-13
 -1      1694 1.00689E+01 1.93961E+00-2.34382E-01-6.99311E+00-2.52465E-13 5.70211E-13
 -1      1695 1.05532E+00-1.28138E+01-1.66660E+00-5.11743E-01 6.39044E-13-2.43097E-13
 -1      1696 2.19335E+00-6.35222E+00-1.01946E+00-1.62142E+00 3.97238E-13-6.12843E-14
 -1      1697-5.43668E-01-1.80150E+01-1.79704E+00-1.37836E+00 1.04972E-12 9.32587E-14
 -1      1698-3.20226E-01-1.44288E+01-1.48757E+00-4.04270E-02 7.33080E-13-1.81244E-14
 -1      1699 2.29488E+01 1.98763E+00-2.67926E-02 2.77330E+00 2.36002E-13 1.37662E-12
 -1      1700 3.51800E+01-1.71797E+00 9.51914E-03-3.98124E+00-3.39728E-13-4.21615E-13
 -1      1701 3.51676E+01-8.02377E-01 1.48539E-02-3.23176E+00-2.63151E-13-2.46247E-13
 -1      1702 3.04112E+01-1.73757E-01-5.25225E-01-3.65017E+00-2.32619E-13-5.22360E-13
 -1      1703 3.56877E+01 5.36695E-01-2.42458E-01-5.54169E+00-6.66689E-14-1.93179E-13
 -1      1704 4.54845E+00-9.99453E+00-1.22006E+00 2.91023E+00 2.82552E-13 5.17156E-13
 -1      1705-1.58866E+00-1.18225E+01-1.21987E+00-1.78752E+00 4.78534E-13 1.61704E-13
 -1      1706-6.64565E-01-1.16538E+01-1.27528E+00 6.11105E-01 4.31544E-13-2.19103E-13
 -1      1707 1.99986E+01-4.84142E-03 2.68271E-04 4.36059E-03-5.36934E-13 8.46790E-14
 -1      1708 1.99992E+01-1.03382E-02 3.26747E-04 5.42211E-03-7.64739E-13 8.05330E-14
 -1      1709 1.99985E+01-9.58761E-03-2.03057E-04 8.82755E-03-1.54710E-13-2.86997E-14
 -1      1710 1.35069E+01-6.87643E+00-9.66145E-01 4.59141E+00 3.33067E-13 4.97324E-13
 -1      1711 2.60161E+01-3.06379E+00-2.88523E-01 5.54983E+00 5.60441E-13 9.39249E-14
 -1      1712 4.03470E+01 7.75611E-01 8.32408E-01 4.74496E+00 2.98428E-13 3.84359E-13
 -1      1713 5.12001E+01 4.75907E+00 1.91652E+00 1.59456E+00 7.09155E-14 5.26690E-13
 -1      1714 5.58964E+01 7.96772E+00 2.59304E+00-1.78066E-02 3.28626E-13 1.59817E-13
 -1      1715 5.62149E+01 7.40048E+00 2.63909E+00-1.27110E-01 6.47482E-13 1.93734E-13
 -1      1716 4.73936E+01 2.74208E+00 1.44494E+00-2.12496E+00 5.65339E-13 5.10703E-15
 -1      1717 3.40647E+01-2.24685E+00 6.00532E-02-4.26923E+00 4.42646E-13-3.21521E-13
 -1      1718 1.93921E+01-5.12428E+00-5.91155E-01-5.28308E+00 7.39075E-13-5.10370E-13
 -1      1719 8.00197E+00-8.71608E+00-1.17219E+00-3.63522E+00 7.64611E-13-6.40210E-13
 -1      1720 1.12058E+00-1.15534E+01-1.33578E+00-1.62116E+00 5.74540E-13-5.08649E-13
 -1      1721-1.91105E+00-1.25326E+01-1.37485E+00 9.99108E-01 2.99372E-13-3.28404E-13
 -1      1722-5.37298E-01-1.11857E+01-1.15800E+00 2.99725E+00 1.07858E-13-4.34208E-13
 -1      1723 4.42868E+00-8.24225E+00-8.38447E-01 5.36892E+00-1.29674E-13-6.62428E-13
 -1      1724 1.20165E+01-4.12879E+00-4.81494E-01 7.11471E+00-3.50830E-13-7.65610E-13
 -1      1725 2.15192E+01 7.93395E-01 9.63110E-02 8.64334E+00-5.96634E-13-7.18092E-13
 -1      1726 3.24779E+01 4.43039E+00 7.21735E-01 9.04833E+00-6.90448E-13-6.74349E-13
 -1      1727 4.19404E+01 6.60622E+00 1.15056E+00 7.14653E+00-5.21833E-13-7.93032E-13
 -1      1728 4.82729E+01 7.80659E+00 1.40541E+00 3.58241E+00-2.69784E-13-5.73763E-13
 -1      1729 5.01618E+01 8.38858E+00 1.52069E+00-2.73863E-01-2.75779E-13-5.87468E-13
 -1      1730 4.62452E+01 7.61075E+00 1.19333E+00-3.56804E+00-3.22131E-13-2.02172E-13
 -1      1731 3.95439E+01 6.01272E+00 9.97348E-01-7.22273E+00-3.07317E-13-1.81744E-13
 -1      1732 2.89204E+01 3.40320E+00 5.13886E-01-9.12371E+00-1.90403E-13 1.11466E-13
 -1      1733 1.76631E+01-1.36188E+00-1.66056E-01-8.01152E+00 1.41998E-13 3.94074E-13
 -1      1734 8.13014E+00-6.15631E+00-6.56624E-01-6.18464E+00 3.27738E-13 3.12125E-13
 -1      1735 1.24499E+00-1.03389E+01-1.12650E+00-3.80741E+00 5.66880E-13 4.74065E-14
 -1      1736 2.28655E+01 1.98557E+00-2.35478E-02-2.72384E+00-2.55674E-13 8.97005E-13
 -1      1737 1.98252E+01 3.71537E+00-3.55622E-02-2.15414E+00-3.05712E-13-3.87447E-13
 -1      1738 2.00609E+01 3.56315E+00-4.02515E-02-2.44707E+00-3.58803E-13-2.89015E-13
 -1      1739 2.03669E+01 3.18268E+00-4.57204E-02-2.58690E+00-3.61980E-13-1.53121E-13
 -1      1740 2.05874E+01 2.81089E+00-1.42569E-01-2.85527E+00-3.91610E-13 2.13163E-14
 -1      1741 2.04264E+01 2.69434E+00-4.42469E-03-2.22793E+00-3.81296E-13-1.99209E-13
 -1      1742 1.93543E+01 4.19075E+00-2.02056E-02-1.27335E+00-1.55427E-13-5.46375E-13
 -1      1743 1.94280E+01 4.15042E+00-1.74940E-02-1.49744E+00-1.95876E-13-5.25783E-13
 -1      1744 1.92574E+01 4.29610E+00-1.67886E-02-8.62724E-01-8.68496E-14-5.55491E-13
 -1      1745 1.93004E+01 4.27232E+00-1.43159E-02-1.07324E+00-1.19584E-13-5.57443E-13
 -1      1746 1.95262E+01 3.78448E+00-9.21275E-03-1.12282E+00-1.54807E-13-5.27424E-13
 -1      1747 1.92052E+01 4.35682E+00-1.47887E-02-4.70253E-01-1.30126E-14-5.41565E-13
 -1      1748 1.92274E+01 4.34393E+00-1.32824E-02-6.70274E-01-4.27041E-14-5.47208E-13
 -1      1749 1.94284E+01 3.90514E+00-9.19071E-03-7.36219E-01-6.78760E-14-5.30695E-13
 -1      1750 1.91851E+01 4.38291E+00-1.36437E-02-8.77213E-02 6.03772E-14-5.33297E-13
 -1      1751 1.91919E+01 4.37883E+00-1.31760E-02-2.82808E-01 3.08368E-14-5.40167E-13
 -1      1752 1.93773E+01 3.97018E+00-9.15126E-03-3.61705E-01 1.58115E-14-5.22013E-13
 -1      1753 1.91925E+01 4.37836E+00-1.31300E-02 2.93236E-01 1.23734E-13-5.21035E-13
 -1      1754 1.91853E+01 4.38254E+00-1.36938E-02 9.80926E-02 9.40588E-14-5.31067E-13
 -1      1755 1.93618E+01 3.99029E+00-9.14091E-03 6.59167E-03 8.19787E-14-5.14208E-13
 -1      1756 1.92290E+01 4.34240E+00-1.32558E-02 6.80966E-01 1.78411E-13-4.93612E-13
 -1      1757 1.92062E+01 4.35557E+00-1.48286E-02 4.80772E-01 1.50849E-13-5.09943E-13
 -1      1758 1.93784E+01 3.96862E+00-9.18777E-03 3.74990E-01 1.44732E-13-4.99309E-13
 -1      1759 1.93017E+01 4.27105E+00-1.42594E-02 1.07740E+00 2.49190E-13-4.40382E-13
 -1      1760 1.92588E+01 4.29456E+00-1.68274E-02 8.70229E-01 2.09693E-13-4.76801E-13
 -1      1761 1.94304E+01 3.90274E+00-9.19361E-03 7.46449E-01 2.13224E-13-4.66077E-13
 -1      1762 1.94320E+01 4.14768E+00-1.70505E-02 1.50580E+00 3.25615E-13-3.52853E-13
 -1      1763 1.93563E+01 4.18833E+00-2.02093E-02 1.27749E+00 2.80761E-13-4.00058E-13
 -1      1764 1.95289E+01 3.78142E+00-9.23871E-03 1.12961E+00 2.89628E-13-3.96960E-13
 -1      1765 1.96584E+01 3.93753E+00-2.45721E-02 1.96811E+00 3.89857E-13-2.38698E-13
 -1      1766 1.95274E+01 4.01178E+00-2.61356E-02 1.71309E+00 3.51033E-13-3.09724E-13
 -1      1767 1.97001E+01 3.57886E+00-8.71435E-03 1.52909E+00 3.60791E-13-3.00803E-13
 -1      1768 2.00667E+01 3.54841E+00-4.34980E-02 2.45374E+00 4.31159E-13-1.69934E-14
 -1      1769 1.98327E+01 3.71005E+00-3.51250E-02 2.16776E+00 3.98471E-13-1.54748E-13
 -1      1770 1.99891E+01 3.24747E+00-5.22787E-03 1.92634E+00 4.12214E-13-1.76630E-13
 -1      1771 2.06129E+01 2.79371E+00-1.38179E-01 2.86978E+00 4.12309E-13 3.77566E-13
 -1      1772 2.03849E+01 3.16318E+00-4.58727E-02 2.59954E+00 4.08563E-13 1.50824E-13
 -1      1773 2.04700E+01 2.67021E+00 4.39993E-03 2.24032E+00 4.45862E-13 7.85136E-14
 -1      1774 3.51428E+01-3.64194E+00 7.99675E-02-1.70447E+00-6.07570E-14-4.40342E-13
 -1      1775 3.57117E+01-2.70342E+00-3.19597E-02-3.44976E+00-3.04645E-13-3.28321E-13
 -1      1776 9.71863E+00-6.90365E+00-2.96754E-01 5.15084E+00 2.73115E-14 6.27637E-13
 -1      1777 5.58831E+00-7.88865E+00-4.74389E-01 3.79005E+00 1.71418E-13 2.63012E-13
 -1      1778 2.18023E+01 2.45902E+00 9.08980E-02-3.04981E+00-3.45108E-13 3.39728E-13
 -1      1779 2.18353E+01 2.47483E+00 8.92529E-02 3.09001E+00 3.33390E-13 7.20549E-13
 -1      1780 2.05257E+01 5.00754E-01 3.25386E-02-9.22479E-01-3.04239E-13 1.43932E-13
 -1      1781 2.00934E+01 3.52109E-01 7.58909E-03-6.30519E-01-2.77729E-13 6.97758E-14
 -1      1782 1.98986E+01 2.57616E-01 2.73963E-02-3.91985E-01-2.48722E-13 7.96932E-14
 -1      1783 1.97074E+01 1.78414E-01 1.04057E-02-2.53937E-01-2.00060E-13 1.62240E-14
 -1      1784 2.02029E+01 4.84381E-01-5.68384E-03-7.23854E-01-3.00363E-13-4.43499E-14
 -1      1785 1.95853E+01 1.33036E-01 1.66602E-02-1.20158E-01-1.61396E-13 4.88325E-16
 -1      1786 1.95071E+01 9.33485E-02 6.98975E-03-4.91822E-02-1.34344E-13-4.60287E-14
 -1      1787 1.98764E+01 2.44800E-01-5.64221E-03-2.96164E-01-2.25251E-13-8.52027E-14
 -1      1788 1.94422E+01 6.85999E-02 8.69160E-03 2.44589E-02-1.23457E-13-5.92256E-14
 -1      1789 1.94278E+01 4.69121E-02 4.13697E-03 6.07683E-02-1.21978E-13-1.06277E-13
 -1      1790 1.96937E+01 1.25784E-01-4.53755E-03-5.88914E-02-1.53065E-13-1.43415E-13
 -1      1791 1.94017E+01 3.25410E-02 4.24099E-03 9.95876E-02-1.32342E-13-1.09951E-13
 -1      1792 1.94216E+01 2.01204E-02 2.45552E-03 1.16468E-01-1.17178E-13-1.67046E-13
 -1      1793 1.96070E+01 6.13000E-02-3.40580E-03 7.09995E-02-1.56149E-13-1.70629E-13
 -1      1794 1.94199E+01 1.14691E-02 1.85803E-03 1.34511E-01-1.31302E-13-1.73616E-13
 -1      1795 1.94572E+01 4.31486E-03 1.47095E-03 1.40041E-01-1.26191E-13-2.08313E-13
 -1      1796 1.95829E+01 2.43486E-02-2.31658E-03 1.37701E-01-1.55072E-13-1.53437E-13
 -1      1797 1.94698E+01-8.78709E-04 5.56436E-04 1.45570E-01-9.94800E-14-2.01140E-13
 -1      1798 1.95143E+01-4.82564E-03 8.59883E-04 1.44472E-01-8.26364E-14-2.06883E-13
 -1      1799 1.95966E+01 2.80540E-03-1.43958E-03 1.66329E-01-1.26504E-13-2.00081E-13
 -1      1800 1.95345E+01-7.80155E-03-1.64581E-04 1.42627E-01-1.11050E-13-1.81897E-13
 -1      1801 1.95803E+01-9.71521E-03 4.68898E-04 1.37855E-01-7.72308E-14-1.93881E-13
 -1      1802 1.96316E+01-9.41525E-03-8.08651E-04 1.72069E-01-1.01697E-13-1.73878E-13
 -1      1803 1.96037E+01-1.12264E-02-5.49861E-04 1.31954E-01-6.22946E-14-2.22466E-13
 -1      1804 1.96474E+01-1.18314E-02 2.23149E-04 1.25416E-01-4.62364E-14-3.07783E-13
 -1      1805 1.96769E+01-1.57197E-02-3.85347E-04 1.64546E-01-1.10112E-13-2.02978E-13
 -1      1806 1.96713E+01-1.23683E-02-7.29291E-04 1.17639E-01-3.56560E-14-3.40887E-13
 -1      1807 1.97112E+01-1.21362E-02 7.91945E-05 1.10585E-01-1.05217E-14-3.43492E-13
 -1      1808 1.97255E+01-1.81892E-02-1.17801E-04 1.50037E-01-6.28632E-14-2.10618E-13
 -1      1809 1.97340E+01-1.20321E-02-7.79852E-04 1.02364E-01-8.01323E-15-3.25823E-13
 -1      1810 1.97693E+01-1.12796E-02 7.61571E-06 9.55986E-02 1.48069E-14-3.24572E-13
 -1      1811 1.97733E+01-1.81747E-02 3.83539E-05 1.32682E-01-2.17604E-14-2.04419E-13
 -1      1812 1.97904E+01-1.07670E-02-7.51050E-04 8.78593E-02 3.24574E-14-3.39825E-13
 -1      1813 1.98213E+01-9.71171E-03-1.33957E-05 8.18850E-02 3.98068E-14-3.21858E-13
 -1      1814 1.98180E+01-1.65870E-02 1.16804E-04 1.15190E-01 8.93155E-15-1.87608E-13
 -1      1815 1.98404E+01-8.95697E-03-6.76167E-04 7.51962E-02 1.36674E-14-3.85421E-13
 -1      1816 1.98672E+01-7.75406E-03-1.30987E-06 7.03016E-02-4.04860E-14-3.37219E-13
 -1      1817 1.98588E+01-1.40573E-02 1.42386E-04 9.92827E-02-1.20715E-14-3.34964E-13
 -1      1818 1.98844E+01-6.88316E-03-5.78117E-04 6.49755E-02-8.80139E-14-3.75523E-13
 -1      1819 1.99080E+01-5.65382E-03 2.82035E-05 6.12884E-02-1.02024E-13-3.69744E-13
 -1      1820 1.98956E+01-1.10413E-02 1.33552E-04 8.59852E-02-6.73671E-14-4.08642E-13
 -1      1821 1.99237E+01-4.77395E-03-4.73078E-04 5.74349E-02-8.58241E-14-3.68220E-13
 -1      1822 1.99448E+01-3.63115E-03 5.88513E-05 5.49468E-02-7.63791E-14-3.49019E-13
 -1      1823 1.99288E+01-7.89923E-03 1.04486E-04 7.57971E-02-9.47070E-14-3.95271E-13
 -1      1824 1.99593E+01-2.85165E-03-3.72997E-04 5.24920E-02-1.15462E-13-3.32792E-13
 -1      1825 1.99788E+01-1.92572E-03 7.12831E-05 5.10546E-02-5.52243E-14-3.36848E-13
 -1      1826 1.99594E+01-4.96683E-03 6.68687E-05 6.87795E-02-8.76653E-14-3.51427E-13
 -1      1827 1.99927E+01-1.37930E-03-2.87431E-04 4.97230E-02-7.85910E-15-3.58341E-13
 -1      1828 2.00109E+01-8.43841E-04 4.07511E-05 4.90175E-02-7.39531E-14-3.21375E-13
 -1      1829 1.99881E+01-2.62560E-03 3.14147E-05 6.45585E-02-7.02645E-14-2.60721E-13
 -1      1830 2.00245E+01-7.07589E-04-2.24896E-04 4.82803E-02-1.29961E-13-2.90721E-13
 -1      1831 2.00419E+01-8.04309E-04-6.47207E-05 4.77594E-02-1.43528E-14-3.35955E-13
 -1      1832 2.00158E+01-1.37281E-03 9.26040E-06 6.22509E-02-6.05314E-14-2.23822E-13
 -1      1833 2.00552E+01-1.31759E-03-1.93761E-04 4.67499E-02 6.04603E-14-4.00124E-13
 -1      1834 2.00713E+01-2.37437E-03-2.84793E-04 4.55578E-02 4.41284E-14-4.22175E-13
 -1      1835 2.00429E+01-1.88629E-03 1.32413E-05 6.03163E-02-6.48838E-14-2.99960E-13
 -1      1836 2.00842E+01-3.84680E-03-2.02635E-04 4.29667E-02 8.51452E-14-4.33001E-13
 -1      1837 2.00978E+01-6.27807E-03-6.64419E-04 3.98501E-02 4.72387E-14-4.58561E-13
 -1      1838 2.00693E+01-5.06798E-03 5.90096E-05 5.63491E-02 7.56292E-14-4.35896E-13
 -1      1839 2.01095E+01-9.07521E-03-2.60192E-04 3.38236E-02 3.35224E-15-3.72707E-13
 -1      1840 2.01181E+01-1.33457E-02-1.24649E-03 2.70632E-02 5.00997E-14-2.96224E-13
 -1      1841 2.00939E+01-1.20345E-02 1.65823E-04 4.68510E-02 1.14448E-13-3.64446E-13
 -1      1842 2.01271E+01-1.78330E-02-3.74358E-04 1.51548E-02 1.77511E-15-3.23023E-13
 -1      1843 2.01269E+01-2.43583E-02-2.05706E-03 2.57186E-03 2.49016E-14-3.08486E-13
 -1      1844 2.01146E+01-2.40027E-02 3.56586E-04 2.70631E-02 5.48787E-14-3.06043E-13
 -1      1845 2.01309E+01-3.07785E-02-5.50857E-04-1.81713E-02 1.04051E-14-3.14368E-13
 -1      1846 2.01162E+01-3.97315E-02-3.08138E-03-3.90502E-02-3.04342E-14-3.59332E-13
 -1      1847 2.01272E+01-4.19975E-02 6.56228E-04-8.99778E-03-1.99493E-15-4.06699E-13
 -1      1848 2.01116E+01-4.79927E-02-7.90927E-04-7.17437E-02-3.32035E-14-4.11052E-13
 -1      1849 2.00752E+01-5.89992E-02-4.23191E-03-1.03254E-01-6.96643E-14-3.82403E-13
 -1      1850 2.01258E+01-6.63062E-02 1.08666E-03-6.80782E-02-2.90801E-14-4.14131E-13
 -1      1851 2.00570E+01-6.83724E-02-1.08756E-03-1.50435E-01-8.49414E-14-4.16260E-13
 -1      1852 1.99909E+01-8.01224E-02-5.31605E-03-1.93967E-01-7.26311E-14-4.63078E-13
 -1      1853 2.01016E+01-9.56422E-02 1.65539E-03-1.56511E-01-9.57584E-14-4.00032E-13
 -1      1854 1.99531E+01-8.89064E-02-1.41864E-03-2.56348E-01 4.60439E-15-3.83831E-13
 -1      1855 1.98491E+01-9.88026E-02-6.02124E-03-3.11149E-01 1.25720E-13-2.44604E-13
 -1      1856 2.00437E+01-1.26117E-01 2.33391E-03-2.78045E-01 2.66068E-14-2.63218E-13
 -1      1857 1.97850E+01-1.04113E-01-1.73274E-03-3.85915E-01 1.47252E-13-2.17284E-13
 -1      1858 1.96377E+01-1.08216E-01-5.94703E-03-4.47658E-01 2.18255E-13-1.54574E-13
 -1      1859 1.99395E+01-1.50380E-01 3.02525E-03-4.30590E-01 1.84674E-13-1.71746E-13
 -1      1860 1.95416E+01-1.06187E-01-1.92990E-03-5.26687E-01 1.68884E-13-1.99440E-13
 -1      1861 1.93507E+01-9.98415E-02-4.71654E-03-5.86350E-01 3.74301E-14-1.92592E-13
 -1      1862 1.97769E+01-1.57633E-01 3.52581E-03-6.02321E-01 1.38955E-13-1.22037E-13
 -1      1863 1.92203E+01-8.65768E-02-1.83395E-03-6.55248E-01-4.34765E-14-1.14797E-13
 -1      1864 1.89941E+01-6.60392E-02-2.17081E-03-6.99184E-01-5.47292E-14-1.59343E-14
 -1      1865 1.95481E+01-1.35547E-01 3.50553E-03-7.68479E-01 1.09977E-13-6.41666E-14
 -1      1866 1.88340E+01-3.94713E-02-1.19326E-03-7.38483E-01-8.08043E-14-1.86153E-14
 -1      1867 1.85910E+01-4.36977E-03 1.41419E-03-7.50730E-01-1.25066E-13 5.85528E-14
 -1      1868 1.92558E+01-7.47734E-02 2.57370E-03-8.91345E-01-7.70345E-14 1.15402E-13
 -1      1869 1.84159E+01 3.34863E-02 2.47321E-04-7.40435E-01-1.87874E-13 7.08981E-15
 -1      1870 1.81840E+01 7.79470E-02 5.24567E-03-7.07628E-01-9.73796E-14-3.19232E-15
 -1      1871 1.89194E+01 2.46126E-02 4.79395E-04-9.26343E-01-1.56907E-13 1.47970E-13
 -1      1872 1.80192E+01 1.19696E-01 2.57100E-03-6.34876E-01-7.18978E-14-1.00037E-13
 -1      1873 1.78317E+01 1.62631E-01 8.22043E-03-5.52567E-01-2.28923E-14-1.69784E-13
 -1      1874 1.85787E+01 1.47716E-01-2.58456E-03-8.35643E-01-2.11088E-13 4.74155E-14
 -1      1875 1.77083E+01 1.96805E-01 5.45846E-03-4.19562E-01-2.86030E-14-2.08011E-13
 -1      1876 1.75960E+01 2.24945E-01 9.40890E-03-2.96882E-01-9.41248E-14-1.90725E-13
 -1      1877 1.82899E+01 2.65137E-01-5.79156E-03-6.06123E-01-1.02517E-13-3.81097E-15
 -1      1878 1.75415E+01 2.40350E-01 8.11621E-03-1.24350E-01-1.16452E-13-2.21071E-13
 -1      1879 1.75241E+01 2.43883E-01 8.54845E-03 1.64408E-02-1.38892E-13-2.61453E-13
 -1      1880 1.81117E+01 3.41799E-01-7.93432E-03-2.62992E-01-1.31238E-13 7.44879E-15
 -1      1881 1.75513E+01 2.35009E-01 9.51263E-03 1.94007E-01-2.11112E-13-2.70435E-13
 -1      1882 1.76312E+01 2.12600E-01 6.17918E-03 3.24230E-01-1.60650E-13-4.07191E-13
 -1      1883 1.80844E+01 3.52033E-01-8.02340E-03 1.31108E-01-1.77875E-13-9.08101E-14
 -1      1884 1.77326E+01 1.82570E-01 8.90404E-03 4.70442E-01 1.52274E-14-3.23079E-13
 -1      1885 1.78944E+01 1.42082E-01 3.27156E-03 5.65086E-01 1.56307E-14-2.72642E-13
 -1      1886 1.82132E+01 2.91980E-01-6.05946E-03 4.95207E-01-1.34285E-14-7.28657E-14
 -1      1887 1.80455E+01 1.01000E-01 6.31726E-03 6.54596E-01-4.33781E-14-3.85730E-13
 -1      1888 1.82604E+01 5.54216E-02 7.35019E-04 7.00506E-01-9.34869E-14-3.19509E-13
 -1      1889 1.84659E+01 1.81882E-01-2.93799E-03 7.58986E-01-1.29126E-13-1.42996E-13
 -1      1890 1.84297E+01 1.53118E-02 2.55702E-03 7.26112E-01-1.03094E-13-1.71881E-13
 -1      1891 1.86642E+01-2.32568E-02-9.59002E-04 7.24323E-01-1.08342E-14-1.26829E-13
 -1      1892 1.87867E+01 5.59112E-02 1.25439E-04 8.86034E-01 2.64318E-15-1.20832E-13
 -1      1893 1.88240E+01-5.34572E-02-1.24039E-03 6.95619E-01-7.15904E-14-1.01832E-13
 -1      1894 1.90480E+01-7.80267E-02-1.78290E-03 6.57857E-01-5.81792E-14-8.53254E-14
 -1      1895 1.91167E+01-5.31502E-02 2.26946E-03 8.80057E-01-5.43164E-14 2.09994E-13
 -1      1896 1.91806E+01-9.47015E-02-4.14382E-03 5.94049E-01-2.17105E-14-7.87547E-14
 -1      1897 1.93728E+01-1.04156E-01-1.94434E-03 5.36512E-01 1.49522E-13-1.29462E-13
 -1      1898 1.94105E+01-1.25356E-01 3.26215E-03 7.74433E-01 1.75721E-14 2.91063E-13
 -1      1899 1.94711E+01-1.08330E-01-5.72803E-03 4.58319E-01 2.86274E-13-2.15976E-13
 -1      1900 1.96212E+01-1.05646E-01-1.70070E-03 3.96141E-01 3.14930E-13-5.71865E-14
 -1      1901 1.96435E+01-1.56381E-01 3.32715E-03 6.14454E-01 1.50729E-13 1.18458E-13
 -1      1902 1.96864E+01-1.00863E-01-6.05423E-03 3.20233E-01 1.70900E-13-5.97644E-14
 -1      1903 1.97933E+01-9.06253E-02-1.25801E-03 2.64369E-01 3.34282E-13 1.38065E-13
 -1      1904 1.98095E+01-1.53356E-01 2.83851E-03 4.41943E-01 3.00416E-13 6.22706E-14
 -1      1905 1.98310E+01-8.09448E-02-5.46935E-03 2.01233E-01 3.36161E-13 6.05777E-14
 -1      1906 1.99003E+01-6.75361E-02-7.73817E-04 1.57729E-01 3.46964E-13 5.03463E-14
 -1      1907 1.99148E+01-1.28366E-01 2.12353E-03 2.86910E-01 3.03278E-13 2.16540E-13
 -1      1908 1.99179E+01-5.63488E-02-4.37836E-03 1.11893E-01 1.62585E-13-1.63395E-13
 -1      1909 1.99585E+01-4.29478E-02-2.89109E-04 8.25427E-02 7.72810E-14 3.14223E-14
 -1      1910 1.99724E+01-9.35127E-02 1.37054E-03 1.65800E-01 2.25298E-13 2.40151E-17
 -1      1911 1.99634E+01-3.29065E-02-3.10153E-03 5.44044E-02 1.42070E-13-1.05154E-14
 -1      1912 1.99849E+01-2.24588E-02 1.10835E-05 3.77459E-02 2.42498E-13 4.08067E-14
 -1      1913 1.99967E+01-5.80702E-02 7.52426E-04 8.34745E-02 1.64887E-13-1.56799E-13
 -1      1914 1.99841E+01-1.54594E-02-1.75418E-03 2.37633E-02 3.94629E-13 1.14940E-13
 -1      1915 1.99939E+01-9.67153E-03 2.10651E-05 1.58289E-02 3.80002E-13 1.71743E-13
 -1      1916 2.00021E+01-2.94745E-02 4.61509E-04 3.69336E-02 3.95692E-13 6.16826E-14
 -1      1917 2.52760E+01 4.10494E-01 1.58001E-02 3.84733E+00 3.60510E-14-3.34453E-13
 -1      1918 2.65587E+01 1.18539E-02 3.19417E-02 3.92701E+00 1.31152E-13-2.78170E-13
 -1      1919 1.97215E+01 1.84074E-01 1.04492E-02 2.67627E-01 2.11411E-13 2.96430E-13
 -1      1920 1.99180E+01 2.66159E-01 2.69832E-02 4.10153E-01 2.46729E-13 3.60855E-13
 -1      1921 2.01174E+01 3.68768E-01 7.75435E-03 6.56739E-01 2.85241E-13 3.92256E-13
 -1      1922 2.05511E+01 5.24391E-01 2.98572E-02 9.62575E-01 3.19897E-13 4.72573E-13
 -1      1923 2.02214E+01 5.05250E-01-4.84498E-03 7.50734E-01 3.22852E-13 1.93266E-13
 -1      1924 1.95136E+01 9.63881E-02 7.09146E-03 5.68996E-02 1.40128E-13 2.22341E-13
 -1      1925 1.95959E+01 1.37328E-01 1.70330E-02 1.30180E-01 1.63768E-13 2.62783E-13
 -1      1926 1.98887E+01 2.52215E-01-5.79860E-03 3.12327E-01 2.35282E-13 1.25090E-13
 -1      1927 1.94295E+01 4.86348E-02 4.20177E-03-5.66089E-02 1.02168E-13 2.03941E-13
 -1      1928 1.94464E+01 7.09829E-02 8.95554E-03-1.90486E-02 1.20261E-13 2.25563E-13
 -1      1929 1.96998E+01 1.29847E-01-4.74662E-03 6.78182E-02 1.48608E-13 7.47226E-14
 -1      1930 1.94205E+01 2.11419E-02 2.51342E-03-1.14355E-01 4.88664E-14 1.73034E-13
 -1      1931 1.94019E+01 3.39089E-02 4.39153E-03-9.67618E-02 7.82475E-14 2.05146E-13
 -1      1932 1.96094E+01 6.35882E-02-3.54000E-03-6.60939E-02 1.06108E-13 7.65885E-14
 -1      1933 1.94544E+01 4.96102E-03 1.52031E-03-1.39072E-01 5.12741E-14 1.83838E-13
 -1      1934 1.94178E+01 1.21525E-02 1.91303E-03-1.33220E-01 5.87695E-14 1.67366E-13
 -1      1935 1.95828E+01 2.57607E-02-2.37616E-03-1.35183E-01 6.37924E-14 7.02490E-14
 -1      1936 1.95074E+01-4.11130E-03 9.12658E-04-1.44209E-01 5.98170E-14 1.19703E-13
 -1      1937 1.94653E+01-3.31322E-04 5.60090E-04-1.45007E-01 5.56623E-14 1.56773E-13
 -1      1938 1.95944E+01 3.63675E-03-1.51380E-03-1.64947E-01 7.19475E-14 4.55686E-14
 -1      1939 1.95729E+01-9.50790E-03 4.95202E-04-1.38306E-01 4.79184E-14 8.14680E-14
 -1      1940 1.95272E+01-7.47427E-03-1.26731E-04-1.42903E-01 6.52936E-14 1.07684E-13
 -1      1941 1.96272E+01-8.60063E-03-8.47198E-04-1.71745E-01 9.51625E-14-1.88483E-15
 -1      1942 1.96399E+01-1.19111E-02 2.28207E-04-1.26073E-01 4.07397E-14 4.61544E-14
 -1      1943 1.95961E+01-1.11679E-02-5.18559E-04-1.32593E-01 3.36256E-14 6.62725E-14
 -1      1944 1.96717E+01-1.54855E-02-4.06032E-04-1.65009E-01 6.09871E-14 1.04787E-14
 -1      1945 1.97037E+01-1.23911E-02 7.91651E-05-1.11121E-01 6.13126E-14 2.44070E-14
 -1      1946 1.96638E+01-1.25352E-02-7.11895E-04-1.18282E-01 4.97794E-14 5.01505E-14
 -1      1947 1.97201E+01-1.83234E-02-1.25213E-04-1.50744E-01 5.68676E-14-4.88696E-14
 -1      1948 1.97622E+01-1.16198E-02 9.82886E-06-9.58344E-02 9.14639E-14-2.90281E-14
 -1      1949 1.97268E+01-1.23357E-02-7.68664E-04-1.02771E-01 7.24613E-14-2.78385E-15
 -1      1950 1.97680E+01-1.85413E-02 3.72094E-05-1.33281E-01 9.62968E-14-7.57384E-14
 -1      1951 1.98145E+01-1.00098E-02 4.30771E-06-8.17993E-02 1.12037E-13-4.49196E-15
 -1      1952 1.97836E+01-1.11046E-02-7.38556E-04-8.79364E-02 1.19451E-13-2.12102E-14
 -1      1953 1.98132E+01-1.70383E-02 1.13825E-04-1.15521E-01 9.79715E-14-1.16087E-13
 -1      1954 1.98611E+01-7.79669E-03 5.46241E-05-7.01139E-02 5.16503E-15-1.65525E-14
 -1      1955 1.98341E+01-9.16956E-03-6.53856E-04-7.50490E-02 5.86008E-14-5.67142E-15
 -1      1956 1.98546E+01-1.43729E-02 1.28766E-04-9.94313E-02 8.92579E-14-9.39205E-14
 -1      1957 1.99033E+01-5.06469E-03 1.61304E-04-6.16215E-02-8.35355E-14-4.62183E-14
 -1      1958 1.98791E+01-6.69553E-03-5.34941E-04-6.50283E-02-4.73912E-15-1.77502E-14
 -1      1959 1.98925E+01-1.08437E-02 9.82574E-05-8.64103E-02 7.43082E-15-5.80205E-14
 -1      1960 1.99429E+01-1.75108E-03 3.33846E-04-5.71195E-02-1.90407E-14-9.64335E-14
 -1      1961 1.99202E+01-3.70074E-03-3.93604E-04-5.86593E-02-6.84717E-14-8.64664E-14
 -1      1962 1.99277E+01-6.52253E-03 3.23976E-05-7.75795E-02-1.78092E-14-1.15901E-13
 -1      1963 1.99826E+01 2.35280E-03 5.68945E-04-5.75816E-02 6.03471E-14-1.13506E-13
 -1      1964 1.99598E+01-5.14303E-05-2.36145E-04-5.67948E-02-1.27299E-14-8.98108E-14
 -1      1965 1.99618E+01-1.25342E-03-6.26405E-05-7.40521E-02 7.82043E-16-1.25923E-13
 -1      1966 2.00237E+01 7.42464E-03 9.46435E-04-6.38480E-02 8.73967E-15-3.63208E-14
 -1      1967 1.99995E+01 4.42902E-03-5.94879E-05-6.04083E-02 7.99141E-14-6.01489E-14
 -1      1968 1.99958E+01 5.27321E-03-1.51573E-04-7.69974E-02 3.07617E-14-1.24047E-13
 -1      1969 2.00746E+01 1.47390E-02 1.52966E-03-7.85996E-02-4.76485E-14 1.15857E-14
 -1      1970 2.00439E+01 1.03780E-02 1.19375E-04-7.10297E-02-2.07213E-14-3.27916E-14
 -1      1971 2.00331E+01 1.37007E-02-3.26782E-04-8.81743E-02-2.43216E-15-5.17578E-14
 -1      1972 2.01394E+01 2.51797E-02 2.37951E-03-1.04992E-01-1.27740E-14 6.05767E-14
 -1      1973 2.00990E+01 1.88892E-02 3.40719E-04-9.17649E-02-2.16219E-14 3.47009E-14
 -1      1974 2.00781E+01 2.57633E-02-5.06499E-04-1.10971E-01-3.29193E-14-8.38491E-14
 -1      1975 2.02264E+01 4.06632E-02 3.65837E-03-1.48194E-01 6.26272E-14 2.89735E-14
 -1      1976 2.01703E+01 3.12757E-02 5.88955E-04-1.26665E-01 5.00853E-14 4.08468E-14
 -1      1977 2.01340E+01 4.32699E-02-6.99337E-04-1.49812E-01 1.80739E-14-7.69340E-14
 -1      1978 2.03468E+01 6.40937E-02 5.57119E-03-2.16296E-01 1.03264E-13 1.03683E-13
 -1      1979 2.02664E+01 4.98287E-02 8.63402E-04-1.82294E-01 9.67937E-14 9.22606E-14
 -1      1980 2.02060E+01 6.94236E-02-8.84227E-04-2.11730E-01 7.14451E-14 8.00038E-15
 -1      1981 2.05164E+01 9.98636E-02 8.38893E-03-3.21745E-01-1.02971E-14 9.88818E-14
 -1      1982 2.03991E+01 7.80478E-02 1.13596E-03-2.68801E-01 4.62057E-14 8.82951E-14
 -1      1983 2.03007E+01 1.09154E-01-1.00517E-03-3.07442E-01 5.73094E-14 1.94299E-13
 -1      1984 2.07567E+01 1.54321E-01 1.24061E-02-4.83235E-01 2.16068E-14 3.93666E-14
 -1      1985 2.05843E+01 1.21137E-01 1.31419E-03-4.01574E-01 2.63856E-14-1.29781E-14
 -1      1986 2.04253E+01 1.69807E-01-9.51512E-04-4.52947E-01 6.93397E-14 8.43068E-14
 -1      1987 2.10958E+01 2.35811E-01 1.77937E-02-7.27748E-01 3.91475E-14-1.63585E-13
 -1      1988 2.08427E+01 1.86371E-01 1.16110E-03-6.03235E-01 6.09061E-14-8.87608E-14
 -1      1989 2.05874E+01 2.61714E-01-5.37659E-04-6.71387E-01 1.44644E-13-1.42873E-14
 -1      1990 2.15678E+01 3.52927E-01 2.42905E-02-1.09131E+00 2.21316E-14-1.47001E-13
 -1      1991 2.12000E+01 2.82590E-01 1.79596E-04-9.05320E-01 7.57901E-15-1.52640E-13
 -1      1992 2.07923E+01 3.97621E-01 4.92498E-04-9.94487E-01 1.93296E-14-2.80760E-13
 -1      1993 2.22071E+01 5.06890E-01 3.01072E-02-1.61459E+00 7.30527E-14-1.21765E-13
 -1      1994 2.16865E+01 4.16022E-01-2.51230E-03-1.34715E+00 4.48756E-14-1.42880E-13
 -1      1995 2.10402E+01 5.88004E-01 2.40169E-03-1.46172E+00 2.35775E-14-2.80677E-13
 -1      1996 2.30070E+01 6.61172E-01 3.33164E-02-2.28170E+00-1.91687E-15 2.89178E-15
 -1      1997 2.23221E+01 5.73698E-01-7.57582E-03-1.94956E+00 4.24348E-14-6.72750E-14
 -1      1998 2.13162E+01 8.22110E-01 6.94414E-03-2.09166E+00 4.36543E-15-1.43917E-13
 -1      1999 2.40739E+01 7.32332E-01 3.49783E-02-3.11929E+00-1.10042E-13 9.41018E-14
 -1      2000 2.31404E+01 7.09778E-01-1.06122E-02-2.72544E+00-3.04366E-14 4.47767E-14
 -1      2001 2.16090E+01 1.03377E+00 9.23308E-03-2.91317E+00-5.29125E-14-8.11161E-14
 -1      2002 2.54088E+01 4.27196E-01 3.62672E-02-3.86311E+00-1.78118E-13 7.55368E-14
 -1      2003 2.42654E+01 6.54396E-01 2.63502E-03-3.59627E+00-9.76155E-14 1.12524E-13
 -1      2004 2.19525E+01 1.02310E+00 1.49298E-02-3.88559E+00-1.09155E-13 1.06751E-13
 -1      2005 2.71809E+01-7.58448E-01 4.76124E-02-3.90167E+00-1.80744E-13-8.73576E-14
 -1      2006 2.58861E+01-2.07337E-02 5.33667E-02-4.17259E+00-1.83582E-13-5.06158E-14
 -1      2007 2.25149E+01 3.04286E-01 2.40532E-02-4.76105E+00-7.25982E-14-4.36665E-14
 -1      2008 2.94294E+01-2.83725E+00 3.18227E-02-2.50851E+00-2.03712E-13 9.54792E-14
 -1      2009 2.82994E+01-1.71664E+00 1.34346E-01-3.61974E+00-1.79412E-13-4.55946E-14
 -1      2010 2.38558E+01-1.73306E+00 2.54029E-02-4.97848E+00-1.88724E-13-1.05499E-13
 -1      2011 3.35926E+01-3.94262E+00-2.29709E-02 1.27469E+00 1.16129E-13 2.77861E-13
 -1      2012 3.26283E+01-3.69291E+00 1.27929E-01-7.25542E-01-5.78149E-14 1.94261E-13
 -1      2013 3.71599E+01-8.72378E-01-9.90301E-02 4.27557E+00 2.93432E-13 3.99902E-13
 -1      2014 3.71025E+01-3.19526E+00-3.74467E-03 3.34859E+00 1.56282E-13 2.32703E-13
 -1      2015 4.32012E+01 4.49069E+00 2.80436E-01 1.89610E+00 5.58997E-13 9.08718E-14
 -1      2016 4.29278E+01 1.86215E+00 3.28568E-01 3.34889E+00 5.77371E-13 3.84803E-13
 -1      2017 2.73483E+01-5.78308E-01 9.59193E-02 3.97375E+00 1.12875E-13-3.95104E-13
 -1      2018 2.85770E+01-1.49443E+00 3.85471E-02 3.35879E+00 1.33560E-13-4.26986E-13
 -1      2019 2.34703E+01-4.81388E-01 6.87548E-03 4.90127E+00-1.11439E-14-2.47614E-13
 -1      2020 3.04456E+01-2.69534E+00 1.57179E-01 2.47161E+00 1.43885E-13-4.77410E-13
 -1      2021 3.15530E+01-3.66190E+00 1.62272E-02 7.18164E-01 5.78704E-14-5.38333E-13
 -1      2022 2.56347E+01-3.04222E+00-1.26986E-02 4.34292E+00 3.23352E-14-3.37494E-13
 -1      2023 2.38018E+01 6.58867E-01-8.99367E-03 3.07881E+00-2.71691E-13-1.84073E-13
 -1      2024 2.49127E+01 6.00255E-01 3.04285E-02 3.42823E+00-3.55193E-14-1.99937E-13
 -1      2025 2.25002E+01 7.46625E-01 1.07927E-02 4.31486E+00-8.63754E-14-8.58688E-16
 -1      2026 2.27039E+01 5.82670E-01-8.57032E-03 2.25754E+00-3.55256E-13-4.60053E-14
 -1      2027 2.35798E+01 6.47142E-01 3.23754E-02 2.61764E+00-4.36295E-13-1.10278E-13
 -1      2028 2.19460E+01 9.93553E-01 7.40241E-03 3.37276E+00-3.75261E-13 5.10026E-14
 -1      2029 2.18667E+01 4.33877E-01-3.20999E-03 1.58660E+00-9.73527E-15 3.72671E-14
 -1      2030 2.25178E+01 5.18212E-01 3.14163E-02 1.87197E+00-1.55128E-13-2.09259E-13
 -1      2031 2.15090E+01 8.50019E-01 4.61082E-03 2.47381E+00-2.75196E-13-1.86940E-13
 -1      2032 2.12340E+01 3.03075E-01 5.69491E-04 1.09372E+00-7.33536E-14 5.68599E-14
 -1      2033 2.17000E+01 3.71422E-01 2.64940E-02 1.29861E+00-7.95301E-14 2.01504E-13
 -1      2034 2.11232E+01 6.26479E-01 2.09714E-03 1.75454E+00-1.50401E-13-1.66371E-13
 -1      2035 2.07660E+01 2.12825E-01 2.49658E-03 7.43161E-01-1.63636E-13 1.90972E-13
 -1      2036 2.10902E+01 2.58069E-01 2.01693E-02 8.87402E-01-5.05030E-14 9.45471E-14
 -1      2037 2.07898E+01 4.38527E-01 3.84893E-04 1.22230E+00-1.20860E-13 2.30937E-14
 -1      2038 2.04301E+01 1.63187E-01 3.12249E-03 4.87618E-01-2.35886E-13 2.38607E-13
 -1      2039 2.06473E+01 1.84487E-01 1.32693E-02 5.93229E-01-1.84716E-13 2.46329E-13
 -1      2040 2.05150E+01 3.13196E-01-6.42262E-04 8.35382E-01-1.72575E-13-5.62551E-14
 -1      2041 2.01999E+01 1.46057E-01 4.59346E-03 2.78748E-01-1.10519E-13 1.56592E-13
 -1      2042 2.03330E+01 1.52555E-01 8.16012E-03 3.68266E-01-1.76857E-13 2.91001E-13
 -1      2043 2.02998E+01 2.50318E-01 1.09856E-03 5.45341E-01-1.86026E-13-6.98229E-14
 -1      2044 2.00904E+01 1.53581E-01 4.01428E-03 1.75234E-01 4.02545E-13-3.79708E-14
 -1      2045 2.01466E+01 1.54521E-01 4.33618E-03 2.25433E-01 4.79423E-14 8.05709E-14
 -1      2046 2.01529E+01 2.29487E-01-3.67690E-03 3.57727E-01 1.70789E-13-3.91059E-14
 -1      2047 2.00659E+01 2.37873E-01-4.03889E-03 2.37211E-01 3.98854E-13-1.99788E-13
 -1      2048 1.99548E+01 6.55594E-01-3.47140E-03 3.05532E-01 1.60181E-13-5.17139E-13
 -1      2049 1.99849E+01 5.43104E-01-1.74117E-04 3.20448E-01 2.00040E-13-1.71455E-13
 -1      2050 2.00135E+01 4.55714E-01-2.93380E-03 3.16970E-01 3.58695E-13 1.33707E-13
 -1      2051 2.00496E+01 3.37863E-01 1.60361E-03 2.88146E-01 3.71227E-13 3.14707E-14
 -1      2052 2.00848E+01 3.37960E-01 2.73585E-03 3.51547E-01 2.21852E-13-1.27692E-13
 -1      2053 1.99865E+01 5.20073E-01-1.05706E-03 4.07670E-01-1.74489E-13-1.58421E-13
 -1      2054 1.99051E+01 8.16713E-01-3.90985E-03 1.97032E-01-2.66679E-14-8.30819E-13
 -1      2055 1.99246E+01 7.36680E-01-1.83456E-03 2.48804E-01 3.01171E-13-8.03123E-13
 -1      2056 1.99103E+01 6.93684E-01 5.07434E-03 3.57885E-01-7.53557E-14-6.40765E-13
 -1      2057 1.98945E+01 8.76581E-01-2.98505E-03 4.71694E-02-3.42560E-13-9.70372E-13
 -1      2058 1.98951E+01 8.46405E-01-4.46176E-03 1.10390E-01-6.14562E-14-7.93778E-13
 -1      2059 1.98504E+01 8.05456E-01 5.84428E-03 1.92656E-01-7.46313E-14-9.38379E-13
 -1      2060 1.99138E+01 8.33799E-01-1.72010E-03-9.88972E-02-4.22784E-13-4.83232E-13
 -1      2061 1.99006E+01 8.56310E-01-5.39407E-03-4.17371E-02-2.10255E-13-1.04032E-12
 -1      2062 1.98446E+01 8.16506E-01 5.13561E-03-4.83046E-03-8.78289E-14-1.06679E-12
 -1      2063 1.99502E+01 7.07732E-01-4.51111E-04-2.03107E-01-1.08124E-13 4.02286E-13
 -1      2064 1.99301E+01 7.73034E-01-4.88044E-03-1.65995E-01-3.20053E-13 2.89924E-14
 -1      2065 1.98803E+01 7.35738E-01 3.33178E-03-1.79657E-01 1.61737E-13-1.92240E-13
 -1      2066 1.99899E+01 5.35272E-01 6.07833E-04-2.49594E-01-7.86736E-14 1.07141E-12
 -1      2067 1.99699E+01 6.24578E-01-3.24234E-03-2.36850E-01-1.80450E-13 6.09948E-13
 -1      2068 1.99375E+01 5.91147E-01 1.14156E-03-2.92015E-01 1.81201E-13 4.50701E-13
 -1      2069 2.00220E+01 3.55434E-01 1.26768E-03-2.41308E-01-2.77769E-13 3.75646E-13
 -1      2070 2.00071E+01 4.48610E-01-1.16819E-03-2.49941E-01-3.29386E-13 7.44136E-13
 -1      2071 1.99958E+01 4.19889E-01-7.67009E-04-3.29331E-01-2.22196E-15 7.57945E-13
 -1      2072 2.00407E+01 1.99414E-01 1.49384E-03-1.93923E-01-3.83468E-14 9.58815E-14
 -1      2073 2.00331E+01 2.80214E-01 7.00122E-04-2.16505E-01-2.15438E-13 1.44258E-13
 -1      2074 2.00406E+01 2.56293E-01-2.00987E-03-3.01152E-01-1.73344E-13 4.18049E-13
 -1      2075 2.00451E+01 8.66794E-02 1.33992E-03-1.29530E-01 2.17829E-14 9.20119E-14
 -1      2076 2.00448E+01 1.45182E-01 1.99719E-03-1.56718E-01 5.99381E-14 2.73031E-13
 -1      2077 2.00642E+01 1.25266E-01-2.54153E-03-2.31099E-01-1.66103E-13 1.75040E-13
 -1      2078 2.00378E+01 1.74831E-02 8.71186E-04-6.54629E-02 1.69695E-13-5.37168E-15
 -1      2079 2.00430E+01 5.35181E-02 2.55844E-03-9.05394E-02 1.12247E-13 6.47729E-14
 -1      2080 2.00670E+01 3.65452E-02-2.38860E-03-1.45550E-01-9.72744E-14 2.86107E-13
 -1      2081 2.00234E+01-1.22717E-02 2.51071E-04-1.82140E-02 8.66026E-14-6.24366E-13
 -1      2082 2.00310E+01 4.24544E-03 2.34571E-03-3.47833E-02 2.86432E-13-2.92937E-13
 -1      2083 2.00525E+01-1.05053E-02-1.95909E-03-6.70330E-02-3.03236E-14-1.59330E-13
 -1      2084 2.00077E+01-1.35535E-02 5.27026E-04 7.15402E-03-8.88340E-14-6.15751E-13
 -1      2085 2.00153E+01-1.19004E-02 1.84200E-03 1.00561E-03 9.05680E-14-9.19625E-13
 -1      2086 2.00345E+01-2.33052E-02 3.14956E-04-1.29454E-02 1.25936E-14-8.90629E-13
 -1      2087 2.01320E+01-5.77280E+00-2.55179E-01 5.49786E+00 2.46581E-13-2.11497E-14
 -1      2088 1.44782E+01-7.27484E+00-5.44183E-01 4.86622E+00 1.03251E-14 3.09627E-13
 -1      2089 1.99934E+01-5.42828E-03-1.86507E-04 9.70672E-03 5.80265E-14 2.82352E-13
 -1      2090-2.73243E-01-7.47360E+00-3.35650E-01-1.15561E+00 2.09327E-13 1.14408E-13
 -1      2091 1.75729E-01-7.34056E+00-3.39215E-01-2.90352E+00 4.53526E-13-4.22440E-14
 -1      2092 4.52781E+01 5.73706E+00 5.92176E-01 1.09731E+00 4.88942E-13 2.03310E-14
 -1      2093 1.95248E+01 4.01869E+00-2.49890E-02-1.70208E+00-2.26486E-13-4.95813E-13
 -1      2094 1.96494E+01 3.94496E+00-2.46470E-02-1.95832E+00-2.72371E-13-4.51361E-13
 -1      2095 1.99656E+01 3.23854E+00-1.87484E-02-1.92773E+00-3.08593E-13-3.94077E-13
 -1      2096 1.96956E+01 3.59083E+00-6.69614E-03-1.52241E+00-2.29180E-13-4.80029E-13
 -1      2097 3.19237E+01-3.93130E+00 7.05227E-04 3.73327E+00 2.93099E-13-3.25739E-13
 -1      2098 2.52761E+01-5.64046E+00-4.70578E-01 3.82803E+00 2.06279E-13-2.32703E-13
 -1      2099 4.18478E+01-5.22831E-01 3.64350E-01 9.67269E-01-1.86795E-14 3.62155E-13
 -1      2100 3.57427E+01-2.33644E+00-1.02782E-01 1.58264E+00 1.39277E-13 8.84848E-14
 -1      2101 4.55897E+01 3.37188E+00 4.28919E-01-2.31607E+00 1.26343E-13 1.56986E-13
 -1      2102 4.39863E+01 1.79349E+00 5.00146E-01-8.38984E-01 8.27116E-15 3.32623E-13
 -1      2103 3.34323E+01-3.16726E+00-1.50895E-02-1.67983E+00 3.24407E-13-4.55191E-15
 -1      2104 3.97323E+01-1.89282E+00 2.24754E-01-8.01010E-02 3.92048E-13 6.71685E-14
 -1      2105 1.88040E+01-6.83834E+00-6.24601E-01-4.45565E+00 3.87579E-13-1.28841E-13
 -1      2106 2.55311E+01-5.59427E+00-2.87505E-01-4.64194E+00 2.63123E-13-9.29257E-14
 -1      2107 9.81318E+00-7.57539E+00-4.52423E-01-4.72138E+00 2.57350E-13-3.34260E-13
 -1      2108 1.44584E+01-6.64154E+00-3.27526E-01-5.43732E+00 3.53828E-13-1.99590E-13
 -1      2109 2.01943E+01-6.75155E+00-1.53498E-01-5.28885E+00-6.02851E-14 1.43621E-13
 -1      2110 2.15102E+00-7.75081E+00-4.34429E-01-2.19593E+00 1.89349E-13-3.27349E-13
 -1      2111 5.19821E+00-6.44433E+00-2.10088E-01-4.03999E+00 2.50744E-13-3.77975E-13
 -1      2112 1.55740E-01-6.39562E+00-2.00924E-01 8.83740E-01 1.02689E-13-3.98570E-13
 -1      2113 5.89241E-01-7.30624E+00-3.43072E-01-7.04269E-01 2.74947E-13-3.64708E-13
 -1      2114 3.37424E+00-4.03669E+00-9.48476E-02-2.43847E+00 6.32272E-14-2.88936E-13
 -1      2115 1.98939E+00-7.06355E+00-3.04906E-01 4.64627E+00 9.46465E-14-4.76175E-13
 -1      2116 3.79204E-01-7.35584E+00-3.30497E-01 3.21809E+00 1.66395E-13-4.48974E-13
 -1      2117 7.79088E+00-5.39316E+00-1.74724E-01 7.22087E+00 7.39409E-14-6.21392E-13
 -1      2118 4.41086E+00-7.31467E+00-4.07474E-01 5.66385E+00 1.13687E-13-4.71734E-13
 -1      2119 4.61500E+00-5.24774E+00-1.54114E-01 6.19630E+00 1.79357E-13-4.68958E-13
 -1      2120 1.77338E+01-3.44630E+00 3.16051E-02 8.25854E+00-1.33116E-13-4.56052E-13
 -1      2121 1.35530E+01-5.33356E+00-1.71905E-01 7.58669E+00 1.35447E-13-6.11053E-13
 -1      2122 2.57432E+01-8.42442E-01 1.26517E-01 7.75682E+00-2.59182E-13-3.50664E-13
 -1      2123 2.06981E+01-2.96061E+00-2.12711E-01 7.33544E+00-2.10720E-13-3.37230E-13
 -1      2124 2.18239E+01-4.79581E+00-1.35240E-02 7.46551E+00 1.53599E-13-2.65038E-13
 -1      2125 3.42096E+01 2.43949E+00 2.43139E-01 6.02882E+00-4.19720E-13-5.25913E-13
 -1      2126 2.93617E+01 7.35063E-01-6.40010E-02 6.22986E+00-4.29184E-13-4.31211E-13
 -1      2127 3.95010E+01 5.18608E+00 2.51519E-01 3.55171E+00-3.87829E-13-5.77371E-13
 -1      2128 3.62344E+01 3.97173E+00 1.12342E-01 4.77629E+00-4.82211E-13-5.34461E-13
 -1      2129 3.43674E+01 1.99146E+00 2.46821E-01 2.62469E+00-2.69458E-13-3.04423E-13
 -1      2130 4.34399E+01 7.62244E+00 3.37525E-01 1.26071E+00-3.50386E-13-4.33903E-13
 -1      2131 4.12271E+01 7.12805E+00 2.28086E-01 2.45252E+00-3.29348E-13-5.58997E-13
 -1      2132 4.20502E+01 8.17899E+00 1.69753E-01-6.83747E-01-3.72813E-13-1.76636E-13
 -1      2133 4.27990E+01 8.24700E+00 2.94550E-01 4.90348E-01-3.41838E-13-3.47056E-13
 -1      2134 3.92786E+01 6.63605E+00 9.62443E-02-2.06604E+00-4.45810E-13-1.83631E-13
 -1      2135 4.21221E+01 7.64128E+00 3.52477E-01-1.34965E+00-4.00846E-13-2.05669E-13
 -1      2136 3.49716E+01 3.34816E+00 1.90781E-01-5.33547E+00-2.64122E-13-1.72973E-13
 -1      2137 3.80233E+01 4.42347E+00 1.27947E-01-3.50031E+00-3.30680E-13-1.28453E-13
 -1      2138 2.64704E+01-2.60024E-01-1.03755E-01-6.84940E+00-7.73825E-14-4.32987E-15
 -1      2139 3.19909E+01 1.72831E+00 2.46340E-01-6.94986E+00-2.74558E-13-2.38365E-13
 -1      2140 1.79406E+01-4.11614E+00-2.05341E-01-7.40516E+00 3.90743E-13 3.43725E-13
 -1      2141 2.30066E+01-1.71830E+00 1.20825E-01-8.08169E+00 1.29230E-13 2.43694E-13
 -1      2142 8.33373E+00-6.51661E+00-3.57109E-01-6.72508E+00 3.33067E-13 1.37806E-13
 -1      2143 1.27740E+01-4.44554E+00-5.78564E-02-8.08579E+00 3.77698E-13 5.99076E-13
 -1      2144 2.46674E+00-7.29065E+00-3.20835E-01-4.82519E+00 5.44453E-13 1.74416E-13
 -1      2145 4.99366E+00-6.29200E+00-2.19096E-01-6.13325E+00 3.40283E-13-6.66134E-16
 -1      2146 8.93452E+00-5.26833E+00-8.09891E-02-7.72949E+00 2.90989E-13 2.69562E-13
 -1      2147 2.15455E+01 1.75293E+00 7.77828E-02 2.36673E+00 3.68303E-13 5.64451E-13
 -1      2148 2.54705E+00-7.20050E+00-3.19439E-01 2.68177E+00 3.31513E-13-2.33091E-13
 -1      2149 7.25068E-01-7.29116E+00-3.41394E-01 1.06615E+00 1.75776E-13-3.13083E-14
 -1      2150 2.15120E+01 1.74335E+00 7.94834E-02-2.33862E+00-3.63709E-13 2.10838E-13
 -1      2151 1.99985E+01-1.09148E-02 2.84432E-04 1.46474E-02 1.58605E-13 5.34903E-14
 -1      2152 4.50332E+01 5.38374E+00 5.71150E-01-1.59190E+00 3.36509E-13 1.92624E-14
 -1      2153 4.26084E+01 3.86247E+00 4.90788E-02-2.87046E+00 2.28151E-13 7.80487E-14
 -1      2154 3.64799E+01-3.84339E+00-1.05848E-01-1.47696E+00-1.29327E-13-2.96818E-13
 -1      2155 3.73792E+01-1.83838E+00 3.27725E-02-4.25718E+00-2.81386E-13-1.08913E-13
 -1      2156 1.51213E+00-4.74999E+00-1.56059E-01 3.66683E-01 1.24879E-13-2.44249E-14
 -1      2157 3.11686E+01-5.05682E+00-1.55085E-02 1.01896E+00-8.18789E-15-6.47871E-13
 -1      2158 6.19214E+00-5.47601E+00-1.74576E-01 4.35261E+00 6.76126E-14 2.59792E-14
 -1      2159 2.07394E+01 1.10892E+00-2.09017E-02-1.61695E+00-3.45928E-13 1.15602E-13
 -1      2160 2.60880E+01-6.64662E+00-9.96265E-02 4.03115E+00 2.28706E-14-3.41588E-13
 -1      2161 2.06304E+01 1.33282E+00-1.78451E-02-1.67877E+00-3.69652E-13-5.45085E-14
 -1      2162 2.06365E+01 1.32452E+00-2.28625E-02 1.68665E+00 4.04283E-13 2.30651E-13
 -1      2163 2.07607E+01 1.10496E+00-2.36089E-02 1.62935E+00 3.67942E-13 4.68896E-13
 -1      2164 2.77279E+01-4.37762E+00-1.87236E-02-3.08078E+00-1.98758E-13 8.68541E-14
 -1      2165 3.44925E+01-4.85048E+00-1.63988E-01 8.65893E-01 1.06512E-13 2.57572E-13
 -1      2166 4.36411E+01 9.30963E-01 5.16684E-01 1.14260E+00 4.92439E-13 1.70641E-13
 -1      2167 3.90822E+01 3.17946E+00 2.62235E-01-4.03665E+00 1.80078E-13-1.41553E-14
 -1      2168 3.78826E+01-5.77371E-01-2.39233E-01-4.79637E+00-2.47524E-13-4.06064E-14
 -1      2169 4.08730E+01-3.51884E-01 3.77380E-01-3.18041E+00-4.60465E-14 1.61204E-13
 -1      2170 1.49995E+01-6.82249E+00-2.30612E-01 5.79161E+00-7.39409E-14 2.74239E-13
 -1      2171 2.00020E+01-1.33164E-02 4.79977E-04 1.35458E-02 5.50589E-14-9.49825E-14
 -1      2172 2.71357E+00-4.95260E+00-1.51296E-01-4.63281E+00 4.42008E-13 2.51466E-14
 -1      2173 1.78825E+01-5.17383E+00-2.75018E-03-8.08532E+00 4.37927E-13 3.74339E-13
 -1      2174 2.68196E+01-2.95329E+00 7.43580E-02-6.08801E+00 1.07692E-13 1.09912E-13
 -1      2175 3.32833E+01 1.02510E+00 2.47717E-01-3.62847E+00-2.83794E-13-3.97460E-14
 -1      2176 3.75567E+01 5.36613E+00 2.14033E-01-1.56585E+00-3.60656E-13-1.21236E-13
 -1      2177 3.50436E+01 5.99673E+00-8.83511E-02 5.76352E-01-4.00735E-13-1.58262E-13
 -1      2178 3.45544E+01 3.73000E+00 3.89960E-02-6.23478E-01-2.29594E-13-4.84612E-14
 -1      2179 3.77308E+01 8.77931E+00 2.33956E-01 6.79015E-02-3.85969E-13-1.74111E-13
 -1      2180 3.78639E+01 6.15507E+00 2.80922E-01 1.04902E+00-3.55660E-13-4.55747E-13
 -1      2181 2.89378E+01-2.11252E+00 1.18672E-01 5.23422E+00-1.22763E-13-2.62401E-13
 -1      2182 1.29435E+01-5.28327E+00-1.52034E-02 8.27140E+00 2.52576E-13-5.90708E-13
 -1      2183 1.57036E+00-4.31740E+00-1.16130E-01 2.08995E+00 1.24345E-13-4.38538E-13
 -1      2184 9.94934E+00-5.78026E+00-1.48691E-01-5.28266E+00-1.30951E-13-1.29619E-13
 -1      2185 2.00079E+01-2.21700E-02-1.03392E-03 1.43022E-02 1.47690E-13-3.73247E-13
 -1      2186 3.51808E+01-4.39459E+00 8.43604E-02 1.99527E-01-3.96905E-14-3.51996E-13
 -1      2187 3.85588E+01 9.08964E+00 3.12584E-01 1.64872E-01-4.17000E-13-2.11192E-13
 -1      2188 3.02385E+00-2.79356E+00 9.97277E-02-3.43540E+00 2.34104E-13-2.12275E-13
 -1      2189 5.16304E+00-3.08883E+00 5.85907E-02-5.89804E+00 3.38146E-13-3.80251E-14
 -1      2190 1.95584E+01 3.51847E+00-1.10966E-02-5.94319E-01-4.24449E-14-4.98603E-13
 -1      2191 1.95944E+01 3.47222E+00-1.04894E-02-7.78580E-01-9.43695E-14-5.08950E-13
 -1      2192 1.96416E+01 3.38342E+00-1.27922E-02-9.42674E-01-1.22506E-13-5.07608E-13
 -1      2193 1.97030E+01 3.30266E+00-1.27692E-02-1.13242E+00-1.72807E-13-4.92090E-13
 -1      2194 1.97858E+01 3.03568E+00 3.22543E-04-7.94258E-01-1.01256E-13-4.72526E-13
 -1      2195 1.95096E+01 3.60255E+00-9.58450E-03 9.57835E-02 1.00937E-13-4.94348E-13
 -1      2196 1.95093E+01 3.60294E+00-9.59344E-03-8.34777E-02 6.17531E-14-4.97627E-13
 -1      2197 1.95350E+01 3.56444E+00-9.67091E-03 4.41488E-01 1.66324E-13-4.71711E-13
 -1      2198 1.95179E+01 3.58633E+00-1.00979E-02 2.60889E-01 1.28660E-13-4.85067E-13
 -1      2199 1.96754E+01 3.22604E+00-9.15118E-04 1.66371E-01 1.08151E-13-4.63756E-13
 -1      2200 1.95960E+01 3.46984E+00-1.05152E-02 7.85161E-01 2.39631E-13-4.36520E-13
 -1      2201 1.95601E+01 3.51579E+00-1.11585E-02 6.03948E-01 1.96493E-13-4.61918E-13
 -1      2202 1.97113E+01 3.16393E+00-5.49720E-04 4.84753E-01 1.77528E-13-4.30839E-13
 -1      2203 1.97058E+01 3.29907E+00-1.27714E-02 1.13861E+00 3.15146E-13-3.54144E-13
 -1      2204 1.96436E+01 3.38063E+00-1.27965E-02 9.49372E-01 2.71280E-13-3.99963E-13
 -1      2205 1.97876E+01 3.03226E+00 1.92938E-04 8.00599E-01 2.52809E-13-3.82176E-13
 -1      2206 1.98831E+01 3.01883E+00-1.78728E-02 1.48662E+00 3.78943E-13-2.62747E-13
 -1      2207 1.97849E+01 3.15659E+00-1.50592E-02 1.29586E+00 3.31759E-13-3.09380E-13
 -1      2208 1.99161E+01 2.81009E+00 1.86255E-03 1.10776E+00 3.08584E-13-3.07695E-13
 -1      2209 2.01615E+01 2.55651E+00-2.70387E-02 1.79079E+00 4.20786E-13-1.37045E-13
 -1      2210 2.00121E+01 2.80050E+00-1.64685E-02 1.61926E+00 4.00300E-13-2.12320E-13
 -1      2211 2.01091E+01 2.46102E+00 4.42249E-03 1.37498E+00 3.67468E-13-2.09066E-13
 -1      2212 2.05759E+01 1.76854E+00-1.86476E-02 1.82828E+00 4.19893E-13 1.06179E-13
 -1      2213 2.03314E+01 2.19166E+00-9.54726E-03 1.77708E+00 4.20775E-13-4.36352E-14
 -1      2214 2.03452E+01 1.87316E+00 7.13264E-03 1.46042E+00 4.06370E-13-7.70729E-14
 -1      2215 2.04302E+01 1.10862E+00 6.95587E-04 1.23789E+00 3.78472E-13 1.17206E-13
 -1      2216 3.68569E+00-2.32346E+00 8.73913E-02 1.89610E+00 7.39131E-14-3.03646E-14
 -1      2217 2.62414E+00-2.28264E+00 1.12059E-01-9.46821E-01 1.13260E-13-8.69305E-14
 -1      2218 2.04041E+01 8.55746E-01 1.33226E-02-1.00045E+00-3.04523E-13-1.26057E-13
 -1      2219 2.01920E+01 6.27504E-01-4.63482E-03-6.93023E-01-2.65191E-13-1.14127E-13
 -1      2220 3.28026E+01-5.12236E+00-3.83480E-02 3.46009E-01-1.37113E-13-5.45120E-13
 -1      2221 2.01259E+01 4.69924E-01 1.58478E-02-4.75082E-01-2.48342E-13-1.15678E-13
 -1      2222 1.99861E+01 3.45146E-01 2.42009E-04-3.04213E-01-2.12851E-13-1.50932E-13
 -1      2223 2.02476E+01 7.52470E-01 1.95429E-04-6.94991E-01-2.77895E-13-1.74902E-13
 -1      2224 1.99213E+01 2.59733E-01 1.05609E-02-1.65819E-01-1.74980E-13-1.52248E-13
 -1      2225 1.98437E+01 1.88534E-01 8.65497E-04-6.90564E-02-1.61078E-13-1.80126E-13
 -1      2226 2.00837E+01 4.20615E-01-2.24255E-03-3.12211E-01-2.14766E-13-1.75266E-13
 -1      2227 1.97983E+01 1.38913E-01 6.21326E-03 1.37316E-02-1.45605E-13-1.82123E-13
 -1      2228 1.97641E+01 9.67801E-02 8.45353E-04 6.68832E-02-1.41836E-13-1.93709E-13
 -1      2229 1.99622E+01 2.30479E-01-2.74612E-03-7.26353E-02-1.59605E-13-1.95473E-13
 -1      2230 1.97375E+01 6.68044E-02 3.46330E-03 1.13078E-01-1.53747E-13-1.72350E-13
 -1      2231 1.97309E+01 4.14539E-02 7.36586E-04 1.39718E-01-1.51645E-13-1.89514E-13
 -1      2232 1.98859E+01 1.17245E-01-2.45353E-03 6.89285E-02-1.55101E-13-1.99914E-13
 -1      2233 1.97188E+01 2.31465E-02 1.77819E-03 1.62287E-01-1.54554E-13-1.87471E-13
 -1      2234 1.97286E+01 8.09149E-03 6.12932E-04 1.72668E-01-1.26999E-13-2.09287E-13
 -1      2235 1.98461E+01 4.85412E-02-1.92061E-03 1.45982E-01-1.65746E-13-1.94050E-13
 -1      2236 1.97263E+01-2.85538E-03 7.40880E-04 1.80312E-01-9.26269E-14-1.98294E-13
 -1      2237 1.97452E+01-1.13256E-02 4.95172E-04 1.80895E-01-9.75341E-14-1.97427E-13
 -1      2238 1.98319E+01 7.15555E-03-1.40656E-03 1.81429E-01-1.17673E-13-2.03092E-13
 -1      2239 1.97491E+01-1.74545E-02 1.07614E-04 1.79484E-01-1.17305E-13-1.79305E-13
 -1      2240 1.97721E+01-2.16203E-02 3.96288E-04 1.74478E-01-1.07112E-13-1.92111E-13
 -1      2241 1.98346E+01-1.67439E-02-9.90812E-04 1.90779E-01-8.68419E-14-1.87680E-13
 -1      2242 1.97796E+01-2.45437E-02-2.64036E-04 1.67992E-01-8.90013E-14-1.74195E-13
 -1      2243 1.98036E+01-2.58847E-02 3.21944E-04 1.60190E-01-5.07652E-14-1.71354E-13
 -1      2244 1.98474E+01-2.91746E-02-6.80253E-04 1.84576E-01-1.10657E-13-1.35230E-13
 -1      2245 1.98129E+01-2.66778E-02-4.63157E-04 1.51322E-01-1.03608E-14-1.42952E-13
 -1      2246 1.98362E+01-2.61891E-02 2.72203E-04 1.42579E-01 7.51131E-15-1.17100E-13
 -1      2247 1.98656E+01-3.40291E-02-4.59505E-04 1.69998E-01-5.27987E-15-1.39715E-13
 -1      2248 1.98462E+01-2.55920E-02-5.48893E-04 1.33130E-01-3.43346E-14-1.26767E-13
 -1      2249 1.98679E+01-2.39587E-02 2.43973E-04 1.24655E-01-3.03306E-14-1.32697E-13
 -1      2250 1.98862E+01-3.39262E-02-3.09675E-04 1.51901E-01-1.42065E-14-1.02165E-13
 -1      2251 1.98778E+01-2.24929E-02-5.61566E-04 1.15799E-01-4.31896E-14-1.95003E-13
 -1      2252 1.98977E+01-2.01980E-02 2.32390E-04 1.08351E-01-4.96221E-14-2.62099E-13
 -1      2253 1.99073E+01-3.06746E-02-2.13834E-04 1.33517E-01-6.88172E-14-1.48936E-13
 -1      2254 1.99072E+01-1.82442E-02-5.28557E-04 1.00810E-01-6.59819E-14-2.93971E-13
 -1      2255 1.99252E+01-1.56466E-02 2.30916E-04 9.48202E-02-9.98560E-14-3.31882E-13
 -1      2256 1.99279E+01-2.55573E-02-1.57878E-04 1.16916E-01-8.81322E-14-2.25061E-13
 -1      2257 1.99343E+01-1.35057E-02-4.67874E-04 8.89806E-02-1.10073E-13-3.04235E-13
 -1      2258 1.99508E+01-1.09047E-02 2.30574E-04 8.46203E-02-9.13385E-14-2.78756E-13
 -1      2259 1.99476E+01-1.95335E-02-1.30168E-04 1.03327E-01-7.92440E-14-1.84415E-13
 -1      2260 1.99597E+01-8.85130E-03-3.90433E-04 8.05966E-02-4.56791E-14-2.68110E-13
 -1      2261 1.99749E+01-6.54690E-03 2.18695E-04 7.78038E-02-4.72863E-14-2.17943E-13
 -1      2262 1.99666E+01-1.34034E-02-1.20851E-04 9.33212E-02-7.50245E-14-1.57198E-13
 -1      2263 1.99838E+01-4.88238E-03-3.01572E-04 7.54514E-02-7.24050E-14-2.00895E-13
 -1      2264 1.99982E+01-3.23464E-03 1.77406E-04 7.39140E-02-7.24580E-14-2.14115E-13
 -1      2265 1.99851E+01-7.96017E-03-1.21110E-04 8.68983E-02-2.79817E-14-1.29183E-13
 -1      2266 2.00074E+01-2.33934E-03-2.02148E-04 7.27978E-02-8.60174E-14-2.12280E-13
 -1      2267 2.00212E+01-1.82677E-03 8.21967E-05 7.18956E-02-7.84806E-14-2.27954E-13
 -1      2268 2.00038E+01-4.13779E-03-1.22418E-04 8.34702E-02-1.00186E-13-1.34219E-13
 -1      2269 2.00312E+01-2.20877E-03-8.95543E-05 7.12139E-02-6.25600E-14-2.58433E-13
 -1      2270 2.00444E+01-3.47793E-03-9.88299E-05 6.99249E-02-3.48522E-14-3.00383E-13
 -1      2271 2.00232E+01-3.15344E-03-1.15750E-04 8.17499E-02-5.93201E-14-1.43043E-13
 -1      2272 2.00557E+01-5.80726E-03 4.08889E-05 6.83941E-02 3.08877E-14-3.05508E-13
 -1      2273 2.00678E+01-9.69669E-03-4.04011E-04 6.51772E-02 8.46643E-14-3.70256E-13
 -1      2274 2.00443E+01-6.62488E-03-9.06349E-05 7.95544E-02 1.14920E-14-2.31726E-13
 -1      2275 2.00808E+01-1.48032E-02 1.93510E-04 6.08944E-02 1.24200E-13-3.71585E-13
 -1      2276 2.00909E+01-2.23099E-02-8.73859E-04 5.35777E-02 1.82064E-13-3.60260E-13
 -1      2277 2.00678E+01-1.66192E-02-3.38642E-05 7.35415E-02 1.02062E-13-1.99831E-13
 -1      2278 2.01060E+01-3.11083E-02 3.67986E-04 4.38977E-02 1.02683E-13-3.84528E-13
 -1      2279 2.01123E+01-4.32471E-02-1.54125E-03 2.96284E-02 1.20622E-14-3.91742E-13
 -1      2280 2.00941E+01-3.55539E-02 7.23171E-05 5.89380E-02 9.49617E-14-3.51181E-13
 -1      2281 2.01296E+01-5.65364E-02 5.52363E-04 1.11238E-02-3.12356E-14-4.03177E-13
 -1      2282 2.01296E+01-7.40282E-02-2.41360E-03-1.35259E-02-2.10749E-14-4.57424E-13
 -1      2283 2.01236E+01-6.58298E-02 2.52437E-04 2.93658E-02-4.79431E-14-3.92437E-13
 -1      2284 2.01485E+01-9.21050E-02 7.13283E-04-4.49018E-02 9.88359E-16-4.89062E-13
 -1      2285 2.01384E+01-1.14832E-01-3.44525E-03-8.35390E-02-2.59863E-14-4.44986E-13
 -1      2286 2.01556E+01-1.09041E-01 5.39356E-04-2.30407E-02-4.24908E-14-5.39545E-13
 -1      2287 2.01573E+01-1.36878E-01 7.85808E-04-1.31917E-01-5.96084E-14-3.28289E-13
 -1      2288 2.01324E+01-1.63098E-01-4.50186E-03-1.87479E-01-7.42970E-14-3.42361E-13
 -1      2289 2.01878E+01-1.64622E-01 9.71874E-04-1.06930E-01 1.64516E-14-3.38242E-13
 -1      2290 2.01476E+01-1.86381E-01 6.69701E-04-2.55954E-01 3.91374E-14-2.82347E-13
 -1      2291 2.01026E+01-2.11827E-01-5.32775E-03-3.29286E-01 1.78588E-13-1.45435E-13
 -1      2292 2.02154E+01-2.27938E-01 1.58154E-03-2.30039E-01 9.07548E-15-7.26197E-14
 -1      2293 2.01080E+01-2.30953E-01 2.44538E-04-4.18056E-01 1.94588E-13-1.60938E-13
 -1      2294 2.00379E+01-2.48213E-01-5.53885E-03-5.05943E-01 1.83255E-13-1.06627E-13
 -1      2295 2.02295E+01-2.88156E-01 2.35782E-03-3.96107E-01 2.20661E-13-2.73271E-14
 -1      2296 2.00247E+01-2.54918E-01-5.73435E-04-6.09766E-01 1.88110E-13-1.46844E-14
 -1      2297 1.99259E+01-2.53824E-01-4.68573E-03-7.02843E-01 1.64953E-13-8.49684E-15
 -1      2298 2.02170E+01-3.26897E-01 3.18927E-03-6.00240E-01 2.25738E-13-4.24478E-14
 -1      2299 1.98839E+01-2.38124E-01-1.74212E-03-8.08397E-01 9.94834E-14-6.54739E-14
 -1      2300 1.97565E+01-2.08080E-01-2.43774E-03-8.89907E-01 8.26058E-14-1.39080E-14
 -1      2301 2.01606E+01-3.19371E-01 3.79010E-03-8.23336E-01 9.90282E-14 9.39731E-15
 -1      2302 1.96777E+01-1.61598E-01-2.95665E-03-9.74539E-01-2.69763E-14 6.27506E-14
 -1      2303 1.95281E+01-9.64064E-02 1.11507E-03-1.02154E+00-9.21256E-14 1.12392E-13
 -1      2304 2.00436E+01-2.40350E-01 3.63632E-03-1.02761E+00 5.99645E-15-8.72034E-14
 -1      2305 1.94126E+01-1.77762E-02-3.59395E-03-1.05577E+00-1.46942E-13 8.76030E-14
 -1      2306 1.92547E+01 7.81691E-02 5.19356E-03-1.04438E+00-2.12657E-13 1.30180E-13
 -1      2307 1.98585E+01-7.56800E-02 2.19313E-03-1.15736E+00-1.65331E-13-1.79222E-14
 -1      2308 1.91174E+01 1.77995E-01-2.89046E-03-1.00018E+00-2.26183E-13 2.32004E-14
 -1      2309 1.89723E+01 2.85723E-01 8.37557E-03-9.14784E-01-2.19307E-13-2.54877E-14
 -1      2310 1.96182E+01 1.63119E-01-6.89815E-04-1.15013E+00-2.81663E-13-5.89643E-14
 -1      2311 1.88435E+01 3.82638E-01-3.83850E-04-7.78760E-01-1.08335E-13 4.58073E-14
 -1      2312 1.87358E+01 4.71640E-01 9.25704E-03-6.21871E-01-8.07050E-14 1.68298E-14
 -1      2313 1.93642E+01 4.30203E-01-4.19062E-03-9.60122E-01-1.36864E-13 1.48972E-14
 -1      2314 1.86526E+01 5.35502E-01 3.50127E-03-4.07229E-01-1.78393E-13 2.41918E-14
 -1      2315 1.86033E+01 5.75425E-01 7.30108E-03-2.03908E-01-2.36175E-13 1.04985E-14
 -1      2316 1.91601E+01 6.52308E-01-6.72865E-03-5.86492E-01-1.21645E-13-3.07316E-14
 -1      2317 1.85935E+01 5.83674E-01 7.41378E-03 4.78210E-02-2.62366E-13-2.18979E-14
 -1      2318 1.86129E+01 5.59493E-01 3.47978E-03 2.55887E-01-1.92278E-13 1.33350E-14
 -1      2319 1.90682E+01 7.56499E-01-6.64868E-03-8.90343E-02-2.33733E-13-4.03161E-14
 -1      2320 1.86794E+01 5.09184E-01 9.54936E-03 4.88069E-01-7.13171E-14 3.67382E-14
 -1      2321 1.87632E+01 4.29647E-01-4.97264E-04 6.57587E-01-2.00456E-14 2.14939E-14
 -1      2322 1.91186E+01 7.04277E-01-3.95448E-03 4.24616E-01-1.22621E-13-8.66735E-15
 -1      2323 1.88823E+01 3.38996E-01 8.90362E-03 8.21130E-01-5.77164E-14-7.48251E-14
 -1      2324 1.90129E+01 2.31826E-01-3.04987E-03 9.22971E-01-1.65789E-13-1.26025E-13
 -1      2325 1.92926E+01 5.13576E-01-1.74515E-04 8.40117E-01-9.00722E-14-9.00858E-14
 -1      2326 1.91477E+01 1.30301E-01 5.84738E-03 9.94349E-01-3.91427E-14-8.66468E-14
 -1      2327 1.93001E+01 2.78323E-02-3.67529E-03 1.02150E+00 4.99561E-14 4.77971E-15
 -1      2328 1.95329E+01 2.49031E-01 2.74724E-03 1.08139E+00-4.33482E-14 1.54337E-13
 -1      2329 1.94177E+01-5.79143E-02 1.73832E-03 1.00651E+00-6.13377E-15 4.56811E-14
 -1      2330 1.95681E+01-1.32536E-01-2.86734E-03 9.71414E-01 7.57933E-15 1.88508E-13
 -1      2331 1.97735E+01-1.02366E-02 3.81444E-03 1.13310E+00 3.20391E-14 1.18283E-13
 -1      2332 1.96504E+01-1.87708E-01-1.97411E-03 8.95563E-01-3.61863E-14 1.65965E-13
 -1      2333 1.97812E+01-2.26056E-01-1.45341E-03 8.21072E-01 2.37679E-14 1.96902E-13
 -1      2334 1.99662E+01-2.04817E-01 3.25238E-03 1.03172E+00-5.27477E-14 3.28891E-14
 -1      2335 1.98254E+01-2.48753E-01-4.42217E-03 7.15630E-01 9.48664E-14 2.42606E-13
 -1      2336 1.99278E+01-2.54620E-01-1.06177E-04 6.25585E-01 1.54590E-13 1.84541E-13
 -1      2337 2.00912E+01-3.10569E-01 1.93050E-03 8.38778E-01 1.00564E-13 1.40593E-13
 -1      2338 1.99406E+01-2.51465E-01-5.45581E-03 5.17117E-01 1.76754E-13 1.86715E-14
 -1      2339 2.00130E+01-2.34819E-01 8.46143E-04 4.30304E-01 3.17946E-13-4.51259E-14
 -1      2340 2.01516E+01-3.34313E-01 6.09067E-04 6.14921E-01 7.06761E-14 8.23408E-14
 -1      2341 2.00048E+01-2.15570E-01-5.37439E-03 3.36219E-01 1.75544E-13-1.06679E-13
 -1      2342 2.00508E+01-1.87206E-01 1.36937E-03 2.64240E-01 1.80696E-13-1.07761E-13
 -1      2343 2.01630E+01-2.99592E-01-3.41528E-04 4.05133E-01 1.35186E-13-1.63418E-13
 -1      2344 2.00310E+01-1.60861E-01-4.61401E-03 1.93044E-01 2.72321E-13-2.45059E-13
 -1      2345 2.00565E+01-1.29730E-01 1.53587E-03 1.40949E-01 8.90196E-14-3.04443E-13
 -1      2346 2.01432E+01-2.32994E-01-8.24497E-04 2.35127E-01 1.57714E-13-4.67407E-13
 -1      2347 2.00327E+01-1.02799E-01-3.36472E-03 9.43963E-02 3.70802E-14-9.69800E-14
 -1      2348 2.00448E+01-7.45474E-02 2.04231E-03 6.28116E-02 2.70628E-13-1.03518E-13
 -1      2349 2.01063E+01-1.57504E-01-1.40106E-03 1.14632E-01 1.13402E-13-4.04160E-13
 -1      2350 2.00208E+01-5.51189E-02-2.44076E-03 3.84251E-02 3.77637E-13-2.16209E-13
 -1      2351 2.00232E+01-3.52945E-02 7.79675E-04 2.21748E-02 3.10816E-13-2.24478E-13
 -1      2352 2.00313E+01-4.00205E-02-7.94639E-04 1.35526E-02 1.90681E-13-9.35962E-13
 -1      2353 2.00684E+01-9.32012E-02-1.56758E-03 4.54420E-02 2.78959E-13-4.38077E-13
 -1      2354 2.01140E+01 1.38361E+00-1.99404E-02 3.03951E+00-3.32350E-13 1.50166E-14
 -1      2355 2.03648E+01 1.45031E+00 3.12921E-02 3.48930E+00-2.53188E-13 1.07613E-13
 -1      2356 1.99940E+01 3.56340E-01 2.36246E-04 3.18657E-01 2.13078E-13 2.42737E-14
 -1      2357 2.01339E+01 4.83495E-01 1.44655E-02 4.96389E-01 2.67638E-13 6.60965E-14
 -1      2358 1.97664E+01 1.00344E-01 7.33308E-04-6.17430E-02 7.24049E-14 3.24526E-14
 -1      2359 1.98032E+01 1.43727E-01 6.55259E-03-6.54242E-03 1.18442E-13 3.35902E-14
 -1      2360 1.97314E+01 4.36943E-02 7.14533E-04-1.36813E-01 8.93004E-14-4.06202E-14
 -1      2361 1.97397E+01 6.95518E-02 3.66217E-03-1.09140E-01 1.02360E-13-3.15495E-15
 -1      2362 1.98881E+01 1.19997E-01-2.95400E-03-6.44316E-02 1.25966E-13-7.96564E-14
 -1      2363 1.97275E+01 1.06600E-02 5.89619E-04-1.70170E-01 1.13938E-13-8.36232E-14
 -1      2364 1.97194E+01 2.56867E-02 1.89509E-03-1.59459E-01 8.07980E-14-6.59545E-14
 -1      2365 1.98475E+01 5.10779E-02-2.22305E-03-1.42527E-01 1.32418E-13-1.59268E-13
 -1      2366 1.97427E+01-1.02003E-02 4.21031E-04-1.80254E-01 8.30428E-14-6.31569E-14
 -1      2367 1.97249E+01-1.16120E-03 8.48320E-04-1.79098E-01 9.70329E-14-8.02207E-14
 -1      2368 1.98323E+01 9.63442E-03-1.48662E-03-1.79298E-01 1.07100E-13-1.81829E-13
 -1      2369 1.97688E+01-2.13547E-02 3.16406E-04-1.74745E-01 6.58960E-14-5.66257E-14
 -1      2370 1.97465E+01-1.66822E-02 2.02217E-04-1.79573E-01 8.28412E-14-2.80189E-14
 -1      2371 1.98339E+01-1.55482E-02-9.69681E-04-1.90390E-01 7.30497E-14-1.17655E-13
 -1      2372 1.98002E+01-2.61731E-02 2.51294E-04-1.60786E-01 7.83846E-14-8.22854E-14
 -1      2373 1.97764E+01-2.44786E-02-2.03592E-04-1.68675E-01 8.36104E-14-8.23763E-14
 -1      2374 1.98461E+01-2.88069E-02-5.92851E-04-1.85066E-01 9.55710E-14-1.19288E-13
 -1      2375 1.98330E+01-2.67816E-02 2.16042E-04-1.43159E-01 9.11327E-14-1.30127E-13
 -1      2376 1.98097E+01-2.70591E-02-4.25484E-04-1.52133E-01 7.74315E-14-1.06106E-13
 -1      2377 1.98642E+01-3.41980E-02-3.38178E-04-1.70817E-01 9.71908E-14-1.41454E-13
 -1      2378 1.98652E+01-2.45659E-02 2.10867E-04-1.25109E-01 8.70610E-14-1.15989E-13
 -1      2379 1.98433E+01-2.61630E-02-5.27240E-04-1.33832E-01 1.03182E-13-1.08284E-13
 -1      2380 1.98851E+01-3.43362E-02-1.76805E-04-1.52755E-01 9.86370E-14-1.04483E-13
 -1      2381 1.98958E+01-2.03896E-02 2.37462E-04-1.08876E-01 5.27382E-14-6.83034E-14
 -1      2382 1.98756E+01-2.29123E-02-5.52422E-04-1.16421E-01 9.56631E-14-1.03408E-13
 -1      2383 1.99068E+01-3.09255E-02-8.49010E-05-1.34394E-01 8.96398E-14-6.85119E-14
 -1      2384 1.99249E+01-1.47042E-02 3.00522E-04-9.60856E-02-9.51922E-15-5.45186E-14
 -1      2385 1.99060E+01-1.79676E-02-5.31990E-04-1.01762E-01 1.85228E-14-7.02442E-14
 -1      2386 1.99283E+01-2.50029E-02-4.38617E-05-1.18188E-01 4.65841E-14-2.58012E-14
 -1      2387 1.99528E+01-7.59711E-03 4.08375E-04-8.80723E-02-1.96238E-14-6.95180E-14
 -1      2388 1.99348E+01-1.16058E-02-4.88678E-04-9.12783E-02 1.35507E-14-2.94930E-14
 -1      2389 1.99495E+01-1.70673E-02-3.92246E-05-1.05959E-01-4.27819E-15-2.68772E-14
 -1      2390 1.99808E+01 1.19085E-03 5.46951E-04-8.61839E-02 2.28909E-14-6.94873E-14
 -1      2391 1.99628E+01-3.73808E-03-4.39638E-04-8.62512E-02-1.33025E-14-4.84366E-14
 -1      2392 1.99704E+01-7.13143E-03-5.88301E-05-9.92410E-02-1.50189E-14-4.79093E-15
 -1      2393 2.00088E+01 1.17973E-02 7.92029E-04-9.15298E-02-2.57959E-14-7.69933E-14
 -1      2394 1.99903E+01 5.79534E-03-3.99400E-04-8.79911E-02-1.31289E-14-7.55237E-14
 -1      2395 1.99911E+01 5.04402E-03-5.10940E-05-9.94482E-02-4.87796E-15-3.13073E-14
 -1      2396 2.00414E+01 2.65673E-02 1.18312E-03-1.06868E-01 1.99914E-14-7.58715E-15
 -1      2397 2.00193E+01 1.81599E-02-3.99509E-04-9.80251E-02 1.81644E-14-3.87884E-14
 -1      2398 2.00125E+01 2.04679E-02-1.20425E-04-1.08246E-01-3.17565E-14 1.77279E-14
 -1      2399 2.00795E+01 4.70020E-02 1.71936E-03-1.35502E-01 1.07066E-14-6.21207E-14
 -1      2400 2.00524E+01 3.52548E-02-4.47890E-04-1.19627E-01 1.93801E-14 1.39801E-14
 -1      2401 2.00359E+01 4.17575E-02-1.30859E-04-1.28611E-01 2.01075E-14 1.80211E-14
 -1      2402 2.01252E+01 7.63436E-02 2.49859E-03-1.82485E-01-4.29510E-14-5.55591E-14
 -1      2403 2.00907E+01 5.93778E-02-5.88169E-04-1.56724E-01 1.74455E-14-9.92483E-14
 -1      2404 2.00610E+01 7.15183E-02-7.74972E-05-1.64263E-01 1.86594E-14-8.21644E-14
 -1      2405 2.01809E+01 1.19488E-01 3.61607E-03-2.55396E-01 4.58635E-14 7.62933E-14
 -1      2406 2.01357E+01 9.44583E-02-8.80650E-04-2.15433E-01-1.63858E-14-2.06120E-14
 -1      2407 2.00872E+01 1.14429E-01 1.08345E-04-2.20724E-01-4.30595E-14-5.86425E-14
 -1      2408 2.02480E+01 1.83710E-01 5.18617E-03-3.65411E-01 6.64220E-14 1.33032E-13
 -1      2409 2.01882E+01 1.46423E-01-1.42216E-03-3.04826E-01 1.10978E-13 1.26219E-13
 -1      2410 2.01120E+01 1.77521E-01 5.50657E-04-3.05970E-01 3.11529E-14 5.71323E-15
 -1      2411 2.03254E+01 2.79404E-01 7.31676E-03-5.28572E-01 1.37978E-13 6.75530E-14
 -1      2412 2.02470E+01 2.23943E-01-2.36732E-03-4.38079E-01 8.85015E-14 9.70278E-14
 -1      2413 2.01297E+01 2.71041E-01 1.46280E-03-4.31248E-01 1.42589E-13 3.83788E-14
 -1      2414 2.04074E+01 4.20379E-01 1.00452E-02-7.66980E-01 1.69820E-13-2.95623E-14
 -1      2415 2.03067E+01 3.39066E-01-3.95786E-03-6.33742E-01 2.06229E-13 5.65999E-14
 -1      2416 2.01281E+01 4.09194E-01 3.19085E-03-6.11842E-01 1.81465E-13-3.05777E-14
 -1      2417 2.04782E+01 6.22136E-01 1.31965E-02-1.10913E+00 4.89799E-14-1.24519E-13
 -1      2418 2.03539E+01 5.06867E-01-6.53994E-03-9.16730E-01 1.14256E-13-5.17034E-14
 -1      2419 2.00841E+01 6.09852E-01 6.24518E-03-8.67404E-01 1.72673E-13 6.19892E-14
 -1      2420 2.05042E+01 8.94441E-01 1.60104E-02-1.58764E+00-3.70537E-15-1.67245E-13
 -1      2421 2.03622E+01 7.41923E-01-1.03811E-02-1.31793E+00-1.10012E-14-1.89921E-13
 -1      2422 1.99574E+01 8.90482E-01 1.12343E-02-1.22122E+00 7.41273E-14-4.95753E-14
 -1      2423 2.04476E+01 1.20269E+00 1.84809E-02-2.19342E+00-2.15479E-14-1.18692E-13
 -1      2424 2.02945E+01 1.03341E+00-1.62898E-02-1.85713E+00 3.08299E-14-1.41129E-13
 -1      2425 1.96944E+01 1.24950E+00 2.03949E-02-1.68240E+00-2.84299E-14-1.12842E-13
 -1      2426 2.02540E+01 1.48793E+00 2.58258E-02-2.99746E+00-8.11356E-14-6.81276E-14
 -1      2427 2.00859E+01 1.34918E+00-2.07727E-02-2.56419E+00-7.68170E-14-7.48195E-14
 -1      2428 1.92013E+01 1.64729E+00 3.03366E-02-2.28547E+00-6.98517E-14-5.97898E-14
 -1      2429 1.99161E+01 1.44318E+00 4.20217E-02-3.92768E+00-1.13833E-13-1.00865E-13
 -1      2430 1.97074E+01 1.52105E+00-1.57748E-02-3.47549E+00-9.72037E-14-6.31439E-14
 -1      2431 1.83632E+01 1.95105E+00 4.88228E-02-3.06922E+00-1.19631E-13-1.50930E-13
 -1      2432 1.97092E+01 4.62557E-01 1.02239E-01-4.79560E+00-4.61714E-14-1.19842E-13
 -1      2433 1.92808E+01 1.09874E+00 2.57682E-02-4.49033E+00-2.31690E-14-6.55725E-14
 -1      2434 1.72313E+01 1.72986E+00 1.03762E-01-4.08522E+00-1.16473E-13-1.56507E-13
 -1      2435 2.01632E+01-2.05916E+00 1.36421E-01-5.39647E+00-1.83756E-13-8.49321E-14
 -1      2436 1.91351E+01-6.30477E-01 5.79558E-02-5.42904E+00-1.59518E-13-1.02501E-13
 -1      2437 1.58092E+01 4.15034E-01 1.69829E-01-5.22230E+00-1.64077E-13-6.41848E-14
 -1      2438 3.41199E+01 8.60869E+00-2.21500E-01-3.41187E-01-3.64375E-13-1.71804E-13
 -1      2439 3.50108E+01 7.97925E+00-9.92592E-02-5.14106E-01-3.29292E-13-1.64979E-13
 -1      2440 1.98202E+01 1.36322E+00-4.42799E-03 4.01309E+00-2.36638E-13 2.05795E-13
 -1      2441 2.01724E+01 1.07922E+00 5.56372E-02 4.42437E+00-1.11109E-13 4.54133E-14
 -1      2442 1.81363E+01 1.84775E+00 5.04415E-02 3.62488E+00-1.87408E-13 1.50505E-13
 -1      2443 2.14467E+01-2.04350E+00 1.91291E-01 5.46381E+00-2.06057E-13-8.54872E-15
 -1      2444 2.30407E+01-4.13236E+00 1.13032E-01 4.99544E+00-4.72955E-14-1.44398E-13
 -1      2445 2.02952E+01 1.11022E+00-1.71574E-02 2.23097E+00-1.96188E-13-2.52889E-13
 -1      2446 2.05109E+01 1.27290E+00 2.28893E-02 2.62104E+00-2.44813E-13-1.43230E-13
 -1      2447 1.90349E+01 1.73095E+00 3.48970E-02 2.75027E+00-2.27087E-13-2.56379E-13
 -1      2448 2.03442E+01 8.11067E-01-1.15375E-02 1.60666E+00-1.80164E-13-1.87539E-13
 -1      2449 2.05364E+01 9.65980E-01 1.92263E-02 1.90944E+00-3.11437E-13-3.28026E-13
 -1      2450 1.95949E+01 1.35811E+00 2.19546E-02 2.05130E+00-1.40287E-13-3.58066E-13
 -1      2451 2.03091E+01 5.77086E-01-6.45152E-03 1.14228E+00-7.94074E-14-2.45531E-13
 -1      2452 2.04726E+01 6.91302E-01 1.57286E-02 1.36617E+00-7.91394E-14-2.17470E-13
 -1      2453 1.98977E+01 9.89870E-01 1.30969E-02 1.50680E+00-2.41156E-13-6.06476E-13
 -1      2454 2.02277E+01 4.23050E-01-5.10007E-03 7.97470E-01-2.17856E-13-3.06962E-13
 -1      2455 2.03653E+01 4.93945E-01 1.14725E-02 9.62592E-01-5.35787E-14-2.22062E-13
 -1      2456 2.00381E+01 7.11975E-01 8.79824E-03 1.09108E+00-1.88669E-13-4.00964E-13
 -1      2457 2.01115E+01 3.36161E-01 3.46241E-03 4.15936E-01 1.03834E-13-2.44045E-13
 -1      2458 2.01460E+01 3.30929E-01 1.48082E-03 4.78553E-01-9.74307E-14-2.49471E-13
 -1      2459 2.00628E+01 4.30021E-01 2.19921E-03 4.71021E-01 3.22832E-15-2.29214E-13
 -1      2460 1.97180E+01 8.11625E-01-4.08161E-03 1.57960E-01-1.39689E-13-9.17209E-13
 -1      2461 1.97417E+01 7.83994E-01-2.67477E-03 2.62678E-01-1.36287E-13-9.40443E-13
 -1      2462 1.97379E+01 7.77619E-01-9.10531E-04-8.62468E-02 1.38193E-13-1.01738E-12
 -1      2463 1.97171E+01 7.90925E-01-5.89369E-03 1.99440E-02-4.95075E-14-1.04367E-12
 -1      2464 1.96285E+01 8.18351E-01 6.72350E-03 8.21301E-02-5.43688E-14-1.01225E-12
 -1      2465 1.97853E+01 7.39711E-01-7.14682E-03 3.83004E-01-2.06790E-13-7.78190E-13
 -1      2466 1.98651E+01 6.78692E-01 4.72073E-03 4.60766E-01-3.35457E-13-4.04508E-13
 -1      2467 1.96876E+01 7.95951E-01 5.06661E-03 3.66049E-01-3.35269E-13-8.96448E-13
 -1      2468 1.98198E+01 6.56608E-01 1.49335E-03-2.80264E-01 2.62001E-13 7.29528E-14
 -1      2469 1.97716E+01 7.05174E-01-6.86457E-03-2.00911E-01 2.46245E-13-5.96805E-13
 -1      2470 1.96750E+01 7.25400E-01 3.96441E-03-1.91288E-01 3.45065E-13-6.86846E-13
 -1      2471 1.99267E+01 4.86873E-01 2.96009E-03-3.88003E-01 2.09650E-13 3.44047E-13
 -1      2472 1.98703E+01 5.57238E-01-5.80274E-03-3.48854E-01 1.92942E-13 1.26333E-13
 -1      2473 1.97930E+01 5.59264E-01 1.12602E-03-3.86504E-01 1.42541E-13-2.76914E-14
 -1      2474 2.00247E+01 3.08669E-01 3.31502E-03-4.04294E-01-4.87929E-15 6.01896E-13
 -1      2475 1.99766E+01 3.85317E-01-3.50459E-03-4.04973E-01 4.57932E-14 5.63343E-13
 -1      2476 1.99334E+01 3.65946E-01-1.18105E-03-4.74999E-01 2.08552E-13 3.74746E-13
 -1      2477 2.00921E+01 1.54128E-01 2.82481E-03-3.48053E-01-1.22860E-13 1.44890E-13
 -1      2478 2.00618E+01 2.23671E-01-9.30194E-04-3.78501E-01-8.39661E-14 4.20473E-13
 -1      2479 2.00550E+01 1.86426E-01-2.59369E-03-4.61658E-01-6.80323E-14 3.52279E-13
 -1      2480 2.01211E+01 4.30036E-02 1.86826E-03-2.52136E-01-1.72024E-13 2.09976E-13
 -1      2481 2.01110E+01 9.62978E-02 1.26666E-03-2.97080E-01-2.16139E-13 1.15368E-13
 -1      2482 2.01330E+01 4.84101E-02-3.06070E-03-3.76026E-01-1.76470E-13 1.03658E-13
 -1      2483 2.01156E+01-2.33044E-02 8.70563E-04-1.45341E-01-3.55380E-14 2.26603E-13
 -1      2484 2.01225E+01 1.20328E-02 2.63570E-03-1.92353E-01-1.80244E-13 2.59165E-13
 -1      2485 2.01610E+01-3.87662E-02-2.81962E-03-2.55084E-01-1.27143E-13 2.85748E-13
 -1      2486 2.00841E+01-5.09455E-02-1.08238E-03-5.44467E-02-8.94015E-14-3.58102E-13
 -1      2487 2.01036E+01-3.05252E-02 3.28911E-03-9.21851E-02-1.07865E-13 2.36296E-14
 -1      2488 2.01456E+01-7.79447E-02-2.23815E-03-1.33319E-01-1.17610E-13 2.78522E-14
 -1      2489 2.00537E+01-3.78445E-02 2.18427E-03-6.29205E-03 1.15292E-13-7.91424E-13
 -1      2490 2.05500E+01 1.95596E+00-1.36926E-02-1.89743E+00-3.65272E-13-1.81060E-13
 -1      2491 2.04120E+01 1.20992E+00-8.69444E-03-1.29083E+00-3.43385E-13-1.57043E-13
 -1      2492 2.03844E+01 1.38677E+00 9.57802E-03-1.23942E+00-3.19408E-13-2.16726E-13
 -1      2493 2.02971E+01 2.39857E+00 7.59337E-04-1.83773E+00-3.58416E-13-2.79101E-13
 -1      2494 1.67424E+01-5.04056E+00 1.02225E-01-8.01260E+00 4.32043E-13 4.38115E-13
 -1      2495 2.14110E+01-5.03656E+00-2.86094E-02-7.61376E+00 4.08479E-13 3.72972E-13
 -1      2496 2.97020E+01-5.51267E+00-1.16084E-01-2.84134E+00 1.58207E-13-1.11022E-14
 -1      2497 1.96889E+01 5.32063E-01 7.21935E-02 4.98427E+00-2.85813E-14 1.09392E-13
 -1      2498 2.03048E+01-5.38254E-01 9.03823E-02 5.16035E+00-8.29059E-14 1.09752E-13
 -1      2499 1.70610E+01 1.16967E+00 9.31540E-02 4.67912E+00-1.94938E-13 1.95968E-13
 -1      2500 2.01877E+01 6.15430E-01-2.13482E-03 6.76336E-01 3.23171E-13 6.46427E-14
 -1      2501 2.03945E+01 8.32404E-01 1.09443E-02 9.81247E-01 3.45725E-13 1.01159E-13
 -1      2502 2.03718E+01 1.21166E+00 4.90708E-03 1.14204E+00 3.71667E-13 1.70819E-15
 -1      2503 2.02385E+01 7.33483E-01-9.25164E-04 6.78040E-01 3.07619E-13-6.48602E-15
 -1      2504 1.98486E+01 1.94516E-01 6.68785E-04 7.79391E-02 1.38961E-13 1.66155E-14
 -1      2505 1.99297E+01 2.67763E-01 1.09548E-02 1.78262E-01 1.59281E-13 2.89173E-14
 -1      2506 1.99658E+01 2.35185E-01-3.68878E-03 8.06944E-02 1.33397E-13-1.09591E-14
 -1      2507 1.95170E+01 3.58786E+00-1.00709E-02-2.48555E-01 4.24245E-14-4.90575E-13
 -1      2508 1.95334E+01 3.56686E+00-9.64390E-03-4.29093E-01-1.24260E-15-4.93774E-13
 -1      2509 1.97098E+01 3.16652E+00-5.60283E-04-4.76036E-01-1.90665E-14-4.63111E-13
 -1      2510 1.96747E+01 3.22715E+00-9.20627E-04-1.55005E-01 4.75109E-14-4.73547E-13
 -1      2511 1.01525E+01-3.85895E+00 5.63631E-02 5.69161E+00-8.70970E-14 3.15581E-13
 -1      2512 6.70823E+00-2.85949E+00 1.33895E-01 4.14951E+00-2.55351E-15-1.74916E-13
 -1      2513 1.91486E+01-5.26258E+00-3.68630E-02 5.98547E+00-1.61426E-13 2.78805E-14
 -1      2514 1.43092E+01-4.32138E+00 1.10385E-01 5.92634E+00-2.11331E-13 3.36897E-13
 -1      2515 1.96971E+01-5.84061E+00-1.55925E-02-5.47349E+00-2.75724E-13 8.79088E-14
 -1      2516 2.44192E+01-5.98262E+00 4.19652E-03-4.92041E+00-1.48603E-13 1.64903E-13
 -1      2517 9.46968E+00-3.78850E+00 4.51395E-02-5.24190E+00-3.26156E-13 4.28546E-14
 -1      2518 1.45746E+01-4.94535E+00 4.33937E-02-6.26295E+00-3.78864E-13 1.34892E-14
 -1      2519 4.29899E+00-1.71134E+00 1.22017E-01-1.85096E+00-3.77059E-14-9.05942E-14
 -1      2520 6.14953E+00-2.23676E+00 1.26371E-01-3.88025E+00-1.39944E-13 5.08482E-14
 -1      2521 3.39262E+00-2.44031E+00 1.08300E-01 3.81622E+00 1.13881E-13-4.35207E-13
 -1      2522 3.03887E+00-1.69909E+00 1.35992E-01 1.03412E+00 1.05388E-13-3.17635E-13
 -1      2523 7.32899E+00-3.75224E+00 2.83650E-02 7.26290E+00 1.92846E-13-3.42421E-13
 -1      2524 4.92430E+00-3.32856E+00 8.98450E-02 5.65550E+00 1.63425E-13-2.95042E-13
 -1      2525 1.63422E+01-4.67224E+00 3.51782E-02 8.29554E+00 2.98678E-13-5.12063E-13
 -1      2526 1.12945E+01-4.47744E+00 7.58601E-02 7.95166E+00 2.96208E-13-5.37098E-13
 -1      2527 2.43254E+01-4.61875E+00 1.72009E-03 6.63669E+00 8.59590E-14-1.71654E-13
 -1      2528 2.12295E+01-5.00568E+00 5.72168E-02 7.30954E+00 1.58762E-13-2.24175E-13
 -1      2529 3.02814E+01-2.02053E+00-7.58645E-02 3.54337E+00-7.91311E-14-2.38004E-13
 -1      2530 2.71072E+01-3.70846E+00-2.61756E-02 4.89234E+00 6.46427E-14-1.57846E-13
 -1      2531 3.32651E+01 1.70797E+00-1.25065E-01 7.81393E-01-2.50536E-13-1.41304E-13
 -1      2532 3.18161E+01-1.05529E-01-7.95534E-02 1.55123E+00-1.64702E-13-1.47660E-13
 -1      2533 3.51219E+01 6.43682E+00-1.36181E-01-4.45748E-01-3.40117E-13-2.52603E-13
 -1      2534 3.39958E+01 4.31838E+00-1.14341E-01-3.21279E-02-3.11084E-13-2.27429E-13
 -1      2535 3.21679E+01 2.57369E+00-6.06029E-02-7.96296E-01-1.87420E-13 3.28626E-14
 -1      2536 3.24378E+01 6.79434E+00-3.30608E-02-1.20057E+00-3.34677E-13 3.25157E-14
 -1      2537 3.33872E+01 7.50274E+00-2.13226E-01 7.72505E-01-4.30767E-13-2.21809E-13
 -1      2538 3.35235E+01 8.45983E+00-1.87073E-01 4.05570E-01-3.68372E-13-2.17965E-13
 -1      2539 3.08841E+01-1.13355E+00-5.71464E-02-2.88380E+00-2.30739E-13-8.87068E-14
 -1      2540 3.28738E+01 7.84115E-01-1.19460E-01-1.67137E+00-3.08788E-13-5.06262E-14
 -1      2541 2.56092E+01-4.31146E+00 2.43351E-02-5.60245E+00 2.33119E-13 1.36752E-13
 -1      2542 2.89001E+01-2.95413E+00-5.10032E-02-4.58298E+00-7.02216E-15 7.64944E-14
 -1      2543 8.86854E+00-3.77419E+00 1.35676E-01-7.30651E+00 3.10418E-13 1.10800E-13
 -1      2544 1.20360E+01-4.26173E+00 2.33299E-02-8.34042E+00 3.53439E-13 3.53800E-13
 -1      2545 2.88730E+01-5.80859E+00 2.05712E-01-2.83592E+00-4.47420E-14 2.07029E-13
 -1      2546 7.03433E+00-1.24775E+00 1.33249E-01 3.16393E+00 3.44169E-15-8.17679E-14
 -1      2547 1.99131E+01 2.81241E+00 1.14676E-03-1.09950E+00-1.84266E-13-4.50117E-13
 -1      2548 1.97804E+01 3.15783E+00-1.62001E-02-1.28929E+00-2.05818E-13-4.72189E-13
 -1      2549 1.98838E+01 3.01429E+00-1.85311E-02-1.47909E+00-2.53683E-13-4.38441E-13
 -1      2550 1.62071E+01-4.18602E+00 1.47946E-01-7.89756E+00 4.35291E-13 2.81310E-13
 -1      2551 4.68370E+00-9.47113E-01 1.76540E-01-2.11646E+00 5.13756E-14-1.77747E-13
 -1      2552 2.00891E+01 4.28068E-01-3.99153E-03 3.25479E-01 2.02388E-13-1.20057E-14
 -1      2553 3.13831E+01 8.17142E+00-1.08179E-01 1.34487E-01-3.52884E-13-4.50542E-14
 -1      2554 1.95707E+01-3.31572E+00 7.66711E-02-5.69215E+00-2.79526E-13 7.27057E-14
 -1      2555 1.48177E+01-2.05200E+00 2.23195E-01-5.97373E+00-3.07143E-13 1.16129E-13
 -1      2556 1.69648E+01-1.22893E+00 4.60451E-02 5.73029E+00-1.38139E-13 2.26624E-13
 -1      2557 2.02394E+01 3.52105E-01 5.13755E-03 6.01168E-01-3.50087E-13-3.34805E-13
 -1      2558 2.00869E+01 5.13267E-01 7.41020E-03 7.25528E-01-1.83502E-13-4.49923E-13
 -1      2559 1.99969E+01 5.09472E-01-5.19178E-03 4.82275E-01-1.90860E-13-2.73565E-13
 -1      2560 2.00958E+01-7.30951E-02 1.20856E-03-2.30127E-02 1.27332E-13-5.50905E-13
 -1      2561 5.56328E+00-4.52137E-01 2.19275E-01-3.17225E-01-4.34375E-15-1.62814E-13
 -1      2562 2.01204E+01 2.61411E+00-9.96909E-03-1.67811E+00-3.18646E-13-3.52662E-13
 -1      2563 2.44742E+01-5.81127E+00 1.88989E-02 4.34300E+00 4.52971E-14-4.07174E-13
 -1      2564 1.00232E+01-1.90414E+00 1.42845E-01-4.71553E+00-3.31873E-13 1.52628E-13
 -1      2565 2.74788E+01-5.71950E+00-6.07964E-02-3.27368E+00-1.83353E-13 1.75276E-13
 -1      2566 2.46269E+01-4.09610E+00 1.76587E-01-4.85579E+00-2.04031E-13 1.52375E-13
 -1      2567 8.46642E+00-2.32408E+00 1.54728E-01-6.54902E+00 3.20050E-13 8.15736E-14
 -1      2568 2.42750E+01-4.97409E+00 3.00581E-02-5.96630E+00 4.05787E-13 2.51077E-13
 -1      2569 3.29813E+01 1.85855E+00-3.52148E-02-3.08009E-01-2.91170E-13 1.58068E-13
 -1      2570 3.18101E+01 2.70670E+00-2.59391E-01 1.10133E+00-2.62429E-13 2.02116E-13
 -1      2571 3.13084E+01 2.88141E-01 1.20502E-03 3.19972E-02-2.48024E-13 1.00780E-13
 -1      2572 3.28068E+01 6.39169E+00-1.41343E-01 1.12241E+00-5.13145E-13-2.39211E-13
 -1      2573 2.99747E+01 6.72847E+00-1.23908E-01 1.49647E+00-4.85334E-13-4.13281E-14
 -1      2574 3.13644E+01 5.14601E+00-1.51588E-01 1.50943E+00-3.88328E-13-1.63633E-13
 -1      2575 3.05294E+01-1.65548E+00-2.35724E-03 1.55862E+00-4.70492E-14-6.45040E-14
 -1      2576 2.65406E+01-4.43314E+00 2.24204E-02 4.85678E+00 1.19793E-13-1.89043E-13
 -1      2577 1.92205E+01-4.90543E+00 5.97584E-02 7.74615E+00 2.47635E-13-4.38484E-13
 -1      2578 1.72553E+01-3.99638E+00 1.59410E-01 7.76645E+00 2.41487E-13-6.01769E-13
 -1      2579 2.15718E+01-4.84125E+00 2.39641E-02 6.72805E+00 8.66807E-14-3.39537E-13
 -1      2580 1.12229E+01-3.16843E+00 1.66917E-01 7.63961E+00 2.25375E-13-4.16084E-13
 -1      2581 5.95735E+00-1.42729E+00 1.79697E-01 4.68626E+00 1.86268E-13-3.05228E-13
 -1      2582 1.88358E+01-4.39408E+00 1.15163E-01-5.73695E+00-4.36762E-13 1.71252E-13
 -1      2583 1.44093E+01-2.66743E+00 1.32200E-01 5.91200E+00-2.39309E-13 1.15075E-13
 -1      2584 1.99046E+01 5.90190E-01-2.74740E-03 5.37999E-01-2.27653E-13-3.86389E-13
 -1      2585 2.90163E+01-5.76523E+00-1.05509E-01 2.95781E+00 6.81677E-14-6.86867E-13
 -1      2586 2.98535E+01-2.62874E+00 1.15483E-02-2.54624E+00-1.04597E-13-3.58880E-14
 -1      2587 1.98409E+01 2.77180E+00-6.29018E-03 5.13688E-01 2.00968E-13-3.82208E-13
 -1      2588 1.98165E+01 2.82063E+00-5.70897E-03 3.62738E-01 1.57871E-13-3.97628E-13
 -1      2589 1.97999E+01 2.85762E+00-5.57225E-03 2.27107E-01 1.21294E-13-4.31135E-13
 -1      2590 1.97917E+01 2.87385E+00-5.42703E-03 7.25526E-02 9.08665E-14-4.39544E-13
 -1      2591 1.99463E+01 2.50676E+00 3.63900E-03 2.63107E-01 1.38066E-13-3.89608E-13
 -1      2592 2.00389E+01 2.33590E+00-1.05450E-02 1.04522E+00 3.16419E-13-2.70680E-13
 -1      2593 1.99746E+01 2.48285E+00-6.33864E-03 9.09272E-01 2.86555E-13-3.11972E-13
 -1      2594 2.02052E+01 1.93168E+00-1.20609E-02 1.22866E+00 3.55115E-13-1.65704E-13
 -1      2595 2.01180E+01 2.16064E+00-4.93112E-03 1.13495E+00 3.12763E-13-2.14509E-13
 -1      2596 2.01862E+01 1.90055E+00 7.40931E-03 9.29937E-01 2.91733E-13-2.22278E-13
 -1      2597 2.03539E+01 1.38867E+00-7.80390E-03 1.18490E+00 3.70609E-13-4.71625E-14
 -1      2598 2.02744E+01 1.76205E+00 2.73947E-03 1.24018E+00 3.66328E-13-1.10230E-13
 -1      2599 2.02884E+01 1.52400E+00 8.78954E-03 9.96868E-01 3.27687E-13-1.12704E-13
 -1      2600 2.03031E+01 1.12343E+00-8.48299E-04 9.29281E-01 3.53873E-13-4.45199E-14
 -1      2601 2.00518E+01 2.77094E-01-1.81394E-03 6.93793E-02 1.30867E-13-7.01531E-14
 -1      2602 2.01126E+01 3.73850E-01 6.79841E-03 1.69712E-01 1.56091E-13-5.52346E-14
 -1      2603 2.03212E+01 1.71055E+00-9.94654E-03-1.33358E+00-3.03427E-13-2.80517E-13
 -1      2604 2.02877E+01 1.32919E+00-7.10121E-03-1.03478E+00-2.79436E-13-2.44710E-13
 -1      2605 2.03172E+01 1.01433E+00 4.38383E-03-8.11936E-01-2.52735E-13-2.16471E-13
 -1      2606 2.02219E+01 7.84095E-01-5.00058E-03-5.72242E-01-2.47895E-13-2.12370E-13
 -1      2607 2.02797E+01 1.36172E+00 1.50152E-03-8.98459E-01-2.49080E-13-2.64955E-13
 -1      2608 2.02102E+01 6.00027E-01 5.73099E-03-4.08048E-01-2.07917E-13-1.84243E-13
 -1      2609 2.01287E+01 4.58494E-01-2.93077E-03-2.50102E-01-1.75287E-13-1.92002E-13
 -1      2610 2.02572E+01 8.34857E-01 2.38368E-03-5.04287E-01-1.98887E-13-2.01257E-13
 -1      2611 2.01044E+01 3.45646E-01 4.66312E-03-1.40732E-01-1.55093E-13-1.76457E-13
 -1      2612 2.00475E+01 2.57805E-01-1.52597E-03-4.25505E-02-1.54295E-13-1.86775E-13
 -1      2613 2.01932E+01 4.93289E-01-7.13159E-04-2.16955E-01-1.62557E-13-1.78417E-13
 -1      2614 2.00233E+01 1.87250E-01 3.35064E-03 2.53453E-02-1.41775E-13-1.73086E-13
 -1      2615 1.99888E+01 1.32124E-01-6.15852E-04 8.27269E-02-1.50464E-13-1.87746E-13
 -1      2616 2.01283E+01 2.76584E-01-1.60744E-03-2.76272E-02-1.51360E-13-1.66773E-13
 -1      2617 1.99693E+01 8.77787E-02 2.24941E-03 1.21119E-01-1.37402E-13-1.47853E-13
 -1      2618 1.99519E+01 5.34352E-02-6.46632E-05 1.51446E-01-1.18481E-13-1.38262E-13
 -1      2619 2.00753E+01 1.38598E-01-1.69872E-03 8.82134E-02-1.08532E-13-1.24175E-13
 -1      2620 1.99377E+01 2.59611E-02 1.41073E-03 1.69782E-01-1.14408E-13-1.23926E-13
 -1      2621 1.99322E+01 5.24534E-03 2.44907E-04 1.82605E-01-7.63253E-14-1.08256E-13
 -1      2622 2.00365E+01 5.16713E-02-1.49696E-03 1.52041E-01-9.89884E-14-5.32441E-14
 -1      2623 1.99227E+01-1.10512E-02 8.04502E-04 1.87919E-01-6.56992E-14-1.08714E-13
 -1      2624 1.99249E+01-2.26670E-02 4.04898E-04 1.89827E-01-1.00381E-13-1.09475E-13
 -1      2625 2.00103E+01-1.37250E-03-1.22180E-03 1.80760E-01-7.97888E-14-2.38670E-14
 -1      2626 1.99191E+01-3.14477E-02 3.84243E-04 1.87198E-01-1.01110E-13-7.13671E-14
 -1      2627 1.99258E+01-3.69566E-02 4.77132E-04 1.82735E-01-5.69818E-14-5.18705E-14
 -1      2628 1.99939E+01-3.16213E-02-9.60525E-04 1.86949E-01-8.54831E-14 2.32331E-14
 -1      2629 1.99226E+01-4.06777E-02 1.06096E-04 1.75757E-01-1.92748E-15-6.84000E-14
 -1      2630 1.99317E+01-4.21212E-02 5.00117E-04 1.68039E-01 1.90861E-14-8.85762E-14
 -1      2631 1.99848E+01-4.64797E-02-7.40677E-04 1.79692E-01-3.15076E-14 7.97015E-15
 -1      2632 1.99305E+01-4.24777E-02-6.73616E-05 1.59205E-01-4.56484E-15-1.15864E-13
 -1      2633 1.99407E+01-4.12759E-02 4.96942E-04 1.50347E-01-3.41442E-14-1.21182E-13
 -1      2634 1.99809E+01-5.10300E-02-5.66454E-04 1.65408E-01-4.04269E-15-5.75770E-14
 -1      2635 1.99407E+01-3.94589E-02-1.65894E-04 1.41342E-01-6.08007E-14-9.73754E-14
 -1      2636 1.99511E+01-3.66156E-02 4.80946E-04 1.32742E-01-7.05257E-14-1.06694E-13
 -1      2637 1.99804E+01-4.88263E-02-4.34324E-04 1.48531E-01-3.37167E-14-9.37236E-14
 -1      2638 1.99520E+01-3.34819E-02-2.11621E-04 1.24666E-01-7.59964E-14-1.45558E-13
 -1      2639 1.99622E+01-2.97288E-02 4.58710E-04 1.17206E-01-9.72030E-14-1.51744E-13
 -1      2640 1.99822E+01-4.23955E-02-3.38566E-04 1.32042E-01-9.52604E-14-1.16678E-13
 -1      2641 1.99638E+01-2.59259E-02-2.19825E-04 1.10725E-01-7.52002E-14-1.70647E-13
 -1      2642 1.99737E+01-2.18386E-02 4.31312E-04 1.04902E-01-8.57212E-14-1.45259E-13
 -1      2643 1.99856E+01-3.35950E-02-2.73611E-04 1.17854E-01-9.76884E-14-9.92345E-14
 -1      2644 1.99759E+01-1.79109E-02-1.99771E-04 1.00346E-01-6.16677E-14-1.17129E-13
 -1      2645 1.99855E+01-1.40115E-02 3.94591E-04 9.63437E-02-8.02166E-15-1.20327E-13
 -1      2646 1.99903E+01-2.38988E-02-2.34999E-04 1.07081E-01-7.08590E-14-1.19041E-13
 -1      2647 1.99885E+01-1.05000E-02-1.55312E-04 9.37553E-02-1.94127E-14-1.13442E-13
 -1      2648 1.99980E+01-7.35684E-03 3.38768E-04 9.14652E-02-5.72043E-14-9.97224E-14
 -1      2649 1.99963E+01-1.46535E-02-2.19771E-04 1.00188E-01-2.85218E-14-1.07552E-13
 -1      2650 2.00020E+01-4.89666E-03-8.53447E-05 9.05932E-02-8.36044E-14-1.03485E-13
 -1      2651 2.00116E+01-3.22247E-03 2.47750E-04 8.95872E-02-5.63230E-14-1.09799E-13
 -1      2652 2.00039E+01-7.32345E-03-2.26619E-04 9.70481E-02-5.08876E-14-9.63307E-14
 -1      2653 2.00172E+01-2.63795E-03 1.56945E-05 8.98316E-02-8.59705E-14-7.48218E-14
 -1      2654 2.00272E+01-3.38092E-03 9.84716E-05 8.92870E-02-4.59512E-14-8.73384E-14
 -1      2655 2.00140E+01-3.73098E-03-2.55800E-04 9.68861E-02-6.35793E-14-7.06350E-14
 -1      2656 2.00354E+01-5.76570E-03 1.56827E-04 8.95932E-02 2.81120E-14-1.93210E-13
 -1      2657 2.00460E+01-1.01740E-02-1.39111E-04 8.81769E-02 6.62423E-14-2.06115E-13
 -1      2658 2.00278E+01-6.27295E-03-3.08524E-04 9.81267E-02-4.40615E-14-7.89797E-14
 -1      2659 2.00581E+01-1.69294E-02 3.48260E-04 8.68838E-02 6.94043E-14-1.79456E-13
 -1      2660 2.00695E+01-2.65512E-02-5.00388E-04 8.26107E-02 9.01963E-14-1.64778E-13
 -1      2661 2.00474E+01-1.80666E-02-3.85297E-04 9.81367E-02 8.59722E-14-1.20830E-13
 -1      2662 2.00872E+01-3.93321E-02 5.96683E-04 7.72711E-02 5.97142E-14-2.01021E-13
 -1      2663 2.00994E+01-5.58855E-02-1.02116E-03 6.73736E-02 1.99138E-14-2.91695E-13
 -1      2664 2.00758E+01-4.29267E-02-4.82373E-04 9.28837E-02-2.48324E-14-1.44065E-13
 -1      2665 2.01248E+01-7.63751E-02 8.96802E-04 5.45878E-02-5.83702E-15-3.02023E-13
 -1      2666 2.01376E+01-1.01392E-01-1.72688E-03 3.54626E-02-6.63671E-14-3.11801E-13
 -1      2667 2.01165E+01-8.50129E-02-5.85319E-04 7.65628E-02 1.41138E-14-2.08945E-13
 -1      2668 2.01729E+01-1.30798E-01 1.21808E-03 1.08149E-02-7.06810E-14-2.60834E-13
 -1      2669 2.01855E+01-1.64929E-01-2.61264E-03-2.18370E-02 3.31593E-14-2.67986E-13
 -1      2670 2.01736E+01-1.47911E-01-6.58928E-04 4.13047E-02-2.62665E-14-5.29820E-14
 -1      2671 2.02323E+01-2.03087E-01 1.48735E-03-6.35784E-02 1.11717E-13-3.04888E-13
 -1      2672 2.02429E+01-2.44977E-01-3.60994E-03-1.14247E-01 4.88633E-14-2.24987E-13
 -1      2673 2.02510E+01-2.32870E-01-6.34591E-04-2.27956E-02 9.79101E-14 1.32949E-14
 -1      2674 2.03009E+01-2.89017E-01 1.57406E-03-1.78398E-01 1.45850E-14-1.55034E-13
 -1      2675 2.03067E+01-3.33801E-01-4.53967E-03-2.50668E-01 5.92421E-14-8.24379E-14
 -1      2676 2.03502E+01-3.35989E-01-4.00504E-04-1.26909E-01 1.07835E-13-2.07197E-13
 -1      2677 2.03721E+01-3.76536E-01 1.29278E-03-3.40999E-01 1.76500E-13 1.81977E-14
 -1      2678 2.03684E+01-4.14331E-01-5.07010E-03-4.35650E-01 2.94150E-13-1.37861E-14
 -1      2679 2.04683E+01-4.44479E-01 1.90299E-04-2.81289E-01 1.58728E-13-1.23840E-13
 -1      2680 2.04322E+01-4.42981E-01 4.42436E-04-5.51518E-01 2.26736E-13-6.08674E-14
 -1      2681 2.04129E+01-4.58299E-01-4.70775E-03-6.63816E-01 1.64279E-13-7.17779E-14
 -1      2682 2.05939E+01-5.33023E-01 1.25884E-03-4.90835E-01 2.15285E-13-1.52547E-13
 -1      2683 2.04595E+01-4.54749E-01-1.05734E-03-7.96104E-01 1.06659E-13-1.69251E-13
 -1      2684 2.04181E+01-4.28360E-01-2.90424E-03-9.12743E-01 5.78665E-14-1.41128E-13
 -1      2685 2.07046E+01-5.62576E-01 2.78304E-03-7.47901E-01 7.06336E-14-1.95114E-13
 -1      2686 2.04277E+01-3.72797E-01-3.07251E-03-1.03950E+00 5.03585E-14-2.38846E-13
 -1      2687 2.03599E+01-2.87989E-01 5.35951E-04-1.13655E+00-5.96241E-14-1.92850E-13
 -1      2688 2.07672E+01-4.85195E-01 4.42023E-03-1.02298E+00 1.12275E-14-2.85045E-13
 -1      2689 2.03156E+01-1.67714E-01-4.94185E-03-1.22156E+00-7.69845E-14-8.62452E-14
 -1      2690 2.02231E+01-2.12037E-02 5.01634E-03-1.26633E+00-1.16814E-13-2.08238E-14
 -1      2691 2.07457E+01-2.61174E-01 5.08654E-03-1.25679E+00-3.10440E-14-2.43814E-13
 -1      2692 2.01233E+01 1.56917E-01-5.56336E-03-1.26557E+00-3.24653E-13 6.69518E-14
 -1      2693 2.00171E+01 3.43625E-01 8.76522E-03-1.22511E+00-2.81471E-13 1.58107E-13
 -1      2694 2.06206E+01 1.14457E-01 3.74535E-03-1.36346E+00-1.88323E-13 8.73976E-14
 -1      2695 1.98873E+01 5.43436E-01-3.88686E-03-1.10448E+00-1.40431E-13 1.20157E-13
 -1      2696 1.97884E+01 7.21731E-01 9.62467E-03-9.61440E-01-9.78498E-14 1.27531E-13
 -1      2697 2.04124E+01 5.82814E-01-1.75816E-04-1.25454E+00-1.77624E-13 1.81678E-13
 -1      2698 1.96774E+01 8.83836E-01 1.01781E-04-7.20389E-01-9.62424E-14 7.65829E-14
 -1      2699 1.96110E+01 9.93635E-01 6.34634E-03-4.87808E-01-1.61910E-13 7.43185E-14
 -1      2700 2.01914E+01 1.02178E+00-4.73458E-03-8.86634E-01-1.20030E-13 1.60695E-13
 -1      2701 1.95703E+01 1.05862E+00 5.03221E-03-1.72146E-01-1.85982E-13 1.12107E-13
 -1      2702 1.95567E+01 1.05724E+00 3.33280E-04 1.02696E-01-1.72260E-13 1.29591E-13
 -1      2703 2.00525E+01 1.28146E+00-7.46496E-03-3.03804E-01-1.09593E-13 1.35834E-13
 -1      2704 1.96067E+01 9.99341E-01 8.32985E-03 4.12122E-01-1.42843E-13 2.26163E-13
 -1      2705 1.96507E+01 8.87412E-01-5.50092E-03 6.64123E-01-1.90782E-14 1.66693E-13
 -1      2706 2.00650E+01 1.26417E+00-5.30442E-03 3.55264E-01-8.25624E-14 3.10070E-13
 -1      2707 1.97671E+01 7.29582E-01 8.28333E-03 8.89308E-01-1.23333E-14 1.41173E-13
 -1      2708 1.98553E+01 5.49898E-01-8.30184E-03 1.06330E+00 3.65962E-15 1.56322E-13
 -1      2709 2.02216E+01 9.75018E-01 7.29422E-05 9.15274E-01 4.26732E-14 2.86685E-13
 -1      2710 1.99853E+01 3.50237E-01 5.32028E-03 1.16313E+00 7.83462E-14 1.92714E-13
 -1      2711 2.00924E+01 1.63445E-01-7.38467E-03 1.23521E+00 1.21844E-14 2.83513E-13
 -1      2712 2.04456E+01 5.21922E-01 5.05669E-03 1.24731E+00 1.05380E-13 1.15100E-13
 -1      2713 2.01878E+01-1.76337E-02 1.31577E-03 1.21614E+00-1.04245E-13 2.57475E-13
 -1      2714 2.02880E+01-1.63233E-01-4.16224E-03 1.19558E+00-8.40848E-14 9.86144E-14
 -1      2715 2.06419E+01 5.52777E-02 7.06524E-03 1.31952E+00-7.05725E-14 1.40796E-13
 -1      2716 2.03255E+01-2.87775E-01-1.95861E-03 1.09546E+00-1.19230E-13 2.25131E-14
 -1      2717 2.04019E+01-3.70822E-01-5.03953E-04 1.01206E+00 7.84125E-15-4.50348E-14
 -1      2718 2.07474E+01-3.06360E-01 5.82659E-03 1.18520E+00-1.57576E-13 1.20756E-13
 -1      2719 2.03850E+01-4.29630E-01-3.68100E-03 8.76199E-01 1.21789E-13-2.16783E-13
 -1      2720 2.04319E+01-4.53250E-01 2.28937E-03 7.64078E-01 9.80336E-14-1.53509E-13
 -1      2721 2.07493E+01-5.11252E-01 2.97377E-03 9.35788E-01-1.10778E-16-3.88612E-14
 -1      2722 2.03782E+01-4.57345E-01-4.01907E-03 6.28408E-01 3.78957E-14-1.46665E-13
 -1      2723 2.03988E+01-4.37848E-01 3.80584E-03 5.15190E-01 6.45617E-14-2.08129E-13
 -1      2724 2.06708E+01-5.68375E-01 1.93721E-04 6.56151E-01 1.10195E-13-1.76905E-13
 -1      2725 2.03281E+01-4.06350E-01-3.54385E-03 4.01066E-01 9.41914E-14 2.22795E-15
 -1      2726 2.03294E+01-3.62866E-01 4.19797E-03 3.04160E-01 9.43441E-14-2.45149E-14
 -1      2727 2.05480E+01-5.19099E-01-1.65878E-03 4.03419E-01 2.08284E-13-3.22735E-14
 -1      2728 2.02570E+01-3.14515E-01-2.79674E-03 2.20069E-01 1.08489E-13-1.71257E-13
 -1      2729 2.02464E+01-2.62520E-01 3.88225E-03 1.47162E-01 1.05216E-13-1.89182E-13
 -1      2730 2.04126E+01-4.11123E-01-2.41891E-03 2.05920E-01-2.38385E-14 1.70646E-13
 -1      2731 2.01814E+01-2.11057E-01-1.97809E-03 9.37923E-02 1.27308E-14-2.60766E-13
 -1      2732 2.01672E+01-1.62849E-01 3.43200E-03 4.54555E-02 1.38012E-13-2.35330E-13
 -1      2733 2.02870E+01-2.82925E-01-1.79820E-03 7.11426E-02 9.17551E-15 3.53152E-14
 -1      2734 2.01188E+01-1.08813E-01-2.95134E-04-3.07644E-03 6.66872E-14-3.95235E-13
 -1      2735 2.89543E+01 7.44686E+00-2.04691E-01 4.11821E-01-4.05176E-13 2.28689E-14
 -1      2736 2.95572E+01 7.61262E+00-1.81990E-01-5.83006E-01-2.93765E-13-5.54695E-14
 -1      2737 1.99889E+01 1.44545E-01-7.93033E-04-6.67184E-02 1.60885E-13-1.11631E-13
 -1      2738 2.00257E+01 2.05271E-01 4.65364E-03-8.30717E-03 1.42054E-13-7.71608E-14
 -1      2739 2.01300E+01 3.08548E-01-2.34815E-03 6.31787E-02 1.67828E-13-1.28916E-13
 -1      2740 1.99197E+01-1.88753E-02 1.76386E-04-1.88645E-01 7.44873E-14-1.01659E-13
 -1      2741 1.99181E+01-5.20966E-03 9.92798E-04-1.86298E-01 8.69683E-14-7.80751E-14
 -1      2742 1.99203E+01-3.52251E-02 2.69134E-04-1.83752E-01 1.13217E-13-1.22857E-13
 -1      2743 1.99137E+01-2.83642E-02 4.31630E-04-1.88097E-01 9.57089E-14-1.13338E-13
 -1      2744 1.99875E+01-2.49400E-02-8.57360E-04-1.87605E-01 9.80410E-14-9.42681E-14
 -1      2745 1.99267E+01-4.17628E-02 3.18094E-04-1.70123E-01 7.49705E-14-1.00036E-13
 -1      2746 1.99174E+01-3.94978E-02 6.30339E-05-1.77897E-01 8.05013E-14-1.18848E-13
 -1      2747 1.99786E+01-4.29879E-02-6.04891E-04-1.83042E-01 1.00868E-13-6.15918E-14
 -1      2748 1.99366E+01-4.16594E-02 3.47433E-04-1.52824E-01 5.77648E-14-4.18857E-14
 -1      2749 1.99260E+01-4.25016E-02-1.65619E-04-1.61784E-01 7.23309E-14-5.44210E-14
 -1      2750 1.99754E+01-4.96859E-02-4.18572E-04-1.69958E-01 5.01383E-14-4.70129E-14
 -1      2751 1.99484E+01-3.69995E-02 3.72478E-04-1.35380E-01 4.14027E-14 1.07593E-14
 -1      2752 1.99373E+01-3.99839E-02-3.00549E-04-1.43968E-01 7.53851E-14-5.14036E-15
 -1      2753 1.99762E+01-4.86632E-02-2.86006E-04-1.53399E-01 3.52143E-14 2.85357E-14
 -1      2754 1.99611E+01-2.90444E-02 4.05004E-04-1.20291E-01 3.28240E-14 5.23538E-14
 -1      2755 1.99500E+01-3.36102E-02-3.76775E-04-1.27391E-01 6.26778E-14 5.33457E-14
 -1      2756 1.99796E+01-4.22831E-02-1.94529E-04-1.36910E-01 1.80934E-14 9.28507E-14
 -1      2757 1.99745E+01-1.83770E-02 4.54711E-04-1.09435E-01 1.14148E-14 5.57680E-14
 -1      2758 1.99633E+01-2.43035E-02-4.22068E-04-1.14179E-01 3.49291E-14 4.77654E-14
 -1      2759 1.99847E+01-3.19342E-02-1.31466E-04-1.23022E-01 2.55803E-14 8.95992E-14
 -1      2760 1.99882E+01-4.97699E-03 5.03759E-04-1.04416E-01-4.25840E-14 3.92370E-14
 -1      2761 1.99769E+01-1.23375E-02-4.58812E-04-1.06008E-01-2.82203E-14 2.31060E-14
 -1      2762 1.99908E+01-1.81881E-02-8.36123E-05-1.13656E-01-7.73081E-16 7.37585E-14
 -1      2763 2.00016E+01 1.09609E-02 6.15911E-04-1.06511E-01-8.67163E-15 6.49369E-14
 -1      2764 1.99904E+01 2.17158E-03-5.08890E-04-1.04396E-01-1.68061E-14 1.41229E-14
 -1      2765 1.99971E+01-1.25172E-03 1.35862E-06-1.10398E-01-5.02919E-14 8.33299E-14
 -1      2766 2.00160E+01 3.25061E-02 8.06009E-04-1.17808E-01-3.62855E-14 9.63462E-14
 -1      2767 2.00034E+01 2.05755E-02-6.05904E-04-1.10583E-01-1.78712E-14 6.94085E-14
 -1      2768 2.00030E+01 1.99059E-02 2.83071E-05-1.14586E-01-2.10031E-14 4.11817E-14
 -1      2769 2.00299E+01 6.13074E-02 1.03207E-03-1.40986E-01 2.47517E-14 7.71869E-14
 -1      2770 2.00162E+01 4.52242E-02-7.79369E-04-1.27200E-01 3.19845E-14 6.81513E-14
 -1      2771 2.00075E+01 4.81357E-02 1.45809E-04-1.28326E-01 4.22482E-14 4.78624E-14
 -1      2772 2.00418E+01 1.01207E-01 1.33009E-03-1.79630E-01 7.28605E-14-6.15420E-15
 -1      2773 2.00269E+01 7.88034E-02-1.07366E-03-1.57114E-01 5.71090E-14-1.25017E-14
 -1      2774 2.00084E+01 8.61156E-02 3.64106E-04-1.54050E-01 8.66787E-14-7.55980E-15
 -1      2775 2.00483E+01 1.57955E-01 1.70058E-03-2.38761E-01-6.75803E-14-8.27444E-15
 -1      2776 2.00329E+01 1.25989E-01-1.55964E-03-2.04423E-01-8.41478E-15 2.44541E-14
 -1      2777 2.00018E+01 1.38820E-01 7.64874E-04-1.94893E-01 1.91087E-14-4.49768E-14
 -1      2778 2.00427E+01 2.39932E-01 2.11963E-03-3.25262E-01 8.80292E-14-4.45606E-14
 -1      2779 2.00287E+01 1.93725E-01-2.33846E-03-2.74779E-01-5.85881E-15-2.34374E-14
 -1      2780 1.99810E+01 2.13579E-01 1.48147E-03-2.54906E-01-7.04013E-15-6.30366E-14
 -1      2781 2.00124E+01 3.58904E-01 2.51153E-03-4.48195E-01 1.64293E-13-3.73773E-15
 -1      2782 2.00041E+01 2.91973E-01-3.55611E-03-3.75753E-01 1.71295E-13 1.98805E-15
 -1      2783 1.99342E+01 3.20826E-01 2.72834E-03-3.39067E-01 1.00068E-13-1.35011E-13
 -1      2784 1.99350E+01 5.30403E-01 2.70533E-03-6.18764E-01 1.70295E-13 6.85279E-14
 -1      2785 1.99414E+01 4.34374E-01-5.41937E-03-5.16983E-01 1.57302E-13 6.67710E-14
 -1      2786 1.98420E+01 4.74714E-01 4.83917E-03-4.52933E-01 1.10607E-13 1.17951E-13
 -1      2787 1.97726E+01 7.72536E-01 2.34805E-03-8.49535E-01 1.06825E-13 8.26943E-14
 -1      2788 1.98100E+01 6.38104E-01-8.20763E-03-7.09854E-01 1.72711E-13 4.09034E-14
 -1      2789 1.96718E+01 6.92963E-01 8.30314E-03-6.01631E-01 1.55698E-13 2.18764E-13
 -1      2790 1.94618E+01 1.10106E+00 9.31441E-04-1.15230E+00 9.25219E-14 8.45933E-14
 -1      2791 1.95598E+01 9.21696E-01-1.20790E-02-9.66256E-01 1.04640E-13 1.16922E-13
 -1      2792 1.93719E+01 9.94068E-01 1.37206E-02-7.87836E-01 7.93925E-14 1.44212E-13
 -1      2793 1.89473E+01 1.49173E+00-1.72450E-03-1.51372E+00-4.41027E-14 4.96947E-14
 -1      2794 1.91289E+01 1.28117E+00-1.82926E-02-1.28945E+00 5.25832E-14 1.29111E-13
 -1      2795 1.88803E+01 1.38147E+00 2.29625E-02-1.00213E+00 3.72196E-14 3.34567E-13
 -1      2796 1.80562E+01 1.93559E+00-2.06049E-03-1.97679E+00-1.35893E-13 1.35133E-14
 -1      2797 1.83989E+01 1.70918E+00-2.51687E-02-1.68652E+00-8.85538E-14-1.57519E-14
 -1      2798 1.80766E+01 1.84464E+00 3.50174E-02-1.24512E+00-7.65815E-14 1.43865E-13
 -1      2799 1.66469E+01 2.23324E+00 2.94265E-03-2.54234E+00-1.28704E-13-6.66134E-14
 -1      2800 1.71973E+01 2.11307E+00-3.17846E-02-2.18709E+00-8.42989E-14-3.46979E-14
 -1      2801 1.67730E+01 2.32907E+00 5.80632E-02-1.51248E+00-1.21794E-13 6.37424E-15
 -1      2802 1.44003E+01 1.90315E+00-1.24004E-02-3.33840E+00-1.49655E-13-1.46133E-14
 -1      2803 1.53223E+01 2.22841E+00-2.69050E-02-2.80632E+00-1.78933E-13-1.29917E-13
 -1      2804 1.47795E+01 2.59761E+00 1.06244E-01-1.80951E+00-1.38750E-13 6.29848E-14
 -1      2805 1.37968E+01-4.19083E-01 2.57598E-01 5.20771E+00-1.64646E-13 1.80647E-13
 -1      2806 1.05713E+01-7.39024E-01 5.30638E-02-4.61011E+00-2.37366E-13 7.78544E-14
 -1      2807 1.80656E+01 1.84234E+00-2.71551E-02 2.06302E+00-8.19184E-14-3.80385E-13
 -1      2808 1.76927E+01 2.03874E+00 4.60188E-03 2.38761E+00-1.05909E-13-2.77877E-13
 -1      2809 1.97441E+01 7.61742E-01-1.03376E-02 8.95373E-01-2.63927E-13-6.13490E-13
 -1      2810 1.97146E+01 8.92145E-01 3.17376E-03 1.07009E+00-2.95033E-13-5.86669E-13
 -1      2811 1.98715E+01 6.74770E-01 8.11785E-04 7.01372E-01-2.79184E-13-5.19124E-13
 -1      2812 1.94584E+01 8.35410E-01-1.06622E-03-3.02870E-02 7.06397E-14-7.05636E-13
 -1      2813 1.94498E+01 8.55633E-01-4.23939E-03 1.28775E-01-2.06315E-13-8.26450E-13
 -1      2814 1.94931E+01 8.62226E-01-5.25195E-03 3.26446E-01-3.23430E-13-7.89562E-13
 -1      2815 1.95623E+01 8.24247E-01-4.67625E-03 4.55940E-01-4.23379E-13-7.88303E-13
 -1      2816 1.93323E+01 9.28410E-01 4.76963E-03 2.25810E-01-1.99528E-13-7.55966E-13
 -1      2817 1.95800E+01 6.88231E-01 3.41508E-03-3.30024E-01 2.55758E-13-5.65547E-13
 -1      2818 1.95057E+01 7.43068E-01-7.45614E-03-2.03312E-01 2.58323E-13-7.10329E-13
 -1      2819 1.93594E+01 8.21190E-01 4.71728E-03-1.75577E-01 1.65149E-13-5.07754E-13
 -1      2820 1.99767E+01 2.54798E-01 5.70835E-03-5.75291E-01 1.32310E-13 3.88464E-13
 -1      2821 1.98757E+01 3.37241E-01-5.53087E-03-5.60762E-01 2.30681E-13 1.89507E-13
 -1      2822 2.01331E+01 6.83135E-02 4.42930E-03-5.19142E-01-2.67731E-13 5.40648E-14
 -1      2823 2.00605E+01 1.40700E-01-2.58233E-03-5.51643E-01-1.40052E-13 2.95381E-13
 -1      2824 2.00230E+01 1.08481E-01-3.79995E-03-6.49130E-01-1.15995E-13 1.56169E-13
 -1      2825 2.02190E+01-5.84937E-02 2.67793E-03-3.94926E-01-1.87978E-13 1.46197E-13
 -1      2826 2.01838E+01-5.59519E-03 1.32645E-04-4.53825E-01-2.12531E-13 2.10025E-14
 -1      2827 2.01956E+01-6.73903E-02-4.45415E-03-5.48500E-01-2.75723E-13 5.67290E-14
 -1      2828 2.02358E+01-1.25097E-01 1.08659E-03-2.42578E-01 5.96972E-14 4.14007E-13
 -1      2829 2.02354E+01-9.36962E-02 2.05375E-03-3.10310E-01-2.11753E-14 2.82391E-13
 -1      2830 2.02824E+01-1.70125E-01-3.77660E-03-3.86898E-01-4.25525E-15 2.84059E-13
 -1      2831 2.01995E+01-1.36161E-01 1.43537E-03-1.05373E-01-1.17361E-13-1.46242E-13
 -1      2832 2.02213E+01-1.26351E-01 3.05258E-03-1.62021E-01-5.57157E-14 5.27689E-15
 -1      2833 2.02844E+01-2.04878E-01-2.96441E-03-2.11381E-01-7.02066E-15 6.63560E-14
 -1      2834 6.61267E+00 9.82112E-01 2.01904E-01 1.11987E+00 4.94396E-14-1.36502E-13
 -1      2835 7.66042E+00 9.80664E-01 2.24389E-01-1.84693E+00-1.80023E-13 2.48690E-14
 -1      2836 8.30639E+00-5.93465E-01 2.05132E-01-5.08503E+00 2.11595E-13 8.93730E-15
 -1      2837 1.09980E+01-1.66334E+00 5.04071E-02-6.76405E+00 2.46803E-13 2.95319E-13
 -1      2838 1.89372E+01 1.41718E+00-2.05784E-02 1.59193E+00-1.85735E-13-5.21538E-13
 -1      2839 1.87212E+01 1.63859E+00 6.23458E-04 1.86043E+00-9.81320E-14-4.33737E-13
 -1      2840 1.76886E+01 2.01979E+00 4.38376E-02 1.54645E+00-6.91769E-14-4.63047E-13
 -1      2841 1.48559E+01 1.91973E+00 2.99237E-03 3.47762E+00-2.77178E-13 9.96633E-14
 -1      2842 1.41607E+01 1.26741E+00 4.85097E-02 4.02587E+00-2.31707E-13-1.86240E-14
 -1      2843 1.47789E+01-3.11870E+00 1.82753E-01-7.52895E+00 3.21743E-13 2.63220E-13
 -1      2844 1.84908E+01-4.24766E+00-1.20551E-03-7.41214E+00 3.48929E-13 3.02931E-13
 -1      2845 1.99193E+01 2.60465E+00-7.82309E-03 7.92302E-01 2.74031E-13-3.41635E-13
 -1      2846 1.98754E+01 2.69562E+00-6.16238E-03 6.42977E-01 2.34950E-13-3.73692E-13
 -1      2847 1.99945E+01 2.39558E+00 4.31833E-03 5.15144E-01 2.12539E-13-3.38932E-13
 -1      2848 2.00757E+01 2.19927E+00 5.46443E-03 7.45384E-01 2.59336E-13-3.06307E-13
 -1      2849 1.97749E+01 4.76138E-01 5.54067E-03-5.18935E-01 1.58249E-13 1.09229E-13
 -1      2850 1.96692E+01 5.53641E-01-7.75762E-03-4.46240E-01 2.17133E-13-5.25450E-14
 -1      2851 1.95343E+01 6.04939E-01 9.65081E-04-4.78363E-01 2.92991E-13-4.29689E-13
 -1      2852 1.97836E+01 3.46195E-01-1.90734E-03-6.38150E-01 2.15186E-13 1.76527E-13
 -1      2853 1.94596E+01 1.03808E+00-1.42968E-02 1.20992E+00-2.53629E-13-5.65811E-13
 -1      2854 1.93529E+01 1.22274E+00 1.62391E-03 1.42411E+00-2.13247E-13-5.37337E-13
 -1      2855 1.86703E+01 1.54325E+00 2.65923E-02 1.25704E+00-1.96002E-13-5.41763E-13
 -1      2856 1.92727E+01 1.14248E+00 1.57837E-02 9.99350E-01-2.72461E-13-6.48382E-13
 -1      2857 1.99282E+01 1.20636E-02 2.49881E-05-1.77534E-01 6.70308E-14-8.80825E-14
 -1      2858 1.99348E+01 3.56850E-02 1.75531E-03-1.63767E-01 7.82512E-14-1.14673E-13
 -1      2859 2.00047E+01 9.82643E-03-1.18527E-03-1.76465E-01 8.31323E-14-4.71500E-14
 -1      2860 1.66877E+01 2.15035E+00-2.74623E-02 2.65185E+00-1.21703E-13-2.57653E-13
 -1      2861 1.61345E+01 2.13782E+00 2.47160E-02 3.04423E+00-2.10396E-13-5.03070E-15
 -1      2862 1.61427E+01 2.44038E+00 7.30572E-02 1.86690E+00-9.78159E-14-2.37981E-13
 -1      2863 1.99501E+01 6.38527E-02-1.87902E-04-1.40709E-01 1.15289E-13-1.31740E-13
 -1      2864 1.99682E+01 1.00383E-01 2.96626E-03-1.10842E-01 1.48835E-13-1.10889E-13
 -1      2865 2.00735E+01 1.60458E-01-2.17694E-03-6.71103E-02 1.51508E-13-8.72359E-14
 -1      2866 2.00326E+01 6.83721E-02-1.58971E-03-1.40257E-01 1.03451E-13-6.30012E-14
 -1      2867 1.98735E+01 2.69975E+00-5.96889E-03-6.37508E-01-7.24520E-14-4.43226E-13
 -1      2868 1.99168E+01 2.60982E+00-7.55743E-03-7.86386E-01-1.13381E-13-4.39283E-13
 -1      2869 2.00863E+01 2.52800E+00-2.16985E-03-1.45966E+00-2.78291E-13-3.61910E-13
 -1      2870 8.30237E+00-9.43304E-01 1.47405E-01 5.72771E+00 1.23637E-13-3.30680E-13
 -1      2871 6.76354E+00 9.06294E-02 1.65165E-01 3.62040E+00 6.80983E-14-3.64597E-13
 -1      2872 1.38059E+01-2.79416E+00 5.91432E-02 7.60427E+00 8.09630E-14-5.65992E-13
 -1      2873 1.06841E+01-1.81215E+00 1.76977E-01 6.77329E+00 1.61815E-14-4.14363E-13
 -1      2874 1.13568E+01-6.27172E-01 1.66518E-01 5.81722E+00 3.49720E-15-5.21583E-13
 -1      2875 2.75030E+01-4.10975E+00-8.62547E-02 3.46360E+00 1.17781E-13-1.77955E-13
 -1      2876 2.52246E+01-4.68972E+00 2.76722E-02 4.87489E+00 6.90559E-14-2.25292E-13
 -1      2877 2.01380E+01 4.91218E-01-2.98826E-03 2.92916E-01 1.89385E-13-3.41868E-14
 -1      2878 2.02203E+01 6.44518E-01 7.11248E-03 4.55936E-01 2.29355E-13-2.60944E-14
 -1      2879 2.01978E+01 5.43588E-01-2.27172E-03 2.74514E-01 1.99863E-13-9.11965E-14
 -1      2880 2.28089E+01-4.83082E+00 9.37222E-02-6.12188E+00 3.86233E-13 3.98804E-13
 -1      2881 2.61675E+01-4.74927E+00-8.11402E-02-4.55934E+00 2.46844E-13 1.48825E-13
 -1      2882 2.98805E+01-1.25184E+00-1.56785E-01 2.09090E-01-1.76532E-13 5.70377E-15
 -1      2883 2.90349E+01-2.85621E+00-8.08101E-03 1.76538E+00 3.19727E-14-1.28994E-13
 -1      2884 2.78359E+01-3.47871E+00-2.99447E-03 2.00121E+00 9.59371E-14-1.26565E-13
 -1      2885 6.33894E+00 6.96743E-01 1.67697E-01-6.53151E-01 3.03299E-14-1.86434E-13
 -1      2886 6.68525E+00 1.84056E-01 1.57027E-01-3.32783E+00 3.46528E-14-7.34413E-14
 -1      2887 9.55901E+00 6.96267E-01 1.66241E-01-3.69453E+00 8.23994E-14-1.54460E-13
 -1      2888 2.85071E+01-3.38206E+00 4.66539E-02-2.34827E+00 5.02480E-14 9.27036E-14
 -1      2889 2.99041E+01-2.16458E+00-1.27560E-01-1.13466E+00-1.38433E-13 1.10190E-14
 -1      2890 1.24240E+01 9.14557E-01 9.37292E-02 3.89537E+00-2.02963E-13-3.59851E-14
 -1      2891 9.12730E+00-1.14778E-01 1.01436E-01 3.74205E+00-1.57666E-13-1.69004E-13
 -1      2892 6.92297E+00 6.95208E-01 2.62089E-01 1.26173E+00-1.07789E-13-1.77136E-13
 -1      2893 1.09334E+01 1.89628E+00 2.02578E-01 2.39243E+00-2.08068E-13-4.05342E-13
 -1      2894 1.96155E+01 8.45104E-01 5.06228E-03 6.78756E-01-3.22114E-13-8.74944E-13
 -1      2895 1.99716E+01 2.49176E+00-5.52056E-03-9.03672E-01-1.44032E-13-4.19732E-13
 -1      2896 2.00330E+01 2.36169E+00-6.91190E-03-1.03751E+00-1.86620E-13-4.03528E-13
 -1      2897 2.00722E+01 2.20780E+00 5.98452E-03-7.41408E-01-1.15133E-13-3.81991E-13
 -1      2898 1.99301E+01 2.54316E+00 3.37400E-03 2.38188E-03 6.83544E-14-4.15145E-13
 -1      2899 1.97914E+01 2.87422E+00-5.45908E-03-6.45472E-02 5.44170E-14-4.48781E-13
 -1      2900 1.97992E+01 2.85910E+00-5.53374E-03-2.19131E-01 2.08642E-14-4.50214E-13
 -1      2901 2.01453E+01 2.17433E+00 4.51452E-04-1.20886E+00-2.45569E-13-3.56209E-13
 -1      2902 2.01835E+01-1.52210E-01-4.59714E-04-3.38818E-02-3.49866E-14-2.15560E-13
 -1      2903 2.87269E+01 6.87738E+00-1.78057E-01 9.40170E-01-4.39981E-13-2.08895E-14
 -1      2904 2.73352E+01 6.79078E+00-1.06185E-01 4.01863E-01-3.93213E-13-1.69486E-13
 -1      2905 2.81498E+01 6.08650E+00-1.39421E-01 1.35284E+00-4.25354E-13-1.78996E-13
 -1      2906 1.98152E+01 2.82327E+00-5.65822E-03-3.54274E-01 5.68708E-15-4.23870E-13
 -1      2907 1.98397E+01 2.77464E+00-6.15914E-03-5.07712E-01-3.91522E-14-4.25674E-13
 -1      2908 1.99924E+01 2.39914E+00 4.23473E-03-5.09830E-01-5.06070E-14-4.05186E-13
 -1      2909 1.99454E+01 2.50819E+00 3.55640E-03-2.57952E-01 6.51101E-15-4.10087E-13
 -1      2910 1.21035E+01 1.63193E+00 6.86644E-02-2.89865E+00-1.40082E-13-2.91434E-15
 -1      2911 1.13182E+01 2.42248E+00 2.17108E-01-1.29097E+00-1.01461E-13 2.55421E-14
 -1      2912 1.11626E+01 6.65182E-01 1.33591E-01-3.31919E+00-2.13218E-13 2.52021E-14
 -1      2913 1.94157E+01 9.39848E-01-1.09941E-04 6.42736E-01-2.95879E-13-7.36137E-13
 -1      2914 2.70063E+01-4.05274E+00-2.27778E-02-2.92246E+00 1.44572E-13 1.91451E-13
 -1      2915 1.39430E+01 2.38246E+00 9.47757E-02 2.41768E+00-2.20844E-13-4.66387E-13
 -1      2916 2.79285E+01 6.55975E+00-1.02597E-01-9.56321E-01-3.25212E-13-3.19501E-14
 -1      2917 2.96415E+01 6.81035E+00-2.48786E-01-1.19698E+00-2.91239E-13-1.68268E-15
 -1      2918 2.02461E+01-2.14932E-01-3.07697E-03-5.49929E-02-3.96163E-14-7.80903E-14
 -1      2919 1.39944E+01-1.75116E+00 1.36243E-01-6.52319E+00 1.63911E-13 3.31124E-13
 -1      2920 2.97645E+01-1.01405E+00-9.37279E-02 2.35279E-01-1.70544E-13 2.89269E-13
 -1      2921 3.04267E+01 3.51194E+00-1.04192E-01 1.60589E+00-4.67751E-13-3.39728E-14
 -1      2922 3.02282E+01 5.60076E+00-1.13597E-01-1.74933E+00-3.03452E-13 8.55566E-14
 -1      2923 2.35267E+01-4.82253E+00 1.04132E-02 5.68169E+00 7.48290E-14-1.76949E-13
 -1      2924 2.14756E+01-4.17210E+00 8.50728E-02 6.12179E+00 1.58616E-13-2.53634E-13
 -1      2925 2.48218E+01-4.38263E+00 1.90817E-02 4.21119E+00 1.59629E-13-9.76406E-14
 -1      2926 1.96218E+01-3.60013E+00 6.29949E-02-6.43095E+00 2.61166E-13 3.92797E-13
 -1      2927 2.12524E+01-4.48558E+00 8.29031E-02-6.48657E+00 3.85011E-13 4.24186E-13
 -1      2928 2.31742E+01-4.36872E+00 1.56356E-03-5.10062E+00 2.33914E-13 3.74327E-13
 -1      2929 2.02242E+01 7.59569E-01-1.95556E-03 5.73115E-01 2.57070E-13-3.18901E-14
 -1      2930 2.02991E+01 9.43888E-01 3.34477E-03 7.71455E-01 3.12633E-13-3.71154E-14
 -1      2931 2.02846E+01 1.13131E+00-3.85246E-03 8.19624E-01 3.12906E-13-6.69165E-14
 -1      2932 2.02526E+01 8.21619E-01-3.42531E-03 5.32187E-01 2.53772E-13-6.98466E-14
 -1      2933 3.01077E+01 4.18302E-01-7.63711E-02-1.00428E+00-1.64098E-13-4.02178E-14
 -1      2934 2.89942E+01-8.91756E-01-3.68932E-02-4.99112E-01-2.26257E-13-1.17809E-13
 -1      2935 1.65024E+01-3.02474E+00 1.27477E-01 7.10162E+00 9.24538E-14-4.72136E-13
 -1      2936 8.58570E+00 1.42023E+00 1.59730E-01 8.77917E-02-1.94580E-13-3.32540E-13
 -1      2937 2.02373E+01 1.49022E+00-7.51238E-03 8.08245E-01 2.86337E-13-1.90966E-13
 -1      2938 2.01958E+01 1.67648E+00-1.53999E-03 7.46998E-01 2.72354E-13-2.42718E-13
 -1      2939 3.03765E+01 2.56350E+00-1.98357E-01-1.48882E+00-1.91638E-13-9.18016E-14
 -1      2940 8.70790E+00 1.22504E+00 1.75696E-01 2.08477E+00-1.13867E-14-2.41834E-13
 -1      2941 2.03979E+01-2.82548E-01 2.04062E-03-3.65271E-01-1.33113E-15 5.19054E-13
 -1      2942 2.03750E+01-2.48518E-01 1.95712E-03-4.58703E-01-1.04415E-13 3.64811E-13
 -1      2943 2.00219E+01-5.63421E-02 3.45718E-04-1.61936E-01 1.06203E-14 1.75445E-14
 -1      2944 2.00228E+01-5.43179E-02 1.76492E-04-1.68897E-01 3.42546E-14 5.37861E-16
 -1      2945 2.02895E+01 1.06462E+00 8.78439E-04-5.94709E-01-1.69420E-13-2.37701E-13
 -1      2946 2.02559E+01 8.43608E-01-5.08847E-03-4.18272E-01-1.40251E-13-2.12516E-13
 -1      2947 2.02666E+01 6.61069E-01 3.79256E-03-2.93773E-01-1.41474E-13-1.83859E-13
 -1      2948 2.02270E+01 5.09382E-01-3.23909E-03-1.74360E-01-1.54036E-13-1.72306E-13
 -1      2949 2.02893E+01 8.79370E-01 1.17240E-03-3.68834E-01-1.38565E-13-2.13992E-13
 -1      2950 2.02197E+01 3.89035E-01 3.56709E-03-8.66473E-02-1.40006E-13-1.57148E-13
 -1      2951 2.01837E+01 2.88445E-01-2.00858E-03-9.64899E-03-1.16225E-13-1.42944E-13
 -1      2952 2.02732E+01 5.34595E-01-2.60760E-04-1.51105E-01-1.43127E-13-1.67921E-13
 -1      2953 2.01687E+01 2.09651E-01 2.74407E-03 4.63283E-02-7.93652E-14-1.41129E-13
 -1      2954 2.01409E+01 1.43987E-01-1.08715E-03 9.21578E-02-6.43949E-14-1.06895E-13
 -1      2955 2.02384E+01 3.02322E-01-7.78902E-04-2.38529E-03-7.92206E-14-1.17293E-13
 -1      2956 2.01237E+01 9.32311E-02 1.92388E-03 1.24246E-01-8.31781E-14-5.52776E-14
 -1      2957 2.01042E+01 5.15211E-02-4.58829E-04 1.48334E-01-7.54307E-14-4.07133E-14
 -1      2958 2.01983E+01 1.48637E-01-9.41893E-04 9.02890E-02-6.01741E-14-1.00274E-13
 -1      2959 2.00875E+01 1.99014E-02 1.24859E-03 1.63621E-01-6.39536E-14-3.71704E-14
 -1      2960 2.00748E+01-5.30270E-03-5.60024E-05 1.73233E-01-7.70856E-14-3.65656E-14
 -1      2961 2.01598E+01 4.98475E-02-9.10699E-04 1.41664E-01-7.59509E-14-4.35404E-14
 -1      2962 2.00599E+01-2.37672E-02 7.32699E-04 1.77399E-01-8.36875E-14-1.53438E-15
 -1      2963 2.00523E+01-3.75987E-02 1.89509E-04 1.77904E-01-6.18993E-14-1.22234E-14
 -1      2964 2.01258E+01-1.07100E-02-7.99742E-04 1.64393E-01-6.47234E-14-6.33368E-14
 -1      2965 2.00395E+01-4.70346E-02 3.59711E-04 1.75255E-01-4.84028E-14 1.28476E-14
 -1      2966 2.00357E+01-5.30963E-02 3.30553E-04 1.70522E-01-1.89697E-14-1.76582E-14
 -1      2967 2.00972E+01-4.47304E-02-6.68509E-04 1.68514E-01-5.89715E-14-2.63147E-15
 -1      2968 2.00249E+01-5.64058E-02 1.01933E-04 1.64198E-01-2.88280E-14-1.73842E-14
 -1      2969 2.00237E+01-5.72526E-02 4.04143E-04 1.56947E-01-2.30898E-14-4.34334E-14
 -1      2970 2.00737E+01-6.05030E-02-5.41212E-04 1.61575E-01-4.07154E-14 2.19098E-14
 -1      2971 2.00148E+01-5.64957E-02-6.87956E-05 1.49166E-01-9.08659E-15-3.55553E-14
 -1      2972 2.00153E+01-5.39495E-02 4.35830E-04 1.41268E-01-3.24435E-14-4.03910E-14
 -1      2973 2.00549E+01-6.39492E-02-4.28606E-04 1.49039E-01-2.46301E-14-2.68058E-15
 -1      2974 2.00081E+01-5.06033E-02-1.75611E-04 1.33556E-01-9.21543E-14-4.92972E-14
 -1      2975 2.00098E+01-4.59815E-02 4.42898E-04 1.26254E-01-1.54344E-13-5.03406E-14
 -1      2976 2.00400E+01-5.93130E-02-3.34707E-04 1.34748E-01-7.57130E-14-7.26881E-15
 -1      2977 2.00041E+01-4.11328E-02-2.35360E-04 1.19626E-01-1.36754E-13-3.66741E-14
 -1      2978 2.00065E+01-3.54294E-02 4.36384E-04 1.13700E-01-1.16392E-13-5.81752E-14
 -1      2979 2.00283E+01-4.96747E-02-2.61253E-04 1.21329E-01-1.39051E-13 3.37889E-15
 -1      2980 2.00021E+01-2.99333E-02-2.58224E-04 1.08794E-01-1.14231E-13-1.02231E-13
 -1      2981 2.00052E+01-2.39755E-02 4.22444E-04 1.04667E-01-3.06266E-14-6.31866E-14
 -1      2982 2.00194E+01-3.73608E-02-2.10287E-04 1.10510E-01-1.39093E-13-4.53287E-14
 -1      2983 2.00020E+01-1.85991E-02-2.47452E-04 1.01833E-01-3.34563E-14-1.02028E-13
 -1      2984 2.00059E+01-1.31968E-02 4.02935E-04 9.96245E-02-8.34965E-14-1.35068E-13
 -1      2985 2.00130E+01-2.42996E-02-1.85763E-04 1.03349E-01-8.73764E-14-1.02277E-13
 -1      2986 2.00042E+01-8.75871E-03-1.98971E-04 9.89697E-02-5.37756E-14-1.51205E-13
 -1      2987 2.00089E+01-4.85159E-03 3.75444E-04 9.85005E-02-1.15835E-14-1.34652E-13
 -1      2988 2.00092E+01-1.23574E-02-1.94951E-04 1.00374E-01-6.94838E-14-1.49587E-13
 -1      2989 2.00092E+01-2.36024E-03-1.00787E-04 9.98782E-02 1.88361E-14-5.88564E-14
 -1      2990 2.00154E+01-1.16280E-03 3.32739E-04 1.00625E-01-1.04485E-14-3.19019E-14
 -1      2991 2.00085E+01-3.67008E-03-2.49675E-04 1.01623E-01 3.54659E-14-3.65797E-14
 -1      2992 2.00187E+01-1.94742E-03 6.75558E-05 1.03575E-01-4.07787E-14 2.61021E-14
 -1      2993 2.00271E+01-5.07778E-03 2.61553E-04 1.04572E-01 2.69942E-14 2.90033E-14
 -1      2994 2.00123E+01-9.68453E-04-3.67113E-04 1.06589E-01 3.54190E-14 4.95493E-14
 -1      2995 2.00351E+01-1.08884E-02 3.34708E-04 1.08198E-01 4.92506E-14 1.91454E-14
 -1      2996 2.00466E+01-2.04451E-02 1.40683E-04 1.07889E-01 3.73226E-14 3.79618E-15
 -1      2997 2.00230E+01-7.86803E-03-5.69503E-04 1.14049E-01 9.44441E-15 7.35682E-14
 -1      2998 2.00619E+01-3.34739E-02 7.35120E-04 1.10657E-01-1.84820E-14-4.54214E-14
 -1      2999 2.00781E+01-5.19929E-02-6.14086E-05 1.06715E-01-1.33286E-14-7.72447E-14
 -1      3000 2.00445E+01-2.90466E-02-8.81414E-04 1.21755E-01 1.27361E-14 6.24673E-14
 -1      3001 2.01040E+01-7.47326E-02 1.30206E-03 1.06179E-01 6.66302E-14-4.97203E-14
 -1      3002 2.01266E+01-1.04912E-01-3.88450E-04 9.53149E-02 4.48287E-14-2.46428E-14
 -1      3003 2.00821E+01-7.01614E-02-1.32251E-03 1.25959E-01 4.87322E-14 5.70311E-14
 -1      3004 2.01676E+01-1.39720E-01 2.05272E-03 8.77762E-02-1.87365E-14-1.95696E-14
 -1      3005 2.01984E+01-1.83749E-01-8.94583E-04 6.56196E-02 5.71538E-14 5.94835E-14
 -1      3006 2.01433E+01-1.37258E-01-1.89293E-03 1.20786E-01 1.71191E-14 7.37927E-14
 -1      3007 2.02593E+01-2.31944E-01 2.96094E-03 4.58033E-02 5.17949E-14 3.82247E-14
 -1      3008 2.02994E+01-2.90234E-01-1.63238E-03 6.99336E-03 4.85323E-14-2.61072E-14
 -1      3009 2.02369E+01-2.35300E-01-2.54774E-03 9.75045E-02 1.64755E-14 6.24063E-14
 -1      3010 2.03845E+01-3.50556E-01 3.91261E-03-3.20742E-02 7.25109E-14-6.60784E-14
 -1      3011 2.04336E+01-4.19720E-01-2.61552E-03-9.33230E-02 8.25314E-14-1.49880E-13
 -1      3012 2.03718E+01-3.65359E-01-3.15890E-03 4.39376E-02-2.27233E-14 1.29388E-14
 -1      3013 2.05442E+01-4.86083E-01 4.65242E-03-1.59803E-01 1.57589E-13-1.79339E-13
 -1      3014 2.05991E+01-5.56233E-01-3.73403E-03-2.48258E-01 2.22700E-13-1.24397E-13
 -1      3015 2.05546E+01-5.20060E-01-3.47007E-03-5.54173E-02 1.17653E-13-7.59677E-14
 -1      3016 2.07308E+01-6.15116E-01 4.74680E-03-3.49567E-01 2.20584E-13-2.53596E-13
 -1      3017 2.07839E+01-6.67279E-01-4.65458E-03-4.66161E-01 1.82997E-13-2.38050E-13
 -1      3018 2.07838E+01-6.77366E-01-3.06906E-03-2.17347E-01 1.83700E-13-2.11293E-13
 -1      3019 2.09221E+01-6.95997E-01 3.60641E-03-6.04752E-01 8.63275E-14-1.69978E-13
 -1      3020 2.09615E+01-7.01470E-01-4.71404E-03-7.42252E-01 2.87815E-15-1.77567E-13
 -1      3021 2.10442E+01-7.94553E-01-1.50050E-03-4.54048E-01 1.22212E-13-3.07456E-13
 -1      3022 2.10799E+01-6.69508E-01 7.84765E-04-9.08848E-01-3.28752E-14-2.39233E-13
 -1      3023 2.10909E+01-5.93941E-01-2.90844E-03-1.04674E+00-3.19372E-14-3.95161E-13
 -1      3024 2.13000E+01-8.06727E-01 1.51198E-03-7.62060E-01-2.02182E-14-3.59176E-13
 -1      3025 2.11528E+01-4.70509E-01-4.03242E-03-1.21065E+00 4.81776E-14-3.28224E-13
 -1      3026 2.11246E+01-2.88391E-01 1.11698E-03-1.31129E+00-2.06423E-14-2.18978E-13
 -1      3027 2.14936E+01-6.33839E-01 5.83966E-03-1.10547E+00 7.32189E-16-4.65029E-13
 -1      3028 2.11000E+01-6.16385E-02-9.50570E-03-1.41691E+00-1.10813E-13-2.12920E-13
 -1      3029 2.10333E+01 2.21024E-01 6.78206E-03-1.43143E+00-1.24964E-13-9.84737E-14
 -1      3030 2.15590E+01-2.20243E-01 8.40772E-03-1.39742E+00-1.34426E-14-3.24859E-13
 -1      3031 2.09209E+01 5.23449E-01-1.26714E-02-1.40891E+00-1.54746E-13 6.62654E-14
 -1      3032 2.08349E+01 8.46204E-01 1.09879E-02-1.29402E+00-1.24070E-13 7.27178E-14
 -1      3033 2.14610E+01 4.23555E-01 8.05438E-03-1.50609E+00-1.12587E-13-1.91590E-13
 -1      3034 2.06876E+01 1.13983E+00-1.06690E-02-1.09946E+00-1.53495E-13 6.54435E-14
 -1      3035 2.06144E+01 1.39880E+00 1.06064E-02-8.51893E-01-1.67105E-13 5.44558E-14
 -1      3036 2.12401E+01 1.15417E+00 2.35873E-03-1.30141E+00-1.51740E-13 3.67472E-14
 -1      3037 2.05097E+01 1.58130E+00-3.11737E-03-5.02044E-01-1.05894E-13 5.68006E-14
 -1      3038 2.04827E+01 1.66925E+00 4.08164E-03-1.67555E-01-4.78475E-14 1.39580E-13
 -1      3039 2.10151E+01 1.74749E+00-2.34597E-03-7.46747E-01-8.85686E-14 7.32237E-14
 -1      3040 2.04948E+01 1.65416E+00 6.48448E-03 2.38129E-01-7.30594E-14 7.09605E-14
 -1      3041 2.05241E+01 1.53271E+00-5.48606E-03 5.62799E-01-6.32119E-14 1.73765E-13
 -1      3042 2.09277E+01 1.94675E+00-6.50606E-03 3.99373E-02-1.02231E-13 7.28583E-14
 -1      3043 2.06434E+01 1.33113E+00 1.21745E-02 8.97106E-01-1.25205E-13 2.15030E-13
 -1      3044 2.07163E+01 1.05217E+00-1.19086E-02 1.12465E+00-3.10467E-14 9.57223E-14
 -1      3045 2.10417E+01 1.67509E+00-2.77124E-03 8.08213E-01-1.09185E-13-1.15755E-13
 -1      3046 2.08676E+01 7.48684E-01 1.09733E-02 1.29661E+00 1.04034E-13 3.93990E-14
 -1      3047 2.09518E+01 4.24305E-01-1.23700E-02 1.38692E+00 9.20984E-14-8.10069E-14
 -1      3048 2.12786E+01 1.04779E+00 4.52035E-03 1.31593E+00-1.98813E-14-1.67508E-13
 -1      3049 2.10539E+01 1.26719E-01 5.54415E-03 1.38751E+00 1.32647E-13 7.93860E-14
 -1      3050 2.11167E+01-1.42664E-01-8.23813E-03 1.35411E+00-2.62228E-14 1.94789E-13
 -1      3051 2.14920E+01 3.10972E-01 9.15408E-03 1.46759E+00 1.01465E-13 3.72240E-14
 -1      3052 2.11269E+01-3.58214E-01-3.44802E-04 1.23446E+00-1.19469E-13 2.72760E-13
 -1      3053 2.11509E+01-5.21817E-01-2.56117E-03 1.12315E+00-8.34715E-14 3.05318E-13
 -1      3054 2.15692E+01-3.07040E-01 8.63876E-03 1.31934E+00-1.10502E-14 2.75434E-13
 -1      3055 2.10762E+01-6.31960E-01-4.00906E-03 9.52404E-01-2.42869E-13 2.49006E-13
 -1      3056 2.10611E+01-6.89853E-01 2.03612E-03 8.11831E-01-1.00815E-13 5.79457E-14
 -1      3057 2.14835E+01-6.86290E-01 4.90978E-03 1.00703E+00-1.82940E-13 3.08659E-13
 -1      3058 2.09348E+01-7.09687E-01-5.15235E-03 6.43484E-01 7.14307E-14 3.17598E-14
 -1      3059 2.08918E+01-6.89683E-01 4.63046E-03 5.08893E-01 1.86189E-13 6.77608E-14
 -1      3060 2.12771E+01-8.23607E-01 8.57129E-04 6.58974E-01-1.65281E-14 2.41535E-13
 -1      3061 2.07490E+01-6.49792E-01-4.67816E-03 3.71546E-01 2.68091E-13-8.60372E-14
 -1      3062 2.06920E+01-5.85199E-01 5.48903E-03 2.61837E-01 2.42919E-13 7.79356E-14
 -1      3063 2.10148E+01-7.82120E-01-2.03069E-03 3.55249E-01 1.42072E-13 1.30580E-13
 -1      3064 2.05576E+01-5.16418E-01-3.75532E-03 1.65007E-01 3.65019E-14 1.08675E-13
 -1      3065 2.04986E+01-4.35511E-01 4.92185E-03 8.59809E-02-7.44185E-14 1.20894E-13
 -1      3066 2.07514E+01-6.38596E-01-3.23343E-03 1.29020E-01 9.39391E-14 3.81439E-14
 -1      3067 2.03907E+01-3.63569E-01-2.95304E-03 2.49291E-02-1.11448E-13-1.51517E-14
 -1      3068 2.03359E+01-2.82406E-01 4.09595E-03-2.33880E-02-1.00421E-13-1.33260E-13
 -1      3069 2.03468E+01-2.80422E-01 2.40977E-04-1.05116E-01-1.66401E-14-1.56274E-13
 -1      3070 2.05274E+01-4.57138E-01-1.43325E-03-1.93081E-02-1.81925E-13-3.22615E-14
 -1      3071 1.91561E+01 1.06511E+00 1.07684E-02 4.35369E-01-2.30746E-13-6.81867E-13
 -1      3072 1.91373E+01 1.06453E+00-1.13403E-02 6.77117E-01-2.40693E-13-6.66472E-13
 -1      3073 2.01842E+01 3.27119E-01-2.16790E-03 4.11324E-02 1.48958E-13-1.62733E-13
 -1      3074 2.02260E+01 4.37386E-01 5.09561E-03 1.30663E-01 1.46810E-13-1.60701E-13
 -1      3075 2.00332E+01-4.97332E-02 2.45987E-04-1.74359E-01 6.03669E-14-1.86311E-15
 -1      3076 2.00371E+01-4.18131E-02 4.84781E-04-1.78177E-01 9.23938E-14-2.80692E-14
 -1      3077 2.00748E+01-5.70537E-02-5.70693E-04-1.66073E-01 3.96326E-14 6.08685E-14
 -1      3078 2.00496E+01-3.04701E-02 7.33220E-05-1.79183E-01 9.23408E-14-7.79146E-14
 -1      3079 2.00578E+01-1.39587E-02 9.17209E-04-1.76768E-01 8.01348E-14-7.78657E-14
 -1      3080 2.00981E+01-3.71546E-02-7.10684E-04-1.70594E-01 6.03241E-14-4.26637E-14
 -1      3081 2.00146E+01-5.42532E-02 4.01629E-04-1.46583E-01 4.18361E-14 4.01830E-14
 -1      3082 2.00135E+01-5.62873E-02-3.42374E-05-1.54513E-01 2.38987E-14 2.49038E-14
 -1      3083 2.00564E+01-6.30728E-02-4.47233E-04-1.54616E-01 2.48598E-14 2.24505E-14
 -1      3084 2.00102E+01-4.60536E-02 4.33641E-04-1.31610E-01-8.12917E-15 6.03279E-14
 -1      3085 2.00078E+01-5.09665E-02-1.78425E-04-1.38968E-01 3.83439E-14 5.03546E-14
 -1      3086 2.00422E+01-5.94837E-02-3.39822E-04-1.40615E-01 4.72907E-14-1.02414E-14
 -1      3087 2.00080E+01-3.32476E-02 4.55250E-04-1.19396E-01 4.60628E-14 4.84523E-14
 -1      3088 2.00048E+01-4.03888E-02-2.82793E-04-1.25058E-01 2.48252E-14 2.86602E-14
 -1      3089 2.00311E+01-4.90532E-02-2.43770E-04-1.27195E-01 1.84096E-14 4.64588E-14
 -1      3090 2.00070E+01-1.64300E-02 4.51845E-04-1.11744E-01 1.78608E-14 2.94316E-14
 -1      3091 2.00033E+01-2.55894E-02-3.69747E-04-1.14818E-01 4.62188E-14 1.20670E-14
 -1      3092 2.00224E+01-3.33372E-02-1.50448E-04-1.16591E-01 6.76139E-14 5.60080E-15
 -1      3093 2.00063E+01 3.55970E-03 4.73838E-04-1.10059E-01-6.31282E-14 2.89881E-15
 -1      3094 2.00025E+01-7.28343E-03-4.59592E-04-1.09919E-01-3.69701E-14-7.88683E-15
 -1      3095 2.00149E+01-1.33642E-02-1.87665E-05-1.10524E-01 1.28030E-14-1.44382E-14
 -1      3096 2.00045E+01 2.99615E-02 5.22465E-04-1.15557E-01-2.36175E-14-3.61944E-14
 -1      3097 2.00009E+01 1.56218E-02-5.82435E-04-1.11286E-01-4.38819E-14-1.81013E-14
 -1      3098 2.00070E+01 1.15107E-02 7.72511E-05-1.09995E-01-2.58582E-14-7.16491E-14
 -1      3099 1.99994E+01 6.40625E-02 5.40331E-04-1.30062E-01 7.75389E-14 3.88790E-14
 -1      3100 1.99969E+01 4.54315E-02-7.66980E-04-1.20658E-01 3.19360E-14 3.37203E-14
 -1      3101 1.99965E+01 4.37528E-02 2.67754E-04-1.16231E-01-1.72471E-14-9.32477E-14
 -1      3102 1.99875E+01 1.09493E-01 5.27130E-04-1.55399E-01 8.29780E-14-8.01904E-15
 -1      3103 1.99876E+01 8.45531E-02-1.04321E-03-1.39647E-01 1.25843E-13 4.83393E-14
 -1      3104 1.99804E+01 8.54875E-02 5.63184E-04-1.30411E-01 1.00472E-13 5.15097E-14
 -1      3105 1.99629E+01 1.71659E-01 4.35697E-04-1.93700E-01-1.17595E-14 1.98558E-14
 -1      3106 1.99682E+01 1.37429E-01-1.46150E-03-1.70084E-01 4.68447E-14-6.49354E-15
 -1      3107 1.99538E+01 1.41009E-01 1.03641E-03-1.53468E-01 4.74769E-14 5.94201E-14
 -1      3108 1.99159E+01 2.58287E-01 1.76734E-04-2.47270E-01 4.90957E-14-1.34735E-13
 -1      3109 1.99311E+01 2.10560E-01-2.08609E-03-2.13991E-01-3.51974E-15-7.59514E-14
 -1      3110 1.99089E+01 2.16557E-01 1.79880E-03-1.85997E-01 5.97628E-14 4.19899E-15
 -1      3111 1.98305E+01 3.79936E-01-4.08068E-04-3.18126E-01 3.96886E-15-6.80230E-14
 -1      3112 1.98636E+01 3.13053E-01-3.00082E-03-2.73284E-01 1.08658E-14-1.18554E-13
 -1      3113 1.98333E+01 3.20755E-01 3.01893E-03-2.27715E-01 3.07344E-14-1.62975E-13
 -1      3114 1.96808E+01 5.50174E-01-1.58474E-03-4.06941E-01 5.33589E-14 1.36800E-13
 -1      3115 1.97453E+01 4.57036E-01-4.31265E-03-3.49035E-01 7.18628E-15 5.52648E-14
 -1      3116 1.97078E+01 4.64869E-01 4.94524E-03-2.76399E-01-4.49462E-14-7.34220E-14
 -1      3117 1.94263E+01 7.84587E-01-3.79684E-03-5.11085E-01 1.07812E-13 2.23923E-13
 -1      3118 1.95441E+01 6.57434E-01-6.15352E-03-4.40003E-01 1.68439E-13 2.25825E-13
 -1      3119 1.95027E+01 6.62411E-01 7.92744E-03-3.25978E-01 3.48891E-14 5.13846E-14
 -1      3120 1.90037E+01 1.09765E+00-7.44274E-03-6.21209E-01-6.83785E-15 2.16999E-13
 -1      3121 1.92102E+01 9.30408E-01-8.52061E-03-5.40138E-01 2.85995E-14 1.95598E-13
 -1      3122 1.91731E+01 9.26877E-01 1.23699E-02-3.63416E-01 7.46227E-14 1.85903E-13
 -1      3123 1.83625E+01 1.47053E+00-1.34884E-02-7.14028E-01-1.84859E-14 2.19451E-13
 -1      3124 1.86858E+01 1.27416E+00-1.24168E-02-6.34382E-01 1.11316E-14 2.18314E-13
 -1      3125 1.86701E+01 1.25829E+00 1.92739E-02-3.64799E-01-2.44707E-14 8.97678E-14
 -1      3126 1.73097E+01 1.91714E+00-2.07296E-02-7.69559E-01-7.67515E-14 1.08124E-13
 -1      3127 1.78587E+01 1.69121E+00-1.67265E-02-6.96207E-01 1.65323E-14 1.69336E-13
 -1      3128 1.78950E+01 1.65452E+00 2.89333E-02-2.96280E-01 1.39230E-14 1.20066E-13
 -1      3129 1.56820E+01 2.32577E+00-2.45431E-02-7.46260E-01-1.46662E-13 3.04270E-14
 -1      3130 1.65424E+01 2.13819E+00-2.15335E-02-6.96019E-01-1.21174E-13 4.60049E-14
 -1      3131 1.66895E+01 2.08628E+00 4.65338E-02-9.57879E-02-3.25731E-14 4.35190E-14
 -1      3132 1.31640E+01 2.43114E+00-1.80049E-02-6.47950E-01-8.42278E-14-8.15945E-14
 -1      3133 1.45200E+01 2.47696E+00-1.35038E-02-6.05635E-01-1.23429E-13-2.05495E-14
 -1      3134 1.48620E+01 2.42117E+00 7.75770E-02 3.12152E-01-1.18255E-13-5.44885E-14
 -1      3135 1.90575E+01 1.05514E+00 2.33784E-03 2.12897E-01-1.30308E-13-7.36841E-13
 -1      3136 2.00725E+01 7.28996E-03-2.06573E-04-1.69866E-01 9.18070E-14-9.59460E-14
 -1      3137 2.00867E+01 3.62267E-02 1.50676E-03-1.56851E-01 8.38347E-14-8.55894E-14
 -1      3138 2.01270E+01 2.85391E-03-8.61550E-04-1.62064E-01 8.61727E-14-1.26309E-13
 -1      3139 2.64483E+01 6.17391E+00-1.32436E-01-5.94271E-01-3.46237E-13 8.55323E-14
 -1      3140 2.67029E+01 5.71538E+00-8.01401E-02-1.36117E+00-3.10529E-13 1.23727E-13
 -1      3141 9.64106E+00 1.90091E+00 6.43547E-03 9.79223E-01-4.42623E-14-2.23391E-13
 -1      3142 1.20726E+01 2.34476E+00 9.50590E-02 8.42214E-03-7.24143E-14-1.41512E-13
 -1      3143 1.24638E+01 2.33438E+00 1.13321E-01 1.36504E+00-1.02907E-13-2.51049E-13
 -1      3144 1.02033E+01 1.23563E+00 1.41721E-01 3.40706E+00-6.16833E-14-3.58130E-13
 -1      3145 2.57203E+01-4.19666E+00 4.79211E-02-3.37045E+00 3.14977E-13 1.06359E-13
 -1      3146 2.72839E+01-3.55728E+00-1.21604E-01-1.61289E+00 1.71816E-13 2.77424E-13
 -1      3147 2.03277E+01-2.02709E-01 3.95815E-03-5.72112E-01-2.31836E-13 1.17117E-13
 -1      3148 2.02485E+01-1.38882E-01-6.22953E-04-6.48080E-01-3.06013E-13 1.18787E-13
 -1      3149 2.04238E+01-3.47974E-01-5.77376E-03-5.56737E-01-1.17493E-13 4.21564E-13
 -1      3150 2.01419E+01-3.10270E-02 7.15227E-03-7.34028E-01-2.06076E-13-3.43596E-14
 -1      3151 2.00022E+01 6.18306E-02-4.08002E-03-7.67374E-01-5.29122E-14 1.06038E-14
 -1      3152 2.02401E+01-2.07884E-01-6.15988E-03-7.74418E-01-1.48883E-13-7.62458E-14
 -1      3153 2.03782E+01-2.91296E-01 1.65766E-03-1.85020E-01-1.81029E-14-6.90741E-14
 -1      3154 2.03985E+01-2.87264E-01 2.82398E-03-2.71643E-01-7.87982E-14 3.08424E-13
 -1      3155 2.04891E+01-3.93666E-01-1.77604E-03-3.39400E-01-1.01463E-13 4.53174E-13
 -1      3156 2.04569E+01-3.85104E-01-2.68749E-03-1.59989E-01-7.67125E-14-9.21707E-15
 -1      3157 1.74361E+01 1.86196E+00-2.18933E-02 8.88213E-01-2.50962E-14-4.92604E-13
 -1      3158 1.67992E+01 2.08591E+00-1.63121E-02 9.70251E-01 8.38132E-15-4.30391E-13
 -1      3159 1.17736E+01 2.22131E+00 1.03039E-01 1.35603E+00-1.71342E-13-4.48898E-13
 -1      3160 9.80159E+00 1.92968E+00 7.91063E-02 8.95833E-01-2.24644E-13-4.78340E-13
 -1      3161 9.65703E+00 1.96900E+00 1.31805E-01-1.00077E+00-1.70256E-13-2.91211E-13
 -1      3162 2.01988E+01 1.89301E+00 1.83117E-03-1.00855E+00-2.02200E-13-3.43363E-13
 -1      3163 1.88393E+01-3.42268E+00 1.28749E-02 6.66431E+00 1.78191E-13-3.51753E-13
 -1      3164 1.60059E+01-1.97744E+00 1.07921E-01 6.45136E+00 1.52378E-14-3.03479E-13
 -1      3165 2.02285E+01 5.67129E-01-3.71994E-03 2.24186E-01 1.84367E-13-1.60587E-13
 -1      3166 2.02734E+01 7.32329E-01 4.71711E-03 3.59913E-01 2.20911E-13-1.39724E-13
 -1      3167 2.02714E+01 5.86364E-01-3.89161E-03 1.98439E-01 1.72875E-13-2.12837E-13
 -1      3168 1.58519E+01 2.27106E+00-2.42121E-02 8.91029E-01-8.32103E-14-3.69312E-13
 -1      3169 1.49462E+01 2.44431E+00 4.94600E-03 9.39180E-01-1.40876E-13-3.89267E-13
 -1      3170 1.60503E+01 2.24650E+00 5.83045E-02 1.50956E-01-6.87625E-14-4.11687E-13
 -1      3171 2.00418E+01 2.16657E+00-4.24174E-03 2.90965E-01 1.56235E-13-3.36883E-13
 -1      3172 2.00284E+01 2.20481E+00-3.38736E-03 1.69111E-01 1.09313E-13-3.70621E-13
 -1      3173 1.34508E+01-5.41616E-01 1.22086E-01-5.59153E+00 1.35798E-13 1.27232E-13
 -1      3174 1.63006E+01-2.13443E+00 4.35731E-02-6.41549E+00 2.24411E-13 4.91177E-13
 -1      3175 2.93568E+01 1.82427E+00-7.69043E-02 1.73008E+00-3.54272E-13-1.00864E-13
 -1      3176 2.85610E+01 3.89210E+00-1.38540E-01 2.04638E+00-5.19432E-13-2.97574E-13
 -1      3177 1.92148E+01 8.26479E-01 8.64065E-03-3.59408E-01 1.75237E-13-3.54499E-13
 -1      3178 1.91116E+01 8.88742E-01-8.42864E-03-1.91461E-01 3.81537E-14-5.20990E-13
 -1      3179 1.30455E+01-5.77038E-01 2.54906E-02 5.73021E+00-3.58255E-14-4.86958E-13
 -1      3180 1.12411E+01 5.04613E-01 1.24331E-01 4.53509E+00 3.26614E-14-5.21486E-13
 -1      3181 1.22810E+01 1.26004E+00 1.19787E-01 3.41260E+00-2.58769E-14-4.09499E-13
 -1      3182 9.88020E+00 1.47835E+00 1.16752E-01-2.44221E+00-5.94472E-14-2.52076E-13
 -1      3183 1.10721E+01 6.74931E-01 7.62787E-02-4.19716E+00 2.42584E-14-1.67671E-13
 -1      3184 2.78836E+01-5.41881E-01-9.21613E-02-1.14125E+00-5.15005E-14-1.94116E-14
 -1      3185 2.80281E+01-1.84642E+00-3.32781E-03-2.03914E-01 2.31794E-14 7.16927E-14
 -1      3186 2.74770E+01-2.94377E+00-8.83711E-02 9.33856E-01 1.53258E-13 1.76074E-14
 -1      3187 2.65305E+01-3.74908E+00 1.17076E-02 2.30476E+00 2.27413E-13-2.09902E-14
 -1      3188 2.69019E+01-2.44036E+00-1.98153E-02 2.44143E-01 1.44002E-13 4.87735E-14
 -1      3189 1.29626E+01 2.50290E+00 3.08419E-02 1.05732E+00-1.70516E-13-4.60465E-13
 -1      3190 2.82356E+01-1.83191E+00 3.46380E-02 1.67322E-01-1.06137E-13 5.62744E-14
 -1      3191 2.89785E+01-2.27186E-01-1.31533E-01 1.02284E+00-2.40474E-13-6.17562E-15
 -1      3192 2.77735E+01 4.56795E-01-5.11987E-02 1.64616E+00-2.86896E-13-2.78111E-13
 -1      3193 2.00221E+01 2.22344E+00-3.47857E-03 6.43792E-02 8.85135E-14-3.77125E-13
 -1      3194 2.00216E+01 2.22332E+00-3.71237E-03-6.01308E-02 4.47256E-14-3.85801E-13
 -1      3195 2.01350E+01 1.92754E+00 4.76472E-03 1.00267E-01 9.74636E-14-3.48764E-13
 -1      3196 2.02699E+01 1.31861E+00 1.17599E-03 8.36590E-01 2.89932E-13-1.16582E-13
 -1      3197 1.80637E+01 1.64880E+00-1.28990E-02 9.11219E-01-1.38291E-13-6.11942E-13
 -1      3198 1.75276E+01 1.85765E+00 4.60891E-02 3.93759E-01 6.00978E-14-4.27869E-13
 -1      3199 1.84581E+01 1.43528E+00-1.78864E-02 8.13772E-01-2.68505E-13-6.64014E-13
 -1      3200 2.76820E+01 4.71472E+00-1.23592E-01 1.92782E+00-5.14505E-13-1.81730E-13
 -1      3201 2.65287E+01 5.25058E+00-8.05625E-02 1.48453E+00-4.83807E-13-2.61284E-13
 -1      3202 2.70021E+01 3.29218E+00-3.89720E-02 2.03565E+00-5.15248E-13-1.30160E-13
 -1      3203 2.58069E+01 4.48897E+00-4.56304E-02-1.57540E+00-1.99174E-13-3.73798E-14
 -1      3204 2.68993E+01 4.58677E+00-1.58300E-01-1.88120E+00-3.07504E-13 1.89123E-13
 -1      3205 1.88869E+01 1.23197E+00-1.02593E-02 7.64846E-01-2.58747E-13-6.86301E-13
 -1      3206 2.02851E+01 1.15484E+00 6.96101E-03 6.58022E-01 2.79530E-13-1.41380E-13
 -1      3207 2.01724E+01 2.43751E-01 3.88376E-03-1.84778E-02 1.36695E-13-1.37491E-13
 -1      3208 2.02376E+01 3.39092E-01-3.73895E-03 3.22763E-02 1.27841E-13-1.96488E-13
 -1      3209 2.01404E+01 1.72775E-01-1.23420E-03-7.19223E-02 1.21918E-13-1.09195E-13
 -1      3210 1.32601E+01 2.45425E+00 8.35428E-02-6.36382E-02-1.57100E-13-2.46546E-13
 -1      3211 2.44486E+01-4.27078E+00 1.12619E-02-4.06005E+00 2.84529E-13 1.47074E-14
 -1      3212 2.50792E+01-3.74381E+00 7.43691E-03-2.70978E+00 3.63801E-13-1.61850E-15
 -1      3213 2.28879E+01-3.81626E+00 1.30885E-02-4.45920E+00 3.29479E-13 8.66390E-14
 -1      3214 1.93329E+01 6.37028E-01-1.11214E-02-5.55737E-01 3.49532E-13-5.27262E-13
 -1      3215 1.91030E+01 7.39674E-01-8.00675E-03-5.78507E-01 2.50237E-13-2.61712E-13
 -1      3216 1.95031E+01 5.34676E-01 9.06999E-03-6.70545E-01 3.93365E-13-1.38748E-13
 -1      3217 1.31655E+01 2.21205E-01 1.04628E-01-4.70310E+00-9.04832E-15-1.00593E-13
 -1      3218 1.51818E+01-2.34423E-01 2.24878E-02-4.76204E+00 6.42758E-14 1.47798E-15
 -1      3219 1.31183E+01 9.79954E-01 3.39447E-02-3.63473E+00-7.14394E-14-2.51479E-13
 -1      3220 2.62190E+01 6.16474E+00-1.14648E-01-1.42009E-01-2.81608E-13-3.33084E-14
 -1      3221 2.52596E+01 5.39507E+00-5.34434E-02-4.72323E-01-2.64073E-13 2.13002E-15
 -1      3222 2.59001E+01 5.95198E+00-8.29646E-02 4.13724E-01-3.25129E-13-9.33049E-14
 -1      3223 1.56916E+01-9.29010E-01 9.62999E-02 5.47840E+00 3.61031E-14-3.15852E-13
 -1      3224 2.01189E+01 1.94273E+00-2.47598E-03-5.85549E-01-8.59405E-14-3.49530E-13
 -1      3225 2.01583E+01 1.81188E+00-6.27039E-03-6.84145E-01-1.25677E-13-3.65118E-13
 -1      3226 2.01604E+01 7.11163E-02-1.11001E-03-1.32924E-01 8.08616E-14-1.30718E-13
 -1      3227 2.01025E+01 7.11391E-02-5.65452E-04-1.37756E-01 7.86939E-14-8.94973E-14
 -1      3228 2.01249E+01 1.16371E-01 2.56740E-03-1.08765E-01 1.06994E-13-8.46574E-14
 -1      3229 1.88296E+01 1.06778E+00-1.09048E-02 1.50721E-02-1.38187E-14-5.31399E-13
 -1      3230 1.99202E+01 4.36403E-02-5.04036E-03-8.95647E-01 1.62473E-15-9.34852E-14
 -1      3231 1.98475E+01 2.26506E-01 8.93838E-03-7.86943E-01 8.61481E-14 8.59014E-14
 -1      3232 1.96702E+01 3.36905E-01-7.78318E-03-7.50883E-01 2.46731E-13 8.09673E-14
 -1      3233 2.76521E+01 8.12706E-01-7.85581E-02-1.81859E+00-1.13957E-13 1.62828E-13
 -1      3234 2.68575E+01-2.86227E-01-5.01529E-02-1.37628E+00 6.92623E-14 2.00440E-13
 -1      3235 2.01566E+01 1.81057E+00-6.47486E-03 6.87889E-01 2.60728E-13-2.91324E-13
 -1      3236 2.01221E+01 1.93825E+00-2.15282E-03 5.89876E-01 2.40255E-13-3.03815E-13
 -1      3237 2.02428E+01 1.46774E+00 4.19272E-03 5.83413E-01 2.51646E-13-2.64333E-13
 -1      3238 2.02187E+01 1.54201E+00-2.66781E-03-7.87723E-01-1.84726E-13-3.06556E-13
 -1      3239 1.11656E+01 1.91318E+00 9.64879E-02-1.57732E+00-2.15582E-13-3.07712E-13
 -1      3240 2.54160E+01-4.09402E+00-2.91878E-02 3.15391E+00 1.69989E-13-1.09808E-15
 -1      3241 2.39360E+01-3.85200E+00 4.42130E-02 3.84655E+00 1.99805E-13 3.76279E-14
 -1      3242 2.55589E+01-3.46526E+00 1.37008E-02 1.98430E+00 2.32914E-13-3.26510E-14
 -1      3243 1.84526E+01-2.62446E+00 1.03194E-01-6.06590E+00 2.23207E-13 3.44134E-13
 -1      3244 2.03278E+01-3.06211E+00 7.14290E-04-5.30908E+00 2.10558E-13 3.25191E-13
 -1      3245 1.75053E+01-1.65467E+00 3.17866E-02-5.43955E+00 1.30687E-13 2.55327E-13
 -1      3246 2.08535E+01-3.41580E+00 7.14188E-02 5.55398E+00 1.92055E-13-2.66565E-13
 -1      3247 2.02650E+01 9.92706E-01-1.18665E-03 5.28625E-01 2.49669E-13-1.53122E-13
 -1      3248 2.00857E+01 2.03053E+00-6.22255E-03 5.02721E-01 2.29647E-13-3.01698E-13
 -1      3249 2.00611E+01 2.11161E+00-3.27473E-03 3.90226E-01 1.89032E-13-3.05861E-13
 -1      3250 2.01585E+01 1.85508E+00 5.85820E-03 2.90980E-01 1.66801E-13-2.90158E-13
 -1      3251 2.02020E+01 1.70065E+00 6.07791E-03 4.63555E-01 2.21306E-13-2.81548E-13
 -1      3252 2.02794E+01 1.02117E+00-2.35771E-04 4.65341E-01 2.32839E-13-2.19830E-13
 -1      3253 2.02213E+01 1.55774E+00 1.36851E-03-6.83045E-01-1.46704E-13-2.98041E-13
 -1      3254 2.70992E+01-2.61432E+00-3.15925E-02-5.24698E-01-1.08481E-14 1.11376E-13
 -1      3255 2.00613E+01 2.11472E+00-2.82176E-03-3.85031E-01-2.01465E-14-3.88497E-13
 -1      3256 2.00858E+01 2.03633E+00-5.14304E-03-5.00170E-01-6.22345E-14-3.74535E-13
 -1      3257 2.01954E+01 1.70378E+00 4.18792E-03-4.52451E-01-8.08413E-14-3.30719E-13
 -1      3258 2.75211E+01 2.38112E+00-4.62934E-02-1.99554E+00-2.87076E-13 1.18482E-13
 -1      3259 2.62998E+01 2.44265E+00-1.64326E-02-2.11360E+00-1.17559E-13 3.45165E-13
 -1      3260 2.87143E+01 3.38807E+00-7.22212E-02-1.89633E+00-2.93127E-13 4.92939E-14
 -1      3261 2.00681E+01-6.28230E-02 3.98836E-04-1.28943E-01 5.46357E-14-6.28006E-15
 -1      3262 2.00744E+01-6.66650E-02 1.82291E-05-1.35358E-01 3.73902E-14-2.95747E-14
 -1      3263 2.46456E+01 4.41499E+00-9.41017E-02-1.18593E+00-1.53461E-13-1.27410E-13
 -1      3264 2.50010E+01 3.63864E+00-3.72139E-02-1.76047E+00-3.57284E-14-4.42354E-14
 -1      3265 1.84991E+01 1.45122E+00 3.31251E-02 4.68907E-01-1.66057E-13-6.07327E-13
 -1      3266 2.03165E+01 6.79043E-01 1.87605E-03-2.01585E-01-1.08818E-13-2.14093E-13
 -1      3267 2.02985E+01 5.26391E-01-2.70091E-03-1.08885E-01-9.89699E-14-1.84950E-13
 -1      3268 2.03003E+01 4.01143E-01 2.34153E-03-4.58224E-02-7.73329E-14-1.45397E-13
 -1      3269 2.02761E+01 2.95847E-01-1.93660E-03 1.49905E-02-4.29179E-14-1.18880E-13
 -1      3270 2.03339E+01 5.29066E-01 2.97726E-04-8.66179E-02-5.48853E-14-1.77709E-13
 -1      3271 2.02664E+01 2.12121E-01 1.98161E-03 5.55586E-02-4.37057E-14-1.26698E-13
 -1      3272 2.02424E+01 1.41962E-01-1.13941E-03 9.21817E-02-6.17790E-14-1.40517E-13
 -1      3273 2.03150E+01 2.96099E-01-1.14817E-04 2.01843E-02-5.18646E-14-1.92652E-13
 -1      3274 2.02267E+01 8.73739E-02 1.47137E-03 1.15185E-01-7.53519E-14-8.98528E-14
 -1      3275 2.02056E+01 4.25077E-02-5.51141E-04 1.34401E-01-5.96534E-14-7.33940E-14
 -1      3276 2.02818E+01 1.38626E-01-4.26842E-04 8.68160E-02-2.80110E-14-1.55539E-13
 -1      3277 2.01874E+01 8.59542E-03 1.01283E-03 1.44870E-01-5.16609E-14-4.51229E-14
 -1      3278 2.01698E+01-1.82967E-02-1.48914E-04 1.52280E-01-6.33992E-14-3.41830E-14
 -1      3279 2.02430E+01 3.67804E-02-5.58641E-04 1.23194E-01-3.98684E-14-7.27296E-14
 -1      3280 2.01513E+01-3.76420E-02 6.38758E-04 1.54439E-01-6.77520E-14-1.71399E-14
 -1      3281 2.01371E+01-5.19170E-02 1.11130E-04 1.54393E-01-3.30586E-14 4.69925E-15
 -1      3282 2.02036E+01-2.51226E-02-5.90270E-04 1.38370E-01-5.86092E-14-4.26077E-14
 -1      3283 2.01197E+01-6.11426E-02 3.54224E-04 1.51541E-01-6.85243E-14-1.52613E-14
 -1      3284 2.01085E+01-6.67181E-02 2.68783E-04 1.47261E-01-5.89785E-14-3.65263E-14
 -1      3285 2.01665E+01-5.87442E-02-5.60744E-04 1.39839E-01-5.54326E-14-7.36943E-14
 -1      3286 2.00927E+01-6.90452E-02 1.45313E-04 1.41841E-01-4.20571E-14-7.25778E-14
 -1      3287 2.00840E+01-6.87613E-02 3.56767E-04 1.35638E-01-2.55538E-14-8.64896E-14
 -1      3288 2.01329E+01-7.27355E-02-4.99834E-04 1.33343E-01-5.72666E-14-8.13140E-14
 -1      3289 2.00700E+01-6.65180E-02-3.72927E-06 1.29405E-01-3.41531E-14-9.72907E-14
 -1      3290 2.00634E+01-6.24314E-02 4.00435E-04 1.22896E-01-1.30612E-13-1.11994E-13
 -1      3291 2.01035E+01-7.34176E-02-4.26089E-04 1.23110E-01-4.69544E-14-1.49430E-13
 -1      3292 2.00511E+01-5.73118E-02-1.07049E-04 1.17086E-01-1.67549E-13-8.96149E-14
 -1      3293 2.00462E+01-5.09332E-02 4.18715E-04 1.11365E-01-1.40660E-13-1.13646E-13
 -1      3294 2.00781E+01-6.53919E-02-3.51234E-04 1.12176E-01-1.25107E-13-2.08018E-13
 -1      3295 2.00357E+01-4.42084E-02-1.75058E-04 1.06834E-01-1.59917E-13-6.74844E-14
 -1      3296 2.00322E+01-3.67051E-02 4.25964E-04 1.02615E-01-1.32579E-13-9.15942E-14
 -1      3297 2.00563E+01-5.20473E-02-2.84805E-04 1.02681E-01-1.46414E-13-1.36651E-13
 -1      3298 2.00232E+01-2.94121E-02-2.12957E-04 9.99554E-02-9.79856E-14-7.94083E-14
 -1      3299 2.00210E+01-2.17974E-02 4.33072E-04 9.76658E-02-8.28193E-14-7.70759E-14
 -1      3300 2.00379E+01-3.60006E-02-2.36104E-04 9.61303E-02-9.87102E-14-4.43031E-14
 -1      3301 2.00136E+01-1.49187E-02-2.19840E-04 9.72822E-02-6.29241E-14-7.08624E-14
 -1      3302 2.00129E+01-8.23716E-03 4.48203E-04 9.71122E-02-2.39413E-14-3.66349E-14
 -1      3303 2.00226E+01-1.95074E-02-2.16667E-04 9.35919E-02-7.14367E-14 1.38351E-14
 -1      3304 2.00073E+01-2.88046E-03-1.87451E-04 9.92659E-02 4.72565E-14 4.22865E-14
 -1      3305 2.00085E+01 1.60378E-03 4.76880E-04 1.01176E-01 6.93056E-14 4.77281E-14
 -1      3306 2.00106E+01-4.86765E-03-2.42546E-04 9.58278E-02 5.10043E-14 8.17828E-14
 -1      3307 2.00056E+01 4.02403E-03-9.84660E-05 1.05982E-01 3.52823E-14 3.95131E-14
 -1      3308 2.00096E+01 4.63925E-03 5.20976E-04 1.09657E-01 3.89185E-14 7.77320E-14
 -1      3309 2.00028E+01 5.16210E-03-3.36535E-04 1.03352E-01 9.01698E-14 5.68973E-14
 -1      3310 2.00108E+01 2.22991E-03 7.55435E-05 1.17022E-01 4.47994E-14 7.93177E-14
 -1      3311 2.00192E+01-3.27233E-03 5.75870E-04 1.21768E-01 9.48396E-15 9.69656E-14
 -1      3312 2.00014E+01 6.95264E-03-5.29951E-04 1.16391E-01 5.19285E-14 1.02448E-13
 -1      3313 2.00270E+01-1.30134E-02 3.75880E-04 1.31248E-01-8.85147E-15 1.10078E-13
 -1      3314 2.00418E+01-2.75606E-02 6.25029E-04 1.35807E-01 6.75499E-14 1.16118E-13
 -1      3315 2.00098E+01-4.38072E-03-8.63037E-04 1.34706E-01 4.33894E-14 1.89141E-13
 -1      3316 2.00599E+01-4.77647E-02 8.56838E-04 1.46340E-01 5.73400E-14 5.84988E-14
 -1      3317 2.00843E+01-7.49062E-02 6.31067E-04 1.48621E-01 3.87132E-14 8.10381E-14
 -1      3318 2.00340E+01-3.52313E-02-1.38205E-03 1.57211E-01 5.61609E-14 1.98472E-13
 -1      3319 2.01183E+01-1.09122E-01 1.58033E-03 1.58090E-01-3.98878E-14-7.46007E-15
 -1      3320 2.01560E+01-1.52652E-01 5.23634E-04 1.54808E-01-8.22871E-14-4.11726E-14
 -1      3321 2.00826E+01-9.34287E-02-2.13001E-03 1.81292E-01-6.49925E-14 2.40569E-14
 -1      3322 2.02129E+01-2.04208E-01 2.60030E-03 1.59404E-01-6.42614E-14 2.12006E-14
 -1      3323 2.02681E+01-2.67222E-01 1.88345E-04 1.45668E-01-1.64700E-14-1.86254E-14
 -1      3324 2.01673E+01-1.87495E-01-3.12625E-03 2.01706E-01-7.82898E-14-3.16556E-14
 -1      3325 2.03562E+01-3.37889E-01 3.92720E-03 1.39077E-01-4.96055E-15-3.37424E-14
 -1      3326 2.04323E+01-4.20945E-01-5.32799E-04 1.08085E-01-2.98616E-14-5.59196E-15
 -1      3327 2.03029E+01-3.24682E-01-4.32581E-03 2.09035E-01-7.00842E-14-4.45192E-14
 -1      3328 2.05599E+01-5.08581E-01 5.45124E-03 8.06884E-02 2.58877E-14-1.87243E-14
 -1      3329 2.06578E+01-6.06595E-01-1.79526E-03 2.39073E-02 1.28109E-13-8.60434E-14
 -1      3330 2.05056E+01-5.06978E-01-5.55200E-03 1.87803E-01-6.24956E-15-3.59949E-14
 -1      3331 2.08297E+01-7.01543E-01 6.83604E-03-3.73332E-02 1.04000E-13-1.33467E-13
 -1      3332 2.09451E+01-7.99305E-01-3.57234E-03-1.28743E-01 1.69628E-13-2.10276E-13
 -1      3333 2.07887E+01-7.24188E-01-6.39898E-03 1.15022E-01 1.46194E-13-4.20674E-14
 -1      3334 2.11566E+01-8.79919E-01 7.39273E-03-2.38040E-01 1.46441E-13-2.35366E-13
 -1      3335 2.12776E+01-9.47510E-01-5.43077E-03-3.69307E-01 3.29182E-14-2.98753E-13
 -1      3336 2.11551E+01-9.43421E-01-6.11253E-03-3.87312E-02 1.07672E-13-2.38536E-13
 -1      3337 2.15081E+01-9.77250E-01 6.06023E-03-5.35096E-01-1.25487E-14-3.22946E-13
 -1      3338 2.16135E+01-9.69281E-01-6.47797E-03-7.00623E-01-2.40726E-14-3.54836E-13
 -1      3339 2.15839E+01-1.09809E+00-3.85208E-03-3.00664E-01 9.38919E-15-2.72728E-13
 -1      3340 2.18231E+01-8.99026E-01 2.20684E-03-9.16735E-01-1.69981E-14-3.81371E-13
 -1      3341 2.18858E+01-7.57861E-01-4.20944E-03-1.09143E+00-2.70322E-14-2.68225E-13
 -1      3342 2.20228E+01-1.09031E+00 1.57002E-04-6.79737E-01 5.95233E-14-1.68944E-13
 -1      3343 2.20065E+01-5.36109E-01-6.23655E-03-1.31042E+00 3.88925E-15-2.83268E-13
 -1      3344 2.20064E+01-2.26844E-01 2.94052E-04-1.43588E+00-1.10450E-14-2.39305E-13
 -1      3345 2.23757E+01-7.72308E-01 9.52451E-03-1.13473E+00 2.64568E-14-1.88108E-13
 -1      3346 2.19944E+01 1.54145E-01-1.55853E-02-1.57278E+00-3.54932E-14-2.49265E-13
 -1      3347 2.19346E+01 6.15055E-01 1.01465E-02-1.57611E+00-7.33181E-15-1.86087E-13
 -1      3348 2.25265E+01-8.73667E-02 1.13033E-02-1.52558E+00 4.45416E-14-3.24635E-13
 -1      3349 2.17813E+01 1.08212E+00-2.25134E-02-1.49989E+00-8.11273E-14-6.69824E-14
 -1      3350 2.17038E+01 1.55247E+00 1.34336E-02-1.31848E+00-1.37940E-13-6.77973E-15
 -1      3351 2.24177E+01 9.71997E-01 1.59188E-02-1.64518E+00 9.60863E-15-1.53954E-13
 -1      3352 2.15316E+01 1.94096E+00-1.60716E-02-1.01566E+00-1.10932E-13 7.60627E-14
 -1      3353 2.14721E+01 2.25790E+00 1.29707E-02-6.72893E-01-7.18543E-14 1.16504E-13
 -1      3354 2.21504E+01 1.92539E+00-4.50218E-03-1.26983E+00-3.76149E-14 7.08760E-14
 -1      3355 2.13712E+01 2.39347E+00-1.01275E-02-1.46582E-01-1.90328E-13 7.63105E-15
 -1      3356 2.13998E+01 2.36577E+00-4.96130E-03 2.61767E-01-2.22544E-13-1.57278E-13
 -1      3357 2.19175E+01 2.72406E+00 5.87284E-03-4.69485E-01-2.25449E-13-1.22175E-13
 -1      3358 2.14939E+01 2.18303E+00 1.14183E-02 7.37813E-01-1.93576E-13-1.53725E-13
 -1      3359 2.15629E+01 1.84285E+00-1.62369E-02 1.07261E+00-7.90265E-14-1.94153E-13
 -1      3360 2.19651E+01 2.61188E+00-5.66979E-04 5.53274E-01-1.88996E-13-1.45002E-13
 -1      3361 2.17479E+01 1.42196E+00 1.49986E-02 1.35167E+00-2.53246E-14-2.46312E-13
 -1      3362 2.18320E+01 9.37368E-01-1.95730E-02 1.50663E+00 3.86054E-14-2.43531E-13
 -1      3363 2.21983E+01 1.85419E+00 3.46739E-03 1.33421E+00-8.98759E-14-1.42966E-13
 -1      3364 2.19686E+01 4.68181E-01 8.96374E-03 1.53689E+00 1.77738E-13-1.88662E-13
 -1      3365 2.20216E+01 2.45373E-02-1.42737E-02 1.51063E+00 1.78677E-13-1.08740E-13
 -1      3366 2.24639E+01 7.73351E-01 1.21496E-02 1.61761E+00 1.84790E-13-2.24775E-13
 -1      3367 2.20199E+01-3.37723E-01 2.05351E-04 1.35543E+00 8.06305E-14-7.40398E-14
 -1      3368 2.20111E+01-6.25524E-01-5.10866E-03 1.21503E+00 1.28025E-14 3.41596E-14
 -1      3369 2.25425E+01-2.20537E-01 1.21615E-02 1.44540E+00 1.02221E-13-3.20171E-13
 -1      3370 2.18754E+01-8.22742E-01-5.18782E-03 9.87708E-01-2.06498E-13 5.36846E-14
 -1      3371 2.18054E+01-9.40686E-01 2.38314E-03 8.09282E-01-2.19724E-13 4.49733E-14
 -1      3372 2.23645E+01-8.62424E-01 6.74068E-03 1.02512E+00-4.85102E-15-2.99804E-13
 -1      3373 2.15930E+01-9.92177E-01-6.52590E-03 5.95106E-01-5.35542E-16 1.11405E-13
 -1      3374 2.14836E+01-9.82673E-01 6.41541E-03 4.30270E-01 9.89443E-14 1.49746E-13
 -1      3375 2.19998E+01-1.12001E+00 6.16950E-04 5.69088E-01-7.65324E-14-1.07865E-13
 -1      3376 2.12532E+01-9.37112E-01-5.46063E-03 2.68369E-01 1.40888E-14 1.59813E-13
 -1      3377 2.11306E+01-8.55018E-01 7.52281E-03 1.41246E-01 1.24557E-13 6.50933E-14
 -1      3378 2.15602E+01-1.09358E+00-4.07945E-03 1.96591E-01 4.58984E-14-9.49436E-15
 -1      3379 2.09210E+01-7.59216E-01-3.25167E-03 3.78619E-02 8.74283E-14 1.40469E-13
 -1      3380 2.08044E+01-6.49289E-01 6.84619E-03-4.37222E-02-6.37176E-14 1.58959E-14
 -1      3381 2.11337E+01-9.05715E-01-6.45567E-03-5.57748E-02 7.23920E-14-1.68547E-14
 -1      3382 2.06659E+01-5.70386E-01-2.45453E-03-8.84993E-02-1.20257E-13-2.87792E-14
 -1      3383 2.05653E+01-4.66802E-01 2.52417E-03-1.41930E-01-1.36642E-13-8.43882E-14
 -1      3384 2.05851E+01-4.85784E-01-1.23261E-03-2.32640E-01-1.10203E-13 1.29813E-13
 -1      3385 2.08182E+01-6.94582E-01-6.05652E-03-1.82437E-01-9.68928E-14 6.45366E-14
 -1      3386 2.00288E+01 2.20625E+00-3.06860E-03-1.64432E-01 1.52197E-14-3.95265E-13
 -1      3387 2.00409E+01 2.16846E+00-4.28557E-03-2.86690E-01-8.88063E-15-3.84087E-13
 -1      3388 2.01552E+01 1.85475E+00 4.34303E-03-2.83605E-01-1.83344E-14-3.71304E-13
 -1      3389 2.00883E+01-6.82364E-02 3.46032E-04-1.41544E-01 1.16140E-14-2.94920E-15
 -1      3390 2.00968E+01-6.73818E-02 1.94868E-04-1.47369E-01 3.52685E-14 1.01247E-14
 -1      3391 2.01101E+01-7.30494E-02-4.44971E-04-1.29195E-01 3.10016E-14-5.22405E-15
 -1      3392 2.01409E+01-4.44041E-02 5.59291E-05-1.57344E-01 5.75736E-15-4.22755E-14
 -1      3393 2.01553E+01-2.71572E-02 7.47092E-04-1.55640E-01 1.81255E-14-1.02672E-13
 -1      3394 2.00510E+01-5.01603E-02 4.16620E-04-1.17216E-01 6.33822E-14-6.20317E-14
 -1      3395 2.00557E+01-5.74209E-02-1.16108E-04-1.22892E-01 7.88718E-14-8.10544E-15
 -1      3396 2.00846E+01-6.56028E-02-3.49098E-04-1.18184E-01 7.58400E-14-4.39999E-14
 -1      3397 2.00361E+01-3.18329E-02 3.91780E-04-1.08291E-01 6.03224E-14-7.50880E-14
 -1      3398 2.00399E+01-4.18398E-02-2.26973E-04-1.12269E-01 5.48432E-14-6.63557E-14
 -1      3399 2.00623E+01-5.03636E-02-2.40652E-04-1.08099E-01 9.41056E-14-7.08342E-14
 -1      3400 2.00227E+01-9.59015E-03 3.62438E-04-1.03657E-01-2.05942E-15-1.08821E-13
 -1      3401 2.00259E+01-2.15419E-02-3.26993E-04-1.05244E-01 5.08524E-14-5.87788E-14
 -1      3402 2.00425E+01-2.94851E-02-9.63257E-05-1.00705E-01 4.05387E-14-1.16820E-13
 -1      3403 2.00077E+01 1.94133E-02 3.25169E-04-1.03789E-01 6.63144E-15-1.31249E-13
 -1      3404 2.00117E+01 3.87882E-03-4.42333E-04-1.02530E-01 4.25502E-15-7.85520E-14
 -1      3405 2.00230E+01-3.07906E-03 3.64313E-05-9.67523E-02 1.81232E-14-1.59093E-13
 -1      3406 1.99889E+01 5.57260E-02 2.24516E-04-1.09741E-01-7.14649E-14-6.93100E-14
 -1      3407 1.99949E+01 3.62377E-02-5.89682E-04-1.05056E-01-7.34484E-14-1.23088E-13
 -1      3408 2.00012E+01 3.04690E-02 2.48082E-04-9.67936E-02-3.90210E-14-7.38921E-14
 -1      3409 1.99623E+01 1.02158E-01 4.42310E-05-1.21881E-01 4.02930E-14 7.18901E-14
 -1      3410 1.99723E+01 7.71623E-02-7.83596E-04-1.13400E-01 2.15485E-14-2.74840E-14
 -1      3411 1.99743E+01 7.23407E-02 5.47262E-04-1.01072E-01-9.49551E-14-1.09635E-13
 -1      3412 1.99217E+01 1.62955E-01-2.76216E-04-1.40036E-01 9.79618E-14 9.25450E-14
 -1      3413 1.99390E+01 1.30153E-01-1.04706E-03-1.27587E-01 8.00846E-14 1.05410E-13
 -1      3414 1.99376E+01 1.25576E-01 9.86664E-04-1.08975E-01 7.10622E-14 6.13288E-15
 -1      3415 1.98577E+01 2.44059E-01-8.38405E-04-1.63039E-01 1.29631E-13-6.12063E-14
 -1      3416 1.98875E+01 2.00294E-01-1.40209E-03-1.46866E-01 1.47031E-13 3.62458E-14
 -1      3417 1.98840E+01 1.94589E-01 1.64214E-03-1.18784E-01 1.56125E-13-4.13049E-14
 -1      3418 1.97558E+01 3.53286E-01-1.80525E-03-1.87829E-01-1.35867E-14-8.65198E-14
 -1      3419 1.98064E+01 2.94499E-01-1.86707E-03-1.69052E-01 5.96472E-14-1.19451E-13
 -1      3420 1.98035E+01 2.85262E-01 2.62079E-03-1.26908E-01 1.36405E-13-1.83974E-14
 -1      3421 1.95941E+01 5.00123E-01-3.42945E-03-2.07907E-01-3.84513E-14-8.95718E-14
 -1      3422 1.96784E+01 4.21558E-01-2.44923E-03-1.89342E-01-5.71250E-14-8.93302E-14
 -1      3423 1.96809E+01 4.04794E-01 4.06762E-03-1.26569E-01-4.54756E-14-2.03489E-14
 -1      3424 1.93403E+01 6.94577E-01-6.09300E-03-2.10814E-01-5.60851E-14 8.51628E-14
 -1      3425 1.94779E+01 5.91583E-01-3.13069E-03-1.98337E-01-6.09161E-14-4.69583E-14
 -1      3426 1.94945E+01 5.60902E-01 6.16541E-03-1.05715E-01-9.75539E-14 5.55960E-14
 -1      3427 1.89474E+01 9.44655E-01-9.97517E-03-1.74059E-01 6.77146E-14 1.82363E-14
 -1      3428 1.91678E+01 8.14355E-01-3.74665E-03-1.79026E-01 8.81657E-14 4.82484E-14
 -1      3429 1.92139E+01 7.59590E-01 9.07871E-03-4.37938E-02 1.19602E-14-3.11067E-14
 -1      3430 1.83838E+01 1.23135E+00-1.62787E-02-6.95671E-02-1.84585E-15-2.40887E-14
 -1      3431 1.87087E+01 1.08524E+00-4.76500E-03-1.06138E-01 1.29365E-14 1.43721E-14
 -1      3432 1.88104E+01 9.94016E-01 1.29527E-02 8.77884E-02 7.41550E-14-2.76666E-14
 -1      3433 1.75044E+01 1.56180E+00-2.53915E-02 1.67651E-01-6.01953E-14 7.15584E-15
 -1      3434 1.80275E+01 1.40168E+00-4.93053E-03 6.62342E-02 2.82847E-15 9.36241E-15
 -1      3435 1.82257E+01 1.25657E+00 1.84240E-02 3.37590E-01-2.80840E-14-7.57339E-14
 -1      3436 1.62092E+01 1.85921E+00-3.34141E-02 6.12965E-01-1.97325E-14-9.36170E-14
 -1      3437 1.69996E+01 1.73306E+00-3.86149E-03 4.09644E-01-1.41916E-14-9.01798E-14
 -1      3438 1.73723E+01 1.51082E+00 2.62325E-02 7.91278E-01-4.06633E-14-1.36888E-13
 -1      3439 1.43458E+01 1.98197E+00-2.00172E-02 1.37817E+00-7.77815E-14-2.15192E-13
 -1      3440 1.55103E+01 1.97415E+00 6.76607E-03 1.00853E+00-4.53504E-14-1.80319E-13
 -1      3441 1.61666E+01 1.64412E+00 3.29637E-02 1.55201E+00 6.58232E-14-1.44823E-13
 -1      3442 2.01734E+01-4.37957E-03-2.37188E-04-1.51370E-01 3.98586E-14-1.37683E-13
 -1      3443 2.01915E+01 2.67332E-02 1.13450E-03-1.41061E-01 5.51066E-14-1.77086E-13
 -1      3444 2.02098E+01-1.09289E-02-6.20434E-04-1.38489E-01-2.01589E-15-1.63693E-13
 -1      3445 2.52040E+01 2.75455E+00-8.54061E-02-1.91360E+00 1.22125E-15-8.85570E-14
 -1      3446 2.56316E+01 1.74602E+00 2.31898E-02-2.04541E+00-3.73070E-14 5.69579E-14
 -1      3447 2.44220E+01 3.03282E+00 3.67348E-02-1.77390E+00-5.86337E-15-1.40328E-13
 -1      3448 1.26621E+01 1.58344E+00 4.27169E-03 2.72842E+00-3.71569E-14-4.01512E-13
 -1      3449 1.38680E+01 1.92965E+00 5.90348E-02 1.85340E+00-4.28949E-14-3.17840E-13
 -1      3450 1.48498E+01 1.48861E+00 3.66228E-02 2.58773E+00 3.23864E-14-4.02596E-13
 -1      3451 1.36766E+01 8.64390E-01 1.83762E-02 3.86752E+00 3.42348E-14-4.29025E-13
 -1      3452 2.05987E+01-4.98608E-01-8.38778E-05-5.27948E-01-1.32750E-15 5.71106E-13
 -1      3453 2.05421E+01-4.50774E-01 2.04877E-03-6.52288E-01-1.51177E-14 3.43382E-13
 -1      3454 1.74349E+01-1.51347E+00-3.06389E-02 5.30563E+00 1.63855E-13-1.19578E-13
 -1      3455 1.51045E+01 3.90766E-02 5.53584E-02 4.56282E+00 9.93511E-14-2.03861E-13
 -1      3456 2.04408E+01-3.78927E-01 7.03767E-03-8.14931E-01-6.22818E-14-1.44607E-14
 -1      3457 2.02858E+01-2.92037E-01-2.23853E-03-9.15118E-01 7.94379E-15-1.16576E-13
 -1      3458 2.05838E+01-5.70232E-01-8.64523E-03-7.95452E-01 7.59371E-14 1.94395E-13
 -1      3459 2.68629E+01-7.86431E-02-1.90576E-02 1.48380E+00-2.36301E-13-1.20130E-13
 -1      3460 2.69493E+01 1.30617E+00-1.19689E-01 2.00085E+00-3.78444E-13-1.95247E-13
 -1      3461 2.61514E+01-1.93016E+00-5.31990E-02-3.87650E-01 1.41710E-13 1.81058E-13
 -1      3462 2.59359E+01-2.65340E+00 9.11869E-03 5.47709E-01 2.23250E-13 6.17180E-14
 -1      3463 2.03111E+01 8.69094E-01 5.15547E-03 2.96279E-01 1.96244E-13-2.53708E-13
 -1      3464 2.02923E+01 1.12568E+00-2.03910E-03 4.44220E-01 2.31415E-13-2.53682E-13
 -1      3465 2.02694E+01 1.26110E+00-2.34545E-03 4.08268E-01 2.20931E-13-2.57939E-13
 -1      3466 2.02579E+01 1.34307E+00 1.54076E-03-5.22912E-01-1.18978E-13-3.09703E-13
 -1      3467 2.01125E+01-6.35593E-02 2.40657E-04-1.52292E-01 3.91531E-14-9.89973E-15
 -1      3468 2.01237E+01-5.59870E-02 4.33490E-04-1.55658E-01 3.69067E-14-6.93551E-18
 -1      3469 2.01394E+01-6.97891E-02-5.27166E-04-1.38742E-01 3.49234E-14-6.81484E-14
 -1      3470 2.02982E+01 1.07503E+00-3.86637E-04-4.15988E-01-1.07223E-13-2.92658E-13
 -1      3471 2.02977E+01 8.62455E-01-3.10760E-03-2.86260E-01-1.10497E-13-2.63246E-13
 -1      3472 2.03259E+01 8.65040E-01 1.44592E-03-2.37612E-01-7.34112E-14-2.33400E-13
 -1      3473 2.02643E+01 1.33103E+00 2.13810E-03-4.27384E-01-9.58457E-14-3.03696E-13
 -1      3474 2.02994E+01 6.91403E-01-1.13083E-03 1.98604E-01 1.61263E-13-2.36818E-13
 -1      3475 1.63864E+01 1.85820E+00-2.60876E-02-4.22997E-01-1.35270E-13-2.88886E-13
 -1      3476 1.55189E+01 2.00738E+00-2.20900E-02-6.45866E-01 1.06269E-14-2.65568E-13
 -1      3477 1.86783E+01 1.04689E+00 2.64428E-02-5.55329E-01 1.27700E-13-1.86162E-13
 -1      3478 1.84778E+01 1.17397E+00-1.36181E-02-1.21413E-01-1.12347E-14-3.83751E-13
 -1      3479 1.80543E+01 1.33708E+00-1.82767E-02-1.78234E-01-3.18244E-14-2.87372E-13
 -1      3480 2.21090E+01-3.65699E+00-3.18103E-02 4.77748E+00 2.10356E-13-7.25791E-14
 -1      3481 1.99469E+01-2.63367E+00 5.45474E-02 5.19112E+00 1.55358E-13-1.60474E-13
 -1      3482 2.30559E+01-3.30876E+00 3.65217E-02 3.62426E+00 1.96041E-13 1.19314E-14
 -1      3483 2.58399E+01 1.60832E-02-7.99162E-02-1.69567E+00 4.18762E-15 1.98327E-13
 -1      3484 2.62656E+01-1.00653E+00 1.03106E-02-1.13606E+00 1.16178E-13 1.04829E-13
 -1      3485 2.54397E+01-1.50514E+00-4.31545E-03-7.25197E-01 2.09011E-13 1.50269E-13
 -1      3486 2.61433E+01-3.06124E+00 9.81612E-03-1.05740E+00 1.76921E-13 1.11711E-13
 -1      3487 2.66321E+01-1.91923E+00-6.01267E-02 4.10102E-01-1.21174E-13-1.10807E-13
 -1      3488 2.62176E+01 2.45013E+00-2.72339E-02 2.06218E+00-3.89716E-13-1.89251E-13
 -1      3489 1.91440E+01-1.67788E+00 5.33362E-02 4.60105E+00 2.59185E-13-1.22301E-13
 -1      3490 1.89094E+01 7.44045E-01-3.48536E-03-7.96583E-01 2.06736E-13 2.74679E-14
 -1      3491 1.85802E+01 7.71015E-01-1.88212E-02-1.02929E+00 2.38458E-13 1.14985E-13
 -1      3492 1.91488E+01 5.80969E-01 1.58870E-02-9.89568E-01 4.07690E-13 7.34591E-14
 -1      3493 2.01985E+01 1.76257E-01-2.45156E-03-7.31070E-02 1.03762E-13-1.57185E-13
 -1      3494 2.17576E+01-3.25164E+00 4.78115E-02-4.62604E+00 2.76799E-13 2.32640E-13
 -1      3495 2.27658E+01-3.20556E+00 8.52565E-03-3.58389E+00 2.40166E-13-9.42042E-15
 -1      3496 2.04262E+01-2.47607E+00-2.67348E-04-4.50423E+00 1.29542E-13 1.48260E-13
 -1      3497 2.01728E+01-5.12714E-02-5.88299E-04-1.43418E-01-7.78726E-15-8.66628E-14
 -1      3498 2.02484E+01 5.94690E-02-5.18174E-04-1.17853E-01 5.76323E-14-1.79194E-13
 -1      3499 2.02089E+01 6.38945E-02-7.31315E-04-1.27566E-01 8.62355E-14-1.93195E-13
 -1      3500 2.02318E+01 1.12445E-01 2.06182E-03-1.05013E-01 6.61286E-14-1.68679E-13
 -1      3501 2.01344E+01 1.92791E+00 4.53123E-03-9.50466E-02 3.05272E-14-3.63362E-13
 -1      3502 1.95041E+01 3.79648E-01-6.11804E-03-8.46119E-01 2.85147E-13-1.17163E-13
 -1      3503 1.27444E+01 1.76651E+00 1.04411E-01-2.54634E+00-1.91232E-13-4.95069E-13
 -1      3504 1.42368E+01 1.20908E+00 2.83743E-02-2.97363E+00-1.50946E-13-3.76987E-13
 -1      3505 2.55580E+01 5.20586E+00-9.68631E-02 1.01392E+00-4.37851E-13-1.04613E-13
 -1      3506 2.46534E+01 4.97089E+00-2.36547E-02 5.85816E-01-2.98546E-13-2.94695E-14
 -1      3507 2.51447E+01 4.21481E+00-4.82999E-02 1.48415E+00-4.60611E-13-9.82967E-14
 -1      3508 1.56850E+01 4.62244E-01 7.09933E-02 3.84082E+00 1.64427E-13-2.29839E-13
 -1      3509 2.03192E+01 5.25374E-01 5.50300E-03 1.08292E-01 1.27365E-13-2.11199E-13
 -1      3510 2.03296E+01 7.60809E-01-3.60595E-03 1.87842E-01 1.63045E-13-2.19767E-13
 -1      3511 2.02443E+01-3.64365E-01-8.48515E-03-1.09754E+00 7.71231E-14-2.37321E-13
 -1      3512 2.00920E+01-1.25960E-01 1.15812E-02-1.03084E+00 3.67459E-14-2.87297E-13
 -1      3513 1.98576E+01 1.16642E-02-2.64540E-03-1.05762E+00 2.75065E-13-3.99827E-13
 -1      3514 2.06024E+01-4.78401E-01 3.93603E-03-3.28861E-01-4.36176E-14 4.16035E-13
 -1      3515 2.02281E+01 1.55277E+00-9.76064E-04 2.83979E-01 1.79461E-13-2.40695E-13
 -1      3516 2.02088E+01 1.61070E+00-2.31002E-03 2.01109E-01 1.27109E-13-2.72519E-13
 -1      3517 2.64479E+01-1.15100E+00-1.89786E-02 1.09293E+00-1.21960E-13-1.54484E-13
 -1      3518 2.58158E+01-1.54484E-01 7.07966E-03 1.57581E+00-2.31972E-13-1.70445E-13
 -1      3519 2.56042E+01-1.81129E+00-2.85062E-02 4.70702E-01-1.00644E-13-1.98549E-13
 -1      3520 2.49323E+01-2.46893E+00 9.45257E-03 4.99854E-01 2.96901E-13 1.69015E-13
 -1      3521 2.53342E+01-3.05107E+00-3.32546E-02 1.23070E+00 2.69881E-13-7.55472E-16
 -1      3522 2.45221E+01-3.11421E+00 2.40933E-02 1.89009E+00 2.23201E-13 7.75567E-14
 -1      3523 2.07257E+01-6.07365E-01 1.87057E-03-4.15943E-01-7.38209E-14 4.42074E-13
 -1      3524 2.45050E+01 4.69487E+00-3.77514E-02-9.21702E-01-2.47746E-13 1.48492E-14
 -1      3525 2.38393E+01 3.98242E+00 1.83032E-02-1.06021E+00-1.25872E-13 1.90004E-13
 -1      3526 2.42258E+01 4.75665E+00-5.75274E-02-4.19097E-01-2.59293E-13-8.74656E-14
 -1      3527 2.02509E+01 1.40572E+00-3.32134E-03-3.77410E-01-7.26879E-14-2.95364E-13
 -1      3528 2.03026E+01 1.15449E+00 1.25556E-03-2.83201E-01-6.19005E-14-2.74365E-13
 -1      3529 2.02363E+01 1.50238E+00 2.25100E-04-3.10112E-01-4.38453E-14-3.31855E-13
 -1      3530 1.67467E+01-7.75571E-01 9.63158E-02-4.96788E+00 1.97065E-14 1.84491E-13
 -1      3531 1.82389E+01-1.47066E+00-2.02918E-03-4.75626E+00 5.23713E-14 1.50562E-13
 -1      3532 1.60777E+01-1.31417E-01 3.89906E-03-4.27232E+00-4.41834E-14 1.35836E-13
 -1      3533 1.51658E+01 1.85030E+00 5.51446E-02-1.57805E+00-1.36109E-13-4.21862E-13
 -1      3534 1.43319E+01 2.16456E+00 6.66407E-04-9.48424E-01-7.01939E-14-4.57655E-13
 -1      3535 1.23682E+01 2.14371E+00 4.59866E-02-1.18648E+00-3.43125E-13-4.40495E-13
 -1      3536 2.50800E+01 6.53737E-01-3.17455E-02-1.78634E+00-1.51641E-14 2.69368E-14
 -1      3537 2.43388E+01-3.32963E+00-1.03092E-02-2.30929E+00 3.96017E-13 2.62693E-13
 -1      3538 2.54267E+01-3.39131E+00-1.52801E-02-1.71910E+00 3.74252E-13 3.03198E-13
 -1      3539 2.53060E+01-2.68906E+00 1.15232E-02-6.76956E-01 1.97007E-13-3.12623E-14
 -1      3540 1.75987E+01 1.48704E+00-2.77434E-02-2.38422E-01-2.14958E-14-2.37520E-13
 -1      3541 1.70222E+01 1.67058E+00-2.21577E-02-3.73903E-01-4.83424E-15-2.04288E-13
 -1      3542 1.69164E+01 1.60134E+00 4.85724E-02-1.07956E+00-1.05627E-13-2.01665E-13
 -1      3543 1.79482E+01 1.28029E+00 3.97912E-02-8.64802E-01 5.21447E-14-1.21925E-14
 -1      3544 2.02938E+01 4.06291E-01-7.71297E-04 4.16421E-02 1.16458E-13-2.08190E-13
 -1      3545 2.02009E+01 1.64497E+00-2.97778E-03 1.29892E-01 1.08886E-13-3.29704E-13
 -1      3546 2.01958E+01 1.66230E+00-3.15215E-03 3.85584E-02 8.16051E-14-3.46634E-13
 -1      3547 2.02828E+01 1.38864E+00 4.23830E-03 1.32684E-01 1.13852E-13-2.69134E-13
 -1      3548 2.02136E+01 1.60613E+00-9.78917E-04-1.63247E-01 1.49615E-14-3.43649E-13
 -1      3549 2.02228E+01 1.55045E+00-3.54946E-03-2.46481E-01-1.02824E-14-3.45889E-13
 -1      3550 2.02962E+01 1.29094E+00 2.87386E-03-1.85468E-01-1.79724E-14-3.09420E-13
 -1      3551 2.00724E+01-4.89025E-02 3.32474E-04-9.46367E-02 7.83886E-14-6.97165E-14
 -1      3552 2.00829E+01-5.86541E-02-6.70465E-05-9.86666E-02 1.51696E-13-2.22000E-14
 -1      3553 1.56423E+01 7.70657E-01 2.91503E-03 3.27750E+00 1.63285E-13-2.48219E-13
 -1      3554 1.62240E+01 9.98859E-01 3.90126E-02 2.70315E+00 1.44964E-13-1.28513E-13
 -1      3555 1.69050E+01-1.35647E-01-2.53152E-02 3.90947E+00 2.20825E-13-1.28529E-13
 -1      3556 2.03576E+01 3.77182E-01 1.33679E-03-1.06790E-02-6.21497E-14-1.76429E-13
 -1      3557 2.03406E+01 2.74064E-01-1.56398E-03 3.26949E-02-5.46980E-14-1.86048E-13
 -1      3558 2.03314E+01 1.91045E-01 1.23685E-03 5.85615E-02-2.51130E-14-1.82568E-13
 -1      3559 2.03103E+01 1.21933E-01-9.11982E-04 8.46639E-02-1.91783E-15-1.45993E-13
 -1      3560 2.03665E+01 2.62562E-01 1.72361E-04 3.29573E-02-3.12025E-14-1.33191E-13
 -1      3561 2.02937E+01 6.76953E-02 9.78363E-04 9.86788E-02 1.19014E-15-1.45864E-13
 -1      3562 2.02719E+01 2.37801E-02-4.25258E-04 1.12100E-01-2.80068E-14-1.20242E-13
 -1      3563 2.03349E+01 1.11787E-01-1.35059E-04 7.48864E-02 1.35519E-14-1.74596E-13
 -1      3564 2.02516E+01-9.40818E-03 7.08979E-04 1.17735E-01-7.03137E-14-8.00107E-14
 -1      3565 2.02310E+01-3.50868E-02-8.26895E-05 1.22548E-01-5.85608E-14-1.02341E-13
 -1      3566 2.02940E+01 1.48143E-02-3.71008E-04 9.67103E-02-2.83868E-14-1.43529E-13
 -1      3567 2.02096E+01-5.32809E-02 4.79589E-04 1.22756E-01-5.21612E-14-1.07141E-13
 -1      3568 2.01910E+01-6.60687E-02 1.40485E-04 1.22182E-01-5.74817E-14-1.14275E-13
 -1      3569 2.02501E+01-4.26694E-02-4.80606E-04 1.04755E-01-6.58337E-14-1.52616E-13
 -1      3570 2.01702E+01-7.37884E-02 2.90941E-04 1.19239E-01-8.43767E-14-1.11520E-13
 -1      3571 2.01540E+01-7.76531E-02 2.75234E-04 1.15706E-01-4.90338E-14-1.00781E-13
 -1      3572 2.02069E+01-7.20327E-02-5.04874E-04 1.04053E-01-5.63396E-14-1.28006E-13
 -1      3573 2.01345E+01-7.82204E-02 1.40971E-04 1.11334E-01-3.04625E-14-1.16564E-13
 -1      3574 2.01207E+01-7.60744E-02 3.49873E-04 1.06620E-01-7.04402E-14-1.60867E-13
 -1      3575 2.01665E+01-8.18143E-02-4.79947E-04 9.85185E-02-4.99598E-14-1.61229E-13
 -1      3576 2.01030E+01-7.19193E-02 2.33413E-05 1.02081E-01-1.04142E-13-1.70910E-13
 -1      3577 2.00913E+01-6.58893E-02 3.87456E-04 9.74582E-02-1.45831E-13-1.78455E-13
 -1      3578 2.01298E+01-7.83050E-02-4.24000E-04 9.11033E-02-1.00898E-13-1.66733E-13
 -1      3579 2.00754E+01-5.87917E-02-6.96938E-05 9.36825E-02-1.09701E-13-1.27483E-13
 -1      3580 2.00656E+01-5.04514E-02 4.07459E-04 9.00558E-02-6.78392E-14-6.80537E-14
 -1      3581 2.00971E+01-6.61248E-02-3.54891E-04 8.39919E-02-8.05228E-14-1.29414E-13
 -1      3582 2.00513E+01-4.17666E-02-1.43219E-04 8.77544E-02-6.46299E-14-4.51276E-14
 -1      3583 2.00433E+01-3.23565E-02 4.26607E-04 8.57777E-02-7.82880E-14 2.10407E-15
 -1      3584 2.00681E+01-4.86891E-02-2.86768E-04 7.88421E-02-3.44468E-14-7.47160E-14
 -1      3585 2.00306E+01-2.32255E-02-1.98898E-04 8.55450E-02-9.59607E-14 2.18590E-14
 -1      3586 2.00242E+01-1.38658E-02 4.60010E-04 8.57056E-02-4.38335E-14 3.11811E-14
 -1      3587 2.00424E+01-2.86729E-02-2.33625E-04 7.70008E-02-6.71020E-14 3.51780E-15
 -1      3588 2.00131E+01-5.42438E-03-2.33481E-04 8.81004E-02 2.89076E-14 3.25723E-14
 -1      3589 2.00087E+01 2.66920E-03 5.22120E-04 9.07747E-02 1.22794E-13 6.46153E-14
 -1      3590 2.00199E+01-8.46055E-03-2.12294E-04 7.96911E-02 1.19154E-14 5.09584E-14
 -1      3591 1.99994E+01 9.07492E-03-2.36595E-04 9.63768E-02 1.45047E-13 4.30013E-14
 -1      3592 1.99978E+01 1.43638E-02 6.26877E-04 1.01848E-01 1.07083E-13 3.07345E-14
 -1      3593 2.00007E+01 9.39481E-03-2.45557E-04 8.81639E-02 1.22564E-13-2.57538E-14
 -1      3594 1.99913E+01 1.69514E-02-1.87468E-04 1.11279E-01 9.39347E-14 1.27382E-13
 -1      3595 1.99938E+01 1.73363E-02 7.85948E-04 1.19702E-01 1.10665E-13 1.80028E-13
 -1      3596 1.99861E+01 2.16818E-02-3.65666E-04 1.03800E-01 1.38396E-13 1.02658E-14
 -1      3597 1.99920E+01 1.36625E-02-5.03968E-05 1.33584E-01 7.87968E-14 1.93385E-13
 -1      3598 2.00009E+01 6.25447E-03 1.00399E-03 1.44876E-01 9.05704E-14 3.00357E-13
 -1      3599 1.99785E+01 2.40076E-02-6.17823E-04 1.28122E-01 1.52298E-13 1.46629E-13
 -1      3600 2.00069E+01-6.97168E-03 2.31084E-04 1.63674E-01-2.37399E-14 2.77019E-13
 -1      3601 2.00259E+01-2.60189E-02 1.26911E-03 1.77278E-01-7.64711E-15 1.90466E-13
 -1      3602 1.99827E+01 1.02706E-02-1.06287E-03 1.62647E-01 2.75107E-14 1.96591E-13
 -1      3603 2.00449E+01-5.30040E-02 7.40377E-04 2.00953E-01-7.38471E-14 1.09945E-13
 -1      3604 2.00787E+01-8.84874E-02 1.53557E-03 2.15417E-01-1.56752E-13 2.88812E-14
 -1      3605 2.00065E+01-2.77757E-02-1.77668E-03 2.08432E-01-9.81325E-14 1.42173E-13
 -1      3606 2.01183E+01-1.34144E-01 1.58711E-03 2.42768E-01-1.08175E-13 3.80156E-14
 -1      3607 2.01734E+01-1.91416E-01 1.69735E-03 2.55085E-01-3.76248E-14 6.20368E-14
 -1      3608 2.00618E+01-1.00638E-01-2.84289E-03 2.65119E-01-1.29064E-13 1.13176E-14
 -1      3609 2.02440E+01-2.60599E-01 2.89906E-03 2.82636E-01-8.03686E-14 6.81220E-14
 -1      3610 2.03277E+01-3.44434E-01 1.55874E-03 2.87309E-01-6.80245E-14-4.51044E-15
 -1      3611 2.01655E+01-2.20449E-01-4.33645E-03 3.29181E-01-2.93222E-14 6.03847E-14
 -1      3612 2.04426E+01-4.40206E-01 4.78328E-03 3.07648E-01-1.97916E-14 2.47172E-14
 -1      3613 2.05614E+01-5.52348E-01 8.10082E-04 2.95604E-01 3.90064E-14 5.96669E-15
 -1      3614 2.03401E+01-3.98744E-01-6.25071E-03 3.91071E-01 4.30794E-15 1.02235E-13
 -1      3615 2.07354E+01-6.72637E-01 7.19556E-03 2.95294E-01 4.55915E-14 4.45859E-14
 -1      3616 2.08924E+01-8.07228E-01-9.48884E-04 2.53174E-01 1.29179E-13 1.56148E-14
 -1      3617 2.06123E+01-6.41359E-01-8.41656E-03 4.31139E-01-1.33069E-14-1.51693E-14
 -1      3618 2.11372E+01-9.39147E-01 9.76161E-03 2.10893E-01 1.10421E-13-9.95511E-14
 -1      3619 2.13269E+01-1.07526E+00-4.03454E-03 1.22191E-01 9.41891E-14-1.74144E-13
 -1      3620 2.10084E+01-9.38563E-01-1.03545E-02 4.14964E-01 3.43359E-14 1.02438E-13
 -1      3621 2.16416E+01-1.18589E+00 1.14541E-02 9.67941E-03 4.17666E-14-1.81231E-13
 -1      3622 2.18483E+01-1.27710E+00-6.48679E-03-1.39309E-01 3.09030E-14-1.95967E-13
 -1      3623 2.15432E+01-1.24662E+00-1.06193E-02 2.90648E-01 5.64550E-14-5.40256E-14
 -1      3624 2.21959E+01-1.30809E+00 9.41341E-03-3.37676E-01 1.20017E-13-2.39038E-13
 -1      3625 2.23834E+01-1.28918E+00-1.12086E-02-5.40613E-01 1.43764E-13-1.87355E-13
 -1      3626 2.21787E+01-1.46105E+00-1.15275E-02-8.05897E-03 9.54922E-14-2.34235E-13
 -1      3627 2.27406E+01-1.17081E+00 8.20019E-03-8.47486E-01 8.59725E-14-2.36723E-13
 -1      3628 2.28473E+01-9.30258E-01-7.18877E-03-1.08607E+00 5.00685E-14-2.18936E-13
 -1      3629 2.28880E+01-1.45517E+00-1.17019E-02-4.86951E-01 8.09268E-14-3.53548E-13
 -1      3630 2.30418E+01-5.50751E-01-9.52874E-03-1.39369E+00 2.14615E-14-2.60579E-13
 -1      3631 2.30620E+01-5.95195E-02-4.29622E-03-1.55893E+00 3.98067E-14-2.40926E-13
 -1      3632 2.34497E+01-9.30385E-01 8.54236E-03-1.12393E+00 1.49578E-14-2.49415E-13
 -1      3633 2.30907E+01 2.43576E+00-2.51935E-02-1.53763E+00-1.23590E-14-5.34455E-14
 -1      3634 2.29369E+01 3.05567E+00-9.99226E-03-1.15434E+00-6.57269E-14-7.86081E-14
 -1      3635 2.28664E+01 3.36665E+00-1.00643E-02-6.11348E-01-1.89499E-13 2.25930E-14
 -1      3636 2.24613E+01 3.31473E+00 7.02951E-03 4.12319E-01-1.99887E-13 1.60757E-14
 -1      3637 2.25366E+01 2.95582E+00-2.36852E-02 8.82064E-01-1.75169E-13-2.59736E-14
 -1      3638 2.27369E+01 2.43098E+00 1.02460E-02 1.34433E+00-1.81535E-13-8.61516E-14
 -1      3639 2.28332E+01 1.75551E+00-3.79445E-02 1.59776E+00-1.20300E-13-9.68375E-14
 -1      3640 2.33024E+01 3.01103E+00-1.11139E-02 1.24308E+00-2.45549E-13-4.85202E-15
 -1      3641 2.30327E+01 1.05967E+00 1.16808E-02 1.70331E+00 6.59082E-14-2.17283E-13
 -1      3642 2.31006E+01 3.60267E-01-2.34416E-02 1.69206E+00 1.28577E-13-2.27502E-13
 -1      3643 2.36280E+01 1.58587E+00 1.75905E-02 1.80868E+00-1.45058E-13-3.31610E-14
 -1      3644 2.30798E+01-2.30475E-01-3.29822E-03 1.47298E+00 9.52459E-14-4.48932E-13
 -1      3645 2.30555E+01-6.99112E-01-7.21819E-03 1.28730E+00 4.26761E-14-5.12074E-13
 -1      3646 2.37375E+01-8.13029E-03 1.48230E-02 1.59948E+00 6.81768E-15-3.93154E-13
 -1      3647 2.28265E+01-1.03298E+00-9.97665E-03 9.60598E-01 1.15898E-13-4.84677E-13
 -1      3648 2.26984E+01-1.23148E+00 4.58491E-03 7.22844E-01 9.15401E-14-3.91085E-13
 -1      3649 2.34315E+01-1.05608E+00 6.40120E-03 9.97750E-01 5.34602E-14-5.33204E-13
 -1      3650 2.23614E+01-1.33007E+00-9.70994E-03 4.36660E-01-5.71353E-15-1.49650E-13
 -1      3651 2.21718E+01-1.33080E+00 1.03944E-02 2.28578E-01 1.13910E-13-2.51114E-14
 -1      3652 2.28435E+01-1.47935E+00 8.21393E-04 3.66605E-01 2.09010E-13-3.31396E-13
 -1      3653 2.18200E+01-1.27653E+00-7.47705E-03 3.59189E-02 8.52451E-14 1.83107E-13
 -1      3654 2.16157E+01-1.16628E+00 1.10223E-02-1.09942E-01 1.05434E-13 6.57550E-14
 -1      3655 2.21544E+01-1.46941E+00-9.24173E-03-1.08628E-01 2.31257E-13 1.32515E-14
 -1      3656 2.13134E+01-1.04293E+00-4.36475E-03-2.11241E-01 9.60724E-14 1.86356E-13
 -1      3657 2.11321E+01-8.93300E-01 1.05347E-02-3.01142E-01 4.77166E-14 3.07519E-13
 -1      3658 2.15300E+01-1.20361E+00-6.59988E-03-3.73289E-01 1.36320E-13 2.46102E-13
 -1      3659 2.08512E+01-7.16218E-01-4.41861E-04-3.91983E-01-9.02533E-15 3.35944E-13
 -1      3660 2.00484E+01-2.63661E-02 2.80113E-04-8.86218E-02 2.93763E-14-9.58723E-14
 -1      3661 2.00577E+01-3.84552E-02-1.64268E-04-9.11954E-02 3.22028E-14-4.48340E-14
 -1      3662 2.00762E+01-4.70442E-02-2.05028E-04-8.19174E-02 3.70198E-14-1.66167E-14
 -1      3663 2.01292E+01-7.62211E-02 3.27790E-04-1.12721E-01 7.82196E-15-7.74062E-14
 -1      3664 2.01431E+01-7.73348E-02 1.78252E-04-1.17255E-01 4.03766E-14-6.57526E-14
 -1      3665 2.00993E+01-6.64700E-02 3.55027E-04-1.03155E-01 1.02510E-13-8.66901E-14
 -1      3666 2.01113E+01-7.25409E-02 4.36067E-05-1.07926E-01 3.16711E-14-1.14765E-13
 -1      3667 2.01398E+01-7.86887E-02-4.23414E-04-9.69399E-02 4.99987E-14-1.54130E-13
 -1      3668 2.01062E+01-6.66006E-02-3.27729E-04-8.89350E-02 6.14908E-14-1.19734E-13
 -1      3669 2.00230E+01 3.10716E-03 1.97901E-04-8.51157E-02 6.27068E-15-7.77604E-14
 -1      3670 2.00332E+01-1.25414E-02-2.59844E-04-8.61102E-02 2.60922E-14-7.15429E-14
 -1      3671 2.00476E+01-2.11614E-02-5.65039E-05-7.64936E-02 2.54302E-14-3.30433E-14
 -1      3672 1.99950E+01 3.91521E-02 4.50585E-05-8.45926E-02-7.77718E-14 1.68805E-14
 -1      3673 2.00068E+01 2.00884E-02-3.60073E-04-8.37387E-02-2.54475E-14-4.49960E-14
 -1      3674 2.00177E+01 1.15360E-02 1.41065E-04-7.27258E-02-4.04880E-14-1.03376E-14
 -1      3675 1.99604E+01 8.34263E-02-1.99851E-04-8.64688E-02-4.74848E-14-7.14481E-14
 -1      3676 1.99762E+01 6.00108E-02-4.68944E-04-8.39798E-02-6.66982E-14-2.63011E-14
 -1      3677 1.99845E+01 5.11285E-02 4.01105E-04-7.03003E-02-4.49513E-14-3.68845E-14
 -1      3678 1.99142E+01 1.38640E-01-5.91509E-04-8.91617E-02 1.00974E-13-1.26882E-13
 -1      3679 1.99369E+01 1.09429E-01-5.86522E-04-8.57410E-02 2.87930E-14-1.00320E-13
 -1      3680 1.99440E+01 9.92028E-02 7.53365E-04-6.77716E-02-1.72659E-15-2.12943E-13
 -1      3681 1.98487E+01 2.08541E-01-1.21565E-03-8.95104E-02 1.88437E-13-4.83041E-14
 -1      3682 1.98829E+01 1.71605E-01-7.04173E-04-8.66615E-02 1.72549E-13-5.56824E-14
 -1      3683 1.98910E+01 1.58191E-01 1.23849E-03-6.22946E-02 8.47471E-14-2.00113E-13
 -1      3684 1.97532E+01 2.97764E-01-2.20028E-03-8.17928E-02 5.82913E-14 2.99823E-14
 -1      3685 1.98056E+01 2.50814E-01-7.96464E-04-8.23568E-02 1.28384E-13 1.55124E-14
 -1      3686 1.98183E+01 2.31176E-01 1.90777E-03-4.88545E-02 1.19691E-13-5.89630E-14
 -1      3687 1.96125E+01 4.11296E-01-3.72865E-03-5.61678E-02-9.50345E-14 5.81993E-14
 -1      3688 1.96928E+01 3.52045E-01-8.08345E-04-6.51936E-02 1.52867E-14 5.11205E-14
 -1      3689 1.97160E+01 3.21427E-01 2.81907E-03-1.90684E-02 3.53739E-14-5.61909E-15
 -1      3690 1.94057E+01 5.53106E-01-6.04573E-03 3.66335E-03-4.37895E-14 6.75483E-14
 -1      3691 1.95280E+01 4.80136E-01-6.35411E-04-2.24146E-02-8.40237E-14 1.11424E-13
 -1      3692 1.95712E+01 4.31332E-01 4.02431E-03 4.05880E-02-8.58468E-14-1.16530E-14
 -1      3693 1.91057E+01 7.23713E-01-9.09538E-03 1.24053E-01 7.44247E-14-9.70179E-15
 -1      3694 1.92891E+01 6.37837E-01-4.88566E-05 6.65248E-02 3.75676E-14 9.48709E-15
 -1      3695 1.93676E+01 5.60173E-01 5.50547E-03 1.51289E-01 1.22765E-14-1.71474E-14
 -1      3696 1.87014E+01 9.03042E-01-1.38305E-02 3.30280E-01-1.27113E-14 7.39719E-14
 -1      3697 1.89571E+01 8.16406E-01 8.80183E-04 2.28011E-01 2.48188E-14 2.79482E-14
 -1      3698 1.90945E+01 6.95725E-01 6.89992E-03 3.38515E-01 1.79264E-14 5.54448E-14
 -1      3699 1.81133E+01 1.08274E+00-2.04531E-02 7.00511E-01-1.84914E-14 2.58181E-15
 -1      3700 1.84988E+01 1.00403E+00 3.33309E-03 5.09317E-01 3.53135E-14 4.32087E-14
 -1      3701 1.87296E+01 8.23462E-01 8.94664E-03 6.48155E-01 3.11189E-14 8.62351E-14
 -1      3702 1.73255E+01 1.19465E+00-2.41416E-02 1.31060E+00 7.29469E-14-1.70164E-13
 -1      3703 1.78618E+01 1.16348E+00 7.52640E-03 9.85700E-01-2.23530E-15-1.33316E-13
 -1      3704 1.82460E+01 8.98224E-01 1.00213E-02 1.15452E+00 9.65664E-14-8.64618E-14
 -1      3705 1.64066E+01 1.14109E+00-1.51135E-02 2.18834E+00 9.38869E-14-1.77401E-13
 -1      3706 1.71214E+01 1.19951E+00 1.71442E-02 1.67712E+00 7.81547E-14-1.41005E-13
 -1      3707 1.77160E+01 8.19772E-01 3.17697E-03 1.86615E+00 3.72379E-14-1.54188E-13
 -1      3708 1.72193E+01 5.02873E-01-9.20839E-03 2.80041E+00 1.15419E-13-8.47447E-14
 -1      3709 2.02390E+01-2.13480E-02-1.60849E-04-1.24078E-01 6.02265E-15-1.61831E-13
 -1      3710 2.02597E+01 8.80655E-03 7.84582E-04-1.16967E-01 7.80345E-15-1.41941E-13
 -1      3711 2.02008E+01 1.65313E+00-2.04657E-03-1.91411E-02 6.40575E-14-3.36779E-13
 -1      3712 2.02029E+01 1.63438E+00-3.45472E-03-1.09155E-01 3.00088E-14-3.41314E-13
 -1      3713 2.02887E+01 1.37097E+00 4.24893E-03-8.20946E-02 3.81983E-14-3.23295E-13
 -1      3714 2.02825E+01 1.41188E+00 5.14583E-03 1.73012E-02 7.97910E-14-3.23944E-13
 -1      3715 2.03469E+01 7.41680E-01-3.72014E-03 1.32358E-01 1.44660E-13-2.15256E-13
 -1      3716 2.03373E+01 9.48862E-01 1.36307E-03 2.26204E-01 1.60947E-13-2.43413E-13
 -1      3717 2.09731E+01-8.27358E-01-1.95134E-03-5.50245E-01 1.08662E-13 5.31813E-13
 -1      3718 1.96530E+01 1.87542E-01 1.26279E-02-1.10388E+00 4.20599E-13-3.45509E-13
 -1      3719 1.93926E+01 3.61525E-01-4.36338E-04-1.02941E+00 4.98355E-13-2.05571E-13
 -1      3720 1.92147E+01 2.89619E-01-1.56253E-02-1.29259E+00 5.62011E-13-1.38901E-14
 -1      3721 1.97625E+01-6.29383E-02-1.11110E-02-1.27087E+00 4.10528E-13-5.04167E-13
 -1      3722 2.02566E+01 1.35519E+00-1.48799E-03 3.47226E-01 1.93905E-13-2.52738E-13
 -1      3723 2.01626E+01-7.52898E-02 2.46762E-04-1.21432E-01-6.04479E-15-9.87354E-14
 -1      3724 2.01788E+01-6.93850E-02 3.47932E-04-1.24314E-01-3.22618E-14-1.46545E-13
 -1      3725 2.01768E+01-7.98403E-02-4.88579E-04-1.04309E-01 2.47167E-15-1.54785E-13
 -1      3726 1.63559E+01 1.32253E+00-8.60139E-03-1.83965E+00-6.46917E-14-6.12089E-14
 -1      3727 1.52091E+01 1.36089E+00-1.31745E-02-2.32195E+00-2.40034E-13-2.56080E-13
 -1      3728 1.58559E+01 8.19129E-01 7.08837E-02-3.23183E+00-1.74777E-13 2.39756E-14
 -1      3729 2.02881E+01 2.85305E-01 3.69965E-03-1.94877E-02 9.50213E-14-1.99865E-13
 -1      3730 2.03384E+01 4.39802E-01-1.24680E-03 4.04848E-02 1.01059E-13-1.76109E-13
 -1      3731 2.34836E+01-3.23876E+00-4.63427E-02 2.75345E+00 2.12520E-13 1.22911E-13
 -1      3732 2.21248E+01-2.73344E+00 4.19046E-02 3.49056E+00 2.47885E-13-3.19918E-14
 -1      3733 2.36596E+01-2.77710E+00 1.79106E-02 1.88047E+00 2.64493E-13 8.16157E-14
 -1      3734 2.03588E+01 6.47680E-01 3.43900E-04-1.17434E-01-4.11425E-14-1.93186E-13
 -1      3735 2.03536E+01 5.00742E-01-1.96215E-03-5.16477E-02-4.13176E-14-2.01459E-13
 -1      3736 2.03800E+01 4.85095E-01 5.71435E-04-3.49421E-02-3.99943E-14-1.91278E-13
 -1      3737 2.02618E+01 2.02637E-01-1.00335E-03-6.26496E-02 6.93989E-14-1.79942E-13
 -1      3738 2.03897E+01-2.24763E+00-4.52046E-02 4.13343E+00 2.30933E-13-1.41063E-13
 -1      3739 1.84064E+01-9.78046E-01 2.31720E-02 4.13467E+00 2.45634E-13-1.27037E-13
 -1      3740 2.46905E+01-1.10835E+00-2.87146E-02-1.05916E+00 1.73331E-13 1.58372E-13
 -1      3741 2.48538E+01-1.80815E+00 7.10034E-03-4.92862E-01 2.21727E-13 1.51554E-13
 -1      3742 2.01995E+01-5.91879E-02 9.11030E-05-1.26509E-01-1.15305E-14-1.88241E-13
 -1      3743 2.02182E+01-4.32573E-02 5.54667E-04-1.25761E-01-4.17553E-15-1.59461E-13
 -1      3744 2.02601E+01-2.92689E-02-4.91300E-04-1.07188E-01 7.94232E-15-1.96697E-13
 -1      3745 2.02172E+01-6.55521E-02-5.14924E-04-1.08803E-01-3.70833E-14-2.32573E-13
 -1      3746 2.03293E+01 9.75088E-01-1.35982E-03-2.37356E-01-4.30463E-14-2.44763E-13
 -1      3747 2.03449E+01 7.80930E-01-1.08824E-03-1.55644E-01-4.09670E-14-2.21843E-13
 -1      3748 2.03682E+01 7.57780E-01 1.38518E-03-1.17792E-01-1.46941E-14-2.27480E-13
 -1      3749 2.03296E+01 1.06157E+00 1.33348E-03-2.00910E-01-1.77201E-14-2.61125E-13
 -1      3750 2.09265E+01-8.16162E-01 8.03265E-03-8.08075E-01 2.02459E-13 1.92345E-13
 -1      3751 2.07872E+01-7.60379E-01 9.21264E-04-9.86609E-01 1.74665E-13 4.66025E-14
 -1      3752 2.11937E+01-1.05624E+00-6.77187E-03-7.32052E-01 1.89851E-13 2.76687E-13
 -1      3753 2.41189E+01 1.14423E+00-7.26699E-02-1.91581E+00 4.76572E-14-1.23300E-13
 -1      3754 2.45488E+01 5.04759E-02 2.24049E-02-1.66299E+00 1.13838E-13 7.35852E-14
 -1      3755 2.47621E+01 1.73132E+00-1.54697E-02 1.87887E+00-2.58005E-13-1.28925E-13
 -1      3756 2.46391E+01 3.08131E+00-7.25184E-02 1.79387E+00-3.12726E-13-5.21987E-14
 -1      3757 1.69139E+01 1.67581E-01 9.77582E-04-3.42354E+00-1.88167E-13 1.14235E-13
 -1      3758 2.03025E+01 3.71403E-02-3.38273E-04-9.53259E-02 1.89615E-14-1.11242E-13
 -1      3759 2.02785E+01 4.58912E-02-6.11830E-04-1.09174E-01 2.22699E-14-1.47054E-13
 -1      3760 2.03002E+01 9.45962E-02 1.29981E-03-9.23860E-02 4.92343E-14-1.64657E-13
 -1      3761 2.03001E+01 1.99479E-01-5.46585E-04-6.11633E-02 6.45973E-14-1.71767E-13
 -1      3762 1.96301E+01-1.84016E+00 5.15174E-02-4.45938E+00 8.76695E-14 1.35712E-13
 -1      3763 2.07254E+01-2.16540E+00 8.43008E-04-3.82532E+00 3.77051E-14 1.53964E-13
 -1      3764 1.86082E+01-1.24037E+00-3.28527E-02-4.16472E+00-7.83956E-14 1.58552E-13
 -1      3765 2.37075E+01 4.73945E-02 2.04070E-02-1.63582E+00 1.38918E-13-1.29615E-13
 -1      3766 2.30604E+01 3.66171E-01-3.63619E-02-1.73014E+00 1.45491E-13-2.00593E-13
 -1      3767 2.29892E+01 1.07882E+00 1.17276E-02-1.72161E+00 9.77352E-14-7.45393E-14
 -1      3768 2.39219E+01 1.98210E+00-1.54340E-02-1.77477E+00 4.08883E-14-1.69923E-13
 -1      3769 1.75602E+01 1.04375E+00-2.12985E-02-1.43835E+00-4.93045E-14 2.73441E-13
 -1      3770 1.69715E+01 1.20028E+00-1.49939E-02-1.59471E+00-3.19059E-15 1.02700E-13
 -1      3771 1.73321E+01 9.28743E-01 5.64770E-02-2.18610E+00-5.54890E-14 2.79414E-13
 -1      3772 2.39512E+01 4.38091E+00-2.27189E-02 1.72447E-01-2.79447E-13 3.56121E-14
 -1      3773 2.05713E+01-6.41613E-01 1.20436E-02-1.24534E+00 1.45172E-13-3.73152E-13
 -1      3774 2.02864E+01-5.05163E-01-1.68134E-03-1.38167E+00 2.59569E-13-4.61441E-13
 -1      3775 2.08904E+01-9.74771E-01-6.47844E-03-1.28835E+00 3.48973E-13-1.99084E-13
 -1      3776 2.44504E+01-6.35230E-01-1.89072E-02-1.40828E+00 1.16291E-13 1.04519E-13
 -1      3777 2.23739E+01-2.72640E+00-8.85909E-03-3.00536E+00 1.17460E-13 1.48436E-13
 -1      3778 2.35380E+01-3.16487E+00 1.73353E-02-2.74815E+00 1.77185E-13 1.16881E-13
 -1      3779 2.38741E+01-2.80130E+00 1.14306E-02-1.73060E+00 2.27842E-13 3.61568E-13
 -1      3780 2.03250E+01 1.07097E+00 3.44238E-03 2.49686E-01 1.70180E-13-2.33460E-13
 -1      3781 2.02455E+01 1.44909E+00-3.14637E-03 2.87597E-01 1.89699E-13-2.35996E-13
 -1      3782 2.51950E+01-2.22910E+00-2.70416E-03 2.44262E-02-1.60937E-13-2.77921E-13
 -1      3783 2.49688E+01-1.56295E+00 1.45619E-03 6.81710E-01-1.17878E-13-2.81483E-13
 -1      3784 2.45504E+01-1.91509E-01-2.05176E-02 1.51698E+00-1.10360E-13-2.07560E-13
 -1      3785 2.48750E+01 6.71358E-01-4.41364E-02 1.88584E+00-2.23698E-13-1.87407E-13
 -1      3786 2.44450E+01-2.08051E+00 1.43779E-02 5.77271E-02 2.49768E-13 1.09669E-13
 -1      3787 1.84380E+01-5.33044E-01 4.87562E-02 3.59615E+00 1.50832E-13-1.56109E-13
 -1      3788 1.83275E+01 8.40120E-01-1.87768E-02-1.16115E+00 2.94631E-13 1.30348E-13
 -1      3789 1.79253E+01 9.68316E-01-1.26708E-02-1.29476E+00 1.70107E-13 2.30361E-13
 -1      3790 1.82123E+01 7.47033E-01 3.47524E-02-1.70580E+00 2.84829E-13 5.59940E-13
 -1      3791 1.87580E+01 6.05064E-01 2.30944E-02-1.38758E+00 3.83377E-13 2.15538E-13
 -1      3792 2.13166E+01-2.11243E+00 2.93003E-02 3.26148E+00 2.44268E-13-2.49603E-14
 -1      3793 2.46165E+01-2.48869E+00-1.29022E-02-5.36751E-01 1.81968E-14-3.09468E-14
 -1      3794 2.03600E+01 4.01770E-01-2.23891E-03 1.00339E-02 6.34951E-14-1.93895E-13
 -1      3795 2.03757E+01 5.52174E-01 3.42686E-03 7.23145E-02 1.01481E-13-1.99974E-13
 -1      3796 2.03199E+01 1.15382E+00-2.16137E-03 1.31329E-01 1.34755E-13-2.13014E-13
 -1      3797 2.03173E+01 1.18653E+00-1.77159E-03 7.77337E-02 1.04412E-13-2.74219E-13
 -1      3798 2.03729E+01 7.03430E-01-1.21392E-03 9.90156E-02 1.18549E-13-1.83185E-13
 -1      3799 2.36745E+01-2.63000E+00-4.66655E-02 1.18143E+00 2.54630E-13 1.03216E-13
 -1      3800 2.29586E+01-2.41406E+00 3.94368E-02 1.87450E+00 1.81465E-13 9.42941E-14
 -1      3801 2.03254E+01 1.15414E+00-2.23036E-04-1.13050E-01 2.46457E-14-2.88062E-13
 -1      3802 2.03263E+01 1.10347E+00-2.29941E-03-1.64022E-01-9.60501E-15-2.93551E-13
 -1      3803 2.03582E+01 9.43055E-01 1.05362E-03-1.22388E-01 1.93498E-14-2.84993E-13
 -1      3804 2.03706E+01 1.52316E-01 6.43752E-04 5.09866E-02 7.89250E-15-1.58518E-13
 -1      3805 2.03505E+01 8.85653E-02-5.79477E-04 6.71754E-02-1.99371E-15-1.46116E-13
 -1      3806 2.03315E+01 3.85424E-02 5.66704E-04 7.35382E-02-5.88981E-15-1.52434E-13
 -1      3807 2.03088E+01-1.15191E-03-2.22432E-04 8.15641E-02-5.25623E-14-1.72364E-13
 -1      3808 2.03614E+01 7.38034E-02-9.34199E-05 5.24919E-02-1.08153E-14-2.08603E-13
 -1      3809 2.02862E+01-3.08963E-02 4.55831E-04 8.33720E-02-7.46448E-14-1.51889E-13
 -1      3810 2.02634E+01-5.31265E-02 3.03520E-05 8.59177E-02-5.38519E-14-1.58562E-13
 -1      3811 2.03172E+01-1.17661E-02-3.33623E-04 6.26091E-02-3.67852E-14-2.03670E-13
 -1      3812 2.02398E+01-6.83877E-02 3.40134E-04 8.48861E-02-5.14218E-14-1.75736E-13
 -1      3813 2.02183E+01-7.82470E-02 1.91211E-04 8.40582E-02-6.63602E-14-1.94022E-13
 -1      3814 2.02696E+01-6.03288E-02-4.40468E-04 6.54278E-02-7.27991E-14-2.34293E-13
 -1      3815 2.01953E+01-8.33409E-02 2.28267E-04 8.15273E-02-7.73555E-14-1.83176E-13
 -1      3816 2.01757E+01-8.46311E-02 2.84356E-04 7.89886E-02-7.87127E-14-2.08247E-13
 -1      3817 2.02225E+01-8.26002E-02-4.92805E-04 6.38060E-02-7.96777E-14-2.11040E-13
 -1      3818 2.01541E+01-8.28087E-02 1.28729E-04 7.60033E-02-7.36490E-14-2.14034E-13
 -1      3819 2.01367E+01-7.83398E-02 3.32322E-04 7.29810E-02-1.00462E-13-1.99081E-13
 -1      3820 2.01780E+01-8.64395E-02-4.69146E-04 6.00477E-02-7.69629E-14-2.12981E-13
 -1      3821 2.01168E+01-7.19560E-02 3.54248E-05 7.03333E-02-7.33189E-14-1.38571E-13
 -1      3822 2.01015E+01-6.37613E-02 3.56603E-04 6.77563E-02-1.24489E-14-1.15572E-13
 -1      3823 2.01371E+01-7.78297E-02-4.09072E-04 5.58963E-02-4.95145E-14-2.39973E-13
 -1      3824 2.00833E+01-5.45393E-02-5.38568E-05 6.61049E-02-2.13062E-14-1.22960E-13
 -1      3825 2.00698E+01-4.41207E-02 3.76381E-04 6.47105E-02-3.66581E-14-1.13353E-13
 -1      3826 2.00999E+01-6.10630E-02-3.31280E-04 5.27719E-02 4.65174E-16-1.54281E-13
 -1      3827 2.00530E+01-3.33783E-02-1.41560E-04 6.46716E-02-3.91454E-14-6.60787E-14
 -1      3828 2.00414E+01-2.19298E-02 4.10254E-04 6.51059E-02-2.28095E-14-2.64882E-14
 -1      3829 2.00661E+01-3.92886E-02-2.50440E-04 5.19477E-02-3.54714E-14-1.29796E-13
 -1      3830 2.00257E+01-1.08030E-02-2.28731E-04 6.73531E-02-3.72343E-15 3.95674E-14
 -1      3831 2.00158E+01 5.62837E-04 4.77627E-04 7.02592E-02 3.10831E-14 3.10539E-14
 -1      3832 2.00350E+01-1.49710E-02-1.81967E-04 5.47409E-02 4.72931E-14-7.66316E-14
 -1      3833 2.00012E+01 1.08910E-02-3.13068E-04 7.56195E-02 4.01094E-14 5.55218E-14
 -1      3834 1.99935E+01 2.09051E-02 6.00521E-04 8.17110E-02 1.20535E-13-3.80386E-16
 -1      3835 2.00063E+01 9.64261E-03-1.45204E-04 6.27142E-02 5.65581E-14-3.66815E-14
 -1      3836 1.99801E+01 2.89580E-02-3.85537E-04 9.12577E-02 1.61329E-13-1.99818E-14
 -1      3837 1.99754E+01 3.59287E-02 8.03601E-04 1.01367E-01 1.35680E-13-1.70756E-15
 -1      3838 1.99799E+01 3.20294E-02-1.66918E-04 7.78827E-02 1.29684E-13-9.69799E-14
 -1      3839 1.99641E+01 3.96594E-02-4.25357E-04 1.16490E-01 1.03605E-13-5.05690E-14
 -1      3840 1.99645E+01 4.11724E-02 1.11230E-03 1.31564E-01 1.18110E-13-6.84543E-14
 -1      3841 1.99569E+01 4.88266E-02-2.86698E-04 1.02908E-01 8.36732E-14-1.56922E-13
 -1      3842 1.99571E+01 3.76641E-02-3.91672E-04 1.53977E-01 8.30298E-14-9.97466E-14
 -1      3843 1.99656E+01 3.02574E-02 1.54686E-03 1.74974E-01 4.73963E-14-5.37723E-14
 -1      3844 1.99398E+01 5.51719E-02-5.63788E-04 1.41224E-01 4.13937E-14-2.36080E-13
 -1      3845 1.99658E+01 1.54260E-02-2.10985E-04 2.06585E-01-7.66713E-14-3.65457E-14
 -1      3846 1.99874E+01-5.72031E-03 2.10912E-03 2.34186E-01-1.45043E-13-3.96233E-14
 -1      3847 1.99339E+01 4.39491E-02-1.08402E-03 1.96991E-01-2.21601E-14-1.62034E-13
 -1      3848 2.00013E+01-3.73429E-02 2.40247E-04 2.76686E-01-1.42119E-13 4.32351E-14
 -1      3849 2.00431E+01-7.85867E-02 2.75588E-03 3.10685E-01-5.74621E-14 3.47875E-14
 -1      3850 1.99483E+01 4.99016E-03-1.96370E-03 2.74656E-01-8.06436E-14-8.81811E-14
 -1      3851 2.00804E+01-1.33761E-01 1.14279E-03 3.64633E-01-5.69935E-14 5.67252E-14
 -1      3852 2.01518E+01-2.02757E-01 3.34744E-03 4.02876E-01-1.65243E-14 6.89591E-14
 -1      3853 1.99977E+01-7.54821E-02-3.33738E-03 3.77721E-01-6.28352E-14 9.15286E-14
 -1      3854 2.02272E+01-2.88954E-01 2.75778E-03 4.66038E-01-1.67794E-14 1.66486E-14
 -1      3855 2.03399E+01-3.93609E-01 3.60088E-03 5.02597E-01-2.46415E-14-8.29566E-15
 -1      3856 2.01049E+01-2.15013E-01-5.42647E-03 5.06368E-01-3.61942E-14 1.95076E-14
 -1      3857 2.04736E+01-5.16885E-01 5.39778E-03 5.66988E-01 8.47673E-15 4.99339E-14
 -1      3858 2.06397E+01-6.62377E-01 3.04274E-03 5.89826E-01-1.44042E-14 3.17261E-14
 -1      3859 2.03020E+01-4.32841E-01-8.31858E-03 6.52751E-01-9.91497E-15-6.71593E-14
 -1      3860 2.08567E+01-8.22909E-01 9.21184E-03 6.37611E-01-4.23804E-14 1.13634E-13
 -1      3861 2.10843E+01-1.00547E+00 6.83443E-04 6.26147E-01 6.94980E-14 1.48165E-13
 -1      3862 2.06316E+01-7.43608E-01-1.18412E-02 7.93468E-01 1.36094E-15 7.71983E-14
 -1      3863 2.14128E+01-1.18948E+00 1.42757E-02 6.24224E-01 3.78598E-14 2.74177E-14
 -1      3864 2.17007E+01-1.38071E+00-2.43104E-03 5.45604E-01 5.29032E-14 7.23054E-16
 -1      3865 2.11436E+01-1.14715E+00-1.57808E-02 8.82222E-01 5.39808E-14 1.04039E-13
 -1      3866 2.21607E+01-1.55498E+00 1.89379E-02 4.52990E-01-2.32963E-14-1.25616E-13
 -1      3867 2.25211E+01-1.65230E+00 8.91152E-03 2.42666E-01-1.86871E-14-2.38200E-13
 -1      3868 2.18780E+01-1.58199E+00-1.50725E-02 8.37772E-01-1.30387E-13-8.59334E-14
 -1      3869 2.29139E+01-1.87224E+00 1.48834E-02 4.08114E-01 7.46079E-14-2.40934E-13
 -1      3870 2.33093E+01-1.87146E+00 4.59076E-03 1.44488E-01 1.04938E-13-1.75784E-13
 -1      3871 2.03746E+01 9.88775E-01 5.31235E-03 5.05690E-02 9.76344E-14-2.63690E-13
 -1      3872 2.03196E+01 1.18827E+00-1.88197E-03 4.05164E-02 8.56722E-14-3.07429E-13
 -1      3873 2.03214E+01 1.17789E+00-2.43491E-03-5.87487E-03 5.25932E-14-2.93078E-13
 -1      3874 2.44947E+01-9.00681E-01-1.33504E-02 1.25269E+00-2.76469E-14-3.27005E-13
 -1      3875 2.40962E+01-1.36567E+00-1.70655E-02 7.96242E-01-2.45377E-15-2.67345E-13
 -1      3876 2.38610E+01-1.68273E+00 4.98567E-03 4.52163E-01 5.42825E-14-3.29307E-13
 -1      3877 2.24155E+01-1.67980E+00-6.91916E-03-3.80868E-01 3.30191E-13-2.33380E-13
 -1      3878 2.21074E+01-1.51982E+00 1.95819E-02-5.31798E-01 4.03149E-13-1.19136E-13
 -1      3879 2.17571E+01-1.40639E+00-5.43387E-03-6.33981E-01 3.27102E-13 6.47790E-14
 -1      3880 2.14774E+01-1.20634E+00 9.84424E-03-7.02020E-01 2.04764E-13 1.06705E-13
 -1      3881 2.13700E+01-1.22329E+00-3.15390E-03-9.84203E-01 3.88562E-13-4.29452E-14
 -1      3882 2.19419E+01-1.60869E+00-1.39585E-02-9.13406E-01 5.26191E-13-9.29022E-14
 -1      3883 2.00121E+01 1.80201E-02-3.88878E-05-5.70529E-02-6.83800E-14-6.57670E-14
 -1      3884 2.00279E+01 2.20939E-04-1.38808E-04-5.85888E-02-5.95637E-14-4.83592E-14
 -1      3885 1.99742E+01 5.83708E-02-2.84442E-04-5.26331E-02-7.99384E-15-1.25153E-13
 -1      3886 1.99928E+01 3.73656E-02-1.83415E-04-5.41031E-02-2.40861E-14-8.16340E-14
 -1      3887 2.00042E+01 2.63867E-02 1.97058E-04-3.98452E-02-4.16847E-14-9.43075E-14
 -1      3888 2.03204E+01 1.67721E-01-1.49620E-03-7.06825E-02 5.16311E-14-1.87212E-13
 -1      3889 2.03549E+01 2.77884E-01 1.55472E-03-2.63457E-02 5.58918E-14-1.80808E-13
 -1      3890 2.03811E+01 3.73484E-01 5.02824E-04-1.02721E-03 6.62234E-14-1.80854E-13
 -1      3891 2.03470E+01 1.58644E-01-1.17010E-04-6.31577E-02 3.87172E-14-1.61422E-13
 -1      3892 1.99283E+01 1.06205E-01-6.54160E-04-4.57608E-02 1.27906E-14-2.04396E-13
 -1      3893 1.99522E+01 8.13845E-02-1.98976E-04-4.82841E-02 2.12873E-14-1.60457E-13
 -1      3894 1.99637E+01 6.82219E-02 4.48289E-04-3.18583E-02 3.57888E-14-4.99517E-14
 -1      3895 1.98693E+01 1.63183E-01-1.20857E-03-3.25764E-02 1.13408E-13-2.35577E-13
 -1      3896 1.99018E+01 1.33747E-01-1.60467E-04-3.81779E-02 4.58250E-14-2.72313E-13
 -1      3897 1.99156E+01 1.16602E-01 7.58527E-04-1.84430E-02 8.31528E-14-2.24498E-13
 -1      3898 1.97903E+01 2.31087E-01-2.03054E-03-6.68370E-03 6.29850E-14-1.07059E-13
 -1      3899 1.98361E+01 1.96280E-01-2.25293E-05-1.87817E-02 1.00756E-13-1.79331E-13
 -1      3900 1.98555E+01 1.72268E-01 1.13842E-03 5.45760E-03 8.81109E-14-2.77460E-13
 -1      3901 1.96826E+01 3.11078E-01-3.22692E-03 4.21160E-02 7.16624E-15-7.09681E-14
 -1      3902 1.97479E+01 2.70639E-01 2.92000E-04 1.79791E-02 6.68648E-14-9.56674E-14
 -1      3903 1.97783E+01 2.35397E-01 1.58701E-03 4.78122E-02 3.88356E-14-1.73351E-13
 -1      3904 1.95359E+01 4.02299E-01-4.90358E-03 1.29593E-01-5.48850E-14-4.76982E-14
 -1      3905 1.96288E+01 3.57282E-01 9.09661E-04 8.47066E-02-3.45147E-14-8.64853E-14
 -1      3906 1.96779E+01 3.04471E-01 2.07530E-03 1.20751E-01-1.73816E-14-1.43067E-13
 -1      3907 1.93392E+01 4.99596E-01-6.85573E-03 2.79467E-01-1.59448E-14-6.17477E-14
 -1      3908 1.94690E+01 4.53530E-01 2.02815E-03 2.00365E-01-1.82976E-14-1.08818E-13
 -1      3909 1.95488E+01 3.74413E-01 2.51711E-03 2.42154E-01-2.54561E-14-1.13798E-13
 -1      3910 1.90959E+01 5.83504E-01-9.65882E-03 5.09904E-01 2.99660E-14-1.22167E-13
 -1      3911 1.92646E+01 5.47920E-01 3.75625E-03 3.86711E-01 2.66812E-14-1.55272E-13
 -1      3912 1.93923E+01 4.30800E-01 2.34334E-03 4.30747E-01 3.52146E-14-2.13770E-13
 -1      3913 1.87783E+01 6.33717E-01-1.30466E-02 8.89848E-01 2.45272E-14-1.55177E-13
 -1      3914 1.90109E+01 6.22293E-01 6.99004E-03 6.81897E-01 2.14363E-15-1.57042E-13
 -1      3915 1.92089E+01 4.55488E-01 2.24715E-03 7.21469E-01 5.30383E-14-3.80108E-13
 -1      3916 1.84214E+01 5.91704E-01-1.22565E-02 1.46960E+00 8.98967E-14-7.65956E-14
 -1      3917 1.87040E+01 6.35829E-01 1.16666E-02 1.14543E+00 7.73464E-14-7.52783E-14
 -1      3918 1.90085E+01 4.03765E-01 3.10099E-04 1.16539E+00-1.44855E-14-1.70861E-13
 -1      3919 2.38482E+01 3.34853E+00-5.37860E-03 1.47420E+00-2.45432E-13 7.99534E-15
 -1      3920 2.40058E+01-2.05235E+00 1.62758E-03-9.58846E-02 4.56120E-14-1.16953E-13
 -1      3921 2.33561E+01-1.77967E+00-1.15774E-02 1.32973E-01 1.79044E-13-3.44901E-13
 -1      3922 2.30384E+01-1.80702E+00 1.41399E-02-1.43692E-01 2.36300E-13-3.15750E-13
 -1      3923 2.41471E+01-2.51789E+00 1.26713E-02-8.08134E-01 2.00502E-13 1.61199E-13
 -1      3924 2.03357E+01 1.04293E+00 9.04676E-04 1.91116E-01 1.54349E-13-1.87369E-13
 -1      3925 2.18354E+01-2.29190E+00-5.00180E-02 2.60468E+00 1.97457E-13 2.46652E-14
 -1      3926 2.05864E+01-1.56551E+00 2.80499E-02 3.08272E+00 2.00525E-13-6.37647E-14
 -1      3927 2.02954E+01 1.24710E+00-1.20911E-03 1.95390E-01 1.58789E-13-1.95621E-13
 -1      3928 2.03396E+01 1.06927E+00 2.28850E-04 1.37430E-01 1.50808E-13-1.91494E-13
 -1      3929 2.38125E+01-1.99397E+00 1.01221E-02 1.76741E-01 1.91990E-13 4.15831E-14
 -1      3930 2.01874E+01-8.35650E-02 2.48637E-04-8.47894E-02-1.77269E-15-1.63522E-13
 -1      3931 2.02072E+01-8.03118E-02 2.80922E-04-8.70266E-02-4.68473E-14-2.18235E-13
 -1      3932 2.00461E+01-1.60079E-02 1.22820E-04-6.11985E-02-5.36893E-14-8.09137E-14
 -1      3933 2.00609E+01-3.08866E-02-7.60878E-05-6.33330E-02 6.71026E-15-1.38962E-13
 -1      3934 2.00407E+01-9.55415E-03-5.47644E-06-4.54680E-02-7.34046E-14-1.49692E-13
 -1      3935 2.00781E+01-4.34977E-02 2.29263E-04-6.60066E-02 3.04374E-14-7.86974E-14
 -1      3936 2.00924E+01-5.48901E-02 1.66342E-06-6.86602E-02 2.49111E-14-7.85242E-14
 -1      3937 2.00751E+01-3.91785E-02-1.81408E-04-5.03070E-02 1.06431E-14-1.46093E-13
 -1      3938 2.03958E+01 5.79477E-01 2.01322E-04-5.23041E-02-2.63286E-15-2.30287E-13
 -1      3939 2.03947E+01 4.41020E-01-1.52215E-03-1.10158E-02-2.89325E-14-1.93720E-13
 -1      3940 2.38995E+01-9.84536E-01-1.11277E-02-1.09731E+00 8.01956E-14-1.37360E-14
 -1      3941 1.93862E+01-1.08452E+00-3.87999E-02 3.32991E+00 1.81520E-13-1.23330E-13
 -1      3942 1.81312E+01-1.77631E-01-8.98852E-04 3.14502E+00 1.16589E-13-5.67996E-14
 -1      3943 1.83458E+01 1.08453E-01 2.72995E-02 2.62372E+00 1.01459E-13-2.47816E-14
 -1      3944 2.36792E+01 3.97685E+00-4.18696E-02 9.64346E-01-3.10679E-13 2.28715E-14
 -1      3945 2.03961E+01 3.26034E-01 6.81440E-04 1.01546E-02-3.16992E-14-1.48770E-13
 -1      3946 2.03822E+01 2.30616E-01-8.84526E-04 3.81322E-02 4.64164E-15-1.47169E-13
 -1      3947 2.04119E+01 4.15179E-01 6.67697E-04-3.81842E-03-1.44262E-14-2.08198E-13
 -1      3948 1.73949E+01 3.45631E-01-2.04359E-02-2.82049E+00-2.37560E-13 3.24272E-14
 -1      3949 1.79684E+01-3.23011E-01 5.89517E-02-3.67947E+00-2.59573E-13 3.09631E-14
 -1      3950 1.90405E+01-8.24003E-01 1.20216E-02-3.42234E+00-1.87242E-13 8.05272E-14
 -1      3951 1.79857E+01 3.21842E-01-9.28016E-03-2.44153E+00-2.32411E-13 1.77733E-13
 -1      3952 2.33449E+01 3.96881E+00-1.95924E-02 4.58680E-02-1.65316E-13 2.25273E-13
 -1      3953 2.37238E+01-1.41456E+00-7.24475E-03-7.88437E-01 9.64184E-14-1.94622E-13
 -1      3954 2.03190E+01 2.02933E-02-3.10307E-04-8.21841E-02 4.75213E-14-1.74454E-13
 -1      3955 2.03405E+01 6.47067E-02 6.17282E-04-7.17825E-02 3.10084E-14-1.52555E-13
 -1      3956 2.33588E+01-2.44062E+00-5.30943E-03-1.26818E+00 1.73595E-13 1.24013E-13
 -1      3957 2.03961E+01 2.10017E-01 3.94717E-04 3.17534E-02-1.36357E-14-1.68893E-13
 -1      3958 2.26304E+01 3.41503E+00-5.10548E-02-3.05593E-01-2.27637E-13 1.01931E-13
 -1      3959 1.94245E+01 1.33706E-01 1.40054E-02-1.47174E+00 5.92171E-13-7.25539E-14
 -1      3960 1.90826E+01 3.12450E-01-5.99563E-03-1.45125E+00 4.81968E-13 7.87384E-14
 -1      3961 1.88504E+01 3.49651E-01-1.01540E-02-1.60140E+00 4.52611E-13 1.06189E-13
 -1      3962 2.28528E+01-1.98350E+00-1.65660E-02-6.57997E-01 3.60036E-13-2.58690E-13
 -1      3963 2.01104E+01-6.28214E-02-2.98889E-04-5.52962E-02-8.08716E-15-1.30944E-13
 -1      3964 2.01113E+01-6.50898E-02 2.72193E-04-7.17929E-02 8.21501E-15-1.18853E-13
 -1      3965 2.01274E+01-7.34685E-02 7.52326E-05-7.50522E-02 3.80847E-14-1.80263E-13
 -1      3966 2.14622E+01-1.37980E+00 1.04790E-02-1.36585E+00 4.80994E-13-1.45852E-13
 -1      3967 2.11909E+01-1.18677E+00 8.73659E-03-1.35721E+00 3.76959E-13-1.30215E-13
 -1      3968 2.08541E+01-1.10939E+00-1.66073E-02-1.66028E+00 3.82387E-13-4.50741E-13
 -1      3969 2.01477E+01-7.95527E-02 2.86872E-04-7.84228E-02 5.73769E-14-1.87944E-13
 -1      3970 2.01655E+01-8.31082E-02 1.66124E-04-8.16143E-02 7.25732E-14-1.44348E-13
 -1      3971 2.01906E+01-8.60096E-02-4.70130E-04-6.55359E-02 1.15013E-14-1.71382E-13
 -1      3972 2.01489E+01-7.95760E-02-4.02983E-04-6.05689E-02 4.17054E-14-1.22242E-13
 -1      3973 1.84157E+01 5.21451E-01 1.88083E-02 1.77277E+00 1.19730E-13-3.71938E-14
 -1      3974 1.88555E+01 2.06346E-01-1.06383E-02 1.74124E+00 1.09042E-13-5.03394E-14
 -1      3975 1.81579E+01 3.93234E-01-5.46168E-03 2.16833E+00 1.09122E-13-4.67152E-14
 -1      3976 2.03208E+01 1.18653E+00-1.48547E-03-3.76604E-02 4.79555E-14-3.22762E-13
 -1      3977 2.03240E+01 1.15654E+00-2.48697E-03-8.18732E-02 2.86826E-14-3.14321E-13
 -1      3978 2.03665E+01 9.96205E-01 3.19409E-03-6.23285E-02 2.29200E-14-2.98808E-13
 -1      3979 2.03724E+01 9.96521E-01 4.04333E-03-8.06657E-03 4.59095E-14-2.87421E-13
 -1      3980 2.22016E+01-2.03246E+00 1.60608E-02 1.88024E+00 7.61795E-14 1.33671E-15
 -1      3981 2.03641E+01 9.57716E-01 3.34571E-03 1.24352E-01 1.46494E-13-1.82267E-13
 -1      3982 2.17241E+01-2.35993E+00 2.90137E-02-3.24240E+00 1.00350E-13 1.04249E-13
 -1      3983 2.23779E+01-2.38292E+00 1.05453E-02-2.42764E+00 9.18185E-14-3.63307E-14
 -1      3984 2.07917E+01-1.90206E+00-1.31585E-02-3.30052E+00-5.89095E-14 7.24351E-14
 -1      3985 2.02865E+01-1.14964E+00 2.94345E-02 2.71733E+00 1.69468E-13-4.13631E-14
 -1      3986 1.99998E+01-2.73820E-01 1.30791E-02-1.45515E+00 2.42544E-13-6.52675E-13
 -1      3987 1.97122E+01-1.30545E-01-8.37302E-04-1.51414E+00 4.51370E-13-4.97776E-13
 -1      3988 1.95974E+01-1.50833E-01-1.64381E-03-1.68875E+00 4.30373E-13-3.42715E-13
 -1      3989 2.02799E+01-6.42433E-01-4.42392E-03-1.65523E+00 4.47647E-13-6.64728E-13
 -1      3990 2.02301E+01-7.27737E-02 1.41255E-04-8.92230E-02-6.54794E-14-2.13465E-13
 -1      3991 2.02519E+01-5.98251E-02 4.45958E-04-8.91355E-02-6.34111E-14-2.03390E-13
 -1      3992 2.02355E+01-7.78244E-02-5.14253E-04-6.91525E-02-5.44937E-14-2.28833E-13
 -1      3993 2.03737E+01 8.13641E-01-1.27245E-03-1.05435E-01 3.35495E-14-2.69309E-13
 -1      3994 2.03862E+01 6.81810E-01-4.00299E-04-6.87618E-02 2.64400E-14-2.38831E-13
 -1      3995 2.04038E+01 6.39088E-01 8.78313E-04-4.32861E-02 2.02784E-14-2.66928E-13
 -1      3996 2.03787E+01 8.58498E-01-8.34529E-05-7.56342E-02 3.56730E-14-2.88358E-13
 -1      3997 2.03888E+01 8.06344E-01-2.66207E-03 4.98077E-02 1.12202E-13-2.26841E-13
 -1      3998 2.03903E+01 8.10633E-01-2.34941E-03 2.22572E-02 7.05313E-14-2.49549E-13
 -1      3999 2.03946E+01 3.13699E-01-6.46518E-04-1.95938E-02 5.72016E-14-2.02662E-13
 -1      4000 2.04040E+01 4.45465E-01-1.35667E-03 1.78878E-02 5.93212E-14-2.00135E-13
 -1      4001 2.02748E+01-4.10680E-02-6.03044E-05-8.95979E-02-1.33446E-15-2.09450E-13
 -1      4002 2.02974E+01-1.43123E-02 5.04226E-04-8.53845E-02 4.15445E-14-1.81784E-13
 -1      4003 2.03288E+01 8.61952E-03-3.24315E-04-6.44133E-02 4.54368E-14-2.18330E-13
 -1      4004 2.02825E+01-4.94066E-02-5.61258E-04-6.98294E-02-2.89978E-14-2.23392E-13
 -1      4005 2.03820E+01 7.31129E-01-1.61822E-03 6.69407E-02 1.06396E-13-1.82429E-13
 -1      4006 2.04086E+01 5.93186E-01 2.79681E-03 3.49044E-02 8.10070E-14-1.86984E-13
 -1      4007 2.04179E+01 5.21534E-01 1.90982E-04 1.52634E-02 7.90052E-14-2.16479E-13
 -1      4008 2.26403E+01-2.36086E+00-7.73160E-03-1.91111E+00 2.28009E-13 1.72562E-13
 -1      4009 2.29638E+01-2.12378E+00 9.20355E-03-1.05239E+00 2.85159E-13 9.96716E-14
 -1      4010 2.23424E+01-1.86480E+00 2.44717E-02-1.23144E+00 4.36064E-13 2.96234E-14
 -1      4011 2.19337E+01-2.06453E+00-1.66047E-02-2.16947E+00 2.20602E-13-3.85440E-14
 -1      4012 2.04199E+01 6.76683E-01 3.62678E-03 1.10233E-02 5.69007E-14-2.12678E-13
 -1      4013 2.03912E+01 8.23791E-01-1.85724E-03 7.63684E-03 6.23719E-14-2.28748E-13
 -1      4014 2.03893E+01 8.31803E-01-1.54532E-03-1.64007E-02 5.36666E-14-2.72865E-13
 -1      4015 2.26807E+01-2.03725E+00-9.49435E-03 9.58584E-01-6.81994E-14-1.62154E-13
 -1      4016 2.03431E+01 5.27583E-03 2.04444E-04 3.99407E-02-2.02429E-14-2.05141E-13
 -1      4017 2.03196E+01-2.76629E-02 4.00196E-05 4.40383E-02-4.32058E-14-2.05970E-13
 -1      4018 2.02951E+01-5.21847E-02 2.72581E-04 4.35244E-02-6.58963E-14-2.23662E-13
 -1      4019 2.02711E+01-6.94312E-02 1.97548E-04 4.46845E-02-8.07649E-14-2.23367E-13
 -1      4020 2.03156E+01-3.81556E-02-3.93033E-04 2.26084E-02-6.74803E-14-2.18717E-13
 -1      4021 2.02460E+01-8.05121E-02 2.23935E-04 4.32338E-02-8.61451E-14-2.23042E-13
 -1      4022 2.02229E+01-8.64366E-02 2.85378E-04 4.28244E-02-7.45496E-14-2.00472E-13
 -1      4023 2.02659E+01-7.52861E-02-5.50643E-04 2.24594E-02-8.52661E-14-2.02461E-13
 -1      4024 2.01989E+01-8.82982E-02 1.83753E-04 4.11830E-02-8.37979E-14-2.66043E-13
 -1      4025 2.01774E+01-8.64962E-02 3.12688E-04 4.00315E-02-7.40346E-14-2.80309E-13
 -1      4026 2.02171E+01-8.86820E-02-5.78113E-04 2.16497E-02-1.16747E-13-2.68805E-13
 -1      4027 2.01550E+01-8.20146E-02 1.21630E-04 3.86031E-02-1.29462E-14-2.41935E-13
 -1      4028 2.01355E+01-7.49976E-02 3.18343E-04 3.74559E-02 3.60798E-15-2.05797E-13
 -1      4029 2.01713E+01-8.57809E-02-5.20942E-04 2.05123E-02-1.02331E-14-2.82663E-13
 -1      4030 2.01147E+01-6.62998E-02 4.33244E-05 3.66457E-02 2.11507E-14-1.96823E-13
 -1      4031 2.00971E+01-5.58547E-02 3.21604E-04 3.61525E-02 1.05864E-14-1.92716E-13
 -1      4032 2.01289E+01-7.17777E-02-4.29808E-04 1.98538E-02 2.83257E-14-2.28003E-13
 -1      4033 2.00777E+01-4.44784E-02-5.28922E-05 3.64029E-02-3.21436E-14-1.50262E-13
 -1      4034 2.00617E+01-3.18907E-02 3.37961E-04 3.71964E-02 1.29208E-14-9.42188E-14
 -1      4035 2.00898E+01-5.03568E-02-3.20813E-04 2.04925E-02 1.49927E-14-1.72802E-13
 -1      4036 2.00432E+01-1.89865E-02-1.67928E-04 3.90878E-02 4.27841E-14-1.06045E-13
 -1      4037 2.00287E+01-5.26459E-03 3.87962E-04 4.18867E-02 4.15815E-14-9.47088E-14
 -1      4038 2.00532E+01-2.41102E-02-2.07043E-04 2.34591E-02 8.24998E-15-1.14508E-13
 -1      4039 2.00104E+01 8.17176E-03-3.06209E-04 4.62341E-02 7.26562E-14-1.19692E-13
 -1      4040 1.99974E+01 2.20771E-02 4.96160E-04 5.19517E-02 1.39439E-13-1.17645E-13
 -1      4041 2.00181E+01 4.98865E-03-1.04406E-04 3.01597E-02 6.98909E-14-1.00503E-13
 -1      4042 1.99790E+01 3.49696E-02-4.69486E-04 5.99357E-02 1.13752E-13-1.53980E-13
 -1      4043 1.99676E+01 4.79146E-02 6.93695E-04 6.97924E-02 6.13463E-14-1.99116E-13
 -1      4044 1.99834E+01 3.51444E-02-3.81893E-05 4.26534E-02 6.15016E-14-1.91895E-13
 -1      4045 1.99488E+01 5.88313E-02-6.54686E-04 8.31162E-02 4.84800E-14-2.21739E-13
 -1      4046 1.99403E+01 6.91739E-02 1.01964E-03 9.87434E-02 4.78564E-14-2.70453E-13
 -1      4047 1.99487E+01 6.42570E-02-3.95694E-05 6.39451E-02 1.55856E-14-3.09222E-13
 -1      4048 1.99213E+01 7.59958E-02-8.46559E-04 1.19784E-01 6.01248E-14-2.22212E-13
 -1      4049 1.99177E+01 8.12204E-02 1.52017E-03 1.43289E-01 8.15648E-14-2.03312E-13
 -1      4050 1.99139E+01 8.92581E-02-1.61992E-04 9.83241E-02 5.34711E-14-2.91997E-13
 -1      4051 1.99000E+01 8.07337E-02-1.00403E-03 1.75212E-01 4.38365E-14-2.22679E-13
 -1      4052 1.99050E+01 7.69783E-02 2.24232E-03 2.09128E-01-5.00504E-14-1.54322E-13
 -1      4053 1.98810E+01 1.05303E-01-4.90865E-04 1.51706E-01 6.82266E-14-2.88659E-13
 -1      4054 1.98918E+01 6.43874E-02-1.03999E-03 2.55865E-01-6.91831E-14-9.49575E-14
 -1      4055 1.99115E+01 4.59102E-02 3.23284E-03 3.02840E-01-2.03694E-14-3.12510E-14
 -1      4056 1.98541E+01 1.04686E-01-1.15802E-03 2.31829E-01 7.49236E-15-1.77515E-13
 -1      4057 1.99093E+01 1.41200E-02-8.33490E-04 3.68772E-01-2.34458E-14-5.13511E-14
 -1      4058 1.99530E+01-2.72024E-02 4.44882E-03 4.30621E-01-2.77291E-14-3.55655E-14
 -1      4059 1.98425E+01 7.55191E-02-2.32364E-03 3.48113E-01-3.80258E-15-1.98055E-13
 -1      4060 1.99729E+01-8.72067E-02-3.92981E-05 5.19668E-01-6.83002E-14-3.03373E-14
 -1      4061 2.00542E+01-1.62607E-01 5.76514E-03 5.96323E-01-5.45042E-14-1.02760E-13
 -1      4062 1.98625E+01 7.69325E-04-4.00947E-03 5.10225E-01-4.74245E-14-1.90879E-13
 -1      4063 2.01150E+01-2.62534E-01 1.77417E-03 7.08920E-01 2.08511E-14-1.31148E-13
 -1      4064 2.02517E+01-3.84744E-01 6.97371E-03 7.95018E-01 6.32216E-14-1.02564E-13
 -1      4065 1.99412E+01-1.46133E-01-7.20930E-03 7.25371E-01-3.18525E-14-1.80176E-13
 -1      4066 2.03825E+01-5.38198E-01 4.95108E-03 9.25222E-01 7.93785E-14-8.11621E-14
 -1      4067 2.05948E+01-7.19698E-01 6.54942E-03 1.00488E+00 9.19860E-14 4.16361E-14
 -1      4068 2.01227E+01-3.94962E-01-1.15594E-02 9.92368E-01 8.72705E-14-1.38091E-13
 -1      4069 2.08364E+01-9.26861E-01 1.14606E-02 1.13043E+00 3.34561E-14-4.03101E-15
 -1      4070 2.11323E+01-1.18105E+00-4.87678E-04 1.18100E+00-8.01963E-15-7.12667E-14
 -1      4071 2.04745E+01-7.77297E-01-1.54731E-02 1.28863E+00 4.46854E-14-1.82338E-13
 -1      4072 2.16229E+01-1.45823E+00 1.99267E-02 1.18975E+00-1.28865E-13-6.25009E-14
 -1      4073 2.19985E+01-1.74212E+00-1.12361E-02 1.15887E+00-2.15420E-13-1.86920E-13
 -1      4074 2.22962E+01-2.02269E+00-2.52826E-02 1.39768E+00-8.16335E-14-3.81570E-14
 -1      4075 2.11568E+01-1.34745E+00-2.02931E-02 1.50001E+00-5.79530E-14-2.32802E-13
 -1      4076 2.15325E+01-1.65994E+00 2.89537E-02 1.98827E+00-3.31788E-15-1.24993E-13
 -1      4077 1.99034E+01 1.16874E-01-1.02516E-03 8.43018E-03 1.56122E-13-2.25434E-13
 -1      4078 1.99318E+01 9.42768E-02 2.32474E-04-1.04367E-03 1.21992E-13-1.45164E-13
 -1      4079 1.99959E+01 3.15682E-02-2.82051E-04-2.13376E-02-6.43055E-14-1.39058E-13
 -1      4080 2.00156E+01 1.32493E-02 5.62086E-05-2.46190E-02-1.33501E-13-1.61936E-13
 -1      4081 2.03604E+01 1.26826E-01-6.99582E-04-6.16392E-02 5.32319E-15-1.54108E-13
 -1      4082 2.03846E+01 2.12310E-01 2.74671E-04-3.64195E-02 3.28808E-14-1.83604E-13
 -1      4083 2.04064E+01 2.81705E-01 1.93968E-04-1.95312E-02 4.34417E-14-1.95351E-13
 -1      4084 2.03733E+01 1.11448E-01-8.90980E-05-4.89749E-02 1.63643E-14-2.00192E-13
 -1      4085 1.97678E+01 2.17936E-01-2.45550E-03 9.54984E-02 7.77063E-14-1.78095E-13
 -1      4086 1.98158E+01 1.93045E-01 9.51157E-04 6.65359E-02 4.24319E-14-1.92446E-13
 -1      4087 1.96754E+01 2.68544E-01-3.51500E-03 1.85451E-01-7.53089E-14-1.80937E-13
 -1      4088 1.97381E+01 2.45649E-01 1.72660E-03 1.36993E-01-1.13767E-15-2.02090E-13
 -1      4089 1.97815E+01 1.96784E-01 2.84471E-04 1.53449E-01 1.72425E-14-2.12388E-13
 -1      4090 1.95653E+01 3.09637E-01-4.56230E-03 3.29002E-01 4.45962E-14-1.93593E-13
 -1      4091 1.96453E+01 2.93509E-01 2.93226E-03 2.50379E-01-3.41647E-15-1.52849E-13
 -1      4092 1.97108E+01 2.23778E-01-1.49750E-04 2.62566E-01-3.99888E-14-2.57772E-13
 -1      4093 1.94478E+01 3.24290E-01-5.89504E-03 5.36515E-01 6.13571E-14-2.07923E-13
 -1      4094 1.95417E+01 3.24878E-01 4.72869E-03 4.21875E-01 8.29902E-14-1.57446E-13
 -1      4095 1.96400E+01 2.26659E-01-1.18853E-03 4.23313E-01 6.58241E-14-1.84336E-13
 -1      4096 1.93263E+01 2.86902E-01-7.08876E-03 8.58761E-01-1.51396E-14-1.44621E-13
 -1      4097 1.94376E+01 3.19660E-01 7.60000E-03 6.77514E-01-9.30638E-16-1.71083E-13
 -1      4098 1.95803E+01 1.86751E-01-2.67094E-03 6.58375E-01-1.78695E-14-1.48705E-13
 -1      4099 1.92509E+01 1.51500E-01-4.53446E-03 1.32058E+00-1.10005E-13-1.24347E-13
 -1      4100 1.93535E+01 2.39350E-01 1.13549E-02 1.05669E+00-3.86807E-14-2.24386E-13
 -1      4101 1.95572E+01 6.44367E-02-6.37318E-03 9.96403E-01-4.06555E-14-1.68002E-13
 -1      4102 2.04157E+01 2.55889E-01-5.02984E-04 1.32918E-02-2.16587E-14-1.83444E-13
 -1      4103 2.04015E+01 1.72317E-01-3.86629E-04 2.80331E-02 6.23472E-15-1.93320E-13
 -1      4104 2.00712E+01-3.46468E-02 8.16678E-05-3.31328E-02-4.26349E-14-1.05679E-13
 -1      4105 2.00884E+01-4.74829E-02 9.51422E-05-3.50766E-02 2.60397E-14-1.34982E-13
 -1      4106 2.04289E+01 4.03646E-01 2.34641E-03-9.17212E-04 9.09691E-14-2.28770E-13
 -1      4107 2.04212E+01 5.25190E-01-1.99365E-03 8.60502E-03 8.69206E-14-2.40977E-13
 -1      4108 1.99533E+01 7.19139E-02-5.90007E-04-1.03481E-02 4.12269E-14-1.41594E-13
 -1      4109 1.99762E+01 5.14087E-02 1.04932E-04-1.57269E-02 2.62086E-14-1.30739E-13
 -1      4110 1.99885E+01 3.74588E-02 9.92595E-05-7.96382E-04-1.94547E-17-3.13988E-13
 -1      4111 1.86310E+01 3.68069E-01-1.03095E-02-1.80808E+00 2.32751E-13 1.41459E-13
 -1      4112 1.82929E+01 4.27966E-01-1.65155E-02-1.99159E+00-2.33446E-14 1.22341E-13
 -1      4113 1.90975E+01 1.06974E-01 5.75098E-03-1.85634E+00 2.94749E-13 4.21403E-14
 -1      4114 2.06151E+01-1.33505E+00-4.01089E-02 2.29559E+00 6.67908E-14-2.23756E-13
 -1      4115 1.97765E+01-7.19903E-01 1.60616E-02 2.47265E+00 1.10934E-13-8.99993E-14
 -1      4116 2.00343E+01-3.92614E-03-6.52873E-05-2.81788E-02-1.03470E-13-9.66224E-14
 -1      4117 2.00525E+01-1.99710E-02 5.80590E-05-3.05452E-02-6.84500E-14-1.46573E-13
 -1      4118 2.00640E+01-2.93016E-02-2.22454E-04-1.58008E-02-3.65108E-14-7.53339E-14
 -1      4119 2.00269E+01 2.03335E-03-6.29967E-05-1.00445E-02-7.81143E-14-1.70621E-13
 -1      4120 1.98428E+01 1.66058E-01-1.63209E-03 4.07841E-02 9.10910E-15-1.83131E-13
 -1      4121 1.98794E+01 1.41753E-01 4.89637E-04 2.40208E-02 6.69095E-14-2.00708E-13
 -1      4122 1.98447E+01 1.58859E-01 4.06435E-04 8.38823E-02 3.21479E-14-1.67807E-13
 -1      4123 1.89455E+01-2.71198E-01-2.36773E-02 2.48229E+00 1.72025E-13 1.04170E-15
 -1      4124 2.03855E+01 1.03406E-01 1.21803E-04 3.08317E-02 2.91434E-15-1.93959E-13
 -1      4125 2.03652E+01 4.85885E-02-9.99666E-05 3.93534E-02-1.48502E-14-2.15476E-13
 -1      4126 2.03631E+01 3.13790E-02-3.01457E-04 2.01473E-02-2.51668E-14-1.68412E-13
 -1      4127 2.04269E+01 4.75911E-01 2.04836E-04-1.16240E-02 4.18950E-14-2.45615E-13
 -1      4128 2.04247E+01 3.54392E-01-1.65423E-04 7.74787E-03 1.37794E-14-1.98651E-13
 -1      4129 2.17728E+01-1.58116E+00 3.30163E-03-1.32025E+00 5.24838E-13-1.56207E-13
 -1      4130 1.95730E+01-3.70542E-01 1.89822E-02 2.08974E+00 1.16898E-13-8.60627E-14
 -1      4131 2.04264E+01 3.11732E-01-2.75535E-04 2.26436E-03 4.37732E-14-1.95776E-13
 -1      4132 1.99467E+01 7.63122E-02 2.49804E-04 1.47237E-02 9.07202E-14-2.84918E-13
 -1      4133 2.03750E+01 7.68465E-02-2.15766E-04-3.97736E-02 2.77255E-14-2.16480E-13
 -1      4134 2.03975E+01 1.43618E-01 7.67383E-05-2.77211E-02 2.06773E-14-1.76577E-13
 -1      4135 2.09953E+01-1.27006E+00 1.26684E-02 1.83387E+00-2.64660E-14-2.21155E-13
 -1      4136 1.98994E+01 1.17414E-01 3.67172E-04 4.07843E-02 6.04310E-14-1.72373E-13
 -1      4137 2.02367E+01-8.32568E-02 1.72206E-04-4.81531E-02-1.04512E-13-1.85251E-13
 -1      4138 2.02606E+01-7.44228E-02 3.99211E-04-4.82198E-02-9.02138E-14-1.75354E-13
 -1      4139 2.01082E+01-5.95395E-02 1.66463E-04-3.72825E-02 1.57209E-14-9.71447E-14
 -1      4140 2.01270E+01-6.98659E-02 1.45875E-04-3.92681E-02-2.76197E-15-7.65693E-14
 -1      4141 2.01020E+01-5.59753E-02-3.58824E-04-1.97910E-02 5.86401E-14-5.39437E-14
 -1      4142 2.07059E+01-1.10377E+00-5.74719E-03-1.95931E+00 2.07106E-13-5.36870E-13
 -1      4143 2.04887E+01-8.26647E-01 1.53491E-02-1.82659E+00 3.67051E-13-6.42140E-13
 -1      4144 2.00904E+01-6.56162E-01-1.29209E-02-1.93007E+00 2.98513E-13-8.27153E-13
 -1      4145 2.04096E+01 2.08807E-01 3.08554E-04-2.33054E-02 1.78862E-14-2.03490E-13
 -1      4146 2.04204E+01 3.07869E-01-8.58766E-04-7.15719E-03 4.87136E-14-2.34849E-13
 -1      4147 2.04267E+01 3.17092E-01-6.29995E-04-2.88000E-03 3.44315E-14-2.47618E-13
 -1      4148 2.04081E+01 1.70763E-01-1.72635E-04-1.32261E-02 1.76390E-14-2.29901E-13
 -1      4149 2.04021E+01 1.46634E-01-1.36469E-04 1.47759E-02-7.57774E-15-1.92035E-13
 -1      4150 1.93472E+01 4.51083E-02 1.66452E-02 1.53708E+00 3.73505E-14-1.86619E-13
 -1      4151 1.96218E+01-1.75818E-01-1.46301E-02 1.40504E+00-4.76182E-16-3.23710E-13
 -1      4152 1.93073E+01-1.06146E-01 4.21939E-03 1.83661E+00 2.03158E-13-2.07205E-13
 -1      4153 1.86236E+01-1.15579E-02 7.54962E-03-2.53362E+00-2.74130E-13-2.32088E-13
 -1      4154 2.03846E+01 8.50603E-01-1.63851E-03-3.22954E-02 3.04810E-14-3.16450E-13
 -1      4155 2.03822E+01 8.45437E-01-1.53026E-03-5.67960E-02 2.84335E-14-2.96264E-13
 -1      4156 2.04033E+01 7.32375E-01 1.71271E-03-4.30793E-02 3.32360E-14-2.99819E-13
 -1      4157 2.04134E+01 7.03758E-01 1.17344E-03-1.46284E-02 6.95156E-14-2.66661E-13
 -1      4158 2.02127E+01-8.71841E-02 2.76547E-04-4.63860E-02-5.58521E-14-1.05342E-13
 -1      4159 2.02316E+01-8.64105E-02-6.13094E-04-2.70390E-02-1.04819E-13-1.22882E-13
 -1      4160 2.01906E+01-8.73197E-02 2.29322E-04-4.51157E-02 2.79830E-15-7.49177E-14
 -1      4161 2.01804E+01-1.18220E+00 2.55730E-02-2.91330E+00-6.34085E-14-1.55455E-13
 -1      4162 2.08950E+01-1.44110E+00-7.09594E-03-2.40409E+00 7.60997E-14-4.13457E-13
 -1      4163 1.93714E+01-5.78421E-01-1.67765E-02-2.60500E+00-1.36663E-13-1.50766E-13
 -1      4164 2.04243E+01 5.42136E-01-2.76459E-04 7.20537E-04 7.46378E-14-2.17391E-13
 -1      4165 2.16622E+01-1.67443E+00-1.09453E-02-1.72688E+00 3.84071E-13-3.71902E-14
 -1      4166 2.03323E+01-1.02719E-02 2.59634E-05-4.63284E-02 2.74086E-14-2.19229E-13
 -1      4167 2.03555E+01 2.77539E-02 3.88836E-04-4.11757E-02 6.93044E-15-2.26976E-13
 -1      4168 2.03741E+01 5.65566E-02-2.96679E-04-2.17222E-02 2.29429E-14-2.45156E-13
 -1      4169 2.04152E+01 6.12704E-01-4.45432E-04-1.52365E-02 5.58675E-14-2.62513E-13
 -1      4170 2.03316E+01-2.63945E-02 1.18213E-04 4.97684E-04-7.41365E-14-1.66425E-13
 -1      4171 2.03072E+01-5.19578E-02 3.25582E-04 1.80164E-03-5.02434E-14-1.80614E-13
 -1      4172 1.98546E+01 1.36395E-01-1.13724E-03 1.17525E-01 3.95609E-14-2.25869E-13
 -1      4173 1.98859E+01 1.21828E-01 1.15361E-03 8.96467E-02 4.62199E-14-2.20010E-13
 -1      4174 2.02766E+01-7.22982E-02 1.52289E-04-2.77002E-03-9.82940E-14-1.58112E-13
 -1      4175 2.02519E+01-8.25942E-02 4.17732E-04-1.88948E-03-1.41146E-13-2.00159E-13
 -1      4176 2.02276E+01-8.79525E-02 2.52505E-04-2.23718E-03-1.07683E-13-1.63331E-13
 -1      4177 2.02037E+01-8.91679E-02 3.80055E-04-1.95985E-03-7.67574E-14-1.64762E-13
 -1      4178 2.01378E+01-7.38950E-02 2.06716E-04-9.16140E-04 8.82739E-15-1.59623E-13
 -1      4179 2.01173E+01-6.42991E-02 2.84780E-04-4.11861E-04 3.91966E-14-1.42643E-13
 -1      4180 2.00973E+01-5.28760E-02 1.19920E-04 7.70563E-04 4.78966E-14-1.14659E-13
 -1      4181 2.00783E+01-4.01981E-02 2.56680E-04 1.97142E-03 1.97053E-15-8.72802E-14
 -1      4182 2.00592E+01-2.64223E-02 3.61116E-06 3.98620E-03-6.93308E-14-9.47463E-14
 -1      4183 2.00414E+01-1.16014E-02 2.58491E-04 6.44682E-03-2.29637E-14-1.18930E-13
 -1      4184 2.00221E+01 3.90198E-03-1.51775E-04 9.91795E-03 2.34766E-14-2.27315E-13
 -1      4185 2.00050E+01 2.02227E-02 3.11943E-04 1.44663E-02 3.73775E-14-2.49335E-13
 -1      4186 1.99842E+01 3.70850E-02-3.44029E-04 2.05249E-02 5.11810E-14-2.99790E-13
 -1      4187 1.99675E+01 5.43049E-02 4.48349E-04 2.84006E-02 4.39308E-14-2.71717E-13
 -1      4188 1.99443E+01 7.16633E-02-5.75144E-04 3.87221E-02 1.72423E-14-2.56947E-13
 -1      4189 1.99279E+01 8.89621E-02 7.08627E-04 5.17309E-02 3.86590E-14-2.73539E-13
 -1      4190 1.99012E+01 1.05803E-01-8.45284E-04 6.89205E-02 4.36675E-14-2.50336E-13
 -1      4191 1.98421E+01 1.48775E-01 1.86392E-03 1.49517E-01 5.00323E-14-2.12509E-13
 -1      4192 1.98063E+01 1.58008E-01-1.40025E-03 1.93456E-01 2.33865E-14-2.93560E-13
 -1      4193 1.98002E+01 1.62657E-01 2.93496E-03 2.41337E-01-3.79364E-14-2.28321E-13
 -1      4194 1.97612E+01 1.61403E-01-1.53042E-03 3.08439E-01-1.77950E-14-2.55024E-13
 -1      4195 1.97678E+01 1.51513E-01 4.38549E-03 3.78056E-01 2.38968E-14-2.51538E-13
 -1      4196 1.97317E+01 1.31997E-01-1.52512E-03 4.71619E-01 1.93994E-14-2.30288E-13
 -1      4197 1.97622E+01 9.82481E-02 6.44978E-03 5.67722E-01-2.20437E-14-2.14548E-13
 -1      4198 1.97367E+01 4.66527E-02-8.96373E-04 7.06877E-01-7.11591E-14-1.66342E-13
 -1      4199 1.98099E+01-2.70565E-02 9.17900E-03 8.33945E-01-4.10039E-14-2.13597E-13
 -1      4200 1.98175E+01-1.29209E-01 1.04892E-03 1.02214E+00 1.35538E-14-2.47493E-13
 -1      4201 1.99574E+01-2.63824E-01 1.19679E-02 1.18042E+00 7.08348E-14-2.76749E-13
 -1      4202 2.00254E+01-4.16805E-01 4.72794E-03 1.37730E+00 3.21691E-14-3.01179E-13
 -1      4203 2.02601E+01-6.33941E-01 1.24008E-02 1.54751E+00 2.69960E-14-3.21888E-13
 -1      4204 2.05338E+01-9.06776E-01 1.68485E-02 1.74946E+00 4.16616E-15-2.55808E-13
 -1      4205 2.04231E+01 2.30156E-01 1.52421E-03 9.68273E-04 6.30456E-15-2.16382E-13
 -1      4206 2.14152E+01-1.67111E+00 1.21263E-02-2.20021E+00 1.62388E-13-2.87808E-13
 -1      4207 2.02864E+01-6.30167E-02-5.01462E-04-2.41069E-02-7.31042E-14-1.42396E-13
 -1      4208 2.02909E+01-5.59645E-02-7.19977E-06-4.57301E-02-2.95593E-14-1.89306E-13
 -1      4209 1.99118E+01-6.07992E-01-2.51785E-02 1.85233E+00 7.80284E-14-2.65902E-13
 -1      4210 2.04092E+01 6.29240E-01 6.06148E-05-3.04613E-02 2.61308E-14-3.01468E-13
 -1      4211 2.01479E+01-7.81084E-02 2.19777E-04-4.13240E-02-1.57930E-14-5.01465E-14
 -1      4212 2.01682E+01-8.41044E-02 2.06965E-04-4.31336E-02 2.93343E-14-5.04494E-14
 -1      4213 2.01852E+01-8.76569E-02-5.83543E-04-2.52678E-02-2.13235E-15-1.94613E-14
 -1      4214 2.01422E+01-7.62841E-02-4.87012E-04-2.28316E-02 1.32967E-14-4.21604E-14
 -1      4215 2.04097E+01 1.61839E-01-2.28154E-04-2.22810E-03 1.29237E-14-2.08055E-13
 -1      4216 2.03933E+01 9.43336E-02 5.13795E-04 8.92606E-04 1.22983E-14-2.19583E-13
 -1      4217 1.96182E+01-3.83877E-01 8.49561E-03-2.13583E+00 1.19167E-14-2.47987E-13
 -1      4218 2.03721E+01 4.10655E-02-1.37535E-04-2.20247E-03 9.06061E-15-2.14916E-13
 -1      4219 2.03497E+01-7.87496E-04 3.86537E-04-3.76505E-05-5.40187E-14-2.15096E-13
 -1      4220 2.03151E+01-3.28738E-02 4.78083E-04-4.36273E-02 1.81525E-14-1.74611E-13
 -1      4221 1.94400E+01-1.67991E-01 8.96143E-04-1.91742E+00 1.38664E-13-3.29371E-13
 -1      4222 2.01811E+01-8.67411E-02 2.58177E-04-1.76519E-03 4.35960E-15-1.68760E-13
 -1      4223 2.01589E+01-8.15637E-02 3.30106E-04-1.54839E-03 3.44992E-14-1.19585E-13
 -1      4224 2.03348E+01-1.70810E-02-5.42336E-04-2.25858E-02-1.60030E-14-1.49928E-13
 -3
    1PSTEP                         3           1           1          
  100CL  101 1.000000000        4224                     0    1           1
 -4  TOSTRAIN    6    1
 -5  EXX         1    4    1    1
 -5  EYY         1    4    2    2
 -5  EZZ         1    4    3    3
 -5  EXY         1    4    1    2
 -5  EYZ         1    4    2    3
 -5  EZX         1    4    3    1
 -1         1 1.94427E-04-1.96412E-05-6.67066E-05-1.24623E-04-3.07113E-18 3.79979E-18
 -1         2 4.00720E-05-1.24810E-04 2.39308E-05-1.64683E-06 9.88297E-18 5.76591E-19
 -1         3 9.51526E-05-2.86986E-05-2.83841E-05-1.44152E-07 2.04553E-18 3.31273E-18
 -1         4 9.52408E-05-2.85669E-05-2.85770E-05-5.54682E-09-2.59070E-19 1.18118E-18
 -1         5 1.46418E-04 2.58477E-10-4.41400E-05 5.42430E-05 7.28448E-19 1.83302E-17
 -1         6 1.45455E-04 2.57646E-10-4.41998E-05-5.35445E-05-1.06938E-18 1.55316E-17
 -1         7 9.06286E-05-5.11008E-07-3.90773E-05-2.92638E-05-1.52466E-19 2.27627E-18
 -1         8 8.51395E-05 8.64149E-08-3.63452E-05-2.02820E-05-2.08900E-19-1.62927E-18
 -1         9 8.28229E-05 7.65973E-08-3.53548E-05-1.56510E-05-1.52056E-19-3.67788E-18
 -1        10 8.17792E-05 3.92183E-08-3.48846E-05-1.20920E-05-9.91558E-20-4.66035E-18
 -1        11 8.12569E-05 1.92233E-08-3.46550E-05-9.02841E-06-6.91457E-20-5.03243E-18
 -1        12 8.09841E-05 9.24592E-09-3.45392E-05-6.30183E-06-3.23262E-20-5.09725E-18
 -1        13 8.08402E-05 4.69522E-09-3.44804E-05-3.70695E-06-1.10602E-20-5.06488E-18
 -1        14 8.07792E-05 2.83253E-09-3.44560E-05-1.20981E-06 2.48235E-20-4.98600E-18
 -1        15 8.07798E-05 2.85968E-09-3.44563E-05 1.25654E-06 5.49451E-20-4.85583E-18
 -1        16 8.08422E-05 4.75153E-09-3.44811E-05 3.75505E-06 7.77690E-20-4.72793E-18
 -1        17 8.09884E-05 8.89534E-09-3.45405E-05 6.35358E-06 8.81344E-20-4.42634E-18
 -1        18 8.12636E-05 1.91126E-08-3.46573E-05 9.08366E-06 1.10448E-19-3.92275E-18
 -1        19 8.17947E-05 3.94899E-08-3.48907E-05 1.21551E-05 1.75508E-19-3.17659E-18
 -1        20 8.28488E-05 7.89462E-08-3.53679E-05 1.57274E-05 2.10051E-19-1.78087E-18
 -1        21 8.51927E-05 9.56983E-08-3.63746E-05 2.03716E-05 2.35766E-19 9.22938E-19
 -1        22 9.05291E-05-3.81322E-07-3.90981E-05 2.93052E-05 1.01644E-19 5.44473E-18
 -1        23 1.13010E-04-3.81381E-05-3.54078E-05-4.40467E-06-7.33107E-19 1.18231E-17
 -1        24 9.28324E-05-2.77054E-05-2.90080E-05 3.91256E-07-1.88720E-19 8.58852E-18
 -1        25 8.91442E-05-2.68596E-05-2.69368E-05 3.75866E-07-1.55081E-19 5.41699E-18
 -1        26 8.80389E-05-2.64954E-05-2.63988E-05 2.04008E-07-7.15263E-21 3.15827E-18
 -1        27 8.80651E-05-2.64736E-05-2.63909E-05 1.39923E-07-2.42426E-20 1.68003E-18
 -1        28 8.86007E-05-2.66106E-05-2.65610E-05 1.00989E-07-3.60030E-21 1.00328E-18
 -1        29 8.93592E-05-2.68244E-05-2.67946E-05 7.53277E-08-1.43906E-20 1.62137E-19
 -1        30 9.01891E-05-2.70656E-05-2.70462E-05 5.70529E-08 3.86635E-20-1.15649E-18
 -1        31 9.10058E-05-2.73062E-05-2.72926E-05 4.33343E-08-7.42555E-20-2.26166E-18
 -1        32 9.17627E-05-2.75306E-05-2.75207E-05 3.27342E-08-1.54902E-19-3.92814E-18
 -1        33 9.24368E-05-2.77313E-05-2.77240E-05 2.44514E-08 3.59007E-19-3.99630E-18
 -1        34 9.30205E-05-2.79056E-05-2.79001E-05 1.79860E-08-1.26379E-19-3.83772E-18
 -1        35 9.35158E-05-2.80537E-05-2.80498E-05 1.29942E-08 1.83485E-19-4.10115E-18
 -1        36 9.39309E-05-2.81781E-05-2.81753E-05 9.22451E-09 4.32008E-21-2.88886E-18
 -1        37 9.42778E-05-2.82822E-05-2.82804E-05 6.49005E-09-4.27257E-19-1.99179E-18
 -1        38 9.45702E-05-2.83701E-05-2.83690E-05 4.65466E-09-9.44295E-20-2.69675E-18
 -1        39 9.48227E-05-2.84460E-05-2.84457E-05 3.62413E-09-6.10995E-20-4.07809E-18
 -1        40 9.50491E-05-2.85141E-05-2.85144E-05 3.33554E-09 9.83900E-20-5.32724E-18
 -1        41 9.52617E-05-2.85779E-05-2.85788E-05 3.73959E-09 2.00911E-20-6.55028E-18
 -1        42 9.54693E-05-2.86401E-05-2.86415E-05 4.77001E-09-3.26724E-20-6.83483E-18
 -1        43 9.56750E-05-2.87013E-05-2.87032E-05 6.29378E-09 3.09141E-20-6.07160E-18
 -1        44 9.58728E-05-2.87599E-05-2.87619E-05 8.03585E-09 1.38381E-19-4.72624E-18
 -1        45 9.60436E-05-2.88099E-05-2.88116E-05 9.47656E-09-1.99626E-20-4.31901E-18
 -1        46 9.61492E-05-2.88400E-05-2.88402E-05 9.73094E-09-1.73509E-19-5.30369E-18
 -1        47 9.61273E-05-2.88314E-05-2.88289E-05 7.44258E-09 1.50528E-19-4.58758E-18
 -1        48 9.58876E-05-2.87573E-05-2.87502E-05 7.63774E-10-2.46359E-20-3.50209E-18
 -1        49 9.53122E-05-2.85828E-05-2.85692E-05-1.24569E-08 1.30529E-19-4.30039E-18
 -1        50 9.42660E-05-2.82678E-05-2.82465E-05-3.41235E-08-5.82292E-19-5.85102E-18
 -1        51 9.26203E-05-2.77745E-05-2.77460E-05-6.48576E-08 2.45554E-19-6.18647E-18
 -1        52 9.02930E-05-2.70787E-05-2.70464E-05-1.02558E-07-1.57391E-19-3.04865E-18
 -1        53 8.73021E-05-2.61862E-05-2.61573E-05-1.41057E-07-1.07462E-19-2.91628E-18
 -1        54 8.38189E-05-2.51479E-05-2.51321E-05-1.69933E-07-3.40882E-19-3.15700E-18
 -1        55 8.01929E-05-2.40677E-05-2.40745E-05-1.76679E-07-3.80433E-19-4.04468E-18
 -1        56 7.69223E-05-2.30937E-05-2.31278E-05-1.51552E-07 3.10708E-19-4.14844E-18
 -1        57 7.45533E-05-2.23883E-05-2.24456E-05-9.33614E-08 2.05014E-19-4.19149E-18
 -1        58 7.35300E-05-2.20836E-05-2.21514E-05-1.26014E-08-1.31206E-19-5.69171E-18
 -1        59 7.40509E-05-2.22386E-05-2.23000E-05 7.11309E-08 1.04227E-19-4.95026E-18
 -1        60 7.59992E-05-2.28185E-05-2.28592E-05 1.36950E-07 3.47636E-19-3.62543E-18
 -1        61 7.89834E-05-2.37069E-05-2.37204E-05 1.71251E-07-6.50726E-20-2.81670E-18
 -1        62 8.24662E-05-2.47441E-05-2.47329E-05 1.72044E-07-3.58575E-19-7.20184E-18
 -1        63 8.59210E-05-2.57735E-05-2.57463E-05 1.47246E-07 5.52895E-19-7.99640E-18
 -1        64 8.89506E-05-2.66772E-05-2.66441E-05 1.09260E-07-8.99786E-20-7.62693E-18
 -1        65 9.13388E-05-2.73908E-05-2.73601E-05 6.96349E-08-1.06937E-18-7.23358E-18
 -1        66 9.30384E-05-2.79001E-05-2.78766E-05 3.61262E-08 6.36216E-19-7.68913E-18
 -1        67 9.41247E-05-2.82270E-05-2.82124E-05 1.23072E-08 4.17193E-19-3.49293E-18
 -1        68 9.47391E-05-2.84133E-05-2.84071E-05-1.22463E-09-1.84291E-19-1.23152E-18
 -1        69 9.50429E-05-2.85066E-05-2.85065E-05-5.46987E-09-2.77010E-19-1.12471E-18
 -1        70 9.51770E-05-2.85494E-05-2.85511E-05-4.09387E-09 4.42199E-19-3.70060E-19
 -1        71 9.52322E-05-2.85693E-05-2.85680E-05-1.29233E-09 4.73887E-20 3.63354E-18
 -1        72 1.14010E-04-3.82823E-05-3.57426E-05 4.97142E-06 5.75982E-19 1.54825E-17
 -1        73 9.31731E-05-2.78103E-05-2.91764E-05-4.07503E-07 1.99033E-19 1.27561E-17
 -1        74 8.92516E-05-2.68880E-05-2.69920E-05-3.82126E-07 1.10132E-19 9.58545E-18
 -1        75 8.80630E-05-2.65035E-05-2.64111E-05-2.08570E-07 8.28959E-20 7.51620E-18
 -1        76 8.80506E-05-2.64704E-05-2.63868E-05-1.42223E-07 3.65213E-20 6.13971E-18
 -1        77 8.85678E-05-2.66016E-05-2.65509E-05-1.02440E-07 5.28314E-20 4.63217E-18
 -1        78 8.93182E-05-2.68125E-05-2.67822E-05-7.63456E-08 1.18422E-19 3.90349E-18
 -1        79 9.01458E-05-2.70530E-05-2.70331E-05-5.78187E-08 4.94246E-21 3.79689E-18
 -1        80 9.09610E-05-2.72931E-05-2.72791E-05-4.39215E-08 7.78777E-20 3.28430E-18
 -1        81 9.16855E-05-2.75074E-05-2.74973E-05-3.34852E-08-3.02168E-20 3.23960E-18
 -1        82 9.23651E-05-2.77099E-05-2.77023E-05-2.50696E-08 8.82160E-20 2.75006E-18
 -1        83 9.29534E-05-2.78855E-05-2.78798E-05-1.82875E-08-8.15785E-20 2.71017E-18
 -1        84 9.34510E-05-2.80344E-05-2.80300E-05-1.29734E-08 1.57909E-21 2.29110E-18
 -1        85 9.38653E-05-2.81586E-05-2.81553E-05-8.79996E-09 1.96506E-19 6.89286E-19
 -1        86 9.42080E-05-2.82615E-05-2.82590E-05-5.52721E-09 1.36113E-19-1.68469E-19
 -1        87 9.44934E-05-2.83475E-05-2.83454E-05-2.95638E-09-3.94697E-19-5.10646E-19
 -1        88 9.47384E-05-2.84216E-05-2.84198E-05-9.23193E-10-2.86014E-20 4.50351E-19
 -1        89 9.49623E-05-2.84896E-05-2.84879E-05 7.07367E-10-2.20923E-19 1.91832E-18
 -1        90 9.51885E-05-2.85584E-05-2.85569E-05 1.70920E-09 3.36486E-19 4.73157E-19
 -1        91 9.54328E-05-2.86334E-05-2.86314E-05 3.00312E-09 1.59769E-19 7.91320E-19
 -1        92 9.57591E-05-2.87333E-05-2.87314E-05 3.47302E-09-3.49319E-19 3.95635E-19
 -1        93 9.62138E-05-2.88726E-05-2.88711E-05 3.16583E-09 4.10469E-19 1.07530E-18
 -1        94 9.68838E-05-2.90777E-05-2.90777E-05 1.08803E-09-3.55541E-19 4.99330E-19
 -1        95 9.79043E-05-2.93893E-05-2.93937E-05-4.77347E-09 2.93365E-19 1.35208E-19
 -1        96 9.94880E-05-2.98713E-05-2.98865E-05-1.85923E-08-8.13615E-21-1.45114E-19
 -1        97 1.01971E-04-3.06236E-05-3.06636E-05-4.88302E-08 1.19883E-20-3.59661E-19
 -1        98 1.05881E-04-3.18012E-05-3.18933E-05-1.12259E-07-2.51910E-19 2.05597E-19
 -1        99 1.12017E-04-3.36400E-05-3.38273E-05-2.38275E-07 3.63521E-19 7.79985E-19
 -1       100 1.21477E-04-3.64454E-05-3.67946E-05-5.10445E-07-1.31413E-19-6.89405E-19
 -1       101 1.34809E-04-4.04147E-05-4.08832E-05-8.79660E-07-1.49369E-19-1.52148E-19
 -1       102 1.54021E-04-4.61589E-05-4.64638E-05-1.48847E-06 3.37404E-19-4.32252E-19
 -1       103 1.76593E-04-5.30529E-05-5.22985E-05-1.90979E-06-6.27880E-19 3.04556E-18
 -1       104 1.93049E-04-5.84899E-05-5.55231E-05-4.03380E-07-3.88583E-19 6.81651E-18
 -1       105 1.86425E-04-5.66255E-05-5.30964E-05 3.82295E-06 4.74233E-19 5.49915E-18
 -1       106 1.44895E-04-4.27241E-05-4.51596E-05 9.97641E-06 3.53822E-19 2.56820E-18
 -1       107 9.45761E-05-2.48375E-05-3.74410E-05 7.55601E-06-7.22307E-19-4.89585E-19
 -1       108 7.81322E-05-1.89820E-05-3.53493E-05-2.31787E-06 6.68097E-19 3.81271E-19
 -1       109 1.18776E-04-3.40621E-05-4.07717E-05-9.86239E-06-2.76093E-19-4.87213E-18
 -1       110 1.70817E-04-5.17131E-05-4.97035E-05-5.98271E-06-7.72521E-20 8.33904E-19
 -1       111 1.93360E-04-5.87804E-05-5.48738E-05-1.05633E-06-3.25539E-19 3.34747E-18
 -1       112 1.85203E-04-5.58954E-05-5.40974E-05 1.44418E-06 4.93403E-19 1.77398E-18
 -1       113 1.64389E-04-4.93315E-05-4.92300E-05 1.53449E-06-3.12087E-19 1.60777E-19
 -1       114 1.42741E-04-4.27548E-05-4.32457E-05 1.03869E-06 3.62040E-20 1.42111E-18
 -1       115 1.26002E-04-3.77640E-05-3.82212E-05 5.90119E-07-4.21627E-19 3.13164E-18
 -1       116 1.14341E-04-3.43026E-05-3.45903E-05 3.13646E-07-2.59354E-20 3.58171E-18
 -1       117 1.06552E-04-3.19850E-05-3.21385E-05 1.65533E-07-1.10020E-19 3.60505E-18
 -1       118 1.01419E-04-3.04497E-05-3.05287E-05 9.18666E-08 1.00975E-18 4.04460E-18
 -1       119 9.80732E-05-2.94427E-05-2.94944E-05 5.53639E-08-8.89906E-19 5.02081E-18
 -1       120 9.60337E-05-2.88265E-05-2.88751E-05 2.11374E-08 4.02486E-19 8.61242E-18
 -1       121 9.51611E-05-2.85515E-05-2.85667E-05-8.12164E-08-4.07260E-19 1.01877E-17
 -1       122 9.52740E-05-2.86769E-05-2.85750E-05-8.63193E-08 1.05598E-17 2.24349E-19
 -1       123 9.50103E-05-2.77452E-05-2.88785E-05 3.84208E-08 9.95947E-18-2.09134E-18
 -1       124 9.45074E-05-2.60916E-05-2.93274E-05 9.47120E-08 1.50020E-17-4.54577E-19
 -1       125 9.39926E-05-2.44053E-05-2.97879E-05 1.01386E-07 7.80802E-18-7.15905E-19
 -1       126 9.36309E-05-2.32265E-05-3.01163E-05 7.44931E-08-1.51340E-18 8.33737E-19
 -1       127 9.35103E-05-2.28362E-05-3.02317E-05 3.40340E-08-1.15774E-17-1.62105E-19
 -1       128 9.36262E-05-2.32255E-05-3.01307E-05-7.46399E-09-2.00026E-17-1.36176E-18
 -1       129 9.39197E-05-2.41984E-05-2.98624E-05-3.68303E-08-2.05696E-17-6.73222E-19
 -1       130 9.42972E-05-2.54484E-05-2.95101E-05-4.99698E-08-2.63876E-18 2.38969E-18
 -1       131 9.46686E-05-2.66779E-05-2.91574E-05-4.81032E-08 3.27622E-18-3.67491E-18
 -1       132 9.49677E-05-2.76692E-05-2.88673E-05-3.54080E-08 5.82701E-18 2.51371E-18
 -1       133 9.51614E-05-2.83124E-05-2.86735E-05-1.92409E-08 1.00924E-17-2.32973E-18
 -1       134 9.52569E-05-2.86317E-05-2.85707E-05-3.23811E-09 7.29340E-18 9.74903E-19
 -1       135 9.52769E-05-2.86997E-05-2.85406E-05 7.84691E-09 2.86818E-19-1.05158E-18
 -1       136 9.52581E-05-2.86408E-05-2.85494E-05 1.08572E-08-9.86363E-18-5.57916E-19
 -1       137 9.52394E-05-2.85800E-05-2.85667E-05 2.54030E-09-5.47469E-18-3.42802E-19
 -1       138 3.20567E-05-1.14012E-04 2.22889E-05-3.32890E-05 7.70895E-18-2.77041E-19
 -1       139 1.03508E-05-6.44713E-05 1.13372E-05-3.94454E-05 2.88118E-18 3.09103E-18
 -1       140 6.47516E-06-6.83297E-06-8.78755E-06-2.30685E-06 9.83617E-18 7.41111E-18
 -1       141 4.98402E-05 1.83643E-05-3.27902E-05 6.02460E-05 7.46448E-18 8.66599E-18
 -1       142 1.56225E-04-6.76324E-06-5.87969E-05 1.15305E-04 3.03915E-18 5.06017E-18
 -1       143 2.99999E-04-7.15634E-05-8.16066E-05 1.12361E-04 1.55176E-18 8.07138E-18
 -1       144 4.00563E-04-1.23390E-04-9.45430E-05 3.67384E-05 8.77473E-19 6.46350E-18
 -1       145 3.84191E-04-1.14705E-04-9.22174E-05-6.50583E-05 9.32471E-19 8.38563E-19
 -1       146 2.44446E-04-4.48228E-05-7.33402E-05-1.21632E-04 3.48363E-18-8.24078E-18
 -1       147 9.95096E-05 9.44395E-06-4.61734E-05-9.18567E-05 7.26881E-18-1.01559E-17
 -1       148 1.84375E-05 1.02949E-05-1.94026E-05-2.38474E-05 1.04410E-17-1.00738E-17
 -1       149 4.34879E-06-3.65945E-05 2.86845E-06 2.75976E-05 1.18610E-17-7.94453E-18
 -1       150 2.22194E-05-9.51272E-05 1.85303E-05 4.22757E-05 9.02238E-18-3.31195E-18
 -1       151 4.00692E-05-1.26808E-04 2.43036E-05 1.71806E-05 6.77172E-18-7.71594E-20
 -1       152 3.46438E-05-1.09343E-04 2.05472E-05-1.39464E-05 1.00670E-18-1.67580E-19
 -1       153 1.45904E-05-5.57334E-05 8.91099E-06-2.17378E-05-3.51942E-18-1.51735E-18
 -1       154 7.12851E-06 6.34250E-06-1.03527E-05 1.23900E-05-1.01314E-17-6.84254E-18
 -1       155 3.73880E-05 3.59492E-05-3.13103E-05 6.82440E-05-1.09127E-17-1.07353E-17
 -1       156 1.16770E-04 1.84505E-05-5.29415E-05 1.17323E-04-7.82404E-18-1.05104E-17
 -1       157 2.16782E-04-3.18148E-05-7.02258E-05 1.22589E-04-3.17680E-18-7.92653E-18
 -1       158 3.02658E-04-8.32019E-05-8.22018E-05 7.55034E-05-1.66515E-18-7.32726E-18
 -1       159 3.31934E-04-1.02088E-04-8.57978E-05-8.39969E-06 2.26872E-19-4.44962E-18
 -1       160 2.89901E-04-7.50095E-05-8.06925E-05-8.67598E-05 5.87285E-19-1.80651E-18
 -1       161 8.66679E-05 2.91163E-05-4.62019E-05-1.04981E-04-7.41747E-18 9.42959E-18
 -1       162 1.95080E-05 2.90042E-05-2.27019E-05-4.45478E-05-5.72467E-18 4.64598E-18
 -1       163 6.08190E-06-1.98247E-05-7.64009E-07 9.41101E-06 2.41489E-18 3.47707E-19
 -1       164 2.51278E-05-8.53594E-05 1.55013E-05 2.29253E-05 5.42059E-18-2.26989E-18
 -1       165 9.48872E-05-1.23478E-05-3.55770E-05-2.23619E-05-2.38044E-18 2.38996E-19
 -1       166 8.92621E-05-8.45747E-06-3.47926E-05-1.74020E-05-2.12695E-18-2.13681E-18
 -1       167 8.65444E-05-6.49580E-06-3.44188E-05-1.36014E-05-1.61448E-18-3.42383E-18
 -1       168 8.51969E-05-5.51458E-06-3.42338E-05-1.03818E-05-1.16263E-18-4.05851E-18
 -1       169 8.44446E-05-4.93847E-06-3.41433E-05-7.56302E-06-7.28199E-19-4.27251E-18
 -1       170 8.40146E-05-4.59313E-06-3.40994E-05-4.92341E-06-3.53277E-19-4.28736E-18
 -1       171 8.37933E-05-4.40726E-06-3.40806E-05-2.41852E-06 3.53425E-20-4.17201E-18
 -1       172 8.37256E-05-4.34905E-06-3.40755E-05 2.30878E-08 4.07286E-19-4.11204E-18
 -1       173 8.37961E-05-4.40954E-06-3.40809E-05 2.46530E-06 7.56550E-19-4.01251E-18
 -1       174 8.40215E-05-4.59877E-06-3.41000E-05 4.97201E-06 1.04856E-18-3.82241E-18
 -1       175 8.44473E-05-4.94169E-06-3.41430E-05 7.57013E-06 1.43518E-18-3.40037E-18
 -1       176 8.52118E-05-5.52507E-06-3.42350E-05 1.04408E-05 1.91972E-18-2.85931E-18
 -1       177 8.65989E-05-6.53483E-06-3.44246E-05 1.36757E-05 2.29660E-18-1.92049E-18
 -1       178 8.93264E-05-8.49755E-06-3.48038E-05 1.74833E-05 2.46087E-18-1.16586E-19
 -1       179 9.50086E-05-1.24543E-05-3.55728E-05 2.24915E-05 2.38805E-18 2.78248E-18
 -1       180 1.03423E-04-2.73073E-05-3.26187E-05-1.21341E-05-2.08709E-18 3.26539E-18
 -1       181 9.71303E-05-2.82964E-05-2.95356E-05-4.73540E-06-1.83436E-18 2.13412E-18
 -1       182 9.35263E-05-2.76422E-05-2.81881E-05-1.77220E-06-1.46007E-18 1.33175E-18
 -1       183 9.19893E-05-2.74103E-05-2.76413E-05-4.22505E-07-9.01301E-19 5.44401E-19
 -1       184 9.14134E-05-2.73354E-05-2.74437E-05 2.43714E-07-6.28536E-19 1.07500E-19
 -1       185 9.13728E-05-2.73747E-05-2.74191E-05 5.71217E-07-6.31879E-19-3.73380E-19
 -1       186 9.16189E-05-2.74781E-05-2.74849E-05 7.11600E-07-7.05003E-19-9.07050E-19
 -1       187 9.20063E-05-2.76114E-05-2.75961E-05 7.44188E-07-6.89120E-19-1.36568E-18
 -1       188 9.24484E-05-2.77532E-05-2.77259E-05 7.15019E-07-6.85791E-19-1.47463E-18
 -1       189 9.28936E-05-2.78909E-05-2.78584E-05 6.52734E-07-2.85617E-19-1.55566E-18
 -1       190 9.33129E-05-2.80175E-05-2.79841E-05 5.75773E-07-6.89933E-20-2.80265E-18
 -1       191 9.36917E-05-2.81298E-05-2.80985E-05 4.96107E-07-9.96110E-20-2.77758E-18
 -1       192 9.40252E-05-2.82272E-05-2.81997E-05 4.21398E-07 3.20074E-19-2.61429E-18
 -1       193 9.43147E-05-2.83107E-05-2.82880E-05 3.56358E-07 3.53083E-19-2.31568E-18
 -1       194 9.45656E-05-2.83822E-05-2.83648E-05 3.03618E-07-5.70513E-19-2.07298E-18
 -1       195 9.47851E-05-2.84442E-05-2.84322E-05 2.64257E-07-6.97824E-19-2.54049E-18
 -1       196 9.49815E-05-2.84996E-05-2.84925E-05 2.38016E-07-6.76916E-19-2.24678E-18
 -1       197 9.51626E-05-2.85510E-05-2.85481E-05 2.23250E-07-1.36344E-19-2.52816E-18
 -1       198 9.53347E-05-2.86009E-05-2.86004E-05 2.16564E-07-8.88009E-19-2.71045E-18
 -1       199 9.55005E-05-2.86508E-05-2.86502E-05 2.12176E-07 4.55647E-19-3.39084E-18
 -1       200 9.56576E-05-2.87009E-05-2.86963E-05 2.01024E-07 4.64899E-19-3.12101E-18
 -1       201 9.57958E-05-2.87496E-05-2.87351E-05 1.69764E-07 1.40281E-19-3.42776E-18
 -1       202 9.58936E-05-2.87920E-05-2.87596E-05 9.99863E-08 1.33942E-19-2.42023E-18
 -1       203 9.59156E-05-2.88186E-05-2.87584E-05-3.17914E-08 4.76449E-19-1.67646E-18
 -1       204 9.58093E-05-2.88146E-05-2.87155E-05-2.52399E-07-1.28307E-19-2.15816E-18
 -1       205 9.55051E-05-2.87579E-05-2.86103E-05-5.87362E-07-4.25556E-19-2.61955E-18
 -1       206 9.49202E-05-2.86196E-05-2.84196E-05-1.05216E-06-7.18144E-19-3.33078E-18
 -1       207 9.39697E-05-2.83658E-05-2.81212E-05-1.63906E-06 4.30390E-19-1.93972E-18
 -1       208 9.25871E-05-2.79635E-05-2.77003E-05-2.30158E-06 1.33778E-18-1.39819E-18
 -1       209 9.07541E-05-2.73918E-05-2.71581E-05-2.94225E-06-1.26633E-19-1.08195E-18
 -1       210 8.85349E-05-2.66574E-05-2.65193E-05-3.41380E-06-5.93013E-19-6.94076E-19
 -1       211 8.61034E-05-2.58110E-05-2.58368E-05-3.54466E-06-7.53372E-19-7.83307E-19
 -1       212 8.37442E-05-2.49552E-05-2.51893E-05-3.19236E-06-1.16761E-19-1.37346E-18
 -1       213 8.18116E-05-2.42324E-05-2.46682E-05-2.31098E-06 2.00269E-19-2.23561E-18
 -1       214 8.06453E-05-2.37887E-05-2.43570E-05-9.99550E-07-6.81962E-19-2.16405E-18
 -1       215 8.04677E-05-2.37234E-05-2.43086E-05 5.04064E-07-3.56644E-19-2.75058E-18
 -1       216 8.13072E-05-2.40496E-05-2.45297E-05 1.89472E-06 1.33474E-20-3.79999E-18
 -1       217 8.29878E-05-2.46884E-05-2.49786E-05 2.90619E-06-2.35816E-19-3.46907E-18
 -1       218 8.51903E-05-2.55009E-05-2.55774E-05 3.39744E-06-1.50073E-18-3.19533E-18
 -1       219 8.75528E-05-2.63382E-05-2.62343E-05 3.37822E-06-3.56845E-19-2.81584E-18
 -1       220 8.97646E-05-2.70839E-05-2.68654E-05 2.97307E-06-3.10487E-19-3.71535E-18
 -1       221 9.16212E-05-2.76732E-05-2.74104E-05 2.35556E-06 1.33911E-18-3.84181E-18
 -1       222 9.30345E-05-2.80894E-05-2.78385E-05 1.68863E-06 6.82160E-19-1.24962E-18
 -1       223 9.40114E-05-2.83500E-05-2.81454E-05 1.09047E-06 2.50780E-18-1.05125E-18
 -1       224 9.46200E-05-2.84898E-05-2.83457E-05 6.26104E-07 1.98272E-18-8.77844E-19
 -1       225 9.49561E-05-2.85479E-05-2.84638E-05 3.15524E-07 1.89537E-19 1.06920E-18
 -1       226 9.51197E-05-2.85646E-05-2.85257E-05 1.41828E-07 1.26234E-18 7.66943E-19
 -1       227 9.51954E-05-2.85714E-05-2.85537E-05 6.00218E-08 2.22514E-18 2.37924E-18
 -1       228 1.03664E-04-2.71153E-05-3.28057E-05 1.26198E-05 2.02504E-18 5.66731E-18
 -1       229 9.73309E-05-2.82785E-05-2.96342E-05 4.96389E-06 1.85229E-18 4.54095E-18
 -1       230 9.36378E-05-2.76546E-05-2.82321E-05 1.86935E-06 1.37841E-18 3.56269E-18
 -1       231 9.20386E-05-2.74176E-05-2.76587E-05 4.70417E-07 9.27986E-19 2.69384E-18
 -1       232 9.14268E-05-2.73358E-05-2.74488E-05-2.19114E-07 8.01135E-19 2.20843E-18
 -1       233 9.13660E-05-2.73706E-05-2.74177E-05-5.59070E-07 5.23892E-19 1.97552E-18
 -1       234 9.16013E-05-2.74717E-05-2.74799E-05-7.06435E-07 2.50443E-19 1.77858E-18
 -1       235 9.19827E-05-2.76038E-05-2.75891E-05-7.42910E-07 3.51476E-19 1.67233E-18
 -1       236 9.23998E-05-2.77383E-05-2.77114E-05-7.17598E-07 2.75675E-19 1.30094E-18
 -1       237 9.28455E-05-2.78766E-05-2.78438E-05-6.56833E-07 2.49735E-19 9.21855E-19
 -1       238 9.32660E-05-2.80039E-05-2.79699E-05-5.79612E-07 2.21941E-19 8.11859E-19
 -1       239 9.36465E-05-2.81170E-05-2.80846E-05-4.98342E-07 1.82804E-19 5.13785E-19
 -1       240 9.39813E-05-2.82149E-05-2.81862E-05-4.21315E-07 6.74674E-19 4.42607E-19
 -1       241 9.42718E-05-2.82986E-05-2.82747E-05-3.53912E-07 5.53978E-19 3.10431E-19
 -1       242 9.45240E-05-2.83702E-05-2.83520E-05-2.99872E-07 3.44024E-20 5.59235E-20
 -1       243 9.47475E-05-2.84325E-05-2.84209E-05-2.62240E-07-6.43388E-19 2.84004E-19
 -1       244 9.49551E-05-2.84892E-05-2.84853E-05-2.44267E-07-3.01603E-19 1.38913E-20
 -1       245 9.51630E-05-2.85446E-05-2.85502E-05-2.50585E-07 7.27197E-19-2.42551E-19
 -1       246 9.53799E-05-2.86012E-05-2.86183E-05-2.85041E-07 6.63668E-20-2.62303E-19
 -1       247 9.56545E-05-2.86712E-05-2.87053E-05-3.61757E-07-5.20871E-20 3.92487E-19
 -1       248 9.60138E-05-2.87608E-05-2.88197E-05-4.97994E-07 1.03340E-19 6.75385E-19
 -1       249 9.65108E-05-2.88821E-05-2.89790E-05-7.22152E-07 5.29927E-19 3.19036E-19
 -1       250 9.72220E-05-2.90523E-05-2.92084E-05-1.07998E-06 5.54309E-19-1.31784E-19
 -1       251 9.82591E-05-2.92955E-05-2.95452E-05-1.64355E-06-1.41670E-19 1.62904E-19
 -1       252 9.97839E-05-2.96459E-05-3.00440E-05-2.52402E-06-4.66116E-20 1.57829E-19
 -1       253 1.02027E-04-3.01530E-05-3.07833E-05-3.88609E-06-7.21781E-20-8.91866E-21
 -1       254 1.05304E-04-3.08887E-05-3.18696E-05-5.95379E-06-1.00307E-19-2.44156E-19
 -1       255 1.10012E-04-3.19678E-05-3.34292E-05-8.98425E-06 8.73728E-19-9.65369E-20
 -1       256 1.16225E-04-3.34989E-05-3.54491E-05-1.28700E-05-2.75719E-19-4.33903E-19
 -1       257 1.24965E-04-3.60512E-05-3.81109E-05-1.75213E-05-4.00167E-19-1.55973E-19
 -1       258 1.36136E-04-4.04667E-05-4.09666E-05-2.06788E-05-1.88525E-18 3.76149E-19
 -1       259 1.49455E-04-4.81147E-05-4.32790E-05-1.69943E-05-1.33866E-18 1.31548E-19
 -1       260 1.62306E-04-5.75594E-05-4.46868E-05-1.47133E-06-3.46278E-19 1.36394E-18
 -1       261 1.72088E-04-6.20700E-05-4.73187E-05 2.53203E-05 1.36524E-18 2.74337E-18
 -1       262 1.72903E-04-5.05462E-05-5.29610E-05 3.85146E-05 2.63639E-18 3.03847E-18
 -1       263 1.67984E-04-3.32855E-05-5.85582E-05 1.75903E-05 2.23490E-18-1.05943E-18
 -1       264 1.67322E-04-3.64998E-05-5.69682E-05-2.70914E-05 1.98396E-18-9.98175E-19
 -1       265 1.68749E-04-6.02880E-05-4.63186E-05-1.24414E-05-2.44779E-19-2.40669E-18
 -1       266 1.57397E-04-5.21884E-05-4.48189E-05 1.07547E-05 9.12863E-19-2.60672E-18
 -1       267 1.44001E-04-4.39832E-05-4.27761E-05 1.92104E-05 9.04453E-19-2.13083E-18
 -1       268 1.31056E-04-3.83099E-05-3.97645E-05 1.84001E-05 2.38039E-19-2.98485E-18
 -1       269 1.20414E-04-3.48731E-05-3.66802E-05 1.42797E-05-2.10741E-18-2.42873E-18
 -1       270 1.12265E-04-3.26794E-05-3.41068E-05 1.01150E-05-1.41469E-18 3.29173E-19
 -1       271 1.06316E-04-3.12010E-05-3.21773E-05 6.88950E-06-1.13919E-20 2.46896E-18
 -1       272 1.02095E-04-3.01681E-05-3.08084E-05 4.62256E-06-3.81254E-19 2.53521E-18
 -1       273 9.91654E-05-2.94345E-05-2.98703E-05 3.05648E-06-1.03367E-18 3.38870E-18
 -1       274 9.71809E-05-2.88956E-05-2.92558E-05 1.90338E-06-1.97903E-18 2.92508E-18
 -1       275 9.59417E-05-2.85329E-05-2.88815E-05 9.11742E-07-8.49952E-19 2.72742E-18
 -1       276 9.53984E-05-2.83697E-05-2.87284E-05 3.47073E-07 4.01740E-18 1.49098E-18
 -1       277 9.50669E-05-2.74680E-05-2.89766E-05 1.08968E-06 3.40556E-18-7.99431E-19
 -1       278 9.45592E-05-2.62387E-05-2.92818E-05 1.43456E-06 4.83520E-18 1.29080E-18
 -1       279 9.40975E-05-2.50568E-05-2.95870E-05 1.26729E-06 2.95251E-18-4.00521E-18
 -1       280 9.37895E-05-2.42317E-05-2.98081E-05 7.36349E-07-5.84469E-20-4.27331E-18
 -1       281 9.37054E-05-2.39629E-05-2.98886E-05 7.08079E-08-4.43413E-18-6.43886E-18
 -1       282 9.38272E-05-2.42458E-05-2.98213E-05-5.35209E-07-7.27015E-18-1.60332E-18
 -1       283 9.40980E-05-2.49596E-05-2.96327E-05-9.32421E-07-4.79146E-18 2.22857E-18
 -1       284 9.44347E-05-2.58953E-05-2.93763E-05-1.07252E-06-2.79478E-18 7.10631E-18
 -1       285 9.47603E-05-2.68419E-05-2.91098E-05-9.85742E-07-1.29517E-18 8.86037E-19
 -1       286 9.50199E-05-2.76377E-05-2.88792E-05-7.50144E-07 1.46876E-18 2.01995E-18
 -1       287 9.51859E-05-2.81896E-05-2.87128E-05-4.64515E-07 1.65732E-18-6.49456E-19
 -1       288 9.52656E-05-2.85062E-05-2.86105E-05-2.01821E-07 2.94160E-18-1.14239E-18
 -1       289 9.52792E-05-2.86247E-05-2.85648E-05-2.34986E-08 3.39742E-19-4.29688E-18
 -1       290 9.52526E-05-2.86202E-05-2.85552E-05 4.96826E-08-1.74200E-18-2.21993E-18
 -1       291 9.32055E-06-4.84987E-05 1.40040E-05-3.05783E-06 1.40838E-18 3.88153E-19
 -1       292 2.29929E-05-5.02350E-05 8.57243E-06 1.19481E-05 2.88711E-18-5.67300E-19
 -1       293 5.47666E-05-4.97870E-05-5.01906E-06 2.58401E-05 9.13102E-19 4.61236E-18
 -1       294 9.88443E-05-4.87675E-05-2.36128E-05 3.37086E-05 3.06711E-18 1.62292E-18
 -1       295 1.58516E-04-5.37673E-05-4.47426E-05 3.38968E-05 3.36696E-18 1.04185E-19
 -1       296 2.15962E-04-5.70133E-05-6.46727E-05 2.26189E-05 4.64068E-19 3.85993E-18
 -1       297 2.36446E-04-4.91932E-05-7.57304E-05-3.74349E-06 1.45287E-18 1.32688E-18
 -1       298 2.53760E-04-4.67943E-05-8.17541E-05 7.64067E-07 2.91358E-18 1.16599E-18
 -1       299 2.35700E-04-5.25018E-05-7.36182E-05-2.62622E-06 4.41463E-18 1.14392E-18
 -1       300 1.96621E-04-6.30566E-05-5.56031E-05-1.80070E-05 2.82962E-18-8.61856E-19
 -1       301 1.32535E-04-5.59541E-05-3.40287E-05-3.37934E-05 2.88923E-18-2.44983E-18
 -1       302 7.07632E-05-4.84159E-05-1.25811E-05-2.84444E-05 5.21095E-18-3.41058E-18
 -1       303 3.60840E-05-4.93304E-05 2.80727E-06-2.04073E-05 3.86607E-18-3.60465E-18
 -1       304 1.38436E-05-5.52063E-05 1.39545E-05-9.02876E-07 3.03555E-18-2.25067E-18
 -1       305 9.13006E-06-4.74535E-05 1.36998E-05 1.25776E-05 7.44383E-19-2.88394E-18
 -1       306 2.15858E-05-4.69319E-05 8.22079E-06 2.50230E-05-8.47033E-20-2.86779E-18
 -1       307 4.84631E-05-3.91598E-05-5.47360E-06 4.15344E-05-6.63439E-19-4.90922E-18
 -1       308 7.94758E-05-2.94344E-05-2.20997E-05 4.94006E-05-3.51625E-18-4.01938E-18
 -1       309 1.22645E-04-2.58729E-05-4.06922E-05 5.64256E-05-3.92240E-18-3.84616E-18
 -1       310 1.68385E-04-2.89912E-05-5.76555E-05 5.31844E-05-3.93637E-18-4.72073E-18
 -1       311 2.00907E-04-3.23863E-05-6.96405E-05 3.20507E-05-2.02420E-18-4.29848E-18
 -1       312 2.23041E-04-3.61354E-05-7.67998E-05 1.05793E-05-1.48940E-18-4.21791E-18
 -1       313 2.16326E-04-3.33244E-05-7.55456E-05-1.33984E-05-2.10096E-18-2.34279E-18
 -1       314 1.90968E-04-3.12922E-05-6.65495E-05-2.87905E-05-2.31515E-18-8.02564E-19
 -1       315 1.56113E-04-2.74860E-05-5.33158E-05-5.57951E-05-1.86188E-18-1.69894E-18
 -1       316 1.05946E-04-2.61344E-05-3.39768E-05-5.48118E-05-2.82909E-19 2.00514E-18
 -1       317 6.68800E-05-3.55990E-05-1.44786E-05-4.60792E-05 2.36830E-18 3.61122E-18
 -1       318 3.15045E-05-4.32286E-05 2.50593E-06-2.98860E-05 2.24548E-18-7.20693E-19
 -1       319 1.38603E-05-4.87887E-05 1.21574E-05-1.87918E-05 3.81927E-18 9.36289E-19
 -1       320 1.70505E-04-5.64380E-05-4.95298E-05-3.61190E-05-3.01771E-18-1.82023E-18
 -1       321 9.52342E-05-2.86022E-05-2.85570E-05 5.73866E-08-7.57381E-19 1.16561E-18
 -1       322 9.16597E-05-1.43957E-05-3.31761E-05-1.30754E-05-2.23948E-18-1.97072E-18
 -1       323 9.57157E-05-1.91020E-05-3.28976E-05-1.46418E-05-2.48039E-18-5.59776E-19
 -1       324 8.79963E-05-1.03642E-05-3.33261E-05-8.17724E-06-1.20090E-18-3.16739E-18
 -1       325 8.71842E-05-9.44602E-06-3.33648E-05-5.73618E-06-7.23386E-19-3.32990E-18
 -1       326 8.67199E-05-8.91224E-06-3.33910E-05-3.38658E-06-1.49813E-19-3.23239E-18
 -1       327 8.65105E-05-8.66847E-06-3.34042E-05-1.09527E-06 3.29760E-19-3.18751E-18
 -1       328 8.65143E-05-8.67286E-06-3.34040E-05 1.17700E-06 7.36905E-19-3.14684E-18
 -1       329 8.67321E-05-8.92624E-06-3.33903E-05 3.46933E-06 1.12356E-18-3.00229E-18
 -1       330 8.71965E-05-9.45914E-06-3.33644E-05 5.78002E-06 1.58271E-18-2.74521E-18
 -1       331 8.80236E-05-1.03921E-05-3.33254E-05 8.21676E-06 2.05478E-18-2.16869E-18
 -1       332 8.94123E-05-1.19380E-05-3.32687E-05 1.07280E-05 2.49372E-18-1.58379E-18
 -1       333 9.17631E-05-1.45715E-05-3.31585E-05 1.31001E-05 2.74843E-18-5.68207E-19
 -1       334 9.58664E-05-1.93169E-05-3.28715E-05 1.46236E-05 2.72478E-18 1.35179E-18
 -1       335 1.72683E-04-7.18292E-05-4.33795E-05-8.09720E-06-9.57465E-19-2.87515E-18
 -1       336 5.58357E-05-4.24082E-05-6.02959E-06 3.58969E-05-5.00914E-19 3.15864E-18
 -1       337 9.64532E-05-2.60318E-05-3.01362E-05-6.35666E-06-2.05769E-18-3.34327E-19
 -1       338 9.49316E-05-2.70292E-05-2.90757E-05-2.83934E-06-1.57502E-18-3.23293E-19
 -1       339 9.39546E-05-2.74262E-05-2.84974E-05-9.22373E-07-1.07871E-18-7.14977E-19
 -1       340 9.34362E-05-2.76400E-05-2.81915E-05 1.40069E-07-8.89067E-19-9.95842E-19
 -1       341 9.32451E-05-2.77936E-05-2.80478E-05 7.07482E-07-9.33956E-19-1.03093E-18
 -1       342 9.32638E-05-2.79236E-05-2.80019E-05 9.78250E-07-9.39015E-19-1.12998E-18
 -1       343 9.34056E-05-2.80389E-05-2.80142E-05 1.06948E-06-5.56053E-19-1.16954E-18
 -1       344 9.36111E-05-2.81408E-05-2.80591E-05 1.05417E-06-7.34597E-19-1.05497E-18
 -1       345 9.38415E-05-2.82289E-05-2.81203E-05 9.79541E-07-5.55929E-19-1.31911E-18
 -1       346 9.40730E-05-2.83035E-05-2.81876E-05 8.76679E-07-2.43338E-19-1.30019E-18
 -1       347 9.42921E-05-2.83654E-05-2.82550E-05 7.66079E-07-4.65889E-20-1.11219E-18
 -1       348 9.44925E-05-2.84162E-05-2.83191E-05 6.61003E-07 7.90448E-20-1.41843E-18
 -1       349 9.46728E-05-2.84577E-05-2.83784E-05 5.69670E-07-1.38506E-19-2.29528E-18
 -1       350 9.48347E-05-2.84924E-05-2.84328E-05 4.96633E-07-6.80069E-19-2.61766E-18
 -1       351 9.49818E-05-2.85227E-05-2.84828E-05 4.43571E-07-3.87944E-19-2.31769E-18
 -1       352 9.51186E-05-2.85516E-05-2.85289E-05 4.09562E-07-6.43547E-19-1.71573E-18
 -1       353 9.52498E-05-2.85823E-05-2.85719E-05 3.90858E-07-2.33549E-19-1.64176E-18
 -1       354 9.53791E-05-2.86185E-05-2.86118E-05 3.80190E-07-5.61750E-19-1.52188E-18
 -1       355 9.55085E-05-2.86644E-05-2.86477E-05 3.65635E-07 7.53567E-20-2.17391E-18
 -1       356 9.56369E-05-2.87242E-05-2.86774E-05 3.29197E-07 6.86710E-19-2.85525E-18
 -1       357 9.57583E-05-2.88013E-05-2.86968E-05 2.45446E-07 7.69844E-19-1.81923E-18
 -1       358 9.58600E-05-2.88975E-05-2.86997E-05 8.08798E-08 9.78555E-21-2.18015E-18
 -1       359 9.59192E-05-2.90097E-05-2.86779E-05-2.04869E-07-8.06750E-20-2.47791E-18
 -1       360 9.59010E-05-2.91263E-05-2.86211E-05-6.54353E-07-4.14447E-19-2.54968E-18
 -1       361 9.57558E-05-2.92223E-05-2.85187E-05-1.30224E-06-5.09984E-19-2.46762E-18
 -1       362 9.54193E-05-2.92542E-05-2.83616E-05-2.15840E-06 9.20425E-19-1.17213E-18
 -1       363 9.48184E-05-2.91592E-05-2.81450E-05-3.18470E-06 1.11801E-18-7.66325E-19
 -1       364 9.38859E-05-2.88620E-05-2.78720E-05-4.27066E-06 8.15228E-19-7.77409E-19
 -1       365 9.25880E-05-2.82970E-05-2.75561E-05-5.21967E-06 5.03937E-20 3.02667E-19
 -1       366 9.09635E-05-2.74459E-05-2.72218E-05-5.76442E-06-6.41138E-19 9.92254E-19
 -1       367 8.91606E-05-2.63810E-05-2.69018E-05-5.62842E-06-1.31613E-18 8.66506E-19
 -1       368 8.74452E-05-2.52858E-05-2.66323E-05-4.63150E-06-9.63476E-19 7.40631E-20
 -1       369 8.61524E-05-2.44218E-05-2.64456E-05-2.80111E-06-6.62008E-19 5.68099E-20
 -1       370 8.55798E-05-2.40354E-05-2.63643E-05-4.22418E-07-1.04019E-18-2.93116E-19
 -1       371 8.58676E-05-2.42462E-05-2.63977E-05 2.02646E-06-1.11012E-18-4.62566E-19
 -1       372 8.69350E-05-2.49859E-05-2.65405E-05 4.04075E-06 2.08866E-19-2.89128E-19
 -1       373 8.85160E-05-2.60329E-05-2.67731E-05 5.27022E-06-6.82168E-19-1.42803E-18
 -1       374 9.02712E-05-2.71164E-05-2.70650E-05 5.61780E-06 7.42369E-21 4.86504E-19
 -1       375 9.19059E-05-2.80225E-05-2.73808E-05 5.21858E-06-2.00811E-19 1.82784E-18
 -1       376 9.32368E-05-2.86459E-05-2.76864E-05 4.33870E-06 2.02321E-19 1.73471E-18
 -1       377 9.41987E-05-2.89820E-05-2.79556E-05 3.26315E-06 1.67907E-18 5.15292E-19
 -1       378 9.48124E-05-2.90877E-05-2.81731E-05 2.22016E-06 1.83627E-18 1.00715E-18
 -1       379 9.51451E-05-2.90413E-05-2.83348E-05 1.35275E-06 2.19025E-18 1.02074E-18
 -1       380 9.52808E-05-2.89169E-05-2.84450E-05 7.21991E-07 1.08677E-19-5.98459E-19
 -1       381 9.52942E-05-2.87708E-05-2.85121E-05 3.33715E-07 2.00943E-18-3.14978E-19
 -1       382 9.52640E-05-2.86569E-05-2.85462E-05 1.34303E-07 2.31095E-18 3.47361E-19
 -1       383 1.08153E-04-3.05529E-05-3.31662E-05 2.93773E-05 1.89285E-19-8.60645E-19
 -1       384 9.49789E-05-2.69790E-05-2.91149E-05 2.97103E-06 1.76309E-18 9.51132E-19
 -1       385 9.64718E-05-2.59020E-05-3.01978E-05 6.54948E-06 2.19717E-18 1.35738E-18
 -1       386 9.39903E-05-2.74130E-05-2.85183E-05 9.94591E-07 1.09537E-18 5.29552E-19
 -1       387 9.34529E-05-2.76317E-05-2.82022E-05-9.99514E-08 8.03002E-19 4.30134E-19
 -1       388 9.32484E-05-2.77868E-05-2.80520E-05-6.85961E-07 4.14665E-19 5.62244E-19
 -1       389 9.32587E-05-2.79177E-05-2.80022E-05-9.67893E-07 3.43007E-19 3.19724E-19
 -1       390 9.33864E-05-2.80283E-05-2.80105E-05-1.06339E-06 5.77703E-19 7.25654E-20
 -1       391 9.35876E-05-2.81316E-05-2.80529E-05-1.05531E-06 5.51561E-19 1.17406E-19
 -1       392 9.38163E-05-2.82212E-05-2.81128E-05-9.83680E-07 2.85587E-19-2.30452E-19
 -1       393 9.40481E-05-2.82972E-05-2.81797E-05-8.81005E-07 4.41938E-19-2.94714E-19
 -1       394 9.42687E-05-2.83604E-05-2.82471E-05-7.68981E-07 6.44271E-19-7.23872E-19
 -1       395 9.44716E-05-2.84118E-05-2.83119E-05-6.62146E-07 7.12819E-19-7.47691E-19
 -1       396 9.46557E-05-2.84533E-05-2.83730E-05-5.70506E-07 1.62232E-19-4.20188E-19
 -1       397 9.48237E-05-2.84863E-05-2.84306E-05-5.01512E-07-2.49497E-20-4.16257E-19
 -1       398 9.49813E-05-2.85125E-05-2.84867E-05-4.61742E-07-1.13624E-19-9.79965E-19
 -1       399 9.51364E-05-2.85330E-05-2.85442E-05-4.58698E-07 1.43237E-19-8.02485E-19
 -1       400 9.52913E-05-2.85480E-05-2.86038E-05-4.98483E-07 1.02702E-19-5.09322E-19
 -1       401 9.54743E-05-2.85585E-05-2.86772E-05-5.99258E-07-1.47485E-19-2.11697E-19
 -1       402 9.56933E-05-2.85613E-05-2.87691E-05-7.82881E-07-5.25022E-21-4.88625E-19
 -1       403 9.59672E-05-2.85511E-05-2.88898E-05-1.08378E-06 1.30909E-19-2.77528E-19
 -1       404 9.63184E-05-2.85177E-05-2.90529E-05-1.55511E-06 7.31848E-19 1.05667E-18
 -1       405 9.67712E-05-2.84427E-05-2.92766E-05-2.27732E-06 1.18671E-19 9.84981E-19
 -1       406 9.73488E-05-2.82954E-05-2.95836E-05-3.36924E-06 7.79193E-19 3.66562E-19
 -1       407 9.80658E-05-2.80291E-05-2.99998E-05-4.99975E-06 6.46064E-19-1.24018E-18
 -1       408 9.89151E-05-2.75845E-05-3.05480E-05-7.39299E-06-3.79510E-20-1.79203E-18
 -1       409 9.98548E-05-2.69206E-05-3.12287E-05-1.08104E-05 2.91221E-19-1.33420E-18
 -1       410 1.00796E-04-2.61617E-05-3.19542E-05-1.52066E-05-2.38751E-19-7.00389E-19
 -1       411 1.01977E-04-2.57594E-05-3.26243E-05-2.09696E-05-5.12890E-19 2.70832E-19
 -1       412 1.04080E-04-2.73197E-05-3.28178E-05-2.71332E-05-6.30149E-19 5.86276E-19
 -1       413 1.10010E-04-3.47836E-05-3.20679E-05-3.13868E-05-7.36072E-19-7.31797E-19
 -1       414 1.23492E-04-5.05584E-05-3.09315E-05-2.95259E-05-1.29040E-18-4.38776E-19
 -1       415 1.57895E-04-7.20848E-05-3.67039E-05-7.00002E-06-3.26425E-19 1.26949E-18
 -1       416 1.85043E-04-6.78733E-05-5.04934E-05 1.63014E-05 1.35576E-18 1.50200E-18
 -1       417 1.17478E-04-4.12412E-05-3.24204E-05 3.06124E-05-3.34128E-19-1.77471E-18
 -1       418 1.38728E-04-6.27384E-05-3.24543E-05 2.12630E-05 6.83503E-19-3.94955E-18
 -1       419 1.04132E-04-2.68531E-05-3.30776E-05 2.38999E-05-1.40020E-18 5.69345E-19
 -1       420 1.02016E-04-2.64314E-05-3.23599E-05 1.79099E-05-2.45308E-18 9.75244E-20
 -1       421 1.00433E-04-2.69259E-05-3.14716E-05 1.28365E-05-1.29503E-18-2.00809E-18
 -1       422 9.90448E-05-2.74497E-05-3.06570E-05 8.99739E-06-5.41347E-19-1.04175E-19
 -1       423 9.78226E-05-2.77656E-05-3.00036E-05 6.21626E-06-6.51257E-19-5.28659E-20
 -1       424 9.67774E-05-2.78650E-05-2.95216E-05 4.17749E-06-1.69285E-18-7.74447E-19
 -1       425 9.59230E-05-2.77807E-05-2.91944E-05 2.59598E-06-1.17955E-19-1.60823E-19
 -1       426 9.54350E-05-2.75850E-05-2.90751E-05 1.84458E-06 1.74405E-18-9.28335E-19
 -1       427 9.41351E-05-2.56300E-05-2.93594E-05 2.55667E-06-1.68304E-18-2.03252E-18
 -1       428 9.48158E-05-2.65763E-05-2.92425E-05 2.48768E-06 2.47054E-19 1.25607E-19
 -1       429 9.34763E-05-2.47545E-05-2.94565E-05 1.77948E-06-1.89259E-19-5.88362E-18
 -1       430 9.32434E-05-2.44260E-05-2.94994E-05 5.88948E-07-8.39218E-19-5.81735E-18
 -1       431 9.33970E-05-2.46306E-05-2.94773E-05-6.31811E-07 5.34746E-19-5.86268E-18
 -1       432 9.38237E-05-2.52601E-05-2.93889E-05-1.55301E-06 1.81014E-18 2.00670E-18
 -1       433 9.43655E-05-2.61198E-05-2.92503E-05-2.01654E-06 1.00861E-18 4.78297E-18
 -1       434 9.48778E-05-2.70081E-05-2.90868E-05-2.02196E-06-9.41263E-19 3.87345E-18
 -1       435 9.52634E-05-2.77682E-05-2.89246E-05-1.68196E-06-1.32179E-18 5.30341E-19
 -1       436 9.54794E-05-2.83051E-05-2.87862E-05-1.17167E-06-1.14448E-18 1.83333E-18
 -1       437 9.55399E-05-2.86174E-05-2.86781E-05-6.35679E-07-3.97573E-19 1.27407E-18
 -1       438 9.54828E-05-2.87302E-05-2.86066E-05-2.13520E-07-5.36156E-20-3.37973E-18
 -1       439 9.53563E-05-2.86991E-05-2.85665E-05 3.92411E-08 3.98341E-19-6.15308E-18
 -1       440 1.07987E-04-6.22768E-05-2.01127E-05 3.45929E-05-2.31664E-19-6.37128E-19
 -1       441 9.63522E-06-2.22064E-05 5.23414E-06-1.41164E-05 1.60060E-18-7.48142E-19
 -1       442 8.94268E-05-1.19214E-05-3.32791E-05-1.07729E-05-1.71382E-18-2.78986E-18
 -1       443 1.56665E-04-7.33890E-05-3.60202E-05 1.38091E-05-8.45974E-20-3.78285E-18
 -1       444 1.88306E-04-6.88130E-05-5.10627E-05-1.21796E-05-6.55339E-19 5.39984E-20
 -1       445 1.94019E-04-5.10515E-05-6.07270E-05-2.50854E-05 6.78685E-20 7.25060E-19
 -1       446 1.28224E-04-6.67873E-05-2.67880E-05-2.75326E-05 2.11758E-22 1.32190E-18
 -1       447 8.25108E-05-5.28304E-05-1.30348E-05-3.79497E-05-9.13525E-19 4.25899E-20
 -1       448 3.13489E-05-2.79331E-05-1.37331E-06-2.70117E-05-5.57454E-19-8.88114E-19
 -1       449 1.23739E-05-1.73553E-05 2.42054E-06-3.67408E-06 5.91308E-19-2.11970E-18
 -1       450 1.70608E-05-2.52997E-05 3.40540E-06 2.95582E-05 8.99231E-19-2.90479E-18
 -1       451 4.26157E-05-3.53491E-05-3.33160E-06 4.72190E-05 1.44144E-18-3.14313E-18
 -1       452 9.60234E-05-5.15825E-05-1.88420E-05 5.21490E-05 1.76215E-18-2.43378E-18
 -1       453 1.25208E-04-5.52475E-05-3.00490E-05 4.10862E-05 3.59354E-19-1.01051E-18
 -1       454 1.53335E-04-4.72631E-05-4.54079E-05 2.25283E-05-1.29821E-18-2.02896E-18
 -1       455 1.64796E-04-3.37387E-05-5.61120E-05 1.00070E-05-2.14691E-18-2.18958E-18
 -1       456 1.72210E-04-1.70146E-05-6.62539E-05 1.96397E-06-2.35179E-18-2.24686E-18
 -1       457 1.63652E-04-8.69878E-06-6.65239E-05 1.38360E-07-2.40166E-18-8.58746E-19
 -1       458 1.64363E-04-1.66757E-05-6.35049E-05 5.68914E-07-2.97965E-18-1.40380E-18
 -1       459 1.63620E-04-3.75861E-05-5.39341E-05-1.32129E-05-1.77228E-18-3.72165E-19
 -1       460 1.46008E-04-4.93308E-05-4.13243E-05-3.05923E-05-1.00140E-18-7.51848E-19
 -1       461 1.16136E-04-5.46853E-05-2.62604E-05-4.56282E-05 2.18026E-18 1.54398E-18
 -1       462 6.76128E-05-4.33998E-05-1.03891E-05-5.28632E-05 2.50192E-18 3.06986E-18
 -1       463 3.25055E-05-3.02175E-05-9.40148E-07-4.24866E-05 2.42326E-18 8.91396E-19
 -1       464 2.02665E-05-2.47594E-05 1.87641E-06 1.83102E-05 7.46818E-19-1.44631E-18
 -1       465 1.52660E-04-2.58012E-05-5.48196E-05 5.90718E-06-1.45531E-18-4.26163E-20
 -1       466 2.65999E-05-1.42342E-05-4.66229E-06-2.97232E-05 1.11644E-18-6.15158E-19
 -1       467 8.95287E-05-1.33865E-05-3.26512E-05-3.93911E-06-4.01983E-19-2.91389E-18
 -1       468 9.02428E-05-1.43552E-05-3.25435E-05-5.89247E-06-8.73014E-19-2.91031E-18
 -1       469 8.90216E-05-1.26969E-05-3.27283E-05 3.52158E-08 4.71361E-19-2.93278E-18
 -1       470 8.91516E-05-1.28736E-05-3.27086E-05 2.02486E-06 8.81122E-19-2.76335E-18
 -1       471 8.95397E-05-1.34014E-05-3.26498E-05 3.97678E-06 1.34659E-18-2.59088E-18
 -1       472 9.02575E-05-1.43761E-05-3.25416E-05 5.93318E-06 1.80195E-18-2.15775E-18
 -1       473 9.13975E-05-1.59381E-05-3.23630E-05 7.77050E-06 2.08002E-18-1.62899E-18
 -1       474 9.30857E-05-1.83415E-05-3.20575E-05 9.19913E-06 2.48322E-18-9.84763E-19
 -1       475 9.52090E-05-2.21948E-05-3.13043E-05 8.68838E-06 2.48448E-18 1.66884E-20
 -1       476 2.16447E-05-8.45622E-06-4.88073E-06 3.68392E-06 4.43766E-19-4.69044E-19
 -1       477 9.54886E-05-2.44333E-05-3.04425E-05-5.82280E-06-1.77621E-18-1.14297E-18
 -1       478 9.52773E-05-2.62166E-05-2.95891E-05-2.89978E-06-1.57047E-18-1.09883E-18
 -1       479 9.49217E-05-2.71514E-05-2.90399E-05-1.03480E-06-1.07992E-18-1.13925E-18
 -1       480 9.46483E-05-2.76855E-05-2.86963E-05 9.35695E-08-8.93870E-19-1.24662E-18
 -1       481 9.44941E-05-2.80138E-05-2.84908E-05 7.34228E-07-1.03019E-18-1.27128E-18
 -1       482 9.44408E-05-2.82263E-05-2.83774E-05 1.05784E-06-9.57348E-19-1.22900E-18
 -1       483 9.44583E-05-2.83676E-05-2.83247E-05 1.17969E-06-4.40359E-19-1.24388E-18
 -1       484 9.45199E-05-2.84615E-05-2.83109E-05 1.17791E-06-7.40323E-19-1.02737E-18
 -1       485 9.46051E-05-2.85224E-05-2.83214E-05 1.10572E-06-3.43687E-19-8.23704E-19
 -1       486 9.47000E-05-2.85597E-05-2.83461E-05 9.99261E-07 1.45450E-19-6.97418E-19
 -1       487 9.47961E-05-2.85802E-05-2.83785E-05 8.82832E-07-3.47046E-19-7.32790E-19
 -1       488 9.48886E-05-2.85890E-05-2.84144E-05 7.72334E-07-4.13142E-19-1.01798E-18
 -1       489 9.49760E-05-2.85903E-05-2.84512E-05 6.77649E-07-5.82397E-19-1.37088E-18
 -1       490 9.50587E-05-2.85880E-05-2.84876E-05 6.04159E-07-6.17200E-19-9.69321E-19
 -1       491 9.51388E-05-2.85860E-05-2.85227E-05 5.53573E-07-7.55838E-20-8.49935E-19
 -1       492 9.52196E-05-2.85891E-05-2.85560E-05 5.24134E-07-4.91609E-19-8.02539E-19
 -1       493 9.53056E-05-2.86031E-05-2.85868E-05 5.10220E-07-5.11660E-19-9.18208E-19
 -1       494 9.54022E-05-2.86357E-05-2.86143E-05 5.01376E-07-1.04302E-19-1.21954E-18
 -1       495 9.55155E-05-2.86968E-05-2.86367E-05 4.80850E-07 3.78578E-19-1.42881E-18
 -1       496 9.56522E-05-2.87986E-05-2.86519E-05 4.23842E-07 9.29241E-19-1.59412E-18
 -1       497 9.58178E-05-2.89538E-05-2.86566E-05 2.95955E-07 9.19516E-20-2.46206E-18
 -1       498 9.60149E-05-2.91731E-05-2.86475E-05 5.27211E-08-5.67192E-19-2.90469E-18
 -1       499 9.62387E-05-2.94592E-05-2.86213E-05-3.58287E-07 1.60252E-19-3.12840E-18
 -1       500 9.64703E-05-2.97975E-05-2.85762E-05-9.90589E-07-2.93648E-19-1.20858E-18
 -1       501 9.66684E-05-3.01441E-05-2.85130E-05-1.88446E-06 8.33456E-19-1.86615E-19
 -1       502 9.67606E-05-3.04141E-05-2.84371E-05-3.04297E-06 1.60321E-18-3.58471E-19
 -1       503 9.66419E-05-3.04778E-05-2.83587E-05-4.39905E-06 1.22874E-18 9.71623E-20
 -1       504 9.61889E-05-3.01777E-05-2.82922E-05-5.78068E-06 4.43915E-19-4.54277E-19
 -1       505 9.53025E-05-2.93804E-05-2.82523E-05-6.89308E-06-6.10641E-19-4.62963E-21
 -1       506 9.39789E-05-2.80624E-05-2.82478E-05-7.34952E-06-1.50610E-18-6.58872E-20
 -1       507 9.23835E-05-2.63977E-05-2.82757E-05-6.77935E-06-1.41894E-18-2.76369E-19
 -1       508 9.08672E-05-2.47791E-05-2.83185E-05-5.00430E-06-3.42271E-19 2.67863E-19
 -1       509 8.98681E-05-2.37036E-05-2.83511E-05-2.19919E-06-1.39741E-18-2.42425E-19
 -1       510 8.97215E-05-2.35533E-05-2.83531E-05 1.08332E-06-1.49132E-18 5.32275E-20
 -1       511 9.04759E-05-2.43837E-05-2.83215E-05 4.09408E-06-3.27289E-19 5.79213E-21
 -1       512 9.18667E-05-2.58948E-05-2.82711E-05 6.19321E-06-3.59774E-19-2.80715E-20
 -1       513 9.34591E-05-2.75941E-05-2.82265E-05 7.08683E-06 4.65018E-20 1.29165E-18
 -1       514 9.48571E-05-2.90363E-05-2.82089E-05 6.86615E-06-9.95937E-20 3.74542E-19
 -1       515 9.58357E-05-2.99760E-05-2.82268E-05 5.87221E-06 1.27089E-19 2.89777E-20
 -1       516 9.63544E-05-3.03826E-05-2.82755E-05 4.51136E-06 5.67821E-19 1.05486E-18
 -1       517 9.64934E-05-3.03650E-05-2.83428E-05 3.12238E-06 7.46921E-19-6.68739E-19
 -1       518 9.63777E-05-3.00813E-05-2.84147E-05 1.92382E-06 6.10020E-19-1.90519E-18
 -1       519 9.61224E-05-2.96740E-05-2.84795E-05 1.02016E-06 8.63737E-19-3.23685E-18
 -1       520 9.58360E-05-2.92676E-05-2.85298E-05 4.32620E-07 1.15692E-18-1.63406E-18
 -1       521 9.55545E-05-2.89238E-05-2.85572E-05 1.40443E-07 2.18585E-18-4.43198E-18
 -1       522 8.57865E-05-1.76889E-05-2.91473E-05 1.94985E-05-1.23097E-18-5.02513E-19
 -1       523 9.52805E-05-2.61409E-05-2.96234E-05 3.01816E-06 1.53732E-18-5.30821E-20
 -1       524 9.46591E-05-2.76703E-05-2.87078E-05-5.24283E-08 6.33033E-19-1.39971E-19
 -1       525 9.44985E-05-2.80046E-05-2.84968E-05-7.10535E-07 9.31753E-19-7.92082E-19
 -1       526 9.44406E-05-2.82111E-05-2.83839E-05-1.03437E-06 6.86947E-19-1.19039E-18
 -1       527 9.44529E-05-2.83586E-05-2.83263E-05-1.17118E-06 5.02448E-19-8.87224E-19
 -1       528 9.45117E-05-2.84565E-05-2.83097E-05-1.17761E-06 4.50718E-19-6.95910E-19
 -1       529 9.45964E-05-2.85205E-05-2.83186E-05-1.10918E-06 6.39430E-19-8.54795E-19
 -1       530 9.46926E-05-2.85600E-05-2.83429E-05-1.00380E-06 5.86432E-19-8.07817E-19
 -1       531 9.47910E-05-2.85816E-05-2.83758E-05-8.87359E-07 6.23525E-19-5.41279E-19
 -1       532 9.48871E-05-2.85896E-05-2.84135E-05-7.77721E-07 4.57307E-19-2.47984E-19
 -1       533 9.49787E-05-2.85868E-05-2.84539E-05-6.87642E-07 8.51862E-21-1.78541E-19
 -1       534 9.50662E-05-2.85744E-05-2.84966E-05-6.27093E-07-1.71444E-20-7.37496E-20
 -1       535 9.51505E-05-2.85517E-05-2.85424E-05-6.05414E-07-2.23823E-20-1.52811E-19
 -1       536 9.52295E-05-2.85183E-05-2.85904E-05-6.29960E-07-2.43515E-19 5.04824E-20
 -1       537 9.53124E-05-2.84649E-05-2.86486E-05-7.16285E-07 3.92220E-21 2.18107E-19
 -1       538 9.53937E-05-2.83824E-05-2.87186E-05-8.83873E-07 7.43124E-20 5.77548E-20
 -1       539 9.54676E-05-2.82530E-05-2.88053E-05-1.16055E-06-9.48233E-21-3.74480E-19
 -1       540 9.55195E-05-2.80484E-05-2.89147E-05-1.58710E-06-3.01235E-19-2.88056E-20
 -1       541 9.55187E-05-2.77233E-05-2.90528E-05-2.22197E-06 7.53590E-19 3.35830E-19
 -1       542 9.54060E-05-2.72087E-05-2.92238E-05-3.14648E-06 9.22980E-19 2.30837E-20
 -1       543 9.50760E-05-2.64039E-05-2.94254E-05-4.46888E-06 1.36729E-18-1.26416E-19
 -1       544 9.43505E-05-2.51744E-05-2.96390E-05-6.32430E-06 7.34929E-19 3.72067E-19
 -1       545 9.29471E-05-2.33696E-05-2.98074E-05-8.86239E-06 1.32167E-19-6.47478E-19
 -1       546 9.06442E-05-2.10443E-05-2.98146E-05-1.20508E-05-1.98919E-19-9.00344E-19
 -1       547 8.68422E-05-1.81739E-05-2.94034E-05-1.63388E-05-6.91070E-19-4.76226E-19
 -1       548 8.15044E-05-1.58824E-05-2.80547E-05-2.18013E-05-9.63249E-19-1.30125E-18
 -1       549 7.55914E-05-1.70604E-05-2.48119E-05-2.88887E-05-4.77462E-19-5.39428E-19
 -1       550 7.29837E-05-2.57467E-05-1.96852E-05-3.58609E-05-1.46463E-18-9.54500E-20
 -1       551 1.39773E-04-6.52660E-06-5.78266E-05-5.35655E-06-1.85860E-18-1.49250E-19
 -1       552 8.07501E-05-1.67410E-05-2.73208E-05 2.55162E-05-1.52214E-18 2.03193E-18
 -1       553 9.09490E-05-4.11974E-05-2.07782E-05 3.85321E-05-1.73112E-18 9.25913E-19
 -1       554 8.98212E-05-2.02959E-05-2.97766E-05 1.46522E-05-6.76440E-19-1.93655E-18
 -1       555 9.24556E-05-2.27847E-05-2.98454E-05 1.08308E-05-1.75328E-18-3.11502E-18
 -1       556 9.39699E-05-2.46507E-05-2.96966E-05 7.90250E-06-1.18579E-18-3.27315E-18
 -1       557 9.46714E-05-2.58260E-05-2.94970E-05 5.65396E-06-9.79452E-19-2.49434E-18
 -1       558 9.50345E-05-2.66664E-05-2.92935E-05 3.35831E-06-8.71108E-19-2.47214E-18
 -1       559 9.22523E-05-2.41133E-05-2.92052E-05 1.43452E-06-1.56762E-18-5.85886E-18
 -1       560 9.23172E-05-2.43061E-05-2.91499E-05-4.06322E-07 1.20775E-18-6.14743E-18
 -1       561 9.29286E-05-2.46473E-05-2.92630E-05 3.06926E-06-2.55697E-18-4.23573E-18
 -1       562 9.29767E-05-2.50876E-05-2.90983E-05-1.91376E-06 1.80362E-18-1.62882E-18
 -1       563 9.39281E-05-2.61737E-05-2.90394E-05-2.80618E-06 1.35647E-18 6.36069E-19
 -1       564 9.48751E-05-2.72817E-05-2.89691E-05-3.01412E-06 3.32110E-19 3.15349E-18
 -1       565 9.56038E-05-2.81974E-05-2.88880E-05-2.65915E-06-8.94586E-19 4.56184E-19
 -1       566 9.60136E-05-2.88045E-05-2.88026E-05-1.97733E-06-1.30861E-18 8.44377E-19
 -1       567 9.61166E-05-2.91052E-05-2.87174E-05-1.18214E-06-3.38335E-19 1.77067E-18
 -1       568 9.59943E-05-2.91604E-05-2.86415E-05-4.82480E-07-8.23797E-19-1.64996E-18
 -1       569 9.46387E-05-2.07684E-05-3.16794E-05-9.52573E-06-2.17361E-18-1.56982E-18
 -1       570 1.04414E-04-5.37659E-05-2.14163E-05-4.70864E-05 3.14101E-18 2.57658E-18
 -1       571 7.69398E-05-2.09592E-05-2.36333E-05 3.26813E-05-7.28541E-19 1.76821E-18
 -1       572 9.54522E-05-2.46792E-05-3.03223E-05 5.44804E-06 2.20601E-18-9.03174E-20
 -1       573 9.49418E-05-2.71263E-05-2.90601E-05 1.10393E-06 9.40992E-19-9.33398E-20
 -1       574 8.91418E-05-1.28605E-05-3.27100E-05-1.95440E-06 1.37960E-19-2.86329E-18
 -1       575 5.12813E-05-2.35800E-05-1.12421E-05 3.35689E-05-9.04896E-19 3.87518E-20
 -1       576 1.21421E-04-5.98505E-05-2.60543E-05-3.12392E-05-1.91377E-18 1.15256E-18
 -1       577 7.05528E-05-3.60321E-05-1.43013E-05-3.88835E-05-2.97912E-18 8.87532E-19
 -1       578 3.20339E-05-1.17460E-05-8.11827E-06-2.04115E-05-1.29088E-18 6.24581E-19
 -1       579 2.15429E-05-8.23207E-06-4.94653E-06 1.64951E-05 8.78625E-19-2.15739E-18
 -1       580 3.89276E-05-2.18618E-05-6.70861E-06 4.16989E-05 1.12142E-18-1.53117E-18
 -1       581 7.50296E-05-3.94565E-05-1.47710E-05 5.11285E-05 1.81059E-18-3.68989E-18
 -1       582 1.20602E-04-5.85529E-05-2.64876E-05 3.93486E-05 4.64439E-19-1.26729E-18
 -1       583 1.43124E-04-5.81739E-05-3.65353E-05 2.02653E-05 5.87113E-19-9.86370E-19
 -1       584 1.49705E-04-4.43179E-05-4.56122E-05-1.27571E-06-9.89176E-19 4.95885E-19
 -1       585 1.47138E-04-2.19220E-05-5.41593E-05-8.78927E-06-1.81143E-18 6.59627E-20
 -1       586 1.34047E-04-6.42234E-06-5.55088E-05 6.44840E-06-2.73158E-18-8.78003E-20
 -1       587 1.50783E-04-4.93334E-05-4.37949E-05-7.30486E-06-1.62461E-18-1.03073E-18
 -1       588 1.39215E-04-6.04168E-05-3.37998E-05-2.53237E-05 9.27580E-19 3.44372E-19
 -1       589 6.05578E-05-3.19717E-05-1.17019E-05-4.94141E-05 2.31319E-18 1.53826E-18
 -1       590 9.13380E-05-1.58964E-05-3.23670E-05-7.68223E-06-1.39265E-18-2.64287E-18
 -1       591 1.45489E-04-3.84733E-05-4.62931E-05 7.77066E-06-1.91591E-18 1.84860E-18
 -1       592 1.32256E-04-1.51341E-05-5.07377E-05 1.19886E-05-3.37114E-18-1.41114E-18
 -1       593 9.94928E-05-4.87233E-05-2.14320E-05 4.48218E-05 1.22656E-18-2.99506E-18
 -1       594 9.15260E-05-1.68143E-05-3.20250E-05 2.42888E-06 1.10554E-18-2.18056E-18
 -1       595 9.12702E-05-1.64173E-05-3.20852E-05 8.26769E-07 6.34799E-19-2.53690E-18
 -1       596 9.28535E-05-1.89420E-05-3.16821E-05 5.26849E-06 1.77090E-18-1.72455E-18
 -1       597 9.39609E-05-2.08487E-05-3.13334E-05 6.18324E-06 1.85391E-18-1.04753E-18
 -1       598 9.48166E-05-2.27199E-05-3.08932E-05 6.08576E-06 2.13095E-18-4.51570E-19
 -1       599 9.54784E-05-2.68944E-05-2.93927E-05 9.28769E-07 9.81061E-19-7.16537E-19
 -1       600 9.41789E-05-2.09756E-05-3.13728E-05-7.06938E-06-1.65059E-18-1.81441E-18
 -1       601 9.51342E-05-2.40530E-05-3.04640E-05-4.21596E-06-1.39714E-18-1.49845E-18
 -1       602 9.54548E-05-2.59229E-05-2.97984E-05-2.08577E-06-1.00468E-18-1.17932E-18
 -1       603 9.55116E-05-2.70818E-05-2.93270E-05-6.43429E-07-9.81565E-19-1.04878E-18
 -1       604 9.54634E-05-2.77978E-05-2.89998E-05 2.69982E-07-7.83457E-19-9.70305E-19
 -1       605 9.53933E-05-2.82421E-05-2.87793E-05 8.00680E-07-6.16506E-19-4.49102E-19
 -1       606 9.53309E-05-2.85134E-05-2.86363E-05 1.06786E-06-5.09554E-19-2.63764E-19
 -1       607 9.52842E-05-2.86716E-05-2.85485E-05 1.16181E-06-5.68719E-19-5.91479E-20
 -1       608 9.52525E-05-2.87544E-05-2.84994E-05 1.14842E-06-4.12947E-19 2.11548E-19
 -1       609 9.52328E-05-2.87869E-05-2.84770E-05 1.07469E-06 4.67463E-20-1.72128E-19
 -1       610 9.52220E-05-2.87862E-05-2.84726E-05 9.73402E-07-8.09899E-20-6.05971E-19
 -1       611 9.52176E-05-2.87644E-05-2.84800E-05 8.66929E-07-3.91882E-19-5.27289E-19
 -1       612 9.52181E-05-2.87302E-05-2.84949E-05 7.69987E-07-7.68923E-19-5.90742E-19
 -1       613 9.52233E-05-2.86905E-05-2.85141E-05 6.91666E-07-5.98697E-19-9.02040E-19
 -1       614 9.52341E-05-2.86514E-05-2.85355E-05 6.36711E-07 7.40223E-21-5.04401E-19
 -1       615 9.52532E-05-2.86197E-05-2.85573E-05 6.06156E-07-3.76635E-19-6.63539E-19
 -1       616 9.52856E-05-2.86035E-05-2.85780E-05 5.97328E-07-2.33699E-19-6.68074E-19
 -1       617 9.53391E-05-2.86144E-05-2.85963E-05 6.03204E-07-6.12145E-19-2.15136E-19
 -1       618 9.54257E-05-2.86677E-05-2.86106E-05 6.11130E-07 3.35597E-19-7.52522E-19
 -1       619 9.55619E-05-2.87835E-05-2.86194E-05 6.00933E-07 1.97403E-19-6.28637E-19
 -1       620 9.57692E-05-2.89861E-05-2.86215E-05 5.42617E-07-4.86959E-20-1.16381E-18
 -1       621 9.60723E-05-2.93013E-05-2.86164E-05 3.94094E-07-1.61875E-19-9.85559E-19
 -1       622 9.64952E-05-2.97491E-05-2.86058E-05 9.99763E-08 2.13549E-19 1.95443E-19
 -1       623 9.70519E-05-3.03318E-05-2.85948E-05-4.06632E-07 8.25135E-19-7.18425E-19
 -1       624 9.77311E-05-3.10146E-05-2.85934E-05-1.19600E-06 5.48455E-19-1.39896E-18
 -1       625 9.84751E-05-3.17018E-05-2.86178E-05-2.32231E-06 1.57058E-18-5.31128E-19
 -1       626 9.91589E-05-3.22161E-05-2.86905E-05-3.78779E-06 8.99782E-19-8.13163E-19
 -1       627 9.95825E-05-3.22989E-05-2.88361E-05-5.48961E-06 1.05298E-19-1.30309E-18
 -1       628 9.95002E-05-3.16597E-05-2.90744E-05-7.15883E-06-3.15032E-21-2.13772E-18
 -1       629 9.87195E-05-3.01048E-05-2.94059E-05-8.33047E-06-5.00899E-19-3.97583E-19
 -1       630 9.72540E-05-2.77235E-05-2.97983E-05-8.41954E-06-1.61572E-18 1.22863E-18
 -1       631 9.54591E-05-2.50365E-05-3.01807E-05-6.94942E-06-7.27637E-19 9.59260E-19
 -1       632 9.39718E-05-2.28997E-05-3.04589E-05-3.88985E-06-8.11659E-19 7.42769E-19
 -1       633 9.34430E-05-2.21557E-05-3.05500E-05 1.72673E-07-6.25382E-19 1.26220E-18
 -1       634 9.41191E-05-2.31174E-05-3.04267E-05 4.15408E-06-3.21787E-19 2.47140E-18
 -1       635 9.56878E-05-2.53886E-05-3.01256E-05 7.02260E-06 5.25052E-19 1.42499E-18
 -1       636 9.74756E-05-2.80949E-05-2.97324E-05 8.25457E-06 6.27852E-19 6.24370E-19
 -1       637 9.88609E-05-3.03970E-05-2.93406E-05 7.96136E-06-1.12317E-18 1.09140E-18
 -1       638 9.95324E-05-3.18272E-05-2.90166E-05 6.65586E-06-8.14167E-19 7.37070E-19
 -1       639 9.95077E-05-3.23356E-05-2.87887E-05 4.92668E-06 4.88147E-19-1.57336E-18
 -1       640 9.89914E-05-3.21330E-05-2.86545E-05 3.22526E-06 1.03029E-18-1.18758E-18
 -1       641 9.82248E-05-3.15078E-05-2.85938E-05 1.81094E-06 6.97002E-19 1.05767E-18
 -1       642 9.74053E-05-3.07173E-05-2.85810E-05 7.79539E-07-3.24674E-20 6.09553E-19
 -1       643 9.66532E-05-2.99325E-05-2.85930E-05 1.31588E-07-1.00690E-19-5.53563E-19
 -1       644 1.21297E-04-5.34317E-06-5.02347E-05-1.45839E-06-2.18720E-18-5.29184E-19
 -1       645 9.54271E-05-2.76727E-05-2.90375E-05-1.01899E-07 1.04530E-18-6.95368E-19
 -1       646 9.52404E-05-2.86212E-05-2.85512E-05-1.15259E-06 5.61535E-19-4.20117E-19
 -1       647 9.52127E-05-2.87220E-05-2.84961E-05-1.16212E-06 7.87993E-19-5.21897E-19
 -1       648 9.51994E-05-2.87681E-05-2.84707E-05-1.09983E-06 3.84917E-19-3.60449E-19
 -1       649 9.51964E-05-2.87771E-05-2.84655E-05-1.00271E-06 1.59361E-19 1.94855E-20
 -1       650 9.52002E-05-2.87608E-05-2.84741E-05-8.96629E-07 2.30549E-19 4.15377E-19
 -1       651 9.52080E-05-2.87262E-05-2.84923E-05-7.99838E-07 1.19592E-19 5.50856E-19
 -1       652 9.52175E-05-2.86769E-05-2.85174E-05-7.25667E-07 2.13328E-19 6.03155E-19
 -1       653 9.52254E-05-2.86126E-05-2.85484E-05-6.84839E-07-2.43874E-19 4.70088E-19
 -1       654 9.52283E-05-2.85346E-05-2.85830E-05-6.85597E-07-2.69870E-19 4.18796E-19
 -1       655 9.52202E-05-2.84270E-05-2.86256E-05-7.38170E-07-7.45123E-20 3.84943E-19
 -1       656 9.51891E-05-2.82790E-05-2.86756E-05-8.56832E-07 5.30966E-19 4.58890E-19
 -1       657 9.51158E-05-2.80679E-05-2.87346E-05-1.05831E-06 5.46390E-19-3.59559E-19
 -1       658 9.49674E-05-2.77585E-05-2.88035E-05-1.36469E-06-3.24639E-19-8.46682E-20
 -1       659 9.46885E-05-2.72971E-05-2.88815E-05-1.80409E-06 2.76511E-19-7.91965E-19
 -1       660 9.41885E-05-2.66049E-05-2.89636E-05-2.40989E-06 7.53497E-19-8.81867E-20
 -1       661 9.33219E-05-2.55702E-05-2.90353E-05-3.21703E-06 9.13906E-19 1.37981E-18
 -1       662 9.18619E-05-2.40440E-05-2.90633E-05-4.25331E-06 6.48765E-19 1.04704E-18
 -1       663 8.94642E-05-2.18472E-05-2.89761E-05-5.51879E-06 4.48906E-19 1.59938E-18
 -1       664 8.58800E-05-1.89859E-05-2.86667E-05-6.91165E-06-2.10572E-20 1.80384E-18
 -1       665 8.01351E-05-1.51275E-05-2.78515E-05-8.51026E-06-8.49507E-19 4.28413E-19
 -1       666 7.15859E-05-1.07024E-05-2.60512E-05-1.02457E-05-7.60518E-19 4.49049E-19
 -1       667 5.92514E-05-6.80313E-06-2.22596E-05-1.23299E-05-7.12609E-19 1.87340E-19
 -1       668 7.74834E-05-1.36486E-05-2.73309E-05 1.05090E-05-1.64303E-19-2.04244E-18
 -1       669 9.13425E-05-2.32740E-05-2.91746E-05 5.43743E-06-1.66600E-18-4.85846E-18
 -1       670 9.05301E-05-2.32581E-05-2.88381E-05 5.86206E-08-3.73033E-19-4.18227E-18
 -1       671 9.09870E-05-2.32801E-05-2.90107E-05 2.61305E-06-1.90464E-18-4.40280E-18
 -1       672 9.14144E-05-2.42792E-05-2.87748E-05-2.17011E-06 1.64983E-18-3.96430E-18
 -1       673 9.45323E-05-2.73966E-05-2.87729E-05-4.15726E-06 7.50776E-19 1.27991E-18
 -1       674 9.58677E-05-2.87111E-05-2.87815E-05-3.81429E-06-2.01909E-18 5.74531E-19
 -1       675 9.66829E-05-2.95553E-05-2.87688E-05-2.94549E-06-1.20802E-18 6.92389E-19
 -1       676 9.69706E-05-2.99325E-05-2.87292E-05-1.83958E-06 4.37401E-19 2.79476E-18
 -1       677 9.67979E-05-2.99056E-05-2.86679E-05-8.05107E-07-7.26332E-20-1.01310E-18
 -1       678 3.71657E-05-2.40582E-06-1.43019E-05-3.33784E-06-5.68098E-19-3.01226E-20
 -1       679 5.21365E-05-1.64476E-05-1.47981E-05-3.38900E-05 7.32313E-19 2.72162E-19
 -1       680 8.41780E-05-1.77148E-05-2.84779E-05 8.64986E-06-8.73989E-19-3.41269E-18
 -1       681 5.68282E-05-8.07996E-06-2.05138E-05 1.70829E-05-1.55003E-18-2.13430E-18
 -1       682 8.67503E-05-4.02153E-05-1.95897E-05-4.45834E-05 1.58835E-18 2.34144E-18
 -1       683 9.20463E-05-1.76325E-05-3.18977E-05 3.93768E-06 1.53220E-18-2.03443E-18
 -1       684 9.29045E-05-2.57998E-05-2.87606E-05-3.65412E-06 1.75979E-18 6.55326E-19
 -1       685 8.85834E-05-2.09612E-05-2.89788E-05 6.93508E-06-1.52591E-18-3.59071E-18
 -1       686 9.52870E-05-2.84389E-05-2.86492E-05-1.01883E-06 4.14112E-19-2.81164E-19
 -1       687 6.77690E-05-9.32133E-06-2.49498E-05 1.26622E-05-9.07061E-19-2.67647E-18
 -1       688 9.53521E-05-2.81448E-05-2.88031E-05-6.99523E-07 8.08207E-19-4.30107E-19
 -1       689 9.20243E-05-1.76019E-05-3.19008E-05-3.90880E-06-4.96047E-19-2.47105E-18
 -1       690 4.25451E-05-1.12535E-05-1.27962E-05 2.86277E-05 1.40766E-19-2.85942E-18
 -1       691 6.58427E-05-2.68625E-05-1.63032E-05 4.23974E-05-4.44533E-19-3.14805E-18
 -1       692 1.32243E-04-5.88343E-05-3.15077E-05 2.15684E-05 8.52003E-19-9.12599E-19
 -1       693 9.54177E-05-2.56333E-05-2.99088E-05 2.54600E-06 1.41093E-18-4.24970E-19
 -1       694 1.25331E-04-5.85263E-05-2.86202E-05-2.95350E-05 1.42323E-18 1.62474E-18
 -1       695 1.40785E-04-5.25596E-05-3.80097E-05 3.06615E-06-5.49499E-19-3.09114E-19
 -1       696 3.69407E-05-4.69404E-06-1.32348E-05-1.15362E-05-2.35733E-19-1.29162E-18
 -1       697 1.40986E-04-5.49884E-05-3.70567E-05-5.55416E-06-4.12730E-20 1.50007E-18
 -1       698 3.96780E-05-5.65765E-06-1.39845E-05 1.27876E-05-1.60987E-18-2.37180E-18
 -1       699 9.28635E-05-1.89161E-05-3.16955E-05-5.29680E-06-9.24942E-19-2.31134E-18
 -1       700 9.12677E-05-1.64137E-05-3.20857E-05-7.96875E-07 1.73102E-19-2.63170E-18
 -1       701 1.19422E-04-8.01817E-06-4.81711E-05 5.70456E-06-2.59271E-18-1.50755E-18
 -1       702 9.15148E-05-1.67984E-05-3.20268E-05-2.39278E-06-8.18739E-20-2.44667E-18
 -1       703 1.25300E-04-1.18451E-05-4.91416E-05-1.08800E-05-1.96252E-18 6.14284E-19
 -1       704 1.16648E-04-5.36274E-05-2.68744E-05 3.11239E-05 1.21583E-18-5.78365E-19
 -1       705 1.09180E-04-4.98082E-05-2.53189E-05-3.41714E-05 1.78291E-18 2.59827E-18
 -1       706 9.52005E-05-2.44130E-05-3.03390E-05 4.11127E-06 1.70541E-18-4.16261E-19
 -1       707 1.36736E-04-3.81225E-05-4.25862E-05-1.03311E-05-1.35950E-18-9.35416E-19
 -1       708 9.46548E-05-2.27267E-05-3.08267E-05 3.91333E-06 1.66245E-18-1.38358E-18
 -1       709 9.81040E-05-3.10825E-05-2.87226E-05-2.70607E-06-2.81773E-19 3.93104E-18
 -1       710 9.56421E-05-2.89624E-05-2.85770E-05-9.98292E-07 1.38820E-19 2.87385E-19
 -1       711 9.50849E-05-2.38372E-05-3.05331E-05-3.12014E-06-8.19532E-19-1.55290E-18
 -1       712 9.56565E-05-2.57699E-05-2.99514E-05-1.51578E-06-8.91050E-19-1.17349E-18
 -1       713 9.59198E-05-2.70556E-05-2.95132E-05-3.93472E-07-7.45647E-19-8.65295E-19
 -1       714 9.59972E-05-2.78852E-05-2.91908E-05 3.34229E-07-2.65824E-19-6.44524E-19
 -1       715 9.59765E-05-2.84055E-05-2.89590E-05 7.62276E-07-4.90389E-19-4.23998E-19
 -1       716 9.59087E-05-2.87166E-05-2.87966E-05 9.77034E-07-3.77698E-19-3.53906E-19
 -1       717 9.58211E-05-2.88858E-05-2.86866E-05 1.04892E-06-4.59861E-19-2.14547E-19
 -1       718 9.57284E-05-2.89592E-05-2.86154E-05 1.03195E-06-2.17526E-19 1.70318E-19
 -1       719 9.56384E-05-2.89693E-05-2.85725E-05 9.65797E-07-2.58475E-19-3.05444E-20
 -1       720 9.55551E-05-2.89385E-05-2.85500E-05 8.78689E-07-4.67802E-20 2.01083E-20
 -1       721 9.54802E-05-2.88827E-05-2.85418E-05 7.90185E-07-9.73231E-19 1.70593E-20
 -1       722 9.54144E-05-2.88136E-05-2.85432E-05 7.13413E-07-8.27059E-19-3.24355E-20
 -1       723 9.53587E-05-2.87402E-05-2.85508E-05 6.56763E-07-6.55296E-19-5.04805E-19
 -1       724 9.53151E-05-2.86710E-05-2.85618E-05 6.25023E-07-5.50798E-19-8.11060E-19
 -1       725 9.52878E-05-2.86155E-05-2.85739E-05 6.19943E-07-1.16902E-19-7.09494E-19
 -1       726 9.52846E-05-2.85862E-05-2.85850E-05 6.40216E-07 3.09147E-19 1.04179E-20
 -1       727 9.53186E-05-2.86005E-05-2.85935E-05 6.80794E-07 1.36968E-19 5.04487E-19
 -1       728 9.54104E-05-2.86822E-05-2.85978E-05 7.31428E-07-4.15756E-20 5.29600E-19
 -1       729 9.55896E-05-2.88627E-05-2.85972E-05 7.74268E-07 1.32262E-19 2.14548E-19
 -1       730 9.58957E-05-2.91802E-05-2.85923E-05 7.80436E-07 4.47410E-19 5.23862E-19
 -1       731 9.63765E-05-2.96750E-05-2.85863E-05 7.05657E-07-9.04569E-20 4.61261E-19
 -1       732 9.70815E-05-3.03790E-05-2.85868E-05 4.85716E-07 7.12994E-20-8.10806E-20
 -1       733 9.80478E-05-3.12964E-05-2.86078E-05 3.39378E-08 1.23970E-19-3.66292E-20
 -1       734 9.92729E-05-3.23716E-05-2.86722E-05-7.54182E-07 1.02588E-18-8.25179E-19
 -1       735 1.00677E-04-3.34481E-05-2.88127E-05-1.97908E-06 1.39560E-18-1.75696E-18
 -1       736 1.02062E-04-3.42340E-05-2.90695E-05-3.68543E-06 1.45905E-19-1.90349E-18
 -1       737 1.03094E-04-3.43003E-05-2.94821E-05-5.77663E-06-2.76942E-19-2.84568E-18
 -1       738 1.03337E-04-3.31628E-05-3.00742E-05-7.88818E-06 1.91594E-19-2.17450E-18
 -1       739 1.02473E-04-3.05595E-05-3.08205E-05-9.31370E-06-4.79473E-19-1.90744E-18
 -1       740 1.00566E-04-2.67749E-05-3.16253E-05-9.13938E-06-6.49240E-19-1.44104E-19
 -1       741 9.83282E-05-2.29243E-05-3.23178E-05-6.74667E-06-1.14166E-18 8.96411E-20
 -1       742 9.68213E-05-2.04912E-05-3.27108E-05-2.33327E-06-3.31675E-19 9.77878E-19
 -1       743 9.69532E-05-2.07085E-05-3.26754E-05 2.81632E-06-8.27561E-19-6.34431E-19
 -1       744 9.86406E-05-2.34400E-05-3.22270E-05 7.00527E-06-6.04741E-19-7.48951E-19
 -1       745 1.00916E-04-2.74011E-05-3.15039E-05 9.06240E-06 3.96675E-19-7.85757E-19
 -1       746 1.02722E-04-3.10845E-05-3.07003E-05 8.92891E-06 7.73450E-19 8.79659E-19
 -1       747 1.03438E-04-3.34965E-05-2.99745E-05 7.31941E-06-6.70020E-19 2.24649E-18
 -1       748 1.03059E-04-3.44306E-05-2.94126E-05 5.13919E-06-1.20614E-18 1.61467E-18
 -1       749 1.01939E-04-3.41998E-05-2.90316E-05 3.05251E-06 5.06097E-19 1.72404E-18
 -1       750 1.00494E-04-3.32792E-05-2.88070E-05 1.39056E-06 1.36825E-18 5.09267E-19
 -1       751 9.90325E-05-3.20722E-05-2.86976E-05 2.55825E-07-5.36914E-19 2.07656E-20
 -1       752 9.78144E-05-3.09319E-05-2.86643E-05-4.64405E-07-9.47988E-19-7.53335E-19
 -1       753 8.79210E-05-2.11208E-05-2.86292E-05 2.79265E-06-1.01633E-18-4.18632E-18
 -1       754 9.58747E-05-2.68425E-05-2.95864E-05 6.38251E-07 8.39655E-19-1.29413E-18
 -1       755 9.57259E-05-2.89361E-05-2.86242E-05-1.05437E-06 3.25199E-19 1.73250E-19
 -1       756 9.58119E-05-2.88391E-05-2.87026E-05-1.05105E-06 4.42766E-19-5.35947E-19
 -1       757 9.55643E-05-2.89413E-05-2.85527E-05-9.14771E-07 1.45387E-19-1.32077E-20
 -1       758 9.54931E-05-2.88878E-05-2.85451E-05-8.26544E-07 2.30169E-19 2.72607E-19
 -1       759 9.54269E-05-2.88107E-05-2.85498E-05-7.49763E-07 3.09091E-19 1.87032E-20
 -1       760 9.53620E-05-2.87131E-05-2.85638E-05-6.96220E-07 3.66700E-19 4.01473E-21
 -1       761 9.52961E-05-2.86000E-05-2.85840E-05-6.74873E-07-2.33552E-19-3.17052E-19
 -1       762 9.52129E-05-2.84529E-05-2.86114E-05-6.90673E-07-1.99028E-19-8.94497E-19
 -1       763 9.51001E-05-2.82634E-05-2.86443E-05-7.52567E-07 2.58803E-19 2.54761E-20
 -1       764 9.49340E-05-2.80099E-05-2.86817E-05-8.66772E-07 5.63543E-19 5.78669E-19
 -1       765 9.46775E-05-2.76593E-05-2.87221E-05-1.03846E-06 3.84071E-19 5.97154E-19
 -1       766 9.42730E-05-2.71631E-05-2.87614E-05-1.26956E-06 3.97585E-19-8.74292E-19
 -1       767 9.36319E-05-2.64528E-05-2.87910E-05-1.55414E-06-2.80703E-19-6.61411E-19
 -1       768 9.26207E-05-2.54349E-05-2.87939E-05-1.86961E-06-8.87787E-20-3.60861E-19
 -1       769 9.10421E-05-2.39898E-05-2.87367E-05-2.16199E-06 5.42601E-19 1.25657E-18
 -1       770 8.86101E-05-2.19779E-05-2.85564E-05-2.31755E-06 3.16934E-21 8.48994E-19
 -1       771 8.51534E-05-1.94192E-05-2.81724E-05-2.17238E-06 4.27544E-20 6.94934E-19
 -1       772 7.98141E-05-1.59840E-05-2.73536E-05-1.42196E-06-5.40378E-20 6.40790E-19
 -1       773 7.20312E-05-1.18850E-05-2.57516E-05 3.49363E-07-6.11858E-19-3.48400E-20
 -1       774 6.07792E-05-7.61157E-06-2.26681E-05 3.64071E-06-6.72954E-19-8.32706E-19
 -1       775 9.58915E-05-2.86362E-05-2.88237E-05-9.44060E-07 5.76042E-19-9.16735E-19
 -1       776 1.13594E-04-1.07221E-05-4.43599E-05-6.23918E-06-1.74708E-18 7.32584E-20
 -1       777 5.01663E-05-6.54624E-06-1.84092E-05 1.38623E-05-5.88961E-19-2.08804E-18
 -1       778 1.30434E-04-5.56715E-05-3.21274E-05-1.30277E-05 1.92950E-18 1.29878E-18
 -1       779 9.74490E-05-3.05073E-05-2.86892E-05-4.18692E-06-1.44936E-18 8.06207E-19
 -1       780 9.59304E-05-2.91894E-05-2.86020E-05-5.34281E-06-5.53097E-19-9.56567E-19
 -1       781 9.81199E-05-3.11426E-05-2.87071E-05-1.51611E-06-7.38800E-19 1.17958E-18
 -1       782 7.71276E-05-1.44301E-05-2.68683E-05 1.86489E-06 1.89102E-20-2.42831E-18
 -1       783 4.86971E-05-4.34269E-06-1.86994E-05-7.68456E-07-1.57742E-18-2.19032E-18
 -1       784 9.09098E-05-3.79958E-05-2.24949E-05 3.74705E-05 6.59296E-19-1.61264E-18
 -1       785 9.55348E-05-2.53968E-05-3.00552E-05 1.87477E-06 1.25846E-18-1.31810E-18
 -1       786 6.80400E-05-1.00931E-05-2.48002E-05-8.25355E-08 3.39922E-20-2.02880E-18
 -1       787 9.31768E-05-1.97422E-05-3.14731E-05 1.22451E-06 7.61608E-19-2.04295E-18
 -1       788 7.59949E-05-2.71620E-05-2.07321E-05-3.46521E-05 9.69863E-19 1.59523E-18
 -1       789 1.29489E-04-2.90545E-05-4.33653E-05 1.33189E-05-2.82512E-18-1.84477E-18
 -1       790 8.89480E-05-2.26792E-05-2.83880E-05-2.34933E-06 5.39565E-19-1.80829E-18
 -1       791 6.15944E-05-1.63059E-05-1.91506E-05 2.84805E-05 6.49899E-20-3.02305E-18
 -1       792 5.22453E-05-9.39912E-06-1.80572E-05-1.89241E-05-6.21193E-19-1.90511E-18
 -1       793 1.31320E-04-4.58157E-05-3.67727E-05-4.91960E-06 6.60395E-19 8.46123E-19
 -1       794 1.30687E-04-5.33521E-05-3.32106E-05 7.73588E-06 1.56629E-18-2.57988E-19
 -1       795 1.33041E-04-4.49776E-05-3.78563E-05 6.43439E-06-1.20975E-18-1.01576E-18
 -1       796 9.30694E-05-1.95514E-05-3.15098E-05 1.29958E-08 4.15467E-19-2.19782E-18
 -1       797 8.34155E-05-1.80712E-05-2.80057E-05 2.87906E-06-6.61582E-19-3.17886E-18
 -1       798 1.18542E-04-1.78609E-05-4.33501E-05 1.21343E-05-3.24741E-18-9.83200E-19
 -1       799 1.18613E-04-1.98913E-05-4.25526E-05-1.27382E-05-1.04902E-18 8.78184E-19
 -1       800 9.59654E-05-2.77215E-05-2.92480E-05-1.76008E-07 6.98070E-19-1.16540E-18
 -1       801 1.19542E-04-5.19687E-05-2.89238E-05-2.07333E-05 2.01765E-18-6.24726E-19
 -1       802 9.10690E-05-2.48184E-05-2.83909E-05-4.70241E-06 2.57533E-18-1.42921E-18
 -1       803 6.99284E-05-1.88006E-05-2.17924E-05-2.49457E-05-3.31484E-19-5.10979E-19
 -1       804 1.11080E-04-9.58486E-06-4.36903E-05-9.87930E-08-1.40836E-18-3.16660E-19
 -1       805 9.39862E-05-2.12946E-05-3.11575E-05-3.26625E-06-6.40503E-19-2.02588E-18
 -1       806 9.59542E-05-2.82976E-05-2.89960E-05-6.83579E-07 4.58104E-19-8.13915E-19
 -1       807 9.36547E-05-2.71850E-05-2.84852E-05-5.64698E-06 1.15427E-18-5.23821E-19
 -1       808 1.24824E-04-3.28103E-05-3.95380E-05-1.25021E-05-1.27207E-19 2.22657E-18
 -1       809 9.39884E-05-2.12866E-05-3.11529E-05 3.31876E-06 1.50044E-18-1.78799E-18
 -1       810 1.22195E-04-5.24343E-05-2.98560E-05 1.71455E-05 1.12595E-18 5.96947E-19
 -1       811 9.45918E-05-3.78694E-05-2.42170E-05-3.17263E-05 9.91407E-19 1.26735E-18
 -1       812 9.35281E-05-2.03673E-05-3.13565E-05 2.36721E-06 1.27083E-18-1.67096E-18
 -1       813 9.34824E-05-2.03084E-05-3.13613E-05-2.31862E-06-2.53867E-19-2.27827E-18
 -1       814 9.58054E-05-2.90494E-05-2.86097E-05-7.65798E-07 1.55471E-19-2.49216E-19
 -1       815 1.09055E-04-1.67002E-05-3.96137E-05-9.02862E-06-2.47711E-19-2.01347E-19
 -1       816 9.58903E-05-2.58632E-05-3.00115E-05-9.54207E-07-3.93264E-19-1.23825E-18
 -1       817 9.62549E-05-2.71794E-05-2.96040E-05-1.48484E-07-2.94760E-19-1.06748E-18
 -1       818 9.63928E-05-2.80419E-05-2.92933E-05 3.76211E-07-2.51791E-19-1.25502E-18
 -1       819 9.63930E-05-2.85841E-05-2.90610E-05 6.82694E-07-1.66554E-19-6.54311E-19
 -1       820 9.63140E-05-2.89009E-05-2.88913E-05 8.31534E-07-3.49723E-19-2.14367E-19
 -1       821 9.61930E-05-2.90612E-05-2.87708E-05 8.74596E-07-2.43532E-19-2.98892E-19
 -1       822 9.60539E-05-2.91152E-05-2.86880E-05 8.52714E-07-4.74404E-19-5.05255E-19
 -1       823 9.59110E-05-2.90989E-05-2.86338E-05 7.96347E-07-2.18019E-19-6.64805E-19
 -1       824 9.57727E-05-2.90378E-05-2.86007E-05 7.27577E-07-4.65862E-19-1.18752E-18
 -1       825 9.56434E-05-2.89500E-05-2.85829E-05 6.62060E-07-1.00161E-18-1.17716E-18
 -1       826 9.55253E-05-2.88488E-05-2.85757E-05 6.10785E-07-7.51036E-19-4.36275E-19
 -1       827 9.54203E-05-2.87447E-05-2.85753E-05 5.81500E-07-6.23434E-19-5.28671E-20
 -1       828 9.53314E-05-2.86480E-05-2.85786E-05 5.79746E-07-1.63147E-19 1.17813E-19
 -1       829 9.52645E-05-2.85710E-05-2.85829E-05 6.09456E-07 7.45484E-19 6.69736E-19
 -1       830 9.52307E-05-2.85303E-05-2.85859E-05 6.73046E-07 3.09492E-19 4.16433E-19
 -1       831 9.52493E-05-2.85495E-05-2.85856E-05 7.70821E-07 3.21850E-19 8.63255E-19
 -1       832 9.53504E-05-2.86618E-05-2.85808E-05 8.99341E-07 2.77276E-19 1.62806E-18
 -1       833 9.55788E-05-2.89114E-05-2.85717E-05 1.04827E-06 2.44364E-19 7.48173E-19
 -1       834 9.59952E-05-2.93530E-05-2.85609E-05 1.19498E-06-8.51379E-19-3.42850E-19
 -1       835 9.66760E-05-3.00465E-05-2.85555E-05 1.29638E-06-3.93947E-19 4.79155E-20
 -1       836 9.77055E-05-3.10431E-05-2.85697E-05 1.27781E-06-3.18109E-19-4.97564E-19
 -1       837 9.91554E-05-3.23567E-05-2.86282E-05 1.02116E-06 4.71215E-19 6.39188E-20
 -1       838 1.01045E-04-3.39149E-05-2.87703E-05 3.59551E-07 8.82538E-19-9.72374E-19
 -1       839 1.03270E-04-3.54860E-05-2.90508E-05-9.00474E-07 4.21944E-19-1.54212E-18
 -1       840 1.05542E-04-3.66246E-05-2.95370E-05-2.89514E-06 1.13933E-19-1.48912E-18
 -1       841 1.07331E-04-3.66408E-05-3.02934E-05-5.58215E-06 3.44637E-19-8.96481E-19
 -1       842 1.07853E-04-3.46857E-05-3.13587E-05-8.43652E-06 2.72921E-19-1.66902E-18
 -1       843 1.06674E-04-3.04797E-05-3.26637E-05-1.03439E-05 2.52230E-19-1.74517E-18
 -1       844 1.03914E-04-2.47192E-05-3.39342E-05-9.64187E-06-1.21647E-19 2.86039E-21
 -1       845 1.01288E-04-1.97900E-05-3.49318E-05-5.97665E-06-5.59656E-19 2.55136E-20
 -1       846 9.98031E-05-1.75108E-05-3.53143E-05 4.77549E-07-1.75535E-18-9.67292E-19
 -1       847 1.01498E-04-2.01781E-05-3.48574E-05 6.39237E-06-8.70158E-19-7.78492E-19
 -1       848 1.04447E-04-2.56005E-05-3.37937E-05 9.78590E-06 1.77233E-19-1.40932E-18
 -1       849 1.07049E-04-3.12980E-05-3.24681E-05 9.95173E-06 1.40073E-18-1.70618E-18
 -1       850 1.08050E-04-3.52492E-05-3.12017E-05 7.81258E-06 5.63777E-19-2.22816E-18
 -1       851 1.07310E-04-3.68668E-05-3.01902E-05 4.88194E-06-1.19037E-18-1.48136E-18
 -1       852 1.05440E-04-3.66433E-05-2.94846E-05 2.22372E-06 4.28972E-19 1.16189E-19
 -1       853 1.03128E-04-3.53447E-05-2.90507E-05 2.86933E-07 4.75887E-19-3.13592E-19
 -1       854 1.00919E-04-3.36653E-05-2.88213E-05-8.98715E-07-1.24173E-19 3.48628E-19
 -1       855 9.93907E-05-3.23445E-05-2.87376E-05-1.34224E-06-5.66972E-19 4.64058E-19
 -1       856 9.31726E-05-1.97374E-05-3.14740E-05-1.19085E-06 8.55822E-22-2.29024E-18
 -1       857 9.59411E-05-2.91026E-05-2.86451E-05-8.33082E-07 2.31120E-19-9.50855E-20
 -1       858 9.62089E-05-2.90214E-05-2.87947E-05-8.88507E-07-1.08737E-19-7.30312E-19
 -1       859 9.56743E-05-2.89591E-05-2.85922E-05-6.97976E-07 8.36444E-19-3.29141E-19
 -1       860 9.55463E-05-2.88407E-05-2.85881E-05-6.41854E-07 3.02618E-19-7.01553E-19
 -1       861 9.54228E-05-2.87045E-05-2.85935E-05-6.06657E-07 1.48538E-19-9.15271E-19
 -1       862 9.52818E-05-2.85332E-05-2.86065E-05-5.93535E-07 1.17134E-19-8.04909E-19
 -1       863 9.51146E-05-2.83233E-05-2.86249E-05-6.07189E-07-7.51140E-19-3.88169E-19
 -1       864 9.48991E-05-2.80581E-05-2.86462E-05-6.46263E-07-1.43378E-19-2.13418E-19
 -1       865 9.46026E-05-2.77120E-05-2.86674E-05-7.04268E-07 8.24024E-19 1.47340E-19
 -1       866 9.41771E-05-2.72490E-05-2.86835E-05-7.66048E-07 1.20316E-18-2.39714E-19
 -1       867 9.35534E-05-2.66200E-05-2.86858E-05-8.01617E-07 2.48235E-19-7.70688E-20
 -1       868 9.26334E-05-2.57628E-05-2.86589E-05-7.55982E-07-6.17306E-19 1.00648E-19
 -1       869 9.12819E-05-2.46047E-05-2.85761E-05-5.33291E-07-4.95569E-19 2.18617E-19
 -1       870 8.93182E-05-2.30734E-05-2.83906E-05 3.08641E-08 5.56867E-19-3.44422E-19
 -1       871 8.66800E-05-2.12290E-05-2.80511E-05 1.10803E-06 5.43249E-20-2.44738E-19
 -1       872 8.28421E-05-1.89079E-05-2.74004E-05 3.17744E-06-4.97549E-19-5.10314E-19
 -1       873 7.76501E-05-1.64076E-05-2.62422E-05 6.79094E-06 3.11816E-19-9.36168E-19
 -1       874 7.07966E-05-1.41761E-05-2.42166E-05 1.26711E-05 2.30790E-19-1.66308E-18
 -1       875 9.63175E-05-2.88226E-05-2.89264E-05-8.17985E-07 8.09412E-20-1.02038E-18
 -1       876 1.14493E-04-2.51695E-05-3.83755E-05-1.21532E-05-1.42060E-20-1.09695E-18
 -1       877 6.59839E-05-1.41854E-05-2.20878E-05 1.96035E-05 4.07386E-19-2.80414E-18
 -1       878 9.95377E-05-3.25575E-05-2.87043E-05-3.86467E-06 3.57408E-19 3.12812E-18
 -1       879 8.12938E-05-2.65191E-05-2.34052E-05 2.79269E-05 1.59814E-18-3.93917E-19
 -1       880 9.82133E-05-3.15787E-05-2.85564E-05-5.95493E-06 2.71675E-19-2.86133E-19
 -1       881 1.23469E-04-3.35923E-05-3.86667E-05 1.21996E-05-1.90048E-18-1.27847E-18
 -1       882 1.24172E-04-4.68514E-05-3.31242E-05-5.84149E-07 1.54493E-18 1.30672E-18
 -1       883 9.54278E-05-2.44928E-05-3.04026E-05 1.76735E-06 1.17896E-18-1.58757E-18
 -1       884 9.60783E-05-2.91019E-05-2.87042E-05-8.82239E-07 7.73269E-20-5.82993E-19
 -1       885 9.51894E-05-2.39508E-05-3.05301E-05-2.01003E-06-5.06560E-19-1.75877E-18
 -1       886 7.45759E-05-1.49100E-05-2.55686E-05-7.38738E-06-4.21829E-19-1.57456E-18
 -1       887 8.54544E-05-2.09044E-05-2.76729E-05-4.73882E-06 7.42069E-19-5.11188E-19
 -1       888 1.05743E-04-4.43266E-05-2.62620E-05 2.76074E-05 1.41068E-18-5.49103E-19
 -1       889 1.21725E-04-3.96096E-05-3.52697E-05-8.86225E-06 7.48977E-19 1.08900E-18
 -1       890 1.26513E-04-4.84876E-05-3.34877E-05-7.92980E-07-1.66528E-19-1.08154E-18
 -1       891 8.94258E-05-2.45515E-05-2.78057E-05-7.73496E-06 2.53438E-18 1.56318E-18
 -1       892 1.07018E-04-4.38370E-05-2.70356E-05-2.35980E-05 1.05266E-18 8.22069E-19
 -1       893 9.63811E-05-2.84705E-05-2.91043E-05-6.31964E-07 4.43716E-19-1.15354E-18
 -1       894 6.29666E-05-1.06066E-05-2.23083E-05-1.24382E-05-1.67013E-18-4.01889E-18
 -1       895 1.09437E-04-1.39510E-05-4.10528E-05 7.06065E-06-2.28471E-18-4.68201E-20
 -1       896 9.60799E-05-2.63076E-05-2.99023E-05 6.41264E-07 8.05341E-19-1.23428E-18
 -1       897 9.55886E-05-2.95067E-05-2.83175E-05-7.49531E-06 1.34166E-18-3.08714E-18
 -1       898 9.46640E-05-2.25920E-05-3.08921E-05 1.19958E-06 8.88094E-19-1.31773E-18
 -1       899 1.22493E-04-4.15421E-05-3.47323E-05 7.20990E-06-5.73726E-19-1.29190E-18
 -1       900 1.20354E-04-4.81641E-05-3.09680E-05 6.88695E-06 1.85678E-18 6.77206E-19
 -1       901 1.06411E-04-1.39278E-05-3.96887E-05-4.82105E-06-1.29305E-18 1.16470E-18
 -1       902 9.49055E-05-2.31396E-05-3.07561E-05-1.49546E-06-2.67961E-19-1.80277E-18
 -1       903 8.40241E-05-2.82157E-05-2.38475E-05-2.72268E-05-7.73890E-19 1.09036E-18
 -1       904 1.21865E-04-4.93467E-05-3.10656E-05-7.90290E-06 2.19304E-18 2.05822E-18
 -1       905 8.09489E-05-1.83273E-05-2.68400E-05-6.05453E-06-4.90489E-19-3.26671E-19
 -1       906 9.45264E-05-2.22497E-05-3.09756E-05 4.27997E-07 5.98330E-19-2.01267E-18
 -1       907 9.47145E-05-2.26495E-05-3.08850E-05-8.05923E-07 1.36670E-19-1.93684E-18
 -1       908 9.57554E-05-2.89775E-05-2.86191E-05-5.26621E-07 4.62835E-19-2.96426E-19
 -1       909 8.05839E-05-2.29109E-05-2.46936E-05 2.07908E-05 1.06340E-18-5.19803E-19
 -1       910 9.65423E-05-2.74306E-05-2.96196E-05 3.03332E-08-3.81478E-19-9.07493E-19
 -1       911 9.66840E-05-2.82585E-05-2.93252E-05 3.64024E-07 6.49465E-20-9.54583E-19
 -1       912 9.66760E-05-2.87751E-05-2.91004E-05 5.52522E-07 4.95551E-20-9.39808E-19
 -1       913 9.65746E-05-2.90651E-05-2.89327E-05 6.37727E-07-4.35346E-19-8.67481E-19
 -1       914 9.64221E-05-2.91970E-05-2.88108E-05 6.54754E-07-2.84196E-19-8.14488E-19
 -1       915 9.62460E-05-2.92214E-05-2.87248E-05 6.31077E-07-4.20980E-19-9.12784E-19
 -1       916 9.60635E-05-2.91749E-05-2.86666E-05 5.87756E-07-3.73792E-19-1.06855E-18
 -1       917 9.58847E-05-2.90835E-05-2.86291E-05 5.40381E-07-7.89775E-19-9.38971E-19
 -1       918 9.57148E-05-2.89657E-05-2.86068E-05 5.00549E-07-2.11194E-19-5.73769E-19
 -1       919 9.55565E-05-2.88348E-05-2.85950E-05 4.77299E-07-2.72551E-19-2.32485E-19
 -1       920 9.54115E-05-2.87019E-05-2.85898E-05 4.78368E-07-3.37469E-19 2.63553E-19
 -1       921 9.52831E-05-2.85780E-05-2.85879E-05 5.11244E-07 4.25333E-19 2.47597E-19
 -1       922 9.51782E-05-2.84771E-05-2.85862E-05 5.83988E-07 1.00241E-18-6.17938E-20
 -1       923 9.51106E-05-2.84191E-05-2.85821E-05 7.05652E-07 8.57921E-19 6.66706E-19
 -1       924 9.51045E-05-2.84330E-05-2.85735E-05 8.85990E-07 7.92132E-19 1.11248E-18
 -1       925 9.51994E-05-2.85612E-05-2.85592E-05 1.13382E-06-2.73174E-19 1.15226E-18
 -1       926 9.54552E-05-2.88620E-05-2.85399E-05 1.45297E-06-1.07487E-18 4.80005E-19
 -1       927 9.59571E-05-2.94107E-05-2.85199E-05 1.83428E-06-3.03793E-19 3.17792E-19
 -1       928 9.68180E-05-3.02955E-05-2.85096E-05 2.24179E-06-1.29351E-19 5.48847E-19
 -1       929 9.81725E-05-3.16020E-05-2.85302E-05 2.59092E-06 6.61525E-20 3.06279E-19
 -1       930 1.00154E-04-3.33765E-05-2.86193E-05 2.71992E-06-7.55693E-20 4.20277E-19
 -1       931 1.02841E-04-3.55528E-05-2.88381E-05 2.36197E-06 3.96545E-19 3.72253E-20
 -1       932 1.06145E-04-3.78212E-05-2.92792E-05 1.13530E-06 3.92103E-19-6.38770E-19
 -1       933 1.09616E-04-3.94211E-05-3.00821E-05-1.35248E-06 7.42787E-19-1.99910E-18
 -1       934 1.12595E-04-3.96209E-05-3.12917E-05-4.91536E-06 4.23957E-19-1.97331E-18
 -1       935 1.13361E-04-3.62919E-05-3.30277E-05-8.94047E-06 1.53778E-19-8.34147E-19
 -1       936 1.04816E-04-1.56214E-05-3.83125E-05 4.79164E-06-1.38821E-18 6.96159E-19
 -1       937 1.08041E-04-2.20775E-05-3.68910E-05 1.05499E-05-1.17051E-18 1.93063E-19
 -1       938 1.12097E-04-3.07575E-05-3.48745E-05 1.13392E-05-5.64551E-20-1.16561E-18
 -1       939 1.13629E-04-3.71332E-05-3.27945E-05 8.28748E-06 2.24162E-19-3.13043E-18
 -1       940 1.12393E-04-3.97922E-05-3.11171E-05 4.08452E-06 1.11389E-18-3.26451E-18
 -1       941 1.09462E-04-3.95681E-05-2.99569E-05 5.21045E-07 1.15988E-18-9.96174E-19
 -1       942 1.05962E-04-3.76728E-05-2.92660E-05-1.73110E-06 1.39824E-18 9.92028E-19
 -1       943 1.02749E-04-3.53138E-05-2.88982E-05-2.83450E-06 5.02898E-19 2.88248E-18
 -1       944 9.55875E-05-2.88308E-05-2.86100E-05-4.88533E-07 1.65274E-19-2.72308E-19
 -1       945 9.61120E-05-2.91882E-05-2.86816E-05-6.24944E-07 2.74337E-19-7.39907E-19
 -1       946 9.59324E-05-2.91022E-05-2.86415E-05-5.75006E-07 2.98767E-19-1.21562E-18
 -1       947 9.54050E-05-2.86491E-05-2.86097E-05-4.59621E-07-1.10295E-19 4.77226E-20
 -1       948 9.52047E-05-2.84346E-05-2.86158E-05-4.41637E-07-3.96143E-19-2.58405E-20
 -1       949 9.49692E-05-2.81775E-05-2.86250E-05-4.28922E-07-2.08043E-19-6.64355E-19
 -1       950 9.46739E-05-2.78619E-05-2.86338E-05-4.08970E-07 1.59154E-19-1.46198E-18
 -1       951 9.42850E-05-2.74654E-05-2.86370E-05-3.58677E-07 9.90314E-19-7.38296E-19
 -1       952 9.37571E-05-2.69604E-05-2.86272E-05-2.38443E-07 4.62086E-19-6.95352E-20
 -1       953 9.30313E-05-2.63156E-05-2.85925E-05 1.68564E-08-2.39777E-19 9.22320E-20
 -1       954 9.20350E-05-2.55028E-05-2.85138E-05 5.10893E-07-2.96870E-19 7.47756E-20
 -1       955 9.06867E-05-2.45114E-05-2.83607E-05 1.40651E-06 2.71330E-19 6.41904E-20
 -1       956 8.90097E-05-2.34311E-05-2.81050E-05 2.84106E-06-1.35355E-19 5.96923E-19
 -1       957 8.67910E-05-2.22639E-05-2.76539E-05 5.28797E-06 4.48241E-19 1.46629E-19
 -1       958 8.41770E-05-2.13695E-05-2.69153E-05 9.17493E-06 5.82239E-19-8.42367E-19
 -1       959 8.20761E-05-2.14131E-05-2.59909E-05 1.40994E-05 3.91850E-19-8.50228E-19
 -1       960 9.65962E-05-2.89950E-05-2.89719E-05-6.42779E-07 1.43743E-19-9.21863E-19
 -1       961 9.45825E-05-2.23550E-05-3.09542E-05-2.11431E-07 3.66911E-19-1.96370E-18
 -1       962 9.56049E-05-2.46913E-05-3.03904E-05 1.03452E-06 9.23107E-19-1.21375E-18
 -1       963 9.28151E-05-2.73259E-05-2.80668E-05-8.13251E-06 3.77448E-18-1.85914E-18
 -1       964 9.62908E-05-2.92188E-05-2.87451E-05-6.65130E-07-3.21013E-19-1.25202E-18
 -1       965 7.78003E-05-1.91850E-05-2.50738E-05-1.55788E-05-1.12626E-18 5.45593E-19
 -1       966 9.63942E-05-2.75962E-05-2.94845E-05-1.04054E-07 4.20966E-19-1.13335E-18
 -1       967 1.11997E-04-4.53516E-05-2.85479E-05 1.65125E-05 1.51265E-18 5.52117E-19
 -1       968 9.61571E-05-2.61603E-05-2.99986E-05-4.86763E-07-1.07532E-19-1.30851E-18
 -1       969 9.62218E-05-3.52790E-05-2.60958E-05 2.32744E-05 1.28739E-18-8.87909E-19
 -1       970 1.17609E-04-4.16038E-05-3.25685E-05-5.15672E-06 1.03678E-18 5.12861E-19
 -1       971 9.64585E-05-2.91675E-05-2.88390E-05-6.78825E-07-1.27202E-19-1.39605E-18
 -1       972 9.56547E-05-2.48326E-05-3.03525E-05-9.61672E-07-2.71666E-20-1.57758E-18
 -1       973 1.02145E-04-3.51965E-05-2.86890E-05-6.20264E-06 1.94906E-18 4.24157E-19
 -1       974 1.12107E-04-3.14509E-05-3.46280E-05-1.14432E-05 1.17879E-18-9.50189E-19
 -1       975 9.66734E-05-2.86608E-05-2.91482E-05-5.30515E-07 1.05981E-19-7.66909E-19
 -1       976 9.69861E-05-3.60763E-05-2.60850E-05-2.37180E-05-5.01950E-19 9.41017E-19
 -1       977 8.36756E-05-2.16959E-05-2.65395E-05-1.16989E-05 1.53377E-19 3.54151E-18
 -1       978 9.93860E-05-3.34780E-05-2.82519E-05-9.63580E-06 2.52469E-18-3.26692E-18
 -1       979 1.13701E-04-4.57612E-05-2.91131E-05-1.34608E-05 6.77946E-19 1.26776E-18
 -1       980 9.50874E-05-2.35077E-05-3.06749E-05 1.25761E-06 1.02040E-18-1.19208E-18
 -1       981 1.19680E-04-4.45954E-05-3.21934E-05 1.33325E-06-7.39933E-19-1.34607E-18
 -1       982 8.70226E-05-2.33572E-05-2.72780E-05-9.56379E-06 2.68320E-18 2.25244E-18
 -1       983 9.63928E-05-2.67295E-05-2.98557E-05 2.47474E-07 4.39609E-19-1.12308E-18
 -1       984 9.55962E-05-2.44592E-05-3.04856E-05 4.94221E-07 8.09765E-19-1.31611E-18
 -1       985 1.13435E-04-4.41283E-05-2.96993E-05 7.29140E-06 6.24195E-19 1.53519E-19
 -1       986 9.55530E-05-2.44085E-05-3.04903E-05-5.57221E-07 1.58850E-19-1.78900E-18
 -1       987 9.68803E-05-2.85105E-05-2.93013E-05 2.76662E-07 6.57609E-23-1.08735E-18
 -1       988 9.68388E-05-2.89609E-05-2.90906E-05 3.67872E-07-1.36411E-19-1.39906E-18
 -1       989 9.67070E-05-2.91986E-05-2.89322E-05 4.03708E-07-3.75074E-19-1.19843E-18
 -1       990 9.65255E-05-2.92878E-05-2.88162E-05 4.04089E-07-5.00471E-19-1.49161E-18
 -1       991 9.63211E-05-2.92758E-05-2.87337E-05 3.84908E-07-5.04105E-19-1.27017E-18
 -1       992 9.61111E-05-2.91975E-05-2.86773E-05 3.58421E-07-4.45584E-19-1.51811E-18
 -1       993 9.59048E-05-2.90772E-05-2.86404E-05 3.34201E-07-8.58540E-20-1.03740E-18
 -1       994 9.57065E-05-2.89318E-05-2.86177E-05 3.20358E-07-2.08972E-19-9.96310E-19
 -1       995 9.55178E-05-2.87734E-05-2.86047E-05 3.24646E-07 1.04566E-19-5.59833E-19
 -1       996 9.53391E-05-2.86117E-05-2.85974E-05 3.55717E-07 2.04783E-19-2.81407E-19
 -1       997 9.51724E-05-2.84571E-05-2.85923E-05 4.24380E-07 6.85056E-19-1.29360E-19
 -1       998 9.50239E-05-2.83233E-05-2.85860E-05 5.44887E-07 6.72358E-19-6.82715E-19
 -1       999 9.49072E-05-2.82313E-05-2.85754E-05 7.36022E-07 3.54950E-19-1.38592E-18
 -1      1000 9.48487E-05-2.82138E-05-2.85578E-05 1.02154E-06 4.06800E-19-1.33364E-18
 -1      1001 9.48938E-05-2.83205E-05-2.85314E-05 1.42901E-06-7.67961E-19-1.03154E-18
 -1      1002 9.51158E-05-2.86244E-05-2.84963E-05 1.98544E-06-3.30674E-19 3.41495E-19
 -1      1003 9.56253E-05-2.92258E-05-2.84568E-05 2.70610E-06-3.36306E-19 5.79486E-19
 -1      1004 9.65810E-05-3.02549E-05-2.84255E-05 3.57517E-06-2.03766E-19-5.05694E-19
 -1      1005 9.81913E-05-3.18566E-05-2.84290E-05 4.50816E-06 1.42090E-19-2.68812E-20
 -1      1006 1.00690E-04-3.41455E-05-2.85194E-05 5.29647E-06 2.31053E-19 9.99217E-19
 -1      1007 1.04288E-04-3.71223E-05-2.87855E-05 5.54366E-06-1.13642E-19 1.60010E-19
 -1      1008 1.09032E-04-4.04678E-05-2.93911E-05 4.67318E-06-1.15725E-18-1.26575E-18
 -1      1009 9.56023E-05-2.44378E-05-3.04984E-05 1.15241E-07 3.95927E-19-1.67608E-18
 -1      1010 1.08755E-04-4.02715E-05-2.93357E-05-5.14877E-06 3.20474E-18-1.46330E-18
 -1      1011 1.05073E-04-3.76499E-05-2.89109E-05-6.06092E-06 2.66626E-18-3.93024E-19
 -1      1012 9.53371E-05-2.85709E-05-2.86141E-05-2.65739E-07-6.18029E-19-6.13802E-19
 -1      1013 9.50995E-05-2.83327E-05-2.86143E-05-2.26541E-07 1.01933E-19-3.98942E-19
 -1      1014 9.66628E-05-2.79499E-05-2.94483E-05-2.35033E-07 3.47847E-19-1.16025E-18
 -1      1015 9.48260E-05-2.80574E-05-2.86151E-05-1.65324E-07 3.31183E-19-6.16056E-19
 -1      1016 9.44962E-05-2.77354E-05-2.86118E-05-5.79136E-08 7.79429E-19-1.86659E-18
 -1      1017 9.40860E-05-2.73566E-05-2.85983E-05 1.34624E-07 1.90259E-19-1.30938E-18
 -1      1018 9.35688E-05-2.69146E-05-2.85661E-05 4.72684E-07 2.65774E-19-9.15687E-19
 -1      1019 9.29205E-05-2.64136E-05-2.85029E-05 1.04704E-06-3.03593E-19-6.11483E-19
 -1      1020 9.21292E-05-2.58835E-05-2.83909E-05 1.99059E-06 1.04013E-19-1.02593E-18
 -1      1021 9.12637E-05-2.54227E-05-2.82174E-05 3.39146E-06 3.80293E-19-1.95976E-18
 -1      1022 9.03185E-05-2.51363E-05-2.79344E-05 5.62433E-06 1.48185E-20-2.02108E-18
 -1      1023 8.95677E-05-2.53670E-05-2.75135E-05 8.92070E-06-2.22863E-20-2.75211E-19
 -1      1024 1.15222E-04-4.38656E-05-3.05772E-05-2.48553E-06 1.33645E-18-8.32851E-19
 -1      1025 1.03568E-04-3.85754E-05-2.78472E-05 1.54132E-05 7.95404E-19-5.80811E-19
 -1      1026 9.63801E-05-2.92846E-05-2.87552E-05-4.19519E-07-3.45584E-19-1.27436E-18
 -1      1027 9.55548E-05-2.87789E-05-2.86183E-05-2.97013E-07-3.24178E-19-1.04636E-18
 -1      1028 9.57536E-05-2.89512E-05-2.86296E-05-3.26144E-07 1.89693E-19-8.45128E-19
 -1      1029 9.64362E-05-2.66029E-05-2.99286E-05-1.68484E-07 1.98412E-20-1.62310E-18
 -1      1030 9.22946E-05-3.03281E-05-2.65572E-05 1.80545E-05 1.05764E-18-1.33270E-19
 -1      1031 9.67745E-05-2.77579E-05-2.95781E-05 1.07190E-07-1.65478E-19-1.06130E-18
 -1      1032 8.73875E-05-2.68410E-05-2.59236E-05-1.87745E-05-2.23171E-18-3.61555E-19
 -1      1033 9.68535E-05-2.88547E-05-2.91423E-05-3.70240E-07 2.22297E-19-1.34726E-18
 -1      1034 9.15765E-05-2.69883E-05-2.76741E-05-1.01840E-05 3.32114E-18 1.09711E-19
 -1      1035 9.59618E-05-2.91043E-05-2.86532E-05-3.58497E-07-3.11829E-20-8.21528E-19
 -1      1036 1.02772E-04-3.66648E-05-2.83316E-05-1.08964E-05 2.28345E-18-1.82269E-18
 -1      1037 9.61715E-05-2.92206E-05-2.86933E-05-3.91225E-07 4.60609E-19-9.21987E-19
 -1      1038 8.95838E-05-2.64878E-05-2.70406E-05 1.27508E-05 1.23394E-18-1.34046E-19
 -1      1039 9.55593E-05-2.43621E-05-3.05127E-05-2.19885E-07 2.11091E-19-2.00541E-18
 -1      1040 1.06141E-04-4.08851E-05-2.79627E-05-1.67076E-05 3.76658E-19-9.07558E-19
 -1      1041 9.55135E-05-3.04218E-05-2.79078E-05-1.07033E-05 2.10230E-18-5.28763E-18
 -1      1042 9.65792E-05-2.92730E-05-2.88457E-05-4.34681E-07-4.06358E-19-1.32262E-18
 -1      1043 9.60661E-05-2.56141E-05-3.01921E-05-3.64417E-07 2.83394E-19-1.69375E-18
 -1      1044 9.62767E-05-2.60388E-05-3.01028E-05 1.40870E-07 4.91100E-19-1.41434E-18
 -1      1045 9.66827E-05-2.73309E-05-2.97222E-05-6.80506E-09 4.34756E-19-1.33334E-18
 -1      1046 9.67448E-05-2.91430E-05-2.89721E-05-4.23598E-07 2.31626E-19-1.34796E-18
 -1      1047 1.08871E-04-4.13922E-05-2.89208E-05-1.02503E-05 2.18304E-18 1.31328E-18
 -1      1048 9.62497E-05-2.59198E-05-3.01394E-05-1.61618E-09 4.50330E-19-1.31342E-18
 -1      1049 9.68843E-05-2.91159E-05-2.90434E-05 1.36251E-07-3.94298E-19-1.21715E-18
 -1      1050 9.67229E-05-2.92900E-05-2.88999E-05 1.41942E-07-4.03812E-19-1.28231E-18
 -1      1051 9.65178E-05-2.93274E-05-2.87958E-05 1.38477E-07-7.25108E-19-1.41654E-18
 -1      1052 9.62960E-05-2.92776E-05-2.87221E-05 1.31063E-07-5.33067E-19-1.96316E-18
 -1      1053 9.60710E-05-2.91694E-05-2.86720E-05 1.24305E-07 1.63410E-19-1.38523E-18
 -1      1054 9.58497E-05-2.90237E-05-2.86397E-05 1.22981E-07 2.64269E-19-1.29047E-18
 -1      1055 9.56340E-05-2.88540E-05-2.86200E-05 1.32544E-07-1.26875E-19-7.34160E-19
 -1      1056 9.54228E-05-2.86695E-05-2.86085E-05 1.60265E-07 2.77474E-19-7.73246E-19
 -1      1057 9.52135E-05-2.84769E-05-2.86014E-05 2.16515E-07 5.53660E-19-1.05180E-18
 -1      1058 9.50047E-05-2.82834E-05-2.85948E-05 3.16550E-07 1.53336E-19-1.45335E-18
 -1      1059 9.47984E-05-2.81001E-05-2.85849E-05 4.82490E-07 2.29431E-19-2.10156E-18
 -1      1060 9.46040E-05-2.79454E-05-2.85678E-05 7.45547E-07 4.70942E-19-1.62065E-18
 -1      1061 9.44440E-05-2.78517E-05-2.85394E-05 1.14791E-06 3.26350E-19-1.72668E-18
 -1      1062 9.43631E-05-2.78726E-05-2.84957E-05 1.74306E-06-1.53255E-19-8.76270E-19
 -1      1063 9.44402E-05-2.80931E-05-2.84341E-05 2.59360E-06-7.53034E-21-1.27702E-18
 -1      1064 9.48076E-05-2.86422E-05-2.83563E-05 3.75652E-06-4.97665E-19-9.56551E-19
 -1      1065 9.56779E-05-2.97080E-05-2.82724E-05 5.25777E-06 2.01615E-19-1.08398E-18
 -1      1066 9.73524E-05-3.15277E-05-2.82088E-05 7.05724E-06 6.68253E-19-8.61438E-19
 -1      1067 1.00215E-04-3.43417E-05-2.82265E-05 8.91683E-06-5.49155E-20-1.51250E-18
 -1      1068 1.05659E-04-3.88955E-05-2.86049E-05 9.49303E-06-9.13970E-19-8.41988E-19
 -1      1069 9.47370E-05-2.80043E-05-2.85998E-05 1.54924E-07 7.10025E-19-1.34420E-18
 -1      1070 9.52508E-05-2.84938E-05-2.86102E-05-3.93946E-08-3.87484E-19-1.74227E-18
 -1      1071 9.68668E-05-2.82830E-05-2.93929E-05-2.28345E-07 4.04125E-20-1.10072E-18
 -1      1072 9.40952E-05-2.74531E-05-2.85610E-05 6.93627E-07 2.89100E-19-1.04344E-18
 -1      1073 9.37249E-05-2.71902E-05-2.85150E-05 1.22770E-06-3.49225E-19-1.61340E-18
 -1      1074 9.33522E-05-2.69938E-05-2.84394E-05 2.05577E-06 1.85883E-19-1.53561E-18
 -1      1075 9.30567E-05-2.69521E-05-2.83306E-05 3.22478E-06 4.15320E-19-1.10776E-18
 -1      1076 9.29376E-05-2.72122E-05-2.81681E-05 4.98657E-06-4.20047E-19-6.23423E-19
 -1      1077 9.32740E-05-2.80562E-05-2.79522E-05 7.42488E-06-2.49349E-19-1.58677E-18
 -1      1078 9.69297E-05-2.81339E-05-2.94838E-05 6.34777E-08 1.99701E-20-1.16986E-18
 -1      1079 9.56974E-05-2.88978E-05-2.86284E-05-1.11358E-07 1.91981E-19-3.77007E-19
 -1      1080 9.67232E-05-2.72547E-05-2.97736E-05-3.92246E-09 5.10842E-19-1.43313E-18
 -1      1081 9.50062E-05-2.82590E-05-2.86060E-05 3.29617E-08 3.56933E-19-1.95420E-18
 -1      1082 8.97384E-05-2.64620E-05-2.71228E-05-1.29267E-05-3.38783E-19-5.72282E-19
 -1      1083 9.75773E-05-3.30321E-05-2.76622E-05 1.28868E-05 1.66493E-19-1.42041E-18
 -1      1084 9.54774E-05-2.87059E-05-2.86164E-05-8.28899E-08-5.10554E-19-5.75969E-19
 -1      1085 9.44347E-05-2.77325E-05-2.85867E-05 3.59039E-07 1.04304E-19-1.00466E-18
 -1      1086 9.69709E-05-2.87573E-05-2.92343E-05 1.14949E-07 7.10441E-21-1.16278E-18
 -1      1087 9.69750E-05-2.86268E-05-2.92925E-05-1.13496E-07 1.96657E-19-1.39429E-18
 -1      1088 9.65822E-05-2.93267E-05-2.88237E-05-1.69997E-07-8.91980E-19-8.89275E-19
 -1      1089 9.59197E-05-2.90684E-05-2.86506E-05-1.32300E-07 1.88295E-19-3.60876E-19
 -1      1090 9.79666E-05-3.31122E-05-2.77893E-05-1.31307E-05 7.92827E-19-3.54558E-18
 -1      1091 9.69126E-05-2.80582E-05-2.95087E-05-5.19163E-08 1.27935E-20-1.55049E-18
 -1      1092 9.43376E-05-2.95984E-05-2.77473E-05 1.00395E-05 5.43222E-19-2.30817E-18
 -1      1093 9.61518E-05-2.57357E-05-3.01791E-05-1.73588E-07 2.48383E-19-1.93463E-18
 -1      1094 9.63643E-05-2.92992E-05-2.87422E-05-1.61954E-07-3.64734E-19-2.85095E-19
 -1      1095 9.69184E-05-2.90449E-05-2.90889E-05-1.46211E-07-1.93806E-21-1.38138E-18
 -1      1096 9.68167E-05-2.92249E-05-2.89680E-05-1.26558E-07-1.44192E-19-8.17448E-19
 -1      1097 9.61417E-05-2.92059E-05-2.86868E-05-1.48805E-07 1.65148E-19-9.63960E-20
 -1      1098 1.16890E-04 2.57646E-10-4.18669E-05-4.14801E-05-3.06202E-19 8.73778E-18
 -1      1099 8.86689E-05 7.19270E-11-3.72589E-05-2.41786E-05-1.63054E-19 7.28819E-19
 -1      1100 8.40884E-05 4.14520E-11-3.57717E-05-1.78887E-05-1.10961E-19-2.54102E-18
 -1      1101 8.23421E-05 3.19998E-11-3.50760E-05-1.38489E-05-6.18599E-20-4.07746E-18
 -1      1102 8.15362E-05 2.73248E-11-3.47408E-05-1.05475E-05-4.45619E-20-4.75103E-18
 -1      1103 8.11314E-05 2.45797E-11-3.45745E-05-7.65651E-06-2.32140E-20-4.98815E-18
 -1      1104 8.09194E-05 2.29190E-11-3.44900E-05-4.99917E-06-1.09783E-20-4.99539E-18
 -1      1105 8.08156E-05 2.20176E-11-3.44499E-05-2.45588E-06 4.02010E-21-4.92716E-18
 -1      1106 8.07850E-05 2.17349E-11-3.44382E-05 2.33393E-08 1.10487E-20-4.81947E-18
 -1      1107 8.08169E-05 2.20302E-11-3.44503E-05 2.50323E-06 2.71679E-20-4.70468E-18
 -1      1108 8.09223E-05 2.29489E-11-3.44910E-05 5.04882E-06 3.35471E-20-4.50161E-18
 -1      1109 8.11376E-05 2.46106E-11-3.45761E-05 7.71044E-06 5.44086E-20-4.09292E-18
 -1      1110 8.15482E-05 2.73898E-11-3.47448E-05 1.06065E-05 7.14552E-20-3.45521E-18
 -1      1111 8.23623E-05 3.21393E-11-3.50851E-05 1.39190E-05 9.28825E-20-2.37561E-18
 -1      1112 8.41309E-05 4.16395E-11-3.57913E-05 1.79734E-05 1.26261E-19-3.36775E-19
 -1      1113 8.87686E-05 7.22531E-11-3.72993E-05 2.42766E-05 1.50031E-19 3.61117E-18
 -1      1114 1.17159E-04 2.58477E-10-4.18352E-05 4.17499E-05 1.43149E-19 1.16994E-17
 -1      1115 1.30264E-04-2.57645E-05-4.02858E-05-2.61153E-05-1.25223E-18 1.37808E-17
 -1      1116 9.74848E-05-2.88710E-05-3.15867E-05-6.80960E-07-4.15655E-19 1.08634E-17
 -1      1117 9.01808E-05-2.70329E-05-2.78998E-05 3.87000E-07-1.57905E-19 6.98000E-18
 -1      1118 8.82652E-05-2.65772E-05-2.66487E-05 2.50678E-07-8.18115E-20 4.32463E-18
 -1      1119 8.79034E-05-2.64496E-05-2.63914E-05 1.65809E-07-7.90487E-20 2.29371E-18
 -1      1120 8.82611E-05-2.65257E-05-2.64758E-05 1.18072E-07-5.00544E-20 1.43914E-18
 -1      1121 8.89476E-05-2.67103E-05-2.66785E-05 8.75083E-08 4.30423E-21 6.49595E-19
 -1      1122 8.97638E-05-2.69426E-05-2.69216E-05 6.63082E-08-5.45441E-20-5.29197E-19
 -1      1123 9.05996E-05-2.71861E-05-2.71708E-05 5.06446E-08-1.99457E-20-1.68885E-18
 -1      1124 9.13932E-05-2.74200E-05-2.74081E-05 3.86083E-08-1.48467E-19-3.11839E-18
 -1      1125 9.21121E-05-2.76332E-05-2.76237E-05 2.91867E-08 7.65322E-20-4.31420E-18
 -1      1126 9.27420E-05-2.78209E-05-2.78133E-05 2.17825E-08 7.57369E-20-3.65480E-18
 -1      1127 9.32811E-05-2.79820E-05-2.79761E-05 1.60016E-08 2.83062E-20-4.11408E-18
 -1      1128 9.37349E-05-2.81181E-05-2.81135E-05 1.15616E-08 6.27380E-20-3.59434E-18
 -1      1129 9.41140E-05-2.82320E-05-2.82286E-05 8.25139E-09-1.68595E-19-2.53186E-18
 -1      1130 9.44315E-05-2.83276E-05-2.83253E-05 5.91319E-09-1.85275E-19-2.05732E-18
 -1      1131 9.47018E-05-2.84091E-05-2.84077E-05 4.43225E-09-9.04673E-20-3.44402E-18
 -1      1132 9.49392E-05-2.84807E-05-2.84802E-05 3.72748E-09 7.78222E-22-4.77427E-18
 -1      1133 9.51571E-05-2.85464E-05-2.85466E-05 3.73713E-09 6.61571E-20-6.05530E-18
 -1      1134 9.53663E-05-2.86093E-05-2.86101E-05 4.39442E-09 5.99386E-20-6.91335E-18
 -1      1135 9.55732E-05-2.86711E-05-2.86723E-05 5.58716E-09-5.57421E-20-6.38863E-18
 -1      1136 9.57771E-05-2.87315E-05-2.87326E-05 7.09564E-09 6.40196E-20-5.65039E-18
 -1      1137 9.59661E-05-2.87868E-05-2.87871E-05 8.50545E-09 5.78265E-20-4.21317E-18
 -1      1138 9.61124E-05-2.88285E-05-2.88268E-05 9.09968E-09-2.31175E-19-5.23871E-18
 -1      1139 9.61665E-05-2.88415E-05-2.88363E-05 7.75213E-09 2.83508E-20-5.24748E-18
 -1      1140 9.60523E-05-2.88032E-05-2.87926E-05 2.87337E-09 1.73257E-19-3.96698E-18
 -1      1141 9.56647E-05-2.86823E-05-2.86643E-05-7.49590E-09 1.76440E-19-3.79159E-18
 -1      1142 9.48747E-05-2.84408E-05-2.84142E-05-2.53113E-08-1.22265E-19-5.52840E-18
 -1      1143 9.35452E-05-2.80387E-05-2.80041E-05-5.17398E-08-1.81844E-19-6.52784E-18
 -1      1144 9.15634E-05-2.74438E-05-2.74047E-05-8.59507E-08 2.25797E-19-4.86782E-18
 -1      1145 8.88890E-05-2.66459E-05-2.66094E-05-1.23768E-07-2.20159E-19-2.84759E-18
 -1      1146 8.56104E-05-2.56726E-05-2.56492E-05-1.56944E-07-1.16668E-19-2.94609E-18
 -1      1147 8.19884E-05-2.46022E-05-2.46026E-05-1.74155E-07-2.30625E-19-3.63414E-18
 -1      1148 7.84571E-05-2.35624E-05-2.35937E-05-1.64456E-07 1.22125E-20-4.20054E-18
 -1      1149 7.55586E-05-2.27114E-05-2.27728E-05-1.22511E-07 3.13735E-19-4.03148E-18
 -1      1150 7.38115E-05-2.21993E-05-2.22804E-05-5.29840E-08 7.04543E-20-5.11385E-18
 -1      1151 7.35538E-05-2.21236E-05-2.22071E-05 2.91971E-08-2.70984E-21-5.78151E-18
 -1      1152 7.48287E-05-2.24966E-05-2.25643E-05 1.03973E-07-1.74982E-20-4.26099E-18
 -1      1153 7.73687E-05-2.32412E-05-2.32806E-05 1.54246E-07 3.88121E-19-2.39816E-18
 -1      1154 8.06867E-05-2.42166E-05-2.42242E-05 1.72247E-07-2.69070E-19-5.42059E-18
 -1      1155 8.42290E-05-2.52618E-05-2.52430E-05 1.60842E-07 7.90491E-20-7.89085E-18
 -1      1156 8.75200E-05-2.62372E-05-2.62023E-05 1.30018E-07 2.47018E-19-7.62143E-18
 -1      1157 9.02501E-05-2.70506E-05-2.70106E-05 9.15930E-08-4.72834E-19-7.77687E-18
 -1      1158 9.22921E-05-2.76628E-05-2.76264E-05 5.51432E-08-2.28266E-19-7.02517E-18
 -1      1159 9.36682E-05-2.80789E-05-2.80510E-05 2.63536E-08 2.76854E-19-5.87148E-18
 -1      1160 9.44948E-05-2.83319E-05-2.83142E-05 7.34698E-09 9.47453E-20-1.68508E-18
 -1      1161 9.49299E-05-2.84679E-05-2.84594E-05-1.96001E-09-1.78398E-19-1.81146E-18
 -1      1162 9.51303E-05-2.85329E-05-2.85300E-05-3.66155E-09 6.18653E-20-8.26859E-19
 -1      1163 9.52142E-05-2.85613E-05-2.85599E-05-2.08896E-09-1.09705E-19 1.20531E-18
 -1      1164 9.52397E-05-2.85717E-05-2.85723E-05-1.77006E-09 3.77567E-19 2.97740E-18
 -1      1165 1.31454E-04-2.58475E-05-4.04266E-05 2.68818E-05 9.12890E-19 1.70597E-17
 -1      1166 9.82064E-05-2.90549E-05-3.18601E-05 8.62336E-07 3.39131E-19 1.48972E-17
 -1      1167 9.03581E-05-2.70697E-05-2.80062E-05-3.89344E-07 1.93150E-19 1.12325E-17
 -1      1168 8.83187E-05-2.65926E-05-2.66813E-05-2.55402E-07 1.07014E-19 8.57462E-18
 -1      1169 8.79025E-05-2.64502E-05-2.63951E-05-1.68693E-07 5.45708E-20 6.92682E-18
 -1      1170 8.82347E-05-2.65190E-05-2.64686E-05-1.19824E-07 9.49413E-20 5.41627E-18
 -1      1171 8.89092E-05-2.66995E-05-2.66672E-05-8.86831E-08 1.10751E-19 4.22447E-18
 -1      1172 8.97208E-05-2.69301E-05-2.69088E-05-6.71951E-08 3.95028E-20 3.91501E-18
 -1      1173 9.05560E-05-2.71730E-05-2.71577E-05-5.12587E-08 8.60945E-20 3.70391E-18
 -1      1174 9.13326E-05-2.74020E-05-2.73895E-05-3.85374E-08-8.76263E-20 3.36457E-18
 -1      1175 9.20373E-05-2.76110E-05-2.76012E-05-3.00243E-08 8.25094E-20 3.09627E-18
 -1      1176 9.26729E-05-2.78002E-05-2.77923E-05-2.22333E-08 5.88848E-20 2.77297E-18
 -1      1177 9.32155E-05-2.79624E-05-2.79561E-05-1.61410E-08-1.34562E-20 2.52028E-18
 -1      1178 9.36702E-05-2.80987E-05-2.80936E-05-1.13401E-08 1.00759E-19 1.70082E-18
 -1      1179 9.40467E-05-2.82119E-05-2.82079E-05-7.56508E-09 5.82225E-20-6.39617E-20
 -1      1180 9.43583E-05-2.83059E-05-2.83028E-05-4.60521E-09-2.62800E-20-3.46068E-19
 -1      1181 9.46206E-05-2.83854E-05-2.83830E-05-2.28722E-09-9.01228E-20-4.67750E-20
 -1      1182 9.48515E-05-2.84557E-05-2.84540E-05-4.76584E-10-2.72799E-19 1.47638E-18
 -1      1183 9.50722E-05-2.85233E-05-2.85223E-05 8.79498E-10 1.48083E-19 1.20681E-18
 -1      1184 9.53021E-05-2.85941E-05-2.85938E-05 1.66457E-09 1.64500E-19 3.61992E-19
 -1      1185 9.55791E-05-2.86797E-05-2.86805E-05 2.42396E-09 2.70707E-20 4.91507E-19
 -1      1186 9.59579E-05-2.87969E-05-2.87996E-05 2.12762E-09-1.14695E-19 8.01246E-19
 -1      1187 9.65023E-05-2.89653E-05-2.89716E-05 2.83162E-10 1.77305E-19 6.09137E-19
 -1      1188 9.73200E-05-2.92177E-05-2.92311E-05-4.72496E-09-1.39487E-20 6.32746E-19
 -1      1189 9.85791E-05-2.96052E-05-2.96323E-05-1.61719E-08 1.03682E-19-3.29162E-19
 -1      1190 1.00546E-04-3.02081E-05-3.02619E-05-4.05914E-08-8.20232E-21-4.41165E-19
 -1      1191 1.03643E-04-3.11521E-05-3.12565E-05-9.07204E-08-9.24159E-20-3.30343E-20
 -1      1192 1.08523E-04-3.26308E-05-3.28246E-05-1.90650E-07 4.89492E-20 4.86541E-19
 -1      1193 1.16148E-04-3.49201E-05-3.52583E-05-3.83911E-07 1.00175E-19-3.07579E-20
 -1      1194 1.27439E-04-3.83282E-05-3.87720E-05-7.13342E-07-2.24345E-19 6.35275E-20
 -1      1195 1.43725E-04-4.32217E-05-4.36027E-05-1.19705E-06-5.38329E-20-4.68621E-19
 -1      1196 1.65384E-04-4.97893E-05-4.93949E-05-1.69463E-06-1.78831E-19 7.25272E-19
 -1      1197 1.86918E-04-5.63556E-05-5.41510E-05-1.26356E-06-4.06324E-19 5.56670E-18
 -1      1198 1.93740E-04-5.81159E-05-5.47257E-05 1.66288E-06 2.06014E-19 6.76292E-18
 -1      1199 1.69089E-04-4.97827E-05-4.94589E-05 7.07152E-06-5.82335E-21 3.73626E-18
 -1      1200 1.16911E-04-3.29049E-05-4.11429E-05 9.17727E-06 1.11173E-21 7.86047E-19
 -1      1201 7.96315E-05-2.14646E-05-3.58330E-05 2.65809E-06-5.42313E-19 9.64135E-19
 -1      1202 9.31424E-05-2.60427E-05-3.75395E-05-7.03006E-06 7.29613E-19-2.67493E-18
 -1      1203 1.46309E-04-4.25841E-05-4.55149E-05-8.25920E-06-5.41836E-19-3.44912E-18
 -1      1204 1.86161E-04-5.55409E-05-5.27113E-05-3.39239E-06 5.45675E-20 3.60413E-18
 -1      1205 1.92315E-04-5.81820E-05-5.48281E-05 1.49275E-07 2.70521E-20 2.59526E-18
 -1      1206 1.75564E-04-5.29306E-05-5.17619E-05 1.46283E-06 2.88706E-19 6.25110E-19
 -1      1207 1.53259E-04-4.60962E-05-4.62104E-05 1.30649E-06-3.40666E-19 5.13514E-19
 -1      1208 1.33742E-04-4.01663E-05-4.06688E-05 8.53721E-07-8.22019E-20 2.48212E-18
 -1      1209 1.19604E-04-3.59171E-05-3.63502E-05 4.95927E-07-1.70770E-19 4.09350E-18
 -1      1210 1.10026E-04-3.30477E-05-3.33263E-05 2.75679E-07-4.15046E-20 2.85185E-18
 -1      1211 1.03694E-04-3.11474E-05-3.13093E-05 1.54549E-07 2.90943E-19 3.93034E-18
 -1      1212 9.95404E-05-2.98956E-05-2.99955E-05 9.09158E-08 4.30996E-19 3.92082E-18
 -1      1213 9.68870E-05-2.90938E-05-2.91717E-05 4.93991E-08-4.26592E-19 7.01484E-18
 -1      1214 9.54341E-05-2.86495E-05-2.87094E-05-8.67474E-09 1.33132E-19 9.49832E-18
 -1      1215 9.51361E-05-2.86232E-05-2.84798E-05-1.07987E-07 7.56587E-19 7.05580E-18
 -1      1216 9.52073E-05-2.86853E-05-2.84808E-05-9.67876E-08 6.33838E-18 1.07968E-18
 -1      1217 9.51689E-05-2.83246E-05-2.87157E-05-4.32319E-08 1.13741E-17-3.92760E-19
 -1      1218 9.47845E-05-2.69882E-05-2.90943E-05 3.83181E-08 1.00831E-17-6.32830E-19
 -1      1219 9.42618E-05-2.52543E-05-2.95551E-05 8.48422E-08 1.49334E-17-1.99032E-19
 -1      1220 9.38112E-05-2.37678E-05-2.99556E-05 9.32292E-08 2.13829E-18-4.07025E-19
 -1      1221 9.35605E-05-2.29546E-05-3.01804E-05 7.19405E-08-5.45731E-18 5.77298E-20
 -1      1222 9.35525E-05-2.29505E-05-3.01890E-05 3.73579E-08-1.59817E-17-7.70674E-19
 -1      1223 9.37578E-05-2.36500E-05-3.00031E-05 2.89173E-10-2.13049E-17-1.17404E-18
 -1      1224 9.40974E-05-2.47904E-05-2.96901E-05-2.78737E-08-1.26384E-17 9.32419E-19
 -1      1225 9.44776E-05-2.60594E-05-2.93348E-05-4.24514E-08 6.36664E-19 4.93275E-20
 -1      1226 9.48185E-05-2.71926E-05-2.90110E-05-4.35250E-08 3.79102E-18-6.90242E-19
 -1      1227 9.50685E-05-2.80208E-05-2.87681E-05-3.42046E-08 9.01984E-18 4.81717E-19
 -1      1228 9.52154E-05-2.85030E-05-2.86193E-05-2.05931E-08 9.46057E-18 3.04922E-19
 -1      1229 9.52725E-05-2.86885E-05-2.85534E-05-6.34677E-09 4.47499E-18 2.36260E-19
 -1      1230 9.52719E-05-2.86797E-05-2.85441E-05 3.55256E-09-6.10953E-18-1.35607E-18
 -1      1231 9.52470E-05-2.86047E-05-2.85580E-05 5.82882E-09-7.78438E-18 1.62851E-19
 -1      1232 9.52352E-05-2.85690E-05-2.85720E-05 3.44060E-10-3.13289E-18 2.79078E-19
 -1      1233 3.94635E-05-1.28587E-04 2.34370E-05-1.92001E-05 1.01739E-17 9.54394E-19
 -1      1234 2.25913E-05-9.61861E-05 1.70751E-05-4.15012E-05 3.99037E-18 8.73926E-19
 -1      1235 6.05055E-06-3.75005E-05 1.53840E-06-2.64647E-05 6.34936E-18 5.58195E-18
 -1      1236 2.36472E-05 7.92081E-06-2.06848E-05 2.59687E-05 9.67481E-18 8.93450E-18
 -1      1237 9.95307E-05 9.67919E-06-4.57545E-05 8.95839E-05 4.99580E-18 6.79320E-18
 -1      1238 2.33037E-04-3.81347E-05-7.03041E-05 1.21986E-04 2.19551E-18 6.21892E-18
 -1      1239 3.64526E-04-1.00723E-04-8.86829E-05 8.05158E-05 1.52519E-18 8.58553E-18
 -1      1240 4.14494E-04-1.27048E-04-9.38140E-05-1.49585E-05 6.16216E-19 3.90715E-18
 -1      1241 3.28069E-04-8.37898E-05-8.33889E-05-1.02458E-04 1.80079E-18-4.53332E-18
 -1      1242 1.70414E-04-1.30874E-05-5.98091E-05-1.12418E-04 5.33123E-18-1.01390E-17
 -1      1243 5.43335E-05 1.35202E-05-3.26267E-05-5.70615E-05 8.86843E-18-1.05574E-17
 -1      1244 7.73510E-06-1.29942E-05-8.08386E-06 7.04977E-06 1.21329E-17-9.08273E-18
 -1      1245 1.25619E-05-6.96363E-05 1.10206E-05 3.99559E-05 1.06286E-17-5.49216E-18
 -1      1246 3.48854E-05-1.20141E-04 2.16619E-05 3.34855E-05 7.63685E-18-1.56661E-18
 -1      1247 4.02380E-05-1.26069E-04 2.27690E-05 8.17889E-07 3.93870E-18-5.32254E-19
 -1      1248 2.65967E-05-8.91461E-05 1.49162E-05-2.19369E-05-8.85996E-19-5.88900E-19
 -1      1249 9.30704E-06-2.57307E-05-5.44101E-07-8.69761E-06-6.95414E-18-4.54941E-18
 -1      1250 1.91201E-05 2.36616E-05-2.08311E-05 3.86863E-05-1.10809E-17-8.91163E-18
 -1      1251 7.52841E-05 3.08945E-05-4.21887E-05 9.53086E-05-9.73918E-18-1.18432E-17
 -1      1252 1.69348E-04-4.95588E-06-6.16996E-05 1.25257E-04-5.16860E-18-8.73291E-18
 -1      1253 2.66621E-04-5.83943E-05-7.64521E-05 1.03841E-04-2.48477E-18-7.86131E-18
 -1      1254 3.28975E-04-9.70253E-05-8.42752E-05 3.54141E-05-5.84956E-19-5.42482E-18
 -1      1255 3.22169E-04-9.21256E-05-8.35183E-05-5.04449E-05 2.77694E-19-3.24922E-18
 -1      1256 2.48551E-04-4.74547E-05-7.39726E-05-1.10655E-04-1.04609E-18 3.94717E-19
 -1      1257 1.42196E-04 7.21750E-06-5.65745E-05-1.20864E-04-5.69714E-18 8.39071E-18
 -1      1258 5.00410E-05 3.29937E-05-3.44940E-05-7.58528E-05-6.81184E-18 7.30142E-18
 -1      1259 1.00746E-05 6.03928E-06-1.16178E-05-1.46812E-05-2.54618E-18 2.94005E-18
 -1      1260 1.60079E-05-5.63372E-05 7.56503E-06 2.10316E-05 4.46217E-18-1.78131E-18
 -1      1261 3.57458E-05-1.13293E-04 2.00074E-05 1.31852E-05 8.03072E-18-9.76364E-19
 -1      1262 1.04472E-04-2.20259E-05-3.79026E-05-1.72824E-05-4.70527E-19 6.92111E-18
 -1      1263 9.03358E-05-6.68179E-06-3.60240E-05-2.04834E-05-1.21745E-18-8.35280E-19
 -1      1264 9.26754E-05-6.74028E-06-3.72306E-05-2.57723E-05-1.57146E-18 8.97537E-19
 -1      1265 8.59127E-05-4.09638E-06-3.51339E-05-1.64443E-05-1.15194E-18-3.22757E-18
 -1      1266 8.71691E-05-4.08955E-06-3.56047E-05-1.88651E-05-1.35059E-18-2.21642E-18
 -1      1267 9.21489E-05-1.04639E-05-3.50995E-05-1.90482E-05-2.10699E-18-7.42371E-19
 -1      1268 8.41003E-05-3.18813E-06-3.46893E-05-1.28325E-05-8.64291E-19-4.39330E-18
 -1      1269 8.47111E-05-3.15773E-06-3.49141E-05-1.46444E-05-1.02216E-18-3.87446E-18
 -1      1270 8.78700E-05-7.39275E-06-3.45770E-05-1.54229E-05-1.80492E-18-2.72721E-18
 -1      1271 8.31882E-05-2.72658E-06-3.44721E-05-9.70084E-06-6.29557E-19-4.92090E-18
 -1      1272 8.35043E-05-2.70995E-06-3.45818E-05-1.12478E-05-7.15293E-19-4.71654E-18
 -1      1273 8.58670E-05-5.98130E-06-3.43076E-05-1.19741E-05-1.28500E-18-3.69875E-18
 -1      1274 8.26913E-05-2.45421E-06-3.43644E-05-6.93244E-06-3.75623E-19-5.05136E-18
 -1      1275 8.28627E-05-2.44592E-06-3.44195E-05-8.30186E-06-4.71764E-19-4.98603E-18
 -1      1276 8.48202E-05-5.21216E-06-3.41748E-05-8.95802E-06-9.33083E-19-4.11457E-18
 -1      1277 8.24132E-05-2.28850E-06-3.43103E-05-4.31602E-06-1.66452E-19-5.04432E-18
 -1      1278 8.25055E-05-2.28457E-06-3.43381E-05-5.61560E-06-2.32547E-19-5.06649E-18
 -1      1279 8.42295E-05-4.75538E-06-3.41100E-05-6.23560E-06-5.09778E-19-4.27921E-18
 -1      1280 8.22782E-05-2.19837E-06-3.42872E-05-1.81497E-06 7.52048E-20-4.93432E-18
 -1      1281 8.23182E-05-2.19680E-06-3.42987E-05-3.06389E-06-2.24861E-20-4.96688E-18
 -1      1282 8.39042E-05-4.49096E-06-3.40800E-05-3.66673E-06-1.85439E-19-4.18242E-18
 -1      1283 8.22497E-05-2.16961E-06-3.42841E-05 6.39732E-07 2.69721E-19-4.82477E-18
 -1      1284 8.22493E-05-2.16969E-06-3.42840E-05-5.93338E-07 2.01388E-19-4.89950E-18
 -1      1285 8.37597E-05-4.36933E-06-3.40685E-05-1.19641E-06 2.37952E-19-4.10978E-18
 -1      1286 8.23208E-05-2.19792E-06-3.42992E-05 3.11133E-06 4.73541E-19-4.70598E-18
 -1      1287 8.22799E-05-2.19965E-06-3.42875E-05 1.86159E-06 4.17426E-19-4.79373E-18
 -1      1288 8.37610E-05-4.37055E-06-3.40686E-05 1.24279E-06 5.63199E-19-4.03353E-18
 -1      1289 8.25112E-05-2.28775E-06-3.43390E-05 5.66565E-06 6.44427E-19-4.46314E-18
 -1      1290 8.24176E-05-2.29135E-06-3.43110E-05 4.36419E-06 5.85191E-19-4.62169E-18
 -1      1291 8.39087E-05-4.49486E-06-3.40804E-05 3.71429E-06 8.63548E-19-3.87368E-18
 -1      1292 8.28671E-05-2.44794E-06-3.44203E-05 8.33264E-06 8.63861E-19-3.99719E-18
 -1      1293 8.26954E-05-2.45707E-06-3.43648E-05 6.96150E-06 7.80988E-19-4.25617E-18
 -1      1294 8.42353E-05-4.76033E-06-3.41102E-05 6.26333E-06 1.18414E-18-3.57112E-18
 -1      1295 8.35214E-05-2.71569E-06-3.45857E-05 1.13084E-05 1.18533E-18-3.32955E-18
 -1      1296 8.32002E-05-2.73331E-06-3.44741E-05 9.75760E-06 1.05723E-18-3.73993E-18
 -1      1297 8.48288E-05-5.21976E-06-3.41750E-05 8.99216E-06 1.59407E-18-3.09853E-18
 -1      1298 8.47445E-05-3.17023E-06-3.49234E-05 1.47199E-05 1.42021E-18-2.14196E-18
 -1      1299 8.41285E-05-3.20265E-06-3.46952E-05 1.28978E-05 1.29611E-18-2.86707E-18
 -1      1300 8.58996E-05-6.00219E-06-3.43107E-05 1.20334E-05 2.00687E-18-2.35441E-18
 -1      1301 8.72298E-05-4.10287E-06-3.56246E-05 1.89536E-05 1.53482E-18 1.15064E-19
 -1      1302 8.59558E-05-4.11344E-06-3.51463E-05 1.65232E-05 1.39390E-18-1.23966E-18
 -1      1303 8.79292E-05-7.42623E-06-3.45852E-05 1.55085E-05 2.27430E-18-9.57094E-19
 -1      1304 9.27551E-05-6.66798E-06-3.72456E-05 2.59243E-05 1.53165E-18 3.84574E-18
 -1      1305 9.04311E-05-6.72172E-06-3.60483E-05 2.05915E-05 1.29554E-18 1.78168E-18
 -1      1306 9.22663E-05-1.05469E-05-3.51118E-05 1.91445E-05 2.27209E-18 1.56759E-18
 -1      1307 1.04912E-04-2.20214E-05-3.80640E-05 1.76432E-05 3.26108E-19 1.02817E-17
 -1      1308 1.05178E-04-3.02391E-05-3.35353E-05-7.96404E-06-1.29744E-18 7.38846E-18
 -1      1309 9.82881E-05-2.78506E-05-3.07708E-05-4.99170E-06-1.20644E-18 5.87073E-18
 -1      1310 9.55287E-05-2.78567E-05-2.92625E-05-2.49225E-06-9.56221E-19 5.19679E-18
 -1      1311 9.32940E-05-2.75651E-05-2.82224E-05-2.04534E-06-9.65300E-19 3.75331E-18
 -1      1312 9.95095E-05-2.80592E-05-3.09906E-05-7.89232E-06-2.08762E-18 2.77689E-18
 -1      1313 9.16028E-05-2.72068E-05-2.75876E-05-8.39965E-07-8.20696E-19 3.30364E-18
 -1      1314 9.08846E-05-2.71109E-05-2.72849E-05-7.29665E-07-6.93958E-19 2.27532E-18
 -1      1315 9.47393E-05-2.77759E-05-2.88230E-05-3.12456E-06-1.68364E-18 1.78373E-18
 -1      1316 9.01336E-05-2.69278E-05-2.70414E-05-1.74712E-07-4.92378E-19 1.77017E-18
 -1      1317 9.00604E-05-2.69544E-05-2.70064E-05-1.16435E-07-4.41979E-19 1.00559E-18
 -1      1318 9.25377E-05-2.75048E-05-2.79015E-05-1.05567E-06-1.22427E-18 9.86952E-19
 -1      1319 8.98010E-05-2.68870E-05-2.69321E-05 1.54589E-07-2.84555E-19 9.02725E-19
 -1      1320 9.00158E-05-2.69771E-05-2.69938E-05 1.83414E-07-2.96822E-19 5.26510E-19
 -1      1321 9.15783E-05-2.73608E-05-2.75343E-05-7.04030E-08-7.41101E-19 2.92749E-19
 -1      1322 9.00203E-05-2.69805E-05-2.70005E-05 3.15127E-07-2.76876E-19 2.65829E-19
 -1      1323 9.03636E-05-2.71004E-05-2.70999E-05 3.26976E-07-2.63508E-19-8.71120E-20
 -1      1324 9.13259E-05-2.73491E-05-2.74265E-05 4.18485E-07-6.64676E-19-1.41491E-19
 -1      1325 9.05068E-05-2.71425E-05-2.71475E-05 3.82141E-07-4.08411E-19-3.93037E-19
 -1      1326 9.08961E-05-2.72713E-05-2.72599E-05 3.83963E-07-3.63165E-19-9.48293E-19
 -1      1327 9.14605E-05-2.74233E-05-2.74493E-05 6.48167E-07-6.55886E-19-6.21358E-19
 -1      1328 9.11060E-05-2.73321E-05-2.73270E-05 3.95205E-07-3.25616E-19-1.23656E-18
 -1      1329 9.14957E-05-2.74575E-05-2.74399E-05 3.91177E-07-3.73947E-19-1.75857E-18
 -1      1330 9.17961E-05-2.75430E-05-2.75391E-05 7.32151E-07-6.77645E-19-1.06943E-18
 -1      1331 9.17297E-05-2.75249E-05-2.75137E-05 3.77391E-07-4.08182E-19-1.92339E-18
 -1      1332 9.20945E-05-2.76403E-05-2.76198E-05 3.70201E-07-4.47971E-19-2.56130E-18
 -1      1333 9.22221E-05-2.76813E-05-2.76604E-05 7.32252E-07-6.86283E-19-1.58107E-18
 -1      1334 9.23273E-05-2.77072E-05-2.76929E-05 3.43121E-07-2.67443E-19-2.82047E-18
 -1      1335 9.26545E-05-2.78093E-05-2.77884E-05 3.34545E-07 1.89255E-20-2.88052E-18
 -1      1336 9.26724E-05-2.78215E-05-2.77921E-05 6.85440E-07-5.35081E-19-1.49406E-18
 -1      1337 9.28721E-05-2.78717E-05-2.78566E-05 3.01710E-07 2.08213E-19-3.33621E-18
 -1      1338 9.31569E-05-2.79598E-05-2.79400E-05 2.92916E-07-9.35002E-20-3.38509E-18
 -1      1339 9.31082E-05-2.79539E-05-2.79215E-05 6.15071E-07-5.95475E-20-2.10669E-18
 -1      1340 9.33524E-05-2.80157E-05-2.80012E-05 2.59210E-07-1.36745E-19-3.29342E-18
 -1      1341 9.35953E-05-2.80901E-05-2.80726E-05 2.50954E-07 1.61912E-20-3.41724E-18
 -1      1342 9.35089E-05-2.80735E-05-2.80417E-05 5.36246E-07-1.64565E-19-2.89301E-18
 -1      1343 9.37667E-05-2.81391E-05-2.81261E-05 2.19492E-07 2.99515E-19-3.26487E-18
 -1      1344 9.39710E-05-2.82012E-05-2.81864E-05 2.12244E-07 1.46483E-19-2.78612E-18
 -1      1345 9.38654E-05-2.81784E-05-2.81495E-05 4.58713E-07 1.44131E-19-2.71856E-18
 -1      1346 9.41193E-05-2.82435E-05-2.82326E-05 1.84935E-07 2.11343E-19-2.44614E-18
 -1      1347 9.42907E-05-2.82952E-05-2.82833E-05 1.78962E-07-9.46080E-20-2.30534E-18
 -1      1348 9.41764E-05-2.82689E-05-2.82443E-05 3.88614E-07 3.79413E-19-2.35044E-18
 -1      1349 9.44188E-05-2.83317E-05-2.83233E-05 1.56865E-07-4.81724E-19-1.94584E-18
 -1      1350 9.45637E-05-2.83751E-05-2.83663E-05 1.52294E-07-4.18518E-19-2.32283E-18
 -1      1351 9.44457E-05-2.83464E-05-2.83268E-05 3.29591E-07-9.37851E-20-2.25881E-18
 -1      1352 9.46756E-05-2.84069E-05-2.84011E-05 1.35830E-07-3.49618E-19-2.71263E-18
 -1      1353 9.48009E-05-2.84444E-05-2.84384E-05 1.32675E-07-4.42415E-19-3.28862E-18
 -1      1354 9.46796E-05-2.84132E-05-2.83988E-05 2.83482E-07-6.64022E-19-2.31720E-18
 -1      1355 9.49009E-05-2.84728E-05-2.84695E-05 1.21721E-07-3.33896E-19-3.16823E-18
 -1      1356 9.50134E-05-2.85064E-05-2.85030E-05 1.19890E-07-3.08285E-19-3.69012E-18
 -1      1357 9.48863E-05-2.84720E-05-2.84626E-05 2.50692E-07-6.87348E-19-2.47781E-18
 -1      1358 9.51055E-05-2.85327E-05-2.85316E-05 1.13745E-07 5.14007E-20-3.95958E-18
 -1      1359 9.52109E-05-2.85644E-05-2.85630E-05 1.13016E-07-1.65780E-19-4.26409E-18
 -1      1360 9.50741E-05-2.85254E-05-2.85204E-05 2.30277E-07-3.92221E-19-2.54934E-18
 -1      1361 9.52984E-05-2.85896E-05-2.85900E-05 1.10260E-07-3.46196E-19-4.71023E-18
 -1      1362 9.54009E-05-2.86207E-05-2.86204E-05 1.10230E-07-3.71110E-19-4.91925E-18
 -1      1363 9.52500E-05-2.85762E-05-2.85744E-05 2.19737E-07-6.11817E-19-2.56895E-18
 -1      1364 9.54853E-05-2.86454E-05-2.86463E-05 1.08444E-07 1.51118E-19-5.13909E-18
 -1      1365 9.55861E-05-2.86766E-05-2.86761E-05 1.08445E-07 1.63930E-19-4.72024E-18
 -1      1366 9.54189E-05-2.86261E-05-2.86255E-05 2.14516E-07-2.91957E-19-3.11756E-18
 -1      1367 9.56662E-05-2.87007E-05-2.87003E-05 1.03842E-07 3.13060E-19-4.67739E-18
 -1      1368 9.57620E-05-2.87313E-05-2.87284E-05 1.02832E-07 3.91036E-19-3.79092E-18
 -1      1369 9.55815E-05-2.86763E-05-2.86735E-05 2.07233E-07 4.30675E-19-3.61750E-18
 -1      1370 9.58325E-05-2.87536E-05-2.87491E-05 8.98340E-08 3.59477E-19-4.13891E-18
 -1      1371 9.59137E-05-2.87809E-05-2.87725E-05 8.62813E-08 2.08027E-19-3.80949E-18
 -1      1372 9.57317E-05-2.87259E-05-2.87161E-05 1.86724E-07 4.00752E-19-3.26062E-18
 -1      1373 9.59635E-05-2.87985E-05-2.87861E-05 5.71858E-08 5.99503E-20-3.64791E-18
 -1      1374 9.60110E-05-2.88170E-05-2.87990E-05 4.89801E-08-1.02858E-19-3.81000E-18
 -1      1375 9.58544E-05-2.87716E-05-2.87480E-05 1.37132E-07 6.76427E-20-3.00573E-18
 -1      1376 9.60219E-05-2.88251E-05-2.87996E-05-6.03643E-09 1.93238E-19-3.35329E-18
 -1      1377 9.60049E-05-2.88256E-05-2.87930E-05-2.15641E-08 3.51101E-19-3.05503E-18
 -1      1378 9.59213E-05-2.88062E-05-2.87601E-05 3.74690E-08 1.81938E-19-2.18986E-18
 -1      1379 9.59497E-05-2.88165E-05-2.87719E-05-1.13723E-07 8.01968E-20-3.06854E-18
 -1      1380 9.58244E-05-2.87854E-05-2.87329E-05-1.39558E-07-1.14358E-19-2.63736E-18
 -1      1381 9.58888E-05-2.88176E-05-2.87387E-05-1.37566E-07 2.31635E-19-1.97125E-18
 -1      1382 9.56671E-05-2.87486E-05-2.86790E-05-2.79523E-07-1.56413E-19-3.15875E-18
 -1      1383 9.53767E-05-2.86676E-05-2.85911E-05-3.18348E-07-1.33389E-19-3.48366E-18
 -1      1384 9.56953E-05-2.87870E-05-2.86654E-05-4.14467E-07-2.61659E-19-2.29574E-18
 -1      1385 9.50745E-05-2.85899E-05-2.84915E-05-5.12546E-07-3.85201E-19-3.70374E-18
 -1      1386 9.45546E-05-2.84377E-05-2.83365E-05-5.65611E-07-6.25640E-19-4.24388E-18
 -1      1387 9.52635E-05-2.86890E-05-2.85182E-05-8.14270E-07-5.76297E-19-3.21749E-18
 -1      1388 9.40638E-05-2.83046E-05-2.81786E-05-8.10728E-07-2.06256E-19-3.78416E-18
 -1      1389 9.32543E-05-2.80599E-05-2.79399E-05-8.76204E-07 2.64304E-19-4.05089E-18
 -1      1390 9.45070E-05-2.84919E-05-2.82743E-05-1.34158E-06-1.10640E-19-2.88380E-18
 -1      1391 9.25407E-05-2.78583E-05-2.77149E-05-1.15268E-06 6.82313E-19-3.62146E-18
 -1      1392 9.14048E-05-2.75061E-05-2.73832E-05-1.22383E-06 6.38957E-19-2.55762E-18
 -1      1393 9.33460E-05-2.81625E-05-2.79150E-05-1.97004E-06 8.11740E-19-1.49075E-18
 -1      1394 9.04594E-05-2.72297E-05-2.70908E-05-1.49083E-06 1.61763E-20-1.89225E-18
 -1      1395 8.90091E-05-2.67703E-05-2.66710E-05-1.55485E-06-5.55932E-20-1.85842E-18
 -1      1396 9.17334E-05-2.76741E-05-2.74331E-05-2.62805E-06 7.18516E-19-1.58379E-18
 -1      1397 8.78658E-05-2.64252E-05-2.63239E-05-1.75085E-06-2.86166E-19-1.71256E-18
 -1      1398 8.61858E-05-2.58830E-05-2.58417E-05-1.78977E-06-5.72558E-19-1.96026E-18
 -1      1399 8.96880E-05-2.70202E-05-2.68413E-05-3.19269E-06-4.11436E-19-4.66639E-19
 -1      1400 8.49344E-05-2.54945E-05-2.54685E-05-1.84336E-06-4.07723E-19-1.97142E-18
 -1      1401 8.31934E-05-2.49237E-05-2.49725E-05-1.83818E-06-4.53306E-19-2.57227E-18
 -1      1402 8.73270E-05-2.62302E-05-2.61784E-05-3.50248E-06-7.25974E-19-7.96413E-19
 -1      1403 8.19805E-05-2.45379E-05-2.46165E-05-1.69039E-06-3.26458E-19-2.61757E-18
 -1      1404 8.04156E-05-2.40182E-05-2.41734E-05-1.62842E-06 1.34698E-20-2.84808E-18
 -1      1405 8.48834E-05-2.53813E-05-2.55104E-05-3.39707E-06-4.44265E-19-1.15403E-18
 -1      1406 7.94229E-05-2.36966E-05-2.38858E-05-1.26055E-06 2.06051E-19-2.91329E-18
 -1      1407 7.82920E-05-2.33178E-05-2.35669E-05-1.14314E-06 2.50867E-19-3.08043E-18
 -1      1408 8.26859E-05-2.45957E-05-2.49230E-05-2.77885E-06-6.41297E-20-2.01455E-18
 -1      1409 7.76934E-05-2.31218E-05-2.33949E-05-5.96687E-07-3.06434E-19-3.26861E-18
 -1      1410 7.72051E-05-2.29578E-05-2.32574E-05-4.42654E-07-2.85675E-19-3.62787E-18
 -1      1411 8.10952E-05-2.40161E-05-2.45043E-05-1.67296E-06-3.02331E-19-2.46610E-18
 -1      1412 7.71141E-05-2.29285E-05-2.32309E-05 1.83535E-07-3.63959E-20-4.18295E-18
 -1      1413 7.73614E-05-2.30127E-05-2.33000E-05 3.42275E-07 3.03529E-19-3.75355E-18
 -1      1414 8.04049E-05-2.37634E-05-2.43234E-05-2.49993E-07-5.55733E-19-2.53344E-18
 -1      1415 7.77925E-05-2.31555E-05-2.34230E-05 9.21597E-07 3.76549E-19-4.11470E-18
 -1      1416 7.87206E-05-2.34683E-05-2.36838E-05 1.05132E-06 3.39574E-19-3.64625E-18
 -1      1417 8.07466E-05-2.38928E-05-2.44104E-05 1.21340E-06 1.71524E-20-3.45448E-18
 -1      1418 7.95840E-05-2.37505E-05-2.39325E-05 1.47322E-06 8.54759E-20-3.28636E-18
 -1      1419 8.10092E-05-2.42265E-05-2.43349E-05 1.55065E-06-2.69082E-19-3.35389E-18
 -1      1420 8.20429E-05-2.43720E-05-2.47476E-05 2.42592E-06-4.21068E-20-3.04148E-18
 -1      1421 8.21416E-05-2.45900E-05-2.46652E-05 1.75629E-06-8.98478E-19-3.35249E-18
 -1      1422 8.38107E-05-2.51406E-05-2.51394E-05 1.77532E-06-1.14959E-18-5.47985E-18
 -1      1423 8.40349E-05-2.50937E-05-2.52745E-05 3.18083E-06-8.10491E-19-3.58747E-18
 -1      1424 8.50266E-05-2.55218E-05-2.54998E-05 1.76830E-06-4.27687E-19-4.87470E-18
 -1      1425 8.66895E-05-2.60620E-05-2.59757E-05 1.73856E-06-5.85768E-20-5.40547E-18
 -1      1426 8.63680E-05-2.59159E-05-2.59055E-05 3.41299E-06-9.39160E-19-3.06227E-18
 -1      1427 8.78291E-05-2.64093E-05-2.63197E-05 1.57036E-06 6.26904E-20-5.97441E-18
 -1      1428 8.92953E-05-2.68767E-05-2.67429E-05 1.51018E-06-3.93175E-20-6.01464E-18
 -1      1429 8.86948E-05-2.67064E-05-2.65520E-05 3.19261E-06-5.30425E-19-3.29220E-18
 -1      1430 9.02529E-05-2.71591E-05-2.70376E-05 1.25295E-06 4.18031E-19-5.69609E-18
 -1      1431 9.14164E-05-2.75218E-05-2.73766E-05 1.18162E-06 2.22677E-20-5.81159E-18
 -1      1432 9.07524E-05-2.73745E-05-2.71415E-05 2.67227E-06 6.33217E-19-3.95104E-18
 -1      1433 9.21461E-05-2.77290E-05-2.76061E-05 9.03368E-07-5.50222E-19-3.87561E-18
 -1      1434 9.29813E-05-2.79822E-05-2.78520E-05 8.35939E-07 4.66507E-19-4.27156E-18
 -1      1435 9.23949E-05-2.78786E-05-2.76286E-05 2.02267E-06 1.20203E-18-2.41188E-18
 -1      1436 9.34861E-05-2.81189E-05-2.80147E-05 5.86150E-07 1.54070E-18-4.52854E-18
 -1      1437 9.40260E-05-2.82765E-05-2.81759E-05 5.31646E-07 1.50386E-18-2.63195E-18
 -1      1438 9.35852E-05-2.82184E-05-2.79959E-05 1.38537E-06 1.40593E-18-1.27002E-18
 -1      1439 9.43409E-05-2.83563E-05-2.82805E-05 3.37639E-07 1.21710E-18-2.13826E-18
 -1      1440 9.46517E-05-2.84419E-05-2.83750E-05 2.99642E-07 8.05326E-19-8.08195E-19
 -1      1441 9.43659E-05-2.84198E-05-2.82487E-05 8.51902E-07 2.15937E-18-1.04438E-18
 -1      1442 9.48261E-05-2.84814E-05-2.84357E-05 1.69885E-07-8.08974E-20-3.64833E-19
 -1      1443 9.49838E-05-2.85211E-05-2.84847E-05 1.48170E-07-1.39446E-20-9.51584E-20
 -1      1444 9.48236E-05-2.85196E-05-2.84071E-05 4.64017E-07 1.03262E-18-6.45648E-20
 -1      1445 9.50689E-05-2.85374E-05-2.85159E-05 7.55175E-08 2.36848E-19-2.32973E-19
 -1      1446 9.51407E-05-2.85540E-05-2.85382E-05 6.60851E-08 7.66685E-19 2.55421E-19
 -1      1447 9.50598E-05-2.85576E-05-2.84962E-05 2.23378E-07 5.27522E-19 7.83950E-19
 -1      1448 9.51791E-05-2.85612E-05-2.85521E-05 3.13006E-08 1.70937E-18 1.13613E-18
 -1      1449 9.52097E-05-2.85684E-05-2.85608E-05 2.83591E-08 1.05055E-18 2.67319E-18
 -1      1450 9.51681E-05-2.85696E-05-2.85404E-05 9.82361E-08 2.23237E-18 1.72464E-18
 -1      1451 9.52337E-05-2.85748E-05-2.85676E-05 3.34418E-09-2.32084E-18 1.89740E-18
 -1      1452 9.52253E-05-2.85812E-05-2.85607E-05 3.15996E-08-1.46713E-18 1.07143E-18
 -1      1453 9.86168E-05-2.78386E-05-3.09572E-05 5.26081E-06 1.19273E-18 9.11100E-18
 -1      1454 1.05742E-04-3.01649E-05-3.38076E-05 8.43733E-06 1.24662E-18 1.04393E-17
 -1      1455 9.34843E-05-2.76036E-05-2.82998E-05 2.14635E-06 9.66518E-19 7.02894E-18
 -1      1456 9.58260E-05-2.79032E-05-2.93940E-05 2.60088E-06 9.97831E-19 8.41470E-18
 -1      1457 9.97389E-05-2.79367E-05-3.11359E-05 8.27462E-06 2.06401E-18 5.20166E-18
 -1      1458 9.09586E-05-2.71245E-05-2.73129E-05 7.74303E-07 7.15266E-19 5.49335E-18
 -1      1459 9.17223E-05-2.72264E-05-2.76370E-05 8.90037E-07 7.75816E-19 6.45561E-18
 -1      1460 9.49051E-05-2.77933E-05-2.88934E-05 3.28956E-06 1.64716E-18 4.18328E-18
 -1      1461 9.00800E-05-2.69573E-05-2.70130E-05 1.38165E-07 4.42664E-19 4.37428E-18
 -1      1462 9.01747E-05-2.69351E-05-2.70565E-05 1.98440E-07 5.23142E-19 5.03545E-18
 -1      1463 9.26119E-05-2.75142E-05-2.79315E-05 1.12689E-06 1.16638E-18 3.19313E-18
 -1      1464 9.00069E-05-2.69731E-05-2.69912E-05-1.72350E-07 4.11784E-19 3.38723E-18
 -1      1465 8.98024E-05-2.68853E-05-2.69328E-05-1.42409E-07 4.65074E-19 4.07363E-18
 -1      1466 9.16063E-05-2.73645E-05-2.75453E-05 1.05965E-07 8.69741E-19 2.41442E-18
 -1      1467 9.03401E-05-2.70926E-05-2.70929E-05-3.21687E-07 2.84116E-19 2.80803E-18
 -1      1468 9.00015E-05-2.69738E-05-2.69949E-05-3.09169E-07 3.23848E-19 3.21730E-18
 -1      1469 9.13272E-05-2.73471E-05-2.74282E-05-4.00403E-07 7.03087E-19 2.15725E-18
 -1      1470 9.08658E-05-2.72617E-05-2.72508E-05-3.81893E-07 9.20106E-20 2.72720E-18
 -1      1471 9.04780E-05-2.71333E-05-2.71389E-05-3.79711E-07 1.96997E-19 2.86144E-18
 -1      1472 9.14471E-05-2.74180E-05-2.74460E-05-6.39722E-07 3.63554E-19 1.88248E-18
 -1      1473 9.14618E-05-2.74469E-05-2.74298E-05-3.90733E-07 3.01087E-19 2.30739E-18
 -1      1474 9.10732E-05-2.73222E-05-2.73171E-05-3.94840E-07 2.49909E-19 2.62924E-18
 -1      1475 9.17748E-05-2.75357E-05-2.75331E-05-7.29058E-07 3.19449E-19 1.81858E-18
 -1      1476 9.20307E-05-2.76207E-05-2.76007E-05-3.72066E-07 1.18282E-19 2.11310E-18
 -1      1477 9.16820E-05-2.75109E-05-2.74994E-05-3.78956E-07 1.72495E-19 2.21620E-18
 -1      1478 9.21866E-05-2.76706E-05-2.76497E-05-7.32446E-07 2.94292E-19 1.60040E-18
 -1      1479 9.25945E-05-2.77914E-05-2.77703E-05-3.36920E-07 1.83039E-19 1.76925E-18
 -1      1480 9.22647E-05-2.76884E-05-2.76740E-05-3.45543E-07 1.54444E-19 1.99553E-18
 -1      1481 9.26237E-05-2.78067E-05-2.77776E-05-6.88998E-07 2.47667E-19 1.04383E-18
 -1      1482 9.30997E-05-2.79429E-05-2.79227E-05-2.94924E-07 5.14064E-20 1.71514E-18
 -1      1483 9.28128E-05-2.78541E-05-2.78386E-05-3.03902E-07 1.70177E-19 1.72380E-18
 -1      1484 9.30605E-05-2.79399E-05-2.79071E-05-6.19156E-07 3.21957E-19 9.58158E-19
 -1      1485 9.35400E-05-2.80739E-05-2.80557E-05-2.51988E-07 8.75680E-20 1.41722E-18
 -1      1486 9.32961E-05-2.79991E-05-2.79841E-05-2.60512E-07 3.14449E-20 1.57217E-18
 -1      1487 9.34628E-05-2.80602E-05-2.80276E-05-5.39334E-07 1.92160E-19 5.94422E-19
 -1      1488 9.39161E-05-2.81851E-05-2.81696E-05-2.11940E-07 4.29984E-19 6.66440E-19
 -1      1489 9.37121E-05-2.81231E-05-2.81094E-05-2.19518E-07 3.38416E-19 1.28043E-18
 -1      1490 9.38208E-05-2.81658E-05-2.81358E-05-4.59814E-07 3.82358E-19 4.74410E-19
 -1      1491 9.42342E-05-2.82786E-05-2.82661E-05-1.77289E-07 2.19141E-19-3.55555E-20
 -1      1492 9.40647E-05-2.82276E-05-2.82159E-05-1.83595E-07 4.10978E-19 3.61222E-19
 -1      1493 9.41330E-05-2.82567E-05-2.82308E-05-3.87337E-07 7.42633E-19 4.95988E-19
 -1      1494 9.45047E-05-2.83576E-05-2.83482E-05-1.49778E-07-2.26313E-19-2.12118E-19
 -1      1495 9.43628E-05-2.83152E-05-2.83061E-05-1.54580E-07 2.19555E-19-3.74130E-20
 -1      1496 9.44031E-05-2.83343E-05-2.83137E-05-3.26419E-07 2.94951E-19-4.55466E-20
 -1      1497 9.47408E-05-2.84259E-05-2.84201E-05-1.30862E-07-1.30421E-19 4.42209E-19
 -1      1498 9.46182E-05-2.83898E-05-2.83835E-05-1.33940E-07-4.47048E-19 1.26180E-20
 -1      1499 9.46392E-05-2.84012E-05-2.83867E-05-2.80413E-07-4.59027E-19 2.10589E-19
 -1      1500 9.49586E-05-2.84883E-05-2.84865E-05-1.22151E-07-3.33221E-19 9.25921E-19
 -1      1501 9.48458E-05-2.84556E-05-2.84527E-05-1.23224E-07-2.19435E-19 3.84755E-19
 -1      1502 9.48525E-05-2.84607E-05-2.84531E-05-2.52427E-07-3.70176E-19 4.64019E-19
 -1      1503 9.51781E-05-2.85506E-05-2.85536E-05-1.25965E-07 5.44290E-19 1.97072E-19
 -1      1504 9.50634E-05-2.85178E-05-2.85191E-05-1.24539E-07 2.05859E-19 7.43233E-19
 -1      1505 9.50573E-05-2.85167E-05-2.85176E-05-2.46285E-07 9.54352E-20-2.25688E-19
 -1      1506 9.54117E-05-2.86163E-05-2.86250E-05-1.44412E-07-3.22708E-20 1.71403E-19
 -1      1507 9.52874E-05-2.85810E-05-2.85877E-05-1.40381E-07 2.29776E-19 9.86785E-20
 -1      1508 9.52661E-05-2.85725E-05-2.85839E-05-2.66616E-07 6.31979E-19-2.25958E-19
 -1      1509 9.57165E-05-2.87012E-05-2.87185E-05-1.85028E-07-2.13320E-19 2.96637E-19
 -1      1510 9.55500E-05-2.86544E-05-2.86685E-05-1.76233E-07 1.88284E-19 6.56425E-19
 -1      1511 9.55064E-05-2.86355E-05-2.86610E-05-3.21358E-07-9.53987E-21-1.22712E-19
 -1      1512 9.61298E-05-2.88157E-05-2.88455E-05-2.56824E-07 2.24300E-19 8.57961E-19
 -1      1513 9.58980E-05-2.87507E-05-2.87759E-05-2.41687E-07-1.80952E-19 6.30735E-19
 -1      1514 9.58160E-05-2.87150E-05-2.87613E-05-4.27016E-07-1.13415E-19 4.85190E-19
 -1      1515 9.67226E-05-2.89791E-05-2.90282E-05-3.75131E-07 7.17513E-20 4.76017E-19
 -1      1516 9.63819E-05-2.88835E-05-2.89259E-05-3.50307E-07 5.69740E-19 6.62787E-19
 -1      1517 9.62337E-05-2.88199E-05-2.88974E-05-6.05780E-07 4.31500E-19 2.79802E-19
 -1      1518 9.76025E-05-2.92207E-05-2.93002E-05-5.64672E-07 3.72283E-19 9.17079E-20
 -1      1519 9.70852E-05-2.90753E-05-2.91448E-05-5.24759E-07-2.79455E-20 3.11581E-19
 -1      1520 9.68224E-05-2.89648E-05-2.90908E-05-8.94497E-07 4.94886E-19 1.30621E-19
 -1      1521 9.89342E-05-2.95849E-05-2.97133E-05-8.64731E-07-1.03383E-19 2.85415E-19
 -1      1522 9.81344E-05-2.93596E-05-2.94728E-05-8.00997E-07 1.94323E-19 2.14843E-19
 -1      1523 9.76741E-05-2.91704E-05-2.93725E-05-1.35162E-06 2.79561E-19-9.48776E-20
 -1      1524 1.00970E-04-3.01402E-05-3.03476E-05-1.33651E-06 1.70829E-20-6.91854E-20
 -1      1525 9.97216E-05-2.97873E-05-2.99716E-05-1.23504E-06 8.92032E-20-2.86370E-20
 -1      1526 9.89229E-05-2.94657E-05-2.97883E-05-2.06813E-06-1.75826E-19-5.54029E-20
 -1      1527 1.04091E-04-3.09913E-05-3.13250E-05-2.07192E-06-2.19891E-19 3.07493E-19
 -1      1528 1.02137E-04-3.04353E-05-3.07353E-05-1.91118E-06-5.58115E-20-6.75376E-20
 -1      1529 1.00762E-04-2.98931E-05-3.04048E-05-3.18133E-06-3.21740E-20-9.92054E-20
 -1      1530 1.08853E-04-3.22950E-05-3.28210E-05-3.19794E-06-8.61393E-20 1.89603E-19
 -1      1531 1.05810E-04-3.14196E-05-3.19031E-05-2.94735E-06-3.57474E-19-2.52125E-20
 -1      1532 1.03465E-04-3.05142E-05-3.13144E-05-4.88600E-06-7.55183E-20 2.39882E-21
 -1      1533 1.15983E-04-3.42682E-05-3.50604E-05-4.86269E-06 4.92325E-19-4.18223E-19
 -1      1534 1.11347E-04-3.29202E-05-3.36668E-05-4.48201E-06 6.93144E-19 4.81591E-19
 -1      1535 1.07393E-04-3.14225E-05-3.26344E-05-7.42449E-06 4.03823E-19-2.79885E-19
 -1      1536 1.25746E-04-3.70747E-05-3.80729E-05-7.00891E-06-4.48650E-19-6.83397E-19
 -1      1537 1.19295E-04-3.51152E-05-3.61817E-05-6.53300E-06-3.24877E-19-8.29192E-19
 -1      1538 1.12831E-04-3.27492E-05-3.44243E-05-1.08857E-05 2.88878E-19-2.34297E-19
 -1      1539 1.39556E-04-4.13260E-05-4.21468E-05-9.58067E-06-9.71044E-20-4.63751E-19
 -1      1540 1.30395E-04-3.83357E-05-3.95927E-05-8.98730E-06-1.82913E-19-4.27328E-19
 -1      1541 1.20286E-04-3.47937E-05-3.67638E-05-1.51925E-05-4.12770E-19-4.33112E-19
 -1      1542 1.55891E-04-4.70353E-05-4.64823E-05-1.11470E-05-1.59721E-18 1.76119E-18
 -1      1543 1.45365E-04-4.31698E-05-4.38496E-05-1.08867E-05-8.62829E-19 1.56066E-19
 -1      1544 1.30368E-04-3.83023E-05-3.95292E-05-1.92823E-05-9.77857E-19-2.52998E-19
 -1      1545 1.70083E-04-5.33925E-05-4.93991E-05-8.20690E-06-1.11110E-18 3.59468E-18
 -1      1546 1.62439E-04-4.98090E-05-4.79302E-05-9.46230E-06-1.17981E-18 1.68570E-18
 -1      1547 1.42855E-04-4.42472E-05-4.21251E-05-1.94247E-05-1.80185E-18 4.38340E-20
 -1      1548 1.72943E-04-5.63956E-05-4.92305E-05 2.12854E-06 4.08958E-19 3.29623E-18
 -1      1549 1.75568E-04-5.64852E-05-5.01170E-05-1.08024E-06-2.20811E-19 3.72403E-18
 -1      1550 1.56197E-04-5.27252E-05-4.39444E-05-1.00794E-05-7.57406E-19 1.37592E-18
 -1      1551 1.58869E-04-5.09754E-05-4.69015E-05 1.84440E-05 1.15175E-18 2.84010E-18
 -1      1552 1.76390E-04-5.81460E-05-4.98572E-05 1.42281E-05 9.54507E-19 4.04395E-18
 -1      1553 1.67497E-04-5.96242E-05-4.58490E-05 1.17161E-05 4.49086E-19 2.03260E-18
 -1      1554 1.36328E-04-3.67492E-05-4.56838E-05 2.27259E-05 1.10728E-18 7.08331E-19
 -1      1555 1.57948E-04-4.75090E-05-4.83242E-05 2.43007E-05 1.66273E-18 2.55296E-18
 -1      1556 1.72361E-04-5.66542E-05-5.00428E-05 3.37449E-05 2.18640E-18 3.01374E-18
 -1      1557 1.27062E-04-2.80552E-05-4.65543E-05 6.51716E-06 1.29215E-18-7.16855E-19
 -1      1558 1.34509E-04-3.22320E-05-4.71291E-05 1.28733E-05 4.08693E-19-4.95726E-19
 -1      1559 1.70670E-04-4.22603E-05-5.58966E-05 3.07087E-05 2.23108E-18 1.11766E-18
 -1      1560 1.44486E-04-3.86621E-05-4.77267E-05-1.97151E-05 9.84252E-19-2.88245E-18
 -1      1561 1.26601E-04-2.89122E-05-4.60819E-05-1.45152E-05 1.77623E-18-1.08706E-18
 -1      1562 1.68480E-04-3.34654E-05-5.83580E-05-4.39556E-06 2.35475E-18-1.72697E-18
 -1      1563 1.78571E-04-5.80872E-05-5.04484E-05-6.10846E-06-2.12235E-19 6.19181E-19
 -1      1564 1.68678E-04-5.47185E-05-4.84530E-05-1.00320E-05-2.73406E-19-3.78200E-19
 -1      1565 1.70232E-04-5.29754E-05-4.95428E-05 6.30119E-06 4.12664E-19-4.02658E-19
 -1      1566 1.74055E-04-5.53028E-05-4.99790E-05 4.17666E-06 1.12338E-19 4.32410E-19
 -1      1567 1.63570E-04-5.61098E-05-4.55472E-05-6.35932E-08 7.73606E-19-1.94039E-18
 -1      1568 1.54160E-04-4.62931E-05-4.61269E-05 1.02418E-05 2.69449E-19-7.49518E-19
 -1      1569 1.63840E-04-5.01561E-05-4.83360E-05 1.00089E-05 6.34004E-19 7.27390E-20
 -1      1570 1.50942E-04-4.80990E-05-4.37890E-05 1.57137E-05 7.18655E-19-2.53914E-18
 -1      1571 1.37241E-04-4.05162E-05-4.16020E-05 9.48366E-06 6.34778E-20-8.18234E-19
 -1      1572 1.47541E-04-4.40516E-05-4.43466E-05 9.92482E-06-9.95859E-20-1.09130E-18
 -1      1573 1.37515E-04-4.12017E-05-4.12709E-05 1.91237E-05 6.35036E-19-2.42236E-18
 -1      1574 1.23587E-04-3.64121E-05-3.75169E-05 7.21550E-06-1.23627E-18 2.25575E-19
 -1      1575 1.31687E-04-3.89587E-05-3.98453E-05 7.73777E-06-6.54624E-19-5.69100E-19
 -1      1576 1.25515E-04-3.66335E-05-3.82070E-05 1.64099E-05-7.10608E-19-2.91337E-18
 -1      1577 1.13596E-04-3.35844E-05-3.43902E-05 5.04962E-06-3.72648E-19 2.34504E-18
 -1      1578 1.19313E-04-3.52901E-05-3.60914E-05 5.46085E-06-9.60099E-19 1.57029E-18
 -1      1579 1.16052E-04-3.37887E-05-3.53753E-05 1.21766E-05-2.35312E-18-9.40220E-19
 -1      1580 1.06635E-04-3.16598E-05-3.21831E-05 3.41361E-06-1.16705E-19 2.74918E-18
 -1      1581 1.10488E-04-3.27787E-05-3.33432E-05 3.69770E-06 1.15203E-19 2.25427E-18
 -1      1582 1.09025E-04-3.19365E-05-3.31257E-05 8.46547E-06-1.05456E-19 1.53878E-18
 -1      1583 1.01891E-04-3.03511E-05-3.06837E-05 2.27961E-06 3.41976E-19 3.77520E-18
 -1      1584 1.04443E-04-3.10851E-05-3.14514E-05 2.46796E-06-6.23052E-19 3.51479E-18
 -1      1585 1.03992E-04-3.06756E-05-3.14797E-05 5.72595E-06-1.00552E-18 2.82011E-18
 -1      1586 9.87138E-05-2.94638E-05-2.96914E-05 1.50106E-06-7.91963E-19 4.24294E-18
 -1      1587 1.00378E-04-2.99451E-05-3.01874E-05 1.62918E-06 9.71474E-20 3.94034E-18
 -1      1588 1.00468E-04-2.97918E-05-3.03291E-05 3.82043E-06-2.89189E-19 3.34427E-18
 -1      1589 9.66819E-05-2.88779E-05-2.90692E-05 9.17736E-07-8.50692E-19 5.25534E-18
 -1      1590 9.76974E-05-2.91772E-05-2.93685E-05 1.02213E-06-1.80569E-18 4.18061E-18
 -1      1591 9.80500E-05-2.91584E-05-2.95549E-05 2.47376E-06-1.74761E-18 3.21314E-18
 -1      1592 9.55974E-05-2.85577E-05-2.87224E-05 3.96819E-07-3.57102E-19 6.44539E-18
 -1      1593 9.60505E-05-2.86972E-05-2.88756E-05 5.01948E-07-2.13052E-19 5.69347E-18
 -1      1594 9.64541E-05-2.87019E-05-2.90615E-05 1.40462E-06-1.43415E-18 3.06771E-18
 -1      1595 9.52828E-05-2.85253E-05-2.85569E-05 8.94700E-08 3.14565E-18 2.67713E-18
 -1      1596 9.53326E-05-2.84797E-05-2.86518E-05 1.38128E-07 1.95946E-18 6.22131E-18
 -1      1597 9.56215E-05-2.84566E-05-2.88059E-05 6.24870E-07 1.85072E-18 2.00460E-18
 -1      1598 9.52919E-05-2.84812E-05-2.86532E-05 1.50456E-07 6.76327E-18 2.95791E-19
 -1      1599 9.49945E-05-2.75686E-05-2.89245E-05 5.87224E-07 6.83675E-18-2.02767E-18
 -1      1600 9.51773E-05-2.80504E-05-2.87740E-05 4.67395E-07 6.52326E-18-1.26802E-19
 -1      1601 9.52442E-05-2.79425E-05-2.88491E-05 7.17320E-07 3.22303E-18 3.00607E-19
 -1      1602 9.45096E-05-2.61516E-05-2.93006E-05 7.65120E-07 9.16298E-18 4.45174E-19
 -1      1603 9.47915E-05-2.69411E-05-2.90870E-05 7.14169E-07 7.32367E-18 5.04450E-19
 -1      1604 9.48183E-05-2.68761E-05-2.91267E-05 1.27800E-06 4.58211E-18 7.11243E-19
 -1      1605 9.40405E-05-2.47422E-05-2.96841E-05 6.63386E-07 5.32633E-18-2.54217E-18
 -1      1606 9.43026E-05-2.55321E-05-2.94700E-05 6.83991E-07 9.15455E-18-2.04070E-18
 -1      1607 9.43230E-05-2.56394E-05-2.94346E-05 1.36739E-06 4.00367E-18-1.29992E-18
 -1      1608 9.37195E-05-2.37558E-05-2.99597E-05 3.75048E-07-8.21059E-19-1.54356E-18
 -1      1609 9.38860E-05-2.43017E-05-2.98109E-05 4.47399E-07 2.84144E-18-2.47860E-18
 -1      1610 9.39478E-05-2.46058E-05-2.97012E-05 1.01672E-06 1.90617E-18-4.34818E-18
 -1      1611 9.36243E-05-2.34312E-05-3.00587E-05 2.11635E-08-7.92824E-18-3.15745E-18
 -1      1612 9.36595E-05-2.36055E-05-3.00108E-05 1.11240E-07-3.32825E-18-2.68398E-18
 -1      1613 9.37508E-05-2.40397E-05-2.98524E-05 4.08534E-07-2.42986E-18-5.43573E-18
 -1      1614 9.37445E-05-2.37628E-05-2.99759E-05-2.94843E-07-1.39512E-17-1.51655E-18
 -1      1615 9.36593E-05-2.35690E-05-3.00296E-05-2.12672E-07-1.00703E-17-1.01186E-18
 -1      1616 9.37665E-05-2.40433E-05-2.98591E-05-2.33962E-07-5.77711E-18-4.00346E-18
 -1      1617 9.40231E-05-2.45962E-05-2.97484E-05-4.96369E-07-1.26957E-17 9.75145E-19
 -1      1618 9.38548E-05-2.41279E-05-2.98794E-05-4.42561E-07-1.26116E-17-1.10255E-19
 -1      1619 9.39613E-05-2.45552E-05-2.97298E-05-7.40559E-07-6.64668E-18-1.71175E-19
 -1      1620 9.43741E-05-2.56775E-05-2.94446E-05-5.61280E-07-3.21325E-18 4.42111E-18
 -1      1621 9.41733E-05-2.50789E-05-2.96136E-05-5.42000E-07-1.08231E-17 3.63371E-18
 -1      1622 9.42640E-05-2.54015E-05-2.95057E-05-1.01093E-06-4.08708E-18 5.43834E-18
 -1      1623 9.47163E-05-2.67558E-05-2.91351E-05-5.08215E-07 7.08940E-19-1.70942E-18
 -1      1624 9.45285E-05-2.61671E-05-2.93028E-05-5.19200E-07-1.43075E-18 1.65702E-18
 -1      1625 9.45951E-05-2.63653E-05-2.92428E-05-1.03668E-06-2.39655E-18 3.62534E-18
 -1      1626 9.49907E-05-2.76433E-05-2.88744E-05-3.79857E-07 3.11359E-18 2.26102E-18
 -1      1627 9.48468E-05-2.71675E-05-2.90117E-05-4.10644E-07 2.48118E-18-4.41268E-19
 -1      1628 9.48883E-05-2.72545E-05-2.89931E-05-8.73043E-07 3.49649E-20 1.15664E-18
 -1      1629 9.51681E-05-2.82390E-05-2.86940E-05-2.28505E-07 5.46891E-18-1.92423E-18
 -1      1630 9.50810E-05-2.79275E-05-2.87856E-05-2.65794E-07 4.30654E-18 1.14658E-18
 -1      1631 9.51016E-05-2.79378E-05-2.87944E-05-6.09058E-07 1.93346E-18 6.81210E-19
 -1      1632 9.52556E-05-2.85591E-05-2.85909E-05-9.24579E-08 4.97729E-18-6.23010E-19
 -1      1633 9.52181E-05-2.84009E-05-2.86396E-05-1.26285E-07 6.20864E-18-1.12189E-18
 -1      1634 9.52255E-05-2.83743E-05-2.86599E-05-3.32191E-07 2.51276E-18-2.53436E-19
 -1      1635 9.52740E-05-2.86569E-05-2.85527E-05-2.47046E-09 1.95403E-19-2.38670E-18
 -1      1636 9.52717E-05-2.86175E-05-2.85673E-05-2.49498E-08 3.43796E-18-1.15237E-18
 -1      1637 9.52728E-05-2.85866E-05-2.85864E-05-1.09785E-07 1.98753E-18-2.88553E-18
 -1      1638 9.52543E-05-2.86298E-05-2.85521E-05 3.12362E-08-5.72087E-18-1.26129E-18
 -1      1639 9.52679E-05-2.86534E-05-2.85484E-05 2.53706E-08-1.42191E-18-2.12740E-18
 -1      1640 9.52688E-05-2.86377E-05-2.85592E-05 1.80231E-08-1.03405E-18-4.26355E-18
 -1      1641 2.14490E-05-7.84920E-05 1.81865E-05-1.53395E-05 4.70442E-18-3.93447E-19
 -1      1642 2.39743E-05-8.27641E-05 1.90053E-05-4.37098E-06 5.37442E-18 8.25645E-19
 -1      1643 1.95354E-05-5.69058E-05 1.01106E-05-1.18766E-05 2.66138E-18 1.21666E-18
 -1      1644 2.53527E-05-7.70442E-05 1.53399E-05-1.07109E-05 4.85435E-18-1.10802E-18
 -1      1645 3.42352E-05-2.94330E-05-6.61009E-06 1.14339E-05 5.03222E-18 5.40280E-18
 -1      1646 3.05922E-05-5.29800E-05 2.95131E-06-4.25620E-06 2.18365E-18 4.22225E-18
 -1      1647 7.53535E-05-1.48864E-05-2.78869E-05 4.48500E-05 5.26854E-18 5.35325E-18
 -1      1648 5.14012E-05-2.57842E-05-1.64513E-05 1.92197E-05 6.25957E-18 4.80606E-18
 -1      1649 1.54644E-04-2.86230E-05-5.14055E-05 7.17171E-05 3.19247E-18 2.67324E-18
 -1      1650 1.04844E-04-1.90003E-05-3.90929E-05 5.02133E-05 5.13641E-18 4.01155E-18
 -1      1651 2.49588E-04-6.07715E-05-7.28238E-05 6.67175E-05 1.10199E-18 5.62430E-18
 -1      1652 1.86733E-04-3.48860E-05-6.20569E-05 6.93380E-05 2.03034E-18 4.23855E-18
 -1      1653 3.08027E-04-8.19817E-05-8.50901E-05 1.96612E-05 1.59285E-18 3.34239E-18
 -1      1654 2.67081E-04-6.31251E-05-7.92041E-05 4.95860E-05 1.53366E-18 4.73322E-18
 -1      1655 3.14127E-04-8.20549E-05-8.72058E-05-2.71028E-05 1.98926E-18 1.21803E-18
 -1      1656 3.20334E-04-8.54423E-05-8.82374E-05 1.31758E-05 1.43064E-18 3.51032E-18
 -1      1657 2.41939E-04-5.37663E-05-7.40997E-05-6.04969E-05 3.67083E-18-3.25938E-18
 -1      1658 3.01741E-04-8.06308E-05-8.29414E-05-3.73701E-05 2.74185E-18 8.14846E-19
 -1      1659 1.49188E-04-2.97249E-05-5.13256E-05-5.60739E-05 4.55365E-18-5.22281E-18
 -1      1660 2.13340E-04-5.01138E-05-6.39819E-05-6.64561E-05 3.26150E-18-4.11827E-18
 -1      1661 7.38593E-05-2.09466E-05-2.69489E-05-3.27612E-05 6.31548E-18-6.28922E-18
 -1      1662 1.13557E-04-2.14280E-05-3.96206E-05-5.92451E-05 5.33123E-18-5.74797E-18
 -1      1663 3.51034E-05-3.87020E-05-5.06080E-06-3.06309E-06 8.26704E-18-6.05713E-18
 -1      1664 4.64492E-05-1.89702E-05-1.57147E-05-2.48779E-05 7.94856E-18-6.48404E-18
 -1      1665 2.69084E-05-6.75387E-05 1.05031E-05 9.58336E-06 6.43237E-18-3.26476E-18
 -1      1666 2.42288E-05-4.40197E-05 3.08728E-06 2.55545E-06 7.53859E-18-5.43181E-18
 -1      1667 2.57657E-05-8.72943E-05 1.91365E-05 9.82860E-06 4.81782E-18-8.78161E-19
 -1      1668 1.99229E-05-7.41007E-05 1.63410E-05 1.87911E-05 5.96565E-18-2.93582E-18
 -1      1669 2.25897E-05-7.62043E-05 1.72462E-05 1.65067E-06 7.39036E-19-1.92594E-18
 -1      1670 2.40759E-05-8.35858E-05 1.89848E-05 1.23742E-05 3.57649E-18-1.79910E-18
 -1      1671 2.00638E-05-5.09333E-05 8.72580E-06 2.84452E-06-1.91938E-18-2.25014E-18
 -1      1672 2.59358E-05-7.34691E-05 1.42529E-05 4.80657E-06 6.66615E-19-1.29585E-18
 -1      1673 3.10564E-05-1.82509E-05-7.59262E-06 2.66239E-05-5.20248E-18-5.85215E-18
 -1      1674 2.97634E-05-4.38527E-05 1.47743E-06 1.23072E-05-2.22939E-18-3.52620E-18
 -1      1675 5.85862E-05 3.85895E-06-2.64829E-05 5.65216E-05-7.40053E-18-7.08967E-18
 -1      1676 4.15059E-05-9.56156E-06-1.64754E-05 3.30915E-05-6.56874E-18-5.38628E-18
 -1      1677 1.17461E-04-2.25165E-06-4.66004E-05 8.44535E-05-6.14861E-18-7.32938E-18
 -1      1678 8.01048E-05 3.70621E-06-3.62731E-05 6.45057E-05-6.96600E-18-7.48862E-18
 -1      1679 1.87907E-04-2.80552E-05-6.37743E-05 8.65450E-05-3.67528E-18-6.26127E-18
 -1      1680 1.43140E-04-8.21808E-06-5.55274E-05 8.53999E-05-5.44092E-18-6.85927E-18
 -1      1681 2.45955E-04-5.54985E-05-7.57893E-05 5.40806E-05-1.87544E-18-5.56162E-18
 -1      1682 2.08999E-04-3.54360E-05-7.01252E-05 7.48322E-05-2.55963E-18-6.04612E-18
 -1      1683 2.72704E-04-6.83302E-05-8.12997E-05 3.92052E-06-4.37069E-19-4.81803E-18
 -1      1684 2.60270E-04-6.08247E-05-7.95923E-05 4.02101E-05-1.48887E-18-5.88900E-18
 -1      1685 2.50463E-04-5.57840E-05-7.82261E-05-4.70407E-05-6.15369E-19-2.33315E-18
 -1      1686 2.68833E-04-6.62058E-05-8.06547E-05-1.33191E-05-1.02258E-18-3.64902E-18
 -1      1687 1.93599E-04-2.92162E-05-6.69421E-05-7.46215E-05-2.26073E-18 7.72494E-19
 -1      1688 2.33929E-04-5.04080E-05-7.34956E-05-5.75558E-05-7.30010E-19-1.15366E-18
 -1      1689 1.21761E-04-1.67459E-06-4.99932E-05-8.12703E-05-4.37493E-18 3.91922E-18
 -1      1690 1.70408E-04-2.12645E-05-5.98036E-05-8.83886E-05-2.67112E-18 1.04947E-18
 -1      1691 6.19363E-05 1.59597E-06-2.86086E-05-5.21075E-05-2.56482E-18 3.53467E-18
 -1      1692 9.48459E-05 2.77661E-06-3.98470E-05-7.71232E-05-3.80741E-18 5.47692E-18
 -1      1693 3.51190E-05-2.56040E-05-7.91030E-06-2.11027E-05 2.26497E-18 2.40557E-18
 -1      1694 4.55110E-05-4.81303E-06-1.82711E-05-4.32907E-05-1.56362E-18 3.53128E-18
 -1      1695 2.57116E-05-6.01448E-05 8.86163E-06-3.16793E-06 3.95564E-18-1.50475E-18
 -1      1696 2.09755E-05-3.19256E-05 1.08667E-06-1.00374E-05 2.45894E-18-3.79047E-19
 -1      1697 2.57140E-05-8.24419E-05 1.79550E-05-8.53270E-06 6.49844E-18 5.77676E-19
 -1      1698 2.12128E-05-6.61259E-05 1.39864E-05-2.50263E-07 4.53840E-18-1.12444E-19
 -1      1699 1.06479E-04-2.32808E-05-3.57510E-05 1.71680E-05 1.46103E-18 8.52221E-18
 -1      1700 1.69965E-04-5.84516E-05-4.77576E-05-2.46458E-05-2.10308E-18-2.60998E-18
 -1      1701 1.68590E-04-5.40815E-05-4.90225E-05-2.00061E-05-1.62906E-18-1.52381E-18
 -1      1702 1.45814E-04-4.35217E-05-4.56974E-05-2.25963E-05-1.44017E-18-3.23397E-18
 -1      1703 1.69521E-04-4.80804E-05-5.29037E-05-3.43057E-05-4.12505E-19-1.19590E-18
 -1      1704 3.76801E-05-5.23479E-05 1.97033E-06 1.80157E-05 1.74828E-18 3.20136E-18
 -1      1705 1.10670E-05-5.22856E-05 1.33499E-05-1.10656E-05 2.96229E-18 1.00119E-18
 -1      1706 1.53055E-05-5.27231E-05 1.15249E-05 3.78303E-06 2.67133E-18-1.35610E-18
 -1      1707 9.52382E-05-2.85929E-05-2.85613E-05 2.69941E-08-3.32387E-18 5.24203E-19
 -1      1708 9.52484E-05-2.86199E-05-2.85539E-05 3.35654E-08-4.73410E-18 4.98538E-19
 -1      1709 9.52449E-05-2.86146E-05-2.85565E-05 5.46467E-08-9.57727E-19-1.77665E-19
 -1      1710 7.55222E-05-5.06602E-05-1.40728E-05 2.84230E-05 2.06253E-18 3.07854E-18
 -1      1711 1.28675E-04-5.13432E-05-3.41629E-05 3.43561E-05 3.47114E-18 5.81065E-19
 -1      1712 1.89831E-04-5.51343E-05-5.47827E-05 2.93736E-05 1.84653E-18 2.38016E-18
 -1      1713 2.34274E-04-5.32187E-05-7.08154E-05 9.87106E-06 4.38340E-19 3.26192E-18
 -1      1714 2.51086E-04-4.56148E-05-7.88866E-05-1.10231E-07 2.03627E-18 9.88911E-19
 -1      1715 2.53348E-04-4.88368E-05-7.83121E-05-7.86871E-07 4.00647E-18 1.19940E-18
 -1      1716 2.19702E-04-5.67118E-05-6.47417E-05-1.31545E-05 3.50015E-18 3.30343E-20
 -1      1717 1.65337E-04-5.94489E-05-4.51680E-05-2.64285E-05 2.74142E-18-1.99137E-18
 -1      1718 1.00508E-04-5.12598E-05-2.31976E-05-3.27048E-05 4.57398E-18-3.15943E-18
 -1      1719 5.22307E-05-5.12620E-05-4.56169E-06-2.25038E-05 4.73322E-18-3.96306E-18
 -1      1720 2.37492E-05-5.47088E-05 8.54318E-06-1.00357E-05 3.55584E-18-3.14863E-18
 -1      1721 1.07676E-05-5.49850E-05 1.40869E-05 6.18495E-06 1.85336E-18-2.03246E-18
 -1      1722 1.50753E-05-5.08432E-05 1.12328E-05 1.85544E-05 6.67885E-19-2.68764E-18
 -1      1723 3.40614E-05-4.43777E-05 1.45534E-06 3.32362E-05-8.02987E-19-4.10059E-18
 -1      1724 6.38076E-05-3.61395E-05-1.35610E-05 4.40435E-05-2.17179E-18-4.73978E-18
 -1      1725 1.01202E-04-2.71013E-05-3.14166E-05 5.35064E-05-3.69306E-18-4.44692E-18
 -1      1726 1.47296E-04-2.63310E-05-4.92893E-05 5.60135E-05-4.27413E-18-4.17418E-18
 -1      1727 1.88635E-04-3.01003E-05-6.38735E-05 4.42405E-05-3.23048E-18-4.90940E-18
 -1      1728 2.16711E-04-3.37948E-05-7.34212E-05 2.21768E-05-1.67035E-18-3.55203E-18
 -1      1729 2.24710E-04-3.38865E-05-7.64020E-05-1.69534E-06-1.70677E-18-3.63658E-18
 -1      1730 2.07638E-04-3.15276E-05-7.12545E-05-2.20879E-05-1.99413E-18-1.25149E-18
 -1      1731 1.78290E-04-2.92840E-05-6.03316E-05-4.47122E-05-1.90249E-18-1.12486E-18
 -1      1732 1.32120E-04-2.58433E-05-4.37295E-05-5.64801E-05-1.17780E-18 6.89485E-19
 -1      1733 8.62927E-05-3.14809E-05-2.40782E-05-4.95951E-05 8.79220E-19 2.43945E-18
 -1      1734 4.84477E-05-3.99922E-05-5.94654E-06-3.82859E-05 2.02864E-18 1.93208E-18
 -1      1735 2.23077E-05-4.94023E-05 7.62710E-06-2.35697E-05 3.50926E-18 2.93073E-19
 -1      1736 1.06080E-04-2.31762E-05-3.56136E-05-1.68619E-05-1.58269E-18 5.55315E-18
 -1      1737 8.91487E-05-1.05787E-05-3.37987E-05-1.33351E-05-1.89250E-18-2.39848E-18
 -1      1738 9.04954E-05-1.16335E-05-3.39403E-05-1.51486E-05-2.22115E-18-1.78912E-18
 -1      1739 9.25039E-05-1.38746E-05-3.38600E-05-1.60142E-05-2.24083E-18-9.47909E-19
 -1      1740 9.42234E-05-1.58217E-05-3.41050E-05-1.76755E-05-2.42429E-18 1.31925E-19
 -1      1741 9.34260E-05-1.63441E-05-3.30507E-05-1.37919E-05-2.36040E-18-1.23317E-18
 -1      1742 8.62052E-05-7.66410E-06-3.37319E-05-7.88262E-06-9.62170E-19-3.38232E-18
 -1      1743 8.66099E-05-7.96535E-06-3.37667E-05-9.26984E-06-1.21256E-18-3.25486E-18
 -1      1744 8.55884E-05-7.02889E-06-3.37277E-05-5.34068E-06-5.37639E-19-3.43874E-18
 -1      1745 8.58238E-05-7.20716E-06-3.37435E-05-6.64387E-06-7.40284E-19-3.45084E-18
 -1      1746 8.75887E-05-9.86008E-06-3.33449E-05-6.95080E-06-9.58326E-19-3.26499E-18
 -1      1747 8.52502E-05-6.66805E-06-3.37304E-05-2.91109E-06-8.05550E-20-3.35254E-18
 -1      1748 8.53726E-05-6.76340E-06-3.37367E-05-4.14932E-06-2.64359E-19-3.38748E-18
 -1      1749 8.69505E-05-9.14581E-06-3.33774E-05-4.55755E-06-4.20186E-19-3.28526E-18
 -1      1750 8.51158E-05-6.51677E-06-3.37336E-05-5.43037E-07 3.73764E-19-3.30138E-18
 -1      1751 8.51531E-05-6.54653E-06-3.37352E-05-1.75072E-06 1.90894E-19-3.34390E-18
 -1      1752 8.66143E-05-8.76317E-06-3.33971E-05-2.23913E-06 9.78801E-20-3.23152E-18
 -1      1753 8.51568E-05-6.54974E-06-3.37352E-05 1.81527E-06 7.65970E-19-3.22545E-18
 -1      1754 8.51172E-05-6.51872E-06-3.37335E-05 6.07240E-07 5.82269E-19-3.28757E-18
 -1      1755 8.65116E-05-8.64526E-06-3.34036E-05 4.08056E-08 5.07487E-19-3.18322E-18
 -1      1756 8.53824E-05-6.77302E-06-3.37366E-05 4.21551E-06 1.10445E-18-3.05570E-18
 -1      1757 8.52571E-05-6.67544E-06-3.37303E-05 2.97621E-06 9.33824E-19-3.15680E-18
 -1      1758 8.66219E-05-8.77215E-06-3.33967E-05 2.32136E-06 8.95959E-19-3.09096E-18
 -1      1759 8.58318E-05-7.21516E-06-3.37433E-05 6.66963E-06 1.54260E-18-2.72618E-18
 -1      1760 8.55976E-05-7.03828E-06-3.37278E-05 5.38713E-06 1.29810E-18-2.95163E-18
 -1      1761 8.69633E-05-9.16005E-06-3.33768E-05 4.62088E-06 1.31996E-18-2.88523E-18
 -1      1762 8.66325E-05-7.98481E-06-3.37665E-05 9.32163E-06 2.01571E-18-2.18433E-18
 -1      1763 8.62185E-05-7.67861E-06-3.37315E-05 7.90827E-06 1.73805E-18-2.47657E-18
 -1      1764 8.76057E-05-9.87841E-06-3.33444E-05 6.99282E-06 1.79294E-18-2.45737E-18
 -1      1765 8.80217E-05-9.29826E-06-3.38255E-05 1.21835E-05 2.41340E-18-1.47765E-18
 -1      1766 8.72939E-05-8.75524E-06-3.37519E-05 1.06049E-05 2.17306E-18-1.91734E-18
 -1      1767 8.87099E-05-1.10884E-05-3.32972E-05 9.46577E-06 2.23348E-18-1.86211E-18
 -1      1768 9.05487E-05-1.17074E-05-3.39430E-05 1.51898E-05 2.66911E-18-1.05191E-19
 -1      1769 8.91917E-05-1.06154E-05-3.37998E-05 1.34195E-05 2.46673E-18-9.57994E-19
 -1      1770 9.05543E-05-1.30842E-05-3.32199E-05 1.19250E-05 2.55180E-18-1.09344E-18
 -1      1771 9.43632E-05-1.59463E-05-3.40961E-05 1.77653E-05 2.55241E-18 2.33728E-18
 -1      1772 9.26177E-05-1.39930E-05-3.38586E-05 1.60924E-05 2.52921E-18 9.33669E-19
 -1      1773 9.36555E-05-1.65339E-05-3.30366E-05 1.38686E-05 2.76010E-18 4.85985E-19
 -1      1774 1.72435E-04-6.76608E-05-4.46204E-05-1.05515E-05-3.76083E-19-2.72607E-18
 -1      1775 1.73963E-04-6.38445E-05-4.73068E-05-2.13557E-05-1.88579E-18-2.03224E-18
 -1      1776 5.65655E-05-4.63343E-05-5.43452E-06 3.18862E-05 1.69830E-19 3.88555E-18
 -1      1777 3.85582E-05-4.48706E-05 1.02720E-06 2.34622E-05 1.06133E-18 1.62821E-18
 -1      1778 1.00178E-04-1.95664E-05-3.42262E-05-1.88798E-05-2.13643E-18 2.10308E-18
 -1      1779 1.00315E-04-1.95359E-05-3.43038E-05 1.91286E-05 2.06388E-18 4.46048E-18
 -1      1780 9.69794E-05-2.69843E-05-2.98828E-05-5.71058E-06-1.88338E-18 8.91004E-19
 -1      1781 9.51689E-05-2.70390E-05-2.91717E-05-3.90321E-06-1.71930E-18 4.31927E-19
 -1      1782 9.43479E-05-2.72389E-05-2.86641E-05-2.42657E-06-1.53973E-18 4.93317E-19
 -1      1783 9.35750E-05-2.73187E-05-2.83588E-05-1.57199E-06-1.23847E-18 1.00430E-19
 -1      1784 9.55203E-05-2.65465E-05-2.95803E-05-4.48100E-06-1.85938E-18-2.74548E-19
 -1      1785 9.30494E-05-2.73693E-05-2.80897E-05-7.43836E-07-9.99115E-19 3.02417E-21
 -1      1786 9.27478E-05-2.74328E-05-2.79674E-05-3.04461E-07-8.31654E-19-2.84941E-19
 -1      1787 9.43078E-05-2.72211E-05-2.87714E-05-1.83340E-06-1.39442E-18-5.27440E-19
 -1      1788 9.24716E-05-2.74603E-05-2.78312E-05 1.51412E-07-7.64262E-19-3.66635E-19
 -1      1789 9.24402E-05-2.75365E-05-2.78013E-05 3.76185E-07-7.55100E-19-6.57903E-19
 -1      1790 9.36061E-05-2.75283E-05-2.83351E-05-3.64566E-07-9.47542E-19-8.87803E-19
 -1      1791 9.23364E-05-2.75678E-05-2.77430E-05 6.16495E-07-8.19262E-19-6.80651E-19
 -1      1792 9.24515E-05-2.76528E-05-2.77622E-05 7.20995E-07-7.25386E-19-1.03410E-18
 -1      1793 9.32842E-05-2.77133E-05-2.81139E-05 4.39521E-07-9.66634E-19-1.05627E-18
 -1      1794 9.24567E-05-2.76908E-05-2.77503E-05 8.32690E-07-8.12823E-19-1.07476E-18
 -1      1795 9.26449E-05-2.77775E-05-2.77951E-05 8.66917E-07-7.81182E-19-1.28956E-18
 -1      1796 9.32203E-05-2.78563E-05-2.80213E-05 8.52432E-07-9.59970E-19-9.49850E-19
 -1      1797 9.27138E-05-2.78190E-05-2.78101E-05 9.01148E-07-6.15828E-19-1.24515E-18
 -1      1798 9.29310E-05-2.79018E-05-2.78666E-05 8.94350E-07-5.11559E-19-1.28071E-18
 -1      1799 9.33152E-05-2.79797E-05-2.80060E-05 1.02966E-06-7.83121E-19-1.23859E-18
 -1      1800 9.30328E-05-2.79434E-05-2.78961E-05 8.82932E-07-6.87452E-19-1.12603E-18
 -1      1801 9.32528E-05-2.80188E-05-2.79558E-05 8.53386E-07-4.78095E-19-1.20022E-18
 -1      1802 9.34984E-05-2.80888E-05-2.80355E-05 1.06519E-06-6.29553E-19-1.07638E-18
 -1      1803 9.33678E-05-2.80580E-05-2.79919E-05 8.16856E-07-3.85633E-19-1.37717E-18
 -1      1804 9.35757E-05-2.81244E-05-2.80498E-05 7.76387E-07-2.86225E-19-1.90532E-18
 -1      1805 9.37223E-05-2.81841E-05-2.80892E-05 1.01862E-06-6.81647E-19-1.25653E-18
 -1      1806 9.36916E-05-2.81597E-05-2.80877E-05 7.28243E-07-2.20728E-19-2.11025E-18
 -1      1807 9.38798E-05-2.82167E-05-2.81411E-05 6.84572E-07-6.51343E-20-2.12638E-18
 -1      1808 9.39570E-05-2.82657E-05-2.81538E-05 9.28801E-07-3.89153E-19-1.30383E-18
 -1      1809 9.39898E-05-2.82476E-05-2.81780E-05 6.33684E-07-4.96056E-20-2.01700E-18
 -1      1810 9.41558E-05-2.82956E-05-2.82258E-05 5.91801E-07 9.16620E-20-2.00926E-18
 -1      1811 9.41843E-05-2.83341E-05-2.82214E-05 8.21367E-07-1.34708E-19-1.26545E-18
 -1      1812 9.42566E-05-2.83222E-05-2.82602E-05 5.43891E-07 2.00928E-19-2.10368E-18
 -1      1813 9.44009E-05-2.83623E-05-2.83023E-05 5.06907E-07 2.46423E-19-1.99245E-18
 -1      1814 9.43950E-05-2.83906E-05-2.82872E-05 7.13079E-07 5.52906E-20-1.16138E-18
 -1      1815 9.44916E-05-2.83851E-05-2.83338E-05 4.65500E-07 8.46078E-20-2.38594E-18
 -1      1816 9.46168E-05-2.84186E-05-2.83706E-05 4.35201E-07-2.50627E-19-2.08754E-18
 -1      1817 9.45855E-05-2.84368E-05-2.83489E-05 6.14607E-07-7.47286E-20-2.07358E-18
 -1      1818 9.46984E-05-2.84383E-05-2.83992E-05 4.02229E-07-5.44848E-19-2.32467E-18
 -1      1819 9.48080E-05-2.84669E-05-2.84318E-05 3.79405E-07-6.31577E-19-2.28889E-18
 -1      1820 9.47563E-05-2.84750E-05-2.84058E-05 5.32289E-07-4.17035E-19-2.52969E-18
 -1      1821 9.48821E-05-2.84844E-05-2.84578E-05 3.55549E-07-5.31292E-19-2.27946E-18
 -1      1822 9.49802E-05-2.85099E-05-2.84871E-05 3.40147E-07-4.72823E-19-2.16059E-18
 -1      1823 9.49103E-05-2.85075E-05-2.84580E-05 4.69220E-07-5.86281E-19-2.44692E-18
 -1      1824 9.50491E-05-2.85264E-05-2.85111E-05 3.24950E-07-7.14768E-19-2.06014E-18
 -1      1825 9.51396E-05-2.85504E-05-2.85380E-05 3.16052E-07-3.41865E-19-2.08525E-18
 -1      1826 9.50517E-05-2.85372E-05-2.85060E-05 4.25778E-07-5.42690E-19-2.17550E-18
 -1      1827 9.52055E-05-2.85671E-05-2.85603E-05 3.07809E-07-4.86516E-20-2.21830E-18
 -1      1828 9.52914E-05-2.85911E-05-2.85857E-05 3.03442E-07-4.57805E-19-1.98947E-18
 -1      1829 9.51853E-05-2.85670E-05-2.85506E-05 3.99648E-07-4.34971E-19-1.61399E-18
 -1      1830 9.53561E-05-2.86095E-05-2.86065E-05 2.98878E-07-8.04523E-19-1.79970E-18
 -1      1831 9.54388E-05-2.86350E-05-2.86304E-05 2.95653E-07-8.88505E-20-2.07972E-18
 -1      1832 9.53154E-05-2.86006E-05-2.85920E-05 3.85363E-07-3.74718E-19-1.38557E-18
 -1      1833 9.55033E-05-2.86563E-05-2.86494E-05 2.89404E-07 3.74278E-19-2.47696E-18
 -1      1834 9.55815E-05-2.86842E-05-2.86713E-05 2.82025E-07 2.73175E-19-2.61346E-18
 -1      1835 9.54452E-05-2.86417E-05-2.86300E-05 3.73387E-07-4.01662E-19-1.85690E-18
 -1      1836 9.56449E-05-2.87098E-05-2.86872E-05 2.65984E-07 5.27089E-19-2.68048E-18
 -1      1837 9.57135E-05-2.87400E-05-2.87053E-05 2.46691E-07 2.92430E-19-2.83871E-18
 -1      1838 9.55752E-05-2.86946E-05-2.86629E-05 3.48828E-07 4.68181E-19-2.69840E-18
 -1      1839 9.57728E-05-2.87707E-05-2.87161E-05 2.09384E-07 2.07523E-20-2.30723E-18
 -1      1840 9.58211E-05-2.88018E-05-2.87269E-05 1.67534E-07 3.10141E-19-1.83377E-18
 -1      1841 9.57024E-05-2.87632E-05-2.86877E-05 2.90030E-07 7.08490E-19-2.25610E-18
 -1      1842 9.58696E-05-2.88375E-05-2.87294E-05 9.38154E-08 1.09883E-20-1.99967E-18
 -1      1843 9.58799E-05-2.88657E-05-2.87276E-05 1.59210E-08 1.54153E-19-1.90968E-18
 -1      1844 9.58175E-05-2.88499E-05-2.86991E-05 1.67534E-07 3.39726E-19-1.89455E-18
 -1      1845 9.59062E-05-2.89042E-05-2.87171E-05-1.12489E-07 6.44126E-20-1.94609E-18
 -1      1846 9.58524E-05-2.89222E-05-2.86953E-05-2.41739E-07-1.88402E-19-2.22444E-18
 -1      1847 9.59030E-05-2.89541E-05-2.86901E-05-5.57006E-08-1.23494E-20-2.51766E-18
 -1      1848 9.58390E-05-2.89582E-05-2.86660E-05-4.44128E-07-2.05547E-19-2.54461E-18
 -1      1849 9.56866E-05-2.89538E-05-2.86147E-05-6.39189E-07-4.31256E-19-2.36726E-18
 -1      1850 9.59301E-05-2.90684E-05-2.86512E-05-4.21436E-07-1.80019E-19-2.56367E-18
 -1      1851 9.56090E-05-2.89770E-05-2.85604E-05-9.31263E-07-5.25825E-19-2.57685E-18
 -1      1852 9.53167E-05-2.89323E-05-2.84692E-05-1.20075E-06-4.49622E-19-2.86667E-18
 -1      1853 9.58561E-05-2.91743E-05-2.85720E-05-9.68879E-07-5.92789E-19-2.47639E-18
 -1      1854 9.51436E-05-2.89257E-05-2.83841E-05-1.58692E-06 2.85013E-20-2.37610E-18
 -1      1855 9.46692E-05-2.88177E-05-2.82434E-05-1.92616E-06 7.78261E-19-1.51421E-18
 -1      1856 9.56230E-05-2.92377E-05-2.84426E-05-1.72123E-06 1.64707E-19-1.62944E-18
 -1      1857 9.43655E-05-2.87576E-05-2.81238E-05-2.38900E-06 9.11560E-19-1.34509E-18
 -1      1858 9.36759E-05-2.85607E-05-2.79276E-05-2.77122E-06 1.35110E-18-9.56885E-19
 -1      1859 9.51605E-05-2.92054E-05-2.82558E-05-2.66556E-06 1.14322E-18-1.06319E-18
 -1      1860 9.32096E-05-2.84194E-05-2.77740E-05-3.26044E-06 1.04547E-18-1.23463E-18
 -1      1861 9.22957E-05-2.81126E-05-2.75237E-05-3.62978E-06 2.31708E-19-1.19223E-18
 -1      1862 9.43957E-05-2.90083E-05-2.80107E-05-3.72866E-06 8.60198E-19-7.55464E-19
 -1      1863 9.16516E-05-2.78672E-05-2.73426E-05-4.05630E-06-2.69140E-19-7.10647E-19
 -1      1864 9.05456E-05-2.74458E-05-2.70505E-05-4.32828E-06-3.38801E-19-9.86429E-20
 -1      1865 9.32748E-05-2.85763E-05-2.77155E-05-4.75725E-06 6.80811E-19-3.97221E-19
 -1      1866 8.97440E-05-2.70920E-05-2.68551E-05-4.57156E-06-5.00217E-19-1.15236E-19
 -1      1867 8.85326E-05-2.65813E-05-2.65455E-05-4.64738E-06-7.74216E-19 3.62467E-19
 -1      1868 9.17974E-05-2.78680E-05-2.73892E-05-5.51785E-06-4.76880E-19 7.14397E-19
 -1      1869 8.76465E-05-2.61493E-05-2.63551E-05-4.58364E-06-1.16303E-18 4.38869E-20
 -1      1870 8.64715E-05-2.56134E-05-2.60635E-05-4.38055E-06-6.02828E-19-1.97663E-20
 -1      1871 9.00564E-05-2.69112E-05-2.70606E-05-5.73450E-06-9.71331E-19 9.16002E-19
 -1      1872 8.56310E-05-2.51754E-05-2.59004E-05-3.93018E-06-4.45083E-19-6.19279E-19
 -1      1873 8.46686E-05-2.47111E-05-2.56670E-05-3.42065E-06-1.41719E-19-1.05104E-18
 -1      1874 8.82625E-05-2.58338E-05-2.67643E-05-5.17303E-06-1.30674E-18 2.93523E-19
 -1      1875 8.40364E-05-2.43682E-05-2.55528E-05-2.59729E-06-1.77066E-19-1.28769E-18
 -1      1876 8.34557E-05-2.40794E-05-2.54137E-05-1.83784E-06-5.82679E-19-1.18068E-18
 -1      1877 8.67244E-05-2.48576E-05-2.65348E-05-3.75219E-06-6.34623E-19-2.35928E-20
 -1      1878 8.31762E-05-2.39264E-05-2.53641E-05-7.69788E-07-7.20898E-19-1.36854E-18
 -1      1879 8.30874E-05-2.38853E-05-2.53421E-05 1.01776E-07-8.59805E-19-1.61852E-18
 -1      1880 8.57695E-05-2.42350E-05-2.64000E-05-1.62804E-06-8.12430E-19 4.61112E-20
 -1      1881 8.32283E-05-2.39678E-05-2.53637E-05 1.20100E-06-1.30688E-18-1.67412E-18
 -1      1882 8.36457E-05-2.41839E-05-2.54618E-05 2.00714E-06-9.94503E-19-2.52071E-18
 -1      1883 8.56248E-05-2.41471E-05-2.63760E-05 8.11620E-07-1.10113E-18-5.62157E-19
 -1      1884 8.41676E-05-2.44757E-05-2.55507E-05 2.91226E-06 9.42589E-20-2.00001E-18
 -1      1885 8.50039E-05-2.48916E-05-2.57509E-05 3.49815E-06 9.67603E-20-1.68778E-18
 -1      1886 8.63208E-05-2.46197E-05-2.64648E-05 3.06557E-06-8.31283E-20-4.51073E-19
 -1      1887 8.57775E-05-2.53073E-05-2.58935E-05 4.05226E-06-2.68531E-19-2.38785E-18
 -1      1888 8.68742E-05-2.58235E-05-2.61620E-05 4.33646E-06-5.78730E-19-1.97791E-18
 -1      1889 8.76772E-05-2.55096E-05-2.66537E-05 4.69849E-06-7.99349E-19-8.85212E-19
 -1      1890 8.77350E-05-2.62589E-05-2.63379E-05 4.49498E-06-6.38199E-19-1.06403E-18
 -1      1891 8.89120E-05-2.67726E-05-2.66346E-05 4.48391E-06-6.70686E-20-7.85132E-19
 -1      1892 8.93805E-05-2.65721E-05-2.69175E-05 5.48497E-06 1.63620E-20-7.48010E-19
 -1      1893 8.97164E-05-2.71443E-05-2.68210E-05 4.30621E-06-4.43179E-19-6.30391E-19
 -1      1894 9.08189E-05-2.75805E-05-2.71085E-05 4.07245E-06-3.60157E-19-5.28203E-19
 -1      1895 9.11045E-05-2.75659E-05-2.72228E-05 5.44797E-06-3.36244E-19 1.29996E-18
 -1      1896 9.14773E-05-2.78459E-05-2.72853E-05 3.67745E-06-1.34397E-19-4.87529E-19
 -1      1897 9.24031E-05-2.81687E-05-2.75359E-05 3.32127E-06 9.25613E-19-8.01432E-19
 -1      1898 9.26056E-05-2.83309E-05-2.75347E-05 4.79411E-06 1.08779E-19 1.80182E-18
 -1      1899 9.28827E-05-2.83236E-05-2.76884E-05 2.83721E-06 1.77217E-18-1.33700E-18
 -1      1900 9.35878E-05-2.85310E-05-2.78875E-05 2.45230E-06 1.94957E-18-3.54011E-19
 -1      1901 9.37592E-05-2.88116E-05-2.78229E-05 3.80376E-06 9.33085E-19 7.33314E-19
 -1      1902 9.38974E-05-2.85951E-05-2.80081E-05 1.98240E-06 1.05796E-18-3.69971E-19
 -1      1903 9.43851E-05-2.87059E-05-2.81527E-05 1.63657E-06 2.06937E-18 8.54687E-19
 -1      1904 9.45458E-05-2.90336E-05-2.80666E-05 2.73584E-06 1.85972E-18 3.85485E-19
 -1      1905 9.45567E-05-2.87076E-05-2.82404E-05 1.24573E-06 2.08100E-18 3.75005E-19
 -1      1906 9.48609E-05-2.87495E-05-2.83362E-05 9.76416E-07 2.14787E-18 3.11667E-19
 -1      1907 9.50128E-05-2.90640E-05-2.82562E-05 1.77611E-06 1.87743E-18 1.34049E-18
 -1      1908 9.49341E-05-2.87163E-05-2.83946E-05 6.92673E-07 1.00648E-18-1.01150E-18
 -1      1909 9.51023E-05-2.87162E-05-2.84522E-05 5.10979E-07 4.78405E-19 1.94519E-19
 -1      1910 9.52381E-05-2.89792E-05-2.83918E-05 1.02638E-06 1.39470E-18 1.48893E-22
 -1      1911 9.51154E-05-2.86715E-05-2.84870E-05 3.36789E-07 8.79480E-19-6.50956E-20
 -1      1912 9.51981E-05-2.86568E-05-2.85177E-05 2.33665E-07 1.50118E-18 2.52612E-19
 -1      1913 9.53043E-05-2.88443E-05-2.84802E-05 5.16747E-07 1.02073E-18-9.70658E-19
 -1      1914 9.51870E-05-2.86198E-05-2.85350E-05 1.47106E-07 2.44294E-18 7.11530E-19
 -1      1915 9.52229E-05-2.86088E-05-2.85488E-05 9.79881E-08 2.35239E-18 1.06317E-18
 -1      1916 9.52893E-05-2.87154E-05-2.85301E-05 2.28637E-07 2.44952E-18 3.81845E-19
 -1      1917 1.19753E-04-3.41765E-05-3.66198E-05 2.38168E-05 2.23167E-19-2.07039E-18
 -1      1918 1.26407E-04-3.79302E-05-3.78058E-05 2.43101E-05 8.11881E-19-1.72203E-18
 -1      1919 9.36341E-05-2.73120E-05-2.83868E-05 1.65674E-06 1.30873E-18 1.83505E-18
 -1      1920 9.44286E-05-2.72253E-05-2.87060E-05 2.53904E-06 1.52737E-18 2.23386E-18
 -1      1921 9.52591E-05-2.69941E-05-2.92290E-05 4.06552E-06 1.76576E-18 2.42826E-18
 -1      1922 9.70708E-05-2.69043E-05-2.99657E-05 5.95880E-06 1.98034E-18 2.92546E-18
 -1      1923 9.55775E-05-2.64748E-05-2.96326E-05 4.64740E-06 1.99859E-18 1.19641E-18
 -1      1924 9.27741E-05-2.74277E-05-2.79805E-05 3.52236E-07 8.67458E-19 1.37640E-18
 -1      1925 9.30934E-05-2.73646E-05-2.81092E-05 8.05879E-07 1.01381E-18 1.62675E-18
 -1      1926 9.43562E-05-2.72032E-05-2.88004E-05 1.93345E-06 1.45651E-18 7.74373E-19
 -1      1927 9.24459E-05-2.75308E-05-2.78059E-05-3.50436E-07 6.32466E-19 1.26249E-18
 -1      1928 9.24877E-05-2.74553E-05-2.78393E-05-1.17920E-07 7.44468E-19 1.39634E-18
 -1      1929 9.36299E-05-2.75175E-05-2.83507E-05 4.19827E-07 9.19951E-19 4.62569E-19
 -1      1930 9.24448E-05-2.76465E-05-2.77618E-05-7.07913E-07 3.02506E-19 1.07116E-18
 -1      1931 9.23353E-05-2.75618E-05-2.77445E-05-5.99001E-07 4.84389E-19 1.26995E-18
 -1      1932 9.32925E-05-2.77056E-05-2.81212E-05-4.09152E-07 6.56855E-19 4.74120E-19
 -1      1933 9.26306E-05-2.77705E-05-2.77918E-05-8.60920E-07 3.17412E-19 1.13805E-18
 -1      1934 9.24459E-05-2.76846E-05-2.77480E-05-8.24696E-07 3.63811E-19 1.03607E-18
 -1      1935 9.32180E-05-2.78494E-05-2.80235E-05-8.36847E-07 3.94906E-19 4.34874E-19
 -1      1936 9.28971E-05-2.78886E-05-2.78575E-05-8.92723E-07 3.70296E-19 7.41020E-19
 -1      1937 9.26917E-05-2.78100E-05-2.78045E-05-8.97663E-07 3.44576E-19 9.70501E-19
 -1      1938 9.33036E-05-2.79725E-05-2.80044E-05-1.02110E-06 4.45390E-19 2.82091E-19
 -1      1939 9.32173E-05-2.80073E-05-2.79454E-05-8.56180E-07 2.96638E-19 5.04325E-19
 -1      1940 9.29976E-05-2.79314E-05-2.78860E-05-8.84636E-07 4.04198E-19 6.66612E-19
 -1      1941 9.34763E-05-2.80786E-05-2.80306E-05-1.06318E-06 5.89101E-19-1.16676E-20
 -1      1942 9.35398E-05-2.81140E-05-2.80388E-05-7.80453E-07 2.52198E-19 2.85717E-19
 -1      1943 9.33314E-05-2.80469E-05-2.79809E-05-8.20817E-07 2.08158E-19 4.10258E-19
 -1      1944 9.36976E-05-2.81756E-05-2.80823E-05-1.02148E-06 3.77539E-19 6.48678E-20
 -1      1945 9.38449E-05-2.82073E-05-2.81301E-05-6.87894E-07 3.79554E-19 1.51091E-19
 -1      1946 9.36559E-05-2.81498E-05-2.80766E-05-7.32224E-07 3.08158E-19 3.10455E-19
 -1      1947 9.39317E-05-2.82587E-05-2.81460E-05-9.33175E-07 3.52038E-19-3.02526E-19
 -1      1948 9.41223E-05-2.82871E-05-2.82151E-05-5.93260E-07 5.66205E-19-1.79698E-19
 -1      1949 9.39556E-05-2.82387E-05-2.81671E-05-6.36199E-07 4.48570E-19-1.72335E-20
 -1      1950 9.41600E-05-2.83284E-05-2.82134E-05-8.25071E-07 5.96123E-19-4.68857E-19
 -1      1951 9.43692E-05-2.83541E-05-2.82921E-05-5.06377E-07 6.93565E-19-2.78074E-20
 -1      1952 9.42243E-05-2.83140E-05-2.82499E-05-5.44368E-07 7.39460E-19-1.31301E-19
 -1      1953 9.43726E-05-2.83858E-05-2.82797E-05-7.15128E-07 6.06490E-19-7.18635E-19
 -1      1954 9.45879E-05-2.84102E-05-2.83616E-05-4.34038E-07 3.19740E-20-1.02468E-19
 -1      1955 9.44619E-05-2.83771E-05-2.83244E-05-4.64589E-07 3.62767E-19-3.51088E-20
 -1      1956 9.45661E-05-2.84324E-05-2.83426E-05-6.15527E-07 5.52549E-19-5.81413E-19
 -1      1957 9.47845E-05-2.84576E-05-2.84252E-05-3.81466E-07-5.17125E-19-2.86114E-19
 -1      1958 9.46726E-05-2.84298E-05-2.83917E-05-4.02556E-07-2.93372E-20-1.09882E-19
 -1      1959 9.47415E-05-2.84696E-05-2.84019E-05-5.34921E-07 4.60003E-20-3.59175E-19
 -1      1960 9.49682E-05-2.84987E-05-2.84858E-05-3.53597E-07-1.17871E-19-5.96969E-19
 -1      1961 9.48641E-05-2.84745E-05-2.84541E-05-3.63129E-07-4.23872E-19-5.35268E-19
 -1      1962 9.49031E-05-2.84993E-05-2.84587E-05-4.80254E-07-1.10248E-19-7.17480E-19
 -1      1963 9.51511E-05-2.85362E-05-2.85472E-05-3.56458E-07 3.73577E-19-7.02654E-19
 -1      1964 9.50469E-05-2.85138E-05-2.85150E-05-3.51587E-07-7.88043E-20-5.55971E-19
 -1      1965 9.50579E-05-2.85227E-05-2.85153E-05-4.58418E-07 4.84119E-21-7.79523E-19
 -1      1966 9.53388E-05-2.85712E-05-2.86113E-05-3.95250E-07 5.41027E-20-2.24843E-19
 -1      1967 9.52297E-05-2.85496E-05-2.85774E-05-3.73956E-07 4.94706E-19-3.72350E-19
 -1      1968 9.52107E-05-2.85401E-05-2.85737E-05-4.76650E-07 1.90430E-19-7.67911E-19
 -1      1969 9.55702E-05-2.86100E-05-2.86918E-05-4.86569E-07-2.94967E-19 7.17211E-20
 -1      1970 9.54321E-05-2.85849E-05-2.86484E-05-4.39708E-07-1.28275E-19-2.02996E-19
 -1      1971 9.53766E-05-2.85530E-05-2.86398E-05-5.45841E-07-1.50562E-20-3.20405E-19
 -1      1972 9.58627E-05-2.86541E-05-2.87953E-05-6.49950E-07-7.90764E-20 3.74999E-19
 -1      1973 9.56822E-05-2.86234E-05-2.87383E-05-5.68069E-07-1.33850E-19 2.14816E-19
 -1      1974 9.55737E-05-2.85595E-05-2.87222E-05-6.86963E-07-2.03786E-19-5.19066E-19
 -1      1975 9.62527E-05-2.87064E-05-2.89355E-05-9.17390E-07 3.87691E-19 1.79360E-19
 -1      1976 9.60035E-05-2.86666E-05-2.88566E-05-7.84114E-07 3.10052E-19 2.52861E-19
 -1      1977 9.58152E-05-2.85557E-05-2.88279E-05-9.27405E-07 1.11886E-19-4.76258E-19
 -1      1978 9.67899E-05-2.87696E-05-2.91319E-05-1.33898E-06 6.39253E-19 6.41846E-19
 -1      1979 9.64341E-05-2.87159E-05-2.90190E-05-1.12848E-06 5.99198E-19 5.71138E-19
 -1      1980 9.61213E-05-2.85339E-05-2.89692E-05-1.31071E-06 4.42279E-19 4.95266E-20
 -1      1981 9.75427E-05-2.88456E-05-2.94119E-05-1.99175E-06-6.37475E-20 6.12127E-19
 -1      1982 9.70254E-05-2.87715E-05-2.92476E-05-1.66401E-06 2.86032E-19 5.46589E-19
 -1      1983 9.65156E-05-2.84798E-05-2.91618E-05-1.90322E-06 3.54772E-19 1.20281E-18
 -1      1984 9.86034E-05-2.89353E-05-2.98139E-05-2.99146E-06 1.33755E-19 2.43700E-19
 -1      1985 9.78454E-05-2.88311E-05-2.95729E-05-2.48593E-06 1.63335E-19-8.03399E-20
 -1      1986 9.70223E-05-2.83691E-05-2.94262E-05-2.80396E-06 4.29244E-19 5.21899E-19
 -1      1987 1.00094E-04-2.90393E-05-3.03889E-05-4.50511E-06 2.42341E-19-1.01267E-18
 -1      1988 9.89828E-05-2.88894E-05-3.00359E-05-3.73431E-06 3.77039E-19-5.49471E-19
 -1      1989 9.76619E-05-2.81635E-05-2.97869E-05-4.15621E-06 8.95413E-19-8.84438E-20
 -1      1990 1.02165E-04-2.91653E-05-3.11997E-05-6.75570E-06 1.37008E-19-9.10008E-19
 -1      1991 1.00549E-04-2.89403E-05-3.06886E-05-5.60436E-06 4.69177E-20-9.44918E-19
 -1      1992 9.84423E-05-2.78106E-05-3.02690E-05-6.15635E-06 1.19657E-19-1.73804E-18
 -1      1993 1.04981E-04-2.93537E-05-3.23052E-05-9.99505E-06 4.52216E-19-7.53790E-19
 -1      1994 1.02678E-04-2.89961E-05-3.15870E-05-8.33947E-06 2.77794E-19-8.84503E-19
 -1      1995 9.93480E-05-2.72608E-05-3.08860E-05-9.04874E-06 1.45954E-19-1.73752E-18
 -1      1996 1.08565E-04-2.97664E-05-3.36531E-05-1.41248E-05-1.18849E-20 1.78936E-20
 -1      1997 1.05487E-04-2.91460E-05-3.27443E-05-1.20687E-05 2.62686E-19-4.16464E-19
 -1      1998 1.00322E-04-2.65469E-05-3.15932E-05-1.29484E-05 2.70190E-20-8.90913E-19
 -1      1999 1.13541E-04-3.09539E-05-3.52709E-05-1.93099E-05-6.81213E-19 5.82534E-19
 -1      2000 1.09194E-04-2.96627E-05-3.41222E-05-1.68718E-05-1.88419E-19 2.77185E-19
 -1      2001 1.01410E-04-2.59605E-05-3.23029E-05-1.80339E-05-3.27550E-19-5.02148E-19
 -1      2002 1.20332E-04-3.43158E-05-3.67359E-05-2.39145E-05-1.10264E-18 4.67589E-19
 -1      2003 1.14611E-04-3.15524E-05-3.55871E-05-2.22626E-05-6.04285E-19 6.96592E-19
 -1      2004 1.03053E-04-2.65101E-05-3.27512E-05-2.40537E-05-6.75719E-19 6.60845E-19
 -1      2005 1.30448E-04-4.25095E-05-3.75196E-05-2.41532E-05-1.11888E-18-5.40797E-19
 -1      2006 1.23221E-04-3.71552E-05-3.66965E-05-2.58303E-05-1.13645E-18-3.13362E-19
 -1      2007 1.06745E-04-3.07495E-05-3.24842E-05-2.94732E-05-4.49430E-19-2.70336E-19
 -1      2008 1.44148E-04-5.55982E-05-3.78373E-05-1.55289E-05-1.26102E-18 5.91097E-19
 -1      2009 1.37020E-04-4.87942E-05-3.73356E-05-2.24079E-05-1.11057E-18-2.82208E-19
 -1      2010 1.16039E-04-4.23687E-05-3.14830E-05-3.08191E-05-1.16827E-18-6.53062E-19
 -1      2011 1.65630E-04-6.67310E-05-4.24666E-05 7.89095E-06 7.18919E-19 1.72006E-18
 -1      2012 1.60466E-04-6.43799E-05-4.07270E-05-4.49145E-06-3.57871E-19 1.20258E-18
 -1      2013 1.78340E-04-5.70983E-05-5.23109E-05 2.64678E-05 1.81689E-18 2.47503E-18
 -1      2014 1.81249E-04-6.82138E-05-4.84568E-05 2.07294E-05 9.67451E-19 1.44038E-18
 -1      2015 1.98904E-04-4.07324E-05-6.67959E-05 1.17377E-05 3.46098E-18 5.62853E-19
 -1      2016 2.01288E-04-5.29274E-05-6.24210E-05 2.07312E-05 3.57533E-18 2.38270E-18
 -1      2017 1.30919E-04-4.19598E-05-3.77860E-05 2.45994E-05 6.98802E-19-2.44591E-18
 -1      2018 1.38161E-04-4.79957E-05-3.85058E-05 2.07925E-05 8.26810E-19-2.64321E-18
 -1      2019 1.12441E-04-3.58312E-05-3.28086E-05 3.03412E-05-6.90332E-20-1.53286E-18
 -1      2020 1.48605E-04-5.65532E-05-3.88948E-05 1.53004E-05 8.90761E-19-2.95535E-18
 -1      2021 1.55460E-04-6.25365E-05-3.97671E-05 4.44578E-06 3.58507E-19-3.33249E-18
 -1      2022 1.26434E-04-5.10896E-05-3.23354E-05 2.68848E-05 2.00323E-19-2.08921E-18
 -1      2023 1.12414E-04-3.08523E-05-3.49867E-05 1.90593E-05-1.68189E-18-1.13949E-18
 -1      2024 1.17731E-04-3.27747E-05-3.63022E-05 2.12224E-05-2.19881E-19-1.23767E-18
 -1      2025 1.06062E-04-2.86032E-05-3.31584E-05 2.67110E-05-5.34703E-19-5.32043E-21
 -1      2026 1.07294E-04-2.96472E-05-3.33073E-05 1.39752E-05-2.19921E-18-2.84788E-19
 -1      2027 1.11314E-04-3.06500E-05-3.44557E-05 1.62044E-05-2.70087E-18-6.82656E-19
 -1      2028 1.03075E-04-2.66307E-05-3.27355E-05 2.08790E-05-2.32304E-18 3.15725E-19
 -1      2029 1.03512E-04-2.91675E-05-3.18732E-05 9.82180E-06-6.02717E-20 2.30700E-19
 -1      2030 1.06443E-04-2.97455E-05-3.27590E-05 1.15884E-05-9.60324E-19-1.29540E-18
 -1      2031 1.01203E-04-2.66860E-05-3.19194E-05 1.53141E-05-1.70361E-18-1.15725E-18
 -1      2032 1.00680E-04-2.88918E-05-3.07645E-05 6.77064E-06-4.54089E-19 3.51992E-19
 -1      2033 1.02765E-04-2.92692E-05-3.14045E-05 8.03899E-06-4.92325E-19 1.24741E-18
 -1      2034 9.96886E-05-2.71957E-05-3.10609E-05 1.08614E-05-9.31048E-19-1.02992E-18
 -1      2035 9.85782E-05-2.86558E-05-2.99579E-05 4.60052E-06-1.01299E-18 1.18221E-18
 -1      2036 1.00032E-04-2.89288E-05-3.04015E-05 5.49344E-06-3.12635E-19 5.85291E-19
 -1      2037 9.83723E-05-2.76121E-05-3.03244E-05 7.56664E-06-7.48175E-19 1.42962E-19
 -1      2038 9.70486E-05-2.84132E-05-2.94041E-05 3.01859E-06-1.46025E-18 1.47709E-18
 -1      2039 9.80380E-05-2.86366E-05-2.96965E-05 3.67237E-06-1.14348E-18 1.52490E-18
 -1      2040 9.72442E-05-2.78149E-05-2.97577E-05 5.17141E-06-1.06832E-18-3.48246E-19
 -1      2041 9.59748E-05-2.81681E-05-2.90438E-05 1.72558E-06-6.84168E-19 9.69381E-19
 -1      2042 9.65944E-05-2.83324E-05-2.92263E-05 2.27974E-06-1.09483E-18 1.80143E-18
 -1      2043 9.63064E-05-2.78093E-05-2.93520E-05 3.37592E-06-1.15159E-18-4.32238E-19
 -1      2044 9.54432E-05-2.79749E-05-2.89008E-05 1.08478E-06 2.49195E-18-2.35057E-19
 -1      2045 9.57095E-05-2.80513E-05-2.89810E-05 1.39554E-06 2.96785E-19 4.98773E-19
 -1      2046 9.56438E-05-2.76919E-05-2.91353E-05 2.21450E-06 1.05726E-18-2.42084E-19
 -1      2047 9.52178E-05-2.75270E-05-2.90246E-05 1.46845E-06 2.46910E-18-1.23678E-18
 -1      2048 9.40911E-05-2.53800E-05-2.94599E-05 1.89139E-06 9.91601E-19-3.20134E-18
 -1      2049 9.43905E-05-2.59634E-05-2.93265E-05 1.98373E-06 1.23835E-18-1.06139E-18
 -1      2050 9.46556E-05-2.64165E-05-2.92557E-05 1.96219E-06 2.22049E-18 8.27707E-19
 -1      2051 9.49894E-05-2.70357E-05-2.91173E-05 1.78376E-06 2.29807E-18 1.94818E-19
 -1      2052 9.51554E-05-2.70872E-05-2.91624E-05 2.17624E-06 1.37337E-18-7.90475E-19
 -1      2053 9.44325E-05-2.60741E-05-2.93002E-05 2.52367E-06-1.08017E-18-9.80701E-19
 -1      2054 9.36249E-05-2.45411E-05-2.96212E-05 1.21972E-06-1.65088E-19-5.14317E-18
 -1      2055 9.38291E-05-2.49530E-05-2.95248E-05 1.54021E-06 1.86439E-18-4.97171E-18
 -1      2056 9.38127E-05-2.51473E-05-2.94101E-05 2.21548E-06-4.66488E-19-3.96664E-18
 -1      2057 9.34876E-05-2.42422E-05-2.96872E-05 2.92001E-07-2.12061E-18-6.00707E-18
 -1      2058 9.35359E-05-2.43847E-05-2.96520E-05 6.83367E-07-3.80444E-19-4.91386E-18
 -1      2059 9.33667E-05-2.45306E-05-2.94805E-05 1.19263E-06-4.62004E-19-5.80901E-18
 -1      2060 9.36388E-05-2.44753E-05-2.96476E-05-6.12221E-07-2.61723E-18-2.99144E-18
 -1      2061 9.35493E-05-2.43441E-05-2.96785E-05-2.58373E-07-1.30158E-18-6.44007E-18
 -1      2062 9.33242E-05-2.44686E-05-2.94914E-05-2.99028E-08-5.43703E-19-6.60394E-18
 -1      2063 9.39906E-05-2.51295E-05-2.95135E-05-1.25733E-06-6.69343E-19 2.49034E-18
 -1      2064 9.38080E-05-2.47835E-05-2.95992E-05-1.02759E-06-1.98128E-18 1.79480E-19
 -1      2065 9.36122E-05-2.49017E-05-2.94356E-05-1.11216E-06 1.00123E-18-1.19005E-18
 -1      2066 9.44245E-05-2.60090E-05-2.93188E-05-1.54510E-06-4.87027E-19 6.63254E-18
 -1      2067 9.42072E-05-2.55496E-05-2.94361E-05-1.46622E-06-1.11707E-18 3.77587E-18
 -1      2068 9.40941E-05-2.56687E-05-2.93211E-05-1.80771E-06 1.12172E-18 2.79005E-18
 -1      2069 9.48334E-05-2.69122E-05-2.91046E-05-1.49381E-06-1.71953E-18 2.32543E-18
 -1      2070 9.46325E-05-2.64436E-05-2.92280E-05-1.54725E-06-2.03906E-18 4.60655E-18
 -1      2071 9.46195E-05-2.65649E-05-2.91690E-05-2.03872E-06-1.37560E-20 4.69204E-18
 -1      2072 9.51451E-05-2.76822E-05-2.89074E-05-1.20048E-06-2.37386E-19 5.93553E-19
 -1      2073 9.49944E-05-2.72854E-05-2.90157E-05-1.34027E-06-1.33367E-18 8.93027E-19
 -1      2074 9.50680E-05-2.74061E-05-2.90051E-05-1.86427E-06-1.07308E-18 2.58792E-18
 -1      2075 9.53273E-05-2.82251E-05-2.87534E-05-8.01854E-07 1.34846E-19 5.69597E-19
 -1      2076 9.52410E-05-2.79469E-05-2.88333E-05-9.70162E-07 3.71046E-19 1.69019E-18
 -1      2077 9.53686E-05-2.80630E-05-2.88542E-05-1.43061E-06-1.02826E-18 1.08358E-18
 -1      2078 9.53917E-05-2.85434E-05-2.86462E-05-4.05247E-07 1.05049E-18-3.32527E-20
 -1      2079 9.53628E-05-2.83817E-05-2.86971E-05-5.60482E-07 6.94859E-19 4.00974E-19
 -1      2080 9.55081E-05-2.84896E-05-2.87307E-05-9.01026E-07-6.02175E-19 1.77114E-18
 -1      2081 9.53666E-05-2.86636E-05-2.85861E-05-1.12753E-07 5.36111E-19-3.86513E-18
 -1      2082 9.53762E-05-2.85988E-05-2.86106E-05-2.15325E-07 1.77315E-18-1.81342E-18
 -1      2083 9.55057E-05-2.86936E-05-2.86407E-05-4.14966E-07-1.87718E-19-9.86332E-19
 -1      2084 9.52935E-05-2.86478E-05-2.85606E-05 4.42868E-08-5.49925E-19-3.81179E-18
 -1      2085 9.53254E-05-2.86526E-05-2.85675E-05 6.22518E-09 5.60659E-19-5.69292E-18
 -1      2086 9.54353E-05-2.87322E-05-2.85859E-05-8.01383E-08 7.79603E-20-5.51342E-18
 -1      2087 1.04478E-04-5.58849E-05-2.17282E-05 3.40344E-05 1.52635E-18-1.30867E-19
 -1      2088 8.01140E-05-5.45479E-05-1.28819E-05 3.01242E-05 6.47980E-20 1.91652E-18
 -1      2089 9.52148E-05-2.85876E-05-2.85552E-05 6.00892E-08 3.59212E-19 1.74789E-18
 -1      2090 9.85492E-06-3.47187E-05 9.46859E-06-7.15378E-06 1.29580E-18 7.07696E-19
 -1      2091 1.18079E-05-3.47215E-05 8.62016E-06-1.79742E-05 2.80749E-18-2.61733E-19
 -1      2092 2.06568E-04-3.82096E-05-7.00589E-05 6.79287E-06 3.02730E-18 1.25679E-19
 -1      2093 8.72701E-05-8.72030E-06-3.37526E-05-1.05367E-05-1.40206E-18-3.06933E-18
 -1      2094 8.79681E-05-9.24980E-06-3.38236E-05-1.21229E-05-1.68611E-18-2.79414E-18
 -1      2095 9.04744E-05-1.30738E-05-3.32380E-05-1.19336E-05-1.91034E-18-2.43953E-18
 -1      2096 8.86686E-05-1.10279E-05-3.32983E-05-9.42442E-06-1.41873E-18-2.97162E-18
 -1      2097 1.57633E-04-6.43268E-05-3.99858E-05 2.31107E-05 1.81392E-18-2.01594E-18
 -1      2098 1.29093E-04-6.22958E-05-3.02918E-05 2.36974E-05 1.27648E-18-1.44123E-18
 -1      2099 1.99502E-04-6.27928E-05-5.73007E-05 5.98786E-06-1.15620E-19 2.24294E-18
 -1      2100 1.73688E-04-6.20401E-05-4.82127E-05 9.79728E-06 8.62703E-19 5.47183E-19
 -1      2101 2.11664E-04-4.96842E-05-6.79026E-05-1.43376E-05 7.81811E-19 9.71970E-19
 -1      2102 2.06182E-04-5.50117E-05-6.30181E-05-5.19371E-06 5.12455E-20 2.05998E-18
 -1      2103 1.63748E-04-6.28210E-05-4.33076E-05-1.03989E-05 2.00832E-18-2.96462E-20
 -1      2104 1.91585E-04-6.60950E-05-5.29862E-05-4.95864E-07 2.42738E-18 4.14199E-19
 -1      2105 1.00204E-04-5.85341E-05-2.00681E-05-2.75826E-05 2.40007E-18-7.97482E-19
 -1      2106 1.29979E-04-6.27017E-05-2.98503E-05-2.87358E-05 1.62800E-18-5.75559E-19
 -1      2107 5.81977E-05-4.94458E-05-5.35124E-06-2.92276E-05 1.59242E-18-2.06930E-18
 -1      2108 7.88052E-05-5.18133E-05-1.27266E-05-3.36596E-05 2.19043E-18-1.23550E-18
 -1      2109 1.06028E-04-6.07799E-05-1.99349E-05-3.27405E-05-3.72694E-19 8.88908E-19
 -1      2110 2.19362E-05-3.93609E-05 5.93099E-06-1.35939E-05 1.17272E-18-2.02610E-18
 -1      2111 3.42597E-05-3.78132E-05 7.79749E-07-2.50094E-05 1.55176E-18-2.33951E-18
 -1      2112 1.01653E-05-3.03908E-05 7.95733E-06 5.47077E-06 6.35751E-19-2.46741E-18
 -1      2113 1.37335E-05-3.51433E-05 7.96204E-06-4.35976E-06 1.70211E-18-2.25777E-18
 -1      2114 2.19700E-05-2.39072E-05 4.94709E-07-1.50953E-05 3.91541E-19-1.78893E-18
 -1      2115 1.99997E-05-3.60424E-05 5.79687E-06 2.87626E-05 5.85723E-19-2.94767E-18
 -1      2116 1.27862E-05-3.50974E-05 8.39282E-06 1.99215E-05 1.02978E-18-2.77954E-18
 -1      2117 4.50535E-05-3.65619E-05-4.25733E-06 4.47006E-05 4.57821E-19-3.84659E-18
 -1      2118 3.20357E-05-4.05509E-05 2.20794E-06 3.50619E-05 7.03461E-19-2.92036E-18
 -1      2119 2.96931E-05-3.13619E-05 1.70026E-07 3.83581E-05 1.11046E-18-2.90384E-18
 -1      2120 8.93249E-05-4.17901E-05-2.02602E-05 5.11243E-05-8.23740E-19-2.82358E-18
 -1      2121 7.24032E-05-4.45138E-05-1.25607E-05 4.69652E-05 8.37716E-19-3.78280E-18
 -1      2122 1.23609E-04-4.09683E-05-3.49700E-05 4.80184E-05-1.60428E-18-2.17095E-18
 -1      2123 1.03096E-04-4.33629E-05-2.63521E-05 4.54099E-05-1.30485E-18-2.08751E-18
 -1      2124 1.10794E-04-5.39948E-05-2.43902E-05 4.62151E-05 9.50794E-19-1.64102E-18
 -1      2125 1.59070E-04-3.76015E-05-5.11980E-05 3.73213E-05-2.59849E-18-3.25684E-18
 -1      2126 1.38859E-04-3.83536E-05-4.33002E-05 3.85658E-05-2.65693E-18-2.66985E-18
 -1      2127 1.80332E-04-3.20936E-05-6.26409E-05 2.19868E-05-2.40113E-18-3.57448E-18
 -1      2128 1.66710E-04-3.30109E-05-5.69024E-05 2.95675E-05-2.98521E-18-3.30724E-18
 -1      2129 1.60457E-04-3.99658E-05-5.07660E-05 1.62481E-05-1.66799E-18-1.88422E-18
 -1      2130 1.95485E-04-2.62419E-05-7.13389E-05 7.80439E-06-2.16925E-18-2.68615E-18
 -1      2131 1.85811E-04-2.52786E-05-6.79927E-05 1.51823E-05-2.03838E-18-3.46098E-18
 -1      2132 1.88312E-04-2.13666E-05-7.09476E-05-4.23272E-06-2.30774E-18-1.09320E-18
 -1      2133 1.91603E-04-2.22908E-05-7.15203E-05 3.03549E-06-2.11674E-18-2.14871E-18
 -1      2134 1.77423E-04-2.46495E-05-6.51340E-05-1.27898E-05-2.75942E-18-1.13714E-18
 -1      2135 1.89162E-04-2.42910E-05-6.94121E-05-8.35499E-06-2.48096E-18-1.27330E-18
 -1      2136 1.61476E-04-3.42884E-05-5.38340E-05-3.30291E-05-1.63499E-18-1.07192E-18
 -1      2137 1.74562E-04-3.34377E-05-6.00290E-05-2.16686E-05-2.04686E-18-7.94093E-19
 -1      2138 1.26569E-04-3.89048E-05-3.79374E-05-4.24010E-05-4.79421E-19-2.58345E-20
 -1      2139 1.49517E-04-3.78232E-05-4.69973E-05-4.30230E-05-1.69978E-18-1.47511E-18
 -1      2140 9.16050E-05-4.49368E-05-2.07271E-05-4.58415E-05 2.41913E-18 2.12838E-18
 -1      2141 1.11838E-04-4.12216E-05-2.98366E-05-5.00295E-05 8.00023E-19 1.50899E-18
 -1      2142 4.95040E-05-4.24266E-05-4.29640E-06-4.16315E-05 2.06168E-18 8.53015E-19
 -1      2143 6.72622E-05-3.93352E-05-1.21734E-05-5.00549E-05 2.33866E-18 3.70868E-18
 -1      2144 2.26199E-05-3.77829E-05 5.36351E-06-2.98703E-05 3.37077E-18 1.07954E-18
 -1      2145 3.30809E-05-3.67827E-05 8.11449E-07-3.79677E-05 2.10657E-18-4.23516E-21
 -1      2146 5.01872E-05-3.77352E-05-5.62307E-06-4.78492E-05 1.80164E-18 1.66844E-18
 -1      2147 9.99822E-05-2.25431E-05-3.29130E-05 1.46512E-05 2.27997E-18 3.49433E-18
 -1      2148 2.28716E-05-3.74704E-05 5.12664E-06 1.66014E-05 2.05236E-18-1.44334E-18
 -1      2149 1.43564E-05-3.52679E-05 7.75444E-06 6.60000E-06 1.08801E-18-1.93971E-19
 -1      2150 9.98342E-05-2.25434E-05-3.28435E-05-1.44772E-05-2.25155E-18 1.30528E-18
 -1      2151 9.52461E-05-2.86216E-05-2.85523E-05 9.06746E-08 9.81840E-19 3.31130E-19
 -1      2152 2.05937E-04-3.95123E-05-6.93045E-05-9.85465E-06 2.08370E-18 1.19008E-19
 -1      2153 1.97309E-04-4.25466E-05-6.61533E-05-1.77695E-05 1.41243E-18 4.82385E-19
 -1      2154 1.79356E-04-7.02648E-05-4.71277E-05-9.14308E-06-8.00446E-19-1.83806E-18
 -1      2155 1.80576E-04-6.21998E-05-5.06165E-05-2.63540E-05-1.74171E-18-6.75085E-19
 -1      2156 1.42092E-05-2.45562E-05 3.88238E-06 2.26994E-06 7.73023E-19-1.51619E-19
 -1      2157 1.55668E-04-6.85845E-05-3.73764E-05 6.30784E-06-5.03985E-20-4.01049E-18
 -1      2158 3.75587E-05-3.46728E-05-1.85435E-06 2.69447E-05 4.18434E-19 1.60936E-19
 -1      2159 9.72047E-05-2.43173E-05-3.13114E-05-1.00097E-05-2.14146E-18 7.15663E-19
 -1      2160 1.33866E-04-6.87769E-05-2.82479E-05 2.49547E-05 1.41878E-19-2.11462E-18
 -1      2161 9.63612E-05-2.30997E-05-3.14609E-05-1.03924E-05-2.28835E-18-3.37450E-19
 -1      2162 9.64095E-05-2.31408E-05-3.14817E-05 1.04411E-05 2.50272E-18 1.42783E-18
 -1      2163 9.73157E-05-2.43627E-05-3.13491E-05 1.00865E-05 2.27775E-18 2.90268E-18
 -1      2164 1.38318E-04-6.04304E-05-3.34467E-05-1.90715E-05-1.23032E-18 5.37707E-19
 -1      2165 1.71414E-04-7.21383E-05-4.31267E-05 5.36029E-06 6.59415E-19 1.59412E-18
 -1      2166 2.05747E-04-5.86494E-05-6.12140E-05 7.07326E-06 3.04911E-18 1.05625E-18
 -1      2167 1.81189E-04-4.10660E-05-5.91251E-05-2.49888E-05 1.11512E-18-8.78797E-20
 -1      2168 1.81560E-04-5.65256E-05-5.44324E-05-2.96918E-05-1.53228E-18-2.51569E-19
 -1      2169 1.94597E-04-6.06048E-05-5.60903E-05-1.96883E-05-2.85450E-19 9.97805E-19
 -1      2170 8.15019E-05-5.35864E-05-1.27795E-05 3.58528E-05-4.59092E-19 1.69777E-18
 -1      2171 9.52660E-05-2.86384E-05-2.85530E-05 8.38547E-08 3.40841E-19-5.87986E-19
 -1      2172 2.02130E-05-2.72442E-05 2.47817E-06-2.86793E-05 2.73655E-18 1.55854E-19
 -1      2173 9.25499E-05-5.01798E-05-1.81683E-05-5.00520E-05 2.71135E-18 2.31738E-18
 -1      2174 1.31825E-04-5.24832E-05-3.37406E-05-3.76877E-05 6.66615E-19 6.80167E-19
 -1      2175 1.56673E-04-4.30200E-05-4.78323E-05-2.24620E-05-1.75680E-18-2.47334E-19
 -1      2176 1.70870E-04-2.84052E-05-6.02991E-05-9.69333E-06-2.23257E-18-7.50895E-19
 -1      2177 1.58434E-04-2.13802E-05-5.90497E-05 3.56789E-06-2.48054E-18-9.79805E-19
 -1      2178 1.59160E-04-3.16572E-05-5.45063E-05-3.85962E-06-1.42132E-18-2.99638E-19
 -1      2179 1.66794E-04-1.24291E-05-6.53289E-05 4.20343E-07-2.38906E-18-1.07785E-18
 -1      2180 1.71110E-04-2.51828E-05-6.15466E-05 6.49395E-06-2.20144E-18-2.82189E-18
 -1      2181 1.40647E-04-5.15688E-05-3.77567E-05 3.24023E-05-7.60000E-19-1.62503E-18
 -1      2182 6.92048E-05-4.36274E-05-1.10155E-05 5.12039E-05 1.56405E-18-3.65691E-18
 -1      2183 1.38115E-05-2.26365E-05 3.37134E-06 1.29378E-05 7.69900E-19-2.71474E-18
 -1      2184 5.58478E-05-4.15260E-05-6.66389E-06-3.27022E-05-8.11034E-19-8.02564E-19
 -1      2185 9.53088E-05-2.86868E-05-2.85559E-05 8.85374E-08 9.14272E-19-2.31057E-18
 -1      2186 1.73685E-04-7.13054E-05-4.35786E-05 1.23517E-06-2.45428E-19-2.17942E-18
 -1      2187 1.70182E-04-1.22466E-05-6.65807E-05 1.02064E-06-2.58133E-18-1.30729E-18
 -1      2188 1.82476E-05-1.77649E-05 1.45914E-07-2.12668E-05 1.44927E-18-1.31375E-18
 -1      2189 2.89148E-05-2.21682E-05-2.68416E-06-3.65117E-05 2.09323E-18-2.35475E-19
 -1      2190 8.81248E-05-1.11701E-05-3.30198E-05-3.67911E-06-2.62754E-19-3.08659E-18
 -1      2191 8.83612E-05-1.14426E-05-3.30022E-05-4.81978E-06-5.84192E-19-3.15064E-18
 -1      2192 8.87165E-05-1.19297E-05-3.29539E-05-5.83560E-06-7.58368E-19-3.14234E-18
 -1      2193 8.91238E-05-1.24019E-05-3.29260E-05-7.01021E-06-1.06976E-18-3.04625E-18
 -1      2194 8.98811E-05-1.38103E-05-3.26006E-05-4.91684E-06-6.26821E-19-2.92516E-18
 -1      2195 8.77702E-05-1.07022E-05-3.30631E-05 5.92945E-07 6.24851E-19-3.06025E-18
 -1      2196 8.77682E-05-1.06999E-05-3.30632E-05-5.16767E-07 3.82281E-19-3.08055E-18
 -1      2197 8.79454E-05-1.09198E-05-3.30452E-05 2.73302E-06 1.02963E-18-2.92011E-18
 -1      2198 8.78336E-05-1.07906E-05-3.30542E-05 1.61503E-06 7.96468E-19-3.00279E-18
 -1      2199 8.90850E-05-1.27443E-05-3.27207E-05 1.02991E-06 6.69505E-19-2.87087E-18
 -1      2200 8.83725E-05-1.14562E-05-3.30013E-05 4.86052E-06 1.48343E-18-2.70227E-18
 -1      2201 8.81367E-05-1.11852E-05-3.30187E-05 3.73873E-06 1.21639E-18-2.85948E-18
 -1      2202 8.93445E-05-1.30920E-05-3.26816E-05 3.00085E-06 1.09898E-18-2.66710E-18
 -1      2203 8.91425E-05-1.24231E-05-3.29249E-05 7.04851E-06 1.95091E-18-2.19232E-18
 -1      2204 8.87299E-05-1.19458E-05-3.29528E-05 5.87706E-06 1.67935E-18-2.47596E-18
 -1      2205 8.98948E-05-1.38290E-05-3.25990E-05 4.95609E-06 1.56501E-18-2.36585E-18
 -1      2206 9.03944E-05-1.40035E-05-3.28022E-05 9.20290E-06 2.34584E-18-1.62653E-18
 -1      2207 8.97258E-05-1.32112E-05-3.28452E-05 8.02198E-06 2.05375E-18-1.91522E-18
 -1      2208 9.08217E-05-1.50729E-05-3.24572E-05 6.85756E-06 1.91028E-18-1.90479E-18
 -1      2209 9.23935E-05-1.65896E-05-3.25830E-05 1.10858E-05 2.60487E-18-8.48356E-19
 -1      2210 9.13185E-05-1.52295E-05-3.26678E-05 1.00240E-05 2.47805E-18-1.31438E-18
 -1      2211 9.22354E-05-1.70144E-05-3.22219E-05 8.51177E-06 2.27480E-18-1.29422E-18
 -1      2212 9.54808E-05-2.09459E-05-3.20095E-05 1.13179E-05 2.59933E-18 6.57324E-19
 -1      2213 9.36989E-05-1.85947E-05-3.22213E-05 1.10010E-05 2.60479E-18-2.70111E-19
 -1      2214 9.41957E-05-2.01549E-05-3.17065E-05 9.04068E-06 2.51562E-18-4.77114E-19
 -1      2215 9.57022E-05-2.39079E-05-3.07665E-05 7.66314E-06 2.34291E-18 7.25566E-19
 -1      2216 2.07453E-05-1.64542E-05-1.52990E-06 1.17377E-05 4.57504E-19-1.87618E-19
 -1      2217 1.55967E-05-1.47786E-05 4.57665E-08-5.86127E-06 7.01184E-19-5.37442E-19
 -1      2218 9.59210E-05-2.50928E-05-3.03078E-05-6.19327E-06-1.88514E-18-7.80351E-19
 -1      2219 9.52624E-05-2.58509E-05-2.97642E-05-4.29014E-06-1.64165E-18-7.06500E-19
 -1      2220 1.63575E-04-7.11983E-05-3.97258E-05 2.14196E-06-8.48727E-19-3.37394E-18
 -1      2221 9.51436E-05-2.65362E-05-2.93471E-05-2.94099E-06-1.53735E-18-7.16101E-19
 -1      2222 9.46786E-05-2.69084E-05-2.90435E-05-1.88322E-06-1.31765E-18-9.34339E-19
 -1      2223 9.53420E-05-2.53422E-05-2.99992E-05-4.30232E-06-1.72031E-18-1.08273E-18
 -1      2224 9.44770E-05-2.72372E-05-2.87797E-05-1.02650E-06-1.08321E-18-9.42491E-19
 -1      2225 9.42232E-05-2.74516E-05-2.86134E-05-4.27492E-07-9.97150E-19-1.11506E-18
 -1      2226 9.50391E-05-2.66849E-05-2.93026E-05-1.93274E-06-1.32951E-18-1.08498E-18
 -1      2227 9.40704E-05-2.76307E-05-2.84522E-05 8.50052E-08-9.01365E-19-1.12743E-18
 -1      2228 9.39753E-05-2.77748E-05-2.83687E-05 4.14039E-07-8.78030E-19-1.19915E-18
 -1      2229 9.47326E-05-2.74159E-05-2.88597E-05-4.49647E-07-9.88032E-19-1.21007E-18
 -1      2230 9.38879E-05-2.78833E-05-2.82754E-05 7.00006E-07-9.51766E-19-1.06693E-18
 -1      2231 9.38966E-05-2.79907E-05-2.82428E-05 8.64921E-07-9.38754E-19-1.17318E-18
 -1      2232 9.45310E-05-2.78467E-05-2.85877E-05 4.26700E-07-9.60152E-19-1.23756E-18
 -1      2233 9.38633E-05-2.80620E-05-2.81943E-05 1.00463E-06-9.56762E-19-1.16053E-18
 -1      2234 9.39334E-05-2.81461E-05-2.81924E-05 1.06890E-06-7.86186E-19-1.29559E-18
 -1      2235 9.44385E-05-2.81176E-05-2.84300E-05 9.03698E-07-1.02605E-18-1.20126E-18
 -1      2236 9.39380E-05-2.81951E-05-2.81729E-05 1.11622E-06-5.73405E-19-1.22753E-18
 -1      2237 9.40401E-05-2.82620E-05-2.81888E-05 1.11983E-06-6.03782E-19-1.22217E-18
 -1      2238 9.44296E-05-2.82952E-05-2.83482E-05 1.12313E-06-7.28451E-19-1.25724E-18
 -1      2239 9.40682E-05-2.82963E-05-2.81876E-05 1.11109E-06-7.26174E-19-1.10999E-18
 -1      2240 9.41830E-05-2.83493E-05-2.82130E-05 1.08010E-06-6.63075E-19-1.18926E-18
 -1      2241 9.44758E-05-2.84135E-05-2.83159E-05 1.18101E-06-5.37593E-19-1.16183E-18
 -1      2242 9.42239E-05-2.83730E-05-2.82227E-05 1.03995E-06-5.50961E-19-1.07835E-18
 -1      2243 9.43394E-05-2.84146E-05-2.82524E-05 9.91655E-07-3.14260E-19-1.06077E-18
 -1      2244 9.45540E-05-2.84914E-05-2.83150E-05 1.14261E-06-6.85017E-19-8.37136E-19
 -1      2245 9.43859E-05-2.84305E-05-2.82682E-05 9.36757E-07-6.41384E-20-8.84939E-19
 -1      2246 9.44953E-05-2.84626E-05-2.82988E-05 8.82631E-07 4.64986E-20-7.24904E-19
 -1      2247 9.46473E-05-2.85408E-05-2.83330E-05 1.05237E-06-3.26849E-20-8.64902E-19
 -1      2248 9.45428E-05-2.84727E-05-2.83177E-05 8.24141E-07-2.12548E-19-7.84747E-19
 -1      2249 9.46430E-05-2.84972E-05-2.83474E-05 7.71675E-07-1.87761E-19-8.21455E-19
 -1      2250 9.47450E-05-2.85699E-05-2.83618E-05 9.40341E-07-8.79451E-20-6.32450E-19
 -1      2251 9.46891E-05-2.85032E-05-2.83674E-05 7.16851E-07-2.67364E-19-1.20716E-18
 -1      2252 9.47793E-05-2.85217E-05-2.83953E-05 6.70747E-07-3.07184E-19-1.62252E-18
 -1      2253 9.48407E-05-2.85847E-05-2.83962E-05 8.26531E-07-4.26011E-19-9.21985E-19
 -1      2254 9.48229E-05-2.85250E-05-2.84153E-05 6.24062E-07-4.08460E-19-1.81982E-18
 -1      2255 9.49039E-05-2.85394E-05-2.84411E-05 5.86982E-07-6.18156E-19-2.05451E-18
 -1      2256 9.49314E-05-2.85899E-05-2.84326E-05 7.23766E-07-5.45580E-19-1.39323E-18
 -1      2257 9.49454E-05-2.85413E-05-2.84606E-05 5.50832E-07-6.81404E-19-1.88336E-18
 -1      2258 9.50190E-05-2.85534E-05-2.84844E-05 5.23840E-07-5.65429E-19-1.72563E-18
 -1      2259 9.50168E-05-2.85894E-05-2.84693E-05 6.39643E-07-4.90558E-19-1.14161E-18
 -1      2260 9.50592E-05-2.85554E-05-2.85030E-05 4.98931E-07-2.82775E-19-1.65973E-18
 -1      2261 9.51277E-05-2.85671E-05-2.85252E-05 4.81643E-07-2.92724E-19-1.34917E-18
 -1      2262 9.50982E-05-2.85873E-05-2.85051E-05 5.77703E-07-4.64437E-19-9.73129E-19
 -1      2263 9.51683E-05-2.85711E-05-2.85427E-05 4.67080E-07-4.48222E-19-1.24364E-18
 -1      2264 9.52338E-05-2.85845E-05-2.85634E-05 4.57563E-07-4.48549E-19-1.32547E-18
 -1      2265 9.51787E-05-2.85879E-05-2.85393E-05 5.37942E-07-1.73220E-19-7.99702E-19
 -1      2266 9.52771E-05-2.85929E-05-2.85797E-05 4.50653E-07-5.32489E-19-1.31411E-18
 -1      2267 9.53416E-05-2.86105E-05-2.85987E-05 4.45068E-07-4.85832E-19-1.41115E-18
 -1      2268 9.52621E-05-2.85963E-05-2.85715E-05 5.16720E-07-6.20200E-19-8.30877E-19
 -1      2269 9.53901E-05-2.86264E-05-2.86133E-05 4.40848E-07-3.87276E-19-1.59982E-18
 -1      2270 9.54546E-05-2.86513E-05-2.86303E-05 4.32868E-07-2.15751E-19-1.85951E-18
 -1      2271 9.53534E-05-2.86195E-05-2.86007E-05 5.06071E-07-3.67220E-19-8.85503E-19
 -1      2272 9.55114E-05-2.86787E-05-2.86425E-05 4.23392E-07 1.91210E-19-1.89124E-18
 -1      2273 9.55753E-05-2.87139E-05-2.86563E-05 4.03478E-07 5.24112E-19-2.29206E-18
 -1      2274 9.54588E-05-2.86662E-05-2.86257E-05 4.92480E-07 7.11408E-20-1.43450E-18
 -1      2275 9.56437E-05-2.87576E-05-2.86648E-05 3.76966E-07 7.68860E-19-2.30029E-18
 -1      2276 9.57040E-05-2.88062E-05-2.86735E-05 3.31672E-07 1.12706E-18-2.23018E-18
 -1      2277 9.55845E-05-2.87473E-05-2.86446E-05 4.55257E-07 6.31815E-19-1.23705E-18
 -1      2278 9.57868E-05-2.88715E-05-2.86767E-05 2.71748E-07 6.35659E-19-2.38041E-18
 -1      2279 9.58370E-05-2.89356E-05-2.86775E-05 1.83414E-07 7.46705E-20-2.42507E-18
 -1      2280 9.57370E-05-2.88753E-05-2.86548E-05 3.64854E-07 5.87858E-19-2.17398E-18
 -1      2281 9.59354E-05-2.90267E-05-2.86732E-05 6.88618E-08-1.93363E-19-2.49586E-18
 -1      2282 9.59643E-05-2.91056E-05-2.86623E-05-8.37319E-08-1.30464E-19-2.83167E-18
 -1      2283 9.59205E-05-2.90619E-05-2.86528E-05 1.81789E-07-2.96790E-19-2.42937E-18
 -1      2284 9.60759E-05-2.92232E-05-2.86486E-05-2.77963E-07 6.11824E-21-3.02753E-18
 -1      2285 9.60660E-05-2.93110E-05-2.86215E-05-5.17146E-07-1.60867E-19-2.75467E-18
 -1      2286 9.61341E-05-2.93137E-05-2.86354E-05-1.42633E-07-2.63038E-19-3.34004E-18
 -1      2287 9.61813E-05-2.94490E-05-2.85968E-05-8.16626E-07-3.69004E-19-2.03226E-18
 -1      2288 9.61078E-05-2.95307E-05-2.85490E-05-1.16059E-06-4.59933E-19-2.11938E-18
 -1      2289 9.63663E-05-2.96250E-05-2.85999E-05-6.61947E-07 1.01843E-19-2.09388E-18
 -1      2290 9.62061E-05-2.96707E-05-2.85128E-05-1.58448E-06 2.42280E-19-1.74786E-18
 -1      2291 9.60370E-05-2.97191E-05-2.84408E-05-2.03844E-06 1.10554E-18-9.00311E-19
 -1      2292 9.65870E-05-2.99668E-05-2.85459E-05-1.42405E-06 5.61813E-20-4.49550E-19
 -1      2293 9.60821E-05-2.98259E-05-2.83947E-05-2.58797E-06 1.20460E-18-9.96283E-19
 -1      2294 9.57812E-05-2.97997E-05-2.82974E-05-3.13203E-06 1.13444E-18-6.60073E-19
 -1      2295 9.67394E-05-3.02749E-05-2.84764E-05-2.45209E-06 1.36600E-18-1.69168E-19
 -1      2296 9.57208E-05-2.98198E-05-2.82453E-05-3.77474E-06 1.16449E-18-9.09033E-20
 -1      2297 9.52545E-05-2.96676E-05-2.81253E-05-4.35093E-06 1.02114E-18-5.25994E-20
 -1      2298 9.67337E-05-3.04426E-05-2.83992E-05-3.71577E-06 1.39742E-18-2.62772E-19
 -1      2299 9.50278E-05-2.95370E-05-2.80737E-05-5.00436E-06 6.15849E-19-4.05315E-19
 -1      2300 9.43795E-05-2.92110E-05-2.79380E-05-5.50895E-06 5.11370E-19-8.60973E-20
 -1      2301 9.64536E-05-3.03271E-05-2.83265E-05-5.09685E-06 6.13033E-19 5.81736E-20
 -1      2302 9.39383E-05-2.88763E-05-2.78942E-05-6.03286E-06-1.66995E-19 3.88456E-19
 -1      2303 9.31269E-05-2.83579E-05-2.77542E-05-6.32384E-06-5.70302E-19 6.95759E-19
 -1      2304 9.57841E-05-2.97835E-05-2.82731E-05-6.36138E-06 3.71201E-20-5.39830E-19
 -1      2305 9.24716E-05-2.78118E-05-2.77240E-05-6.53572E-06-9.09640E-19 5.42305E-19
 -1      2306 9.15699E-05-2.71419E-05-2.75936E-05-6.46521E-06-1.31645E-18 8.05881E-19
 -1      2307 9.46693E-05-2.87328E-05-2.82507E-05-7.16460E-06-1.02348E-18-1.10947E-19
 -1      2308 9.07851E-05-2.64588E-05-2.75786E-05-6.19159E-06-1.40018E-18 1.43621E-19
 -1      2309 8.99243E-05-2.57547E-05-2.74716E-05-5.66295E-06-1.35761E-18-1.57781E-19
 -1      2310 9.31880E-05-2.72483E-05-2.82623E-05-7.11984E-06-1.74363E-18-3.65017E-19
 -1      2311 8.91848E-05-2.50966E-05-2.74677E-05-4.82090E-06-6.70645E-19 2.83570E-19
 -1      2312 8.85309E-05-2.45327E-05-2.73951E-05-3.84968E-06-4.99601E-19 1.04184E-19
 -1      2313 9.16019E-05-2.56086E-05-2.82977E-05-5.94361E-06-8.47254E-19 9.22209E-20
 -1      2314 8.80520E-05-2.41016E-05-2.73949E-05-2.52094E-06-1.10434E-18 1.49759E-19
 -1      2315 8.77545E-05-2.38464E-05-2.73633E-05-1.26229E-06-1.46204E-18 6.49905E-20
 -1      2316 9.03162E-05-2.42557E-05-2.83354E-05-3.63067E-06-7.53040E-19-1.90243E-19
 -1      2317 8.76961E-05-2.37933E-05-2.73607E-05 2.96035E-07-1.62417E-18-1.35559E-19
 -1      2318 8.78288E-05-2.39306E-05-2.73726E-05 1.58406E-06-1.19030E-18 8.25506E-20
 -1      2319 8.97296E-05-2.36284E-05-2.83526E-05-5.51165E-07-1.44692E-18-2.49576E-19
 -1      2320 8.82083E-05-2.42738E-05-2.73667E-05 3.02138E-06-4.41489E-19 2.27427E-19
 -1      2321 8.87356E-05-2.47580E-05-2.74207E-05 4.07078E-06-1.24092E-19 1.33056E-19
 -1      2322 9.00406E-05-2.39530E-05-2.83373E-05 2.62858E-06-7.59079E-19-5.36550E-20
 -1      2323 8.94188E-05-2.53732E-05-2.74166E-05 5.08318E-06-3.57291E-19-4.63203E-19
 -1      2324 9.02106E-05-2.60529E-05-2.75069E-05 5.71363E-06-1.02631E-18-7.80154E-19
 -1      2325 9.11360E-05-2.51150E-05-2.82953E-05 5.20072E-06-5.57589E-19-5.57674E-19
 -1      2326 9.09848E-05-2.67417E-05-2.75121E-05 6.15549E-06-2.42313E-19-5.36385E-19
 -1      2327 9.18708E-05-2.74338E-05-2.76288E-05 6.32357E-06 3.09252E-19 2.95874E-20
 -1      2328 9.26541E-05-2.67222E-05-2.82468E-05 6.69432E-06-2.68346E-19 9.55422E-19
 -1      2329 9.25456E-05-2.80179E-05-2.76486E-05 6.23080E-06-3.79709E-20 2.82787E-19
 -1      2330 9.33748E-05-2.85814E-05-2.77787E-05 6.01352E-06 4.69202E-20 1.16695E-18
 -1      2331 9.41686E-05-2.83020E-05-2.82150E-05 7.01443E-06 1.98337E-19 7.32228E-19
 -1      2332 9.38443E-05-2.89630E-05-2.78132E-05 5.54396E-06-2.24010E-19 1.02740E-18
 -1      2333 9.45214E-05-2.93333E-05-2.79429E-05 5.08283E-06 1.47135E-19 1.21892E-18
 -1      2334 9.53651E-05-2.95031E-05-2.82151E-05 6.38682E-06-3.26534E-19 2.03599E-19
 -1      2335 9.47683E-05-2.95002E-05-2.79877E-05 4.43009E-06 5.87269E-19 1.50185E-18
 -1      2336 9.52580E-05-2.96806E-05-2.81050E-05 3.87267E-06 9.56985E-19 1.14239E-18
 -1      2337 9.61131E-05-3.01833E-05-2.82488E-05 5.19244E-06 6.22538E-19 8.70334E-19
 -1      2338 9.53223E-05-2.96763E-05-2.81533E-05 3.20120E-06 1.09419E-18 1.15585E-19
 -1      2339 9.56344E-05-2.97095E-05-2.82506E-05 2.66379E-06 1.96824E-18-2.79351E-19
 -1      2340 9.64369E-05-3.03809E-05-2.83076E-05 3.80665E-06 4.37518E-19 5.09728E-19
 -1      2341 9.55768E-05-2.95972E-05-2.82960E-05 2.08136E-06 1.08670E-18-6.60393E-19
 -1      2342 9.57454E-05-2.95374E-05-2.83700E-05 1.63577E-06 1.11859E-18-6.67089E-19
 -1      2343 9.64430E-05-3.02305E-05-2.83780E-05 2.50797E-06 8.36869E-19-1.01163E-18
 -1      2344 9.56220E-05-2.93751E-05-2.84078E-05 1.19504E-06 1.68579E-18-1.51703E-18
 -1      2345 9.56902E-05-2.92721E-05-2.84595E-05 8.72542E-07 5.51073E-19-1.88465E-18
 -1      2346 9.62539E-05-2.98843E-05-2.84471E-05 1.45555E-06 9.76323E-19-2.89347E-18
 -1      2347 9.55454E-05-2.91028E-05-2.84873E-05 5.84358E-07 2.29545E-19-6.00352E-19
 -1      2348 9.55552E-05-2.89934E-05-2.85193E-05 3.88834E-07 1.67531E-18-6.40828E-19
 -1      2349 9.59714E-05-2.94713E-05-2.85050E-05 7.09626E-07 7.02012E-19-2.50194E-18
 -1      2350 9.54194E-05-2.88601E-05-2.85340E-05 2.37870E-07 2.33775E-18-1.33843E-18
 -1      2351 9.53978E-05-2.87737E-05-2.85504E-05 1.37273E-07 1.92410E-18-1.38963E-18
 -1      2352 9.54454E-05-2.88056E-05-2.85627E-05 8.38974E-08 1.18040E-18-5.79405E-18
 -1      2353 9.56993E-05-2.91107E-05-2.85435E-05 2.81308E-07 1.72689E-18-2.71191E-18
 -1      2354 9.38326E-05-2.21171E-05-3.08058E-05 1.88160E-05-2.05741E-18 9.29586E-20
 -1      2355 9.48587E-05-2.22311E-05-3.10154E-05 2.16004E-05-1.56736E-18 6.66185E-19
 -1      2356 9.47000E-05-2.68663E-05-2.90708E-05 1.97264E-06 1.31905E-18 1.50266E-19
 -1      2357 9.51644E-05-2.64810E-05-2.93846E-05 3.07288E-06 1.65680E-18 4.09172E-19
 -1      2358 9.39813E-05-2.77609E-05-2.83776E-05-3.82219E-07 4.48220E-19 2.00897E-19
 -1      2359 9.40861E-05-2.76152E-05-2.84644E-05-4.05007E-08 7.33215E-19 2.07939E-19
 -1      2360 9.38958E-05-2.79807E-05-2.82468E-05-8.46938E-07 5.52812E-19-2.51458E-19
 -1      2361 9.38941E-05-2.78736E-05-2.82815E-05-6.75629E-07 6.33655E-19-1.95307E-20
 -1      2362 9.45378E-05-2.78359E-05-2.85970E-05-3.98862E-07 7.79792E-19-4.93111E-19
 -1      2363 9.39244E-05-2.81322E-05-2.81946E-05-1.05343E-06 7.05328E-19-5.17667E-19
 -1      2364 9.38625E-05-2.80510E-05-2.81982E-05-9.87130E-07 5.00178E-19-4.08290E-19
 -1      2365 9.44423E-05-2.81072E-05-2.84372E-05-8.82311E-07 8.19732E-19-9.85944E-19
 -1      2366 9.40266E-05-2.82530E-05-2.81872E-05-1.11586E-06 5.14074E-19-3.90971E-19
 -1      2367 9.39284E-05-2.81851E-05-2.81727E-05-1.10870E-06 6.00680E-19-4.96604E-19
 -1      2368 9.44280E-05-2.82839E-05-2.83527E-05-1.10994E-06 6.63000E-19-1.12561E-18
 -1      2369 9.41673E-05-2.83433E-05-2.82092E-05-1.08175E-06 4.07928E-19-3.50540E-19
 -1      2370 9.40544E-05-2.82890E-05-2.81845E-05-1.11164E-06 5.12826E-19-1.73450E-19
 -1      2371 9.44706E-05-2.84068E-05-2.83165E-05-1.17860E-06 4.52212E-19-7.28339E-19
 -1      2372 9.43236E-05-2.84110E-05-2.82474E-05-9.95342E-07 4.85238E-19-5.09386E-19
 -1      2373 9.42088E-05-2.83683E-05-2.82181E-05-1.04418E-06 5.17589E-19-5.09948E-19
 -1      2374 9.45472E-05-2.84879E-05-2.83132E-05-1.14565E-06 5.91630E-19-7.38449E-19
 -1      2375 9.44808E-05-2.84607E-05-2.82936E-05-8.86220E-07 5.64155E-19-8.05545E-19
 -1      2376 9.43713E-05-2.84279E-05-2.82630E-05-9.41776E-07 4.79338E-19-6.56849E-19
 -1      2377 9.46408E-05-2.85398E-05-2.83302E-05-1.05744E-06 6.01657E-19-8.75671E-19
 -1      2378 9.46310E-05-2.84961E-05-2.83428E-05-7.74483E-07 5.38949E-19-7.18028E-19
 -1      2379 9.45300E-05-2.84714E-05-2.83127E-05-8.28482E-07 6.38745E-19-6.70329E-19
 -1      2380 9.47401E-05-2.85705E-05-2.83590E-05-9.45628E-07 6.10610E-19-6.46799E-19
 -1      2381 9.47709E-05-2.85201E-05-2.83924E-05-6.73994E-07 3.26474E-19-4.22831E-19
 -1      2382 9.46792E-05-2.85020E-05-2.83636E-05-7.20701E-07 5.92200E-19-6.40143E-19
 -1      2383 9.48384E-05-2.85854E-05-2.83945E-05-8.31961E-07 5.54913E-19-4.24122E-19
 -1      2384 9.49009E-05-2.85346E-05-2.84417E-05-5.94816E-07-5.89286E-20-3.37496E-19
 -1      2385 9.48171E-05-2.85220E-05-2.84141E-05-6.29957E-07 1.14665E-19-4.34845E-19
 -1      2386 9.49327E-05-2.85881E-05-2.84336E-05-7.31640E-07 2.88378E-19-1.59722E-19
 -1      2387 9.50238E-05-2.85408E-05-2.84913E-05-5.45209E-07-1.21480E-19-4.30349E-19
 -1      2388 9.49451E-05-2.85329E-05-2.84641E-05-5.65056E-07 8.38855E-20-1.82576E-19
 -1      2389 9.50221E-05-2.85805E-05-2.84751E-05-6.55936E-07-2.64840E-20-1.66383E-19
 -1      2390 9.51441E-05-2.85391E-05-2.85431E-05-5.33519E-07 1.41705E-19-4.30160E-19
 -1      2391 9.50667E-05-2.85354E-05-2.85150E-05-5.33936E-07-8.23485E-20-2.99846E-19
 -1      2392 9.51076E-05-2.85631E-05-2.85193E-05-6.14349E-07-9.29743E-20-2.96581E-20
 -1      2393 9.52618E-05-2.85289E-05-2.85970E-05-5.66613E-07-1.59689E-19-4.76625E-19
 -1      2394 9.51842E-05-2.85294E-05-2.85678E-05-5.44707E-07-8.12743E-20-4.67528E-19
 -1      2395 9.51885E-05-2.85346E-05-2.85661E-05-6.15632E-07-3.01968E-20-1.93807E-19
 -1      2396 9.53957E-05-2.85058E-05-2.86629E-05-6.61561E-07 1.23756E-19-4.69680E-20
 -1      2397 9.53044E-05-2.85119E-05-2.86268E-05-6.06822E-07 1.12446E-19-2.40118E-19
 -1      2398 9.52685E-05-2.84916E-05-2.86191E-05-6.70093E-07-1.96588E-19 1.09744E-19
 -1      2399 9.55468E-05-2.84636E-05-2.87439E-05-8.38825E-07 6.62783E-20-3.84557E-19
 -1      2400 9.54378E-05-2.84777E-05-2.86988E-05-7.40548E-07 1.19972E-19 8.65434E-20
 -1      2401 9.53495E-05-2.84237E-05-2.86830E-05-7.96163E-07 1.24475E-19 1.11559E-19
 -1      2402 9.57217E-05-2.83903E-05-2.88475E-05-1.12967E-06-2.65887E-19-3.43937E-19
 -1      2403 9.55858E-05-2.84174E-05-2.87886E-05-9.70195E-07 1.07996E-19-6.14394E-19
 -1      2404 9.54264E-05-2.83179E-05-2.87611E-05-1.01687E-06 1.15510E-19-5.08636E-19
 -1      2405 9.59237E-05-2.82661E-05-2.89834E-05-1.58102E-06 2.83918E-19 4.72292E-19
 -1      2406 9.57505E-05-2.83142E-05-2.89044E-05-1.33363E-06-1.01436E-19-1.27598E-19
 -1      2407 9.54895E-05-2.81512E-05-2.88589E-05-1.36639E-06-2.66559E-19-3.63025E-19
 -1      2408 9.61490E-05-2.80583E-05-2.91634E-05-2.26207E-06 4.11184E-19 8.23530E-19
 -1      2409 9.59272E-05-2.81410E-05-2.90562E-05-1.88702E-06 6.87004E-19 7.81354E-19
 -1      2410 9.55171E-05-2.78869E-05-2.89824E-05-1.89410E-06 1.92851E-19 3.53678E-20
 -1      2411 9.63781E-05-2.77163E-05-2.94006E-05-3.27211E-06 8.54150E-19 4.18185E-19
 -1      2412 9.60979E-05-2.78545E-05-2.92555E-05-2.71192E-06 5.47867E-19 6.00647E-19
 -1      2413 9.54664E-05-2.74681E-05-2.91369E-05-2.66963E-06 8.82693E-19 2.37583E-19
 -1      2414 9.65631E-05-2.71659E-05-2.97061E-05-4.74797E-06 1.05127E-18-1.83005E-19
 -1      2415 9.62198E-05-2.73893E-05-2.95128E-05-3.92316E-06 1.27665E-18 3.50380E-19
 -1      2416 9.52588E-05-2.68104E-05-2.93237E-05-3.78759E-06 1.12335E-18-1.89291E-19
 -1      2417 9.66076E-05-2.63109E-05-3.00805E-05-6.86603E-06 3.03211E-19-7.70832E-19
 -1      2418 9.62084E-05-2.66540E-05-2.98322E-05-5.67500E-06 7.07301E-19-3.20068E-19
 -1      2419 9.47584E-05-2.57964E-05-2.95330E-05-5.36964E-06 1.06893E-18 3.83743E-19
 -1      2420 9.63384E-05-2.50553E-05-3.04932E-05-9.82825E-06-2.29361E-20-1.03533E-18
 -1      2421 9.59177E-05-2.55410E-05-3.01982E-05-8.15860E-06-6.81034E-20-1.17570E-18
 -1      2422 9.37471E-05-2.42862E-05-2.97292E-05-7.55996E-06 4.58880E-19-3.06894E-19
 -1      2423 9.56252E-05-2.35102E-05-3.08410E-05-1.35783E-05-1.33408E-19-7.34762E-19
 -1      2424 9.51877E-05-2.40479E-05-3.05461E-05-1.14965E-05 1.90854E-19-8.73658E-19
 -1      2425 9.19687E-05-2.22140E-05-2.98227E-05-1.04148E-05-1.75996E-19-6.98546E-19
 -1      2426 9.42853E-05-2.18858E-05-3.09370E-05-1.85557E-05-5.02271E-19-4.21742E-19
 -1      2427 9.37495E-05-2.22398E-05-3.07205E-05-1.58735E-05-4.75535E-19-4.63168E-19
 -1      2428 8.90382E-05-1.96296E-05-2.96393E-05-1.41482E-05-4.32419E-19-3.70127E-19
 -1      2429 9.27167E-05-2.16393E-05-3.03131E-05-2.43142E-05-7.04674E-19-6.24409E-19
 -1      2430 9.16944E-05-2.08878E-05-3.04015E-05-2.15150E-05-6.01739E-19-3.90892E-19
 -1      2431 8.45870E-05-1.70122E-05-2.87879E-05-1.89999E-05-7.40573E-19-9.34329E-19
 -1      2432 9.30467E-05-2.60995E-05-2.83300E-05-2.96870E-05-2.85794E-19-7.41921E-19
 -1      2433 9.02067E-05-2.23487E-05-2.89909E-05-2.77973E-05-1.43440E-19-4.05967E-19
 -1      2434 7.94342E-05-1.65269E-05-2.65932E-05-2.52895E-05-7.21037E-19-9.68873E-19
 -1      2435 9.87620E-05-3.88050E-05-2.52133E-05-3.34067E-05-1.13757E-18-5.25796E-19
 -1      2436 9.19372E-05-3.04209E-05-2.61591E-05-3.36083E-05-9.87535E-19-6.34534E-19
 -1      2437 7.44463E-05-2.08508E-05-2.23687E-05-3.23285E-05-1.01565E-18-3.97364E-19
 -1      2438 1.50494E-04-7.43255E-06-6.20956E-05-2.11211E-06-2.25607E-18-1.06352E-18
 -1      2439 1.55461E-04-1.18771E-05-6.18870E-05-3.18256E-06-2.03817E-18-1.02142E-18
 -1      2440 9.24408E-05-2.18167E-05-3.02831E-05 2.48429E-05-1.46490E-18 1.27396E-18
 -1      2441 9.44378E-05-2.37580E-05-3.00945E-05 2.73890E-05-6.87817E-19 2.81136E-19
 -1      2442 8.36514E-05-1.71822E-05-2.83084E-05 2.24397E-05-1.16016E-18 9.31690E-19
 -1      2443 1.04773E-04-4.06424E-05-2.68080E-05 3.38236E-05-1.27574E-18-5.28866E-20
 -1      2444 1.15459E-04-5.27546E-05-2.64736E-05 3.09242E-05-2.92862E-19-8.93937E-19
 -1      2445 9.50821E-05-2.36818E-05-3.06608E-05 1.38108E-05-1.21450E-18-1.56550E-18
 -1      2446 9.58198E-05-2.32725E-05-3.10107E-05 1.62255E-05-1.51551E-18-8.86663E-19
 -1      2447 8.81196E-05-1.89999E-05-2.94993E-05 1.70255E-05-1.40579E-18-1.58711E-18
 -1      2448 9.57349E-05-2.51844E-05-3.02767E-05 9.94599E-06-1.11530E-18-1.16096E-18
 -1      2449 9.63849E-05-2.47652E-05-3.06261E-05 1.18203E-05-1.92793E-18-2.03064E-18
 -1      2450 9.13375E-05-2.15569E-05-2.98283E-05 1.26985E-05-8.68444E-19-2.21660E-18
 -1      2451 9.58950E-05-2.62558E-05-2.98682E-05 7.07128E-06-4.91567E-19-1.51995E-18
 -1      2452 9.64783E-05-2.59771E-05-3.01592E-05 8.45726E-06-4.89906E-19-1.34625E-18
 -1      2453 9.33181E-05-2.37303E-05-2.97770E-05 9.32780E-06-1.49287E-18-3.75438E-18
 -1      2454 9.57253E-05-2.68749E-05-2.95253E-05 4.93672E-06-1.34863E-18-1.90024E-18
 -1      2455 9.62555E-05-2.67575E-05-2.97443E-05 5.95890E-06-3.31676E-19-1.37467E-18
 -1      2456 9.43896E-05-2.52480E-05-2.96010E-05 6.75429E-06-1.16795E-18-2.48216E-18
 -1      2457 9.52837E-05-2.71348E-05-2.91944E-05 2.57484E-06 6.42779E-19-1.51075E-18
 -1      2458 9.54584E-05-2.72063E-05-2.92457E-05 2.96247E-06-6.03139E-19-1.54434E-18
 -1      2459 9.49198E-05-2.66166E-05-2.92650E-05 2.91584E-06 1.99839E-20-1.41894E-18
 -1      2460 9.27415E-05-2.42978E-05-2.93474E-05 9.77849E-07-8.64740E-19-5.67796E-18
 -1      2461 9.28918E-05-2.44653E-05-2.93351E-05 1.62610E-06-8.43681E-19-5.82179E-18
 -1      2462 9.28805E-05-2.44928E-05-2.93123E-05-5.33909E-07 8.55483E-19-6.29809E-18
 -1      2463 9.27696E-05-2.43926E-05-2.93253E-05 1.23463E-07-3.06475E-19-6.46082E-18
 -1      2464 9.22904E-05-2.41534E-05-2.91778E-05 5.08424E-07-3.36569E-19-6.26628E-18
 -1      2465 9.31693E-05-2.47321E-05-2.93555E-05 2.37098E-06-1.28013E-18-4.81737E-18
 -1      2466 9.36196E-05-2.51537E-05-2.93259E-05 2.85236E-06-2.07664E-18-2.50410E-18
 -1      2467 9.26061E-05-2.43421E-05-2.92381E-05 2.26601E-06-2.07548E-18-5.54944E-18
 -1      2468 9.34401E-05-2.51895E-05-2.92450E-05-1.73497E-06 1.62191E-18 4.51612E-19
 -1      2469 9.31527E-05-2.48773E-05-2.92852E-05-1.24374E-06 1.52437E-18-3.69451E-18
 -1      2470 9.26485E-05-2.46585E-05-2.91245E-05-1.18416E-06 2.13612E-18-4.25190E-18
 -1      2471 9.41891E-05-2.61524E-05-2.91481E-05-2.40192E-06 1.29783E-18 2.12981E-18
 -1      2472 9.38326E-05-2.57243E-05-2.92098E-05-2.15957E-06 1.19440E-18 7.82058E-19
 -1      2473 9.34518E-05-2.56141E-05-2.90693E-05-2.39264E-06 8.82396E-19-1.71423E-19
 -1      2474 9.49099E-05-2.71416E-05-2.90318E-05-2.50277E-06-3.02051E-20 3.72602E-18
 -1      2475 9.45810E-05-2.66981E-05-2.91051E-05-2.50697E-06 2.83482E-19 3.48736E-18
 -1      2476 9.43997E-05-2.67320E-05-2.90046E-05-2.94047E-06 1.29104E-18 2.31986E-18
 -1      2477 9.54526E-05-2.79731E-05-2.89098E-05-2.15461E-06-7.60559E-19 8.96937E-19
 -1      2478 9.52141E-05-2.75933E-05-2.89837E-05-2.34310E-06-5.19791E-19 2.60293E-18
 -1      2479 9.52374E-05-2.77586E-05-2.89287E-05-2.85788E-06-4.21152E-19 2.18077E-18
 -1      2480 9.57506E-05-2.85423E-05-2.87969E-05-1.56084E-06-1.06491E-18 1.29985E-18
 -1      2481 9.56272E-05-2.82732E-05-2.88615E-05-1.83907E-06-1.33800E-18 7.14184E-19
 -1      2482 9.58067E-05-2.85265E-05-2.88452E-05-2.32778E-06-1.09243E-18 6.41690E-19
 -1      2483 9.58208E-05-2.88489E-05-2.86992E-05-8.99727E-07-2.19997E-19 1.40278E-18
 -1      2484 9.58007E-05-2.86930E-05-2.87511E-05-1.19076E-06-1.11579E-18 1.60436E-18
 -1      2485 9.60643E-05-2.89820E-05-2.87595E-05-1.57909E-06-7.87076E-19 1.76892E-18
 -1      2486 9.57128E-05-2.89326E-05-2.86239E-05-3.37051E-07-5.53438E-19-2.21682E-18
 -1      2487 9.57704E-05-2.88695E-05-2.86602E-05-5.70670E-07-6.67738E-19 1.46279E-19
 -1      2488 9.60458E-05-2.91473E-05-2.86787E-05-8.25305E-07-7.28060E-19 1.72419E-19
 -1      2489 9.55450E-05-2.88315E-05-2.85837E-05-3.89508E-08 7.13712E-19-4.89929E-18
 -1      2490 9.50825E-05-2.00235E-05-3.22166E-05-1.17460E-05-2.26122E-18-1.12084E-18
 -1      2491 9.54839E-05-2.33861E-05-3.09298E-05-7.99088E-06-2.12572E-18-9.72163E-19
 -1      2492 9.50737E-05-2.25306E-05-3.10560E-05-7.67260E-06-1.97728E-18-1.34163E-18
 -1      2493 9.32254E-05-1.75752E-05-3.24188E-05-1.13765E-05-2.21877E-18-1.72775E-18
 -1      2494 8.67806E-05-4.80664E-05-1.62302E-05-4.96018E-05 2.67472E-18 2.71215E-18
 -1      2495 1.09193E-04-5.45299E-05-2.35283E-05-4.71328E-05 2.52861E-18 2.30875E-18
 -1      2496 1.49479E-04-6.85164E-05-3.51090E-05-1.75893E-05 9.79170E-19-6.86097E-20
 -1      2497 9.28935E-05-2.56965E-05-2.85433E-05 3.08550E-05-1.76871E-19 6.77229E-19
 -1      2498 9.73295E-05-3.16992E-05-2.78076E-05 3.19450E-05-5.13196E-19 6.79479E-19
 -1      2499 7.94388E-05-1.89361E-05-2.56002E-05 2.89660E-05-1.20678E-18 1.21314E-18
 -1      2500 9.52559E-05-2.59059E-05-2.97290E-05 4.18684E-06 2.00058E-18 4.00170E-19
 -1      2501 9.59117E-05-2.51868E-05-3.02720E-05 6.07439E-06 2.14020E-18 6.26225E-19
 -1      2502 9.52704E-05-2.33397E-05-3.08101E-05 7.06976E-06 2.30080E-18 1.05745E-20
 -1      2503 9.53271E-05-2.54180E-05-2.99643E-05 4.19739E-06 1.90431E-18-4.01522E-20
 -1      2504 9.42381E-05-2.74298E-05-2.86298E-05 4.82480E-07 8.60236E-19 1.02857E-19
 -1      2505 9.45051E-05-2.72116E-05-2.88013E-05 1.10352E-06 9.86022E-19 1.79013E-19
 -1      2506 9.47446E-05-2.73974E-05-2.88761E-05 4.99537E-07 8.25792E-19-6.78429E-20
 -1      2507 8.78270E-05-1.07820E-05-3.30549E-05-1.53867E-06 2.62628E-19-3.03689E-18
 -1      2508 8.79344E-05-1.09060E-05-3.30463E-05-2.65629E-06-7.69257E-21-3.05669E-18
 -1      2509 8.93332E-05-1.30773E-05-3.26831E-05-2.94689E-06-1.18031E-19-2.86688E-18
 -1      2510 8.90802E-05-1.27380E-05-3.27213E-05-9.59554E-07 2.94115E-19-2.93148E-18
 -1      2511 5.37775E-05-3.29601E-05-8.72238E-06 3.52337E-05-5.39136E-19 1.95368E-18
 -1      2512 3.58377E-05-2.33911E-05-4.86060E-06 2.56874E-05-1.58819E-20-1.08251E-18
 -1      2513 9.87543E-05-5.23623E-05-2.00127E-05 3.70529E-05-9.99499E-19 1.72583E-19
 -1      2514 7.41549E-05-4.11775E-05-1.37427E-05 3.66869E-05-1.30845E-18 2.08561E-18
 -1      2515 1.02162E-04-5.59289E-05-1.98692E-05-3.38835E-05-1.70677E-18 5.44166E-19
 -1      2516 1.24822E-04-6.33792E-05-2.63179E-05-3.04597E-05-9.19878E-19 1.02078E-18
 -1      2517 5.04414E-05-3.16331E-05-7.90103E-06-3.24498E-05-2.01890E-18 2.65121E-19
 -1      2518 7.64057E-05-4.44322E-05-1.35495E-05-3.87706E-05-2.34501E-18 8.34327E-20
 -1      2519 2.27418E-05-1.44650E-05-3.11561E-06-1.14583E-05-2.33569E-19-5.60736E-19
 -1      2520 3.22983E-05-1.96168E-05-4.98790E-06-2.40206E-05-8.66303E-19 3.15096E-19
 -1      2521 1.94868E-05-1.66218E-05-8.44726E-07 2.36242E-05 7.04943E-19-2.69356E-18
 -1      2522 1.67038E-05-1.26264E-05-1.26639E-06 6.40169E-06 6.52440E-19-1.96596E-18
 -1      2523 4.02198E-05-2.83783E-05-4.97458E-06 4.49608E-05 1.19368E-18-2.11991E-18
 -1      2524 2.80758E-05-2.30134E-05-1.85180E-06 3.50102E-05 1.01157E-18-1.82663E-18
 -1      2525 8.44443E-05-4.56450E-05-1.65038E-05 5.13534E-05 1.84907E-18-3.16981E-18
 -1      2526 6.00713E-05-3.75645E-05-9.37741E-06 4.92245E-05 1.83383E-18-3.32460E-18
 -1      2527 1.22431E-04-5.67471E-05-2.81442E-05 4.10843E-05 5.32148E-19-1.06271E-18
 -1      2528 1.08162E-04-5.42462E-05-2.29045E-05 4.52495E-05 9.82558E-19-1.38781E-18
 -1      2529 1.47192E-04-5.27724E-05-4.07340E-05 2.19351E-05-4.89744E-19-1.47341E-18
 -1      2530 1.34417E-04-5.63465E-05-3.35514E-05 3.02859E-05 4.00117E-19-9.77264E-19
 -1      2531 1.56144E-04-3.92097E-05-5.05571E-05 4.83720E-06-1.55092E-18-8.74562E-19
 -1      2532 1.51770E-04-4.58404E-05-4.56796E-05 9.60285E-06-1.01954E-18-9.13949E-19
 -1      2533 1.58246E-04-1.93280E-05-6.00180E-05-2.75940E-06-2.10572E-18-1.56383E-18
 -1      2534 1.55879E-04-2.78384E-05-5.52790E-05-1.98887E-07-1.92552E-18-1.40798E-18
 -1      2535 1.49590E-04-3.36118E-05-4.99194E-05-4.92945E-06-1.16022E-18 2.03500E-19
 -1      2536 1.44807E-04-1.39385E-05-5.62033E-05-7.43212E-06-2.07184E-18 2.01064E-19
 -1      2537 1.48573E-04-1.16640E-05-5.94295E-05 4.78217E-06-2.66667E-18-1.37293E-18
 -1      2538 1.47818E-04-7.33864E-06-6.08671E-05 2.51067E-06-2.28064E-18-1.34932E-18
 -1      2539 1.48768E-04-4.94364E-05-4.27730E-05-1.78521E-05-1.42844E-18-5.49513E-19
 -1      2540 1.55592E-04-4.30580E-05-4.86516E-05-1.03466E-05-1.91149E-18-3.13614E-19
 -1      2541 1.28073E-04-5.71501E-05-3.03095E-05-3.46819E-05 1.44324E-18 8.46609E-19
 -1      2542 1.41912E-04-5.52802E-05-3.73085E-05-2.83709E-05-4.33046E-20 4.73491E-19
 -1      2543 4.74290E-05-3.08355E-05-6.63156E-06-4.52308E-05 1.92149E-18 6.86097E-19
 -1      2544 6.33692E-05-3.75216E-05-1.09950E-05-5.16312E-05 2.18789E-18 2.19011E-18
 -1      2545 1.45495E-04-6.92010E-05-3.19696E-05-1.75557E-05-2.76980E-19 1.28156E-18
 -1      2546 3.50890E-05-1.61810E-05-7.63204E-06 1.95862E-05 2.10699E-20-5.06526E-19
 -1      2547 9.08049E-05-1.50565E-05-3.24596E-05-6.80644E-06-1.14070E-18-2.78643E-18
 -1      2548 8.97042E-05-1.31972E-05-3.28460E-05-7.98131E-06-1.27411E-18-2.92306E-18
 -1      2549 9.04053E-05-1.40253E-05-3.27999E-05-9.15629E-06-1.57042E-18-2.71416E-18
 -1      2550 8.29456E-05-4.32978E-05-1.64685E-05-4.88897E-05 2.69420E-18 1.74129E-18
 -1      2551 2.34041E-05-1.14533E-05-4.49731E-06-1.31019E-05 3.18087E-19-1.09987E-18
 -1      2552 9.50566E-05-2.66546E-05-2.93293E-05 2.01487E-06 1.25288E-18-7.43222E-20
 -1      2553 1.37924E-04-5.76691E-06-5.70215E-05 8.32541E-07-2.18471E-18-2.78886E-19
 -1      2554 9.78209E-05-4.38568E-05-2.28563E-05-3.52371E-05-1.73049E-18 4.49986E-19
 -1      2555 7.31728E-05-3.12583E-05-1.71738E-05-3.69802E-05-1.90117E-18 7.18602E-19
 -1      2556 8.24746E-05-3.01533E-05-2.22605E-05 3.54732E-05-8.55080E-19 1.40290E-18
 -1      2557 9.58678E-05-2.72441E-05-2.93920E-05 3.72151E-06-2.16721E-18-2.07260E-18
 -1      2558 9.49082E-05-2.62621E-05-2.93936E-05 4.49136E-06-1.13597E-18-2.78524E-18
 -1      2559 9.45030E-05-2.61335E-05-2.93196E-05 2.98551E-06-1.18152E-18-1.69350E-18
 -1      2560 9.57970E-05-2.90581E-05-2.85981E-05-1.42460E-07 7.88245E-19-3.41036E-18
 -1      2561 2.68245E-05-1.04138E-05-6.25746E-06-1.96378E-06-2.69198E-20-1.00839E-18
 -1      2562 9.20913E-05-1.62811E-05-3.25254E-05-1.03883E-05-1.97257E-18-2.18316E-18
 -1      2563 1.24818E-04-6.26628E-05-2.65713E-05 2.68852E-05 2.79733E-19-2.52051E-18
 -1      2564 5.02456E-05-2.35902E-05-1.09184E-05-2.91913E-05-2.05437E-18 9.44865E-19
 -1      2565 1.39109E-04-6.64044E-05-3.13743E-05-2.02657E-05-1.13545E-18 1.08516E-18
 -1      2566 1.22870E-04-5.49388E-05-2.84888E-05-3.00597E-05-1.26314E-18 9.43304E-19
 -1      2567 4.34154E-05-2.33830E-05-8.03798E-06-4.05416E-05 1.98142E-18 5.04832E-19
 -1      2568 1.22658E-04-5.84076E-05-2.74295E-05-3.69342E-05 2.51198E-18 1.55431E-18
 -1      2569 1.54449E-04-3.82155E-05-4.99388E-05-1.90672E-06-1.80249E-18 9.78535E-19
 -1      2570 1.47981E-04-3.21834E-05-5.05450E-05 6.81774E-06-1.62440E-18 1.25064E-18
 -1      2571 1.48674E-04-4.33558E-05-4.51321E-05 1.98078E-07-1.53546E-18 6.23840E-19
 -1      2572 1.47294E-04-1.62284E-05-5.66710E-05 6.94828E-06-3.17659E-18-1.48083E-18
 -1      2573 1.33302E-04-1.06036E-05-5.30231E-05 9.26387E-06-3.00485E-18-2.55751E-19
 -1      2574 1.42219E-04-2.00849E-05-5.28795E-05 9.34412E-06-2.40388E-18-1.01295E-18
 -1      2575 1.47746E-04-5.14933E-05-4.12596E-05 9.64861E-06-2.91287E-19-3.98953E-19
 -1      2576 1.32685E-04-5.90573E-05-3.14753E-05 3.00658E-05 7.41577E-19-1.17007E-18
 -1      2577 9.84484E-05-5.09024E-05-2.01655E-05 4.79523E-05 1.53271E-18-2.71444E-18
 -1      2578 8.76494E-05-4.39085E-05-1.81822E-05 4.80780E-05 1.49512E-18-3.72515E-18
 -1      2579 1.09605E-04-5.39046E-05-2.37866E-05 4.16499E-05 5.36489E-19-2.10187E-18
 -1      2580 5.77305E-05-3.13590E-05-1.07116E-05 4.72928E-05 1.39485E-18-2.57604E-18
 -1      2581 3.01506E-05-1.55638E-05-5.61581E-06 2.90102E-05 1.15292E-18-1.88931E-18
 -1      2582 9.58070E-05-4.79970E-05-2.00826E-05-3.55144E-05-2.70352E-18 1.06006E-18
 -1      2583 7.22376E-05-3.34757E-05-1.61446E-05 3.65981E-05-1.48125E-18 7.12355E-19
 -1      2584 9.39446E-05-2.56208E-05-2.92913E-05 3.33047E-06-1.40928E-18-2.39193E-18
 -1      2585 1.46560E-04-6.87546E-05-3.37182E-05 1.83103E-05 4.22669E-19-4.25168E-18
 -1      2586 1.45898E-04-5.51822E-05-3.88376E-05-1.57625E-05-6.47504E-19-2.22346E-19
 -1      2587 9.05297E-05-1.51361E-05-3.23338E-05 3.17998E-06 1.24409E-18-2.36605E-18
 -1      2588 9.03430E-05-1.48696E-05-3.23659E-05 2.24552E-06 9.77297E-19-2.46151E-18
 -1      2589 9.02110E-05-1.46699E-05-3.23945E-05 1.40590E-06 7.50866E-19-2.66893E-18
 -1      2590 9.01484E-05-1.45811E-05-3.24052E-05 4.49135E-07 5.62507E-19-2.72099E-18
 -1      2591 9.13960E-05-1.65629E-05-3.20584E-05 1.62876E-06 8.54693E-19-2.41186E-18
 -1      2592 9.21013E-05-1.74886E-05-3.20142E-05 6.47040E-06 1.95878E-18-1.67564E-18
 -1      2593 9.15795E-05-1.67030E-05-3.21123E-05 5.62883E-06 1.77391E-18-1.93126E-18
 -1      2594 9.34728E-05-1.96488E-05-3.16815E-05 7.60597E-06 2.19833E-18-1.02579E-18
 -1      2595 9.27205E-05-1.84442E-05-3.18501E-05 7.02588E-06 1.93616E-18-1.32792E-18
 -1      2596 9.33991E-05-1.97978E-05-3.15172E-05 5.75675E-06 1.80596E-18-1.37600E-18
 -1      2597 9.49508E-05-2.24532E-05-3.10980E-05 7.33512E-06 2.29424E-18-2.91958E-19
 -1      2598 9.40238E-05-2.05767E-05-3.14676E-05 7.67732E-06 2.26774E-18-6.82378E-19
 -1      2599 9.44219E-05-2.17389E-05-3.11188E-05 6.17109E-06 2.02854E-18-6.97690E-19
 -1      2600 9.50779E-05-2.36536E-05-3.06134E-05 5.75269E-06 2.19064E-18-2.75601E-19
 -1      2601 9.50915E-05-2.73233E-05-2.90499E-05 4.29491E-07 8.10128E-19-4.34281E-19
 -1      2602 9.52306E-05-2.69618E-05-2.92340E-05 1.05060E-06 9.66278E-19-3.41929E-19
 -1      2603 9.43383E-05-2.08706E-05-3.15213E-05-8.25552E-06-1.87836E-18-1.73653E-18
 -1      2604 9.47192E-05-2.26428E-05-3.09150E-05-6.40580E-06-1.72984E-18-1.51487E-18
 -1      2605 9.52933E-05-2.42007E-05-3.04527E-05-5.02627E-06-1.56455E-18-1.34006E-18
 -1      2606 9.51819E-05-2.51475E-05-3.00324E-05-3.54245E-06-1.53459E-18-1.31467E-18
 -1      2607 9.46226E-05-2.24888E-05-3.09092E-05-5.56189E-06-1.54192E-18-1.64020E-18
 -1      2608 9.53736E-05-2.60226E-05-2.97016E-05-2.52601E-06-1.28711E-18-1.14055E-18
 -1      2609 9.52004E-05-2.65679E-05-2.94243E-05-1.54825E-06-1.08511E-18-1.18858E-18
 -1      2610 9.52669E-05-2.49668E-05-3.01202E-05-3.12178E-06-1.23120E-18-1.24588E-18
 -1      2611 9.52350E-05-2.70814E-05-2.91922E-05-8.71197E-07-9.60099E-19-1.09236E-18
 -1      2612 9.50980E-05-2.74094E-05-2.90148E-05-2.63408E-07-9.55159E-19-1.15623E-18
 -1      2613 9.54542E-05-2.64973E-05-2.95555E-05-1.34305E-06-1.00631E-18-1.10448E-18
 -1      2614 9.50767E-05-2.77178E-05-2.88563E-05 1.56900E-07-8.77654E-19-1.07148E-18
 -1      2615 9.49969E-05-2.79254E-05-2.87471E-05 5.12119E-07-9.31441E-19-1.16224E-18
 -1      2616 9.54564E-05-2.74354E-05-2.91576E-05-1.71025E-07-9.36991E-19-1.03240E-18
 -1      2617 9.49631E-05-2.81127E-05-2.86422E-05 7.49787E-07-8.50585E-19-9.15279E-19
 -1      2618 9.49327E-05-2.82482E-05-2.85793E-05 9.37523E-07-7.33452E-19-8.55909E-19
 -1      2619 9.54012E-05-2.80166E-05-2.88851E-05 5.46083E-07-6.71862E-19-7.68704E-19
 -1      2620 9.49024E-05-2.83608E-05-2.85128E-05 1.05103E-06-7.08243E-19-7.67160E-19
 -1      2621 9.49075E-05-2.84500E-05-2.84809E-05 1.13041E-06-4.72490E-19-6.70154E-19
 -1      2622 9.53402E-05-2.83754E-05-2.87045E-05 9.41205E-07-6.12785E-19-3.29606E-19
 -1      2623 9.48848E-05-2.85148E-05-2.84414E-05 1.16331E-06-4.06710E-19-6.72989E-19
 -1      2624 9.49122E-05-2.85726E-05-2.84298E-05 1.17512E-06-6.21404E-19-6.77702E-19
 -1      2625 9.52907E-05-2.85909E-05-2.85900E-05 1.11899E-06-4.93930E-19-1.47748E-19
 -1      2626 9.48971E-05-2.86061E-05-2.84090E-05 1.15884E-06-6.25918E-19-4.41796E-19
 -1      2627 9.49367E-05-2.86420E-05-2.84103E-05 1.13122E-06-3.52744E-19-3.21103E-19
 -1      2628 9.52557E-05-2.87120E-05-2.85222E-05 1.15730E-06-5.29181E-19 1.43824E-19
 -1      2629 9.49275E-05-2.86547E-05-2.84023E-05 1.08802E-06-1.19319E-20-4.23428E-19
 -1      2630 9.49725E-05-2.86752E-05-2.84114E-05 1.04024E-06 1.18152E-19-5.48329E-19
 -1      2631 9.52334E-05-2.87701E-05-2.84869E-05 1.11238E-06-1.95047E-19 4.93391E-20
 -1      2632 9.49678E-05-2.86743E-05-2.84117E-05 9.85555E-07-2.82586E-20-7.17251E-19
 -1      2633 9.50137E-05-2.86839E-05-2.84253E-05 9.30718E-07-2.11369E-19-7.50171E-19
 -1      2634 9.52207E-05-2.87863E-05-2.84739E-05 1.02395E-06-2.50262E-20-3.56429E-19
 -1      2635 9.50122E-05-2.86743E-05-2.84311E-05 8.74977E-07-3.76385E-19-6.02800E-19
 -1      2636 9.50568E-05-2.86766E-05-2.84470E-05 8.21735E-07-4.36588E-19-6.60487E-19
 -1      2637 9.52149E-05-2.87753E-05-2.84757E-05 9.19476E-07-2.08723E-19-5.80193E-19
 -1      2638 9.50576E-05-2.86620E-05-2.84560E-05 7.71743E-07-4.70454E-19-9.01073E-19
 -1      2639 9.51000E-05-2.86597E-05-2.84728E-05 7.25562E-07-6.01733E-19-9.39369E-19
 -1      2640 9.52143E-05-2.87474E-05-2.84870E-05 8.17401E-07-5.89708E-19-7.22294E-19
 -1      2641 9.51031E-05-2.86429E-05-2.84837E-05 6.85439E-07-4.65525E-19-1.05638E-18
 -1      2642 9.51435E-05-2.86385E-05-2.85006E-05 6.49393E-07-5.30655E-19-8.99225E-19
 -1      2643 9.52181E-05-2.87105E-05-2.85042E-05 7.29574E-07-6.04737E-19-6.14309E-19
 -1      2644 9.51493E-05-2.86220E-05-2.85124E-05 6.21189E-07-3.81753E-19-7.25086E-19
 -1      2645 9.51887E-05-2.86180E-05-2.85289E-05 5.96413E-07-4.96579E-20-7.44883E-19
 -1      2646 9.52266E-05-2.86711E-05-2.85246E-05 6.62882E-07-4.38651E-19-7.36921E-19
 -1      2647 9.51985E-05-2.86048E-05-2.85407E-05 5.80390E-07-1.20174E-19-7.02259E-19
 -1      2648 9.52384E-05-2.86040E-05-2.85564E-05 5.66213E-07-3.54122E-19-6.17329E-19
 -1      2649 9.52418E-05-2.86356E-05-2.85463E-05 6.20213E-07-1.76563E-19-6.65798E-19
 -1      2650 9.52546E-05-2.85974E-05-2.85677E-05 5.60815E-07-5.17551E-19-6.40622E-19
 -1      2651 9.52974E-05-2.86037E-05-2.85822E-05 5.54587E-07-3.48666E-19-6.79711E-19
 -1      2652 9.52675E-05-2.86116E-05-2.85676E-05 6.00774E-07-3.15019E-19-5.96333E-19
 -1      2653 9.53239E-05-2.86086E-05-2.85922E-05 5.56100E-07-5.32198E-19-4.63182E-19
 -1      2654 9.53723E-05-2.86265E-05-2.86050E-05 5.52729E-07-2.84460E-19-5.40666E-19
 -1      2655 9.53102E-05-2.86088E-05-2.85872E-05 5.99771E-07-3.93586E-19-4.37264E-19
 -1      2656 9.54147E-05-2.86497E-05-2.86130E-05 5.54625E-07 1.74027E-19-1.19606E-18
 -1      2657 9.54719E-05-2.86854E-05-2.86233E-05 5.45857E-07 4.10071E-19-1.27595E-18
 -1      2658 9.53798E-05-2.86405E-05-2.86036E-05 6.07451E-07-2.72762E-19-4.88922E-19
 -1      2659 9.55383E-05-2.87355E-05-2.86285E-05 5.37852E-07 4.29645E-19-1.11092E-18
 -1      2660 9.56076E-05-2.87964E-05-2.86351E-05 5.11400E-07 5.58358E-19-1.02006E-18
 -1      2661 9.54904E-05-2.87247E-05-2.86152E-05 6.07513E-07 5.32209E-19-7.47998E-19
 -1      2662 9.57085E-05-2.88841E-05-2.86369E-05 4.78345E-07 3.69659E-19-1.24442E-18
 -1      2663 9.57928E-05-2.89781E-05-2.86385E-05 4.17075E-07 1.23276E-19-1.80573E-18
 -1      2664 9.56611E-05-2.88834E-05-2.86207E-05 5.74995E-07-1.53725E-19-8.91831E-19
 -1      2665 9.59403E-05-2.91147E-05-2.86364E-05 3.37924E-07-3.61338E-20-1.86966E-18
 -1      2666 9.60409E-05-2.92484E-05-2.86314E-05 2.19530E-07-4.10844E-19-1.93020E-18
 -1      2667 9.59151E-05-2.91418E-05-2.86192E-05 4.73960E-07 8.73710E-20-1.29347E-18
 -1      2668 9.62467E-05-2.94431E-05-2.86258E-05 6.69491E-08-4.37549E-19-1.61469E-18
 -1      2669 9.63609E-05-2.96181E-05-2.86133E-05-1.35182E-07 2.05272E-19-1.65896E-18
 -1      2670 9.62771E-05-2.95228E-05-2.86113E-05 2.55696E-07-1.62602E-19-3.27984E-19
 -1      2671 9.66321E-05-2.98724E-05-2.86060E-05-3.93581E-07 6.91580E-19-1.88740E-18
 -1      2672 9.67501E-05-3.00799E-05-2.85857E-05-7.07241E-07 3.02487E-19-1.39278E-18
 -1      2673 9.67667E-05-3.00379E-05-2.86003E-05-1.41115E-07 6.06110E-19 8.23019E-20
 -1      2674 9.70816E-05-3.03798E-05-2.85809E-05-1.10437E-06 9.02882E-20-9.59734E-19
 -1      2675 9.71819E-05-3.05926E-05-2.85543E-05-1.55175E-06 3.66736E-19-5.10330E-19
 -1      2676 9.73863E-05-3.06711E-05-2.85936E-05-7.85627E-07 6.67548E-19-1.28265E-18
 -1      2677 9.75462E-05-3.08979E-05-2.85590E-05-2.11094E-06 1.09262E-18 1.12652E-19
 -1      2678 9.75915E-05-3.10635E-05-2.85300E-05-2.69688E-06 1.82093E-18-8.53426E-20
 -1      2679 9.81028E-05-3.13573E-05-2.86046E-05-1.74131E-06 9.82605E-19-7.66631E-19
 -1      2680 9.79282E-05-3.12989E-05-2.85539E-05-3.41416E-06 1.40360E-18-3.76798E-19
 -1      2681 9.78655E-05-3.13369E-05-2.85289E-05-4.10934E-06 1.01697E-18-4.44339E-19
 -1      2682 9.88260E-05-3.19599E-05-2.86524E-05-3.03850E-06 1.33272E-18-9.44336E-19
 -1      2683 9.80773E-05-3.13918E-05-2.85832E-05-4.92826E-06 6.60269E-19-1.04774E-18
 -1      2684 9.78452E-05-3.12044E-05-2.85706E-05-5.65031E-06 3.58222E-19-8.73649E-19
 -1      2685 9.93933E-05-3.22610E-05-2.87611E-05-4.62986E-06 4.37255E-19-1.20785E-18
 -1      2686 9.78116E-05-3.09532E-05-2.86645E-05-6.43500E-06 3.11743E-19-1.47857E-18
 -1      2687 9.73628E-05-3.04578E-05-2.86717E-05-7.03581E-06-3.69101E-19-1.19383E-18
 -1      2688 9.95783E-05-3.19842E-05-2.89533E-05-6.33275E-06 6.95039E-20-1.76457E-18
 -1      2689 9.69874E-05-2.98138E-05-2.88062E-05-7.56205E-06-4.76572E-19-5.33900E-19
 -1      2690 9.63238E-05-2.89983E-05-2.88360E-05-7.83918E-06-7.23137E-19-1.28909E-19
 -1      2691 9.91548E-05-3.08876E-05-2.92394E-05-7.78015E-06-1.92177E-19-1.50932E-18
 -1      2692 9.56088E-05-2.79923E-05-2.89982E-05-7.83448E-06-2.00976E-18 4.14463E-19
 -1      2693 9.48162E-05-2.69721E-05-2.90450E-05-7.58404E-06-1.74244E-18 9.78756E-19
 -1      2694 9.80244E-05-2.89183E-05-2.96037E-05-8.44046E-06-1.16581E-18 5.41033E-19
 -1      2695 9.39306E-05-2.58171E-05-2.92053E-05-6.83725E-06-8.69336E-19 7.43832E-19
 -1      2696 9.31858E-05-2.48461E-05-2.92544E-05-5.95177E-06-6.05738E-19 7.89478E-19
 -1      2697 9.63694E-05-2.63850E-05-2.99940E-05-7.76620E-06-1.09958E-18 1.12467E-18
 -1      2698 9.24392E-05-2.39020E-05-2.93727E-05-4.45955E-06-5.95787E-19 4.74084E-19
 -1      2699 9.19572E-05-2.32932E-05-2.94050E-05-3.01976E-06-1.00230E-18 4.60067E-19
 -1      2700 9.46968E-05-2.39725E-05-3.03271E-05-5.48869E-06-7.43041E-19 9.94779E-19
 -1      2701 9.16724E-05-2.29237E-05-2.94459E-05-1.06567E-06-1.15132E-18 6.93996E-19
 -1      2702 9.16164E-05-2.29041E-05-2.94469E-05 6.35736E-07-1.06637E-18 8.02233E-19
 -1      2703 9.36679E-05-2.25335E-05-3.05126E-05-1.88069E-06-6.78431E-19 8.40877E-19
 -1      2704 9.19259E-05-2.32628E-05-2.93976E-05 2.55123E-06-8.84266E-19 1.40006E-18
 -1      2705 9.23147E-05-2.38388E-05-2.93663E-05 4.11124E-06-1.18104E-19 1.03191E-18
 -1      2706 9.37495E-05-2.26369E-05-3.04956E-05 2.19926E-06-5.11099E-19 1.91948E-18
 -1      2707 9.30750E-05-2.47764E-05-2.92415E-05 5.50524E-06-7.63496E-20 8.73926E-19
 -1      2708 9.37754E-05-2.57343E-05-2.91898E-05 6.58235E-06 2.26552E-20 9.67708E-19
 -1      2709 9.49003E-05-2.42452E-05-3.02805E-05 5.66598E-06 2.64166E-19 1.77472E-18
 -1      2710 9.46604E-05-2.68903E-05-2.90255E-05 7.20034E-06 4.85000E-19 1.19299E-18
 -1      2711 9.54554E-05-2.79146E-05-2.89722E-05 7.64652E-06 7.54273E-20 1.75508E-18
 -1      2712 9.66072E-05-2.67299E-05-2.99295E-05 7.72145E-06 6.52354E-19 7.12523E-19
 -1      2713 9.61556E-05-2.89255E-05-2.88082E-05 7.52851E-06-6.45324E-19 1.59389E-18
 -1      2714 9.68485E-05-2.97542E-05-2.87694E-05 7.40120E-06-5.20524E-19 6.10470E-19
 -1      2715 9.82056E-05-2.92353E-05-2.95337E-05 8.16844E-06-4.36877E-19 8.71596E-19
 -1      2716 9.72022E-05-3.04041E-05-2.86347E-05 6.78143E-06-7.38090E-19 1.39367E-19
 -1      2717 9.76823E-05-3.09106E-05-2.86182E-05 6.26515E-06 4.85410E-20-2.78786E-19
 -1      2718 9.92266E-05-3.11064E-05-2.91738E-05 7.33696E-06-9.75472E-19 7.47533E-19
 -1      2719 9.76904E-05-3.11620E-05-2.85252E-05 5.42409E-06 7.53930E-19-1.34199E-18
 -1      2720 9.79391E-05-3.13501E-05-2.85301E-05 4.73001E-06 6.06874E-19-9.50295E-19
 -1      2721 9.95322E-05-3.20806E-05-2.88973E-05 5.79297E-06-6.85733E-22-2.40569E-19
 -1      2722 9.76983E-05-3.12839E-05-2.84776E-05 3.89015E-06 2.34592E-19-9.07925E-19
 -1      2723 9.77572E-05-3.12316E-05-2.84975E-05 3.18927E-06 3.99668E-19-1.28842E-18
 -1      2724 9.92442E-05-3.22366E-05-2.87169E-05 4.06189E-06 6.82160E-19-1.09512E-18
 -1      2725 9.73859E-05-3.09701E-05-2.84765E-05 2.48279E-06 5.83089E-19 1.37920E-20
 -1      2726 9.73190E-05-3.07759E-05-2.85036E-05 1.88289E-06 5.84035E-19-1.51760E-19
 -1      2727 9.85915E-05-3.18238E-05-2.86206E-05 2.49735E-06 1.28938E-18-1.99789E-19
 -1      2728 9.69151E-05-3.04322E-05-2.85025E-05 1.36233E-06 6.71598E-19-1.06016E-18
 -1      2729 9.67808E-05-3.01790E-05-2.85299E-05 9.11003E-07 6.51339E-19-1.17113E-18
 -1      2730 9.77938E-05-3.11152E-05-2.85851E-05 1.27474E-06-1.47572E-19 1.05638E-18
 -1      2731 9.64060E-05-2.98327E-05-2.85384E-05 5.80619E-07 7.88096E-20-1.61427E-18
 -1      2732 9.62621E-05-2.95907E-05-2.85613E-05 2.81391E-07 8.54359E-19-1.45680E-18
 -1      2733 9.70114E-05-3.03261E-05-2.85858E-05 4.40407E-07 5.68004E-20 2.18618E-19
 -1      2734 9.59595E-05-2.92588E-05-2.85871E-05-1.90446E-08 4.12826E-19-2.44669E-18
 -1      2735 1.27532E-04-5.60961E-06-5.29763E-05 2.54937E-06-2.50828E-18 1.41587E-19
 -1      2736 1.30134E-04-5.71406E-06-5.39664E-05-3.60908E-06-1.81858E-18-3.43340E-19
 -1      2737 9.49798E-05-2.78661E-05-2.87658E-05-4.13019E-07 9.95954E-19-6.91052E-19
 -1      2738 9.50603E-05-2.76372E-05-2.88792E-05-5.14254E-08 8.79385E-19-4.77662E-19
 -1      2739 9.54199E-05-2.72846E-05-2.92092E-05 3.91107E-07 1.03894E-18-7.98050E-19
 -1      2740 9.48823E-05-2.85468E-05-2.84289E-05-1.16780E-06 4.61112E-19-6.29318E-19
 -1      2741 9.48540E-05-2.84806E-05-2.84422E-05-1.15327E-06 5.38375E-19-4.83322E-19
 -1      2742 9.49086E-05-2.86257E-05-2.84060E-05-1.13751E-06 7.00865E-19-7.60542E-19
 -1      2743 9.48672E-05-2.85839E-05-2.84056E-05-1.16441E-06 5.92484E-19-7.01613E-19
 -1      2744 9.52156E-05-2.86712E-05-2.85221E-05-1.16136E-06 6.06921E-19-5.83565E-19
 -1      2745 9.49484E-05-2.86661E-05-2.84056E-05-1.05314E-06 4.64103E-19-6.19271E-19
 -1      2746 9.49011E-05-2.86416E-05-2.83967E-05-1.10127E-06 4.98342E-19-7.35727E-19
 -1      2747 9.51984E-05-2.87447E-05-2.84823E-05-1.13311E-06 6.24419E-19-3.81282E-19
 -1      2748 9.49952E-05-2.86797E-05-2.84197E-05-9.46052E-07 3.57592E-19-2.59292E-19
 -1      2749 9.49465E-05-2.86678E-05-2.84057E-05-1.00152E-06 4.47763E-19-3.36892E-19
 -1      2750 9.51927E-05-2.87723E-05-2.84673E-05-1.05212E-06 3.10380E-19-2.91032E-19
 -1      2751 9.50445E-05-2.86744E-05-2.84430E-05-8.38068E-07 2.56302E-19 6.66054E-20
 -1      2752 9.49969E-05-2.86718E-05-2.84261E-05-8.91229E-07 4.66669E-19-3.18213E-20
 -1      2753 9.51948E-05-2.87688E-05-2.84693E-05-9.49615E-07 2.17993E-19 1.76649E-19
 -1      2754 9.50939E-05-2.86548E-05-2.84725E-05-7.44661E-07 2.03196E-19 3.24095E-19
 -1      2755 9.50485E-05-2.86595E-05-2.84538E-05-7.88612E-07 3.88006E-19 3.30235E-19
 -1      2756 9.52017E-05-2.87434E-05-2.84828E-05-8.47536E-07 1.12007E-19 5.74790E-19
 -1      2757 9.51422E-05-2.86231E-05-2.85066E-05-6.77455E-07 7.06633E-20 3.45230E-19
 -1      2758 9.50988E-05-2.86342E-05-2.84863E-05-7.06824E-07 2.16228E-19 2.95690E-19
 -1      2759 9.52111E-05-2.87015E-05-2.85046E-05-7.61566E-07 1.58354E-19 5.54662E-19
 -1      2760 9.51883E-05-2.85790E-05-2.85451E-05-6.46385E-07-2.63615E-19 2.42896E-19
 -1      2761 9.51466E-05-2.85966E-05-2.85231E-05-6.56239E-07-1.74697E-19 1.43037E-19
 -1      2762 9.52203E-05-2.86448E-05-2.85327E-05-7.03585E-07-4.78574E-21 4.56600E-19
 -1      2763 9.52293E-05-2.85224E-05-2.85865E-05-6.59352E-07-5.36815E-20 4.01990E-19
 -1      2764 9.51899E-05-2.85466E-05-2.85632E-05-6.46260E-07-1.04038E-19 8.74275E-20
 -1      2765 9.52261E-05-2.85733E-05-2.85655E-05-6.83415E-07-3.11331E-19 5.15852E-19
 -1      2766 9.52666E-05-2.84406E-05-2.86369E-05-7.29286E-07-2.24624E-19 5.96428E-19
 -1      2767 9.52258E-05-2.84775E-05-2.86086E-05-6.84559E-07-1.10631E-19 4.29672E-19
 -1      2768 9.52239E-05-2.84810E-05-2.86040E-05-7.09341E-07-1.30019E-19 2.54934E-19
 -1      2769 9.52913E-05-2.83236E-05-2.86968E-05-8.72771E-07 1.53225E-19 4.77824E-19
 -1      2770 9.52517E-05-2.83781E-05-2.86629E-05-7.87431E-07 1.97999E-19 4.21889E-19
 -1      2771 9.52051E-05-2.83532E-05-2.86503E-05-7.94401E-07 2.61537E-19 2.96291E-19
 -1      2772 9.52906E-05-2.81511E-05-2.87694E-05-1.11199E-06 4.51041E-19-3.80974E-20
 -1      2773 9.52554E-05-2.82331E-05-2.87276E-05-9.72612E-07 3.53532E-19-7.73918E-20
 -1      2774 9.51546E-05-2.81739E-05-2.87047E-05-9.53645E-07 5.36583E-19-4.67987E-20
 -1      2775 9.52401E-05-2.78907E-05-2.88580E-05-1.47805E-06-4.18354E-19-5.12228E-20
 -1      2776 9.52171E-05-2.80163E-05-2.88059E-05-1.26547E-06-5.20914E-20 1.51383E-19
 -1      2777 9.50473E-05-2.79140E-05-2.87687E-05-1.20648E-06 1.18292E-19-2.78428E-19
 -1      2778 9.50957E-05-2.74929E-05-2.89651E-05-2.01353E-06 5.44942E-19-2.75851E-19
 -1      2779 9.51012E-05-2.76865E-05-2.89003E-05-1.70101E-06-3.62690E-20-1.45089E-19
 -1      2780 9.48402E-05-2.75293E-05-2.88423E-05-1.57799E-06-4.35817E-20-3.90226E-19
 -1      2781 9.47808E-05-2.68837E-05-2.90899E-05-2.77454E-06 1.01705E-18-2.31388E-20
 -1      2782 9.48457E-05-2.71819E-05-2.90114E-05-2.32609E-06 1.06040E-18 1.23068E-20
 -1      2783 9.44627E-05-2.69536E-05-2.89228E-05-2.09899E-06 6.19467E-19-8.35785E-19
 -1      2784 9.41672E-05-2.59568E-05-2.92235E-05-3.83044E-06 1.05421E-18 4.24219E-19
 -1      2785 9.43463E-05-2.64115E-05-2.91341E-05-3.20037E-06 9.73776E-19 4.13344E-19
 -1      2786 9.38005E-05-2.60920E-05-2.90008E-05-2.80387E-06 6.84710E-19 7.30174E-19
 -1      2787 9.30482E-05-2.45712E-05-2.93390E-05-5.25903E-06 6.61299E-19 5.11918E-19
 -1      2788 9.34334E-05-2.52497E-05-2.92507E-05-4.39433E-06 1.06916E-18 2.53211E-19
 -1      2789 9.26733E-05-2.48146E-05-2.90530E-05-3.72438E-06 9.63842E-19 1.35425E-18
 -1      2790 9.11009E-05-2.25607E-05-2.93711E-05-7.13329E-06 5.72756E-19 5.23673E-19
 -1      2791 9.18427E-05-2.35364E-05-2.93169E-05-5.98158E-06 6.47772E-19 7.23804E-19
 -1      2792 9.08073E-05-2.29600E-05-2.90289E-05-4.87708E-06 4.91478E-19 8.92743E-19
 -1      2793 8.80967E-05-1.99616E-05-2.92068E-05-9.37067E-06-2.73016E-19 3.07630E-19
 -1      2794 8.92859E-05-2.12001E-05-2.92444E-05-7.98228E-06 3.25516E-19 7.99260E-19
 -1      2795 8.78999E-05-2.04263E-05-2.88360E-05-6.20363E-06 2.30408E-19 2.07112E-18
 -1      2796 8.32200E-05-1.65746E-05-2.85696E-05-1.22373E-05-8.41233E-19 8.36478E-20
 -1      2797 8.52079E-05-1.81092E-05-2.88456E-05-1.04404E-05-5.48191E-19-9.75171E-20
 -1      2798 8.33936E-05-1.70897E-05-2.82921E-05-7.70788E-06-4.74079E-19 8.90592E-19
 -1      2799 7.60766E-05-1.31510E-05-2.69577E-05-1.57383E-05-7.96757E-19-4.12353E-19
 -1      2800 7.89188E-05-1.44600E-05-2.77376E-05-1.35391E-05-5.21848E-19-2.14799E-19
 -1      2801 7.64614E-05-1.29536E-05-2.70122E-05-9.36298E-06-7.53952E-19 3.94565E-20
 -1      2802 6.58718E-05-1.14915E-05-2.33497E-05-2.06663E-05-9.26442E-19-9.04208E-20
 -1      2803 6.98181E-05-1.12390E-05-2.52005E-05-1.73724E-05-1.10768E-18-8.04231E-19
 -1      2804 6.65158E-05-8.89573E-06-2.43185E-05-1.12017E-05-8.58944E-19 3.89897E-19
 -1      2805 6.59297E-05-2.20733E-05-1.78844E-05 3.22382E-05-1.01919E-18 1.11819E-18
 -1      2806 5.13194E-05-1.86968E-05-1.37934E-05-2.85388E-05-1.46928E-18 4.81750E-19
 -1      2807 8.34334E-05-1.69961E-05-2.85692E-05 1.27711E-05-5.07120E-19-2.35476E-18
 -1      2808 8.13320E-05-1.55736E-05-2.81659E-05 1.47804E-05-6.55630E-19-1.72019E-18
 -1      2809 9.29463E-05-2.45638E-05-2.93434E-05 5.54278E-06-1.63383E-18-3.79780E-18
 -1      2810 9.26000E-05-2.39199E-05-2.94231E-05 6.62436E-06-1.82639E-18-3.63176E-18
 -1      2811 9.36608E-05-2.51758E-05-2.93479E-05 4.34183E-06-1.72828E-18-3.21363E-18
 -1      2812 9.14670E-05-2.38180E-05-2.89962E-05-1.87491E-07 4.37293E-19-4.36822E-18
 -1      2813 9.14018E-05-2.37049E-05-2.90279E-05 7.97178E-07-1.27719E-18-5.11612E-18
 -1      2814 9.16001E-05-2.37340E-05-2.91041E-05 2.02086E-06-2.00219E-18-4.88777E-18
 -1      2815 9.19828E-05-2.40144E-05-2.91458E-05 2.82249E-06-2.62092E-18-4.87997E-18
 -1      2816 9.07256E-05-2.32034E-05-2.89212E-05 1.39787E-06-1.23517E-18-4.67979E-18
 -1      2817 9.22502E-05-2.46991E-05-2.89384E-05-2.04301E-06 1.58326E-18-3.50101E-18
 -1      2818 9.18334E-05-2.43162E-05-2.89623E-05-1.25860E-06 1.59914E-18-4.39728E-18
 -1      2819 9.10077E-05-2.37526E-05-2.88069E-05-1.08691E-06 1.02235E-18-3.14324E-18
 -1      2820 9.47552E-05-2.73330E-05-2.88750E-05-3.56133E-06 8.19062E-19 2.40478E-18
 -1      2821 9.41724E-05-2.67801E-05-2.89020E-05-3.47138E-06 1.42802E-18 1.17314E-18
 -1      2822 9.57680E-05-2.84426E-05-2.88381E-05-3.21373E-06-1.65738E-18 3.34687E-19
 -1      2823 9.53291E-05-2.79842E-05-2.88712E-05-3.41493E-06-8.66991E-19 1.82855E-18
 -1      2824 9.51982E-05-2.80823E-05-2.87774E-05-4.01842E-06-7.18067E-19 9.66763E-19
 -1      2825 9.63608E-05-2.91667E-05-2.87880E-05-2.44478E-06-1.16367E-18 9.05032E-19
 -1      2826 9.61212E-05-2.88609E-05-2.88254E-05-2.80939E-06-1.31567E-18 1.30016E-19
 -1      2827 9.62719E-05-2.91653E-05-2.87757E-05-3.39547E-06-1.70685E-18 3.51180E-19
 -1      2828 9.65381E-05-2.95055E-05-2.87244E-05-1.50167E-06 3.69554E-19 2.56290E-18
 -1      2829 9.64902E-05-2.93569E-05-2.87641E-05-1.92097E-06-1.31085E-19 1.74813E-18
 -1      2830 9.68314E-05-2.97796E-05-2.87499E-05-2.39508E-06-2.63423E-20 1.75846E-18
 -1      2831 9.63805E-05-2.95068E-05-2.86551E-05-6.52311E-07-7.26520E-19-9.05308E-19
 -1      2832 9.64680E-05-2.94936E-05-2.86925E-05-1.00299E-06-3.44907E-19 3.26668E-20
 -1      2833 9.68894E-05-2.99491E-05-2.86992E-05-1.30855E-06-4.34613E-20 4.10775E-19
 -1      2834 2.97974E-05-5.05838E-06-9.88824E-06 6.93250E-06 3.06044E-19-8.44915E-19
 -1      2835 3.47567E-05-6.59419E-06-1.12759E-05-1.14334E-05-1.11448E-18 1.53736E-19
 -1      2836 4.01090E-05-1.49853E-05-1.00416E-05-3.14788E-05 1.30983E-18 5.50571E-20
 -1      2837 5.46757E-05-2.37041E-05-1.30952E-05-4.18727E-05 1.52794E-18 1.82800E-18
 -1      2838 8.81820E-05-2.02753E-05-2.91757E-05 9.85482E-06-1.14979E-18-3.22857E-18
 -1      2839 8.68068E-05-1.89426E-05-2.90824E-05 1.15169E-05-6.07481E-19-2.68504E-18
 -1      2840 8.12833E-05-1.57140E-05-2.79461E-05 9.57327E-06-4.28235E-19-2.86649E-18
 -1      2841 6.79955E-05-1.20854E-05-2.39509E-05 2.15281E-05-1.71585E-18 6.16958E-19
 -1      2842 6.55519E-05-1.42636E-05-2.18091E-05 2.49221E-05-1.43445E-18-1.15249E-19
 -1      2843 7.45701E-05-3.62248E-05-1.57872E-05-4.66078E-05 1.99180E-18 1.62937E-18
 -1      2844 9.41212E-05-4.66406E-05-2.03531E-05-4.58846E-05 2.16015E-18 1.87523E-18
 -1      2845 9.11438E-05-1.60418E-05-3.22143E-05 4.90473E-06 1.69638E-18-2.11488E-18
 -1      2846 9.08026E-05-1.55483E-05-3.22736E-05 3.98033E-06 1.45445E-18-2.31333E-18
 -1      2847 9.17835E-05-1.71622E-05-3.19653E-05 3.18899E-06 1.31572E-18-2.09815E-18
 -1      2848 9.24490E-05-1.82147E-05-3.17954E-05 4.61428E-06 1.60541E-18-1.89618E-18
 -1      2849 9.34781E-05-2.59905E-05-2.89037E-05-3.21245E-06 9.79636E-19 6.76179E-19
 -1      2850 9.28828E-05-2.54513E-05-2.89267E-05-2.76244E-06 1.34415E-18-3.25279E-19
 -1      2851 9.21551E-05-2.50269E-05-2.87658E-05-2.96130E-06 1.81375E-18-2.65998E-18
 -1      2852 9.37160E-05-2.66111E-05-2.87660E-05-3.95045E-06 1.33210E-18 1.09279E-18
 -1      2853 9.12021E-05-2.28358E-05-2.93504E-05 7.48995E-06-1.57008E-18-3.50264E-18
 -1      2854 9.04075E-05-2.18267E-05-2.93860E-05 8.81589E-06-1.32010E-18-3.32637E-18
 -1      2855 8.66635E-05-1.93610E-05-2.87499E-05 7.78167E-06-1.21334E-18-3.35377E-18
 -1      2856 9.01202E-05-2.21146E-05-2.90894E-05 6.18645E-06-1.68666E-18-4.01379E-18
 -1      2857 9.48791E-05-2.84115E-05-2.84860E-05-1.09902E-06 4.14953E-19-5.45273E-19
 -1      2858 9.48743E-05-2.83109E-05-2.85210E-05-1.01380E-06 4.84412E-19-7.09881E-19
 -1      2859 9.52482E-05-2.85297E-05-2.85979E-05-1.09240E-06 5.14628E-19-2.91881E-19
 -1      2860 7.64326E-05-1.35606E-05-2.70423E-05 1.64162E-05-7.53399E-19-1.59499E-18
 -1      2861 7.37417E-05-1.29045E-05-2.59856E-05 1.88452E-05-1.30246E-18-3.11285E-20
 -1      2862 7.32793E-05-1.15445E-05-2.61993E-05 1.15570E-05-6.05514E-19-1.47321E-18
 -1      2863 9.49097E-05-2.81959E-05-2.85923E-05-8.71057E-07 7.13695E-19-8.15536E-19
 -1      2864 9.49392E-05-2.80523E-05-2.86553E-05-6.86168E-07 9.21360E-19-6.86456E-19
 -1      2865 9.53621E-05-2.79093E-05-2.89160E-05-4.15445E-07 9.37906E-19-5.40032E-19
 -1      2866 9.52978E-05-2.82901E-05-2.87232E-05-8.68258E-07 6.40409E-19-3.90007E-19
 -1      2867 9.07874E-05-1.55262E-05-3.22759E-05-3.94648E-06-4.48513E-19-2.74378E-18
 -1      2868 9.11246E-05-1.60141E-05-3.22169E-05-4.86810E-06-7.01885E-19-2.71936E-18
 -1      2869 9.20405E-05-1.66535E-05-3.23164E-05-9.03597E-06-1.72275E-18-2.24040E-18
 -1      2870 4.06721E-05-1.65630E-05-9.81102E-06 3.54573E-05 7.65294E-19-2.04728E-18
 -1      2871 3.18419E-05-9.46658E-06-9.00516E-06 2.24120E-05 4.21611E-19-2.25734E-18
 -1      2872 6.96494E-05-3.31127E-05-1.54494E-05 4.70740E-05 5.01020E-19-3.50365E-18
 -1      2873 5.32124E-05-2.41450E-05-1.18314E-05 4.19299E-05 1.00162E-19-2.56503E-18
 -1      2874 5.47380E-05-1.94484E-05-1.45351E-05 3.60113E-05 2.19170E-20-3.22889E-18
 -1      2875 1.36961E-04-5.87370E-05-3.38296E-05 2.14413E-05 7.29137E-19-1.10167E-18
 -1      2876 1.26777E-04-5.84067E-05-2.92038E-05 3.01779E-05 4.27434E-19-1.39475E-18
 -1      2877 9.51978E-05-2.64252E-05-2.94846E-05 1.81329E-06 1.17238E-18-2.11633E-19
 -1      2878 9.53564E-05-2.58272E-05-2.97731E-05 2.82246E-06 1.41982E-18-1.61537E-19
 -1      2879 9.54069E-05-2.62623E-05-2.96414E-05 1.69937E-06 1.23725E-18-5.64550E-19
 -1      2880 1.15381E-04-5.57219E-05-2.52366E-05-3.78973E-05 2.39096E-18 2.46880E-18
 -1      2881 1.31508E-04-5.98818E-05-3.09838E-05-2.82245E-05 1.52805E-18 9.21254E-19
 -1      2882 1.44301E-04-4.84236E-05-4.16447E-05 1.29437E-06-1.09286E-18 3.52577E-20
 -1      2883 1.42353E-04-5.50680E-05-3.74367E-05 1.09285E-05 1.97901E-19-7.98540E-19
 -1      2884 1.37526E-04-5.63265E-05-3.48102E-05 1.23885E-05 5.93889E-19-7.83558E-19
 -1      2885 2.89505E-05-5.97737E-06-9.25242E-06-4.04331E-06 1.87763E-19-1.15387E-18
 -1      2886 3.13473E-05-8.89822E-06-9.06555E-06-2.06008E-05 2.14511E-19-4.54645E-19
 -1      2887 4.42869E-05-1.05777E-05-1.38588E-05-2.28709E-05 5.10126E-19-9.56300E-19
 -1      2888 1.40513E-04-5.68961E-05-3.56708E-05-1.45369E-05 3.11013E-19 5.73865E-19
 -1      2889 1.45675E-04-5.28454E-05-4.02353E-05-7.02411E-06-8.56979E-19 6.80803E-20
 -1      2890 5.77216E-05-1.35275E-05-1.86088E-05 2.41142E-05-1.25636E-18-2.22981E-19
 -1      2891 4.34824E-05-1.37305E-05-1.23920E-05 2.31651E-05-9.76047E-19-1.04630E-18
 -1      2892 3.15990E-05-6.95386E-06-9.63507E-06 7.81069E-06-6.67277E-19-1.09691E-18
 -1      2893 4.90656E-05-6.87867E-06-1.73635E-05 1.48103E-05-1.28803E-18-2.50912E-18
 -1      2894 9.21925E-05-2.40050E-05-2.92053E-05 4.20182E-06-1.99404E-18-5.41632E-18
 -1      2895 9.15509E-05-1.66574E-05-3.21168E-05-5.59416E-06-8.91629E-19-2.59834E-18
 -1      2896 9.20315E-05-1.73626E-05-3.20254E-05-6.42267E-06-1.15527E-18-2.49803E-18
 -1      2897 9.24191E-05-1.81697E-05-3.18000E-05-4.58967E-06-7.12727E-19-2.36471E-18
 -1      2898 9.12672E-05-1.63660E-05-3.20885E-05 1.47450E-08 4.23147E-19-2.56994E-18
 -1      2899 9.01466E-05-1.45789E-05-3.24055E-05-3.99578E-07 3.36867E-19-2.77816E-18
 -1      2900 9.02056E-05-1.46619E-05-3.23954E-05-1.35652E-06 1.29159E-19-2.78704E-18
 -1      2901 9.28231E-05-1.84257E-05-3.18830E-05-7.48343E-06-1.52019E-18-2.20511E-18
 -1      2902 9.63300E-05-2.95577E-05-2.86183E-05-2.09745E-07-2.16584E-19-1.33442E-18
 -1      2903 1.27224E-04-8.03469E-06-5.17112E-05 5.82010E-06-2.72395E-18-1.29331E-19
 -1      2904 1.20618E-04-6.56160E-06-4.92571E-05 2.48772E-06-2.43416E-18-1.04922E-18
 -1      2905 1.25551E-04-1.10315E-05-4.95729E-05 8.37470E-06-2.63321E-18-1.10810E-18
 -1      2906 9.03330E-05-1.48552E-05-3.23676E-05-2.19313E-06 3.52058E-20-2.62396E-18
 -1      2907 9.05197E-05-1.51210E-05-3.23355E-05-3.14298E-06-2.42370E-19-2.63512E-18
 -1      2908 9.17686E-05-1.71422E-05-3.19678E-05-3.15609E-06-3.13282E-19-2.50830E-18
 -1      2909 9.13897E-05-1.65547E-05-3.20596E-05-1.59684E-06 4.03064E-20-2.53864E-18
 -1      2910 5.52063E-05-9.61770E-06-1.92951E-05-1.79440E-05-8.67097E-19-1.78936E-20
 -1      2911 5.01254E-05-4.94343E-06-1.85957E-05-7.99170E-06-6.28101E-19 1.58183E-19
 -1      2912 5.20141E-05-1.29699E-05-1.62607E-05-2.05474E-05-1.31994E-18 1.56066E-19
 -1      2913 9.11131E-05-2.32611E-05-2.90798E-05 3.97884E-06-1.83163E-18-4.55704E-18
 -1      2914 1.34424E-04-5.78467E-05-3.28993E-05-1.80914E-05 8.95102E-19 1.18521E-18
 -1      2915 6.28565E-05-8.70896E-06-2.28708E-05 1.49666E-05-1.36714E-18-2.88711E-18
 -1      2916 1.23768E-04-8.51442E-06-4.97575E-05-5.92008E-06-2.01319E-18-1.97809E-19
 -1      2917 1.31776E-04-9.55934E-06-5.32587E-05-7.40987E-06-1.80291E-18-1.04556E-20
 -1      2918 9.67213E-05-2.99420E-05-2.86306E-05-3.40432E-07-2.45244E-19-4.83417E-19
 -1      2919 6.89470E-05-2.85255E-05-1.68416E-05-4.03817E-05 1.01475E-18 2.04977E-18
 -1      2920 1.43318E-04-4.72156E-05-4.15184E-05 1.45649E-06-1.05577E-18 1.79063E-18
 -1      2921 1.40021E-04-2.65944E-05-4.89800E-05 9.94124E-06-2.89558E-18-2.10170E-19
 -1      2922 1.36105E-04-1.63505E-05-5.17251E-05-1.08292E-05-1.87830E-18 5.29290E-19
 -1      2923 1.18906E-04-5.65888E-05-2.66706E-05 3.51724E-05 4.63327E-19-1.09541E-18
 -1      2924 1.08103E-04-5.06680E-05-2.43141E-05 3.78968E-05 9.82029E-19-1.57005E-18
 -1      2925 1.24433E-04-5.63566E-05-2.91079E-05 2.60693E-05 9.88196E-19-6.04437E-19
 -1      2926 9.84902E-05-4.52646E-05-2.25881E-05-3.98106E-05 1.61677E-18 2.43159E-18
 -1      2927 1.07492E-04-5.18390E-05-2.35579E-05-4.01549E-05 2.38334E-18 2.62592E-18
 -1      2928 1.16592E-04-5.39117E-05-2.68575E-05-3.15753E-05 1.44806E-18 2.31726E-18
 -1      2929 9.52234E-05-2.52719E-05-2.99861E-05 3.54785E-06 1.59139E-18-1.97415E-19
 -1      2930 9.53093E-05-2.45088E-05-3.03312E-05 4.77567E-06 1.93535E-18-2.29763E-19
 -1      2931 9.49826E-05-2.35853E-05-3.06125E-05 5.07387E-06 1.93704E-18-4.14245E-19
 -1      2932 9.52722E-05-2.50149E-05-3.01224E-05 3.29449E-06 1.57097E-18-4.32384E-19
 -1      2933 1.42882E-04-4.09100E-05-4.39723E-05-6.21699E-06-1.01580E-18-2.48816E-19
 -1      2934 1.39394E-04-4.56140E-05-4.03220E-05-3.08974E-06-1.40062E-18-7.29137E-19
 -1      2935 8.27216E-05-3.81604E-05-1.86467E-05 4.39624E-05 5.72277E-19-2.92274E-18
 -1      2936 3.86272E-05-5.73049E-06-1.35336E-05 5.43472E-07-1.20455E-18-2.05861E-18
 -1      2937 9.42501E-05-2.18035E-05-3.10751E-05 5.00342E-06 1.77256E-18-1.18217E-18
 -1      2938 9.37777E-05-2.08657E-05-3.12535E-05 4.62428E-06 1.68600E-18-1.50254E-18
 -1      2939 1.41271E-04-3.09045E-05-4.80017E-05-9.21651E-06-1.18627E-18-5.68359E-19
 -1      2940 3.94652E-05-6.85734E-06-1.33533E-05 1.29057E-05-7.04626E-20-1.49702E-18
 -1      2941 9.75335E-05-3.04882E-05-2.87265E-05-2.26120E-06-8.24037E-21 3.21319E-18
 -1      2942 9.73759E-05-3.02933E-05-2.87427E-05-2.83959E-06-6.46379E-19 2.25836E-18
 -1      2943 9.54222E-05-2.88714E-05-2.85205E-05-1.00246E-06 6.57446E-20 1.08609E-19
 -1      2944 9.54242E-05-2.88630E-05-2.85256E-05-1.04556E-06 2.12052E-19 3.32966E-21
 -1      2945 9.50947E-05-2.39167E-05-3.05018E-05-3.68153E-06-1.04879E-18-1.47148E-18
 -1      2946 9.52587E-05-2.49125E-05-3.01664E-05-2.58930E-06-8.68219E-19-1.31558E-18
 -1      2947 9.55581E-05-2.58098E-05-2.98787E-05-1.81859E-06-8.75791E-19-1.13818E-18
 -1      2948 9.55962E-05-2.64655E-05-2.96389E-05-1.07937E-06-9.53558E-19-1.06666E-18
 -1      2949 9.53577E-05-2.47989E-05-3.02354E-05-2.28326E-06-8.57784E-19-1.32471E-18
 -1      2950 9.57234E-05-2.70378E-05-2.94241E-05-5.36388E-07-8.66701E-19-9.72820E-19
 -1      2951 9.57036E-05-2.74574E-05-2.92555E-05-5.97318E-08-7.19487E-19-8.84892E-19
 -1      2952 9.57755E-05-2.64156E-05-2.97266E-05-9.35413E-07-8.86024E-19-1.03951E-18
 -1      2953 9.57380E-05-2.78180E-05-2.90989E-05 2.86795E-07-4.91309E-19-8.73657E-19
 -1      2954 9.57050E-05-2.80855E-05-2.89836E-05 5.70501E-07-3.98635E-19-6.61732E-19
 -1      2955 9.59427E-05-2.74713E-05-2.93476E-05-1.47661E-08-4.90413E-19-7.26100E-19
 -1      2956 9.56914E-05-2.83070E-05-2.88722E-05 7.69140E-07-5.14912E-19-3.42194E-19
 -1      2957 9.56614E-05-2.84743E-05-2.87961E-05 9.18256E-07-4.66952E-19-2.52034E-19
 -1      2958 9.59712E-05-2.81455E-05-2.90715E-05 5.58932E-07-3.72507E-19-6.20746E-19
 -1      2959 9.56248E-05-2.86035E-05-2.87190E-05 1.01289E-06-3.95903E-19-2.30103E-19
 -1      2960 9.56021E-05-2.87035E-05-2.86710E-05 1.07239E-06-4.77197E-19-2.26359E-19
 -1      2961 9.59290E-05-2.85610E-05-2.88752E-05 8.76966E-07-4.70172E-19-2.69536E-19
 -1      2962 9.55562E-05-2.87712E-05-2.86195E-05 1.09818E-06-5.18066E-19-9.49854E-21
 -1      2963 9.55408E-05-2.88255E-05-2.85916E-05 1.10131E-06-3.83186E-19-7.56685E-20
 -1      2964 9.58536E-05-2.88010E-05-2.87397E-05 1.01767E-06-4.00669E-19-3.92085E-19
 -1      2965 9.54929E-05-2.88524E-05-2.85590E-05 1.08491E-06-2.99636E-19 7.95330E-20
 -1      2966 9.54834E-05-2.88757E-05-2.85450E-05 1.05562E-06-1.17432E-19-1.09313E-19
 -1      2967 9.57657E-05-2.89223E-05-2.86495E-05 1.04318E-06-3.65061E-19-1.62900E-20
 -1      2968 9.54372E-05-2.88758E-05-2.85260E-05 1.01646E-06-1.78459E-19-1.07617E-19
 -1      2969 9.54320E-05-2.88785E-05-2.85215E-05 9.71579E-07-1.42937E-19-2.68873E-19
 -1      2970 9.56764E-05-2.89641E-05-2.85929E-05 1.00023E-06-2.52048E-19 1.35632E-19
 -1      2971 9.53895E-05-2.88615E-05-2.85122E-05 9.23409E-07-5.62503E-20-2.20104E-19
 -1      2972 9.53875E-05-2.88508E-05-2.85142E-05 8.74518E-07-2.00841E-19-2.50039E-19
 -1      2973 9.55914E-05-2.89537E-05-2.85605E-05 9.22622E-07-1.52472E-19-1.65940E-20
 -1      2974 9.53494E-05-2.88238E-05-2.85116E-05 8.26776E-07-5.70479E-19-3.05173E-19
 -1      2975 9.53498E-05-2.88050E-05-2.85176E-05 7.81575E-07-9.55461E-19-3.11632E-19
 -1      2976 9.55136E-05-2.89105E-05-2.85454E-05 8.34154E-07-4.68700E-19-4.49974E-20
 -1      2977 9.53165E-05-2.87728E-05-2.85196E-05 7.40541E-07-8.46570E-19-2.27030E-19
 -1      2978 9.53192E-05-2.87501E-05-2.85281E-05 7.03859E-07-7.20524E-19-3.60132E-19
 -1      2979 9.54443E-05-2.88481E-05-2.85422E-05 7.51083E-07-8.60794E-19 2.09169E-20
 -1      2980 9.52911E-05-2.87166E-05-2.85329E-05 6.73485E-07-7.07142E-19-6.32858E-19
 -1      2981 9.52966E-05-2.86937E-05-2.85426E-05 6.47937E-07-1.89594E-19-3.91155E-19
 -1      2982 9.53843E-05-2.87768E-05-2.85468E-05 6.84107E-07-8.61055E-19-2.80606E-19
 -1      2983 9.52747E-05-2.86625E-05-2.85489E-05 6.30396E-07-2.07110E-19-6.31602E-19
 -1      2984 9.52844E-05-2.86432E-05-2.85591E-05 6.16723E-07-5.16883E-19-8.36135E-19
 -1      2985 9.53351E-05-2.87055E-05-2.85562E-05 6.39782E-07-5.40901E-19-6.33144E-19
 -1      2986 9.52707E-05-2.86188E-05-2.85658E-05 6.12670E-07-3.32897E-19-9.36028E-19
 -1      2987 9.52871E-05-2.86078E-05-2.85755E-05 6.09765E-07-7.17072E-20-8.33561E-19
 -1      2988 9.52997E-05-2.86431E-05-2.85678E-05 6.21366E-07-4.30138E-19-9.26017E-19
 -1      2989 9.52856E-05-2.85957E-05-2.85817E-05 6.18294E-07 1.16604E-19-3.64349E-19
 -1      2990 9.53127E-05-2.85995E-05-2.85902E-05 6.22915E-07-6.46812E-20-1.97488E-19
 -1      2991 9.52841E-05-2.86007E-05-2.85795E-05 6.29094E-07 2.19551E-19-2.26446E-19
 -1      2992 9.53300E-05-2.86076E-05-2.85951E-05 6.41181E-07-2.52440E-19 1.61585E-19
 -1      2993 9.53738E-05-2.86346E-05-2.86016E-05 6.47347E-07 1.67107E-19 1.79544E-19
 -1      2994 9.52986E-05-2.85931E-05-2.85894E-05 6.59834E-07 2.19260E-19 3.06734E-19
 -1      2995 9.54202E-05-2.86739E-05-2.86044E-05 6.69796E-07 3.04885E-19 1.18519E-19
 -1      2996 9.54892E-05-2.87356E-05-2.86082E-05 6.67882E-07 2.31045E-19 2.35002E-20
 -1      2997 9.53598E-05-2.86410E-05-2.85958E-05 7.06018E-07 5.84654E-20 4.55422E-19
 -1      2998 9.55794E-05-2.88202E-05-2.86085E-05 6.85019E-07-1.14413E-19-2.81180E-19
 -1      2999 9.56844E-05-2.89305E-05-2.86090E-05 6.60617E-07-8.25103E-20-4.78181E-19
 -1      3000 9.54926E-05-2.87720E-05-2.85977E-05 7.53720E-07 7.88423E-20 3.86702E-19
 -1      3001 9.58382E-05-2.90777E-05-2.86070E-05 6.57296E-07 4.12473E-19-3.07792E-19
 -1      3002 9.59916E-05-2.92514E-05-2.86043E-05 5.90045E-07 2.77511E-19-1.52550E-19
 -1      3003 9.57312E-05-2.90209E-05-2.85948E-05 7.79745E-07 3.01675E-19 3.53049E-19
 -1      3004 9.62329E-05-2.94791E-05-2.86015E-05 5.43376E-07-1.15988E-19-1.21145E-19
 -1      3005 9.64466E-05-2.97286E-05-2.85966E-05 4.06216E-07 3.53809E-19 3.68231E-19
 -1      3006 9.61193E-05-2.94271E-05-2.85891E-05 7.47721E-07 1.05976E-19 4.56812E-19
 -1      3007 9.67999E-05-3.00506E-05-2.85964E-05 2.83545E-07 3.20635E-19 2.36629E-19
 -1      3008 9.70809E-05-3.03789E-05-2.85923E-05 4.32922E-08 3.00438E-19-1.61616E-19
 -1      3009 9.67059E-05-3.00267E-05-2.85858E-05 6.03599E-07 1.01991E-19 3.86325E-19
 -1      3010 9.75641E-05-3.07956E-05-2.86012E-05-1.98555E-07 4.48877E-19-4.09057E-19
 -1      3011 9.79061E-05-3.11857E-05-2.86037E-05-5.77714E-07 5.10909E-19-9.27828E-19
 -1      3012 9.75352E-05-3.08379E-05-2.85957E-05 2.71995E-07-1.40668E-19 8.00969E-20
 -1      3013 9.85175E-05-3.16702E-05-2.86324E-05-9.89254E-07 9.75551E-19-1.11019E-18
 -1      3014 9.88908E-05-3.20706E-05-2.86504E-05-1.53683E-06 1.37862E-18-7.70078E-19
 -1      3015 9.86267E-05-3.18352E-05-2.86372E-05-3.43059E-07 7.28325E-19-4.70276E-19
 -1      3016 9.95899E-05-3.25513E-05-2.87140E-05-2.16399E-06 1.36552E-18-1.56988E-18
 -1      3017 9.99307E-05-3.28621E-05-2.87602E-05-2.88576E-06 1.13284E-18-1.47365E-18
 -1      3018 9.99427E-05-3.29124E-05-2.87382E-05-1.34548E-06 1.13719E-18-1.30800E-18
 -1      3019 1.00618E-04-3.32082E-05-2.88773E-05-3.74370E-06 5.34408E-19-1.05224E-18
 -1      3020 1.00825E-04-3.32786E-05-2.89653E-05-4.59490E-06 1.78166E-20-1.09922E-18
 -1      3021 1.01348E-04-3.38446E-05-2.89352E-05-2.81077E-06 7.56547E-19-1.90330E-18
 -1      3022 1.01336E-04-3.33034E-05-2.91540E-05-5.62620E-06-2.03513E-19-1.48097E-18
 -1      3023 1.01286E-04-3.29540E-05-2.92952E-05-6.47980E-06-1.97707E-19-2.44624E-18
 -1      3024 1.02579E-04-3.42723E-05-2.92690E-05-4.71751E-06-1.25160E-19-2.22347E-18
 -1      3025 1.01406E-04-3.24531E-05-2.95654E-05-7.49449E-06 2.98242E-19-2.03186E-18
 -1      3026 1.01004E-04-3.15528E-05-2.97607E-05-8.11749E-06-1.27785E-19-1.35558E-18
 -1      3027 1.03247E-04-3.37317E-05-2.97718E-05-6.84338E-06 4.53274E-21-2.87875E-18
 -1      3028 1.00578E-04-3.04228E-05-3.01000E-05-8.77133E-06-6.85984E-19-1.31808E-18
 -1      3029 9.98334E-05-2.90048E-05-3.03311E-05-8.86125E-06-7.73587E-19-6.09599E-19
 -1      3030 1.02965E-04-3.18594E-05-3.04440E-05-8.65072E-06-8.32144E-20-2.01103E-18
 -1      3031 9.88938E-05-2.73763E-05-3.06952E-05-8.72185E-06-9.57954E-19 4.10214E-19
 -1      3032 9.79893E-05-2.57503E-05-3.09207E-05-8.01062E-06-7.68056E-19 4.50158E-19
 -1      3033 1.01579E-04-2.86531E-05-3.12253E-05-9.32341E-06-6.96969E-19-1.18603E-18
 -1      3034 9.68994E-05-2.41107E-05-3.12329E-05-6.80617E-06-9.50206E-19 4.05126E-19
 -1      3035 9.61505E-05-2.28034E-05-3.13969E-05-5.27362E-06-1.03446E-18 3.37109E-19
 -1      3036 9.94912E-05-2.48504E-05-3.19806E-05-8.05638E-06-9.39347E-19 2.27482E-19
 -1      3037 9.54105E-05-2.17651E-05-3.15734E-05-3.10789E-06-6.55536E-19 3.51624E-19
 -1      3038 9.51462E-05-2.13180E-05-3.16262E-05-1.03725E-06-2.96198E-19 8.64070E-19
 -1      3039 9.75788E-05-2.16968E-05-3.25292E-05-4.62272E-06-5.48280E-19 4.53288E-19
 -1      3040 9.52219E-05-2.14106E-05-3.16105E-05 1.47413E-06-4.52272E-19 4.39280E-19
 -1      3041 9.55521E-05-2.20137E-05-3.15359E-05 3.48399E-06-3.91311E-19 1.07569E-18
 -1      3042 9.68839E-05-2.06172E-05-3.27088E-05 2.47231E-07-6.32856E-19 4.51028E-19
 -1      3043 9.63827E-05-2.31692E-05-3.13342E-05 5.55351E-06-7.75076E-19 1.33114E-18
 -1      3044 9.71632E-05-2.45674E-05-3.11546E-05 6.96209E-06-1.92195E-19 5.92566E-19
 -1      3045 9.78095E-05-2.20790E-05-3.24658E-05 5.00323E-06-6.75903E-19-7.16578E-19
 -1      3046 9.82845E-05-2.62614E-05-3.08282E-05 8.02663E-06 6.44017E-19 2.43898E-19
 -1      3047 9.91820E-05-2.78930E-05-3.05962E-05 8.58572E-06 5.70134E-19-5.01471E-19
 -1      3048 9.98234E-05-2.54150E-05-3.18733E-05 8.14622E-06-1.23073E-19-1.03695E-18
 -1      3049 1.00068E-04-2.94814E-05-3.02316E-05 8.58932E-06 8.21146E-19 4.91438E-19
 -1      3050 1.00771E-04-3.08343E-05-3.00021E-05 8.38256E-06-1.62332E-19 1.20584E-18
 -1      3051 1.01885E-04-2.92351E-05-3.11035E-05 9.08510E-06 6.28115E-19 2.30434E-19
 -1      3052 1.01117E-04-3.18866E-05-2.96713E-05 7.64191E-06-7.39568E-19 1.68851E-18
 -1      3053 1.01468E-04-3.26967E-05-2.94823E-05 6.95285E-06-5.16728E-19 1.89006E-18
 -1      3054 1.03137E-04-3.22876E-05-3.03334E-05 8.16737E-06-6.84056E-20 1.70507E-18
 -1      3055 1.01272E-04-3.31125E-05-2.92252E-05 5.89584E-06-1.50348E-18 1.54146E-18
 -1      3056 1.01274E-04-3.33752E-05-2.90921E-05 5.02562E-06-6.24090E-19 3.58711E-19
 -1      3057 1.03276E-04-3.39657E-05-2.96869E-05 6.23398E-06-1.13249E-18 1.91075E-18
 -1      3058 1.00711E-04-3.32790E-05-2.89176E-05 3.98347E-06 4.42191E-19 1.96608E-19
 -1      3059 1.00463E-04-3.31362E-05-2.88381E-05 3.15029E-06 1.15260E-18 4.19471E-19
 -1      3060 1.02495E-04-3.43190E-05-2.92151E-05 4.07936E-06-1.02317E-19 1.49522E-18
 -1      3061 9.97396E-05-3.27290E-05-2.87354E-05 2.30005E-06 1.65961E-18-5.32612E-19
 -1      3062 9.93616E-05-3.23546E-05-2.86979E-05 1.62089E-06 1.50378E-18 4.82458E-19
 -1      3063 1.01191E-04-3.37426E-05-2.89134E-05 2.19916E-06 8.79495E-19 8.08350E-19
 -1      3064 9.86364E-05-3.18218E-05-2.86481E-05 1.02147E-06 2.25964E-19 6.72749E-19
 -1      3065 9.82277E-05-3.13646E-05-2.86382E-05 5.32263E-07-4.60686E-19 7.48392E-19
 -1      3066 9.97331E-05-3.26812E-05-2.87480E-05 7.98692E-07 5.81528E-19 2.36129E-19
 -1      3067 9.76220E-05-3.08566E-05-2.86242E-05 1.54323E-07-6.89918E-19-9.37969E-20
 -1      3068 9.72351E-05-3.04019E-05-2.86283E-05-1.44783E-07-6.21651E-19-8.24943E-19
 -1      3069 9.72899E-05-3.04026E-05-2.86651E-05-6.50720E-07-1.03010E-19-9.67411E-19
 -1      3070 9.84046E-05-3.14997E-05-2.86786E-05-1.19527E-07-1.12620E-18-1.99714E-19
 -1      3071 8.96824E-05-2.23093E-05-2.88361E-05 2.69514E-06-1.42843E-18-4.22108E-18
 -1      3072 8.96254E-05-2.22536E-05-2.89137E-05 4.19167E-06-1.49000E-18-4.12578E-18
 -1      3073 9.56508E-05-2.72737E-05-2.93122E-05 2.54629E-07 9.22119E-19-1.00739E-18
 -1      3074 9.56822E-05-2.68188E-05-2.94949E-05 8.08866E-07 9.08826E-19-9.94813E-19
 -1      3075 9.54667E-05-2.88560E-05-2.85466E-05-1.07937E-06 3.73700E-19-1.15336E-20
 -1      3076 9.54739E-05-2.88243E-05-2.85624E-05-1.10300E-06 5.71961E-19-1.73762E-19
 -1      3077 9.56764E-05-2.89491E-05-2.85994E-05-1.02807E-06 2.45345E-19 3.76805E-19
 -1      3078 9.55178E-05-2.87875E-05-2.85984E-05-1.10923E-06 5.71634E-19-4.82328E-19
 -1      3079 9.55322E-05-2.87218E-05-2.86298E-05-1.09428E-06 4.96073E-19-4.82025E-19
 -1      3080 9.57592E-05-2.88874E-05-2.86618E-05-1.05606E-06 3.73435E-19-2.64108E-19
 -1      3081 9.53843E-05-2.88511E-05-2.85128E-05-9.07418E-07 2.58986E-19 2.48752E-19
 -1      3082 9.53829E-05-2.88587E-05-2.85105E-05-9.56510E-07 1.47944E-19 1.54166E-19
 -1      3083 9.55974E-05-2.89517E-05-2.85640E-05-9.57144E-07 1.53894E-19 1.38979E-19
 -1      3084 9.53520E-05-2.88060E-05-2.85182E-05-8.14729E-07-5.03234E-20 3.73459E-19
 -1      3085 9.53485E-05-2.88251E-05-2.85107E-05-8.60280E-07 2.37367E-19 3.11719E-19
 -1      3086 9.55243E-05-2.89144E-05-2.85483E-05-8.70471E-07 2.92752E-19-6.33990E-20
 -1      3087 9.53231E-05-2.87419E-05-2.85332E-05-7.39118E-07 2.85151E-19 2.99943E-19
 -1      3088 9.53189E-05-2.87702E-05-2.85219E-05-7.74168E-07 1.53680E-19 1.77420E-19
 -1      3089 9.54568E-05-2.88492E-05-2.85470E-05-7.87396E-07 1.13964E-19 2.87602E-19
 -1      3090 9.52942E-05-2.86603E-05-2.85558E-05-6.91747E-07 1.10567E-19 1.82196E-19
 -1      3091 9.52908E-05-2.86974E-05-2.85413E-05-7.10780E-07 2.86116E-19 7.47007E-20
 -1      3092 9.53924E-05-2.87619E-05-2.85565E-05-7.21757E-07 4.18562E-19 3.46716E-20
 -1      3093 9.52622E-05-2.85641E-05-2.85832E-05-6.81320E-07-3.90793E-19 1.79451E-20
 -1      3094 9.52610E-05-2.86090E-05-2.85668E-05-6.80451E-07-2.28862E-19-4.88232E-20
 -1      3095 9.53281E-05-2.86563E-05-2.85737E-05-6.84195E-07 7.92564E-20-8.93792E-20
 -1      3096 9.52159E-05-2.84359E-05-2.86182E-05-7.15351E-07-1.46204E-19-2.24061E-19
 -1      3097 9.52208E-05-2.84975E-05-2.85978E-05-6.88913E-07-2.71650E-19-1.12056E-19
 -1      3098 9.52548E-05-2.85267E-05-2.85975E-05-6.80920E-07-1.60074E-19-4.43542E-19
 -1      3099 9.51429E-05-2.82663E-05-2.86595E-05-8.05143E-07 4.80003E-19 2.40679E-19
 -1      3100 9.51595E-05-2.83496E-05-2.86356E-05-7.46930E-07 1.97699E-19 2.08745E-19
 -1      3101 9.51585E-05-2.83584E-05-2.86276E-05-7.19525E-07-1.06768E-19-5.77248E-19
 -1      3102 9.50213E-05-2.80329E-05-2.87075E-05-9.61994E-07 5.13673E-19-4.96415E-20
 -1      3103 9.50597E-05-2.81496E-05-2.86795E-05-8.64482E-07 7.79031E-19 2.99243E-19
 -1      3104 9.50218E-05-2.81372E-05-2.86629E-05-8.07304E-07 6.21970E-19 3.18869E-19
 -1      3105 9.48157E-05-2.77016E-05-2.87616E-05-1.19910E-06-7.27970E-20 1.22917E-19
 -1      3106 9.48926E-05-2.78695E-05-2.87293E-05-1.05290E-06 2.89991E-19-4.01981E-20
 -1      3107 9.48152E-05-2.78354E-05-2.87019E-05-9.50039E-07 2.93904E-19 3.67839E-19
 -1      3108 9.44684E-05-2.72216E-05-2.88194E-05-1.53072E-06 3.03926E-19-8.34075E-19
 -1      3109 9.46122E-05-2.74674E-05-2.87837E-05-1.32471E-06-2.17889E-20-4.70175E-19
 -1      3110 9.44922E-05-2.74126E-05-2.87420E-05-1.15141E-06 3.69960E-19 2.59936E-20
 -1      3111 9.38887E-05-2.65195E-05-2.88740E-05-1.96935E-06 2.45691E-20-4.21095E-19
 -1      3112 9.41455E-05-2.68815E-05-2.88380E-05-1.69176E-06 6.72644E-20-7.33906E-19
 -1      3113 9.39818E-05-2.68102E-05-2.87771E-05-1.40967E-06 1.90261E-19-1.00890E-18
 -1      3114 9.29346E-05-2.54933E-05-2.89090E-05-2.51916E-06 3.30316E-19 8.46859E-19
 -1      3115 9.33783E-05-2.60250E-05-2.88810E-05-2.16069E-06 4.44867E-20 3.42115E-19
 -1      3116 9.31756E-05-2.59474E-05-2.87946E-05-1.71104E-06-2.78239E-19-4.54517E-19
 -1      3117 9.13908E-05-2.40103E-05-2.88908E-05-3.16386E-06 6.67406E-19 1.38619E-18
 -1      3118 9.21366E-05-2.47807E-05-2.88886E-05-2.72382E-06 1.04272E-18 1.39796E-18
 -1      3119 9.19126E-05-2.47180E-05-2.87696E-05-2.01796E-06 2.15980E-19 3.18095E-19
 -1      3120 8.89366E-05-2.19107E-05-2.87517E-05-3.84558E-06-4.23310E-20 1.34332E-18
 -1      3121 9.01604E-05-2.30005E-05-2.88129E-05-3.34371E-06 1.77045E-19 1.21084E-18
 -1      3122 8.99589E-05-2.29942E-05-2.86554E-05-2.24972E-06 4.61949E-19 1.15083E-18
 -1      3123 8.53588E-05-1.92103E-05-2.83971E-05-4.42017E-06-1.14439E-19 1.35851E-18
 -1      3124 8.71773E-05-2.06087E-05-2.85733E-05-3.92712E-06 6.89091E-20 1.35147E-18
 -1      3125 8.70803E-05-2.07073E-05-2.83774E-05-2.25828E-06-1.51484E-19 5.55705E-19
 -1      3126 7.97179E-05-1.55692E-05-2.75656E-05-4.76394E-06-4.75129E-19 6.69340E-19
 -1      3127 8.26495E-05-1.74352E-05-2.80081E-05-4.30985E-06 1.02342E-19 1.04828E-18
 -1      3128 8.28094E-05-1.77270E-05-2.77901E-05-1.83411E-06 8.61897E-20 7.43268E-19
 -1      3129 7.13888E-05-1.12927E-05-2.58423E-05-4.61971E-06-9.07907E-19 1.88366E-19
 -1      3130 7.57494E-05-1.34194E-05-2.67891E-05-4.30869E-06-7.50117E-19 2.84798E-19
 -1      3131 7.64269E-05-1.39740E-05-2.66010E-05-5.92973E-07-2.01645E-19 2.69396E-19
 -1      3132 5.92385E-05-7.20316E-06-2.23645E-05-4.01112E-06-5.21422E-19-5.05096E-19
 -1      3133 6.56238E-05-8.92857E-06-2.43457E-05-3.74917E-06-7.64097E-19-1.27227E-19
 -1      3134 6.72017E-05-9.81287E-06-2.43208E-05 1.93237E-06-7.32055E-19-3.37318E-19
 -1      3135 8.92392E-05-2.22038E-05-2.87212E-05 1.31793E-06-8.06667E-19-4.56140E-18
 -1      3136 9.55733E-05-2.86400E-05-2.86864E-05-1.05155E-06 5.68329E-19-5.93952E-19
 -1      3137 9.55973E-05-2.85250E-05-2.87399E-05-9.70985E-07 5.18977E-19-5.29839E-19
 -1      3138 9.58398E-05-2.87380E-05-2.87610E-05-1.00325E-06 5.33450E-19-7.81912E-19
 -1      3139 1.17314E-04-8.19454E-06-4.72338E-05-3.67882E-06-2.14331E-18 5.29501E-19
 -1      3140 1.19106E-04-1.08165E-05-4.66935E-05-8.42628E-06-1.92245E-18 7.65903E-19
 -1      3141 4.31850E-05-4.73017E-06-1.64579E-05 6.06186E-06-2.73995E-19-1.38299E-18
 -1      3142 5.40029E-05-6.21677E-06-2.01435E-05 5.21371E-08-4.48286E-19-8.76044E-19
 -1      3143 5.58547E-05-6.85123E-06-2.06006E-05 8.45024E-06-6.37058E-19-1.55399E-18
 -1      3144 4.66193E-05-8.89459E-06-1.56664E-05 2.10913E-05-3.81827E-19-2.21700E-18
 -1      3145 1.28404E-04-5.67959E-05-3.05199E-05-2.08647E-05 1.94987E-18 6.58409E-19
 -1      3146 1.35179E-04-5.57427E-05-3.44742E-05-9.98458E-06 1.06364E-18 1.71733E-18
 -1      3147 9.70824E-05-3.00105E-05-2.87311E-05-3.54165E-06-1.43517E-18 7.25010E-19
 -1      3148 9.66208E-05-2.95869E-05-2.87310E-05-4.01192E-06-1.89437E-18 7.35349E-19
 -1      3149 9.77617E-05-3.08257E-05-2.87073E-05-3.44647E-06-7.27337E-19 2.60968E-18
 -1      3150 9.59479E-05-2.89321E-05-2.86958E-05-4.54398E-06-1.27571E-18-2.12703E-19
 -1      3151 9.51662E-05-2.82744E-05-2.86824E-05-4.75041E-06-3.27551E-19 6.56430E-20
 -1      3152 9.66871E-05-2.98955E-05-2.86468E-05-4.79401E-06-9.21658E-19-4.71999E-19
 -1      3153 9.74528E-05-3.05012E-05-2.86877E-05-1.14536E-06-1.12066E-19-4.27602E-19
 -1      3154 9.75421E-05-3.05127E-05-2.87169E-05-1.68160E-06-4.87799E-19 1.90929E-18
 -1      3155 9.81320E-05-3.11422E-05-2.87162E-05-2.10105E-06-6.28107E-19 2.80536E-18
 -1      3156 9.79676E-05-3.10541E-05-2.86867E-05-9.90409E-07-4.74887E-19-5.70577E-20
 -1      3157 8.04004E-05-1.60109E-05-2.76729E-05 5.49846E-06-1.55354E-19-3.04945E-18
 -1      3158 7.70395E-05-1.40426E-05-2.70564E-05 6.00632E-06 5.18874E-20-2.66432E-18
 -1      3159 5.27440E-05-6.38887E-06-1.95020E-05 8.39448E-06-1.06068E-18-2.77880E-18
 -1      3160 4.38046E-05-4.92634E-06-1.63823E-05 5.54564E-06-1.39066E-18-2.96112E-18
 -1      3161 4.29847E-05-4.60788E-06-1.59810E-05-6.19523E-06-1.05397E-18-1.80291E-18
 -1      3162 9.34777E-05-1.98437E-05-3.15510E-05-6.24344E-06-1.25172E-18-2.12558E-18
 -1      3163 9.45822E-05-4.32302E-05-2.19625E-05 4.12552E-05 1.10321E-18-2.17751E-18
 -1      3164 7.88891E-05-3.24361E-05-1.95267E-05 3.99370E-05 9.43383E-20-1.87867E-18
 -1      3165 9.55213E-05-2.61919E-05-2.97257E-05 1.38782E-06 1.14132E-18-9.94112E-19
 -1      3166 9.54872E-05-2.54815E-05-2.99858E-05 2.22803E-06 1.36754E-18-8.64960E-19
 -1      3167 9.56983E-05-2.61613E-05-2.98153E-05 1.22843E-06 1.07018E-18-1.31756E-18
 -1      3168 7.22753E-05-1.17964E-05-2.60052E-05 5.51590E-06-5.15102E-19-2.28622E-18
 -1      3169 6.76735E-05-9.71920E-06-2.48201E-05 5.81397E-06-8.72087E-19-2.40976E-18
 -1      3170 7.31376E-05-1.23147E-05-2.58607E-05 9.34487E-07-4.25667E-19-2.54854E-18
 -1      3171 9.23482E-05-1.83081E-05-3.17465E-05 1.80121E-06 9.67171E-19-2.08547E-18
 -1      3172 9.22283E-05-1.81080E-05-3.17778E-05 1.04688E-06 6.76698E-19-2.29432E-18
 -1      3173 6.46508E-05-2.19690E-05-1.78603E-05-3.46142E-05 8.40627E-19 7.87476E-19
 -1      3174 8.06088E-05-3.35127E-05-2.00299E-05-3.97149E-05 1.38924E-18 3.04069E-18
 -1      3175 1.37298E-04-3.31415E-05-4.49106E-05 1.07100E-05-2.19307E-18-6.24157E-19
 -1      3176 1.30642E-04-2.20697E-05-4.70213E-05 1.26681E-05-3.21534E-18-1.84214E-18
 -1      3177 9.03058E-05-2.35264E-05-2.85892E-05-2.22491E-06 1.08480E-18-2.19452E-18
 -1      3178 8.97503E-05-2.30582E-05-2.86121E-05-1.18524E-06 2.36188E-19-3.22517E-18
 -1      3179 6.29094E-05-2.14206E-05-1.76907E-05 3.54728E-05-2.21684E-19-3.01448E-18
 -1      3180 5.26307E-05-1.38335E-05-1.61876E-05 2.80743E-05 2.02216E-19-3.22831E-18
 -1      3181 5.65100E-05-1.17153E-05-1.87740E-05 2.11256E-05-1.60155E-19-2.53506E-18
 -1      3182 4.47698E-05-7.24157E-06-1.56705E-05-1.51184E-05-3.68036E-19-1.56034E-18
 -1      3183 5.16511E-05-1.27123E-05-1.64182E-05-2.59824E-05 1.50190E-19-1.03793E-18
 -1      3184 1.33685E-04-4.22824E-05-3.94985E-05-7.06485E-06-3.18855E-19-1.20120E-19
 -1      3185 1.36110E-04-4.88279E-05-3.74182E-05-1.26233E-06 1.43519E-19 4.43819E-19
 -1      3186 1.35175E-04-5.31446E-05-3.54683E-05 5.78101E-06 9.48717E-19 1.09003E-19
 -1      3187 1.31675E-04-5.57701E-05-3.24891E-05 1.42675E-05 1.40778E-18-1.29914E-19
 -1      3188 1.31619E-04-5.00238E-05-3.50395E-05 1.51136E-06 8.91446E-19 3.01941E-19
 -1      3189 5.81068E-05-6.64344E-06-2.19466E-05 6.54532E-06-1.05558E-18-2.85053E-18
 -1      3190 1.37023E-04-4.91094E-05-3.75546E-05 1.03580E-06-6.57033E-19 3.48395E-19
 -1      3191 1.38505E-04-4.22918E-05-4.16997E-05 6.33188E-06-1.48861E-18-3.82224E-20
 -1      3192 1.31675E-04-3.74281E-05-4.05728E-05 1.01905E-05-1.77596E-18-1.72154E-18
 -1      3193 9.21719E-05-1.80102E-05-3.17959E-05 3.98538E-07 5.47941E-19-2.33458E-18
 -1      3194 9.21701E-05-1.80098E-05-3.17961E-05-3.72238E-07 2.76873E-19-2.38829E-18
 -1      3195 9.31206E-05-1.95924E-05-3.14953E-05 6.20702E-07 6.03346E-19-2.15902E-18
 -1      3196 9.46381E-05-2.26796E-05-3.08352E-05 5.17889E-06 1.79482E-18-7.21699E-19
 -1      3197 8.36806E-05-1.79354E-05-2.82221E-05 5.64088E-06-8.56092E-19-3.78820E-18
 -1      3198 8.07453E-05-1.62593E-05-2.74738E-05 2.43755E-06 3.72031E-19-2.64871E-18
 -1      3199 8.58710E-05-1.95085E-05-2.85043E-05 5.03764E-06-1.66217E-18-4.11056E-18
 -1      3200 1.25260E-04-1.69181E-05-4.68696E-05 1.19341E-05-3.18516E-18-1.12497E-18
 -1      3201 1.18941E-04-1.27803E-05-4.57825E-05 9.18992E-06-2.99506E-18-1.61738E-18
 -1      3202 1.23934E-04-2.28418E-05-4.34632E-05 1.26017E-05-3.18950E-18-8.05714E-19
 -1      3203 1.16542E-04-1.54258E-05-4.34971E-05-9.75247E-06-1.23296E-18-2.31399E-19
 -1      3204 1.21765E-04-1.63596E-05-4.57338E-05-1.16455E-05-1.90349E-18 1.17073E-18
 -1      3205 8.81922E-05-2.11001E-05-2.87901E-05 4.73476E-06-1.60177E-18-4.24853E-18
 -1      3206 9.49360E-05-2.34894E-05-3.05953E-05 4.07347E-06 1.73042E-18-8.75210E-19
 -1      3207 9.57052E-05-2.76625E-05-2.91474E-05-1.14387E-07 8.46210E-19-8.51138E-19
 -1      3208 9.58902E-05-2.72907E-05-2.94130E-05 1.99805E-07 7.91400E-19-1.21636E-18
 -1      3209 9.56618E-05-2.79476E-05-2.90248E-05-4.45233E-07 7.54733E-19-6.75967E-19
 -1      3210 5.95177E-05-7.37538E-06-2.20512E-05-3.93951E-07-9.72526E-19-1.52623E-18
 -1      3211 1.22507E-04-5.52797E-05-2.87718E-05-2.51336E-05 1.76141E-18 9.10494E-20
 -1      3212 1.24763E-04-5.36657E-05-3.04437E-05-1.67748E-05 2.25210E-18-1.00122E-20
 -1      3213 1.14423E-04-5.08883E-05-2.71828E-05-2.76045E-05 2.03960E-18 5.36344E-19
 -1      3214 9.11672E-05-2.45690E-05-2.85814E-05-3.44028E-06 2.16377E-18-3.26401E-18
 -1      3215 8.99213E-05-2.37563E-05-2.83848E-05-3.58123E-06 1.54909E-18-1.62012E-18
 -1      3216 9.20951E-05-2.53285E-05-2.85822E-05-4.15099E-06 2.43512E-18-8.58915E-19
 -1      3217 6.22273E-05-1.79039E-05-1.86256E-05-2.91145E-05-5.60365E-20-6.22728E-19
 -1      3218 7.25972E-05-2.28368E-05-2.12464E-05-2.94793E-05 3.97907E-19 9.15854E-21
 -1      3219 6.10195E-05-1.41224E-05-1.99787E-05-2.25007E-05-4.42204E-19-1.55685E-18
 -1      3220 1.16209E-04-7.93605E-06-4.68085E-05-8.79105E-07-1.74330E-18-2.06200E-19
 -1      3221 1.12653E-04-1.03180E-05-4.40469E-05-2.92390E-06-1.63477E-18 1.31844E-20
 -1      3222 1.14949E-04-8.53882E-06-4.58980E-05 2.56115E-06-2.01281E-18-5.77614E-19
 -1      3223 7.59116E-05-2.69780E-05-2.06309E-05 3.39139E-05 2.23458E-19-1.95527E-18
 -1      3224 9.30327E-05-1.94867E-05-3.15285E-05-3.62482E-06-5.32012E-19-2.16376E-18
 -1      3225 9.34126E-05-2.01606E-05-3.14159E-05-4.23518E-06-7.78003E-19-2.26026E-18
 -1      3226 9.59020E-05-2.84604E-05-2.89075E-05-8.22863E-07 5.00572E-19-8.09205E-19
 -1      3227 9.56255E-05-2.83783E-05-2.88222E-05-8.52777E-07 4.87153E-19-5.54031E-19
 -1      3228 9.56627E-05-2.81993E-05-2.89038E-05-6.73305E-07 6.62345E-19-5.24069E-19
 -1      3229 8.81548E-05-2.17992E-05-2.84767E-05 9.33038E-08-8.55437E-20-3.28961E-18
 -1      3230 9.48031E-05-2.82425E-05-2.85438E-05-5.54448E-06 1.00585E-20-5.78717E-19
 -1      3231 9.41757E-05-2.72878E-05-2.86346E-05-4.87155E-06 5.33299E-19 5.31770E-19
 -1      3232 9.31972E-05-2.64848E-05-2.86186E-05-4.64832E-06 1.52739E-18 5.01225E-19
 -1      3233 1.30628E-04-3.55207E-05-4.10381E-05-1.12579E-05-7.05446E-19 1.00797E-18
 -1      3234 1.28373E-04-3.96592E-05-3.81978E-05-8.51985E-06 4.28744E-19 1.24080E-18
 -1      3235 9.34066E-05-2.01642E-05-3.14125E-05 4.25836E-06 1.61403E-18-1.80343E-18
 -1      3236 9.30538E-05-1.95131E-05-3.15251E-05 3.65161E-06 1.48729E-18-1.88076E-18
 -1      3237 9.42915E-05-2.19350E-05-3.09951E-05 3.61161E-06 1.55781E-18-1.63635E-18
 -1      3238 9.40803E-05-2.15371E-05-3.10994E-05-4.87638E-06-1.14354E-18-1.89772E-18
 -1      3239 5.02988E-05-6.97838E-06-1.82246E-05-9.76439E-06-1.33455E-18-1.90498E-18
 -1      3240 1.26919E-04-5.57623E-05-3.05990E-05 1.95242E-05 1.05232E-18-6.78288E-21
 -1      3241 1.19421E-04-5.26003E-05-2.84809E-05 2.38120E-05 1.23690E-18 2.32944E-19
 -1      3242 1.26640E-04-5.30336E-05-3.14972E-05 1.22838E-05 1.44186E-18-2.02123E-19
 -1      3243 9.14713E-05-3.90057E-05-2.21202E-05-3.75508E-05 1.38172E-18 2.13031E-18
 -1      3244 1.01172E-04-4.36222E-05-2.46619E-05-3.28657E-05 1.30344E-18 2.01312E-18
 -1      3245 8.56771E-05-3.29324E-05-2.24924E-05-3.36734E-05 8.09022E-19 1.58054E-18
 -1      3246 1.04080E-04-4.61584E-05-2.45708E-05 3.43818E-05 1.18897E-18-1.65013E-18
 -1      3247 9.50836E-05-2.42211E-05-3.03738E-05 3.27244E-06 1.54557E-18-9.47897E-19
 -1      3248 9.27542E-05-1.90157E-05-3.16242E-05 3.11208E-06 1.42162E-18-1.86766E-18
 -1      3249 9.25169E-05-1.85987E-05-3.16908E-05 2.41569E-06 1.17020E-18-1.89343E-18
 -1      3250 9.33343E-05-1.99725E-05-3.14200E-05 1.80130E-06 1.03257E-18-1.79622E-18
 -1      3251 9.37619E-05-2.07704E-05-3.12606E-05 2.86962E-06 1.36999E-18-1.74292E-18
 -1      3252 9.51101E-05-2.41075E-05-3.04305E-05 2.88068E-06 1.44138E-18-1.36085E-18
 -1      3253 9.40648E-05-2.14718E-05-3.11065E-05-4.22838E-06-9.08168E-19-1.84501E-18
 -1      3254 1.32823E-04-5.11171E-05-3.51288E-05-3.24813E-06-6.71538E-20 6.89485E-19
 -1      3255 9.25130E-05-1.85849E-05-3.16935E-05-2.38352E-06-1.24717E-19-2.40498E-18
 -1      3256 9.27449E-05-1.89898E-05-3.16275E-05-3.09629E-06-3.85261E-19-2.31855E-18
 -1      3257 9.37286E-05-2.07433E-05-3.12646E-05-2.80089E-06-5.00446E-19-2.04731E-18
 -1      3258 1.27717E-04-2.79111E-05-4.29379E-05-1.23533E-05-1.77718E-18 7.33425E-19
 -1      3259 1.21771E-04-2.59160E-05-4.11389E-05-1.30842E-05-7.27813E-19 2.13675E-18
 -1      3260 1.31998E-04-2.47836E-05-4.62044E-05-1.17392E-05-1.81466E-18 3.05038E-19
 -1      3261 9.56515E-05-2.89684E-05-2.85771E-05-7.98217E-07 3.38221E-19-3.88766E-20
 -1      3262 9.56876E-05-2.89952E-05-2.85824E-05-8.37929E-07 2.31463E-19-1.83082E-19
 -1      3263 1.11187E-04-1.40498E-05-4.19632E-05-7.34147E-06-9.50000E-19-7.88733E-19
 -1      3264 1.13908E-04-1.83357E-05-4.10910E-05-1.08981E-05-2.21155E-19-2.73836E-19
 -1      3265 8.59705E-05-1.95640E-05-2.83427E-05 2.90276E-06-1.02798E-18-3.75964E-18
 -1      3266 9.57724E-05-2.57927E-05-2.99847E-05-1.24791E-06-6.73637E-19-1.32534E-18
 -1      3267 9.59115E-05-2.64874E-05-2.97627E-05-6.74049E-07-6.12671E-19-1.14493E-18
 -1      3268 9.60916E-05-2.70935E-05-2.95623E-05-2.83663E-07-4.78727E-19-9.00074E-19
 -1      3269 9.61328E-05-2.75542E-05-2.93977E-05 9.27983E-08-2.65682E-19-7.35925E-19
 -1      3270 9.60719E-05-2.65295E-05-2.98028E-05-5.36206E-07-3.39766E-19-1.10010E-18
 -1      3271 9.62006E-05-2.79447E-05-2.92455E-05 3.43934E-07-2.70559E-19-7.84321E-19
 -1      3272 9.61914E-05-2.82401E-05-2.91260E-05 5.70648E-07-3.82441E-19-8.69868E-19
 -1      3273 9.63153E-05-2.76113E-05-2.94450E-05 1.24950E-07-3.21067E-19-1.19261E-18
 -1      3274 9.61905E-05-2.84813E-05-2.90130E-05 7.13048E-07-4.66464E-19-5.56232E-19
 -1      3275 9.61570E-05-2.86619E-05-2.89284E-05 8.32009E-07-3.69283E-19-4.54344E-19
 -1      3276 9.63828E-05-2.83133E-05-2.91741E-05 5.37433E-07-1.73402E-19-9.62860E-19
 -1      3277 9.61166E-05-2.87996E-05-2.88466E-05 8.96817E-07-3.19806E-19-2.79332E-19
 -1      3278 9.60729E-05-2.89009E-05-2.87885E-05 9.42686E-07-3.92471E-19-2.11609E-19
 -1      3279 9.63435E-05-2.87426E-05-2.89738E-05 7.62629E-07-2.46804E-19-4.50231E-19
 -1      3280 9.60116E-05-2.89678E-05-2.87308E-05 9.56052E-07-4.19417E-19-1.06104E-19
 -1      3281 9.59651E-05-2.90147E-05-2.86926E-05 9.55768E-07-2.04649E-19 2.90905E-20
 -1      3282 9.62443E-05-2.89811E-05-2.88292E-05 8.56577E-07-3.62819E-19-2.63762E-19
 -1      3283 9.58949E-05-2.90341E-05-2.86534E-05 9.38113E-07-4.24198E-19-9.44745E-20
 -1      3284 9.58497E-05-2.90445E-05-2.86298E-05 9.11618E-07-3.65105E-19-2.26115E-19
 -1      3285 9.61155E-05-2.90882E-05-2.87280E-05 8.65672E-07-3.43154E-19-4.56203E-19
 -1      3286 9.57778E-05-2.90328E-05-2.86045E-05 8.78061E-07-2.60353E-19-4.49291E-19
 -1      3287 9.57358E-05-2.90194E-05-2.85915E-05 8.39667E-07-1.58191E-19-5.35412E-19
 -1      3288 9.59758E-05-2.91070E-05-2.86598E-05 8.25455E-07-3.54507E-19-5.03373E-19
 -1      3289 9.56663E-05-2.89881E-05-2.85764E-05 8.01082E-07-2.11424E-19-6.02276E-19
 -1      3290 9.56285E-05-2.89598E-05-2.85709E-05 7.60784E-07-8.08553E-19-6.93298E-19
 -1      3291 9.58364E-05-2.90683E-05-2.86164E-05 7.62108E-07-2.90670E-19-9.25043E-19
 -1      3292 9.55636E-05-2.89172E-05-2.85631E-05 7.24817E-07-1.03721E-18-5.54759E-19
 -1      3293 9.55305E-05-2.88806E-05-2.85627E-05 6.89400E-07-8.70751E-19-7.03521E-19
 -1      3294 9.57038E-05-2.89938E-05-2.85912E-05 6.94420E-07-7.74475E-19-1.28773E-18
 -1      3295 9.54713E-05-2.88326E-05-2.85600E-05 6.61353E-07-9.89965E-19-4.17761E-19
 -1      3296 9.54432E-05-2.87928E-05-2.85630E-05 6.35237E-07-8.20728E-19-5.67012E-19
 -1      3297 9.55810E-05-2.88993E-05-2.85789E-05 6.35643E-07-9.06373E-19-8.45935E-19
 -1      3298 9.53907E-05-2.87443E-05-2.85635E-05 6.18772E-07-6.06578E-19-4.91576E-19
 -1      3299 9.53687E-05-2.87059E-05-2.85683E-05 6.04598E-07-5.12691E-19-4.77136E-19
 -1      3300 9.54702E-05-2.87966E-05-2.85752E-05 5.95092E-07-6.11063E-19-2.74257E-19
 -1      3301 9.53243E-05-2.86615E-05-2.85705E-05 6.02223E-07-3.89530E-19-4.38672E-19
 -1      3302 9.53106E-05-2.86297E-05-2.85759E-05 6.01170E-07-1.48208E-19-2.26788E-19
 -1      3303 9.53737E-05-2.86962E-05-2.85768E-05 5.79378E-07-4.42227E-19 8.56461E-20
 -1      3304 9.52773E-05-2.85953E-05-2.85787E-05 6.14503E-07 2.92540E-19 2.61774E-19
 -1      3305 9.52758E-05-2.85767E-05-2.85837E-05 6.26326E-07 4.29035E-19 2.95459E-19
 -1      3306 9.52957E-05-2.86094E-05-2.85807E-05 5.93220E-07 3.15741E-19 5.06275E-19
 -1      3307 9.52592E-05-2.85601E-05-2.85857E-05 6.56076E-07 2.18414E-19 2.44605E-19
 -1      3308 9.52767E-05-2.85639E-05-2.85894E-05 6.78827E-07 2.40924E-19 4.81198E-19
 -1      3309 9.52447E-05-2.85504E-05-2.85845E-05 6.39798E-07 5.58194E-19 3.52222E-19
 -1      3310 9.52865E-05-2.85764E-05-2.85897E-05 7.24424E-07 2.77330E-19 4.91014E-19
 -1      3311 9.53332E-05-2.86152E-05-2.85914E-05 7.53800E-07 5.87103E-20 6.00263E-19
 -1      3312 9.52355E-05-2.85395E-05-2.85859E-05 7.20515E-07 3.21462E-19 6.34204E-19
 -1      3313 9.53845E-05-2.86724E-05-2.85895E-05 8.12490E-07-5.47948E-20 6.81434E-19
 -1      3314 9.54754E-05-2.87632E-05-2.85887E-05 8.40711E-07 4.18166E-19 7.18827E-19
 -1      3315 9.52925E-05-2.86051E-05-2.85833E-05 8.33893E-07 2.68601E-19 1.17087E-18
 -1      3316 9.55906E-05-2.88857E-05-2.85848E-05 9.05913E-07 3.54962E-19 3.62136E-19
 -1      3317 9.57456E-05-2.90495E-05-2.85818E-05 9.20036E-07 2.39653E-19 5.01664E-19
 -1      3318 9.54525E-05-2.87859E-05-2.85763E-05 9.73214E-07 3.47663E-19 1.22863E-18
 -1      3319 9.59550E-05-2.92623E-05-2.85770E-05 9.78650E-07-2.46924E-19-4.61813E-20
 -1      3320 9.61982E-05-2.95219E-05-2.85737E-05 9.58333E-07-5.09397E-19-2.54878E-19
 -1      3321 9.57680E-05-2.91313E-05-2.85661E-05 1.12228E-06-4.02335E-19 1.48924E-19
 -1      3322 9.65399E-05-2.98517E-05-2.85715E-05 9.86789E-07-3.97809E-19 1.31242E-19
 -1      3323 9.68961E-05-3.02271E-05-2.85717E-05 9.01754E-07-1.01958E-19-1.15300E-19
 -1      3324 9.63071E-05-2.96988E-05-2.85575E-05 1.24866E-06-4.84651E-19-1.95963E-19
 -1      3325 9.74116E-05-3.06950E-05-2.85789E-05 8.60951E-07-3.07084E-20-2.08881E-19
 -1      3326 9.78988E-05-3.11928E-05-2.85902E-05 6.69099E-07-1.84858E-19-3.46172E-20
 -1      3327 9.71506E-05-3.05441E-05-2.85609E-05 1.29403E-06-4.33855E-19-2.75595E-19
 -1      3328 9.86233E-05-3.18010E-05-2.86189E-05 4.99499E-07 1.60257E-19-1.15912E-19
 -1      3329 9.92397E-05-3.23972E-05-2.86532E-05 1.47998E-07 7.93058E-19-5.32649E-19
 -1      3330 9.83777E-05-3.16999E-05-2.85958E-05 1.16259E-06-3.86877E-20-2.22825E-19
 -1      3331 1.00181E-04-3.31071E-05-2.87219E-05-2.31110E-07 6.43806E-19-8.26225E-19
 -1      3332 1.00886E-04-3.37227E-05-2.87967E-05-7.96982E-07 1.05008E-18-1.30171E-18
 -1      3333 1.00038E-04-3.31375E-05-2.86941E-05 7.12039E-07 9.05008E-19-2.60417E-19
 -1      3334 1.01992E-04-3.44244E-05-2.89316E-05-1.47358E-06 9.06537E-19-1.45703E-18
 -1      3335 1.02683E-04-3.49008E-05-2.90689E-05-2.28619E-06 2.03779E-19-1.84943E-18
 -1      3336 1.02095E-04-3.47053E-05-2.89029E-05-2.39765E-07 6.66542E-19-1.47665E-18
 -1      3337 1.03807E-04-3.53881E-05-2.93009E-05-3.31250E-06-7.76822E-20-1.99919E-18
 -1      3338 1.04316E-04-3.54828E-05-2.95226E-05-4.33719E-06-1.49020E-19-2.19660E-18
 -1      3339 1.04355E-04-3.60577E-05-2.92838E-05-1.86126E-06 5.81231E-20-1.68832E-18
 -1      3340 1.05201E-04-3.54601E-05-2.98810E-05-5.67502E-06-1.05228E-19-2.36087E-18
 -1      3341 1.05307E-04-3.48683E-05-3.02028E-05-6.75650E-06-1.67344E-19-1.66044E-18
 -1      3342 1.06428E-04-3.66534E-05-2.99029E-05-4.20790E-06 3.68477E-19-1.04584E-18
 -1      3343 1.05568E-04-3.39819E-05-3.07017E-05-8.11214E-06 2.40776E-20-1.75356E-18
 -1      3344 1.05116E-04-3.25183E-05-3.11122E-05-8.88877E-06-6.83752E-20-1.48141E-18
 -1      3345 1.07641E-04-3.56566E-05-3.08167E-05-7.02449E-06 1.63781E-19-1.16448E-18
 -1      3346 1.04537E-04-3.06643E-05-3.17150E-05-9.73623E-06-2.19722E-19-1.54307E-18
 -1      3347 1.03557E-04-2.84207E-05-3.21654E-05-9.75686E-06-4.53841E-20-1.15197E-18
 -1      3348 1.07378E-04-3.26129E-05-3.20020E-05-9.44404E-06 2.75733E-19-2.00964E-18
 -1      3349 1.02207E-04-2.59311E-05-3.27693E-05-9.28505E-06-5.02214E-19-4.14652E-19
 -1      3350 1.01115E-04-2.36319E-05-3.31593E-05-8.16202E-06-8.53915E-19-4.19745E-20
 -1      3351 1.05340E-04-2.74195E-05-3.33381E-05-1.01845E-05 5.94875E-20-9.53054E-19
 -1      3352 9.97814E-05-2.14937E-05-3.36087E-05-6.28744E-06-6.86725E-19 4.70865E-19
 -1      3353 9.90042E-05-1.99411E-05-3.38383E-05-4.16553E-06-4.44811E-19 7.21209E-19
 -1      3354 1.02734E-04-2.24684E-05-3.44154E-05-7.86083E-06-2.32855E-19 4.38760E-19
 -1      3355 9.83626E-05-1.91183E-05-3.39977E-05-9.07411E-07-1.17822E-18 4.72419E-20
 -1      3356 9.85312E-05-1.92985E-05-3.39744E-05 1.62047E-06-1.37765E-18-9.73628E-19
 -1      3357 1.00469E-04-1.83474E-05-3.51742E-05-2.90633E-06-1.39563E-18-7.56328E-19
 -1      3358 9.92171E-05-2.03265E-05-3.37698E-05 4.56741E-06-1.19833E-18-9.51635E-19
 -1      3359 1.00071E-04-2.20054E-05-3.35141E-05 6.63998E-06-4.89209E-19-1.20190E-18
 -1      3360 1.00865E-04-1.89403E-05-3.51126E-05 3.42503E-06-1.16997E-18-8.97635E-19
 -1      3361 1.01508E-04-2.43186E-05-3.30283E-05 8.36746E-06-1.56771E-19-1.52479E-18
 -1      3362 1.02651E-04-2.66970E-05-3.26209E-05 9.32678E-06 2.38991E-19-1.50757E-18
 -1      3363 1.03052E-04-2.28874E-05-3.43442E-05 8.25942E-06-5.56382E-19-8.85029E-19
 -1      3364 1.03931E-04-2.91671E-05-3.20098E-05 9.51406E-06 1.10028E-18-1.16790E-18
 -1      3365 1.04850E-04-3.13222E-05-3.15625E-05 9.35152E-06 1.10610E-18-6.73155E-19
 -1      3366 1.05849E-04-2.84260E-05-3.31382E-05 1.00138E-05 1.14394E-18-1.39146E-18
 -1      3367 1.05339E-04-3.30655E-05-3.09736E-05 8.39076E-06 4.99143E-19-4.58342E-19
 -1      3368 1.05716E-04-3.44158E-05-3.05751E-05 7.52161E-06 7.92530E-20 2.11465E-19
 -1      3369 1.07643E-04-3.32711E-05-3.18306E-05 8.94770E-06 6.32799E-19-1.98201E-18
 -1      3370 1.05351E-04-3.51610E-05-3.01000E-05 6.11438E-06-1.27832E-18 3.32334E-19
 -1      3371 1.05176E-04-3.56335E-05-2.97954E-05 5.00984E-06-1.36020E-18 2.78406E-19
 -1      3372 1.07720E-04-3.60657E-05-3.06852E-05 6.34595E-06-3.00308E-20-1.85593E-18
 -1      3373 1.04251E-04-3.55625E-05-2.94609E-05 3.68399E-06-3.31575E-21 6.89651E-19
 -1      3374 1.03698E-04-3.53794E-05-2.92565E-05 2.66357E-06 6.12513E-19 9.26998E-19
 -1      3375 1.06360E-04-3.67626E-05-2.98253E-05 3.52293E-06-4.73772E-19-6.67736E-19
 -1      3376 1.02552E-04-3.48163E-05-2.90489E-05 1.66133E-06 8.72156E-20 9.89318E-19
 -1      3377 1.01833E-04-3.42689E-05-2.89293E-05 8.74377E-07 7.71070E-19 4.02958E-19
 -1      3378 1.04236E-04-3.60019E-05-2.92574E-05 1.21699E-06 2.84133E-19-5.87745E-20
 -1      3379 1.00713E-04-3.34978E-05-2.88180E-05 2.34383E-07 5.41223E-19 8.69567E-19
 -1      3380 9.99865E-05-3.28223E-05-2.87605E-05-2.70661E-07-3.94442E-19 9.84035E-20
 -1      3381 1.01940E-04-3.44947E-05-2.89278E-05-3.45273E-07 4.48141E-19-1.04338E-19
 -1      3382 9.92272E-05-3.22353E-05-2.87195E-05-5.47853E-07-7.44450E-19-1.78157E-19
 -1      3383 9.85933E-05-3.16055E-05-2.87001E-05-8.78613E-07-8.45876E-19-5.22404E-19
 -1      3384 9.87198E-05-3.17187E-05-2.87191E-05-1.44015E-06-6.82207E-19 8.03602E-19
 -1      3385 1.00135E-04-3.30391E-05-2.87768E-05-1.12937E-06-5.99813E-19 3.99512E-19
 -1      3386 9.22276E-05-1.81022E-05-3.17789E-05-1.01791E-06 9.42170E-20-2.44688E-18
 -1      3387 9.23414E-05-1.82978E-05-3.17481E-05-1.77475E-06-5.49753E-20-2.37768E-18
 -1      3388 9.33214E-05-1.99672E-05-3.14221E-05-1.75565E-06-1.13498E-19-2.29855E-18
 -1      3389 9.57557E-05-2.90230E-05-2.85985E-05-8.76223E-07 7.18962E-20-1.82569E-20
 -1      3390 9.57950E-05-2.90309E-05-2.86125E-05-9.12282E-07 2.18329E-19 6.26768E-20
 -1      3391 9.58674E-05-2.90759E-05-2.86265E-05-7.99776E-07 1.91915E-19-3.23393E-20
 -1      3392 9.59722E-05-2.89842E-05-2.87089E-05-9.74033E-07 3.56409E-20-2.61705E-19
 -1      3393 9.60154E-05-2.89237E-05-2.87509E-05-9.63484E-07 1.12206E-19-6.35588E-19
 -1      3394 9.55522E-05-2.88838E-05-2.85707E-05-7.25623E-07 3.92366E-19-3.84006E-19
 -1      3395 9.55858E-05-2.89243E-05-2.85696E-05-7.60759E-07 4.88254E-19-5.01765E-20
 -1      3396 9.57354E-05-2.90042E-05-2.86003E-05-7.31613E-07 4.69486E-19-2.72381E-19
 -1      3397 9.54550E-05-2.87752E-05-2.85757E-05-6.70370E-07 3.73424E-19-4.64831E-19
 -1      3398 9.54881E-05-2.88273E-05-2.85697E-05-6.94997E-07 3.39506E-19-4.10774E-19
 -1      3399 9.56072E-05-2.88999E-05-2.85897E-05-6.69184E-07 5.82559E-19-4.38497E-19
 -1      3400 9.53596E-05-2.86501E-05-2.85885E-05-6.41688E-07-1.27488E-20-6.73656E-19
 -1      3401 9.53929E-05-2.87106E-05-2.85793E-05-6.51513E-07 3.14801E-19-3.63869E-19
 -1      3402 9.54828E-05-2.87724E-05-2.85905E-05-6.23412E-07 2.50954E-19-7.23170E-19
 -1      3403 9.52466E-05-2.84905E-05-2.86086E-05-6.42502E-07 4.10518E-20-8.12493E-19
 -1      3404 9.52891E-05-2.85691E-05-2.85958E-05-6.34710E-07 2.63406E-20-4.86274E-19
 -1      3405 9.53522E-05-2.86191E-05-2.85998E-05-5.98943E-07 1.12191E-19-9.84861E-19
 -1      3406 9.51053E-05-2.82905E-05-2.86341E-05-6.79351E-07-4.42402E-19-4.29062E-19
 -1      3407 9.51627E-05-2.83907E-05-2.86187E-05-6.50345E-07-4.54680E-19-7.61972E-19
 -1      3408 9.52001E-05-2.84285E-05-2.86155E-05-5.99198E-07-2.41558E-19-4.57427E-19
 -1      3409 9.49125E-05-2.80312E-05-2.86633E-05-7.54500E-07 2.49433E-19 4.45034E-19
 -1      3410 9.49970E-05-2.81633E-05-2.86458E-05-7.01999E-07 1.33396E-19-1.70139E-19
 -1      3411 9.50117E-05-2.81911E-05-2.86355E-05-6.25685E-07-5.87817E-19-6.78695E-19
 -1      3412 9.46329E-05-2.76832E-05-2.86937E-05-8.66892E-07 6.06430E-19 5.72898E-19
 -1      3413 9.47633E-05-2.78630E-05-2.86752E-05-7.89824E-07 4.95761E-19 6.52539E-19
 -1      3414 9.47601E-05-2.78857E-05-2.86570E-05-6.74606E-07 4.39909E-19 3.79655E-20
 -1      3415 9.42130E-05-2.72048E-05-2.87208E-05-1.00929E-06 8.02480E-19-3.78896E-19
 -1      3416 9.44184E-05-2.74550E-05-2.87036E-05-9.09170E-07 9.10194E-19 2.24378E-19
 -1      3417 9.44056E-05-2.74815E-05-2.86759E-05-7.35331E-07 9.66488E-19-2.55697E-19
 -1      3418 9.35731E-05-2.65377E-05-2.87359E-05-1.16275E-06-8.41087E-20-5.35599E-19
 -1      3419 9.38981E-05-2.68898E-05-2.87245E-05-1.04651E-06 3.69245E-19-7.39459E-19
 -1      3420 9.38910E-05-2.69360E-05-2.86857E-05-7.85620E-07 8.44411E-19-1.13889E-19
 -1      3421 9.25959E-05-2.56052E-05-2.87224E-05-1.28704E-06-2.38032E-19-5.54492E-19
 -1      3422 9.31079E-05-2.61011E-05-2.87259E-05-1.17212E-06-3.53631E-19-5.52997E-19
 -1      3423 9.31343E-05-2.61937E-05-2.86744E-05-7.83523E-07-2.81516E-19-1.25969E-19
 -1      3424 9.11133E-05-2.43128E-05-2.86503E-05-1.30504E-06-3.47194E-19 5.27199E-19
 -1      3425 9.19113E-05-2.50040E-05-2.86856E-05-1.22780E-06-3.77100E-19-2.90694E-19
 -1      3426 9.20209E-05-2.51872E-05-2.86212E-05-6.54428E-07-6.03905E-19 3.44165E-19
 -1      3427 8.88903E-05-2.25551E-05-2.84647E-05-1.07751E-06 4.19186E-19 1.12891E-19
 -1      3428 9.01171E-05-2.34993E-05-2.85637E-05-1.10826E-06 5.45787E-19 2.98681E-19
 -1      3429 9.03965E-05-2.38442E-05-2.84903E-05-2.71104E-07 7.40380E-20-1.92564E-19
 -1      3430 8.58059E-05-2.03757E-05-2.80991E-05-4.30653E-07-1.14275E-20-1.49123E-19
 -1      3431 8.75456E-05-2.15521E-05-2.82998E-05-6.57046E-07 8.00835E-20 8.89695E-20
 -1      3432 8.81348E-05-2.21571E-05-2.82303E-05 5.43452E-07 4.59055E-19-1.71269E-19
 -1      3433 8.11596E-05-1.75329E-05-2.73584E-05 1.03784E-06-3.72635E-19 4.42963E-20
 -1      3434 8.38501E-05-1.90719E-05-2.77795E-05 4.10021E-07 1.75081E-20 5.79574E-20
 -1      3435 8.49678E-05-2.00794E-05-2.77441E-05 2.08984E-06-1.73854E-19-4.68833E-19
 -1      3436 7.45785E-05-1.42549E-05-2.59712E-05 3.79455E-06-1.22151E-19-5.79526E-19
 -1      3437 7.84803E-05-1.60270E-05-2.67794E-05 2.53589E-06-8.78515E-20-5.58259E-19
 -1      3438 8.05295E-05-1.76607E-05-2.68510E-05 4.89839E-06-2.51725E-19-8.47404E-19
 -1      3439 6.55103E-05-1.10274E-05-2.34206E-05 8.53151E-06-4.81499E-19-1.33212E-18
 -1      3440 7.10288E-05-1.27665E-05-2.49456E-05 6.24330E-06-2.80738E-19-1.11626E-18
 -1      3441 7.45879E-05-1.53131E-05-2.52869E-05 9.60765E-06 4.07482E-19-8.96513E-19
 -1      3442 9.60704E-05-2.88396E-05-2.88140E-05-9.37055E-07 2.46744E-19-8.52325E-19
 -1      3443 9.61102E-05-2.87193E-05-2.88778E-05-8.73234E-07 3.41136E-19-1.09625E-18
 -1      3444 9.62535E-05-2.89223E-05-2.88585E-05-8.57314E-07-1.24794E-20-1.01334E-18
 -1      3445 1.16206E-04-2.27669E-05-4.03475E-05-1.18461E-05 7.54389E-21-5.48206E-19
 -1      3446 1.19528E-04-2.83353E-05-3.90004E-05-1.26621E-05-2.31002E-19 3.52604E-19
 -1      3447 1.11910E-04-2.04991E-05-3.90462E-05-1.09813E-05-3.63165E-20-8.68712E-19
 -1      3448 5.80274E-05-1.05546E-05-2.03304E-05 1.68902E-05-2.30022E-19-2.48559E-18
 -1      3449 6.31972E-05-1.07070E-05-2.22870E-05 1.14734E-05-2.65545E-19-1.96759E-18
 -1      3450 6.85346E-05-1.41778E-05-2.31662E-05 1.60193E-05 2.00489E-19-2.49228E-18
 -1      3451 6.38656E-05-1.54481E-05-2.06853E-05 2.39418E-05 2.11917E-19-2.65592E-18
 -1      3452 9.88017E-05-3.18010E-05-2.87149E-05-3.26825E-06-8.21887E-21 3.53542E-18
 -1      3453 9.84606E-05-3.14953E-05-2.86921E-05-4.03798E-06-9.35854E-20 2.12570E-18
 -1      3454 8.52293E-05-3.20702E-05-2.28908E-05 3.28444E-05 1.01437E-18-7.40254E-19
 -1      3455 7.17913E-05-2.14709E-05-2.13701E-05 2.82460E-05 6.15012E-19-1.26200E-18
 -1      3456 9.78684E-05-3.10156E-05-2.86263E-05-5.04481E-06-3.85554E-19-8.95195E-20
 -1      3457 9.70193E-05-3.03671E-05-2.85731E-05-5.66502E-06 4.91755E-20-7.21658E-19
 -1      3458 9.88452E-05-3.21085E-05-2.86320E-05-4.92422E-06 4.70088E-19 1.20340E-18
 -1      3459 1.28058E-04-3.87228E-05-3.83540E-05 9.18540E-06-1.46283E-18-7.43616E-19
 -1      3460 1.26635E-04-3.21082E-05-4.09350E-05 1.23862E-05-2.34268E-18-1.20866E-18
 -1      3461 1.27364E-04-4.64744E-05-3.48551E-05-2.39974E-06 8.77248E-19 1.12084E-18
 -1      3462 1.27282E-04-4.96996E-05-3.32173E-05 3.39058E-06 1.38203E-18 3.82038E-19
 -1      3463 9.54707E-05-2.48847E-05-3.02329E-05 1.83411E-06 1.21485E-18-1.57058E-18
 -1      3464 9.50246E-05-2.36257E-05-3.06068E-05 2.74993E-06 1.43257E-18-1.57042E-18
 -1      3465 9.47228E-05-2.29477E-05-3.07690E-05 2.52737E-06 1.36767E-18-1.59676E-18
 -1      3466 9.45455E-05-2.25466E-05-3.08513E-05-3.23708E-06-7.36532E-19-1.91721E-18
 -1      3467 9.58641E-05-2.90351E-05-2.86401E-05-9.42760E-07 2.42376E-19-6.12840E-20
 -1      3468 9.59063E-05-2.90153E-05-2.86660E-05-9.63599E-07 2.28470E-19-4.29617E-23
 -1      3469 9.60025E-05-2.91022E-05-2.86734E-05-8.58879E-07 2.16193E-19-4.21871E-19
 -1      3470 9.51230E-05-2.38777E-05-3.05351E-05-2.57517E-06-6.63758E-19-1.81170E-18
 -1      3471 9.54279E-05-2.48853E-05-3.02435E-05-1.77208E-06-6.84029E-19-1.62962E-18
 -1      3472 9.55519E-05-2.49198E-05-3.02658E-05-1.47093E-06-4.54450E-19-1.44485E-18
 -1      3473 9.45919E-05-2.26137E-05-3.08402E-05-2.64571E-06-5.93331E-19-1.88003E-18
 -1      3474 9.56779E-05-2.57052E-05-2.99923E-05 1.22945E-06 9.98297E-19-1.46602E-18
 -1      3475 7.54132E-05-1.45233E-05-2.61879E-05-2.61855E-06-8.37386E-19-1.78833E-18
 -1      3476 7.10632E-05-1.25793E-05-2.51427E-05-3.99822E-06 6.57906E-20-1.64400E-18
 -1      3477 8.74110E-05-2.17359E-05-2.80529E-05-3.43775E-06 7.90525E-19-1.15243E-18
 -1      3478 8.63321E-05-2.07871E-05-2.81389E-05-7.51603E-07-6.95460E-20-2.37560E-18
 -1      3479 8.40888E-05-1.93987E-05-2.77890E-05-1.10335E-06-1.97005E-19-1.77896E-18
 -1      3480 1.10551E-04-4.89531E-05-2.65116E-05 2.95749E-05 1.30221E-18-4.49305E-19
 -1      3481 9.86697E-05-4.11148E-05-2.44734E-05 3.21355E-05 9.61740E-19-9.93424E-19
 -1      3482 1.14465E-04-4.87452E-05-2.80363E-05 2.24359E-05 1.21361E-18 7.38772E-20
 -1      3483 1.23139E-04-3.67234E-05-3.73177E-05-1.04970E-05 2.59139E-20 1.22776E-18
 -1      3484 1.26497E-04-4.23300E-05-3.60353E-05-7.03274E-06 7.19171E-19 6.48946E-19
 -1      3485 1.23298E-04-4.35036E-05-3.42127E-05-4.48931E-06 1.29386E-18 9.30227E-19
 -1      3486 1.28851E-04-5.19389E-05-3.29277E-05-6.54580E-06 1.09524E-18 6.91523E-19
 -1      3487 1.29647E-04-4.70991E-05-3.55904E-05 2.53873E-06-7.50114E-19-6.85964E-19
 -1      3488 1.21384E-04-2.57475E-05-4.10835E-05 1.27659E-05-2.41248E-18-1.17155E-18
 -1      3489 9.34827E-05-3.54147E-05-2.46976E-05 2.84827E-05 1.60447E-18-7.57102E-19
 -1      3490 8.89868E-05-2.34654E-05-2.80930E-05-4.93123E-06 1.27980E-18 1.70037E-19
 -1      3491 8.74026E-05-2.28448E-05-2.77342E-05-6.37178E-06 1.47617E-18 7.11812E-19
 -1      3492 9.03319E-05-2.46116E-05-2.81097E-05-6.12590E-06 2.52379E-18 4.54747E-19
 -1      3493 9.59350E-05-2.80122E-05-2.91185E-05-4.52567E-07 6.42339E-19-9.73052E-19
 -1      3494 1.08184E-04-4.66345E-05-2.62094E-05-2.86374E-05 1.71352E-18 1.44016E-18
 -1      3495 1.12976E-04-4.77993E-05-2.79026E-05-2.21860E-05 1.48674E-18-5.83162E-20
 -1      3496 1.00805E-04-4.09708E-05-2.56444E-05-2.78833E-05 8.01902E-19 9.17800E-19
 -1      3497 9.61351E-05-2.90616E-05-2.87479E-05-8.87826E-07-4.82068E-20-5.36484E-19
 -1      3498 9.63368E-05-2.86424E-05-2.90137E-05-7.29566E-07 3.56772E-19-1.10930E-18
 -1      3499 9.61428E-05-2.85646E-05-2.89647E-05-7.89692E-07 5.33839E-19-1.19597E-18
 -1      3500 9.61781E-05-2.83700E-05-2.90533E-05-6.50084E-07 4.09367E-19-1.04420E-18
 -1      3501 9.31173E-05-1.95894E-05-3.14960E-05-5.88383E-07 1.88978E-19-2.24938E-18
 -1      3502 9.23430E-05-2.60464E-05-2.84345E-05-5.23788E-06 1.76520E-18-7.25299E-19
 -1      3503 5.80150E-05-9.94354E-06-2.02327E-05-1.57630E-05-1.18381E-18-3.06483E-18
 -1      3504 6.60263E-05-1.46213E-05-2.19304E-05-1.84082E-05-9.34438E-19-2.33373E-18
 -1      3505 1.14406E-04-1.15832E-05-4.44096E-05 6.27666E-06-2.71056E-18-6.47610E-19
 -1      3506 1.10330E-04-1.15145E-05-4.24331E-05 3.62648E-06-1.84809E-18-1.82423E-19
 -1      3507 1.13784E-04-1.57814E-05-4.21721E-05 9.18761E-06-2.85143E-18-6.08506E-19
 -1      3508 7.39285E-05-2.03074E-05-2.27294E-05 2.37765E-05 1.01788E-18-1.42283E-18
 -1      3509 9.59999E-05-2.65336E-05-2.97518E-05 6.70377E-07 7.88452E-19-1.30742E-18
 -1      3510 9.57261E-05-2.54143E-05-3.01464E-05 1.16283E-06 1.00932E-18-1.36047E-18
 -1      3511 9.69342E-05-3.06434E-05-2.84403E-05-6.79429E-06 4.77429E-19-1.46913E-18
 -1      3512 9.58394E-05-2.93191E-05-2.84677E-05-6.38142E-06 2.27474E-19-1.77851E-18
 -1      3513 9.45473E-05-2.83087E-05-2.83973E-05-6.54719E-06 1.70278E-18-2.47512E-18
 -1      3514 9.87843E-05-3.17157E-05-2.87298E-05-2.03580E-06-2.70014E-19 2.57545E-18
 -1      3515 9.41074E-05-2.15018E-05-3.11202E-05 1.75797E-06 1.11095E-18-1.49002E-18
 -1      3516 9.39345E-05-2.11964E-05-3.11817E-05 1.24496E-06 7.86863E-19-1.68702E-18
 -1      3517 1.27614E-04-4.32365E-05-3.62288E-05 6.76577E-06-7.54988E-19-9.56340E-19
 -1      3518 1.23143E-04-3.76254E-05-3.66253E-05 9.75501E-06-1.43604E-18-1.05514E-18
 -1      3519 1.24553E-04-4.51618E-05-3.41256E-05 2.91387E-06-6.23039E-19-1.22911E-18
 -1      3520 1.22239E-04-4.73878E-05-3.20455E-05 3.09433E-06 1.83795E-18 1.04628E-18
 -1      3521 1.25045E-04-5.06731E-05-3.19913E-05 7.61865E-06 1.67069E-18-4.65537E-21
 -1      3522 1.21186E-04-4.98956E-05-3.04680E-05 1.17006E-05 1.38172E-18 4.80122E-19
 -1      3523 9.95589E-05-3.25030E-05-2.87316E-05-2.57488E-06-4.56987E-19 2.73665E-18
 -1      3524 1.10037E-04-1.25966E-05-4.18938E-05-5.70577E-06-1.53369E-18 9.19295E-20
 -1      3525 1.07805E-04-1.51185E-05-3.96582E-05-6.56320E-06-7.79191E-19 1.17622E-18
 -1      3526 1.08648E-04-1.18754E-05-4.16774E-05-2.59441E-06-1.60518E-18-5.41456E-19
 -1      3527 9.44294E-05-2.22312E-05-3.09538E-05-2.33635E-06-4.49973E-19-1.82845E-18
 -1      3528 9.50278E-05-2.35079E-05-3.06470E-05-1.75315E-06-3.83193E-19-1.69845E-18
 -1      3529 9.42165E-05-2.17551E-05-3.10541E-05-1.91974E-06-2.71423E-19-2.05434E-18
 -1      3530 8.07165E-05-2.77546E-05-2.23572E-05-3.07535E-05 1.21986E-19 1.14212E-18
 -1      3531 8.89560E-05-3.30559E-05-2.39644E-05-2.94435E-05 3.24215E-19 9.32054E-19
 -1      3532 7.67428E-05-2.35996E-05-2.27619E-05-2.64477E-05-2.73512E-19 8.40892E-19
 -1      3533 6.94961E-05-1.29332E-05-2.40461E-05-9.76888E-06-8.42578E-19-2.61154E-18
 -1      3534 6.51539E-05-1.01676E-05-2.35632E-05-5.87120E-06-4.34528E-19-2.83310E-18
 -1      3535 5.57679E-05-7.52636E-06-2.05123E-05-7.34490E-06-2.12409E-18-2.72681E-18
 -1      3536 1.18540E-04-3.26702E-05-3.69137E-05-1.10583E-05-9.38800E-20 1.66760E-19
 -1      3537 1.20671E-04-5.06104E-05-3.00622E-05-1.42956E-05 2.45154E-18 1.62619E-18
 -1      3538 1.25946E-04-5.24511E-05-3.15518E-05-1.06421E-05 2.31680E-18 1.87695E-18
 -1      3539 1.24330E-04-4.89730E-05-3.22551E-05-4.19068E-06 1.21958E-18-1.93527E-19
 -1      3540 8.17186E-05-1.80202E-05-2.73974E-05-1.47594E-06-1.33067E-19-1.47036E-18
 -1      3541 7.87034E-05-1.63307E-05-2.68095E-05-2.31464E-06-2.99274E-20-1.26464E-18
 -1      3542 7.81975E-05-1.66103E-05-2.62227E-05-6.68298E-06-6.53879E-19-1.24840E-18
 -1      3543 8.35819E-05-1.96005E-05-2.72798E-05-5.35354E-06 3.22803E-19-7.54769E-20
 -1      3544 9.60578E-05-2.70553E-05-2.95752E-05 2.57784E-07 7.20930E-19-1.28880E-18
 -1      3545 9.38492E-05-2.10210E-05-3.12226E-05 8.04095E-07 6.74057E-19-2.04102E-18
 -1      3546 9.38003E-05-2.09309E-05-3.12409E-05 2.38695E-07 5.05175E-19-2.14583E-18
 -1      3547 9.45949E-05-2.23689E-05-3.09390E-05 8.21378E-07 7.04799E-19-1.66607E-18
 -1      3548 9.39620E-05-2.12269E-05-3.11757E-05-1.01058E-06 9.26185E-20-2.12735E-18
 -1      3549 9.40891E-05-2.15015E-05-3.11215E-05-1.52584E-06-6.36530E-20-2.14122E-18
 -1      3550 9.48001E-05-2.28513E-05-3.08250E-05-1.14814E-06-1.11258E-19-1.91545E-18
 -1      3551 9.56523E-05-2.89082E-05-2.86034E-05-5.85846E-07 4.85263E-19-4.31578E-19
 -1      3552 9.57168E-05-2.89691E-05-2.86064E-05-6.10794E-07 9.39073E-19-1.37428E-19
 -1      3553 7.33820E-05-1.86805E-05-2.34332E-05 2.02893E-05 1.01081E-18-1.53660E-18
 -1      3554 7.57746E-05-1.84765E-05-2.44184E-05 1.67338E-05 8.97402E-19-7.95553E-19
 -1      3555 8.07298E-05-2.47597E-05-2.40767E-05 2.42015E-05 1.36702E-18-7.95655E-19
 -1      3556 9.64001E-05-2.72880E-05-2.96147E-05-6.61079E-08-3.84736E-19-1.09218E-18
 -1      3557 9.64707E-05-2.77507E-05-2.94570E-05 2.02397E-07-3.38607E-19-1.15173E-18
 -1      3558 9.65417E-05-2.81369E-05-2.93119E-05 3.62523E-07-1.55461E-19-1.13018E-18
 -1      3559 9.65430E-05-2.84328E-05-2.91933E-05 5.24110E-07-1.18723E-20-9.03765E-19
 -1      3560 9.66079E-05-2.78449E-05-2.94692E-05 2.04021E-07-1.93158E-19-8.24518E-19
 -1      3561 9.65386E-05-2.86701E-05-2.90831E-05 6.10868E-07 7.36754E-21-9.02967E-19
 -1      3562 9.64996E-05-2.88460E-05-2.89959E-05 6.93952E-07-1.73375E-19-7.44356E-19
 -1      3563 9.66731E-05-2.85173E-05-2.92101E-05 4.63583E-07 8.38928E-20-1.08084E-18
 -1      3564 9.64486E-05-2.89767E-05-2.89140E-05 7.28836E-07-4.35275E-19-4.95305E-19
 -1      3565 9.63882E-05-2.90684E-05-2.88517E-05 7.58633E-07-3.62519E-19-6.33537E-19
 -1      3566 9.66174E-05-2.89203E-05-2.90143E-05 5.98683E-07-1.75728E-19-8.88514E-19
 -1      3567 9.63116E-05-2.91253E-05-2.87925E-05 7.59917E-07-3.22903E-19-6.63256E-19
 -1      3568 9.62420E-05-2.91591E-05-2.87493E-05 7.56362E-07-3.55839E-19-7.07420E-19
 -1      3569 9.64905E-05-2.91311E-05-2.88700E-05 6.48483E-07-4.07542E-19-9.44765E-19
 -1      3570 9.61536E-05-2.91664E-05-2.87078E-05 7.38148E-07-5.22332E-19-6.90365E-19
 -1      3571 9.60819E-05-2.91616E-05-2.86792E-05 7.16276E-07-3.03543E-19-6.23882E-19
 -1      3572 9.63268E-05-2.92092E-05-2.87664E-05 6.44137E-07-3.48769E-19-7.92420E-19
 -1      3573 9.59903E-05-2.91363E-05-2.86512E-05 6.89208E-07-1.88577E-19-7.21589E-19
 -1      3574 9.59209E-05-2.91066E-05-2.86335E-05 6.60026E-07-4.36058E-19-9.95844E-19
 -1      3575 9.61484E-05-2.91981E-05-2.86947E-05 6.09877E-07-3.09275E-19-9.98083E-19
 -1      3576 9.58312E-05-2.90611E-05-2.86157E-05 6.31932E-07-6.44686E-19-1.05802E-18
 -1      3577 9.57663E-05-2.90161E-05-2.86058E-05 6.03312E-07-9.02764E-19-1.10472E-18
 -1      3578 9.59688E-05-2.91292E-05-2.86470E-05 5.63973E-07-6.24604E-19-1.03216E-18
 -1      3579 9.56811E-05-2.89590E-05-2.85955E-05 5.79940E-07-6.79104E-19-7.89182E-19
 -1      3580 9.56218E-05-2.89059E-05-2.85911E-05 5.57489E-07-4.19957E-19-4.21285E-19
 -1      3581 9.57955E-05-2.90245E-05-2.86174E-05 5.19950E-07-4.98474E-19-8.01133E-19
 -1      3582 9.55425E-05-2.88435E-05-2.85858E-05 5.43241E-07-4.00090E-19-2.79361E-19
 -1      3583 9.54897E-05-2.87879E-05-2.85850E-05 5.31005E-07-4.84640E-19 1.30252E-20
 -1      3584 9.56323E-05-2.89002E-05-2.86005E-05 4.88070E-07-2.13242E-19-4.62527E-19
 -1      3585 9.54172E-05-2.87254E-05-2.85829E-05 5.29564E-07-5.94043E-19 1.35317E-19
 -1      3586 9.53726E-05-2.86727E-05-2.85840E-05 5.30559E-07-2.71350E-19 1.93026E-19
 -1      3587 9.54814E-05-2.87682E-05-2.85922E-05 4.76672E-07-4.15393E-19 2.17768E-20
 -1      3588 9.53084E-05-2.86156E-05-2.85835E-05 5.45384E-07 1.78952E-19 2.01638E-19
 -1      3589 9.52750E-05-2.85719E-05-2.85852E-05 5.61939E-07 7.60150E-19 3.99999E-19
 -1      3590 9.53452E-05-2.86398E-05-2.85888E-05 4.93326E-07 7.37623E-20 3.15457E-19
 -1      3591 9.52228E-05-2.85271E-05-2.85847E-05 5.96618E-07 8.97909E-19 2.66198E-19
 -1      3592 9.52061E-05-2.85007E-05-2.85858E-05 6.30486E-07 6.62893E-19 1.90261E-19
 -1      3593 9.52285E-05-2.85274E-05-2.85870E-05 5.45777E-07 7.58728E-19-1.59428E-19
 -1      3594 9.51728E-05-2.84780E-05-2.85841E-05 6.88868E-07 5.81501E-19 7.88555E-19
 -1      3595 9.51826E-05-2.84811E-05-2.85836E-05 7.41014E-07 6.85071E-19 1.11446E-18
 -1      3596 9.51413E-05-2.84478E-05-2.85843E-05 6.42570E-07 8.56736E-19 6.35502E-20
 -1      3597 9.51804E-05-2.84948E-05-2.85797E-05 8.26947E-07 4.87790E-19 1.19715E-18
 -1      3598 9.52320E-05-2.85444E-05-2.85769E-05 8.96853E-07 5.60674E-19 1.85935E-18
 -1      3599 9.51024E-05-2.84255E-05-2.85780E-05 7.93137E-07 9.42796E-19 9.07701E-19
 -1      3600 9.52808E-05-2.86149E-05-2.85703E-05 1.01322E-06-1.46961E-19 1.71488E-18
 -1      3601 9.53967E-05-2.87341E-05-2.85652E-05 1.09743E-06-4.73394E-20 1.17907E-18
 -1      3602 9.51428E-05-2.84964E-05-2.85665E-05 1.00686E-06 1.70304E-19 1.21699E-18
 -1      3603 9.55264E-05-2.88890E-05-2.85563E-05 1.24400E-06-4.57149E-19 6.80612E-19
 -1      3604 9.57373E-05-2.91075E-05-2.85502E-05 1.33354E-06-9.70371E-19 1.78789E-19
 -1      3605 9.53115E-05-2.87105E-05-2.85496E-05 1.29029E-06-6.07487E-19 8.80119E-19
 -1      3606 9.59906E-05-2.93814E-05-2.85412E-05 1.50285E-06-6.69653E-19 2.35335E-19
 -1      3607 9.63350E-05-2.97331E-05-2.85377E-05 1.57910E-06-2.32915E-19 3.84037E-19
 -1      3608 9.56803E-05-2.91349E-05-2.85295E-05 1.64121E-06-7.98968E-19 7.00618E-20
 -1      3609 9.67681E-05-3.01651E-05-2.85339E-05 1.74965E-06-4.97520E-19 4.21708E-19
 -1      3610 9.72883E-05-3.06819E-05-2.85401E-05 1.77858E-06-4.21104E-19-2.79221E-20
 -1      3611 9.63473E-05-2.98514E-05-2.85136E-05 2.03779E-06-1.81518E-19 3.73811E-19
 -1      3612 9.79677E-05-3.13068E-05-2.85521E-05 1.90449E-06-1.22520E-19 1.53011E-19
 -1      3613 9.86995E-05-3.20049E-05-2.85805E-05 1.82993E-06 2.41468E-19 3.69370E-20
 -1      3614 9.74361E-05-3.09471E-05-2.85174E-05 2.42092E-06 2.66677E-20 6.32883E-19
 -1      3615 9.96905E-05-3.28353E-05-2.86268E-05 1.82801E-06 2.82233E-19 2.76009E-19
 -1      3616 1.00642E-04-3.36889E-05-2.86977E-05 1.56727E-06 7.99676E-19 9.66625E-20
 -1      3617 9.90819E-05-3.24882E-05-2.85700E-05 2.66895E-06-8.23756E-20-9.39057E-20
 -1      3618 1.01981E-04-3.46821E-05-2.88079E-05 1.30553E-06 6.83558E-19-6.16269E-19
 -1      3619 1.03099E-04-3.55815E-05-2.89501E-05 7.56423E-07 5.83076E-19-1.07803E-18
 -1      3620 1.01395E-04-3.44665E-05-2.87205E-05 2.56882E-06 2.12556E-19 6.34141E-19
 -1      3621 1.04733E-04-3.65800E-05-2.91679E-05 5.99202E-08 2.58555E-19-1.12191E-18
 -1      3622 1.05873E-04-3.72839E-05-2.94183E-05-8.62389E-07 1.91304E-19-1.21313E-18
 -1      3623 1.04383E-04-3.66972E-05-2.90457E-05 1.79925E-06 3.49483E-19-3.34446E-19
 -1      3624 1.07550E-04-3.79508E-05-2.97949E-05-2.09038E-06 7.42964E-19-1.47976E-18
 -1      3625 1.08445E-04-3.80992E-05-3.01880E-05-3.34665E-06 8.89964E-19-1.15982E-18
 -1      3626 1.07717E-04-3.86248E-05-2.96516E-05-4.98888E-08 5.91143E-19-1.45003E-18
 -1      3627 1.09949E-04-3.80736E-05-3.07749E-05-5.24634E-06 5.32215E-19-1.46543E-18
 -1      3628 1.10136E-04-3.70585E-05-3.13442E-05-6.72327E-06 3.09950E-19-1.35532E-18
 -1      3629 1.11086E-04-3.96098E-05-3.06740E-05-3.01446E-06 5.00977E-19-2.18864E-18
 -1      3630 1.10523E-04-3.55258E-05-3.21754E-05-8.62761E-06 1.32858E-19-1.61311E-18
 -1      3631 1.09910E-04-3.32230E-05-3.28812E-05-9.65054E-06 2.46425E-19-1.49144E-18
 -1      3632 1.12982E-04-3.79422E-05-3.21297E-05-6.95767E-06 9.25954E-20-1.54400E-18
 -1      3633 1.06512E-04-2.13519E-05-3.65864E-05-9.51865E-06-7.65010E-20-3.30853E-19
 -1      3634 1.04872E-04-1.82019E-05-3.71798E-05-7.14588E-06-4.06880E-19-4.86630E-19
 -1      3635 1.04092E-04-1.66202E-05-3.75237E-05-3.78454E-06-1.17309E-18 1.39853E-19
 -1      3636 1.02213E-04-1.63132E-05-3.67894E-05 2.55245E-06-1.23739E-18 9.95131E-20
 -1      3637 1.03129E-04-1.80860E-05-3.65306E-05 5.46040E-06-1.08438E-18-1.60787E-19
 -1      3638 1.04783E-04-2.09198E-05-3.59053E-05 8.32205E-06-1.12379E-18-5.33320E-19
 -1      3639 1.06276E-04-2.42051E-05-3.53074E-05 9.89087E-06-7.44714E-19-5.99474E-19
 -1      3640 1.06678E-04-1.89350E-05-3.76435E-05 7.69524E-06-1.52007E-18-3.00366E-20
 -1      3641 1.08149E-04-2.78745E-05-3.43620E-05 1.05443E-05 4.08005E-19-1.34509E-18
 -1      3642 1.09522E-04-3.12518E-05-3.36272E-05 1.04747E-05 7.95950E-19-1.40835E-18
 -1      3643 1.10224E-04-2.62276E-05-3.59360E-05 1.11966E-05-8.97987E-19-2.05293E-19
 -1      3644 1.10238E-04-3.40639E-05-3.26576E-05 9.11844E-06 5.89618E-19-2.77910E-18
 -1      3645 1.10797E-04-3.62552E-05-3.19721E-05 7.96900E-06 2.64185E-19-3.16998E-18
 -1      3646 1.13026E-04-3.39706E-05-3.38285E-05 9.90154E-06 4.22028E-20-2.43382E-18
 -1      3647 1.10187E-04-3.75139E-05-3.11811E-05 5.94656E-06 7.17461E-19-3.00038E-18
 -1      3648 1.09840E-04-3.82970E-05-3.06452E-05 4.47475E-06 5.66676E-19-2.42100E-18
 -1      3649 1.13078E-04-3.85116E-05-3.19344E-05 6.17655E-06 3.30943E-19-3.30079E-18
 -1      3650 1.08397E-04-3.82646E-05-3.00909E-05 2.70314E-06-3.53711E-20-9.26402E-19
 -1      3651 1.07466E-04-3.80260E-05-2.97234E-05 1.41501E-06 7.05159E-19-1.55451E-19
 -1      3652 1.10891E-04-3.96793E-05-3.05163E-05 2.26946E-06 1.29387E-18-2.05150E-18
 -1      3653 1.05739E-04-3.72394E-05-2.93834E-05 2.22355E-07 5.27708E-19 1.13352E-18
 -1      3654 1.04583E-04-3.64491E-05-2.91610E-05-6.80593E-07 6.52689E-19 4.07056E-19
 -1      3655 1.07609E-04-3.86331E-05-2.95939E-05-6.72459E-07 1.43159E-18 8.20331E-20
 -1      3656 1.02989E-04-3.54078E-05-2.89786E-05-1.30768E-06 5.94734E-19 1.15363E-18
 -1      3657 1.01890E-04-3.44576E-05-2.88625E-05-1.86421E-06 2.95388E-19 1.90369E-18
 -1      3658 1.04253E-04-3.64792E-05-2.90691E-05-2.31083E-06 8.43886E-19 1.52349E-18
 -1      3659 1.00315E-04-3.31974E-05-2.87664E-05-2.42656E-06-5.58711E-20 2.07965E-18
 -1      3660 9.55058E-05-2.87665E-05-2.86016E-05-5.48611E-07 1.81853E-19-5.93495E-19
 -1      3661 9.55679E-05-2.88367E-05-2.85997E-05-5.64543E-07 1.99350E-19-2.77544E-19
 -1      3662 9.56686E-05-2.89041E-05-2.86141E-05-5.07108E-07 2.29170E-19-1.02865E-19
 -1      3663 9.59616E-05-2.91194E-05-2.86455E-05-6.97795E-07 4.84216E-20-4.79182E-19
 -1      3664 9.60298E-05-2.91444E-05-2.86645E-05-7.25863E-07 2.49950E-19-4.07040E-19
 -1      3665 9.58056E-05-2.90304E-05-2.86167E-05-6.38578E-07 6.34589E-19-5.36653E-19
 -1      3666 9.58716E-05-2.90759E-05-2.86266E-05-6.68116E-07 1.96059E-19-7.10451E-19
 -1      3667 9.60166E-05-2.91452E-05-2.86607E-05-6.00104E-07 3.09516E-19-9.54141E-19
 -1      3668 9.58396E-05-2.90399E-05-2.86296E-05-5.50550E-07 3.80657E-19-7.41213E-19
 -1      3669 9.53431E-05-2.85898E-05-2.86079E-05-5.26907E-07 3.88185E-20-4.81374E-19
 -1      3670 9.54143E-05-2.86782E-05-2.86021E-05-5.33063E-07 1.61523E-19-4.42885E-19
 -1      3671 9.54951E-05-2.87401E-05-2.86095E-05-4.73532E-07 1.57425E-19-2.04554E-19
 -1      3672 9.51581E-05-2.83778E-05-2.86199E-05-5.23668E-07-4.81445E-19 1.04498E-19
 -1      3673 9.52425E-05-2.84850E-05-2.86116E-05-5.18382E-07-1.57532E-19-2.78546E-19
 -1      3674 9.53057E-05-2.85420E-05-2.86125E-05-4.50207E-07-2.50640E-19-6.39948E-20
 -1      3675 9.49308E-05-2.81174E-05-2.86351E-05-5.35283E-07-2.93954E-19-4.42298E-19
 -1      3676 9.50397E-05-2.82510E-05-2.86254E-05-5.19875E-07-4.12894E-19-1.62816E-19
 -1      3677 9.50905E-05-2.83063E-05-2.86204E-05-4.35192E-07-2.78270E-19-2.28332E-19
 -1      3678 9.46324E-05-2.77879E-05-2.86498E-05-5.51954E-07 6.25078E-19-7.85461E-19
 -1      3679 9.47821E-05-2.79594E-05-2.86404E-05-5.30778E-07 1.78243E-19-6.21026E-19
 -1      3680 9.48286E-05-2.80201E-05-2.86296E-05-4.19539E-07-1.06884E-20-1.31822E-18
 -1      3681 9.42216E-05-2.73606E-05-2.86590E-05-5.54112E-07 1.16652E-18-2.99025E-19
 -1      3682 9.44363E-05-2.75860E-05-2.86526E-05-5.36476E-07 1.06816E-18-3.44701E-19
 -1      3683 9.44914E-05-2.76642E-05-2.86358E-05-3.85633E-07 5.24625E-19-1.23880E-18
 -1      3684 9.36407E-05-2.67978E-05-2.86547E-05-5.06336E-07 3.60851E-19 1.85605E-19
 -1      3685 9.39550E-05-2.70982E-05-2.86557E-05-5.09828E-07 7.94760E-19 9.60293E-20
 -1      3686 9.40399E-05-2.72137E-05-2.86330E-05-3.02433E-07 7.40946E-19-3.65009E-19
 -1      3687 9.28104E-05-2.60539E-05-2.86231E-05-3.47706E-07-5.88309E-19 3.60281E-19
 -1      3688 9.32735E-05-2.64550E-05-2.86393E-05-4.03579E-07 9.46319E-20 3.16461E-19
 -1      3689 9.34225E-05-2.66391E-05-2.86115E-05-1.18042E-07 2.18981E-19-3.47849E-20
 -1      3690 9.16265E-05-2.50799E-05-2.85413E-05 2.26779E-08-2.71078E-19 4.18156E-19
 -1      3691 9.23055E-05-2.56099E-05-2.85861E-05-1.38757E-07-5.20147E-19 6.89765E-19
 -1      3692 9.25743E-05-2.59107E-05-2.85559E-05 2.51259E-07-5.31432E-19-7.21372E-20
 -1      3693 8.99586E-05-2.38346E-05-2.83710E-05 7.67945E-07 4.60725E-19-6.00587E-20
 -1      3694 9.09418E-05-2.45185E-05-2.84673E-05 4.11820E-07 2.32561E-19 5.87295E-20
 -1      3695 9.14183E-05-2.50083E-05-2.84420E-05 9.36552E-07 7.59970E-20-1.06151E-19
 -1      3696 8.77841E-05-2.23964E-05-2.80722E-05 2.04459E-06-7.86893E-20 4.57922E-19
 -1      3697 8.91042E-05-2.31951E-05-2.82436E-05 1.41150E-06 1.53641E-19 1.73013E-19
 -1      3698 8.99225E-05-2.39748E-05-2.82389E-05 2.09557E-06 1.10974E-19 3.43229E-19
 -1      3699 8.47361E-05-2.06910E-05-2.75203E-05 4.33649E-06-1.14469E-19 1.59832E-20
 -1      3700 8.66506E-05-2.16506E-05-2.78454E-05 3.15292E-06 2.18609E-19 2.67481E-19
 -1      3701 8.79993E-05-2.28481E-05-2.78903E-05 4.01239E-06 1.92640E-19 5.33836E-19
 -1      3702 8.08302E-05-1.90274E-05-2.65723E-05 8.11327E-06 4.51576E-19-1.05340E-18
 -1      3703 8.33832E-05-1.99872E-05-2.71431E-05 6.10196E-06-1.38371E-20-8.25290E-19
 -1      3704 8.55884E-05-2.18028E-05-2.73012E-05 7.14704E-06 5.97793E-19-5.35239E-19
 -1      3705 7.65180E-05-1.79826E-05-2.51401E-05 1.35468E-05 5.81204E-19-1.09819E-18
 -1      3706 7.97922E-05-1.87716E-05-2.60910E-05 1.03822E-05 4.83817E-19-8.72883E-19
 -1      3707 8.31861E-05-2.14094E-05-2.64645E-05 1.15524E-05 2.30522E-19-9.54499E-19
 -1      3708 8.12914E-05-2.21912E-05-2.53612E-05 1.73359E-05 7.14501E-19-5.24611E-19
 -1      3709 9.64071E-05-2.90144E-05-2.88832E-05-7.68101E-07 3.72830E-20-1.00181E-18
 -1      3710 9.64612E-05-2.89017E-05-2.89513E-05-7.24081E-07 4.83070E-20-8.78684E-19
 -1      3711 9.38354E-05-2.09832E-05-3.12296E-05-1.18493E-07 3.96546E-19-2.08482E-18
 -1      3712 9.38742E-05-2.10735E-05-3.12125E-05-6.75722E-07 1.85769E-19-2.11290E-18
 -1      3713 9.46484E-05-2.24615E-05-3.09222E-05-5.08205E-07 2.36466E-19-2.00135E-18
 -1      3714 9.45590E-05-2.22591E-05-3.09675E-05 1.07103E-07 4.93944E-19-2.00537E-18
 -1      3715 9.58355E-05-2.55298E-05-3.01442E-05 8.19361E-07 8.95513E-19-1.33254E-18
 -1      3716 9.54868E-05-2.45368E-05-3.04023E-05 1.40031E-06 9.96337E-19-1.50685E-18
 -1      3717 1.01057E-04-3.38986E-05-2.87889E-05-3.40628E-06 6.72671E-19 3.29217E-18
 -1      3718 9.32998E-05-2.72007E-05-2.82835E-05-6.83356E-06 2.60371E-18-2.13886E-18
 -1      3719 9.18300E-05-2.59816E-05-2.82223E-05-6.37254E-06 3.08506E-18-1.27258E-18
 -1      3720 9.11073E-05-2.60481E-05-2.79378E-05-8.00172E-06 3.47912E-18-8.59850E-20
 -1      3721 9.42129E-05-2.85160E-05-2.81951E-05-7.86732E-06 2.54136E-18-3.12103E-18
 -1      3722 9.45261E-05-2.24826E-05-3.08811E-05 2.14949E-06 1.20036E-18-1.56457E-18
 -1      3723 9.61195E-05-2.91626E-05-2.86949E-05-7.51720E-07-3.74200E-20-6.11219E-19
 -1      3724 9.61883E-05-2.91578E-05-2.87261E-05-7.69565E-07-1.99716E-19-9.07182E-19
 -1      3725 9.61946E-05-2.92035E-05-2.87122E-05-6.45721E-07 1.53008E-20-9.58195E-19
 -1      3726 7.60082E-05-1.70555E-05-2.52959E-05-1.13883E-05-4.00475E-19-3.78915E-19
 -1      3727 7.04990E-05-1.52280E-05-2.37342E-05-1.43740E-05-1.48593E-18-1.58524E-18
 -1      3728 7.42329E-05-1.88520E-05-2.34839E-05-2.00065E-05-1.08195E-18 1.48416E-19
 -1      3729 9.61969E-05-2.76296E-05-2.93729E-05-1.20638E-07 5.88227E-19-1.23726E-18
 -1      3730 9.62231E-05-2.69588E-05-2.96891E-05 2.50620E-07 6.25602E-19-1.09020E-18
 -1      3731 1.16520E-04-4.89045E-05-2.91419E-05 1.70452E-05 1.31560E-18 7.60871E-19
 -1      3732 1.09201E-04-4.46831E-05-2.75024E-05 2.16082E-05 1.53453E-18-1.98044E-19
 -1      3733 1.16606E-04-4.70493E-05-2.97468E-05 1.16410E-05 1.63734E-18 5.05240E-19
 -1      3734 9.60207E-05-2.60002E-05-3.00076E-05-7.26972E-07-2.54692E-19-1.19591E-18
 -1      3735 9.62095E-05-2.66893E-05-2.98013E-05-3.19724E-07-2.55776E-19-1.24713E-18
 -1      3736 9.63537E-05-2.68051E-05-2.98045E-05-2.16308E-07-2.47584E-19-1.18410E-18
 -1      3737 9.61969E-05-2.79791E-05-2.92397E-05-3.87831E-07 4.29612E-19-1.11393E-18
 -1      3738 1.00369E-04-3.97666E-05-2.61325E-05 2.55879E-05 1.42959E-18-8.73238E-19
 -1      3739 8.90134E-05-3.09853E-05-2.47872E-05 2.55956E-05 1.52059E-18-7.86424E-19
 -1      3740 1.19198E-04-4.05089E-05-3.38255E-05-6.55673E-06 1.07300E-18 9.80401E-19
 -1      3741 1.20924E-04-4.41258E-05-3.28885E-05-3.05105E-06 1.37258E-18 9.38208E-19
 -1      3742 9.62726E-05-2.91384E-05-2.87715E-05-7.83151E-07-7.13792E-20-1.16530E-18
 -1      3743 9.63379E-05-2.90899E-05-2.88186E-05-7.78522E-07-2.58485E-20-9.87139E-19
 -1      3744 9.65192E-05-2.90817E-05-2.89035E-05-6.63547E-07 4.91668E-20-1.21765E-18
 -1      3745 9.63669E-05-2.91932E-05-2.87906E-05-6.73542E-07-2.29563E-19-1.43974E-18
 -1      3746 9.54153E-05-2.43967E-05-3.04414E-05-1.46934E-06-2.66477E-19-1.51520E-18
 -1      3747 9.57664E-05-2.53439E-05-3.01849E-05-9.63513E-07-2.53605E-19-1.37332E-18
 -1      3748 9.59071E-05-2.54910E-05-3.01734E-05-7.29189E-07-9.09638E-20-1.40821E-18
 -1      3749 9.52891E-05-2.39891E-05-3.05524E-05-1.24373E-06-1.09696E-19-1.61649E-18
 -1      3750 1.00805E-04-3.37930E-05-2.86908E-05-5.00237E-06 1.25332E-18 1.19071E-18
 -1      3751 1.00071E-04-3.33181E-05-2.86053E-05-6.10758E-06 1.08126E-18 2.88490E-19
 -1      3752 1.02441E-04-3.52967E-05-2.88000E-05-4.53175E-06 1.17527E-18 1.71283E-18
 -1      3753 1.13321E-04-2.89030E-05-3.64362E-05-1.18598E-05 2.95019E-19-7.63283E-19
 -1      3754 1.16795E-04-3.48614E-05-3.50352E-05-1.02947E-05 7.04705E-19 4.55538E-19
 -1      3755 1.15464E-04-2.71080E-05-3.79214E-05 1.16311E-05-1.59716E-18-7.98104E-19
 -1      3756 1.13031E-04-2.04222E-05-3.99459E-05 1.11049E-05-1.93593E-18-3.23145E-19
 -1      3757 8.03016E-05-2.33661E-05-2.43975E-05-2.11933E-05-1.16484E-18 7.07193E-19
 -1      3758 9.66258E-05-2.88262E-05-2.90582E-05-5.90113E-07 1.17381E-19-6.88639E-19
 -1      3759 9.64998E-05-2.87499E-05-2.90378E-05-6.75841E-07 1.37861E-19-9.10336E-19
 -1      3760 9.65307E-05-2.85517E-05-2.91293E-05-5.71913E-07 3.04784E-19-1.01930E-18
 -1      3761 9.63828E-05-2.80494E-05-2.92877E-05-3.78630E-07 3.99888E-19-1.06332E-18
 -1      3762 9.60320E-05-3.68793E-05-2.51689E-05-2.76057E-05 5.42697E-19 8.40124E-19
 -1      3763 1.01785E-04-3.99203E-05-2.65103E-05-2.36805E-05 2.33401E-19 9.53111E-19
 -1      3764 9.04295E-05-3.24428E-05-2.49677E-05-2.57816E-05-4.85297E-19 9.81526E-19
 -1      3765 1.12796E-04-3.36713E-05-3.38384E-05-1.01265E-05 8.59963E-19-8.02378E-19
 -1      3766 1.09340E-04-3.11478E-05-3.36397E-05-1.07104E-05 9.00654E-19-1.24177E-18
 -1      3767 1.07914E-04-2.77212E-05-3.43270E-05-1.06576E-05 6.05040E-19-4.61431E-19
 -1      3768 1.11104E-04-2.47135E-05-3.70792E-05-1.09867E-05 2.53104E-19-1.05191E-18
 -1      3769 8.21593E-05-2.00853E-05-2.66785E-05-8.90408E-06-3.05221E-19 1.69272E-18
 -1      3770 7.91233E-05-1.85079E-05-2.60311E-05-9.87204E-06-1.97531E-20 6.35754E-19
 -1      3771 8.11264E-05-2.04183E-05-2.58180E-05-1.35330E-05-3.43513E-19 1.72971E-18
 -1      3772 1.07827E-04-1.33221E-05-4.05826E-05 1.06753E-06-1.72991E-18 2.20447E-19
 -1      3773 9.88581E-05-3.24601E-05-2.84137E-05-7.70923E-06 8.98688E-19-2.30999E-18
 -1      3774 9.73258E-05-3.13837E-05-2.82669E-05-8.55320E-06 1.60685E-18-2.85654E-18
 -1      3775 1.00880E-04-3.44759E-05-2.84817E-05-7.97549E-06 2.16031E-18-1.23243E-18
 -1      3776 1.17365E-04-3.79270E-05-3.41117E-05-8.71791E-06 7.19895E-19 6.47014E-19
 -1      3777 1.10450E-04-4.49328E-05-2.81100E-05-1.86046E-05 7.27138E-19 9.18885E-19
 -1      3778 1.16582E-04-4.87213E-05-2.90220E-05-1.70124E-05 1.09685E-18 7.23553E-19
 -1      3779 1.17672E-04-4.74617E-05-3.00496E-05-1.07132E-05 1.41046E-18 2.23828E-18
 -1      3780 9.52510E-05-2.39408E-05-3.05493E-05 1.54568E-06 1.05350E-18-1.44523E-18
 -1      3781 9.43416E-05-2.20173E-05-3.10073E-05 1.78036E-06 1.17432E-18-1.46093E-18
 -1      3782 1.23165E-04-4.66038E-05-3.28213E-05 1.51210E-07-9.96289E-19-1.72047E-18
 -1      3783 1.21130E-04-4.31144E-05-3.34300E-05 4.22011E-06-7.29722E-19-1.74252E-18
 -1      3784 1.17210E-04-3.59547E-05-3.48962E-05 9.39081E-06-6.83185E-19-1.28490E-18
 -1      3785 1.17556E-04-3.22757E-05-3.67049E-05 1.16742E-05-1.38479E-18-1.16014E-18
 -1      3786 1.19356E-04-4.48492E-05-3.18808E-05 3.57358E-07 1.54618E-18 6.78907E-19
 -1      3787 8.84917E-05-2.89479E-05-2.53463E-05 2.22619E-05 9.33728E-19-9.66385E-19
 -1      3788 8.61007E-05-2.21548E-05-2.74718E-05-7.18807E-06 1.82391E-18 8.06916E-19
 -1      3789 8.39935E-05-2.09785E-05-2.70512E-05-8.01519E-06 1.05304E-18 1.42604E-18
 -1      3790 8.56082E-05-2.25099E-05-2.69192E-05-1.05597E-05 1.76323E-18 3.46629E-18
 -1      3791 8.84263E-05-2.39488E-05-2.75515E-05-8.58981E-06 2.37329E-18 1.33428E-18
 -1      3792 1.04483E-04-4.05533E-05-2.72949E-05 2.01901E-05 1.51213E-18-1.54524E-19
 -1      3793 1.20795E-04-4.69989E-05-3.16726E-05-3.32274E-06 1.12645E-19-1.91574E-19
 -1      3794 9.63817E-05-2.71694E-05-2.96704E-05 6.21148E-08 3.93065E-19-1.20030E-18
 -1      3795 9.62335E-05-2.64837E-05-2.98807E-05 4.47661E-07 6.28219E-19-1.23794E-18
 -1      3796 9.51163E-05-2.35310E-05-3.06870E-05 8.12987E-07 8.34199E-19-1.31866E-18
 -1      3797 9.50566E-05-2.33721E-05-3.07282E-05 4.81209E-07 6.46358E-19-1.69755E-18
 -1      3798 9.60105E-05-2.57527E-05-3.01148E-05 6.12954E-07 7.33873E-19-1.13400E-18
 -1      3799 1.16559E-04-4.62778E-05-3.02858E-05 7.31363E-06 1.57629E-18 6.38961E-19
 -1      3800 1.12719E-04-4.43498E-05-2.91615E-05 1.16040E-05 1.12335E-18 5.83730E-19
 -1      3801 9.51394E-05-2.35401E-05-3.06862E-05-6.99831E-07 1.52568E-19-1.78324E-18
 -1      3802 9.52190E-05-2.37797E-05-3.06250E-05-1.01538E-06-5.94597E-20-1.81722E-18
 -1      3803 9.55950E-05-2.45939E-05-3.04253E-05-7.57640E-07 1.19784E-19-1.76424E-18
 -1      3804 9.67844E-05-2.83765E-05-2.93154E-05 3.15631E-07 4.88583E-20-9.81304E-19
 -1      3805 9.67813E-05-2.86495E-05-2.92014E-05 4.15848E-07-1.23421E-20-9.04527E-19
 -1      3806 9.67606E-05-2.88622E-05-2.90973E-05 4.55236E-07-3.64608E-20-9.43641E-19
 -1      3807 9.67105E-05-2.90177E-05-2.90120E-05 5.04920E-07-3.25386E-19-1.06701E-18
 -1      3808 9.68535E-05-2.87361E-05-2.91935E-05 3.24950E-07-6.69519E-20-1.29135E-18
 -1      3809 9.66445E-05-2.91281E-05-2.89340E-05 5.16112E-07-4.62087E-19-9.40267E-19
 -1      3810 9.65684E-05-2.92008E-05-2.88717E-05 5.31872E-07-3.33369E-19-9.81574E-19
 -1      3811 9.67659E-05-2.90801E-05-2.90094E-05 3.87580E-07-2.27718E-19-1.26082E-18
 -1      3812 9.64774E-05-2.92402E-05-2.88148E-05 5.25486E-07-3.18326E-19-1.08789E-18
 -1      3813 9.63894E-05-2.92562E-05-2.87707E-05 5.20361E-07-4.10801E-19-1.20109E-18
 -1      3814 9.66089E-05-2.92433E-05-2.88726E-05 4.05029E-07-4.50661E-19-1.45039E-18
 -1      3815 9.62869E-05-2.92476E-05-2.87303E-05 5.04693E-07-4.78868E-19-1.13394E-18
 -1      3816 9.61955E-05-2.92259E-05-2.87002E-05 4.88977E-07-4.87269E-19-1.28915E-18
 -1      3817 9.64164E-05-2.92819E-05-2.87737E-05 3.94990E-07-4.93243E-19-1.30644E-18
 -1      3818 9.60902E-05-2.91861E-05-2.86727E-05 4.70496E-07-4.55922E-19-1.32497E-18
 -1      3819 9.60005E-05-2.91403E-05-2.86532E-05 4.51787E-07-6.21906E-19-1.23240E-18
 -1      3820 9.62100E-05-2.92367E-05-2.87045E-05 3.71724E-07-4.76437E-19-1.31845E-18
 -1      3821 9.58971E-05-2.90810E-05-2.86354E-05 4.35397E-07-4.53879E-19-8.57821E-19
 -1      3822 9.58119E-05-2.90205E-05-2.86236E-05 4.19444E-07-7.70644E-20-7.15446E-19
 -1      3823 9.60028E-05-2.91374E-05-2.86581E-05 3.46025E-07-3.06518E-19-1.48554E-18
 -1      3824 9.57126E-05-2.89500E-05-2.86127E-05 4.09221E-07-1.31895E-19-7.61183E-19
 -1      3825 9.56331E-05-2.88818E-05-2.86064E-05 4.00589E-07-2.26931E-19-7.01712E-19
 -1      3826 9.58017E-05-2.90045E-05-2.86285E-05 3.26683E-07 2.87966E-21-9.55072E-19
 -1      3827 9.55385E-05-2.88059E-05-2.86002E-05 4.00348E-07-2.42328E-19-4.09059E-19
 -1      3828 9.54658E-05-2.87355E-05-2.85972E-05 4.03037E-07-1.41202E-19-1.63975E-19
 -1      3829 9.56092E-05-2.88526E-05-2.86109E-05 3.21581E-07-2.19585E-19-8.03501E-19
 -1      3830 9.53764E-05-2.86593E-05-2.85938E-05 4.16948E-07-2.30498E-20 2.44941E-19
 -1      3831 9.53120E-05-2.85920E-05-2.85926E-05 4.34938E-07 1.92419E-19 1.92239E-19
 -1      3832 9.54264E-05-2.86925E-05-2.86009E-05 3.38872E-07 2.92767E-19-4.74386E-19
 -1      3833 9.52287E-05-2.85208E-05-2.85902E-05 4.68120E-07 2.48296E-19 3.43706E-19
 -1      3834 9.51762E-05-2.84634E-05-2.85891E-05 5.05830E-07 7.46172E-19-2.35480E-21
 -1      3835 9.52543E-05-2.85342E-05-2.85948E-05 3.88231E-07 3.50122E-19-2.27076E-19
 -1      3836 9.51023E-05-2.84045E-05-2.85861E-05 5.64929E-07 9.98702E-19-1.23697E-19
 -1      3837 9.50687E-05-2.83664E-05-2.85838E-05 6.27510E-07 8.39921E-19-1.05706E-20
 -1      3838 9.50968E-05-2.83899E-05-2.85892E-05 4.82131E-07 8.02806E-19-6.00352E-19
 -1      3839 9.50110E-05-2.83307E-05-2.85788E-05 7.21127E-07 6.41365E-19-3.13046E-19
 -1      3840 9.50085E-05-2.83262E-05-2.85742E-05 8.14445E-07 7.31158E-19-4.23765E-19
 -1      3841 9.49633E-05-2.82769E-05-2.85809E-05 6.37049E-07 5.17977E-19-9.71420E-19
 -1      3842 9.49805E-05-2.83302E-05-2.85658E-05 9.53188E-07 5.13994E-19-6.17479E-19
 -1      3843 9.50290E-05-2.83804E-05-2.85582E-05 1.08318E-06 2.93405E-19-3.32876E-19
 -1      3844 9.48734E-05-2.82219E-05-2.85669E-05 8.74247E-07 2.56247E-19-1.46145E-18
 -1      3845 9.50535E-05-2.84488E-05-2.85456E-05 1.27886E-06-4.74632E-19-2.26235E-19
 -1      3846 9.51833E-05-2.85837E-05-2.85352E-05 1.44972E-06-8.97882E-19-2.45287E-19
 -1      3847 9.48620E-05-2.82661E-05-2.85449E-05 1.21947E-06-1.37182E-19-1.00307E-18
 -1      3848 9.52972E-05-2.87514E-05-2.85188E-05 1.71282E-06-8.79784E-19 2.67646E-19
 -1      3849 9.55516E-05-2.90111E-05-2.85076E-05 1.92329E-06-3.55717E-19 2.15351E-19
 -1      3850 9.49874E-05-2.84709E-05-2.85140E-05 1.70025E-06-4.99222E-19-5.45883E-19
 -1      3851 9.58103E-05-2.93248E-05-2.84897E-05 2.25725E-06-3.52817E-19 3.51156E-19
 -1      3852 9.62460E-05-2.97586E-05-2.84828E-05 2.49399E-06-1.02294E-19 4.26890E-19
 -1      3853 9.53399E-05-2.89229E-05-2.84763E-05 2.33828E-06-3.88980E-19 5.66606E-19
 -1      3854 9.67288E-05-3.02759E-05-2.84701E-05 2.88500E-06-1.03873E-19 1.03063E-19
 -1      3855 9.74139E-05-3.09365E-05-2.84776E-05 3.11131E-06-1.52543E-19-5.13550E-20
 -1      3856 9.60523E-05-2.97373E-05-2.84399E-05 3.13466E-06-2.24060E-19 1.20762E-19
 -1      3857 9.82238E-05-3.17170E-05-2.84838E-05 3.50993E-06 5.24753E-20 3.09115E-19
 -1      3858 9.92261E-05-3.26438E-05-2.85245E-05 3.65130E-06-8.91688E-20 1.96398E-19
 -1      3859 9.73064E-05-3.10521E-05-2.84241E-05 4.04084E-06-6.13785E-20-4.15749E-19
 -1      3860 1.00480E-04-3.37271E-05-2.85758E-05 3.94712E-06-2.62355E-19 7.03449E-19
 -1      3861 1.01837E-04-3.49093E-05-2.86808E-05 3.87615E-06 4.30225E-19 9.17213E-19
 -1      3862 9.93247E-05-3.29977E-05-2.84677E-05 4.91194E-06 8.42483E-21 4.77894E-19
 -1      3863 1.03644E-04-3.62743E-05-2.88224E-05 3.86424E-06 2.34370E-19 1.69727E-19
 -1      3864 1.05313E-04-3.75724E-05-2.90401E-05 3.37755E-06 3.27497E-19 4.47753E-21
 -1      3865 1.02345E-04-3.56453E-05-2.86415E-05 5.46137E-06 3.34167E-19 6.44049E-19
 -1      3866 1.07722E-04-3.90899E-05-2.93466E-05 2.80423E-06-1.44217E-19-7.77623E-19
 -1      3867 1.09591E-04-4.00538E-05-2.97701E-05 1.50222E-06-1.15680E-19-1.47457E-18
 -1      3868 1.06463E-04-3.87661E-05-2.90661E-05 5.18621E-06-8.07160E-19-5.31968E-19
 -1      3869 1.11767E-04-4.16708E-05-2.99886E-05 2.52642E-06 4.61858E-19-1.49150E-18
 -1      3870 1.13663E-04-4.22172E-05-3.06036E-05 8.94449E-07 6.49616E-19-1.08819E-18
 -1      3871 9.56018E-05-2.44057E-05-3.04938E-05 3.13046E-07 6.04403E-19-1.63237E-18
 -1      3872 9.50649E-05-2.33668E-05-3.07344E-05 2.50816E-07 5.30351E-19-1.90313E-18
 -1      3873 9.50895E-05-2.34182E-05-3.07249E-05-3.63682E-08 3.25577E-19-1.81429E-18
 -1      3874 1.17947E-04-3.92624E-05-3.37694E-05 7.75476E-06-1.71147E-19-2.02432E-18
 -1      3875 1.16719E-04-4.09019E-05-3.25535E-05 4.92912E-06-1.51937E-20-1.65499E-18
 -1      3876 1.16021E-04-4.21073E-05-3.16596E-05 2.79910E-06 3.36036E-19-2.03857E-18
 -1      3877 1.09150E-04-4.00113E-05-2.96554E-05-2.35775E-06 2.04403E-18-1.44473E-18
 -1      3878 1.07416E-04-3.88472E-05-2.93175E-05-3.29208E-06 2.49568E-18-7.37508E-19
 -1      3879 1.05622E-04-3.77709E-05-2.90983E-05-3.92465E-06 2.02491E-18 4.01017E-19
 -1      3880 1.03983E-04-3.64406E-05-2.89118E-05-4.34583E-06 1.26759E-18 6.60554E-19
 -1      3881 1.03514E-04-3.63493E-05-2.87961E-05-6.09268E-06 2.40538E-18-2.65853E-19
 -1      3882 1.06803E-04-3.89860E-05-2.91139E-05-5.65442E-06 3.25737E-18-5.75106E-19
 -1      3883 9.52702E-05-2.85029E-05-2.86147E-05-3.53184E-07-4.23305E-19-4.07129E-19
 -1      3884 9.53709E-05-2.86101E-05-2.86123E-05-3.62692E-07-3.68728E-19-2.99366E-19
 -1      3885 9.50322E-05-2.82562E-05-2.86193E-05-3.25824E-07-4.94857E-20-7.74756E-19
 -1      3886 9.51507E-05-2.83830E-05-2.86154E-05-3.34924E-07-1.49104E-19-5.05354E-19
 -1      3887 9.52199E-05-2.84520E-05-2.86141E-05-2.46661E-07-2.58048E-19-5.83808E-19
 -1      3888 9.65263E-05-2.82283E-05-2.92759E-05-4.37558E-07 3.19621E-19-1.15893E-18
 -1      3889 9.65290E-05-2.77574E-05-2.94680E-05-1.63093E-07 3.45997E-19-1.11929E-18
 -1      3890 9.65186E-05-2.73381E-05-2.96470E-05-6.35890E-09 4.09954E-19-1.11957E-18
 -1      3891 9.66640E-05-2.83115E-05-2.92943E-05-3.90976E-07 2.39678E-19-9.99279E-19
 -1      3892 9.47460E-05-2.79624E-05-2.86239E-05-2.83281E-07 7.91800E-20-1.26531E-18
 -1      3893 9.48945E-05-2.81153E-05-2.86204E-05-2.98901E-07 1.31779E-19-9.93308E-19
 -1      3894 9.49669E-05-2.81953E-05-2.86148E-05-1.97218E-07 2.21550E-19-3.09225E-19
 -1      3895 9.43843E-05-2.76059E-05-2.86236E-05-2.01663E-07 7.02052E-19-1.45834E-18
 -1      3896 9.45798E-05-2.77941E-05-2.86230E-05-2.36339E-07 2.83678E-19-1.68575E-18
 -1      3897 9.46685E-05-2.78967E-05-2.86138E-05-1.14171E-07 5.14756E-19-1.38975E-18
 -1      3898 9.39122E-05-2.71685E-05-2.86116E-05-4.13753E-08 3.89907E-19-6.62749E-19
 -1      3899 9.41773E-05-2.74026E-05-2.86178E-05-1.16268E-07 6.23727E-19-1.11014E-18
 -1      3900 9.43025E-05-2.75464E-05-2.86057E-05 3.37851E-08 5.45448E-19-1.71761E-18
 -1      3901 9.32869E-05-2.66321E-05-2.85778E-05 2.60718E-07 4.43623E-20-4.39326E-19
 -1      3902 9.36508E-05-2.69230E-05-2.85966E-05 1.11299E-07 4.13925E-19-5.92226E-19
 -1      3903 9.38436E-05-2.71360E-05-2.85834E-05 2.95980E-07 2.40411E-19-1.07313E-18
 -1      3904 9.24603E-05-2.59857E-05-2.85065E-05 8.02242E-07-3.39764E-19-2.95274E-19
 -1      3905 9.29586E-05-2.63410E-05-2.85472E-05 5.24374E-07-2.13663E-19-5.35385E-19
 -1      3906 9.32664E-05-2.66644E-05-2.85364E-05 7.47509E-07-1.07600E-19-8.85650E-19
 -1      3907 9.13876E-05-2.52386E-05-2.83738E-05 1.73003E-06-9.87060E-20-3.82248E-19
 -1      3908 9.20585E-05-2.56560E-05-2.84510E-05 1.24035E-06-1.13271E-19-6.73633E-19
 -1      3909 9.25512E-05-2.61476E-05-2.84498E-05 1.49905E-06-1.57585E-19-7.04462E-19
 -1      3910 9.01129E-05-2.44874E-05-2.81594E-05 3.15655E-06 1.85504E-19-7.56274E-19
 -1      3911 9.09480E-05-2.49170E-05-2.82857E-05 2.39393E-06 1.65169E-19-9.61206E-19
 -1      3912 9.17254E-05-2.56552E-05-2.83075E-05 2.66653E-06 2.17996E-19-1.32334E-18
 -1      3913 8.85339E-05-2.37898E-05-2.77936E-05 5.50858E-06 1.51835E-19-9.60621E-19
 -1      3914 8.96291E-05-2.42051E-05-2.80141E-05 4.22127E-06 1.32705E-20-9.72167E-19
 -1      3915 9.08172E-05-2.52755E-05-2.80813E-05 4.46623E-06 3.28332E-19-2.35305E-18
 -1      3916 8.68931E-05-2.34811E-05-2.72199E-05 9.09755E-06 5.56503E-19-4.74162E-19
 -1      3917 8.81417E-05-2.37089E-05-2.75728E-05 7.09074E-06 4.78812E-19-4.66008E-19
 -1      3918 8.99396E-05-2.52328E-05-2.77304E-05 7.21431E-06-8.96711E-20-1.05771E-18
 -1      3919 1.08787E-04-1.81158E-05-3.88781E-05 9.12600E-06-1.51937E-18 4.95018E-20
 -1      3920 1.17243E-04-4.40694E-05-3.13543E-05-5.93572E-07 2.82360E-19-7.23995E-19
 -1      3921 1.13778E-04-4.18239E-05-3.08786E-05 8.23169E-07 1.10837E-18-2.13510E-18
 -1      3922 1.12268E-04-4.15370E-05-3.02631E-05-8.89520E-07 1.46281E-18-1.95464E-18
 -1      3923 1.18565E-04-4.65039E-05-3.08386E-05-5.00274E-06 1.24120E-18 9.97896E-19
 -1      3924 9.53455E-05-2.40860E-05-3.05366E-05 1.18310E-06 9.55496E-19-1.15990E-18
 -1      3925 1.07324E-04-4.20358E-05-2.81575E-05 1.61242E-05 1.22235E-18 1.52688E-19
 -1      3926 1.00227E-04-3.69040E-05-2.70391E-05 1.90835E-05 1.24135E-18-3.94740E-19
 -1      3927 9.48647E-05-2.30531E-05-3.07807E-05 1.20956E-06 9.82977E-19-1.21098E-18
 -1      3928 9.53275E-05-2.39652E-05-3.05831E-05 8.50760E-07 9.33572E-19-1.18544E-18
 -1      3929 1.16227E-04-4.35275E-05-3.11212E-05 1.09411E-06 1.18850E-18 2.57419E-19
 -1      3930 9.62493E-05-2.92374E-05-2.87185E-05-5.24887E-07-1.09738E-20-1.01228E-18
 -1      3931 9.63390E-05-2.92502E-05-2.87513E-05-5.38736E-07-2.90007E-19-1.35098E-18
 -1      3932 9.54802E-05-2.87137E-05-2.86138E-05-3.78848E-07-3.32362E-19-5.00894E-19
 -1      3933 9.55722E-05-2.88053E-05-2.86146E-05-3.92061E-07 4.15397E-20-8.60239E-19
 -1      3934 9.54454E-05-2.86750E-05-2.86159E-05-2.81468E-07-4.54409E-19-9.26665E-19
 -1      3935 9.56720E-05-2.88905E-05-2.86198E-05-4.08612E-07 1.88422E-19-4.87175E-19
 -1      3936 9.57563E-05-2.89648E-05-2.86250E-05-4.25039E-07 1.54212E-19-4.86102E-19
 -1      3937 9.56518E-05-2.88650E-05-2.86236E-05-3.11424E-07 6.58858E-20-9.04386E-19
 -1      3938 9.62947E-05-2.63777E-05-2.99637E-05-3.23787E-07-1.62987E-20-1.42559E-18
 -1      3939 9.64896E-05-2.70330E-05-2.97725E-05-6.81930E-08-1.79106E-19-1.19922E-18
 -1      3940 1.15230E-04-3.88146E-05-3.27887E-05-6.79287E-06 4.96447E-19-8.50309E-20
 -1      3941 9.39201E-05-3.28035E-05-2.63301E-05 2.06138E-05 1.12370E-18-7.63474E-19
 -1      3942 8.65940E-05-2.67463E-05-2.56522E-05 1.94691E-05 7.21741E-19-3.51620E-19
 -1      3943 8.71671E-05-2.57309E-05-2.62332E-05 1.62421E-05 6.28084E-19-1.53410E-19
 -1      3944 1.07137E-04-1.48303E-05-3.97081E-05 5.96976E-06-1.92325E-18 1.41593E-19
 -1      3945 9.66576E-05-2.75857E-05-2.95998E-05 6.28617E-08-1.96233E-19-9.20956E-19
 -1      3946 9.67298E-05-2.80180E-05-2.94511E-05 2.36056E-07 2.87340E-20-9.11046E-19
 -1      3947 9.66053E-05-2.71837E-05-2.97498E-05-2.36378E-08-8.93047E-20-1.28884E-18
 -1      3948 8.23684E-05-2.31748E-05-2.54410E-05-1.74602E-05-1.47061E-18 2.00753E-19
 -1      3949 8.59412E-05-2.72916E-05-2.49270E-05-2.27777E-05-1.60688E-18 1.91681E-19
 -1      3950 9.18288E-05-3.11416E-05-2.59663E-05-2.11859E-05-1.15911E-18 4.98505E-19
 -1      3951 8.51999E-05-2.41481E-05-2.61979E-05-1.51142E-05-1.43875E-18 1.10025E-18
 -1      3952 1.05524E-04-1.44227E-05-3.91128E-05 2.83945E-07-1.02337E-18 1.39454E-18
 -1      3953 1.15001E-04-4.06167E-05-3.19048E-05-4.88080E-06 5.96875E-19-1.20480E-18
 -1      3954 9.67285E-05-2.89300E-05-2.90576E-05-5.08759E-07 2.94180E-19-1.07995E-18
 -1      3955 9.67662E-05-2.87506E-05-2.91474E-05-4.44368E-07 1.91957E-19-9.44390E-19
 -1      3956 1.14726E-04-4.49840E-05-2.99083E-05-7.85062E-06 1.07463E-18 7.67696E-19
 -1      3957 9.68239E-05-2.81378E-05-2.94355E-05 1.96569E-07-8.44112E-20-1.04553E-18
 -1      3958 1.02958E-04-1.59942E-05-3.74509E-05-1.89177E-06-1.40917E-18 6.31000E-19
 -1      3959 9.22867E-05-2.71326E-05-2.78736E-05-9.11074E-06 3.66582E-18-4.49141E-19
 -1      3960 9.04317E-05-2.57644E-05-2.77358E-05-8.98392E-06 2.98361E-18 4.87431E-19
 -1      3961 8.92789E-05-2.52496E-05-2.74770E-05-9.91344E-06 2.80188E-18 6.57359E-19
 -1      3962 1.11680E-04-4.20685E-05-2.98922E-05-4.07331E-06 2.22879E-18-1.60142E-18
 -1      3963 9.58538E-05-2.90278E-05-2.86408E-05-3.42310E-07-5.00634E-20-8.10608E-19
 -1      3964 9.58606E-05-2.90407E-05-2.86361E-05-4.44432E-07 5.08548E-20-7.35755E-19
 -1      3965 9.59495E-05-2.91034E-05-2.86481E-05-4.64609E-07 2.35763E-19-1.11591E-18
 -1      3966 1.04157E-04-3.72458E-05-2.86393E-05-8.45526E-06 2.97758E-18-9.02894E-19
 -1      3967 1.02592E-04-3.59366E-05-2.85358E-05-8.40179E-06 2.33356E-18-8.06097E-19
 -1      3968 1.00914E-04-3.50506E-05-2.82858E-05-1.02779E-05 2.36716E-18-2.79030E-18
 -1      3969 9.60547E-05-2.91617E-05-2.86674E-05-4.85474E-07 3.55190E-19-1.16346E-18
 -1      3970 9.61448E-05-2.92039E-05-2.86884E-05-5.05231E-07 4.49262E-19-8.93582E-19
 -1      3971 9.62695E-05-2.92527E-05-2.87231E-05-4.05698E-07 7.11988E-20-1.06094E-18
 -1      3972 9.60614E-05-2.91625E-05-2.86724E-05-3.74950E-07 2.58176E-19-7.56733E-19
 -1      3973 8.69218E-05-2.38518E-05-2.69634E-05 1.09743E-05 7.41184E-19-2.30247E-19
 -1      3974 8.95085E-05-2.59386E-05-2.72819E-05 1.07791E-05 6.75023E-19-3.11625E-19
 -1      3975 8.59121E-05-2.40595E-05-2.65276E-05 1.34230E-05 6.75517E-19-2.89189E-19
 -1      3976 9.50727E-05-2.33774E-05-3.07318E-05-2.33136E-07 2.96867E-19-1.99805E-18
 -1      3977 9.51324E-05-2.35234E-05-3.06984E-05-5.06834E-07 1.77559E-19-1.94580E-18
 -1      3978 9.55557E-05-2.43558E-05-3.05030E-05-3.85843E-07 1.41886E-19-1.84976E-18
 -1      3979 9.55823E-05-2.43639E-05-3.05078E-05-4.99359E-08 2.84202E-19-1.77927E-18
 -1      3980 1.08603E-04-4.14179E-05-2.87366E-05 1.16396E-05 4.71586E-19 8.26974E-21
 -1      3981 9.55988E-05-2.45357E-05-3.04437E-05 7.69800E-07 9.06868E-19-1.12832E-18
 -1      3982 1.06778E-04-4.23136E-05-2.75249E-05-2.00720E-05 6.21213E-19 6.45353E-19
 -1      3983 1.09951E-04-4.33308E-05-2.85141E-05-1.50282E-05 5.68405E-19-2.24904E-19
 -1      3984 1.01744E-04-3.87411E-05-2.70479E-05-2.04318E-05-3.64681E-19 4.48413E-19
 -1      3985 9.82026E-05-3.44972E-05-2.71982E-05 1.68216E-05 1.04909E-18-2.56060E-19
 -1      3986 9.56098E-05-2.98938E-05-2.81178E-05-9.00805E-06 1.50146E-18-4.04037E-18
 -1      3987 9.40554E-05-2.87808E-05-2.79778E-05-9.37325E-06 2.79419E-18-3.08147E-18
 -1      3988 9.35388E-05-2.87122E-05-2.77887E-05-1.04542E-05 2.66422E-18-2.12157E-18
 -1      3989 9.74949E-05-3.20241E-05-2.80746E-05-1.02466E-05 2.77115E-18-4.11498E-18
 -1      3990 9.64377E-05-2.92469E-05-2.87956E-05-5.52333E-07-4.05349E-19-1.32145E-18
 -1      3991 9.65226E-05-2.92169E-05-2.88437E-05-5.51791E-07-3.92545E-19-1.25908E-18
 -1      3992 9.64712E-05-2.92776E-05-2.87991E-05-4.28087E-07-3.37342E-19-1.41658E-18
 -1      3993 9.58571E-05-2.52290E-05-3.02737E-05-6.52692E-07 2.07687E-19-1.66715E-18
 -1      3994 9.61039E-05-2.58759E-05-3.00991E-05-4.25669E-07 1.63676E-19-1.47848E-18
 -1      3995 9.62467E-05-2.61063E-05-3.00571E-05-2.67962E-07 1.25533E-19-1.65241E-18
 -1      3996 9.58152E-05-2.50242E-05-3.03393E-05-4.68212E-07 2.20833E-19-1.78507E-18
 -1      3997 9.59412E-05-2.52833E-05-3.02914E-05 3.08333E-07 6.94581E-19-1.40425E-18
 -1      3998 9.59420E-05-2.52655E-05-3.02982E-05 1.37783E-07 4.36622E-19-1.54483E-18
 -1      3999 9.66697E-05-2.76403E-05-2.95863E-05-1.21295E-07 3.54105E-19-1.25458E-18
 -1      4000 9.65274E-05-2.70254E-05-2.97914E-05 1.10734E-07 3.67226E-19-1.23893E-18
 -1      4001 9.66052E-05-2.91594E-05-2.89055E-05-5.54653E-07-8.26095E-21-1.29660E-18
 -1      4002 9.66739E-05-2.90651E-05-2.89734E-05-5.28571E-07 2.57180E-19-1.12533E-18
 -1      4003 9.67918E-05-2.89996E-05-2.90550E-05-3.98749E-07 2.81276E-19-1.35157E-18
 -1      4004 9.66548E-05-2.92095E-05-2.89071E-05-4.32277E-07-1.79510E-19-1.38290E-18
 -1      4005 9.60150E-05-2.56333E-05-3.01693E-05 4.14395E-07 6.58644E-19-1.12932E-18
 -1      4006 9.63322E-05-2.63344E-05-2.99892E-05 2.16075E-07 5.01472E-19-1.15752E-18
 -1      4007 9.64827E-05-2.66852E-05-2.99125E-05 9.44876E-08 4.89080E-19-1.34011E-18
 -1      4008 1.11194E-04-4.35744E-05-2.90074E-05-1.18307E-05 1.41149E-18 1.06824E-18
 -1      4009 1.12372E-04-4.29319E-05-2.97277E-05-6.51480E-06 1.76527E-18 6.17014E-19
 -1      4010 1.09022E-04-4.08327E-05-2.91372E-05-7.62322E-06 2.69944E-18 1.83385E-19
 -1      4011 1.07419E-04-4.11413E-05-2.84637E-05-1.34301E-05 1.36563E-18-2.38607E-19
 -1      4012 9.62659E-05-2.59542E-05-3.01207E-05 6.82393E-08 3.52242E-19-1.31658E-18
 -1      4013 9.59270E-05-2.52049E-05-3.03160E-05 4.72757E-08 3.86112E-19-1.41606E-18
 -1      4014 9.59057E-05-2.51643E-05-3.03232E-05-1.01528E-07 3.32222E-19-1.68917E-18
 -1      4015 1.10927E-04-4.20886E-05-2.95358E-05 5.93409E-06-4.22185E-19-1.00381E-18
 -1      4016 9.68641E-05-2.90367E-05-2.90681E-05 2.47252E-07-1.25313E-19-1.26992E-18
 -1      4017 9.67992E-05-2.91597E-05-2.89882E-05 2.72618E-07-2.67465E-19-1.27505E-18
 -1      4018 9.67176E-05-2.92419E-05-2.89172E-05 2.69437E-07-4.07930E-19-1.38457E-18
 -1      4019 9.66277E-05-2.92896E-05-2.88585E-05 2.76618E-07-4.99973E-19-1.38275E-18
 -1      4020 9.67960E-05-2.92034E-05-2.89696E-05 1.39957E-07-4.17735E-19-1.35396E-18
 -1      4021 9.65243E-05-2.93066E-05-2.88068E-05 2.67638E-07-5.33279E-19-1.38073E-18
 -1      4022 9.64226E-05-2.93019E-05-2.87650E-05 2.65103E-07-4.61498E-19-1.24101E-18
 -1      4023 9.66127E-05-2.93090E-05-2.88464E-05 1.39034E-07-5.27838E-19-1.25333E-18
 -1      4024 9.63110E-05-2.92763E-05-2.87285E-05 2.54943E-07-5.18749E-19-1.64693E-18
 -1      4025 9.62062E-05-2.92373E-05-2.86999E-05 2.47814E-07-4.58309E-19-1.73525E-18
 -1      4026 9.63996E-05-2.93031E-05-2.87577E-05 1.34022E-07-7.22722E-19-1.66403E-18
 -1      4027 9.60932E-05-2.91836E-05-2.86751E-05 2.38971E-07-8.01433E-20-1.49769E-18
 -1      4028 9.59900E-05-2.91226E-05-2.86563E-05 2.31870E-07 2.23351E-20-1.27398E-18
 -1      4029 9.61771E-05-2.92239E-05-2.86961E-05 1.26981E-07-6.33475E-20-1.74982E-18
 -1      4030 9.58790E-05-2.90511E-05-2.86404E-05 2.26854E-07 1.30933E-19-1.21843E-18
 -1      4031 9.57797E-05-2.89766E-05-2.86288E-05 2.23801E-07 6.55346E-20-1.19300E-18
 -1      4032 9.59552E-05-2.90968E-05-2.86551E-05 1.22905E-07 1.75350E-19-1.41145E-18
 -1      4033 9.56715E-05-2.88941E-05-2.86191E-05 2.25351E-07-1.98984E-19-9.30195E-19
 -1      4034 9.55770E-05-2.88119E-05-2.86124E-05 2.30263E-07 7.99859E-20-5.83259E-19
 -1      4035 9.57381E-05-2.89391E-05-2.86293E-05 1.26858E-07 9.28119E-20-1.06973E-18
 -1      4036 9.54710E-05-2.87233E-05-2.86068E-05 2.41972E-07 2.64854E-19-6.56467E-19
 -1      4037 9.53816E-05-2.86380E-05-2.86030E-05 2.59298E-07 2.57409E-19-5.86292E-19
 -1      4038 9.55261E-05-2.87619E-05-2.86139E-05 1.45223E-07 5.10713E-20-7.08857E-19
 -1      4039 9.52766E-05-2.85470E-05-2.85995E-05 2.86211E-07 4.49777E-19-7.40952E-19
 -1      4040 9.51933E-05-2.84632E-05-2.85968E-05 3.21606E-07 8.63195E-19-7.28278E-19
 -1      4041 9.53171E-05-2.85733E-05-2.86048E-05 1.86703E-07 4.32658E-19-6.22164E-19
 -1      4042 9.50886E-05-2.83742E-05-2.85935E-05 3.71031E-07 7.04182E-19-9.53212E-19
 -1      4043 9.50145E-05-2.82980E-05-2.85903E-05 4.32048E-07 3.79763E-19-1.23262E-18
 -1      4044 9.51091E-05-2.83804E-05-2.85982E-05 2.64045E-07 3.80724E-19-1.18792E-18
 -1      4045 9.49111E-05-2.82172E-05-2.85854E-05 5.14529E-07 3.00114E-19-1.37267E-18
 -1      4046 9.48533E-05-2.81581E-05-2.85800E-05 6.11269E-07 2.96254E-19-1.67423E-18
 -1      4047 9.49020E-05-2.81921E-05-2.85901E-05 3.95851E-07 9.64823E-20-1.91423E-18
 -1      4048 9.47559E-05-2.80959E-05-2.85716E-05 7.41519E-07 3.72201E-19-1.37560E-18
 -1      4049 9.47278E-05-2.80692E-05-2.85626E-05 8.87025E-07 5.04925E-19-1.25860E-18
 -1      4050 9.47010E-05-2.80232E-05-2.85768E-05 6.08673E-07 3.31012E-19-1.80760E-18
 -1      4051 9.46479E-05-2.80427E-05-2.85486E-05 1.08465E-06 2.71369E-19-1.37849E-18
 -1      4052 9.46723E-05-2.80723E-05-2.85349E-05 1.29460E-06-3.09836E-19-9.55325E-19
 -1      4053 9.45215E-05-2.78992E-05-2.85541E-05 9.39133E-07 4.22355E-19-1.78694E-18
 -1      4054 9.46324E-05-2.81088E-05-2.85138E-05 1.58392E-06-4.28276E-19-5.87832E-19
 -1      4055 9.47465E-05-2.82310E-05-2.84952E-05 1.87473E-06-1.26096E-19-1.93458E-19
 -1      4056 9.43956E-05-2.78629E-05-2.85181E-05 1.43513E-06 4.63813E-20-1.09890E-18
 -1      4057 9.47871E-05-2.83734E-05-2.84660E-05 2.28288E-06-1.45141E-19-3.17888E-19
 -1      4058 9.50470E-05-2.86402E-05-2.84443E-05 2.66575E-06-1.71657E-19-2.20168E-19
 -1      4059 9.43836E-05-2.79835E-05-2.84654E-05 2.15499E-06-2.35397E-20-1.22606E-18
 -1      4060 9.52336E-05-2.89479E-05-2.84083E-05 3.21699E-06-4.22810E-19-1.87803E-19
 -1      4061 9.57202E-05-2.94314E-05-2.83891E-05 3.69152E-06-3.37407E-19-6.36132E-19
 -1      4062 9.45880E-05-2.83656E-05-2.83952E-05 3.15853E-06-2.93580E-19-1.18163E-18
 -1      4063 9.61582E-05-2.99884E-05-2.83522E-05 4.38855E-06 1.29078E-19-8.11870E-19
 -1      4064 9.69763E-05-3.07731E-05-2.83481E-05 4.92154E-06 3.91373E-19-6.34919E-19
 -1      4065 9.51772E-05-2.91730E-05-2.83130E-05 4.49039E-06-1.97183E-19-1.11537E-18
 -1      4066 9.78214E-05-3.16878E-05-2.83255E-05 5.72756E-06 4.91391E-19-5.02432E-19
 -1      4067 9.90893E-05-3.28576E-05-2.83618E-05 6.22069E-06 5.69438E-19 2.57747E-19
 -1      4068 9.64032E-05-3.06110E-05-2.82375E-05 6.14323E-06 5.40247E-19-8.54851E-19
 -1      4069 1.00529E-04-3.41962E-05-2.83876E-05 6.99791E-06 2.07111E-19-2.49544E-20
 -1      4070 1.02318E-04-3.58124E-05-2.85041E-05 7.31097E-06-4.96449E-20-4.41176E-19
 -1      4071 9.86303E-05-3.29286E-05-2.82126E-05 7.97722E-06 2.76624E-19-1.12876E-18
 -1      4072 1.05021E-04-3.78623E-05-2.87118E-05 7.36511E-06-7.97736E-19-3.86910E-19
 -1      4073 1.07259E-04-3.97061E-05-2.89911E-05 7.17393E-06-1.33355E-18-1.15712E-18
 -1      4074 1.09098E-04-4.14475E-05-2.90826E-05 8.65233E-06-5.05346E-19-2.36213E-19
 -1      4075 1.02700E-04-3.66114E-05-2.83957E-05 9.28577E-06-3.58757E-19-1.44116E-18
 -1      4076 1.04866E-04-3.87065E-05-2.82515E-05 1.23083E-05-2.05356E-20-7.73771E-19
 -1      4077 9.46127E-05-2.78755E-05-2.86053E-05 5.21868E-08 9.66468E-19-1.39554E-18
 -1      4078 9.47785E-05-2.80254E-05-2.86076E-05-6.46083E-09 7.55189E-19-8.98632E-19
 -1      4079 9.51740E-05-2.84149E-05-2.86120E-05-1.32090E-07-3.98082E-19-8.60833E-19
 -1      4080 9.52934E-05-2.85307E-05-2.86124E-05-1.52404E-07-8.26438E-19-1.00246E-18
 -1      4081 9.67739E-05-2.84813E-05-2.92707E-05-3.81576E-07 3.29532E-20-9.53999E-19
 -1      4082 9.67657E-05-2.81102E-05-2.94228E-05-2.25454E-07 2.03548E-19-1.13660E-18
 -1      4083 9.67706E-05-2.78108E-05-2.95535E-05-1.20907E-07 2.68925E-19-1.20932E-18
 -1      4084 9.68565E-05-2.85738E-05-2.92643E-05-3.03178E-07 1.01303E-19-1.23928E-18
 -1      4085 9.38246E-05-2.71984E-05-2.85628E-05 5.91181E-07 4.81039E-19-1.10249E-18
 -1      4086 9.40837E-05-2.73904E-05-2.85795E-05 4.11889E-07 2.62673E-19-1.19134E-18
 -1      4087 9.33137E-05-2.68239E-05-2.85081E-05 1.14803E-06-4.66198E-19-1.12009E-18
 -1      4088 9.36377E-05-2.70300E-05-2.85400E-05 8.48052E-07-7.04267E-21-1.25103E-18
 -1      4089 9.39162E-05-2.73227E-05-2.85391E-05 9.49921E-07 1.06739E-19-1.31478E-18
 -1      4090 9.27324E-05-2.64695E-05-2.84145E-05 2.03668E-06 2.76071E-19-1.19843E-18
 -1      4091 9.31254E-05-2.66712E-05-2.84700E-05 1.54996E-06-2.11494E-20-9.46211E-19
 -1      4092 9.35417E-05-2.70925E-05-2.84787E-05 1.62541E-06-2.47550E-19-1.59573E-18
 -1      4093 9.21538E-05-2.62299E-05-2.82739E-05 3.32128E-06 3.79830E-19-1.28714E-18
 -1      4094 9.25849E-05-2.63764E-05-2.83583E-05 2.61161E-06 5.13749E-19-9.74667E-19
 -1      4095 9.32017E-05-2.69761E-05-2.83866E-05 2.62051E-06 4.07482E-19-1.14113E-18
 -1      4096 9.16303E-05-2.62327E-05-2.80526E-05 5.31614E-06-9.37215E-20-8.95273E-19
 -1      4097 9.20926E-05-2.62567E-05-2.81885E-05 4.19413E-06-5.76142E-21-1.05909E-18
 -1      4098 9.29766E-05-2.70788E-05-2.82514E-05 4.07565E-06-1.10621E-19-9.20555E-19
 -1      4099 9.14612E-05-2.67734E-05-2.77394E-05 8.17503E-06-6.80982E-19-7.69769E-19
 -1      4100 9.18014E-05-2.65243E-05-2.79357E-05 6.54143E-06-2.39452E-19-1.38906E-18
 -1      4101 9.30466E-05-2.76229E-05-2.80613E-05 6.16821E-06-2.51677E-19-1.04001E-18
 -1      4102 9.68529E-05-2.79461E-05-2.95333E-05 8.22824E-08-1.34077E-19-1.13561E-18
 -1      4103 9.69044E-05-2.83239E-05-2.93930E-05 1.73538E-07 3.85959E-20-1.19674E-18
 -1      4104 9.56267E-05-2.88383E-05-2.86233E-05-2.05108E-07-2.63930E-19-6.54206E-19
 -1      4105 9.57266E-05-2.89239E-05-2.86294E-05-2.17141E-07 1.61198E-19-8.35604E-19
 -1      4106 9.67005E-05-2.72654E-05-2.97496E-05-5.67798E-09 5.63142E-19-1.41620E-18
 -1      4107 9.64963E-05-2.66694E-05-2.99329E-05 5.32692E-08 5.38080E-19-1.49176E-18
 -1      4108 9.49137E-05-2.81614E-05-2.86102E-05-6.40597E-08 2.55214E-19-8.76537E-19
 -1      4109 9.50512E-05-2.82928E-05-2.86104E-05-9.73572E-08 1.62244E-19-8.09338E-19
 -1      4110 9.51298E-05-2.83768E-05-2.86081E-05-4.92998E-09-1.20432E-22-1.94373E-18
 -1      4111 8.82078E-05-2.48482E-05-2.71906E-05-1.11929E-05 1.44084E-18 8.75698E-19
 -1      4112 8.65215E-05-2.40712E-05-2.68228E-05-1.23289E-05-1.44518E-19 7.57350E-19
 -1      4113 9.07794E-05-2.67809E-05-2.74076E-05-1.14916E-05 1.82463E-18 2.60870E-19
 -1      4114 1.00131E-04-3.57502E-05-2.77339E-05 1.42108E-05 4.13465E-19-1.38515E-18
 -1      4115 9.51795E-05-3.17032E-05-2.71473E-05 1.53069E-05 6.86734E-19-5.57137E-19
 -1      4116 9.54071E-05-2.86390E-05-2.86151E-05-1.74440E-07-6.40526E-19-5.98139E-19
 -1      4117 9.55165E-05-2.87416E-05-2.86176E-05-1.89089E-07-4.23738E-19-9.07354E-19
 -1      4118 9.55850E-05-2.88021E-05-2.86221E-05-9.78142E-08-2.26019E-19-4.66353E-19
 -1      4119 9.53635E-05-2.86001E-05-2.86131E-05-6.21800E-08-4.83565E-19-1.05623E-18
 -1      4120 9.42548E-05-2.75538E-05-2.85919E-05 2.52473E-07 5.63897E-20-1.13367E-18
 -1      4121 9.44607E-05-2.77248E-05-2.85993E-05 1.48700E-07 4.14202E-19-1.24248E-18
 -1      4122 9.42712E-05-2.75937E-05-2.85746E-05 5.19271E-07 1.99011E-19-1.03881E-18
 -1      4123 9.06379E-05-2.83226E-05-2.67903E-05 1.53666E-05 1.06492E-18 6.45201E-21
 -1      4124 9.69257E-05-2.86299E-05-2.92692E-05 1.90863E-07 1.80411E-20-1.20070E-18
 -1      4125 9.69080E-05-2.88617E-05-2.91631E-05 2.43616E-07-9.19300E-20-1.33390E-18
 -1      4126 9.69227E-05-2.89403E-05-2.91364E-05 1.24721E-07-1.55795E-19-1.04255E-18
 -1      4127 9.65906E-05-2.69153E-05-2.98601E-05-7.19583E-08 2.59350E-19-1.52048E-18
 -1      4128 9.67545E-05-2.74903E-05-2.96852E-05 4.79630E-08 8.53013E-20-1.22974E-18
 -1      4129 1.05934E-04-3.86381E-05-2.88295E-05-8.17300E-06 3.24900E-18-9.66987E-19
 -1      4130 9.37072E-05-2.97531E-05-2.73418E-05 1.29365E-05 7.23656E-19-5.32770E-19
 -1      4131 9.68236E-05-2.76957E-05-2.96272E-05 1.40175E-08 2.70977E-19-1.21195E-18
 -1      4132 9.48749E-05-2.81322E-05-2.86031E-05 9.11464E-08 5.61601E-19-1.76378E-18
 -1      4133 9.69146E-05-2.87410E-05-2.92180E-05-2.46218E-07 1.71634E-19-1.34011E-18
 -1      4134 9.69256E-05-2.84555E-05-2.93441E-05-1.71607E-07 1.28002E-19-1.09310E-18
 -1      4135 1.01774E-04-3.60593E-05-2.81186E-05 1.13525E-05-1.63837E-19-1.36905E-18
 -1      4136 9.45909E-05-2.78692E-05-2.85937E-05 2.52474E-07 3.74097E-19-1.06707E-18
 -1      4137 9.64841E-05-2.93063E-05-2.87899E-05-2.98091E-07-6.46979E-19-1.14679E-18
 -1      4138 9.65848E-05-2.92987E-05-2.88355E-05-2.98504E-07-5.58466E-19-1.08553E-18
 -1      4139 9.58379E-05-2.90097E-05-2.86401E-05-2.30796E-07 9.73200E-20-6.01372E-19
 -1      4140 9.59425E-05-2.90858E-05-2.86524E-05-2.43088E-07-1.70980E-20-4.74000E-19
 -1      4141 9.58045E-05-2.89832E-05-2.86389E-05-1.22515E-07 3.63010E-19-3.33937E-19
 -1      4142 1.00185E-04-3.48277E-05-2.80305E-05-1.21291E-05 1.28209E-18-3.32348E-18
 -1      4143 9.87245E-05-3.32280E-05-2.80156E-05-1.13074E-05 2.27222E-18-3.97515E-18
 -1      4144 9.66244E-05-3.18067E-05-2.78247E-05-1.19481E-05 1.84794E-18-5.12047E-18
 -1      4145 9.68896E-05-2.81626E-05-2.94533E-05-1.44271E-07 1.10724E-19-1.25970E-18
 -1      4146 9.68014E-05-2.77047E-05-2.96159E-05-4.43064E-08 3.01561E-19-1.45383E-18
 -1      4147 9.68181E-05-2.76702E-05-2.96370E-05-1.78286E-08 2.13147E-19-1.53287E-18
 -1      4148 9.69375E-05-2.83410E-05-2.93991E-05-8.18760E-08 1.09194E-19-1.42319E-18
 -1      4149 9.69435E-05-2.84474E-05-2.93559E-05 9.14697E-08-4.69098E-20-1.18879E-18
 -1      4150 9.20413E-05-2.74478E-05-2.76240E-05 9.51525E-06 2.31218E-19-1.15526E-18
 -1      4151 9.37093E-05-2.88475E-05-2.78497E-05 8.69785E-06-2.94890E-21-2.00392E-18
 -1      4152 9.20852E-05-2.80934E-05-2.74101E-05 1.13695E-05 1.25764E-18-1.28270E-18
 -1      4153 8.86893E-05-2.66709E-05-2.65526E-05-1.56843E-05-1.69699E-18-1.43674E-18
 -1      4154 9.58566E-05-2.50680E-05-3.03438E-05-1.99924E-07 1.88692E-19-1.95898E-18
 -1      4155 9.58523E-05-2.50893E-05-3.03324E-05-3.51594E-07 1.76017E-19-1.83401E-18
 -1      4156 9.61099E-05-2.56625E-05-3.01857E-05-2.66682E-07 2.05747E-19-1.85602E-18
 -1      4157 9.61995E-05-2.58124E-05-3.01617E-05-9.05566E-08 4.30335E-19-1.65076E-18
 -1      4158 9.63751E-05-2.92909E-05-2.87494E-05-2.87152E-07-3.45751E-19-6.52118E-19
 -1      4159 9.64654E-05-2.93129E-05-2.87818E-05-1.67385E-07-6.48879E-19-7.60701E-19
 -1      4160 9.62701E-05-2.92599E-05-2.87179E-05-2.79287E-07 1.73228E-20-4.63776E-19
 -1      4161 9.77497E-05-3.44953E-05-2.70186E-05-1.80347E-05-3.92530E-19-9.62335E-19
 -1      4162 1.01569E-04-3.67023E-05-2.78251E-05-1.48825E-05 4.71089E-19-2.55950E-18
 -1      4163 9.30951E-05-3.04039E-05-2.69270E-05-1.61262E-05-8.46009E-19-9.33313E-19
 -1      4164 9.64846E-05-2.65956E-05-2.99534E-05 4.46047E-09 4.62043E-19-1.34575E-18
 -1      4165 1.05561E-04-3.89039E-05-2.86061E-05-1.06902E-05 2.37758E-18-2.30229E-19
 -1      4166 9.68352E-05-2.90951E-05-2.90314E-05-2.86795E-07 1.69672E-19-1.35713E-18
 -1      4167 9.68905E-05-2.89476E-05-2.91170E-05-2.54897E-07 4.29027E-20-1.40509E-18
 -1      4168 9.69389E-05-2.88360E-05-2.91880E-05-1.34471E-07 1.42027E-19-1.51763E-18
 -1      4169 9.63404E-05-2.62462E-05-3.00419E-05-9.43213E-08 3.45847E-19-1.62508E-18
 -1      4170 9.68548E-05-2.91710E-05-2.90069E-05 3.08090E-09-4.58940E-19-1.03025E-18
 -1      4171 9.67745E-05-2.92581E-05-2.89344E-05 1.11530E-08-3.11031E-19-1.11809E-18
 -1      4172 9.43527E-05-2.77126E-05-2.85640E-05 7.27535E-07 2.44901E-19-1.39824E-18
 -1      4173 9.45189E-05-2.78299E-05-2.85769E-05 5.54956E-07 2.86123E-19-1.36196E-18
 -1      4174 9.66582E-05-2.93110E-05-2.88625E-05-1.71477E-08-6.08487E-19-9.78789E-19
 -1      4175 9.65551E-05-2.93252E-05-2.88113E-05-1.16968E-08-8.73758E-19-1.23908E-18
 -1      4176 9.64473E-05-2.93158E-05-2.87698E-05-1.38492E-08-6.66606E-19-1.01110E-18
 -1      4177 9.63351E-05-2.92876E-05-2.87333E-05-1.21324E-08-4.75165E-19-1.01995E-18
 -1      4178 9.59996E-05-2.91205E-05-2.86618E-05-5.67134E-09 5.46457E-20-9.88140E-19
 -1      4179 9.58881E-05-2.90456E-05-2.86458E-05-2.54962E-09 2.42646E-19-8.83028E-19
 -1      4180 9.57768E-05-2.89624E-05-2.86343E-05 4.77015E-09 2.96503E-19-7.09793E-19
 -1      4181 9.56680E-05-2.88751E-05-2.86246E-05 1.22040E-08 1.21985E-20-5.40306E-19
 -1      4182 9.55579E-05-2.87819E-05-2.86183E-05 2.46765E-08-4.29191E-19-5.86525E-19
 -1      4183 9.54513E-05-2.86861E-05-2.86127E-05 3.99089E-08-1.42156E-19-7.36232E-19
 -1      4184 9.53380E-05-2.85842E-05-2.86093E-05 6.13968E-08 1.45331E-19-1.40719E-18
 -1      4185 9.52324E-05-2.84827E-05-2.86059E-05 8.95533E-08 2.31384E-19-1.54350E-18
 -1      4186 9.51105E-05-2.83718E-05-2.86035E-05 1.27059E-07 3.16835E-19-1.85584E-18
 -1      4187 9.50049E-05-2.82670E-05-2.86004E-05 1.75813E-07 2.71952E-19-1.68206E-18
 -1      4188 9.48713E-05-2.81498E-05-2.85970E-05 2.39708E-07 1.06738E-19-1.59062E-18
 -1      4189 9.47668E-05-2.80459E-05-2.85922E-05 3.20239E-07 2.39317E-19-1.69334E-18
 -1      4190 9.46177E-05-2.79252E-05-2.85855E-05 4.26651E-07 2.70323E-19-1.54970E-18
 -1      4191 9.42711E-05-2.76401E-05-2.85495E-05 9.25580E-07 3.09724E-19-1.31553E-18
 -1      4192 9.40918E-05-2.75402E-05-2.85270E-05 1.19758E-06 1.44773E-19-1.81728E-18
 -1      4193 9.40501E-05-2.75156E-05-2.85044E-05 1.49399E-06-2.34844E-19-1.41341E-18
 -1      4194 9.38725E-05-2.74595E-05-2.84681E-05 1.90938E-06-1.10160E-19-1.57872E-18
 -1      4195 9.39098E-05-2.75245E-05-2.84353E-05 2.34035E-06 1.47933E-19-1.55714E-18
 -1      4196 9.37739E-05-2.75573E-05-2.83839E-05 2.91955E-06 1.20091E-19-1.42560E-18
 -1      4197 9.39563E-05-2.77731E-05-2.83414E-05 3.51447E-06-1.36461E-19-1.32815E-18
 -1      4198 9.39190E-05-2.79719E-05-2.82662E-05 4.37590E-06-4.40509E-19-1.02974E-18
 -1      4199 9.43584E-05-2.84418E-05-2.82175E-05 5.16252E-06-2.53834E-19-1.32227E-18
 -1      4200 9.45519E-05-2.89274E-05-2.81211E-05 6.32750E-06 8.39042E-20-1.53210E-18
 -1      4201 9.53952E-05-2.97840E-05-2.80767E-05 7.30735E-06 4.38500E-19-1.71321E-18
 -1      4202 9.59475E-05-3.05992E-05-2.79897E-05 8.52616E-06 1.99142E-19-1.86444E-18
 -1      4203 9.73647E-05-3.19795E-05-2.79783E-05 9.57982E-06 1.67119E-19-1.99264E-18
 -1      4204 9.90511E-05-3.36760E-05-2.79583E-05 1.08300E-05 2.57931E-20-1.58358E-18
 -1      4205 9.69221E-05-2.80821E-05-2.94975E-05 5.99407E-09 3.90283E-20-1.33951E-18
 -1      4206 1.04347E-04-3.85682E-05-2.81481E-05-1.36203E-05 1.00526E-18-1.78167E-18
 -1      4207 9.66924E-05-2.92799E-05-2.88929E-05-1.49233E-07-4.52550E-19-8.81500E-19
 -1      4208 9.67032E-05-2.92534E-05-2.89070E-05-2.83091E-07-1.82986E-19-1.17189E-18
 -1      4209 9.57225E-05-3.13046E-05-2.76967E-05 1.14668E-05 4.83032E-19-1.64606E-18
 -1      4210 9.62876E-05-2.61597E-05-3.00546E-05-1.88570E-07 1.61762E-19-1.86623E-18
 -1      4211 9.60536E-05-2.91549E-05-2.86701E-05-2.55815E-07-9.77660E-20-3.10431E-19
 -1      4212 9.61590E-05-2.92125E-05-2.86906E-05-2.67017E-07 1.81593E-19-3.12306E-19
 -1      4213 9.62459E-05-2.92525E-05-2.87135E-05-1.56420E-07-1.32003E-20-1.20475E-19
 -1      4214 9.60250E-05-2.91372E-05-2.86679E-05-1.41338E-07 8.23131E-20-2.60993E-19
 -1      4215 9.69580E-05-2.83857E-05-2.93890E-05-1.37930E-08 8.00036E-20-1.28796E-18
 -1      4216 9.69753E-05-2.86848E-05-2.92655E-05 5.52566E-09 7.61323E-20-1.35932E-18
 -1      4217 9.39561E-05-2.98661E-05-2.74371E-05-1.32218E-05 7.37647E-20-1.53516E-18
 -1      4218 9.69515E-05-2.89072E-05-2.91623E-05-1.36344E-08 5.60897E-20-1.33043E-18
 -1      4219 9.69039E-05-2.90753E-05-2.90680E-05-2.33074E-10-3.34401E-19-1.33155E-18
 -1      4220 9.67850E-05-2.91788E-05-2.89724E-05-2.70074E-07 1.12373E-19-1.08092E-18
 -1      4221 9.28103E-05-2.85727E-05-2.75272E-05-1.18697E-05 8.58395E-19-2.03896E-18
 -1      4222 9.62242E-05-2.92436E-05-2.87050E-05-1.09273E-08 2.69880E-20-1.04471E-18
 -1      4223 9.61106E-05-2.91872E-05-2.86803E-05-9.58526E-09 2.13567E-19-7.40290E-19
 -1      4224 9.68574E-05-2.91302E-05-2.90278E-05-1.39817E-07-9.90665E-20-9.28125E-19
 -3
    1PSTEP                         4           1           1          
  100CL  101 1.000000000        4224                     0    1           1
 -4  ERROR       1    1
 -5  STR(%)      1    1    0    0
 -1         1 1.31867E+01
 -1         2 2.57587E+01
 -1         3 1.24060E-01
 -1         4 4.30175E-03
 -1         5 1.33048E+01
 -1         6 1.31447E+01
 -1         7 1.31447E+01
 -1         8 3.66512E+00
 -1         9 1.82611E+00
 -1        10 1.28932E+00
 -1        11 1.04626E+00
 -1        12 8.99689E-01
 -1        13 8.08417E-01
 -1        14 7.52915E-01
 -1        15 7.53558E-01
 -1        16 8.10060E-01
 -1        17 8.96751E-01
 -1        18 1.04744E+00
 -1        19 1.29729E+00
 -1        20 1.84598E+00
 -1        21 3.70853E+00
 -1        22 1.33048E+01
 -1        23 1.31447E+01
 -1        24 4.31765E+00
 -1        25 3.34135E+00
 -1        26 2.11218E+00
 -1        27 1.36368E+00
 -1        28 1.01497E+00
 -1        29 7.76342E-01
 -1        30 5.96837E-01
 -1        31 4.56918E-01
 -1        32 3.48972E-01
 -1        33 2.70245E-01
 -1        34 2.06909E-01
 -1        35 1.56837E-01
 -1        36 1.17941E-01
 -1        37 8.82515E-02
 -1        38 7.33683E-02
 -1        39 6.27504E-02
 -1        40 5.55013E-02
 -1        41 5.13912E-02
 -1        42 4.99177E-02
 -1        43 5.79320E-02
 -1        44 7.40700E-02
 -1        45 9.00067E-02
 -1        46 1.03707E-01
 -1        47 1.49165E-01
 -1        48 1.94165E-01
 -1        49 2.90260E-01
 -1        50 4.41075E-01
 -1        51 6.12041E-01
 -1        52 8.25521E-01
 -1        53 1.20433E+00
 -1        54 1.65094E+00
 -1        55 2.10816E+00
 -1        56 2.43009E+00
 -1        57 2.52006E+00
 -1        58 2.52006E+00
 -1        59 2.48702E+00
 -1        60 2.47658E+00
 -1        61 2.21540E+00
 -1        62 1.78855E+00
 -1        63 1.32623E+00
 -1        64 9.40277E-01
 -1        65 6.32932E-01
 -1        66 4.58662E-01
 -1        67 3.02145E-01
 -1        68 1.78888E-01
 -1        69 9.43352E-02
 -1        70 4.89206E-02
 -1        71 2.59715E-02
 -1        72 1.33048E+01
 -1        73 4.28667E+00
 -1        74 3.39918E+00
 -1        75 2.15670E+00
 -1        76 1.39181E+00
 -1        77 1.02842E+00
 -1        78 7.86328E-01
 -1        79 6.04557E-01
 -1        80 4.62962E-01
 -1        81 3.46615E-01
 -1        82 2.77723E-01
 -1        83 2.12973E-01
 -1        84 1.62061E-01
 -1        85 1.22860E-01
 -1        86 9.35651E-02
 -1        87 7.26242E-02
 -1        88 6.02906E-02
 -1        89 5.67874E-02
 -1        90 6.48789E-02
 -1        91 8.94501E-02
 -1        92 1.26812E-01
 -1        93 1.87093E-01
 -1        94 2.81788E-01
 -1        95 4.27800E-01
 -1        96 6.48133E-01
 -1        97 9.69512E-01
 -1        98 1.41224E+00
 -1        99 1.96555E+00
 -1       100 2.81091E+00
 -1       101 3.99354E+00
 -1       102 5.48357E+00
 -1       103 6.61090E+00
 -1       104 6.61090E+00
 -1       105 5.75372E+00
 -1       106 1.30753E+01
 -1       107 1.91451E+01
 -1       108 1.91451E+01
 -1       109 1.74746E+01
 -1       110 6.93946E+00
 -1       111 6.06791E+00
 -1       112 6.06791E+00
 -1       113 5.78792E+00
 -1       114 4.52804E+00
 -1       115 3.32027E+00
 -1       116 2.30647E+00
 -1       117 1.74084E+00
 -1       118 1.25591E+00
 -1       119 8.79160E-01
 -1       120 5.75410E-01
 -1       121 3.94509E-01
 -1       122 7.86663E-02
 -1       123 7.86663E-02
 -1       124 4.03755E-02
 -1       125 6.58121E-02
 -1       126 7.89422E-02
 -1       127 7.89422E-02
 -1       128 6.70100E-02
 -1       129 4.07128E-02
 -1       130 2.03358E-02
 -1       131 2.89152E-02
 -1       132 3.28167E-02
 -1       133 3.28167E-02
 -1       134 2.75444E-02
 -1       135 1.71486E-02
 -1       136 5.81091E-03
 -1       137 1.36192E-02
 -1       138 2.65852E+01
 -1       139 2.65852E+01
 -1       140 3.43591E+01
 -1       141 3.43591E+01
 -1       142 1.52615E+01
 -1       143 1.52273E+01
 -1       144 1.52273E+01
 -1       145 1.45010E+01
 -1       146 1.45010E+01
 -1       147 2.15613E+01
 -1       148 4.90088E+01
 -1       149 4.90088E+01
 -1       150 2.61849E+01
 -1       151 2.55718E+01
 -1       152 2.55718E+01
 -1       153 2.94598E+01
 -1       154 2.94598E+01
 -1       155 2.57406E+01
 -1       156 1.23050E+01
 -1       157 1.25572E+01
 -1       158 1.25572E+01
 -1       159 1.26243E+01
 -1       160 1.31867E+01
 -1       161 1.56045E+01
 -1       162 4.15851E+01
 -1       163 4.15851E+01
 -1       164 2.54199E+01
 -1       165 6.07978E+00
 -1       166 2.29991E+00
 -1       167 1.50776E+00
 -1       168 1.15783E+00
 -1       169 9.73259E-01
 -1       170 8.64100E-01
 -1       171 7.95336E-01
 -1       172 7.53558E-01
 -1       173 7.96405E-01
 -1       174 8.62990E-01
 -1       175 9.75194E-01
 -1       176 1.16258E+00
 -1       177 1.51530E+00
 -1       178 2.32534E+00
 -1       179 6.19592E+00
 -1       180 4.31765E+00
 -1       181 3.34135E+00
 -1       182 2.11218E+00
 -1       183 1.44775E+00
 -1       184 1.02608E+00
 -1       185 7.76342E-01
 -1       186 5.96837E-01
 -1       187 4.68978E-01
 -1       188 3.69063E-01
 -1       189 2.90129E-01
 -1       190 2.33172E-01
 -1       191 1.84625E-01
 -1       192 1.44235E-01
 -1       193 1.11258E-01
 -1       194 8.47061E-02
 -1       195 6.34807E-02
 -1       196 5.55013E-02
 -1       197 5.13912E-02
 -1       198 4.98670E-02
 -1       199 4.99177E-02
 -1       200 5.79320E-02
 -1       201 7.40700E-02
 -1       202 9.00067E-02
 -1       203 1.03707E-01
 -1       204 1.49165E-01
 -1       205 1.94165E-01
 -1       206 3.14749E-01
 -1       207 5.03181E-01
 -1       208 7.34058E-01
 -1       209 9.91624E-01
 -1       210 1.29153E+00
 -1       211 1.65094E+00
 -1       212 2.10816E+00
 -1       213 2.43009E+00
 -1       214 2.52006E+00
 -1       215 2.48702E+00
 -1       216 2.47658E+00
 -1       217 2.21540E+00
 -1       218 1.78855E+00
 -1       219 1.40420E+00
 -1       220 1.08019E+00
 -1       221 8.25458E-01
 -1       222 5.90958E-01
 -1       223 3.95806E-01
 -1       224 2.46895E-01
 -1       225 1.42053E-01
 -1       226 7.37707E-02
 -1       227 3.32328E-02
 -1       228 4.28667E+00
 -1       229 3.39918E+00
 -1       230 2.15670E+00
 -1       231 1.46759E+00
 -1       232 1.04315E+00
 -1       233 7.86328E-01
 -1       234 6.04557E-01
 -1       235 4.74272E-01
 -1       236 3.69521E-01
 -1       237 2.96727E-01
 -1       238 2.39152E-01
 -1       239 1.90224E-01
 -1       240 1.49722E-01
 -1       241 1.17043E-01
 -1       242 9.13222E-02
 -1       243 7.15737E-02
 -1       244 5.67469E-02
 -1       245 5.76350E-02
 -1       246 7.61860E-02
 -1       247 1.03286E-01
 -1       248 1.46447E-01
 -1       249 2.13032E-01
 -1       250 3.23861E-01
 -1       251 5.30399E-01
 -1       252 8.56711E-01
 -1       253 1.35636E+00
 -1       254 2.08278E+00
 -1       255 3.01417E+00
 -1       256 4.10934E+00
 -1       257 5.10448E+00
 -1       258 5.60986E+00
 -1       259 6.62667E+00
 -1       260 7.78405E+00
 -1       261 6.51502E+00
 -1       262 1.30753E+01
 -1       263 1.91451E+01
 -1       264 1.74746E+01
 -1       265 7.13202E+00
 -1       266 7.15559E+00
 -1       267 5.78792E+00
 -1       268 5.29309E+00
 -1       269 4.51808E+00
 -1       270 3.41774E+00
 -1       271 2.36487E+00
 -1       272 1.52364E+00
 -1       273 9.16722E-01
 -1       274 6.03275E-01
 -1       275 3.94509E-01
 -1       276 1.74920E-01
 -1       277 1.13728E-01
 -1       278 9.43888E-02
 -1       279 1.85074E-01
 -1       280 2.02815E-01
 -1       281 2.02815E-01
 -1       282 1.88294E-01
 -1       283 1.27982E-01
 -1       284 5.13348E-02
 -1       285 8.28183E-02
 -1       286 8.72902E-02
 -1       287 8.72902E-02
 -1       288 8.21767E-02
 -1       289 5.88503E-02
 -1       290 3.11443E-02
 -1       291 2.79379E+01
 -1       292 2.67690E+01
 -1       293 3.19880E+01
 -1       294 3.43591E+01
 -1       295 1.52615E+01
 -1       296 1.29874E+01
 -1       297 1.52273E+01
 -1       298 1.45599E+01
 -1       299 1.45010E+01
 -1       300 1.31759E+01
 -1       301 2.33038E+01
 -1       302 4.90088E+01
 -1       303 2.87772E+01
 -1       304 3.45299E+01
 -1       305 3.45299E+01
 -1       306 2.49930E+01
 -1       307 2.94598E+01
 -1       308 2.64003E+01
 -1       309 1.23050E+01
 -1       310 1.13572E+01
 -1       311 1.25572E+01
 -1       312 1.21077E+01
 -1       313 1.26243E+01
 -1       314 1.31867E+01
 -1       315 1.14402E+01
 -1       316 1.56045E+01
 -1       317 4.15851E+01
 -1       318 3.78125E+01
 -1       319 2.79379E+01
 -1       320 7.73362E+00
 -1       321 1.85567E-02
 -1       322 1.04908E+00
 -1       323 2.48142E+00
 -1       324 7.95171E-01
 -1       325 6.94798E-01
 -1       326 6.31591E-01
 -1       327 5.87277E-01
 -1       328 5.89061E-01
 -1       329 6.32397E-01
 -1       330 6.98626E-01
 -1       331 7.92861E-01
 -1       332 9.21460E-01
 -1       333 1.08647E+00
 -1       334 2.48402E+00
 -1       335 7.13202E+00
 -1       336 2.49451E+01
 -1       337 1.72954E+00
 -1       338 1.26768E+00
 -1       339 9.07414E-01
 -1       340 6.56330E-01
 -1       341 5.39117E-01
 -1       342 4.42140E-01
 -1       343 3.56668E-01
 -1       344 2.90317E-01
 -1       345 2.34803E-01
 -1       346 1.86889E-01
 -1       347 1.49882E-01
 -1       348 1.19455E-01
 -1       349 9.33840E-02
 -1       350 7.13785E-02
 -1       351 5.29415E-02
 -1       352 4.60217E-02
 -1       353 4.30904E-02
 -1       354 4.14037E-02
 -1       355 4.06878E-02
 -1       356 4.84699E-02
 -1       357 5.26526E-02
 -1       358 4.88145E-02
 -1       359 6.99921E-02
 -1       360 1.49870E-01
 -1       361 2.63331E-01
 -1       362 4.12297E-01
 -1       363 5.93148E-01
 -1       364 7.95065E-01
 -1       365 1.05573E+00
 -1       366 1.29722E+00
 -1       367 1.55382E+00
 -1       368 1.76624E+00
 -1       369 1.85143E+00
 -1       370 1.79435E+00
 -1       371 1.84392E+00
 -1       372 1.80282E+00
 -1       373 1.62669E+00
 -1       374 1.36407E+00
 -1       375 1.14195E+00
 -1       376 8.86818E-01
 -1       377 6.75146E-01
 -1       378 4.91551E-01
 -1       379 3.36158E-01
 -1       380 2.14098E-01
 -1       381 1.26404E-01
 -1       382 6.35363E-02
 -1       383 7.37606E+00
 -1       384 1.28531E+00
 -1       385 1.73588E+00
 -1       386 9.21676E-01
 -1       387 6.66656E-01
 -1       388 5.44110E-01
 -1       389 4.46824E-01
 -1       390 3.58094E-01
 -1       391 2.96727E-01
 -1       392 2.40716E-01
 -1       393 1.92446E-01
 -1       394 1.54580E-01
 -1       395 1.24350E-01
 -1       396 9.86138E-02
 -1       397 7.70185E-02
 -1       398 5.88444E-02
 -1       399 5.23569E-02
 -1       400 5.76350E-02
 -1       401 7.61860E-02
 -1       402 1.14331E-01
 -1       403 1.84563E-01
 -1       404 2.92752E-01
 -1       405 4.59765E-01
 -1       406 7.16354E-01
 -1       407 1.10605E+00
 -1       408 1.68699E+00
 -1       409 2.49092E+00
 -1       410 3.61972E+00
 -1       411 5.07865E+00
 -1       412 6.91179E+00
 -1       413 9.22553E+00
 -1       414 1.25537E+01
 -1       415 8.62714E+00
 -1       416 1.02447E+01
 -1       417 8.81996E+00
 -1       418 1.05340E+01
 -1       419 5.70501E+00
 -1       420 4.19712E+00
 -1       421 2.91643E+00
 -1       422 1.93573E+00
 -1       423 1.23191E+00
 -1       424 7.50722E-01
 -1       425 4.65061E-01
 -1       426 1.57216E-01
 -1       427 3.04177E-01
 -1       428 2.22494E-01
 -1       429 3.30797E-01
 -1       430 3.30797E-01
 -1       431 3.11160E-01
 -1       432 2.54832E-01
 -1       433 1.43686E-01
 -1       434 1.31775E-01
 -1       435 1.39984E-01
 -1       436 1.39984E-01
 -1       437 1.32799E-01
 -1       438 1.18971E-01
 -1       439 6.35363E-02
 -1       440 2.18372E+01
 -1       441 4.28349E+01
 -1       442 9.10928E-01
 -1       443 1.29716E+01
 -1       444 7.33915E+00
 -1       445 8.35855E+00
 -1       446 1.79531E+01
 -1       447 2.87772E+01
 -1       448 2.79859E+01
 -1       449 3.57752E+01
 -1       450 3.57752E+01
 -1       451 2.32810E+01
 -1       452 1.91087E+01
 -1       453 1.12006E+01
 -1       454 6.95566E+00
 -1       455 8.63102E+00
 -1       456 1.00127E+01
 -1       457 1.10325E+01
 -1       458 1.00068E+01
 -1       459 7.08021E+00
 -1       460 7.87670E+00
 -1       461 1.40600E+01
 -1       462 2.50911E+01
 -1       463 2.39132E+01
 -1       464 4.28349E+01
 -1       465 7.29124E+00
 -1       466 2.39132E+01
 -1       467 4.86499E-01
 -1       468 5.14629E-01
 -1       469 4.30697E-01
 -1       470 4.56717E-01
 -1       471 4.86744E-01
 -1       472 5.11561E-01
 -1       473 5.11765E-01
 -1       474 5.11765E-01
 -1       475 8.20097E-01
 -1       476 4.28349E+01
 -1       477 8.03421E-01
 -1       478 7.01438E-01
 -1       479 5.88382E-01
 -1       480 4.76004E-01
 -1       481 3.77173E-01
 -1       482 3.22943E-01
 -1       483 2.72802E-01
 -1       484 2.25206E-01
 -1       485 1.87425E-01
 -1       486 1.56503E-01
 -1       487 1.27788E-01
 -1       488 1.02212E-01
 -1       489 8.06610E-02
 -1       490 6.16334E-02
 -1       491 4.51118E-02
 -1       492 3.42006E-02
 -1       493 3.29925E-02
 -1       494 3.23326E-02
 -1       495 3.36996E-02
 -1       496 4.28648E-02
 -1       497 6.01581E-02
 -1       498 8.71267E-02
 -1       499 1.58755E-01
 -1       500 2.60324E-01
 -1       501 3.92070E-01
 -1       502 5.46662E-01
 -1       503 7.06705E-01
 -1       504 8.79146E-01
 -1       505 1.08932E+00
 -1       506 1.24056E+00
 -1       507 1.37488E+00
 -1       508 1.43767E+00
 -1       509 1.40688E+00
 -1       510 1.37886E+00
 -1       511 1.43470E+00
 -1       512 1.40405E+00
 -1       513 1.31799E+00
 -1       514 1.17567E+00
 -1       515 9.71721E-01
 -1       516 7.49900E-01
 -1       517 5.46530E-01
 -1       518 3.86502E-01
 -1       519 2.72805E-01
 -1       520 1.85861E-01
 -1       521 1.30118E-01
 -1       522 5.36754E+00
 -1       523 7.03046E-01
 -1       524 4.81410E-01
 -1       525 3.82042E-01
 -1       526 3.26397E-01
 -1       527 2.78278E-01
 -1       528 2.30296E-01
 -1       529 1.89853E-01
 -1       530 1.55434E-01
 -1       531 1.25110E-01
 -1       532 9.90971E-02
 -1       533 7.70916E-02
 -1       534 5.88444E-02
 -1       535 4.46012E-02
 -1       536 4.41513E-02
 -1       537 5.51945E-02
 -1       538 8.85260E-02
 -1       539 1.40207E-01
 -1       540 2.14694E-01
 -1       541 3.23055E-01
 -1       542 4.81049E-01
 -1       543 7.38456E-01
 -1       544 1.16376E+00
 -1       545 1.80588E+00
 -1       546 2.89045E+00
 -1       547 4.58795E+00
 -1       548 7.51311E+00
 -1       549 1.63179E+01
 -1       550 1.83300E+01
 -1       551 8.43973E+00
 -1       552 8.17556E+00
 -1       553 1.51797E+01
 -1       554 3.42897E+00
 -1       555 2.10284E+00
 -1       556 1.29794E+00
 -1       557 7.85142E-01
 -1       558 5.39350E-01
 -1       559 4.97982E-01
 -1       560 4.65080E-01
 -1       561 6.21610E-01
 -1       562 4.24838E-01
 -1       563 2.83545E-01
 -1       564 2.29335E-01
 -1       565 2.14571E-01
 -1       566 2.14571E-01
 -1       567 1.86346E-01
 -1       568 1.78952E-01
 -1       569 8.73139E-01
 -1       570 1.19657E+01
 -1       571 1.55589E+01
 -1       572 8.03525E-01
 -1       573 5.94022E-01
 -1       574 4.57419E-01
 -1       575 2.49451E+01
 -1       576 1.25537E+01
 -1       577 2.14918E+01
 -1       578 2.79859E+01
 -1       579 3.57752E+01
 -1       580 2.32810E+01
 -1       581 1.52099E+01
 -1       582 8.05615E+00
 -1       583 5.51055E+00
 -1       584 4.11349E+00
 -1       585 6.83205E+00
 -1       586 8.25111E+00
 -1       587 3.85810E+00
 -1       588 7.95246E+00
 -1       589 1.76809E+01
 -1       590 5.30199E-01
 -1       591 5.04687E+00
 -1       592 6.63360E+00
 -1       593 8.43079E+00
 -1       594 3.58067E-01
 -1       595 3.42236E-01
 -1       596 3.62531E-01
 -1       597 3.37883E-01
 -1       598 3.76005E-01
 -1       599 3.84993E-01
 -1       600 5.30199E-01
 -1       601 3.99169E-01
 -1       602 3.74175E-01
 -1       603 3.76563E-01
 -1       604 3.46304E-01
 -1       605 3.02817E-01
 -1       606 2.55981E-01
 -1       607 2.18795E-01
 -1       608 1.87425E-01
 -1       609 1.56503E-01
 -1       610 1.27788E-01
 -1       611 1.02212E-01
 -1       612 8.06610E-02
 -1       613 6.16334E-02
 -1       614 4.51118E-02
 -1       615 3.10532E-02
 -1       616 2.31568E-02
 -1       617 2.44397E-02
 -1       618 2.98205E-02
 -1       619 4.28648E-02
 -1       620 6.01581E-02
 -1       621 9.19220E-02
 -1       622 1.58755E-01
 -1       623 2.60324E-01
 -1       624 3.92070E-01
 -1       625 5.46662E-01
 -1       626 7.06705E-01
 -1       627 8.42318E-01
 -1       628 1.00167E+00
 -1       629 1.15687E+00
 -1       630 1.23763E+00
 -1       631 1.31425E+00
 -1       632 1.31576E+00
 -1       633 1.30280E+00
 -1       634 1.42166E+00
 -1       635 1.42166E+00
 -1       636 1.38831E+00
 -1       637 1.27532E+00
 -1       638 1.05720E+00
 -1       639 8.71725E-01
 -1       640 6.99001E-01
 -1       641 5.23859E-01
 -1       642 3.69199E-01
 -1       643 2.48417E-01
 -1       644 5.88608E+00
 -1       645 3.45035E-01
 -1       646 2.14735E-01
 -1       647 1.81714E-01
 -1       648 1.49860E-01
 -1       649 1.20791E-01
 -1       650 9.68679E-02
 -1       651 7.61628E-02
 -1       652 5.81753E-02
 -1       653 4.21209E-02
 -1       654 2.76739E-02
 -1       655 3.24779E-02
 -1       656 5.45957E-02
 -1       657 9.42715E-02
 -1       658 1.55474E-01
 -1       659 2.53489E-01
 -1       660 4.04039E-01
 -1       661 6.36187E-01
 -1       662 9.94743E-01
 -1       663 1.50190E+00
 -1       664 2.38924E+00
 -1       665 3.80473E+00
 -1       666 6.06398E+00
 -1       667 1.19800E+01
 -1       668 4.63175E+00
 -1       669 1.10149E+00
 -1       670 6.55614E-01
 -1       671 6.55614E-01
 -1       672 6.15181E-01
 -1       673 4.11018E-01
 -1       674 3.34118E-01
 -1       675 3.34118E-01
 -1       676 2.82892E-01
 -1       677 2.77912E-01
 -1       678 1.63179E+01
 -1       679 1.45531E+01
 -1       680 2.85776E+00
 -1       681 1.07317E+01
 -1       682 1.07262E+01
 -1       683 3.62531E-01
 -1       684 4.70378E-01
 -1       685 1.78162E+00
 -1       686 2.47757E-01
 -1       687 8.03932E+00
 -1       688 2.95926E-01
 -1       689 3.58792E-01
 -1       690 1.68470E+01
 -1       691 1.20763E+01
 -1       692 4.58580E+00
 -1       693 3.96748E-01
 -1       694 6.45739E+00
 -1       695 3.26487E+00
 -1       696 1.63751E+01
 -1       697 4.57812E+00
 -1       698 1.67596E+01
 -1       699 3.79729E-01
 -1       700 3.42571E-01
 -1       701 4.30836E+00
 -1       702 3.57720E-01
 -1       703 5.87000E+00
 -1       704 5.52531E+00
 -1       705 6.32984E+00
 -1       706 3.51873E-01
 -1       707 3.66290E+00
 -1       708 2.42071E-01
 -1       709 4.32500E-01
 -1       710 1.27841E-01
 -1       711 2.57263E-01
 -1       712 2.27113E-01
 -1       713 2.45163E-01
 -1       714 2.37238E-01
 -1       715 2.15597E-01
 -1       716 1.87865E-01
 -1       717 1.63817E-01
 -1       718 1.42303E-01
 -1       719 1.19745E-01
 -1       720 9.78248E-02
 -1       721 7.74017E-02
 -1       722 5.87778E-02
 -1       723 4.18862E-02
 -1       724 2.64364E-02
 -1       725 1.30875E-02
 -1       726 1.59598E-02
 -1       727 2.83888E-02
 -1       728 3.98008E-02
 -1       729 5.79612E-02
 -1       730 9.19220E-02
 -1       731 1.40300E-01
 -1       732 2.04118E-01
 -1       733 3.01091E-01
 -1       734 4.48925E-01
 -1       735 6.26910E-01
 -1       736 8.09317E-01
 -1       737 9.76655E-01
 -1       738 1.12890E+00
 -1       739 1.19294E+00
 -1       740 1.32773E+00
 -1       741 1.58848E+00
 -1       742 1.48573E+00
 -1       743 1.48150E+00
 -1       744 1.51808E+00
 -1       745 1.32068E+00
 -1       746 1.19450E+00
 -1       747 1.13497E+00
 -1       748 9.61027E-01
 -1       749 8.13949E-01
 -1       750 6.38086E-01
 -1       751 4.68350E-01
 -1       752 3.27071E-01
 -1       753 1.22631E+00
 -1       754 2.56551E-01
 -1       755 1.50868E-01
 -1       756 1.72487E-01
 -1       757 1.05211E-01
 -1       758 8.39867E-02
 -1       759 6.45376E-02
 -1       760 4.67814E-02
 -1       761 3.05676E-02
 -1       762 2.95106E-02
 -1       763 4.42625E-02
 -1       764 7.82999E-02
 -1       765 1.27556E-01
 -1       766 1.98156E-01
 -1       767 3.00259E-01
 -1       768 4.48288E-01
 -1       769 6.62636E-01
 -1       770 9.25177E-01
 -1       771 1.45504E+00
 -1       772 2.38422E+00
 -1       773 3.88315E+00
 -1       774 6.33395E+00
 -1       775 1.99981E-01
 -1       776 4.03969E+00
 -1       777 1.19800E+01
 -1       778 2.78312E+00
 -1       779 5.06324E-01
 -1       780 5.49185E-01
 -1       781 3.08176E-01
 -1       782 3.02271E+00
 -1       783 9.14248E+00
 -1       784 7.97877E+00
 -1       785 2.33198E-01
 -1       786 7.36550E+00
 -1       787 2.88082E-01
 -1       788 9.04689E+00
 -1       789 3.53600E+00
 -1       790 8.42341E-01
 -1       791 8.48342E+00
 -1       792 8.56209E+00
 -1       793 2.50800E+00
 -1       794 2.63316E+00
 -1       795 3.05697E+00
 -1       796 2.81263E-01
 -1       797 1.83347E+00
 -1       798 3.64723E+00
 -1       799 3.55969E+00
 -1       800 2.49924E-01
 -1       801 3.98707E+00
 -1       802 6.54836E-01
 -1       803 6.54800E+00
 -1       804 3.75759E+00
 -1       805 2.82255E-01
 -1       806 2.27320E-01
 -1       807 6.50358E-01
 -1       808 2.16487E+00
 -1       809 2.83896E-01
 -1       810 3.69407E+00
 -1       811 5.05033E+00
 -1       812 2.88082E-01
 -1       813 2.89016E-01
 -1       814 8.82729E-02
 -1       815 3.03881E+00
 -1       816 1.43458E-01
 -1       817 1.71640E-01
 -1       818 1.76836E-01
 -1       819 1.68269E-01
 -1       820 1.51959E-01
 -1       821 1.32018E-01
 -1       822 1.16640E-01
 -1       823 9.97359E-02
 -1       824 8.25381E-02
 -1       825 6.59414E-02
 -1       826 5.03121E-02
 -1       827 3.56280E-02
 -1       828 2.62139E-02
 -1       829 2.18553E-02
 -1       830 2.86656E-02
 -1       831 4.14936E-02
 -1       832 6.10910E-02
 -1       833 8.67144E-02
 -1       834 1.28878E-01
 -1       835 2.04118E-01
 -1       836 3.01091E-01
 -1       837 4.13882E-01
 -1       838 5.79196E-01
 -1       839 7.61691E-01
 -1       840 9.76655E-01
 -1       841 1.24937E+00
 -1       842 1.36898E+00
 -1       843 1.41448E+00
 -1       844 1.97689E+00
 -1       845 2.22075E+00
 -1       846 3.03881E+00
 -1       847 1.95773E+00
 -1       848 1.58876E+00
 -1       849 1.41716E+00
 -1       850 1.38674E+00
 -1       851 1.13762E+00
 -1       852 9.61027E-01
 -1       853 7.42389E-01
 -1       854 6.89821E-01
 -1       855 3.78585E-01
 -1       856 2.89016E-01
 -1       857 1.05907E-01
 -1       858 1.39967E-01
 -1       859 7.11599E-02
 -1       860 5.51163E-02
 -1       861 4.05715E-02
 -1       862 3.75250E-02
 -1       863 4.18497E-02
 -1       864 5.77617E-02
 -1       865 8.97537E-02
 -1       866 1.31669E-01
 -1       867 1.90498E-01
 -1       868 2.99291E-01
 -1       869 4.65775E-01
 -1       870 6.74728E-01
 -1       871 1.05142E+00
 -1       872 1.59241E+00
 -1       873 3.02479E+00
 -1       874 4.25969E+00
 -1       875 1.59905E-01
 -1       876 2.04728E+00
 -1       877 6.33395E+00
 -1       878 8.43916E-01
 -1       879 6.84603E+00
 -1       880 8.43916E-01
 -1       881 3.05343E+00
 -1       882 2.03438E+00
 -1       883 2.24185E-01
 -1       884 1.22945E-01
 -1       885 1.49457E-01
 -1       886 3.93811E+00
 -1       887 1.36776E+00
 -1       888 5.24410E+00
 -1       889 1.90938E+00
 -1       890 2.36102E+00
 -1       891 1.17813E+00
 -1       892 3.64526E+00
 -1       893 1.75307E-01
 -1       894 6.85411E+00
 -1       895 3.07888E+00
 -1       896 2.18440E-01
 -1       897 8.16454E-01
 -1       898 2.18237E-01
 -1       899 2.61680E+00
 -1       900 2.63316E+00
 -1       901 3.03881E+00
 -1       902 1.99979E-01
 -1       903 4.56227E+00
 -1       904 2.60943E+00
 -1       905 2.14137E+00
 -1       906 2.27444E-01
 -1       907 2.26180E-01
 -1       908 5.79177E-02
 -1       909 4.25969E+00
 -1       910 1.23027E-01
 -1       911 1.32762E-01
 -1       912 1.30550E-01
 -1       913 1.20832E-01
 -1       914 1.07022E-01
 -1       915 9.29086E-02
 -1       916 8.00894E-02
 -1       917 6.67478E-02
 -1       918 5.36172E-02
 -1       919 4.09449E-02
 -1       920 3.68925E-02
 -1       921 3.37095E-02
 -1       922 3.28619E-02
 -1       923 4.58510E-02
 -1       924 6.12406E-02
 -1       925 9.26153E-02
 -1       926 1.37236E-01
 -1       927 1.92761E-01
 -1       928 2.71257E-01
 -1       929 4.06616E-01
 -1       930 5.79196E-01
 -1       931 7.65268E-01
 -1       932 1.04337E+00
 -1       933 1.24937E+00
 -1       934 1.36898E+00
 -1       935 1.73513E+00
 -1       936 2.24715E+00
 -1       937 3.05343E+00
 -1       938 2.61680E+00
 -1       939 1.97708E+00
 -1       940 1.55518E+00
 -1       941 1.45267E+00
 -1       942 8.68149E-01
 -1       943 7.26947E-01
 -1       944 4.57781E-02
 -1       945 8.47582E-02
 -1       946 7.11865E-02
 -1       947 4.26052E-02
 -1       948 4.38530E-02
 -1       949 5.35819E-02
 -1       950 7.48937E-02
 -1       951 1.08105E-01
 -1       952 1.57963E-01
 -1       953 2.30344E-01
 -1       954 3.31438E-01
 -1       955 4.75429E-01
 -1       956 7.88437E-01
 -1       957 1.27044E+00
 -1       958 1.87677E+00
 -1       959 3.02479E+00
 -1       960 1.26280E-01
 -1       961 2.27444E-01
 -1       962 9.29451E-02
 -1       963 8.36063E-01
 -1       964 9.76440E-02
 -1       965 4.57716E+00
 -1       966 2.24501E-01
 -1       967 3.36876E+00
 -1       968 9.47249E-02
 -1       969 4.59187E+00
 -1       970 1.73513E+00
 -1       971 1.12840E-01
 -1       972 1.03868E-01
 -1       973 8.43916E-01
 -1       974 1.92713E+00
 -1       975 1.33393E-01
 -1       976 3.25570E+00
 -1       977 2.95140E+00
 -1       978 8.52589E-01
 -1       979 2.87200E+00
 -1       980 2.24185E-01
 -1       981 1.97708E+00
 -1       982 1.83901E+00
 -1       983 1.08662E-01
 -1       984 1.57907E-01
 -1       985 2.23317E+00
 -1       986 1.25728E-01
 -1       987 9.98829E-02
 -1       988 9.98129E-02
 -1       989 9.36141E-02
 -1       990 8.38243E-02
 -1       991 7.23070E-02
 -1       992 6.11966E-02
 -1       993 5.18737E-02
 -1       994 4.73223E-02
 -1       995 4.41032E-02
 -1       996 4.23602E-02
 -1       997 4.27337E-02
 -1       998 4.64562E-02
 -1       999 6.55119E-02
 -1      1000 9.17425E-02
 -1      1001 1.31205E-01
 -1      1002 2.04771E-01
 -1      1003 3.04051E-01
 -1      1004 4.24809E-01
 -1      1005 5.64467E-01
 -1      1006 7.79332E-01
 -1      1007 1.18381E+00
 -1      1008 1.64939E+00
 -1      1009 1.57907E-01
 -1      1010 1.51028E+00
 -1      1011 9.71370E-01
 -1      1012 4.48879E-02
 -1      1013 5.17561E-02
 -1      1014 1.50814E-01
 -1      1015 6.58223E-02
 -1      1016 8.69615E-02
 -1      1017 1.16790E-01
 -1      1018 1.57963E-01
 -1      1019 2.53580E-01
 -1      1020 3.91517E-01
 -1      1021 5.90949E-01
 -1      1022 8.61135E-01
 -1      1023 1.27044E+00
 -1      1024 1.94135E+00
 -1      1025 2.53559E+00
 -1      1026 7.65094E-02
 -1      1027 4.45191E-02
 -1      1028 4.82848E-02
 -1      1029 6.71952E-02
 -1      1030 3.17209E+00
 -1      1031 9.01615E-02
 -1      1032 2.77105E+00
 -1      1033 1.01904E-01
 -1      1034 1.16563E+00
 -1      1035 5.46996E-02
 -1      1036 1.81914E+00
 -1      1037 6.46599E-02
 -1      1038 2.11926E+00
 -1      1039 1.48804E-01
 -1      1040 2.37274E+00
 -1      1041 1.53780E+00
 -1      1042 8.81868E-02
 -1      1043 9.01966E-02
 -1      1044 9.55390E-02
 -1      1045 8.02836E-02
 -1      1046 9.71975E-02
 -1      1047 1.68695E+00
 -1      1048 9.94152E-02
 -1      1049 7.32894E-02
 -1      1050 8.28052E-02
 -1      1051 6.79796E-02
 -1      1052 6.30467E-02
 -1      1053 5.73650E-02
 -1      1054 5.18737E-02
 -1      1055 4.73223E-02
 -1      1056 4.45719E-02
 -1      1057 4.70751E-02
 -1      1058 5.44141E-02
 -1      1059 7.10552E-02
 -1      1060 1.04149E-01
 -1      1061 1.54443E-01
 -1      1062 2.27270E-01
 -1      1063 3.20686E-01
 -1      1064 4.77144E-01
 -1      1065 6.99229E-01
 -1      1066 1.01938E+00
 -1      1067 1.33361E+00
 -1      1068 1.87388E+00
 -1      1069 7.10552E-02
 -1      1070 4.70751E-02
 -1      1071 1.08052E-01
 -1      1072 1.54443E-01
 -1      1073 2.27270E-01
 -1      1074 3.20686E-01
 -1      1075 4.46012E-01
 -1      1076 6.20802E-01
 -1      1077 9.13150E-01
 -1      1078 6.53457E-02
 -1      1079 4.85555E-02
 -1      1080 5.85756E-02
 -1      1081 5.44141E-02
 -1      1082 2.11646E+00
 -1      1083 1.87388E+00
 -1      1084 4.52201E-02
 -1      1085 1.04149E-01
 -1      1086 7.29703E-02
 -1      1087 7.35747E-02
 -1      1088 8.28052E-02
 -1      1089 5.23320E-02
 -1      1090 2.43042E+00
 -1      1091 5.72673E-02
 -1      1092 1.40697E+00
 -1      1093 9.94152E-02
 -1      1094 6.37641E-02
 -1      1095 7.51052E-02
 -1      1096 8.60298E-02
 -1      1097 5.75726E-02
 -1      1098 1.31447E+01
 -1      1099 8.40491E+00
 -1      1100 2.74561E+00
 -1      1101 1.55771E+00
 -1      1102 1.16779E+00
 -1      1103 9.72974E-01
 -1      1104 8.54053E-01
 -1      1105 7.80666E-01
 -1      1106 7.53237E-01
 -1      1107 7.81809E-01
 -1      1108 8.53406E-01
 -1      1109 9.72098E-01
 -1      1110 1.17237E+00
 -1      1111 1.57163E+00
 -1      1112 2.77725E+00
 -1      1113 8.50666E+00
 -1      1114 1.33048E+01
 -1      1115 1.31447E+01
 -1      1116 8.73117E+00
 -1      1117 3.82950E+00
 -1      1118 2.72677E+00
 -1      1119 1.73793E+00
 -1      1120 1.18932E+00
 -1      1121 8.95655E-01
 -1      1122 6.86589E-01
 -1      1123 5.26878E-01
 -1      1124 4.02945E-01
 -1      1125 3.09608E-01
 -1      1126 2.38577E-01
 -1      1127 1.81873E-01
 -1      1128 1.37389E-01
 -1      1129 1.03096E-01
 -1      1130 8.08099E-02
 -1      1131 6.80594E-02
 -1      1132 5.91258E-02
 -1      1133 5.34462E-02
 -1      1134 5.06544E-02
 -1      1135 5.39249E-02
 -1      1136 6.60010E-02
 -1      1137 8.20383E-02
 -1      1138 9.68568E-02
 -1      1139 1.26436E-01
 -1      1140 1.71665E-01
 -1      1141 2.42212E-01
 -1      1142 3.65667E-01
 -1      1143 5.26558E-01
 -1      1144 7.18781E-01
 -1      1145 1.01492E+00
 -1      1146 1.42764E+00
 -1      1147 1.87955E+00
 -1      1148 2.26912E+00
 -1      1149 2.47507E+00
 -1      1150 2.52006E+00
 -1      1151 2.50354E+00
 -1      1152 2.48180E+00
 -1      1153 2.34599E+00
 -1      1154 2.00197E+00
 -1      1155 1.55739E+00
 -1      1156 1.13325E+00
 -1      1157 7.86605E-01
 -1      1158 5.45797E-01
 -1      1159 3.80403E-01
 -1      1160 2.40516E-01
 -1      1161 1.36612E-01
 -1      1162 7.16279E-02
 -1      1163 3.74461E-02
 -1      1164 1.51366E-02
 -1      1165 1.33048E+01
 -1      1166 8.79573E+00
 -1      1167 3.84292E+00
 -1      1168 2.77794E+00
 -1      1169 1.77425E+00
 -1      1170 1.21011E+00
 -1      1171 9.07374E-01
 -1      1172 6.95442E-01
 -1      1173 5.33759E-01
 -1      1174 4.04788E-01
 -1      1175 3.12169E-01
 -1      1176 2.45348E-01
 -1      1177 1.87517E-01
 -1      1178 1.42461E-01
 -1      1179 1.08213E-01
 -1      1180 8.30946E-02
 -1      1181 6.64574E-02
 -1      1182 5.85390E-02
 -1      1183 6.08331E-02
 -1      1184 7.71645E-02
 -1      1185 1.08131E-01
 -1      1186 1.56953E-01
 -1      1187 2.34440E-01
 -1      1188 3.54794E-01
 -1      1189 5.37967E-01
 -1      1190 8.08823E-01
 -1      1191 1.19088E+00
 -1      1192 1.68889E+00
 -1      1193 2.38823E+00
 -1      1194 3.40222E+00
 -1      1195 4.73855E+00
 -1      1196 6.04724E+00
 -1      1197 6.61090E+00
 -1      1198 6.18231E+00
 -1      1199 9.41453E+00
 -1      1200 1.61102E+01
 -1      1201 1.91451E+01
 -1      1202 1.83099E+01
 -1      1203 1.22070E+01
 -1      1204 6.50369E+00
 -1      1205 6.06791E+00
 -1      1206 5.92792E+00
 -1      1207 5.15798E+00
 -1      1208 3.92415E+00
 -1      1209 2.81337E+00
 -1      1210 2.02365E+00
 -1      1211 1.49838E+00
 -1      1212 1.06754E+00
 -1      1213 7.27285E-01
 -1      1214 4.84959E-01
 -1      1215 2.59285E-01
 -1      1216 1.01363E-01
 -1      1217 7.86663E-02
 -1      1218 5.95209E-02
 -1      1219 5.30938E-02
 -1      1220 7.23771E-02
 -1      1221 7.89422E-02
 -1      1222 7.29761E-02
 -1      1223 5.38614E-02
 -1      1224 3.05243E-02
 -1      1225 2.46255E-02
 -1      1226 3.08660E-02
 -1      1227 3.28167E-02
 -1      1228 3.01806E-02
 -1      1229 2.23465E-02
 -1      1230 1.14798E-02
 -1      1231 9.71505E-03
 -1      1232 8.96047E-03
 -1      1233 2.61720E+01
 -1      1234 2.65852E+01
 -1      1235 3.04721E+01
 -1      1236 3.43591E+01
 -1      1237 2.48103E+01
 -1      1238 1.52444E+01
 -1      1239 1.52273E+01
 -1      1240 1.48641E+01
 -1      1241 1.45010E+01
 -1      1242 1.80311E+01
 -1      1243 3.52851E+01
 -1      1244 4.90088E+01
 -1      1245 3.75969E+01
 -1      1246 2.58784E+01
 -1      1247 2.55718E+01
 -1      1248 2.75158E+01
 -1      1249 2.94598E+01
 -1      1250 2.76002E+01
 -1      1251 1.90228E+01
 -1      1252 1.24311E+01
 -1      1253 1.25572E+01
 -1      1254 1.25908E+01
 -1      1255 1.29055E+01
 -1      1256 1.31867E+01
 -1      1257 1.43956E+01
 -1      1258 2.85948E+01
 -1      1259 4.15851E+01
 -1      1260 3.35025E+01
 -1      1261 2.55893E+01
 -1      1262 1.31447E+01
 -1      1263 4.87245E+00
 -1      1264 9.61224E+00
 -1      1265 2.06301E+00
 -1      1266 2.98251E+00
 -1      1267 4.18985E+00
 -1      1268 1.39854E+00
 -1      1269 1.66693E+00
 -1      1270 1.90383E+00
 -1      1271 1.10205E+00
 -1      1272 1.22357E+00
 -1      1273 1.33279E+00
 -1      1274 9.36474E-01
 -1      1275 1.00976E+00
 -1      1276 1.06555E+00
 -1      1277 8.36259E-01
 -1      1278 8.81895E-01
 -1      1279 9.18680E-01
 -1      1280 7.74126E-01
 -1      1281 8.01877E-01
 -1      1282 8.29718E-01
 -1      1283 7.53558E-01
 -1      1284 7.53237E-01
 -1      1285 7.74447E-01
 -1      1286 8.03233E-01
 -1      1287 7.74982E-01
 -1      1288 7.74982E-01
 -1      1289 8.79871E-01
 -1      1290 8.36525E-01
 -1      1291 8.29697E-01
 -1      1292 1.01132E+00
 -1      1293 9.35973E-01
 -1      1294 9.19092E-01
 -1      1295 1.22994E+00
 -1      1296 1.10501E+00
 -1      1297 1.06889E+00
 -1      1298 1.68064E+00
 -1      1299 1.40629E+00
 -1      1300 1.33894E+00
 -1      1301 3.01693E+00
 -1      1302 2.08566E+00
 -1      1303 1.92032E+00
 -1      1304 9.75036E+00
 -1      1305 4.95223E+00
 -1      1306 4.26063E+00
 -1      1307 1.33048E+01
 -1      1308 8.73117E+00
 -1      1309 4.31765E+00
 -1      1310 3.82950E+00
 -1      1311 3.34135E+00
 -1      1312 3.82950E+00
 -1      1313 2.72677E+00
 -1      1314 2.11218E+00
 -1      1315 2.72677E+00
 -1      1316 1.77997E+00
 -1      1317 1.40571E+00
 -1      1318 1.77997E+00
 -1      1319 1.19488E+00
 -1      1320 1.02052E+00
 -1      1321 1.23691E+00
 -1      1322 8.95655E-01
 -1      1323 7.76342E-01
 -1      1324 9.01211E-01
 -1      1325 6.86589E-01
 -1      1326 5.96837E-01
 -1      1327 6.86589E-01
 -1      1328 5.32908E-01
 -1      1329 4.62948E-01
 -1      1330 5.32908E-01
 -1      1331 4.12991E-01
 -1      1332 3.59018E-01
 -1      1333 4.19021E-01
 -1      1334 3.19551E-01
 -1      1335 2.80187E-01
 -1      1336 3.29596E-01
 -1      1337 2.51708E-01
 -1      1338 2.20040E-01
 -1      1339 2.61650E-01
 -1      1340 1.95767E-01
 -1      1341 1.70731E-01
 -1      1342 2.08898E-01
 -1      1343 1.50536E-01
 -1      1344 1.31088E-01
 -1      1345 1.64430E-01
 -1      1346 1.14600E-01
 -1      1347 9.97550E-02
 -1      1348 1.27747E-01
 -1      1349 8.64788E-02
 -1      1350 7.90372E-02
 -1      1351 9.79823E-02
 -1      1352 6.84245E-02
 -1      1353 6.31155E-02
 -1      1354 7.40934E-02
 -1      1355 5.91258E-02
 -1      1356 5.55013E-02
 -1      1357 5.94910E-02
 -1      1358 5.34462E-02
 -1      1359 5.13912E-02
 -1      1360 5.34462E-02
 -1      1361 5.06291E-02
 -1      1362 4.98924E-02
 -1      1363 5.06291E-02
 -1      1364 4.99177E-02
 -1      1365 5.39249E-02
 -1      1366 4.98924E-02
 -1      1367 5.79320E-02
 -1      1368 6.60010E-02
 -1      1369 5.39249E-02
 -1      1370 7.40700E-02
 -1      1371 8.20383E-02
 -1      1372 6.60010E-02
 -1      1373 9.00067E-02
 -1      1374 9.68568E-02
 -1      1375 8.20383E-02
 -1      1376 1.03707E-01
 -1      1377 1.26436E-01
 -1      1378 9.68568E-02
 -1      1379 1.49165E-01
 -1      1380 1.71665E-01
 -1      1381 1.26436E-01
 -1      1382 1.94165E-01
 -1      1383 2.42212E-01
 -1      1384 1.71665E-01
 -1      1385 3.02504E-01
 -1      1386 3.77912E-01
 -1      1387 2.54457E-01
 -1      1388 4.72128E-01
 -1      1389 5.57611E-01
 -1      1390 4.08965E-01
 -1      1391 6.73049E-01
 -1      1392 7.79790E-01
 -1      1393 6.18619E-01
 -1      1394 9.08573E-01
 -1      1395 1.09798E+00
 -1      1396 8.62841E-01
 -1      1397 1.24793E+00
 -1      1398 1.47124E+00
 -1      1399 1.14158E+00
 -1      1400 1.65094E+00
 -1      1401 1.87955E+00
 -1      1402 1.47124E+00
 -1      1403 2.10816E+00
 -1      1404 2.26912E+00
 -1      1405 1.87955E+00
 -1      1406 2.43009E+00
 -1      1407 2.47507E+00
 -1      1408 2.26912E+00
 -1      1409 2.52006E+00
 -1      1410 2.52006E+00
 -1      1411 2.47507E+00
 -1      1412 2.50354E+00
 -1      1413 2.48702E+00
 -1      1414 2.50354E+00
 -1      1415 2.48180E+00
 -1      1416 2.47658E+00
 -1      1417 2.48180E+00
 -1      1418 2.34599E+00
 -1      1419 2.21540E+00
 -1      1420 2.34599E+00
 -1      1421 2.00197E+00
 -1      1422 1.78855E+00
 -1      1423 2.00197E+00
 -1      1424 1.59637E+00
 -1      1425 1.36521E+00
 -1      1426 1.59637E+00
 -1      1427 1.20321E+00
 -1      1428 1.01023E+00
 -1      1429 1.24219E+00
 -1      1430 8.82867E-01
 -1      1431 7.29195E-01
 -1      1432 9.52823E-01
 -1      1433 6.11945E-01
 -1      1434 5.24810E-01
 -1      1435 7.08208E-01
 -1      1436 4.27234E-01
 -1      1437 3.48975E-01
 -1      1438 4.93382E-01
 -1      1439 2.74520E-01
 -1      1440 2.12891E-01
 -1      1441 3.21350E-01
 -1      1442 1.60470E-01
 -1      1443 1.18194E-01
 -1      1444 1.94474E-01
 -1      1445 8.40529E-02
 -1      1446 6.13457E-02
 -1      1447 1.07912E-01
 -1      1448 4.10767E-02
 -1      1449 2.96021E-02
 -1      1450 5.35017E-02
 -1      1451 1.97953E-02
 -1      1452 2.34260E-02
 -1      1453 4.28667E+00
 -1      1454 8.79573E+00
 -1      1455 3.39918E+00
 -1      1456 3.84292E+00
 -1      1457 3.84292E+00
 -1      1458 2.15670E+00
 -1      1459 2.77794E+00
 -1      1460 2.77794E+00
 -1      1461 1.42970E+00
 -1      1462 1.81215E+00
 -1      1463 1.81215E+00
 -1      1464 1.03579E+00
 -1      1465 1.21748E+00
 -1      1466 1.25537E+00
 -1      1467 7.86328E-01
 -1      1468 9.07374E-01
 -1      1469 9.14740E-01
 -1      1470 6.04557E-01
 -1      1471 6.95442E-01
 -1      1472 6.95442E-01
 -1      1473 4.68617E-01
 -1      1474 5.39414E-01
 -1      1475 5.39414E-01
 -1      1476 3.58068E-01
 -1      1477 4.16241E-01
 -1      1478 4.21897E-01
 -1      1479 2.87225E-01
 -1      1480 3.21671E-01
 -1      1481 3.33124E-01
 -1      1482 2.26062E-01
 -1      1483 2.58437E-01
 -1      1484 2.67939E-01
 -1      1485 1.76143E-01
 -1      1486 2.01599E-01
 -1      1487 2.14688E-01
 -1      1488 1.36291E-01
 -1      1489 1.55892E-01
 -1      1490 1.69973E-01
 -1      1491 1.05304E-01
 -1      1492 1.19952E-01
 -1      1493 1.33383E-01
 -1      1494 8.19732E-02
 -1      1495 9.24437E-02
 -1      1496 1.04183E-01
 -1      1497 6.59321E-02
 -1      1498 7.20989E-02
 -1      1499 8.14479E-02
 -1      1500 5.67672E-02
 -1      1501 5.85188E-02
 -1      1502 6.41603E-02
 -1      1503 6.12569E-02
 -1      1504 5.72112E-02
 -1      1505 5.71910E-02
 -1      1506 8.28181E-02
 -1      1507 7.05324E-02
 -1      1508 6.69105E-02
 -1      1509 1.15049E-01
 -1      1510 9.63683E-02
 -1      1511 8.97362E-02
 -1      1512 1.66770E-01
 -1      1513 1.36629E-01
 -1      1514 1.24867E-01
 -1      1515 2.47410E-01
 -1      1516 2.00063E-01
 -1      1517 1.79740E-01
 -1      1518 3.75831E-01
 -1      1519 3.02824E-01
 -1      1520 2.68447E-01
 -1      1521 5.89266E-01
 -1      1522 4.79100E-01
 -1      1523 4.27130E-01
 -1      1524 9.13112E-01
 -1      1525 7.52422E-01
 -1      1526 6.93555E-01
 -1      1527 1.38430E+00
 -1      1528 1.16293E+00
 -1      1529 1.10653E+00
 -1      1530 2.02416E+00
 -1      1531 1.74751E+00
 -1      1532 1.71957E+00
 -1      1533 2.91254E+00
 -1      1534 2.48986E+00
 -1      1535 2.54847E+00
 -1      1536 4.05144E+00
 -1      1537 3.46012E+00
 -1      1538 3.56175E+00
 -1      1539 5.29402E+00
 -1      1540 4.54901E+00
 -1      1541 4.60691E+00
 -1      1542 6.11038E+00
 -1      1543 5.54671E+00
 -1      1544 5.35717E+00
 -1      1545 6.61879E+00
 -1      1546 6.61879E+00
 -1      1547 6.11827E+00
 -1      1548 6.76888E+00
 -1      1549 7.19748E+00
 -1      1550 7.20536E+00
 -1      1551 9.79518E+00
 -1      1552 6.13437E+00
 -1      1553 7.14954E+00
 -1      1554 1.61102E+01
 -1      1555 1.30753E+01
 -1      1556 9.79518E+00
 -1      1557 1.91451E+01
 -1      1558 1.91451E+01
 -1      1559 1.61102E+01
 -1      1560 1.74746E+01
 -1      1561 1.83099E+01
 -1      1562 1.83099E+01
 -1      1563 6.59997E+00
 -1      1564 7.03574E+00
 -1      1565 6.61175E+00
 -1      1566 6.61175E+00
 -1      1567 7.14381E+00
 -1      1568 5.78792E+00
 -1      1569 5.92792E+00
 -1      1570 6.47176E+00
 -1      1571 4.91056E+00
 -1      1572 5.54050E+00
 -1      1573 5.54050E+00
 -1      1574 3.91917E+00
 -1      1575 4.52306E+00
 -1      1576 4.90558E+00
 -1      1577 2.86210E+00
 -1      1578 3.36900E+00
 -1      1579 3.96791E+00
 -1      1580 2.05285E+00
 -1      1581 2.33567E+00
 -1      1582 2.89131E+00
 -1      1583 1.38977E+00
 -1      1584 1.63224E+00
 -1      1585 1.94425E+00
 -1      1586 8.97941E-01
 -1      1587 1.08632E+00
 -1      1588 1.22018E+00
 -1      1589 5.89342E-01
 -1      1590 7.41217E-01
 -1      1591 7.59999E-01
 -1      1592 3.94509E-01
 -1      1593 4.84959E-01
 -1      1594 4.98892E-01
 -1      1595 1.49490E-01
 -1      1596 2.84715E-01
 -1      1597 2.84715E-01
 -1      1598 1.26793E-01
 -1      1599 9.61973E-02
 -1      1600 9.61973E-02
 -1      1601 1.44324E-01
 -1      1602 6.73821E-02
 -1      1603 8.65275E-02
 -1      1604 1.04059E-01
 -1      1605 1.25443E-01
 -1      1606 1.12725E-01
 -1      1607 1.39731E-01
 -1      1608 1.40879E-01
 -1      1609 1.34314E-01
 -1      1610 1.93945E-01
 -1      1611 1.40879E-01
 -1      1612 1.40879E-01
 -1      1613 2.02815E-01
 -1      1614 1.27652E-01
 -1      1615 1.33618E-01
 -1      1616 1.95555E-01
 -1      1617 8.43474E-02
 -1      1618 9.74960E-02
 -1      1619 1.58138E-01
 -1      1620 3.58353E-02
 -1      1621 4.60238E-02
 -1      1622 8.96584E-02
 -1      1623 5.58668E-02
 -1      1624 5.15770E-02
 -1      1625 6.70766E-02
 -1      1626 6.00534E-02
 -1      1627 5.81027E-02
 -1      1628 8.50542E-02
 -1      1629 6.00534E-02
 -1      1630 6.00534E-02
 -1      1631 8.72902E-02
 -1      1632 5.48606E-02
 -1      1633 5.74967E-02
 -1      1634 8.47335E-02
 -1      1635 3.79995E-02
 -1      1636 4.31973E-02
 -1      1637 7.05135E-02
 -1      1638 1.84776E-02
 -1      1639 2.41465E-02
 -1      1640 4.49973E-02
 -1      1641 2.72615E+01
 -1      1642 2.68483E+01
 -1      1643 2.66771E+01
 -1      1644 2.66771E+01
 -1      1645 3.31735E+01
 -1      1646 2.92866E+01
 -1      1647 3.43591E+01
 -1      1648 3.43591E+01
 -1      1649 1.52615E+01
 -1      1650 2.48103E+01
 -1      1651 1.41074E+01
 -1      1652 1.41245E+01
 -1      1653 1.52273E+01
 -1      1654 1.52273E+01
 -1      1655 1.45304E+01
 -1      1656 1.48936E+01
 -1      1657 1.45010E+01
 -1      1658 1.45010E+01
 -1      1659 1.73686E+01
 -1      1660 1.38384E+01
 -1      1661 3.61563E+01
 -1      1662 2.24325E+01
 -1      1663 4.90088E+01
 -1      1664 4.90088E+01
 -1      1665 2.74810E+01
 -1      1666 3.88930E+01
 -1      1667 3.00508E+01
 -1      1668 3.03574E+01
 -1      1669 3.00508E+01
 -1      1670 3.00508E+01
 -1      1671 2.72264E+01
 -1      1672 2.52824E+01
 -1      1673 2.94598E+01
 -1      1674 2.94598E+01
 -1      1675 2.60704E+01
 -1      1676 2.79300E+01
 -1      1677 1.23050E+01
 -1      1678 1.90228E+01
 -1      1679 1.19572E+01
 -1      1680 1.18311E+01
 -1      1681 1.25572E+01
 -1      1682 1.25572E+01
 -1      1683 1.23660E+01
 -1      1684 1.23325E+01
 -1      1685 1.29055E+01
 -1      1686 1.26243E+01
 -1      1687 1.31867E+01
 -1      1688 1.31867E+01
 -1      1689 1.35224E+01
 -1      1690 1.23135E+01
 -1      1691 2.85948E+01
 -1      1692 1.56045E+01
 -1      1693 4.15851E+01
 -1      1694 4.15851E+01
 -1      1695 3.16162E+01
 -1      1696 3.96988E+01
 -1      1697 2.68483E+01
 -1      1698 2.66789E+01
 -1      1699 9.75036E+00
 -1      1700 7.43282E+00
 -1      1701 7.33654E+00
 -1      1702 1.26041E+01
 -1      1703 1.26041E+01
 -1      1704 2.93785E+01
 -1      1705 2.79379E+01
 -1      1706 2.73534E+01
 -1      1707 1.60879E-02
 -1      1708 1.21838E-02
 -1      1709 2.48505E-02
 -1      1710 3.31735E+01
 -1      1711 2.48103E+01
 -1      1712 1.41245E+01
 -1      1713 1.41074E+01
 -1      1714 1.48936E+01
 -1      1715 1.45304E+01
 -1      1716 1.38384E+01
 -1      1717 1.82398E+01
 -1      1718 3.61563E+01
 -1      1719 3.88930E+01
 -1      1720 3.16535E+01
 -1      1721 3.45299E+01
 -1      1722 2.97615E+01
 -1      1723 2.72264E+01
 -1      1724 2.79300E+01
 -1      1725 1.93526E+01
 -1      1726 1.18311E+01
 -1      1727 1.19572E+01
 -1      1728 1.23325E+01
 -1      1729 1.23660E+01
 -1      1730 1.29055E+01
 -1      1731 1.23135E+01
 -1      1732 1.35224E+01
 -1      1733 2.85948E+01
 -1      1734 3.96988E+01
 -1      1735 3.28752E+01
 -1      1736 9.61224E+00
 -1      1737 1.27842E+00
 -1      1738 1.67450E+00
 -1      1739 2.39066E+00
 -1      1740 4.28060E+00
 -1      1741 1.76525E+00
 -1      1742 8.84215E-01
 -1      1743 9.76503E-01
 -1      1744 7.79449E-01
 -1      1745 8.34029E-01
 -1      1746 7.44984E-01
 -1      1747 7.13464E-01
 -1      1748 7.47845E-01
 -1      1749 6.63194E-01
 -1      1750 6.70418E-01
 -1      1751 6.91307E-01
 -1      1752 6.09434E-01
 -1      1753 6.92733E-01
 -1      1754 6.71309E-01
 -1      1755 5.88169E-01
 -1      1756 7.47693E-01
 -1      1757 7.14401E-01
 -1      1758 6.10729E-01
 -1      1759 8.36910E-01
 -1      1760 7.80808E-01
 -1      1761 6.65511E-01
 -1      1762 9.77722E-01
 -1      1763 8.84028E-01
 -1      1764 7.45744E-01
 -1      1765 1.21838E+00
 -1      1766 1.04202E+00
 -1      1767 8.57161E-01
 -1      1768 1.70590E+00
 -1      1769 1.30088E+00
 -1      1770 1.00396E+00
 -1      1771 4.33997E+00
 -1      1772 2.40468E+00
 -1      1773 1.78524E+00
 -1      1774 7.13202E+00
 -1      1775 7.43282E+00
 -1      1776 2.84666E+01
 -1      1777 2.58570E+01
 -1      1778 5.19871E+00
 -1      1779 5.24130E+00
 -1      1780 2.53545E+00
 -1      1781 1.92086E+00
 -1      1782 1.68993E+00
 -1      1783 1.35772E+00
 -1      1784 1.49861E+00
 -1      1785 1.17758E+00
 -1      1786 9.66747E-01
 -1      1787 1.08755E+00
 -1      1788 8.41205E-01
 -1      1789 7.16336E-01
 -1      1790 7.81872E-01
 -1      1791 6.57729E-01
 -1      1792 5.67977E-01
 -1      1793 5.97723E-01
 -1      1794 5.19488E-01
 -1      1795 4.55559E-01
 -1      1796 4.90628E-01
 -1      1797 4.12823E-01
 -1      1798 3.62866E-01
 -1      1799 3.99404E-01
 -1      1800 3.29690E-01
 -1      1801 2.90223E-01
 -1      1802 3.23492E-01
 -1      1803 2.62466E-01
 -1      1804 2.33987E-01
 -1      1805 2.62560E-01
 -1      1806 2.10031E-01
 -1      1807 1.85757E-01
 -1      1808 2.10846E-01
 -1      1809 1.67254E-01
 -1      1810 1.47058E-01
 -1      1811 1.68386E-01
 -1      1812 1.31845E-01
 -1      1813 1.15357E-01
 -1      1814 1.34668E-01
 -1      1815 1.02321E-01
 -1      1816 8.90451E-02
 -1      1817 1.06419E-01
 -1      1818 7.80423E-02
 -1      1819 6.74296E-02
 -1      1820 8.23812E-02
 -1      1821 5.82111E-02
 -1      1822 5.42214E-02
 -1      1823 6.21600E-02
 -1      1824 5.07615E-02
 -1      1825 4.87064E-02
 -1      1826 4.94816E-02
 -1      1827 4.72408E-02
 -1      1828 4.64787E-02
 -1      1829 4.45560E-02
 -1      1830 4.56353E-02
 -1      1831 4.56607E-02
 -1      1832 4.22470E-02
 -1      1833 4.53027E-02
 -1      1834 4.93099E-02
 -1      1835 4.10457E-02
 -1      1836 5.32010E-02
 -1      1837 6.12699E-02
 -1      1838 4.45788E-02
 -1      1839 6.33613E-02
 -1      1840 7.13296E-02
 -1      1841 5.05612E-02
 -1      1842 6.94106E-02
 -1      1843 7.62607E-02
 -1      1844 5.07335E-02
 -1      1845 8.68495E-02
 -1      1846 1.09579E-01
 -1      1847 5.94033E-02
 -1      1848 1.49518E-01
 -1      1849 1.72018E-01
 -1      1850 1.09931E-01
 -1      1851 2.28748E-01
 -1      1852 2.89040E-01
 -1      1853 2.06601E-01
 -1      1854 3.63523E-01
 -1      1855 4.57739E-01
 -1      1856 3.37814E-01
 -1      1857 5.48164E-01
 -1      1858 6.63603E-01
 -1      1859 5.02722E-01
 -1      1860 7.64561E-01
 -1      1861 8.93345E-01
 -1      1862 6.94107E-01
 -1      1863 1.02368E+00
 -1      1864 1.17363E+00
 -1      1865 9.25398E-01
 -1      1866 1.29438E+00
 -1      1867 1.47408E+00
 -1      1868 1.17647E+00
 -1      1869 1.60238E+00
 -1      1870 1.83099E+00
 -1      1871 1.42552E+00
 -1      1872 1.93720E+00
 -1      1873 2.09816E+00
 -1      1874 1.66003E+00
 -1      1875 2.14076E+00
 -1      1876 2.18575E+00
 -1      1877 1.80883E+00
 -1      1878 2.15721E+00
 -1      1879 2.14068E+00
 -1      1880 1.82289E+00
 -1      1881 2.16547E+00
 -1      1882 2.16025E+00
 -1      1883 1.81913E+00
 -1      1884 2.13970E+00
 -1      1885 2.00911E+00
 -1      1886 1.82337E+00
 -1      1887 1.92104E+00
 -1      1888 1.70762E+00
 -1      1889 1.71476E+00
 -1      1890 1.57631E+00
 -1      1891 1.38413E+00
 -1      1892 1.49538E+00
 -1      1893 1.27307E+00
 -1      1894 1.11107E+00
 -1      1895 1.25301E+00
 -1      1896 9.83503E-01
 -1      1897 8.56138E-01
 -1      1898 1.01438E+00
 -1      1899 7.50302E-01
 -1      1900 6.33052E-01
 -1      1901 7.80982E-01
 -1      1902 5.41254E-01
 -1      1903 4.43678E-01
 -1      1904 5.83348E-01
 -1      1905 3.65982E-01
 -1      1906 2.91527E-01
 -1      1907 4.13855E-01
 -1      1908 2.30496E-01
 -1      1909 1.78075E-01
 -1      1910 2.75128E-01
 -1      1911 1.34228E-01
 -1      1912 1.00088E-01
 -1      1913 1.70251E-01
 -1      1914 6.86535E-02
 -1      1915 4.83846E-02
 -1      1916 9.49704E-02
 -1      1917 6.33457E+00
 -1      1918 6.58199E+00
 -1      1919 1.37645E+00
 -1      1920 1.72100E+00
 -1      1921 1.94629E+00
 -1      1922 2.56753E+00
 -1      1923 1.51059E+00
 -1      1924 9.82414E-01
 -1      1925 1.19463E+00
 -1      1926 1.10349E+00
 -1      1927 7.26492E-01
 -1      1928 8.54904E-01
 -1      1929 7.94166E-01
 -1      1930 5.74333E-01
 -1      1931 6.65219E-01
 -1      1932 6.05383E-01
 -1      1933 4.60548E-01
 -1      1934 5.25691E-01
 -1      1935 4.95467E-01
 -1      1936 3.63808E-01
 -1      1937 4.16183E-01
 -1      1938 4.02459E-01
 -1      1939 2.96727E-01
 -1      1940 3.33124E-01
 -1      1941 3.27411E-01
 -1      1942 2.39934E-01
 -1      1943 2.68722E-01
 -1      1944 2.68722E-01
 -1      1945 1.91335E-01
 -1      1946 2.15799E-01
 -1      1947 2.16581E-01
 -1      1948 1.52151E-01
 -1      1949 1.72402E-01
 -1      1950 1.73513E-01
 -1      1951 1.20697E-01
 -1      1952 1.37036E-01
 -1      1953 1.39465E-01
 -1      1954 9.49680E-02
 -1      1955 1.07829E-01
 -1      1956 1.11482E-01
 -1      1957 7.42961E-02
 -1      1958 8.41704E-02
 -1      1959 8.78161E-02
 -1      1960 5.77957E-02
 -1      1961 6.52090E-02
 -1      1962 6.79315E-02
 -1      1963 5.49960E-02
 -1      1964 5.45519E-02
 -1      1965 5.56007E-02
 -1      1966 6.69105E-02
 -1      1967 5.76350E-02
 -1      1968 5.49960E-02
 -1      1969 8.97362E-02
 -1      1970 7.61860E-02
 -1      1971 6.69105E-02
 -1      1972 1.30389E-01
 -1      1973 1.08809E-01
 -1      1974 9.52583E-02
 -1      1975 1.98798E-01
 -1      1976 1.65505E-01
 -1      1977 1.49447E-01
 -1      1978 3.08307E-01
 -1      1979 2.52892E-01
 -1      1980 2.38658E-01
 -1      1981 4.95082E-01
 -1      1982 3.91813E-01
 -1      1983 3.76259E-01
 -1      1984 7.86532E-01
 -1      1985 6.23376E-01
 -1      1986 5.88060E-01
 -1      1987 1.23120E+00
 -1      1988 9.81379E-01
 -1      1989 9.11200E-01
 -1      1990 1.88488E+00
 -1      1991 1.52167E+00
 -1      1992 1.39652E+00
 -1      1993 2.75254E+00
 -1      1994 2.28685E+00
 -1      1995 2.08895E+00
 -1      1996 3.86453E+00
 -1      1997 3.31694E+00
 -1      1998 3.05532E+00
 -1      1999 5.09157E+00
 -1      2000 4.59400E+00
 -1      2001 4.34919E+00
 -1      2002 6.26082E+00
 -1      2003 6.00813E+00
 -1      2004 5.99522E+00
 -1      2005 7.92610E+00
 -1      2006 7.41769E+00
 -1      2007 8.06866E+00
 -1      2008 1.01689E+01
 -1      2009 9.59019E+00
 -1      2010 1.08896E+01
 -1      2011 7.57108E+00
 -1      2012 8.20560E+00
 -1      2013 1.16600E+01
 -1      2014 8.37986E+00
 -1      2015 1.68230E+01
 -1      2016 1.37882E+01
 -1      2017 7.30394E+00
 -1      2018 7.98778E+00
 -1      2019 8.09801E+00
 -1      2020 8.84479E+00
 -1      2021 8.83301E+00
 -1      2022 9.67697E+00
 -1      2023 5.11155E+00
 -1      2024 5.49905E+00
 -1      2025 6.54054E+00
 -1      2026 3.80743E+00
 -1      2027 4.35760E+00
 -1      2028 4.95107E+00
 -1      2029 2.64065E+00
 -1      2030 3.16709E+00
 -1      2031 3.55677E+00
 -1      2032 1.72968E+00
 -1      2033 2.15030E+00
 -1      2034 2.42608E+00
 -1      2035 1.07432E+00
 -1      2036 1.37777E+00
 -1      2037 1.58382E+00
 -1      2038 6.76998E-01
 -1      2039 8.33722E-01
 -1      2040 9.91317E-01
 -1      2041 4.29785E-01
 -1      2042 5.34168E-01
 -1      2043 6.07891E-01
 -1      2044 1.66068E-01
 -1      2045 2.75862E-01
 -1      2046 3.11138E-01
 -1      2047 1.35472E-01
 -1      2048 2.44626E-01
 -1      2049 1.99283E-01
 -1      2050 1.58441E-01
 -1      2051 1.68111E-01
 -1      2052 1.89855E-01
 -1      2053 2.63335E-01
 -1      2054 2.66806E-01
 -1      2055 2.57936E-01
 -1      2056 3.17487E-01
 -1      2057 2.66806E-01
 -1      2058 2.66806E-01
 -1      2059 3.30797E-01
 -1      2060 2.49727E-01
 -1      2061 2.56988E-01
 -1      2062 3.20979E-01
 -1      2063 1.91407E-01
 -1      2064 2.21563E-01
 -1      2065 2.82996E-01
 -1      2066 9.75106E-02
 -1      2067 1.35834E-01
 -1      2068 1.99259E-01
 -1      2069 1.07296E-01
 -1      2070 9.15547E-02
 -1      2071 1.37731E-01
 -1      2072 1.13637E-01
 -1      2073 1.11401E-01
 -1      2074 1.35879E-01
 -1      2075 1.13637E-01
 -1      2076 1.13637E-01
 -1      2077 1.39984E-01
 -1      2078 1.07488E-01
 -1      2079 1.10044E-01
 -1      2080 1.36391E-01
 -1      2081 8.89107E-02
 -1      2082 1.00574E-01
 -1      2083 1.25885E-01
 -1      2084 4.73403E-02
 -1      2085 6.11933E-02
 -1      2086 9.12538E-02
 -1      2087 2.80981E+01
 -1      2088 2.69126E+01
 -1      2089 2.58947E-02
 -1      2090 3.53864E+01
 -1      2091 3.53864E+01
 -1      2092 1.68525E+01
 -1      2093 1.03438E+00
 -1      2094 1.20934E+00
 -1      2095 9.80006E-01
 -1      2096 8.53049E-01
 -1      2097 1.41166E+01
 -1      2098 2.36654E+01
 -1      2099 1.01633E+01
 -1      2100 1.13003E+01
 -1      2101 1.17929E+01
 -1      2102 1.06730E+01
 -1      2103 1.67742E+01
 -1      2104 1.17103E+01
 -1      2105 3.34810E+01
 -1      2106 2.06284E+01
 -1      2107 2.87772E+01
 -1      2108 3.88930E+01
 -1      2109 2.33651E+01
 -1      2110 3.12579E+01
 -1      2111 2.83815E+01
 -1      2112 3.51525E+01
 -1      2113 3.51525E+01
 -1      2114 3.18805E+01
 -1      2115 3.03841E+01
 -1      2116 3.51525E+01
 -1      2117 2.63704E+01
 -1      2118 2.41370E+01
 -1      2119 2.95281E+01
 -1      2120 2.27545E+01
 -1      2121 2.42843E+01
 -1      2122 1.17528E+01
 -1      2123 1.88004E+01
 -1      2124 1.51546E+01
 -1      2125 9.15643E+00
 -1      2126 9.63033E+00
 -1      2127 1.05941E+01
 -1      2128 9.99411E+00
 -1      2129 7.79334E+00
 -1      2130 1.10602E+01
 -1      2131 1.12849E+01
 -1      2132 1.18284E+01
 -1      2133 1.15701E+01
 -1      2134 1.15968E+01
 -1      2135 1.13155E+01
 -1      2136 9.26023E+00
 -1      2137 1.01335E+01
 -1      2138 1.17406E+01
 -1      2139 9.65847E+00
 -1      2140 2.78226E+01
 -1      2141 1.48322E+01
 -1      2142 3.14518E+01
 -1      2143 3.33381E+01
 -1      2144 2.59255E+01
 -1      2145 3.08628E+01
 -1      2146 2.45021E+01
 -1      2147 3.38535E+00
 -1      2148 3.48020E+01
 -1      2149 3.53864E+01
 -1      2150 3.39953E+00
 -1      2151 4.10465E-02
 -1      2152 1.60173E+01
 -1      2153 1.63510E+01
 -1      2154 7.23559E+00
 -1      2155 7.53639E+00
 -1      2156 4.28349E+01
 -1      2157 8.83301E+00
 -1      2158 3.38900E+01
 -1      2159 2.91138E+00
 -1      2160 1.74044E+01
 -1      2161 2.10548E+00
 -1      2162 2.10995E+00
 -1      2163 2.94160E+00
 -1      2164 1.05904E+01
 -1      2165 9.43592E+00
 -1      2166 1.23728E+01
 -1      2167 1.29166E+01
 -1      2168 8.04609E+00
 -1      2169 7.84885E+00
 -1      2170 2.33911E+01
 -1      2171 4.73403E-02
 -1      2172 3.33740E+01
 -1      2173 1.95755E+01
 -1      2174 1.09683E+01
 -1      2175 7.47846E+00
 -1      2176 1.02390E+01
 -1      2177 8.64902E+00
 -1      2178 7.18573E+00
 -1      2179 1.05196E+01
 -1      2180 9.32184E+00
 -1      2181 9.07810E+00
 -1      2182 2.11949E+01
 -1      2183 3.57752E+01
 -1      2184 2.83815E+01
 -1      2185 6.35363E-02
 -1      2186 1.01554E+01
 -1      2187 1.05226E+01
 -1      2188 3.33740E+01
 -1      2189 2.39132E+01
 -1      2190 5.59045E-01
 -1      2191 5.90648E-01
 -1      2192 6.04714E-01
 -1      2193 6.54900E-01
 -1      2194 5.00564E-01
 -1      2195 5.09879E-01
 -1      2196 5.08987E-01
 -1      2197 5.44557E-01
 -1      2198 5.22889E-01
 -1      2199 4.43707E-01
 -1      2200 5.92685E-01
 -1      2201 5.59570E-01
 -1      2202 4.71731E-01
 -1      2203 6.52211E-01
 -1      2204 6.05093E-01
 -1      2205 4.99153E-01
 -1      2206 7.16612E-01
 -1      2207 6.52313E-01
 -1      2208 5.11663E-01
 -1      2209 7.99116E-01
 -1      2210 7.16612E-01
 -1      2211 5.11765E-01
 -1      2212 1.65206E+00
 -1      2213 9.53282E-01
 -1      2214 6.65931E-01
 -1      2215 1.27799E+00
 -1      2216 4.28349E+01
 -1      2217 4.28349E+01
 -1      2218 1.26648E+00
 -1      2219 1.03555E+00
 -1      2220 1.00518E+01
 -1      2221 9.84562E-01
 -1      2222 8.04426E-01
 -1      2223 7.52430E-01
 -1      2224 7.47898E-01
 -1      2225 6.22356E-01
 -1      2226 6.44910E-01
 -1      2227 5.66167E-01
 -1      2228 5.07560E-01
 -1      2229 5.32193E-01
 -1      2230 4.58145E-01
 -1      2231 4.09656E-01
 -1      2232 4.26588E-01
 -1      2233 3.82541E-01
 -1      2234 3.39805E-01
 -1      2235 3.50058E-01
 -1      2236 3.14735E-01
 -1      2237 2.81559E-01
 -1      2238 2.97872E-01
 -1      2239 2.57761E-01
 -1      2240 2.30004E-01
 -1      2241 2.49004E-01
 -1      2242 2.11114E-01
 -1      2243 1.87157E-01
 -1      2244 2.06316E-01
 -1      2245 1.71696E-01
 -1      2246 1.53193E-01
 -1      2247 1.71964E-01
 -1      2248 1.38835E-01
 -1      2249 1.23621E-01
 -1      2250 1.42146E-01
 -1      2251 1.10833E-01
 -1      2252 9.77980E-02
 -1      2253 1.15000E-01
 -1      2254 8.70225E-02
 -1      2255 7.60197E-02
 -1      2256 9.14365E-02
 -1      2257 6.65059E-02
 -1      2258 5.72874E-02
 -1      2259 7.11472E-02
 -1      2260 4.90266E-02
 -1      2261 4.55667E-02
 -1      2262 5.33726E-02
 -1      2263 4.01111E-02
 -1      2264 3.86455E-02
 -1      2265 3.96562E-02
 -1      2266 3.80415E-02
 -1      2267 3.71981E-02
 -1      2268 3.35965E-02
 -1      2269 3.68681E-02
 -1      2270 3.65102E-02
 -1      2271 3.26625E-02
 -1      2272 3.71937E-02
 -1      2273 4.10847E-02
 -1      2274 3.30161E-02
 -1      2275 4.56674E-02
 -1      2276 4.77587E-02
 -1      2277 3.82822E-02
 -1      2278 5.64053E-02
 -1      2279 5.44863E-02
 -1      2280 5.15115E-02
 -1      2281 6.79706E-02
 -1      2282 7.85594E-02
 -1      2283 7.36424E-02
 -1      2284 1.14374E-01
 -1      2285 1.54313E-01
 -1      2286 1.22941E-01
 -1      2287 2.05097E-01
 -1      2288 2.61827E-01
 -1      2289 2.09539E-01
 -1      2290 3.27701E-01
 -1      2291 4.02184E-01
 -1      2292 3.26197E-01
 -1      2293 4.79480E-01
 -1      2294 5.69905E-01
 -1      2295 4.69366E-01
 -1      2296 6.49927E-01
 -1      2297 7.50885E-01
 -1      2298 6.26684E-01
 -1      2299 8.37105E-01
 -1      2300 9.67438E-01
 -1      2301 7.92926E-01
 -1      2302 1.07253E+00
 -1      2303 1.19327E+00
 -1      2304 9.84234E-01
 -1      2305 1.26889E+00
 -1      2306 1.39719E+00
 -1      2307 1.16494E+00
 -1      2308 1.46435E+00
 -1      2309 1.57056E+00
 -1      2310 1.30772E+00
 -1      2311 1.60196E+00
 -1      2312 1.64455E+00
 -1      2313 1.40628E+00
 -1      2314 1.62915E+00
 -1      2315 1.60061E+00
 -1      2316 1.42228E+00
 -1      2317 1.58660E+00
 -1      2318 1.61139E+00
 -1      2319 1.39287E+00
 -1      2320 1.63931E+00
 -1      2321 1.61876E+00
 -1      2322 1.40678E+00
 -1      2323 1.60343E+00
 -1      2324 1.51537E+00
 -1      2325 1.41937E+00
 -1      2326 1.47234E+00
 -1      2327 1.34103E+00
 -1      2328 1.36102E+00
 -1      2329 1.26987E+00
 -1      2330 1.15881E+00
 -1      2331 1.24683E+00
 -1      2332 1.05683E+00
 -1      2333 9.29269E-01
 -1      2334 1.07370E+00
 -1      2335 8.18359E-01
 -1      2336 7.12523E-01
 -1      2337 8.60811E-01
 -1      2338 6.10838E-01
 -1      2339 5.19041E-01
 -1      2340 6.48215E-01
 -1      2341 4.39027E-01
 -1      2342 3.61330E-01
 -1      2343 4.66516E-01
 -1      2344 3.04482E-01
 -1      2345 2.43451E-01
 -1      2346 3.29654E-01
 -1      2347 1.99979E-01
 -1      2348 1.56133E-01
 -1      2349 2.29333E-01
 -1      2350 1.28261E-01
 -1      2351 9.68274E-02
 -1      2352 9.68274E-02
 -1      2353 1.57990E-01
 -1      2354 4.78233E+00
 -1      2355 5.53628E+00
 -1      2356 8.12361E-01
 -1      2357 9.94177E-01
 -1      2358 5.12760E-01
 -1      2359 5.74033E-01
 -1      2360 4.14433E-01
 -1      2361 4.63076E-01
 -1      2362 4.31726E-01
 -1      2363 3.42246E-01
 -1      2364 3.86611E-01
 -1      2365 3.54219E-01
 -1      2366 2.87503E-01
 -1      2367 3.18186E-01
 -1      2368 3.02337E-01
 -1      2369 2.35506E-01
 -1      2370 2.63512E-01
 -1      2371 2.54287E-01
 -1      2372 1.91150E-01
 -1      2373 2.15285E-01
 -1      2374 2.10075E-01
 -1      2375 1.55007E-01
 -1      2376 1.73940E-01
 -1      2377 1.72643E-01
 -1      2378 1.24730E-01
 -1      2379 1.39845E-01
 -1      2380 1.40272E-01
 -1      2381 9.88555E-02
 -1      2382 1.11723E-01
 -1      2383 1.12103E-01
 -1      2384 7.70551E-02
 -1      2385 8.78527E-02
 -1      2386 8.80944E-02
 -1      2387 5.88444E-02
 -1      2388 6.79315E-02
 -1      2389 6.79680E-02
 -1      2390 4.84791E-02
 -1      2391 5.17228E-02
 -1      2392 5.17228E-02
 -1      2393 5.08932E-02
 -1      2394 4.82541E-02
 -1      2395 4.43763E-02
 -1      2396 6.56902E-02
 -1      2397 5.64147E-02
 -1      2398 4.96729E-02
 -1      2399 1.01428E-01
 -1      2400 8.23560E-02
 -1      2401 7.18603E-02
 -1      2402 1.62385E-01
 -1      2403 1.27269E-01
 -1      2404 1.14366E-01
 -1      2405 2.53723E-01
 -1      2406 1.99628E-01
 -1      2407 1.77450E-01
 -1      2408 3.91410E-01
 -1      2409 3.07904E-01
 -1      2410 2.68874E-01
 -1      2411 5.98701E-01
 -1      2412 4.70407E-01
 -1      2413 4.02052E-01
 -1      2414 9.22251E-01
 -1      2415 7.27405E-01
 -1      2416 6.09752E-01
 -1      2417 1.42537E+00
 -1      2418 1.13490E+00
 -1      2419 9.51107E-01
 -1      2420 2.14840E+00
 -1      2421 1.74644E+00
 -1      2422 1.48482E+00
 -1      2423 3.25508E+00
 -1      2424 2.69069E+00
 -1      2425 2.34817E+00
 -1      2426 4.83330E+00
 -1      2427 4.10383E+00
 -1      2428 3.73920E+00
 -1      2429 7.21245E+00
 -1      2430 6.29588E+00
 -1      2431 6.05053E+00
 -1      2432 1.27717E+01
 -1      2433 1.16148E+01
 -1      2434 1.19155E+01
 -1      2435 1.54418E+01
 -1      2436 1.37777E+01
 -1      2437 1.73239E+01
 -1      2438 9.73610E+00
 -1      2439 9.22619E+00
 -1      2440 6.94029E+00
 -1      2441 7.77581E+00
 -1      2442 6.77155E+00
 -1      2443 1.19998E+01
 -1      2444 1.28568E+01
 -1      2445 3.17270E+00
 -1      2446 3.81305E+00
 -1      2447 4.39826E+00
 -1      2448 2.01928E+00
 -1      2449 2.50963E+00
 -1      2450 2.76591E+00
 -1      2451 1.26492E+00
 -1      2452 1.61683E+00
 -1      2453 1.70039E+00
 -1      2454 7.67932E-01
 -1      2455 1.00853E+00
 -1      2456 1.04154E+00
 -1      2457 3.48283E-01
 -1      2458 5.02206E-01
 -1      2459 3.80922E-01
 -1      2460 4.14389E-01
 -1      2461 4.14389E-01
 -1      2462 3.88120E-01
 -1      2463 3.97939E-01
 -1      2464 4.81531E-01
 -1      2465 4.76203E-01
 -1      2466 4.62893E-01
 -1      2467 5.59796E-01
 -1      2468 3.39835E-01
 -1      2469 3.67999E-01
 -1      2470 4.44959E-01
 -1      2471 2.13616E-01
 -1      2472 2.69189E-01
 -1      2473 3.54192E-01
 -1      2474 1.80555E-01
 -1      2475 1.86511E-01
 -1      2476 2.56440E-01
 -1      2477 1.77277E-01
 -1      2478 1.73173E-01
 -1      2479 2.21953E-01
 -1      2480 1.77277E-01
 -1      2481 1.77277E-01
 -1      2482 2.14571E-01
 -1      2483 1.59572E-01
 -1      2484 1.63165E-01
 -1      2485 2.00458E-01
 -1      2486 1.48961E-01
 -1      2487 1.55875E-01
 -1      2488 1.82649E-01
 -1      2489 1.24545E-01
 -1      2490 1.67728E+00
 -1      2491 1.30134E+00
 -1      2492 8.38280E-01
 -1      2493 9.61112E-01
 -1      2494 1.85284E+01
 -1      2495 1.30128E+01
 -1      2496 1.59655E+01
 -1      2497 1.14675E+01
 -1      2498 1.21894E+01
 -1      2499 1.18672E+01
 -1      2500 1.04442E+00
 -1      2501 1.26970E+00
 -1      2502 8.11811E-01
 -1      2503 7.53285E-01
 -1      2504 6.30339E-01
 -1      2505 7.57849E-01
 -1      2506 5.37716E-01
 -1      2507 5.22348E-01
 -1      2508 5.44505E-01
 -1      2509 4.71959E-01
 -1      2510 4.44058E-01
 -1      2511 2.49451E+01
 -1      2512 3.38900E+01
 -1      2513 1.85084E+01
 -1      2514 2.00624E+01
 -1      2515 2.06654E+01
 -1      2516 1.52534E+01
 -1      2517 2.47388E+01
 -1      2518 2.51345E+01
 -1      2519 3.18805E+01
 -1      2520 2.79859E+01
 -1      2521 3.57752E+01
 -1      2522 3.57752E+01
 -1      2523 2.32810E+01
 -1      2524 2.95281E+01
 -1      2525 1.71593E+01
 -1      2526 1.92455E+01
 -1      2527 9.62835E+00
 -1      2528 1.35824E+01
 -1      2529 6.23310E+00
 -1      2530 8.35555E+00
 -1      2531 6.37225E+00
 -1      2532 5.53457E+00
 -1      2533 8.42235E+00
 -1      2534 7.73153E+00
 -1      2535 5.47277E+00
 -1      2536 7.63589E+00
 -1      2537 9.12895E+00
 -1      2538 9.64179E+00
 -1      2539 5.86740E+00
 -1      2540 5.46916E+00
 -1      2541 1.10062E+01
 -1      2542 7.91458E+00
 -1      2543 2.07970E+01
 -1      2544 2.13860E+01
 -1      2545 1.32901E+01
 -1      2546 3.38900E+01
 -1      2547 5.22414E-01
 -1      2548 6.62685E-01
 -1      2549 7.20563E-01
 -1      2550 1.48233E+01
 -1      2551 3.33740E+01
 -1      2552 6.48534E-01
 -1      2553 8.34542E+00
 -1      2554 1.70227E+01
 -1      2555 1.99109E+01
 -1      2556 1.53693E+01
 -1      2557 6.45036E-01
 -1      2558 6.62246E-01
 -1      2559 4.21764E-01
 -1      2560 1.54535E-01
 -1      2561 3.18805E+01
 -1      2562 8.92034E-01
 -1      2563 1.61856E+01
 -1      2564 2.47388E+01
 -1      2565 1.05904E+01
 -1      2566 1.25537E+01
 -1      2567 2.07970E+01
 -1      2568 9.95906E+00
 -1      2569 6.06354E+00
 -1      2570 6.16905E+00
 -1      2571 4.45248E+00
 -1      2572 8.32020E+00
 -1      2573 7.44236E+00
 -1      2574 6.96242E+00
 -1      2575 4.81202E+00
 -1      2576 6.78335E+00
 -1      2577 1.37698E+01
 -1      2578 1.18204E+01
 -1      2579 8.24347E+00
 -1      2580 1.92455E+01
 -1      2581 2.95281E+01
 -1      2582 1.70227E+01
 -1      2583 2.00624E+01
 -1      2584 5.80480E-01
 -1      2585 1.17528E+01
 -1      2586 5.90528E+00
 -1      2587 4.22405E-01
 -1      2588 4.07392E-01
 -1      2589 3.99476E-01
 -1      2590 3.86467E-01
 -1      2591 3.50151E-01
 -1      2592 4.37148E-01
 -1      2593 4.37046E-01
 -1      2594 4.24824E-01
 -1      2595 4.24824E-01
 -1      2596 3.50207E-01
 -1      2597 5.98051E-01
 -1      2598 4.43885E-01
 -1      2599 3.56944E-01
 -1      2600 5.89765E-01
 -1      2601 4.33201E-01
 -1      2602 4.89507E-01
 -1      2603 7.01669E-01
 -1      2604 6.66810E-01
 -1      2605 6.01295E-01
 -1      2606 5.50304E-01
 -1      2607 4.64684E-01
 -1      2608 5.37807E-01
 -1      2609 4.81279E-01
 -1      2610 3.86672E-01
 -1      2611 4.82472E-01
 -1      2612 4.26283E-01
 -1      2613 3.75369E-01
 -1      2614 4.11154E-01
 -1      2615 3.61739E-01
 -1      2616 3.61434E-01
 -1      2617 3.39995E-01
 -1      2618 3.12880E-01
 -1      2619 3.24561E-01
 -1      2620 2.89462E-01
 -1      2621 2.64392E-01
 -1      2622 2.79399E-01
 -1      2623 2.45798E-01
 -1      2624 2.22000E-01
 -1      2625 2.37388E-01
 -1      2626 2.06316E-01
 -1      2627 1.87425E-01
 -1      2628 2.03110E-01
 -1      2629 1.71964E-01
 -1      2630 1.56503E-01
 -1      2631 1.71964E-01
 -1      2632 1.42146E-01
 -1      2633 1.27788E-01
 -1      2634 1.42146E-01
 -1      2635 1.15000E-01
 -1      2636 1.02212E-01
 -1      2637 1.15000E-01
 -1      2638 9.14365E-02
 -1      2639 8.06610E-02
 -1      2640 9.14365E-02
 -1      2641 7.11472E-02
 -1      2642 6.16334E-02
 -1      2643 7.11472E-02
 -1      2644 5.33726E-02
 -1      2645 4.51118E-02
 -1      2646 5.33726E-02
 -1      2647 3.80825E-02
 -1      2648 3.26269E-02
 -1      2649 3.80825E-02
 -1      2650 2.86787E-02
 -1      2651 2.80747E-02
 -1      2652 2.71050E-02
 -1      2653 2.87161E-02
 -1      2654 2.83861E-02
 -1      2655 2.37982E-02
 -1      2656 3.10765E-02
 -1      2657 3.17600E-02
 -1      2658 2.71301E-02
 -1      2659 3.82822E-02
 -1      2660 4.28648E-02
 -1      2661 3.63427E-02
 -1      2662 5.15115E-02
 -1      2663 6.01581E-02
 -1      2664 5.15115E-02
 -1      2665 7.60401E-02
 -1      2666 8.95244E-02
 -1      2667 7.60401E-02
 -1      2668 1.22941E-01
 -1      2669 1.58755E-01
 -1      2670 1.25339E-01
 -1      2671 2.09539E-01
 -1      2672 2.60324E-01
 -1      2673 2.09539E-01
 -1      2674 3.26197E-01
 -1      2675 3.92070E-01
 -1      2676 3.26197E-01
 -1      2677 4.69366E-01
 -1      2678 5.46662E-01
 -1      2679 4.69366E-01
 -1      2680 6.26684E-01
 -1      2681 7.06705E-01
 -1      2682 6.26684E-01
 -1      2683 7.74512E-01
 -1      2684 8.60732E-01
 -1      2685 7.74512E-01
 -1      2686 9.40407E-01
 -1      2687 1.04550E+00
 -1      2688 9.21993E-01
 -1      2689 1.12310E+00
 -1      2690 1.19872E+00
 -1      2691 1.07927E+00
 -1      2692 1.23909E+00
 -1      2693 1.30625E+00
 -1      2694 1.19725E+00
 -1      2695 1.34456E+00
 -1      2696 1.37596E+00
 -1      2697 1.27594E+00
 -1      2698 1.37672E+00
 -1      2699 1.36132E+00
 -1      2700 1.31500E+00
 -1      2701 1.35484E+00
 -1      2702 1.34083E+00
 -1      2703 1.30928E+00
 -1      2704 1.40026E+00
 -1      2705 1.42818E+00
 -1      2706 1.36223E+00
 -1      2707 1.42818E+00
 -1      2708 1.41285E+00
 -1      2709 1.42166E+00
 -1      2710 1.39618E+00
 -1      2711 1.35315E+00
 -1      2712 1.40498E+00
 -1      2713 1.29666E+00
 -1      2714 1.22550E+00
 -1      2715 1.33182E+00
 -1      2716 1.11644E+00
 -1      2717 1.01446E+00
 -1      2718 1.16626E+00
 -1      2719 9.21723E-01
 -1      2720 8.10812E-01
 -1      2721 9.64465E-01
 -1      2722 7.24451E-01
 -1      2723 6.22766E-01
 -1      2724 7.85363E-01
 -1      2725 5.35195E-01
 -1      2726 4.55181E-01
 -1      2727 6.11430E-01
 -1      2728 3.77851E-01
 -1      2729 3.21002E-01
 -1      2730 4.46529E-01
 -1      2731 2.60611E-01
 -1      2732 2.17139E-01
 -1      2733 3.08808E-01
 -1      2734 1.82406E-01
 -1      2735 7.06860E+00
 -1      2736 7.16290E+00
 -1      2737 3.63538E-01
 -1      2738 4.13222E-01
 -1      2739 3.65014E-01
 -1      2740 2.22515E-01
 -1      2741 2.46506E-01
 -1      2742 1.85784E-01
 -1      2743 2.06005E-01
 -1      2744 1.98225E-01
 -1      2745 1.52647E-01
 -1      2746 1.69857E-01
 -1      2747 1.65787E-01
 -1      2748 1.22950E-01
 -1      2749 1.38112E-01
 -1      2750 1.35326E-01
 -1      2751 9.79825E-02
 -1      2752 1.10989E-01
 -1      2753 1.08830E-01
 -1      2754 7.66272E-02
 -1      2755 8.76300E-02
 -1      2756 8.65154E-02
 -1      2757 5.85099E-02
 -1      2758 6.76335E-02
 -1      2759 6.71691E-02
 -1      2760 4.33610E-02
 -1      2761 5.04827E-02
 -1      2762 5.01481E-02
 -1      2763 3.59126E-02
 -1      2764 3.61376E-02
 -1      2765 3.48974E-02
 -1      2766 4.38362E-02
 -1      2767 3.83146E-02
 -1      2768 3.00759E-02
 -1      2769 7.15609E-02
 -1      2770 5.48951E-02
 -1      2771 4.35368E-02
 -1      2772 1.17239E-01
 -1      2773 9.13988E-02
 -1      2774 7.44336E-02
 -1      2775 1.85084E-01
 -1      2776 1.47840E-01
 -1      2777 1.24873E-01
 -1      2778 2.88272E-01
 -1      2779 2.34092E-01
 -1      2780 2.04482E-01
 -1      2781 4.42544E-01
 -1      2782 3.63547E-01
 -1      2783 3.28764E-01
 -1      2784 6.87321E-01
 -1      2785 5.58618E-01
 -1      2786 5.20113E-01
 -1      2787 1.07925E+00
 -1      2788 8.66599E-01
 -1      2789 8.15465E-01
 -1      2790 1.65389E+00
 -1      2791 1.33283E+00
 -1      2792 1.24832E+00
 -1      2793 2.63985E+00
 -1      2794 2.09756E+00
 -1      2795 1.94557E+00
 -1      2796 4.19634E+00
 -1      2797 3.34759E+00
 -1      2798 3.09698E+00
 -1      2799 6.78855E+00
 -1      2800 5.32597E+00
 -1      2801 4.93435E+00
 -1      2802 1.41490E+01
 -1      2803 9.74658E+00
 -1      2804 9.02201E+00
 -1      2805 2.02520E+01
 -1      2806 2.31579E+01
 -1      2807 4.03036E+00
 -1      2808 4.99965E+00
 -1      2809 9.43315E-01
 -1      2810 1.19971E+00
 -1      2811 7.03376E-01
 -1      2812 5.60347E-01
 -1      2813 5.76798E-01
 -1      2814 5.76798E-01
 -1      2815 6.38612E-01
 -1      2816 6.55614E-01
 -1      2817 5.20010E-01
 -1      2818 5.40131E-01
 -1      2819 6.35398E-01
 -1      2820 3.20177E-01
 -1      2821 3.47282E-01
 -1      2822 2.74344E-01
 -1      2823 2.81726E-01
 -1      2824 3.72568E-01
 -1      2825 2.74344E-01
 -1      2826 2.74344E-01
 -1      2827 3.34118E-01
 -1      2828 2.34619E-01
 -1      2829 2.48731E-01
 -1      2830 3.08505E-01
 -1      2831 2.28432E-01
 -1      2832 2.32129E-01
 -1      2833 2.80402E-01
 -1      2834 2.60465E+01
 -1      2835 2.21519E+01
 -1      2836 1.92331E+01
 -1      2837 1.61170E+01
 -1      2838 2.48030E+00
 -1      2839 3.14337E+00
 -1      2840 3.74476E+00
 -1      2841 9.45362E+00
 -1      2842 1.31453E+01
 -1      2843 1.42036E+01
 -1      2844 1.13460E+01
 -1      2845 4.37046E-01
 -1      2846 4.24638E-01
 -1      2847 3.60299E-01
 -1      2848 3.62531E-01
 -1      2849 3.76962E-01
 -1      2850 4.47608E-01
 -1      2851 5.42780E-01
 -1      2852 4.40698E-01
 -1      2853 1.53978E+00
 -1      2854 1.94223E+00
 -1      2855 2.31969E+00
 -1      2856 1.44155E+00
 -1      2857 2.63017E-01
 -1      2858 2.87077E-01
 -1      2859 2.31246E-01
 -1      2860 6.70343E+00
 -1      2861 8.10744E+00
 -1      2862 6.33554E+00
 -1      2863 3.11161E-01
 -1      2864 3.38984E-01
 -1      2865 3.20480E-01
 -1      2866 2.71841E-01
 -1      2867 4.22646E-01
 -1      2868 4.36711E-01
 -1      2869 7.20563E-01
 -1      2870 2.00640E+01
 -1      2871 2.63111E+01
 -1      2872 1.36431E+01
 -1      2873 1.76787E+01
 -1      2874 1.44617E+01
 -1      2875 5.04818E+00
 -1      2876 6.32098E+00
 -1      2877 4.95385E-01
 -1      2878 5.49897E-01
 -1      2879 3.90870E-01
 -1      2880 9.21152E+00
 -1      2881 7.20493E+00
 -1      2882 3.68918E+00
 -1      2883 4.38771E+00
 -1      2884 3.92534E+00
 -1      2885 2.96050E+01
 -1      2886 2.01441E+01
 -1      2887 1.54641E+01
 -1      2888 6.26529E+00
 -1      2889 4.21811E+00
 -1      2890 1.61593E+01
 -1      2891 2.08524E+01
 -1      2892 2.97973E+01
 -1      2893 1.37456E+01
 -1      2894 8.61549E-01
 -1      2895 4.47179E-01
 -1      2896 4.54964E-01
 -1      2897 3.69261E-01
 -1      2898 3.42403E-01
 -1      2899 3.86634E-01
 -1      2900 3.99995E-01
 -1      2901 5.30199E-01
 -1      2902 2.13685E-01
 -1      2903 6.27973E+00
 -1      2904 5.09722E+00
 -1      2905 5.47098E+00
 -1      2906 4.07569E-01
 -1      2907 4.22109E-01
 -1      2908 3.58256E-01
 -1      2909 3.50145E-01
 -1      2910 1.63179E+01
 -1      2911 1.41490E+01
 -1      2912 1.73239E+01
 -1      2913 8.78551E-01
 -1      2914 5.51776E+00
 -1      2915 9.38549E+00
 -1      2916 5.87804E+00
 -1      2917 7.15487E+00
 -1      2918 2.63165E-01
 -1      2919 1.26397E+01
 -1      2920 4.81249E+00
 -1      2921 5.84023E+00
 -1      2922 6.35103E+00
 -1      2923 6.79073E+00
 -1      2924 6.97805E+00
 -1      2925 5.05556E+00
 -1      2926 8.52804E+00
 -1      2927 9.14775E+00
 -1      2928 6.39362E+00
 -1      2929 5.27460E-01
 -1      2930 5.77699E-01
 -1      2931 3.63939E-01
 -1      2932 3.74311E-01
 -1      2933 3.88820E+00
 -1      2934 3.46389E+00
 -1      2935 1.02536E+01
 -1      2936 1.65673E+01
 -1      2937 2.89977E-01
 -1      2938 3.02301E-01
 -1      2939 5.24748E+00
 -1      2940 1.65825E+01
 -1      2941 3.57696E-01
 -1      2942 3.83309E-01
 -1      2943 1.24316E-01
 -1      2944 1.38851E-01
 -1      2945 3.28216E-01
 -1      2946 3.15719E-01
 -1      2947 3.00644E-01
 -1      2948 3.01838E-01
 -1      2949 2.42188E-01
 -1      2950 3.10863E-01
 -1      2951 2.95734E-01
 -1      2952 2.36138E-01
 -1      2953 2.91771E-01
 -1      2954 2.70027E-01
 -1      2955 2.41200E-01
 -1      2956 2.59207E-01
 -1      2957 2.35789E-01
 -1      2958 2.26417E-01
 -1      2959 2.21923E-01
 -1      2960 2.03330E-01
 -1      2961 2.01731E-01
 -1      2962 1.91306E-01
 -1      2963 1.75621E-01
 -1      2964 1.75841E-01
 -1      2965 1.64864E-01
 -1      2966 1.49403E-01
 -1      2967 1.53060E-01
 -1      2968 1.38124E-01
 -1      2969 1.23766E-01
 -1      2970 1.31024E-01
 -1      2971 1.12806E-01
 -1      2972 1.00018E-01
 -1      2973 1.08785E-01
 -1      2974 8.98069E-02
 -1      2975 7.90313E-02
 -1      2976 8.76132E-02
 -1      2977 6.97194E-02
 -1      2978 6.02056E-02
 -1      2979 6.80898E-02
 -1      2980 5.17598E-02
 -1      2981 4.34990E-02
 -1      2982 5.03320E-02
 -1      2983 3.57741E-02
 -1      2984 2.87448E-02
 -1      2985 3.41613E-02
 -1      2986 2.20704E-02
 -1      2987 1.81222E-02
 -1      2988 1.97620E-02
 -1      2989 1.95583E-02
 -1      2990 2.01997E-02
 -1      2991 1.45237E-02
 -1      2992 2.64142E-02
 -1      2993 2.91046E-02
 -1      2994 2.21743E-02
 -1      2995 3.48106E-02
 -1      2996 4.13328E-02
 -1      2997 3.40948E-02
 -1      2998 5.04130E-02
 -1      2999 5.90596E-02
 -1      3000 4.88810E-02
 -1      3001 7.60401E-02
 -1      3002 9.19220E-02
 -1      3003 7.49416E-02
 -1      3004 1.16111E-01
 -1      3005 1.49527E-01
 -1      3006 1.16111E-01
 -1      3007 1.81437E-01
 -1      3008 2.32221E-01
 -1      3009 1.72209E-01
 -1      3010 2.80707E-01
 -1      3011 3.46580E-01
 -1      3012 2.52604E-01
 -1      3013 4.20497E-01
 -1      3014 4.97793E-01
 -1      3015 3.75008E-01
 -1      3016 5.86786E-01
 -1      3017 6.66808E-01
 -1      3018 5.37917E-01
 -1      3019 7.58011E-01
 -1      3020 8.25817E-01
 -1      3021 7.18113E-01
 -1      3022 9.09487E-01
 -1      3023 9.89162E-01
 -1      3024 8.92986E-01
 -1      3025 1.06529E+00
 -1      3026 1.14289E+00
 -1      3027 1.05278E+00
 -1      3028 1.17491E+00
 -1      3029 1.21528E+00
 -1      3030 1.16092E+00
 -1      3031 1.28268E+00
 -1      3032 1.32099E+00
 -1      3033 1.26033E+00
 -1      3034 1.45136E+00
 -1      3035 1.45212E+00
 -1      3036 1.45811E+00
 -1      3037 1.40075E+00
 -1      3038 1.39426E+00
 -1      3039 1.53711E+00
 -1      3040 1.39215E+00
 -1      3041 1.45158E+00
 -1      3042 1.48362E+00
 -1      3043 1.46987E+00
 -1      3044 1.46987E+00
 -1      3045 1.49979E+00
 -1      3046 1.37117E+00
 -1      3047 1.35450E+00
 -1      3048 1.41938E+00
 -1      3049 1.29141E+00
 -1      3050 1.23491E+00
 -1      3051 1.25759E+00
 -1      3052 1.20514E+00
 -1      3053 1.09609E+00
 -1      3054 1.16474E+00
 -1      3055 1.00912E+00
 -1      3056 9.16376E-01
 -1      3057 1.04800E+00
 -1      3058 8.42837E-01
 -1      3059 7.56475E-01
 -1      3060 8.87488E-01
 -1      3061 6.68544E-01
 -1      3062 5.80972E-01
 -1      3063 7.26017E-01
 -1      3064 4.96104E-01
 -1      3065 4.18774E-01
 -1      3066 5.53218E-01
 -1      3067 3.48135E-01
 -1      3068 2.87744E-01
 -1      3069 3.02492E-01
 -1      3070 3.97710E-01
 -1      3071 9.40963E-01
 -1      3072 1.16390E+00
 -1      3073 3.00793E-01
 -1      3074 3.20772E-01
 -1      3075 1.50364E-01
 -1      3076 1.66291E-01
 -1      3077 1.39354E-01
 -1      3078 1.77101E-01
 -1      3079 1.93611E-01
 -1      3080 1.61678E-01
 -1      3081 1.01039E-01
 -1      3082 1.13001E-01
 -1      3083 1.16526E-01
 -1      3084 8.00747E-02
 -1      3085 9.04273E-02
 -1      3086 9.45986E-02
 -1      3087 6.13564E-02
 -1      3088 7.03502E-02
 -1      3089 7.42621E-02
 -1      3090 4.44512E-02
 -1      3091 5.24784E-02
 -1      3092 5.56595E-02
 -1      3093 2.91208E-02
 -1      3094 3.63443E-02
 -1      3095 3.86745E-02
 -1      3096 3.09942E-02
 -1      3097 2.85923E-02
 -1      3098 3.00391E-02
 -1      3099 4.94291E-02
 -1      3100 3.83702E-02
 -1      3101 3.68865E-02
 -1      3102 8.62857E-02
 -1      3103 6.64478E-02
 -1      3104 6.12812E-02
 -1      3105 1.41515E-01
 -1      3106 1.10914E-01
 -1      3107 1.02928E-01
 -1      3108 2.25823E-01
 -1      3109 1.76815E-01
 -1      3110 1.62856E-01
 -1      3111 3.52149E-01
 -1      3112 2.76874E-01
 -1      3113 2.49207E-01
 -1      3114 5.42238E-01
 -1      3115 4.26164E-01
 -1      3116 3.74274E-01
 -1      3117 8.28689E-01
 -1      3118 6.49411E-01
 -1      3119 5.55462E-01
 -1      3120 1.21354E+00
 -1      3121 9.59960E-01
 -1      3122 7.93906E-01
 -1      3123 1.92214E+00
 -1      3124 1.47847E+00
 -1      3125 1.19011E+00
 -1      3126 3.09447E+00
 -1      3127 2.38673E+00
 -1      3128 1.91963E+00
 -1      3129 4.97357E+00
 -1      3130 3.84394E+00
 -1      3131 3.13369E+00
 -1      3132 9.15700E+00
 -1      3133 6.19896E+00
 -1      3134 5.10855E+00
 -1      3135 9.40963E-01
 -1      3136 2.07358E-01
 -1      3137 2.23869E-01
 -1      3138 1.86234E-01
 -1      3139 4.96289E+00
 -1      3140 4.95485E+00
 -1      3141 1.41490E+01
 -1      3142 1.19800E+01
 -1      3143 9.15700E+00
 -1      3144 1.44135E+01
 -1      3145 4.62026E+00
 -1      3146 3.68062E+00
 -1      3147 4.20221E-01
 -1      3148 4.20221E-01
 -1      3149 4.69412E-01
 -1      3150 4.41651E-01
 -1      3151 4.80102E-01
 -1      3152 5.27755E-01
 -1      3153 2.93044E-01
 -1      3154 2.95534E-01
 -1      3155 3.70338E-01
 -1      3156 3.17623E-01
 -1      3157 2.94023E+00
 -1      3158 3.82723E+00
 -1      3159 9.93707E+00
 -1      3160 1.29511E+01
 -1      3161 1.27588E+01
 -1      3162 4.54964E-01
 -1      3163 8.20478E+00
 -1      3164 1.00275E+01
 -1      3165 3.09095E-01
 -1      3166 3.14973E-01
 -1      3167 2.44875E-01
 -1      3168 5.99863E+00
 -1      3169 7.70241E+00
 -1      3170 5.19410E+00
 -1      3171 3.23074E-01
 -1      3172 3.15159E-01
 -1      3173 1.18000E+01
 -1      3174 9.88657E+00
 -1      3175 4.29143E+00
 -1      3176 5.08480E+00
 -1      3177 7.28761E-01
 -1      3178 7.48978E-01
 -1      3179 1.02799E+01
 -1      3180 1.26652E+01
 -1      3181 1.02317E+01
 -1      3182 1.24686E+01
 -1      3183 1.15576E+01
 -1      3184 3.08545E+00
 -1      3185 2.88644E+00
 -1      3186 2.94902E+00
 -1      3187 3.60948E+00
 -1      3188 2.57058E+00
 -1      3189 8.59090E+00
 -1      3190 3.81754E+00
 -1      3191 4.05192E+00
 -1      3192 3.29648E+00
 -1      3193 3.11750E-01
 -1      3194 3.11917E-01
 -1      3195 2.84673E-01
 -1      3196 3.44878E-01
 -1      3197 2.34561E+00
 -1      3198 2.42809E+00
 -1      3199 1.80754E+00
 -1      3200 5.14042E+00
 -1      3201 3.97780E+00
 -1      3202 3.59162E+00
 -1      3203 3.79969E+00
 -1      3204 4.71485E+00
 -1      3205 1.50396E+00
 -1      3206 2.96972E-01
 -1      3207 2.97479E-01
 -1      3208 2.53237E-01
 -1      3209 2.72925E-01
 -1      3210 8.25399E+00
 -1      3211 5.22223E+00
 -1      3212 3.38509E+00
 -1      3213 5.15845E+00
 -1      3214 6.35009E-01
 -1      3215 7.48589E-01
 -1      3216 5.62607E-01
 -1      3217 1.05506E+01
 -1      3218 7.79744E+00
 -1      3219 7.55504E+00
 -1      3220 4.82184E+00
 -1      3221 3.89864E+00
 -1      3222 4.03298E+00
 -1      3223 8.23110E+00
 -1      3224 3.20524E-01
 -1      3225 3.30992E-01
 -1      3226 2.13651E-01
 -1      3227 2.37538E-01
 -1      3228 2.61623E-01
 -1      3229 1.03433E+00
 -1      3230 5.99771E-01
 -1      3231 5.30688E-01
 -1      3232 5.60368E-01
 -1      3233 2.91389E+00
 -1      3234 2.33644E+00
 -1      3235 3.23214E-01
 -1      3236 3.23214E-01
 -1      3237 2.62984E-01
 -1      3238 3.89449E-01
 -1      3239 8.85228E+00
 -1      3240 4.13994E+00
 -1      3241 4.60969E+00
 -1      3242 3.16361E+00
 -1      3243 7.88829E+00
 -1      3244 5.69009E+00
 -1      3245 7.04861E+00
 -1      3246 6.75204E+00
 -1      3247 3.19410E-01
 -1      3248 3.25306E-01
 -1      3249 3.23074E-01
 -1      3250 2.88082E-01
 -1      3251 2.85989E-01
 -1      3252 2.37635E-01
 -1      3253 3.18496E-01
 -1      3254 2.92005E+00
 -1      3255 3.23368E-01
 -1      3256 3.23904E-01
 -1      3257 2.85635E-01
 -1      3258 3.61130E+00
 -1      3259 2.86228E+00
 -1      3260 4.76645E+00
 -1      3261 8.61298E-02
 -1      3262 9.67417E-02
 -1      3263 3.53925E+00
 -1      3264 3.29925E+00
 -1      3265 1.52989E+00
 -1      3266 1.85285E-01
 -1      3267 1.94311E-01
 -1      3268 2.08402E-01
 -1      3269 2.04439E-01
 -1      3270 1.57549E-01
 -1      3271 2.07037E-01
 -1      3272 1.96216E-01
 -1      3273 1.74238E-01
 -1      3274 1.91933E-01
 -1      3275 1.78067E-01
 -1      3276 1.72553E-01
 -1      3277 1.69912E-01
 -1      3278 1.57888E-01
 -1      3279 1.60114E-01
 -1      3280 1.47918E-01
 -1      3281 1.37161E-01
 -1      3282 1.41989E-01
 -1      3283 1.29471E-01
 -1      3284 1.18192E-01
 -1      3285 1.24329E-01
 -1      3286 1.09740E-01
 -1      3287 9.87803E-02
 -1      3288 1.08188E-01
 -1      3289 9.01814E-02
 -1      3290 7.99699E-02
 -1      3291 9.11370E-02
 -1      3292 7.16715E-02
 -1      3293 6.23596E-02
 -1      3294 7.42398E-02
 -1      3295 5.45450E-02
 -1      3296 4.60991E-02
 -1      3297 5.81267E-02
 -1      3298 3.87571E-02
 -1      3299 3.10322E-02
 -1      3300 4.29700E-02
 -1      3301 2.63251E-02
 -1      3302 1.96507E-02
 -1      3303 3.09209E-02
 -1      3304 1.74714E-02
 -1      3305 1.89076E-02
 -1      3306 2.40346E-02
 -1      3307 2.23127E-02
 -1      3308 2.85272E-02
 -1      3309 2.52605E-02
 -1      3310 3.49412E-02
 -1      3311 4.06472E-02
 -1      3312 3.50796E-02
 -1      3313 5.04459E-02
 -1      3314 5.95261E-02
 -1      3315 5.12923E-02
 -1      3316 7.23378E-02
 -1      3317 8.93182E-02
 -1      3318 7.39027E-02
 -1      3319 1.10400E-01
 -1      3320 1.34589E-01
 -1      3321 1.07796E-01
 -1      3322 1.72209E-01
 -1      3323 2.04118E-01
 -1      3324 1.66498E-01
 -1      3325 2.52604E-01
 -1      3326 3.01091E-01
 -1      3327 2.52604E-01
 -1      3328 3.57486E-01
 -1      3329 4.31403E-01
 -1      3330 3.57486E-01
 -1      3331 5.14060E-01
 -1      3332 6.03053E-01
 -1      3333 4.96539E-01
 -1      3334 6.94301E-01
 -1      3335 7.85504E-01
 -1      3336 6.70443E-01
 -1      3337 8.92986E-01
 -1      3338 9.76655E-01
 -1      3339 8.69173E-01
 -1      3340 1.11301E+00
 -1      3341 1.18914E+00
 -1      3342 1.11301E+00
 -1      3343 1.24894E+00
 -1      3344 1.28096E+00
 -1      3345 1.30918E+00
 -1      3346 1.30371E+00
 -1      3347 1.37110E+00
 -1      3348 1.39173E+00
 -1      3349 1.65231E+00
 -1      3350 1.78269E+00
 -1      3351 1.69568E+00
 -1      3352 1.90461E+00
 -1      3353 1.85324E+00
 -1      3354 2.09882E+00
 -1      3355 2.26227E+00
 -1      3356 2.26015E+00
 -1      3357 2.62978E+00
 -1      3358 1.71962E+00
 -1      3359 1.73791E+00
 -1      3360 2.49827E+00
 -1      3361 1.55342E+00
 -1      3362 1.45472E+00
 -1      3363 1.77325E+00
 -1      3364 1.36892E+00
 -1      3365 1.30583E+00
 -1      3366 1.50296E+00
 -1      3367 1.29062E+00
 -1      3368 1.26086E+00
 -1      3369 1.40195E+00
 -1      3370 1.13629E+00
 -1      3371 1.04932E+00
 -1      3372 1.26218E+00
 -1      3373 9.61027E-01
 -1      3374 8.87488E-01
 -1      3375 1.04932E+00
 -1      3376 7.78169E-01
 -1      3377 6.90238E-01
 -1      3378 8.51708E-01
 -1      3379 6.63954E-01
 -1      3380 5.79085E-01
 -1      3381 7.16105E-01
 -1      3382 4.23467E-01
 -1      3383 3.52828E-01
 -1      3384 3.43381E-01
 -1      3385 5.34203E-01
 -1      3386 3.15793E-01
 -1      3387 3.23368E-01
 -1      3388 2.89016E-01
 -1      3389 1.05559E-01
 -1      3390 1.16874E-01
 -1      3391 9.70898E-02
 -1      3392 1.45417E-01
 -1      3393 1.56227E-01
 -1      3394 6.78487E-02
 -1      3395 7.75733E-02
 -1      3396 7.97164E-02
 -1      3397 5.09489E-02
 -1      3398 5.98269E-02
 -1      3399 6.31381E-02
 -1      3400 3.55696E-02
 -1      3401 4.36765E-02
 -1      3402 4.78439E-02
 -1      3403 3.35178E-02
 -1      3404 3.40463E-02
 -1      3405 3.90483E-02
 -1      3406 4.30561E-02
 -1      3407 3.56801E-02
 -1      3408 3.96874E-02
 -1      3409 6.80308E-02
 -1      3410 5.10121E-02
 -1      3411 4.98057E-02
 -1      3412 1.08655E-01
 -1      3413 8.40268E-02
 -1      3414 7.37577E-02
 -1      3415 1.64912E-01
 -1      3416 1.29612E-01
 -1      3417 1.10711E-01
 -1      3418 2.45378E-01
 -1      3419 1.94327E-01
 -1      3420 1.61083E-01
 -1      3421 3.73790E-01
 -1      3422 2.99775E-01
 -1      3423 2.44895E-01
 -1      3424 5.64205E-01
 -1      3425 4.57032E-01
 -1      3426 3.82533E-01
 -1      3427 7.99952E-01
 -1      3428 6.68682E-01
 -1      3429 5.70252E-01
 -1      3430 1.25323E+00
 -1      3431 9.88297E-01
 -1      3432 8.63073E-01
 -1      3433 1.98831E+00
 -1      3434 1.52372E+00
 -1      3435 1.32191E+00
 -1      3436 3.45397E+00
 -1      3437 2.70450E+00
 -1      3438 2.30860E+00
 -1      3439 5.29682E+00
 -1      3440 4.07142E+00
 -1      3441 3.64224E+00
 -1      3442 1.66196E-01
 -1      3443 1.79943E-01
 -1      3444 1.49936E-01
 -1      3445 2.80349E+00
 -1      3446 2.10608E+00
 -1      3447 2.54304E+00
 -1      3448 9.15700E+00
 -1      3449 6.33395E+00
 -1      3450 5.29682E+00
 -1      3451 7.40868E+00
 -1      3452 6.38208E-01
 -1      3453 6.75120E-01
 -1      3454 7.41240E+00
 -1      3455 7.66473E+00
 -1      3456 6.75120E-01
 -1      3457 6.96550E-01
 -1      3458 8.43916E-01
 -1      3459 3.05520E+00
 -1      3460 3.29472E+00
 -1      3461 2.27119E+00
 -1      3462 2.33377E+00
 -1      3463 2.28692E-01
 -1      3464 2.33128E-01
 -1      3465 2.54041E-01
 -1      3466 2.69759E-01
 -1      3467 1.25393E-01
 -1      3468 1.36907E-01
 -1      3469 1.14426E-01
 -1      3470 2.03360E-01
 -1      3471 1.88285E-01
 -1      3472 1.46458E-01
 -1      3473 2.15856E-01
 -1      3474 2.40368E-01
 -1      3475 3.48041E+00
 -1      3476 5.65180E+00
 -1      3477 1.10505E+00
 -1      3478 1.29704E+00
 -1      3479 1.60062E+00
 -1      3480 5.38470E+00
 -1      3481 6.61143E+00
 -1      3482 4.46908E+00
 -1      3483 2.03712E+00
 -1      3484 2.20869E+00
 -1      3485 1.97188E+00
 -1      3486 2.57207E+00
 -1      3487 2.70899E+00
 -1      3488 3.35033E+00
 -1      3489 6.04506E+00
 -1      3490 1.01023E+00
 -1      3491 1.27295E+00
 -1      3492 9.16482E-01
 -1      3493 2.38622E-01
 -1      3494 4.98755E+00
 -1      3495 3.81616E+00
 -1      3496 4.34779E+00
 -1      3497 1.31456E-01
 -1      3498 1.67606E-01
 -1      3499 1.87644E-01
 -1      3500 2.01313E-01
 -1      3501 2.85139E-01
 -1      3502 6.52597E-01
 -1      3503 7.70810E+00
 -1      3504 6.70105E+00
 -1      3505 3.69362E+00
 -1      3506 3.41823E+00
 -1      3507 3.36305E+00
 -1      3508 6.58999E+00
 -1      3509 2.37495E-01
 -1      3510 2.21312E-01
 -1      3511 8.30185E-01
 -1      3512 6.82820E-01
 -1      3513 7.33406E-01
 -1      3514 4.05543E-01
 -1      3515 2.53159E-01
 -1      3516 2.53159E-01
 -1      3517 2.83688E+00
 -1      3518 2.83512E+00
 -1      3519 2.48891E+00
 -1      3520 2.33377E+00
 -1      3521 2.63316E+00
 -1      3522 3.16361E+00
 -1      3523 6.11251E-01
 -1      3524 3.53925E+00
 -1      3525 3.03881E+00
 -1      3526 3.39820E+00
 -1      3527 2.41117E-01
 -1      3528 1.74718E-01
 -1      3529 2.44498E-01
 -1      3530 6.80458E+00
 -1      3531 4.80630E+00
 -1      3532 5.55513E+00
 -1      3533 5.39611E+00
 -1      3534 7.10981E+00
 -1      3535 7.99829E+00
 -1      3536 1.97833E+00
 -1      3537 3.29825E+00
 -1      3538 2.69628E+00
 -1      3539 2.48523E+00
 -1      3540 1.98742E+00
 -1      3541 2.58204E+00
 -1      3542 3.03974E+00
 -1      3543 1.75457E+00
 -1      3544 2.34182E-01
 -1      3545 2.57763E-01
 -1      3546 2.54354E-01
 -1      3547 2.22841E-01
 -1      3548 2.57598E-01
 -1      3549 2.57598E-01
 -1      3550 2.13080E-01
 -1      3551 5.65170E-02
 -1      3552 6.45388E-02
 -1      3553 5.29682E+00
 -1      3554 4.25969E+00
 -1      3555 5.55286E+00
 -1      3556 1.47334E-01
 -1      3557 1.49932E-01
 -1      3558 1.54799E-01
 -1      3559 1.50516E-01
 -1      3560 1.27895E-01
 -1      3561 1.49410E-01
 -1      3562 1.41254E-01
 -1      3563 1.31656E-01
 -1      3564 1.36395E-01
 -1      3565 1.26425E-01
 -1      3566 1.25691E-01
 -1      3567 1.19520E-01
 -1      3568 1.11831E-01
 -1      3569 1.13927E-01
 -1      3570 1.04774E-01
 -1      3571 9.63222E-02
 -1      3572 9.99652E-02
 -1      3573 8.99126E-02
 -1      3574 8.13138E-02
 -1      3575 8.64990E-02
 -1      3576 7.46430E-02
 -1      3577 6.63446E-02
 -1      3578 7.34186E-02
 -1      3579 5.97793E-02
 -1      3580 5.19646E-02
 -1      3581 6.01825E-02
 -1      3582 4.56285E-02
 -1      3583 3.82865E-02
 -1      3584 4.72811E-02
 -1      3585 3.62603E-02
 -1      3586 3.15532E-02
 -1      3587 3.89187E-02
 -1      3588 2.99617E-02
 -1      3589 2.77824E-02
 -1      3590 3.53010E-02
 -1      3591 2.73586E-02
 -1      3592 3.07637E-02
 -1      3593 3.32857E-02
 -1      3594 3.72583E-02
 -1      3595 4.36723E-02
 -1      3596 3.93565E-02
 -1      3597 5.13671E-02
 -1      3598 6.11658E-02
 -1      3599 5.35458E-02
 -1      3600 7.68531E-02
 -1      3601 8.96648E-02
 -1      3602 7.69280E-02
 -1      3603 1.11975E-01
 -1      3604 1.33057E-01
 -1      3605 1.14926E-01
 -1      3606 1.60819E-01
 -1      3607 1.98440E-01
 -1      3608 1.64999E-01
 -1      3609 2.37688E-01
 -1      3610 2.86174E-01
 -1      3611 2.32009E-01
 -1      3612 3.53853E-01
 -1      3613 4.10249E-01
 -1      3614 3.38937E-01
 -1      3615 4.96539E-01
 -1      3616 5.79196E-01
 -1      3617 4.92906E-01
 -1      3618 6.72232E-01
 -1      3619 7.63480E-01
 -1      3620 6.72232E-01
 -1      3621 9.02529E-01
 -1      3622 1.01001E+00
 -1      3623 9.04317E-01
 -1      3624 1.11301E+00
 -1      3625 1.24937E+00
 -1      3626 1.14637E+00
 -1      3627 1.30918E+00
 -1      3628 1.36898E+00
 -1      3629 1.30918E+00
 -1      3630 1.55206E+00
 -1      3631 1.57480E+00
 -1      3632 1.55206E+00
 -1      3633 2.50785E+00
 -1      3634 2.62978E+00
 -1      3635 3.03881E+00
 -1      3636 2.64298E+00
 -1      3637 2.10244E+00
 -1      3638 2.50558E+00
 -1      3639 2.32110E+00
 -1      3640 2.65029E+00
 -1      3641 2.10278E+00
 -1      3642 2.01698E+00
 -1      3643 2.83512E+00
 -1      3644 1.69712E+00
 -1      3645 1.68191E+00
 -1      3646 2.29694E+00
 -1      3647 1.47096E+00
 -1      3648 1.34640E+00
 -1      3649 1.76613E+00
 -1      3650 1.29515E+00
 -1      3651 1.20685E+00
 -1      3652 1.50392E+00
 -1      3653 9.14588E-01
 -1      3654 8.05269E-01
 -1      3655 1.16041E+00
 -1      3656 7.34668E-01
 -1      3657 7.08384E-01
 -1      3658 7.97548E-01
 -1      3659 7.66869E-01
 -1      3660 4.31748E-02
 -1      3661 5.04472E-02
 -1      3662 5.18479E-02
 -1      3663 8.65156E-02
 -1      3664 9.53324E-02
 -1      3665 7.11732E-02
 -1      3666 7.97297E-02
 -1      3667 7.79723E-02
 -1      3668 6.45521E-02
 -1      3669 4.00651E-02
 -1      3670 4.15884E-02
 -1      3671 4.41917E-02
 -1      3672 4.28514E-02
 -1      3673 4.06890E-02
 -1      3674 4.32291E-02
 -1      3675 5.56718E-02
 -1      3676 4.77158E-02
 -1      3677 4.87175E-02
 -1      3678 8.23237E-02
 -1      3679 6.63277E-02
 -1      3680 6.42378E-02
 -1      3681 1.19887E-01
 -1      3682 9.89292E-02
 -1      3683 9.14992E-02
 -1      3684 1.74231E-01
 -1      3685 1.44816E-01
 -1      3686 1.33034E-01
 -1      3687 2.64817E-01
 -1      3688 2.10421E-01
 -1      3689 1.94153E-01
 -1      3690 3.98607E-01
 -1      3691 3.15365E-01
 -1      3692 2.80891E-01
 -1      3693 5.75078E-01
 -1      3694 4.70602E-01
 -1      3695 4.03433E-01
 -1      3696 9.19927E-01
 -1      3697 7.31582E-01
 -1      3698 6.31933E-01
 -1      3699 1.43142E+00
 -1      3700 1.16093E+00
 -1      3701 1.02944E+00
 -1      3702 2.45078E+00
 -1      3703 1.73459E+00
 -1      3704 1.57361E+00
 -1      3705 3.64224E+00
 -1      3706 3.02479E+00
 -1      3707 2.45078E+00
 -1      3708 3.64224E+00
 -1      3709 1.33123E-01
 -1      3710 1.43092E-01
 -1      3711 2.54354E-01
 -1      3712 2.58230E-01
 -1      3713 2.26812E-01
 -1      3714 2.27444E-01
 -1      3715 1.55692E-01
 -1      3716 1.58565E-01
 -1      3717 7.85432E-01
 -1      3718 7.43210E-01
 -1      3719 7.45450E-01
 -1      3720 1.00709E+00
 -1      3721 8.26259E-01
 -1      3722 2.56133E-01
 -1      3723 1.01775E-01
 -1      3724 1.10295E-01
 -1      3725 9.12011E-02
 -1      3726 4.25763E+00
 -1      3727 5.71563E+00
 -1      3728 5.56258E+00
 -1      3729 2.37212E-01
 -1      3730 2.21470E-01
 -1      3731 3.53141E+00
 -1      3732 4.30643E+00
 -1      3733 3.00096E+00
 -1      3734 1.19091E-01
 -1      3735 1.33183E-01
 -1      3736 1.08876E-01
 -1      3737 2.25910E-01
 -1      3738 4.91798E+00
 -1      3739 5.71895E+00
 -1      3740 1.82225E+00
 -1      3741 1.88475E+00
 -1      3742 1.17892E-01
 -1      3743 1.26403E-01
 -1      3744 1.19560E-01
 -1      3745 1.05242E-01
 -1      3746 1.26663E-01
 -1      3747 1.23663E-01
 -1      3748 9.92967E-02
 -1      3749 1.51924E-01
 -1      3750 8.43916E-01
 -1      3751 8.43916E-01
 -1      3752 7.85432E-01
 -1      3753 1.98720E+00
 -1      3754 1.91825E+00
 -1      3755 3.05343E+00
 -1      3756 3.35033E+00
 -1      3757 4.56972E+00
 -1      3758 1.29836E-01
 -1      3759 1.46649E-01
 -1      3760 1.54350E-01
 -1      3761 1.99904E-01
 -1      3762 4.15301E+00
 -1      3763 3.45048E+00
 -1      3764 3.90898E+00
 -1      3765 1.83113E+00
 -1      3766 1.67080E+00
 -1      3767 1.95201E+00
 -1      3768 2.48297E+00
 -1      3769 2.54639E+00
 -1      3770 3.44475E+00
 -1      3771 3.76428E+00
 -1      3772 3.05884E+00
 -1      3773 8.48252E-01
 -1      3774 8.34521E-01
 -1      3775 8.48252E-01
 -1      3776 1.82225E+00
 -1      3777 3.25863E+00
 -1      3778 3.42953E+00
 -1      3779 2.74072E+00
 -1      3780 2.24185E-01
 -1      3781 2.56133E-01
 -1      3782 2.16905E+00
 -1      3783 2.29694E+00
 -1      3784 2.61680E+00
 -1      3785 2.83512E+00
 -1      3786 2.18414E+00
 -1      3787 4.42578E+00
 -1      3788 1.60339E+00
 -1      3789 1.99019E+00
 -1      3790 2.39521E+00
 -1      3791 1.50857E+00
 -1      3792 3.98031E+00
 -1      3793 2.29326E+00
 -1      3794 1.66581E-01
 -1      3795 1.63551E-01
 -1      3796 1.88072E-01
 -1      3797 1.92676E-01
 -1      3798 1.00803E-01
 -1      3799 2.43316E+00
 -1      3800 2.80096E+00
 -1      3801 1.75954E-01
 -1      3802 1.62854E-01
 -1      3803 1.14798E-01
 -1      3804 1.16323E-01
 -1      3805 1.15217E-01
 -1      3806 1.15182E-01
 -1      3807 1.10322E-01
 -1      3808 9.98479E-02
 -1      3809 1.07223E-01
 -1      3810 1.00318E-01
 -1      3811 9.67135E-02
 -1      3812 9.54231E-02
 -1      3813 8.83665E-02
 -1      3814 8.87192E-02
 -1      3815 8.26078E-02
 -1      3816 7.61982E-02
 -1      3817 7.80656E-02
 -1      3818 7.06430E-02
 -1      3819 6.39722E-02
 -1      3820 6.67518E-02
 -1      3821 5.93107E-02
 -1      3822 5.27454E-02
 -1      3823 5.65351E-02
 -1      3824 5.04698E-02
 -1      3825 4.41336E-02
 -1      3826 4.95980E-02
 -1      3827 4.25241E-02
 -1      3828 4.04979E-02
 -1      3829 4.57128E-02
 -1      3830 3.96264E-02
 -1      3831 3.80348E-02
 -1      3832 4.32317E-02
 -1      3833 3.82216E-02
 -1      3834 3.77978E-02
 -1      3835 4.25470E-02
 -1      3836 3.96590E-02
 -1      3837 4.61536E-02
 -1      3838 4.45950E-02
 -1      3839 5.56815E-02
 -1      3840 6.33762E-02
 -1      3841 5.59840E-02
 -1      3842 7.64916E-02
 -1      3843 9.21789E-02
 -1      3844 7.86272E-02
 -1      3845 1.11910E-01
 -1      3846 1.34220E-01
 -1      3847 1.11474E-01
 -1      3848 1.71004E-01
 -1      3849 1.98766E-01
 -1      3850 1.67988E-01
 -1      3851 2.48406E-01
 -1      3852 2.87654E-01
 -1      3853 2.54411E-01
 -1      3854 3.48033E-01
 -1      3855 4.15713E-01
 -1      3856 3.64430E-01
 -1      3857 4.85542E-01
 -1      3858 5.71831E-01
 -1      3859 4.94638E-01
 -1      3860 6.79264E-01
 -1      3861 7.72300E-01
 -1      3862 6.71899E-01
 -1      3863 9.74537E-01
 -1      3864 1.11359E+00
 -1      3865 9.81568E-01
 -1      3866 1.34638E+00
 -1      3867 1.44938E+00
 -1      3868 1.41660E+00
 -1      3869 1.74127E+00
 -1      3870 1.80108E+00
 -1      3871 1.57907E-01
 -1      3872 1.92676E-01
 -1      3873 1.92676E-01
 -1      3874 2.29694E+00
 -1      3875 1.97708E+00
 -1      3876 1.76613E+00
 -1      3877 1.48147E+00
 -1      3878 1.18921E+00
 -1      3879 9.19759E-01
 -1      3880 8.49158E-01
 -1      3881 9.07643E-01
 -1      3882 1.24082E+00
 -1      3883 4.43705E-02
 -1      3884 4.37465E-02
 -1      3885 5.26690E-02
 -1      3886 4.78046E-02
 -1      3887 4.83220E-02
 -1      3888 1.63060E-01
 -1      3889 1.87657E-01
 -1      3890 1.29738E-01
 -1      3891 1.42104E-01
 -1      3892 7.03580E-02
 -1      3893 5.97021E-02
 -1      3894 5.87892E-02
 -1      3895 9.75331E-02
 -1      3896 8.09276E-02
 -1      3897 7.63919E-02
 -1      3898 1.37376E-01
 -1      3899 1.12447E-01
 -1      3900 1.01876E-01
 -1      3901 1.94153E-01
 -1      3902 1.57963E-01
 -1      3903 1.37376E-01
 -1      3904 2.92509E-01
 -1      3905 2.41962E-01
 -1      3906 2.05772E-01
 -1      3907 4.33473E-01
 -1      3908 3.61477E-01
 -1      3909 3.22548E-01
 -1      3910 6.89693E-01
 -1      3911 5.33189E-01
 -1      3912 4.91233E-01
 -1      3913 1.06579E+00
 -1      3914 8.24786E-01
 -1      3915 7.26042E-01
 -1      3916 1.57361E+00
 -1      3917 1.27044E+00
 -1      3918 1.06579E+00
 -1      3919 3.06615E+00
 -1      3920 1.95921E+00
 -1      3921 1.74826E+00
 -1      3922 1.69701E+00
 -1      3923 2.27539E+00
 -1      3924 1.58565E-01
 -1      3925 2.95217E+00
 -1      3926 3.56373E+00
 -1      3927 2.21211E-01
 -1      3928 1.91046E-01
 -1      3929 1.98415E+00
 -1      3930 8.06338E-02
 -1      3931 8.70767E-02
 -1      3932 4.35621E-02
 -1      3933 4.51486E-02
 -1      3934 4.47035E-02
 -1      3935 4.70314E-02
 -1      3936 5.31012E-02
 -1      3937 4.64019E-02
 -1      3938 8.09601E-02
 -1      3939 9.51113E-02
 -1      3940 1.73513E+00
 -1      3941 3.88198E+00
 -1      3942 3.71589E+00
 -1      3943 3.09844E+00
 -1      3944 2.66301E+00
 -1      3945 1.06594E-01
 -1      3946 1.11462E-01
 -1      3947 7.86783E-02
 -1      3948 3.67411E+00
 -1      3949 3.66666E+00
 -1      3950 3.01338E+00
 -1      3951 2.86123E+00
 -1      3952 2.64298E+00
 -1      3953 1.55206E+00
 -1      3954 1.14092E-01
 -1      3955 1.17649E-01
 -1      3956 2.40667E+00
 -1      3957 9.50222E-02
 -1      3958 3.03881E+00
 -1      3959 1.00085E+00
 -1      3960 1.17188E+00
 -1      3961 1.50232E+00
 -1      3962 1.72581E+00
 -1      3963 5.14922E-02
 -1      3964 5.63086E-02
 -1      3965 6.29431E-02
 -1      3966 1.39526E+00
 -1      3967 1.33153E+00
 -1      3968 1.33587E+00
 -1      3969 6.79232E-02
 -1      3970 7.47090E-02
 -1      3971 7.05846E-02
 -1      3972 5.96798E-02
 -1      3973 1.99801E+00
 -1      3974 1.69485E+00
 -1      3975 2.57202E+00
 -1      3976 1.88124E-01
 -1      3977 1.87492E-01
 -1      3978 1.37266E-01
 -1      3979 1.53355E-01
 -1      3980 2.38438E+00
 -1      3981 1.25426E-01
 -1      3982 3.00900E+00
 -1      3983 2.62237E+00
 -1      3984 2.81422E+00
 -1      3985 2.85384E+00
 -1      3986 1.17713E+00
 -1      3987 1.18693E+00
 -1      3988 1.35171E+00
 -1      3989 1.19519E+00
 -1      3990 9.29154E-02
 -1      3991 1.00513E-01
 -1      3992 8.23481E-02
 -1      3993 9.70325E-02
 -1      3994 9.24608E-02
 -1      3995 7.86959E-02
 -1      3996 1.07962E-01
 -1      3997 1.26723E-01
 -1      3998 1.26723E-01
 -1      3999 1.15549E-01
 -1      4000 9.44726E-02
 -1      4001 1.05019E-01
 -1      4002 1.11739E-01
 -1      4003 9.95510E-02
 -1      4004 9.26922E-02
 -1      4005 1.33284E-01
 -1      4006 1.02100E-01
 -1      4007 8.79113E-02
 -1      4008 2.27947E+00
 -1      4009 1.81415E+00
 -1      4010 1.59861E+00
 -1      4011 2.02985E+00
 -1      4012 9.74771E-02
 -1      4013 1.28661E-01
 -1      4014 1.24110E-01
 -1      4015 1.94128E+00
 -1      4016 8.65512E-02
 -1      4017 8.34518E-02
 -1      4018 8.82097E-02
 -1      4019 8.33148E-02
 -1      4020 7.80473E-02
 -1      4021 7.59020E-02
 -1      4022 7.01433E-02
 -1      4023 7.53924E-02
 -1      4024 6.76768E-02
 -1      4025 6.21216E-02
 -1      4026 6.55131E-02
 -1      4027 5.92808E-02
 -1      4028 5.46193E-02
 -1      4029 6.02059E-02
 -1      4030 5.18737E-02
 -1      4031 4.95980E-02
 -1      4032 5.46193E-02
 -1      4033 4.73223E-02
 -1      4034 4.57128E-02
 -1      4035 4.95980E-02
 -1      4036 4.43376E-02
 -1      4037 4.34660E-02
 -1      4038 4.59471E-02
 -1      4039 4.47176E-02
 -1      4040 4.49044E-02
 -1      4041 4.58235E-02
 -1      4042 4.85739E-02
 -1      4043 5.04351E-02
 -1      4044 5.07446E-02
 -1      4045 5.87557E-02
 -1      4046 6.82836E-02
 -1      4047 6.27347E-02
 -1      4048 8.48305E-02
 -1      4049 9.79459E-02
 -1      4050 8.76022E-02
 -1      4051 1.23093E-01
 -1      4052 1.42824E-01
 -1      4053 1.29296E-01
 -1      4054 1.79237E-01
 -1      4055 2.16020E-01
 -1      4056 1.90856E-01
 -1      4057 2.62728E-01
 -1      4058 3.12368E-01
 -1      4059 2.73978E-01
 -1      4060 3.90597E-01
 -1      4061 4.50976E-01
 -1      4062 3.98915E-01
 -1      4063 5.62019E-01
 -1      4064 6.31848E-01
 -1      4065 5.88186E-01
 -1      4066 7.91922E-01
 -1      4067 8.99355E-01
 -1      4068 8.59303E-01
 -1      4069 1.05647E+00
 -1      4070 1.25871E+00
 -1      4071 1.17650E+00
 -1      4072 1.52884E+00
 -1      4073 1.76163E+00
 -1      4074 2.05352E+00
 -1      4075 1.60375E+00
 -1      4076 2.20473E+00
 -1      4077 7.90084E-02
 -1      4078 6.84387E-02
 -1      4079 4.94156E-02
 -1      4080 4.59815E-02
 -1      4081 1.20722E-01
 -1      4082 1.29433E-01
 -1      4083 9.41677E-02
 -1      4084 1.04978E-01
 -1      4085 1.56203E-01
 -1      4086 1.35616E-01
 -1      4087 2.40425E-01
 -1      4088 1.92616E-01
 -1      4089 1.90856E-01
 -1      4090 3.56101E-01
 -1      4091 2.87133E-01
 -1      4092 2.73978E-01
 -1      4093 5.18480E-01
 -1      4094 4.18764E-01
 -1      4095 3.83349E-01
 -1      4096 7.40968E-01
 -1      4097 6.05875E-01
 -1      4098 5.33407E-01
 -1      4099 1.09180E+00
 -1      4100 8.87142E-01
 -1      4101 7.66976E-01
 -1      4102 7.77536E-02
 -1      4103 8.26143E-02
 -1      4104 4.65373E-02
 -1      4105 4.84201E-02
 -1      4106 6.94296E-02
 -1      4107 7.70573E-02
 -1      4108 6.01182E-02
 -1      4109 5.30851E-02
 -1      4110 5.07446E-02
 -1      4111 1.97774E+00
 -1      4112 2.53393E+00
 -1      4113 1.64105E+00
 -1      4114 2.20473E+00
 -1      4115 2.52298E+00
 -1      4116 4.50540E-02
 -1      4117 4.48696E-02
 -1      4118 4.68878E-02
 -1      4119 4.61476E-02
 -1      4120 1.10469E-01
 -1      4121 9.55553E-02
 -1      4122 1.29296E-01
 -1      4123 2.64567E+00
 -1      4124 8.64266E-02
 -1      4125 8.63916E-02
 -1      4126 7.31298E-02
 -1      4127 6.28854E-02
 -1      4128 7.43685E-02
 -1      4129 1.66471E+00
 -1      4130 1.99657E+00
 -1      4131 6.19607E-02
 -1      4132 6.27347E-02
 -1      4133 8.77396E-02
 -1      4134 9.08132E-02
 -1      4135 1.87388E+00
 -1      4136 8.76022E-02
 -1      4137 7.96573E-02
 -1      4138 8.54960E-02
 -1      4139 5.03084E-02
 -1      4140 5.35158E-02
 -1      4141 5.04437E-02
 -1      4142 2.12478E+00
 -1      4143 1.64151E+00
 -1      4144 1.98411E+00
 -1      4145 8.26595E-02
 -1      4146 6.87754E-02
 -1      4147 5.79214E-02
 -1      4148 6.54210E-02
 -1      4149 6.91580E-02
 -1      4150 1.33871E+00
 -1      4151 1.16006E+00
 -1      4152 1.76311E+00
 -1      4153 2.44376E+00
 -1      4154 1.24110E-01
 -1      4155 1.12571E-01
 -1      4156 9.48059E-02
 -1      4157 9.94152E-02
 -1      4158 7.01367E-02
 -1      4159 7.32846E-02
 -1      4160 6.42120E-02
 -1      4161 2.84306E+00
 -1      4162 2.40158E+00
 -1      4163 2.60074E+00
 -1      4164 7.89954E-02
 -1      4165 1.75305E+00
 -1      4166 8.61513E-02
 -1      4167 8.85048E-02
 -1      4168 7.43399E-02
 -1      4169 8.33052E-02
 -1      4170 7.96596E-02
 -1      4171 8.44175E-02
 -1      4172 1.29296E-01
 -1      4173 1.04149E-01
 -1      4174 8.28052E-02
 -1      4175 7.53924E-02
 -1      4176 6.58718E-02
 -1      4177 6.34054E-02
 -1      4178 5.48485E-02
 -1      4179 5.21028E-02
 -1      4180 5.02146E-02
 -1      4181 4.79389E-02
 -1      4182 4.62712E-02
 -1      4183 4.48960E-02
 -1      4184 4.58235E-02
 -1      4185 4.70751E-02
 -1      4186 5.07446E-02
 -1      4187 5.44141E-02
 -1      4188 6.27347E-02
 -1      4189 7.10552E-02
 -1      4190 8.76022E-02
 -1      4191 1.54443E-01
 -1      4192 1.90856E-01
 -1      4193 2.27270E-01
 -1      4194 2.73978E-01
 -1      4195 3.20686E-01
 -1      4196 3.83349E-01
 -1      4197 4.61578E-01
 -1      4198 5.48973E-01
 -1      4199 6.60015E-01
 -1      4200 8.06189E-01
 -1      4201 9.66264E-01
 -1      4202 1.21318E+00
 -1      4203 1.37029E+00
 -1      4204 1.60375E+00
 -1      4205 6.13065E-02
 -1      4206 2.09594E+00
 -1      4207 8.44175E-02
 -1      4208 8.71083E-02
 -1      4209 1.64042E+00
 -1      4210 8.33052E-02
 -1      4211 5.61361E-02
 -1      4212 6.11162E-02
 -1      4213 6.06683E-02
 -1      4214 5.49523E-02
 -1      4215 6.94602E-02
 -1      4216 7.32725E-02
 -1      4217 2.27344E+00
 -1      4218 7.40377E-02
 -1      4219 7.41973E-02
 -1      4220 9.16137E-02
 -1      4221 1.82713E+00
 -1      4222 6.03096E-02
 -1      4223 5.74688E-02
 -1      4224 8.05675E-02
 -3
 9999
